# sigma_xx, sigma_yy, sigma_xy, epsilon_xx, epsilon_yy, epsilon_xy, vonMises, epsPlastic, hardening, epsilonP__xx, epsilonP__yy, epsilonP__xy, yieldValue, iteration
   0.00000,   0.00000,   0.00000,   0.00000,   0.00000,   0.00000,1181185.37500,   0.00000,274640576.00000,   0.00000,   0.00000,   0.00000,-473459392.00000,   0.00000
   0.00000,   0.00000,   0.00000,   0.00000,   0.00000,   0.00000,1181185.37500,   0.00000,274640576.00000,   0.00000,   0.00000,   0.00000,-473459392.00000,   0.00000
-1133725.58335,725910.62531,-925739.95475,  -0.00001,   0.00001,  -0.00001,1482884.87500,   0.00000,274640576.00000,   0.00000,   0.00000,   0.00000,-473157696.00000,   0.00000
-2253177.64318,1457938.47500,-1843323.61035,  -0.00001,   0.00001,  -0.00002,4389211.00000,   0.00000,274640576.00000,   0.00000,   0.00000,   0.00000,-470251360.00000,   0.00000
-3401176.75006,2177731.87594,-2760907.26594,  -0.00002,   0.00002,  -0.00004,6800340.00000,   0.00000,274640576.00000,   0.00000,   0.00000,   0.00000,-467840240.00000,   0.00000
-4547136.78216,2875095.45419,-3670334.62237,  -0.00003,   0.00002,  -0.00005,9034843.00000,   0.00000,274640576.00000,   0.00000,   0.00000,   0.00000,-465605728.00000,   0.00000
-5701253.11341,3580615.33160,-4579761.97880,  -0.00003,   0.00003,  -0.00006,11310443.00000,   0.00000,274640576.00000,   0.00000,   0.00000,   0.00000,-463330128.00000,   0.00000
-6853330.36988,4263705.38632,-5481033.03607,  -0.00004,   0.00003,  -0.00007,13561625.00000,   0.00000,274640576.00000,   0.00000,   0.00000,   0.00000,-461078944.00000,   0.00000
-8013563.92550,4954951.74020,-6382304.09334,  -0.00005,   0.00004,  -0.00008,15811014.00000,   0.00000,274640576.00000,   0.00000,   0.00000,   0.00000,-458829568.00000,   0.00000
-9200305.45340,5611533.82264,-7275418.85145,  -0.00005,   0.00004,  -0.00009,18055004.00000,   0.00000,274640576.00000,   0.00000,   0.00000,   0.00000,-456585568.00000,   0.00000
-10366656.23340,6288506.65299,-8164455.45998,  -0.00006,   0.00005,  -0.00011,20300420.00000,   0.00000,274640576.00000,   0.00000,   0.00000,   0.00000,-454340160.00000,   0.00000
-11559514.98567,6930815.21191,-9053492.06851,  -0.00007,   0.00005,  -0.00012,22553974.00000,   0.00000,274640576.00000,   0.00000,   0.00000,   0.00000,-452086608.00000,   0.00000
-12752373.73794,7573123.77082,-9934372.37788,  -0.00007,   0.00006,  -0.00013,24797344.00000,   0.00000,274640576.00000,   0.00000,   0.00000,   0.00000,-449843232.00000,   0.00000
-13945232.49021,8215432.32973,-10811174.53767,  -0.00008,   0.00006,  -0.00014,27028898.00000,   0.00000,274640576.00000,   0.00000,   0.00000,   0.00000,-447611680.00000,   0.00000
-15144208.46685,8843467.36512,-11683898.54787,  -0.00009,   0.00007,  -0.00015,29242434.00000,   0.00000,274640576.00000,   0.00000,   0.00000,   0.00000,-445398144.00000,   0.00000
-16357457.96702,9465385.17613,-12552544.40850,  -0.00009,   0.00007,  -0.00016,31447182.00000,   0.00000,274640576.00000,   0.00000,   0.00000,   0.00000,-443193392.00000,   0.00000
-17576824.69156,10073029.46361,-13417112.11955,  -0.00010,   0.00008,  -0.00017,33633660.00000,   0.00000,274640576.00000,   0.00000,   0.00000,   0.00000,-441006912.00000,   0.00000
-18802308.64048,10666400.22756,-14277601.68101,  -0.00011,   0.00009,  -0.00019,35804160.00000,   0.00000,274640576.00000,   0.00000,   0.00000,   0.00000,-438836416.00000,   0.00000
-20021675.36502,11274044.51504,-15134013.09290,  -0.00011,   0.00009,  -0.00020,37967828.00000,   0.00000,274640576.00000,   0.00000,   0.00000,   0.00000,-436672752.00000,   0.00000
-21253276.53830,11853141.75546,-15982268.20562,  -0.00012,   0.00010,  -0.00021,40114452.00000,   0.00000,274640576.00000,   0.00000,   0.00000,   0.00000,-434526128.00000,   0.00000
-22499151.23512,12426121.77151,-16830523.31835,  -0.00013,   0.00010,  -0.00022,42269480.00000,   0.00000,274640576.00000,   0.00000,   0.00000,   0.00000,-432371104.00000,   0.00000
-23730752.40840,13005219.01193,-17674700.28149,  -0.00013,   0.00011,  -0.00023,44417120.00000,   0.00000,274640576.00000,   0.00000,   0.00000,   0.00000,-430223456.00000,   0.00000
-24982744.32959,13563925.50444,-18510720.94548,  -0.00014,   0.00011,  -0.00024,46566048.00000,   0.00000,274640576.00000,   0.00000,   0.00000,   0.00000,-428074528.00000,   0.00000
-26240853.47514,14108358.47343,-19342663.45988,  -0.00015,   0.00012,  -0.00025,48715376.00000,   0.00000,274640576.00000,   0.00000,   0.00000,   0.00000,-425925200.00000,   0.00000
-27507118.91986,14660947.74157,-20174605.97429,  -0.00015,   0.00012,  -0.00026,50884156.00000,   0.00000,274640576.00000,   0.00000,   0.00000,   0.00000,-423756416.00000,   0.00000
-28771345.28979,15191107.18702,-20998392.18953,  -0.00016,   0.00013,  -0.00027,53039584.00000,   0.00000,274640576.00000,   0.00000,   0.00000,   0.00000,-421600992.00000,   0.00000
-30049845.18325,15715149.40811,-21818100.25519,  -0.00017,   0.00013,  -0.00028,55206496.00000,   0.00000,274640576.00000,   0.00000,   0.00000,   0.00000,-419434080.00000,   0.00000
-31314071.55317,16245308.85356,-22633730.17127,  -0.00017,   0.00013,  -0.00029,57369752.00000,   0.00000,274640576.00000,   0.00000,   0.00000,   0.00000,-417270816.00000,   0.00000
-32598688.67100,16755077.55111,-23445281.93777,  -0.00018,   0.00014,  -0.00030,59539248.00000,   0.00000,274640576.00000,   0.00000,   0.00000,   0.00000,-415101328.00000,   0.00000
-33883305.78883,17264846.24866,-24252755.55469,  -0.00019,   0.00014,  -0.00032,61709432.00000,   0.00000,274640576.00000,   0.00000,   0.00000,   0.00000,-412931136.00000,   0.00000
-35174040.13103,17760341.42268,-25052072.87245,  -0.00019,   0.00015,  -0.00033,63870764.00000,   0.00000,274640576.00000,   0.00000,   0.00000,   0.00000,-410769808.00000,   0.00000
-36479047.99676,18249719.37233,-25851390.19022,  -0.00020,   0.00015,  -0.00034,66041392.00000,   0.00000,274640576.00000,   0.00000,   0.00000,   0.00000,-408599184.00000,   0.00000
-37775899.56333,18730941.02282,-26646629.35839,  -0.00021,   0.00016,  -0.00035,68197280.00000,   0.00000,274640576.00000,   0.00000,   0.00000,   0.00000,-406443296.00000,   0.00000
-39087024.65343,19206045.44894,-27433712.22741,  -0.00022,   0.00016,  -0.00036,70349656.00000,   0.00000,274640576.00000,   0.00000,   0.00000,   0.00000,-404290912.00000,   0.00000
-40389993.44437,19672993.57589,-28216716.94685,  -0.00022,   0.00017,  -0.00037,72484552.00000,   0.00000,274640576.00000,   0.00000,   0.00000,   0.00000,-402156032.00000,   0.00000
-41707235.75885,20133824.47848,-28999721.66629,  -0.00023,   0.00017,  -0.00038,74623152.00000,   0.00000,274640576.00000,   0.00000,   0.00000,   0.00000,-400017424.00000,   0.00000
-43030595.29769,20580381.85754,-29774570.08657,  -0.00024,   0.00018,  -0.00039,76744640.00000,   0.00000,274640576.00000,   0.00000,   0.00000,   0.00000,-397895936.00000,   0.00000
-44353954.83653,21026939.23659,-30545340.35727,  -0.00024,   0.00018,  -0.00040,78856608.00000,   0.00000,274640576.00000,   0.00000,   0.00000,   0.00000,-395783968.00000,   0.00000
-45677314.37538,21473496.61565,-31312032.47838,  -0.00025,   0.00019,  -0.00041,80958888.00000,   0.00000,274640576.00000,   0.00000,   0.00000,   0.00000,-393681696.00000,   0.00000
-47027181.88649,21885389.72327,-32074646.44992,  -0.00026,   0.00019,  -0.00042,83051688.00000,   0.00000,274640576.00000,   0.00000,   0.00000,   0.00000,-391588896.00000,   0.00000
-48356658.64970,22317673.57879,-32829104.12230,  -0.00026,   0.00020,  -0.00043,85126624.00000,   0.00000,274640576.00000,   0.00000,   0.00000,   0.00000,-389513952.00000,   0.00000
-49706526.16082,22729566.68641,-33583561.79467,  -0.00027,   0.00020,  -0.00044,87200672.00000,   0.00000,274640576.00000,   0.00000,   0.00000,   0.00000,-387439904.00000,   0.00000
-51042120.14840,23147577.01840,-34329863.16789,  -0.00028,   0.00020,  -0.00045,89254544.00000,   0.00000,274640576.00000,   0.00000,   0.00000,   0.00000,-385386032.00000,   0.00000
-52398104.88389,23545196.60249,-35076164.54110,  -0.00028,   0.00021,  -0.00046,91308744.00000,   0.00000,274640576.00000,   0.00000,   0.00000,   0.00000,-383331840.00000,   0.00000
-53754089.61938,23942816.18658,-35814309.61516,  -0.00029,   0.00021,  -0.00047,93350952.00000,   0.00000,274640576.00000,   0.00000,   0.00000,   0.00000,-381289632.00000,   0.00000
-55116191.57923,24326162.24714,-36548376.53963,  -0.00030,   0.00022,  -0.00048,95383152.00000,   0.00000,274640576.00000,   0.00000,   0.00000,   0.00000,-379257424.00000,   0.00000
-56478293.53909,24709508.30770,-37278365.31452,  -0.00031,   0.00022,  -0.00048,97409520.00000,   0.00000,274640576.00000,   0.00000,   0.00000,   0.00000,-377231056.00000,   0.00000
-57846512.72332,25078580.84473,-38004275.93984,  -0.00031,   0.00023,  -0.00049,99427264.00000,   0.00000,274640576.00000,   0.00000,   0.00000,   0.00000,-375213312.00000,   0.00000
-59214731.90754,25447653.38175,-38726108.41557,  -0.00032,   0.00023,  -0.00050,101440264.00000,   0.00000,274640576.00000,   0.00000,   0.00000,   0.00000,-373200320.00000,   0.00000
-60582951.09177,25816725.91878,-39439784.59214,  -0.00033,   0.00024,  -0.00051,103444288.00000,   0.00000,274640576.00000,   0.00000,   0.00000,   0.00000,-371196288.00000,   0.00000
-61971561.02390,26165407.70791,-40153460.76871,  -0.00033,   0.00024,  -0.00052,105452768.00000,   0.00000,274640576.00000,   0.00000,   0.00000,   0.00000,-369187808.00000,   0.00000
-63352014.65687,26505933.19787,-40858980.64612,  -0.00034,   0.00024,  -0.00053,107442432.00000,   0.00000,274640576.00000,   0.00000,   0.00000,   0.00000,-367198144.00000,   0.00000
-64732468.28984,26846458.68783,-41564500.52353,  -0.00035,   0.00025,  -0.00054,109433272.00000,   0.00000,274640576.00000,   0.00000,   0.00000,   0.00000,-365207296.00000,   0.00000
-66127195.44634,27180866.95343,-42261864.10178,  -0.00035,   0.00025,  -0.00055,111422800.00000,   0.00000,274640576.00000,   0.00000,   0.00000,   0.00000,-363217776.00000,   0.00000
-67521922.60284,27515275.21902,-42955149.53045,  -0.00036,   0.00026,  -0.00056,113408528.00000,   0.00000,274640576.00000,   0.00000,   0.00000,   0.00000,-361232048.00000,   0.00000
-68908493.46018,27841527.18545,-43644356.80954,  -0.00037,   0.00026,  -0.00057,115379976.00000,   0.00000,274640576.00000,   0.00000,   0.00000,   0.00000,-359260608.00000,   0.00000
-70315455.06542,28147388.40399,-44329485.93905,  -0.00037,   0.00027,  -0.00058,117350824.00000,   0.00000,274640576.00000,   0.00000,   0.00000,   0.00000,-357289760.00000,   0.00000
-71722416.67066,28453249.62252,-45006458.76940,  -0.00038,   0.00027,  -0.00059,119312392.00000,   0.00000,274640576.00000,   0.00000,   0.00000,   0.00000,-355328192.00000,   0.00000
-73115104.75237,28765228.06542,-45683431.59975,  -0.00039,   0.00027,  -0.00059,121266360.00000,   0.00000,274640576.00000,   0.00000,   0.00000,   0.00000,-353374208.00000,   0.00000
-74528183.58198,29056815.76042,-46356326.28051,  -0.00040,   0.00028,  -0.00060,123218512.00000,   0.00000,274640576.00000,   0.00000,   0.00000,   0.00000,-351422064.00000,   0.00000
-75941262.41159,29348403.45542,-47021064.66212,  -0.00040,   0.00028,  -0.00061,125159912.00000,   0.00000,274640576.00000,   0.00000,   0.00000,   0.00000,-349480672.00000,   0.00000
-77360458.46558,29625717.62688,-47681724.89415,  -0.00041,   0.00029,  -0.00062,127091568.00000,   0.00000,274640576.00000,   0.00000,   0.00000,   0.00000,-347549008.00000,   0.00000
-78779654.51956,29903031.79835,-48338306.97659,  -0.00042,   0.00029,  -0.00063,129016288.00000,   0.00000,274640576.00000,   0.00000,   0.00000,   0.00000,-345624288.00000,   0.00000
-80198850.57354,30180345.96982,-48990810.90946,  -0.00042,   0.00029,  -0.00064,130933624.00000,   0.00000,274640576.00000,   0.00000,   0.00000,   0.00000,-343706944.00000,   0.00000
-81624163.85189,30443386.61776,-49639236.69274,  -0.00043,   0.00030,  -0.00065,132840024.00000,   0.00000,274640576.00000,   0.00000,   0.00000,   0.00000,-341800544.00000,   0.00000
-83049477.13025,30706427.26569,-50283584.32645,  -0.00044,   0.00030,  -0.00065,134738576.00000,   0.00000,274640576.00000,   0.00000,   0.00000,   0.00000,-339902000.00000,   0.00000
-84480907.63297,30955194.39010,-50923853.81057,  -0.00044,   0.00031,  -0.00066,136625936.00000,   0.00000,274640576.00000,   0.00000,   0.00000,   0.00000,-338014640.00000,   0.00000
-85912338.13569,31203961.51450,-51555966.99554,  -0.00045,   0.00031,  -0.00067,138500784.00000,   0.00000,274640576.00000,   0.00000,   0.00000,   0.00000,-336139792.00000,   0.00000
-87343768.63842,31452728.63891,-52184002.03092,  -0.00046,   0.00031,  -0.00068,140367872.00000,   0.00000,274640576.00000,   0.00000,   0.00000,   0.00000,-334272704.00000,   0.00000
-88781316.36551,31687222.23978,-52812037.06630,  -0.00047,   0.00032,  -0.00069,142228816.00000,   0.00000,274640576.00000,   0.00000,   0.00000,   0.00000,-332411760.00000,   0.00000
-90218864.09261,31921715.84065,-53431915.80252,  -0.00047,   0.00032,  -0.00069,144078192.00000,   0.00000,274640576.00000,   0.00000,   0.00000,   0.00000,-330562384.00000,   0.00000
-91662529.04407,32141935.91800,-54047716.38917,  -0.00048,   0.00032,  -0.00070,145918096.00000,   0.00000,274640576.00000,   0.00000,   0.00000,   0.00000,-328722480.00000,   0.00000
-93106193.99554,32362155.99534,-54659438.82623,  -0.00049,   0.00033,  -0.00071,147752560.00000,   0.00000,274640576.00000,   0.00000,   0.00000,   0.00000,-326888016.00000,   0.00000
-94549858.94700,32582376.07268,-55267083.11371,  -0.00049,   0.00033,  -0.00072,149582624.00000,   0.00000,274640576.00000,   0.00000,   0.00000,   0.00000,-325057952.00000,   0.00000
-95999641.12284,32788322.62649,-55866571.10203,  -0.00050,   0.00034,  -0.00073,151401712.00000,   0.00000,274640576.00000,   0.00000,   0.00000,   0.00000,-323238864.00000,   0.00000
-97449423.29867,32994269.18030,-56466059.09035,  -0.00051,   0.00034,  -0.00073,153223232.00000,   0.00000,274640576.00000,   0.00000,   0.00000,   0.00000,-321417344.00000,   0.00000
-98905322.69888,33185942.21058,-57061468.92909,  -0.00051,   0.00034,  -0.00074,155040880.00000,   0.00000,274640576.00000,   0.00000,   0.00000,   0.00000,-319599696.00000,   0.00000
-100346948.57555,33383732.46523,-57648722.46867,  -0.00052,   0.00035,  -0.00075,156847312.00000,   0.00000,274640576.00000,   0.00000,   0.00000,   0.00000,-317793264.00000,   0.00000
-101802847.97576,33575405.49551,-58231897.85867,  -0.00053,   0.00035,  -0.00076,158662432.00000,   0.00000,274640576.00000,   0.00000,   0.00000,   0.00000,-315978144.00000,   0.00000
-103264864.60034,33752805.00226,-58810995.09908,  -0.00054,   0.00035,  -0.00076,160476800.00000,   0.00000,274640576.00000,   0.00000,   0.00000,   0.00000,-314163776.00000,   0.00000
-104726881.22491,33930204.50901,-59386014.18992,  -0.00054,   0.00036,  -0.00077,162293584.00000,   0.00000,274640576.00000,   0.00000,   0.00000,   0.00000,-312346992.00000,   0.00000
-106195015.07386,34093330.49222,-59956955.13118,  -0.00055,   0.00036,  -0.00078,164109792.00000,   0.00000,274640576.00000,   0.00000,   0.00000,   0.00000,-310530784.00000,   0.00000
-107657031.69844,34270729.99897,-60523817.92286,  -0.00056,   0.00037,  -0.00079,165930192.00000,   0.00000,274640576.00000,   0.00000,   0.00000,   0.00000,-308710384.00000,   0.00000
-109117009.24822,34425699.68303,-61086602.56495,  -0.00056,   0.00037,  -0.00079,167737328.00000,   0.00000,274640576.00000,   0.00000,   0.00000,   0.00000,-306903248.00000,   0.00000
-110585143.09717,34588825.66624,-61641230.90789,  -0.00057,   0.00037,  -0.00080,169548912.00000,   0.00000,274640576.00000,   0.00000,   0.00000,   0.00000,-305091664.00000,   0.00000
-112045120.64696,34743795.35030,-62195859.25082,  -0.00058,   0.00038,  -0.00081,171350928.00000,   0.00000,274640576.00000,   0.00000,   0.00000,   0.00000,-303289648.00000,   0.00000
-113525488.94465,34878374.28645,-62742331.29460,  -0.00058,   0.00038,  -0.00082,173148384.00000,   0.00000,274640576.00000,   0.00000,   0.00000,   0.00000,-301492192.00000,   0.00000
-114985466.49443,35033343.97051,-63288803.33837,  -0.00059,   0.00038,  -0.00082,174938672.00000,   0.00000,274640576.00000,   0.00000,   0.00000,   0.00000,-299701904.00000,   0.00000
-116465834.79212,35167922.90666,-63827119.08299,  -0.00060,   0.00039,  -0.00083,176722224.00000,   0.00000,274640576.00000,   0.00000,   0.00000,   0.00000,-297918352.00000,   0.00000
-117938046.79065,35294345.54365,-64361356.67802,  -0.00061,   0.00039,  -0.00084,178487296.00000,   0.00000,274640576.00000,   0.00000,   0.00000,   0.00000,-296153280.00000,   0.00000
-119410258.78918,35420768.18065,-64891516.12347,  -0.00061,   0.00039,  -0.00084,180244480.00000,   0.00000,274640576.00000,   0.00000,   0.00000,   0.00000,-294396096.00000,   0.00000
-120896744.31124,35541073.59327,-65417597.41935,  -0.00062,   0.00040,  -0.00085,182002080.00000,   0.00000,274640576.00000,   0.00000,   0.00000,   0.00000,-292638496.00000,   0.00000
-122368956.30976,35667496.23026,-65939600.56564,  -0.00063,   0.00040,  -0.00086,183745184.00000,   0.00000,274640576.00000,   0.00000,   0.00000,   0.00000,-290895392.00000,   0.00000
-123847285.53266,35779645.34372,-66453447.41277,  -0.00063,   0.00040,  -0.00086,185475296.00000,   0.00000,274640576.00000,   0.00000,   0.00000,   0.00000,-289165280.00000,   0.00000
-125325614.75556,35891794.45718,-66967294.25990,  -0.00064,   0.00041,  -0.00087,187204624.00000,   0.00000,274640576.00000,   0.00000,   0.00000,   0.00000,-287435952.00000,   0.00000
-126795787.67930,35995787.27148,-67472984.80787,  -0.00065,   0.00041,  -0.00088,188915024.00000,   0.00000,274640576.00000,   0.00000,   0.00000,   0.00000,-285725552.00000,   0.00000
-128280234.12657,36093662.86141,-67978675.35584,  -0.00065,   0.00041,  -0.00088,190633872.00000,   0.00000,274640576.00000,   0.00000,   0.00000,   0.00000,-284006704.00000,   0.00000
-129764680.57384,36191538.45134,-68476209.60465,  -0.00066,   0.00042,  -0.00089,192345536.00000,   0.00000,274640576.00000,   0.00000,   0.00000,   0.00000,-282295040.00000,   0.00000
-131240970.72194,36281257.74211,-68969665.70388,  -0.00067,   0.00042,  -0.00090,194044240.00000,   0.00000,274640576.00000,   0.00000,   0.00000,   0.00000,-280596336.00000,   0.00000
-132731534.39358,36364859.80851,-69463121.80311,  -0.00067,   0.00042,  -0.00090,195752832.00000,   0.00000,274640576.00000,   0.00000,   0.00000,   0.00000,-278887744.00000,   0.00000
-134207824.54169,36454579.09928,-69948421.60318,  -0.00068,   0.00043,  -0.00091,197447456.00000,   0.00000,274640576.00000,   0.00000,   0.00000,   0.00000,-277193120.00000,   0.00000
-135690231.91417,36530024.86652,-70429643.25367,  -0.00069,   0.00043,  -0.00092,199137344.00000,   0.00000,274640576.00000,   0.00000,   0.00000,   0.00000,-275503232.00000,   0.00000
-137186912.81018,36599353.40938,-70906786.75458,  -0.00070,   0.00043,  -0.00092,200833136.00000,   0.00000,274640576.00000,   0.00000,   0.00000,   0.00000,-273807440.00000,   0.00000
-138669320.18266,36674799.17662,-71375773.95633,  -0.00070,   0.00044,  -0.00093,202514720.00000,   0.00000,274640576.00000,   0.00000,   0.00000,   0.00000,-272125856.00000,   0.00000
-140143571.25598,36742088.64470,-71844761.15807,  -0.00071,   0.00044,  -0.00093,204187728.00000,   0.00000,274640576.00000,   0.00000,   0.00000,   0.00000,-270452848.00000,   0.00000
-141632095.85283,36803260.88840,-72309670.21024,  -0.00072,   0.00044,  -0.00094,205866080.00000,   0.00000,274640576.00000,   0.00000,   0.00000,   0.00000,-268774496.00000,   0.00000
-143120620.44968,36864433.13211,-72770501.11283,  -0.00072,   0.00045,  -0.00095,207541712.00000,   0.00000,274640576.00000,   0.00000,   0.00000,   0.00000,-267098864.00000,   0.00000
-144600988.74737,36917449.07666,-73223175.71625,  -0.00073,   0.00045,  -0.00095,209199408.00000,   0.00000,274640576.00000,   0.00000,   0.00000,   0.00000,-265441168.00000,   0.00000
-146095630.56859,36964347.79683,-73675850.31968,  -0.00074,   0.00045,  -0.00096,210866048.00000,   0.00000,274640576.00000,   0.00000,   0.00000,   0.00000,-263774528.00000,   0.00000
-147575998.86627,37017363.74138,-74120368.62394,  -0.00074,   0.00046,  -0.00096,212517056.00000,   0.00000,274640576.00000,   0.00000,   0.00000,   0.00000,-262123520.00000,   0.00000
-149062484.38833,37056106.16239,-74560808.77862,  -0.00075,   0.00046,  -0.00097,214161760.00000,   0.00000,274640576.00000,   0.00000,   0.00000,   0.00000,-260478816.00000,   0.00000
-150548969.91039,37094848.58340,-75001248.93331,  -0.00076,   0.00046,  -0.00098,215806896.00000,   0.00000,274640576.00000,   0.00000,   0.00000,   0.00000,-258833680.00000,   0.00000
-152035455.43245,37133591.00442,-75433532.78883,  -0.00076,   0.00047,  -0.00098,217443888.00000,   0.00000,274640576.00000,   0.00000,   0.00000,   0.00000,-257196688.00000,   0.00000
-153513784.65535,37164177.12627,-75861738.49478,  -0.00077,   0.00047,  -0.00099,219066272.00000,   0.00000,274640576.00000,   0.00000,   0.00000,   0.00000,-255574304.00000,   0.00000
-155006387.40178,37188646.02375,-76285866.05114,  -0.00078,   0.00047,  -0.00099,220692800.00000,   0.00000,274640576.00000,   0.00000,   0.00000,   0.00000,-253947776.00000,   0.00000
-156484716.62468,37219232.14561,-76705915.45792,  -0.00078,   0.00047,  -0.00100,222307328.00000,   0.00000,274640576.00000,   0.00000,   0.00000,   0.00000,-252333248.00000,   0.00000
-157969163.07195,37235544.74393,-77121886.71512,  -0.00079,   0.00048,  -0.00100,223915264.00000,   0.00000,274640576.00000,   0.00000,   0.00000,   0.00000,-250725312.00000,   0.00000
-159467883.04275,37245740.11788,-77533779.82274,  -0.00080,   0.00048,  -0.00101,225527728.00000,   0.00000,274640576.00000,   0.00000,   0.00000,   0.00000,-249112848.00000,   0.00000
-160938055.96649,37268169.94057,-77941594.78078,  -0.00080,   0.00048,  -0.00101,227120528.00000,   0.00000,274640576.00000,   0.00000,   0.00000,   0.00000,-247520048.00000,   0.00000
-162428619.63813,37270209.01536,-78345331.58924,  -0.00081,   0.00049,  -0.00102,228715568.00000,   0.00000,274640576.00000,   0.00000,   0.00000,   0.00000,-245925008.00000,   0.00000
-163913066.08539,37286521.61368,-78744990.24812,  -0.00082,   0.00049,  -0.00102,230310192.00000,   0.00000,274640576.00000,   0.00000,   0.00000,   0.00000,-244330384.00000,   0.00000
-165395473.45787,37280404.38931,-79140570.75742,  -0.00083,   0.00049,  -0.00103,231888512.00000,   0.00000,274640576.00000,   0.00000,   0.00000,   0.00000,-242752064.00000,   0.00000
-166871763.60598,37288560.68847,-79527994.96756,  -0.00083,   0.00050,  -0.00103,233462640.00000,   0.00000,274640576.00000,   0.00000,   0.00000,   0.00000,-241177936.00000,   0.00000
-168354170.97846,37282443.46410,-79915419.17770,  -0.00084,   0.00050,  -0.00104,235036000.00000,   0.00000,274640576.00000,   0.00000,   0.00000,   0.00000,-239604576.00000,   0.00000
-169836578.35094,37276326.23973,-80298765.23826,  -0.00085,   0.00050,  -0.00104,236607104.00000,   0.00000,274640576.00000,   0.00000,   0.00000,   0.00000,-238033472.00000,   0.00000
-171310829.42426,37262052.71620,-80678033.14924,  -0.00085,   0.00050,  -0.00105,238165008.00000,   0.00000,274640576.00000,   0.00000,   0.00000,   0.00000,-236475568.00000,   0.00000
-172793236.79674,37255935.49183,-81049144.76106,  -0.00086,   0.00051,  -0.00105,239727008.00000,   0.00000,274640576.00000,   0.00000,   0.00000,   0.00000,-234913568.00000,   0.00000
-174267487.87005,37241661.96830,-81420256.37287,  -0.00087,   0.00051,  -0.00106,241279472.00000,   0.00000,274640576.00000,   0.00000,   0.00000,   0.00000,-233361104.00000,   0.00000
-175747856.16774,37213114.92124,-81783211.68553,  -0.00087,   0.00051,  -0.00106,242821664.00000,   0.00000,274640576.00000,   0.00000,   0.00000,   0.00000,-231818912.00000,   0.00000
-177222107.24106,37198841.39770,-82146166.99819,  -0.00088,   0.00051,  -0.00107,244366048.00000,   0.00000,274640576.00000,   0.00000,   0.00000,   0.00000,-230274528.00000,   0.00000
-178688202.01522,37176411.57501,-82505044.16126,  -0.00089,   0.00052,  -0.00107,245894304.00000,   0.00000,274640576.00000,   0.00000,   0.00000,   0.00000,-228746272.00000,   0.00000
-180174687.53728,37133591.00442,-82855765.02518,  -0.00089,   0.00052,  -0.00108,247419040.00000,   0.00000,274640576.00000,   0.00000,   0.00000,   0.00000,-227221536.00000,   0.00000
-181640782.31143,37111161.18173,-83206485.88909,  -0.00090,   0.00052,  -0.00108,248936304.00000,   0.00000,274640576.00000,   0.00000,   0.00000,   0.00000,-225704272.00000,   0.00000
-183112994.30996,37074457.83550,-83549050.45385,  -0.00091,   0.00053,  -0.00109,250442592.00000,   0.00000,274640576.00000,   0.00000,   0.00000,   0.00000,-224197984.00000,   0.00000
-184570932.78496,37043871.71365,-83891615.01860,  -0.00091,   0.00053,  -0.00109,251941136.00000,   0.00000,274640576.00000,   0.00000,   0.00000,   0.00000,-222699440.00000,   0.00000
-186049262.00786,36992894.84389,-84226023.28420,  -0.00092,   0.00053,  -0.00109,253439136.00000,   0.00000,274640576.00000,   0.00000,   0.00000,   0.00000,-221201440.00000,   0.00000
-187507200.48285,36962308.72204,-84560431.54979,  -0.00093,   0.00053,  -0.00110,254933936.00000,   0.00000,274640576.00000,   0.00000,   0.00000,   0.00000,-219706640.00000,   0.00000
-188977373.40659,36903175.55312,-84886683.51622,  -0.00093,   0.00054,  -0.00110,256419104.00000,   0.00000,274640576.00000,   0.00000,   0.00000,   0.00000,-218221472.00000,   0.00000
-190441429.10596,36858315.90774,-85212935.48265,  -0.00094,   0.00054,  -0.00111,257909936.00000,   0.00000,274640576.00000,   0.00000,   0.00000,   0.00000,-216730640.00000,   0.00000
-191905484.80532,36813456.26236,-85531031.14993,  -0.00094,   0.00054,  -0.00111,259395328.00000,   0.00000,274640576.00000,   0.00000,   0.00000,   0.00000,-215245248.00000,   0.00000
-193361384.20553,36760440.31781,-85849126.81720,  -0.00095,   0.00054,  -0.00112,260870144.00000,   0.00000,274640576.00000,   0.00000,   0.00000,   0.00000,-213770432.00000,   0.00000
-194823400.83011,36693150.84973,-86159066.18531,  -0.00096,   0.00055,  -0.00112,262329872.00000,   0.00000,274640576.00000,   0.00000,   0.00000,   0.00000,-212310704.00000,   0.00000
-196279300.23031,36640134.90519,-86469005.55342,  -0.00096,   0.00055,  -0.00112,263781280.00000,   0.00000,274640576.00000,   0.00000,   0.00000,   0.00000,-210859296.00000,   0.00000
-197741316.85489,36572845.43711,-86774866.77195,  -0.00097,   0.00055,  -0.00113,265214528.00000,   0.00000,274640576.00000,   0.00000,   0.00000,   0.00000,-209426048.00000,   0.00000
-199189059.95594,36511673.19341,-87072571.69132,  -0.00098,   0.00055,  -0.00113,266630624.00000,   0.00000,274640576.00000,   0.00000,   0.00000,   0.00000,-208009952.00000,   0.00000
-200636803.05698,36450500.94970,-87370276.61069,  -0.00098,   0.00056,  -0.00114,268062384.00000,   0.00000,274640576.00000,   0.00000,   0.00000,   0.00000,-206578192.00000,   0.00000
-202090663.38240,36375055.18246,-87663903.38048,  -0.00099,   0.00056,  -0.00114,269511840.00000,   0.00000,274640576.00000,   0.00000,   0.00000,   0.00000,-205128736.00000,   0.00000
-203544523.70781,36299609.41522,-87949373.85111,  -0.00100,   0.00056,  -0.00114,270972032.00000,   0.00000,274640576.00000,   0.00000,   0.00000,   0.00000,-203668544.00000,   0.00000
-204984110.50970,36230280.87236,-88234844.32174,  -0.00100,   0.00056,  -0.00115,272431680.00000,   0.00000,274640576.00000,   0.00000,   0.00000,   0.00000,-202208896.00000,   0.00000
-206429814.53595,36146678.80596,-88516236.64279,  -0.00101,   0.00057,  -0.00115,273885056.00000,   0.00000,274640576.00000,   0.00000,   0.00000,   0.00000,-200755520.00000,   0.00000
-207869401.33784,36077350.26309,-88793550.81425,  -0.00102,   0.00057,  -0.00115,275333088.00000,   0.00000,274640576.00000,   0.00000,   0.00000,   0.00000,-199307488.00000,   0.00000
-209300831.84056,35999865.42106,-89066786.83614,  -0.00102,   0.00057,  -0.00116,276761472.00000,   0.00000,274640576.00000,   0.00000,   0.00000,   0.00000,-197879104.00000,   0.00000
-210738379.56765,35908107.05550,-89335944.70845,  -0.00103,   0.00057,  -0.00116,278179328.00000,   0.00000,274640576.00000,   0.00000,   0.00000,   0.00000,-196461248.00000,   0.00000
-212169810.07038,35830622.21348,-89601024.43117,  -0.00104,   0.00058,  -0.00116,279592192.00000,   0.00000,274640576.00000,   0.00000,   0.00000,   0.00000,-195048384.00000,   0.00000
-213607357.79747,35738863.84792,-89862026.00432,  -0.00104,   0.00058,  -0.00117,280996000.00000,   0.00000,274640576.00000,   0.00000,   0.00000,   0.00000,-193644576.00000,   0.00000
-215030632.00104,35653222.70673,-90118949.42789,  -0.00105,   0.00058,  -0.00117,282384992.00000,   0.00000,274640576.00000,   0.00000,   0.00000,   0.00000,-192255584.00000,   0.00000
-216474296.95250,35547190.81764,-90371794.70187,  -0.00105,   0.00058,  -0.00117,283774752.00000,   0.00000,274640576.00000,   0.00000,   0.00000,   0.00000,-190865824.00000,   0.00000
-217883297.63253,35467666.90082,-90620561.82628,  -0.00106,   0.00059,  -0.00118,285143968.00000,   0.00000,274640576.00000,   0.00000,   0.00000,   0.00000,-189496608.00000,   0.00000
-219312689.06047,35367752.23610,-90865250.80110,  -0.00107,   0.00059,  -0.00118,286514560.00000,   0.00000,274640576.00000,   0.00000,   0.00000,   0.00000,-188126016.00000,   0.00000
-220727806.96487,35273954.79575,-91109939.77593,  -0.00107,   0.00059,  -0.00118,287875552.00000,   0.00000,274640576.00000,   0.00000,   0.00000,   0.00000,-186765024.00000,   0.00000
-222149042.09364,35165883.83187,-91346472.45159,  -0.00108,   0.00059,  -0.00119,289225856.00000,   0.00000,274640576.00000,   0.00000,   0.00000,   0.00000,-185414720.00000,   0.00000
-223570277.22241,35057812.86799,-91583005.12725,  -0.00109,   0.00060,  -0.00119,290575744.00000,   0.00000,274640576.00000,   0.00000,   0.00000,   0.00000,-184064832.00000,   0.00000
-224971121.60328,34970132.65201,-91811381.50376,  -0.00109,   0.00060,  -0.00119,291911168.00000,   0.00000,274640576.00000,   0.00000,   0.00000,   0.00000,-182729408.00000,   0.00000
-226384200.43290,34853905.38897,-92039757.88026,  -0.00110,   0.00060,  -0.00120,293242304.00000,   0.00000,274640576.00000,   0.00000,   0.00000,   0.00000,-181398272.00000,   0.00000
-227791162.03814,34751951.64946,-92264056.10718,  -0.00110,   0.00060,  -0.00120,294572064.00000,   0.00000,274640576.00000,   0.00000,   0.00000,   0.00000,-180068512.00000,   0.00000
-229189967.34422,34641841.61079,-92484276.18452,  -0.00111,   0.00060,  -0.00120,295887680.00000,   0.00000,274640576.00000,   0.00000,   0.00000,   0.00000,-178752896.00000,   0.00000
-230588772.65030,34531731.57212,-92700418.11229,  -0.00112,   0.00061,  -0.00121,297200032.00000,   0.00000,274640576.00000,   0.00000,   0.00000,   0.00000,-177440544.00000,   0.00000
-231987577.95638,34421621.53345,-92912481.89047,  -0.00112,   0.00061,  -0.00121,298509568.00000,   0.00000,274640576.00000,   0.00000,   0.00000,   0.00000,-176131008.00000,   0.00000
-233378226.96330,34303355.19561,-93120467.51907,  -0.00113,   0.00061,  -0.00121,299805472.00000,   0.00000,274640576.00000,   0.00000,   0.00000,   0.00000,-174835104.00000,   0.00000
-234783149.49375,34178971.63341,-93324374.99809,  -0.00113,   0.00061,  -0.00121,301107456.00000,   0.00000,274640576.00000,   0.00000,   0.00000,   0.00000,-173533120.00000,   0.00000
-236159524.97714,34066822.51995,-93528282.47711,  -0.00114,   0.00062,  -0.00122,302392800.00000,   0.00000,274640576.00000,   0.00000,   0.00000,   0.00000,-172247776.00000,   0.00000
-237550173.98406,33948556.18212,-93724033.65697,  -0.00115,   0.00062,  -0.00122,303680672.00000,   0.00000,274640576.00000,   0.00000,   0.00000,   0.00000,-170959904.00000,   0.00000
-238932666.69182,33822133.54513,-93919784.83683,  -0.00115,   0.00062,  -0.00122,304958496.00000,   0.00000,274640576.00000,   0.00000,   0.00000,   0.00000,-169682080.00000,   0.00000
-240315159.39957,33695710.90813,-94107379.71753,  -0.00116,   0.00062,  -0.00122,306229856.00000,   0.00000,274640576.00000,   0.00000,   0.00000,   0.00000,-168410720.00000,   0.00000
-241683378.58380,33575405.49551,-94294974.59823,  -0.00117,   0.00062,  -0.00123,307493440.00000,   0.00000,274640576.00000,   0.00000,   0.00000,   0.00000,-167147136.00000,   0.00000
-243051597.76803,33455100.08289,-94478491.32934,  -0.00117,   0.00063,  -0.00123,308753952.00000,   0.00000,274640576.00000,   0.00000,   0.00000,   0.00000,-165886624.00000,   0.00000
-244425934.17663,33320521.14673,-94657929.91088,  -0.00118,   0.00063,  -0.00123,310009408.00000,   0.00000,274640576.00000,   0.00000,   0.00000,   0.00000,-164631168.00000,   0.00000
-245779879.83732,33206332.95848,-94837368.49242,  -0.00118,   0.00063,  -0.00123,311258720.00000,   0.00000,274640576.00000,   0.00000,   0.00000,   0.00000,-163381856.00000,   0.00000
-247146059.94676,33063597.72317,-95008650.77480,  -0.00119,   0.00063,  -0.00124,312497312.00000,   0.00000,274640576.00000,   0.00000,   0.00000,   0.00000,-162143264.00000,   0.00000
-248506122.83183,32935136.01139,-95175854.90759,  -0.00119,   0.00063,  -0.00124,313734784.00000,   0.00000,274640576.00000,   0.00000,   0.00000,   0.00000,-160905792.00000,   0.00000
-249872302.94126,32792400.77607,-95343059.04039,  -0.00120,   0.00064,  -0.00124,314970976.00000,   0.00000,274640576.00000,   0.00000,   0.00000,   0.00000,-159669600.00000,   0.00000
-251218092.30280,32670056.28866,-95506185.02361,  -0.00121,   0.00064,  -0.00124,316197056.00000,   0.00000,274640576.00000,   0.00000,   0.00000,   0.00000,-158443520.00000,   0.00000
-252555725.36517,32539555.50209,-95665232.85724,  -0.00121,   0.00064,  -0.00124,317409024.00000,   0.00000,274640576.00000,   0.00000,   0.00000,   0.00000,-157231552.00000,   0.00000
-253899475.65192,32394781.19198,-95820202.54130,  -0.00122,   0.00064,  -0.00125,318616032.00000,   0.00000,274640576.00000,   0.00000,   0.00000,   0.00000,-156024544.00000,   0.00000
-255237108.71429,32264280.40541,-95971094.07577,  -0.00122,   0.00064,  -0.00125,319822016.00000,   0.00000,274640576.00000,   0.00000,   0.00000,   0.00000,-154818560.00000,   0.00000
-256580859.00104,32119506.09530,-96121985.61025,  -0.00123,   0.00065,  -0.00125,321026560.00000,   0.00000,274640576.00000,   0.00000,   0.00000,   0.00000,-153614016.00000,   0.00000
-257910335.76425,31980849.00957,-96264720.84556,  -0.00124,   0.00065,  -0.00125,322215456.00000,   0.00000,274640576.00000,   0.00000,   0.00000,   0.00000,-152425120.00000,   0.00000
-259245929.75183,31827918.40031,-96407456.08088,  -0.00124,   0.00065,  -0.00125,323403072.00000,   0.00000,274640576.00000,   0.00000,   0.00000,   0.00000,-151237504.00000,   0.00000
-260561132.99152,31695378.53894,-96546113.16661,  -0.00125,   0.00065,  -0.00126,324580448.00000,   0.00000,274640576.00000,   0.00000,   0.00000,   0.00000,-150060128.00000,   0.00000
-261882453.45557,31548565.15405,-96680692.10277,  -0.00125,   0.00065,  -0.00126,325752992.00000,   0.00000,274640576.00000,   0.00000,   0.00000,   0.00000,-148887584.00000,   0.00000
-263203773.91962,31401751.76915,-96815271.03892,  -0.00126,   0.00066,  -0.00126,326926144.00000,   0.00000,274640576.00000,   0.00000,   0.00000,   0.00000,-147714432.00000,   0.00000
-264510820.86014,31261055.60863,-96941693.67591,  -0.00126,   0.00066,  -0.00126,328083552.00000,   0.00000,274640576.00000,   0.00000,   0.00000,   0.00000,-146557024.00000,   0.00000
-265823985.02503,31106085.92457,-97068116.31290,  -0.00127,   0.00066,  -0.00126,329239776.00000,   0.00000,274640576.00000,   0.00000,   0.00000,   0.00000,-145400800.00000,   0.00000
-267131031.96556,30965389.76405,-97190460.80032,  -0.00128,   0.00066,  -0.00126,330394912.00000,   0.00000,274640576.00000,   0.00000,   0.00000,   0.00000,-144245664.00000,   0.00000
-268429922.60692,30816537.30436,-97308727.13815,  -0.00128,   0.00066,  -0.00127,331536224.00000,   0.00000,274640576.00000,   0.00000,   0.00000,   0.00000,-143104352.00000,   0.00000
-269734930.47265,30653411.32115,-97422915.32640,  -0.00129,   0.00067,  -0.00127,332672704.00000,   0.00000,274640576.00000,   0.00000,   0.00000,   0.00000,-141967872.00000,   0.00000
-271019547.59048,30510676.08583,-97537103.51465,  -0.00129,   0.00067,  -0.00127,333802592.00000,   0.00000,274640576.00000,   0.00000,   0.00000,   0.00000,-140837984.00000,   0.00000
-272310281.93268,30353667.32699,-97643135.40374,  -0.00130,   0.00067,  -0.00127,334924128.00000,   0.00000,274640576.00000,   0.00000,   0.00000,   0.00000,-139716448.00000,   0.00000
-273580625.52697,30217049.31604,-97749167.29283,  -0.00130,   0.00067,  -0.00127,336039200.00000,   0.00000,274640576.00000,   0.00000,   0.00000,   0.00000,-138601376.00000,   0.00000
-274877477.09354,30045767.03367,-97851121.03234,  -0.00131,   0.00067,  -0.00127,337156928.00000,   0.00000,274640576.00000,   0.00000,   0.00000,   0.00000,-137483648.00000,   0.00000
-276139664.38868,29900992.72356,-97953074.77185,  -0.00131,   0.00067,  -0.00127,338258944.00000,   0.00000,274640576.00000,   0.00000,   0.00000,   0.00000,-136381632.00000,   0.00000
-277422242.43172,29735827.66556,-98046872.21220,  -0.00132,   0.00068,  -0.00127,339361952.00000,   0.00000,274640576.00000,   0.00000,   0.00000,   0.00000,-135278624.00000,   0.00000
-278684429.72686,29591053.35545,-98140669.65255,  -0.00133,   0.00068,  -0.00128,340458624.00000,   0.00000,274640576.00000,   0.00000,   0.00000,   0.00000,-134181952.00000,   0.00000
-279938460.72283,29438122.74619,-98230388.94332,  -0.00133,   0.00068,  -0.00128,341541312.00000,   0.00000,274640576.00000,   0.00000,   0.00000,   0.00000,-133099264.00000,   0.00000
-281198608.94318,29270918.61339,-98316030.08451,  -0.00134,   0.00068,  -0.00128,342619680.00000,   0.00000,274640576.00000,   0.00000,   0.00000,   0.00000,-132020896.00000,   0.00000
-282452639.93915,29117988.00412,-98401671.22570,  -0.00134,   0.00068,  -0.00128,343700448.00000,   0.00000,274640576.00000,   0.00000,   0.00000,   0.00000,-130940128.00000,   0.00000
-283698514.63597,28956901.09570,-98479156.06773,  -0.00135,   0.00068,  -0.00128,344764192.00000,   0.00000,274640576.00000,   0.00000,   0.00000,   0.00000,-129876384.00000,   0.00000
-284944389.33278,28795814.18727,-98556640.90975,  -0.00135,   0.00069,  -0.00128,345828672.00000,   0.00000,274640576.00000,   0.00000,   0.00000,   0.00000,-128811904.00000,   0.00000
-286175990.50607,28640844.50322,-98630047.60220,  -0.00136,   0.00069,  -0.00128,346881280.00000,   0.00000,274640576.00000,   0.00000,   0.00000,   0.00000,-127759296.00000,   0.00000
-287407591.67935,28485874.81916,-98703454.29465,  -0.00136,   0.00069,  -0.00128,347934656.00000,   0.00000,274640576.00000,   0.00000,   0.00000,   0.00000,-126705920.00000,   0.00000
-288645310.07701,28316631.61157,-98772782.83752,  -0.00137,   0.00069,  -0.00128,348983712.00000,   0.00000,274640576.00000,   0.00000,   0.00000,   0.00000,-125656864.00000,   0.00000
-289868754.95113,28153505.62836,-98838033.23080,  -0.00137,   0.00069,  -0.00128,350020800.00000,   0.00000,274640576.00000,   0.00000,   0.00000,   0.00000,-124619776.00000,   0.00000
-291092199.82525,27990379.64514,-98899205.47451,  -0.00138,   0.00069,  -0.00129,351055104.00000,   0.00000,274640576.00000,   0.00000,   0.00000,   0.00000,-123585472.00000,   0.00000
-292301371.17584,27833370.88629,-98956299.56863,  -0.00138,   0.00070,  -0.00129,352077440.00000,   0.00000,274640576.00000,   0.00000,   0.00000,   0.00000,-122563136.00000,   0.00000
-293516659.75080,27662088.60392,-99013393.66276,  -0.00139,   0.00070,  -0.00129,353098912.00000,   0.00000,274640576.00000,   0.00000,   0.00000,   0.00000,-121541664.00000,   0.00000
-294711557.57786,27511197.06944,-99066409.60730,  -0.00139,   0.00070,  -0.00129,354109856.00000,   0.00000,274640576.00000,   0.00000,   0.00000,   0.00000,-120530720.00000,   0.00000
-295912572.62930,27346032.01144,-99115347.40227,  -0.00140,   0.00070,  -0.00129,355116640.00000,   0.00000,274640576.00000,   0.00000,   0.00000,   0.00000,-119523936.00000,   0.00000
-297119704.90510,27166593.42990,-99164285.19723,  -0.00140,   0.00070,  -0.00129,356122208.00000,   0.00000,274640576.00000,   0.00000,   0.00000,   0.00000,-118518368.00000,   0.00000
-298306446.43300,27007545.59626,-99209144.84262,  -0.00141,   0.00070,  -0.00129,357117472.00000,   0.00000,274640576.00000,   0.00000,   0.00000,   0.00000,-117523104.00000,   0.00000
-299493187.96089,26848497.76263,-99249926.33842,  -0.00142,   0.00071,  -0.00129,358109952.00000,   0.00000,274640576.00000,   0.00000,   0.00000,   0.00000,-116530624.00000,   0.00000
-300671773.18963,26681293.62983,-99290707.83423,  -0.00142,   0.00071,  -0.00129,359092064.00000,   0.00000,274640576.00000,   0.00000,   0.00000,   0.00000,-115548512.00000,   0.00000
-301836084.89484,26520206.72140,-99323333.03087,  -0.00143,   0.00071,  -0.00129,360058592.00000,   0.00000,274640576.00000,   0.00000,   0.00000,   0.00000,-114581984.00000,   0.00000
-303014670.12358,26353002.58861,-99355958.22751,  -0.00143,   0.00071,  -0.00129,361035296.00000,   0.00000,274640576.00000,   0.00000,   0.00000,   0.00000,-113605280.00000,   0.00000
-304185099.05316,26177642.15665,-99388583.42416,  -0.00144,   0.00071,  -0.00129,362001408.00000,   0.00000,274640576.00000,   0.00000,   0.00000,   0.00000,-112639168.00000,   0.00000
-305341254.45920,26008398.94906,-99413052.32164,  -0.00144,   0.00071,  -0.00129,362952096.00000,   0.00000,274640576.00000,   0.00000,   0.00000,   0.00000,-111688480.00000,   0.00000
-306491292.64088,25853429.26501,-99437521.21912,  -0.00144,   0.00072,  -0.00129,363905088.00000,   0.00000,274640576.00000,   0.00000,   0.00000,   0.00000,-110735488.00000,   0.00000
-307633174.52339,25690303.28179,-99461990.11660,  -0.00145,   0.00072,  -0.00129,364847488.00000,   0.00000,274640576.00000,   0.00000,   0.00000,   0.00000,-109793088.00000,   0.00000
-308781173.63028,25512903.77504,-99478302.71493,  -0.00145,   0.00072,  -0.00129,365782304.00000,   0.00000,274640576.00000,   0.00000,   0.00000,   0.00000,-108858272.00000,   0.00000
-309923055.51279,25349777.79182,-99494615.31325,  -0.00146,   0.00072,  -0.00129,366719520.00000,   0.00000,274640576.00000,   0.00000,   0.00000,   0.00000,-107921056.00000,   0.00000
-311056781.09615,25178495.50945,-99506849.76199,  -0.00146,   0.00072,  -0.00129,367642816.00000,   0.00000,274640576.00000,   0.00000,   0.00000,   0.00000,-106997760.00000,   0.00000
-312190506.67950,25007213.22707,-99519084.21073,  -0.00147,   0.00072,  -0.00129,368566944.00000,   0.00000,274640576.00000,   0.00000,   0.00000,   0.00000,-106073632.00000,   0.00000
-313309958.73932,24842048.16906,-99527240.50989,  -0.00147,   0.00072,  -0.00129,369478848.00000,   0.00000,274640576.00000,   0.00000,   0.00000,   0.00000,-105161728.00000,   0.00000
-314415137.27561,24683000.33543,-99531318.65947,  -0.00148,   0.00073,  -0.00129,370378656.00000,   0.00000,274640576.00000,   0.00000,   0.00000,   0.00000,-104261920.00000,   0.00000
-315540706.55981,24503561.75389,-99535396.80905,  -0.00148,   0.00073,  -0.00129,371286976.00000,   0.00000,274640576.00000,   0.00000,   0.00000,   0.00000,-103353600.00000,   0.00000
-316631611.57256,24350631.14462,-99535396.80905,  -0.00149,   0.00073,  -0.00129,372175360.00000,   0.00000,274640576.00000,   0.00000,   0.00000,   0.00000,-102465216.00000,   0.00000
-317742907.33323,24177309.78746,-99531318.65947,  -0.00149,   0.00073,  -0.00129,373069248.00000,   0.00000,274640576.00000,   0.00000,   0.00000,   0.00000,-101571328.00000,   0.00000
-318831773.27120,24001949.35550,-99527240.50989,  -0.00150,   0.00073,  -0.00129,373942784.00000,   0.00000,274640576.00000,   0.00000,   0.00000,   0.00000,-100697792.00000,   0.00000
-319928795.50833,23834745.22270,-99519084.21073,  -0.00150,   0.00073,  -0.00129,374825280.00000,   0.00000,274640576.00000,   0.00000,   0.00000,   0.00000,-99815296.00000,   0.00000
-320997270.69839,23679775.53865,-99506849.76199,  -0.00151,   0.00073,  -0.00129,375685984.00000,   0.00000,274640576.00000,   0.00000,   0.00000,   0.00000,-98954592.00000,   0.00000
-322086136.63636,23504415.10669,-99494615.31325,  -0.00151,   0.00074,  -0.00129,376555392.00000,   0.00000,274640576.00000,   0.00000,   0.00000,   0.00000,-98085184.00000,   0.00000
-323160729.05080,23335171.89910,-99478302.71493,  -0.00152,   0.00074,  -0.00129,377412704.00000,   0.00000,274640576.00000,   0.00000,   0.00000,   0.00000,-97227872.00000,   0.00000
-324221047.94171,23172045.91589,-99457911.96702,  -0.00152,   0.00074,  -0.00129,378257920.00000,   0.00000,274640576.00000,   0.00000,   0.00000,   0.00000,-96382656.00000,   0.00000
-325281366.83261,23008919.93267,-99437521.21912,  -0.00152,   0.00074,  -0.00129,379103872.00000,   0.00000,274640576.00000,   0.00000,   0.00000,   0.00000,-95536704.00000,   0.00000
-326333529.42436,22837637.65029,-99413052.32164,  -0.00153,   0.00074,  -0.00129,379936032.00000,   0.00000,274640576.00000,   0.00000,   0.00000,   0.00000,-94704544.00000,   0.00000
-327385692.01610,22666355.36792,-99388583.42416,  -0.00153,   0.00074,  -0.00129,380768800.00000,   0.00000,274640576.00000,   0.00000,   0.00000,   0.00000,-93871776.00000,   0.00000
-328437854.60785,22495073.08554,-99360036.37709,  -0.00154,   0.00074,  -0.00129,381599200.00000,   0.00000,274640576.00000,   0.00000,   0.00000,   0.00000,-93041376.00000,   0.00000
-329475743.67606,22329908.02753,-99327411.18045,  -0.00154,   0.00074,  -0.00129,382417376.00000,   0.00000,274640576.00000,   0.00000,   0.00000,   0.00000,-92223200.00000,   0.00000
-330499359.22075,22170860.19390,-99294785.98381,  -0.00155,   0.00075,  -0.00129,383226432.00000,   0.00000,274640576.00000,   0.00000,   0.00000,   0.00000,-91414144.00000,   0.00000
-331529091.98980,21997538.83673,-99258082.63758,  -0.00155,   0.00075,  -0.00129,384031488.00000,   0.00000,274640576.00000,   0.00000,   0.00000,   0.00000,-90609088.00000,   0.00000
-332538434.01095,21844608.22746,-99221379.29136,  -0.00156,   0.00075,  -0.00129,384829056.00000,   0.00000,274640576.00000,   0.00000,   0.00000,   0.00000,-89811520.00000,   0.00000
-333553893.25647,21677404.09467,-99180597.79556,  -0.00156,   0.00075,  -0.00129,385622432.00000,   0.00000,274640576.00000,   0.00000,   0.00000,   0.00000,-89018144.00000,   0.00000
-334569352.50200,21510199.96187,-99135738.15017,  -0.00156,   0.00075,  -0.00129,386413344.00000,   0.00000,274640576.00000,   0.00000,   0.00000,   0.00000,-88227232.00000,   0.00000
-335570538.22399,21349113.05344,-99090878.50479,  -0.00157,   0.00075,  -0.00129,387195136.00000,   0.00000,274640576.00000,   0.00000,   0.00000,   0.00000,-87445440.00000,   0.00000
-336563567.64682,21179869.84586,-99041940.70982,  -0.00157,   0.00075,  -0.00129,387963136.00000,   0.00000,274640576.00000,   0.00000,   0.00000,   0.00000,-86677440.00000,   0.00000
-337556597.06965,21010626.63827,-98993002.91486,  -0.00158,   0.00075,  -0.00129,388731776.00000,   0.00000,274640576.00000,   0.00000,   0.00000,   0.00000,-85908800.00000,   0.00000
-338543509.26810,20855656.95421,-98939986.97031,  -0.00158,   0.00076,  -0.00129,389499424.00000,   0.00000,274640576.00000,   0.00000,   0.00000,   0.00000,-85141152.00000,   0.00000
-339507991.64387,20698648.19537,-98882892.87619,  -0.00159,   0.00076,  -0.00129,390243424.00000,   0.00000,274640576.00000,   0.00000,   0.00000,   0.00000,-84397152.00000,   0.00000
-340492864.76754,20521248.68862,-98825798.78206,  -0.00159,   0.00076,  -0.00128,390996544.00000,   0.00000,274640576.00000,   0.00000,   0.00000,   0.00000,-83644032.00000,   0.00000
-341457347.14331,20364239.92977,-98764626.53835,  -0.00159,   0.00076,  -0.00128,391738880.00000,   0.00000,274640576.00000,   0.00000,   0.00000,   0.00000,-82901696.00000,   0.00000
-342407555.99554,20213348.39530,-98703454.29465,  -0.00160,   0.00076,  -0.00128,392471744.00000,   0.00000,274640576.00000,   0.00000,   0.00000,   0.00000,-82168832.00000,   0.00000
-343363882.07215,20048183.33729,-98638203.90136,  -0.00160,   0.00076,  -0.00128,393201024.00000,   0.00000,274640576.00000,   0.00000,   0.00000,   0.00000,-81439552.00000,   0.00000
-344320208.14875,19883018.27929,-98572953.50808,  -0.00161,   0.00076,  -0.00128,393930944.00000,   0.00000,274640576.00000,   0.00000,   0.00000,   0.00000,-80709632.00000,   0.00000
-345247987.17830,19730087.67002,-98503624.96521,  -0.00161,   0.00076,  -0.00128,394638784.00000,   0.00000,274640576.00000,   0.00000,   0.00000,   0.00000,-80001792.00000,   0.00000
-346196156.95574,19556766.31285,-98430218.27276,  -0.00161,   0.00076,  -0.00128,395352608.00000,   0.00000,274640576.00000,   0.00000,   0.00000,   0.00000,-79287968.00000,   0.00000
-347123935.98529,19403835.70359,-98356811.58031,  -0.00162,   0.00077,  -0.00128,396058880.00000,   0.00000,274640576.00000,   0.00000,   0.00000,   0.00000,-78581696.00000,   0.00000
-348043558.71567,19242748.79516,-98279326.73829,  -0.00162,   0.00077,  -0.00128,396751488.00000,   0.00000,274640576.00000,   0.00000,   0.00000,   0.00000,-77889088.00000,   0.00000
-348963181.44605,19081661.88674,-98201841.89626,  -0.00162,   0.00077,  -0.00128,397444928.00000,   0.00000,274640576.00000,   0.00000,   0.00000,   0.00000,-77195648.00000,   0.00000
-349868530.65290,18926692.20268,-98124357.05423,  -0.00163,   0.00077,  -0.00128,398129024.00000,   0.00000,274640576.00000,   0.00000,   0.00000,   0.00000,-76511552.00000,   0.00000
-350773879.85975,18771722.51862,-98038715.91304,  -0.00163,   0.00077,  -0.00127,398808000.00000,   0.00000,274640576.00000,   0.00000,   0.00000,   0.00000,-75832576.00000,   0.00000
-351664955.54307,18622870.05894,-97957152.92143,  -0.00164,   0.00077,  -0.00127,399480800.00000,   0.00000,274640576.00000,   0.00000,   0.00000,   0.00000,-75159776.00000,   0.00000
-352562148.45076,18459744.07572,-97867433.63066,  -0.00164,   0.00077,  -0.00127,400146976.00000,   0.00000,274640576.00000,   0.00000,   0.00000,   0.00000,-74493600.00000,   0.00000
-353438950.61055,18317008.84041,-97781792.48948,  -0.00164,   0.00077,  -0.00127,400808352.00000,   0.00000,274640576.00000,   0.00000,   0.00000,   0.00000,-73832224.00000,   0.00000
-354321869.99471,18160000.08156,-97687995.04913,  -0.00165,   0.00077,  -0.00127,401463168.00000,   0.00000,274640576.00000,   0.00000,   0.00000,   0.00000,-73177408.00000,   0.00000
-355190515.85534,18009108.54709,-97594197.60878,  -0.00165,   0.00077,  -0.00127,402108768.00000,   0.00000,274640576.00000,   0.00000,   0.00000,   0.00000,-72531808.00000,   0.00000
-356065278.94033,17843943.48908,-97500400.16843,  -0.00165,   0.00078,  -0.00127,402753568.00000,   0.00000,274640576.00000,   0.00000,   0.00000,   0.00000,-71887008.00000,   0.00000
-356919651.27743,17699169.17898,-97402524.57850,  -0.00166,   0.00078,  -0.00127,403387520.00000,   0.00000,274640576.00000,   0.00000,   0.00000,   0.00000,-71253056.00000,   0.00000
-357780140.83890,17540121.34534,-97304648.98857,  -0.00166,   0.00078,  -0.00126,404020704.00000,   0.00000,274640576.00000,   0.00000,   0.00000,   0.00000,-70619872.00000,   0.00000
-358620239.65246,17401464.25961,-97202695.24906,  -0.00167,   0.00078,  -0.00126,404643008.00000,   0.00000,274640576.00000,   0.00000,   0.00000,   0.00000,-69997568.00000,   0.00000
-359452182.16686,17254650.87471,-97096663.35997,  -0.00167,   0.00078,  -0.00126,405251552.00000,   0.00000,274640576.00000,   0.00000,   0.00000,   0.00000,-69389024.00000,   0.00000
-360284124.68127,17107837.48982,-96990631.47088,  -0.00167,   0.00078,  -0.00126,405860544.00000,   0.00000,274640576.00000,   0.00000,   0.00000,   0.00000,-68780032.00000,   0.00000
-361122184.42004,16946750.58139,-96884599.58179,  -0.00168,   0.00078,  -0.00126,406468672.00000,   0.00000,274640576.00000,   0.00000,   0.00000,   0.00000,-68171904.00000,   0.00000
-361939853.41091,16806054.42087,-96774489.54311,  -0.00168,   0.00078,  -0.00126,407065728.00000,   0.00000,274640576.00000,   0.00000,   0.00000,   0.00000,-67574848.00000,   0.00000
-362749366.10262,16657201.96118,-96664379.50444,  -0.00168,   0.00078,  -0.00126,407651904.00000,   0.00000,274640576.00000,   0.00000,   0.00000,   0.00000,-66988672.00000,   0.00000
-363552761.56996,16522623.02503,-96550191.31619,  -0.00169,   0.00078,  -0.00126,408236896.00000,   0.00000,274640576.00000,   0.00000,   0.00000,   0.00000,-66403680.00000,   0.00000
-364362274.26168,16373770.56534,-96436003.12794,  -0.00169,   0.00079,  -0.00125,408820864.00000,   0.00000,274640576.00000,   0.00000,   0.00000,   0.00000,-65819712.00000,   0.00000
-365157513.42986,16231035.33003,-96317736.79011,  -0.00169,   0.00079,  -0.00125,409392320.00000,   0.00000,274640576.00000,   0.00000,   0.00000,   0.00000,-65248256.00000,   0.00000
-365944596.29888,16080143.79555,-96195392.30270,  -0.00170,   0.00079,  -0.00125,409949920.00000,   0.00000,274640576.00000,   0.00000,   0.00000,   0.00000,-64690656.00000,   0.00000
-366725561.94352,15943525.78461,-96077125.96486,  -0.00170,   0.00079,  -0.00125,410512096.00000,   0.00000,274640576.00000,   0.00000,   0.00000,   0.00000,-64128480.00000,   0.00000
-367498371.28901,15798751.47451,-95950703.32787,  -0.00170,   0.00079,  -0.00125,411057504.00000,   0.00000,274640576.00000,   0.00000,   0.00000,   0.00000,-63583072.00000,   0.00000
-368265063.41013,15668250.68793,-95828358.84046,  -0.00171,   0.00079,  -0.00125,411607488.00000,   0.00000,274640576.00000,   0.00000,   0.00000,   0.00000,-63033088.00000,   0.00000
-369023599.23208,15529593.60220,-95697858.05389,  -0.00171,   0.00079,  -0.00124,412140736.00000,   0.00000,274640576.00000,   0.00000,   0.00000,   0.00000,-62499840.00000,   0.00000
-369782135.05404,15390936.51647,-95571435.41689,  -0.00171,   0.00079,  -0.00124,412677376.00000,   0.00000,274640576.00000,   0.00000,   0.00000,   0.00000,-61963200.00000,   0.00000
-370526397.35247,15258396.65510,-95440934.63032,  -0.00172,   0.00079,  -0.00124,413201536.00000,   0.00000,274640576.00000,   0.00000,   0.00000,   0.00000,-61439040.00000,   0.00000
-371276776.87526,15111583.27021,-95306355.69417,  -0.00172,   0.00079,  -0.00124,413721792.00000,   0.00000,274640576.00000,   0.00000,   0.00000,   0.00000,-60918784.00000,   0.00000
-372006765.65015,14985160.63321,-95171776.75801,  -0.00172,   0.00079,  -0.00124,414233952.00000,   0.00000,274640576.00000,   0.00000,   0.00000,   0.00000,-60406624.00000,   0.00000
-372728598.12589,14850581.69706,-95037197.82186,  -0.00172,   0.00079,  -0.00124,414735232.00000,   0.00000,274640576.00000,   0.00000,   0.00000,   0.00000,-59905344.00000,   0.00000
-373450430.60162,14716002.76091,-94898540.73613,  -0.00173,   0.00080,  -0.00123,415234080.00000,   0.00000,274640576.00000,   0.00000,   0.00000,   0.00000,-59406496.00000,   0.00000
-374172263.07735,14581423.82475,-94755805.50081,  -0.00173,   0.00080,  -0.00123,415730656.00000,   0.00000,274640576.00000,   0.00000,   0.00000,   0.00000,-58909920.00000,   0.00000
-374879822.02955,14452962.11297,-94613070.26550,  -0.00173,   0.00080,  -0.00123,416217888.00000,   0.00000,274640576.00000,   0.00000,   0.00000,   0.00000,-58422688.00000,   0.00000
-375573107.45822,14330617.62556,-94470335.03018,  -0.00174,   0.00080,  -0.00123,416695456.00000,   0.00000,274640576.00000,   0.00000,   0.00000,   0.00000,-57945120.00000,   0.00000
-376272510.11126,14193999.61461,-94327599.79487,  -0.00174,   0.00080,  -0.00123,417172352.00000,   0.00000,274640576.00000,   0.00000,   0.00000,   0.00000,-57468224.00000,   0.00000
-376965795.53993,14071655.12720,-94176708.26039,  -0.00174,   0.00080,  -0.00122,417645536.00000,   0.00000,274640576.00000,   0.00000,   0.00000,   0.00000,-56995040.00000,   0.00000
-377650924.66944,13941154.34063,-94029894.87550,  -0.00175,   0.00080,  -0.00122,418110720.00000,   0.00000,274640576.00000,   0.00000,   0.00000,   0.00000,-56529856.00000,   0.00000
-378321780.27542,13816770.77843,-93879003.34102,  -0.00175,   0.00080,  -0.00122,418563744.00000,   0.00000,274640576.00000,   0.00000,   0.00000,   0.00000,-56076832.00000,   0.00000
-378992635.88139,13692387.21622,-93728111.80655,  -0.00175,   0.00080,  -0.00122,419017472.00000,   0.00000,274640576.00000,   0.00000,   0.00000,   0.00000,-55623104.00000,   0.00000
-379649217.96384,13574120.87839,-93573142.12249,  -0.00175,   0.00080,  -0.00122,419459104.00000,   0.00000,274640576.00000,   0.00000,   0.00000,   0.00000,-55181472.00000,   0.00000
-380305800.04629,13455854.54056,-93414094.28886,  -0.00176,   0.00080,  -0.00121,419898816.00000,   0.00000,274640576.00000,   0.00000,   0.00000,   0.00000,-54741760.00000,   0.00000
-380954225.82957,13329431.90357,-93259124.60480,  -0.00176,   0.00080,  -0.00121,420330720.00000,   0.00000,274640576.00000,   0.00000,   0.00000,   0.00000,-54309856.00000,   0.00000
-381596534.38849,13217282.79011,-93100076.77117,  -0.00176,   0.00080,  -0.00121,420762208.00000,   0.00000,274640576.00000,   0.00000,   0.00000,   0.00000,-53878368.00000,   0.00000
-382230686.64824,13096977.37748,-92936950.78795,  -0.00176,   0.00080,  -0.00121,421180704.00000,   0.00000,274640576.00000,   0.00000,   0.00000,   0.00000,-53459872.00000,   0.00000
-382850565.38446,12982789.18923,-92773824.80473,  -0.00177,   0.00081,  -0.00121,421590240.00000,   0.00000,274640576.00000,   0.00000,   0.00000,   0.00000,-53050336.00000,   0.00000
-383484717.64422,12862483.77661,-92610698.82152,  -0.00177,   0.00081,  -0.00120,422010976.00000,   0.00000,274640576.00000,   0.00000,   0.00000,   0.00000,-52629600.00000,   0.00000
-384090322.85691,12754412.81273,-92447572.83830,  -0.00177,   0.00081,  -0.00120,422412864.00000,   0.00000,274640576.00000,   0.00000,   0.00000,   0.00000,-52227712.00000,   0.00000
-384695928.06960,12646341.84885,-92276290.55592,  -0.00178,   0.00081,  -0.00120,422810304.00000,   0.00000,274640576.00000,   0.00000,   0.00000,   0.00000,-51830272.00000,   0.00000
-385307650.50666,12523997.36144,-92109086.42313,  -0.00178,   0.00081,  -0.00120,423210432.00000,   0.00000,274640576.00000,   0.00000,   0.00000,   0.00000,-51430144.00000,   0.00000
-385898982.19582,12422043.62193,-91937804.14075,  -0.00178,   0.00081,  -0.00120,423599744.00000,   0.00000,274640576.00000,   0.00000,   0.00000,   0.00000,-51040832.00000,   0.00000
-386482157.58582,12311933.58326,-91766521.85837,  -0.00178,   0.00081,  -0.00119,423978336.00000,   0.00000,274640576.00000,   0.00000,   0.00000,   0.00000,-50662240.00000,   0.00000
-387065332.97582,12201823.54458,-91591161.42641,  -0.00178,   0.00081,  -0.00119,424354880.00000,   0.00000,274640576.00000,   0.00000,   0.00000,   0.00000,-50285696.00000,   0.00000
-387634234.84228,12097830.73028,-91415800.99446,  -0.00179,   0.00081,  -0.00119,424721344.00000,   0.00000,274640576.00000,   0.00000,   0.00000,   0.00000,-49919232.00000,   0.00000
-388203136.70875,11993837.91598,-91240440.56250,  -0.00179,   0.00081,  -0.00119,425088032.00000,   0.00000,274640576.00000,   0.00000,   0.00000,   0.00000,-49552544.00000,   0.00000
-388772038.57522,11889845.10168,-91061001.98096,  -0.00179,   0.00081,  -0.00118,425452032.00000,   0.00000,274640576.00000,   0.00000,   0.00000,   0.00000,-49188544.00000,   0.00000
-389312393.39462,11798086.73612,-90881563.39942,  -0.00179,   0.00081,  -0.00118,425795296.00000,   0.00000,274640576.00000,   0.00000,   0.00000,   0.00000,-48845280.00000,   0.00000
-389873138.96193,11685937.62266,-90698046.66830,  -0.00180,   0.00081,  -0.00118,426144928.00000,   0.00000,274640576.00000,   0.00000,   0.00000,   0.00000,-48495648.00000,   0.00000
-390413493.78133,11594179.25710,-90518608.08677,  -0.00180,   0.00081,  -0.00118,426488000.00000,   0.00000,274640576.00000,   0.00000,   0.00000,   0.00000,-48152576.00000,   0.00000
-390945692.30157,11494264.59238,-90331013.20607,  -0.00180,   0.00081,  -0.00117,426814752.00000,   0.00000,274640576.00000,   0.00000,   0.00000,   0.00000,-47825824.00000,   0.00000
-391463617.29829,11400467.15203,-90147496.47495,  -0.00180,   0.00082,  -0.00117,427134112.00000,   0.00000,274640576.00000,   0.00000,   0.00000,   0.00000,-47506464.00000,   0.00000
-391995815.81853,11300552.48731,-89959901.59425,  -0.00181,   0.00082,  -0.00117,427462112.00000,   0.00000,274640576.00000,   0.00000,   0.00000,   0.00000,-47178464.00000,   0.00000
-392499467.29171,11212872.27134,-89768228.56397,  -0.00181,   0.00082,  -0.00117,427767936.00000,   0.00000,274640576.00000,   0.00000,   0.00000,   0.00000,-46872640.00000,   0.00000
-393017392.28842,11119074.83099,-89580633.68327,  -0.00181,   0.00082,  -0.00116,428088128.00000,   0.00000,274640576.00000,   0.00000,   0.00000,   0.00000,-46552448.00000,   0.00000
-393506770.23807,11037511.83938,-89388960.65299,  -0.00181,   0.00082,  -0.00116,428386656.00000,   0.00000,274640576.00000,   0.00000,   0.00000,   0.00000,-46253920.00000,   0.00000
-394002265.41209,10941675.32424,-89193209.47313,  -0.00181,   0.00082,  -0.00116,428683136.00000,   0.00000,274640576.00000,   0.00000,   0.00000,   0.00000,-45957440.00000,   0.00000
-394491643.36174,10860112.33263,-88997458.29327,  -0.00182,   0.00082,  -0.00116,428982592.00000,   0.00000,274640576.00000,   0.00000,   0.00000,   0.00000,-45657984.00000,   0.00000
-394972865.01223,10770393.04186,-88801707.11341,  -0.00182,   0.00082,  -0.00115,429272192.00000,   0.00000,274640576.00000,   0.00000,   0.00000,   0.00000,-45368384.00000,   0.00000
-395454086.66272,10680673.75109,-88605955.93355,  -0.00182,   0.00082,  -0.00115,429563328.00000,   0.00000,274640576.00000,   0.00000,   0.00000,   0.00000,-45077248.00000,   0.00000
-395921034.78967,10597071.68469,-88406126.60411,  -0.00182,   0.00082,  -0.00115,429842560.00000,   0.00000,274640576.00000,   0.00000,   0.00000,   0.00000,-44798016.00000,   0.00000
-396373709.39310,10519586.84267,-88206297.27467,  -0.00182,   0.00082,  -0.00115,430112224.00000,   0.00000,274640576.00000,   0.00000,   0.00000,   0.00000,-44528352.00000,   0.00000
-396826383.99653,10442102.00064,-88002389.79565,  -0.00183,   0.00082,  -0.00114,430380032.00000,   0.00000,274640576.00000,   0.00000,   0.00000,   0.00000,-44260544.00000,   0.00000
-397279058.59995,10364617.15861,-87802560.46621,  -0.00183,   0.00082,  -0.00114,430650624.00000,   0.00000,274640576.00000,   0.00000,   0.00000,   0.00000,-43989952.00000,   0.00000
-397717459.67984,10293249.54095,-87594574.83761,  -0.00183,   0.00082,  -0.00114,430905888.00000,   0.00000,274640576.00000,   0.00000,   0.00000,   0.00000,-43734688.00000,   0.00000
-398147704.46058,10213725.62414,-87390667.35859,  -0.00183,   0.00082,  -0.00114,431151776.00000,   0.00000,274640576.00000,   0.00000,   0.00000,   0.00000,-43488800.00000,   0.00000
-398571832.01694,10148475.23085,-87182681.72999,  -0.00183,   0.00082,  -0.00113,431396256.00000,   0.00000,274640576.00000,   0.00000,   0.00000,   0.00000,-43244320.00000,   0.00000
-399002076.79767,10068951.31403,-86974696.10139,  -0.00184,   0.00082,  -0.00113,431639296.00000,   0.00000,274640576.00000,   0.00000,   0.00000,   0.00000,-43001280.00000,   0.00000
-399418048.05488,9995544.62158,-86766710.47279,  -0.00184,   0.00082,  -0.00113,431871616.00000,   0.00000,274640576.00000,   0.00000,   0.00000,   0.00000,-42768960.00000,   0.00000
-399819745.78855,9928255.15351,-86554646.69461,  -0.00184,   0.00082,  -0.00113,432090816.00000,   0.00000,274640576.00000,   0.00000,   0.00000,   0.00000,-42549760.00000,   0.00000
-400221443.52222,9860965.68543,-86342582.91643,  -0.00184,   0.00083,  -0.00112,432309952.00000,   0.00000,274640576.00000,   0.00000,   0.00000,   0.00000,-42330624.00000,   0.00000
-400623141.25589,9793676.21735,-86126440.98867,  -0.00184,   0.00083,  -0.00112,432526560.00000,   0.00000,274640576.00000,   0.00000,   0.00000,   0.00000,-42114016.00000,   0.00000
-401010565.46603,9732503.97365,-85914377.21048,  -0.00184,   0.00083,  -0.00112,432735264.00000,   0.00000,274640576.00000,   0.00000,   0.00000,   0.00000,-41905312.00000,   0.00000
-401383716.15263,9677448.95431,-85698235.28272,  -0.00185,   0.00083,  -0.00111,432931008.00000,   0.00000,274640576.00000,   0.00000,   0.00000,   0.00000,-41709568.00000,   0.00000
-401762984.06361,9608120.41144,-85478015.20538,  -0.00185,   0.00083,  -0.00111,433123520.00000,   0.00000,274640576.00000,   0.00000,   0.00000,   0.00000,-41517056.00000,   0.00000
-402136134.75022,9553065.39211,-85261873.27762,  -0.00185,   0.00083,  -0.00111,433319808.00000,   0.00000,274640576.00000,   0.00000,   0.00000,   0.00000,-41320768.00000,   0.00000
-402501129.13766,9489854.07361,-85041653.20028,  -0.00185,   0.00083,  -0.00111,433502336.00000,   0.00000,274640576.00000,   0.00000,   0.00000,   0.00000,-41138240.00000,   0.00000
-402845732.77721,9447033.50302,-84817354.97335,  -0.00185,   0.00083,  -0.00110,433673536.00000,   0.00000,274640576.00000,   0.00000,   0.00000,   0.00000,-40967040.00000,   0.00000
-403196453.64112,9389939.40889,-84597134.89601,  -0.00185,   0.00083,  -0.00110,433846368.00000,   0.00000,274640576.00000,   0.00000,   0.00000,   0.00000,-40794208.00000,   0.00000
-403547174.50504,9332845.31477,-84372836.66909,  -0.00185,   0.00083,  -0.00110,434017152.00000,   0.00000,274640576.00000,   0.00000,   0.00000,   0.00000,-40623424.00000,   0.00000
-403883621.84542,9281868.44501,-84148538.44217,  -0.00186,   0.00083,  -0.00109,434177856.00000,   0.00000,274640576.00000,   0.00000,   0.00000,   0.00000,-40462720.00000,   0.00000
-404220069.18581,9230891.57526,-83924240.21524,  -0.00186,   0.00083,  -0.00109,434339008.00000,   0.00000,274640576.00000,   0.00000,   0.00000,   0.00000,-40301568.00000,   0.00000
-404542243.00266,9186031.92987,-83695863.83874,  -0.00186,   0.00083,  -0.00109,434487776.00000,   0.00000,274640576.00000,   0.00000,   0.00000,   0.00000,-40152800.00000,   0.00000
-404850143.29598,9147289.50886,-83467487.46224,  -0.00186,   0.00083,  -0.00109,434626592.00000,   0.00000,274640576.00000,   0.00000,   0.00000,   0.00000,-40013984.00000,   0.00000
-405158043.58930,9108547.08784,-83239111.08574,  -0.00186,   0.00083,  -0.00108,434765760.00000,   0.00000,274640576.00000,   0.00000,   0.00000,   0.00000,-39874816.00000,   0.00000
-405472061.10699,9055531.14330,-83006656.55965,  -0.00186,   0.00083,  -0.00108,434901952.00000,   0.00000,274640576.00000,   0.00000,   0.00000,   0.00000,-39738624.00000,   0.00000
-405765687.87678,9022905.94666,-82774202.03357,  -0.00186,   0.00083,  -0.00108,435029312.00000,   0.00000,274640576.00000,   0.00000,   0.00000,   0.00000,-39611264.00000,   0.00000
-406065431.87094,8976007.22648,-82541747.50749,  -0.00187,   0.00083,  -0.00107,435155808.00000,   0.00000,274640576.00000,   0.00000,   0.00000,   0.00000,-39484768.00000,   0.00000
-406344785.11720,8949499.25421,-82309292.98140,  -0.00187,   0.00083,  -0.00107,435273600.00000,   0.00000,274640576.00000,   0.00000,   0.00000,   0.00000,-39366976.00000,   0.00000
-406630255.58783,8908717.75840,-82072760.30574,  -0.00187,   0.00083,  -0.00107,435388256.00000,   0.00000,274640576.00000,   0.00000,   0.00000,   0.00000,-39252320.00000,   0.00000
-406901452.53493,8874053.48697,-81836227.63008,  -0.00187,   0.00083,  -0.00106,435492960.00000,   0.00000,274640576.00000,   0.00000,   0.00000,   0.00000,-39147616.00000,   0.00000
-407172649.48202,8839389.21554,-81599694.95441,  -0.00187,   0.00083,  -0.00106,435598016.00000,   0.00000,274640576.00000,   0.00000,   0.00000,   0.00000,-39042560.00000,   0.00000
-407429572.90559,8810842.16847,-81359084.12917,  -0.00187,   0.00083,  -0.00106,435690880.00000,   0.00000,274640576.00000,   0.00000,   0.00000,   0.00000,-38949696.00000,   0.00000
-407686496.32916,8782295.12141,-81118473.30392,  -0.00187,   0.00083,  -0.00105,435784192.00000,   0.00000,274640576.00000,   0.00000,   0.00000,   0.00000,-38856384.00000,   0.00000
-407929146.22919,8759865.29872,-80877862.47868,  -0.00187,   0.00084,  -0.00105,435867520.00000,   0.00000,274640576.00000,   0.00000,   0.00000,   0.00000,-38773056.00000,   0.00000
-408171796.12922,8737435.47603,-80637251.65343,  -0.00187,   0.00084,  -0.00105,435951296.00000,   0.00000,274640576.00000,   0.00000,   0.00000,   0.00000,-38689280.00000,   0.00000
-408414446.02926,8715005.65333,-80396640.82819,  -0.00188,   0.00084,  -0.00105,436035424.00000,   0.00000,274640576.00000,   0.00000,   0.00000,   0.00000,-38605152.00000,   0.00000
-408642822.40576,8698693.05501,-80151951.85337,  -0.00188,   0.00084,  -0.00104,436107456.00000,   0.00000,274640576.00000,   0.00000,   0.00000,   0.00000,-38533120.00000,   0.00000
-408877316.00663,8668106.93316,-79907262.87854,  -0.00188,   0.00084,  -0.00104,436178720.00000,   0.00000,274640576.00000,   0.00000,   0.00000,   0.00000,-38461856.00000,   0.00000
-409091418.85961,8657911.55921,-79658495.75414,  -0.00188,   0.00084,  -0.00104,436238880.00000,   0.00000,274640576.00000,   0.00000,   0.00000,   0.00000,-38401696.00000,   0.00000
-409291248.18905,8653833.40963,-79413806.77931,  -0.00188,   0.00084,  -0.00103,436291328.00000,   0.00000,274640576.00000,   0.00000,   0.00000,   0.00000,-38349248.00000,   0.00000
-409511468.26639,8629364.51215,-79165039.65491,  -0.00188,   0.00084,  -0.00103,436351168.00000,   0.00000,274640576.00000,   0.00000,   0.00000,   0.00000,-38289408.00000,   0.00000
-409703141.29667,8617130.06341,-78916272.53050,  -0.00188,   0.00084,  -0.00103,436390688.00000,   0.00000,274640576.00000,   0.00000,   0.00000,   0.00000,-38249888.00000,   0.00000
-409902970.62611,8613051.91382,-78667505.40610,  -0.00188,   0.00084,  -0.00102,436442304.00000,   0.00000,274640576.00000,   0.00000,   0.00000,   0.00000,-38198272.00000,   0.00000
-410094643.65639,8600817.46508,-78414660.13211,  -0.00188,   0.00084,  -0.00102,436480512.00000,   0.00000,274640576.00000,   0.00000,   0.00000,   0.00000,-38160064.00000,   0.00000
-410272043.16313,8594700.24071,-78161814.85813,  -0.00188,   0.00084,  -0.00102,436508672.00000,   0.00000,274640576.00000,   0.00000,   0.00000,   0.00000,-38131904.00000,   0.00000
-410443325.44551,8602856.53987,-77908969.58414,  -0.00188,   0.00084,  -0.00101,436538720.00000,   0.00000,274640576.00000,   0.00000,   0.00000,   0.00000,-38101856.00000,   0.00000
-410620724.95226,8596739.31550,-77656124.31016,  -0.00189,   0.00084,  -0.00101,436568000.00000,   0.00000,274640576.00000,   0.00000,   0.00000,   0.00000,-38072576.00000,   0.00000
-410783850.93548,8596739.31550,-77399200.88659,  -0.00189,   0.00084,  -0.00101,436584992.00000,   0.00000,274640576.00000,   0.00000,   0.00000,   0.00000,-38055584.00000,   0.00000
-410946976.91869,8596739.31550,-77146355.61260,  -0.00189,   0.00084,  -0.00100,436604704.00000,   0.00000,274640576.00000,   0.00000,   0.00000,   0.00000,-38035872.00000,   0.00000
-411095829.37838,8602856.53987,-76889432.18904,  -0.00189,   0.00084,  -0.00100,436612288.00000,   0.00000,274640576.00000,   0.00000,   0.00000,   0.00000,-38028288.00000,   0.00000
-411244681.83806,8608973.76424,-76628430.61589,  -0.00189,   0.00084,  -0.00100,436618240.00000,   0.00000,274640576.00000,   0.00000,   0.00000,   0.00000,-38022336.00000,   0.00000
-411393534.29775,8615090.98861,-76371507.19233,  -0.00189,   0.00084,  -0.00099,436626752.00000,   0.00000,274640576.00000,   0.00000,   0.00000,   0.00000,-38013824.00000,   0.00000
-411534230.45827,8613051.91382,-76110505.61918,  -0.00189,   0.00084,  -0.00099,436622080.00000,   0.00000,274640576.00000,   0.00000,   0.00000,   0.00000,-38018496.00000,   0.00000
-411654535.87089,8631403.58694,-75853582.19561,  -0.00189,   0.00084,  -0.00099,436610624.00000,   0.00000,274640576.00000,   0.00000,   0.00000,   0.00000,-38029952.00000,   0.00000
-411789114.80705,8643638.03568,-75588502.47289,  -0.00189,   0.00084,  -0.00098,436606144.00000,   0.00000,274640576.00000,   0.00000,   0.00000,   0.00000,-38034432.00000,   0.00000
-411909420.21967,8661989.70879,-75327500.89974,  -0.00189,   0.00084,  -0.00098,436593632.00000,   0.00000,274640576.00000,   0.00000,   0.00000,   0.00000,-38046944.00000,   0.00000
-412021569.33313,8672185.08274,-75066499.32660,  -0.00189,   0.00084,  -0.00098,436569888.00000,   0.00000,274640576.00000,   0.00000,   0.00000,   0.00000,-38070688.00000,   0.00000
-412127601.22222,8696653.98022,-74801419.60387,  -0.00189,   0.00084,  -0.00097,436545824.00000,   0.00000,274640576.00000,   0.00000,   0.00000,   0.00000,-38094752.00000,   0.00000
-412239750.33568,8706849.35417,-74536339.88114,  -0.00189,   0.00084,  -0.00097,436521152.00000,   0.00000,274640576.00000,   0.00000,   0.00000,   0.00000,-38119424.00000,   0.00000
-412331508.70124,8737435.47603,-74271260.15842,  -0.00189,   0.00084,  -0.00097,436487552.00000,   0.00000,274640576.00000,   0.00000,   0.00000,   0.00000,-38153024.00000,   0.00000
-412429384.29117,8753748.07435,-74002102.28611,  -0.00189,   0.00084,  -0.00096,436451232.00000,   0.00000,274640576.00000,   0.00000,   0.00000,   0.00000,-38189344.00000,   0.00000
-412506869.13320,8790451.42057,-73737022.56338,  -0.00189,   0.00084,  -0.00096,436408256.00000,   0.00000,274640576.00000,   0.00000,   0.00000,   0.00000,-38232320.00000,   0.00000
-412590471.19960,8812881.24326,-73467864.69108,  -0.00189,   0.00084,  -0.00096,436362464.00000,   0.00000,274640576.00000,   0.00000,   0.00000,   0.00000,-38278112.00000,   0.00000
-412667956.04163,8849584.58949,-73198706.81877,  -0.00189,   0.00084,  -0.00095,436318496.00000,   0.00000,274640576.00000,   0.00000,   0.00000,   0.00000,-38322080.00000,   0.00000
-412737284.58449,8878131.63655,-72929548.94646,  -0.00190,   0.00085,  -0.00095,436263264.00000,   0.00000,274640576.00000,   0.00000,   0.00000,   0.00000,-38377312.00000,   0.00000
-412800495.90299,8920952.20715,-72656312.92457,  -0.00190,   0.00085,  -0.00094,436207680.00000,   0.00000,274640576.00000,   0.00000,   0.00000,   0.00000,-38432896.00000,   0.00000
-412869824.44586,8949499.25421,-72387155.05227,  -0.00190,   0.00085,  -0.00094,436153600.00000,   0.00000,274640576.00000,   0.00000,   0.00000,   0.00000,-38486976.00000,   0.00000
-412924879.46519,8984163.52564,-72113919.03038,  -0.00190,   0.00085,  -0.00094,436087328.00000,   0.00000,274640576.00000,   0.00000,   0.00000,   0.00000,-38553248.00000,   0.00000
-412979934.48453,9018827.79708,-71840683.00849,  -0.00190,   0.00085,  -0.00093,436021664.00000,   0.00000,274640576.00000,   0.00000,   0.00000,   0.00000,-38618912.00000,   0.00000
-413014598.75596,9073882.81641,-71567446.98660,  -0.00190,   0.00085,  -0.00093,435947072.00000,   0.00000,274640576.00000,   0.00000,   0.00000,   0.00000,-38693504.00000,   0.00000
-413055380.25176,9114664.31221,-71290132.81514,  -0.00190,   0.00085,  -0.00093,435870016.00000,   0.00000,274640576.00000,   0.00000,   0.00000,   0.00000,-38770560.00000,   0.00000
-413096161.74757,9155445.80802,-71016896.79325,  -0.00190,   0.00085,  -0.00092,435795328.00000,   0.00000,274640576.00000,   0.00000,   0.00000,   0.00000,-38845248.00000,   0.00000
-413136943.24337,9196227.30382,-70739582.62178,  -0.00190,   0.00085,  -0.00092,435719264.00000,   0.00000,274640576.00000,   0.00000,   0.00000,   0.00000,-38921312.00000,   0.00000
-413157333.99127,9257399.54753,-70462268.45031,  -0.00190,   0.00085,  -0.00092,435634464.00000,   0.00000,274640576.00000,   0.00000,   0.00000,   0.00000,-39006112.00000,   0.00000
-413169568.44002,9310415.49207,-70184954.27885,  -0.00190,   0.00085,  -0.00091,435538240.00000,   0.00000,274640576.00000,   0.00000,   0.00000,   0.00000,-39102336.00000,   0.00000
-413196076.41229,9357314.21225,-69903561.95780,  -0.00190,   0.00085,  -0.00091,435451328.00000,   0.00000,274640576.00000,   0.00000,   0.00000,   0.00000,-39189248.00000,   0.00000
-413208310.86103,9410330.15679,-69626247.78633,  -0.00190,   0.00085,  -0.00091,435356224.00000,   0.00000,274640576.00000,   0.00000,   0.00000,   0.00000,-39284352.00000,   0.00000
-413206271.78624,9469463.32571,-69344855.46528,  -0.00190,   0.00085,  -0.00090,435249024.00000,   0.00000,274640576.00000,   0.00000,   0.00000,   0.00000,-39391552.00000,   0.00000
-413204232.71145,9528596.49463,-69063463.14423,  -0.00190,   0.00085,  -0.00090,435142336.00000,   0.00000,274640576.00000,   0.00000,   0.00000,   0.00000,-39498240.00000,   0.00000
-413196076.41229,9602003.18707,-68782070.82318,  -0.00190,   0.00085,  -0.00089,435037536.00000,   0.00000,274640576.00000,   0.00000,   0.00000,   0.00000,-39603040.00000,   0.00000
-413194037.33750,9661136.35599,-68500678.50214,  -0.00190,   0.00085,  -0.00089,434931968.00000,   0.00000,274640576.00000,   0.00000,   0.00000,   0.00000,-39708608.00000,   0.00000
-413177724.73918,9726386.74928,-68219286.18109,  -0.00190,   0.00085,  -0.00089,434816320.00000,   0.00000,274640576.00000,   0.00000,   0.00000,   0.00000,-39824256.00000,   0.00000
-413161412.14085,9791637.14256,-67933815.71046,  -0.00190,   0.00085,  -0.00088,434699296.00000,   0.00000,274640576.00000,   0.00000,   0.00000,   0.00000,-39941280.00000,   0.00000
-413145099.54253,9856887.53585,-67652423.38941,  -0.00190,   0.00085,  -0.00088,434584704.00000,   0.00000,274640576.00000,   0.00000,   0.00000,   0.00000,-40055872.00000,   0.00000
-413114513.42068,9928255.15351,-67366952.91878,  -0.00190,   0.00085,  -0.00088,434457920.00000,   0.00000,274640576.00000,   0.00000,   0.00000,   0.00000,-40182656.00000,   0.00000
-413083927.29883,9999622.77116,-67081482.44815,  -0.00190,   0.00085,  -0.00087,434331712.00000,   0.00000,274640576.00000,   0.00000,   0.00000,   0.00000,-40308864.00000,   0.00000
-413053341.17697,10070990.38882,-66791933.82794,  -0.00190,   0.00085,  -0.00087,434204096.00000,   0.00000,274640576.00000,   0.00000,   0.00000,   0.00000,-40436480.00000,   0.00000
-413016637.83075,10156631.53001,-66506463.35732,  -0.00190,   0.00085,  -0.00086,434080064.00000,   0.00000,274640576.00000,   0.00000,   0.00000,   0.00000,-40560512.00000,   0.00000
-412971778.18537,10234116.37204,-66220992.88669,  -0.00190,   0.00085,  -0.00086,433944384.00000,   0.00000,274640576.00000,   0.00000,   0.00000,   0.00000,-40696192.00000,   0.00000
-412912645.01645,10317718.43844,-65931444.26648,  -0.00190,   0.00085,  -0.00086,433796736.00000,   0.00000,274640576.00000,   0.00000,   0.00000,   0.00000,-40843840.00000,   0.00000
-412867785.37107,10395203.28046,-65641895.64627,  -0.00190,   0.00085,  -0.00085,433660128.00000,   0.00000,274640576.00000,   0.00000,   0.00000,   0.00000,-40980448.00000,   0.00000
-412808652.20215,10478805.34686,-65352347.02606,  -0.00190,   0.00085,  -0.00085,433513344.00000,   0.00000,274640576.00000,   0.00000,   0.00000,   0.00000,-41127232.00000,   0.00000
-412749519.03323,10562407.41326,-65062798.40585,  -0.00190,   0.00085,  -0.00085,433366848.00000,   0.00000,274640576.00000,   0.00000,   0.00000,   0.00000,-41273728.00000,   0.00000
-412684268.63995,10660283.00319,-64773249.78564,  -0.00190,   0.00085,  -0.00084,433221856.00000,   0.00000,274640576.00000,   0.00000,   0.00000,   0.00000,-41418720.00000,   0.00000
-412610861.94750,10750002.29396,-64479623.01585,  -0.00190,   0.00085,  -0.00084,433063552.00000,   0.00000,274640576.00000,   0.00000,   0.00000,   0.00000,-41577024.00000,   0.00000
-412537455.25505,10839721.58473,-64190074.39564,  -0.00190,   0.00085,  -0.00083,432907360.00000,   0.00000,274640576.00000,   0.00000,   0.00000,   0.00000,-41733216.00000,   0.00000
-412464048.56260,10929440.87550,-63896447.62585,  -0.00190,   0.00085,  -0.00083,432749664.00000,   0.00000,274640576.00000,   0.00000,   0.00000,   0.00000,-41890912.00000,   0.00000
-412384524.64579,11033433.68980,-63602820.85606,  -0.00190,   0.00085,  -0.00083,432593440.00000,   0.00000,274640576.00000,   0.00000,   0.00000,   0.00000,-42047136.00000,   0.00000
-412296844.42981,11129270.20494,-63309194.08628,  -0.00190,   0.00085,  -0.00082,432425600.00000,   0.00000,274640576.00000,   0.00000,   0.00000,   0.00000,-42214976.00000,   0.00000
-412209164.21383,11225106.72008,-63015567.31649,  -0.00190,   0.00085,  -0.00082,432258080.00000,   0.00000,274640576.00000,   0.00000,   0.00000,   0.00000,-42382496.00000,   0.00000
-412121483.99785,11320943.23522,-62721940.54670,  -0.00190,   0.00086,  -0.00082,432090880.00000,   0.00000,274640576.00000,   0.00000,   0.00000,   0.00000,-42549696.00000,   0.00000
-412013413.03397,11437170.49826,-62424235.62733,  -0.00190,   0.00086,  -0.00081,431912576.00000,   0.00000,274640576.00000,   0.00000,   0.00000,   0.00000,-42728000.00000,   0.00000
-411925732.81799,11533007.01340,-62130608.85754,  -0.00190,   0.00086,  -0.00081,431746048.00000,   0.00000,274640576.00000,   0.00000,   0.00000,   0.00000,-42894528.00000,   0.00000
-411817661.85411,11649234.27644,-61832903.93817,  -0.00190,   0.00086,  -0.00080,431568320.00000,   0.00000,274640576.00000,   0.00000,   0.00000,   0.00000,-43072256.00000,   0.00000
-411701434.59107,11757305.24032,-61535199.01880,  -0.00190,   0.00086,  -0.00080,431379072.00000,   0.00000,274640576.00000,   0.00000,   0.00000,   0.00000,-43261504.00000,   0.00000
-411593363.62719,11873532.50336,-61237494.09943,  -0.00190,   0.00086,  -0.00080,431202176.00000,   0.00000,274640576.00000,   0.00000,   0.00000,   0.00000,-43438400.00000,   0.00000
-411477136.36415,11981603.46724,-60939789.18006,  -0.00190,   0.00086,  -0.00079,431013600.00000,   0.00000,274640576.00000,   0.00000,   0.00000,   0.00000,-43626976.00000,   0.00000
-411354791.87673,12103947.95466,-60642084.26069,  -0.00190,   0.00086,  -0.00079,430826496.00000,   0.00000,274640576.00000,   0.00000,   0.00000,   0.00000,-43814080.00000,   0.00000
-411238564.61369,12212018.91854,-60344379.34132,  -0.00189,   0.00086,  -0.00078,430638880.00000,   0.00000,274640576.00000,   0.00000,   0.00000,   0.00000,-44001696.00000,   0.00000
-411116220.12628,12334363.40595,-60042596.27237,  -0.00189,   0.00086,  -0.00078,430450912.00000,   0.00000,274640576.00000,   0.00000,   0.00000,   0.00000,-44189664.00000,   0.00000
-410979602.11534,12462825.11773,-59744891.35300,  -0.00189,   0.00086,  -0.00078,430254368.00000,   0.00000,274640576.00000,   0.00000,   0.00000,   0.00000,-44386208.00000,   0.00000
-410863374.85229,12570896.08161,-59443108.28405,  -0.00189,   0.00086,  -0.00077,430066400.00000,   0.00000,274640576.00000,   0.00000,   0.00000,   0.00000,-44574176.00000,   0.00000
-410726756.84135,12699357.79339,-59141325.21510,  -0.00189,   0.00086,  -0.00077,429868992.00000,   0.00000,274640576.00000,   0.00000,   0.00000,   0.00000,-44771584.00000,   0.00000
-410575865.30688,12833936.72955,-58839542.14615,  -0.00189,   0.00086,  -0.00076,429661344.00000,   0.00000,274640576.00000,   0.00000,   0.00000,   0.00000,-44979232.00000,   0.00000
-410439247.29593,12962398.44133,-58537759.07720,  -0.00189,   0.00086,  -0.00076,429465088.00000,   0.00000,274640576.00000,   0.00000,   0.00000,   0.00000,-45175488.00000,   0.00000
-410288355.76146,13096977.37748,-58235976.00825,  -0.00189,   0.00086,  -0.00076,429258560.00000,   0.00000,274640576.00000,   0.00000,   0.00000,   0.00000,-45382016.00000,   0.00000
-410151737.75051,13225439.08927,-57934192.93930,  -0.00189,   0.00086,  -0.00075,429063648.00000,   0.00000,274640576.00000,   0.00000,   0.00000,   0.00000,-45576928.00000,   0.00000
-410000846.21604,13360018.02542,-57632409.87035,  -0.00189,   0.00086,  -0.00075,428858304.00000,   0.00000,274640576.00000,   0.00000,   0.00000,   0.00000,-45782272.00000,   0.00000
-409849954.68156,13494596.96157,-57326548.65181,  -0.00189,   0.00086,  -0.00075,428651904.00000,   0.00000,274640576.00000,   0.00000,   0.00000,   0.00000,-45988672.00000,   0.00000
-409684789.62356,13635293.12210,-57024765.58286,  -0.00189,   0.00086,  -0.00074,428436928.00000,   0.00000,274640576.00000,   0.00000,   0.00000,   0.00000,-46203648.00000,   0.00000
-409533898.08908,13769872.05825,-56718904.36433,  -0.00189,   0.00086,  -0.00074,428231872.00000,   0.00000,274640576.00000,   0.00000,   0.00000,   0.00000,-46408704.00000,   0.00000
-409368733.03107,13910568.21878,-56413043.14580,  -0.00189,   0.00086,  -0.00073,428016640.00000,   0.00000,274640576.00000,   0.00000,   0.00000,   0.00000,-46623936.00000,   0.00000
-409197450.74870,14065537.90283,-56107181.92727,  -0.00189,   0.00086,  -0.00073,427803296.00000,   0.00000,274640576.00000,   0.00000,   0.00000,   0.00000,-46837280.00000,   0.00000
-409032285.69069,14206234.06336,-55805398.85832,  -0.00189,   0.00086,  -0.00073,427591136.00000,   0.00000,274640576.00000,   0.00000,   0.00000,   0.00000,-47049440.00000,   0.00000
-408867120.63268,14346930.22388,-55499537.63979,  -0.00189,   0.00086,  -0.00072,427378176.00000,   0.00000,274640576.00000,   0.00000,   0.00000,   0.00000,-47262400.00000,   0.00000
-408695838.35031,14501899.90794,-55189598.27168,  -0.00189,   0.00086,  -0.00072,427165472.00000,   0.00000,274640576.00000,   0.00000,   0.00000,   0.00000,-47475104.00000,   0.00000
-408510282.54440,14662986.81636,-54883737.05315,  -0.00189,   0.00086,  -0.00071,426944256.00000,   0.00000,274640576.00000,   0.00000,   0.00000,   0.00000,-47696320.00000,   0.00000
-408345117.48639,14803682.97689,-54577875.83462,  -0.00189,   0.00086,  -0.00071,426733728.00000,   0.00000,274640576.00000,   0.00000,   0.00000,   0.00000,-47906848.00000,   0.00000
-408159561.68048,14964769.88531,-54272014.61609,  -0.00189,   0.00086,  -0.00071,426514336.00000,   0.00000,274640576.00000,   0.00000,   0.00000,   0.00000,-48126240.00000,   0.00000
-407974005.87457,15125856.79374,-53962075.24798,  -0.00189,   0.00086,  -0.00070,426294272.00000,   0.00000,274640576.00000,   0.00000,   0.00000,   0.00000,-48346304.00000,   0.00000
-407794567.29304,15272670.17863,-53652135.87987,  -0.00189,   0.00086,  -0.00070,426073824.00000,   0.00000,274640576.00000,   0.00000,   0.00000,   0.00000,-48566752.00000,   0.00000
-407609011.48713,15433757.08706,-53346274.66134,  -0.00188,   0.00087,  -0.00069,425857216.00000,   0.00000,274640576.00000,   0.00000,   0.00000,   0.00000,-48783360.00000,   0.00000
-407423455.68122,15594843.99549,-53036335.29322,  -0.00188,   0.00087,  -0.00069,425639968.00000,   0.00000,274640576.00000,   0.00000,   0.00000,   0.00000,-49000608.00000,   0.00000
-407223626.35178,15762048.12828,-52726395.92511,  -0.00188,   0.00087,  -0.00069,425412992.00000,   0.00000,274640576.00000,   0.00000,   0.00000,   0.00000,-49227584.00000,   0.00000
-407031953.32150,15937408.56024,-52420534.70658,  -0.00188,   0.00087,  -0.00068,425200832.00000,   0.00000,274640576.00000,   0.00000,   0.00000,   0.00000,-49439744.00000,   0.00000
-406832123.99206,16104612.69304,-52110595.33847,  -0.00188,   0.00087,  -0.00068,424976032.00000,   0.00000,274640576.00000,   0.00000,   0.00000,   0.00000,-49664544.00000,   0.00000
-406646568.18615,16265699.60146,-51800655.97036,  -0.00188,   0.00087,  -0.00067,424762944.00000,   0.00000,274640576.00000,   0.00000,   0.00000,   0.00000,-49877632.00000,   0.00000
-406446738.85671,16432903.73426,-51490716.60225,  -0.00188,   0.00087,  -0.00067,424540288.00000,   0.00000,274640576.00000,   0.00000,   0.00000,   0.00000,-50100288.00000,   0.00000
-406240792.30290,16614381.39059,-51176699.08456,  -0.00188,   0.00087,  -0.00067,424318592.00000,   0.00000,274640576.00000,   0.00000,   0.00000,   0.00000,-50321984.00000,   0.00000
-406040962.97346,16781585.52338,-50866759.71645,  -0.00188,   0.00087,  -0.00066,424098048.00000,   0.00000,274640576.00000,   0.00000,   0.00000,   0.00000,-50542528.00000,   0.00000
-405835016.41965,16963063.17971,-50556820.34834,  -0.00188,   0.00087,  -0.00066,423879904.00000,   0.00000,274640576.00000,   0.00000,   0.00000,   0.00000,-50760672.00000,   0.00000
-405629069.86584,17144540.83604,-50246880.98022,  -0.00188,   0.00087,  -0.00065,423662720.00000,   0.00000,274640576.00000,   0.00000,   0.00000,   0.00000,-50977856.00000,   0.00000
-405408849.78850,17332135.71674,-49932863.46253,  -0.00188,   0.00087,  -0.00065,423434432.00000,   0.00000,274640576.00000,   0.00000,   0.00000,   0.00000,-51206144.00000,   0.00000
-405202903.23469,17513613.37307,-49622924.09442,  -0.00188,   0.00087,  -0.00065,423218720.00000,   0.00000,274640576.00000,   0.00000,   0.00000,   0.00000,-51421856.00000,   0.00000
-404996956.68088,17695091.02940,-49308906.57673,  -0.00188,   0.00087,  -0.00064,423002208.00000,   0.00000,274640576.00000,   0.00000,   0.00000,   0.00000,-51638368.00000,   0.00000
-404776736.60353,17882685.91010,-48998967.20862,  -0.00188,   0.00087,  -0.00064,422776768.00000,   0.00000,274640576.00000,   0.00000,   0.00000,   0.00000,-51863808.00000,   0.00000
-404570790.04972,18064163.56642,-48684949.69093,  -0.00188,   0.00087,  -0.00063,422560832.00000,   0.00000,274640576.00000,   0.00000,   0.00000,   0.00000,-52079744.00000,   0.00000
-404350569.97238,18251758.44712,-48370932.17324,  -0.00188,   0.00087,  -0.00063,422333920.00000,   0.00000,274640576.00000,   0.00000,   0.00000,   0.00000,-52306656.00000,   0.00000
-404138506.19420,18447509.62698,-48060992.80512,  -0.00187,   0.00087,  -0.00062,422120320.00000,   0.00000,274640576.00000,   0.00000,   0.00000,   0.00000,-52520256.00000,   0.00000
-403918286.11686,18635104.50768,-47746975.28743,  -0.00187,   0.00087,  -0.00062,421892224.00000,   0.00000,274640576.00000,   0.00000,   0.00000,   0.00000,-52748352.00000,   0.00000
-403691948.81514,18836972.91191,-47432957.76974,  -0.00187,   0.00087,  -0.00062,421664800.00000,   0.00000,274640576.00000,   0.00000,   0.00000,   0.00000,-52975776.00000,   0.00000
-403486002.26133,19018450.56824,-47118940.25205,  -0.00187,   0.00087,  -0.00061,421445888.00000,   0.00000,274640576.00000,   0.00000,   0.00000,   0.00000,-53194688.00000,   0.00000
-403259664.95962,19220318.97247,-46809000.88394,  -0.00187,   0.00087,  -0.00061,421217728.00000,   0.00000,274640576.00000,   0.00000,   0.00000,   0.00000,-53422848.00000,   0.00000
-403033327.65791,19422187.37670,-46494983.36625,  -0.00187,   0.00087,  -0.00060,420987136.00000,   0.00000,274640576.00000,   0.00000,   0.00000,   0.00000,-53653440.00000,   0.00000
-402821263.87973,19617938.55656,-46180965.84856,  -0.00187,   0.00087,  -0.00060,420767072.00000,   0.00000,274640576.00000,   0.00000,   0.00000,   0.00000,-53873504.00000,   0.00000
-402594926.57801,19819806.96079,-45866948.33086,  -0.00187,   0.00088,  -0.00060,420535392.00000,   0.00000,274640576.00000,   0.00000,   0.00000,   0.00000,-54105184.00000,   0.00000
-402362472.05193,20035948.88855,-45552930.81317,  -0.00187,   0.00088,  -0.00059,420305216.00000,   0.00000,274640576.00000,   0.00000,   0.00000,   0.00000,-54335360.00000,   0.00000
-402136134.75022,20237817.29278,-45238913.29548,  -0.00187,   0.00088,  -0.00059,420074176.00000,   0.00000,274640576.00000,   0.00000,   0.00000,   0.00000,-54566400.00000,   0.00000
-401909797.44851,20439685.69701,-44924895.77779,  -0.00187,   0.00088,  -0.00058,419844224.00000,   0.00000,274640576.00000,   0.00000,   0.00000,   0.00000,-54796352.00000,   0.00000
-401691616.44595,20649710.40040,-44610878.26010,  -0.00187,   0.00088,  -0.00058,419628480.00000,   0.00000,274640576.00000,   0.00000,   0.00000,   0.00000,-55012096.00000,   0.00000
-401459161.91987,20865852.32816,-44292782.59283,  -0.00187,   0.00088,  -0.00058,419401920.00000,   0.00000,274640576.00000,   0.00000,   0.00000,   0.00000,-55238656.00000,   0.00000
-401226707.39379,21081994.25593,-43978765.07513,  -0.00187,   0.00088,  -0.00057,419179072.00000,   0.00000,274640576.00000,   0.00000,   0.00000,   0.00000,-55461504.00000,   0.00000
-400994252.86770,21298136.18369,-43664747.55744,  -0.00187,   0.00088,  -0.00057,418958464.00000,   0.00000,274640576.00000,   0.00000,   0.00000,   0.00000,-55682112.00000,   0.00000
-400761798.34162,21514278.11145,-43350730.03975,  -0.00187,   0.00088,  -0.00056,418740128.00000,   0.00000,274640576.00000,   0.00000,   0.00000,   0.00000,-55900448.00000,   0.00000
-400543617.33907,21724302.81484,-43036712.52206,  -0.00186,   0.00088,  -0.00056,418534912.00000,   0.00000,274640576.00000,   0.00000,   0.00000,   0.00000,-56105664.00000,   0.00000
-400311162.81299,21940444.74260,-42718616.85479,  -0.00186,   0.00088,  -0.00056,418319584.00000,   0.00000,274640576.00000,   0.00000,   0.00000,   0.00000,-56320992.00000,   0.00000
-400072591.06253,22170860.19390,-42404599.33710,  -0.00186,   0.00088,  -0.00055,418108864.00000,   0.00000,274640576.00000,   0.00000,   0.00000,   0.00000,-56531712.00000,   0.00000
-399854410.05998,22380884.89729,-42090581.81941,  -0.00186,   0.00088,  -0.00055,417908928.00000,   0.00000,274640576.00000,   0.00000,   0.00000,   0.00000,-56731648.00000,   0.00000
-399615838.30953,22611300.34858,-41776564.30171,  -0.00186,   0.00088,  -0.00054,417701184.00000,   0.00000,274640576.00000,   0.00000,   0.00000,   0.00000,-56939392.00000,   0.00000
-399391540.08260,22835598.57550,-41462546.78402,  -0.00186,   0.00088,  -0.00054,417505376.00000,   0.00000,274640576.00000,   0.00000,   0.00000,   0.00000,-57135200.00000,   0.00000
-399152968.33215,23066014.02680,-41144451.11675,  -0.00186,   0.00088,  -0.00053,417298656.00000,   0.00000,274640576.00000,   0.00000,   0.00000,   0.00000,-57341920.00000,   0.00000
-398928670.10523,23290312.25372,-40830433.59906,  -0.00186,   0.00088,  -0.00053,417104896.00000,   0.00000,274640576.00000,   0.00000,   0.00000,   0.00000,-57535680.00000,   0.00000
-398704371.87830,23514610.48064,-40516416.08137,  -0.00186,   0.00088,  -0.00053,416912032.00000,   0.00000,274640576.00000,   0.00000,   0.00000,   0.00000,-57728544.00000,   0.00000
-398459682.90348,23759299.45547,-40202398.56368,  -0.00186,   0.00089,  -0.00052,416710656.00000,   0.00000,274640576.00000,   0.00000,   0.00000,   0.00000,-57929920.00000,   0.00000
-398235384.67656,23983597.68239,-39884302.89640,  -0.00186,   0.00089,  -0.00052,416518144.00000,   0.00000,274640576.00000,   0.00000,   0.00000,   0.00000,-58122432.00000,   0.00000
-398004969.22526,24222169.43284,-39570285.37871,  -0.00186,   0.00089,  -0.00051,416329088.00000,   0.00000,274640576.00000,   0.00000,   0.00000,   0.00000,-58311488.00000,   0.00000
-397774553.77397,24460741.18330,-39256267.86102,  -0.00186,   0.00089,  -0.00051,416140832.00000,   0.00000,274640576.00000,   0.00000,   0.00000,   0.00000,-58499744.00000,   0.00000
-397544138.32268,24699312.93375,-38942250.34333,  -0.00186,   0.00089,  -0.00051,415953216.00000,   0.00000,274640576.00000,   0.00000,   0.00000,   0.00000,-58687360.00000,   0.00000
-397313722.87138,24937884.68420,-38628232.82564,  -0.00186,   0.00089,  -0.00050,415766400.00000,   0.00000,274640576.00000,   0.00000,   0.00000,   0.00000,-58874176.00000,   0.00000
-397097580.94362,25170339.21029,-38310137.15837,  -0.00186,   0.00089,  -0.00050,415590016.00000,   0.00000,274640576.00000,   0.00000,   0.00000,   0.00000,-59050560.00000,   0.00000
-396861048.26796,25423184.48427,-37996119.64067,  -0.00186,   0.00089,  -0.00049,415406240.00000,   0.00000,274640576.00000,   0.00000,   0.00000,   0.00000,-59234336.00000,   0.00000
-396644906.34020,25655639.01036,-37682102.12298,  -0.00185,   0.00089,  -0.00049,415232448.00000,   0.00000,274640576.00000,   0.00000,   0.00000,   0.00000,-59408128.00000,   0.00000
-396408373.66453,25908484.28434,-37368084.60529,  -0.00185,   0.00089,  -0.00049,415050240.00000,   0.00000,274640576.00000,   0.00000,   0.00000,   0.00000,-59590336.00000,   0.00000
-396186114.51240,26155212.33396,-37054067.08760,  -0.00185,   0.00089,  -0.00048,414879584.00000,   0.00000,274640576.00000,   0.00000,   0.00000,   0.00000,-59760992.00000,   0.00000
-395963855.36027,26401940.38357,-36740049.56991,  -0.00185,   0.00089,  -0.00048,414709664.00000,   0.00000,274640576.00000,   0.00000,   0.00000,   0.00000,-59930912.00000,   0.00000
-395741596.20814,26648668.43319,-36426032.05222,  -0.00185,   0.00089,  -0.00047,414540608.00000,   0.00000,274640576.00000,   0.00000,   0.00000,   0.00000,-60099968.00000,   0.00000
-395519337.05600,26895396.48280,-36112014.53453,  -0.00185,   0.00089,  -0.00047,414372256.00000,   0.00000,274640576.00000,   0.00000,   0.00000,   0.00000,-60268320.00000,   0.00000
-395290960.67950,27156398.05595,-35797997.01683,  -0.00185,   0.00089,  -0.00047,414206432.00000,   0.00000,274640576.00000,   0.00000,   0.00000,   0.00000,-60434144.00000,   0.00000
-395082975.05090,27397008.88119,-35483979.49914,  -0.00185,   0.00090,  -0.00046,414050560.00000,   0.00000,274640576.00000,   0.00000,   0.00000,   0.00000,-60590016.00000,   0.00000
-394854598.67440,27658010.45434,-35169961.98145,  -0.00185,   0.00090,  -0.00046,413886208.00000,   0.00000,274640576.00000,   0.00000,   0.00000,   0.00000,-60754368.00000,   0.00000
-394640495.82143,27912894.80311,-34855944.46376,  -0.00185,   0.00090,  -0.00045,413733568.00000,   0.00000,274640576.00000,   0.00000,   0.00000,   0.00000,-60907008.00000,   0.00000
-394426392.96845,28167779.15189,-34541926.94607,  -0.00185,   0.00090,  -0.00045,413581664.00000,   0.00000,274640576.00000,   0.00000,   0.00000,   0.00000,-61058912.00000,   0.00000
-394206172.89111,28436937.02419,-34231987.57796,  -0.00185,   0.00090,  -0.00045,413433344.00000,   0.00000,274640576.00000,   0.00000,   0.00000,   0.00000,-61207232.00000,   0.00000
-393992070.03814,28691821.37297,-33917970.06026,  -0.00185,   0.00090,  -0.00044,413283136.00000,   0.00000,274640576.00000,   0.00000,   0.00000,   0.00000,-61357440.00000,   0.00000
-393771849.96080,28960979.24528,-33603952.54257,  -0.00185,   0.00090,  -0.00044,413135392.00000,   0.00000,274640576.00000,   0.00000,   0.00000,   0.00000,-61505184.00000,   0.00000
-393565903.40699,29224019.89321,-33294013.17446,  -0.00185,   0.00090,  -0.00043,413000192.00000,   0.00000,274640576.00000,   0.00000,   0.00000,   0.00000,-61640384.00000,   0.00000
-393359956.85318,29487060.54115,-32979995.65677,  -0.00185,   0.00090,  -0.00043,412864832.00000,   0.00000,274640576.00000,   0.00000,   0.00000,   0.00000,-61775744.00000,   0.00000
-393139736.77584,29756218.41346,-32665978.13908,  -0.00185,   0.00090,  -0.00042,412719520.00000,   0.00000,274640576.00000,   0.00000,   0.00000,   0.00000,-61921056.00000,   0.00000
-392933790.22202,30019259.06139,-32356038.77097,  -0.00185,   0.00090,  -0.00042,412586688.00000,   0.00000,274640576.00000,   0.00000,   0.00000,   0.00000,-62053888.00000,   0.00000
-392735999.96737,30290456.00849,-32046099.40286,  -0.00185,   0.00090,  -0.00042,412467328.00000,   0.00000,274640576.00000,   0.00000,   0.00000,   0.00000,-62173248.00000,   0.00000
-392530053.41356,30553496.65643,-31732081.88517,  -0.00185,   0.00090,  -0.00041,412335136.00000,   0.00000,274640576.00000,   0.00000,   0.00000,   0.00000,-62305440.00000,   0.00000
-392332263.15891,30824693.60352,-31422142.51705,  -0.00185,   0.00091,  -0.00041,412217344.00000,   0.00000,274640576.00000,   0.00000,   0.00000,   0.00000,-62423232.00000,   0.00000
-392134472.90426,31095890.55062,-31112203.14894,  -0.00184,   0.00091,  -0.00040,412100288.00000,   0.00000,274640576.00000,   0.00000,   0.00000,   0.00000,-62540288.00000,   0.00000
-391936682.64961,31367087.49772,-30802263.78083,  -0.00184,   0.00091,  -0.00040,411984000.00000,   0.00000,274640576.00000,   0.00000,   0.00000,   0.00000,-62656576.00000,   0.00000
-391732775.17059,31652557.96835,-30492324.41272,  -0.00184,   0.00091,  -0.00040,411870368.00000,   0.00000,274640576.00000,   0.00000,   0.00000,   0.00000,-62770208.00000,   0.00000
-391549258.43948,31917637.69107,-30182385.04461,  -0.00184,   0.00091,  -0.00039,411766400.00000,   0.00000,274640576.00000,   0.00000,   0.00000,   0.00000,-62874176.00000,   0.00000
-391359624.48399,32196990.93733,-29872445.67650,  -0.00184,   0.00091,  -0.00039,411665120.00000,   0.00000,274640576.00000,   0.00000,   0.00000,   0.00000,-62975456.00000,   0.00000
-391169990.52850,32476344.18359,-29562506.30839,  -0.00184,   0.00091,  -0.00038,411564736.00000,   0.00000,274640576.00000,   0.00000,   0.00000,   0.00000,-63075840.00000,   0.00000
-390980356.57301,32755697.42985,-29252566.94028,  -0.00184,   0.00091,  -0.00038,411465056.00000,   0.00000,274640576.00000,   0.00000,   0.00000,   0.00000,-63175520.00000,   0.00000
-390798878.91668,33043206.97527,-28946705.72175,  -0.00184,   0.00091,  -0.00038,411379680.00000,   0.00000,274640576.00000,   0.00000,   0.00000,   0.00000,-63260896.00000,   0.00000
-390609244.96119,33322560.22153,-28636766.35363,  -0.00184,   0.00091,  -0.00037,411281632.00000,   0.00000,274640576.00000,   0.00000,   0.00000,   0.00000,-63358944.00000,   0.00000
-390427767.30486,33610069.76694,-28326826.98552,  -0.00184,   0.00091,  -0.00037,411196960.00000,   0.00000,274640576.00000,   0.00000,   0.00000,   0.00000,-63443616.00000,   0.00000
-390260563.17207,33891462.08799,-28020965.76699,  -0.00184,   0.00092,  -0.00036,411124736.00000,   0.00000,274640576.00000,   0.00000,   0.00000,   0.00000,-63515840.00000,   0.00000
-390079085.51574,34178971.63341,-27715104.54846,  -0.00184,   0.00092,  -0.00036,411042624.00000,   0.00000,274640576.00000,   0.00000,   0.00000,   0.00000,-63597952.00000,   0.00000
-389911881.38294,34460363.95446,-27409243.32993,  -0.00184,   0.00092,  -0.00036,410972000.00000,   0.00000,274640576.00000,   0.00000,   0.00000,   0.00000,-63668576.00000,   0.00000
-389738560.02577,34756029.79904,-27103382.11140,  -0.00184,   0.00092,  -0.00035,410904096.00000,   0.00000,274640576.00000,   0.00000,   0.00000,   0.00000,-63736480.00000,   0.00000
-389565238.66861,35051695.64362,-26797520.89287,  -0.00184,   0.00092,  -0.00035,410836992.00000,   0.00000,274640576.00000,   0.00000,   0.00000,   0.00000,-63803584.00000,   0.00000
-389406190.83497,35341244.26383,-26491659.67434,  -0.00184,   0.00092,  -0.00034,410781440.00000,   0.00000,274640576.00000,   0.00000,   0.00000,   0.00000,-63859136.00000,   0.00000
-389247143.00133,35630792.88404,-26185798.45581,  -0.00184,   0.00092,  -0.00034,410726816.00000,   0.00000,274640576.00000,   0.00000,   0.00000,   0.00000,-63913760.00000,   0.00000
-389088095.16770,35920341.50425,-25879937.23728,  -0.00184,   0.00092,  -0.00034,410672992.00000,   0.00000,274640576.00000,   0.00000,   0.00000,   0.00000,-63967584.00000,   0.00000
-388922930.10969,36224163.64799,-25578154.16833,  -0.00184,   0.00092,  -0.00033,410622656.00000,   0.00000,274640576.00000,   0.00000,   0.00000,   0.00000,-64017920.00000,   0.00000
-388778155.79959,36507595.04382,-25272292.94980,  -0.00184,   0.00092,  -0.00033,410581152.00000,   0.00000,274640576.00000,   0.00000,   0.00000,   0.00000,-64059424.00000,   0.00000
-388627264.26511,36805299.96319,-24970509.88085,  -0.00184,   0.00093,  -0.00032,410543264.00000,   0.00000,274640576.00000,   0.00000,   0.00000,   0.00000,-64097312.00000,   0.00000
-388484529.02980,37111161.18173,-24668726.81190,  -0.00184,   0.00093,  -0.00032,410518752.00000,   0.00000,274640576.00000,   0.00000,   0.00000,   0.00000,-64121824.00000,   0.00000
-388333637.49532,37408866.10110,-24362865.59337,  -0.00184,   0.00093,  -0.00032,410481792.00000,   0.00000,274640576.00000,   0.00000,   0.00000,   0.00000,-64158784.00000,   0.00000
-388197019.48438,37700453.79609,-24061082.52442,  -0.00184,   0.00093,  -0.00031,410457088.00000,   0.00000,274640576.00000,   0.00000,   0.00000,   0.00000,-64183488.00000,   0.00000
-388068557.77260,38000197.79025,-23763377.60505,  -0.00184,   0.00093,  -0.00031,410446560.00000,   0.00000,274640576.00000,   0.00000,   0.00000,   0.00000,-64194016.00000,   0.00000
-387925822.53728,38306059.00879,-23461594.53610,  -0.00184,   0.00093,  -0.00031,410425440.00000,   0.00000,274640576.00000,   0.00000,   0.00000,   0.00000,-64215136.00000,   0.00000
-387791243.60113,38620076.52648,-23159811.46714,  -0.00184,   0.00093,  -0.00030,410417984.00000,   0.00000,274640576.00000,   0.00000,   0.00000,   0.00000,-64222592.00000,   0.00000
-387677055.41288,38913703.29627,-22862106.54778,  -0.00184,   0.00093,  -0.00030,410420768.00000,   0.00000,274640576.00000,   0.00000,   0.00000,   0.00000,-64219808.00000,   0.00000
-387542476.47672,39227720.81396,-22564401.62841,  -0.00184,   0.00093,  -0.00029,410415584.00000,   0.00000,274640576.00000,   0.00000,   0.00000,   0.00000,-64224992.00000,   0.00000
-387422171.06410,39535621.10728,-22262618.55945,  -0.00184,   0.00094,  -0.00029,410421312.00000,   0.00000,274640576.00000,   0.00000,   0.00000,   0.00000,-64219264.00000,   0.00000
-387316139.17501,39837404.17623,-21964913.64008,  -0.00184,   0.00094,  -0.00029,410439328.00000,   0.00000,274640576.00000,   0.00000,   0.00000,   0.00000,-64201248.00000,   0.00000
-387195833.76239,40145304.46955,-21667208.72072,  -0.00184,   0.00094,  -0.00028,410447488.00000,   0.00000,274640576.00000,   0.00000,   0.00000,   0.00000,-64193088.00000,   0.00000
-387083684.64893,40461361.06203,-21373581.95093,  -0.00184,   0.00094,  -0.00028,410469728.00000,   0.00000,274640576.00000,   0.00000,   0.00000,   0.00000,-64170848.00000,   0.00000
-386991926.28337,40757026.90661,-21075877.03156,  -0.00184,   0.00094,  -0.00027,410500960.00000,   0.00000,274640576.00000,   0.00000,   0.00000,   0.00000,-64139616.00000,   0.00000
-386887933.46907,41081239.79825,-20778172.11219,  -0.00184,   0.00094,  -0.00027,410537088.00000,   0.00000,274640576.00000,   0.00000,   0.00000,   0.00000,-64103488.00000,   0.00000
-386790057.87914,41391179.16637,-20484545.34240,  -0.00184,   0.00094,  -0.00027,410572640.00000,   0.00000,274640576.00000,   0.00000,   0.00000,   0.00000,-64067936.00000,   0.00000
-386692182.28921,41701118.53448,-20190918.57261,  -0.00184,   0.00094,  -0.00026,410609056.00000,   0.00000,274640576.00000,   0.00000,   0.00000,   0.00000,-64031520.00000,   0.00000
-386602462.99844,42019214.20175,-19897291.80282,  -0.00184,   0.00095,  -0.00026,410659040.00000,   0.00000,274640576.00000,   0.00000,   0.00000,   0.00000,-63981536.00000,   0.00000
-386512743.70767,42337309.86902,-19603665.03303,  -0.00184,   0.00095,  -0.00025,410709952.00000,   0.00000,274640576.00000,   0.00000,   0.00000,   0.00000,-63930624.00000,   0.00000
-386437297.94043,42649288.31192,-19310038.26324,  -0.00184,   0.00095,  -0.00025,410772224.00000,   0.00000,274640576.00000,   0.00000,   0.00000,   0.00000,-63868352.00000,   0.00000
-386355734.94882,42975540.27835,-19020489.64303,  -0.00184,   0.00095,  -0.00025,410838176.00000,   0.00000,274640576.00000,   0.00000,   0.00000,   0.00000,-63802400.00000,   0.00000
-386280289.18159,43287518.72126,-18730941.02282,  -0.00184,   0.00095,  -0.00024,410902720.00000,   0.00000,274640576.00000,   0.00000,   0.00000,   0.00000,-63737856.00000,   0.00000
-386212999.71351,43607653.46332,-18437314.25303,  -0.00184,   0.00095,  -0.00024,410980384.00000,   0.00000,274640576.00000,   0.00000,   0.00000,   0.00000,-63660192.00000,   0.00000
-386145710.24543,43927788.20538,-18147765.63282,  -0.00184,   0.00095,  -0.00024,411059520.00000,   0.00000,274640576.00000,   0.00000,   0.00000,   0.00000,-63581056.00000,   0.00000
-386086577.07652,44256079.24660,-17862295.16219,  -0.00184,   0.00095,  -0.00023,411152736.00000,   0.00000,274640576.00000,   0.00000,   0.00000,   0.00000,-63487840.00000,   0.00000
-386033561.13197,44570096.76429,-17572746.54198,  -0.00184,   0.00096,  -0.00023,411244064.00000,   0.00000,274640576.00000,   0.00000,   0.00000,   0.00000,-63396512.00000,   0.00000
-385988701.48659,44892270.58115,-17283197.92178,  -0.00184,   0.00096,  -0.00022,411349152.00000,   0.00000,274640576.00000,   0.00000,   0.00000,   0.00000,-63291424.00000,   0.00000
-385929568.31767,45220561.62237,-16997727.45115,  -0.00184,   0.00096,  -0.00022,411444768.00000,   0.00000,274640576.00000,   0.00000,   0.00000,   0.00000,-63195808.00000,   0.00000
-385892864.97145,45550891.73838,-16712256.98052,  -0.00184,   0.00096,  -0.00022,411564736.00000,   0.00000,274640576.00000,   0.00000,   0.00000,   0.00000,-63075840.00000,   0.00000
-385848005.32606,45873065.55524,-16426786.50989,  -0.00185,   0.00096,  -0.00021,411672800.00000,   0.00000,274640576.00000,   0.00000,   0.00000,   0.00000,-62967776.00000,   0.00000
-385825575.50337,46197278.44688,-16141316.03926,  -0.00185,   0.00096,  -0.00021,411804864.00000,   0.00000,274640576.00000,   0.00000,   0.00000,   0.00000,-62835712.00000,   0.00000
-385788872.15715,46527608.56289,-15859923.71821,  -0.00185,   0.00096,  -0.00021,411927808.00000,   0.00000,274640576.00000,   0.00000,   0.00000,   0.00000,-62712768.00000,   0.00000
-385760325.11008,46866094.97806,-15578531.39716,  -0.00185,   0.00097,  -0.00020,412064352.00000,   0.00000,274640576.00000,   0.00000,   0.00000,   0.00000,-62576224.00000,   0.00000
-385752168.81092,47184190.64534,-15293060.92654,  -0.00185,   0.00097,  -0.00020,412209536.00000,   0.00000,274640576.00000,   0.00000,   0.00000,   0.00000,-62431040.00000,   0.00000
-385723621.76386,47522677.06051,-15015746.75507,  -0.00185,   0.00097,  -0.00020,412348128.00000,   0.00000,274640576.00000,   0.00000,   0.00000,   0.00000,-62292448.00000,   0.00000
-385723621.76386,47848929.02694,-14734354.43402,  -0.00185,   0.00097,  -0.00019,412508224.00000,   0.00000,274640576.00000,   0.00000,   0.00000,   0.00000,-62132352.00000,   0.00000
-385703231.01596,48195571.74128,-14452962.11297,  -0.00185,   0.00097,  -0.00019,412660864.00000,   0.00000,274640576.00000,   0.00000,   0.00000,   0.00000,-61979712.00000,   0.00000
-385717504.53949,48515706.48334,-14175647.94150,  -0.00185,   0.00097,  -0.00018,412833504.00000,   0.00000,274640576.00000,   0.00000,   0.00000,   0.00000,-61807072.00000,   0.00000
-385711387.31512,48856231.97330,-13898333.77004,  -0.00185,   0.00097,  -0.00018,412998688.00000,   0.00000,274640576.00000,   0.00000,   0.00000,   0.00000,-61641888.00000,   0.00000
-385733817.13781,49184523.01453,-13621019.59857,  -0.00185,   0.00098,  -0.00018,413185856.00000,   0.00000,274640576.00000,   0.00000,   0.00000,   0.00000,-61454720.00000,   0.00000
-385735856.21260,49533204.80365,-13343705.42710,  -0.00185,   0.00098,  -0.00017,413365408.00000,   0.00000,274640576.00000,   0.00000,   0.00000,   0.00000,-61275168.00000,   0.00000
-385758286.03529,49861495.84488,-13070469.40521,  -0.00185,   0.00098,  -0.00017,413554336.00000,   0.00000,274640576.00000,   0.00000,   0.00000,   0.00000,-61086240.00000,   0.00000
-385788872.15715,50197943.18526,-12797233.38332,  -0.00185,   0.00098,  -0.00017,413757024.00000,   0.00000,274640576.00000,   0.00000,   0.00000,   0.00000,-60883552.00000,   0.00000
-385813341.05463,50548664.04917,-12523997.36144,  -0.00185,   0.00098,  -0.00016,413962656.00000,   0.00000,274640576.00000,   0.00000,   0.00000,   0.00000,-60677920.00000,   0.00000
-385843927.17648,50885111.38956,-12250761.33955,  -0.00185,   0.00098,  -0.00016,414166944.00000,   0.00000,274640576.00000,   0.00000,   0.00000,   0.00000,-60473632.00000,   0.00000
-385882669.59750,51229715.02910,-11977525.31766,  -0.00186,   0.00099,  -0.00016,414384640.00000,   0.00000,274640576.00000,   0.00000,   0.00000,   0.00000,-60255936.00000,   0.00000
-385935685.54204,51568201.44428,-11708367.44536,  -0.00186,   0.00099,  -0.00015,414614144.00000,   0.00000,274640576.00000,   0.00000,   0.00000,   0.00000,-60026432.00000,   0.00000
-385988701.48659,51906687.85945,-11439209.57305,  -0.00186,   0.00099,  -0.00015,414844288.00000,   0.00000,274640576.00000,   0.00000,   0.00000,   0.00000,-59796288.00000,   0.00000
-386035600.20676,52259447.79816,-11170051.70074,  -0.00186,   0.00099,  -0.00015,415077440.00000,   0.00000,274640576.00000,   0.00000,   0.00000,   0.00000,-59563136.00000,   0.00000
-386096772.45047,52606090.51249,-10900893.82843,  -0.00186,   0.00099,  -0.00014,415321984.00000,   0.00000,274640576.00000,   0.00000,   0.00000,   0.00000,-59318592.00000,   0.00000
-386172218.21771,52946616.00246,-10635814.10571,  -0.00186,   0.00099,  -0.00014,415578176.00000,   0.00000,274640576.00000,   0.00000,   0.00000,   0.00000,-59062400.00000,   0.00000
-386247663.98494,53287141.49242,-10370734.38298,  -0.00186,   0.00100,  -0.00013,415834944.00000,   0.00000,274640576.00000,   0.00000,   0.00000,   0.00000,-58805632.00000,   0.00000
-386316992.52781,53641940.50591,-10105654.66025,  -0.00186,   0.00100,  -0.00013,416094816.00000,   0.00000,274640576.00000,   0.00000,   0.00000,   0.00000,-58545760.00000,   0.00000
-386400594.59421,53990622.29504,-9840574.93753,  -0.00186,   0.00100,  -0.00013,416366016.00000,   0.00000,274640576.00000,   0.00000,   0.00000,   0.00000,-58274560.00000,   0.00000
-386484196.66061,54339304.08416,-9579573.36438,  -0.00186,   0.00100,  -0.00012,416638112.00000,   0.00000,274640576.00000,   0.00000,   0.00000,   0.00000,-58002464.00000,   0.00000
-386582072.25054,54681868.64892,-9318571.79124,  -0.00187,   0.00100,  -0.00012,416921312.00000,   0.00000,274640576.00000,   0.00000,   0.00000,   0.00000,-57719264.00000,   0.00000
-386688104.13963,55032589.51283,-9057570.21809,  -0.00187,   0.00100,  -0.00012,417218400.00000,   0.00000,274640576.00000,   0.00000,   0.00000,   0.00000,-57422176.00000,   0.00000
-386794136.02872,55383310.37675,-8796568.64494,  -0.00187,   0.00101,  -0.00011,417516096.00000,   0.00000,274640576.00000,   0.00000,   0.00000,   0.00000,-57124480.00000,   0.00000
-386894050.69344,55748304.76420,-8539645.22138,  -0.00187,   0.00101,  -0.00011,417817056.00000,   0.00000,274640576.00000,   0.00000,   0.00000,   0.00000,-56823520.00000,   0.00000
-387028629.62959,56086791.17937,-8282721.79781,  -0.00187,   0.00101,  -0.00011,418137216.00000,   0.00000,274640576.00000,   0.00000,   0.00000,   0.00000,-56503360.00000,   0.00000
-387142817.81784,56445668.34245,-8025798.37425,  -0.00187,   0.00101,  -0.00010,418450272.00000,   0.00000,274640576.00000,   0.00000,   0.00000,   0.00000,-56190304.00000,   0.00000
-387265162.30526,56812701.80468,-7768874.95068,  -0.00187,   0.00101,  -0.00010,418776608.00000,   0.00000,274640576.00000,   0.00000,   0.00000,   0.00000,-55863968.00000,   0.00000
-387407897.54057,57159344.51902,-7516029.67669,  -0.00187,   0.00102,  -0.00010,419112096.00000,   0.00000,274640576.00000,   0.00000,   0.00000,   0.00000,-55528480.00000,   0.00000
-387544515.55151,57520260.75688,-7263184.40271,  -0.00188,   0.00102,  -0.00009,419450560.00000,   0.00000,274640576.00000,   0.00000,   0.00000,   0.00000,-55190016.00000,   0.00000
-387695407.08599,57875059.77038,-7010339.12872,  -0.00188,   0.00102,  -0.00009,419800352.00000,   0.00000,274640576.00000,   0.00000,   0.00000,   0.00000,-54840224.00000,   0.00000
-387846298.62046,58229858.78388,-6761572.00432,  -0.00188,   0.00102,  -0.00009,420150848.00000,   0.00000,274640576.00000,   0.00000,   0.00000,   0.00000,-54489728.00000,   0.00000
-388005346.45410,58592814.09653,-6512804.87991,  -0.00188,   0.00102,  -0.00008,420515040.00000,   0.00000,274640576.00000,   0.00000,   0.00000,   0.00000,-54125536.00000,   0.00000
-388178667.81127,58949652.18482,-6264037.75551,  -0.00188,   0.00103,  -0.00008,420890240.00000,   0.00000,274640576.00000,   0.00000,   0.00000,   0.00000,-53750336.00000,   0.00000
-388337715.64490,59312607.49747,-6015270.63110,  -0.00188,   0.00103,  -0.00008,421255616.00000,   0.00000,274640576.00000,   0.00000,   0.00000,   0.00000,-53384960.00000,   0.00000
-388519193.30123,59677601.88492,-5770581.65628,  -0.00188,   0.00103,  -0.00008,421645280.00000,   0.00000,274640576.00000,   0.00000,   0.00000,   0.00000,-52995296.00000,   0.00000
-388700670.95756,60042596.27237,-5525892.68145,  -0.00189,   0.00103,  -0.00007,422035520.00000,   0.00000,274640576.00000,   0.00000,   0.00000,   0.00000,-52605056.00000,   0.00000
-388896422.13742,60401473.43544,-5281203.70663,  -0.00189,   0.00103,  -0.00007,422436864.00000,   0.00000,274640576.00000,   0.00000,   0.00000,   0.00000,-52203712.00000,   0.00000
-389086056.09291,60774624.12205,-5040592.88139,  -0.00189,   0.00104,  -0.00007,422841440.00000,   0.00000,274640576.00000,   0.00000,   0.00000,   0.00000,-51799136.00000,   0.00000
-389296080.79630,61127384.06076,-4795903.90656,  -0.00189,   0.00104,  -0.00006,423254400.00000,   0.00000,274640576.00000,   0.00000,   0.00000,   0.00000,-51386176.00000,   0.00000
-389493871.05095,61508691.04652,-4559371.23090,  -0.00189,   0.00104,  -0.00006,423673376.00000,   0.00000,274640576.00000,   0.00000,   0.00000,   0.00000,-50967200.00000,   0.00000
-389712052.05350,61869607.28439,-4318760.40565,  -0.00189,   0.00104,  -0.00006,424100640.00000,   0.00000,274640576.00000,   0.00000,   0.00000,   0.00000,-50539936.00000,   0.00000
-389924115.83168,62244797.04579,-4082227.72999,  -0.00190,   0.00104,  -0.00005,424531232.00000,   0.00000,274640576.00000,   0.00000,   0.00000,   0.00000,-50109344.00000,   0.00000
-390150453.13340,62613869.58282,-3845695.05433,  -0.00190,   0.00105,  -0.00005,424972800.00000,   0.00000,274640576.00000,   0.00000,   0.00000,   0.00000,-49667776.00000,   0.00000
-390391063.95864,62976824.89547,-3609162.37866,  -0.00190,   0.00105,  -0.00005,425425376.00000,   0.00000,274640576.00000,   0.00000,   0.00000,   0.00000,-49215200.00000,   0.00000
-390625557.55951,63354053.73166,-3376707.85258,  -0.00190,   0.00105,  -0.00004,425881152.00000,   0.00000,274640576.00000,   0.00000,   0.00000,   0.00000,-48759424.00000,   0.00000
-390874324.68392,63725165.34348,-3144253.32650,  -0.00190,   0.00105,  -0.00004,426347872.00000,   0.00000,274640576.00000,   0.00000,   0.00000,   0.00000,-48292704.00000,   0.00000
-391123091.80832,64096276.95529,-2911798.80041,  -0.00190,   0.00105,  -0.00004,426815264.00000,   0.00000,274640576.00000,   0.00000,   0.00000,   0.00000,-47825312.00000,   0.00000
-391380015.23189,64475544.86627,-2683422.42391,  -0.00191,   0.00106,  -0.00003,427296128.00000,   0.00000,274640576.00000,   0.00000,   0.00000,   0.00000,-47344448.00000,   0.00000
-391651212.17899,64848695.55288,-2455046.04741,  -0.00191,   0.00106,  -0.00003,427788128.00000,   0.00000,274640576.00000,   0.00000,   0.00000,   0.00000,-46852448.00000,   0.00000
-391922409.12608,65221846.23949,-2226669.67090,  -0.00191,   0.00106,  -0.00003,428280416.00000,   0.00000,274640576.00000,   0.00000,   0.00000,   0.00000,-46360160.00000,   0.00000
-392207879.59671,65588879.70172,-2002371.44398,  -0.00191,   0.00106,  -0.00003,428783808.00000,   0.00000,274640576.00000,   0.00000,   0.00000,   0.00000,-45856768.00000,   0.00000
-392487232.84297,65970186.68749,-1778073.21706,  -0.00191,   0.00107,  -0.00002,429290336.00000,   0.00000,274640576.00000,   0.00000,   0.00000,   0.00000,-45350240.00000,   0.00000
-392780859.61276,66345376.44889,-1553774.99014,  -0.00192,   0.00107,  -0.00002,429807616.00000,   0.00000,274640576.00000,   0.00000,   0.00000,   0.00000,-44832960.00000,   0.00000
-393068369.15818,66734839.73382,-1333554.91279,  -0.00192,   0.00107,  -0.00002,430328320.00000,   0.00000,274640576.00000,   0.00000,   0.00000,   0.00000,-44312256.00000,   0.00000
-393370152.22713,67118185.79438,-1113334.83545,  -0.00192,   0.00107,  -0.00001,430859712.00000,   0.00000,274640576.00000,   0.00000,   0.00000,   0.00000,-43780864.00000,   0.00000
-393686208.81961,67495414.63057,-893114.75811,  -0.00192,   0.00107,  -0.00001,431401952.00000,   0.00000,274640576.00000,   0.00000,   0.00000,   0.00000,-43238624.00000,   0.00000
-394016538.93562,67866526.24238,-676972.83035,  -0.00193,   0.00108,  -0.00001,431955072.00000,   0.00000,274640576.00000,   0.00000,   0.00000,   0.00000,-42685504.00000,   0.00000
-394326478.30373,68258028.60210,-456752.75301,  -0.00193,   0.00108,  -0.00001,432500896.00000,   0.00000,274640576.00000,   0.00000,   0.00000,   0.00000,-42139680.00000,   0.00000
-394664964.71891,68637296.51308,-244688.97482,  -0.00193,   0.00108,  -0.00000,433068096.00000,   0.00000,274640576.00000,   0.00000,   0.00000,   0.00000,-41572480.00000,   0.00000
-394997333.90971,69030837.94759,-28547.04706,  -0.00193,   0.00108,  -0.00000,433638336.00000,   0.00000,274640576.00000,   0.00000,   0.00000,   0.00000,-41002240.00000,   0.00000
-395343976.62405,69418262.15773,183516.73112,  -0.00193,   0.00109,   0.00000,434219232.00000,   0.00000,274640576.00000,   0.00000,   0.00000,   0.00000,-40421344.00000,   0.00000
-395690619.33838,69805686.36787,391502.35972,  -0.00194,   0.00109,   0.00001,434800704.00000,   0.00000,274640576.00000,   0.00000,   0.00000,   0.00000,-39839872.00000,   0.00000
-396051535.57625,70186993.35364,599487.98832,  -0.00194,   0.00109,   0.00001,435392928.00000,   0.00000,274640576.00000,   0.00000,   0.00000,   0.00000,-39247648.00000,   0.00000
-396420608.11327,70576456.63856,807473.61692,  -0.00194,   0.00109,   0.00001,435998592.00000,   0.00000,274640576.00000,   0.00000,   0.00000,   0.00000,-38641984.00000,   0.00000
-396789680.65030,70965919.92349,1015459.24552,  -0.00194,   0.00110,   0.00001,436604704.00000,   0.00000,274640576.00000,   0.00000,   0.00000,   0.00000,-38035872.00000,   0.00000
-397166909.48649,71363539.50758,1219366.72454,  -0.00195,   0.00110,   0.00002,437224000.00000,   0.00000,274640576.00000,   0.00000,   0.00000,   0.00000,-37416576.00000,   0.00000
-397544138.32268,71761159.09167,1423274.20356,  -0.00195,   0.00110,   0.00002,437843968.00000,   0.00000,274640576.00000,   0.00000,   0.00000,   0.00000,-36796608.00000,   0.00000
-397935640.68240,72152661.45139,1623103.53300,  -0.00195,   0.00110,   0.00002,438474432.00000,   0.00000,274640576.00000,   0.00000,   0.00000,   0.00000,-36166144.00000,   0.00000
-398335299.34128,72552320.11027,1827011.01202,  -0.00195,   0.00111,   0.00002,439118528.00000,   0.00000,274640576.00000,   0.00000,   0.00000,   0.00000,-35522048.00000,   0.00000
-398741075.22453,72937705.24562,2022762.19188,  -0.00196,   0.00111,   0.00003,439760128.00000,   0.00000,274640576.00000,   0.00000,   0.00000,   0.00000,-34880448.00000,   0.00000
-399148890.18257,73345520.20366,2222591.52132,  -0.00196,   0.00111,   0.00003,440417888.00000,   0.00000,274640576.00000,   0.00000,   0.00000,   0.00000,-34222688.00000,   0.00000
-399577095.88851,73732944.41380,2418342.70118,  -0.00196,   0.00111,   0.00003,441083552.00000,   0.00000,274640576.00000,   0.00000,   0.00000,   0.00000,-33557024.00000,   0.00000
-399999184.37008,74134642.14747,2610015.73146,  -0.00196,   0.00112,   0.00003,441752256.00000,   0.00000,274640576.00000,   0.00000,   0.00000,   0.00000,-32888320.00000,   0.00000
-400435546.37519,74530222.65677,2805766.91132,  -0.00197,   0.00112,   0.00004,442431776.00000,   0.00000,274640576.00000,   0.00000,   0.00000,   0.00000,-32208800.00000,   0.00000
-400865791.15592,74940076.68960,2993361.79202,  -0.00197,   0.00112,   0.00004,443114208.00000,   0.00000,274640576.00000,   0.00000,   0.00000,   0.00000,-31526368.00000,   0.00000
-401310309.46019,75343813.49806,3185034.82230,  -0.00197,   0.00113,   0.00004,443807360.00000,   0.00000,274640576.00000,   0.00000,   0.00000,   0.00000,-30833216.00000,   0.00000
-401769101.28798,75741433.08215,3372629.70300,  -0.00198,   0.00113,   0.00004,444511072.00000,   0.00000,274640576.00000,   0.00000,   0.00000,   0.00000,-30129504.00000,   0.00000
-402221775.89141,76153326.18977,3560224.58370,  -0.00198,   0.00113,   0.00005,445217920.00000,   0.00000,274640576.00000,   0.00000,   0.00000,   0.00000,-29422656.00000,   0.00000
-402688724.01836,76559102.07303,3743741.31482,  -0.00198,   0.00113,   0.00005,445935424.00000,   0.00000,274640576.00000,   0.00000,   0.00000,   0.00000,-28705152.00000,   0.00000
-403169945.66885,76958760.73191,3927258.04593,  -0.00198,   0.00114,   0.00005,446663456.00000,   0.00000,274640576.00000,   0.00000,   0.00000,   0.00000,-27977120.00000,   0.00000
-403645050.09497,77372692.91432,4110774.77705,  -0.00199,   0.00114,   0.00005,447394624.00000,   0.00000,274640576.00000,   0.00000,   0.00000,   0.00000,-27245952.00000,   0.00000
-404134428.04462,77780507.87236,4290213.35859,  -0.00199,   0.00114,   0.00006,448136480.00000,   0.00000,274640576.00000,   0.00000,   0.00000,   0.00000,-26504096.00000,   0.00000
-404631962.29343,78196479.12956,4469651.94013,  -0.00199,   0.00114,   0.00006,448891648.00000,   0.00000,274640576.00000,   0.00000,   0.00000,   0.00000,-25748928.00000,   0.00000
-405135613.76661,78598176.86323,4645012.37209,  -0.00200,   0.00115,   0.00006,449644160.00000,   0.00000,274640576.00000,   0.00000,   0.00000,   0.00000,-24996416.00000,   0.00000
-405641304.31458,79022304.41959,4820372.80404,  -0.00200,   0.00115,   0.00006,450412960.00000,   0.00000,274640576.00000,   0.00000,   0.00000,   0.00000,-24227616.00000,   0.00000
-406153112.08692,79432158.45242,4991655.08642,  -0.00200,   0.00115,   0.00006,451179264.00000,   0.00000,274640576.00000,   0.00000,   0.00000,   0.00000,-23461312.00000,   0.00000
-406673076.15842,79850168.78442,5167015.51838,  -0.00201,   0.00116,   0.00007,451959232.00000,   0.00000,274640576.00000,   0.00000,   0.00000,   0.00000,-22681344.00000,   0.00000
-407207313.75346,80262061.89204,5334219.65118,  -0.00201,   0.00116,   0.00007,452749408.00000,   0.00000,274640576.00000,   0.00000,   0.00000,   0.00000,-21891168.00000,   0.00000
-407735434.12412,80688228.52319,5505501.93355,  -0.00201,   0.00116,   0.00007,453543104.00000,   0.00000,274640576.00000,   0.00000,   0.00000,   0.00000,-21097472.00000,   0.00000
-408277828.01832,81108277.92997,5672706.06635,  -0.00202,   0.00117,   0.00007,454347168.00000,   0.00000,274640576.00000,   0.00000,   0.00000,   0.00000,-20293408.00000,   0.00000
-408834495.43604,81522210.11238,5835832.04957,  -0.00202,   0.00117,   0.00008,455161728.00000,   0.00000,274640576.00000,   0.00000,   0.00000,   0.00000,-19478848.00000,   0.00000
-409385045.62940,81950415.81833,5998958.03278,  -0.00202,   0.00117,   0.00008,455979552.00000,   0.00000,274640576.00000,   0.00000,   0.00000,   0.00000,-18661024.00000,   0.00000
-409949869.34628,82372504.29990,6162084.01600,  -0.00203,   0.00117,   0.00008,456808000.00000,   0.00000,274640576.00000,   0.00000,   0.00000,   0.00000,-17832576.00000,   0.00000
-410514693.06317,82794592.78147,6321131.84963,  -0.00203,   0.00118,   0.00008,457636768.00000,   0.00000,274640576.00000,   0.00000,   0.00000,   0.00000,-17003808.00000,   0.00000
-411101946.60275,83218720.33783,6480179.68327,  -0.00203,   0.00118,   0.00008,458489376.00000,   0.00000,274640576.00000,   0.00000,   0.00000,   0.00000,-16151200.00000,   0.00000
-411668809.39443,83663238.64210,6639227.51691,  -0.00204,   0.00118,   0.00009,459335040.00000,   0.00000,274640576.00000,   0.00000,   0.00000,   0.00000,-15305536.00000,   0.00000
-412270336.45754,84081248.97409,6794197.20096,  -0.00204,   0.00119,   0.00009,460198592.00000,   0.00000,274640576.00000,   0.00000,   0.00000,   0.00000,-14441984.00000,   0.00000
-412865746.29628,84513532.82961,6945088.73544,  -0.00204,   0.00119,   0.00009,461065280.00000,   0.00000,274640576.00000,   0.00000,   0.00000,   0.00000,-13575296.00000,   0.00000
-413475429.65855,84939699.46077,7100058.41949,  -0.00205,   0.00119,   0.00009,461942976.00000,   0.00000,274640576.00000,   0.00000,   0.00000,   0.00000,-12697600.00000,   0.00000
-414078995.79645,85380139.61545,7246871.80439,  -0.00205,   0.00120,   0.00009,462823776.00000,   0.00000,274640576.00000,   0.00000,   0.00000,   0.00000,-11816800.00000,   0.00000
-414696835.45788,85814462.54576,7397763.33886,  -0.00205,   0.00120,   0.00010,463715424.00000,   0.00000,274640576.00000,   0.00000,   0.00000,   0.00000,-10925152.00000,   0.00000
-415322831.41847,86256941.77524,7544576.72376,  -0.00206,   0.00120,   0.00010,464620768.00000,   0.00000,274640576.00000,   0.00000,   0.00000,   0.00000,-10019808.00000,   0.00000
-415948827.37906,86699421.00471,7687311.95907,  -0.00206,   0.00121,   0.00010,465526432.00000,   0.00000,274640576.00000,   0.00000,   0.00000,   0.00000,-9114144.00000,   0.00000
-416589096.86319,87135783.00982,7830047.19439,  -0.00207,   0.00121,   0.00010,466442816.00000,   0.00000,274640576.00000,   0.00000,   0.00000,   0.00000,-8197760.00000,   0.00000
-417243639.87084,87566027.79055,7972782.42970,  -0.00207,   0.00121,   0.00010,467369984.00000,   0.00000,274640576.00000,   0.00000,   0.00000,   0.00000,-7270592.00000,   0.00000
-417892065.65413,88010546.09481,8111439.51543,  -0.00207,   0.00122,   0.00011,468300448.00000,   0.00000,274640576.00000,   0.00000,   0.00000,   0.00000,-6340128.00000,   0.00000
-418548647.73658,88463220.69824,8250096.60117,  -0.00208,   0.00122,   0.00011,469244608.00000,   0.00000,274640576.00000,   0.00000,   0.00000,   0.00000,-5395968.00000,   0.00000
-419205229.81902,88915895.30167,8384675.53732,  -0.00208,   0.00122,   0.00011,470188960.00000,   0.00000,274640576.00000,   0.00000,   0.00000,   0.00000,-4451616.00000,   0.00000
-419876085.42500,89362452.68072,8519254.47348,  -0.00208,   0.00123,   0.00011,471143776.00000,   0.00000,274640576.00000,   0.00000,   0.00000,   0.00000,-3496800.00000,   0.00000
-420561214.55451,89802892.83540,8653833.40963,  -0.00209,   0.00123,   0.00011,472108960.00000,   0.00000,274640576.00000,   0.00000,   0.00000,   0.00000,-2531616.00000,   0.00000
-421254499.98318,90251489.28925,8784334.19620,  -0.00209,   0.00123,   0.00011,473086848.00000,   0.00000,274640576.00000,   0.00000,   0.00000,   0.00000,-1553728.00000,   0.00000
-421941668.18748,90714359.26663,8910756.83319,  -0.00210,   0.00124,   0.00012,474067104.00000,   0.00000,274640576.00000,   0.00000,   0.00000,   0.00000,-573472.00000,   0.00000
-422349244.19144,90978084.91625,8985079.51627,  -0.00210,   0.00124,   0.00012,474641472.00000,   0.00000,274640576.00000,   0.00000,   0.00000,   0.00000, 896.00000,   0.00000
-422294597.12438,91060293.66123,9029454.77121,  -0.00210,   0.00124,   0.00012,474641472.00000,   0.00000,274642432.00000,  -0.00000,   0.00000,   0.00000,   0.00000,   2.00000
-422158025.77220,91269088.01580,9136643.60848,  -0.00210,   0.00124,   0.00012,475644992.00000,   0.00001,274647104.00000,  -0.00001,   0.00000,   0.00000, -64.00000,   2.00000
-422030575.94964,91464014.21745,9239595.06725,  -0.00211,   0.00125,   0.00012,475646432.00000,   0.00001,274651744.00000,  -0.00001,   0.00001,   0.00000,  32.00000,   2.00000
-421894594.49809,91671955.43864,9342260.80702,  -0.00211,   0.00125,   0.00012,475654240.00000,   0.00001,274656384.00000,  -0.00001,   0.00001,   0.00000,  32.00000,   2.00000
-421770357.12557,91862048.22224,9440244.30324,  -0.00212,   0.00125,   0.00012,475679136.00000,   0.00002,274661120.00000,  -0.00002,   0.00001,   0.00000, 128.00000,   2.00000
-421631904.84352,92073894.67198,9538141.91854,  -0.00212,   0.00126,   0.00013,475676800.00000,   0.00002,274665856.00000,  -0.00002,   0.00002,   0.00000,  32.00000,   2.00000
-421505023.31647,92267816.12008,9635420.30939,  -0.00213,   0.00126,   0.00013,475701952.00000,   0.00003,274670656.00000,  -0.00003,   0.00002,   0.00000, 128.00000,   2.00000
-421369780.79837,92474814.15278,9728344.92700,  -0.00213,   0.00126,   0.00013,475709792.00000,   0.00003,274675488.00000,  -0.00003,   0.00002,   0.00000,   0.00000,   2.00000
-421240697.06663,92672714.34878,9816784.35999,  -0.00213,   0.00127,   0.00013,475724640.00000,   0.00004,274680352.00000,  -0.00004,   0.00002,   0.00000,  32.00000,   2.00000
-421111718.63806,92870163.98572,9905013.60869,  -0.00214,   0.00127,   0.00013,475729568.00000,   0.00004,274685216.00000,  -0.00004,   0.00003,   0.00000,  32.00000,   2.00000
-420980000.87823,93071918.78772,9992762.22311,  -0.00214,   0.00127,   0.00013,475747712.00000,   0.00005,274690144.00000,  -0.00005,   0.00003,   0.00000, -32.00000,   2.00000
-420854498.85655,93264596.69885,10076028.66634,  -0.00215,   0.00128,   0.00013,475762688.00000,   0.00005,274695136.00000,  -0.00005,   0.00003,   0.00000, 128.00000,   2.00000
-420729016.66609,93456814.25712,10159090.47166,  -0.00215,   0.00128,   0.00014,475767904.00000,   0.00005,274700128.00000,  -0.00006,   0.00004,   0.00000, -64.00000,   2.00000
-420601044.26533,93653419.59028,10237605.93491,  -0.00216,   0.00129,   0.00014,475785760.00000,   0.00006,274705152.00000,  -0.00006,   0.00004,   0.00000,  96.00000,   2.00000
-420464455.85740,93863031.54311,10315851.39499,  -0.00216,   0.00129,   0.00014,475794176.00000,   0.00006,274710208.00000,  -0.00007,   0.00004,   0.00000, -32.00000,   2.00000
-420348591.64104,94041368.22982,10389475.82965,  -0.00217,   0.00129,   0.00014,475816128.00000,   0.00007,274715360.00000,  -0.00007,   0.00005,   0.00000,  32.00000,   2.00000
-420218326.30899,94241495.17606,10463057.75329,  -0.00217,   0.00130,   0.00014,475814304.00000,   0.00007,274720448.00000,  -0.00007,   0.00005,   0.00000, -64.00000,   2.00000
-420091065.59019,94437136.51968,10535941.75087,  -0.00218,   0.00130,   0.00014,475842848.00000,   0.00008,274725664.00000,  -0.00008,   0.00005,   0.00000,   0.00000,   2.00000
-419964296.43656,94632476.31118,10604572.08569,  -0.00218,   0.00130,   0.00014,475847968.00000,   0.00008,274730880.00000,  -0.00008,   0.00005,   0.00001,  96.00000,   2.00000
-419837827.95062,94827463.35295,10668952.19147,  -0.00218,   0.00131,   0.00014,475853056.00000,   0.00009,274736096.00000,  -0.00009,   0.00006,   0.00001,  96.00000,   2.00000
-419708630.66882,95026737.91642,10732862.36343,  -0.00219,   0.00131,   0.00015,475871552.00000,   0.00009,274741344.00000,  -0.00009,   0.00006,   0.00001,  64.00000,   2.00000
-419585354.27077,95216830.19036,10796371.55677,  -0.00219,   0.00132,   0.00015,475887104.00000,   0.00010,274746656.00000,  -0.00010,   0.00006,   0.00001,  64.00000,   2.00000
-419459595.55237,95411286.53272,10855344.26860,  -0.00220,   0.00132,   0.00015,475905504.00000,   0.00010,274752032.00000,  -0.00010,   0.00007,   0.00001,  64.00000,   2.00000
-419333926.23536,95605323.37038,10914147.45753,  -0.00220,   0.00132,   0.00015,475911008.00000,   0.00011,274757408.00000,  -0.00011,   0.00007,   0.00001,  32.00000,   2.00000
-419200033.07342,95812503.03181,10968647.37238,  -0.00221,   0.00133,   0.00015,475919296.00000,   0.00011,274762816.00000,  -0.00011,   0.00007,   0.00001,  32.00000,   2.00000
-419078085.59374,96001774.21819,11018460.45887,  -0.00221,   0.00133,   0.00015,475944640.00000,   0.00012,274768288.00000,  -0.00012,   0.00008,   0.00001,  96.00000,   2.00000
-418950301.90550,96199375.97635,11072421.53561,  -0.00222,   0.00134,   0.00015,475940448.00000,   0.00012,274773728.00000,  -0.00012,   0.00008,   0.00001,  32.00000,   2.00000
-418826122.93650,96392616.93402,11117558.77967,  -0.00222,   0.00134,   0.00015,475968800.00000,   0.00013,274779264.00000,  -0.00013,   0.00008,   0.00001,  32.00000,   2.00000
-418701874.53962,96585388.83065,11166620.64859,  -0.00223,   0.00134,   0.00015,475974688.00000,   0.00013,274784800.00000,  -0.00013,   0.00009,   0.00001,  64.00000,   2.00000
-418583834.36529,96769056.10448,11211237.93986,  -0.00223,   0.00135,   0.00015,475990208.00000,   0.00014,274790400.00000,  -0.00014,   0.00009,   0.00001,  96.00000,   2.00000
-418457484.93380,96965848.79754,11251580.73619,  -0.00224,   0.00135,   0.00016,475998720.00000,   0.00014,274796000.00000,  -0.00015,   0.00009,   0.00001,  64.00000,   2.00000
-418328348.40021,97166846.93614,11291478.66772,  -0.00224,   0.00136,   0.00016,476017728.00000,   0.00015,274801664.00000,  -0.00015,   0.00010,   0.00001,  32.00000,   2.00000
-418208327.10496,97354092.42864,11327263.48181,  -0.00225,   0.00136,   0.00016,476020000.00000,   0.00015,274807296.00000,  -0.00016,   0.00010,   0.00001, -96.00000,   2.00000
-418076962.80613,97559017.14379,11362541.83652,  -0.00225,   0.00136,   0.00016,476042016.00000,   0.00016,274813024.00000,  -0.00016,   0.00011,   0.00001,  64.00000,   2.00000
-417960362.80392,97741315.68354,11397542.35684,  -0.00226,   0.00137,   0.00016,476054880.00000,   0.00016,274818784.00000,  -0.00017,   0.00011,   0.00001, -64.00000,   2.00000
-417835459.79504,97936723.42757,11428292.52041,  -0.00226,   0.00137,   0.00016,476063552.00000,   0.00017,274824544.00000,  -0.00017,   0.00011,   0.00001, -96.00000,   2.00000
-417708056.86815,98136393.74475,11454556.61646,  -0.00227,   0.00138,   0.00016,476082432.00000,   0.00017,274830368.00000,  -0.00018,   0.00012,   0.00001,  96.00000,   2.00000
-417580873.26313,98335650.95281,11480730.75186,  -0.00227,   0.00138,   0.00016,476088288.00000,   0.00018,274836192.00000,  -0.00018,   0.00012,   0.00001,  96.00000,   2.00000
-417459801.65409,98525699.91555,11506573.84706,  -0.00228,   0.00139,   0.00016,476104256.00000,   0.00018,274842080.00000,  -0.00019,   0.00012,   0.00001, 128.00000,   2.00000
-417336233.99221,98719994.41050,11527945.35785,  -0.00229,   0.00139,   0.00016,476123200.00000,   0.00019,274848000.00000,  -0.00019,   0.00013,   0.00001,  64.00000,   2.00000
-417212881.03628,98913868.90191,11549243.68459,  -0.00229,   0.00139,   0.00016,476129312.00000,   0.00019,274853952.00000,  -0.00020,   0.00013,   0.00001,  64.00000,   2.00000
-417081172.01366,99120769.76281,11566329.12542,  -0.00230,   0.00140,   0.00016,476138304.00000,   0.00020,274859904.00000,  -0.00020,   0.00013,   0.00001,  96.00000,   2.00000
-416955760.38305,99318468.07124,11579045.36102,  -0.00230,   0.00140,   0.00016,476154016.00000,   0.00021,274865888.00000,  -0.00021,   0.00014,   0.00001, -96.00000,   2.00000
-416827531.89494,99520241.37967,11595452.16861,  -0.00231,   0.00141,   0.00017,476173632.00000,   0.00021,274871936.00000,  -0.00022,   0.00014,   0.00001, 128.00000,   2.00000
-416705816.25921,99712869.37111,11603433.38621,  -0.00231,   0.00141,   0.00017,476189280.00000,   0.00022,274878048.00000,  -0.00022,   0.00015,   0.00002,  32.00000,   2.00000
-416584130.80923,99904986.37008,11615448.52388,  -0.00232,   0.00142,   0.00017,476195552.00000,   0.00022,274884128.00000,  -0.00023,   0.00015,   0.00002, -32.00000,   2.00000
-416454202.95905,100110124.08371,11623287.91251,  -0.00232,   0.00142,   0.00017,476204704.00000,   0.00023,274890272.00000,  -0.00023,   0.00015,   0.00002,   0.00000,   2.00000
-416330640.82882,100306027.28932,11626793.48355,  -0.00233,   0.00142,   0.00017,476220704.00000,   0.00023,274896416.00000,  -0.00024,   0.00016,   0.00002,   0.00000,   2.00000
-416204467.27185,100506010.45947,11629960.71238,  -0.00233,   0.00143,   0.00017,476240192.00000,   0.00024,274902656.00000,  -0.00024,   0.00016,   0.00002, 192.00000,   2.00000
-416078607.01586,100705521.71364,11629056.83467,  -0.00234,   0.00143,   0.00017,476246336.00000,   0.00024,274908864.00000,  -0.00025,   0.00016,   0.00002, -32.00000,   2.00000
-415944283.64093,100917918.70751,11628082.62069,  -0.00235,   0.00144,   0.00017,476255680.00000,   0.00025,274915104.00000,  -0.00026,   0.00017,   0.00002,   0.00000,   2.00000
-415822433.05568,101112242.59318,11622564.19883,  -0.00235,   0.00144,   0.00017,476281728.00000,   0.00026,274921440.00000,  -0.00026,   0.00017,   0.00002,  96.00000,   2.00000
-415694753.99129,101314839.19662,11617316.46111,  -0.00236,   0.00145,   0.00017,476278208.00000,   0.00026,274927712.00000,  -0.00027,   0.00018,   0.00002, -96.00000,   2.00000
-415570474.01815,101512620.60827,11611520.28762,  -0.00236,   0.00145,   0.00017,476307712.00000,   0.00027,274934112.00000,  -0.00027,   0.00018,   0.00002, -32.00000,   2.00000
-415440717.17007,101718769.67299,11601944.83108,  -0.00237,   0.00146,   0.00017,476303904.00000,   0.00027,274940448.00000,  -0.00028,   0.00018,   0.00002, -96.00000,   2.00000
-415314646.47961,101920146.65558,11587780.71838,  -0.00237,   0.00146,   0.00017,476333184.00000,   0.00028,274946880.00000,  -0.00029,   0.00019,   0.00002,   0.00000,   2.00000
-415188821.65149,102120959.37163,11573677.62605,  -0.00238,   0.00147,   0.00017,476339776.00000,   0.00029,274953344.00000,  -0.00029,   0.00019,   0.00002,  96.00000,   2.00000
-415054417.81546,102334537.54027,11559557.78262,  -0.00239,   0.00147,   0.00017,476349536.00000,   0.00029,274959808.00000,  -0.00030,   0.00020,   0.00002, 128.00000,   2.00000
-414926487.54567,102538742.32486,11541198.07255,  -0.00239,   0.00148,   0.00017,476365760.00000,   0.00030,274966336.00000,  -0.00030,   0.00020,   0.00002,  32.00000,   2.00000
-414799159.69906,102742465.83742,11518863.52007,  -0.00240,   0.00148,   0.00017,476371936.00000,   0.00030,274972832.00000,  -0.00031,   0.00020,   0.00002,  64.00000,   2.00000
-414668991.89227,102949994.31415,11500356.31786,  -0.00240,   0.00148,   0.00017,476392192.00000,   0.00031,274979424.00000,  -0.00032,   0.00021,   0.00002, -32.00000,   2.00000
-414536746.20531,103161544.46459,11473494.12815,  -0.00241,   0.00149,   0.00017,476411552.00000,   0.00032,274986048.00000,  -0.00032,   0.00021,   0.00002,  32.00000,   2.00000
-414404855.72676,103372480.75973,11446747.85208,  -0.00242,   0.00149,   0.00017,476418368.00000,   0.00032,274992672.00000,  -0.00033,   0.00022,   0.00002, 160.00000,   2.00000
-414273187.34884,103582758.33433,11420115.29693,  -0.00242,   0.00150,   0.00017,476424864.00000,   0.00033,274999328.00000,  -0.00033,   0.00022,   0.00002,  32.00000,   2.00000
-414139219.45761,103796938.88555,11389219.10714,  -0.00243,   0.00150,   0.00017,476444576.00000,   0.00033,275006016.00000,  -0.00034,   0.00022,   0.00002, -32.00000,   2.00000
-414011569.95049,104001606.72412,11358212.66944,  -0.00243,   0.00151,   0.00017,476461184.00000,   0.00034,275012768.00000,  -0.00035,   0.00023,   0.00002, -96.00000,   2.00000
-413875483.06569,104218990.28286,11327263.59915,  -0.00244,   0.00151,   0.00017,476471360.00000,   0.00035,275019520.00000,  -0.00035,   0.00023,   0.00002,  32.00000,   2.00000
-413740118.66643,104435834.83012,11288330.42909,  -0.00245,   0.00152,   0.00017,476477632.00000,   0.00035,275026272.00000,  -0.00036,   0.00024,   0.00003, 128.00000,   2.00000
-413610877.38195,104643066.62314,11253376.24148,  -0.00245,   0.00152,   0.00017,476494784.00000,   0.00036,275033088.00000,  -0.00037,   0.00024,   0.00003,   0.00000,   2.00000
-413479333.63026,104854151.75885,11214194.34062,  -0.00246,   0.00153,   0.00017,476514688.00000,   0.00036,275039936.00000,  -0.00037,   0.00025,   0.00003, -64.00000,   2.00000
-413339457.35320,105077941.33127,11171037.43348,  -0.00246,   0.00153,   0.00017,476524640.00000,   0.00037,275046816.00000,  -0.00038,   0.00025,   0.00003,  64.00000,   2.00000
-413208898.00203,105287776.74101,11128135.20746,  -0.00247,   0.00154,   0.00017,476528224.00000,   0.00038,275053696.00000,  -0.00039,   0.00025,   0.00003,  96.00000,   2.00000
-413066820.72251,105514607.20278,11085012.91503,  -0.00248,   0.00154,   0.00017,476551936.00000,   0.00038,275060640.00000,  -0.00039,   0.00026,   0.00003,   0.00000,   2.00000
-412934229.95480,105727530.58012,11038083.33194,  -0.00248,   0.00155,   0.00017,476555264.00000,   0.00039,275067552.00000,  -0.00040,   0.00026,   0.00003,   0.00000,   2.00000
-412790566.73288,105957568.62803,10986896.48798,  -0.00249,   0.00155,   0.00017,476578688.00000,   0.00040,275074560.00000,  -0.00040,   0.00027,   0.00003,  96.00000,   2.00000
-412662108.97794,106164682.46472,10935751.87165,  -0.00250,   0.00156,   0.00017,476592384.00000,   0.00040,275081600.00000,  -0.00041,   0.00027,   0.00003,   0.00000,   2.00000
-412518930.78200,106393295.53288,10884950.61628,  -0.00250,   0.00156,   0.00017,476592960.00000,   0.00041,275088608.00000,  -0.00042,   0.00028,   0.00003,   0.00000,   2.00000
-412379676.30247,106616782.62402,10829757.04974,  -0.00251,   0.00157,   0.00017,476622944.00000,   0.00042,275095712.00000,  -0.00042,   0.00028,   0.00003, -64.00000,   2.00000
-412234752.94820,106848506.28142,10774995.76229,  -0.00252,   0.00157,   0.00017,476620320.00000,   0.00042,275102784.00000,  -0.00043,   0.00028,   0.00003,  32.00000,   2.00000
-412096409.34167,107070662.57285,10716150.79890,  -0.00252,   0.00158,   0.00017,476637184.00000,   0.00043,275109888.00000,  -0.00044,   0.00029,   0.00003, 160.00000,   2.00000
-411955459.32516,107296447.20303,10657216.86059,  -0.00253,   0.00159,   0.00017,476657760.00000,   0.00044,275117056.00000,  -0.00044,   0.00029,   0.00003,  32.00000,   2.00000
-411806273.27082,107534919.11358,10594362.43471,  -0.00253,   0.00159,   0.00017,476668096.00000,   0.00044,275124224.00000,  -0.00045,   0.00030,   0.00003,   0.00000,   2.00000
-411666373.21497,107759419.84877,10531802.97525,  -0.00254,   0.00160,   0.00017,476672064.00000,   0.00045,275131392.00000,  -0.00046,   0.00030,   0.00003,  64.00000,   2.00000
-411515142.58483,108000856.48620,10465029.84196,  -0.00255,   0.00160,   0.00017,476695936.00000,   0.00046,275138656.00000,  -0.00046,   0.00031,   0.00003, -32.00000,   2.00000
-411373286.76217,108228357.94997,10398560.26081,  -0.00255,   0.00161,   0.00017,476699840.00000,   0.00046,275145888.00000,  -0.00047,   0.00031,   0.00003, -32.00000,   2.00000
-411228893.04153,108459482.75499,10332023.65160,  -0.00256,   0.00161,   0.00017,476720544.00000,   0.00047,275153184.00000,  -0.00048,   0.00032,   0.00003,   0.00000,   2.00000
-411076131.90107,108703251.42372,10261574.24870,  -0.00257,   0.00162,   0.00017,476731200.00000,   0.00048,275160480.00000,  -0.00048,   0.00032,   0.00003, -64.00000,   2.00000
-410930149.94571,108937476.87810,10187086.85647,  -0.00257,   0.00162,   0.00017,476748352.00000,   0.00048,275167840.00000,  -0.00049,   0.00033,   0.00003,  32.00000,   2.00000
-410784183.51120,109170912.74597,10116895.31302,  -0.00258,   0.00163,   0.00017,476756224.00000,   0.00049,275175200.00000,  -0.00050,   0.00033,   0.00003,  96.00000,   2.00000
-410629968.10219,109417042.58953,10038732.42765,  -0.00259,   0.00163,   0.00017,476766848.00000,   0.00050,275182560.00000,  -0.00051,   0.00033,   0.00004, 128.00000,   2.00000
-410473283.49300,109666749.62126,9960535.66448,  -0.00259,   0.00164,   0.00017,476787584.00000,   0.00050,275189984.00000,  -0.00051,   0.00034,   0.00004,  64.00000,   2.00000
-410325867.79454,109902509.19806,9882652.03366,  -0.00260,   0.00164,   0.00016,476791776.00000,   0.00051,275197408.00000,  -0.00052,   0.00034,   0.00004,   0.00000,   2.00000
-410160978.57386,110164097.68232,9804863.67971,  -0.00261,   0.00165,   0.00016,476806304.00000,   0.00052,275204832.00000,  -0.00053,   0.00035,   0.00004,  64.00000,   2.00000
-410011617.58506,110402790.69469,9723116.83427,  -0.00261,   0.00166,   0.00016,476820224.00000,   0.00052,275212320.00000,  -0.00053,   0.00035,   0.00004, -64.00000,   2.00000
-409851113.80176,110658398.45528,9637216.61991,  -0.00262,   0.00166,   0.00016,476844448.00000,   0.00053,275219872.00000,  -0.00054,   0.00036,   0.00004,   0.00000,   2.00000
-409693680.81754,110909022.44130,9551837.23188,  -0.00263,   0.00167,   0.00016,476838880.00000,   0.00054,275227360.00000,  -0.00055,   0.00036,   0.00004,   0.00000,   2.00000
-409533769.31536,111163193.69935,9466441.70987,  -0.00263,   0.00167,   0.00016,476859968.00000,   0.00054,275234912.00000,  -0.00055,   0.00037,   0.00004, -32.00000,   2.00000
-409371604.87505,111420974.78116,9376972.09587,  -0.00264,   0.00168,   0.00016,476880832.00000,   0.00055,275242528.00000,  -0.00056,   0.00037,   0.00004, -32.00000,   2.00000
-409209946.74021,111678107.85413,9283702.20015,  -0.00265,   0.00168,   0.00016,476888448.00000,   0.00056,275250112.00000,  -0.00057,   0.00038,   0.00004,  32.00000,   2.00000
-409048478.42896,111934483.54583,9194764.10430,  -0.00265,   0.00169,   0.00016,476896640.00000,   0.00056,275257728.00000,  -0.00058,   0.00038,   0.00004,  96.00000,   2.00000
-408878706.19009,112203487.10037,9097889.46841,  -0.00266,   0.00170,   0.00016,476907648.00000,   0.00057,275265376.00000,  -0.00058,   0.00039,   0.00004,  64.00000,   2.00000
-408715223.77880,112462675.38376,9005165.75352,  -0.00267,   0.00170,   0.00016,476925664.00000,   0.00058,275273024.00000,  -0.00059,   0.00039,   0.00004,  32.00000,   2.00000
-408549526.66535,112725443.57392,8908395.69669,  -0.00268,   0.00171,   0.00016,476946720.00000,   0.00059,275280768.00000,  -0.00060,   0.00040,   0.00004, 128.00000,   2.00000
-408378167.94168,112996562.40483,8808026.47349,  -0.00268,   0.00171,   0.00016,476944672.00000,   0.00059,275288448.00000,  -0.00060,   0.00040,   0.00004, 128.00000,   2.00000
-408204207.78434,113271071.96596,8707692.03348,  -0.00269,   0.00172,   0.00015,476966144.00000,   0.00060,275296192.00000,  -0.00061,   0.00041,   0.00004,  32.00000,   2.00000
-408030694.21241,113544859.79818,8607646.61728,  -0.00270,   0.00172,   0.00015,476974016.00000,   0.00061,275303968.00000,  -0.00062,   0.00041,   0.00004, -32.00000,   2.00000
-407863947.82512,113808962.85394,8503651.06565,  -0.00270,   0.00173,   0.00015,476991712.00000,   0.00061,275311744.00000,  -0.00063,   0.00042,   0.00004,  96.00000,   2.00000
-407688483.48339,114085498.81507,8399890.55860,  -0.00271,   0.00174,   0.00015,477003424.00000,   0.00062,275319552.00000,  -0.00063,   0.00042,   0.00004,  64.00000,   2.00000
-407504543.24592,114374507.32785,8292303.04333,  -0.00272,   0.00174,   0.00015,477014944.00000,   0.00063,275327392.00000,  -0.00064,   0.00043,   0.00004, 128.00000,   2.00000
-407329957.47910,114649528.98521,8185091.92994,  -0.00272,   0.00175,   0.00015,477019424.00000,   0.00064,275335200.00000,  -0.00065,   0.00043,   0.00004,   0.00000,   2.00000
-407143966.71229,114941112.33437,8077894.89421,  -0.00273,   0.00175,   0.00015,477044448.00000,   0.00064,275343104.00000,  -0.00065,   0.00044,   0.00004,  64.00000,   2.00000
-406967467.46576,115218743.19288,7967013.21531,  -0.00274,   0.00176,   0.00015,477048960.00000,   0.00065,275350976.00000,  -0.00066,   0.00044,   0.00004,   0.00000,   2.00000
-406779556.48001,115512893.48298,7856168.57401,  -0.00275,   0.00177,   0.00015,477074080.00000,   0.00066,275358912.00000,  -0.00067,   0.00045,   0.00004,  64.00000,   2.00000
-406601168.57230,115793089.20745,7741656.07708,  -0.00275,   0.00177,   0.00015,477078624.00000,   0.00066,275366848.00000,  -0.00068,   0.00045,   0.00005,   0.00000,   2.00000
-406414219.57988,116085674.09954,7627429.57730,  -0.00276,   0.00178,   0.00014,477090272.00000,   0.00067,275374816.00000,  -0.00068,   0.00046,   0.00005, 128.00000,   2.00000
-406218532.79150,116390530.12390,7513484.72486,  -0.00277,   0.00178,   0.00014,477102368.00000,   0.00068,275382784.00000,  -0.00069,   0.00046,   0.00005,  96.00000,   2.00000
-406023344.93881,116694532.40258,7395822.84413,  -0.00277,   0.00179,   0.00014,477110400.00000,   0.00069,275390752.00000,  -0.00070,   0.00047,   0.00005, -96.00000,   2.00000
-405835063.98372,116988687.51108,7274307.99192,  -0.00278,   0.00180,   0.00014,477128096.00000,   0.00069,275398752.00000,  -0.00071,   0.00047,   0.00005,  96.00000,   2.00000
-405637978.01870,117295053.20152,7157173.91631,  -0.00279,   0.00180,   0.00014,477140352.00000,   0.00070,275406816.00000,  -0.00071,   0.00048,   0.00005,  32.00000,   2.00000
-405447839.60102,117591550.14499,7032133.54876,  -0.00280,   0.00181,   0.00014,477158240.00000,   0.00071,275414880.00000,  -0.00072,   0.00048,   0.00005,   0.00000,   2.00000
-405248933.85600,117900242.11304,6911497.64013,  -0.00280,   0.00181,   0.00014,477170272.00000,   0.00072,275422976.00000,  -0.00073,   0.00049,   0.00005,  32.00000,   2.00000
-405044219.85599,118217079.63527,6787333.44949,  -0.00281,   0.00182,   0.00014,477168864.00000,   0.00072,275431040.00000,  -0.00074,   0.00049,   0.00005, 128.00000,   2.00000
-404852558.04767,118514830.76431,6663280.42321,  -0.00282,   0.00183,   0.00013,477196896.00000,   0.00073,275439168.00000,  -0.00074,   0.00050,   0.00005,  96.00000,   2.00000
-404646094.77488,118833912.02845,6535664.62561,  -0.00282,   0.00183,   0.00013,477199008.00000,   0.00074,275447296.00000,  -0.00075,   0.00050,   0.00005, -32.00000,   2.00000
-404437210.25253,119156001.69687,6408273.39375,  -0.00283,   0.00184,   0.00013,477220960.00000,   0.00075,275455488.00000,  -0.00076,   0.00051,   0.00005,   0.00000,   2.00000
-404231730.59295,119473120.35682,6277443.68415,  -0.00284,   0.00185,   0.00013,477215648.00000,   0.00075,275463584.00000,  -0.00077,   0.00051,   0.00005,  32.00000,   2.00000
-404021142.04487,119797274.11502,6146678.55279,  -0.00285,   0.00185,   0.00013,477251072.00000,   0.00076,275471840.00000,  -0.00077,   0.00052,   0.00005,-128.00000,   2.00000
-403813986.79164,120116452.44861,6016554.23804,  -0.00285,   0.00186,   0.00013,477246144.00000,   0.00077,275480000.00000,  -0.00078,   0.00052,   0.00005, 224.00000,   2.00000
-403588823.14012,120460688.84238,5882710.29222,  -0.00286,   0.00186,   0.00013,477262144.00000,   0.00078,275488224.00000,  -0.00079,   0.00053,   0.00005,   0.00000,   2.00000
-403379836.94332,120781714.43608,5749262.02071,  -0.00287,   0.00187,   0.00013,477276544.00000,   0.00078,275496480.00000,  -0.00080,   0.00053,   0.00005,  32.00000,   2.00000
-403162174.54076,121114756.02852,5616238.93746,  -0.00287,   0.00188,   0.00012,477288928.00000,   0.00079,275504736.00000,  -0.00080,   0.00054,   0.00005,  32.00000,   2.00000
-402945102.08565,121446736.59166,5479634.16989,  -0.00288,   0.00188,   0.00012,477297376.00000,   0.00080,275512992.00000,  -0.00081,   0.00055,   0.00005,   0.00000,   2.00000
-402725751.56036,121781574.45998,5343358.69446,  -0.00289,   0.00189,   0.00012,477319488.00000,   0.00081,275521344.00000,  -0.00082,   0.00055,   0.00005,  64.00000,   2.00000
-402491487.11350,122137486.25292,5207658.34577,  -0.00290,   0.00190,   0.00012,477322112.00000,   0.00081,275529632.00000,  -0.00083,   0.00056,   0.00005,  64.00000,   2.00000
-402273141.58837,122469970.51269,5068329.04231,  -0.00290,   0.00190,   0.00012,477336800.00000,   0.00082,275537952.00000,  -0.00084,   0.00056,   0.00005,  64.00000,   2.00000
-402046401.63109,122814466.79022,4925423.78435,  -0.00291,   0.00191,   0.00012,477348864.00000,   0.00083,275546304.00000,  -0.00084,   0.00057,   0.00005, -64.00000,   2.00000
-401810943.21376,123170785.64496,4787080.54601,  -0.00292,   0.00192,   0.00011,477361472.00000,   0.00084,275554688.00000,  -0.00085,   0.00057,   0.00005, -96.00000,   2.00000
-401576128.50630,123525901.37316,4645209.37488,  -0.00293,   0.00192,   0.00011,477370144.00000,   0.00085,275563040.00000,  -0.00086,   0.00058,   0.00005,  32.00000,   2.00000
-401341776.08492,123879740.25647,4503890.06131,  -0.00293,   0.00193,   0.00011,477378944.00000,   0.00085,275571424.00000,  -0.00087,   0.00058,   0.00005,  32.00000,   2.00000
-401105368.35852,124236284.37129,4358926.66973,  -0.00294,   0.00194,   0.00011,477401024.00000,   0.00086,275579840.00000,  -0.00087,   0.00059,   0.00005,  96.00000,   2.00000
-400869565.30253,124591573.25802,4214544.24691,  -0.00295,   0.00194,   0.00011,477409792.00000,   0.00087,275588288.00000,  -0.00088,   0.00059,   0.00005,   0.00000,   2.00000
-400625175.11992,124958618.65425,4066646.53995,  -0.00296,   0.00195,   0.00011,477422432.00000,   0.00088,275596736.00000,  -0.00089,   0.00060,   0.00005,   0.00000,   2.00000
-400390407.07580,125311266.66545,3923449.19328,  -0.00296,   0.00196,   0.00010,477427552.00000,   0.00088,275605152.00000,  -0.00090,   0.00061,   0.00005, 128.00000,   2.00000
-400137974.86251,125688710.87359,3776710.28017,  -0.00297,   0.00196,   0.00010,477443904.00000,   0.00089,275613632.00000,  -0.00091,   0.00061,   0.00005, 128.00000,   2.00000
-399886090.03473,126064746.32819,3626520.99513,  -0.00298,   0.00197,   0.00010,477452704.00000,   0.00090,275622112.00000,  -0.00091,   0.00062,   0.00005,   0.00000,   2.00000
-399634956.94994,126439454.53887,3476964.09703,  -0.00299,   0.00198,   0.00010,477461472.00000,   0.00091,275630592.00000,  -0.00092,   0.00062,   0.00005,   0.00000,   2.00000
-399381695.13571,126816590.67710,3327931.24940,  -0.00299,   0.00198,   0.00010,477483968.00000,   0.00092,275639104.00000,  -0.00093,   0.00063,   0.00005, 160.00000,   2.00000
-399122414.38844,127201428.39253,3179612.30758,  -0.00300,   0.00199,   0.00010,477483168.00000,   0.00092,275647616.00000,  -0.00094,   0.00063,   0.00005,   0.00000,   2.00000
-398870383.63337,127575693.64097,3027803.44623,  -0.00301,   0.00200,   0.00009,477501664.00000,   0.00093,275656160.00000,  -0.00094,   0.00064,   0.00006, -32.00000,   2.00000
-398609820.48348,127961543.27880,2876631.24617,  -0.00302,   0.00200,   0.00009,477514496.00000,   0.00094,275664704.00000,  -0.00095,   0.00064,   0.00006,  96.00000,   2.00000
-398349783.47057,128345877.05556,2726124.48768,  -0.00302,   0.00201,   0.00009,477523616.00000,   0.00095,275673280.00000,  -0.00096,   0.00065,   0.00006,   0.00000,   2.00000
-398081281.80691,128741753.45366,2572202.50699,  -0.00303,   0.00202,   0.00009,477536416.00000,   0.00096,275681856.00000,  -0.00097,   0.00066,   0.00006, 160.00000,   2.00000
-397813394.94171,129136087.81296,2418970.84819,  -0.00304,   0.00202,   0.00009,477545504.00000,   0.00096,275690432.00000,  -0.00098,   0.00066,   0.00006, 128.00000,   2.00000
-397546124.41696,129528879.80916,2266429.60234,  -0.00305,   0.00203,   0.00009,477554528.00000,   0.00097,275699008.00000,  -0.00098,   0.00067,   0.00006, 128.00000,   2.00000
-397270331.47982,129933119.42053,2110502.03516,  -0.00305,   0.00204,   0.00008,477567424.00000,   0.00098,275707616.00000,  -0.00099,   0.00067,   0.00006, 128.00000,   2.00000
-397001763.93748,130326560.42869,1955242.05482,  -0.00306,   0.00204,   0.00008,477586208.00000,   0.00099,275716256.00000,  -0.00100,   0.00068,   0.00006,  32.00000,   2.00000
-396718069.86911,130740621.77167,1800724.73767,  -0.00307,   0.00205,   0.00008,477589600.00000,   0.00099,275724896.00000,  -0.00101,   0.00068,   0.00006,  64.00000,   2.00000
-396444250.94301,131140097.24725,1642879.77102,  -0.00308,   0.00206,   0.00008,477594720.00000,   0.00100,275733504.00000,  -0.00102,   0.00069,   0.00006,  64.00000,   2.00000
-396159187.92230,131554613.23870,1485705.62749,  -0.00308,   0.00207,   0.00008,477621344.00000,   0.00101,275742208.00000,  -0.00102,   0.00069,   0.00006,-128.00000,   2.00000
-395868397.23521,131976789.21151,1329302.44318,  -0.00309,   0.00207,   0.00007,477620864.00000,   0.00102,275750848.00000,  -0.00103,   0.00070,   0.00006,  32.00000,   2.00000
-395584761.78071,132387973.70579,1173607.82664,  -0.00310,   0.00208,   0.00007,477639808.00000,   0.00103,275759552.00000,  -0.00104,   0.00071,   0.00006,   0.00000,   2.00000
-395301965.00032,132797572.73030,1014593.28674,  -0.00311,   0.00209,   0.00007,477648896.00000,   0.00104,275768224.00000,  -0.00105,   0.00071,   0.00006, 128.00000,   2.00000
-395003870.06914,133227650.37443,856345.55353,  -0.00311,   0.00209,   0.00007,477652608.00000,   0.00104,275776896.00000,  -0.00106,   0.00072,   0.00006, 128.00000,   2.00000
-394713111.18874,133646734.12108,694776.87802,  -0.00312,   0.00210,   0.00007,477671424.00000,   0.00105,275785632.00000,  -0.00106,   0.00072,   0.00006,  96.00000,   2.00000
-394407087.45085,134086268.89368,538046.54753,  -0.00313,   0.00211,   0.00006,477675136.00000,   0.00106,275794336.00000,  -0.00107,   0.00073,   0.00006,   0.00000,   2.00000
-394108578.15798,134514810.16712,378000.10329,  -0.00314,   0.00212,   0.00006,477693856.00000,   0.00107,275803072.00000,  -0.00108,   0.00074,   0.00006,  32.00000,   2.00000
-393810781.16572,134941615.40908,218723.30046,  -0.00314,   0.00212,   0.00006,477703264.00000,   0.00108,275811808.00000,  -0.00109,   0.00074,   0.00006,  32.00000,   2.00000
-393497770.40731,135388867.40938,56153.32546,  -0.00315,   0.00213,   0.00006,477707040.00000,   0.00108,275820544.00000,  -0.00110,   0.00075,   0.00006, 128.00000,   2.00000
-393192048.72012,135824958.17227,-105631.43257,  -0.00316,   0.00214,   0.00006,477726080.00000,   0.00109,275829312.00000,  -0.00110,   0.00075,   0.00006, -64.00000,   2.00000
-392887202.27772,136259343.97582,-266637.14989,  -0.00317,   0.00214,   0.00005,477735328.00000,   0.00110,275838080.00000,  -0.00111,   0.00076,   0.00006,  32.00000,   2.00000
-392567041.49571,136714111.06522,-426876.38196,  -0.00317,   0.00215,   0.00005,477739296.00000,   0.00111,275846816.00000,  -0.00112,   0.00076,   0.00006,  64.00000,   2.00000
-392254325.41566,137157715.49482,-586330.98223,  -0.00318,   0.00216,   0.00005,477758240.00000,   0.00112,275855616.00000,  -0.00113,   0.00077,   0.00006,  64.00000,   2.00000
-391926348.10550,137621692.17029,-749091.31056,  -0.00319,   0.00217,   0.00005,477762176.00000,   0.00112,275864384.00000,  -0.00114,   0.00078,   0.00006,   0.00000,   2.00000
-391615133.07417,138061607.61189,-911060.02084,  -0.00320,   0.00217,   0.00004,477777024.00000,   0.00113,275873184.00000,  -0.00114,   0.00078,   0.00006, -32.00000,   2.00000
-391279376.47186,138534774.46712,-1072261.42708,  -0.00320,   0.00218,   0.00004,477785120.00000,   0.00114,275881984.00000,  -0.00115,   0.00079,   0.00006,  64.00000,   2.00000
-390953606.75446,138993158.12207,-1236770.22342,  -0.00321,   0.00219,   0.00004,477790656.00000,   0.00115,275890784.00000,  -0.00116,   0.00079,   0.00006,  32.00000,   2.00000
-390626202.49016,139453234.06607,-1400451.35081,  -0.00322,   0.00220,   0.00004,477813696.00000,   0.00116,275899616.00000,  -0.00117,   0.00080,   0.00006,  96.00000,   2.00000
-390292739.20364,139920780.86956,-1563400.35727,  -0.00323,   0.00220,   0.00004,477813760.00000,   0.00116,275908416.00000,  -0.00118,   0.00081,   0.00006, 128.00000,   2.00000
-389950555.79150,140399174.72218,-1725568.76554,  -0.00323,   0.00221,   0.00003,477827520.00000,   0.00117,275917248.00000,  -0.00118,   0.00081,   0.00006,  64.00000,   2.00000
-389618623.33808,140862906.26146,-1887004.72657,  -0.00324,   0.00222,   0.00003,477832800.00000,   0.00118,275926080.00000,  -0.00119,   0.00082,   0.00006, -32.00000,   2.00000
-389268690.31405,141350314.89753,-2051710.61771,  -0.00325,   0.00223,   0.00003,477850656.00000,   0.00119,275934912.00000,  -0.00120,   0.00082,   0.00006, -32.00000,   2.00000
-388929029.65546,141823042.09975,-2215684.90834,  -0.00326,   0.00223,   0.00003,477855968.00000,   0.00120,275943776.00000,  -0.00121,   0.00083,   0.00006,   0.00000,   2.00000
-388580752.59272,142306632.09002,-2378887.46449,  -0.00326,   0.00224,   0.00002,477869856.00000,   0.00121,275952608.00000,  -0.00122,   0.00083,   0.00006,  32.00000,   2.00000
-388233263.05052,142788284.76159,-2545411.75819,  -0.00327,   0.00225,   0.00002,477879424.00000,   0.00121,275961472.00000,  -0.00123,   0.00084,   0.00006,  96.00000,   2.00000
-387877190.02894,143280764.97504,-2707102.20637,  -0.00328,   0.00226,   0.00002,477893152.00000,   0.00122,275970368.00000,  -0.00123,   0.00085,   0.00005, 128.00000,   2.00000
-387514972.26632,143780644.51933,-2872204.51315,  -0.00329,   0.00226,   0.00002,477893440.00000,   0.00123,275979200.00000,  -0.00124,   0.00085,   0.00005,   0.00000,   2.00000
-387160669.09699,144269228.93631,-3036511.33453,  -0.00329,   0.00227,   0.00002,477912256.00000,   0.00124,275988096.00000,  -0.00125,   0.00086,   0.00005, 160.00000,   2.00000
-386800090.85508,144765205.99423,-3200178.93913,  -0.00330,   0.00228,   0.00001,477912672.00000,   0.00125,275996960.00000,  -0.00126,   0.00086,   0.00005,   0.00000,   2.00000
-386430918.50219,145271942.19469,-3367168.74536,  -0.00331,   0.00229,   0.00001,477926624.00000,   0.00126,276005824.00000,  -0.00127,   0.00087,   0.00005,  64.00000,   2.00000
-386062560.06893,145776669.30458,-3529389.29687,  -0.00331,   0.00229,   0.00001,477936192.00000,   0.00126,276014688.00000,  -0.00127,   0.00088,   0.00005,  32.00000,   2.00000
-385695154.04001,146279468.45973,-3694989.57195,  -0.00332,   0.00230,   0.00001,477945632.00000,   0.00127,276023584.00000,  -0.00128,   0.00088,   0.00005,  32.00000,   2.00000
-385319023.28371,146792927.28988,-3859859.18257,  -0.00333,   0.00231,   0.00000,477959744.00000,   0.00128,276032480.00000,  -0.00129,   0.00089,   0.00005, -64.00000,   2.00000
-384936835.78828,147313835.71957,-4024147.56382,  -0.00334,   0.00232,   0.00000,477959872.00000,   0.00129,276041344.00000,  -0.00130,   0.00089,   0.00005,  96.00000,   2.00000
-384562439.76335,147823249.67952,-4191731.28982,  -0.00334,   0.00232,  -0.00000,477978976.00000,   0.00130,276050240.00000,  -0.00131,   0.00090,   0.00005, -32.00000,   2.00000
-384172515.66203,148352817.70469,-4354638.06704,  -0.00335,   0.00233,  -0.00000,477983456.00000,   0.00130,276059136.00000,  -0.00131,   0.00091,   0.00005,  32.00000,   2.00000
-383783338.85782,148880264.64831,-4520959.68052,  -0.00336,   0.00234,  -0.00001,477993280.00000,   0.00131,276068032.00000,  -0.00132,   0.00091,   0.00005,  32.00000,   2.00000
-383395119.32957,149405701.56512,-4686630.90637,  -0.00337,   0.00235,  -0.00001,478002912.00000,   0.00132,276076928.00000,  -0.00133,   0.00092,   0.00005, 160.00000,   2.00000
-383000583.97139,149938496.25697,-4851769.88641,  -0.00337,   0.00235,  -0.00001,478003264.00000,   0.00133,276085760.00000,  -0.00134,   0.00092,   0.00005, 128.00000,   2.00000
-382604624.59516,150472452.78921,-5016115.86664,  -0.00338,   0.00236,  -0.00001,478026464.00000,   0.00134,276094688.00000,  -0.00135,   0.00093,   0.00005, 128.00000,   2.00000
-382202346.25843,151013753.74889,-5184013.94883,  -0.00339,   0.00237,  -0.00002,478026880.00000,   0.00135,276103552.00000,  -0.00136,   0.00094,   0.00005, 128.00000,   2.00000
-381801105.29371,151553034.54301,-5347226.01414,  -0.00340,   0.00238,  -0.00002,478036352.00000,   0.00135,276112448.00000,  -0.00136,   0.00094,   0.00005, 160.00000,   2.00000
-381400614.96163,152090179.94694,-5513892.50188,  -0.00340,   0.00239,  -0.00002,478046112.00000,   0.00136,276121344.00000,  -0.00137,   0.00095,   0.00005, 160.00000,   2.00000
-380991501.02154,152637859.10895,-5679888.39710,  -0.00341,   0.00239,  -0.00002,478060128.00000,   0.00137,276130240.00000,  -0.00138,   0.00096,   0.00005,  32.00000,   2.00000
-380576142.79747,153192916.23020,-5845408.51404,  -0.00342,   0.00240,  -0.00003,478060416.00000,   0.00138,276139104.00000,  -0.00139,   0.00096,   0.00005, 128.00000,   2.00000
-380168956.01282,153736412.35578,-6010203.99997,  -0.00343,   0.00241,  -0.00003,478079168.00000,   0.00139,276148032.00000,  -0.00140,   0.00097,   0.00005, 128.00000,   2.00000
-379745931.77642,154299874.65126,-6174479.88874,  -0.00343,   0.00242,  -0.00003,478084000.00000,   0.00140,276156928.00000,  -0.00140,   0.00097,   0.00005, 128.00000,   2.00000
-379316431.02562,154870589.00574,-6342368.38019,  -0.00344,   0.00242,  -0.00003,478084576.00000,   0.00140,276165792.00000,  -0.00141,   0.00098,   0.00005, -32.00000,   2.00000
-378895329.69181,155429756.55699,-6505472.05732,  -0.00345,   0.00243,  -0.00004,478103072.00000,   0.00141,276174688.00000,  -0.00142,   0.00099,   0.00005,  96.00000,   2.00000
-378467733.30527,155996224.37401,-6672202.49012,  -0.00345,   0.00244,  -0.00004,478103552.00000,   0.00142,276183552.00000,  -0.00143,   0.00099,   0.00005, 128.00000,   2.00000
-378041029.22064,156560544.38939,-6838350.60374,  -0.00346,   0.00245,  -0.00004,478113120.00000,   0.00143,276192416.00000,  -0.00144,   0.00100,   0.00005,  32.00000,   2.00000
-377605789.85699,157135318.10977,-7003853.47336,  -0.00347,   0.00246,  -0.00004,478127072.00000,   0.00144,276201312.00000,  -0.00144,   0.00100,   0.00005,  32.00000,   2.00000
-377164214.91982,157717455.77159,-7168932.90246,  -0.00348,   0.00246,  -0.00005,478127424.00000,   0.00145,276210144.00000,  -0.00145,   0.00101,   0.00005,  96.00000,   2.00000
-376723493.69801,158297375.53638,-7333443.22815,  -0.00348,   0.00247,  -0.00005,478136960.00000,   0.00145,276219008.00000,  -0.00146,   0.00102,   0.00005,  64.00000,   2.00000
-376274056.46806,158887602.40076,-7501373.01909,  -0.00349,   0.00248,  -0.00005,478151232.00000,   0.00146,276227872.00000,  -0.00147,   0.00102,   0.00005,   0.00000,   2.00000
-375835387.99132,159463264.80746,-7664741.86117,  -0.00350,   0.00249,  -0.00005,478155904.00000,   0.00147,276236736.00000,  -0.00148,   0.00103,   0.00005,  96.00000,   2.00000
-375380578.48605,160058751.21065,-7827626.82915,  -0.00350,   0.00250,  -0.00006,478160928.00000,   0.00148,276245568.00000,  -0.00148,   0.00103,   0.00005,  32.00000,   2.00000
-374926639.12486,160652011.36049,-7994012.56231,  -0.00351,   0.00250,  -0.00006,478170496.00000,   0.00149,276254432.00000,  -0.00149,   0.00104,   0.00004,  32.00000,   2.00000
-374473604.86651,161243084.04038,-8159820.57997,  -0.00352,   0.00251,  -0.00006,478179968.00000,   0.00149,276263264.00000,  -0.00150,   0.00105,   0.00004,  64.00000,   2.00000
-374004695.97392,161854099.31319,-8325142.07382,  -0.00353,   0.00252,  -0.00006,478184832.00000,   0.00150,276272096.00000,  -0.00151,   0.00105,   0.00004, 160.00000,   2.00000
-373546273.72197,162450410.35976,-8485911.44283,  -0.00353,   0.00253,  -0.00007,478189568.00000,   0.00151,276280928.00000,  -0.00152,   0.00106,   0.00004,   0.00000,   2.00000
-373079229.77219,163057042.98260,-8650099.97057,  -0.00354,   0.00254,  -0.00007,478203776.00000,   0.00152,276289760.00000,  -0.00152,   0.00107,   0.00004,  64.00000,   2.00000
-372605403.14715,163670918.18575,-8817939.50617,  -0.00355,   0.00254,  -0.00007,478204608.00000,   0.00153,276298560.00000,  -0.00153,   0.00107,   0.00004,   0.00000,   2.00000
-372130613.53193,164285578.28027,-8980869.22623,  -0.00355,   0.00255,  -0.00007,478227296.00000,   0.00154,276307424.00000,  -0.00154,   0.00108,   0.00004,  64.00000,   2.00000
-371651442.96151,164904772.11358,-9143664.99291,  -0.00356,   0.00256,  -0.00008,478214048.00000,   0.00154,276316192.00000,  -0.00155,   0.00108,   0.00004,  96.00000,   2.00000
-371170988.34129,165524558.39781,-9305610.64316,  -0.00357,   0.00257,  -0.00008,478237248.00000,   0.00155,276325024.00000,  -0.00156,   0.00109,   0.00004, -96.00000,   2.00000
-370693566.94061,166139325.64409,-9471308.86030,  -0.00357,   0.00258,  -0.00008,478232992.00000,   0.00156,276333792.00000,  -0.00156,   0.00110,   0.00004, -32.00000,   2.00000
-370200126.41410,166774024.10206,-9632443.03656,  -0.00358,   0.00258,  -0.00009,478237856.00000,   0.00157,276342560.00000,  -0.00157,   0.00110,   0.00004,   0.00000,   2.00000
-369715160.92067,167396905.47795,-9792807.16190,  -0.00359,   0.00259,  -0.00009,478256480.00000,   0.00158,276351360.00000,  -0.00158,   0.00111,   0.00004,  96.00000,   2.00000
-369213784.00545,168039501.56220,-9956730.73146,  -0.00360,   0.00260,  -0.00009,478261888.00000,   0.00159,276360128.00000,  -0.00159,   0.00111,   0.00004,  64.00000,   2.00000
-368715471.41195,168677121.77192,-10120340.03743,  -0.00360,   0.00261,  -0.00009,478257536.00000,   0.00159,276368864.00000,  -0.00160,   0.00112,   0.00004, 128.00000,   2.00000
-368208564.25238,169324950.66710,-10279183.89668,  -0.00361,   0.00262,  -0.00010,478271616.00000,   0.00160,276377600.00000,  -0.00160,   0.00113,   0.00004,  64.00000,   2.00000
-367712085.85288,169958102.87048,-10441590.82457,  -0.00362,   0.00262,  -0.00010,478276448.00000,   0.00161,276386336.00000,  -0.00161,   0.00113,   0.00004,  32.00000,   2.00000
-367199406.58884,170611105.11582,-10603480.33077,  -0.00362,   0.00263,  -0.00010,478281536.00000,   0.00162,276395072.00000,  -0.00162,   0.00114,   0.00004,  32.00000,   2.00000
-366687804.57008,171261921.37753,-10760696.45711,  -0.00363,   0.00264,  -0.00010,478290912.00000,   0.00163,276403776.00000,  -0.00163,   0.00115,   0.00004,  64.00000,   2.00000
-366176974.77484,171910400.15019,-10921362.94629,  -0.00364,   0.00265,  -0.00011,478300576.00000,   0.00163,276412512.00000,  -0.00163,   0.00115,   0.00004,  32.00000,   2.00000
-365649808.95919,172578609.65942,-11081501.81292,  -0.00364,   0.00266,  -0.00011,478305856.00000,   0.00164,276421216.00000,  -0.00164,   0.00116,   0.00004,  32.00000,   2.00000
-365133336.36641,173232238.19420,-11241126.18196,  -0.00365,   0.00266,  -0.00011,478310560.00000,   0.00165,276429920.00000,  -0.00165,   0.00116,   0.00003, 128.00000,   2.00000
-364600485.74787,173905564.64859,-11400218.38927,  -0.00366,   0.00267,  -0.00011,478315840.00000,   0.00166,276438592.00000,  -0.00166,   0.00117,   0.00003, 128.00000,   2.00000
-364078476.92913,174564377.10795,-11554738.58383,  -0.00366,   0.00268,  -0.00012,478320320.00000,   0.00167,276447232.00000,  -0.00167,   0.00118,   0.00003,  32.00000,   2.00000
-363539934.46662,175242784.02795,-11712795.70424,  -0.00367,   0.00269,  -0.00012,478326016.00000,   0.00167,276455872.00000,  -0.00167,   0.00118,   0.00003, 192.00000,   2.00000
-363002266.50553,175918765.81706,-11870210.16687,  -0.00368,   0.00270,  -0.00012,478335680.00000,   0.00168,276464544.00000,  -0.00168,   0.00119,   0.00003,   0.00000,   2.00000
-362465705.97528,176592442.13469,-12026984.62267,  -0.00368,   0.00270,  -0.00012,478345120.00000,   0.00169,276473184.00000,  -0.00169,   0.00119,   0.00003,  32.00000,   2.00000
-361922414.04756,177273441.13246,-12183338.06210,  -0.00369,   0.00271,  -0.00013,478345696.00000,   0.00170,276481792.00000,  -0.00170,   0.00120,   0.00003,  64.00000,   2.00000
-361372348.58943,177961712.32590,-12339270.69261,  -0.00370,   0.00272,  -0.00013,478346432.00000,   0.00171,276490368.00000,  -0.00170,   0.00121,   0.00003,  64.00000,   2.00000
-360823291.85979,178647536.58038,-12494552.36915,  -0.00370,   0.00273,  -0.00013,478356000.00000,   0.00171,276498944.00000,  -0.00171,   0.00121,   0.00003, -32.00000,   2.00000
-360275408.57349,179330986.50045,-12649186.34067,  -0.00371,   0.00274,  -0.00014,478365568.00000,   0.00172,276507552.00000,  -0.00172,   0.00122,   0.00003,   0.00000,   2.00000
-359711073.98893,180033895.64947,-12803270.44860,  -0.00372,   0.00275,  -0.00014,478371328.00000,   0.00173,276516096.00000,  -0.00173,   0.00123,   0.00003,  96.00000,   2.00000
-359157415.81973,180721998.61261,-12956826.04748,  -0.00372,   0.00275,  -0.00014,478376064.00000,   0.00174,276524672.00000,  -0.00174,   0.00123,   0.00003, 128.00000,   2.00000
-358587462.24782,181429588.60421,-13105776.75141,  -0.00373,   0.00276,  -0.00014,478381600.00000,   0.00175,276533216.00000,  -0.00174,   0.00124,   0.00003,-128.00000,   2.00000
-358020305.90719,182132035.31137,-13258520.53930,  -0.00373,   0.00277,  -0.00015,478377664.00000,   0.00175,276541696.00000,  -0.00175,   0.00124,   0.00003, -96.00000,   2.00000
-357452497.34311,182834354.79787,-13410223.40752,  -0.00374,   0.00278,  -0.00015,478401024.00000,   0.00176,276550240.00000,  -0.00176,   0.00125,   0.00003,   0.00000,   2.00000
-356869940.61043,183553453.41652,-13561757.54570,  -0.00375,   0.00279,  -0.00015,478393312.00000,   0.00177,276558688.00000,  -0.00177,   0.00126,   0.00003,  64.00000,   2.00000
-356298591.09295,184257890.11427,-13708727.97705,  -0.00375,   0.00280,  -0.00015,478397600.00000,   0.00178,276567168.00000,  -0.00177,   0.00126,   0.00002,   0.00000,   2.00000
-355718383.56864,184971609.63486,-13858960.41603,  -0.00376,   0.00280,  -0.00016,478412864.00000,   0.00179,276575648.00000,  -0.00178,   0.00127,   0.00002,  64.00000,   2.00000
-355131282.66840,185692263.03350,-14008782.73311,  -0.00377,   0.00281,  -0.00016,478413824.00000,   0.00179,276584096.00000,  -0.00179,   0.00127,   0.00002,  32.00000,   2.00000
-354545804.75274,186410364.90726,-14153904.26344,  -0.00377,   0.00282,  -0.00016,478423232.00000,   0.00180,276592544.00000,  -0.00180,   0.00128,   0.00002, 160.00000,   2.00000
-353953109.83030,187135160.62044,-14302688.32640,  -0.00378,   0.00283,  -0.00016,478424736.00000,   0.00181,276600960.00000,  -0.00180,   0.00129,   0.00002, -64.00000,   2.00000
-353353995.41340,187867080.06148,-14447036.03153,  -0.00379,   0.00284,  -0.00017,478425312.00000,   0.00182,276609312.00000,  -0.00181,   0.00129,   0.00002, -96.00000,   2.00000
-352755796.64942,188595905.13787,-14594796.01144,  -0.00379,   0.00284,  -0.00017,478435456.00000,   0.00183,276617728.00000,  -0.00182,   0.00130,   0.00002,   0.00000,   2.00000
-352151145.42160,189331795.78421,-14738129.28708,  -0.00380,   0.00285,  -0.00017,478436256.00000,   0.00183,276626048.00000,  -0.00183,   0.00130,   0.00002,  96.00000,   2.00000
-351547443.08408,190064538.61110,-14884881.18625,  -0.00380,   0.00286,  -0.00017,478446560.00000,   0.00184,276634432.00000,  -0.00183,   0.00131,   0.00002,  64.00000,   2.00000
-350946910.72942,190792223.09192,-15027375.59713,  -0.00381,   0.00287,  -0.00018,478442144.00000,   0.00185,276642720.00000,  -0.00184,   0.00132,   0.00002,  96.00000,   2.00000
-350337877.48337,191528959.98998,-15169090.19519,  -0.00382,   0.00288,  -0.00018,478457024.00000,   0.00186,276651040.00000,  -0.00185,   0.00132,   0.00002, 128.00000,   2.00000
-349722064.55673,192272524.77208,-15310471.91445,  -0.00382,   0.00289,  -0.00018,478458176.00000,   0.00187,276659328.00000,  -0.00186,   0.00133,   0.00002,  96.00000,   2.00000
-349099281.26617,193022778.67027,-15451521.46798,  -0.00383,   0.00289,  -0.00019,478459488.00000,   0.00187,276667584.00000,  -0.00186,   0.00133,   0.00002,   0.00000,   2.00000
-348477889.78008,193770007.65564,-15591978.04088,  -0.00383,   0.00290,  -0.00019,478469248.00000,   0.00188,276675840.00000,  -0.00187,   0.00134,   0.00001,  96.00000,   2.00000
-347849521.71428,194523929.10095,-15732123.12893,  -0.00384,   0.00291,  -0.00019,478470496.00000,   0.00189,276684096.00000,  -0.00188,   0.00135,   0.00001, 128.00000,   2.00000
-347222462.85750,195274755.06702,-15871687.55089,  -0.00385,   0.00292,  -0.00019,478480160.00000,   0.00190,276692320.00000,  -0.00188,   0.00135,   0.00001,   0.00000,   2.00000
-346588790.81940,196032524.28914,-16006922.88642,  -0.00385,   0.00293,  -0.00020,478480992.00000,   0.00190,276700512.00000,  -0.00189,   0.00136,   0.00001,  32.00000,   2.00000
-345956143.35996,196787022.19411,-16145663.37187,  -0.00386,   0.00293,  -0.00020,478491072.00000,   0.00191,276708736.00000,  -0.00190,   0.00136,   0.00001,   0.00000,   2.00000
-345318396.31093,197546463.71293,-16280572.51281,  -0.00386,   0.00294,  -0.00020,478477888.00000,   0.00192,276716832.00000,  -0.00191,   0.00137,   0.00001,  32.00000,   2.00000
-344680029.74415,198304642.15289,-16418534.73495,  -0.00387,   0.00295,  -0.00020,478502016.00000,   0.00193,276725024.00000,  -0.00191,   0.00138,   0.00001,  64.00000,   2.00000
-344026642.30194,199079696.28901,-16552521.00828,  -0.00387,   0.00296,  -0.00021,478494144.00000,   0.00193,276733120.00000,  -0.00192,   0.00138,   0.00001,  96.00000,   2.00000
-343384253.86719,199839774.58187,-16686201.64689,  -0.00388,   0.00297,  -0.00021,478498464.00000,   0.00194,276741216.00000,  -0.00193,   0.00139,   0.00001,  64.00000,   2.00000
-342725041.20269,200618660.84097,-16819530.24261,  -0.00389,   0.00298,  -0.00021,478504736.00000,   0.00195,276749280.00000,  -0.00193,   0.00139,   0.00001, 128.00000,   2.00000
-342076803.63665,201382659.24928,-16952590.93421,  -0.00389,   0.00298,  -0.00021,478509024.00000,   0.00196,276757344.00000,  -0.00194,   0.00140,   0.00001, -32.00000,   2.00000
-341421460.38317,202153693.99824,-17085522.97349,  -0.00390,   0.00299,  -0.00022,478509856.00000,   0.00196,276765376.00000,  -0.00195,   0.00141,   0.00001,   0.00000,   2.00000
-340748903.72609,202943435.47818,-17218146.90665,  -0.00390,   0.00300,  -0.00022,478516288.00000,   0.00197,276773376.00000,  -0.00196,   0.00141,   0.00001, -64.00000,   2.00000
-340087793.77137,203718759.55993,-17346532.08581,  -0.00391,   0.00301,  -0.00022,478519616.00000,   0.00198,276781376.00000,  -0.00196,   0.00142,   0.00000,  64.00000,   2.00000
-339419047.60847,204500953.10215,-17478907.21459,  -0.00391,   0.00302,  -0.00022,478520928.00000,   0.00199,276789344.00000,  -0.00197,   0.00142,   0.00000, -64.00000,   2.00000
-338743334.82148,205290483.64641,-17607187.39766,  -0.00392,   0.00302,  -0.00023,478521184.00000,   0.00199,276797280.00000,  -0.00198,   0.00143,   0.00000,  96.00000,   2.00000
-338078595.72519,206065446.41110,-17735333.08286,  -0.00392,   0.00303,  -0.00023,478524896.00000,   0.00200,276805184.00000,  -0.00198,   0.00144,   0.00000, 192.00000,   2.00000
-337396547.74919,206859219.36953,-17863257.54151,  -0.00393,   0.00304,  -0.00023,478531040.00000,   0.00201,276813088.00000,  -0.00199,   0.00144,   0.00000,   0.00000,   2.00000
-336707111.14475,207659948.17511,-17991154.36662,  -0.00393,   0.00305,  -0.00023,478531616.00000,   0.00202,276820960.00000,  -0.00200,   0.00145,   0.00000,  32.00000,   2.00000
-336028936.22019,208446003.15160,-18118906.04508,  -0.00394,   0.00306,  -0.00024,478534848.00000,   0.00202,276828800.00000,  -0.00200,   0.00145,  -0.00000,  32.00000,   2.00000
-335333815.09421,209250554.51468,-18242316.33337,  -0.00394,   0.00307,  -0.00024,478540768.00000,   0.00203,276836672.00000,  -0.00201,   0.00146,  -0.00000,  32.00000,   2.00000
-334641222.81805,210049645.41156,-18369854.38190,  -0.00395,   0.00307,  -0.00024,478536032.00000,   0.00204,276844448.00000,  -0.00202,   0.00147,  -0.00000, 128.00000,   2.00000
-333941873.24769,210854994.60213,-18493138.26067,  -0.00396,   0.00308,  -0.00024,478536384.00000,   0.00205,276852192.00000,  -0.00202,   0.00147,  -0.00000,  64.00000,   2.00000
-333244215.55246,211656159.79047,-18615866.24418,  -0.00396,   0.00309,  -0.00025,478545344.00000,   0.00205,276859968.00000,  -0.00203,   0.00148,  -0.00000,  64.00000,   2.00000
-332539597.93830,212462891.96689,-18738327.06029,  -0.00397,   0.00310,  -0.00025,478546112.00000,   0.00206,276867712.00000,  -0.00204,   0.00148,  -0.00000, -32.00000,   2.00000
-331838096.94512,213263944.79639,-18860818.40000,  -0.00397,   0.00311,  -0.00025,478540928.00000,   0.00207,276875392.00000,  -0.00204,   0.00149,  -0.00001,  64.00000,   2.00000
-331128011.30486,214072920.28590,-18982781.19208,  -0.00398,   0.00311,  -0.00025,478555424.00000,   0.00208,276883104.00000,  -0.00205,   0.00149,  -0.00001, -96.00000,   2.00000
-330411798.60046,214888204.20271,-19101602.46680,  -0.00398,   0.00312,  -0.00026,478541440.00000,   0.00208,276890720.00000,  -0.00206,   0.00150,  -0.00001,  32.00000,   2.00000
-329695906.30936,215702776.93471,-19220993.54993,  -0.00399,   0.00313,  -0.00026,478549568.00000,   0.00209,276898336.00000,  -0.00206,   0.00151,  -0.00001, -32.00000,   2.00000
-328979668.32862,216518583.15923,-19341535.17467,  -0.00399,   0.00314,  -0.00026,478557152.00000,   0.00210,276905920.00000,  -0.00207,   0.00151,  -0.00001,  64.00000,   2.00000
-328244755.69766,217357206.76282,-19464396.79844,  -0.00400,   0.00315,  -0.00026,478548096.00000,   0.00210,276913472.00000,  -0.00208,   0.00152,  -0.00001,  32.00000,   2.00000
-327518689.90472,218188053.01103,-19589499.87651,  -0.00400,   0.00315,  -0.00027,478549152.00000,   0.00211,276920960.00000,  -0.00208,   0.00152,  -0.00001, 192.00000,   2.00000
