# sigma_xx, sigma_yy, sigma_xy, epsilon_xx, epsilon_yy, epsilon_xy, vonMises, epsPlastic, hardening, epsilonP__xx, epsilonP__yy, epsilonP__xy, yieldValue, iteration
   0.00000,   0.00000,   0.00000,   0.00000,   0.00000,   0.00000,   0.00000,   0.00000,274640135.82653,   0.00000,   0.00000,   0.00000,-474640135.82653,   0.00000
   0.00000,   0.00000,   0.00000,   0.00000,   0.00000,   0.00000,   0.00000,   0.00000,274640135.82653,   0.00000,   0.00000,   0.00000,-474640135.82653,   0.00000
-1511538.56622,-1377551.76810,-238663.98414,  -0.00000,  -0.00000,  -0.00000,1507002.51443,   0.00000,274640135.82653,   0.00000,   0.00000,   0.00000,-473133133.31210,   0.00000
-3023077.13243,-2755103.53620,-473140.88084,  -0.00001,  -0.00001,  -0.00001,3012023.77571,   0.00000,274640135.82653,   0.00000,   0.00000,   0.00000,-471628112.05082,   0.00000
-4540896.32981,-4147310.11035,-703430.69009,  -0.00001,  -0.00001,  -0.00001,4524583.91215,   0.00000,274640135.82653,   0.00000,   0.00000,   0.00000,-470115551.91438,   0.00000
-6052434.89602,-5524861.87845,-933720.49935,  -0.00002,  -0.00001,  -0.00001,6027661.40642,   0.00000,274640135.82653,   0.00000,   0.00000,   0.00000,-468612474.42011,   0.00000
-7555599.28736,-6910787.82144,-1164010.30861,  -0.00002,  -0.00002,  -0.00002,7529653.73447,   0.00000,274640135.82653,   0.00000,   0.00000,   0.00000,-467110482.09206,   0.00000
-9073418.48473,-8302994.39558,-1390113.03043,  -0.00003,  -0.00002,  -0.00002,9040317.40686,   0.00000,274640135.82653,   0.00000,   0.00000,   0.00000,-465599818.41967,   0.00000
-10576582.87607,-9688920.33857,-1612028.66480,  -0.00003,  -0.00002,  -0.00002,10538478.20937,   0.00000,274640135.82653,   0.00000,   0.00000,   0.00000,-464101657.61716,   0.00000
-12079747.26740,-11074846.28155,-1833944.29918,  -0.00003,  -0.00003,  -0.00002,12036661.71226,   0.00000,274640135.82653,   0.00000,   0.00000,   0.00000,-462603474.11427,   0.00000
-13582911.65874,-12460772.22454,-2051672.84611,  -0.00004,  -0.00003,  -0.00003,13532954.20955,   0.00000,274640135.82653,   0.00000,   0.00000,   0.00000,-461107181.61698,   0.00000
-15092356.68123,-13861352.97356,-2269401.39304,  -0.00004,  -0.00003,  -0.00003,15038829.78619,   0.00000,274640135.82653,   0.00000,   0.00000,   0.00000,-459601306.04034,   0.00000
-16580866.26652,-15240998.28539,-2487129.93998,  -0.00005,  -0.00004,  -0.00003,16524577.04633,   0.00000,274640135.82653,   0.00000,   0.00000,   0.00000,-458115558.78020,   0.00000
-18090311.28902,-16641579.03442,-2700671.39947,  -0.00005,  -0.00004,  -0.00004,18028617.48007,   0.00000,274640135.82653,   0.00000,   0.00000,   0.00000,-456611518.34646,   0.00000
-19585101.50547,-18035879.15228,-2910025.77152,  -0.00005,  -0.00004,  -0.00004,19520229.60444,   0.00000,274640135.82653,   0.00000,   0.00000,   0.00000,-455119906.22209,   0.00000
-21079891.72192,-19430179.27015,-3119380.14358,  -0.00006,  -0.00005,  -0.00004,21011882.91815,   0.00000,274640135.82653,   0.00000,   0.00000,   0.00000,-453628252.90838,   0.00000
-22574681.93837,-20824479.38802,-3324547.42819,  -0.00006,  -0.00005,  -0.00004,22501712.25686,   0.00000,274640135.82653,   0.00000,   0.00000,   0.00000,-452138423.56967,   0.00000
-24054817.34878,-22212498.87472,-3529714.71280,  -0.00007,  -0.00005,  -0.00005,23981000.78213,   0.00000,274640135.82653,   0.00000,   0.00000,   0.00000,-450659135.04440,   0.00000
-25555888.19639,-23621453.79863,-3730694.90997,  -0.00007,  -0.00006,  -0.00005,25478687.60920,   0.00000,274640135.82653,   0.00000,   0.00000,   0.00000,-449161448.21733,   0.00000
-27042304.23796,-25024128.09138,-3931675.10714,  -0.00007,  -0.00006,  -0.00005,26965854.84533,   0.00000,274640135.82653,   0.00000,   0.00000,   0.00000,-447674280.98120,   0.00000
-28522439.64837,-26412147.57808,-4128468.21687,  -0.00008,  -0.00006,  -0.00005,28441606.27241,   0.00000,274640135.82653,   0.00000,   0.00000,   0.00000,-446198529.55412,   0.00000
-30008855.68994,-27814821.87083,-4325261.32659,  -0.00008,  -0.00007,  -0.00006,29927051.58536,   0.00000,274640135.82653,   0.00000,   0.00000,   0.00000,-444713084.24117,   0.00000
-31486897.55663,-29225870.33846,-4517867.34888,  -0.00009,  -0.00007,  -0.00006,31409832.94413,   0.00000,274640135.82653,   0.00000,   0.00000,   0.00000,-443230302.88240,   0.00000
-32973313.59819,-30628544.63121,-4710473.37117,  -0.00009,  -0.00008,  -0.00006,32893589.44888,   0.00000,274640135.82653,   0.00000,   0.00000,   0.00000,-441746546.37765,   0.00000
-34445074.83372,-32024938.29280,-4903079.39346,  -0.00009,  -0.00008,  -0.00006,34366830.22237,   0.00000,274640135.82653,   0.00000,   0.00000,   0.00000,-440273305.60416,   0.00000
-35923116.70041,-33435986.76043,-5087311.24086,  -0.00010,  -0.00008,  -0.00007,35846239.36637,   0.00000,274640135.82653,   0.00000,   0.00000,   0.00000,-438793896.46016,   0.00000
-37386503.76105,-34840754.59690,-5275730.17571,  -0.00010,  -0.00009,  -0.00007,37316950.95050,   0.00000,274640135.82653,   0.00000,   0.00000,   0.00000,-437323184.87603,   0.00000
-38864545.62774,-36251803.06453,-5455774.93568,  -0.00011,  -0.00009,  -0.00007,38794751.17122,   0.00000,274640135.82653,   0.00000,   0.00000,   0.00000,-435845384.65531,   0.00000
-40327932.68838,-37656570.90100,-5640006.78308,  -0.00011,  -0.00009,  -0.00007,40263840.60059,   0.00000,274640135.82653,   0.00000,   0.00000,   0.00000,-434376295.22594,   0.00000
-41797600.38019,-39075993.54351,-5815864.45561,  -0.00011,  -0.00010,  -0.00008,41739223.09365,   0.00000,274640135.82653,   0.00000,   0.00000,   0.00000,-432900912.73288,   0.00000
-43260987.44083,-40480761.37998,-5991722.12813,  -0.00012,  -0.00010,  -0.00008,43204971.57488,   0.00000,274640135.82653,   0.00000,   0.00000,   0.00000,-431435164.25165,   0.00000
-44716000.32659,-41893903.39133,-6167579.80065,  -0.00012,  -0.00010,  -0.00008,44670002.80539,   0.00000,274640135.82653,   0.00000,   0.00000,   0.00000,-429970133.02114,   0.00000
-46171013.21235,-43307045.40268,-6339250.38574,  -0.00013,  -0.00011,  -0.00008,46133401.81961,   0.00000,274640135.82653,   0.00000,   0.00000,   0.00000,-428506734.00692,   0.00000
-47626026.09812,-44720187.41403,-6510920.97082,  -0.00013,  -0.00011,  -0.00008,47596901.02324,   0.00000,274640135.82653,   0.00000,   0.00000,   0.00000,-427043234.80329,   0.00000
-49081038.98388,-46133329.42539,-6678404.46846,  -0.00013,  -0.00011,  -0.00009,49058780.97097,   0.00000,274640135.82653,   0.00000,   0.00000,   0.00000,-425581354.85556,   0.00000
-50521397.06360,-47540190.80557,-6845887.96610,  -0.00014,  -0.00012,  -0.00009,50510226.61851,   0.00000,274640135.82653,   0.00000,   0.00000,   0.00000,-424129909.20802,   0.00000
-51982690.58052,-48967987.62297,-7009184.37630,  -0.00014,  -0.00012,  -0.00009,51980401.88129,   0.00000,274640135.82653,   0.00000,   0.00000,   0.00000,-422659733.94524,   0.00000
-53414674.48535,-50383223.17804,-7172480.78650,  -0.00014,  -0.00013,  -0.00009,53429641.62808,   0.00000,274640135.82653,   0.00000,   0.00000,   0.00000,-421210494.19845,   0.00000
-54861313.19623,-51804739.36427,-7331590.10926,  -0.00015,  -0.00013,  -0.00010,54887843.05740,   0.00000,274640135.82653,   0.00000,   0.00000,   0.00000,-419752292.76913,   0.00000
-56293297.10107,-53219974.91935,-7490699.43202,  -0.00015,  -0.00013,  -0.00010,56335645.04842,   0.00000,274640135.82653,   0.00000,   0.00000,   0.00000,-418304490.77811,   0.00000
-57725281.00591,-54635210.47442,-7645621.66734,  -0.00016,  -0.00014,  -0.00010,57781900.32685,   0.00000,274640135.82653,   0.00000,   0.00000,   0.00000,-416858235.49968,   0.00000
-59163545.54190,-56065100.83553,-7800543.90266,  -0.00016,  -0.00014,  -0.00010,59238129.28954,   0.00000,274640135.82653,   0.00000,   0.00000,   0.00000,-415402006.53698,   0.00000
-60601810.07790,-57494991.19665,-7951279.05054,  -0.00016,  -0.00014,  -0.00010,60692844.52149,   0.00000,274640135.82653,   0.00000,   0.00000,   0.00000,-413947291.30504,   0.00000
-62025419.80785,-58918600.92660,-8102014.19841,  -0.00017,  -0.00015,  -0.00011,62137196.45059,   0.00000,274640135.82653,   0.00000,   0.00000,   0.00000,-412502939.37594,   0.00000
-63449029.53781,-60342210.65656,-8248562.25885,  -0.00017,  -0.00015,  -0.00011,63580054.79629,   0.00000,274640135.82653,   0.00000,   0.00000,   0.00000,-411060081.03024,   0.00000
-64857984.46172,-61759539.75535,-8395110.31929,  -0.00017,  -0.00015,  -0.00011,65012562.33400,   0.00000,274640135.82653,   0.00000,   0.00000,   0.00000,-409627573.49253,   0.00000
-66287874.82283,-63197804.29135,-8537471.29228,  -0.00018,  -0.00016,  -0.00011,66463989.67886,   0.00000,274640135.82653,   0.00000,   0.00000,   0.00000,-408176146.14767,   0.00000
-67696829.74674,-64615133.39014,-8679832.26528,  -0.00018,  -0.00016,  -0.00011,67895176.56704,   0.00000,274640135.82653,   0.00000,   0.00000,   0.00000,-406744959.25949,   0.00000
-69112065.30182,-66047117.29497,-8818006.15083,  -0.00019,  -0.00017,  -0.00011,69334827.37557,   0.00000,274640135.82653,   0.00000,   0.00000,   0.00000,-405305308.45096,   0.00000
-70512646.05084,-67472820.56865,-8956180.03639,  -0.00019,  -0.00017,  -0.00012,70764165.62289,   0.00000,274640135.82653,   0.00000,   0.00000,   0.00000,-403875970.20364,   0.00000
-71913226.79987,-68898523.84232,-9090166.83450,  -0.00019,  -0.00017,  -0.00012,72192084.08412,   0.00000,274640135.82653,   0.00000,   0.00000,   0.00000,-402448051.74241,   0.00000
-73320088.18006,-70338881.92204,-9224153.63261,  -0.00020,  -0.00018,  -0.00012,73630127.30179,   0.00000,274640135.82653,   0.00000,   0.00000,   0.00000,-401010008.52474,   0.00000
-74712294.75421,-71772959.37060,-9358140.43073,  -0.00020,  -0.00018,  -0.00012,75057888.09538,   0.00000,274640135.82653,   0.00000,   0.00000,   0.00000,-399582247.73115,   0.00000
-76104501.32835,-73207036.81915,-9483753.05396,  -0.00020,  -0.00018,  -0.00012,76482710.77437,   0.00000,274640135.82653,   0.00000,   0.00000,   0.00000,-398157425.05216,   0.00000
-77496707.90250,-74641114.26771,-9613552.76463,  -0.00021,  -0.00019,  -0.00012,77909282.08631,   0.00000,274640135.82653,   0.00000,   0.00000,   0.00000,-396730853.74022,   0.00000
-78888914.47665,-76075191.71627,-9739165.38786,  -0.00021,  -0.00019,  -0.00013,79334484.02950,   0.00000,274640135.82653,   0.00000,   0.00000,   0.00000,-395305651.79703,   0.00000
-80266466.24475,-77502988.53366,-9860590.92365,  -0.00021,  -0.00020,  -0.00013,80747889.02600,   0.00000,274640135.82653,   0.00000,   0.00000,   0.00000,-393892246.80053,   0.00000
-81650298.64401,-78945440.15710,-9982016.45944,  -0.00022,  -0.00020,  -0.00013,82171509.55553,   0.00000,274640135.82653,   0.00000,   0.00000,   0.00000,-392468626.27100,   0.00000
-83019476.23723,-80381611.14938,-10099254.90779,  -0.00022,  -0.00020,  -0.00013,83583386.13639,   0.00000,274640135.82653,   0.00000,   0.00000,   0.00000,-391056749.69014,   0.00000
-84388653.83045,-81817782.14165,-10216493.35614,  -0.00022,  -0.00021,  -0.00013,84995482.73324,   0.00000,274640135.82653,   0.00000,   0.00000,   0.00000,-389644653.09329,   0.00000
-85757831.42367,-83253953.13393,-10333731.80449,  -0.00023,  -0.00021,  -0.00013,86407788.55939,   0.00000,274640135.82653,   0.00000,   0.00000,   0.00000,-388232347.26713,   0.00000
-87133289.64805,-84704778.93225,-10446783.16540,  -0.00023,  -0.00022,  -0.00014,87828865.05637,   0.00000,274640135.82653,   0.00000,   0.00000,   0.00000,-386811270.77016,   0.00000
-88487812.43523,-86134669.29337,-10555647.43886,  -0.00023,  -0.00022,  -0.00014,89228195.21771,   0.00000,274640135.82653,   0.00000,   0.00000,   0.00000,-385411940.60882,   0.00000
-89848615.85357,-87579214.46053,-10664511.71233,  -0.00024,  -0.00022,  -0.00014,90637833.21379,   0.00000,274640135.82653,   0.00000,   0.00000,   0.00000,-384002302.61274,   0.00000
-91201045.09703,-89032133.80257,-10773375.98580,  -0.00024,  -0.00023,  -0.00014,92047404.72501,   0.00000,274640135.82653,   0.00000,   0.00000,   0.00000,-382592731.10152,   0.00000
-92547193.70932,-90470398.33856,-10878053.17182,  -0.00024,  -0.00023,  -0.00014,93445656.30053,   0.00000,274640135.82653,   0.00000,   0.00000,   0.00000,-381194479.52600,   0.00000
-93893342.32161,-91908662.87456,-10982730.35785,  -0.00025,  -0.00024,  -0.00014,94844143.71194,   0.00000,274640135.82653,   0.00000,   0.00000,   0.00000,-379795992.11459,   0.00000
-95231116.75903,-93355301.58544,-11083220.45643,  -0.00025,  -0.00024,  -0.00014,96241163.93197,   0.00000,274640135.82653,   0.00000,   0.00000,   0.00000,-378398971.89456,   0.00000
-96568891.19644,-94801940.29632,-11179523.46758,  -0.00025,  -0.00024,  -0.00015,97637009.41783,   0.00000,274640135.82653,   0.00000,   0.00000,   0.00000,-377003126.40870,   0.00000
-97906665.63385,-96248579.00720,-11280013.56616,  -0.00026,  -0.00025,  -0.00015,99034553.62656,   0.00000,274640135.82653,   0.00000,   0.00000,   0.00000,-375605582.19997,   0.00000
-99236065.89638,-97703591.89296,-11372129.48987,  -0.00026,  -0.00025,  -0.00015,100429301.23912,   0.00000,274640135.82653,   0.00000,   0.00000,   0.00000,-374210834.58741,   0.00000
-100559185.52775,-99143949.97268,-11468432.50101,  -0.00026,  -0.00026,  -0.00015,101815581.23894,   0.00000,274640135.82653,   0.00000,   0.00000,   0.00000,-372824554.58759,   0.00000
-101873930.98424,-100592682.22728,-11560548.42471,  -0.00027,  -0.00026,  -0.00015,103200544.59526,   0.00000,274640135.82653,   0.00000,   0.00000,   0.00000,-371439591.23127,   0.00000
-103203331.24677,-102047695.11304,-11648477.26097,  -0.00027,  -0.00026,  -0.00015,104594735.25992,   0.00000,274640135.82653,   0.00000,   0.00000,   0.00000,-370045400.56661,   0.00000
-104503421.89721,-103490146.73648,-11736406.09724,  -0.00027,  -0.00027,  -0.00015,105968537.20513,   0.00000,274640135.82653,   0.00000,   0.00000,   0.00000,-368671598.62140,   0.00000
-105824447.98486,-104953533.79712,-11820147.84606,  -0.00028,  -0.00027,  -0.00015,107361799.32812,   0.00000,274640135.82653,   0.00000,   0.00000,   0.00000,-367278336.49841,   0.00000
-107124538.63530,-106395985.42056,-11903889.59488,  -0.00028,  -0.00028,  -0.00015,108734812.28693,   0.00000,274640135.82653,   0.00000,   0.00000,   0.00000,-365905323.53960,   0.00000
-108416255.11086,-107846811.21888,-11987631.34370,  -0.00028,  -0.00028,  -0.00016,110108045.02870,   0.00000,274640135.82653,   0.00000,   0.00000,   0.00000,-364532090.79783,   0.00000
-109722626.39247,-109303917.64836,-12067186.00508,  -0.00029,  -0.00028,  -0.00016,111490533.99558,   0.00000,274640135.82653,   0.00000,   0.00000,   0.00000,-363149601.83095,   0.00000
-110999688.06199,-110748462.81552,-12142553.57902,  -0.00029,  -0.00029,  -0.00016,112851374.65822,   0.00000,274640135.82653,   0.00000,   0.00000,   0.00000,-361788761.16831,   0.00000
-112297685.16871,-112213943.41989,-12222108.24040,  -0.00029,  -0.00029,  -0.00016,114234464.55386,   0.00000,274640135.82653,   0.00000,   0.00000,   0.00000,-360405671.27267,   0.00000
-113581027.46939,-113673143.39309,-12293288.72690,  -0.00030,  -0.00030,  -0.00016,115604912.31247,   0.00000,274640135.82653,   0.00000,   0.00000,   0.00000,-359035223.51406,   0.00000
-114864369.77007,-115132343.36629,-12368656.30083,  -0.00030,  -0.00030,  -0.00016,116977035.55328,   0.00000,274640135.82653,   0.00000,   0.00000,   0.00000,-357663100.27325,   0.00000
-116133057.26470,-116585262.70833,-12435649.69989,  -0.00030,  -0.00030,  -0.00016,118336569.28636,   0.00000,274640135.82653,   0.00000,   0.00000,   0.00000,-356303566.54017,   0.00000
-117401744.75934,-118038182.05037,-12506830.18639,  -0.00030,  -0.00031,  -0.00016,119697769.30792,   0.00000,274640135.82653,   0.00000,   0.00000,   0.00000,-354942366.51860,   0.00000
-118662058.07909,-119499475.56730,-12573823.58544,  -0.00031,  -0.00031,  -0.00016,121058077.37161,   0.00000,274640135.82653,   0.00000,   0.00000,   0.00000,-353582058.45492,   0.00000
-119916090.76768,-120946114.27818,-12636629.89706,  -0.00031,  -0.00032,  -0.00016,122407105.23364,   0.00000,274640135.82653,   0.00000,   0.00000,   0.00000,-352233030.59289,   0.00000
-121176404.08743,-122407407.79510,-12699436.20868,  -0.00031,  -0.00032,  -0.00017,123766844.99678,   0.00000,274640135.82653,   0.00000,   0.00000,   0.00000,-350873290.82975,   0.00000
-122428343.23231,-123877075.48691,-12762242.52029,  -0.00032,  -0.00032,  -0.00017,125127089.16902,   0.00000,274640135.82653,   0.00000,   0.00000,   0.00000,-349513046.65751,   0.00000
-123674001.74602,-125332088.37267,-12820861.74447,  -0.00032,  -0.00033,  -0.00017,126476059.61251,   0.00000,274640135.82653,   0.00000,   0.00000,   0.00000,-348164076.21402,   0.00000
-124911286.08484,-126795475.43331,-12875293.88120,  -0.00032,  -0.00033,  -0.00017,127824315.57883,   0.00000,274640135.82653,   0.00000,   0.00000,   0.00000,-346815820.24770,   0.00000
-126148570.42367,-128258862.49395,-12933913.10537,  -0.00032,  -0.00034,  -0.00017,129174238.16324,   0.00000,274640135.82653,   0.00000,   0.00000,   0.00000,-345465897.66329,   0.00000
-127385854.76250,-129722249.55460,-12984158.15467,  -0.00033,  -0.00034,  -0.00017,130522042.08795,   0.00000,274640135.82653,   0.00000,   0.00000,   0.00000,-344118093.73858,   0.00000
-128608484.29528,-131179355.98408,-13038590.29140,  -0.00033,  -0.00035,  -0.00017,131861298.47512,   0.00000,274640135.82653,   0.00000,   0.00000,   0.00000,-342778837.35141,   0.00000
-129837394.45923,-132651117.21961,-13088835.34069,  -0.00033,  -0.00035,  -0.00017,133210154.64070,   0.00000,274640135.82653,   0.00000,   0.00000,   0.00000,-341429981.18583,   0.00000
-131045369.18597,-134101943.01793,-13134893.30254,  -0.00033,  -0.00035,  -0.00017,134537569.25535,   0.00000,274640135.82653,   0.00000,   0.00000,   0.00000,-340102566.57118,   0.00000
-132259624.54387,-135567423.62229,-13180951.26440,  -0.00034,  -0.00036,  -0.00017,135875864.34724,   0.00000,274640135.82653,   0.00000,   0.00000,   0.00000,-338764271.47929,   0.00000
-133465505.72689,-137041278.40154,-13227009.22625,  -0.00034,  -0.00036,  -0.00017,137214908.07035,   0.00000,274640135.82653,   0.00000,   0.00000,   0.00000,-337425227.75618,   0.00000
-134665106.27875,-138500478.37474,-13268880.10066,  -0.00034,  -0.00037,  -0.00017,138542705.53329,   0.00000,274640135.82653,   0.00000,   0.00000,   0.00000,-336097430.29324,   0.00000
-135870987.46177,-139974333.15399,-13310750.97507,  -0.00035,  -0.00037,  -0.00017,139881437.60115,   0.00000,274640135.82653,   0.00000,   0.00000,   0.00000,-334758698.22538,   0.00000
-137055933.20758,-141427252.49603,-13348434.76204,  -0.00035,  -0.00038,  -0.00017,141198777.03414,   0.00000,274640135.82653,   0.00000,   0.00000,   0.00000,-333441358.79239,   0.00000
-138247159.58456,-142894826.64411,-13386118.54901,  -0.00035,  -0.00038,  -0.00017,142527082.41382,   0.00000,274640135.82653,   0.00000,   0.00000,   0.00000,-332113053.41271,   0.00000
-139430011.78665,-144370774.96708,-13423802.33598,  -0.00035,  -0.00038,  -0.00017,143856266.47310,   0.00000,274640135.82653,   0.00000,   0.00000,   0.00000,-330783869.35343,   0.00000
-140606583.35758,-145832068.48400,-13457299.03550,  -0.00036,  -0.00039,  -0.00017,145174210.10739,   0.00000,274640135.82653,   0.00000,   0.00000,   0.00000,-329465925.71914,   0.00000
-141774780.75363,-147301736.17581,-13486608.64759,  -0.00036,  -0.00039,  -0.00018,146491926.14487,   0.00000,274640135.82653,   0.00000,   0.00000,   0.00000,-328148209.68166,   0.00000
-142942978.14968,-148771403.86761,-13520105.34712,  -0.00036,  -0.00040,  -0.00018,147811291.26182,   0.00000,274640135.82653,   0.00000,   0.00000,   0.00000,-326828844.56471,   0.00000
-144111175.54573,-150241071.55942,-13545227.87177,  -0.00036,  -0.00040,  -0.00018,149128845.82505,   0.00000,274640135.82653,   0.00000,   0.00000,   0.00000,-325511290.00148,   0.00000
-145264718.13574,-151704458.62006,-13574537.48385,  -0.00037,  -0.00041,  -0.00018,150437960.24470,   0.00000,274640135.82653,   0.00000,   0.00000,   0.00000,-324202175.58183,   0.00000
-146409886.55087,-153176219.85559,-13599660.00850,  -0.00037,  -0.00041,  -0.00018,151746988.42079,   0.00000,274640135.82653,   0.00000,   0.00000,   0.00000,-322893147.40574,   0.00000
-147569709.77203,-154654261.72227,-13620595.44570,  -0.00037,  -0.00042,  -0.00018,153065467.21775,   0.00000,274640135.82653,   0.00000,   0.00000,   0.00000,-321574668.60878,   0.00000
-148700223.38111,-156119742.32664,-13645717.97035,  -0.00037,  -0.00042,  -0.00018,154365497.03977,   0.00000,274640135.82653,   0.00000,   0.00000,   0.00000,-320274638.78676,   0.00000
-149845391.79624,-157591503.56216,-13662466.32012,  -0.00037,  -0.00042,  -0.00018,155673863.57499,   0.00000,274640135.82653,   0.00000,   0.00000,   0.00000,-318966272.25153,   0.00000
-150967531.23044,-159065358.34141,-13683401.75732,  -0.00038,  -0.00043,  -0.00018,156974474.70198,   0.00000,274640135.82653,   0.00000,   0.00000,   0.00000,-317665661.12455,   0.00000
-152098044.83952,-160530838.94578,-13700150.10708,  -0.00038,  -0.00043,  -0.00018,158273880.01628,   0.00000,274640135.82653,   0.00000,   0.00000,   0.00000,-316366255.81025,   0.00000
-153220184.27372,-162004693.72502,-13712711.36941,  -0.00038,  -0.00044,  -0.00018,159573406.27861,   0.00000,274640135.82653,   0.00000,   0.00000,   0.00000,-315066729.54792,   0.00000
-154327668.90187,-163472267.87311,-13725272.63173,  -0.00038,  -0.00044,  -0.00018,160863504.39969,   0.00000,274640135.82653,   0.00000,   0.00000,   0.00000,-313776631.42684,   0.00000
-155441434.16119,-164954496.82723,-13737833.89405,  -0.00039,  -0.00045,  -0.00018,162164873.38432,   0.00000,274640135.82653,   0.00000,   0.00000,   0.00000,-312475262.44221,   0.00000
-156548918.78935,-166422070.97532,-13746208.06894,  -0.00039,  -0.00045,  -0.00018,163455036.98810,   0.00000,274640135.82653,   0.00000,   0.00000,   0.00000,-311185098.83843,   0.00000
-157648029.24262,-167898019.29829,-13754582.24382,  -0.00039,  -0.00046,  -0.00018,164746531.83106,   0.00000,274640135.82653,   0.00000,   0.00000,   0.00000,-309893603.99547,   0.00000
-158747139.69589,-169373967.62125,-13762956.41870,  -0.00039,  -0.00046,  -0.00018,166038607.79567,   0.00000,274640135.82653,   0.00000,   0.00000,   0.00000,-308601528.03086,   0.00000
-159831595.34312,-170843635.31306,-13767143.50614,  -0.00039,  -0.00047,  -0.00018,167320287.26834,   0.00000,274640135.82653,   0.00000,   0.00000,   0.00000,-307319848.55819,   0.00000
-160922331.62151,-172327957.81091,-13771330.59358,  -0.00040,  -0.00047,  -0.00018,168613326.05174,   0.00000,274640135.82653,   0.00000,   0.00000,   0.00000,-306026809.77479,   0.00000
-161992132.46270,-173791344.87155,-13771330.59358,  -0.00040,  -0.00047,  -0.00018,169885257.19357,   0.00000,274640135.82653,   0.00000,   0.00000,   0.00000,-304754878.63296,   0.00000
-163068213.93505,-175269386.73824,-13771330.59358,  -0.00040,  -0.00048,  -0.00018,171168580.96515,   0.00000,274640135.82653,   0.00000,   0.00000,   0.00000,-303471554.86138,   0.00000
-164129640.60135,-176741147.97376,-13767143.50614,  -0.00040,  -0.00048,  -0.00018,172441624.71852,   0.00000,274640135.82653,   0.00000,   0.00000,   0.00000,-302198511.10801,   0.00000
-165191067.26765,-178212909.20929,-13767143.50614,  -0.00040,  -0.00049,  -0.00018,173716296.76477,   0.00000,274640135.82653,   0.00000,   0.00000,   0.00000,-300923839.06176,   0.00000
-166258774.56512,-179699325.25086,-13758769.33126,  -0.00041,  -0.00049,  -0.00018,175000426.31278,   0.00000,274640135.82653,   0.00000,   0.00000,   0.00000,-299639709.51375,   0.00000
-167311827.05654,-181179460.66127,-13754582.24382,  -0.00041,  -0.00050,  -0.00018,176276326.96496,   0.00000,274640135.82653,   0.00000,   0.00000,   0.00000,-298363808.86157,   0.00000
-168343944.11076,-182638660.63447,-13746208.06894,  -0.00041,  -0.00050,  -0.00018,177531197.56153,   0.00000,274640135.82653,   0.00000,   0.00000,   0.00000,-297108938.26500,   0.00000
-169388622.42730,-184127170.21976,-13733646.80661,  -0.00041,  -0.00051,  -0.00018,178807470.95638,   0.00000,274640135.82653,   0.00000,   0.00000,   0.00000,-295832664.87014,   0.00000
-170427020.11267,-185601024.99901,-13725272.63173,  -0.00041,  -0.00051,  -0.00018,180074510.60929,   0.00000,274640135.82653,   0.00000,   0.00000,   0.00000,-294565625.21724,   0.00000
-171450762.99201,-187068599.14709,-13712711.36941,  -0.00042,  -0.00052,  -0.00018,181331426.45742,   0.00000,274640135.82653,   0.00000,   0.00000,   0.00000,-293308709.36911,   0.00000
-172480786.50250,-188550828.10122,-13695963.01964,  -0.00042,  -0.00052,  -0.00018,182598958.30121,   0.00000,274640135.82653,   0.00000,   0.00000,   0.00000,-292041177.52532,   0.00000
-173496155.20696,-190026776.42419,-13679214.66988,  -0.00042,  -0.00053,  -0.00018,183857388.41763,   0.00000,274640135.82653,   0.00000,   0.00000,   0.00000,-290782747.40890,   0.00000
-174496869.10537,-191496444.11599,-13662466.32012,  -0.00042,  -0.00053,  -0.00018,185106737.99578,   0.00000,274640135.82653,   0.00000,   0.00000,   0.00000,-289533397.83075,   0.00000
-175518518.44098,-192987047.24500,-13641530.88291,  -0.00042,  -0.00054,  -0.00018,186376565.59720,   0.00000,274640135.82653,   0.00000,   0.00000,   0.00000,-288263570.22933,   0.00000
-176504577.53334,-194450434.30564,-13620595.44570,  -0.00042,  -0.00054,  -0.00018,187616650.09927,   0.00000,274640135.82653,   0.00000,   0.00000,   0.00000,-287023485.72726,   0.00000
-177511572.06292,-195934756.80349,-13599660.00850,  -0.00043,  -0.00055,  -0.00018,188878142.44898,   0.00000,274640135.82653,   0.00000,   0.00000,   0.00000,-285761993.37754,   0.00000
-178503911.78644,-197412798.67018,-13574537.48385,  -0.00043,  -0.00055,  -0.00018,190129711.00336,   0.00000,274640135.82653,   0.00000,   0.00000,   0.00000,-284510424.82317,   0.00000
-179487877.33509,-198899214.71175,-13549414.95921,  -0.00043,  -0.00055,  -0.00018,191383274.63023,   0.00000,274640135.82653,   0.00000,   0.00000,   0.00000,-283256861.19630,   0.00000
-180465562.25257,-200370975.94728,-13524292.43456,  -0.00043,  -0.00056,  -0.00018,192626596.77559,   0.00000,274640135.82653,   0.00000,   0.00000,   0.00000,-282013539.05094,   0.00000
-181434872.99517,-201851111.35768,-13494982.82247,  -0.00043,  -0.00056,  -0.00018,193871084.03815,   0.00000,274640135.82653,   0.00000,   0.00000,   0.00000,-280769051.78838,   0.00000
-182404183.73777,-203331246.76809,-13465673.21039,  -0.00043,  -0.00057,  -0.00018,195116337.41750,   0.00000,274640135.82653,   0.00000,   0.00000,   0.00000,-279523798.40903,   0.00000
-183373494.48037,-204811382.17850,-13436363.59830,  -0.00043,  -0.00057,  -0.00017,196362342.33840,   0.00000,274640135.82653,   0.00000,   0.00000,   0.00000,-278277793.48813,   0.00000
-184328150.41693,-206285236.95775,-13402866.89877,  -0.00044,  -0.00058,  -0.00017,197598583.90034,   0.00000,274640135.82653,   0.00000,   0.00000,   0.00000,-277041551.92619,   0.00000
-185268151.54744,-207752811.10583,-13365183.11180,  -0.00044,  -0.00058,  -0.00017,198825107.98854,   0.00000,274640135.82653,   0.00000,   0.00000,   0.00000,-275815027.83799,   0.00000
-186229088.11516,-209241320.69112,-13331686.41227,  -0.00044,  -0.00059,  -0.00017,200073948.28971,   0.00000,274640135.82653,   0.00000,   0.00000,   0.00000,-274566187.53682,   0.00000
-187160715.07079,-210717269.01409,-13294002.62530,  -0.00044,  -0.00059,  -0.00017,201303495.98934,   0.00000,274640135.82653,   0.00000,   0.00000,   0.00000,-273336639.83719,   0.00000
-188092342.02642,-212193217.33705,-13256318.83833,  -0.00044,  -0.00060,  -0.00017,202533852.40304,   0.00000,274640135.82653,   0.00000,   0.00000,   0.00000,-272106283.42349,   0.00000
-189023968.98206,-213669165.66002,-13214447.96392,  -0.00044,  -0.00060,  -0.00017,203764188.13523,   0.00000,274640135.82653,   0.00000,   0.00000,   0.00000,-270875947.69130,   0.00000
-189947221.76281,-215153488.15787,-13172577.08951,  -0.00044,  -0.00061,  -0.00017,204996862.30594,   0.00000,274640135.82653,   0.00000,   0.00000,   0.00000,-269643273.52059,   0.00000
-190870474.54356,-216637810.65572,-13130706.21510,  -0.00045,  -0.00061,  -0.00017,206230365.54148,   0.00000,274640135.82653,   0.00000,   0.00000,   0.00000,-268409770.28505,   0.00000
-191772791.88710,-218101197.71636,-13084648.25325,  -0.00045,  -0.00062,  -0.00017,207443208.16366,   0.00000,274640135.82653,   0.00000,   0.00000,   0.00000,-267196927.66287,   0.00000
-192687670.49297,-219593894.38909,-13038590.29140,  -0.00045,  -0.00062,  -0.00017,208679168.48364,   0.00000,274640135.82653,   0.00000,   0.00000,   0.00000,-265960967.34289,   0.00000
-193581613.66163,-221065655.62462,-12992532.32955,  -0.00045,  -0.00063,  -0.00017,209895299.11984,   0.00000,274640135.82653,   0.00000,   0.00000,   0.00000,-264744836.70669,   0.00000
-194475556.83029,-222537416.86015,-12942287.28026,  -0.00045,  -0.00063,  -0.00017,211111497.66870,   0.00000,274640135.82653,   0.00000,   0.00000,   0.00000,-263528638.15783,   0.00000
-195375780.63011,-224023832.90171,-12892042.23096,  -0.00045,  -0.00064,  -0.00017,212339719.29560,   0.00000,274640135.82653,   0.00000,   0.00000,   0.00000,-262300416.53093,   0.00000
-196246694.81785,-225497687.68096,-12841797.18167,  -0.00045,  -0.00064,  -0.00017,213549834.33499,   0.00000,274640135.82653,   0.00000,   0.00000,   0.00000,-261090301.49154,   0.00000
-197132263.81163,-226977823.09137,-12791552.13238,  -0.00045,  -0.00065,  -0.00017,214770298.05731,   0.00000,274640135.82653,   0.00000,   0.00000,   0.00000,-259869837.76922,   0.00000
-198003177.99937,-228451677.87061,-12737119.99565,  -0.00046,  -0.00065,  -0.00017,215981416.00478,   0.00000,274640135.82653,   0.00000,   0.00000,   0.00000,-258658719.82175,   0.00000
-198865718.01222,-229933906.82474,-12678500.77147,  -0.00046,  -0.00066,  -0.00016,217194468.11000,   0.00000,274640135.82653,   0.00000,   0.00000,   0.00000,-257445667.71653,   0.00000
-199728258.02508,-231416135.77887,-12624068.63474,  -0.00046,  -0.00066,  -0.00016,218409167.85069,   0.00000,274640135.82653,   0.00000,   0.00000,   0.00000,-256230967.97584,   0.00000
-200584517.40677,-232883709.92696,-12565449.41056,  -0.00046,  -0.00067,  -0.00016,219612786.42584,   0.00000,274640135.82653,   0.00000,   0.00000,   0.00000,-255027349.40069,   0.00000
-201432402.61358,-234359658.24992,-12506830.18639,  -0.00046,  -0.00067,  -0.00016,220819146.82530,   0.00000,274640135.82653,   0.00000,   0.00000,   0.00000,-253820989.00123,   0.00000
-202286568.45155,-235850261.37893,-12444023.87477,  -0.00046,  -0.00068,  -0.00016,222036985.01884,   0.00000,274640135.82653,   0.00000,   0.00000,   0.00000,-252603150.80769,   0.00000
-203119798.85232,-237319929.07074,-12381217.56316,  -0.00046,  -0.00068,  -0.00016,223235097.61794,   0.00000,274640135.82653,   0.00000,   0.00000,   0.00000,-251405038.20859,   0.00000
-203959309.88425,-238804251.56859,-12318411.25154,  -0.00046,  -0.00069,  -0.00016,224445427.83408,   0.00000,274640135.82653,   0.00000,   0.00000,   0.00000,-250194707.99245,   0.00000
-204784166.11013,-240282293.43528,-12255604.93993,  -0.00046,  -0.00069,  -0.00016,225647348.07459,   0.00000,274640135.82653,   0.00000,   0.00000,   0.00000,-248992787.75194,   0.00000
-205609022.33602,-241760335.30196,-12188611.54087,  -0.00046,  -0.00070,  -0.00016,226849532.43088,   0.00000,274640135.82653,   0.00000,   0.00000,   0.00000,-247790603.39565,   0.00000
-206419223.75586,-243232096.53749,-12121618.14181,  -0.00046,  -0.00070,  -0.00016,228043349.03992,   0.00000,274640135.82653,   0.00000,   0.00000,   0.00000,-246596786.78661,   0.00000
-207229425.17570,-244703857.77301,-12050437.65531,  -0.00047,  -0.00071,  -0.00016,229237457.72915,   0.00000,274640135.82653,   0.00000,   0.00000,   0.00000,-245402678.09738,   0.00000
-208031252.42066,-246183993.18342,-11983444.25626,  -0.00047,  -0.00071,  -0.00016,230435250.91510,   0.00000,274640135.82653,   0.00000,   0.00000,   0.00000,-244204884.91143,   0.00000
-208833079.66562,-247664128.59383,-11908076.68232,  -0.00047,  -0.00072,  -0.00015,231632726.37655,   0.00000,274640135.82653,   0.00000,   0.00000,   0.00000,-243007409.44998,   0.00000
-209620252.10453,-249137983.37308,-11836896.19582,  -0.00047,  -0.00072,  -0.00015,232822581.17018,   0.00000,274640135.82653,   0.00000,   0.00000,   0.00000,-241817554.65635,   0.00000
-210407424.54345,-250611838.15232,-11765715.70932,  -0.00047,  -0.00073,  -0.00015,234013423.75561,   0.00000,274640135.82653,   0.00000,   0.00000,   0.00000,-240626712.07092,   0.00000
-211194596.98237,-252085692.93157,-11690348.13539,  -0.00047,  -0.00074,  -0.00015,235204614.68732,   0.00000,274640135.82653,   0.00000,   0.00000,   0.00000,-239435521.13921,   0.00000
-211973395.24640,-253567921.88570,-11610793.47401,  -0.00047,  -0.00074,  -0.00015,236398370.44557,   0.00000,274640135.82653,   0.00000,   0.00000,   0.00000,-238241765.38096,   0.00000
-212745912.87927,-255035496.03378,-11535425.90007,  -0.00047,  -0.00075,  -0.00015,237582336.07698,   0.00000,274640135.82653,   0.00000,   0.00000,   0.00000,-237057799.74955,   0.00000
-213510056.33726,-256511444.35675,-11455871.23869,  -0.00047,  -0.00075,  -0.00015,238768932.78833,   0.00000,274640135.82653,   0.00000,   0.00000,   0.00000,-235871203.03820,   0.00000
-214259544.98921,-257981112.04855,-11376316.57731,  -0.00047,  -0.00076,  -0.00015,239947395.99766,   0.00000,274640135.82653,   0.00000,   0.00000,   0.00000,-234692739.82887,   0.00000
-215023688.44720,-259457060.37152,-11296761.91593,  -0.00047,  -0.00076,  -0.00015,241136038.66837,   0.00000,274640135.82653,   0.00000,   0.00000,   0.00000,-233504097.15816,   0.00000
-215779457.73031,-260941382.86937,-11213020.16711,  -0.00047,  -0.00077,  -0.00015,242327433.52955,   0.00000,274640135.82653,   0.00000,   0.00000,   0.00000,-232312702.29698,   0.00000
-216514291.57621,-262404769.93001,-11129278.41829,  -0.00047,  -0.00077,  -0.00014,243499284.15807,   0.00000,274640135.82653,   0.00000,   0.00000,   0.00000,-231140851.66846,   0.00000
-217255406.05327,-263882811.79670,-11045536.66947,  -0.00047,  -0.00078,  -0.00014,244683661.15187,   0.00000,274640135.82653,   0.00000,   0.00000,   0.00000,-229956474.67466,   0.00000
-217981865.72429,-265354573.03223,-10957607.83320,  -0.00047,  -0.00078,  -0.00014,245859443.20689,   0.00000,274640135.82653,   0.00000,   0.00000,   0.00000,-228780692.61964,   0.00000
-218708325.39531,-266826334.26775,-10873866.08438,  -0.00047,  -0.00079,  -0.00014,247036852.32730,   0.00000,274640135.82653,   0.00000,   0.00000,   0.00000,-227603283.49923,   0.00000
-219441065.69750,-268312750.30932,-10785937.24812,  -0.00048,  -0.00079,  -0.00014,248226281.34801,   0.00000,274640135.82653,   0.00000,   0.00000,   0.00000,-226413854.47852,   0.00000
-220152870.56247,-269778230.91369,-10693821.32442,  -0.00048,  -0.00080,  -0.00014,249395673.14702,   0.00000,274640135.82653,   0.00000,   0.00000,   0.00000,-225244462.67951,   0.00000
-220856301.25257,-271252085.69293,-10605892.48816,  -0.00048,  -0.00080,  -0.00014,250569196.64826,   0.00000,274640135.82653,   0.00000,   0.00000,   0.00000,-224070939.17827,   0.00000
-221568106.11754,-272717566.29730,-10513776.56445,  -0.00048,  -0.00081,  -0.00014,251740740.52306,   0.00000,274640135.82653,   0.00000,   0.00000,   0.00000,-222899395.30347,   0.00000
-222256882.00160,-274185140.44538,-10421660.64075,  -0.00048,  -0.00081,  -0.00014,252906922.52902,   0.00000,274640135.82653,   0.00000,   0.00000,   0.00000,-221733213.29751,   0.00000
-222960312.69169,-275658995.22463,-10325357.62961,  -0.00048,  -0.00082,  -0.00013,254082675.40863,   0.00000,274640135.82653,   0.00000,   0.00000,   0.00000,-220557460.41790,   0.00000
-223640714.40086,-277134943.54759,-10233241.70590,  -0.00048,  -0.00082,  -0.00013,255253691.49116,   0.00000,274640135.82653,   0.00000,   0.00000,   0.00000,-219386444.33537,   0.00000
-224329490.28491,-278602517.69568,-10136938.69476,  -0.00048,  -0.00083,  -0.00013,256422687.89910,   0.00000,274640135.82653,   0.00000,   0.00000,   0.00000,-218217447.92743,   0.00000
-225009891.99408,-280078466.01865,-10040635.68362,  -0.00048,  -0.00084,  -0.00013,257595450.90823,   0.00000,274640135.82653,   0.00000,   0.00000,   0.00000,-217044684.91830,   0.00000
-225675638.89720,-281548133.71045,-9940145.58503,  -0.00048,  -0.00084,  -0.00013,258759946.89061,   0.00000,274640135.82653,   0.00000,   0.00000,   0.00000,-215880188.93592,   0.00000
-226341385.80033,-283017801.40226,-9843842.57389,  -0.00048,  -0.00085,  -0.00013,259926068.66355,   0.00000,274640135.82653,   0.00000,   0.00000,   0.00000,-214714067.16298,   0.00000
-227007132.70346,-284487469.09406,-9743352.47530,  -0.00048,  -0.00085,  -0.00013,261092842.63085,   0.00000,274640135.82653,   0.00000,   0.00000,   0.00000,-213547293.19568,   0.00000
-227658224.80054,-285950856.15470,-9642862.37672,  -0.00048,  -0.00086,  -0.00013,262251881.87507,   0.00000,274640135.82653,   0.00000,   0.00000,   0.00000,-212388253.95146,   0.00000
-228309316.89762,-287414243.21535,-9538185.19069,  -0.00048,  -0.00086,  -0.00012,263411603.35179,   0.00000,274640135.82653,   0.00000,   0.00000,   0.00000,-211228532.47474,   0.00000
-228952034.81982,-288886004.45087,-9437695.09211,  -0.00048,  -0.00087,  -0.00012,264575753.86208,   0.00000,274640135.82653,   0.00000,   0.00000,   0.00000,-210064381.96445,   0.00000
-229594752.74202,-290357765.68640,-9333017.90608,  -0.00048,  -0.00087,  -0.00012,265740623.22362,   0.00000,274640135.82653,   0.00000,   0.00000,   0.00000,-208899512.60291,   0.00000
-230237470.66422,-291829526.92193,-9228340.72005,  -0.00048,  -0.00088,  -0.00012,266906651.01310,   0.00000,274640135.82653,   0.00000,   0.00000,   0.00000,-207733484.81343,   0.00000
-230865533.78037,-293295007.52629,-9119476.44659,  -0.00048,  -0.00088,  -0.00012,268064623.20091,   0.00000,274640135.82653,   0.00000,   0.00000,   0.00000,-206575512.62562,   0.00000
-231493596.89653,-294760488.13065,-9014799.26056,  -0.00048,  -0.00089,  -0.00012,269224190.89654,   0.00000,274640135.82653,   0.00000,   0.00000,   0.00000,-205415944.92999,   0.00000
-232107005.20664,-296219688.10386,-8905934.98709,  -0.00048,  -0.00090,  -0.00012,270375753.03879,   0.00000,274640135.82653,   0.00000,   0.00000,   0.00000,-204264382.78774,   0.00000
-232726694.14792,-297693542.88310,-8797070.71363,  -0.00048,  -0.00090,  -0.00011,271540219.66988,   0.00000,274640135.82653,   0.00000,   0.00000,   0.00000,-203099916.15665,   0.00000
-233325447.65199,-299146462.22514,-8684019.35272,  -0.00048,  -0.00091,  -0.00011,272685028.46322,   0.00000,274640135.82653,   0.00000,   0.00000,   0.00000,-201955107.36331,   0.00000
-233930481.78722,-300614036.37323,-8575155.07925,  -0.00048,  -0.00091,  -0.00011,273843171.66385,   0.00000,274640135.82653,   0.00000,   0.00000,   0.00000,-200796964.16268,   0.00000
-234535515.92245,-302081610.52131,-8462103.71834,  -0.00048,  -0.00092,  -0.00011,275002114.29711,   0.00000,274640135.82653,   0.00000,   0.00000,   0.00000,-199638021.52942,   0.00000
-235125895.25163,-303542904.03824,-8349052.35743,  -0.00048,  -0.00092,  -0.00011,276153588.02011,   0.00000,274640135.82653,   0.00000,   0.00000,   0.00000,-198486547.80642,   0.00000
-235701619.77478,-304997916.92400,-8236000.99653,  -0.00048,  -0.00093,  -0.00011,277297628.88052,   0.00000,274640135.82653,   0.00000,   0.00000,   0.00000,-197342506.94601,   0.00000
-236298279.73512,-306473865.24697,-8118762.54818,  -0.00048,  -0.00093,  -0.00011,278462929.05790,   0.00000,274640135.82653,   0.00000,   0.00000,   0.00000,-196177206.76863,   0.00000
-236874004.25827,-307928878.13273,-8005711.18727,  -0.00048,  -0.00094,  -0.00010,279609398.49406,   0.00000,274640135.82653,   0.00000,   0.00000,   0.00000,-195030737.33247,   0.00000
-237441354.60653,-309392265.19337,-7888472.73892,  -0.00048,  -0.00094,  -0.00010,280759926.08104,   0.00000,274640135.82653,   0.00000,   0.00000,   0.00000,-193880209.74549,   0.00000
-238008704.95479,-310855652.25401,-7771234.29057,  -0.00048,  -0.00095,  -0.00010,281911697.52046,   0.00000,274640135.82653,   0.00000,   0.00000,   0.00000,-192728438.30607,   0.00000
-238576055.30305,-312319039.31466,-7653995.84222,  -0.00048,  -0.00096,  -0.00010,283064697.62887,   0.00000,274640135.82653,   0.00000,   0.00000,   0.00000,-191575438.19766,   0.00000
-239128750.84527,-313776145.74414,-7532570.30643,  -0.00048,  -0.00096,  -0.00010,284210045.89615,   0.00000,274640135.82653,   0.00000,   0.00000,   0.00000,-190430089.93038,   0.00000
-239681446.38749,-315233252.17362,-7411144.77064,  -0.00048,  -0.00097,  -0.00010,285356640.69439,   0.00000,274640135.82653,   0.00000,   0.00000,   0.00000,-189283495.13214,   0.00000
-240219487.12366,-316684077.97194,-7289719.23485,  -0.00048,  -0.00097,  -0.00009,286495969.36748,   0.00000,274640135.82653,   0.00000,   0.00000,   0.00000,-188144166.45905,   0.00000
-240763808.49099,-318149558.57631,-7168293.69906,  -0.00048,  -0.00098,  -0.00009,287648408.67367,   0.00000,274640135.82653,   0.00000,   0.00000,   0.00000,-186991727.15286,   0.00000
-241301849.22717,-319600384.37463,-7046868.16327,  -0.00047,  -0.00098,  -0.00009,288790234.29174,   0.00000,274640135.82653,   0.00000,   0.00000,   0.00000,-185849901.53478,   0.00000
-241831515.78846,-321059584.34783,-6921255.54004,  -0.00047,  -0.00099,  -0.00009,289936413.93183,   0.00000,274640135.82653,   0.00000,   0.00000,   0.00000,-184703721.89470,   0.00000
-242361182.34975,-322518784.32103,-6799830.00425,  -0.00047,  -0.00099,  -0.00009,291084159.85089,   0.00000,274640135.82653,   0.00000,   0.00000,   0.00000,-183555975.97564,   0.00000
-242876194.10500,-323971703.66307,-6674217.38102,  -0.00047,  -0.00100,  -0.00009,292224454.12188,   0.00000,274640135.82653,   0.00000,   0.00000,   0.00000,-182415681.70465,   0.00000
-243405860.66629,-325430903.63628,-6548604.75779,  -0.00047,  -0.00101,  -0.00009,293374418.67696,   0.00000,274640135.82653,   0.00000,   0.00000,   0.00000,-181265717.14957,   0.00000
-243912498.24666,-326892197.15320,-6418805.04712,  -0.00047,  -0.00101,  -0.00008,294520501.95240,   0.00000,274640135.82653,   0.00000,   0.00000,   0.00000,-180119633.87413,   0.00000
-244412855.19586,-328338835.86408,-6293192.42388,  -0.00047,  -0.00102,  -0.00008,295656245.30694,   0.00000,274640135.82653,   0.00000,   0.00000,   0.00000,-178983890.51959,   0.00000
-244913212.14507,-329785474.57496,-6163392.71321,  -0.00047,  -0.00102,  -0.00008,296792996.97958,   0.00000,274640135.82653,   0.00000,   0.00000,   0.00000,-177847138.84695,   0.00000
-245419849.72543,-331246768.09188,-6033593.00254,  -0.00047,  -0.00103,  -0.00008,297942955.44112,   0.00000,274640135.82653,   0.00000,   0.00000,   0.00000,-176697180.38541,   0.00000
-245911832.49975,-332701780.97764,-5903793.29187,  -0.00047,  -0.00103,  -0.00008,299085880.84134,   0.00000,274640135.82653,   0.00000,   0.00000,   0.00000,-175554254.98519,   0.00000
-246403815.27408,-334156793.86340,-5773993.58119,  -0.00047,  -0.00104,  -0.00008,300230097.03330,   0.00000,274640135.82653,   0.00000,   0.00000,   0.00000,-174410038.79323,   0.00000
-246881143.24235,-335605526.11800,-5644193.87052,  -0.00047,  -0.00105,  -0.00007,301367322.14438,   0.00000,274640135.82653,   0.00000,   0.00000,   0.00000,-173272813.68215,   0.00000
-247358471.21063,-337054258.37260,-5510207.07241,  -0.00047,  -0.00105,  -0.00007,302505615.56214,   0.00000,274640135.82653,   0.00000,   0.00000,   0.00000,-172134520.26439,   0.00000
-247835799.17891,-338502990.62720,-5376220.27430,  -0.00047,  -0.00106,  -0.00007,303645204.21864,   0.00000,274640135.82653,   0.00000,   0.00000,   0.00000,-170994931.60789,   0.00000
-248298472.34115,-339945442.25064,-5242233.47618,  -0.00047,  -0.00106,  -0.00007,304777860.28388,   0.00000,274640135.82653,   0.00000,   0.00000,   0.00000,-169862275.54265,   0.00000
-248767426.13454,-341402548.68013,-5108246.67807,  -0.00047,  -0.00107,  -0.00007,305923816.97464,   0.00000,274640135.82653,   0.00000,   0.00000,   0.00000,-168716318.85189,   0.00000
-249230099.29678,-342845000.30356,-4974259.87996,  -0.00047,  -0.00107,  -0.00006,307059070.77244,   0.00000,274640135.82653,   0.00000,   0.00000,   0.00000,-167581065.05409,   0.00000
-249684398.28413,-344295826.10188,-4840273.08184,  -0.00046,  -0.00108,  -0.00006,308199453.56250,   0.00000,274640135.82653,   0.00000,   0.00000,   0.00000,-166440682.26403,   0.00000
-250138697.27148,-345746651.90021,-4702099.19629,  -0.00046,  -0.00109,  -0.00006,309340956.37522,   0.00000,274640135.82653,   0.00000,   0.00000,   0.00000,-165299179.45131,   0.00000
-250578341.45279,-347191197.06736,-4563925.31073,  -0.00046,  -0.00109,  -0.00006,310475645.48750,   0.00000,274640135.82653,   0.00000,   0.00000,   0.00000,-164164490.33903,   0.00000
-251017985.63410,-348635742.23452,-4425751.42518,  -0.00046,  -0.00110,  -0.00006,311611665.32479,   0.00000,274640135.82653,   0.00000,   0.00000,   0.00000,-163028470.50174,   0.00000
-251457629.81541,-350080287.40168,-4287577.53963,  -0.00046,  -0.00110,  -0.00006,312749001.38606,   0.00000,274640135.82653,   0.00000,   0.00000,   0.00000,-161891134.44047,   0.00000
-251882619.19068,-351518551.93768,-4149403.65407,  -0.00046,  -0.00111,  -0.00005,313879571.33684,   0.00000,274640135.82653,   0.00000,   0.00000,   0.00000,-160760564.48969,   0.00000
-252307608.56594,-352956816.47368,-4011229.76852,  -0.00046,  -0.00111,  -0.00005,315011465.24649,   0.00000,274640135.82653,   0.00000,   0.00000,   0.00000,-159628670.58003,   0.00000
-252738878.57237,-354409735.81572,-3868868.79552,  -0.00046,  -0.00112,  -0.00005,316156585.94289,   0.00000,274640135.82653,   0.00000,   0.00000,   0.00000,-158483549.88364,   0.00000
-253149213.14159,-355841719.72055,-3730694.90997,  -0.00046,  -0.00113,  -0.00005,317283085.76288,   0.00000,274640135.82653,   0.00000,   0.00000,   0.00000,-157357050.06365,   0.00000
-253565828.34198,-357288358.43143,-3588333.93697,  -0.00046,  -0.00113,  -0.00005,318422848.16278,   0.00000,274640135.82653,   0.00000,   0.00000,   0.00000,-156217287.66375,   0.00000
-253982443.54236,-358734997.14231,-3445972.96398,  -0.00046,  -0.00114,  -0.00004,319563941.69725,   0.00000,274640135.82653,   0.00000,   0.00000,   0.00000,-155076194.12928,   0.00000
-254384403.93670,-360175355.22203,-3303611.99098,  -0.00046,  -0.00114,  -0.00004,320698394.10459,   0.00000,274640135.82653,   0.00000,   0.00000,   0.00000,-153941741.72194,   0.00000
-254780083.69988,-361601058.49571,-3157063.93054,  -0.00045,  -0.00115,  -0.00004,321821953.51439,   0.00000,274640135.82653,   0.00000,   0.00000,   0.00000,-152818182.31214,   0.00000
-255182044.09422,-363041416.57542,-3014702.95755,  -0.00045,  -0.00115,  -0.00004,322959069.08830,   0.00000,274640135.82653,   0.00000,   0.00000,   0.00000,-151681066.73823,   0.00000
-255575630.31368,-364490148.83002,-2872341.98455,  -0.00045,  -0.00116,  -0.00004,324101716.93380,   0.00000,274640135.82653,   0.00000,   0.00000,   0.00000,-150538418.89273,   0.00000
-255962935.90197,-365924226.27858,-2725793.92412,  -0.00045,  -0.00117,  -0.00004,325233476.92813,   0.00000,274640135.82653,   0.00000,   0.00000,   0.00000,-149406658.89840,   0.00000
-256335586.68422,-367352023.09597,-2579245.86368,  -0.00045,  -0.00117,  -0.00003,326358703.02657,   0.00000,274640135.82653,   0.00000,   0.00000,   0.00000,-148281432.79996,   0.00000
-256722892.27252,-368786100.54453,-2432697.80324,  -0.00045,  -0.00118,  -0.00003,327493131.32601,   0.00000,274640135.82653,   0.00000,   0.00000,   0.00000,-147147004.50051,   0.00000
-257101823.68593,-370228552.16797,-2286149.74281,  -0.00045,  -0.00118,  -0.00003,328633187.73669,   0.00000,274640135.82653,   0.00000,   0.00000,   0.00000,-146006948.08984,   0.00000
-257459819.66214,-371650068.35420,-2139601.68237,  -0.00045,  -0.00119,  -0.00003,329754615.06752,   0.00000,274640135.82653,   0.00000,   0.00000,   0.00000,-144885520.75901,   0.00000
-257838751.07556,-373092519.97764,-1993053.62194,  -0.00045,  -0.00119,  -0.00003,330897351.78907,   0.00000,274640135.82653,   0.00000,   0.00000,   0.00000,-143742784.03746,   0.00000
-258203027.68293,-374528690.96992,-1842318.47406,  -0.00044,  -0.00120,  -0.00002,332033559.01745,   0.00000,274640135.82653,   0.00000,   0.00000,   0.00000,-142606576.80908,   0.00000
-258546368.85309,-375943926.52499,-1695770.41362,  -0.00044,  -0.00121,  -0.00002,333151242.76314,   0.00000,274640135.82653,   0.00000,   0.00000,   0.00000,-141488893.06339,   0.00000
-258910645.46046,-377380097.51727,-1545035.26574,  -0.00044,  -0.00121,  -0.00002,334290139.10776,   0.00000,274640135.82653,   0.00000,   0.00000,   0.00000,-140349996.71877,   0.00000
-259260267.26179,-378809987.87838,-1394300.11787,  -0.00044,  -0.00122,  -0.00002,335422638.79581,   0.00000,274640135.82653,   0.00000,   0.00000,   0.00000,-139217497.03072,   0.00000
-259595234.25707,-380233597.60834,-1243564.96999,  -0.00044,  -0.00122,  -0.00002,336548783.85922,   0.00000,274640135.82653,   0.00000,   0.00000,   0.00000,-138091351.96731,   0.00000
-259944856.05840,-381663487.96945,-1092829.82211,  -0.00044,  -0.00123,  -0.00001,337683977.45277,   0.00000,274640135.82653,   0.00000,   0.00000,   0.00000,-136956158.37376,   0.00000
-260279823.05368,-383087097.69940,-942094.67423,  -0.00044,  -0.00124,  -0.00001,338812826.40477,   0.00000,274640135.82653,   0.00000,   0.00000,   0.00000,-135827309.42176,   0.00000
-260621070.68013,-384525362.23540,-791359.52636,  -0.00044,  -0.00124,  -0.00001,339955237.97254,   0.00000,274640135.82653,   0.00000,   0.00000,   0.00000,-134684897.85399,   0.00000
-260941382.86937,-385942691.33419,-640624.37848,  -0.00043,  -0.00125,  -0.00001,341079137.30067,   0.00000,274640135.82653,   0.00000,   0.00000,   0.00000,-133560998.52586,   0.00000
-261261695.05861,-387360020.43299,-485702.14316,  -0.00043,  -0.00125,  -0.00001,342204370.10389,   0.00000,274640135.82653,   0.00000,   0.00000,   0.00000,-132435765.72264,   0.00000
-261588287.87901,-388792004.33782,-334966.99528,  -0.00043,  -0.00126,  -0.00000,343343205.61994,   0.00000,274640135.82653,   0.00000,   0.00000,   0.00000,-131296930.20659,   0.00000
-261908600.06825,-390209333.43661,-180044.75996,  -0.00043,  -0.00126,  -0.00000,344471124.60286,   0.00000,274640135.82653,   0.00000,   0.00000,   0.00000,-130169011.22367,   0.00000
-262220538.08261,-391635036.71029,-29309.61209,  -0.00043,  -0.00127,  -0.00000,345605070.98477,   0.00000,274640135.82653,   0.00000,   0.00000,   0.00000,-129035064.84176,   0.00000
-262532476.09696,-393060739.98396,125612.62323,  -0.00043,  -0.00128,   0.00000,346740370.21011,   0.00000,274640135.82653,   0.00000,   0.00000,   0.00000,-127899765.61642,   0.00000
-262838133.48016,-394471788.45159,280534.85855,  -0.00043,  -0.00128,   0.00000,347864749.30317,   0.00000,274640135.82653,   0.00000,   0.00000,   0.00000,-126775386.52336,   0.00000
-263135416.68847,-395891211.09411,435457.09387,  -0.00043,  -0.00129,   0.00001,348995227.20442,   0.00000,274640135.82653,   0.00000,   0.00000,   0.00000,-125644908.62211,   0.00000
-263447354.70283,-397316914.36778,590379.32919,  -0.00042,  -0.00129,   0.00001,350134538.02364,   0.00000,274640135.82653,   0.00000,   0.00000,   0.00000,-124505597.80289,   0.00000
-263729983.10510,-398730056.37913,745301.56451,  -0.00042,  -0.00130,   0.00001,351260241.47294,   0.00000,274640135.82653,   0.00000,   0.00000,   0.00000,-123379894.35359,   0.00000
-264027266.31342,-400149479.02165,900223.79982,  -0.00042,  -0.00131,   0.00001,352394751.75444,   0.00000,274640135.82653,   0.00000,   0.00000,   0.00000,-122245384.07209,   0.00000
-264309894.71569,-401562621.03300,1059333.12258,  -0.00042,  -0.00131,   0.00001,353523198.00618,   0.00000,274640135.82653,   0.00000,   0.00000,   0.00000,-121116937.82035,   0.00000
-264592523.11796,-402975763.04435,1214255.35790,  -0.00042,  -0.00132,   0.00002,354652954.64727,   0.00000,274640135.82653,   0.00000,   0.00000,   0.00000,-119987181.17926,   0.00000
-264875151.52023,-404388905.05570,1373364.68066,  -0.00042,  -0.00132,   0.00002,355784089.46568,   0.00000,274640135.82653,   0.00000,   0.00000,   0.00000,-118856046.36085,   0.00000
-265157779.92250,-405802047.06705,1528286.91598,  -0.00042,  -0.00133,   0.00002,356916498.29004,   0.00000,274640135.82653,   0.00000,   0.00000,   0.00000,-117723637.53649,   0.00000
-265425753.51872,-407208908.44724,1687396.23874,  -0.00041,  -0.00134,   0.00002,358042925.22521,   0.00000,274640135.82653,   0.00000,   0.00000,   0.00000,-116597210.60131,   0.00000
-265700007.74611,-408630424.63347,1846505.56150,  -0.00041,  -0.00134,   0.00002,359183017.15194,   0.00000,274640135.82653,   0.00000,   0.00000,   0.00000,-115457118.67459,   0.00000
-265967981.34234,-410037286.01366,2001427.79682,  -0.00041,  -0.00135,   0.00003,360312046.59892,   0.00000,274640135.82653,   0.00000,   0.00000,   0.00000,-114328089.22761,   0.00000
-266221300.13252,-411437866.76269,2160537.11958,  -0.00041,  -0.00135,   0.00003,361435165.41574,   0.00000,274640135.82653,   0.00000,   0.00000,   0.00000,-113204970.41079,   0.00000
-266480899.55387,-412853102.31776,2319646.44234,  -0.00041,  -0.00136,   0.00003,362571965.42211,   0.00000,274640135.82653,   0.00000,   0.00000,   0.00000,-112068170.40442,   0.00000
-266734218.34405,-414253683.06679,2478755.76510,  -0.00041,  -0.00136,   0.00003,363697755.71410,   0.00000,274640135.82653,   0.00000,   0.00000,   0.00000,-110942380.11242,   0.00000
-266993817.76539,-415668918.62186,2637865.08786,  -0.00040,  -0.00137,   0.00003,364837213.17954,   0.00000,274640135.82653,   0.00000,   0.00000,   0.00000,-109802922.64699,   0.00000
-267232481.74953,-417063218.73973,2796974.41062,  -0.00040,  -0.00138,   0.00004,365958410.11630,   0.00000,274640135.82653,   0.00000,   0.00000,   0.00000,-108681725.71023,   0.00000
-267477426.36483,-418472173.66364,2956083.73337,  -0.00040,  -0.00138,   0.00004,367093297.43513,   0.00000,274640135.82653,   0.00000,   0.00000,   0.00000,-107546838.39140,   0.00000
-267716090.34897,-419866473.78151,3119380.14358,  -0.00040,  -0.00139,   0.00004,368217247.83815,   0.00000,274640135.82653,   0.00000,   0.00000,   0.00000,-106422887.98838,   0.00000
-267961034.96427,-421275428.70542,3278489.46633,  -0.00040,  -0.00139,   0.00004,369354773.47488,   0.00000,274640135.82653,   0.00000,   0.00000,   0.00000,-105285362.35165,   0.00000
-268191324.77353,-422678102.99816,3437598.78909,  -0.00040,  -0.00140,   0.00004,370486458.99462,   0.00000,274640135.82653,   0.00000,   0.00000,   0.00000,-104153676.83191,   0.00000
-268415333.95163,-424066122.48487,3596708.11185,  -0.00039,  -0.00141,   0.00005,371607086.56199,   0.00000,274640135.82653,   0.00000,   0.00000,   0.00000,-103033049.26454,   0.00000
-268645623.76088,-425468796.77762,3760004.52205,  -0.00039,  -0.00141,   0.00005,372741533.50300,   0.00000,274640135.82653,   0.00000,   0.00000,   0.00000,-101898602.32353,   0.00000
-268875913.57014,-426871471.07037,3919113.84481,  -0.00039,  -0.00142,   0.00005,373877160.72377,   0.00000,274640135.82653,   0.00000,   0.00000,   0.00000,-100762975.10276,   0.00000
-269106203.37940,-428274145.36311,4082410.25501,  -0.00039,  -0.00142,   0.00005,375014214.71729,   0.00000,274640135.82653,   0.00000,   0.00000,   0.00000,-99625921.10924,   0.00000
-269315557.75145,-429655884.21866,4241519.57777,  -0.00039,  -0.00143,   0.00006,376132963.00130,   0.00000,274640135.82653,   0.00000,   0.00000,   0.00000,-98507172.82523,   0.00000
-269531192.75466,-431052277.88025,4404815.98797,  -0.00039,  -0.00144,   0.00006,377265559.98194,   0.00000,274640135.82653,   0.00000,   0.00000,   0.00000,-97374575.84459,   0.00000
-269746827.75788,-432448671.54183,4568112.39818,  -0.00038,  -0.00144,   0.00006,378399458.56180,   0.00000,274640135.82653,   0.00000,   0.00000,   0.00000,-96240677.26473,   0.00000
-269947807.95505,-433838784.57226,4727221.72093,  -0.00038,  -0.00145,   0.00006,379527497.01873,   0.00000,274640135.82653,   0.00000,   0.00000,   0.00000,-95112638.80780,   0.00000
-270148788.15222,-435228897.60268,4890518.13114,  -0.00038,  -0.00145,   0.00006,380657002.16224,   0.00000,274640135.82653,   0.00000,   0.00000,   0.00000,-93983133.66429,   0.00000
-270364423.15543,-436625291.26427,5053814.54134,  -0.00038,  -0.00146,   0.00007,381794767.37679,   0.00000,274640135.82653,   0.00000,   0.00000,   0.00000,-92845368.44974,   0.00000
-270550748.54656,-438009123.66353,5212923.86410,  -0.00038,  -0.00147,   0.00007,382919740.15431,   0.00000,274640135.82653,   0.00000,   0.00000,   0.00000,-91720395.67222,   0.00000
-270751728.74373,-439399236.69396,5376220.27430,  -0.00038,  -0.00147,   0.00007,384053116.26740,   0.00000,274640135.82653,   0.00000,   0.00000,   0.00000,-90587019.55913,   0.00000
-270938054.13485,-440783069.09322,5539516.68450,  -0.00037,  -0.00148,   0.00007,385180859.95699,   0.00000,274640135.82653,   0.00000,   0.00000,   0.00000,-89459275.86954,   0.00000
-271139034.33202,-442173182.12365,5702813.09470,  -0.00037,  -0.00148,   0.00007,386316781.34778,   0.00000,274640135.82653,   0.00000,   0.00000,   0.00000,-88323354.47875,   0.00000
-271325359.72315,-443557014.52291,5866109.50490,  -0.00037,  -0.00149,   0.00008,387447084.33590,   0.00000,274640135.82653,   0.00000,   0.00000,   0.00000,-87193051.49063,   0.00000
-271511685.11428,-444940846.92218,6029405.91510,  -0.00037,  -0.00150,   0.00008,388578659.34257,   0.00000,274640135.82653,   0.00000,   0.00000,   0.00000,-86061476.48396,   0.00000
-271683355.69936,-446318398.69028,6192702.32530,  -0.00037,  -0.00150,   0.00008,389704666.63006,   0.00000,274640135.82653,   0.00000,   0.00000,   0.00000,-84935469.19647,   0.00000
-271869681.09048,-447702231.08954,6351811.64806,  -0.00036,  -0.00151,   0.00008,390838566.37059,   0.00000,274640135.82653,   0.00000,   0.00000,   0.00000,-83801569.45594,   0.00000
-272041351.67557,-449079782.85765,6515108.05826,  -0.00036,  -0.00151,   0.00008,391967112.33624,   0.00000,274640135.82653,   0.00000,   0.00000,   0.00000,-82673023.49029,   0.00000
-272219302.89181,-450471989.43179,6678404.46846,  -0.00036,  -0.00152,   0.00009,393109392.47602,   0.00000,274640135.82653,   0.00000,   0.00000,   0.00000,-81530743.35051,   0.00000
-272376318.67085,-451843260.56873,6841700.87866,  -0.00036,  -0.00152,   0.00009,394233704.51657,   0.00000,274640135.82653,   0.00000,   0.00000,   0.00000,-80406431.30995,   0.00000
-272547989.25593,-453220812.33683,7004997.28886,  -0.00036,  -0.00153,   0.00009,395366033.00286,   0.00000,274640135.82653,   0.00000,   0.00000,   0.00000,-79274102.82367,   0.00000
-272705005.03497,-454592083.47378,7168293.69906,  -0.00035,  -0.00154,   0.00009,396492873.85683,   0.00000,274640135.82653,   0.00000,   0.00000,   0.00000,-78147261.96970,   0.00000
-272876675.62005,-455969635.24188,7331590.10926,  -0.00035,  -0.00154,   0.00010,397627673.52407,   0.00000,274640135.82653,   0.00000,   0.00000,   0.00000,-77012462.30246,   0.00000
-273033691.39909,-457340906.37882,7494886.51946,  -0.00035,  -0.00155,   0.00010,398757000.39224,   0.00000,274640135.82653,   0.00000,   0.00000,   0.00000,-75883135.43429,   0.00000
-273190707.17813,-458712177.51576,7658182.92966,  -0.00035,  -0.00155,   0.00010,399887563.47296,   0.00000,274640135.82653,   0.00000,   0.00000,   0.00000,-74752572.35357,   0.00000
-273333068.15113,-460077168.02154,7821479.33986,  -0.00035,  -0.00156,   0.00010,401012704.75536,   0.00000,274640135.82653,   0.00000,   0.00000,   0.00000,-73627431.07117,   0.00000
-273496364.56133,-461463093.96452,7984775.75006,  -0.00034,  -0.00157,   0.00010,402158227.40855,   0.00000,274640135.82653,   0.00000,   0.00000,   0.00000,-72481908.41798,   0.00000
-273638725.53432,-462828084.47030,8148072.16026,  -0.00034,  -0.00157,   0.00011,403285846.45427,   0.00000,274640135.82653,   0.00000,   0.00000,   0.00000,-71354289.37226,   0.00000
-273781086.50732,-464193074.97608,8311368.57047,  -0.00034,  -0.00158,   0.00011,404414695.96356,   0.00000,274640135.82653,   0.00000,   0.00000,   0.00000,-70225439.86297,   0.00000
-273923447.48032,-465558065.48186,8474664.98067,  -0.00034,  -0.00158,   0.00011,405544765.66128,   0.00000,274640135.82653,   0.00000,   0.00000,   0.00000,-69095370.16525,   0.00000
-274065808.45331,-466923055.98764,8637961.39087,  -0.00034,  -0.00159,   0.00011,406676045.37547,   0.00000,274640135.82653,   0.00000,   0.00000,   0.00000,-67964090.45106,   0.00000
-274193514.62026,-468281765.86226,8801257.80107,  -0.00033,  -0.00160,   0.00011,407801984.91569,   0.00000,274640135.82653,   0.00000,   0.00000,   0.00000,-66838150.91084,   0.00000
-274335875.59326,-469646756.36804,8964554.21127,  -0.00033,  -0.00160,   0.00012,408935672.17033,   0.00000,274640135.82653,   0.00000,   0.00000,   0.00000,-65704463.65620,   0.00000
-274463581.76021,-471005466.24265,9127850.62147,  -0.00033,  -0.00161,   0.00012,410064034.78044,   0.00000,274640135.82653,   0.00000,   0.00000,   0.00000,-64576101.04609,   0.00000
-274591287.92716,-472364176.11727,9291147.03167,  -0.00033,  -0.00161,   0.00012,411193602.86031,   0.00000,274640135.82653,   0.00000,   0.00000,   0.00000,-63446532.96622,   0.00000
-274718994.09411,-473722885.99189,9454443.44187,  -0.00033,  -0.00162,   0.00012,412324366.50276,   0.00000,274640135.82653,   0.00000,   0.00000,   0.00000,-62315769.32377,   0.00000
-274832045.45502,-475075315.23535,9617739.85207,  -0.00032,  -0.00163,   0.00013,413449864.53405,   0.00000,274640135.82653,   0.00000,   0.00000,   0.00000,-61190271.29248,   0.00000
-274959751.62197,-476434025.10996,9781036.26227,  -0.00032,  -0.00163,   0.00013,414583007.48716,   0.00000,274640135.82653,   0.00000,   0.00000,   0.00000,-60057128.33937,   0.00000
-275072802.98288,-477786454.35342,9944332.67247,  -0.00032,  -0.00164,   0.00013,415710900.66911,   0.00000,274640135.82653,   0.00000,   0.00000,   0.00000,-58929235.15742,   0.00000
-275200509.14983,-479145164.22804,10107629.08267,  -0.00032,  -0.00164,   0.00013,416846384.15635,   0.00000,274640135.82653,   0.00000,   0.00000,   0.00000,-57793751.67018,   0.00000
-275313560.51074,-480497593.47149,10270925.49287,  -0.00032,  -0.00165,   0.00013,417976633.78347,   0.00000,274640135.82653,   0.00000,   0.00000,   0.00000,-56663502.04306,   0.00000
-275426611.87165,-481850022.71495,10430034.81563,  -0.00031,  -0.00166,   0.00014,419107743.43789,   0.00000,274640135.82653,   0.00000,   0.00000,   0.00000,-55532392.38864,   0.00000
-275539663.23256,-483202451.95841,10593331.22583,  -0.00031,  -0.00166,   0.00014,420240324.94103,   0.00000,274640135.82653,   0.00000,   0.00000,   0.00000,-54399810.88550,   0.00000
-275638059.78742,-484548600.57070,10756627.63603,  -0.00031,  -0.00167,   0.00014,421367731.67707,   0.00000,274640135.82653,   0.00000,   0.00000,   0.00000,-53272404.14946,   0.00000
-275751111.14833,-485901029.81416,10919924.04623,  -0.00031,  -0.00167,   0.00014,422502628.88904,   0.00000,274640135.82653,   0.00000,   0.00000,   0.00000,-52137506.93749,   0.00000
-275849507.70319,-487247178.42645,11079033.36899,  -0.00030,  -0.00168,   0.00014,423632038.95255,   0.00000,274640135.82653,   0.00000,   0.00000,   0.00000,-51008096.87397,   0.00000
-275947904.25806,-488593327.03875,11242329.77919,  -0.00030,  -0.00169,   0.00015,424762934.34925,   0.00000,274640135.82653,   0.00000,   0.00000,   0.00000,-49877201.47728,   0.00000
-276046300.81292,-489939475.65104,11405626.18939,  -0.00030,  -0.00169,   0.00015,425894981.23873,   0.00000,274640135.82653,   0.00000,   0.00000,   0.00000,-48745154.58780,   0.00000
-276138416.73663,-491270969.45729,11564735.51215,  -0.00030,  -0.00170,   0.00015,427015259.98155,   0.00000,274640135.82653,   0.00000,   0.00000,   0.00000,-47624875.84498,   0.00000
-276236813.29149,-492617118.06959,11728031.92235,  -0.00030,  -0.00170,   0.00015,428149575.92243,   0.00000,274640135.82653,   0.00000,   0.00000,   0.00000,-46490559.90410,   0.00000
-276335209.84635,-493963266.68188,11887141.24511,  -0.00029,  -0.00171,   0.00015,429284668.32380,   0.00000,274640135.82653,   0.00000,   0.00000,   0.00000,-45355467.50273,   0.00000
-276412670.96401,-495288479.85697,12050437.65531,  -0.00029,  -0.00171,   0.00016,430402451.75483,   0.00000,274640135.82653,   0.00000,   0.00000,   0.00000,-44237684.07170,   0.00000
-276496412.71283,-496628347.83810,12209546.97807,  -0.00029,  -0.00172,   0.00016,431533596.14630,   0.00000,274640135.82653,   0.00000,   0.00000,   0.00000,-43106539.68023,   0.00000
-276594809.26770,-497974496.45040,12372843.38827,  -0.00029,  -0.00173,   0.00016,432672380.12556,   0.00000,274640135.82653,   0.00000,   0.00000,   0.00000,-41967755.70097,   0.00000
-276672270.38536,-499299709.62549,12531952.71103,  -0.00029,  -0.00173,   0.00016,433793165.55670,   0.00000,274640135.82653,   0.00000,   0.00000,   0.00000,-40846970.26983,   0.00000
-276756012.13418,-500639577.60662,12695249.12124,  -0.00028,  -0.00174,   0.00017,434928007.78330,   0.00000,274640135.82653,   0.00000,   0.00000,   0.00000,-39712128.04323,   0.00000
-276833473.25184,-501964790.78171,12854358.44399,  -0.00028,  -0.00174,   0.00017,436050994.96273,   0.00000,274640135.82653,   0.00000,   0.00000,   0.00000,-38589140.86380,   0.00000
-276902560.19462,-503298378.13168,13013467.76675,  -0.00028,  -0.00175,   0.00017,437181571.95358,   0.00000,274640135.82653,   0.00000,   0.00000,   0.00000,-37458563.87295,   0.00000
-276980021.31227,-504623591.30677,13172577.08951,  -0.00028,  -0.00176,   0.00017,438306740.07617,   0.00000,274640135.82653,   0.00000,   0.00000,   0.00000,-36333395.75036,   0.00000
-277042827.62389,-505942523.85070,13331686.41227,  -0.00027,  -0.00176,   0.00017,439426922.18761,   0.00000,274640135.82653,   0.00000,   0.00000,   0.00000,-35213213.63892,   0.00000
-277126569.37271,-507282391.83183,13490795.73503,  -0.00027,  -0.00177,   0.00018,440566835.19310,   0.00000,274640135.82653,   0.00000,   0.00000,   0.00000,-34073300.63343,   0.00000
-277189375.68433,-508601324.37576,13654092.14523,  -0.00027,  -0.00177,   0.00018,441689570.02632,   0.00000,274640135.82653,   0.00000,   0.00000,   0.00000,-32950565.80021,   0.00000
-277252181.99594,-509920256.91969,13813201.46799,  -0.00027,  -0.00178,   0.00018,442812997.28895,   0.00000,274640135.82653,   0.00000,   0.00000,   0.00000,-31827138.53758,   0.00000
-277321268.93872,-511253844.26966,13968123.70331,  -0.00026,  -0.00179,   0.00018,443949704.45198,   0.00000,274640135.82653,   0.00000,   0.00000,   0.00000,-30690431.37455,   0.00000
-277384075.25034,-512572776.81358,14127233.02607,  -0.00026,  -0.00179,   0.00018,445075260.12671,   0.00000,274640135.82653,   0.00000,   0.00000,   0.00000,-29564875.69982,   0.00000
-277446881.56195,-513891709.35751,14286342.34883,  -0.00026,  -0.00180,   0.00019,446201868.60454,   0.00000,274640135.82653,   0.00000,   0.00000,   0.00000,-28438267.22199,   0.00000
-277495033.06752,-515204361.27028,14445451.67159,  -0.00026,  -0.00180,   0.00019,447323584.44846,   0.00000,274640135.82653,   0.00000,   0.00000,   0.00000,-27316551.37807,   0.00000
-277557839.37914,-516523293.81421,14604560.99435,  -0.00026,  -0.00181,   0.00019,448452291.15140,   0.00000,274640135.82653,   0.00000,   0.00000,   0.00000,-26187844.67513,   0.00000
-277605990.88471,-517835945.72697,14759483.22967,  -0.00025,  -0.00181,   0.00019,449575710.05159,   0.00000,274640135.82653,   0.00000,   0.00000,   0.00000,-25064425.77494,   0.00000
-277668797.19633,-519154878.27090,14918592.55243,  -0.00025,  -0.00182,   0.00019,450706480.06444,   0.00000,274640135.82653,   0.00000,   0.00000,   0.00000,-23933655.76209,   0.00000
-277710668.07074,-520452875.37762,15073514.78775,  -0.00025,  -0.00183,   0.00020,451819352.69845,   0.00000,274640135.82653,   0.00000,   0.00000,   0.00000,-22820783.12808,   0.00000
-277758819.57631,-521765527.29039,15232624.11051,  -0.00025,  -0.00183,   0.00020,452946298.00577,   0.00000,274640135.82653,   0.00000,   0.00000,   0.00000,-21693837.82076,   0.00000
-277806971.08188,-523078179.20316,15387546.34582,  -0.00024,  -0.00184,   0.00020,454073848.49202,   0.00000,274640135.82653,   0.00000,   0.00000,   0.00000,-20566287.33450,   0.00000
-277855122.58745,-524390831.11592,15546655.66858,  -0.00024,  -0.00184,   0.00020,455202844.62041,   0.00000,274640135.82653,   0.00000,   0.00000,   0.00000,-19437291.20611,   0.00000
-277896993.46186,-525688828.22264,15701577.90390,  -0.00024,  -0.00185,   0.00020,456319796.72122,   0.00000,274640135.82653,   0.00000,   0.00000,   0.00000,-18320339.10531,   0.00000
-277945144.96743,-527001480.13541,15856500.13922,  -0.00024,  -0.00186,   0.00021,457450376.18477,   0.00000,274640135.82653,   0.00000,   0.00000,   0.00000,-17189759.64176,   0.00000
-277972361.03580,-528293196.61097,16011422.37454,  -0.00023,  -0.00186,   0.00021,458563545.04422,   0.00000,274640135.82653,   0.00000,   0.00000,   0.00000,-16076590.78231,   0.00000
-278020512.54137,-529605848.52374,16166344.60986,  -0.00023,  -0.00187,   0.00021,459696120.09127,   0.00000,274640135.82653,   0.00000,   0.00000,   0.00000,-14944015.73525,   0.00000
-278047728.60974,-530897564.99930,16321266.84518,  -0.00023,  -0.00187,   0.00021,460811298.78619,   0.00000,274640135.82653,   0.00000,   0.00000,   0.00000,-13828837.04034,   0.00000
-278089599.48415,-532195562.10602,16476189.08049,  -0.00023,  -0.00188,   0.00021,461933204.44967,   0.00000,274640135.82653,   0.00000,   0.00000,   0.00000,-12706931.37686,   0.00000
-278123096.18368,-533501933.38763,16631111.31581,  -0.00023,  -0.00189,   0.00022,463062999.61904,   0.00000,274640135.82653,   0.00000,   0.00000,   0.00000,-11577136.20749,   0.00000
-278150312.25205,-534793649.86319,16786033.55113,  -0.00022,  -0.00189,   0.00022,464181145.89800,   0.00000,274640135.82653,   0.00000,   0.00000,   0.00000,-10458989.92853,   0.00000
-278177528.32041,-536085366.33875,16936768.69901,  -0.00022,  -0.00190,   0.00022,465299814.62498,   0.00000,274640135.82653,   0.00000,   0.00000,   0.00000,-9340321.20155,   0.00000
-278204744.38878,-537377082.81431,17091690.93433,  -0.00022,  -0.00190,   0.00022,466419910.23828,   0.00000,274640135.82653,   0.00000,   0.00000,   0.00000,-8220225.58825,   0.00000
-278231960.45715,-538668799.28987,17242426.08221,  -0.00022,  -0.00191,   0.00022,467540508.25175,   0.00000,274640135.82653,   0.00000,   0.00000,   0.00000,-7099627.57478,   0.00000
-278259176.52551,-539960515.76543,17397348.31752,  -0.00021,  -0.00191,   0.00023,468662525.29788,   0.00000,274640135.82653,   0.00000,   0.00000,   0.00000,-5977610.52864,   0.00000
-278286392.59388,-541252232.24099,17548083.46540,  -0.00021,  -0.00192,   0.00023,469785025.00076,   0.00000,274640135.82653,   0.00000,   0.00000,   0.00000,-4855110.82577,   0.00000
-278307328.03108,-542529293.91051,17698818.61328,  -0.00021,  -0.00193,   0.00023,470895816.46149,   0.00000,274640135.82653,   0.00000,   0.00000,   0.00000,-3744319.36504,   0.00000
-278319889.29341,-543814729.75491,17853740.84860,  -0.00021,  -0.00193,   0.00023,472015078.02194,   0.00000,274640135.82653,   0.00000,   0.00000,   0.00000,-2625057.80459,   0.00000
-278347105.36177,-545106446.23047,18004475.99647,  -0.00020,  -0.00194,   0.00023,473140392.30520,   0.00000,274640135.82653,   0.00000,   0.00000,   0.00000,-1499743.52133,   0.00000
-278353385.99294,-546377227.26883,18155211.14435,  -0.00020,  -0.00194,   0.00024,474248422.03963,   0.00000,274640135.82653,   0.00000,   0.00000,   0.00000,-391713.78690,   0.00000
-278362846.68717,-546826246.37220,18207608.83551,  -0.00020,  -0.00195,   0.00024,474640135.90550,   0.00000,274640135.82653,   0.00000,   0.00000,   0.00000,   0.07897,   0.00000
-278011180.54185,-546824770.78165,18273673.17424,  -0.00020,  -0.00195,   0.00024,474640135.90550,   0.00000,274642947.66274,  -0.00000,  -0.00000,   0.00000,  -0.00000,   2.00000
-277461529.42021,-546821823.03816,18375441.05668,  -0.00020,  -0.00195,   0.00024,475752756.49312,   0.00001,274647192.78696,  -0.00000,  -0.00001,   0.00000,   0.00000,   2.00000
-276913172.79500,-546818659.80539,18472758.60685,  -0.00019,  -0.00196,   0.00024,475757318.32750,   0.00001,274651440.93342,  -0.00000,  -0.00001,   0.00000,   0.00000,   2.00000
-276377487.01901,-546814274.46654,18573138.82721,  -0.00019,  -0.00197,   0.00024,475781006.74811,   0.00001,274655765.27186,  -0.00000,  -0.00002,   0.00000,   0.00000,   2.00000
-275830967.75214,-546809037.83746,18674034.54121,  -0.00019,  -0.00197,   0.00025,475767961.11657,   0.00002,274660024.91007,  -0.00000,  -0.00002,   0.00000,  -0.00000,   2.00000
-275285746.43398,-546803613.16931,18770482.62316,  -0.00019,  -0.00198,   0.00025,475772518.44752,   0.00002,274664287.48573,  -0.00000,  -0.00003,   0.00000,  -0.00000,   2.00000
-274741332.99219,-546796871.36432,18870802.17566,  -0.00018,  -0.00198,   0.00025,475778066.15440,   0.00003,274668556.78231,  -0.00000,  -0.00003,   0.00000,   0.00000,   2.00000
-274198219.59639,-546789959.64304,18966675.89792,  -0.00018,  -0.00199,   0.00025,475782620.56335,   0.00003,274672828.95992,  -0.00000,  -0.00004,   0.00000,  -0.00000,   2.00000
-273656161.04612,-546782314.19963,19062269.04107,  -0.00018,  -0.00200,   0.00025,475787671.04523,   0.00003,274677105.90590,  -0.00000,  -0.00004,   0.00001,  -0.00000,   2.00000
-273102870.06627,-546773156.77586,19162563.65408,  -0.00018,  -0.00200,   0.00026,475775151.75475,   0.00004,274681320.20945,  -0.00000,  -0.00005,   0.00001,   0.00000,   2.00000
-272562945.20096,-546764045.14004,19257583.68554,  -0.00017,  -0.00201,   0.00026,475797726.93223,   0.00004,274685606.76449,  -0.00000,  -0.00005,   0.00001,   0.00000,   2.00000
-272024076.09088,-546754217.94718,19352325.15592,  -0.00017,  -0.00201,   0.00026,475802780.84629,   0.00005,274689898.03563,  -0.00000,  -0.00006,   0.00001,  -0.00000,   2.00000
-271474135.62558,-546743426.23023,19447627.51130,  -0.00017,  -0.00202,   0.00026,475789794.88404,   0.00005,274694124.71850,  -0.00000,  -0.00006,   0.00001,   0.00000,   2.00000
-270937653.03932,-546732761.23259,19537659.29929,  -0.00017,  -0.00202,   0.00026,475812321.84729,   0.00005,274698423.49021,  -0.00000,  -0.00006,   0.00001,   0.00000,   2.00000
-270389791.54489,-546720520.11080,19632422.74265,  -0.00016,  -0.00203,   0.00026,475799875.57698,   0.00006,274702659.65558,  -0.00000,  -0.00007,   0.00001,   0.00000,   2.00000
-269855028.94436,-546707717.03241,19726659.02508,  -0.00016,  -0.00204,   0.00027,475810231.28033,   0.00006,274706921.09379,  -0.00000,  -0.00007,   0.00001,   0.00000,   2.00000
-269309499.00096,-546694647.73220,19816722.21386,  -0.00016,  -0.00204,   0.00027,475809392.63166,   0.00006,274711164.66944,  -0.00000,  -0.00008,   0.00001,   0.00000,   2.00000
-268776843.49456,-546680461.86484,19910420.82497,  -0.00016,  -0.00205,   0.00027,475820244.42747,   0.00007,274715435.40921,   0.00000,  -0.00008,   0.00001,   0.00000,   2.00000
-268233395.92624,-546665995.10162,19999949.06709,  -0.00015,  -0.00205,   0.00027,475819429.40426,   0.00007,274719688.31630,   0.00000,  -0.00009,   0.00001,  -0.00000,   2.00000
-267691002.04516,-546650831.20295,20089215.71232,  -0.00015,  -0.00206,   0.00027,475824445.05224,   0.00008,274723945.91077,   0.00000,  -0.00009,   0.00001,  -0.00000,   2.00000
-267161774.54334,-546635217.19669,20177967.30625,  -0.00015,  -0.00206,   0.00028,475834734.12948,   0.00008,274728228.45972,   0.00000,  -0.00010,   0.00001,   0.00000,   2.00000
-266621464.74152,-546618691.28211,20266713.85619,  -0.00015,  -0.00207,   0.00028,475834484.21854,   0.00008,274732495.27154,   0.00000,  -0.00010,   0.00001,  -0.00000,   2.00000
-266081931.16131,-546601333.55669,20355815.91501,  -0.00014,  -0.00208,   0.00028,475826832.36169,   0.00009,274736717.82692,   0.00000,  -0.00011,   0.00002,   0.00000,   2.00000
-265543730.35954,-546583452.95858,20444042.00913,  -0.00014,  -0.00208,   0.00028,475844475.36185,   0.00009,274740993.90192,   0.00000,  -0.00011,   0.00002,  -0.00000,   2.00000
-265006274.49108,-546564749.13803,20532630.02665,  -0.00014,  -0.00209,   0.00028,475836824.58453,   0.00010,274745225.64231,   0.00000,  -0.00012,   0.00002,   0.00000,   2.00000
-264470183.22227,-546545536.46207,20620338.17563,  -0.00014,  -0.00209,   0.00029,475854471.16111,   0.00010,274749510.91310,   0.00000,  -0.00012,   0.00002,   0.00000,   2.00000
-263935061.79020,-546526133.92282,20704265.51324,  -0.00013,  -0.00210,   0.00029,475846273.49928,   0.00010,274753749.65057,   0.00000,  -0.00013,   0.00002,   0.00000,   2.00000
-263400724.20049,-546505453.43327,20792097.22977,  -0.00013,  -0.00210,   0.00029,475851793.09327,   0.00011,274757995.03478,   0.00000,  -0.00013,   0.00002,  -0.00000,   2.00000
-262867683.10710,-546484754.59548,20875525.18253,  -0.00013,  -0.00211,   0.00029,475856217.82389,   0.00011,274762242.79996,   0.00000,  -0.00014,   0.00002,   0.00000,   2.00000
-262323455.33365,-546463033.41844,20958967.43154,  -0.00013,  -0.00212,   0.00029,475856034.37396,   0.00012,274766475.14333,   0.00000,  -0.00014,   0.00002,  -0.00000,   2.00000
-261792261.83897,-546440411.64185,21046056.39775,  -0.00012,  -0.00212,   0.00029,475866715.13984,   0.00012,274770734.12315,   0.00000,  -0.00014,   0.00002,   0.00000,   2.00000
-261262365.93362,-546417795.17734,21128744.07968,  -0.00012,  -0.00213,   0.00030,475871136.73883,   0.00012,274774995.40581,   0.00000,  -0.00015,   0.00002,  -0.00000,   2.00000
-260733075.58865,-546394388.28630,21211830.38325,  -0.00012,  -0.00213,   0.00030,475863435.42329,   0.00013,274779212.01231,   0.00000,  -0.00015,   0.00002,   0.00000,   2.00000
-260192984.59687,-546370084.45964,21294292.89609,  -0.00012,  -0.00214,   0.00030,475875936.66337,   0.00013,274783462.41808,   0.00000,  -0.00016,   0.00002,  -0.00000,   2.00000
-259666027.55700,-546346072.96461,21372752.40711,  -0.00011,  -0.00214,   0.00030,475872770.41384,   0.00013,274787685.71790,   0.00000,  -0.00016,   0.00002,   0.00000,   2.00000
-259128018.20915,-546320503.59607,21454743.54267,  -0.00011,  -0.00215,   0.00030,475885861.99438,   0.00014,274791945.09600,   0.00000,  -0.00017,   0.00002,   0.00000,   2.00000
-258602877.28749,-546294620.48296,21536884.41890,  -0.00011,  -0.00215,   0.00031,475883237.13664,   0.00014,274796179.40527,   0.00000,  -0.00017,   0.00003,  -0.00000,   2.00000
-258079021.30501,-546268789.20280,21614640.60394,  -0.00011,  -0.00216,   0.00031,475887597.55552,   0.00015,274800415.83093,   0.00000,  -0.00018,   0.00003,   0.00000,   2.00000
-257543593.79386,-546241189.81870,21696577.41653,  -0.00010,  -0.00217,   0.00031,475888059.49606,   0.00015,274804639.26697,   0.00000,  -0.00018,   0.00003,   0.00000,   2.00000
-257021813.58014,-546214166.30484,21773869.69061,  -0.00010,  -0.00217,   0.00031,475897453.29188,   0.00015,274808884.40002,   0.00000,  -0.00019,   0.00003,   0.00000,   2.00000
-256488697.38704,-546186007.48271,21851197.56018,  -0.00010,  -0.00218,   0.00031,475897369.07301,   0.00016,274813114.36330,   0.00000,  -0.00019,   0.00003,  -0.00000,   2.00000
-255956619.17997,-546157243.13890,21928299.93401,  -0.00010,  -0.00218,   0.00031,475902308.61230,   0.00016,274817348.72962,   0.00000,  -0.00020,   0.00003,   0.00000,   2.00000
-255437374.19349,-546128278.07936,22005579.30080,  -0.00009,  -0.00219,   0.00032,475899556.70081,   0.00017,274821557.52291,   0.00000,  -0.00020,   0.00003,   0.00000,   2.00000
-254907348.27464,-546098331.12328,22082231.86780,  -0.00009,  -0.00219,   0.00032,475912146.69424,   0.00017,274825800.55109,   0.00000,  -0.00021,   0.00003,   0.00000,   2.00000
-254377738.71349,-546067604.35801,22159327.96957,  -0.00009,  -0.00220,   0.00032,475904408.52024,   0.00017,274829998.57759,   0.00000,  -0.00021,   0.00003,   0.00000,   2.00000
-253862471.08425,-546037781.57061,22231125.01403,  -0.00009,  -0.00220,   0.00032,475926347.28274,   0.00018,274834267.24579,   0.00000,  -0.00022,   0.00003,   0.00000,   2.00000
-253334882.62227,-546005898.49233,22307789.77413,  -0.00008,  -0.00221,   0.00032,475914248.68680,   0.00018,274838473.78857,   0.00000,  -0.00022,   0.00003,  -0.00000,   2.00000
-252808317.03975,-545973437.23073,22384232.80178,  -0.00008,  -0.00222,   0.00032,475919146.75620,   0.00018,274842684.62900,   0.00000,  -0.00022,   0.00003,   0.00000,   2.00000
-252295491.75384,-545941755.48687,22456047.96159,  -0.00008,  -0.00222,   0.00033,475928363.69748,   0.00019,274846916.53631,   0.00000,  -0.00023,   0.00003,  -0.00000,   2.00000
-251771209.09459,-545908843.88492,22527916.66947,  -0.00008,  -0.00223,   0.00033,475928349.53893,   0.00019,274851133.48162,   0.00000,  -0.00023,   0.00003,  -0.00000,   2.00000
-251247949.25352,-545875371.18502,22599576.21863,  -0.00007,  -0.00223,   0.00033,475933244.86138,   0.00020,274855354.65868,   0.00001,  -0.00024,   0.00004,   0.00000,   2.00000
-250724721.58854,-545840455.95565,22675853.28494,  -0.00007,  -0.00224,   0.00033,475926058.31094,   0.00020,274859532.90303,   0.00001,  -0.00024,   0.00004,   0.00000,   2.00000
-250203507.75725,-545805874.42735,22747083.59080,  -0.00007,  -0.00224,   0.00033,475942995.08940,   0.00020,274863762.51811,   0.00001,  -0.00025,   0.00004,   0.00000,   2.00000
-249682819.10029,-545771222.52386,22814648.64118,  -0.00007,  -0.00225,   0.00033,475934606.89950,   0.00021,274867944.42597,   0.00001,  -0.00025,   0.00004,   0.00000,   2.00000
-249176175.09275,-545736320.62771,22885210.76825,  -0.00006,  -0.00225,   0.00034,475957577.91644,   0.00021,274872201.24855,   0.00001,  -0.00026,   0.00004,  -0.00000,   2.00000
-248657214.44967,-545699911.54687,22956520.23860,  -0.00006,  -0.00226,   0.00034,475944962.58329,   0.00022,274876393.70035,   0.00001,  -0.00026,   0.00004,   0.00000,   2.00000
-248139261.29622,-545662966.56213,23027623.94531,  -0.00006,  -0.00227,   0.00034,475949816.56515,   0.00022,274880590.28379,   0.00001,  -0.00027,   0.00004,  -0.00000,   2.00000
-247622577.77973,-545626183.82274,23094379.38677,  -0.00006,  -0.00227,   0.00034,475954060.64483,   0.00022,274884788.59058,   0.00001,  -0.00027,   0.00004,  -0.00000,   2.00000
-247106901.47499,-545588876.53963,23160940.93573,  -0.00005,  -0.00228,   0.00034,475958910.91537,   0.00023,274888990.98052,   0.00001,  -0.00028,   0.00004,   0.00000,   2.00000
-246591969.63567,-545550351.98813,23231451.74333,  -0.00005,  -0.00228,   0.00034,475964377.00441,   0.00023,274893199.84739,   0.00001,  -0.00028,   0.00004,   0.00000,   2.00000
-246077441.83532,-545511782.88268,23298316.00376,  -0.00005,  -0.00229,   0.00035,475955935.06879,   0.00023,274897360.70765,   0.00001,  -0.00029,   0.00004,   0.00000,   2.00000
-245564786.63033,-545472928.14161,23364286.46446,  -0.00005,  -0.00229,   0.00035,475973424.80611,   0.00024,274901575.27897,   0.00001,  -0.00029,   0.00004,  -0.00000,   2.00000
-245052242.44324,-545433335.61258,23430768.39535,  -0.00004,  -0.00230,   0.00035,475965595.49447,   0.00024,274905744.17621,   0.00001,  -0.00029,   0.00004,   0.00000,   2.00000
-244541600.25203,-545393471.39180,23496353.81844,  -0.00004,  -0.00230,   0.00035,475983087.74993,   0.00025,274909966.79133,   0.00001,  -0.00030,   0.00005,   0.00000,   2.00000
-244031038.36877,-545352873.04711,23562455.40404,  -0.00004,  -0.00231,   0.00035,475975260.75763,   0.00025,274914143.66704,   0.00001,  -0.00030,   0.00005,   0.00000,   2.00000
-243521467.93515,-545311777.90704,23628366.63745,  -0.00004,  -0.00232,   0.00035,475980070.99281,   0.00025,274918324.51595,   0.00001,  -0.00031,   0.00005,   0.00000,   2.00000
-243013151.06016,-545270900.51015,23689946.57511,  -0.00003,  -0.00232,   0.00036,475984255.61746,   0.00026,274922506.86101,   0.00001,  -0.00031,   0.00005,  -0.00000,   2.00000
-242505562.59354,-545228824.83008,23755489.11614,  -0.00003,  -0.00233,   0.00036,475989690.76973,   0.00026,274926695.60281,   0.00001,  -0.00032,   0.00005,   0.00000,   2.00000
-241998242.46757,-545186731.93504,23817415.80491,  -0.00003,  -0.00233,   0.00036,475981189.99547,   0.00027,274930835.99336,   0.00001,  -0.00032,   0.00005,  -0.00000,   2.00000
-241492636.15537,-545143691.90344,23882589.72571,  -0.00003,  -0.00234,   0.00036,475999266.91575,   0.00027,274935032.58253,   0.00001,  -0.00033,   0.00005,   0.00000,   2.00000
-240988281.63130,-545100893.69319,23943435.02592,  -0.00002,  -0.00234,   0.00036,476003449.64643,   0.00027,274939230.58054,   0.00001,  -0.00033,   0.00005,   0.00000,   2.00000
-240483887.47657,-545057370.71459,24004822.91739,  -0.00002,  -0.00235,   0.00036,475995576.84123,   0.00028,274943382.59294,   0.00001,  -0.00034,   0.00005,   0.00000,   2.00000
-239980469.10015,-545013378.73229,24066034.38317,  -0.00002,  -0.00235,   0.00037,476000341.16607,   0.00028,274947538.45607,   0.00001,  -0.00034,   0.00005,  -0.00000,   2.00000
-239478026.08333,-544968921.84925,24127069.88776,  -0.00001,  -0.00236,   0.00037,476005106.69313,   0.00028,274951698.15592,   0.00001,  -0.00035,   0.00005,   0.00000,   2.00000
-238963817.70153,-544922936.32374,24188192.30200,  -0.00001,  -0.00236,   0.00037,476005283.26766,   0.00029,274955843.65880,   0.00001,  -0.00035,   0.00005,  -0.00000,   2.00000
-238463348.93812,-544877550.25990,24248876.04470,  -0.00001,  -0.00237,   0.00037,476014638.15469,   0.00029,274960011.09160,   0.00001,  -0.00035,   0.00005,   0.00000,   2.00000
-237963854.17737,-544831711.56098,24309385.22226,  -0.00001,  -0.00237,   0.00037,476019407.30944,   0.00030,274964182.31901,   0.00001,  -0.00036,   0.00006,   0.00000,   2.00000
-237465332.94234,-544785424.23465,24369720.29761,  -0.00000,  -0.00238,   0.00037,476024177.65542,   0.00030,274968357.32718,   0.00001,  -0.00036,   0.00006,   0.00000,   2.00000
-236966914.62868,-544739147.48065,24426473.26245,  -0.00000,  -0.00239,   0.00037,476015619.42828,   0.00030,274972483.58064,   0.00001,  -0.00037,   0.00006,   0.00000,   2.00000
-236470341.11993,-544691973.80172,24486470.06007,   0.00000,  -0.00239,   0.00038,476033669.21291,   0.00031,274976666.11236,   0.00001,  -0.00037,   0.00006,   0.00000,   2.00000
-235973840.19571,-544644815.86694,24542889.18631,   0.00000,  -0.00240,   0.00038,476025110.61657,   0.00031,274980799.81560,   0.00001,  -0.00038,   0.00006,   0.00000,   2.00000
-235478037.08683,-544596487.29639,24603285.27777,   0.00001,  -0.00240,   0.00038,476030482.46452,   0.00031,274984939.79522,   0.00002,  -0.00038,   0.00006,   0.00000,   2.00000
-234983453.71166,-544548462.76874,24659370.45590,   0.00001,  -0.00241,   0.00038,476034558.11240,   0.00032,274989080.90727,   0.00002,  -0.00039,   0.00006,  -0.00000,   2.00000
-234489828.38581,-544500010.59629,24715294.48860,   0.00001,  -0.00241,   0.00038,476039281.57208,   0.00032,274993225.69900,   0.00002,  -0.00039,   0.00006,   0.00000,   2.00000
-233997160.58705,-544451134.58348,24771057.80930,   0.00001,  -0.00242,   0.00038,476044006.21994,   0.00033,274997374.15704,   0.00002,  -0.00040,   0.00006,  -0.00000,   2.00000
-233505449.78014,-544401838.51263,24826660.85098,   0.00002,  -0.00242,   0.00039,476048732.05313,   0.00033,275001526.26803,   0.00002,  -0.00040,   0.00006,  -0.00000,   2.00000
-233000587.35957,-544350584.29656,24883108.33832,   0.00002,  -0.00243,   0.00039,476036330.70129,   0.00033,275005614.39316,   0.00002,  -0.00041,   0.00006,   0.00000,   2.00000
-232510816.28058,-544300447.57418,24938388.98593,   0.00002,  -0.00243,   0.00039,476058135.79405,   0.00034,275009773.88387,   0.00002,  -0.00041,   0.00006,  -0.00000,   2.00000
-232020724.11409,-544249596.28905,24994257.05353,   0.00002,  -0.00244,   0.00039,476050183.75468,   0.00034,275013886.85638,   0.00002,  -0.00041,   0.00007,   0.00000,   2.00000
-231531834.69154,-544199083.28074,25045828.38157,   0.00003,  -0.00244,   0.00039,476054203.58200,   0.00034,275018000.80390,   0.00002,  -0.00042,   0.00007,   0.00000,   2.00000
-231044932.49862,-544147729.21741,25100639.88924,   0.00003,  -0.00245,   0.00039,476072226.39235,   0.00035,275022171.11203,   0.00002,  -0.00042,   0.00007,   0.00000,   2.00000
-230557924.25393,-544096412.40060,25151906.99773,   0.00003,  -0.00245,   0.00039,476063613.38835,   0.00035,275026292.18104,   0.00002,  -0.00043,   0.00007,   0.00000,   2.00000
-230070264.22098,-544043628.20778,25207916.23111,   0.00003,  -0.00246,   0.00040,476056280.12422,   0.00036,275030369.24478,   0.00002,  -0.00043,   0.00007,   0.00000,   2.00000
-229585139.71810,-543991520.06055,25258876.93870,   0.00004,  -0.00246,   0.00040,476072930.86669,   0.00036,275034497.41173,   0.00002,  -0.00044,   0.00007,   0.00000,   2.00000
-229100695.98614,-543938267.36100,25313828.11546,   0.00004,  -0.00247,   0.00040,476078283.08624,   0.00036,275038631.75188,   0.00002,  -0.00044,   0.00007,   0.00000,   2.00000
-228616074.58976,-543885054.80321,25365242.37607,   0.00004,  -0.00248,   0.00040,476069622.25807,   0.00037,275042716.71542,   0.00002,  -0.00045,   0.00007,   0.00000,   2.00000
-228133770.08726,-543831786.59726,25415752.64882,   0.00004,  -0.00248,   0.00040,476086938.13263,   0.00037,275046855.42185,   0.00002,  -0.00045,   0.00007,   0.00000,   2.00000
-227650999.50815,-543777804.03595,25466876.73406,   0.00005,  -0.00249,   0.00040,476078945.73954,   0.00038,275050947.34339,   0.00002,  -0.00046,   0.00007,   0.00000,   2.00000
-227169154.73748,-543723441.16776,25517855.36332,   0.00005,  -0.00249,   0.00041,476083584.97700,   0.00038,275055042.73236,   0.00002,  -0.00046,   0.00007,   0.00000,   2.00000
-226688235.18170,-543668701.43054,25568688.93142,   0.00005,  -0.00250,   0.00041,476088225.39059,   0.00038,275059141.57625,   0.00002,  -0.00046,   0.00007,  -0.00000,   2.00000
-226208240.23611,-543613588.24227,25619377.83263,   0.00005,  -0.00250,   0.00041,476092866.97731,   0.00039,275063243.86257,   0.00002,  -0.00047,   0.00007,   0.00000,   2.00000
-225729169.28505,-543558105.00114,25669922.46069,   0.00006,  -0.00251,   0.00041,476097509.73414,   0.00039,275067349.57887,   0.00002,  -0.00047,   0.00008,   0.00000,   2.00000
-225249547.68689,-543501903.35827,25721089.06636,   0.00006,  -0.00251,   0.00041,476089476.97287,   0.00039,275071408.37675,   0.00002,  -0.00048,   0.00008,  -0.00000,   2.00000
-224772325.55175,-543445689.13254,25771344.38601,   0.00006,  -0.00252,   0.00041,476106750.19873,   0.00040,275075520.93080,   0.00002,  -0.00048,   0.00008,   0.00000,   2.00000
-224294780.35401,-543389524.40707,25818089.49413,   0.00006,  -0.00252,   0.00041,476098037.75899,   0.00040,275079583.79752,   0.00003,  -0.00049,   0.00008,  -0.00000,   2.00000
-223817888.74115,-543332230.07445,25868836.95448,   0.00007,  -0.00253,   0.00042,476103315.78460,   0.00041,275083652.75399,   0.00003,  -0.00049,   0.00008,  -0.00000,   2.00000
-223341906.81486,-543274577.90376,25919441.47246,   0.00007,  -0.00253,   0.00042,476107916.26449,   0.00041,275087725.08019,   0.00003,  -0.00050,   0.00008,   0.00000,   2.00000
-222880144.77387,-543218881.24173,25965511.88037,   0.00007,  -0.00254,   0.00042,476116033.62520,   0.00041,275091814.70376,   0.00003,  -0.00050,   0.00008,  -0.00000,   2.00000
-222405955.34406,-543160532.49894,26015842.86751,   0.00007,  -0.00254,   0.00042,476117119.14237,   0.00042,275095893.62753,   0.00003,  -0.00051,   0.00008,   0.00000,   2.00000
-221932929.15656,-543102610.07555,26061897.14618,   0.00008,  -0.00255,   0.00042,476121033.78558,   0.00042,275099973.13915,   0.00003,  -0.00051,   0.00008,  -0.00000,   2.00000
-221460809.82548,-543044343.44825,26107820.15532,   0.00008,  -0.00255,   0.00042,476125633.49918,   0.00042,275104055.95858,   0.00003,  -0.00051,   0.00008,   0.00000,   2.00000
-220987743.68066,-542984575.81513,26158524.24182,   0.00008,  -0.00256,   0.00042,476118253.53255,   0.00043,275108094.37321,   0.00003,  -0.00052,   0.00008,   0.00000,   2.00000
-220517439.05000,-542925629.88151,26204173.84130,   0.00008,  -0.00256,   0.00043,476134791.86705,   0.00043,275112183.79604,   0.00003,  -0.00052,   0.00008,   0.00000,   2.00000
-220059520.60430,-542867579.22239,26250218.33249,   0.00009,  -0.00257,   0.00043,476130858.21345,   0.00043,275116242.44135,   0.00003,  -0.00053,   0.00009,   0.00000,   2.00000
-219589109.80455,-542806800.95535,26300522.44740,   0.00009,  -0.00257,   0.00043,476131977.72010,   0.00044,275120290.59335,   0.00003,  -0.00053,   0.00009,   0.00000,   2.00000
-219119845.91964,-542746470.69172,26346552.18545,   0.00009,  -0.00258,   0.00043,476135843.73378,   0.00044,275124339.23022,   0.00003,  -0.00054,   0.00009,   0.00000,   2.00000
-218651474.20943,-542685810.33688,26392452.10100,   0.00010,  -0.00258,   0.00043,476140402.27243,   0.00045,275128391.10704,   0.00003,  -0.00054,   0.00009,   0.00000,   2.00000
-218197134.51599,-542626497.34795,26437968.96148,   0.00010,  -0.00259,   0.00043,476149051.89144,   0.00045,275132462.48782,   0.00003,  -0.00055,   0.00009,   0.00000,   2.00000
-217728827.17552,-542564786.81548,26484397.33624,   0.00010,  -0.00259,   0.00043,476136856.42519,   0.00045,275136470.16628,   0.00003,  -0.00055,   0.00009,   0.00000,   2.00000
-217263106.02105,-542503162.61262,26529909.12871,   0.00010,  -0.00260,   0.00044,476154038.54643,   0.00046,275140531.61384,   0.00003,  -0.00055,   0.00009,  -0.00000,   2.00000
-216809719.95514,-542442519.33146,26575828.04431,   0.00011,  -0.00260,   0.00044,476149990.66887,   0.00046,275144561.84028,   0.00003,  -0.00056,   0.00009,   0.00000,   2.00000
-216344021.86610,-542379850.64893,26621872.00609,   0.00011,  -0.00261,   0.00044,476150452.60611,   0.00046,275148579.00025,   0.00003,  -0.00056,   0.00009,  -0.00000,   2.00000
-215881199.84647,-542318078.40275,26662863.76580,   0.00011,  -0.00261,   0.00044,476166931.25573,   0.00047,275152647.11266,   0.00004,  -0.00057,   0.00009,   0.00000,   2.00000
-215430443.42884,-542256534.14468,26708411.10077,   0.00011,  -0.00262,   0.00044,476163556.42918,   0.00047,275156686.62680,   0.00004,  -0.00057,   0.00009,  -0.00000,   2.00000
-214965575.33592,-542192502.37034,26754876.39638,   0.00012,  -0.00262,   0.00044,476151389.65237,   0.00048,275160662.53870,   0.00004,  -0.00058,   0.00009,   0.00000,   2.00000
-214516565.45202,-542130373.36128,26800168.25904,   0.00012,  -0.00263,   0.00044,476172528.52594,   0.00048,275164708.19036,   0.00004,  -0.00058,   0.00010,   0.00000,   2.00000
-214055199.55526,-542066166.62736,26845585.33230,   0.00012,  -0.00263,   0.00045,476173051.08557,   0.00048,275168740.91700,   0.00004,  -0.00059,   0.00010,   0.00000,   2.00000
-213606367.50916,-542003819.03030,26887288.81560,   0.00012,  -0.00264,   0.00045,476168179.56154,   0.00049,275172739.14261,   0.00004,  -0.00059,   0.00010,   0.00000,   2.00000
-213146727.85655,-541939017.35853,26932461.68856,   0.00013,  -0.00265,   0.00045,476182047.63125,   0.00049,275176778.01165,   0.00004,  -0.00059,   0.00010,   0.00000,   2.00000
-212699359.94096,-541875303.26409,26978057.11343,   0.00013,  -0.00265,   0.00045,476177868.89041,   0.00049,275180785.10353,   0.00004,  -0.00060,   0.00010,  -0.00000,   2.00000
-212239840.68778,-541810264.21521,27019644.80901,   0.00013,  -0.00266,   0.00045,476177677.00153,   0.00050,275184776.52478,   0.00004,  -0.00060,   0.00010,   0.00000,   2.00000
-211794187.49285,-541745989.43744,27064998.94506,   0.00013,  -0.00266,   0.00045,476186803.08304,   0.00050,275188789.60954,   0.00004,  -0.00061,   0.00010,   0.00000,   2.00000
-211349378.01181,-541681442.79185,27110228.62284,   0.00014,  -0.00267,   0.00045,476191275.17082,   0.00051,275192805.63198,   0.00004,  -0.00061,   0.00010,   0.00000,   2.00000
-210892390.86113,-541615543.51822,27151451.02688,   0.00014,  -0.00267,   0.00045,476191115.48043,   0.00051,275196806.05213,   0.00004,  -0.00062,   0.00010,  -0.00000,   2.00000
-210449291.68679,-541550452.30079,27196441.41024,   0.00014,  -0.00268,   0.00046,476200216.07559,   0.00051,275200828.00374,   0.00004,  -0.00062,   0.00010,   0.00000,   2.00000
-210005117.00811,-541484624.35955,27242113.61494,   0.00014,  -0.00268,   0.00046,476192033.72580,   0.00052,275204802.11515,   0.00004,  -0.00063,   0.00010,   0.00000,   2.00000
-209548728.88872,-541417411.19481,27283778.05583,   0.00015,  -0.00268,   0.00046,476191858.13028,   0.00052,275208760.69857,   0.00004,  -0.00063,   0.00010,   0.00000,   2.00000
-209108183.97136,-541351525.31722,27328403.69861,   0.00015,  -0.00269,   0.00046,476213541.71537,   0.00052,275212791.45664,   0.00004,  -0.00063,   0.00011,  -0.00000,   2.00000
-208666769.03520,-541285706.87408,27369584.31055,   0.00015,  -0.00269,   0.00046,476204641.20903,   0.00053,275216771.40376,   0.00004,  -0.00064,   0.00011,  -0.00000,   2.00000
-208225936.58599,-541218821.10098,27414782.74773,   0.00015,  -0.00270,   0.00046,476209792.56864,   0.00053,275220757.12099,   0.00005,  -0.00064,   0.00011,   0.00000,   2.00000
-207786178.43209,-541152489.63651,27455727.60791,   0.00016,  -0.00270,   0.00046,476213499.58653,   0.00053,275224742.78183,   0.00005,  -0.00065,   0.00011,   0.00000,   2.00000
-207347001.91999,-541085093.68392,27500690.65285,   0.00016,  -0.00271,   0.00047,476218655.38064,   0.00054,275228734.20316,   0.00005,  -0.00065,   0.00011,   0.00000,   2.00000
-206906645.73702,-541016946.30217,27546344.65276,   0.00016,  -0.00271,   0.00047,476210438.01895,   0.00054,275232677.64453,   0.00005,  -0.00066,   0.00011,   0.00000,   2.00000
-206469370.77764,-540949863.41646,27586931.48329,   0.00016,  -0.00272,   0.00047,476226748.65292,   0.00055,275236671.82126,   0.00005,  -0.00066,   0.00011,   0.00000,   2.00000
-206030644.30166,-540881211.77715,27632352.20253,   0.00017,  -0.00272,   0.00047,476219260.22001,   0.00055,275240620.90324,   0.00005,  -0.00067,   0.00011,   0.00000,   2.00000
-205595022.18229,-540813639.71184,27672704.49830,   0.00017,  -0.00273,   0.00047,476235569.17829,   0.00055,275244620.71045,   0.00005,  -0.00067,   0.00011,  -0.00000,   2.00000
-205157922.44691,-540744493.58325,27717893.18694,   0.00017,  -0.00273,   0.00047,476228086.75444,   0.00056,275248575.39330,   0.00005,  -0.00067,   0.00011,   0.00000,   2.00000
-204721636.83886,-540675103.63330,27762960.56867,   0.00017,  -0.00274,   0.00047,476232479.41506,   0.00056,275252532.87452,   0.00005,  -0.00068,   0.00011,   0.00000,   2.00000
-204286407.90151,-540606291.40705,27803777.08345,   0.00018,  -0.00274,   0.00048,476236138.06081,   0.00056,275256490.18399,   0.00005,  -0.00068,   0.00011,   0.00000,   2.00000
-203851748.26061,-540536420.42271,27848612.34610,   0.00018,  -0.00275,   0.00048,476241263.73340,   0.00057,275260453.22477,   0.00005,  -0.00069,   0.00012,  -0.00000,   2.00000
-203415793.20106,-540465780.03890,27894149.00083,   0.00018,  -0.00275,   0.00048,476233013.65250,   0.00057,275264368.13364,   0.00005,  -0.00069,   0.00012,   0.00000,   2.00000
-202996403.48511,-540398374.19170,27934369.72396,   0.00018,  -0.00276,   0.00048,476252994.77978,   0.00057,275268348.70674,   0.00005,  -0.00070,   0.00012,   0.00000,   2.00000
-202562023.92741,-540327265.23291,27979677.39277,   0.00019,  -0.00276,   0.00048,476241759.43273,   0.00058,275272269.02473,   0.00005,  -0.00070,   0.00012,  -0.00000,   2.00000
-202130589.72086,-540256466.55548,28024039.73484,   0.00019,  -0.00277,   0.00048,476258754.08279,   0.00058,275276243.02054,   0.00005,  -0.00070,   0.00012,   0.00000,   2.00000
-201711470.64655,-540187868.77984,28064738.27673,   0.00019,  -0.00277,   0.00048,476253464.41365,   0.00059,275280180.66601,   0.00006,  -0.00071,   0.00012,   0.00000,   2.00000
-201279463.05826,-540116070.15540,28109698.50064,   0.00019,  -0.00278,   0.00049,476254862.75903,   0.00059,275284109.08478,   0.00006,  -0.00071,   0.00012,   0.00000,   2.00000
-200861689.62944,-540046219.79396,28154298.29093,   0.00020,  -0.00278,   0.00049,476262891.51604,   0.00059,275288054.99980,   0.00006,  -0.00072,   0.00012,  -0.00000,   2.00000
-200431253.93682,-539973974.84865,28199021.15486,   0.00020,  -0.00279,   0.00049,476263574.57549,   0.00060,275291988.75918,   0.00006,  -0.00072,   0.00012,   0.00000,   2.00000
-200012859.03157,-539903141.37736,28244215.39419,   0.00020,  -0.00279,   0.00049,476258946.18191,   0.00060,275295888.94689,   0.00006,  -0.00073,   0.00012,  -0.00000,   2.00000
-199583996.16925,-539830458.00728,28288700.14253,   0.00020,  -0.00280,   0.00049,476272241.84065,   0.00060,275299828.02808,   0.00006,  -0.00073,   0.00012,   0.00000,   2.00000
-199167161.58286,-539759206.52582,28333659.77661,   0.00021,  -0.00280,   0.00049,476267597.13847,   0.00061,275303733.42674,   0.00006,  -0.00073,   0.00012,   0.00000,   2.00000
-198753337.18534,-539688330.37313,28377668.19932,   0.00021,  -0.00281,   0.00049,476284537.12704,   0.00061,275307692.38347,   0.00006,  -0.00074,   0.00013,  -0.00000,   2.00000
-198324559.43513,-539614427.34535,28422634.63514,   0.00021,  -0.00281,   0.00050,476272640.45521,   0.00061,275311588.31349,   0.00006,  -0.00074,   0.00013,   0.00000,   2.00000
-197910049.14585,-539542567.81166,28467244.17971,   0.00021,  -0.00282,   0.00050,476280558.14658,   0.00062,275315501.42551,   0.00006,  -0.00075,   0.00013,  -0.00000,   2.00000
-197496305.08439,-539470511.69139,28511737.32441,   0.00022,  -0.00282,   0.00050,476284865.01772,   0.00062,275319417.06740,   0.00006,  -0.00075,   0.00013,   0.00000,   2.00000
-197083326.46649,-539398261.04303,28556114.36981,   0.00022,  -0.00283,   0.00050,476289172.90752,   0.00063,275323335.23029,   0.00006,  -0.00076,   0.00013,   0.00000,   2.00000
-196671112.50313,-539325817.91329,28600375.61594,   0.00022,  -0.00283,   0.00050,476293481.81298,   0.00063,275327255.90535,   0.00006,  -0.00076,   0.00013,   0.00000,   2.00000
-196257112.01381,-539251740.56859,28649489.34122,   0.00022,  -0.00284,   0.00050,476285918.40749,   0.00063,275331131.09534,   0.00006,  -0.00077,   0.00013,   0.00000,   2.00000
-195846429.19412,-539178918.30362,28693508.51859,   0.00023,  -0.00284,   0.00050,476302058.22818,   0.00064,275335056.79463,   0.00006,  -0.00077,   0.00013,  -0.00000,   2.00000
-195433935.23541,-539104455.00876,28742382.80962,   0.00023,  -0.00285,   0.00051,476294501.26034,   0.00064,275338936.98635,   0.00007,  -0.00077,   0.00013,   0.00000,   2.00000
-195024780.39793,-539031261.71099,28786161.14886,   0.00023,  -0.00285,   0.00051,476310638.69664,   0.00064,275342867.67476,   0.00007,  -0.00078,   0.00013,   0.00000,   2.00000
-194613789.89812,-538956420.50479,28834797.21791,   0.00023,  -0.00285,   0.00051,476303088.16673,   0.00065,275346752.83342,   0.00007,  -0.00078,   0.00013,   0.00000,   2.00000
-194203787.66160,-538882239.22646,28879182.39227,   0.00024,  -0.00286,   0.00051,476306597.63280,   0.00065,275350637.38406,   0.00007,  -0.00079,   0.00013,  -0.00000,   2.00000
-193794301.74825,-538807027.10220,28927579.45150,   0.00024,  -0.00286,   0.00051,476311630.37421,   0.00065,275354527.49422,   0.00007,  -0.00079,   0.00014,   0.00000,   2.00000
-193396723.11286,-538733389.78293,28976466.34031,   0.00024,  -0.00287,   0.00051,476306777.62906,   0.00066,275358383.08271,   0.00007,  -0.00080,   0.00014,  -0.00000,   2.00000
-192988718.04949,-538657820.35115,29024615.35802,   0.00024,  -0.00287,   0.00051,476320134.19490,   0.00066,275362278.05010,   0.00007,  -0.00080,   0.00014,   0.00000,   2.00000
-192581696.95130,-538582923.42437,29068515.34983,   0.00024,  -0.00288,   0.00052,476323642.67639,   0.00066,275366172.35228,   0.00007,  -0.00080,   0.00014,   0.00000,   2.00000
-192186329.89186,-538508777.40381,29117045.76272,   0.00025,  -0.00288,   0.00052,476319530.95299,   0.00067,275370035.08457,   0.00007,  -0.00081,   0.00014,  -0.00000,   2.00000
-191778108.91298,-538432032.26830,29165688.41309,   0.00025,  -0.00289,   0.00052,476320296.87818,   0.00067,275373886.16335,   0.00007,  -0.00081,   0.00014,   0.00000,   2.00000
-191386429.26479,-538357358.29631,29217244.76184,   0.00025,  -0.00289,   0.00052,476341367.30263,   0.00068,275377807.89618,   0.00007,  -0.00082,   0.00014,  -0.00000,   2.00000
-190979658.43750,-538280266.65115,29265635.63609,   0.00025,  -0.00290,   0.00052,476328817.07550,   0.00068,275381663.74168,   0.00007,  -0.00082,   0.00014,  -0.00000,   2.00000
-190587219.77537,-538205471.96718,29313670.83740,   0.00026,  -0.00290,   0.00052,476336479.95515,   0.00068,275385535.87683,   0.00007,  -0.00082,   0.00014,   0.00000,   2.00000
-190195267.20866,-538129663.87158,29365710.32740,   0.00026,  -0.00291,   0.00052,476341483.42210,   0.00069,275389413.45307,   0.00008,  -0.00083,   0.00014,   0.00000,   2.00000
-189801767.01519,-538053888.41270,29414355.08899,   0.00026,  -0.00291,   0.00053,476332326.21326,   0.00069,275393238.99683,   0.00008,  -0.00083,   0.00014,   0.00000,   2.00000
-189397643.67502,-537975267.62965,29466374.97583,   0.00026,  -0.00292,   0.00053,476346498.74862,   0.00069,275397107.40495,   0.00008,  -0.00084,   0.00014,   0.00000,   2.00000
-189005583.72472,-537899176.02387,29514770.10446,   0.00027,  -0.00292,   0.00053,476340741.78678,   0.00070,275400937.58826,   0.00008,  -0.00084,   0.00015,   0.00000,   2.00000
-188616533.26212,-537822753.79986,29566305.59453,   0.00027,  -0.00293,   0.00053,476358317.43904,   0.00070,275404824.41073,   0.00008,  -0.00085,   0.00015,   0.00000,   2.00000
-188225654.51254,-537745494.01278,29618577.57174,   0.00027,  -0.00293,   0.00053,476349945.91880,   0.00070,275408662.29816,   0.00008,  -0.00085,   0.00015,   0.00000,   2.00000
-187835483.34789,-537668083.54481,29670720.56779,   0.00027,  -0.00293,   0.00053,476354137.31457,   0.00071,275412502.45545,   0.00008,  -0.00085,   0.00015,  -0.00000,   2.00000
-187459658.41154,-537593084.68292,29722503.73818,   0.00028,  -0.00294,   0.00054,476361683.85750,   0.00071,275416358.46592,   0.00008,  -0.00086,   0.00015,   0.00000,   2.00000
-187070644.79977,-537514514.64699,29778514.39205,   0.00028,  -0.00294,   0.00054,476363311.71958,   0.00071,275420206.25541,   0.00008,  -0.00086,   0.00015,  -0.00000,   2.00000
-186682566.96023,-537436668.14015,29830264.18655,   0.00028,  -0.00295,   0.00054,476366723.68722,   0.00072,275424053.09977,   0.00008,  -0.00087,   0.00015,   0.00000,   2.00000
-186295193.64210,-537358677.74553,29881886.24944,   0.00028,  -0.00295,   0.00054,476370918.84867,   0.00072,275427902.18305,   0.00008,  -0.00087,   0.00015,   0.00000,   2.00000
-185919346.62975,-537281559.82789,29938147.04069,   0.00029,  -0.00296,   0.00054,476366620.70729,   0.00072,275431718.93301,   0.00008,  -0.00088,   0.00015,   0.00000,   2.00000
-185533130.21352,-537202417.32375,29993627.34617,   0.00029,  -0.00296,   0.00054,476380062.23580,   0.00073,275435575.64102,   0.00008,  -0.00088,   0.00015,   0.00000,   2.00000
-185158886.84059,-537125910.64828,30045495.05470,   0.00029,  -0.00297,   0.00054,476374171.14429,   0.00073,275439393.48371,   0.00009,  -0.00088,   0.00015,   0.00000,   2.00000
-184771412.42523,-537045763.43091,30101588.87655,   0.00029,  -0.00297,   0.00055,476375820.18930,   0.00074,275443203.31799,   0.00009,  -0.00089,   0.00015,  -0.00000,   2.00000
-184398315.76153,-536968122.14777,30157317.42285,   0.00030,  -0.00298,   0.00055,476383259.78341,   0.00074,275447028.69966,   0.00009,  -0.00089,   0.00016,   0.00000,   2.00000
-184025664.89818,-536889476.44385,30217033.62543,   0.00030,  -0.00298,   0.00055,476388210.32877,   0.00074,275450859.43903,   0.00009,  -0.00090,   0.00016,  -0.00000,   2.00000
-183640222.51167,-536808918.71287,30272713.05829,   0.00030,  -0.00299,   0.00055,476388306.22377,   0.00075,275454675.78189,   0.00009,  -0.00090,   0.00016,   0.00000,   2.00000
-183268943.33753,-536730021.20709,30332150.67132,   0.00030,  -0.00299,   0.00055,476396523.12926,   0.00075,275458510.81446,   0.00009,  -0.00090,   0.00016,   0.00000,   2.00000
-182898564.20680,-536651886.83609,30387323.83470,   0.00030,  -0.00299,   0.00055,476399881.33032,   0.00075,275462344.67302,   0.00009,  -0.00091,   0.00016,  -0.00000,   2.00000
-182525922.90723,-536571990.77842,30447371.26145,   0.00031,  -0.00300,   0.00056,476392249.34140,   0.00076,275466132.59858,   0.00009,  -0.00091,   0.00016,  -0.00000,   2.00000
-182156662.72207,-536492733.44859,30506388.29162,   0.00031,  -0.00300,   0.00056,476408955.78209,   0.00076,275469973.91775,   0.00009,  -0.00092,   0.00016,   0.00000,   2.00000
-181799065.05359,-536415314.81771,30565924.92797,   0.00031,  -0.00301,   0.00056,476403749.24665,   0.00076,275473779.09950,   0.00009,  -0.00092,   0.00016,   0.00000,   2.00000
-181428386.54027,-536335058.40322,30625548.11914,   0.00031,  -0.00301,   0.00056,476404649.00713,   0.00077,275477573.20057,   0.00009,  -0.00093,   0.00016,   0.00000,   2.00000
-181058370.62552,-536254683.05002,30685029.54323,   0.00032,  -0.00302,   0.00056,476408767.11485,   0.00077,275481369.38004,   0.00009,  -0.00093,   0.00016,   0.00000,   2.00000
-180688789.90903,-536173296.87834,30748489.93470,   0.00032,  -0.00302,   0.00056,476413698.53835,   0.00077,275485170.94594,   0.00010,  -0.00093,   0.00016,  -0.00000,   2.00000
-180333609.87678,-536094556.96020,30811573.12372,   0.00032,  -0.00303,   0.00057,476421009.50476,   0.00078,275488987.54513,   0.00010,  -0.00094,   0.00016,  -0.00000,   2.00000
-179965552.32160,-536013838.65936,30870614.25129,   0.00032,  -0.00303,   0.00057,476421138.52290,   0.00078,275492789.85403,   0.00010,  -0.00094,   0.00017,   0.00000,   2.00000
-179608888.92769,-535934099.36387,30934306.77435,   0.00033,  -0.00303,   0.00057,476416662.33813,   0.00078,275496559.10892,   0.00010,  -0.00095,   0.00017,   0.00000,   2.00000
-179255432.06369,-535854154.83823,31001069.90910,   0.00033,  -0.00304,   0.00057,476434137.44058,   0.00079,275500385.00469,   0.00010,  -0.00095,   0.00017,   0.00000,   2.00000
-178900030.39502,-535774210.14271,31064458.70635,   0.00033,  -0.00304,   0.00057,476424866.95364,   0.00079,275504158.16703,   0.00010,  -0.00096,   0.00017,   0.00000,   2.00000
-178531497.06856,-535691349.95922,31127925.58582,   0.00033,  -0.00305,   0.00057,476425801.67551,   0.00079,275507920.48672,   0.00010,  -0.00096,   0.00017,   0.00000,   2.00000
-178179987.70735,-535611107.98343,31194231.46663,   0.00033,  -0.00305,   0.00058,476446420.53531,   0.00080,275511752.33489,   0.00010,  -0.00096,   0.00017,   0.00000,   2.00000
-177826274.92919,-535529954.57392,31261288.30630,   0.00034,  -0.00306,   0.00058,476437977.30835,   0.00080,275515534.76829,   0.00010,  -0.00097,   0.00017,   0.00000,   2.00000
-177473192.20468,-535448702.63834,31328189.08323,   0.00034,  -0.00306,   0.00058,476442063.40612,   0.00081,275519319.14805,   0.00010,  -0.00097,   0.00017,   0.00000,   2.00000
-177131662.41885,-535369381.92878,31395619.24611,   0.00034,  -0.00307,   0.00058,476436685.25866,   0.00081,275523066.77217,   0.00010,  -0.00098,   0.00017,  -0.00000,   2.00000
-176779592.93114,-535287028.18783,31466325.64336,   0.00034,  -0.00307,   0.00058,476451022.56328,   0.00081,275526858.36573,   0.00010,  -0.00098,   0.00017,   0.00000,   2.00000
-176428376.01111,-535205491.88680,31532750.26372,   0.00035,  -0.00308,   0.00058,476454285.10436,   0.00082,275530648.49647,   0.00011,  -0.00098,   0.00017,   0.00000,   2.00000
-176088469.40570,-535124991.14736,31603828.43510,   0.00035,  -0.00308,   0.00059,476449723.49664,   0.00082,275534405.16065,   0.00011,  -0.00099,   0.00018,   0.00000,   2.00000
-175738261.58708,-535042355.68888,31674051.07511,   0.00035,  -0.00308,   0.00059,476463259.93103,   0.00082,275538202.50014,   0.00011,  -0.00099,   0.00018,   0.00000,   2.00000
-175399576.65729,-534961682.35714,31744805.36621,   0.00035,  -0.00309,   0.00059,476457858.42931,   0.00083,275541962.89269,   0.00011,  -0.00100,   0.00018,   0.00000,   2.00000
-175061491.62810,-534880925.98267,31815397.67031,   0.00035,  -0.00309,   0.00059,476461903.78590,   0.00083,275545725.11164,   0.00011,  -0.00100,   0.00018,   0.00000,   2.00000
-174709967.30522,-534796242.24721,31890169.19534,   0.00036,  -0.00310,   0.00059,476463741.33375,   0.00083,275549480.15268,   0.00011,  -0.00100,   0.00018,  -0.00000,   2.00000
-174372880.51563,-534714395.44857,31964544.86864,   0.00036,  -0.00310,   0.00060,476470844.66767,   0.00084,275553249.55012,   0.00011,  -0.00101,   0.00018,  -0.00000,   2.00000
-174036391.36653,-534632467.42408,32038750.50263,   0.00036,  -0.00311,   0.00060,476474899.83123,   0.00084,275557020.77383,   0.00011,  -0.00101,   0.00018,   0.00000,   2.00000
-173697542.97782,-534549587.01124,32113715.57767,   0.00036,  -0.00311,   0.00060,476466395.65775,   0.00084,275560742.42032,   0.00011,  -0.00102,   0.00018,   0.00000,   2.00000
-173362252.10295,-534467499.59066,32187580.13982,   0.00037,  -0.00311,   0.00060,476482963.76208,   0.00085,275564517.29897,   0.00011,  -0.00102,   0.00018,   0.00000,   2.00000
-173041168.94470,-534387372.38632,32265166.61259,   0.00037,  -0.00312,   0.00060,476490884.78202,   0.00085,275568309.77085,   0.00011,  -0.00103,   0.00018,   0.00000,   2.00000
-172703835.41552,-534303313.24599,32343735.41590,   0.00037,  -0.00312,   0.00060,476479385.52493,   0.00085,275572040.28625,   0.00011,  -0.00103,   0.00018,  -0.00000,   2.00000
-172380936.14406,-534222160.51737,32421902.87853,   0.00037,  -0.00313,   0.00061,476486400.29975,   0.00086,275575784.86888,   0.00012,  -0.00103,   0.00019,   0.00000,   2.00000
-172044756.68746,-534137940.56037,32500118.11744,   0.00037,  -0.00313,   0.00061,476487426.85425,   0.00086,275579518.96755,   0.00012,  -0.00104,   0.00019,   0.00000,   2.00000
-171723018.45885,-534056648.05647,32577932.91609,   0.00038,  -0.00314,   0.00061,476494427.58442,   0.00086,275583267.06153,   0.00012,  -0.00104,   0.00019,   0.00000,   2.00000
-171401623.99248,-533974345.90799,32659685.84606,   0.00038,  -0.00314,   0.00061,476499306.23880,   0.00087,275587020.40201,   0.00012,  -0.00105,   0.00019,  -0.00000,   2.00000
-171066934.78103,-533888950.04972,32741478.39180,   0.00038,  -0.00315,   0.00061,476500366.13643,   0.00087,275590763.35012,   0.00012,  -0.00105,   0.00019,   0.00000,   2.00000
-170746696.87733,-533806510.49677,32822862.69576,   0.00038,  -0.00315,   0.00062,476507353.85476,   0.00087,275594520.20703,   0.00012,  -0.00105,   0.00019,   0.00000,   2.00000
-170423751.93941,-533722136.82795,32909126.06686,   0.00039,  -0.00315,   0.00062,476499702.87764,   0.00088,275598230.91493,   0.00012,  -0.00106,   0.00019,   0.00000,   2.00000
-170118520.87427,-533642619.14928,32989909.68915,   0.00039,  -0.00316,   0.00062,476518305.51347,   0.00088,275602003.25030,   0.00012,  -0.00106,   0.00019,   0.00000,   2.00000
-169796665.98048,-533558105.67623,33075801.33902,   0.00039,  -0.00316,   0.00062,476507723.56465,   0.00089,275605717.33618,   0.00012,  -0.00107,   0.00019,   0.00000,   2.00000
-169475369.90976,-533473522.10212,33161501.83892,   0.00039,  -0.00317,   0.00062,476511712.55540,   0.00089,275609433.15646,   0.00012,  -0.00107,   0.00019,  -0.00000,   2.00000
-169168293.84433,-533390990.97514,33250899.29897,   0.00039,  -0.00317,   0.00063,476519499.89350,   0.00089,275613166.25281,   0.00012,  -0.00107,   0.00019,   0.00000,   2.00000
-168848088.60786,-533306272.84827,33336210.86000,   0.00040,  -0.00318,   0.00063,476519700.79397,   0.00090,275616885.46175,   0.00012,  -0.00108,   0.00020,   0.00000,   2.00000
-168542109.80670,-533223622.54369,33425219.52268,   0.00040,  -0.00318,   0.00063,476527479.36568,   0.00090,275620621.89821,   0.00013,  -0.00108,   0.00020,   0.00000,   2.00000
-168236666.08209,-533140915.12641,33514030.44193,   0.00040,  -0.00318,   0.00063,476531474.40995,   0.00090,275624359.96573,   0.00013,  -0.00109,   0.00020,   0.00000,   2.00000
-167931533.65570,-533057183.96854,33606753.81945,   0.00040,  -0.00319,   0.00063,476536357.83218,   0.00091,275628103.30472,   0.00013,  -0.00109,   0.00020,   0.00000,   2.00000
-167624030.22191,-532973403.77853,33696132.25326,   0.00041,  -0.00319,   0.00064,476526939.26722,   0.00091,275631793.18371,   0.00013,  -0.00109,   0.00020,   0.00000,   2.00000
-167319969.78356,-532889557.98458,33788450.56324,   0.00041,  -0.00320,   0.00064,476544313.54463,   0.00091,275635539.81154,   0.00013,  -0.00110,   0.00020,  -0.00000,   2.00000
-167013073.46512,-532803710.65130,33885647.84461,   0.00041,  -0.00320,   0.00064,476536684.45875,   0.00092,275639240.29890,   0.00013,  -0.00110,   0.00020,   0.00000,   2.00000
-166706928.38983,-532718777.84592,33978523.14979,   0.00041,  -0.00321,   0.00064,476539755.50349,   0.00092,275642938.76695,   0.00013,  -0.00111,   0.00020,   0.00000,   2.00000
-166415006.37599,-532635963.56497,34075078.66117,   0.00041,  -0.00321,   0.00065,476547470.16150,   0.00092,275646654.26601,   0.00013,  -0.00111,   0.00020,   0.00000,   2.00000
-166109667.90394,-532549933.08021,34171646.02236,   0.00042,  -0.00321,   0.00065,476548588.26310,   0.00093,275650359.65960,   0.00013,  -0.00111,   0.00020,   0.00000,   2.00000
-165818781.35958,-532467016.99776,34267777.25997,   0.00042,  -0.00322,   0.00065,476555398.98785,   0.00093,275654078.34302,   0.00013,  -0.00112,   0.00020,   0.00000,   2.00000
-165528175.72531,-532383064.63695,34367804.22279,   0.00042,  -0.00322,   0.00065,476560273.39764,   0.00093,275657802.30757,   0.00013,  -0.00112,   0.00021,  -0.00000,   2.00000
-165234878.55187,-532298062.22228,34468602.34258,   0.00042,  -0.00323,   0.00065,476551728.19230,   0.00094,275661476.38137,   0.00014,  -0.00113,   0.00021,  -0.00000,   2.00000
-164945284.56908,-532214008.81277,34568188.05055,   0.00042,  -0.00323,   0.00066,476568178.01836,   0.00094,275665203.49732,   0.00014,  -0.00113,   0.00021,   0.00000,   2.00000
-164652981.45206,-532128897.94989,34668551.09628,   0.00043,  -0.00324,   0.00066,476559637.18451,   0.00094,275668880.70959,   0.00014,  -0.00114,   0.00021,   0.00000,   2.00000
-164374896.48877,-532045950.53888,34772577.13748,   0.00043,  -0.00324,   0.00066,476567292.56630,   0.00095,275672574.77783,   0.00014,  -0.00114,   0.00021,   0.00000,   2.00000
-164083341.75520,-531959734.44552,34876601.70469,   0.00043,  -0.00324,   0.00066,476568430.08786,   0.00095,275676258.86235,   0.00014,  -0.00114,   0.00021,   0.00000,   2.00000
-163809469.22178,-531877717.76738,34979171.23984,   0.00043,  -0.00325,   0.00067,476587678.25474,   0.00095,275680007.45004,   0.00014,  -0.00115,   0.00021,   0.00000,   2.00000
-163515411.02295,-531789361.46556,35087858.26962,   0.00043,  -0.00325,   0.00067,476564779.42171,   0.00096,275683646.96101,   0.00014,  -0.00115,   0.00021,   0.00000,   2.00000
-163239053.75652,-531705223.25360,35195076.73834,   0.00044,  -0.00326,   0.00067,476583974.70460,   0.00096,275687350.96176,   0.00014,  -0.00116,   0.00021,   0.00000,   2.00000
-162963170.24268,-531621039.39855,35302062.07890,   0.00044,  -0.00326,   0.00067,476587923.64143,   0.00096,275691056.46386,   0.00014,  -0.00116,   0.00021,   0.00000,   2.00000
-162684493.24585,-531535768.85263,35409830.58832,   0.00044,  -0.00326,   0.00067,476579365.37400,   0.00097,275694711.99653,   0.00014,  -0.00116,   0.00021,   0.00000,   2.00000
-162409336.45188,-531450478.00973,35520450.90013,   0.00044,  -0.00327,   0.00068,476596712.72850,   0.00097,275698424.37133,   0.00014,  -0.00117,   0.00022,   0.00000,   2.00000
-162145338.26126,-531367366.65069,35631626.75704,   0.00044,  -0.00327,   0.00068,476590921.79192,   0.00097,275702098.09358,   0.00015,  -0.00117,   0.00022,  -0.00000,   2.00000
-161867590.08214,-531279903.77296,35746890.24608,   0.00045,  -0.00328,   0.00068,476593029.07970,   0.00098,275705765.86373,   0.00015,  -0.00118,   0.00022,  -0.00000,   2.00000
-161607582.17615,-531196741.02832,35860651.96366,   0.00045,  -0.00328,   0.00068,476612195.70876,   0.00098,275709497.90420,   0.00015,  -0.00118,   0.00022,   0.00000,   2.00000
-161330738.88472,-531109173.17668,35975422.41154,   0.00045,  -0.00329,   0.00069,476600929.99482,   0.00098,275713168.68206,   0.00015,  -0.00118,   0.00022,   0.00000,   2.00000
-161065031.73697,-531023790.71584,36090753.45019,   0.00045,  -0.00329,   0.00069,476595085.21024,   0.00099,275716800.73729,   0.00015,  -0.00119,   0.00022,   0.00000,   2.00000
-160802861.32089,-530938399.76509,36208901.30737,   0.00045,  -0.00329,   0.00069,476612413.78678,   0.00099,275720489.66635,   0.00015,  -0.00119,   0.00022,  -0.00000,   2.00000
-160541134.41624,-530852963.29014,36326794.32385,   0.00046,  -0.00330,   0.00069,476616347.25793,   0.00099,275724180.06266,   0.00015,  -0.00120,   0.00022,   0.00000,   2.00000
-160290280.61730,-530768683.94215,36449347.95516,   0.00046,  -0.00330,   0.00070,476611459.75577,   0.00100,275727835.55429,   0.00015,  -0.00120,   0.00022,   0.00000,   2.00000
-160029419.66562,-530683158.41019,36566722.67115,   0.00046,  -0.00331,   0.00070,476624177.16156,   0.00100,275731528.84033,   0.00015,  -0.00120,   0.00022,  -0.00000,   2.00000
-159779421.81708,-530598790.48374,36688763.92320,   0.00046,  -0.00331,   0.00070,476619288.29663,   0.00100,275735187.19274,   0.00015,  -0.00121,   0.00023,   0.00000,   2.00000
-159515615.40977,-530509975.15398,36814868.65070,   0.00046,  -0.00331,   0.00070,476621464.77712,   0.00101,275738839.90171,   0.00016,  -0.00121,   0.00023,  -0.00000,   2.00000
-159266249.22496,-530424463.57685,36940476.15633,   0.00047,  -0.00332,   0.00071,476628060.56268,   0.00101,275742505.17260,   0.00016,  -0.00122,   0.00023,   0.00000,   2.00000
-159017298.90560,-530338905.86288,37065815.08372,   0.00047,  -0.00332,   0.00071,476631968.30298,   0.00101,275746171.87284,   0.00016,  -0.00122,   0.00023,  -0.00000,   2.00000
-158768763.99480,-530253303.02387,37190885.95743,   0.00047,  -0.00333,   0.00071,476635876.61911,   0.00102,275749839.99766,   0.00016,  -0.00122,   0.00023,   0.00000,   2.00000
-158531042.91265,-530168850.37375,37320621.99401,   0.00047,  -0.00333,   0.00072,476630956.82102,   0.00102,275753473.11618,   0.00016,  -0.00123,   0.00023,  -0.00000,   2.00000
-158283089.81643,-530082089.13306,37449241.99787,   0.00047,  -0.00333,   0.00072,476644645.48645,   0.00103,275757148.12898,   0.00016,  -0.00123,   0.00023,  -0.00000,   2.00000
-158045940.08749,-529996472.32249,37582524.27944,   0.00048,  -0.00334,   0.00072,476639736.44565,   0.00103,275760788.14337,   0.00016,  -0.00124,   0.00023,   0.00000,   2.00000
-157798564.98285,-529908539.98302,37714675.96453,   0.00048,  -0.00334,   0.00072,476653445.40040,   0.00103,275764470.11671,   0.00016,  -0.00124,   0.00023,   0.00000,   2.00000
-157562211.82325,-529822826.19470,37847395.07821,   0.00048,  -0.00335,   0.00073,476647548.13229,   0.00104,275768112.97575,   0.00016,  -0.00124,   0.00023,   0.00000,   2.00000
-157326017.48696,-529735981.34349,37983924.11112,   0.00048,  -0.00335,   0.00073,476652435.00203,   0.00104,275771761.36944,   0.00016,  -0.00125,   0.00024,  -0.00000,   2.00000
-157090210.13563,-529649085.12738,38120162.95995,   0.00048,  -0.00335,   0.00073,476656330.77061,   0.00104,275775411.18494,   0.00016,  -0.00125,   0.00024,   0.00000,   2.00000
-156865387.85350,-529564412.06335,38256973.34349,   0.00048,  -0.00336,   0.00073,476650385.45818,   0.00105,275779021.78103,   0.00017,  -0.00125,   0.00024,  -0.00000,   2.00000
-156630104.00943,-529476320.79364,38396721.48094,   0.00049,  -0.00336,   0.00074,476665092.20192,   0.00105,275782678.57100,   0.00017,  -0.00126,   0.00024,   0.00000,   2.00000
-156409238.88396,-529391614.88495,38535940.70411,   0.00049,  -0.00337,   0.00074,476671619.40826,   0.00105,275786347.57725,   0.00017,  -0.00126,   0.00024,   0.00000,   2.00000
-156185055.49822,-529304592.88905,38680054.39486,   0.00049,  -0.00337,   0.00074,476664082.41044,   0.00106,275789970.70404,   0.00017,  -0.00127,   0.00024,  -0.00000,   2.00000
-155961232.65398,-529217514.67638,38823864.08401,   0.00049,  -0.00337,   0.00075,476667955.03101,   0.00106,275793595.23582,   0.00017,  -0.00127,   0.00024,   0.00000,   2.00000
-155737770.00925,-529130381.32444,38967370.34468,   0.00049,  -0.00338,   0.00075,476671828.17707,   0.00106,275797221.16794,   0.00017,  -0.00127,   0.00024,  -0.00000,   2.00000
-155514667.22060,-529043193.90467,39110573.74966,   0.00050,  -0.00338,   0.00075,476675701.84710,   0.00107,275800848.49574,   0.00017,  -0.00128,   0.00024,   0.00000,   2.00000
-155305504.56174,-528957187.63321,39261413.06757,   0.00050,  -0.00339,   0.00075,476684241.64598,   0.00107,275804496.45549,   0.00017,  -0.00128,   0.00024,   0.00000,   2.00000
-155082861.74265,-528868769.15991,39408081.13762,   0.00050,  -0.00339,   0.00076,476684510.80197,   0.00107,275808130.83450,   0.00017,  -0.00129,   0.00025,   0.00000,   2.00000
-154874393.89752,-528782650.39060,39558289.20838,   0.00050,  -0.00339,   0.00076,476692024.83172,   0.00108,275811781.58149,   0.00017,  -0.00129,   0.00025,   0.00000,   2.00000
-154662767.98166,-528695274.28004,39709309.09789,   0.00050,  -0.00340,   0.00076,476683469.60378,   0.00108,275815382.25862,   0.00018,  -0.00129,   0.00025,   0.00000,   2.00000
-154451241.57836,-528606703.86593,39864095.38473,   0.00050,  -0.00340,   0.00077,476688374.01754,   0.00108,275818988.67205,   0.00018,  -0.00130,   0.00025,   0.00000,   2.00000
-154243551.87935,-528519279.39730,40017417.81807,   0.00051,  -0.00341,   0.00077,476704688.91904,   0.00109,275822647.93357,   0.00018,  -0.00130,   0.00025,   0.00000,   2.00000
-154046743.91997,-528434085.62095,40171321.25677,   0.00051,  -0.00341,   0.00077,476698715.94263,   0.00109,275826267.71407,   0.00018,  -0.00131,   0.00025,   0.00000,   2.00000
-153835948.25935,-528344175.83687,40329217.84270,   0.00051,  -0.00341,   0.00078,476701087.01547,   0.00109,275829882.68481,   0.00018,  -0.00131,   0.00025,  -0.00000,   2.00000
-153639547.03084,-528257715.01681,40486545.25391,   0.00051,  -0.00342,   0.00078,476707519.60904,   0.00110,275833509.61831,   0.00018,  -0.00131,   0.00025,   0.00000,   2.00000
-153439690.29841,-528168806.04171,40648775.67508,   0.00051,  -0.00342,   0.00078,476700028.25230,   0.00110,275837090.92685,   0.00018,  -0.00132,   0.00025,   0.00000,   2.00000
-153243672.78448,-528081059.87717,40809507.58299,   0.00051,  -0.00343,   0.00079,476716314.39023,   0.00110,275840725.06825,   0.00018,  -0.00132,   0.00025,  -0.00000,   2.00000
-153044186.00701,-527990842.76126,40975141.55897,   0.00052,  -0.00343,   0.00079,476708849.11722,   0.00111,275844313.65529,   0.00018,  -0.00133,   0.00026,  -0.00000,   2.00000
-152862619.77011,-527905333.11150,41139021.52912,   0.00052,  -0.00343,   0.00079,476727681.15022,   0.00111,275847965.54953,   0.00018,  -0.00133,   0.00026,   0.00000,   2.00000
-152663712.96360,-527814961.85535,41303966.16384,   0.00052,  -0.00344,   0.00079,476716620.09140,   0.00111,275851556.93998,   0.00018,  -0.00133,   0.00026,   0.00000,   2.00000
-152478947.88439,-527726888.51298,41472400.88946,   0.00052,  -0.00344,   0.00080,476724101.57534,   0.00112,275855164.71230,   0.00019,  -0.00134,   0.00026,  -0.00000,   2.00000
-152294463.68809,-527638738.69589,41640481.76836,   0.00052,  -0.00345,   0.00080,476727974.87675,   0.00112,275858773.87895,   0.00019,  -0.00134,   0.00026,   0.00000,   2.00000
-152106455.41472,-527548061.87665,41813469.66022,   0.00052,  -0.00345,   0.00080,476720522.29272,   0.00112,275862337.60485,   0.00019,  -0.00135,   0.00026,  -0.00000,   2.00000
-151936378.38329,-527462134.49953,41984664.87439,   0.00053,  -0.00345,   0.00081,476739305.65334,   0.00113,275865964.54327,   0.00019,  -0.00135,   0.00026,   0.00000,   2.00000
-151748899.59788,-527371285.03995,42156936.90295,   0.00053,  -0.00346,   0.00081,476728257.44215,   0.00113,275869531.08666,   0.00019,  -0.00135,   0.00026,   0.00000,   2.00000
-151579123.50814,-527284007.42385,42331477.97396,   0.00053,  -0.00346,   0.00081,476748147.24150,   0.00113,275873165.41875,   0.00019,  -0.00136,   0.00026,   0.00000,   2.00000
-151405774.97227,-527194158.26694,42510925.09452,   0.00053,  -0.00346,   0.00082,476740749.61061,   0.00114,275876754.39094,   0.00019,  -0.00136,   0.00027,   0.00000,   2.00000
-151232923.87753,-527105426.38956,42685927.27724,   0.00053,  -0.00347,   0.00082,476743493.37998,   0.00114,275880340.14006,   0.00019,  -0.00136,   0.00027,   0.00000,   2.00000
-151059840.38369,-527014181.65353,42868699.86815,   0.00053,  -0.00347,   0.00082,476749613.71568,   0.00114,275883936.65401,   0.00019,  -0.00137,   0.00027,   0.00000,   2.00000
-150897747.59124,-526926353.23580,43047996.16135,   0.00054,  -0.00348,   0.00083,476742435.93395,   0.00115,275887488.83876,   0.00019,  -0.00137,   0.00027,   0.00000,   2.00000
-150724906.01971,-526833691.15826,43234074.21356,   0.00054,  -0.00348,   0.00083,476758473.34750,   0.00115,275891092.96724,   0.00020,  -0.00138,   0.00027,   0.00000,   2.00000
-150566656.99762,-526745760.18136,43415448.55689,   0.00054,  -0.00348,   0.00084,476763710.60652,   0.00115,275894704.10007,   0.00020,  -0.00138,   0.00027,   0.00000,   2.00000
-150404777.95312,-526655188.61954,43601739.98286,   0.00054,  -0.00349,   0.00084,476756337.83649,   0.00116,275898270.02988,   0.00020,  -0.00138,   0.00027,   0.00000,   2.00000
-150242880.89743,-526563275.37622,43791706.38200,   0.00054,  -0.00349,   0.00084,476761349.85479,   0.00116,275901842.20228,   0.00020,  -0.00139,   0.00027,   0.00000,   2.00000
-150095312.19913,-526474870.87334,43981027.21649,   0.00054,  -0.00349,   0.00085,476767692.41734,   0.00116,275905426.06865,   0.00020,  -0.00139,   0.00027,   0.00000,   2.00000
-149933845.89317,-526382738.94672,44170200.55671,   0.00054,  -0.00350,   0.00085,476769097.05482,   0.00117,275909001.17035,   0.00020,  -0.00140,   0.00028,   0.00000,   2.00000
-149786461.69981,-526292872.87615,44362788.69572,   0.00055,  -0.00350,   0.00085,476776604.36666,   0.00117,275912592.77877,   0.00020,  -0.00140,   0.00028,   0.00000,   2.00000
-149635395.72471,-526200295.17060,44560291.85159,   0.00055,  -0.00351,   0.00086,476769267.38584,   0.00117,275916139.38035,   0.00020,  -0.00140,   0.00028,   0.00000,   2.00000
-149484532.86876,-526107594.64006,44757384.02892,   0.00055,  -0.00351,   0.00086,476773124.98808,   0.00118,275919687.50705,   0.00020,  -0.00141,   0.00028,   0.00000,   2.00000
-149351624.50996,-526019763.12901,44952542.98575,   0.00055,  -0.00351,   0.00086,476791834.81185,   0.00118,275923298.61130,   0.00020,  -0.00141,   0.00028,  -0.00000,   2.00000
-149200885.34953,-525925543.34945,45152874.84896,   0.00055,  -0.00352,   0.00087,476782086.17829,   0.00118,275926854.63441,   0.00020,  -0.00141,   0.00028,  -0.00000,   2.00000
-149064458.94952,-525834844.10158,45352534.76815,   0.00055,  -0.00352,   0.00087,476788408.13635,   0.00119,275930422.32045,   0.00021,  -0.00142,   0.00028,   0.00000,   2.00000
-148927957.26022,-525742734.48218,45555830.86284,   0.00055,  -0.00352,   0.00088,476793486.72312,   0.00119,275933996.47480,   0.00021,  -0.00142,   0.00028,   0.00000,   2.00000
-148787973.40576,-525649122.03744,45759992.77629,   0.00056,  -0.00353,   0.00088,476784989.32993,   0.00119,275937520.85239,   0.00021,  -0.00143,   0.00028,   0.00000,   2.00000
-148651576.24589,-525555454.71321,45966485.17072,   0.00056,  -0.00353,   0.00088,476802436.42214,   0.00120,275941103.10867,   0.00021,  -0.00143,   0.00029,   0.00000,   2.00000
-148525804.07155,-525463931.29772,46173589.50073,   0.00056,  -0.00354,   0.00089,476796395.26360,   0.00120,275944645.69476,   0.00021,  -0.00143,   0.00029,   0.00000,   2.00000
-148399929.15582,-525370959.71890,46384311.72912,   0.00056,  -0.00354,   0.00089,476801484.52999,   0.00120,275948194.88086,   0.00021,  -0.00144,   0.00029,  -0.00000,   2.00000
-148274206.98355,-525277841.42396,46594593.42707,   0.00056,  -0.00354,   0.00090,476805366.01794,   0.00121,275951745.63641,   0.00021,  -0.00144,   0.00029,   0.00000,   2.00000
-148148378.84977,-525183258.07076,46808482.47895,   0.00056,  -0.00355,   0.00090,476810483.37469,   0.00121,275955303.07725,   0.00021,  -0.00145,   0.00029,  -0.00000,   2.00000
-148022701.93251,-525088522.36085,47021922.78733,   0.00056,  -0.00355,   0.00090,476814381.99218,   0.00121,275958862.12650,   0.00021,  -0.00145,   0.00029,  -0.00000,   2.00000
-147907353.58382,-524994576.33070,47240030.87201,   0.00057,  -0.00355,   0.00091,476809574.28116,   0.00122,275962386.68645,   0.00021,  -0.00145,   0.00029,   0.00000,   2.00000
-147795822.05217,-524901880.75806,47456346.69648,   0.00057,  -0.00356,   0.00091,476825819.51982,   0.00122,275965964.12075,   0.00022,  -0.00146,   0.00029,   0.00000,   2.00000
-147680463.11242,-524806266.23804,47677592.03375,   0.00057,  -0.00356,   0.00092,476818625.95898,   0.00122,275969497.10237,   0.00022,  -0.00146,   0.00030,  -0.00000,   2.00000
-147565231.44829,-524710482.30806,47898374.82859,   0.00057,  -0.00356,   0.00092,476822515.89884,   0.00123,275973031.74117,   0.00022,  -0.00146,   0.00030,  -0.00000,   2.00000
-147449862.97884,-524613175.64772,48122735.57896,   0.00057,  -0.00357,   0.00092,476827676.33789,   0.00123,275976573.29780,   0.00022,  -0.00147,   0.00030,  -0.00000,   2.00000
-147345047.13172,-524517955.32104,48347721.55076,   0.00057,  -0.00357,   0.00093,476821628.68219,   0.00123,275980075.27379,   0.00022,  -0.00147,   0.00030,   0.00000,   2.00000
-147243774.63627,-524422629.14284,48574909.55390,   0.00057,  -0.00358,   0.00093,476839137.93494,   0.00123,275983635.45511,   0.00022,  -0.00148,   0.00030,   0.00000,   2.00000
-147138895.55294,-524325674.84127,48802991.96915,   0.00057,  -0.00358,   0.00094,476830706.84054,   0.00124,275987146.09905,   0.00022,  -0.00148,   0.00030,   0.00000,   2.00000
-147033852.10309,-524227155.57053,49034633.33288,   0.00058,  -0.00358,   0.00094,476835884.19779,   0.00124,275990663.81551,   0.00022,  -0.00148,   0.00030,  -0.00000,   2.00000
-146943042.77658,-524132152.13512,49265520.37253,   0.00058,  -0.00359,   0.00094,476842185.14580,   0.00124,275994193.20323,   0.00022,  -0.00149,   0.00030,   0.00000,   2.00000
-146837909.11549,-524031852.27138,49500225.57235,   0.00058,  -0.00359,   0.00095,476844998.75929,   0.00125,275997719.79084,   0.00022,  -0.00149,   0.00031,   0.00000,   2.00000
-146747009.89776,-523935068.09040,49734166.06675,   0.00058,  -0.00359,   0.00095,476851313.84761,   0.00125,276001258.07506,   0.00023,  -0.00149,   0.00031,   0.00000,   2.00000
-146666328.70346,-523838924.53320,49972775.15571,   0.00058,  -0.00360,   0.00096,476846601.27727,   0.00125,276004762.27501,   0.00023,  -0.00150,   0.00031,   0.00000,   2.00000
-146575291.24690,-523740326.22040,50209747.64378,   0.00058,  -0.00360,   0.00096,476860455.73784,   0.00126,276008309.52350,   0.00023,  -0.00150,   0.00031,   0.00000,   2.00000
-146480328.16072,-523638621.23275,50451663.05756,   0.00058,  -0.00360,   0.00097,476853385.25349,   0.00126,276011812.90450,   0.00023,  -0.00151,   0.00031,   0.00000,   2.00000
-146399579.47007,-523540423.34106,50692795.59764,   0.00058,  -0.00361,   0.00097,476859688.17020,   0.00126,276015328.01470,   0.00023,  -0.00151,   0.00031,   0.00000,   2.00000
-146314875.94189,-523439080.93879,50938875.61756,   0.00059,  -0.00361,   0.00098,476852612.43407,   0.00127,276018799.34808,   0.00023,  -0.00151,   0.00031,  -0.00000,   2.00000
-146247823.19133,-523341301.49331,51186749.19509,   0.00059,  -0.00361,   0.00098,476872577.56012,   0.00127,276022339.16790,   0.00023,  -0.00152,   0.00031,   0.00000,   2.00000
-146162920.81578,-523238044.99230,51435820.69442,   0.00059,  -0.00362,   0.00098,476861821.51040,   0.00127,276025819.84833,   0.00023,  -0.00152,   0.00032,  -0.00000,   2.00000
-146095671.49006,-523138348.05560,51686658.62452,   0.00059,  -0.00362,   0.00099,476881811.23440,   0.00128,276029369.08598,   0.00023,  -0.00153,   0.00032,   0.00000,   2.00000
-146024705.76870,-523036888.95561,51938419.86543,   0.00059,  -0.00362,   0.00099,476873462.63656,   0.00128,276032869.09796,   0.00023,  -0.00153,   0.00032,   0.00000,   2.00000
-145950025.44456,-522933658.38381,52191115.56243,   0.00059,  -0.00363,   0.00100,476865071.26674,   0.00128,276036319.91894,   0.00023,  -0.00153,   0.00032,  -0.00000,   2.00000
-145878840.02546,-522830237.29659,52445828.71283,   0.00059,  -0.00363,   0.00100,476882671.50415,   0.00129,276039829.53094,   0.00024,  -0.00154,   0.00032,  -0.00000,   2.00000
-145821539.59503,-522728829.47587,52703730.38455,   0.00059,  -0.00363,   0.00101,476890393.91587,   0.00129,276043356.70140,   0.00024,  -0.00154,   0.00032,   0.00000,   2.00000
-145760491.10548,-522625615.01355,52962568.39988,   0.00059,  -0.00364,   0.00101,476882054.50749,   0.00129,276046834.75627,   0.00024,  -0.00154,   0.00032,  -0.00000,   2.00000
-145699161.10602,-522520641.18833,53224871.51581,   0.00059,  -0.00364,   0.00102,476887394.85934,   0.00130,276050320.63508,   0.00024,  -0.00155,   0.00032,  -0.00000,   2.00000
-145637546.41684,-522413892.13621,53490628.66843,   0.00060,  -0.00364,   0.00102,476892762.22479,   0.00130,276053814.42067,   0.00024,  -0.00155,   0.00033,   0.00000,   2.00000
-145575933.66438,-522306857.20022,53755823.11140,   0.00060,  -0.00365,   0.00103,476896738.23190,   0.00130,276057310.30996,   0.00024,  -0.00156,   0.00033,   0.00000,   2.00000
-145524711.33218,-522201726.42781,54021676.89533,   0.00060,  -0.00365,   0.00103,476890773.98334,   0.00131,276060767.04626,   0.00024,  -0.00156,   0.00033,   0.00000,   2.00000
-145473179.52700,-522094785.96160,54290974.82460,   0.00060,  -0.00365,   0.00104,476896143.69873,   0.00131,276064231.80481,   0.00024,  -0.00156,   0.00033,   0.00000,   2.00000
-145425095.53050,-521987597.46933,54562178.36342,   0.00060,  -0.00366,   0.00104,476913846.05686,   0.00131,276067755.70020,   0.00024,  -0.00157,   0.00033,   0.00000,   2.00000
-145383608.69094,-521880697.33110,54835574.31011,   0.00060,  -0.00366,   0.00105,476895631.31656,   0.00132,276071189.49629,   0.00024,  -0.00157,   0.00033,   0.00000,   2.00000
-145331401.82155,-521769770.62410,55111149.23146,   0.00060,  -0.00366,   0.00105,476910958.99624,   0.00132,276074672.72317,   0.00025,  -0.00157,   0.00033,   0.00000,   2.00000
-145293319.70101,-521662290.58382,55385839.97788,   0.00060,  -0.00367,   0.00106,476917323.46351,   0.00132,276078167.96751,   0.00025,  -0.00158,   0.00034,   0.00000,   2.00000
-145265273.35939,-521555099.09099,55665194.69323,   0.00060,  -0.00367,   0.00106,476912868.23911,   0.00133,276081630.28126,   0.00025,  -0.00158,   0.00034,   0.00000,   2.00000
-145223011.38299,-521443808.26826,55944258.25502,   0.00060,  -0.00367,   0.00107,476914492.84963,   0.00133,276085085.05081,   0.00025,  -0.00158,   0.00034,   0.00000,   2.00000
-145180404.14365,-521330618.25066,56226720.66117,   0.00061,  -0.00368,   0.00107,476919959.01591,   0.00133,276088548.24682,   0.00025,  -0.00159,   0.00034,  -0.00000,   2.00000
-145151596.63292,-521219278.76810,56512266.26892,   0.00061,  -0.00368,   0.00108,476927816.57907,   0.00134,276092029.72968,   0.00025,  -0.00159,   0.00034,   0.00000,   2.00000
-145118946.03710,-521105960.42162,56798787.47724,   0.00061,  -0.00368,   0.00108,476919564.98692,   0.00134,276095462.60438,   0.00025,  -0.00160,   0.00034,   0.00000,   2.00000
-145103844.19462,-520996095.84680,57086785.16694,   0.00061,  -0.00369,   0.00109,476939701.63682,   0.00134,276098964.80878,   0.00025,  -0.00160,   0.00034,   0.00000,   2.00000
-145070722.46781,-520880458.96694,57376072.22100,   0.00061,  -0.00369,   0.00109,476929123.25081,   0.00135,276102408.66832,   0.00025,  -0.00160,   0.00035,   0.00000,   2.00000
-145051372.73529,-520766622.63640,57668414.03928,   0.00061,  -0.00369,   0.00110,476937015.86269,   0.00135,276105871.03059,   0.00025,  -0.00161,   0.00035,   0.00000,   2.00000
-145028153.26325,-520650757.54795,57961747.38772,   0.00061,  -0.00370,   0.00110,476928782.48248,   0.00135,276109284.92587,   0.00026,  -0.00161,   0.00035,   0.00000,   2.00000
-145007996.60482,-520532923.70069,58260786.24326,   0.00061,  -0.00370,   0.00111,476948121.51008,   0.00135,276112764.94555,   0.00026,  -0.00161,   0.00035,   0.00000,   2.00000
-144998427.70280,-520418434.49461,58556524.38871,   0.00061,  -0.00370,   0.00111,476940754.01818,   0.00136,276116199.99145,   0.00026,  -0.00162,   0.00035,   0.00000,   2.00000
-144988428.65919,-520301914.10036,58855603.13547,   0.00061,  -0.00371,   0.00112,476946332.18793,   0.00136,276119643.96472,   0.00026,  -0.00162,   0.00035,   0.00000,   2.00000
-144977995.64831,-520183344.92472,59158010.48915,   0.00061,  -0.00371,   0.00112,476951940.92030,   0.00136,276123096.95872,   0.00026,  -0.00163,   0.00035,   0.00000,   2.00000
-144963345.41083,-520061023.11603,59465391.28003,   0.00061,  -0.00371,   0.00113,476945322.63528,   0.00137,276126508.21895,   0.00026,  -0.00163,   0.00036,  -0.00000,   2.00000
-144952359.19708,-519939966.88316,59770451.02638,   0.00062,  -0.00372,   0.00113,476961627.11027,   0.00137,276129973.01828,   0.00026,  -0.00163,   0.00036,  -0.00000,   2.00000
-144951621.41205,-519820571.29091,60076201.05979,   0.00062,  -0.00372,   0.00114,476955829.78236,   0.00137,276133399.41298,   0.00026,  -0.00164,   0.00036,   0.00000,   2.00000
-144950420.65927,-519699069.28053,60385255.81187,   0.00062,  -0.00372,   0.00114,476961481.34506,   0.00138,276136835.06981,   0.00026,  -0.00164,   0.00036,   0.00000,   2.00000
-144944971.31738,-519573729.37209,60699292.36318,   0.00062,  -0.00372,   0.00115,476954918.66414,   0.00138,276140229.28428,   0.00026,  -0.00164,   0.00036,   0.00000,   2.00000
-144957314.96209,-519453434.73834,61010632.05177,   0.00062,  -0.00373,   0.00116,476973584.04904,   0.00138,276143686.86883,   0.00026,  -0.00165,   0.00036,   0.00000,   2.00000
-144965379.98501,-519329259.48125,61326954.66140,   0.00062,  -0.00373,   0.00116,476967076.46913,   0.00139,276147103.12427,   0.00027,  -0.00165,   0.00036,  -0.00000,   2.00000
-144972949.73445,-519202905.04881,61646546.59770,   0.00062,  -0.00373,   0.00117,476972796.88552,   0.00139,276150528.96377,   0.00027,  -0.00165,   0.00037,   0.00000,   2.00000
-144980352.64217,-519076074.96574,61965446.21862,   0.00062,  -0.00374,   0.00117,476976914.84582,   0.00139,276153957.69925,   0.00027,  -0.00166,   0.00037,   0.00000,   2.00000
-144983472.16681,-518945294.17954,62289332.00894,   0.00062,  -0.00374,   0.00118,476970446.51945,   0.00140,276157345.40614,   0.00027,  -0.00166,   0.00037,  -0.00000,   2.00000
-145000577.28732,-518817803.01760,62612183.91595,   0.00062,  -0.00374,   0.00118,476976909.44453,   0.00140,276160745.88457,   0.00027,  -0.00167,   0.00037,   0.00000,   2.00000
-145020940.52764,-518689835.46644,62936531.84449,   0.00062,  -0.00375,   0.00119,476994901.96763,   0.00140,276164206.91615,   0.00027,  -0.00167,   0.00037,   0.00000,   2.00000
-145033203.09158,-518556076.68909,63267619.37044,   0.00062,  -0.00375,   0.00120,476976306.87260,   0.00141,276167576.45578,   0.00027,  -0.00167,   0.00037,   0.00000,   2.00000
-145049062.54048,-518423575.32229,63596228.02278,   0.00062,  -0.00375,   0.00120,476992638.23880,   0.00141,276170999.80008,   0.00027,  -0.00168,   0.00037,  -0.00000,   2.00000
-145074751.96370,-518290786.32859,63929482.86941,   0.00062,  -0.00376,   0.00121,476988636.08403,   0.00141,276174392.33814,   0.00027,  -0.00168,   0.00038,   0.00000,   2.00000
-145100229.00533,-518157463.65201,64262012.74939,   0.00062,  -0.00376,   0.00121,476992785.36184,   0.00142,276177788.02330,   0.00027,  -0.00168,   0.00038,   0.00000,   2.00000
-145125146.97818,-518021821.04082,64597747.63801,   0.00062,  -0.00376,   0.00122,476998639.31629,   0.00142,276181193.92007,   0.00027,  -0.00169,   0.00038,  -0.00000,   2.00000
-145163647.77990,-517887617.84961,64936324.33016,   0.00062,  -0.00376,   0.00123,477006897.08223,   0.00142,276184619.93659,   0.00028,  -0.00169,   0.00038,   0.00000,   2.00000
-145183979.15124,-517747263.47431,65276315.05057,   0.00063,  -0.00377,   0.00123,476996536.70635,   0.00142,276187988.77250,   0.00028,  -0.00169,   0.00038,   0.00000,   2.00000
-145217892.74714,-517608316.11823,65619133.49684,   0.00063,  -0.00377,   0.00124,477004797.44975,   0.00143,276191377.91041,   0.00028,  -0.00170,   0.00038,  -0.00000,   2.00000
-145265358.76754,-517470748.29152,65964762.52659,   0.00063,  -0.00377,   0.00124,477013104.25682,   0.00143,276194787.43319,   0.00028,  -0.00170,   0.00039,   0.00000,   2.00000
-145298415.36943,-517328813.79748,66309985.23572,   0.00063,  -0.00378,   0.00125,477014959.77483,   0.00143,276198190.51540,   0.00028,  -0.00170,   0.00039,   0.00000,   2.00000
-145341237.38955,-517186387.08578,66659843.82295,   0.00063,  -0.00378,   0.00126,477011128.15526,   0.00144,276201563.57176,   0.00028,  -0.00171,   0.00039,   0.00000,   2.00000
-145383798.80587,-517043356.01494,67008932.93380,   0.00063,  -0.00378,   0.00126,477015342.08349,   0.00144,276204940.11340,   0.00028,  -0.00171,   0.00039,   0.00000,   2.00000
-145425736.75786,-516897863.12393,67361160.78206,   0.00063,  -0.00378,   0.00127,477021333.54291,   0.00144,276208327.50595,   0.00028,  -0.00172,   0.00039,   0.00000,   2.00000
-145467412.18735,-516751760.37229,67712608.99120,   0.00063,  -0.00379,   0.00127,477025574.43444,   0.00145,276211718.44141,   0.00028,  -0.00172,   0.00039,   0.00000,   2.00000
-145518454.55325,-516603185.62011,68072594.67021,   0.00063,  -0.00379,   0.00128,477023617.42299,   0.00145,276215087.17710,   0.00028,  -0.00172,   0.00040,   0.00000,   2.00000
-145569210.16496,-516453962.43563,68431782.12555,   0.00063,  -0.00379,   0.00129,477027880.50097,   0.00145,276218459.61683,   0.00028,  -0.00173,   0.00040,   0.00000,   2.00000
-145619679.88479,-516304096.04110,68790171.95763,   0.00063,  -0.00380,   0.00129,477032144.09654,   0.00146,276221835.74856,   0.00029,  -0.00173,   0.00040,   0.00000,   2.00000
-145679855.19754,-516153549.64739,69153191.90984,   0.00063,  -0.00380,   0.00130,477028458.97418,   0.00146,276225182.56137,   0.00029,  -0.00173,   0.00040,  -0.00000,   2.00000
-145728982.08777,-515998561.51188,69517755.72104,   0.00063,  -0.00380,   0.00131,477044321.21992,   0.00146,276228581.30970,   0.00029,  -0.00174,   0.00040,   0.00000,   2.00000
-145788183.59791,-515844762.25821,69883048.85730,   0.00063,  -0.00380,   0.00131,477038877.58587,   0.00147,276231943.35393,   0.00029,  -0.00174,   0.00040,  -0.00000,   2.00000
-145842922.85069,-515686423.57025,70253348.14027,   0.00063,  -0.00381,   0.00132,477032872.03854,   0.00147,276235266.53026,   0.00029,  -0.00174,   0.00041,   0.00000,   2.00000
-145914882.51186,-515531153.63127,70624375.58614,   0.00063,  -0.00381,   0.00133,477053545.86630,   0.00147,276238661.67114,   0.00029,  -0.00175,   0.00041,   0.00000,   2.00000
-145982732.63812,-515373233.43862,70996519.75145,   0.00063,  -0.00381,   0.00133,477045762.53485,   0.00148,276242010.40858,   0.00029,  -0.00175,   0.00041,   0.00000,   2.00000
-146035726.57347,-515208876.03964,71372093.21940,   0.00063,  -0.00381,   0.00134,477049563.51310,   0.00148,276245361.03554,   0.00029,  -0.00175,   0.00041,   0.00000,   2.00000
-146116290.12875,-515049364.73599,71749912.17972,   0.00063,  -0.00382,   0.00135,477060584.73082,   0.00148,276248743.45339,   0.00029,  -0.00176,   0.00041,   0.00000,   2.00000
-146178589.48591,-514883378.21376,72129251.42005,   0.00063,  -0.00382,   0.00135,477050440.87403,   0.00148,276252069.74787,   0.00029,  -0.00176,   0.00041,   0.00000,   2.00000
-146254296.34028,-514718427.32744,72511208.42298,   0.00063,  -0.00382,   0.00136,477059087.34460,   0.00149,276255418.09743,   0.00029,  -0.00177,   0.00042,   0.00000,   2.00000
-146329644.46677,-514552724.72565,72892300.78452,   0.00063,  -0.00382,   0.00137,477063459.21900,   0.00149,276258770.67497,   0.00030,  -0.00177,   0.00042,   0.00000,   2.00000
-146400471.48739,-514382259.05052,73278402.01573,   0.00063,  -0.00383,   0.00137,477057650.64375,   0.00149,276262085.23652,   0.00030,  -0.00177,   0.00042,   0.00000,   2.00000
-146488433.85238,-514214773.04475,73665059.34471,   0.00063,  -0.00383,   0.00138,477078473.28816,   0.00150,276265472.40765,   0.00030,  -0.00178,   0.00042,  -0.00000,   2.00000
-146557711.72951,-514038698.00827,74057118.79234,   0.00063,  -0.00383,   0.00139,477070352.91166,   0.00150,276268811.83675,   0.00030,  -0.00178,   0.00042,   0.00000,   2.00000
-146636998.82473,-513863558.16565,74449920.94330,   0.00063,  -0.00383,   0.00139,477065085.46423,   0.00150,276272115.54485,   0.00030,  -0.00178,   0.00042,   0.00000,   2.00000
-146719665.15615,-513689657.47054,74839778.37084,   0.00063,  -0.00384,   0.00140,477081573.56498,   0.00151,276275473.94052,   0.00030,  -0.00179,   0.00043,   0.00000,   2.00000
-146811492.98544,-513512544.89515,75238073.15370,   0.00063,  -0.00384,   0.00141,477080302.78023,   0.00151,276278813.10231,   0.00030,  -0.00179,   0.00043,   0.00000,   2.00000
-146902910.87052,-513334598.35867,75635451.66501,   0.00063,  -0.00384,   0.00141,477084767.50790,   0.00151,276282156.90971,   0.00030,  -0.00179,   0.00043,  -0.00000,   2.00000
-146990167.21284,-513153753.28346,76033999.18375,   0.00063,  -0.00384,   0.00142,477077150.56728,   0.00152,276285455.22696,   0.00030,  -0.00180,   0.00043,   0.00000,   2.00000
-147076180.74164,-512967887.64996,76439296.61384,   0.00063,  -0.00385,   0.00143,477085608.80653,   0.00152,276288774.95004,   0.00030,  -0.00180,   0.00043,   0.00000,   2.00000
-147161785.14279,-512781162.00653,76843659.74577,   0.00063,  -0.00385,   0.00143,477090094.87601,   0.00152,276292099.51046,   0.00030,  -0.00180,   0.00044,   0.00000,   2.00000
-147261103.31474,-512597327.53331,77246662.13637,   0.00063,  -0.00385,   0.00144,477097013.16001,   0.00153,276295438.95429,   0.00030,  -0.00181,   0.00044,   0.00000,   2.00000
-147355814.43808,-512408399.33692,77654672.64084,   0.00063,  -0.00385,   0.00145,477091499.04543,   0.00153,276298741.65212,   0.00031,  -0.00181,   0.00044,   0.00000,   2.00000
-147449665.07077,-512216457.00727,78065555.26319,   0.00063,  -0.00386,   0.00146,477098050.04012,   0.00153,276302057.82125,   0.00031,  -0.00181,   0.00044,   0.00000,   2.00000
-147556767.39202,-512025218.61973,78478858.80263,   0.00063,  -0.00386,   0.00146,477107082.80025,   0.00153,276305397.68088,   0.00031,  -0.00182,   0.00044,  -0.00000,   2.00000
-147659667.99510,-511830925.36113,78893348.84620,   0.00063,  -0.00386,   0.00147,477099602.54510,   0.00154,276308692.63169,   0.00031,  -0.00182,   0.00044,   0.00000,   2.00000
-147761675.27109,-511633550.07474,79310677.91848,   0.00063,  -0.00386,   0.00148,477106223.89629,   0.00154,276312001.37381,   0.00031,  -0.00182,   0.00045,   0.00000,   2.00000
-147862782.75977,-511433071.88903,79730829.59824,   0.00063,  -0.00387,   0.00148,477112887.85831,   0.00154,276315324.03198,   0.00031,  -0.00183,   0.00045,   0.00000,   2.00000
-147963429.59134,-511231657.17220,80149992.14269,   0.00063,  -0.00387,   0.00149,477117480.66105,   0.00155,276318651.95689,   0.00031,  -0.00183,   0.00045,  -0.00000,   2.00000
-148073547.64786,-511028657.05286,80573706.27043,   0.00063,  -0.00387,   0.00150,477114626.18054,   0.00155,276321954.21710,   0.00031,  -0.00183,   0.00045,  -0.00000,   2.00000
-148183183.94492,-510824693.68081,80996421.62810,   0.00063,  -0.00387,   0.00151,477119227.24224,   0.00155,276325261.85424,   0.00031,  -0.00184,   0.00045,   0.00000,   2.00000
-148288156.08674,-510615345.15433,81424141.14419,   0.00063,  -0.00388,   0.00151,477113959.55405,   0.00156,276328533.91683,   0.00031,  -0.00184,   0.00046,   0.00000,   2.00000
-148410028.75751,-510408733.86595,81851945.54904,   0.00063,  -0.00388,   0.00152,477135189.61322,   0.00156,276331880.45921,   0.00031,  -0.00184,   0.00046,  -0.00000,   2.00000
-148523938.35871,-510196667.66569,82283204.64362,   0.00063,  -0.00388,   0.00153,477115858.40017,   0.00156,276335132.90836,   0.00032,  -0.00185,   0.00046,   0.00000,   2.00000
-148640145.04634,-509981339.26639,82718737.31387,   0.00063,  -0.00388,   0.00154,477136827.88111,   0.00157,276338458.85909,   0.00032,  -0.00185,   0.00046,   0.00000,   2.00000
-148752583.07361,-509764993.76410,83151718.94039,   0.00063,  -0.00388,   0.00154,477127348.37022,   0.00157,276341731.68398,   0.00032,  -0.00186,   0.00046,   0.00000,   2.00000
-148863580.56015,-509543095.47514,83591195.79023,   0.00063,  -0.00389,   0.00155,477136396.95484,   0.00157,276345028.48499,   0.00032,  -0.00186,   0.00047,  -0.00000,   2.00000
-148988169.20391,-509323873.08153,84029144.72550,   0.00063,  -0.00389,   0.00156,477143582.16740,   0.00157,276348341.40694,   0.00032,  -0.00186,   0.00047,  -0.00000,   2.00000
-149108033.23482,-509099023.12871,84472083.64578,   0.00063,  -0.00389,   0.00157,477138552.84352,   0.00158,276351619.72187,   0.00032,  -0.00187,   0.00047,   0.00000,   2.00000
-149227365.26175,-508873108.77439,84913957.38262,   0.00063,  -0.00389,   0.00158,477143269.84855,   0.00158,276354904.01260,   0.00032,  -0.00187,   0.00047,  -0.00000,   2.00000
-149359781.79761,-508647529.32538,85358027.24361,   0.00063,  -0.00390,   0.00158,477152729.54704,   0.00158,276358213.91078,   0.00032,  -0.00187,   0.00047,  -0.00000,   2.00000
-149473349.50127,-508412511.14675,85807568.10038,   0.00063,  -0.00390,   0.00159,477145305.04684,   0.00159,276361479.30130,   0.00032,  -0.00188,   0.00048,   0.00000,   2.00000
-149600479.43623,-508180104.14100,86255533.64521,   0.00063,  -0.00390,   0.00160,477152551.42546,   0.00159,276364761.21363,   0.00032,  -0.00188,   0.00048,   0.00000,   2.00000
-149726069.69805,-507941907.35106,86709870.06219,   0.00063,  -0.00390,   0.00161,477161889.98876,   0.00159,276368068.26933,   0.00032,  -0.00188,   0.00048,   0.00000,   2.00000
-149861979.66634,-507706275.23794,87161228.95262,   0.00063,  -0.00390,   0.00161,477154987.05843,   0.00160,276371332.96086,   0.00032,  -0.00189,   0.00048,   0.00000,   2.00000
-149982225.23237,-507461086.66770,87619427.62171,   0.00063,  -0.00391,   0.00162,477161879.53239,   0.00160,276374612.73732,   0.00032,  -0.00189,   0.00048,   0.00000,   2.00000
-150115996.80750,-507218452.63457,88075999.33810,   0.00063,  -0.00391,   0.00163,477169223.99097,   0.00160,276377909.38743,   0.00033,  -0.00189,   0.00049,   0.00000,   2.00000
-150244983.24311,-506969876.21321,88537547.40797,   0.00063,  -0.00391,   0.00164,477164484.77299,   0.00161,276381172.72201,   0.00033,  -0.00190,   0.00049,   0.00000,   2.00000
-150387470.69615,-506723821.53979,88997450.05553,   0.00063,  -0.00391,   0.00165,477171852.64998,   0.00161,276384453.08866,   0.00033,  -0.00190,   0.00049,   0.00000,   2.00000
-150511065.58123,-506468061.76769,89462842.13540,   0.00063,  -0.00391,   0.00166,477164643.48333,   0.00161,276387689.97785,   0.00033,  -0.00190,   0.00049,   0.00000,   2.00000
-150651333.28795,-506214827.47884,89927843.15086,   0.00063,  -0.00392,   0.00166,477186295.03587,   0.00161,276391003.28653,   0.00033,  -0.00191,   0.00049,   0.00000,   2.00000
-150783615.50014,-505955477.11860,90396552.04072,   0.00063,  -0.00392,   0.00167,477167436.92797,   0.00162,276394224.63976,   0.00033,  -0.00191,   0.00050,  -0.00000,   2.00000
-150932011.39178,-505696176.31219,90868504.41502,   0.00063,  -0.00392,   0.00168,477191521.59666,   0.00162,276397532.57073,   0.00033,  -0.00191,   0.00050,   0.00000,   2.00000
-151062531.71803,-505431931.92370,91338567.85083,   0.00063,  -0.00392,   0.00169,477179679.53278,   0.00162,276400777.68700,   0.00033,  -0.00192,   0.00050,   0.00000,   2.00000
-151205463.35285,-505165209.57712,91814282.10627,   0.00063,  -0.00392,   0.00170,477191968.49271,   0.00163,276404060.35955,   0.00033,  -0.00192,   0.00050,  -0.00000,   2.00000
-151344078.98480,-504894714.77157,92291275.69563,   0.00063,  -0.00392,   0.00170,477185090.35129,   0.00163,276407300.91509,   0.00033,  -0.00192,   0.00050,  -0.00000,   2.00000
-151485196.44452,-504623005.28059,92768242.25466,   0.00063,  -0.00393,   0.00171,477204358.18144,   0.00163,276410608.01366,   0.00033,  -0.00193,   0.00051,   0.00000,   2.00000
-151632400.12872,-504348610.37292,93248461.01898,   0.00063,  -0.00393,   0.00172,477188230.51675,   0.00164,276413834.50597,   0.00033,  -0.00193,   0.00051,   0.00000,   2.00000
-151782070.82976,-504072979.07863,93728606.34499,   0.00063,  -0.00393,   0.00173,477207530.01079,   0.00164,276417127.72613,   0.00034,  -0.00193,   0.00051,   0.00000,   2.00000
-151926862.73601,-503790962.29697,94213697.79156,   0.00063,  -0.00393,   0.00174,477203222.66766,   0.00164,276420389.45774,   0.00034,  -0.00194,   0.00051,   0.00000,   2.00000
-152066776.46842,-503502506.07798,94703731.97901,   0.00063,  -0.00393,   0.00175,477198938.72355,   0.00164,276423619.94501,   0.00034,  -0.00194,   0.00052,   0.00000,   2.00000
-152209685.60864,-503215330.12676,95189964.77394,   0.00063,  -0.00393,   0.00176,477215822.87087,   0.00165,276426907.15011,   0.00034,  -0.00194,   0.00052,   0.00000,   2.00000
-152361771.53878,-502925317.12330,95680577.86167,   0.00063,  -0.00394,   0.00176,477214193.58590,   0.00165,276430174.00373,   0.00034,  -0.00195,   0.00052,   0.00000,   2.00000
-152509510.06223,-502631319.51186,96172495.18190,   0.00063,  -0.00394,   0.00177,477207494.80721,   0.00165,276433399.56547,   0.00034,  -0.00195,   0.00052,  -0.00000,   2.00000
-152655997.34677,-502333388.44625,96666769.51960,   0.00062,  -0.00394,   0.00178,477215125.23429,   0.00166,276436643.47744,   0.00034,  -0.00195,   0.00052,   0.00000,   2.00000
-152801224.74583,-502031504.06817,97163380.00144,   0.00062,  -0.00394,   0.00179,477222806.85503,   0.00166,276439905.88329,   0.00034,  -0.00196,   0.00053,  -0.00000,   2.00000
-152959237.12907,-501729290.09873,97661731.31302,   0.00062,  -0.00394,   0.00180,477233132.27196,   0.00166,276443197.65995,   0.00034,  -0.00196,   0.00053,   0.00000,   2.00000
-153098827.54852,-501419341.10454,98161966.04295,   0.00062,  -0.00394,   0.00181,477223967.99438,   0.00167,276446437.83897,   0.00034,  -0.00196,   0.00053,   0.00000,   2.00000
-153251194.21337,-501109018.60033,98663911.72004,   0.00062,  -0.00395,   0.00182,477234335.72139,   0.00167,276449707.67807,   0.00034,  -0.00197,   0.00053,   0.00000,   2.00000
-153413246.22490,-500798188.84762,99166589.00408,   0.00062,  -0.00395,   0.00183,477230397.27862,   0.00167,276452947.66616,   0.00034,  -0.00197,   0.00054,   0.00000,   2.00000
-153559921.75447,-500479649.49773,99672118.12051,   0.00062,  -0.00395,   0.00183,477235624.07675,   0.00168,276456195.99908,   0.00034,  -0.00197,   0.00054,   0.00000,   2.00000
-153715693.31708,-500157883.31071,100181963.65578,   0.00062,  -0.00395,   0.00184,477234360.63446,   0.00168,276459425.69591,   0.00035,  -0.00197,   0.00054,   0.00000,   2.00000
-153873754.38379,-499834773.55345,100691355.23434,   0.00062,  -0.00395,   0.00185,477254011.84555,   0.00168,276462723.64156,   0.00035,  -0.00198,   0.00054,   0.00000,   2.00000
-154023800.04836,-499504599.21864,101204752.74205,   0.00062,  -0.00395,   0.00186,477235873.34535,   0.00168,276465932.71856,   0.00035,  -0.00198,   0.00055,   0.00000,   2.00000
-154176124.54174,-499173076.97384,101717649.45954,   0.00062,  -0.00396,   0.00187,477255544.88999,   0.00169,276469210.23877,   0.00035,  -0.00198,   0.00055,   0.00000,   2.00000
-154337497.20208,-498838158.90127,102234820.70989,   0.00062,  -0.00396,   0.00188,477254493.31582,   0.00169,276472469.88850,   0.00035,  -0.00199,   0.00055,   0.00000,   2.00000
-154480434.08995,-498495256.53101,102753930.78089,   0.00062,  -0.00396,   0.00189,477245513.72993,   0.00169,276475678.86789,   0.00035,  -0.00199,   0.00055,   0.00000,   2.00000
-154639659.57754,-498154618.31499,103271840.36541,   0.00062,  -0.00396,   0.00190,477267892.36808,   0.00170,276478967.53894,   0.00035,  -0.00199,   0.00055,   0.00000,   2.00000
-154794484.38279,-497809584.93550,103791081.02457,   0.00062,  -0.00396,   0.00191,477261608.52140,   0.00170,276482216.59242,   0.00035,  -0.00200,   0.00056,   0.00000,   2.00000
-154957695.32189,-497458226.09590,104318102.81392,   0.00062,  -0.00396,   0.00192,477263455.55435,   0.00170,276485459.94532,   0.00035,  -0.00200,   0.00056,   0.00000,   2.00000
-155106072.20711,-497101690.51025,104844311.68793,   0.00062,  -0.00396,   0.00192,477266246.25144,   0.00171,276488701.56705,   0.00035,  -0.00200,   0.00056,   0.00000,   2.00000
-155267692.45896,-496747220.89908,105368445.86352,   0.00061,  -0.00396,   0.00193,477274333.91141,   0.00171,276491963.43608,   0.00035,  -0.00201,   0.00056,  -0.00000,   2.00000
-155424261.34908,-496385445.93873,105897439.04326,   0.00061,  -0.00397,   0.00194,477270921.20184,   0.00171,276495197.73445,   0.00035,  -0.00201,   0.00057,   0.00000,   2.00000
-155579382.87265,-496019298.13648,106428479.24917,   0.00061,  -0.00397,   0.00195,477279187.69839,   0.00171,276498453.08008,   0.00035,  -0.00201,   0.00057,   0.00000,   2.00000
-155743462.01629,-495649347.22943,106963711.55527,   0.00061,  -0.00397,   0.00196,477278547.90575,   0.00172,276501692.39489,   0.00035,  -0.00202,   0.00057,   0.00000,   2.00000
-155892689.30605,-495274180.87559,107498105.05304,   0.00061,  -0.00397,   0.00197,477281403.89418,   0.00172,276504930.28981,   0.00036,  -0.00202,   0.00057,  -0.00000,   2.00000
-156054466.17331,-494898180.85954,108033838.82807,   0.00061,  -0.00397,   0.00198,477292450.90252,   0.00172,276508200.77133,   0.00036,  -0.00202,   0.00058,   0.00000,   2.00000
-156211146.64476,-494514650.38212,108574391.87486,   0.00061,  -0.00397,   0.00199,477289284.57597,   0.00173,276511444.69234,   0.00036,  -0.00203,   0.00058,   0.00000,   2.00000
-156366986.96682,-494129480.94771,109113423.36688,   0.00061,  -0.00397,   0.00200,477294875.93134,   0.00173,276514698.53928,   0.00036,  -0.00203,   0.00058,   0.00000,   2.00000
-156535327.26561,-493743403.31774,109653725.72566,   0.00061,  -0.00397,   0.00201,477306055.97939,   0.00173,276517985.46846,   0.00036,  -0.00203,   0.00058,   0.00000,   2.00000
-156684529.26835,-493346080.62176,110199499.43024,   0.00061,  -0.00398,   0.00202,477300338.26208,   0.00174,276521235.19557,   0.00036,  -0.00204,   0.00059,   0.00000,   2.00000
-156843302.09487,-492947529.70412,110745939.28079,   0.00061,  -0.00398,   0.00203,477297128.18142,   0.00174,276524458.27750,   0.00036,  -0.00204,   0.00059,  -0.00000,   2.00000
-157000529.13710,-492544388.98888,111294265.97334,   0.00061,  -0.00398,   0.00204,477305706.76451,   0.00174,276527703.80600,   0.00036,  -0.00204,   0.00059,   0.00000,   2.00000
-157156200.27862,-492136642.13014,111844454.63424,   0.00061,  -0.00398,   0.00205,477314342.93639,   0.00175,276530971.93717,   0.00036,  -0.00205,   0.00059,  -0.00000,   2.00000
-157324992.93755,-491730782.39525,112392361.49073,   0.00060,  -0.00398,   0.00206,477322793.15063,   0.00175,276534261.78474,   0.00036,  -0.00205,   0.00060,   0.00000,   2.00000
-157474616.56233,-491313479.10825,112945732.63752,   0.00060,  -0.00398,   0.00207,477317272.87419,   0.00175,276537515.25301,   0.00036,  -0.00205,   0.00060,  -0.00000,   2.00000
-157633080.73420,-490891830.51521,113503165.22687,   0.00060,  -0.00398,   0.00208,477317229.40876,   0.00175,276540755.24190,   0.00036,  -0.00206,   0.00060,   0.00000,   2.00000
-157790643.88462,-490468432.89413,114058973.86953,   0.00060,  -0.00398,   0.00209,477323016.41353,   0.00176,276544006.03954,   0.00036,  -0.00206,   0.00060,   0.00000,   2.00000
-157946598.17906,-490040325.89572,114616554.66407,   0.00060,  -0.00398,   0.00210,477331826.99188,   0.00176,276547280.17661,   0.00036,  -0.00206,   0.00061,   0.00000,   2.00000
-158097361.49885,-489604168.48983,115178871.66922,   0.00060,  -0.00398,   0.00211,477329214.17836,   0.00176,276550530.09667,   0.00036,  -0.00206,   0.00061,   0.00000,   2.00000
-158247218.50622,-489166243.75772,115739530.93852,   0.00060,  -0.00398,   0.00212,477335066.60500,   0.00177,276553791.08849,   0.00037,  -0.00207,   0.00061,   0.00000,   2.00000
-158405860.94913,-488723751.54900,116304193.91177,   0.00060,  -0.00399,   0.00213,477335279.05542,   0.00177,276557039.65544,   0.00037,  -0.00207,   0.00062,   0.00000,   2.00000
-158562843.54316,-488276443.02999,116870544.21408,   0.00060,  -0.00399,   0.00214,477344253.48933,   0.00177,276560312.28295,   0.00037,  -0.00207,   0.00062,   0.00000,   2.00000
-158718888.42538,-487827338.30077,117435197.18930,   0.00060,  -0.00399,   0.00215,477350191.86831,   0.00178,276563596.25412,   0.00037,  -0.00208,   0.00062,  -0.00000,   2.00000
-158869696.77899,-487369969.22549,118004549.26123,   0.00060,  -0.00399,   0.00216,477347816.92645,   0.00178,276566856.97445,   0.00037,  -0.00208,   0.00062,   0.00000,   2.00000
-159018825.46382,-486907733.08930,118575529.90827,   0.00059,  -0.00399,   0.00217,477356904.53642,   0.00178,276570142.21206,   0.00037,  -0.00208,   0.00063,   0.00000,   2.00000
-159177421.68853,-486443753.81640,119147099.46561,   0.00059,  -0.00399,   0.00218,477354284.45418,   0.00178,276573403.16747,   0.00037,  -0.00209,   0.00063,   0.00000,   2.00000
-159333550.87026,-485971779.94688,119723585.74065,   0.00059,  -0.00399,   0.00219,477366601.61494,   0.00179,276576702.07825,   0.00037,  -0.00209,   0.00063,   0.00000,   2.00000
-159471936.53078,-485493950.28053,120298830.87638,   0.00059,  -0.00399,   0.00220,477355360.72654,   0.00179,276579940.83399,   0.00037,  -0.00209,   0.00063,   0.00000,   2.00000
-159621826.11133,-485011631.26020,120878185.41232,   0.00059,  -0.00399,   0.00221,477370534.61354,   0.00179,276583229.54919,   0.00037,  -0.00210,   0.00064,   0.00000,   2.00000
-159784700.55956,-484530992.87666,121454982.05330,   0.00059,  -0.00399,   0.00222,477379449.26230,   0.00180,276586541.96172,   0.00037,  -0.00210,   0.00064,   0.00000,   2.00000
-159929061.40561,-484041333.40698,122033880.19700,   0.00059,  -0.00399,   0.00223,477371449.05285,   0.00180,276589807.63650,   0.00037,  -0.00210,   0.00064,   0.00000,   2.00000
-160067349.07068,-483539904.71355,122620695.43420,   0.00059,  -0.00399,   0.00224,477372686.13748,   0.00180,276593065.22213,   0.00037,  -0.00211,   0.00065,   0.00000,   2.00000
-160222162.82004,-483043767.78309,123201754.55419,   0.00059,  -0.00399,   0.00225,477392984.68077,   0.00181,276596394.04590,   0.00037,  -0.00211,   0.00065,  -0.00000,   2.00000
-160368871.46254,-482538385.61550,123787298.39610,   0.00059,  -0.00399,   0.00226,477376589.11885,   0.00181,276599641.12521,   0.00037,  -0.00211,   0.00065,  -0.00000,   2.00000
-160516547.68111,-482028457.29221,124374359.55703,   0.00058,  -0.00400,   0.00227,477400614.04319,   0.00181,276602975.03901,   0.00038,  -0.00211,   0.00065,  -0.00000,   2.00000
-160656115.11984,-481509148.63475,124965912.63940,   0.00058,  -0.00400,   0.00228,477384342.47649,   0.00182,276606227.71365,   0.00038,  -0.00212,   0.00066,  -0.00000,   2.00000
-160798221.17384,-480991651.88058,125552404.28035,   0.00058,  -0.00400,   0.00229,477401858.99814,   0.00182,276609540.13882,   0.00038,  -0.00212,   0.00066,   0.00000,   2.00000
-160948913.17690,-480468807.50702,126142654.47558,   0.00058,  -0.00400,   0.00230,477403033.69857,   0.00182,276612844.02628,   0.00038,  -0.00212,   0.00066,   0.00000,   2.00000
-161080271.17835,-479933452.76508,126738260.55293,   0.00058,  -0.00400,   0.00231,477398616.81590,   0.00182,276616116.16781,   0.00038,  -0.00213,   0.00067,   0.00000,   2.00000
-161223739.99234,-479396451.18663,127334357.06721,   0.00058,  -0.00400,   0.00232,477411141.76986,   0.00183,276619427.23440,   0.00038,  -0.00213,   0.00067,  -0.00000,   2.00000
-161366163.04499,-478857477.79925,127928519.76170,   0.00058,  -0.00400,   0.00234,477417536.93253,   0.00183,276622751.54205,   0.00038,  -0.00213,   0.00067,  -0.00000,   2.00000
-161503175.27141,-478309411.70205,128527192.40517,   0.00058,  -0.00400,   0.00235,477416122.19271,   0.00183,276626056.52240,   0.00038,  -0.00214,   0.00068,   0.00000,   2.00000
-161638309.87321,-477756106.47948,129127099.72878,   0.00058,  -0.00400,   0.00236,477425952.96319,   0.00184,276629389.11407,   0.00038,  -0.00214,   0.00068,   0.00000,   2.00000
-161768851.76011,-477196868.84463,129728301.23739,   0.00058,  -0.00400,   0.00237,477421256.22509,   0.00184,276632688.68617,   0.00038,  -0.00214,   0.00068,   0.00000,   2.00000
-161897504.75003,-476632360.18895,130330698.48798,   0.00057,  -0.00400,   0.00238,477431151.85071,   0.00184,276636016.19156,   0.00038,  -0.00215,   0.00068,  -0.00000,   2.00000
-162035492.44987,-476065389.39091,130933543.12817,   0.00057,  -0.00400,   0.00239,477429383.77161,   0.00185,276639322.89456,   0.00038,  -0.00215,   0.00069,   0.00000,   2.00000
-162170702.45212,-475489807.12016,131540690.40432,   0.00057,  -0.00400,   0.00240,477442831.14069,   0.00185,276642672.31923,   0.00038,  -0.00215,   0.00069,   0.00000,   2.00000
-162288217.83685,-474907904.43747,132146822.52527,   0.00057,  -0.00400,   0.00241,477431965.37847,   0.00185,276645962.96270,   0.00038,  -0.00216,   0.00069,   0.00000,   2.00000
-162416881.21623,-474320883.72220,132756340.89580,   0.00057,  -0.00400,   0.00242,477448373.22229,   0.00186,276649308.77245,   0.00038,  -0.00216,   0.00070,   0.00000,   2.00000
-162544454.32646,-473731824.42865,133363796.28707,   0.00057,  -0.00400,   0.00243,477455017.53610,   0.00186,276652668.81687,   0.00038,  -0.00216,   0.00070,   0.00000,   2.00000
-162666529.70114,-473133257.29900,133975643.82539,   0.00057,  -0.00400,   0.00244,477454123.78397,   0.00186,276656011.61806,   0.00038,  -0.00216,   0.00070,   0.00000,   2.00000
-162797890.50086,-472531996.46410,134587880.60159,   0.00057,  -0.00400,   0.00246,477452641.13556,   0.00187,276659334.77679,   0.00039,  -0.00217,   0.00071,   0.00000,   2.00000
-162913342.16321,-471921769.29950,135202003.53113,   0.00056,  -0.00400,   0.00247,477459994.33265,   0.00187,276662675.26826,   0.00039,  -0.00217,   0.00071,   0.00000,   2.00000
-163040724.28171,-471309650.19060,135816215.12724,   0.00056,  -0.00400,   0.00248,477473193.99458,   0.00187,276666057.40657,   0.00039,  -0.00217,   0.00071,   0.00000,   2.00000
-163148641.51351,-470684283.20150,136435644.54848,   0.00056,  -0.00400,   0.00249,477469659.82664,   0.00187,276669411.23237,   0.00039,  -0.00218,   0.00072,   0.00000,   2.00000
-163269362.76980,-470060369.53921,137052024.10427,   0.00056,  -0.00400,   0.00250,477479374.46481,   0.00188,276672792.13925,   0.00039,  -0.00218,   0.00072,  -0.00000,   2.00000
-163385418.41777,-469430057.19072,137669649.57927,   0.00056,  -0.00400,   0.00251,477475220.24837,   0.00188,276676142.13372,   0.00039,  -0.00218,   0.00072,  -0.00000,   2.00000
-163498534.98012,-468790841.63826,138291206.31744,   0.00056,  -0.00400,   0.00252,477489324.59925,   0.00188,276679537.59187,   0.00039,  -0.00219,   0.00073,   0.00000,   2.00000
-163606975.16125,-468145139.89312,138913984.86606,   0.00056,  -0.00400,   0.00253,477485289.76183,   0.00189,276682902.59534,   0.00039,  -0.00219,   0.00073,   0.00000,   2.00000
-163714282.47028,-467497333.13770,139534559.67900,   0.00056,  -0.00400,   0.00255,477492193.49221,   0.00189,276686282.95626,   0.00039,  -0.00219,   0.00073,  -0.00000,   2.00000
-163815994.56221,-466839548.74527,140159387.35580,   0.00056,  -0.00400,   0.00256,477491877.43746,   0.00189,276689648.47191,   0.00039,  -0.00219,   0.00074,  -0.00000,   2.00000
-163929538.33776,-466179741.45653,140784061.34349,   0.00055,  -0.00400,   0.00257,477505467.37751,   0.00190,276693057.29140,   0.00039,  -0.00220,   0.00074,   0.00000,   2.00000
-164023545.19228,-465506301.01254,141413872.12748,   0.00055,  -0.00400,   0.00258,477502387.38249,   0.00190,276696439.62239,   0.00039,  -0.00220,   0.00074,   0.00000,   2.00000
-164130298.77891,-464834266.46611,142040468.29052,   0.00055,  -0.00400,   0.00259,477512366.37077,   0.00190,276699850.13335,   0.00039,  -0.00220,   0.00075,   0.00000,   2.00000
-164221049.79028,-464153094.28250,142668704.09458,   0.00055,  -0.00400,   0.00260,477520238.17547,   0.00191,276703279.93820,   0.00039,  -0.00221,   0.00075,  -0.00000,   2.00000
-164320995.63215,-463468747.72066,143297182.15043,   0.00055,  -0.00400,   0.00262,477519445.77491,   0.00191,276706692.72228,   0.00039,  -0.00221,   0.00075,  -0.00000,   2.00000
-164415268.88223,-462774131.19761,143929807.06283,   0.00055,  -0.00400,   0.00263,477519524.27809,   0.00191,276710092.21344,   0.00039,  -0.00221,   0.00076,  -0.00000,   2.00000
-164507406.33868,-462073855.32082,144563043.79616,   0.00055,  -0.00400,   0.00264,477530477.89150,   0.00192,276713523.96425,   0.00039,  -0.00222,   0.00076,   0.00000,   2.00000
-164598363.51425,-461371437.73695,145193928.14534,   0.00055,  -0.00400,   0.00265,477537673.90112,   0.00192,276716972.13140,   0.00039,  -0.00222,   0.00076,   0.00000,   2.00000
-164683621.28929,-460658629.61960,145828906.91365,   0.00054,  -0.00400,   0.00266,477537951.24214,   0.00192,276720407.71812,   0.00040,  -0.00222,   0.00077,   0.00000,   2.00000
-164763167.31707,-459935356.67029,146467952.88053,   0.00054,  -0.00400,   0.00267,477538306.59940,   0.00193,276723831.11894,   0.00040,  -0.00223,   0.00077,   0.00000,   2.00000
-164841525.37894,-459209907.88919,147104594.29764,   0.00054,  -0.00400,   0.00269,477545593.26682,   0.00193,276727271.40128,   0.00040,  -0.00223,   0.00077,  -0.00000,   2.00000
-164931588.02263,-458482313.97978,147740730.20090,   0.00054,  -0.00400,   0.00270,477559751.10833,   0.00193,276730757.25805,   0.00040,  -0.00223,   0.00078,  -0.00000,   2.00000
-165003003.00723,-457744134.68573,148378988.99877,   0.00054,  -0.00400,   0.00271,477553439.21018,   0.00194,276734202.81893,   0.00040,  -0.00223,   0.00078,   0.00000,   2.00000
-165082546.24320,-456998871.76464,149020253.76528,   0.00054,  -0.00399,   0.00272,477557011.23380,   0.00194,276737649.63963,   0.00040,  -0.00224,   0.00078,  -0.00000,   2.00000
-165149560.14721,-456249243.91212,149659333.30365,   0.00054,  -0.00399,   0.00273,477576027.29214,   0.00194,276741162.44802,   0.00040,  -0.00224,   0.00079,   0.00000,   2.00000
-165222118.56258,-455491068.79961,150302102.33566,   0.00054,  -0.00399,   0.00275,477565183.89156,   0.00195,276744615.85283,   0.00040,  -0.00224,   0.00079,   0.00000,   2.00000
-165278575.42008,-454723548.66424,150946225.90054,   0.00053,  -0.00399,   0.00276,477573621.14078,   0.00195,276748090.93520,   0.00040,  -0.00225,   0.00080,   0.00000,   2.00000
-165346681.30695,-453953826.08189,151589641.02801,   0.00053,  -0.00399,   0.00277,477588098.59465,   0.00195,276751612.92373,   0.00040,  -0.00225,   0.00080,   0.00000,   2.00000
-165409986.05584,-453176845.65139,152234131.13864,   0.00053,  -0.00399,   0.00278,477585075.68917,   0.00196,276755108.26012,   0.00040,  -0.00225,   0.00080,   0.00000,   2.00000
-165471034.95869,-452394075.21183,152878876.19468,   0.00053,  -0.00399,   0.00279,477596660.41934,   0.00196,276758638.32995,   0.00040,  -0.00226,   0.00081,   0.00000,   2.00000
-165526241.80800,-451600348.95371,153527470.93228,   0.00053,  -0.00399,   0.00281,477597773.01110,   0.00196,276762159.08280,   0.00040,  -0.00226,   0.00081,   0.00000,   2.00000
-165566350.81959,-450800860.88538,154174511.07172,   0.00053,  -0.00399,   0.00282,477602425.40297,   0.00197,276765685.43490,   0.00040,  -0.00226,   0.00081,  -0.00000,   2.00000
-165615528.62525,-449997558.97357,154821559.44982,   0.00053,  -0.00399,   0.00283,477602578.05274,   0.00197,276769198.46602,   0.00040,  -0.00226,   0.00082,   0.00000,   2.00000
-165661376.55039,-449184789.82541,155471510.97504,   0.00052,  -0.00399,   0.00284,477618433.39129,   0.00197,276772764.17354,   0.00040,  -0.00227,   0.00082,   0.00000,   2.00000
-165717302.94761,-448371779.63309,156118677.97605,   0.00052,  -0.00399,   0.00285,477614639.19877,   0.00197,276776299.81777,   0.00040,  -0.00227,   0.00083,  -0.00000,   2.00000
-165755995.70317,-447545681.75284,156769728.04112,   0.00052,  -0.00399,   0.00287,477627614.75443,   0.00198,276779875.99712,   0.00040,  -0.00227,   0.00083,  -0.00000,   2.00000
-165789847.99150,-446712027.93344,157421775.26864,   0.00052,  -0.00399,   0.00288,477625013.52009,   0.00198,276783427.12031,   0.00040,  -0.00228,   0.00083,   0.00000,   2.00000
-165817787.89877,-445867086.50979,158077525.26771,   0.00052,  -0.00398,   0.00289,477626599.25062,   0.00199,276786970.89868,   0.00040,  -0.00228,   0.00084,   0.00000,   2.00000
-165848080.03732,-445025416.09111,158726871.22956,   0.00052,  -0.00398,   0.00290,477644859.10353,   0.00199,276790577.44840,   0.00041,  -0.00228,   0.00084,   0.00000,   2.00000
-165868837.79614,-444166910.02657,159383582.92377,   0.00052,  -0.00398,   0.00292,477636215.97042,   0.00199,276794133.43459,   0.00041,  -0.00229,   0.00084,   0.00000,   2.00000
-165904717.07638,-443311663.95050,160035428.64225,   0.00052,  -0.00398,   0.00293,477661739.93050,   0.00200,276797782.73448,   0.00041,  -0.00229,   0.00085,   0.00000,   2.00000
-165918243.68966,-442439499.53537,160693019.32878,   0.00051,  -0.00398,   0.00294,477646071.93610,   0.00200,276801351.73815,   0.00041,  -0.00229,   0.00085,   0.00000,   2.00000
-165933038.81486,-441567059.34765,161346761.39019,   0.00051,  -0.00398,   0.00295,477668615.39554,   0.00200,276805001.55355,   0.00041,  -0.00229,   0.00086,   0.00000,   2.00000
-165953182.95825,-440684786.73806,162004054.61621,   0.00051,  -0.00398,   0.00297,477659147.45616,   0.00201,276808597.12485,   0.00041,  -0.00230,   0.00086,   0.00000,   2.00000
-165960721.39621,-439798685.43530,162658532.44494,   0.00051,  -0.00398,   0.00298,477678716.68923,   0.00201,276812260.94181,   0.00041,  -0.00230,   0.00087,   0.00000,   2.00000
-165958634.44242,-438895249.53895,163320266.00993,   0.00051,  -0.00398,   0.00299,477670659.09738,   0.00201,276815876.41958,   0.00041,  -0.00230,   0.00087,   0.00000,   2.00000
-165972759.76771,-437999046.52863,163974275.54798,   0.00051,  -0.00398,   0.00300,477692082.37548,   0.00202,276819567.90947,   0.00041,  -0.00231,   0.00087,   0.00000,   2.00000
-165967002.46954,-437087533.36128,164632878.43305,   0.00051,  -0.00397,   0.00302,477691365.23647,   0.00202,276823241.86563,   0.00041,  -0.00231,   0.00088,   0.00000,   2.00000
-165970179.86252,-436171671.04144,165291219.55370,   0.00051,  -0.00397,   0.00303,477692471.57313,   0.00202,276826906.02948,   0.00041,  -0.00231,   0.00088,  -0.00000,   2.00000
-165957099.84534,-435246264.80942,165950349.23065,   0.00050,  -0.00397,   0.00304,477702039.56085,   0.00203,276830596.14780,   0.00041,  -0.00232,   0.00089,  -0.00000,   2.00000
-165939102.53078,-434312798.63315,166610322.38907,   0.00050,  -0.00397,   0.00306,477700204.42645,   0.00203,276834264.03965,   0.00041,  -0.00232,   0.00089,   0.00000,   2.00000
-165931402.22050,-433373325.48167,167271291.43173,   0.00050,  -0.00397,   0.00307,477720366.51421,   0.00203,276838002.58734,   0.00041,  -0.00232,   0.00089,   0.00000,   2.00000
-165906046.45413,-432425821.87265,167931678.70295,   0.00050,  -0.00397,   0.00308,477711227.66951,   0.00204,276841687.89723,   0.00041,  -0.00232,   0.00090,   0.00000,   2.00000
-165890966.01693,-431472313.69416,168592968.13332,   0.00050,  -0.00397,   0.00309,477731526.25649,   0.00204,276845444.43073,   0.00041,  -0.00233,   0.00090,   0.00000,   2.00000
-165858229.67141,-430510707.00946,169253687.71800,   0.00050,  -0.00397,   0.00311,477722459.83719,   0.00204,276849147.94804,   0.00041,  -0.00233,   0.00091,  -0.00000,   2.00000
-165835747.52062,-429543100.82769,169915215.14473,   0.00050,  -0.00396,   0.00312,477742895.62250,   0.00205,276852923.25763,   0.00041,  -0.00233,   0.00091,   0.00000,   2.00000
-165794445.03934,-428563532.77445,170578654.57363,   0.00049,  -0.00396,   0.00313,477738397.40577,   0.00205,276856664.77258,   0.00041,  -0.00234,   0.00092,  -0.00000,   2.00000
-165750701.84157,-427578071.71064,171241494.81965,   0.00049,  -0.00396,   0.00315,477751451.46272,   0.00205,276860446.81317,   0.00041,  -0.00234,   0.00092,   0.00000,   2.00000
-165715822.47666,-426587960.88033,171903886.11889,   0.00049,  -0.00396,   0.00316,477753177.77531,   0.00206,276864221.32464,   0.00041,  -0.00234,   0.00093,   0.00000,   2.00000
-165664632.63022,-425588263.77742,172566793.56362,   0.00049,  -0.00396,   0.00317,477763282.23262,   0.00206,276868023.79867,   0.00041,  -0.00235,   0.00093,   0.00000,   2.00000
-165608459.61601,-424580155.01688,173230400.62309,   0.00049,  -0.00396,   0.00319,477762060.82971,   0.00206,276871806.22760,   0.00041,  -0.00235,   0.00093,   0.00000,   2.00000
-165563660.64485,-423569885.12613,173892098.94122,   0.00049,  -0.00396,   0.00320,477778385.30349,   0.00207,276875642.92385,   0.00042,  -0.00235,   0.00094,   0.00000,   2.00000
-165498816.03325,-422543596.76066,174558052.68106,   0.00049,  -0.00395,   0.00321,477778824.97139,   0.00207,276879466.48282,   0.00042,  -0.00235,   0.00094,   0.00000,   2.00000
-165432691.18963,-421515259.99818,175220820.41324,   0.00049,  -0.00395,   0.00323,477787625.42917,   0.00208,276883312.35791,   0.00042,  -0.00236,   0.00095,  -0.00000,   2.00000
-165361558.04631,-420478379.61029,175884233.46366,   0.00048,  -0.00395,   0.00324,477786639.71641,   0.00208,276887139.02280,   0.00042,  -0.00236,   0.00095,   0.00000,   2.00000
-165286743.67717,-419431818.86600,176549155.89755,   0.00048,  -0.00395,   0.00325,477804757.35083,   0.00208,276891027.51268,   0.00042,  -0.00236,   0.00096,   0.00000,   2.00000
-165206901.05432,-418376639.49341,177214670.75889,   0.00048,  -0.00395,   0.00327,477803946.39607,   0.00209,276894897.37477,   0.00042,  -0.00237,   0.00096,  -0.00000,   2.00000
-165125779.43832,-417319456.39982,177876928.16315,   0.00048,  -0.00395,   0.00328,477812887.50507,   0.00209,276898790.02828,   0.00042,  -0.00237,   0.00097,   0.00000,   2.00000
-165052239.09881,-416253519.34556,178540867.46934,   0.00048,  -0.00394,   0.00329,477819916.68540,   0.00209,276902697.27531,   0.00042,  -0.00237,   0.00097,  -0.00000,   2.00000
-164949729.18407,-415178068.32397,179203957.29601,   0.00048,  -0.00394,   0.00331,477822801.30315,   0.00210,276906601.52022,   0.00042,  -0.00237,   0.00098,   0.00000,   2.00000
