# sigma_xx, sigma_yy, sigma_xy, epsilon_xx, epsilon_yy, epsilon_xy, vonMises, epsPlastic, hardening, epsilonP__xx, epsilonP__yy, epsilonP__xy, yieldValue, iteration
   0.00000,   0.00000,   0.00000,   0.00000,   0.00000,   0.00000,1181185.37500,   0.00000,274640576.00000,   0.00000,   0.00000,   0.00000,-473459392.00000,   0.00000
   0.00000,   0.00000,   0.00000,   0.00000,   0.00000,   0.00000,1181185.37500,   0.00000,274640576.00000,   0.00000,   0.00000,   0.00000,-473459392.00000,   0.00000
1766275.65419,1128289.79917,-578913.09067,   0.00001,   0.00000,  -0.00001,2694256.50000,   0.00000,274640576.00000,   0.00000,   0.00000,   0.00000,-471946304.00000,   0.00000
3520736.75552,2268394.15121,-1163733.45778,   0.00001,   0.00000,  -0.00002,4632081.00000,   0.00000,274640576.00000,   0.00000,   0.00000,   0.00000,-470008480.00000,   0.00000
5245661.47466,3378962.12107,-1748553.82489,   0.00002,   0.00001,  -0.00002,6289757.00000,   0.00000,274640576.00000,   0.00000,   0.00000,   0.00000,-468350816.00000,   0.00000
6970586.19381,4489530.09093,-2345188.74487,   0.00002,   0.00001,  -0.00003,8018676.50000,   0.00000,274640576.00000,   0.00000,   0.00000,   0.00000,-466621904.00000,   0.00000
8683696.36008,5611912.61366,-2941823.66484,   0.00003,   0.00001,  -0.00004,9839228.00000,   0.00000,274640576.00000,   0.00000,   0.00000,   0.00000,-464801344.00000,   0.00000
10367270.14418,6704758.75421,-3538458.58482,   0.00003,   0.00001,  -0.00005,11671472.00000,   0.00000,274640576.00000,   0.00000,   0.00000,   0.00000,-462969104.00000,   0.00000
12050843.92828,7797604.89477,-4146908.05767,   0.00004,   0.00001,  -0.00005,13506847.00000,   0.00000,274640576.00000,   0.00000,   0.00000,   0.00000,-461133728.00000,   0.00000
13713742.24485,8881590.12067,-4755357.53052,   0.00005,   0.00001,  -0.00006,15306391.00000,   0.00000,274640576.00000,   0.00000,   0.00000,   0.00000,-459334192.00000,   0.00000
15376640.56143,9965575.34657,-5369714.27981,   0.00005,   0.00002,  -0.00007,17094230.00000,   0.00000,274640576.00000,   0.00000,   0.00000,   0.00000,-457546352.00000,   0.00000
17027724.32513,11061375.12535,-5984071.02909,   0.00006,   0.00002,  -0.00008,18866878.00000,   0.00000,274640576.00000,   0.00000,   0.00000,   0.00000,-455773696.00000,   0.00000
18649271.70666,12127638.52194,-6610242.33125,   0.00006,   0.00002,  -0.00009,20626238.00000,   0.00000,274640576.00000,   0.00000,   0.00000,   0.00000,-454014336.00000,   0.00000
20270819.08818,13193901.91854,-7236413.63340,   0.00007,   0.00002,  -0.00009,22386094.00000,   0.00000,274640576.00000,   0.00000,   0.00000,   0.00000,-452254480.00000,   0.00000
21871691.00218,14251304.40048,-7862584.93556,   0.00007,   0.00002,  -0.00010,24133514.00000,   0.00000,274640576.00000,   0.00000,   0.00000,   0.00000,-450507056.00000,   0.00000
23451887.44866,15299845.96777,-8500570.79059,   0.00008,   0.00002,  -0.00011,25880966.00000,   0.00000,274640576.00000,   0.00000,   0.00000,   0.00000,-448759616.00000,   0.00000
25032083.89514,16348387.53506,-9138556.64561,   0.00008,   0.00003,  -0.00012,27631260.00000,   0.00000,274640576.00000,   0.00000,   0.00000,   0.00000,-447009312.00000,   0.00000
26591604.87409,17388068.18769,-9776542.50064,   0.00009,   0.00003,  -0.00013,29371700.00000,   0.00000,274640576.00000,   0.00000,   0.00000,   0.00000,-445268880.00000,   0.00000
28130450.38552,18418887.92567,-10426342.90854,   0.00009,   0.00003,  -0.00014,31115258.00000,   0.00000,274640576.00000,   0.00000,   0.00000,   0.00000,-443525312.00000,   0.00000
29669295.89695,19449707.66366,-11076143.31643,   0.00010,   0.00003,  -0.00014,32865402.00000,   0.00000,274640576.00000,   0.00000,   0.00000,   0.00000,-441775168.00000,   0.00000
31208141.40838,20480527.40164,-11725943.72433,   0.00010,   0.00003,  -0.00015,34622600.00000,   0.00000,274640576.00000,   0.00000,   0.00000,   0.00000,-440017984.00000,   0.00000
32705635.98477,21493625.31032,-12387558.68510,   0.00011,   0.00003,  -0.00016,36371452.00000,   0.00000,274640576.00000,   0.00000,   0.00000,   0.00000,-438269120.00000,   0.00000
34203130.56115,22506723.21899,-13049173.64587,   0.00011,   0.00004,  -0.00017,38127220.00000,   0.00000,274640576.00000,   0.00000,   0.00000,   0.00000,-436513360.00000,   0.00000
35679949.67000,23510960.21302,-13716695.88307,   0.00012,   0.00004,  -0.00018,39881244.00000,   0.00000,274640576.00000,   0.00000,   0.00000,   0.00000,-434759328.00000,   0.00000
37156768.77886,24515197.20704,-14384218.12028,   0.00012,   0.00004,  -0.00019,41639936.00000,   0.00000,274640576.00000,   0.00000,   0.00000,   0.00000,-433000640.00000,   0.00000
38612912.42020,25510573.28641,-15057647.63391,   0.00013,   0.00004,  -0.00020,43394012.00000,   0.00000,274640576.00000,   0.00000,   0.00000,   0.00000,-431246560.00000,   0.00000
40057241.50866,26517763.91865,-15731077.14755,   0.00013,   0.00004,  -0.00020,45143696.00000,   0.00000,274640576.00000,   0.00000,   0.00000,   0.00000,-429496880.00000,   0.00000
41492709.68247,27504279.08337,-16416321.21406,   0.00014,   0.00004,  -0.00021,46897756.00000,   0.00000,274640576.00000,   0.00000,   0.00000,   0.00000,-427742816.00000,   0.00000
42907502.38875,28481933.33343,-17101565.28057,   0.00014,   0.00005,  -0.00022,48636204.00000,   0.00000,274640576.00000,   0.00000,   0.00000,   0.00000,-426004368.00000,   0.00000
44322295.09504,29459587.58350,-17786809.34708,   0.00014,   0.00005,  -0.00023,50371568.00000,   0.00000,274640576.00000,   0.00000,   0.00000,   0.00000,-424269008.00000,   0.00000
45716412.33380,30428380.91891,-18477960.69003,   0.00015,   0.00005,  -0.00024,52095640.00000,   0.00000,274640576.00000,   0.00000,   0.00000,   0.00000,-422544928.00000,   0.00000
47098715.01969,31408988.80719,-19175019.30941,   0.00015,   0.00005,  -0.00025,53816120.00000,   0.00000,274640576.00000,   0.00000,   0.00000,   0.00000,-420824448.00000,   0.00000
48451481.32341,32360060.31329,-19877985.20523,   0.00016,   0.00005,  -0.00026,55516792.00000,   0.00000,274640576.00000,   0.00000,   0.00000,   0.00000,-419123776.00000,   0.00000
49804247.62712,33311131.81940,-20580951.10104,   0.00016,   0.00005,  -0.00027,57212816.00000,   0.00000,274640576.00000,   0.00000,   0.00000,   0.00000,-417427760.00000,   0.00000
51165874.84549,34282878.79303,-21283916.99686,   0.00017,   0.00006,  -0.00028,58912456.00000,   0.00000,274640576.00000,   0.00000,   0.00000,   0.00000,-415728128.00000,   0.00000
52477290.21415,35216228.46982,-21992790.16911,   0.00017,   0.00006,  -0.00029,60580564.00000,   0.00000,274640576.00000,   0.00000,   0.00000,   0.00000,-414060016.00000,   0.00000
53797566.49747,36170253.61415,-22707570.61780,   0.00017,   0.00006,  -0.00030,62260336.00000,   0.00000,274640576.00000,   0.00000,   0.00000,   0.00000,-412380240.00000,   0.00000
55108981.86614,37103603.29094,-23428258.34292,   0.00018,   0.00006,  -0.00030,63937028.00000,   0.00000,274640576.00000,   0.00000,   0.00000,   0.00000,-410703552.00000,   0.00000
56408582.68193,38048767.52061,-24148946.06804,   0.00018,   0.00006,  -0.00031,65607924.00000,   0.00000,274640576.00000,   0.00000,   0.00000,   0.00000,-409032656.00000,   0.00000
57687508.03020,38985070.83563,-24869633.79317,   0.00019,   0.00006,  -0.00032,67266200.00000,   0.00000,274640576.00000,   0.00000,   0.00000,   0.00000,-407374368.00000,   0.00000
58936896.99630,39891837.76847,-25602136.07116,   0.00019,   0.00007,  -0.00033,68917984.00000,   0.00000,274640576.00000,   0.00000,   0.00000,   0.00000,-405722592.00000,   0.00000
60195146.87704,40819280.16883,-26328731.07272,   0.00019,   0.00007,  -0.00034,70573680.00000,   0.00000,274640576.00000,   0.00000,   0.00000,   0.00000,-404066896.00000,   0.00000
61432721.29027,41737861.65454,-27067140.62715,   0.00020,   0.00007,  -0.00035,72232608.00000,   0.00000,274640576.00000,   0.00000,   0.00000,   0.00000,-402407968.00000,   0.00000
62670295.70349,42656443.14025,-27805550.18157,   0.00020,   0.00007,  -0.00036,73895312.00000,   0.00000,274640576.00000,   0.00000,   0.00000,   0.00000,-400745264.00000,   0.00000
63887194.64919,43566163.71131,-28543959.73600,   0.00021,   0.00007,  -0.00037,75549128.00000,   0.00000,274640576.00000,   0.00000,   0.00000,   0.00000,-399091456.00000,   0.00000
65083418.12736,44467023.36771,-29288276.56687,   0.00021,   0.00008,  -0.00038,77200944.00000,   0.00000,274640576.00000,   0.00000,   0.00000,   0.00000,-397439632.00000,   0.00000
66279641.60554,45367883.02411,-30038500.67417,   0.00021,   0.00008,  -0.00039,78863776.00000,   0.00000,274640576.00000,   0.00000,   0.00000,   0.00000,-395776800.00000,   0.00000
67455189.61619,46259881.76586,-30788724.78147,   0.00022,   0.00008,  -0.00040,80517840.00000,   0.00000,274640576.00000,   0.00000,   0.00000,   0.00000,-394122736.00000,   0.00000
68639598.54149,47172555.97514,-31544856.16520,   0.00022,   0.00008,  -0.00041,82190776.00000,   0.00000,274640576.00000,   0.00000,   0.00000,   0.00000,-392449792.00000,   0.00000
69794471.08462,48055693.80223,-32300987.54894,   0.00022,   0.00008,  -0.00042,83846080.00000,   0.00000,274640576.00000,   0.00000,   0.00000,   0.00000,-390794496.00000,   0.00000
70937529.07488,48950646.18220,-33063026.20911,   0.00023,   0.00008,  -0.00043,85506632.00000,   0.00000,274640576.00000,   0.00000,   0.00000,   0.00000,-389133952.00000,   0.00000
72071726.15048,49824923.09464,-33825064.86928,   0.00023,   0.00009,  -0.00044,87161376.00000,   0.00000,274640576.00000,   0.00000,   0.00000,   0.00000,-387479200.00000,   0.00000
73194108.67321,50711014.55996,-34593010.80589,   0.00023,   0.00009,  -0.00045,88820432.00000,   0.00000,274640576.00000,   0.00000,   0.00000,   0.00000,-385820144.00000,   0.00000
74295815.72842,51588245.11062,-35360956.74249,   0.00024,   0.00009,  -0.00046,90468072.00000,   0.00000,274640576.00000,   0.00000,   0.00000,   0.00000,-384172512.00000,   0.00000
75388661.86897,52444800.19376,-36134809.95553,   0.00024,   0.00009,  -0.00047,92115336.00000,   0.00000,274640576.00000,   0.00000,   0.00000,   0.00000,-382525248.00000,   0.00000
76469693.45666,53313169.82977,-36908663.16857,   0.00024,   0.00009,  -0.00048,93758584.00000,   0.00000,274640576.00000,   0.00000,   0.00000,   0.00000,-380881984.00000,   0.00000
77550725.04434,54181539.46578,-37688423.65805,   0.00025,   0.00010,  -0.00049,95408720.00000,   0.00000,274640576.00000,   0.00000,   0.00000,   0.00000,-379231856.00000,   0.00000
78619942.07915,55061723.65465,-38468184.14753,   0.00025,   0.00010,  -0.00050,97054088.00000,   0.00000,274640576.00000,   0.00000,   0.00000,   0.00000,-377586496.00000,   0.00000
79659622.73179,55912371.46136,-39253851.91344,   0.00025,   0.00010,  -0.00051,98685264.00000,   0.00000,274640576.00000,   0.00000,   0.00000,   0.00000,-375955312.00000,   0.00000
80699303.38443,56763019.26806,-40045426.95579,   0.00026,   0.00010,  -0.00052,100322784.00000,   0.00000,274640576.00000,   0.00000,   0.00000,   0.00000,-374317792.00000,   0.00000
81727169.48419,57625481.62763,-40831094.72170,   0.00026,   0.00010,  -0.00053,101948016.00000,   0.00000,274640576.00000,   0.00000,   0.00000,   0.00000,-372692560.00000,   0.00000
82746174.66930,58467268.51968,-41628577.04048,   0.00026,   0.00010,  -0.00054,103578376.00000,   0.00000,274640576.00000,   0.00000,   0.00000,   0.00000,-371062208.00000,   0.00000
83753365.30154,59320869.96460,-42420152.08283,   0.00027,   0.00011,  -0.00055,105196536.00000,   0.00000,274640576.00000,   0.00000,   0.00000,   0.00000,-369444032.00000,   0.00000
84739880.46626,60165610.49487,-43223541.67805,   0.00027,   0.00011,  -0.00056,106816136.00000,   0.00000,274640576.00000,   0.00000,   0.00000,   0.00000,-367824448.00000,   0.00000
85726395.63098,61010351.02513,-44021023.99683,   0.00027,   0.00011,  -0.00057,108427944.00000,   0.00000,274640576.00000,   0.00000,   0.00000,   0.00000,-366212640.00000,   0.00000
86692235.32817,61846230.64075,-44824413.59205,   0.00027,   0.00011,  -0.00058,110034552.00000,   0.00000,274640576.00000,   0.00000,   0.00000,   0.00000,-364606016.00000,   0.00000
87658075.02536,62682110.25636,-45633710.46371,   0.00028,   0.00011,  -0.00059,111648496.00000,   0.00000,274640576.00000,   0.00000,   0.00000,   0.00000,-362992080.00000,   0.00000
88603239.25503,63509128.95732,-46443007.33536,   0.00028,   0.00012,  -0.00060,113250936.00000,   0.00000,274640576.00000,   0.00000,   0.00000,   0.00000,-361389632.00000,   0.00000
89548403.48470,64336147.65828,-47258211.48345,   0.00028,   0.00012,  -0.00061,114861520.00000,   0.00000,274640576.00000,   0.00000,   0.00000,   0.00000,-359779056.00000,   0.00000
90481753.16150,65174980.91211,-48067508.35510,   0.00028,   0.00012,  -0.00062,116462360.00000,   0.00000,274640576.00000,   0.00000,   0.00000,   0.00000,-358178208.00000,   0.00000
91385566.45612,65984277.78377,-48888619.77963,   0.00029,   0.00012,  -0.00064,118060064.00000,   0.00000,274640576.00000,   0.00000,   0.00000,   0.00000,-356580512.00000,   0.00000
92298240.66540,66814250.12295,-49709731.20415,   0.00029,   0.00012,  -0.00065,119668224.00000,   0.00000,274640576.00000,   0.00000,   0.00000,   0.00000,-354972352.00000,   0.00000
93190239.40715,67635361.54747,-50530842.62868,   0.00029,   0.00013,  -0.00066,121267688.00000,   0.00000,274640576.00000,   0.00000,   0.00000,   0.00000,-353372896.00000,   0.00000
94082238.14890,68456472.97200,-51351954.05320,   0.00029,   0.00013,  -0.00067,122870480.00000,   0.00000,274640576.00000,   0.00000,   0.00000,   0.00000,-351770096.00000,   0.00000
94953561.42312,69268723.48187,-52178972.75416,   0.00030,   0.00013,  -0.00068,124472328.00000,   0.00000,274640576.00000,   0.00000,   0.00000,   0.00000,-350168256.00000,   0.00000
95804209.22982,70072113.07709,-53011898.73156,   0.00030,   0.00013,  -0.00069,126073528.00000,   0.00000,274640576.00000,   0.00000,   0.00000,   0.00000,-348567040.00000,   0.00000
96684393.41870,70905039.05448,-53838917.43252,   0.00030,   0.00013,  -0.00070,127689952.00000,   0.00000,274640576.00000,   0.00000,   0.00000,   0.00000,-346950624.00000,   0.00000
97514365.75788,71699567.73505,-54677750.68635,   0.00030,   0.00014,  -0.00071,129293416.00000,   0.00000,274640576.00000,   0.00000,   0.00000,   0.00000,-345347168.00000,   0.00000
98353199.01171,72514771.88314,-55510676.66375,   0.00031,   0.00014,  -0.00072,130899824.00000,   0.00000,274640576.00000,   0.00000,   0.00000,   0.00000,-343740752.00000,   0.00000
99171356.79802,73321115.11657,-56349509.91758,   0.00031,   0.00014,  -0.00073,132504744.00000,   0.00000,274640576.00000,   0.00000,   0.00000,   0.00000,-342135840.00000,   0.00000
99989514.58433,74127458.35001,-57188343.17141,   0.00031,   0.00014,  -0.00074,134111504.00000,   0.00000,274640576.00000,   0.00000,   0.00000,   0.00000,-340529072.00000,   0.00000
100786996.90311,74924940.66879,-58033083.70168,   0.00031,   0.00014,  -0.00075,135716016.00000,   0.00000,274640576.00000,   0.00000,   0.00000,   0.00000,-338924560.00000,   0.00000
101584479.22189,75722422.98758,-58877824.23194,   0.00031,   0.00015,  -0.00077,137322000.00000,   0.00000,274640576.00000,   0.00000,   0.00000,   0.00000,-337318576.00000,   0.00000
102361286.07315,76511044.39171,-59722564.76221,   0.00032,   0.00015,  -0.00078,138917808.00000,   0.00000,274640576.00000,   0.00000,   0.00000,   0.00000,-335722768.00000,   0.00000
103146953.83907,77320341.26336,-60573212.56891,   0.00032,   0.00015,  -0.00079,140530144.00000,   0.00000,274640576.00000,   0.00000,   0.00000,   0.00000,-334110432.00000,   0.00000
103911946.13745,78120777.22036,-61423860.37561,   0.00032,   0.00015,  -0.00080,142132192.00000,   0.00000,274640576.00000,   0.00000,   0.00000,   0.00000,-332508384.00000,   0.00000
104676938.43584,78921213.17736,-62274508.18232,   0.00032,   0.00015,  -0.00081,143735072.00000,   0.00000,274640576.00000,   0.00000,   0.00000,   0.00000,-330905504.00000,   0.00000
105412394.35205,79692112.75219,-63131063.26545,   0.00032,   0.00016,  -0.00082,145327632.00000,   0.00000,274640576.00000,   0.00000,   0.00000,   0.00000,-329312944.00000,   0.00000
106165572.09757,80504363.26206,-63987618.34859,   0.00033,   0.00016,  -0.00083,146936768.00000,   0.00000,274640576.00000,   0.00000,   0.00000,   0.00000,-327703808.00000,   0.00000
106889213.46091,81287077.38975,-64850080.70816,   0.00033,   0.00016,  -0.00084,148535792.00000,   0.00000,274640576.00000,   0.00000,   0.00000,   0.00000,-326104784.00000,   0.00000
107592179.35673,82060930.60279,-65706635.79130,   0.00033,   0.00016,  -0.00085,150117264.00000,   0.00000,274640576.00000,   0.00000,   0.00000,   0.00000,-324523312.00000,   0.00000
108324681.63472,82864320.19801,-66569098.15087,   0.00033,   0.00017,  -0.00087,151726208.00000,   0.00000,274640576.00000,   0.00000,   0.00000,   0.00000,-322914368.00000,   0.00000
109015832.97767,83649987.96392,-67431560.51045,   0.00033,   0.00017,  -0.00088,153314672.00000,   0.00000,274640576.00000,   0.00000,   0.00000,   0.00000,-321325904.00000,   0.00000
109706984.32061,84435655.72984,-68299930.14646,   0.00033,   0.00017,  -0.00089,154912512.00000,   0.00000,274640576.00000,   0.00000,   0.00000,   0.00000,-319728064.00000,   0.00000
110398135.66356,85221323.49575,-69168299.78246,   0.00034,   0.00017,  -0.00090,156511600.00000,   0.00000,274640576.00000,   0.00000,   0.00000,   0.00000,-318128976.00000,   0.00000
111068611.53898,85998130.34701,-70036669.41847,   0.00034,   0.00017,  -0.00091,158101728.00000,   0.00000,274640576.00000,   0.00000,   0.00000,   0.00000,-316538848.00000,   0.00000
111739087.41440,86774937.19827,-70905039.05448,   0.00034,   0.00018,  -0.00092,159693456.00000,   0.00000,274640576.00000,   0.00000,   0.00000,   0.00000,-314947120.00000,   0.00000
112397748.73695,87563558.60240,-71779315.96693,   0.00034,   0.00018,  -0.00093,161292032.00000,   0.00000,274640576.00000,   0.00000,   0.00000,   0.00000,-313348544.00000,   0.00000
113047549.14485,88331504.53900,-72653592.87937,   0.00034,   0.00018,  -0.00094,162884848.00000,   0.00000,274640576.00000,   0.00000,   0.00000,   0.00000,-311755728.00000,   0.00000
113685534.99987,89111265.02848,-73527869.79181,   0.00034,   0.00018,  -0.00096,164476880.00000,   0.00000,274640576.00000,   0.00000,   0.00000,   0.00000,-310163696.00000,   0.00000
114323520.85490,89891025.51796,-74402146.70426,   0.00034,   0.00019,  -0.00097,166070928.00000,   0.00000,274640576.00000,   0.00000,   0.00000,   0.00000,-308569648.00000,   0.00000
114940831.24240,90661925.09278,-75282330.89314,   0.00035,   0.00019,  -0.00098,167664896.00000,   0.00000,274640576.00000,   0.00000,   0.00000,   0.00000,-306975680.00000,   0.00000
115567002.54456,91453500.13513,-76162515.08202,   0.00035,   0.00019,  -0.00099,169268672.00000,   0.00000,274640576.00000,   0.00000,   0.00000,   0.00000,-305371904.00000,   0.00000
116163637.46454,92215538.79530,-77042699.27089,   0.00035,   0.00019,  -0.00100,170856720.00000,   0.00000,274640576.00000,   0.00000,   0.00000,   0.00000,-303783856.00000,   0.00000
116769133.29917,92998252.92299,-77922883.45977,   0.00035,   0.00020,  -0.00101,172454768.00000,   0.00000,274640576.00000,   0.00000,   0.00000,   0.00000,-302185808.00000,   0.00000
117374629.13380,93780967.05069,-78808974.92509,   0.00035,   0.00020,  -0.00102,174063136.00000,   0.00000,274640576.00000,   0.00000,   0.00000,   0.00000,-300577440.00000,   0.00000
117959449.50091,94554820.26373,-79695066.39040,   0.00035,   0.00020,  -0.00104,175663504.00000,   0.00000,274640576.00000,   0.00000,   0.00000,   0.00000,-298977072.00000,   0.00000
118544269.86802,95328673.47677,-80581157.85572,   0.00035,   0.00020,  -0.00105,177265920.00000,   0.00000,274640576.00000,   0.00000,   0.00000,   0.00000,-297374656.00000,   0.00000
119108414.76760,96093665.77516,-81467249.32103,   0.00035,   0.00020,  -0.00106,178860432.00000,   0.00000,274640576.00000,   0.00000,   0.00000,   0.00000,-295780144.00000,   0.00000
119681420.58184,96879333.54107,-82353340.78635,   0.00036,   0.00021,  -0.00107,180464640.00000,   0.00000,274640576.00000,   0.00000,   0.00000,   0.00000,-294175936.00000,   0.00000
120233750.92855,97656140.39233,-83245339.52810,   0.00036,   0.00021,  -0.00108,182068656.00000,   0.00000,274640576.00000,   0.00000,   0.00000,   0.00000,-292571920.00000,   0.00000
120777220.36061,98412271.77607,-84137338.26985,   0.00036,   0.00021,  -0.00109,183666528.00000,   0.00000,274640576.00000,   0.00000,   0.00000,   0.00000,-290974048.00000,   0.00000
121317736.15445,99200893.18020,-85023429.73516,   0.00036,   0.00021,  -0.00111,185263184.00000,   0.00000,274640576.00000,   0.00000,   0.00000,   0.00000,-289377392.00000,   0.00000
121849391.03364,99968839.11680,-85915428.47691,   0.00036,   0.00022,  -0.00112,186861376.00000,   0.00000,274640576.00000,   0.00000,   0.00000,   0.00000,-287779200.00000,   0.00000
122381045.91283,100736785.05341,-86813334.49510,   0.00036,   0.00022,  -0.00113,188468640.00000,   0.00000,274640576.00000,   0.00000,   0.00000,   0.00000,-286171936.00000,   0.00000
122921561.70667,101525406.45754,-87705333.23685,   0.00036,   0.00022,  -0.00114,190076160.00000,   0.00000,274640576.00000,   0.00000,   0.00000,   0.00000,-284564416.00000,   0.00000
123411865.65081,102275630.56484,-88603239.25503,   0.00036,   0.00022,  -0.00115,191664640.00000,   0.00000,274640576.00000,   0.00000,   0.00000,   0.00000,-282975936.00000,   0.00000
123931705.97713,103055391.05432,-89495237.99678,   0.00036,   0.00023,  -0.00116,193262976.00000,   0.00000,274640576.00000,   0.00000,   0.00000,   0.00000,-281377600.00000,   0.00000
124430870.83592,103826290.62914,-90393144.01497,   0.00036,   0.00023,  -0.00118,194859600.00000,   0.00000,274640576.00000,   0.00000,   0.00000,   0.00000,-279780976.00000,   0.00000
124938896.60937,104617865.67149,-91291050.03315,   0.00036,   0.00023,  -0.00119,196463888.00000,   0.00000,274640576.00000,   0.00000,   0.00000,   0.00000,-278176688.00000,   0.00000
125417386.00064,105379904.33166,-92188956.05134,   0.00037,   0.00023,  -0.00120,198050896.00000,   0.00000,274640576.00000,   0.00000,   0.00000,   0.00000,-276589680.00000,   0.00000
125904736.30656,106162618.45935,-93086862.06953,   0.00037,   0.00024,  -0.00121,199645680.00000,   0.00000,274640576.00000,   0.00000,   0.00000,   0.00000,-274994896.00000,   0.00000
126383225.69783,106924657.11952,-93984768.08771,   0.00037,   0.00024,  -0.00122,201233152.00000,   0.00000,274640576.00000,   0.00000,   0.00000,   0.00000,-273407424.00000,   0.00000
126849900.53623,107698510.33256,-94888581.38233,   0.00037,   0.00024,  -0.00123,202827808.00000,   0.00000,274640576.00000,   0.00000,   0.00000,   0.00000,-271812768.00000,   0.00000
127316575.37463,108472363.54561,-95786487.40052,   0.00037,   0.00025,  -0.00125,204415760.00000,   0.00000,274640576.00000,   0.00000,   0.00000,   0.00000,-270224816.00000,   0.00000
127792111.12768,109266892.22617,-96690300.69514,   0.00037,   0.00025,  -0.00126,206021504.00000,   0.00000,274640576.00000,   0.00000,   0.00000,   0.00000,-268619072.00000,   0.00000
128238110.49856,110031884.52456,-97588206.71332,   0.00037,   0.00025,  -0.00127,207604640.00000,   0.00000,274640576.00000,   0.00000,   0.00000,   0.00000,-267035936.00000,   0.00000
128692970.78409,110817552.29047,-98492020.00795,   0.00037,   0.00025,  -0.00128,209206944.00000,   0.00000,274640576.00000,   0.00000,   0.00000,   0.00000,-265433632.00000,   0.00000
129147831.06962,111603220.05638,-99395833.30257,   0.00037,   0.00026,  -0.00129,210812736.00000,   0.00000,274640576.00000,   0.00000,   0.00000,   0.00000,-263827840.00000,   0.00000
129582015.88762,112380026.90764,-100293739.32075,   0.00037,   0.00026,  -0.00130,212404688.00000,   0.00000,274640576.00000,   0.00000,   0.00000,   0.00000,-262235888.00000,   0.00000
130016200.70562,113156833.75890,-101197552.61537,   0.00037,   0.00026,  -0.00132,214008272.00000,   0.00000,274640576.00000,   0.00000,   0.00000,   0.00000,-260632304.00000,   0.00000
130450385.52363,113933640.61016,-102101365.90999,   0.00037,   0.00026,  -0.00133,215614688.00000,   0.00000,274640576.00000,   0.00000,   0.00000,   0.00000,-259025888.00000,   0.00000
130872755.78876,114722262.01429,-103005179.20461,   0.00037,   0.00027,  -0.00134,217221712.00000,   0.00000,274640576.00000,   0.00000,   0.00000,   0.00000,-257418864.00000,   0.00000
131286265.13924,115490207.95090,-103908992.49924,   0.00037,   0.00027,  -0.00135,218822048.00000,   0.00000,274640576.00000,   0.00000,   0.00000,   0.00000,-255818528.00000,   0.00000
131708635.40438,116278829.35503,-104812805.79386,   0.00037,   0.00027,  -0.00136,220430480.00000,   0.00000,274640576.00000,   0.00000,   0.00000,   0.00000,-254210096.00000,   0.00000
132110330.20198,117058589.84451,-105716619.08848,   0.00037,   0.00028,  -0.00137,222030016.00000,   0.00000,274640576.00000,   0.00000,   0.00000,   0.00000,-252610560.00000,   0.00000
132520885.91425,117859025.80151,-106620432.38310,   0.00037,   0.00028,  -0.00139,223637632.00000,   0.00000,274640576.00000,   0.00000,   0.00000,   0.00000,-251002944.00000,   0.00000
132922580.71186,118638786.29098,-107524245.67772,   0.00037,   0.00028,  -0.00140,225238144.00000,   0.00000,274640576.00000,   0.00000,   0.00000,   0.00000,-249402432.00000,   0.00000
133312460.95659,119430361.33333,-108428058.97234,   0.00037,   0.00028,  -0.00141,226838800.00000,   0.00000,274640576.00000,   0.00000,   0.00000,   0.00000,-247801776.00000,   0.00000
133714155.75420,120210121.82281,-109331872.26696,   0.00037,   0.00029,  -0.00142,228442400.00000,   0.00000,274640576.00000,   0.00000,   0.00000,   0.00000,-246198176.00000,   0.00000
134104035.99894,121001696.86516,-110235685.56158,   0.00037,   0.00029,  -0.00143,230047248.00000,   0.00000,274640576.00000,   0.00000,   0.00000,   0.00000,-244593328.00000,   0.00000
134473240.77616,121784410.99285,-111139498.85620,   0.00037,   0.00029,  -0.00144,231646096.00000,   0.00000,274640576.00000,   0.00000,   0.00000,   0.00000,-242994480.00000,   0.00000
134871981.93555,122596661.50272,-112043312.15082,   0.00037,   0.00029,  -0.00146,233264448.00000,   0.00000,274640576.00000,   0.00000,   0.00000,   0.00000,-241376128.00000,   0.00000
135241186.71276,123379375.63042,-112947125.44545,   0.00037,   0.00030,  -0.00147,234869408.00000,   0.00000,274640576.00000,   0.00000,   0.00000,   0.00000,-239771168.00000,   0.00000
135619252.40463,124182765.22564,-113850938.74007,   0.00037,   0.00030,  -0.00148,236485280.00000,   0.00000,274640576.00000,   0.00000,   0.00000,   0.00000,-238155296.00000,   0.00000
135967781.71432,124956618.43868,-114748844.75825,   0.00037,   0.00030,  -0.00149,238079152.00000,   0.00000,274640576.00000,   0.00000,   0.00000,   0.00000,-236561424.00000,   0.00000
136345847.40619,125760008.03390,-115652658.05287,   0.00038,   0.00031,  -0.00150,239699648.00000,   0.00000,274640576.00000,   0.00000,   0.00000,   0.00000,-234940928.00000,   0.00000
136703237.63053,126554536.71446,-116556471.34749,   0.00038,   0.00031,  -0.00152,241312608.00000,   0.00000,274640576.00000,   0.00000,   0.00000,   0.00000,-233327968.00000,   0.00000
137069488.76953,127369740.86255,-117454377.36568,   0.00038,   0.00031,  -0.00153,242923808.00000,   0.00000,274640576.00000,   0.00000,   0.00000,   0.00000,-231716768.00000,   0.00000
137426878.99387,128164269.54312,-118358190.66030,   0.00038,   0.00032,  -0.00154,244534112.00000,   0.00000,274640576.00000,   0.00000,   0.00000,   0.00000,-230106464.00000,   0.00000
137772454.66535,128970612.77655,-119256096.67849,   0.00038,   0.00032,  -0.00155,246136464.00000,   0.00000,274640576.00000,   0.00000,   0.00000,   0.00000,-228504112.00000,   0.00000
138138705.80434,129785816.92464,-120159909.97311,   0.00038,   0.00032,  -0.00156,247770912.00000,   0.00000,274640576.00000,   0.00000,   0.00000,   0.00000,-226869664.00000,   0.00000
138484281.47581,130592160.15808,-121057815.99129,   0.00038,   0.00032,  -0.00157,249421088.00000,   0.00000,274640576.00000,   0.00000,   0.00000,   0.00000,-225219488.00000,   0.00000
138829857.14729,131398503.39152,-121955722.00948,   0.00038,   0.00033,  -0.00159,251098352.00000,   0.00000,274640576.00000,   0.00000,   0.00000,   0.00000,-223542224.00000,   0.00000
139154757.35124,132195985.71030,-122853628.02766,   0.00038,   0.00033,  -0.00160,252757248.00000,   0.00000,274640576.00000,   0.00000,   0.00000,   0.00000,-221883328.00000,   0.00000
139500333.02271,133002328.94373,-123751534.04585,   0.00038,   0.00033,  -0.00161,254391040.00000,   0.00000,274640576.00000,   0.00000,   0.00000,   0.00000,-220249536.00000,   0.00000
139834094.14131,133820486.73004,-124649440.06403,   0.00038,   0.00034,  -0.00162,256002176.00000,   0.00000,274640576.00000,   0.00000,   0.00000,   0.00000,-218638400.00000,   0.00000
140167855.25991,134638644.51635,-125547346.08222,   0.00038,   0.00034,  -0.00163,257608624.00000,   0.00000,274640576.00000,   0.00000,   0.00000,   0.00000,-217031952.00000,   0.00000
140501616.37851,135456802.30266,-126439344.82397,   0.00038,   0.00034,  -0.00164,259210080.00000,   0.00000,274640576.00000,   0.00000,   0.00000,   0.00000,-215430496.00000,   0.00000
140835377.49712,136274960.08896,-127337250.84216,   0.00038,   0.00035,  -0.00166,260824848.00000,   0.00000,274640576.00000,   0.00000,   0.00000,   0.00000,-213815728.00000,   0.00000
141169138.61572,137093117.87527,-128229249.58391,   0.00037,   0.00035,  -0.00167,262434832.00000,   0.00000,274640576.00000,   0.00000,   0.00000,   0.00000,-212205744.00000,   0.00000
141482224.26680,137902414.74692,-129121248.32566,   0.00037,   0.00035,  -0.00168,264039344.00000,   0.00000,274640576.00000,   0.00000,   0.00000,   0.00000,-210601232.00000,   0.00000
141824846.30005,138741248.00076,-130013247.06741,   0.00037,   0.00035,  -0.00169,265660560.00000,   0.00000,274640576.00000,   0.00000,   0.00000,   0.00000,-208980016.00000,   0.00000
142146792.86578,139571220.33993,-130905245.80916,   0.00037,   0.00036,  -0.00170,267274928.00000,   0.00000,274640576.00000,   0.00000,   0.00000,   0.00000,-207365648.00000,   0.00000
142468739.43151,140401192.67911,-131791337.27447,   0.00037,   0.00036,  -0.00171,268880992.00000,   0.00000,274640576.00000,   0.00000,   0.00000,   0.00000,-205759584.00000,   0.00000
142790685.99724,141231165.01829,-132683336.01622,   0.00037,   0.00036,  -0.00172,270496352.00000,   0.00000,274640576.00000,   0.00000,   0.00000,   0.00000,-204144224.00000,   0.00000
143091957.09545,142052276.44282,-133569427.48154,   0.00037,   0.00037,  -0.00174,272095744.00000,   0.00000,274640576.00000,   0.00000,   0.00000,   0.00000,-202544832.00000,   0.00000
143413903.66118,142882248.78199,-134455518.94685,   0.00037,   0.00037,  -0.00175,273703360.00000,   0.00000,274640576.00000,   0.00000,   0.00000,   0.00000,-200937216.00000,   0.00000
143744711.14157,143732896.58870,-135341610.41217,   0.00037,   0.00037,  -0.00176,275319168.00000,   0.00000,274640576.00000,   0.00000,   0.00000,   0.00000,-199321408.00000,   0.00000
144045982.23977,144554008.01322,-136221794.60104,   0.00037,   0.00038,  -0.00177,276911776.00000,   0.00000,274640576.00000,   0.00000,   0.00000,   0.00000,-197728800.00000,   0.00000
144356114.25263,145395794.90527,-137107886.06636,   0.00037,   0.00038,  -0.00178,278521664.00000,   0.00000,274640576.00000,   0.00000,   0.00000,   0.00000,-196118912.00000,   0.00000
144666246.26549,146237581.79732,-137988070.25524,   0.00037,   0.00038,  -0.00179,280123872.00000,   0.00000,274640576.00000,   0.00000,   0.00000,   0.00000,-194516704.00000,   0.00000
144997053.74588,147088229.60402,-138868254.44412,   0.00037,   0.00039,  -0.00181,281734752.00000,   0.00000,274640576.00000,   0.00000,   0.00000,   0.00000,-192905824.00000,   0.00000
145307185.75874,147930016.49607,-139742531.35656,   0.00037,   0.00039,  -0.00182,283330496.00000,   0.00000,274640576.00000,   0.00000,   0.00000,   0.00000,-191310080.00000,   0.00000
145605503.21873,148783617.94099,-140622715.54544,   0.00037,   0.00039,  -0.00183,284936384.00000,   0.00000,274640576.00000,   0.00000,   0.00000,   0.00000,-189704192.00000,   0.00000
145915635.23159,149625404.83304,-141496992.45788,   0.00037,   0.00040,  -0.00184,286534528.00000,   0.00000,274640576.00000,   0.00000,   0.00000,   0.00000,-188106048.00000,   0.00000
146234628.15910,150487867.19261,-142371269.37033,   0.00037,   0.00040,  -0.00185,288141696.00000,   0.00000,274640576.00000,   0.00000,   0.00000,   0.00000,-186498880.00000,   0.00000
146553621.08661,151350329.55218,-143239639.00634,   0.00037,   0.00040,  -0.00186,289741376.00000,   0.00000,274640576.00000,   0.00000,   0.00000,   0.00000,-184899200.00000,   0.00000
146851938.54660,152203930.99710,-144113915.91878,   0.00037,   0.00041,  -0.00187,291343552.00000,   0.00000,274640576.00000,   0.00000,   0.00000,   0.00000,-183297024.00000,   0.00000
147170931.47412,153066393.35668,-144982285.55479,   0.00037,   0.00041,  -0.00188,292945504.00000,   0.00000,274640576.00000,   0.00000,   0.00000,   0.00000,-181695072.00000,   0.00000
147469248.93411,153919994.80160,-145850655.19080,   0.00037,   0.00041,  -0.00190,294541152.00000,   0.00000,274640576.00000,   0.00000,   0.00000,   0.00000,-180099424.00000,   0.00000
147788241.86162,154782457.16117,-146713117.55037,   0.00037,   0.00042,  -0.00191,296136384.00000,   0.00000,274640576.00000,   0.00000,   0.00000,   0.00000,-178504192.00000,   0.00000
148095420.23626,155656734.07361,-147575579.90994,   0.00037,   0.00042,  -0.00192,297733024.00000,   0.00000,274640576.00000,   0.00000,   0.00000,   0.00000,-176907552.00000,   0.00000
148393737.69625,156510335.51853,-148438042.26952,   0.00037,   0.00042,  -0.00193,299322624.00000,   0.00000,274640576.00000,   0.00000,   0.00000,   0.00000,-175317952.00000,   0.00000
148721591.53842,157393473.34563,-149300504.62909,   0.00037,   0.00043,  -0.00194,300928384.00000,   0.00000,274640576.00000,   0.00000,   0.00000,   0.00000,-173712192.00000,   0.00000
149028769.91306,158267750.25807,-150157059.71223,   0.00037,   0.00043,  -0.00195,302518624.00000,   0.00000,274640576.00000,   0.00000,   0.00000,   0.00000,-172121952.00000,   0.00000
149335948.28770,159142027.17052,-151013614.79536,   0.00037,   0.00043,  -0.00196,304109440.00000,   0.00000,274640576.00000,   0.00000,   0.00000,   0.00000,-170531136.00000,   0.00000
149663802.12987,160025164.99761,-151864262.60207,   0.00037,   0.00044,  -0.00197,305699136.00000,   0.00000,274640576.00000,   0.00000,   0.00000,   0.00000,-168941440.00000,   0.00000
149970980.50451,160899441.91006,-152720817.68520,   0.00037,   0.00044,  -0.00199,307290784.00000,   0.00000,274640576.00000,   0.00000,   0.00000,   0.00000,-167349792.00000,   0.00000
150278158.87915,161773718.82250,-153571465.49191,   0.00037,   0.00044,  -0.00200,308873760.00000,   0.00000,274640576.00000,   0.00000,   0.00000,   0.00000,-165766816.00000,   0.00000
150594198.16845,162668671.20247,-154416206.02217,   0.00037,   0.00045,  -0.00201,310455744.00000,   0.00000,274640576.00000,   0.00000,   0.00000,   0.00000,-164184832.00000,   0.00000
150922052.01062,163551809.02957,-155260946.55244,   0.00037,   0.00045,  -0.00202,312037056.00000,   0.00000,274640576.00000,   0.00000,   0.00000,   0.00000,-162603520.00000,   0.00000
151238091.29991,164446761.40954,-156105687.08271,   0.00037,   0.00045,  -0.00203,313618976.00000,   0.00000,274640576.00000,   0.00000,   0.00000,   0.00000,-161021600.00000,   0.00000
151554130.58921,165341713.78950,-156950427.61297,   0.00037,   0.00046,  -0.00204,315200768.00000,   0.00000,274640576.00000,   0.00000,   0.00000,   0.00000,-159439808.00000,   0.00000
151870169.87850,166236666.16947,-157789260.86680,   0.00037,   0.00046,  -0.00205,316773280.00000,   0.00000,274640576.00000,   0.00000,   0.00000,   0.00000,-157867296.00000,   0.00000
152206884.63532,167140479.46409,-158622186.84420,   0.00037,   0.00046,  -0.00206,318343872.00000,   0.00000,274640576.00000,   0.00000,   0.00000,   0.00000,-156296704.00000,   0.00000
152522923.92462,168035431.84406,-159461020.09803,   0.00037,   0.00047,  -0.00207,319916224.00000,   0.00000,274640576.00000,   0.00000,   0.00000,   0.00000,-154724352.00000,   0.00000
152838963.21391,168930384.22403,-160293946.07543,   0.00037,   0.00047,  -0.00208,321479584.00000,   0.00000,274640576.00000,   0.00000,   0.00000,   0.00000,-153160992.00000,   0.00000
153184538.88539,169854872.98617,-161120964.77639,   0.00037,   0.00047,  -0.00209,323048704.00000,   0.00000,274640576.00000,   0.00000,   0.00000,   0.00000,-151591872.00000,   0.00000
153500578.17468,170749825.36614,-161947983.47735,   0.00037,   0.00048,  -0.00211,324603488.00000,   0.00000,274640576.00000,   0.00000,   0.00000,   0.00000,-150037088.00000,   0.00000
153837292.93150,171653638.66076,-162775002.17831,   0.00037,   0.00048,  -0.00212,326165216.00000,   0.00000,274640576.00000,   0.00000,   0.00000,   0.00000,-148475360.00000,   0.00000
154162193.13545,172569266.50825,-163596113.60283,   0.00036,   0.00048,  -0.00213,327719520.00000,   0.00000,274640576.00000,   0.00000,   0.00000,   0.00000,-146921056.00000,   0.00000
154507768.80692,173493755.27040,-164417225.02736,   0.00036,   0.00049,  -0.00214,329281248.00000,   0.00000,274640576.00000,   0.00000,   0.00000,   0.00000,-145359328.00000,   0.00000
154832669.01087,174409383.11789,-165232429.17545,   0.00036,   0.00049,  -0.00215,330828160.00000,   0.00000,274640576.00000,   0.00000,   0.00000,   0.00000,-143812416.00000,   0.00000
155169383.76769,175313196.41251,-166047633.32354,   0.00036,   0.00050,  -0.00216,332374944.00000,   0.00000,274640576.00000,   0.00000,   0.00000,   0.00000,-142265632.00000,   0.00000
155514959.43916,176237685.17466,-166862837.47163,   0.00036,   0.00050,  -0.00217,333930560.00000,   0.00000,274640576.00000,   0.00000,   0.00000,   0.00000,-140710016.00000,   0.00000
155869396.02529,177182849.40433,-167672134.34328,   0.00036,   0.00050,  -0.00218,335486336.00000,   0.00000,274640576.00000,   0.00000,   0.00000,   0.00000,-139154240.00000,   0.00000
156214971.69676,178107338.16647,-168475523.93850,   0.00036,   0.00051,  -0.00219,337026720.00000,   0.00000,274640576.00000,   0.00000,   0.00000,   0.00000,-137613856.00000,   0.00000
156560547.36823,179031826.92862,-169284820.81015,   0.00036,   0.00051,  -0.00220,338577376.00000,   0.00000,274640576.00000,   0.00000,   0.00000,   0.00000,-136063200.00000,   0.00000
156906123.03971,179956315.69076,-170082303.12894,   0.00036,   0.00051,  -0.00221,340111872.00000,   0.00000,274640576.00000,   0.00000,   0.00000,   0.00000,-134528704.00000,   0.00000
157281235.09336,180910340.83508,-170879785.44772,   0.00036,   0.00052,  -0.00222,341662144.00000,   0.00000,274640576.00000,   0.00000,   0.00000,   0.00000,-132978432.00000,   0.00000
157626810.76483,181834829.59723,-171677267.76650,   0.00036,   0.00052,  -0.00223,343199456.00000,   0.00000,274640576.00000,   0.00000,   0.00000,   0.00000,-131441120.00000,   0.00000
157981247.35096,182779993.82690,-172468842.80885,   0.00036,   0.00052,  -0.00224,344737216.00000,   0.00000,274640576.00000,   0.00000,   0.00000,   0.00000,-129903360.00000,   0.00000
158347498.48995,183713343.50369,-173260417.85120,   0.00036,   0.00053,  -0.00225,346274976.00000,   0.00000,274640576.00000,   0.00000,   0.00000,   0.00000,-128365600.00000,   0.00000
158722610.54360,184667368.64802,-174046085.61711,   0.00036,   0.00053,  -0.00226,347813184.00000,   0.00000,274640576.00000,   0.00000,   0.00000,   0.00000,-126827392.00000,   0.00000
159097722.59725,185621393.79234,-174831753.38302,   0.00036,   0.00053,  -0.00227,349352384.00000,   0.00000,274640576.00000,   0.00000,   0.00000,   0.00000,-125288192.00000,   0.00000
159463973.73625,186554743.46914,-175611513.87250,   0.00036,   0.00054,  -0.00228,350876000.00000,   0.00000,274640576.00000,   0.00000,   0.00000,   0.00000,-123764576.00000,   0.00000
159839085.78990,187508768.61346,-176385367.08554,   0.00036,   0.00054,  -0.00229,352399744.00000,   0.00000,274640576.00000,   0.00000,   0.00000,   0.00000,-122240832.00000,   0.00000
160214197.84355,188462793.75778,-177159220.29858,   0.00036,   0.00055,  -0.00230,353924416.00000,   0.00000,274640576.00000,   0.00000,   0.00000,   0.00000,-120716160.00000,   0.00000
160589309.89720,189416818.90210,-177933073.51162,   0.00036,   0.00055,  -0.00231,355449888.00000,   0.00000,274640576.00000,   0.00000,   0.00000,   0.00000,-119190688.00000,   0.00000
160985097.41837,190379704.96108,-178701019.44823,   0.00036,   0.00055,  -0.00232,356973792.00000,   0.00000,274640576.00000,   0.00000,   0.00000,   0.00000,-117666784.00000,   0.00000
161380884.93955,191342591.02005,-179463058.10840,   0.00036,   0.00056,  -0.00233,358489504.00000,   0.00000,274640576.00000,   0.00000,   0.00000,   0.00000,-116151072.00000,   0.00000
161776672.46072,192305477.07903,-180225096.76857,   0.00036,   0.00056,  -0.00234,360005696.00000,   0.00000,274640576.00000,   0.00000,   0.00000,   0.00000,-114634880.00000,   0.00000
162172459.98189,193268363.13800,-180987135.42874,   0.00036,   0.00056,  -0.00235,361522336.00000,   0.00000,274640576.00000,   0.00000,   0.00000,   0.00000,-113118240.00000,   0.00000
162577108.41772,194251924.66450,-181743266.81248,   0.00036,   0.00057,  -0.00236,363038336.00000,   0.00000,274640576.00000,   0.00000,   0.00000,   0.00000,-111602240.00000,   0.00000
162972895.93890,195214810.72348,-182493490.91978,   0.00036,   0.00057,  -0.00237,364537664.00000,   0.00000,274640576.00000,   0.00000,   0.00000,   0.00000,-110102912.00000,   0.00000
163389358.92759,196186557.69711,-183237807.75064,   0.00036,   0.00057,  -0.00238,366034656.00000,   0.00000,274640576.00000,   0.00000,   0.00000,   0.00000,-108605920.00000,   0.00000
163785146.44877,197149443.75608,-183982124.58151,   0.00036,   0.00058,  -0.00239,367525152.00000,   0.00000,274640576.00000,   0.00000,   0.00000,   0.00000,-107115424.00000,   0.00000
164210470.35212,198141866.19724,-184726441.41237,   0.00036,   0.00058,  -0.00240,369030080.00000,   0.00000,274640576.00000,   0.00000,   0.00000,   0.00000,-105610496.00000,   0.00000
164647608.80834,199122474.08552,-185464850.96680,   0.00036,   0.00058,  -0.00241,370524192.00000,   0.00000,274640576.00000,   0.00000,   0.00000,   0.00000,-104116384.00000,   0.00000
165064071.79704,200094221.05915,-186197353.24479,   0.00036,   0.00059,  -0.00242,372002656.00000,   0.00000,274640576.00000,   0.00000,   0.00000,   0.00000,-102637920.00000,   0.00000
165489395.70039,201086643.50030,-186929855.52279,   0.00036,   0.00059,  -0.00243,373489056.00000,   0.00000,274640576.00000,   0.00000,   0.00000,   0.00000,-101151520.00000,   0.00000
165926534.15661,202067251.38858,-187656450.52434,   0.00036,   0.00060,  -0.00244,374964448.00000,   0.00000,274640576.00000,   0.00000,   0.00000,   0.00000,-99676128.00000,   0.00000
166372533.52749,203068534.74438,-188377138.24947,   0.00036,   0.00060,  -0.00245,376438816.00000,   0.00000,274640576.00000,   0.00000,   0.00000,   0.00000,-98201760.00000,   0.00000
166809671.98371,204049142.63267,-189097825.97459,   0.00036,   0.00060,  -0.00246,377904704.00000,   0.00000,274640576.00000,   0.00000,   0.00000,   0.00000,-96735872.00000,   0.00000
167255671.35458,205050425.98847,-189812606.42328,   0.00036,   0.00061,  -0.00247,379369728.00000,   0.00000,274640576.00000,   0.00000,   0.00000,   0.00000,-95270848.00000,   0.00000
167713485.27833,206039894.79141,-190527386.87196,   0.00036,   0.00061,  -0.00248,380832768.00000,   0.00000,274640576.00000,   0.00000,   0.00000,   0.00000,-93807808.00000,   0.00000
168180160.11673,207050039.06187,-191236260.04422,   0.00036,   0.00061,  -0.00249,382295232.00000,   0.00000,274640576.00000,   0.00000,   0.00000,   0.00000,-92345344.00000,   0.00000
168637974.04047,208039507.86480,-191939225.94003,   0.00036,   0.00062,  -0.00250,383740864.00000,   0.00000,274640576.00000,   0.00000,   0.00000,   0.00000,-90899712.00000,   0.00000
169104648.87887,209049652.13526,-192636284.55941,   0.00036,   0.00062,  -0.00250,385186592.00000,   0.00000,274640576.00000,   0.00000,   0.00000,   0.00000,-89453984.00000,   0.00000
169583138.27014,210047981.85285,-193333343.17879,   0.00036,   0.00063,  -0.00251,386631072.00000,   0.00000,274640576.00000,   0.00000,   0.00000,   0.00000,-88009504.00000,   0.00000
170049813.10854,211058126.12331,-194030401.79817,   0.00036,   0.00063,  -0.00252,388078656.00000,   0.00000,274640576.00000,   0.00000,   0.00000,   0.00000,-86561920.00000,   0.00000
170528302.49981,212056455.84089,-194715645.86468,   0.00036,   0.00063,  -0.00253,389508128.00000,   0.00000,274640576.00000,   0.00000,   0.00000,   0.00000,-85132448.00000,   0.00000
171006791.89108,213054785.55848,-195400889.93119,   0.00036,   0.00064,  -0.00254,390939456.00000,   0.00000,274640576.00000,   0.00000,   0.00000,   0.00000,-83701120.00000,   0.00000
171514817.66453,214082651.65825,-196086133.99770,   0.00036,   0.00064,  -0.00255,392387328.00000,   0.00000,274640576.00000,   0.00000,   0.00000,   0.00000,-82253248.00000,   0.00000
172013982.52332,215089842.29049,-196759563.51134,   0.00036,   0.00064,  -0.00256,393811616.00000,   0.00000,274640576.00000,   0.00000,   0.00000,   0.00000,-80828960.00000,   0.00000
172522008.29677,216117708.39025,-197432993.02498,   0.00036,   0.00065,  -0.00257,395246400.00000,   0.00000,274640576.00000,   0.00000,   0.00000,   0.00000,-79394176.00000,   0.00000
173021173.15556,217124899.02249,-198100515.26219,   0.00036,   0.00065,  -0.00258,396665856.00000,   0.00000,274640576.00000,   0.00000,   0.00000,   0.00000,-77974720.00000,   0.00000
173520338.01436,218132089.65473,-198768037.49939,   0.00036,   0.00065,  -0.00258,398086688.00000,   0.00000,274640576.00000,   0.00000,   0.00000,   0.00000,-76553888.00000,   0.00000
174049039.25533,219168816.66915,-199429652.46016,   0.00036,   0.00066,  -0.00259,399513888.00000,   0.00000,274640576.00000,   0.00000,   0.00000,   0.00000,-75126688.00000,   0.00000
174568879.58165,220184868.21605,-200085360.14449,   0.00036,   0.00066,  -0.00260,400922816.00000,   0.00000,274640576.00000,   0.00000,   0.00000,   0.00000,-73717760.00000,   0.00000
175109395.37549,221209780.67759,-200735160.55239,   0.00037,   0.00067,  -0.00261,402326944.00000,   0.00000,274640576.00000,   0.00000,   0.00000,   0.00000,-72313632.00000,   0.00000
175629235.70181,222225832.22449,-201384960.96029,   0.00037,   0.00067,  -0.00262,403721696.00000,   0.00000,274640576.00000,   0.00000,   0.00000,   0.00000,-70918880.00000,   0.00000
176178612.41030,223271420.15356,-202028854.09175,   0.00037,   0.00067,  -0.00263,405118464.00000,   0.00000,274640576.00000,   0.00000,   0.00000,   0.00000,-69522112.00000,   0.00000
176719128.20414,224296332.61511,-202666839.94678,   0.00037,   0.00068,  -0.00263,406495424.00000,   0.00000,274640576.00000,   0.00000,   0.00000,   0.00000,-68145152.00000,   0.00000
177280319.46551,225330105.99131,-203298918.52537,   0.00037,   0.00068,  -0.00264,407868768.00000,   0.00000,274640576.00000,   0.00000,   0.00000,   0.00000,-66771808.00000,   0.00000
177841510.72688,226363879.36751,-203930997.10396,   0.00037,   0.00068,  -0.00265,409242688.00000,   0.00000,274640576.00000,   0.00000,   0.00000,   0.00000,-65397888.00000,   0.00000
178402701.98824,227397652.74371,-204557168.40611,   0.00037,   0.00069,  -0.00266,410609216.00000,   0.00000,274640576.00000,   0.00000,   0.00000,   0.00000,-64031360.00000,   0.00000
178963893.24961,228431426.11991,-205183339.70827,   0.00037,   0.00069,  -0.00267,411976416.00000,   0.00000,274640576.00000,   0.00000,   0.00000,   0.00000,-62664160.00000,   0.00000
179536899.06384,229453384.94324,-205797696.45755,   0.00037,   0.00069,  -0.00268,413322880.00000,   0.00000,274640576.00000,   0.00000,   0.00000,   0.00000,-61317696.00000,   0.00000
180118765.79273,230496019.23409,-206412053.20684,   0.00037,   0.00070,  -0.00268,414677248.00000,   0.00000,274640576.00000,   0.00000,   0.00000,   0.00000,-59963328.00000,   0.00000
180700632.52162,231538653.52495,-207020502.67969,   0.00037,   0.00070,  -0.00269,416024032.00000,   0.00000,274640576.00000,   0.00000,   0.00000,   0.00000,-58616544.00000,   0.00000
181294313.80339,232569473.26293,-207623044.87610,   0.00037,   0.00070,  -0.00270,417362304.00000,   0.00000,274640576.00000,   0.00000,   0.00000,   0.00000,-57278272.00000,   0.00000
181896855.99980,233620968.46844,-208219679.79608,   0.00037,   0.00071,  -0.00271,418702752.00000,   0.00000,274640576.00000,   0.00000,   0.00000,   0.00000,-55937824.00000,   0.00000
182490537.28156,234651788.20642,-208816314.71606,   0.00037,   0.00071,  -0.00271,420036608.00000,   0.00000,274640576.00000,   0.00000,   0.00000,   0.00000,-54603968.00000,   0.00000
183113754.94550,235712144.32658,-209407042.35960,   0.00037,   0.00072,  -0.00272,421377280.00000,   0.00000,274640576.00000,   0.00000,   0.00000,   0.00000,-53263296.00000,   0.00000
183707436.22726,236742964.06456,-209991862.72671,   0.00037,   0.00072,  -0.00273,422694848.00000,   0.00000,274640576.00000,   0.00000,   0.00000,   0.00000,-51945728.00000,   0.00000
184342468.44407,237791505.63185,-210570775.81738,   0.00038,   0.00072,  -0.00274,424016384.00000,   0.00000,274640576.00000,   0.00000,   0.00000,   0.00000,-50624192.00000,   0.00000
184956825.19335,238831186.28449,-211149688.90805,   0.00038,   0.00073,  -0.00274,425331872.00000,   0.00000,274640576.00000,   0.00000,   0.00000,   0.00000,-49308704.00000,   0.00000
185591857.41016,239879727.85177,-211722694.72229,   0.00038,   0.00073,  -0.00275,426644960.00000,   0.00000,274640576.00000,   0.00000,   0.00000,   0.00000,-47995616.00000,   0.00000
186247565.09449,240937130.33372,-212289793.26009,   0.00038,   0.00073,  -0.00276,427955744.00000,   0.00000,274640576.00000,   0.00000,   0.00000,   0.00000,-46684832.00000,   0.00000
186882597.31130,241985671.90101,-212850984.52146,   0.00038,   0.00074,  -0.00277,429251776.00000,   0.00000,274640576.00000,   0.00000,   0.00000,   0.00000,-45388800.00000,   0.00000
187538304.99564,243043074.38295,-213406268.50639,   0.00038,   0.00074,  -0.00277,430545536.00000,   0.00000,274640576.00000,   0.00000,   0.00000,   0.00000,-44095040.00000,   0.00000
188185151.76532,244079801.39737,-213961552.49132,   0.00038,   0.00074,  -0.00278,431830976.00000,   0.00000,274640576.00000,   0.00000,   0.00000,   0.00000,-42809600.00000,   0.00000
188861534.91717,245146064.79396,-214505021.92338,   0.00038,   0.00075,  -0.00279,433114176.00000,   0.00000,274640576.00000,   0.00000,   0.00000,   0.00000,-41526400.00000,   0.00000
189529057.15438,246191652.72303,-215048491.35544,   0.00038,   0.00075,  -0.00280,434389088.00000,   0.00000,274640576.00000,   0.00000,   0.00000,   0.00000,-40251488.00000,   0.00000
190205440.30623,247257916.11963,-215586053.51106,   0.00038,   0.00075,  -0.00280,435664032.00000,   0.00000,274640576.00000,   0.00000,   0.00000,   0.00000,-38976544.00000,   0.00000
190893638.01096,248312364.96335,-216117708.39025,   0.00038,   0.00076,  -0.00281,436928320.00000,   0.00000,274640576.00000,   0.00000,   0.00000,   0.00000,-37712256.00000,   0.00000
191581835.71569,249366813.80708,-216649363.26944,   0.00039,   0.00076,  -0.00282,438192960.00000,   0.00000,274640576.00000,   0.00000,   0.00000,   0.00000,-36447616.00000,   0.00000
192290708.88794,250430123.56545,-217169203.59576,   0.00039,   0.00076,  -0.00282,439446720.00000,   0.00000,274640576.00000,   0.00000,   0.00000,   0.00000,-35193856.00000,   0.00000
192990721.14554,251472757.85631,-217689043.92208,   0.00039,   0.00077,  -0.00283,440692224.00000,   0.00000,274640576.00000,   0.00000,   0.00000,   0.00000,-33948352.00000,   0.00000
193699594.31779,252536067.61469,-218202976.97196,   0.00039,   0.00077,  -0.00284,441937888.00000,   0.00000,274640576.00000,   0.00000,   0.00000,   0.00000,-32702688.00000,   0.00000
194399606.57539,253578701.90554,-218711002.74541,   0.00039,   0.00077,  -0.00284,443166560.00000,   0.00000,274640576.00000,   0.00000,   0.00000,   0.00000,-31474016.00000,   0.00000
195129155.21517,254650872.57857,-219213121.24242,   0.00039,   0.00078,  -0.00285,444401888.00000,   0.00000,274640576.00000,   0.00000,   0.00000,   0.00000,-30238688.00000,   0.00000
195870518.40781,255711228.69873,-219709332.46299,   0.00039,   0.00078,  -0.00286,445626560.00000,   0.00000,274640576.00000,   0.00000,   0.00000,   0.00000,-29014016.00000,   0.00000
196591206.13293,256762723.90424,-220199636.40714,   0.00039,   0.00078,  -0.00286,446836512.00000,   0.00000,274640576.00000,   0.00000,   0.00000,   0.00000,-27804064.00000,   0.00000
197332569.32558,257823080.02440,-220689940.35128,   0.00040,   0.00079,  -0.00287,448053152.00000,   0.00000,274640576.00000,   0.00000,   0.00000,   0.00000,-26587424.00000,   0.00000
198085747.07110,258871621.59169,-221168429.74255,   0.00040,   0.00079,  -0.00288,449250368.00000,   0.00000,274640576.00000,   0.00000,   0.00000,   0.00000,-25390208.00000,   0.00000
198847785.73127,259940838.62650,-221646919.13382,   0.00040,   0.00079,  -0.00288,450456640.00000,   0.00000,274640576.00000,   0.00000,   0.00000,   0.00000,-24183936.00000,   0.00000
199600963.47679,260989380.19379,-222119501.24865,   0.00040,   0.00080,  -0.00289,451645856.00000,   0.00000,274640576.00000,   0.00000,   0.00000,   0.00000,-22994720.00000,   0.00000
200363002.13696,262058597.22860,-222586176.08705,   0.00040,   0.00080,  -0.00289,452835296.00000,   0.00000,274640576.00000,   0.00000,   0.00000,   0.00000,-21805280.00000,   0.00000
201136855.35000,263115999.71054,-223046943.64901,   0.00040,   0.00080,  -0.00290,454013984.00000,   0.00000,274640576.00000,   0.00000,   0.00000,   0.00000,-20626592.00000,   0.00000
201931384.03056,264182263.10714,-223501803.93454,   0.00040,   0.00081,  -0.00291,455190592.00000,   0.00000,274640576.00000,   0.00000,   0.00000,   0.00000,-19449984.00000,   0.00000
202696376.32895,265218990.12156,-223956664.22007,   0.00041,   0.00081,  -0.00291,456352192.00000,   0.00000,274640576.00000,   0.00000,   0.00000,   0.00000,-18288384.00000,   0.00000
203511580.47704,266294114.43281,-224399709.95273,   0.00041,   0.00081,  -0.00292,457518048.00000,   0.00000,274640576.00000,   0.00000,   0.00000,   0.00000,-17122528.00000,   0.00000
204297248.24295,267339702.36188,-224842755.68538,   0.00041,   0.00082,  -0.00292,458668896.00000,   0.00000,274640576.00000,   0.00000,   0.00000,   0.00000,-15971680.00000,   0.00000
205103591.47639,268394151.20560,-225273986.86517,   0.00041,   0.00082,  -0.00293,459808832.00000,   0.00000,274640576.00000,   0.00000,   0.00000,   0.00000,-14831744.00000,   0.00000
205930610.17735,269457460.96398,-225705218.04496,   0.00041,   0.00082,  -0.00293,460955168.00000,   0.00000,274640576.00000,   0.00000,   0.00000,   0.00000,-13685408.00000,   0.00000
206736953.41079,270511909.80770,-226130541.94831,   0.00041,   0.00083,  -0.00294,462086496.00000,   0.00000,274640576.00000,   0.00000,   0.00000,   0.00000,-12554080.00000,   0.00000
207555111.19709,271554544.09856,-226549958.57522,   0.00041,   0.00083,  -0.00295,463206624.00000,   0.00000,274640576.00000,   0.00000,   0.00000,   0.00000,-11433952.00000,   0.00000
208402805.36558,272626714.77159,-226963467.92570,   0.00042,   0.00083,  -0.00295,464333376.00000,   0.00000,274640576.00000,   0.00000,   0.00000,   0.00000,-10307200.00000,   0.00000
209241638.61941,273678209.97709,-227371069.99975,   0.00042,   0.00084,  -0.00296,465442496.00000,   0.00000,274640576.00000,   0.00000,   0.00000,   0.00000,-9198080.00000,   0.00000
210080471.87324,274729705.18260,-227772764.79736,   0.00042,   0.00084,  -0.00296,466543008.00000,   0.00000,274640576.00000,   0.00000,   0.00000,   0.00000,-8097568.00000,   0.00000
210931119.67994,275769385.83524,-228168552.31853,   0.00042,   0.00084,  -0.00297,467632352.00000,   0.00000,274640576.00000,   0.00000,   0.00000,   0.00000,-7008224.00000,   0.00000
211790628.40130,276829741.95540,-228564339.83971,   0.00042,   0.00085,  -0.00297,468730528.00000,   0.00000,274640576.00000,   0.00000,   0.00000,   0.00000,-5910048.00000,   0.00000
212661951.67553,277878283.52269,-228948312.80801,   0.00043,   0.00085,  -0.00298,469809024.00000,   0.00000,274640576.00000,   0.00000,   0.00000,   0.00000,-4831552.00000,   0.00000
213533274.94975,278926825.08998,-229326378.49988,   0.00043,   0.00085,  -0.00298,470879168.00000,   0.00000,274640576.00000,   0.00000,   0.00000,   0.00000,-3761408.00000,   0.00000
214404598.22398,279975366.65726,-229704444.19174,   0.00043,   0.00086,  -0.00299,471949376.00000,   0.00000,274640576.00000,   0.00000,   0.00000,   0.00000,-2691200.00000,   0.00000
215296596.96573,281032769.13921,-230070695.33074,   0.00043,   0.00086,  -0.00299,473009056.00000,   0.00000,274640576.00000,   0.00000,   0.00000,   0.00000,-1631520.00000,   0.00000
216179734.79282,282069496.15362,-230436946.46974,   0.00043,   0.00086,  -0.00300,474060096.00000,   0.00000,274640576.00000,   0.00000,   0.00000,   0.00000,-580480.00000,   0.00000
216679303.46934,282647428.54411,-230636120.90940,   0.00043,   0.00086,  -0.00300,474640000.00000,   0.00000,274640576.00000,   0.00000,   0.00000,   0.00000,-576.00000,   0.00000
216903648.84739,282866685.91493,-230558753.15604,   0.00044,   0.00086,  -0.00300,474640000.00000,   0.00000,274642688.00000,   0.00000,   0.00000,  -0.00000, -32.00000,   2.00000
217409929.55812,283364011.93723,-230382105.15152,   0.00044,   0.00087,  -0.00300,475675488.00000,   0.00001,274647328.00000,   0.00000,   0.00000,  -0.00001,  96.00000,   2.00000
217927420.08852,283849469.01876,-230206707.17987,   0.00044,   0.00087,  -0.00301,475678464.00000,   0.00001,274651968.00000,   0.00000,   0.00000,  -0.00002,  64.00000,   2.00000
218451983.57206,284353911.49851,-230025173.74451,   0.00044,   0.00087,  -0.00301,475684320.00000,   0.00001,274656608.00000,   0.00000,   0.00001,  -0.00002,  64.00000,   2.00000
218972818.15549,284845512.05605,-229846563.37337,   0.00044,   0.00088,  -0.00302,475672288.00000,   0.00002,274661184.00000,   0.00000,   0.00001,  -0.00003, -64.00000,   2.00000
219513452.87754,285345595.42800,-229663110.21232,   0.00045,   0.00088,  -0.00302,475675680.00000,   0.00002,274665728.00000,   0.00000,   0.00001,  -0.00004,  32.00000,   2.00000
220050364.05968,285832869.00846,-229482599.95936,   0.00045,   0.00088,  -0.00303,475663616.00000,   0.00003,274670208.00000,   0.00000,   0.00001,  -0.00004,  64.00000,   2.00000
220612182.83259,286344201.17683,-229292504.08591,   0.00045,   0.00089,  -0.00303,475676224.00000,   0.00003,274674720.00000,   0.00001,   0.00001,  -0.00005,  96.00000,   2.00000
221170223.53018,286842658.30175,-229105315.22754,   0.00045,   0.00089,  -0.00303,475664192.00000,   0.00004,274679168.00000,   0.00001,   0.00001,  -0.00006, -32.00000,   2.00000
221724654.17219,287328445.95795,-228921162.96544,   0.00046,   0.00089,  -0.00304,475651936.00000,   0.00004,274683520.00000,   0.00001,   0.00002,  -0.00006,  96.00000,   2.00000
222303781.44577,287838048.56346,-228727257.16832,   0.00046,   0.00089,  -0.00304,475664704.00000,   0.00004,274687904.00000,   0.00001,   0.00002,  -0.00007,   0.00000,   2.00000
222879191.27924,288334829.68755,-228536245.97580,   0.00046,   0.00090,  -0.00305,475652512.00000,   0.00005,274692224.00000,   0.00001,   0.00002,  -0.00008,-128.00000,   2.00000
223474187.55229,288839881.70598,-228340273.92558,   0.00046,   0.00090,  -0.00305,475656128.00000,   0.00005,274696544.00000,   0.00001,   0.00002,  -0.00008,  96.00000,   2.00000
224070556.56669,289347659.01654,-228142417.68055,   0.00047,   0.00090,  -0.00305,475653184.00000,   0.00005,274700800.00000,   0.00001,   0.00002,  -0.00009,  32.00000,   2.00000
224681241.42848,289847901.87310,-227944077.50556,   0.00047,   0.00090,  -0.00306,475647616.00000,   0.00006,274705056.00000,   0.00001,   0.00002,  -0.00009, -64.00000,   2.00000
225290027.11250,290346452.49288,-227745626.39948,   0.00047,   0.00091,  -0.00306,475653056.00000,   0.00006,274709280.00000,   0.00001,   0.00003,  -0.00010, -32.00000,   2.00000
225903774.23006,290852530.07310,-227543721.21246,   0.00047,   0.00091,  -0.00306,475641568.00000,   0.00007,274713440.00000,   0.00001,   0.00003,  -0.00011, -96.00000,   2.00000
226531894.43251,291351099.53506,-227341254.32808,   0.00048,   0.00091,  -0.00307,475636032.00000,   0.00007,274717568.00000,   0.00001,   0.00003,  -0.00011,  32.00000,   2.00000
227166642.81478,291868164.94392,-227132312.36520,   0.00048,   0.00092,  -0.00307,475642112.00000,   0.00007,274721664.00000,   0.00001,   0.00003,  -0.00012,  96.00000,   2.00000
227807311.06989,292357576.30161,-226929107.25817,   0.00048,   0.00092,  -0.00307,475635840.00000,   0.00008,274725760.00000,   0.00001,   0.00003,  -0.00012,  96.00000,   2.00000
228457974.80553,292869987.96930,-226717553.64687,   0.00048,   0.00092,  -0.00308,475633568.00000,   0.00008,274729792.00000,   0.00002,   0.00003,  -0.00013, -64.00000,   2.00000
229123228.13838,293375118.57949,-226505503.52418,   0.00049,   0.00092,  -0.00308,475627840.00000,   0.00008,274733792.00000,   0.00002,   0.00004,  -0.00014, -96.00000,   2.00000
229790138.44075,293883245.78505,-226291526.08122,   0.00049,   0.00093,  -0.00308,475624608.00000,   0.00009,274737728.00000,   0.00002,   0.00004,  -0.00014, -96.00000,   2.00000
230455318.66875,294389820.18066,-226077389.94706,   0.00049,   0.00093,  -0.00309,475629856.00000,   0.00009,274741696.00000,   0.00002,   0.00004,  -0.00015,  64.00000,   2.00000
231138534.94822,294893619.45660,-225860751.14356,   0.00049,   0.00093,  -0.00309,475615776.00000,   0.00010,274745568.00000,   0.00002,   0.00004,  -0.00015,  32.00000,   2.00000
231823641.59670,295400651.37843,-225642257.90794,   0.00050,   0.00093,  -0.00309,475612256.00000,   0.00010,274749440.00000,   0.00002,   0.00004,  -0.00016,  64.00000,   2.00000
232528259.84907,295915724.37707,-225418269.89131,   0.00050,   0.00094,  -0.00310,475616032.00000,   0.00010,274753280.00000,   0.00002,   0.00004,  -0.00016, -32.00000,   2.00000
233226452.79920,296414051.65723,-225198855.25768,   0.00050,   0.00094,  -0.00310,475611456.00000,   0.00011,274757088.00000,   0.00002,   0.00004,  -0.00017,  32.00000,   2.00000
233947756.99521,296925158.82775,-224972171.97175,   0.00051,   0.00094,  -0.00310,475606784.00000,   0.00011,274760832.00000,   0.00002,   0.00005,  -0.00018,  32.00000,   2.00000
234666201.94287,297424188.55199,-224748200.15741,   0.00051,   0.00094,  -0.00310,475593696.00000,   0.00011,274764512.00000,   0.00002,   0.00005,  -0.00018,  32.00000,   2.00000
235388008.23326,297937275.57629,-224519373.26440,   0.00051,   0.00095,  -0.00311,475607808.00000,   0.00012,274768256.00000,   0.00002,   0.00005,  -0.00019,  32.00000,   2.00000
236128207.73979,298447849.38871,-224287902.96206,   0.00052,   0.00095,  -0.00311,475593536.00000,   0.00012,274771904.00000,   0.00002,   0.00005,  -0.00019, -96.00000,   2.00000
236865778.79924,298946563.53728,-224059191.39270,   0.00052,   0.00095,  -0.00311,475580288.00000,   0.00012,274775488.00000,   0.00002,   0.00005,  -0.00020,-128.00000,   2.00000
237623144.38627,299453607.06301,-223824995.53950,   0.00052,   0.00095,  -0.00311,475583712.00000,   0.00013,274779072.00000,   0.00002,   0.00005,  -0.00020,  96.00000,   2.00000
238378979.38520,299959249.27277,-223590446.40229,   0.00052,   0.00095,  -0.00311,475588256.00000,   0.00013,274782624.00000,   0.00002,   0.00005,  -0.00021, -32.00000,   2.00000
239140678.40186,300473141.98236,-223352174.97046,   0.00053,   0.00096,  -0.00312,475576032.00000,   0.00013,274786144.00000,   0.00003,   0.00006,  -0.00021,   0.00000,   2.00000
239917376.95848,300979981.20473,-223112990.86151,   0.00053,   0.00096,  -0.00312,475569856.00000,   0.00014,274789600.00000,   0.00003,   0.00006,  -0.00022, -32.00000,   2.00000
240696331.14209,301490342.26555,-222871801.75823,   0.00053,   0.00096,  -0.00312,475565824.00000,   0.00014,274793024.00000,   0.00003,   0.00006,  -0.00022,  32.00000,   2.00000
241490264.93722,301993621.65927,-222629631.87854,   0.00054,   0.00096,  -0.00312,475559680.00000,   0.00014,274796416.00000,   0.00003,   0.00006,  -0.00023, -32.00000,   2.00000
242282835.42990,302495726.76219,-222387255.95220,   0.00054,   0.00096,  -0.00312,475563904.00000,   0.00015,274799808.00000,   0.00003,   0.00006,  -0.00023,   0.00000,   2.00000
243098653.46390,303010652.01891,-222137332.98940,   0.00054,   0.00097,  -0.00313,475559104.00000,   0.00015,274803136.00000,   0.00003,   0.00006,  -0.00024,  64.00000,   2.00000
243912015.58135,303513840.61951,-221890043.08592,   0.00055,   0.00097,  -0.00313,475545472.00000,   0.00015,274806432.00000,   0.00003,   0.00006,  -0.00024,  32.00000,   2.00000
244727555.82661,304020471.00811,-221640645.34115,   0.00055,   0.00097,  -0.00313,475541376.00000,   0.00015,274809664.00000,   0.00003,   0.00006,  -0.00025, -32.00000,   2.00000
245558050.12944,304520014.02881,-221390235.39783,   0.00055,   0.00097,  -0.00313,475535136.00000,   0.00016,274812864.00000,   0.00003,   0.00007,  -0.00025,   0.00000,   2.00000
246407983.57484,305027516.91172,-221134009.17486,   0.00056,   0.00097,  -0.00313,475538528.00000,   0.00016,274816064.00000,   0.00003,   0.00007,  -0.00026, -32.00000,   2.00000
247242565.07650,305533700.82281,-220879213.54628,   0.00056,   0.00098,  -0.00313,475527168.00000,   0.00016,274819168.00000,   0.00003,   0.00007,  -0.00026,  32.00000,   2.00000
248092000.69648,306032711.09158,-220623357.04156,   0.00056,   0.00098,  -0.00313,475520960.00000,   0.00017,274822272.00000,   0.00003,   0.00007,  -0.00027,  96.00000,   2.00000
248960574.63002,306539375.42185,-220361491.75514,   0.00057,   0.00098,  -0.00313,475524704.00000,   0.00017,274825376.00000,   0.00003,   0.00007,  -0.00027,   0.00000,   2.00000
249826530.13643,307034169.94166,-220102122.34620,   0.00057,   0.00098,  -0.00314,475511136.00000,   0.00017,274828384.00000,   0.00003,   0.00007,  -0.00027,   0.00000,   2.00000
250698782.32926,307547156.20714,-219835726.56509,   0.00058,   0.00098,  -0.00314,475517024.00000,   0.00017,274831424.00000,   0.00003,   0.00007,  -0.00028,   0.00000,   2.00000
251581067.50286,308037569.32137,-219572758.12341,   0.00058,   0.00099,  -0.00314,475501536.00000,   0.00018,274834368.00000,   0.00004,   0.00007,  -0.00028, -64.00000,   2.00000
252465089.33159,308531081.51358,-219307471.39147,   0.00058,   0.00099,  -0.00314,475497728.00000,   0.00018,274837280.00000,   0.00004,   0.00008,  -0.00029,  64.00000,   2.00000
253367832.03954,309031906.20713,-219035997.82910,   0.00059,   0.00099,  -0.00314,475501888.00000,   0.00018,274840192.00000,   0.00004,   0.00008,  -0.00029, 160.00000,   2.00000
254272038.24606,309535545.31611,-218762015.83258,   0.00059,   0.00099,  -0.00314,475498464.00000,   0.00018,274843104.00000,   0.00004,   0.00008,  -0.00030,  32.00000,   2.00000
255173436.08057,310027148.05290,-218490353.10881,   0.00059,   0.00099,  -0.00314,475485120.00000,   0.00019,274845920.00000,   0.00004,   0.00008,  -0.00030,  32.00000,   2.00000
256089069.94208,310511022.29549,-218217186.40662,   0.00060,   0.00099,  -0.00314,475479808.00000,   0.00019,274848704.00000,   0.00004,   0.00008,  -0.00030,  64.00000,   2.00000
257006039.66225,310997616.56558,-217941375.53760,   0.00060,   0.00100,  -0.00314,475476512.00000,   0.00019,274851456.00000,   0.00004,   0.00008,  -0.00031,  96.00000,   2.00000
257928243.00355,311491816.57737,-217661038.18251,   0.00061,   0.00100,  -0.00314,475464928.00000,   0.00019,274854144.00000,   0.00004,   0.00008,  -0.00031,   0.00000,   2.00000
258860736.16324,311973379.49648,-217381001.04814,   0.00061,   0.00100,  -0.00314,475467840.00000,   0.00020,274856832.00000,   0.00004,   0.00008,  -0.00032,  96.00000,   2.00000
259811432.66836,312461844.02114,-217094432.46805,   0.00061,   0.00100,  -0.00314,475472608.00000,   0.00020,274859520.00000,   0.00004,   0.00008,  -0.00032,  32.00000,   2.00000
260759341.77537,312938312.51829,-216809986.59098,   0.00062,   0.00100,  -0.00314,475459488.00000,   0.00020,274862144.00000,   0.00004,   0.00009,  -0.00032, 128.00000,   2.00000
261712398.67004,313422262.78940,-216520725.47144,   0.00062,   0.00100,  -0.00314,475448320.00000,   0.00020,274864704.00000,   0.00004,   0.00009,  -0.00033, -64.00000,   2.00000
262663092.64207,313904380.16712,-216230840.15391,   0.00063,   0.00100,  -0.00314,475452992.00000,   0.00021,274867264.00000,   0.00004,   0.00009,  -0.00033,  64.00000,   2.00000
263627848.33827,314378559.43818,-215939005.26400,   0.00063,   0.00101,  -0.00314,475448032.00000,   0.00021,274869792.00000,   0.00004,   0.00009,  -0.00033,   0.00000,   2.00000
264614763.54924,314864526.91675,-215638511.38049,   0.00063,   0.00101,  -0.00314,475444864.00000,   0.00021,274872320.00000,   0.00004,   0.00009,  -0.00034,  32.00000,   2.00000
265578627.71179,315329946.09639,-215345962.23349,   0.00064,   0.00101,  -0.00314,475431424.00000,   0.00021,274874752.00000,   0.00004,   0.00009,  -0.00034,  32.00000,   2.00000
266560818.46264,315792528.50483,-215049455.76774,   0.00064,   0.00101,  -0.00314,475418272.00000,   0.00022,274877120.00000,   0.00005,   0.00009,  -0.00034,  64.00000,   2.00000
267561295.44309,316271975.00209,-214743428.93662,   0.00065,   0.00101,  -0.00314,475440864.00000,   0.00022,274879584.00000,   0.00005,   0.00009,  -0.00035, -64.00000,   2.00000
268559812.46000,316730175.61719,-214442212.51374,   0.00065,   0.00101,  -0.00314,475409312.00000,   0.00022,274881888.00000,   0.00005,   0.00009,  -0.00035,  32.00000,   2.00000
269560122.17838,317201419.44408,-214135431.43698,   0.00065,   0.00101,  -0.00314,475423744.00000,   0.00022,274884224.00000,   0.00005,   0.00009,  -0.00035,  32.00000,   2.00000
270575400.73717,317655568.88921,-213829548.55300,   0.00066,   0.00101,  -0.00314,475400096.00000,   0.00022,274886464.00000,   0.00005,   0.00010,  -0.00036, 224.00000,   2.00000
271576040.92779,318118944.27916,-213522038.91766,   0.00066,   0.00101,  -0.00314,475406144.00000,   0.00023,274888736.00000,   0.00005,   0.00010,  -0.00036, -64.00000,   2.00000
272612229.97785,318583840.31596,-213206661.22853,   0.00067,   0.00102,  -0.00314,475400576.00000,   0.00023,274890944.00000,   0.00005,   0.00010,  -0.00036,  64.00000,   2.00000
273642808.76088,319032705.29482,-212895314.61381,   0.00067,   0.00102,  -0.00313,475394592.00000,   0.00023,274893152.00000,   0.00005,   0.00010,  -0.00037, -64.00000,   2.00000
274680003.64797,319490156.89125,-212579278.81894,   0.00068,   0.00102,  -0.00313,475382176.00000,   0.00023,274895264.00000,   0.00005,   0.00010,  -0.00037, -64.00000,   2.00000
275715998.51448,319936690.06563,-212265343.02024,   0.00068,   0.00102,  -0.00313,475367872.00000,   0.00023,274897312.00000,   0.00005,   0.00010,  -0.00037,   0.00000,   2.00000
276766934.68612,320385854.46439,-211946795.44701,   0.00069,   0.00102,  -0.00313,475379744.00000,   0.00024,274899392.00000,   0.00005,   0.00010,  -0.00038,-128.00000,   2.00000
277824707.77133,320843671.84424,-211623552.45964,   0.00069,   0.00102,  -0.00313,475367200.00000,   0.00024,274901440.00000,   0.00005,   0.00010,  -0.00038,  32.00000,   2.00000
278897791.69252,321294322.46038,-211298354.70853,   0.00069,   0.00102,  -0.00313,475361056.00000,   0.00024,274903424.00000,   0.00005,   0.00010,  -0.00038, -64.00000,   2.00000
279965978.74571,321729455.90378,-210977498.00067,   0.00070,   0.00102,  -0.00313,475354272.00000,   0.00024,274905376.00000,   0.00005,   0.00010,  -0.00038, 160.00000,   2.00000
281041015.86214,322173100.33043,-210651807.77161,   0.00070,   0.00102,  -0.00313,475341632.00000,   0.00024,274907264.00000,   0.00005,   0.00010,  -0.00039,  32.00000,   2.00000
282135179.68120,322624170.37261,-210319421.32354,   0.00071,   0.00102,  -0.00312,475345440.00000,   0.00024,274909152.00000,   0.00005,   0.00010,  -0.00039,   0.00000,   2.00000
283224915.40528,323049926.84017,-209993984.14696,   0.00071,   0.00102,  -0.00312,475320416.00000,   0.00025,274910944.00000,   0.00005,   0.00011,  -0.00039, -32.00000,   2.00000
284317090.59655,323489146.80719,-209663286.33420,   0.00072,   0.00102,  -0.00312,475333632.00000,   0.00025,274912768.00000,   0.00005,   0.00011,  -0.00040, 128.00000,   2.00000
285428692.48802,323925839.05771,-209328392.77131,   0.00072,   0.00102,  -0.00312,475319680.00000,   0.00025,274914528.00000,   0.00005,   0.00011,  -0.00040, 128.00000,   2.00000
286539438.86671,324351583.00182,-208995545.42914,   0.00073,   0.00102,  -0.00312,475304800.00000,   0.00025,274916224.00000,   0.00006,   0.00011,  -0.00040,  32.00000,   2.00000
287652866.08249,324780791.66698,-208659899.85223,   0.00073,   0.00103,  -0.00312,475300128.00000,   0.00025,274917888.00000,   0.00006,   0.00011,  -0.00040,  32.00000,   2.00000
288785193.66216,325217117.27323,-208317462.82890,   0.00074,   0.00103,  -0.00311,475304128.00000,   0.00025,274919584.00000,   0.00006,   0.00011,  -0.00040,  96.00000,   2.00000
289912265.19349,325637333.27647,-207979024.45780,   0.00074,   0.00103,  -0.00311,475297632.00000,   0.00026,274921216.00000,   0.00006,   0.00011,  -0.00041,  64.00000,   2.00000
291042446.21843,326051204.44238,-207640272.53253,   0.00075,   0.00103,  -0.00311,475275232.00000,   0.00026,274922752.00000,   0.00006,   0.00011,  -0.00041,   0.00000,   2.00000
292191051.71525,326471695.50568,-207294403.43182,   0.00075,   0.00103,  -0.00311,475279616.00000,   0.00026,274924288.00000,   0.00006,   0.00011,  -0.00041, -32.00000,   2.00000
293338525.91949,326880910.68915,-206950324.58717,   0.00076,   0.00103,  -0.00310,475265344.00000,   0.00026,274925760.00000,   0.00006,   0.00011,  -0.00041, 128.00000,   2.00000
294488034.81893,327292921.63652,-206602995.59742,   0.00076,   0.00103,  -0.00310,475261600.00000,   0.00026,274927200.00000,   0.00006,   0.00011,  -0.00042,   0.00000,   2.00000
295652107.36175,327696786.67976,-206253082.34315,   0.00077,   0.00103,  -0.00310,475256384.00000,   0.00026,274928640.00000,   0.00006,   0.00011,  -0.00042, -64.00000,   2.00000
296813849.63727,328098498.21206,-205902097.98726,   0.00077,   0.00103,  -0.00310,475260480.00000,   0.00026,274930048.00000,   0.00006,   0.00011,  -0.00042, -64.00000,   2.00000
297994015.55034,328496622.18392,-205546070.73800,   0.00078,   0.00103,  -0.00309,475248224.00000,   0.00027,274931424.00000,   0.00006,   0.00011,  -0.00042,  96.00000,   2.00000
299159660.46235,328893612.60575,-205190505.73032,   0.00078,   0.00103,  -0.00309,475236480.00000,   0.00027,274932736.00000,   0.00006,   0.00011,  -0.00042,   0.00000,   2.00000
300339070.59872,329281769.06017,-204831839.22424,   0.00078,   0.00103,  -0.00309,475232544.00000,   0.00027,274934048.00000,   0.00006,   0.00012,  -0.00043, -64.00000,   2.00000
301534921.05902,329674829.37661,-204464934.59197,   0.00079,   0.00103,  -0.00309,475239520.00000,   0.00027,274935360.00000,   0.00006,   0.00012,  -0.00043,  32.00000,   2.00000
302712530.05446,330052098.33104,-204102914.49493,   0.00079,   0.00103,  -0.00308,475218496.00000,   0.00027,274936576.00000,   0.00006,   0.00012,  -0.00043, -32.00000,   2.00000
303898519.34191,330414697.04683,-203739390.01252,   0.00080,   0.00103,  -0.00308,475223712.00000,   0.00027,274937792.00000,   0.00006,   0.00012,  -0.00043,   0.00000,   2.00000
305088746.29779,330783121.17482,-203368935.78443,   0.00081,   0.00103,  -0.00308,475215264.00000,   0.00027,274938976.00000,   0.00006,   0.00012,  -0.00043,  32.00000,   2.00000
306294298.13730,331155559.46571,-202989636.42297,   0.00081,   0.00103,  -0.00307,475224032.00000,   0.00027,274940192.00000,   0.00006,   0.00012,  -0.00043,  32.00000,   2.00000
307496464.63125,331514481.20858,-202610205.64666,   0.00082,   0.00103,  -0.00307,475213376.00000,   0.00027,274941376.00000,   0.00006,   0.00012,  -0.00044, -96.00000,   2.00000
308691495.78444,331855644.06861,-202233394.36714,   0.00082,   0.00103,  -0.00307,475209632.00000,   0.00028,274942496.00000,   0.00006,   0.00012,  -0.00044,  32.00000,   2.00000
309891176.72986,332202820.23080,-201849565.21009,   0.00083,   0.00103,  -0.00306,475201152.00000,   0.00028,274943616.00000,   0.00006,   0.00012,  -0.00044,  64.00000,   2.00000
311103605.05227,332540044.49788,-201461577.14200,   0.00083,   0.00103,  -0.00306,475199008.00000,   0.00028,274944704.00000,   0.00006,   0.00012,  -0.00044,  64.00000,   2.00000
312316250.60819,332878281.74894,-201068783.38884,   0.00084,   0.00103,  -0.00306,475197280.00000,   0.00028,274945760.00000,   0.00006,   0.00012,  -0.00044,-928.00000,   1.00000
313538844.41539,333203435.48070,-200675434.79164,   0.00084,   0.00102,  -0.00305,475201152.00000,   0.00028,274946848.00000,   0.00006,   0.00012,  -0.00044,  64.00000,   2.00000
314750922.97843,333531313.59068,-200278847.17006,   0.00085,   0.00102,  -0.00305,475182848.00000,   0.00028,274947840.00000,   0.00006,   0.00012,  -0.00044,-960.00000,   1.00000
315977572.54520,333850966.57509,-199879201.00238,   0.00085,   0.00102,  -0.00304,475179072.00000,   0.00028,274948832.00000,   0.00007,   0.00012,  -0.00045, -32.00000,   2.00000
317197460.37297,334152800.39778,-199481857.86240,   0.00086,   0.00102,  -0.00304,475174336.00000,   0.00028,274949792.00000,   0.00007,   0.00012,  -0.00045,-800.00000,   1.00000
318438280.93155,334464384.20899,-199073603.33355,   0.00086,   0.00102,  -0.00304,475173696.00000,   0.00028,274950720.00000,   0.00007,   0.00012,  -0.00045,-928.00000,   1.00000
319658897.53688,334756854.59416,-198672939.47950,   0.00087,   0.00102,  -0.00303,475158144.00000,   0.00028,274951616.00000,   0.00007,   0.00012,  -0.00045,-800.00000,   1.00000
320900012.17790,335058553.34597,-198260953.95712,   0.00087,   0.00102,  -0.00303,475158272.00000,   0.00028,274952480.00000,   0.00007,   0.00012,  -0.00045,-896.00000,   1.00000
322135723.35198,335343726.66969,-197852093.85940,   0.00088,   0.00102,  -0.00302,475152480.00000,   0.00029,274953312.00000,   0.00007,   0.00012,  -0.00045,-832.00000,   1.00000
323391995.44786,335638157.21722,-197431902.97144,   0.00088,   0.00102,  -0.00302,475152512.00000,   0.00029,274954176.00000,   0.00007,   0.00012,  -0.00045,-768.00000,   1.00000
324642928.59713,335916058.33345,-197014793.74830,   0.00089,   0.00102,  -0.00302,475146752.00000,   0.00029,274954976.00000,   0.00007,   0.00012,  -0.00045,-768.00000,   1.00000
325893406.66821,336182423.55044,-196598309.10614,   0.00090,   0.00102,  -0.00301,475133184.00000,   0.00029,274955712.00000,   0.00007,   0.00012,  -0.00046,-768.00000,   1.00000
327150242.76899,336455740.69252,-196174991.61888,   0.00090,   0.00102,  -0.00301,475122976.00000,   0.00029,274956448.00000,   0.00007,   0.00012,  -0.00046,-832.00000,   1.00000
328418784.41691,336729107.19444,-195745707.84821,   0.00091,   0.00102,  -0.00300,475137248.00000,   0.00029,274957184.00000,   0.00007,   0.00012,  -0.00046,-704.00000,   1.00000
329670876.44413,336975061.36274,-195326429.18305,   0.00091,   0.00102,  -0.00300,475102496.00000,   0.00029,274957824.00000,   0.00007,   0.00012,  -0.00046,-480.00000,   1.00000
330941317.16357,337239469.18037,-194893702.58067,   0.00092,   0.00101,  -0.00299,475120192.00000,   0.00029,274958496.00000,   0.00007,   0.00013,  -0.00046,-736.00000,   1.00000
332223842.99442,337480981.76013,-194461804.62830,   0.00092,   0.00101,  -0.00299,475105888.00000,   0.00029,274959104.00000,   0.00007,   0.00013,  -0.00046,-640.00000,   1.00000
333494627.90984,337722953.54809,-194030522.79513,   0.00093,   0.00101,  -0.00298,475091968.00000,   0.00029,274959680.00000,   0.00007,   0.00013,  -0.00046,-576.00000,   1.00000
334781856.38267,337969764.76954,-193590669.47116,   0.00093,   0.00101,  -0.00298,475098656.00000,   0.00029,274960256.00000,   0.00007,   0.00013,  -0.00046,-608.00000,   1.00000
336067385.17446,338191585.99896,-193156233.97675,   0.00094,   0.00101,  -0.00297,475073856.00000,   0.00029,274960736.00000,   0.00007,   0.00013,  -0.00046,-448.00000,   1.00000
337357493.62313,338429977.61943,-192713165.31683,   0.00094,   0.00101,  -0.00297,475080576.00000,   0.00029,274961248.00000,   0.00007,   0.00013,  -0.00046,-480.00000,   1.00000
338660025.43121,338645545.84882,-192270888.01385,   0.00095,   0.00101,  -0.00296,475066080.00000,   0.00029,274961696.00000,   0.00007,   0.00013,  -0.00046,-416.00000,   1.00000
339946784.73496,338857300.67458,-191832133.85356,   0.00096,   0.00101,  -0.00296,475058656.00000,   0.00029,274962112.00000,   0.00007,   0.00013,  -0.00046,-384.00000,   1.00000
341254837.11259,339078662.65877,-191382147.84963,   0.00096,   0.00100,  -0.00295,475057824.00000,   0.00029,274962496.00000,   0.00007,   0.00013,  -0.00046,-288.00000,   1.00000
342559178.46895,339284589.49072,-190935798.26241,   0.00097,   0.00100,  -0.00295,475050048.00000,   0.00029,274962880.00000,   0.00007,   0.00013,  -0.00047,-352.00000,   1.00000
343882908.81536,339486324.87787,-190482877.58788,   0.00097,   0.00100,  -0.00294,475038624.00000,   0.00029,274963200.00000,   0.00007,   0.00013,  -0.00047,-288.00000,   1.00000
345191243.56562,339684522.62251,-190033624.62882,   0.00098,   0.00100,  -0.00294,475030688.00000,   0.00029,274963488.00000,   0.00007,   0.00013,  -0.00047,-224.00000,   1.00000
346514091.71830,339873672.30657,-189580393.63103,   0.00098,   0.00100,  -0.00293,475026656.00000,   0.00029,274963744.00000,   0.00007,   0.00013,  -0.00047,-288.00000,   1.00000
347844176.82863,340070074.27180,-189120309.73483,   0.00099,   0.00100,  -0.00293,475015744.00000,   0.00030,274963968.00000,   0.00007,   0.00013,  -0.00047,-224.00000,   1.00000
349167438.79517,340235958.29302,-188667585.96807,   0.00100,   0.00099,  -0.00292,474999360.00000,   0.00030,274964096.00000,   0.00007,   0.00013,  -0.00047,-224.00000,   1.00000
350493316.23179,340416553.16406,-188205017.69814,   0.00100,   0.00099,  -0.00291,475008576.00000,   0.00030,274964288.00000,   0.00007,   0.00013,  -0.00047,-224.00000,   1.00000
351830178.61837,340584736.33071,-187736245.17361,   0.00101,   0.00099,  -0.00291,475009664.00000,   0.00030,274964480.00000,   0.00007,   0.00013,  -0.00047,-128.00000,   1.00000
353163423.91721,340737522.45578,-187265187.17716,   0.00101,   0.00099,  -0.00290,475001792.00000,   0.00030,274964640.00000,   0.00007,   0.00013,  -0.00047, -32.00000,   1.00000
354487689.21909,340869717.53377,-186794291.42746,   0.00102,   0.00099,  -0.00290,475001824.00000,   0.00030,274964800.00000,   0.00007,   0.00013,  -0.00047,-160.00000,   1.00000
355814448.97505,341004446.39757,-186313339.67174,   0.00103,   0.00099,  -0.00289,474998112.00000,   0.00030,274964928.00000,   0.00007,   0.00013,  -0.00047, -96.00000,   1.00000
357134905.01700,341133360.98487,-185828674.80537,   0.00103,   0.00098,  -0.00288,475007104.00000,   0.00030,274965120.00000,   0.00007,   0.00013,  -0.00047,-320.00000,   1.00000
358457713.10663,341239849.81203,-185344537.65183,   0.00104,   0.00098,  -0.00288,474978400.00000,   0.00030,274965152.00000,   0.00007,   0.00013,  -0.00047, -64.00000,   1.00000
359791626.41934,341358657.59324,-184849263.53574,   0.00104,   0.00098,  -0.00287,475004672.00000,   0.00030,274965344.00000,   0.00007,   0.00013,  -0.00047, -96.00000,   1.00000
361125565.28579,341452731.90273,-184358848.83266,   0.00105,   0.00098,  -0.00287,474979520.00000,   0.00030,274965376.00000,   0.00007,   0.00013,  -0.00047, -32.00000,   1.00000
362462771.76642,341549868.80976,-183864510.99328,   0.00105,   0.00098,  -0.00286,474974880.00000,   0.00030,274965440.00000,   0.00007,   0.00013,  -0.00047, -64.00000,   1.00000
363797816.24083,341632570.67985,-183368299.77270,   0.00106,   0.00097,  -0.00285,474959808.00000,   0.00030,274965440.00000,   0.00007,   0.00013,  -0.00047,-5632.00000,   0.00000
365153536.18276,341724133.46460,-182866181.27569,   0.00107,   0.00097,  -0.00285,474961792.00000,   0.00030,274965440.00000,   0.00007,   0.00013,  -0.00047,-3648.00000,   0.00000
366479719.74251,341786159.86718,-182358155.50224,   0.00107,   0.00097,  -0.00284,474939040.00000,   0.00030,274965440.00000,   0.00007,   0.00013,  -0.00047,-26400.00000,   0.00000
367826578.76979,341857047.18440,-181850129.72879,   0.00108,   0.00097,  -0.00283,474932288.00000,   0.00030,274965440.00000,   0.00007,   0.00013,  -0.00047,-33152.00000,   0.00000
369164576.88242,341907259.03410,-181330289.40248,   0.00108,   0.00096,  -0.00283,474906560.00000,   0.00030,274965440.00000,   0.00007,   0.00013,  -0.00047,-58880.00000,   0.00000
370493714.08039,341936795.41628,-180810449.07616,   0.00109,   0.00096,  -0.00282,474876032.00000,   0.00030,274965440.00000,   0.00007,   0.00013,  -0.00047,-89408.00000,   0.00000
371822851.27836,341966331.79846,-180284701.47341,   0.00110,   0.00096,  -0.00281,474844384.00000,   0.00030,274965440.00000,   0.00007,   0.00013,  -0.00047,-121056.00000,   0.00000
373143127.56168,341975192.71311,-179753046.59422,   0.00110,   0.00096,  -0.00281,474801920.00000,   0.00030,274965440.00000,   0.00007,   0.00013,  -0.00047,-163520.00000,   0.00000
374463403.84500,341984053.62776,-179215484.43859,   0.00111,   0.00095,  -0.00280,474758720.00000,   0.00030,274965440.00000,   0.00007,   0.00013,  -0.00047,-206720.00000,   0.00000
375795494.68119,341981099.98954,-178677922.28297,   0.00111,   0.00095,  -0.00279,474723008.00000,   0.00030,274965440.00000,   0.00007,   0.00013,  -0.00047,-242432.00000,   0.00000
377118724.60273,341957470.88380,-178128545.57447,   0.00112,   0.00095,  -0.00278,474669696.00000,   0.00030,274965440.00000,   0.00007,   0.00013,  -0.00047,-295744.00000,   0.00000
378441954.52426,341933841.77806,-177579168.86598,   0.00113,   0.00095,  -0.00278,474622720.00000,   0.00030,274965440.00000,   0.00007,   0.00013,  -0.00047,-342720.00000,   0.00000
379756323.53115,341889537.20480,-177023884.88105,   0.00113,   0.00094,  -0.00277,474564736.00000,   0.00030,274965440.00000,   0.00007,   0.00013,  -0.00047,-400704.00000,   0.00000
381061831.62338,341824557.16401,-176462693.61968,   0.00114,   0.00094,  -0.00276,474495872.00000,   0.00030,274965440.00000,   0.00007,   0.00013,  -0.00047,-469568.00000,   0.00000
382367339.71561,341759577.12322,-175895595.08188,   0.00115,   0.00094,  -0.00276,474426528.00000,   0.00030,274965440.00000,   0.00007,   0.00013,  -0.00047,-538912.00000,   0.00000
383672847.80784,341694597.08243,-175322589.26764,   0.00115,   0.00093,  -0.00275,474356736.00000,   0.00030,274965440.00000,   0.00007,   0.00013,  -0.00047,-608704.00000,   0.00000
384981309.53828,341597127.02124,-174743676.17697,   0.00116,   0.00093,  -0.00274,474277408.00000,   0.00030,274965440.00000,   0.00007,   0.00013,  -0.00047,-688032.00000,   0.00000
386269095.80121,341490796.04540,-174164763.08630,   0.00116,   0.00093,  -0.00273,474191840.00000,   0.00030,274965440.00000,   0.00007,   0.00013,  -0.00047,-773600.00000,   0.00000
387577557.53166,341393325.98422,-173579942.71919,   0.00117,   0.00093,  -0.00273,474117888.00000,   0.00030,274965440.00000,   0.00007,   0.00013,  -0.00047,-847552.00000,   0.00000
388877158.34745,341275180.45551,-172989215.07565,   0.00118,   0.00092,  -0.00272,474032768.00000,   0.00030,274965440.00000,   0.00007,   0.00013,  -0.00047,-932672.00000,   0.00000
390167898.24859,341136359.45928,-172392580.15567,   0.00118,   0.00092,  -0.00271,473936448.00000,   0.00030,274965440.00000,   0.00007,   0.00013,  -0.00047,-1028992.00000,   0.00000
391458638.14973,340997538.46305,-171795945.23569,   0.00119,   0.00092,  -0.00270,473846112.00000,   0.00030,274965440.00000,   0.00007,   0.00013,  -0.00047,-1119328.00000,   0.00000
392740517.13622,340838041.99929,-171187495.76284,   0.00119,   0.00091,  -0.00269,473737888.00000,   0.00030,274965440.00000,   0.00007,   0.00013,  -0.00047,-1227552.00000,   0.00000
394013535.20806,340657870.06801,-170579046.28999,   0.00120,   0.00091,  -0.00269,473624992.00000,   0.00030,274965440.00000,   0.00007,   0.00013,  -0.00047,-1340448.00000,   0.00000
395286553.27989,340477698.13673,-169964689.54071,   0.00121,   0.00091,  -0.00268,473511456.00000,   0.00030,274965440.00000,   0.00007,   0.00013,  -0.00047,-1453984.00000,   0.00000
396580246.81925,340306387.12010,-169344425.51499,   0.00121,   0.00090,  -0.00267,473409760.00000,   0.00030,274965440.00000,   0.00007,   0.00013,  -0.00047,-1555680.00000,   0.00000
397835543.06178,340084864.25377,-168724161.48927,   0.00122,   0.00090,  -0.00266,473280384.00000,   0.00030,274965440.00000,   0.00007,   0.00013,  -0.00047,-1685056.00000,   0.00000
399111514.77184,339872202.30210,-168092082.91067,   0.00122,   0.00090,  -0.00265,473156832.00000,   0.00030,274965440.00000,   0.00007,   0.00013,  -0.00047,-1808608.00000,   0.00000
400366811.01437,339650679.43577,-167460004.33208,   0.00123,   0.00089,  -0.00265,473026656.00000,   0.00030,274965440.00000,   0.00007,   0.00013,  -0.00047,-1938784.00000,   0.00000
401633921.80977,339417342.01657,-166822018.47706,   0.00124,   0.00089,  -0.00264,472898432.00000,   0.00030,274965440.00000,   0.00007,   0.00013,  -0.00047,-2067008.00000,   0.00000
402892171.69051,339163329.12984,-166184032.62203,   0.00124,   0.00089,  -0.00263,472766080.00000,   0.00030,274965440.00000,   0.00007,   0.00013,  -0.00047,-2199360.00000,   0.00000
404150421.57126,338909316.24312,-165534232.21413,   0.00125,   0.00088,  -0.00262,472627872.00000,   0.00030,274965440.00000,   0.00007,   0.00013,  -0.00047,-2337568.00000,   0.00000
405399810.53735,338634627.88887,-164884431.80624,   0.00126,   0.00088,  -0.00261,472486176.00000,   0.00030,274965440.00000,   0.00007,   0.00013,  -0.00047,-2479264.00000,   0.00000
406640338.58879,338339264.06710,-164228724.12190,   0.00126,   0.00087,  -0.00260,472335040.00000,   0.00030,274965440.00000,   0.00007,   0.00013,  -0.00047,-2630400.00000,   0.00000
407880866.64023,338043900.24533,-163567109.16113,   0.00127,   0.00087,  -0.00260,472185344.00000,   0.00030,274965440.00000,   0.00007,   0.00013,  -0.00047,-2780096.00000,   0.00000
409121394.69167,337748536.42356,-162905494.20037,   0.00127,   0.00087,  -0.00259,472043616.00000,   0.00030,274965440.00000,   0.00007,   0.00013,  -0.00047,-2921824.00000,   0.00000
410344200.91381,337411821.66674,-162232064.68673,   0.00128,   0.00086,  -0.00258,471878112.00000,   0.00030,274965440.00000,   0.00007,   0.00013,  -0.00047,-3087328.00000,   0.00000
411587682.60347,337083967.82457,-161558635.17309,   0.00129,   0.00086,  -0.00257,471734944.00000,   0.00030,274965440.00000,   0.00007,   0.00013,  -0.00047,-3230496.00000,   0.00000
412810488.82560,336747253.06775,-160885205.65945,   0.00129,   0.00086,  -0.00256,471588736.00000,   0.00030,274965440.00000,   0.00007,   0.00013,  -0.00047,-3376704.00000,   0.00000
414024434.13308,336389862.84341,-160199961.59294,   0.00130,   0.00085,  -0.00255,471430752.00000,   0.00030,274965440.00000,   0.00007,   0.00013,  -0.00047,-3534688.00000,   0.00000
415250193.99343,336020658.06619,-159514717.52643,   0.00131,   0.00085,  -0.00254,471286528.00000,   0.00030,274965440.00000,   0.00007,   0.00013,  -0.00047,-3678912.00000,   0.00000
416455278.38626,335642592.37433,-158823566.18348,   0.00131,   0.00084,  -0.00253,471132928.00000,   0.00030,274965440.00000,   0.00007,   0.00013,  -0.00047,-3832512.00000,   0.00000
417672177.33196,335252712.12959,-158126507.56410,   0.00132,   0.00084,  -0.00252,470985408.00000,   0.00030,274965440.00000,   0.00007,   0.00013,  -0.00047,-3980032.00000,   0.00000
418868400.81014,334853970.97020,-157429448.94472,   0.00132,   0.00083,  -0.00252,470830880.00000,   0.00030,274965440.00000,   0.00007,   0.00013,  -0.00047,-4134560.00000,   0.00000
420076438.84118,334443415.25793,-156726483.04891,   0.00133,   0.00083,  -0.00251,470677056.00000,   0.00030,274965440.00000,   0.00007,   0.00013,  -0.00047,-4288384.00000,   0.00000
421254940.49005,334003323.16349,-156017609.87665,   0.00134,   0.00083,  -0.00250,470495008.00000,   0.00030,274965440.00000,   0.00007,   0.00013,  -0.00047,-4470432.00000,   0.00000
422454117.60644,333572091.98371,-155302829.42797,   0.00134,   0.00082,  -0.00249,470321408.00000,   0.00030,274965440.00000,   0.00007,   0.00013,  -0.00047,-4644032.00000,   0.00000
423644433.80818,333120185.33640,-154588048.97928,   0.00135,   0.00082,  -0.00248,470141088.00000,   0.00030,274965440.00000,   0.00007,   0.00013,  -0.00047,-4824352.00000,   0.00000
424814074.54240,332659417.77443,-153867361.25416,   0.00136,   0.00081,  -0.00247,469948192.00000,   0.00030,274965440.00000,   0.00007,   0.00013,  -0.00047,-5017248.00000,   0.00000
425995529.82948,332186835.65960,-153146673.52903,   0.00136,   0.00081,  -0.00246,469769376.00000,   0.00030,274965440.00000,   0.00007,   0.00013,  -0.00047,-5196064.00000,   0.00000
427176985.11657,331714253.54477,-152414171.25104,   0.00137,   0.00080,  -0.00245,469590816.00000,   0.00030,274965440.00000,   0.00007,   0.00013,  -0.00047,-5374624.00000,   0.00000
428349579.48900,331220995.96241,-151681668.97305,   0.00137,   0.00080,  -0.00244,469413504.00000,   0.00030,274965440.00000,   0.00007,   0.00013,  -0.00047,-5551936.00000,   0.00000
429492637.47926,330698201.99787,-150943259.41862,   0.00138,   0.00079,  -0.00243,469216576.00000,   0.00030,274965440.00000,   0.00007,   0.00013,  -0.00047,-5748864.00000,   0.00000
430656370.93704,330184268.94799,-150204849.86419,   0.00139,   0.00079,  -0.00242,469042016.00000,   0.00030,274965440.00000,   0.00007,   0.00013,  -0.00047,-5923424.00000,   0.00000
431811243.48017,329649660.43058,-149460533.03332,   0.00139,   0.00079,  -0.00241,468859360.00000,   0.00030,274965440.00000,   0.00007,   0.00013,  -0.00047,-6106080.00000,   0.00000
432966116.02329,329115051.91318,-148710308.92603,   0.00140,   0.00078,  -0.00240,468678048.00000,   0.00030,274965440.00000,   0.00007,   0.00013,  -0.00047,-6287392.00000,   0.00000
434112127.65177,328559767.92824,-147960084.81873,   0.00141,   0.00078,  -0.00239,468493376.00000,   0.00030,274965440.00000,   0.00007,   0.00013,  -0.00047,-6472064.00000,   0.00000
435237463.81272,327995623.02866,-147203953.43499,   0.00141,   0.00077,  -0.00238,468295616.00000,   0.00030,274965440.00000,   0.00007,   0.00013,  -0.00047,-6669824.00000,   0.00000
436374614.52654,327419663.57621,-146441914.77482,   0.00142,   0.00077,  -0.00237,468102944.00000,   0.00030,274965440.00000,   0.00007,   0.00013,  -0.00047,-6862496.00000,   0.00000
437502904.32570,326823028.65623,-145673968.83821,   0.00143,   0.00076,  -0.00236,467901440.00000,   0.00030,274965440.00000,   0.00007,   0.00013,  -0.00047,-7064000.00000,   0.00000
438631194.12487,326226393.73625,-144906022.90161,   0.00143,   0.00076,  -0.00235,467706944.00000,   0.00030,274965440.00000,   0.00007,   0.00013,  -0.00047,-7258496.00000,   0.00000
439750623.00939,325609083.34875,-144132169.68857,   0.00144,   0.00075,  -0.00234,467503936.00000,   0.00030,274965440.00000,   0.00007,   0.00013,  -0.00047,-7461504.00000,   0.00000
440849376.42638,324982912.04659,-143358316.47552,   0.00144,   0.00075,  -0.00233,467294176.00000,   0.00030,274965440.00000,   0.00007,   0.00013,  -0.00047,-7671264.00000,   0.00000
441959944.39624,324344926.19156,-142578555.98605,   0.00145,   0.00074,  -0.00232,467091200.00000,   0.00030,274965440.00000,   0.00007,   0.00013,  -0.00047,-7874240.00000,   0.00000
443070512.36610,323706940.33654,-141792888.22014,   0.00146,   0.00074,  -0.00231,466891168.00000,   0.00030,274965440.00000,   0.00007,   0.00013,  -0.00047,-8074272.00000,   0.00000
444151543.95378,323039418.09933,-141007220.45422,   0.00146,   0.00073,  -0.00230,466675616.00000,   0.00030,274965440.00000,   0.00007,   0.00013,  -0.00047,-8289824.00000,   0.00000
445244390.09434,322360081.30926,-140215645.41187,   0.00147,   0.00073,  -0.00229,466468864.00000,   0.00030,274965440.00000,   0.00007,   0.00013,  -0.00047,-8496576.00000,   0.00000
446337236.23489,321680744.51919,-139418163.09309,   0.00148,   0.00072,  -0.00228,466267328.00000,   0.00030,274965440.00000,   0.00007,   0.00013,  -0.00047,-8698112.00000,   0.00000
447409406.90792,320992546.81446,-138620680.77431,   0.00148,   0.00072,  -0.00227,466062144.00000,   0.00030,274965440.00000,   0.00007,   0.00013,  -0.00047,-8903296.00000,   0.00000
448493392.13382,320292534.55686,-137817291.17909,   0.00149,   0.00071,  -0.00226,465868096.00000,   0.00030,274965440.00000,   0.00007,   0.00013,  -0.00047,-9097344.00000,   0.00000
449568516.44507,319571846.83174,-137013901.58387,   0.00149,   0.00071,  -0.00225,465675776.00000,   0.00030,274965440.00000,   0.00007,   0.00013,  -0.00047,-9289664.00000,   0.00000
450622965.28880,318842298.19196,-136204604.71222,   0.00150,   0.00070,  -0.00224,465475200.00000,   0.00030,274965440.00000,   0.00007,   0.00013,  -0.00047,-9490240.00000,   0.00000
451689228.68539,318100934.99931,-135389400.56413,   0.00151,   0.00069,  -0.00223,465285184.00000,   0.00030,274965440.00000,   0.00007,   0.00013,  -0.00047,-9680256.00000,   0.00000
452734816.61446,317350710.89201,-134574196.41604,   0.00151,   0.00069,  -0.00222,465090656.00000,   0.00030,274965440.00000,   0.00007,   0.00013,  -0.00047,-9874784.00000,   0.00000
453792219.09641,316588672.23184,-133753084.99151,   0.00152,   0.00068,  -0.00221,464905696.00000,   0.00030,274965440.00000,   0.00007,   0.00013,  -0.00047,-10059744.00000,   0.00000
454828946.11082,315817772.65702,-132931973.56699,   0.00153,   0.00068,  -0.00220,464714848.00000,   0.00030,274965440.00000,   0.00007,   0.00013,  -0.00047,-10250592.00000,   0.00000
455856812.21059,315026197.61467,-132099047.58959,   0.00153,   0.00067,  -0.00219,464512800.00000,   0.00030,274965440.00000,   0.00007,   0.00013,  -0.00047,-10452640.00000,   0.00000
456905353.77788,314243483.48698,-131272028.88863,   0.00154,   0.00067,  -0.00218,464339712.00000,   0.00030,274965440.00000,   0.00007,   0.00013,  -0.00047,-10625728.00000,   0.00000
457924358.96299,313431232.97711,-130439102.91124,   0.00154,   0.00066,  -0.00216,464145760.00000,   0.00030,274965440.00000,   0.00007,   0.00013,  -0.00047,-10819680.00000,   0.00000
458943364.14810,312618982.46723,-129600269.65740,   0.00155,   0.00066,  -0.00215,463956256.00000,   0.00030,274965440.00000,   0.00007,   0.00013,  -0.00047,-11009184.00000,   0.00000
459953508.41856,311786056.48984,-128755529.12714,   0.00156,   0.00065,  -0.00214,463761952.00000,   0.00030,274965440.00000,   0.00007,   0.00013,  -0.00047,-11203488.00000,   0.00000
460954791.77437,310932455.04492,-127916695.87331,   0.00156,   0.00064,  -0.00213,463573280.00000,   0.00030,274965440.00000,   0.00007,   0.00013,  -0.00047,-11392160.00000,   0.00000
461956075.13017,310078853.60000,-127066048.06660,   0.00157,   0.00064,  -0.00212,463385184.00000,   0.00030,274965440.00000,   0.00007,   0.00013,  -0.00047,-11580256.00000,   0.00000
462957358.48598,309225252.15508,-126215400.25990,   0.00158,   0.00063,  -0.00211,463207904.00000,   0.00030,274965440.00000,   0.00007,   0.00013,  -0.00047,-11757536.00000,   0.00000
463949780.92713,308350975.24263,-125358845.17677,   0.00158,   0.00063,  -0.00210,463027296.00000,   0.00030,274965440.00000,   0.00007,   0.00013,  -0.00047,-11938144.00000,   0.00000
464942203.36828,307476698.33019,-124502290.09363,   0.00159,   0.00062,  -0.00209,462857888.00000,   0.00030,274965440.00000,   0.00007,   0.00013,  -0.00047,-12107552.00000,   0.00000
465925764.89478,306581745.95022,-123639827.73405,   0.00159,   0.00061,  -0.00208,462685376.00000,   0.00030,274965440.00000,   0.00007,   0.00013,  -0.00047,-12280064.00000,   0.00000
466879790.03910,305657257.18808,-122777365.37448,   0.00160,   0.00061,  -0.00207,462499424.00000,   0.00030,274965440.00000,   0.00007,   0.00013,  -0.00047,-12466016.00000,   0.00000
467854490.65095,304741629.34059,-121908995.73847,   0.00161,   0.00060,  -0.00205,462335040.00000,   0.00030,274965440.00000,   0.00007,   0.00013,  -0.00047,-12630400.00000,   0.00000
468829191.26280,303826001.49309,-121040626.10247,   0.00161,   0.00060,  -0.00204,462181568.00000,   0.00030,274965440.00000,   0.00007,   0.00013,  -0.00047,-12783872.00000,   0.00000
469774355.49246,302880837.26343,-120166349.19002,   0.00162,   0.00059,  -0.00203,462009600.00000,   0.00030,274965440.00000,   0.00007,   0.00013,  -0.00047,-12955840.00000,   0.00000
470719519.72213,301935673.03376,-119292072.27758,   0.00162,   0.00058,  -0.00202,461847936.00000,   0.00030,274965440.00000,   0.00007,   0.00013,  -0.00047,-13117504.00000,   0.00000
471676498.50467,300978694.25122,-118411888.08870,   0.00163,   0.00058,  -0.00201,461698688.00000,   0.00030,274965440.00000,   0.00007,   0.00013,  -0.00047,-13266752.00000,   0.00000
472612801.81969,300012854.55402,-117525796.62338,   0.00164,   0.00057,  -0.00200,461539552.00000,   0.00030,274965440.00000,   0.00007,   0.00013,  -0.00047,-13425888.00000,   0.00000
473540244.22005,299026339.38931,-116639705.15807,   0.00164,   0.00056,  -0.00199,461381824.00000,   0.00030,274965440.00000,   0.00007,   0.00013,  -0.00047,-13583616.00000,   0.00000
474458825.70576,298019148.75707,-115753613.69275,   0.00165,   0.00056,  -0.00197,461225184.00000,   0.00030,274965440.00000,   0.00007,   0.00013,  -0.00047,-13740256.00000,   0.00000
475386268.10612,297032633.59235,-114861614.95100,   0.00166,   0.00055,  -0.00196,461083360.00000,   0.00030,274965440.00000,   0.00007,   0.00013,  -0.00047,-13882080.00000,   0.00000
476304849.59183,296025442.96011,-113963708.93282,   0.00166,   0.00055,  -0.00195,460938528.00000,   0.00030,274965440.00000,   0.00007,   0.00013,  -0.00047,-14026912.00000,   0.00000
477214570.16289,294997576.86034,-113071710.19107,   0.00167,   0.00054,  -0.00194,460799616.00000,   0.00030,274965440.00000,   0.00007,   0.00013,  -0.00047,-14165824.00000,   0.00000
478124290.73395,293969710.76058,-112167896.89645,   0.00167,   0.00053,  -0.00193,460662816.00000,   0.00030,274965440.00000,   0.00007,   0.00013,  -0.00047,-14302624.00000,   0.00000
479004474.92283,292912308.27863,-111264083.60183,   0.00168,   0.00053,  -0.00192,460511904.00000,   0.00030,274965440.00000,   0.00007,   0.00013,  -0.00047,-14453536.00000,   0.00000
479905334.57923,291863766.71135,-110360270.30721,   0.00169,   0.00052,  -0.00190,460388128.00000,   0.00030,274965440.00000,   0.00007,   0.00013,  -0.00047,-14577312.00000,   0.00000
480785518.76811,290806364.22940,-109450549.73615,   0.00169,   0.00051,  -0.00189,460255296.00000,   0.00030,274965440.00000,   0.00007,   0.00013,  -0.00047,-14710144.00000,   0.00000
481677517.50986,289737147.19459,-108534921.88866,   0.00170,   0.00051,  -0.00188,460137408.00000,   0.00030,274965440.00000,   0.00007,   0.00013,  -0.00047,-14828032.00000,   0.00000
482539979.86943,288638393.77760,-107619294.04117,   0.00170,   0.00050,  -0.00187,460006912.00000,   0.00030,274965440.00000,   0.00007,   0.00013,  -0.00047,-14958528.00000,   0.00000
483402442.22900,287539640.36061,-106703666.19367,   0.00171,   0.00049,  -0.00186,459888800.00000,   0.00030,274965440.00000,   0.00007,   0.00013,  -0.00047,-15076640.00000,   0.00000
484264904.58858,286440886.94362,-105782131.06975,   0.00172,   0.00049,  -0.00184,459779456.00000,   0.00030,274965440.00000,   0.00007,   0.00013,  -0.00047,-15185984.00000,   0.00000
485118506.03350,285321458.05911,-104860595.94582,   0.00172,   0.00048,  -0.00183,459674752.00000,   0.00030,274965440.00000,   0.00007,   0.00013,  -0.00047,-15290688.00000,   0.00000
485972107.47842,284202029.17459,-103933153.54546,   0.00173,   0.00047,  -0.00182,459579680.00000,   0.00030,274965440.00000,   0.00007,   0.00013,  -0.00047,-15385760.00000,   0.00000
486825708.92334,283082600.29008,-103005711.14509,   0.00173,   0.00047,  -0.00181,459498272.00000,   0.00030,274965440.00000,   0.00007,   0.00013,  -0.00047,-15467168.00000,   0.00000
487649773.98608,281933635.02339,-102072361.46830,   0.00174,   0.00046,  -0.00180,459402016.00000,   0.00030,274965440.00000,   0.00007,   0.00013,  -0.00047,-15563424.00000,   0.00000
488485653.60169,280772855.20382,-101139011.79150,   0.00175,   0.00045,  -0.00178,459327840.00000,   0.00030,274965440.00000,   0.00007,   0.00013,  -0.00047,-15637600.00000,   0.00000
489309718.66444,279623889.93713,-100205662.11470,   0.00175,   0.00045,  -0.00177,459258944.00000,   0.00030,274965440.00000,   0.00007,   0.00013,  -0.00047,-15706496.00000,   0.00000
490116061.89787,278433573.73539,-99266405.16147,   0.00176,   0.00044,  -0.00176,459182464.00000,   0.00030,274965440.00000,   0.00007,   0.00013,  -0.00047,-15782976.00000,   0.00000
490931266.04596,277263933.00118,-98327148.20823,   0.00176,   0.00043,  -0.00175,459126592.00000,   0.00030,274965440.00000,   0.00007,   0.00013,  -0.00047,-15838848.00000,   0.00000
491758284.74692,276082477.71409,-97381983.97856,   0.00177,   0.00043,  -0.00173,459086528.00000,   0.00030,274965440.00000,   0.00007,   0.00013,  -0.00047,-15878912.00000,   0.00000
492535091.59818,274862625.13017,-96436819.74889,   0.00178,   0.00042,  -0.00172,459015424.00000,   0.00030,274965440.00000,   0.00007,   0.00013,  -0.00047,-15950016.00000,   0.00000
493341434.83162,273672308.92844,-95485748.24279,   0.00178,   0.00041,  -0.00171,458975360.00000,   0.00030,274965440.00000,   0.00007,   0.00013,  -0.00047,-15990080.00000,   0.00000
494130056.23575,272440641.79165,-94534676.73669,   0.00179,   0.00040,  -0.00170,458928800.00000,   0.00030,274965440.00000,   0.00007,   0.00013,  -0.00047,-16036640.00000,   0.00000
494927538.55453,271229650.12238,-93577697.95415,   0.00179,   0.00040,  -0.00169,458896896.00000,   0.00030,274965440.00000,   0.00007,   0.00013,  -0.00047,-16068544.00000,   0.00000
495695484.49114,269989122.07094,-92626626.44804,   0.00180,   0.00039,  -0.00167,458854752.00000,   0.00030,274965440.00000,   0.00007,   0.00013,  -0.00047,-16110688.00000,   0.00000
496463430.42774,268748594.01950,-91663740.38907,   0.00181,   0.00038,  -0.00166,458817472.00000,   0.00030,274965440.00000,   0.00007,   0.00013,  -0.00047,-16147968.00000,   0.00000
497222515.44970,267487390.50054,-90706761.60653,   0.00181,   0.00038,  -0.00165,458788640.00000,   0.00030,274965440.00000,   0.00007,   0.00013,  -0.00047,-16176800.00000,   0.00000
498002275.93917,266235047.89623,-89737968.27111,   0.00182,   0.00037,  -0.00164,458783264.00000,   0.00030,274965440.00000,   0.00007,   0.00013,  -0.00047,-16182176.00000,   0.00000
498752500.04647,264953168.90974,-88775082.21214,   0.00182,   0.00036,  -0.00162,458770880.00000,   0.00030,274965440.00000,   0.00007,   0.00013,  -0.00047,-16194560.00000,   0.00000
499482048.68625,263662429.00860,-87806288.87673,   0.00183,   0.00035,  -0.00161,458752320.00000,   0.00030,274965440.00000,   0.00007,   0.00013,  -0.00047,-16213120.00000,   0.00000
500232272.79355,262380550.02211,-86837495.54132,   0.00184,   0.00035,  -0.00160,458764864.00000,   0.00030,274965440.00000,   0.00007,   0.00013,  -0.00047,-16200576.00000,   0.00000
500982496.90085,261098671.03562,-85862794.92947,   0.00184,   0.00034,  -0.00159,458788288.00000,   0.00030,274965440.00000,   0.00007,   0.00013,  -0.00047,-16177152.00000,   0.00000
501703184.62597,259787255.66695,-84888094.31763,   0.00185,   0.00033,  -0.00157,458800928.00000,   0.00030,274965440.00000,   0.00007,   0.00013,  -0.00047,-16164512.00000,   0.00000
502423872.35109,258475840.29829,-83913393.70578,   0.00185,   0.00032,  -0.00156,458827232.00000,   0.00030,274965440.00000,   0.00007,   0.00013,  -0.00047,-16138208.00000,   0.00000
503135699.16156,257143749.46210,-82932785.81750,   0.00186,   0.00032,  -0.00155,458856224.00000,   0.00030,274965440.00000,   0.00007,   0.00013,  -0.00047,-16109216.00000,   0.00000
503868201.43956,255820519.54056,-81952177.92922,   0.00187,   0.00031,  -0.00153,458915680.00000,   0.00030,274965440.00000,   0.00007,   0.00013,  -0.00047,-16049760.00000,   0.00000
504559352.78250,254479567.78972,-80971570.04093,   0.00187,   0.00030,  -0.00152,458954112.00000,   0.00030,274965440.00000,   0.00007,   0.00013,  -0.00047,-16011328.00000,   0.00000
505262318.67832,253126801.48601,-79985054.87622,   0.00188,   0.00029,  -0.00151,459012320.00000,   0.00030,274965440.00000,   0.00007,   0.00013,  -0.00047,-15953120.00000,   0.00000
505974145.48879,251794710.64982,-78998539.71150,   0.00188,   0.00029,  -0.00150,459091008.00000,   0.00030,274965440.00000,   0.00007,   0.00013,  -0.00047,-15874432.00000,   0.00000
506647575.00243,250412407.96392,-78006117.27035,   0.00189,   0.00028,  -0.00148,459147680.00000,   0.00030,274965440.00000,   0.00007,   0.00013,  -0.00047,-15817760.00000,   0.00000
507350540.89824,249059641.66021,-77013694.82920,   0.00189,   0.00027,  -0.00147,459241792.00000,   0.00030,274965440.00000,   0.00007,   0.00013,  -0.00047,-15723648.00000,   0.00000
508023970.41188,247677338.97432,-76021272.38804,   0.00190,   0.00026,  -0.00146,459324576.00000,   0.00030,274965440.00000,   0.00007,   0.00013,  -0.00047,-15640864.00000,   0.00000
508697399.92552,246295036.28843,-75028849.94689,   0.00191,   0.00026,  -0.00144,459420288.00000,   0.00030,274965440.00000,   0.00007,   0.00013,  -0.00047,-15545152.00000,   0.00000
509370829.43916,244912733.60254,-74030520.22930,   0.00191,   0.00025,  -0.00143,459526080.00000,   0.00030,274965440.00000,   0.00007,   0.00013,  -0.00047,-15439360.00000,   0.00000
510035398.03815,243509755.44912,-73032190.51172,   0.00192,   0.00024,  -0.00142,459637984.00000,   0.00030,274965440.00000,   0.00007,   0.00013,  -0.00047,-15327456.00000,   0.00000
510679291.16961,242097916.38106,-72027953.51769,   0.00192,   0.00023,  -0.00141,459743136.00000,   0.00030,274965440.00000,   0.00007,   0.00013,  -0.00047,-15222304.00000,   0.00000
511334998.85394,240674262.76012,-71023716.52367,   0.00193,   0.00023,  -0.00139,459871904.00000,   0.00030,274965440.00000,   0.00007,   0.00013,  -0.00047,-15093536.00000,   0.00000
511978891.98540,239262423.69205,-70019479.52965,   0.00193,   0.00022,  -0.00138,460003840.00000,   0.00030,274965440.00000,   0.00007,   0.00013,  -0.00047,-14961600.00000,   0.00000
512613924.20221,237829909.15646,-69015242.53562,   0.00194,   0.00021,  -0.00137,460142656.00000,   0.00030,274965440.00000,   0.00007,   0.00013,  -0.00047,-14822784.00000,   0.00000
513248956.41902,236397394.62086,-68005098.26516,   0.00195,   0.00020,  -0.00135,460292544.00000,   0.00030,274965440.00000,   0.00007,   0.00013,  -0.00047,-14672896.00000,   0.00000
513883988.63583,234964880.08527,-66994953.99470,   0.00195,   0.00019,  -0.00134,460456032.00000,   0.00030,274965440.00000,   0.00007,   0.00013,  -0.00047,-14509408.00000,   0.00000
514510159.93799,233511690.08216,-65984809.72425,   0.00196,   0.00019,  -0.00133,460627136.00000,   0.00030,274965440.00000,   0.00007,   0.00013,  -0.00047,-14338304.00000,   0.00000
515136331.24014,232058500.07904,-64968758.17735,   0.00196,   0.00018,  -0.00131,460809824.00000,   0.00030,274965440.00000,   0.00007,   0.00013,  -0.00047,-14155616.00000,   0.00000
515741827.07477,230596449.16127,-63952706.63046,   0.00197,   0.00017,  -0.00130,460989504.00000,   0.00030,274965440.00000,   0.00007,   0.00013,  -0.00047,-13975936.00000,   0.00000
516338461.99475,229113722.77598,-62936655.08356,   0.00197,   0.00016,  -0.00129,461177056.00000,   0.00030,274965440.00000,   0.00007,   0.00013,  -0.00047,-13788384.00000,   0.00000
516964633.29691,227660532.77286,-61920603.53667,   0.00198,   0.00016,  -0.00127,461402944.00000,   0.00030,274965440.00000,   0.00007,   0.00013,  -0.00047,-13562496.00000,   0.00000
517561268.21689,226177806.38757,-60898644.71334,   0.00199,   0.00015,  -0.00126,461617088.00000,   0.00030,274965440.00000,   0.00007,   0.00013,  -0.00047,-13348352.00000,   0.00000
518137227.66934,224686219.08762,-59876685.89001,   0.00199,   0.00014,  -0.00125,461828448.00000,   0.00030,274965440.00000,   0.00007,   0.00013,  -0.00047,-13136992.00000,   0.00000
518725001.67467,223182817.23480,-58848819.79024,   0.00200,   0.00013,  -0.00123,462063392.00000,   0.00030,274965440.00000,   0.00007,   0.00013,  -0.00047,-12902048.00000,   0.00000
519321636.59464,221700090.84951,-57826860.96692,   0.00200,   0.00012,  -0.00122,462321568.00000,   0.00030,274965440.00000,   0.00007,   0.00013,  -0.00047,-12643872.00000,   0.00000
519888735.13245,220187828.08204,-56798994.86715,   0.00201,   0.00012,  -0.00121,462568448.00000,   0.00030,274965440.00000,   0.00007,   0.00013,  -0.00047,-12396992.00000,   0.00000
520455833.67025,218675565.31457,-55771128.76739,   0.00201,   0.00011,  -0.00119,462829920.00000,   0.00030,274965440.00000,   0.00007,   0.00013,  -0.00047,-12135520.00000,   0.00000
521043607.67557,217172163.46175,-54737355.39118,   0.00202,   0.00010,  -0.00118,463121344.00000,   0.00030,274965440.00000,   0.00007,   0.00013,  -0.00047,-11844096.00000,   0.00000
521581169.83120,215630364.31211,-53709489.29142,   0.00202,   0.00009,  -0.00117,463388192.00000,   0.00030,274965440.00000,   0.00007,   0.00013,  -0.00047,-11577248.00000,   0.00000
522148268.36900,214118101.54464,-52675715.91522,   0.00203,   0.00008,  -0.00115,463691040.00000,   0.00030,274965440.00000,   0.00007,   0.00013,  -0.00047,-11274400.00000,   0.00000
522706505.99215,212585163.30964,-51641942.53902,   0.00204,   0.00008,  -0.00114,464002272.00000,   0.00030,274965440.00000,   0.00007,   0.00013,  -0.00047,-10963168.00000,   0.00000
523244068.14777,211043364.15999,-50602261.88638,   0.00204,   0.00007,  -0.00113,464308160.00000,   0.00030,274965440.00000,   0.00007,   0.00013,  -0.00047,-10657280.00000,   0.00000
523793444.85627,209489750.45747,-49568488.51018,   0.00205,   0.00006,  -0.00111,464642176.00000,   0.00030,274965440.00000,   0.00007,   0.00013,  -0.00047,-10323264.00000,   0.00000
524331007.01189,207947951.30783,-48528807.85755,   0.00205,   0.00005,  -0.00110,464976448.00000,   0.00030,274965440.00000,   0.00007,   0.00013,  -0.00047,-9988992.00000,   0.00000
524868569.16751,206406152.15818,-47489127.20491,   0.00206,   0.00004,  -0.00109,465324512.00000,   0.00030,274965440.00000,   0.00007,   0.00013,  -0.00047,-9640928.00000,   0.00000
525397270.40849,204843677.54101,-46443539.27584,   0.00206,   0.00004,  -0.00107,465679392.00000,   0.00030,274965440.00000,   0.00007,   0.00013,  -0.00047,-9286048.00000,   0.00000
525925971.64946,203281202.92384,-45403858.62320,   0.00207,   0.00003,  -0.00106,466049952.00000,   0.00030,274965440.00000,   0.00007,   0.00013,  -0.00047,-8915488.00000,   0.00000
526433997.42290,201709867.39201,-44358270.69413,   0.00207,   0.00002,  -0.00105,466415008.00000,   0.00030,274965440.00000,   0.00007,   0.00013,  -0.00047,-8550432.00000,   0.00000
526962698.66387,200147392.77484,-43312682.76506,   0.00208,   0.00001,  -0.00103,466811648.00000,   0.00030,274965440.00000,   0.00007,   0.00013,  -0.00047,-8153792.00000,   0.00000
527461863.52267,198555381.77549,-42267094.83599,   0.00208,   0.00000,  -0.00102,467199328.00000,   0.00030,274965440.00000,   0.00007,   0.00013,  -0.00047,-7766112.00000,   0.00000
527969889.29612,196984046.24367,-41221506.90692,   0.00209,  -0.00001,  -0.00100,467606560.00000,   0.00030,274965440.00000,   0.00007,   0.00013,  -0.00047,-7358880.00000,   0.00000
528469054.15491,195392035.24432,-40170011.70141,   0.00210,  -0.00001,  -0.00099,468021024.00000,   0.00030,274965440.00000,   0.00007,   0.00013,  -0.00047,-6944416.00000,   0.00000
528977079.92836,193820699.71249,-39118516.49590,   0.00210,  -0.00002,  -0.00098,468454816.00000,   0.00030,274965440.00000,   0.00007,   0.00013,  -0.00047,-6510624.00000,   0.00000
529455569.31963,192219827.79849,-38067021.29040,   0.00211,  -0.00003,  -0.00096,468880320.00000,   0.00030,274965440.00000,   0.00007,   0.00013,  -0.00047,-6085120.00000,   0.00000
529954734.17842,190627816.79914,-37015526.08489,   0.00211,  -0.00004,  -0.00095,469338016.00000,   0.00030,274965440.00000,   0.00007,   0.00013,  -0.00047,-5627424.00000,   0.00000
530433223.56969,189026944.88514,-35964030.87938,   0.00212,  -0.00005,  -0.00094,469792544.00000,   0.00030,274965440.00000,   0.00007,   0.00013,  -0.00047,-5172896.00000,   0.00000
530902852.04631,187405397.50362,-34906628.39744,   0.00212,  -0.00005,  -0.00092,470255712.00000,   0.00030,274965440.00000,   0.00007,   0.00013,  -0.00047,-4709728.00000,   0.00000
531381341.43758,185804525.58961,-33849225.91550,   0.00213,  -0.00006,  -0.00091,470738496.00000,   0.00030,274965440.00000,   0.00007,   0.00013,  -0.00047,-4226944.00000,   0.00000
531859830.82885,184203653.67561,-32791823.43356,   0.00213,  -0.00007,  -0.00090,471235872.00000,   0.00030,274965440.00000,   0.00007,   0.00013,  -0.00047,-3729568.00000,   0.00000
532329459.30546,182582106.29409,-31734420.95162,   0.00214,  -0.00008,  -0.00088,471743296.00000,   0.00030,274965440.00000,   0.00007,   0.00013,  -0.00047,-3222144.00000,   0.00000
532778412.31456,180951697.99791,-30677018.46967,   0.00214,  -0.00009,  -0.00087,472247296.00000,   0.00030,274965440.00000,   0.00007,   0.00013,  -0.00047,-2718144.00000,   0.00000
533256901.70583,179350826.08390,-29613708.71130,   0.00215,  -0.00010,  -0.00085,472786720.00000,   0.00030,274965440.00000,   0.00007,   0.00013,  -0.00047,-2178720.00000,   0.00000
533705854.71492,177720417.78773,-28556306.22935,   0.00215,  -0.00010,  -0.00084,473318880.00000,   0.00030,274965440.00000,   0.00007,   0.00013,  -0.00047,-1646560.00000,   0.00000
534154807.72401,176090009.49155,-27492996.47098,   0.00216,  -0.00011,  -0.00083,473863424.00000,   0.00030,274965440.00000,   0.00007,   0.00013,  -0.00047,-1102016.00000,   0.00000
534603760.73310,174459601.19537,-26429686.71260,   0.00216,  -0.00012,  -0.00081,474420992.00000,   0.00030,274965440.00000,   0.00007,   0.00013,  -0.00047,-544448.00000,   0.00000
535027019.39723,172839542.17060,-25378837.61545,   0.00217,  -0.00013,  -0.00080,474966176.00000,   0.00030,274965440.00000,   0.00007,   0.00013,  -0.00047, 736.00000,   0.00000
535024039.98957,172818429.79545,-25365939.78162,   0.00217,  -0.00013,  -0.00080,474966176.00000,   0.00030,274965472.00000,   0.00007,   0.00013,  -0.00047, -32.00000,   1.00000
534838432.35653,171039617.59648,-24262607.35482,   0.00217,  -0.00014,  -0.00078,475545568.00000,   0.00030,274967840.00000,   0.00007,   0.00013,  -0.00047,  64.00000,   2.00000
534647336.90728,169258014.43517,-23165192.76545,   0.00218,  -0.00015,  -0.00077,475540608.00000,   0.00030,274970176.00000,   0.00008,   0.00013,  -0.00047,  64.00000,   2.00000
534453680.72849,167482369.72331,-22060302.13534,   0.00218,  -0.00015,  -0.00076,475569664.00000,   0.00030,274972608.00000,   0.00008,   0.00013,  -0.00047, 160.00000,   2.00000
534246797.33593,165701942.47174,-20956724.17550,   0.00219,  -0.00016,  -0.00074,475567072.00000,   0.00031,274975040.00000,   0.00008,   0.00013,  -0.00047,-128.00000,   2.00000
534019536.12365,163919563.18386,-19860259.97856,   0.00219,  -0.00017,  -0.00073,475587232.00000,   0.00031,274977504.00000,   0.00008,   0.00012,  -0.00047,  64.00000,   2.00000
533768966.76935,162134836.23453,-18759847.21920,   0.00220,  -0.00018,  -0.00072,475608672.00000,   0.00031,274980096.00000,   0.00009,   0.00012,  -0.00047, 128.00000,   2.00000
533493691.82038,160343057.14068,-17656459.58758,   0.00221,  -0.00019,  -0.00070,475612320.00000,   0.00031,274982720.00000,   0.00009,   0.00012,  -0.00047, -32.00000,   2.00000
533192806.61593,158534213.33561,-16560215.14209,   0.00221,  -0.00020,  -0.00069,475647872.00000,   0.00031,274985472.00000,   0.00009,   0.00012,  -0.00047, -32.00000,   2.00000
532877067.82967,156738912.63487,-15466244.48371,   0.00222,  -0.00020,  -0.00067,475652288.00000,   0.00032,274988224.00000,   0.00010,   0.00012,  -0.00047, 128.00000,   2.00000
532545745.47925,154942660.36250,-14367985.85666,   0.00222,  -0.00021,  -0.00066,475668608.00000,   0.00032,274991072.00000,   0.00010,   0.00012,  -0.00047, -32.00000,   2.00000
532199523.73085,153145588.13405,-13271291.78053,   0.00223,  -0.00022,  -0.00065,475684704.00000,   0.00032,274993952.00000,   0.00010,   0.00012,  -0.00047,   0.00000,   2.00000
531838840.33052,151347864.55198,-12176174.57218,   0.00223,  -0.00023,  -0.00063,475700448.00000,   0.00033,274996928.00000,   0.00011,   0.00012,  -0.00047,-128.00000,   2.00000
531458550.99374,149529728.78520,-11088661.88943,   0.00224,  -0.00024,  -0.00062,475712992.00000,   0.00033,274999904.00000,   0.00011,   0.00012,  -0.00047,  64.00000,   2.00000
531068539.23195,147726280.34559,-9991388.43149,   0.00224,  -0.00025,  -0.00060,475713824.00000,   0.00033,275002912.00000,   0.00011,   0.00012,  -0.00047, -96.00000,   2.00000
530664963.47292,145928011.58056,-8901393.29825,   0.00225,  -0.00025,  -0.00059,475748224.00000,   0.00033,275006048.00000,   0.00012,   0.00012,  -0.00047,  96.00000,   2.00000
530244879.68183,144124624.50859,-7813567.96309,   0.00225,  -0.00026,  -0.00058,475747392.00000,   0.00034,275009184.00000,   0.00012,   0.00012,  -0.00047, -32.00000,   2.00000
529809681.26527,142321677.64555,-6727628.87207,   0.00226,  -0.00027,  -0.00056,475764672.00000,   0.00034,275012384.00000,   0.00012,   0.00012,  -0.00047,  32.00000,   2.00000
529359502.08980,140519364.19958,-5637730.65346,   0.00226,  -0.00028,  -0.00055,475781920.00000,   0.00034,275015648.00000,   0.00013,   0.00011,  -0.00047,-160.00000,   2.00000
528894512.20910,138717723.72176,-4555692.46262,   0.00227,  -0.00029,  -0.00053,475799616.00000,   0.00035,275018976.00000,   0.00013,   0.00011,  -0.00047,   0.00000,   2.00000
528414024.59345,136911031.41041,-3469804.31359,   0.00227,  -0.00030,  -0.00052,475799072.00000,   0.00035,275022304.00000,   0.00013,   0.00011,  -0.00047,  32.00000,   2.00000
527922322.21287,135110410.54616,-2385713.46527,   0.00228,  -0.00030,  -0.00051,475832800.00000,   0.00035,275025728.00000,   0.00014,   0.00011,  -0.00047, -64.00000,   2.00000
527418148.44493,133304134.37413,-1303486.14999,   0.00228,  -0.00031,  -0.00049,475830272.00000,   0.00035,275029152.00000,   0.00014,   0.00011,  -0.00047,  32.00000,   2.00000
526910005.41822,131517735.53844,-223008.14675,   0.00229,  -0.00032,  -0.00048,475847008.00000,   0.00036,275032640.00000,   0.00014,   0.00011,  -0.00047, -64.00000,   2.00000
526387901.69582,129710774.10874,855750.97067,   0.00229,  -0.00033,  -0.00046,475856992.00000,   0.00036,275036128.00000,   0.00015,   0.00011,  -0.00047,   0.00000,   2.00000
525863429.74280,127923704.82105,1932737.36949,   0.00230,  -0.00034,  -0.00045,475873024.00000,   0.00036,275039680.00000,   0.00015,   0.00011,  -0.00047, 128.00000,   2.00000
525324466.54053,126116687.51065,3007883.08224,   0.00230,  -0.00034,  -0.00044,475883808.00000,   0.00037,275043264.00000,   0.00016,   0.00011,  -0.00047, 160.00000,   2.00000
524778555.55564,124324830.10938,4081153.85548,   0.00230,  -0.00035,  -0.00042,475884544.00000,   0.00037,275046816.00000,   0.00016,   0.00010,  -0.00047, -64.00000,   2.00000
524215850.71960,122520627.38324,5157984.42336,   0.00231,  -0.00036,  -0.00041,475916800.00000,   0.00037,275050496.00000,   0.00016,   0.00010,  -0.00047,   0.00000,   2.00000
523642679.61711,120733177.62288,6226751.82490,   0.00231,  -0.00037,  -0.00039,475921024.00000,   0.00038,275054176.00000,   0.00017,   0.00010,  -0.00047,  96.00000,   2.00000
523053497.01559,118948737.88447,7298939.30798,   0.00232,  -0.00038,  -0.00038,475941536.00000,   0.00038,275057952.00000,   0.00017,   0.00010,  -0.00047, 160.00000,   2.00000
522448512.52115,117167542.13116,8362652.65434,   0.00232,  -0.00039,  -0.00037,475961824.00000,   0.00038,275061792.00000,   0.00018,   0.00010,  -0.00047,   0.00000,   2.00000
521834158.98035,115409768.63958,9429577.29772,   0.00233,  -0.00039,  -0.00035,475984320.00000,   0.00039,275065760.00000,   0.00018,   0.00010,  -0.00047,  64.00000,   2.00000
521196429.30390,113627972.24235,10494286.25068,   0.00233,  -0.00040,  -0.00034,475983872.00000,   0.00039,275069664.00000,   0.00018,   0.00010,  -0.00047, -32.00000,   2.00000
520554235.65569,111875857.17757,11549911.52384,   0.00234,  -0.00041,  -0.00032,476021312.00000,   0.00040,275073760.00000,   0.00019,   0.00010,  -0.00047, -32.00000,   2.00000
519889761.46326,110098954.06435,12609238.27315,   0.00234,  -0.00042,  -0.00031,476019936.00000,   0.00040,275077824.00000,   0.00019,   0.00009,  -0.00047,   0.00000,   2.00000
519219679.23307,108344598.34528,13665743.21601,   0.00235,  -0.00043,  -0.00029,476038976.00000,   0.00040,275081952.00000,   0.00020,   0.00009,  -0.00047, -32.00000,   2.00000
518537950.20161,106592213.64749,14719449.51415,   0.00235,  -0.00043,  -0.00028,476055360.00000,   0.00041,275086144.00000,   0.00020,   0.00009,  -0.00047, 128.00000,   2.00000
517844900.01654,104841662.79624,15770319.97383,   0.00236,  -0.00044,  -0.00027,476071456.00000,   0.00041,275090400.00000,   0.00021,   0.00009,  -0.00047,  32.00000,   2.00000
517141216.68505,103092874.26898,16818342.44573,   0.00236,  -0.00045,  -0.00025,476087040.00000,   0.00041,275094688.00000,   0.00021,   0.00009,  -0.00047, -64.00000,   2.00000
516434234.35678,101366219.74989,17863434.56155,   0.00237,  -0.00046,  -0.00024,476104384.00000,   0.00042,275099040.00000,   0.00022,   0.00009,  -0.00047, 160.00000,   2.00000
515707371.36653,99613553.39449,18906495.13178,   0.00237,  -0.00047,  -0.00022,476100640.00000,   0.00042,275103360.00000,   0.00022,   0.00008,  -0.00047, -64.00000,   2.00000
514980827.03247,97890047.84833,19945904.33050,   0.00238,  -0.00048,  -0.00021,476134112.00000,   0.00043,275107840.00000,   0.00022,   0.00008,  -0.00047,   0.00000,   2.00000
514242569.76019,96160871.92556,20983365.15107,   0.00238,  -0.00048,  -0.00020,476131520.00000,   0.00043,275112256.00000,   0.00023,   0.00008,  -0.00047, 128.00000,   2.00000
513501779.12152,94453577.21897,22023885.04989,   0.00239,  -0.00049,  -0.00018,476148288.00000,   0.00043,275116736.00000,   0.00023,   0.00008,  -0.00047,   0.00000,   2.00000
512746264.20047,92727338.26094,23055951.03216,   0.00239,  -0.00050,  -0.00017,476160096.00000,   0.00044,275121248.00000,   0.00024,   0.00008,  -0.00047,  64.00000,   2.00000
511986885.99530,91015851.96802,24086213.79692,   0.00240,  -0.00051,  -0.00015,476158720.00000,   0.00044,275125760.00000,   0.00024,   0.00008,  -0.00047,  32.00000,   2.00000
511222286.93779,89313338.73551,25112867.69190,   0.00240,  -0.00052,  -0.00014,476189984.00000,   0.00045,275130368.00000,   0.00025,   0.00007,  -0.00047, -64.00000,   2.00000
510445729.36323,87605166.34434,26143653.41463,   0.00240,  -0.00052,  -0.00012,476188256.00000,   0.00045,275134944.00000,   0.00025,   0.00007,  -0.00046,  96.00000,   2.00000
509664609.45498,85906504.36810,27164755.63947,   0.00241,  -0.00053,  -0.00011,476219104.00000,   0.00046,275139648.00000,   0.00026,   0.00007,  -0.00046, -64.00000,   2.00000
508872181.65451,84202688.32158,28184005.60036,   0.00241,  -0.00054,  -0.00010,476217152.00000,   0.00046,275144288.00000,   0.00026,   0.00007,  -0.00046, 128.00000,   2.00000
508076769.04737,82521911.00448,29205895.31220,   0.00242,  -0.00055,  -0.00008,476235488.00000,   0.00046,275149024.00000,   0.00027,   0.00007,  -0.00046,  32.00000,   2.00000
507273137.60606,80844150.79518,30218697.44806,   0.00242,  -0.00056,  -0.00007,476250656.00000,   0.00047,275153824.00000,   0.00027,   0.00007,  -0.00046, 128.00000,   2.00000
506467079.78003,79190204.96446,31227977.77825,   0.00243,  -0.00056,  -0.00005,476268768.00000,   0.00047,275158656.00000,   0.00028,   0.00006,  -0.00046,   0.00000,   2.00000
505638886.63335,77511451.55612,32240808.75332,   0.00243,  -0.00057,  -0.00004,476268928.00000,   0.00048,275163456.00000,   0.00028,   0.00006,  -0.00046, 160.00000,   2.00000
504812236.10683,75864905.04592,33242824.90017,   0.00244,  -0.00058,  -0.00003,476303296.00000,   0.00048,275168416.00000,   0.00029,   0.00006,  -0.00046, -64.00000,   2.00000
503970937.17616,74214345.62849,34248266.20018,   0.00244,  -0.00059,  -0.00001,476304672.00000,   0.00049,275173376.00000,   0.00029,   0.00006,  -0.00046,  32.00000,   2.00000
503128709.75896,72588310.99080,35244198.46276,   0.00245,  -0.00059,   0.00000,476321728.00000,   0.00049,275178400.00000,   0.00030,   0.00006,  -0.00046,  64.00000,   2.00000
502267580.25438,70945338.31690,36242442.34718,   0.00245,  -0.00060,   0.00002,476338720.00000,   0.00050,275183456.00000,   0.00030,   0.00005,  -0.00045, -64.00000,   2.00000
501407155.86355,69326564.78656,37231427.56991,   0.00246,  -0.00061,   0.00003,476354144.00000,   0.00050,275188576.00000,   0.00031,   0.00005,  -0.00045,  64.00000,   2.00000
500538388.20420,67710963.41488,38217125.10732,   0.00246,  -0.00062,   0.00005,476369696.00000,   0.00051,275193728.00000,   0.00031,   0.00005,  -0.00045, 160.00000,   2.00000
499665084.51665,66110565.75756,39206857.22958,   0.00246,  -0.00063,   0.00006,476369920.00000,   0.00051,275198880.00000,   0.00032,   0.00005,  -0.00045,  96.00000,   2.00000
498789936.07525,64520869.92370,40186297.69905,   0.00247,  -0.00063,   0.00007,476399392.00000,   0.00052,275204128.00000,   0.00033,   0.00005,  -0.00045, 128.00000,   2.00000
497902978.78557,62924974.75533,41170067.66720,   0.00247,  -0.00064,   0.00009,476397920.00000,   0.00052,275209376.00000,   0.00033,   0.00004,  -0.00045,-128.00000,   2.00000
497011533.07814,61330970.76270,42145201.73307,   0.00248,  -0.00065,   0.00010,476409568.00000,   0.00052,275214624.00000,   0.00034,   0.00004,  -0.00045, -64.00000,   2.00000
496126469.96617,59767609.08860,43115855.61407,   0.00248,  -0.00066,   0.00012,476440096.00000,   0.00053,275219968.00000,   0.00034,   0.00004,  -0.00044, 160.00000,   2.00000
495229958.40857,58197431.60210,44090955.53651,   0.00249,  -0.00066,   0.00013,476438112.00000,   0.00053,275225312.00000,   0.00035,   0.00004,  -0.00044,-128.00000,   2.00000
494334120.42649,56641178.53523,45059040.28116,   0.00249,  -0.00067,   0.00014,476432992.00000,   0.00054,275230592.00000,   0.00035,   0.00003,  -0.00044,  64.00000,   2.00000
493436546.65906,55095032.76995,46022546.26956,   0.00250,  -0.00068,   0.00016,476462720.00000,   0.00054,275236000.00000,   0.00036,   0.00003,  -0.00044, -32.00000,   2.00000
492531530.31200,53550780.19526,46988781.24453,   0.00250,  -0.00069,   0.00017,476477600.00000,   0.00055,275241440.00000,   0.00036,   0.00003,  -0.00044, -96.00000,   2.00000
491626836.60228,52020962.00156,47947917.18437,   0.00250,  -0.00069,   0.00019,476472928.00000,   0.00055,275246816.00000,   0.00037,   0.00003,  -0.00044,  32.00000,   2.00000
490707797.42271,50473003.91386,48903992.79581,   0.00251,  -0.00070,   0.00020,476486016.00000,   0.00056,275252256.00000,   0.00037,   0.00003,  -0.00043, 160.00000,   2.00000
489799303.63454,48969209.90319,49856774.71813,   0.00251,  -0.00071,   0.00022,476500704.00000,   0.00056,275257728.00000,   0.00038,   0.00002,  -0.00043, -64.00000,   2.00000
488876077.40832,47447975.51814,50806321.63061,   0.00252,  -0.00072,   0.00023,476514368.00000,   0.00057,275263232.00000,   0.00039,   0.00002,  -0.00043,  96.00000,   2.00000
487953059.65270,45950944.83267,51758140.08354,   0.00252,  -0.00072,   0.00024,476530656.00000,   0.00057,275268800.00000,   0.00039,   0.00002,  -0.00043,   0.00000,   2.00000
487034062.35321,44478456.40558,52700759.94735,   0.00253,  -0.00073,   0.00026,476543328.00000,   0.00058,275274400.00000,   0.00040,   0.00002,  -0.00043,  32.00000,   2.00000
486108493.78033,43010105.44618,53639769.73738,   0.00253,  -0.00074,   0.00027,476557952.00000,   0.00058,275280064.00000,   0.00040,   0.00001,  -0.00043, 160.00000,   2.00000
485171604.25690,41537364.71461,54576909.34952,   0.00253,  -0.00075,   0.00029,476556416.00000,   0.00059,275285696.00000,   0.00041,   0.00001,  -0.00042, 224.00000,   2.00000
484227696.87800,40069207.68323,55510100.89868,   0.00254,  -0.00075,   0.00030,476571456.00000,   0.00060,275291360.00000,   0.00041,   0.00001,  -0.00042,  64.00000,   2.00000
483299089.49347,38655966.00710,56437200.19433,   0.00254,  -0.00076,   0.00031,476603104.00000,   0.00060,275297184.00000,   0.00042,   0.00001,  -0.00042,  96.00000,   2.00000
482349953.91325,37217974.00707,57361995.54746,   0.00255,  -0.00077,   0.00033,476602432.00000,   0.00061,275302944.00000,   0.00043,   0.00000,  -0.00042,   0.00000,   2.00000
481404832.92953,35805518.79823,58276733.24884,   0.00255,  -0.00077,   0.00034,476616064.00000,   0.00061,275308768.00000,   0.00043,   0.00000,  -0.00042,  64.00000,   2.00000
480445767.59535,34388960.58179,59194602.92675,   0.00256,  -0.00078,   0.00036,476618304.00000,   0.00062,275314592.00000,   0.00044,  -0.00000,  -0.00041, 128.00000,   2.00000
479493587.26525,33007096.72708,60105699.54859,   0.00256,  -0.00079,   0.00037,476650624.00000,   0.00062,275320544.00000,   0.00044,  -0.00000,  -0.00041,  32.00000,   2.00000
478534505.34655,31630135.10592,61012032.43979,   0.00256,  -0.00080,   0.00038,476667104.00000,   0.00063,275326528.00000,   0.00045,  -0.00001,  -0.00041, -96.00000,   2.00000
477575196.36588,30269336.80054,61910288.10346,   0.00257,  -0.00080,   0.00040,476664960.00000,   0.00063,275332512.00000,   0.00046,  -0.00001,  -0.00041, 128.00000,   2.00000
476612335.29880,28922603.97638,62807197.29555,   0.00257,  -0.00081,   0.00041,476700000.00000,   0.00064,275338592.00000,   0.00046,  -0.00001,  -0.00040,  96.00000,   2.00000
475637874.27510,27571189.41108,63701685.82761,   0.00258,  -0.00082,   0.00043,476700448.00000,   0.00064,275344672.00000,   0.00047,  -0.00001,  -0.00040,   0.00000,   2.00000
474669301.21141,26244822.18991,64586218.92186,   0.00258,  -0.00082,   0.00044,476713760.00000,   0.00065,275350784.00000,   0.00047,  -0.00002,  -0.00040,   0.00000,   2.00000
473702053.41316,24943519.09245,65472016.42047,   0.00259,  -0.00083,   0.00046,476731648.00000,   0.00066,275356960.00000,   0.00048,  -0.00002,  -0.00040,  32.00000,   2.00000
472726543.01507,23636844.72964,66350494.70641,   0.00259,  -0.00084,   0.00047,476729024.00000,   0.00066,275363072.00000,   0.00049,  -0.00002,  -0.00039, 128.00000,   2.00000
471751336.68613,22343776.74971,67222612.23288,   0.00259,  -0.00084,   0.00048,476760352.00000,   0.00067,275369344.00000,   0.00049,  -0.00003,  -0.00039, -32.00000,   2.00000
470778882.75302,21075380.56677,68096625.27579,   0.00260,  -0.00085,   0.00050,476777056.00000,   0.00067,275375616.00000,   0.00050,  -0.00003,  -0.00039,  64.00000,   2.00000
469798717.52843,19801095.67979,68963965.60636,   0.00260,  -0.00086,   0.00051,476773440.00000,   0.00068,275381856.00000,   0.00050,  -0.00003,  -0.00039,  32.00000,   2.00000
468824305.32855,18551071.99811,69828087.74224,   0.00261,  -0.00086,   0.00053,476786560.00000,   0.00068,275388160.00000,   0.00051,  -0.00003,  -0.00038,   0.00000,   2.00000
467851699.90676,17314251.58009,70686467.71485,   0.00261,  -0.00087,   0.00054,476816352.00000,   0.00069,275394528.00000,   0.00052,  -0.00004,  -0.00038,  64.00000,   2.00000
466879412.66668,16091758.03311,71544332.23548,   0.00262,  -0.00088,   0.00055,476813120.00000,   0.00070,275400864.00000,   0.00052,  -0.00004,  -0.00038,   0.00000,   2.00000
465913427.53885,14893130.29490,72399260.37562,   0.00262,  -0.00088,   0.00057,476825184.00000,   0.00070,275407232.00000,   0.00053,  -0.00004,  -0.00037,  64.00000,   2.00000
464938236.05779,13687920.37085,73253650.23466,   0.00262,  -0.00089,   0.00058,476822400.00000,   0.00071,275413568.00000,   0.00053,  -0.00005,  -0.00037,  64.00000,   2.00000
463965735.43886,12495598.86292,74102373.55770,   0.00263,  -0.00090,   0.00060,476850848.00000,   0.00071,275420000.00000,   0.00054,  -0.00005,  -0.00037, -64.00000,   2.00000
462999908.73955,11326901.48011,74948057.61834,   0.00263,  -0.00090,   0.00061,476862624.00000,   0.00072,275426464.00000,   0.00055,  -0.00005,  -0.00036,-128.00000,   2.00000
462037122.10830,10171750.06454,75787699.64777,   0.00264,  -0.00091,   0.00062,476855904.00000,   0.00073,275432832.00000,   0.00055,  -0.00006,  -0.00036, -64.00000,   2.00000
461068532.09782,9019694.63248,76629242.00924,   0.00264,  -0.00092,   0.00064,476871616.00000,   0.00073,275439296.00000,   0.00056,  -0.00006,  -0.00036,  64.00000,   2.00000
460099111.74692,7870405.01304,77461533.24913,   0.00264,  -0.00092,   0.00065,476882176.00000,   0.00074,275445760.00000,   0.00057,  -0.00006,  -0.00036,  32.00000,   2.00000
459133475.33914,6744835.15952,78295284.81269,   0.00265,  -0.00093,   0.00067,476897376.00000,   0.00074,275452256.00000,   0.00057,  -0.00006,  -0.00035, 160.00000,   2.00000
458176741.75581,5642610.61897,79119316.10341,   0.00265,  -0.00094,   0.00068,476907680.00000,   0.00075,275458784.00000,   0.00058,  -0.00007,  -0.00035,  32.00000,   2.00000
457216051.76692,4543435.46955,79938423.63473,   0.00266,  -0.00094,   0.00069,476922752.00000,   0.00076,275465344.00000,   0.00058,  -0.00007,  -0.00035, 128.00000,   2.00000
456258603.80340,3468174.31300,80757809.35355,   0.00266,  -0.00095,   0.00071,476940000.00000,   0.00076,275471936.00000,   0.00059,  -0.00007,  -0.00034,  96.00000,   2.00000
455303033.02550,2406484.66450,81569205.49905,   0.00266,  -0.00095,   0.00072,476936672.00000,   0.00077,275478496.00000,   0.00060,  -0.00008,  -0.00034,  32.00000,   2.00000
454349980.10421,1358138.58812,82372004.10550,   0.00267,  -0.00096,   0.00074,476968896.00000,   0.00077,275485184.00000,   0.00060,  -0.00008,  -0.00034, 160.00000,   2.00000
453385703.68786,303242.25846,83171716.55423,   0.00267,  -0.00097,   0.00075,476970848.00000,   0.00078,275491808.00000,   0.00061,  -0.00008,  -0.00033,  64.00000,   2.00000
452437340.46720,-707027.78662,83966172.59771,   0.00268,  -0.00097,   0.00076,476985376.00000,   0.00079,275498496.00000,   0.00062,  -0.00009,  -0.00033,  64.00000,   2.00000
451477541.55851,-1734495.28671,84749573.98453,   0.00268,  -0.00098,   0.00078,477000608.00000,   0.00079,275505216.00000,   0.00062,  -0.00009,  -0.00032,  96.00000,   2.00000
450531449.21407,-2717033.81991,85533791.72888,   0.00268,  -0.00098,   0.00079,477017504.00000,   0.00080,275511968.00000,   0.00063,  -0.00009,  -0.00032,  32.00000,   2.00000
449582130.92751,-3696042.73634,86313555.11412,   0.00269,  -0.00099,   0.00081,477033280.00000,   0.00080,275518752.00000,   0.00064,  -0.00010,  -0.00032, 128.00000,   2.00000
448632627.97990,-4671838.33464,87084154.52286,   0.00269,  -0.00100,   0.00082,477044736.00000,   0.00081,275525568.00000,   0.00064,  -0.00010,  -0.00031,-128.00000,   2.00000
447691151.00258,-5613183.71909,87860392.30640,   0.00270,  -0.00100,   0.00083,477043296.00000,   0.00082,275532352.00000,   0.00065,  -0.00010,  -0.00031, -32.00000,   2.00000
446747314.39335,-6561893.71678,88625284.64113,   0.00270,  -0.00101,   0.00085,477069440.00000,   0.00082,275539200.00000,   0.00065,  -0.00011,  -0.00030, -32.00000,   2.00000
445815296.29732,-7476825.29415,89391606.53881,   0.00270,  -0.00101,   0.00086,477062368.00000,   0.00083,275546016.00000,   0.00066,  -0.00011,  -0.00030, -64.00000,   2.00000
444881748.06342,-8388871.77647,90155920.78056,   0.00271,  -0.00102,   0.00088,477073152.00000,   0.00084,275552832.00000,   0.00067,  -0.00011,  -0.00030, -32.00000,   2.00000
443957522.57361,-9277710.43756,90918811.17116,   0.00271,  -0.00102,   0.00089,477081696.00000,   0.00084,275559648.00000,   0.00067,  -0.00012,  -0.00029, 160.00000,   2.00000
443032078.75297,-10163912.37412,91679913.16995,   0.00272,  -0.00103,   0.00090,477091168.00000,   0.00085,275566496.00000,   0.00068,  -0.00012,  -0.00029,  32.00000,   2.00000
442116004.61839,-11027103.69115,92439559.82530,   0.00272,  -0.00103,   0.00092,477098752.00000,   0.00085,275573376.00000,   0.00069,  -0.00012,  -0.00028, -64.00000,   2.00000
441209566.42005,-11867409.70341,93197682.27649,   0.00272,  -0.00104,   0.00093,477106208.00000,   0.00086,275580224.00000,   0.00069,  -0.00013,  -0.00028,  32.00000,   2.00000
440297651.50677,-12716043.53518,93951556.64756,   0.00273,  -0.00104,   0.00094,477096864.00000,   0.00087,275587040.00000,   0.00070,  -0.00013,  -0.00028, -64.00000,   2.00000
439399688.17496,-13531108.75305,94705608.17357,   0.00273,  -0.00105,   0.00096,477123008.00000,   0.00087,275593920.00000,   0.00071,  -0.00013,  -0.00027, -32.00000,   2.00000
438503561.67818,-14333781.23724,95460565.68193,   0.00274,  -0.00106,   0.00097,477116096.00000,   0.00088,275600768.00000,   0.00071,  -0.00014,  -0.00027, 224.00000,   2.00000
437609111.20202,-15134440.23621,96207514.55665,   0.00274,  -0.00106,   0.00099,477122688.00000,   0.00089,275607584.00000,   0.00072,  -0.00014,  -0.00026,  32.00000,   2.00000
436731559.80299,-15901837.01773,96948744.28610,   0.00274,  -0.00107,   0.00100,477146208.00000,   0.00089,275614528.00000,   0.00073,  -0.00014,  -0.00026,  32.00000,   2.00000
435847775.72280,-16667300.70647,97693442.42373,   0.00275,  -0.00107,   0.00101,477125120.00000,   0.00090,275621312.00000,   0.00073,  -0.00015,  -0.00026, -96.00000,   2.00000
434980945.24645,-17399466.02466,98432075.71029,   0.00275,  -0.00108,   0.00103,477148896.00000,   0.00091,275628192.00000,   0.00074,  -0.00015,  -0.00025,   0.00000,   2.00000
434112410.02718,-18129162.37715,99167154.16889,   0.00275,  -0.00108,   0.00104,477160448.00000,   0.00091,275635104.00000,   0.00074,  -0.00015,  -0.00025, -64.00000,   2.00000
433253148.02285,-18835978.70292,99899108.91686,   0.00276,  -0.00109,   0.00106,477169760.00000,   0.00092,275642016.00000,   0.00075,  -0.00016,  -0.00024,  64.00000,   2.00000
432384412.65401,-19550778.64996,100630580.42544,   0.00276,  -0.00109,   0.00107,477166816.00000,   0.00092,275648896.00000,   0.00076,  -0.00016,  -0.00024,  96.00000,   2.00000
431524737.35473,-20242606.32324,101358782.18700,   0.00277,  -0.00110,   0.00108,477176576.00000,   0.00093,275655776.00000,   0.00076,  -0.00016,  -0.00023, -64.00000,   2.00000
430685472.92572,-20901382.63159,102075428.17287,   0.00277,  -0.00110,   0.00110,477197536.00000,   0.00094,275662752.00000,   0.00077,  -0.00017,  -0.00023, -64.00000,   2.00000
429844141.49858,-21547350.93110,102797164.63576,   0.00277,  -0.00110,   0.00111,477196608.00000,   0.00094,275669664.00000,   0.00078,  -0.00017,  -0.00023,  32.00000,   2.00000
429004735.92688,-22191238.04507,103510205.03131,   0.00278,  -0.00111,   0.00112,477204704.00000,   0.00095,275676608.00000,   0.00078,  -0.00017,  -0.00022, -32.00000,   2.00000
428177218.08473,-22802415.52058,104223915.00769,   0.00278,  -0.00111,   0.00114,477197792.00000,   0.00096,275683456.00000,   0.00079,  -0.00018,  -0.00022,  96.00000,   2.00000
427345909.05231,-23420859.96615,104930260.36668,   0.00278,  -0.00112,   0.00115,477226400.00000,   0.00096,275690432.00000,   0.00079,  -0.00018,  -0.00021,  96.00000,   2.00000
426534740.55384,-23996035.38513,105634094.10283,   0.00279,  -0.00112,   0.00117,477233952.00000,   0.00097,275697408.00000,   0.00080,  -0.00018,  -0.00021, -64.00000,   2.00000
425714333.04568,-24579412.88734,106337912.29372,   0.00279,  -0.00113,   0.00118,477231072.00000,   0.00098,275704352.00000,   0.00081,  -0.00019,  -0.00020,   0.00000,   2.00000
424914249.15737,-25119625.22874,107039404.26714,   0.00280,  -0.00113,   0.00119,477238528.00000,   0.00098,275711264.00000,   0.00081,  -0.00019,  -0.00020, 128.00000,   2.00000
424110738.46975,-25667142.45977,107733694.72397,   0.00280,  -0.00114,   0.00121,477266848.00000,   0.00099,275718304.00000,   0.00082,  -0.00019,  -0.00019,   0.00000,   2.00000
423322803.73929,-26182778.87491,108424306.97079,   0.00280,  -0.00114,   0.00122,477255296.00000,   0.00100,275725248.00000,   0.00083,  -0.00020,  -0.00019, -64.00000,   2.00000
422530656.24126,-26695606.51198,109116756.93214,   0.00281,  -0.00114,   0.00123,477270720.00000,   0.00100,275732224.00000,   0.00083,  -0.00020,  -0.00018,-128.00000,   2.00000
421754058.56783,-27176713.57356,109805715.28792,   0.00281,  -0.00115,   0.00125,477258976.00000,   0.00101,275739136.00000,   0.00084,  -0.00020,  -0.00018, -32.00000,   2.00000
420974516.35509,-27665246.06795,110487700.43500,   0.00281,  -0.00115,   0.00126,477286720.00000,   0.00101,275746144.00000,   0.00084,  -0.00021,  -0.00017, -32.00000,   2.00000
420215914.36277,-28110958.61237,111167873.69643,   0.00282,  -0.00116,   0.00128,477293120.00000,   0.00102,275753120.00000,   0.00085,  -0.00021,  -0.00017,  64.00000,   2.00000
419458615.65335,-28544998.92193,111849134.02378,   0.00282,  -0.00116,   0.00129,477287328.00000,   0.00103,275760064.00000,   0.00086,  -0.00021,  -0.00017,  32.00000,   2.00000
418700795.72981,-28977034.17561,112527567.23562,   0.00283,  -0.00116,   0.00130,477298080.00000,   0.00103,275767008.00000,   0.00086,  -0.00022,  -0.00016, 192.00000,   2.00000
417953055.63013,-29386744.74351,113203701.44763,   0.00283,  -0.00117,   0.00132,477306560.00000,   0.00104,275773984.00000,   0.00087,  -0.00022,  -0.00016, -32.00000,   2.00000
417224243.98962,-29763464.53570,113874071.05403,   0.00283,  -0.00117,   0.00133,477329184.00000,   0.00105,275781024.00000,   0.00088,  -0.00022,  -0.00015,-128.00000,   2.00000
416480862.72886,-30160498.92014,114543856.86478,   0.00284,  -0.00118,   0.00134,477306912.00000,   0.00105,275787904.00000,   0.00088,  -0.00023,  -0.00015,-128.00000,   2.00000
415763914.11405,-30503761.84260,115213358.52729,   0.00284,  -0.00118,   0.00136,477331168.00000,   0.00106,275794880.00000,   0.00089,  -0.00023,  -0.00014, 128.00000,   2.00000
415049932.93937,-30845939.27293,115875233.73672,   0.00284,  -0.00118,   0.00137,477337376.00000,   0.00107,275801856.00000,   0.00089,  -0.00023,  -0.00014, 224.00000,   2.00000
414337075.37088,-31176954.20725,116538411.61650,   0.00285,  -0.00119,   0.00138,477331264.00000,   0.00107,275808800.00000,   0.00090,  -0.00024,  -0.00013, -64.00000,   2.00000
413643727.91456,-31475358.05340,117195915.15811,   0.00285,  -0.00119,   0.00140,477353152.00000,   0.00108,275815776.00000,   0.00091,  -0.00024,  -0.00013,   0.00000,   2.00000
412951563.38904,-31762836.04902,117854774.44104,   0.00285,  -0.00119,   0.00141,477347136.00000,   0.00109,275822720.00000,   0.00091,  -0.00024,  -0.00012,  96.00000,   2.00000
412258682.14169,-32048889.28545,118510756.95929,   0.00286,  -0.00120,   0.00143,477357408.00000,   0.00109,275829664.00000,   0.00092,  -0.00025,  -0.00012,-192.00000,   2.00000
411587202.22467,-32293116.29277,119165224.31416,   0.00286,  -0.00120,   0.00144,477362496.00000,   0.00110,275836608.00000,   0.00093,  -0.00025,  -0.00011,  64.00000,   2.00000
410914890.29116,-32536110.92071,119816743.34311,   0.00286,  -0.00120,   0.00145,477373056.00000,   0.00110,275843552.00000,   0.00093,  -0.00025,  -0.00011, -32.00000,   2.00000
410247348.23629,-32769158.76781,120464902.54590,   0.00287,  -0.00121,   0.00147,477362240.00000,   0.00111,275850432.00000,   0.00094,  -0.00026,  -0.00010,  32.00000,   2.00000
409595507.00743,-32969385.88581,121111856.75028,   0.00287,  -0.00121,   0.00148,477388608.00000,   0.00112,275857408.00000,   0.00094,  -0.00026,  -0.00010,   0.00000,   2.00000
408937572.27934,-33180154.41858,121754836.97754,   0.00288,  -0.00121,   0.00149,477380256.00000,   0.00112,275864288.00000,   0.00095,  -0.00026,  -0.00009,  96.00000,   2.00000
408300532.61269,-33349454.24559,122396111.16963,   0.00288,  -0.00122,   0.00151,477385696.00000,   0.00113,275871168.00000,   0.00096,  -0.00027,  -0.00008, -96.00000,   2.00000
407662903.63740,-33517998.42512,123034442.20287,   0.00288,  -0.00122,   0.00152,477395904.00000,   0.00114,275878080.00000,   0.00096,  -0.00027,  -0.00008,  64.00000,   2.00000
407035234.52835,-33665528.41684,123670367.35512,   0.00289,  -0.00122,   0.00153,477403808.00000,   0.00114,275884992.00000,   0.00097,  -0.00027,  -0.00007,  96.00000,   2.00000
406428618.88818,-33771967.06774,124304624.27641,   0.00289,  -0.00122,   0.00155,477408896.00000,   0.00115,275891904.00000,   0.00097,  -0.00028,  -0.00007,  32.00000,   2.00000
405810419.39577,-33898201.83231,124935190.55347,   0.00289,  -0.00123,   0.00156,477421856.00000,   0.00116,275898848.00000,   0.00098,  -0.00028,  -0.00006, 160.00000,   2.00000
405207233.19981,-33994921.55365,125563078.72225,   0.00290,  -0.00123,   0.00157,477408736.00000,   0.00116,275905664.00000,   0.00099,  -0.00028,  -0.00006, 160.00000,   2.00000
404619841.56572,-34059559.56484,126189488.89131,   0.00290,  -0.00123,   0.00159,477435008.00000,   0.00117,275912608.00000,   0.00099,  -0.00029,  -0.00005,  32.00000,   2.00000
404036600.44614,-34115222.22069,126812633.53389,   0.00290,  -0.00123,   0.00160,477424224.00000,   0.00118,275919456.00000,   0.00100,  -0.00029,  -0.00005,   0.00000,   2.00000
403448769.79326,-34170061.30437,127437350.69666,   0.00291,  -0.00124,   0.00161,477439200.00000,   0.00118,275926336.00000,   0.00100,  -0.00029,  -0.00004, -32.00000,   2.00000
402874648.14678,-34205189.79136,128055084.39362,   0.00291,  -0.00124,   0.00163,477442240.00000,   0.00119,275933216.00000,   0.00101,  -0.00030,  -0.00004,  96.00000,   2.00000
402310394.12321,-34220012.09026,128670444.84031,   0.00291,  -0.00124,   0.00164,477449952.00000,   0.00119,275940064.00000,   0.00102,  -0.00030,  -0.00003,  32.00000,   2.00000
401757140.82035,-34205160.47684,129287953.02937,   0.00292,  -0.00124,   0.00165,477441600.00000,   0.00120,275946880.00000,   0.00102,  -0.00030,  -0.00003,   0.00000,   2.00000
401212623.03992,-34179665.67871,129898618.27947,   0.00292,  -0.00125,   0.00167,477465472.00000,   0.00121,275953760.00000,   0.00103,  -0.00031,  -0.00002,   0.00000,   2.00000
400661171.01808,-34165805.91228,130505566.00022,   0.00292,  -0.00125,   0.00168,477457024.00000,   0.00121,275960544.00000,   0.00103,  -0.00031,  -0.00002, -32.00000,   2.00000
400126701.37504,-34110923.99063,131115535.31251,   0.00293,  -0.00125,   0.00169,477467200.00000,   0.00122,275967392.00000,   0.00104,  -0.00031,  -0.00001,  96.00000,   2.00000
399605649.10800,-34036697.90411,131718647.66078,   0.00293,  -0.00125,   0.00171,477470080.00000,   0.00123,275974176.00000,   0.00104,  -0.00032,  -0.00000,  32.00000,   2.00000
399079861.31934,-33962135.07720,132323396.61869,   0.00293,  -0.00125,   0.00172,477484896.00000,   0.00123,275981024.00000,   0.00105,  -0.00032,   0.00000,  96.00000,   2.00000
398578344.02860,-33848006.37621,132922086.79894,   0.00294,  -0.00126,   0.00174,477485440.00000,   0.00124,275987840.00000,   0.00106,  -0.00032,   0.00001, -64.00000,   2.00000
398066075.48490,-33745059.38905,133521886.26630,   0.00294,  -0.00126,   0.00175,477481632.00000,   0.00124,275994592.00000,   0.00106,  -0.00033,   0.00001, 128.00000,   2.00000
397584086.21066,-33591158.77623,134116282.95999,   0.00294,  -0.00126,   0.00176,477500416.00000,   0.00125,276001408.00000,   0.00107,  -0.00033,   0.00002, -64.00000,   2.00000
397091197.08722,-33448474.66155,134711839.29611,   0.00295,  -0.00126,   0.00178,477496480.00000,   0.00126,276008160.00000,   0.00107,  -0.00033,   0.00002, -64.00000,   2.00000
396608149.02996,-33285943.61052,135305365.47822,   0.00295,  -0.00126,   0.00179,477504032.00000,   0.00126,276014944.00000,   0.00108,  -0.00034,   0.00003, 128.00000,   2.00000
396134782.88051,-33103562.27009,135896833.94457,   0.00295,  -0.00126,   0.00180,477511488.00000,   0.00127,276021696.00000,   0.00109,  -0.00034,   0.00004,  64.00000,   2.00000
395675013.03055,-32902030.83332,136481848.09692,   0.00296,  -0.00127,   0.00182,477513696.00000,   0.00128,276028448.00000,   0.00109,  -0.00034,   0.00004,  32.00000,   2.00000
395211096.07611,-32690709.03167,137073330.07141,   0.00296,  -0.00127,   0.00183,477512416.00000,   0.00128,276035168.00000,   0.00110,  -0.00035,   0.00005,   0.00000,   2.00000
394770818.41619,-32449555.24807,137654418.40498,   0.00296,  -0.00127,   0.00184,477528320.00000,   0.00129,276041920.00000,   0.00110,  -0.00035,   0.00005,-128.00000,   2.00000
394326358.67554,-32198628.06817,138242028.40432,   0.00296,  -0.00127,   0.00186,477527072.00000,   0.00130,276048640.00000,   0.00111,  -0.00035,   0.00006,  64.00000,   2.00000
393884865.45786,-31948893.13005,138822614.23839,   0.00297,  -0.00127,   0.00187,477531584.00000,   0.00130,276055360.00000,   0.00111,  -0.00036,   0.00006, -32.00000,   2.00000
393463872.13814,-31659029.95314,139402031.11561,   0.00297,  -0.00127,   0.00188,477536480.00000,   0.00131,276062048.00000,   0.00112,  -0.00036,   0.00007, 160.00000,   2.00000
393052351.72747,-31349358.21501,139979451.50612,   0.00297,  -0.00127,   0.00190,477543680.00000,   0.00131,276068736.00000,   0.00112,  -0.00036,   0.00008, -32.00000,   2.00000
392640004.78146,-31040276.96143,140554308.17818,   0.00298,  -0.00127,   0.00191,477553120.00000,   0.00132,276075456.00000,   0.00113,  -0.00037,   0.00008, -64.00000,   2.00000
392241968.18978,-30702407.36532,141127736.66268,   0.00298,  -0.00127,   0.00192,477539232.00000,   0.00133,276082080.00000,   0.00114,  -0.00037,   0.00009, 128.00000,   2.00000
391838857.01388,-30364416.85980,141702819.66267,   0.00298,  -0.00127,   0.00193,477554048.00000,   0.00133,276088736.00000,   0.00114,  -0.00037,   0.00009,  96.00000,   2.00000
391449375.27126,-30007315.61278,142271598.56862,   0.00299,  -0.00128,   0.00195,477556128.00000,   0.00134,276095360.00000,   0.00115,  -0.00038,   0.00010,  96.00000,   2.00000
391076046.64078,-29609431.39363,142843358.99245,   0.00299,  -0.00128,   0.00196,477566304.00000,   0.00134,276102016.00000,   0.00115,  -0.00038,   0.00010,-160.00000,   2.00000
390705979.01921,-29212905.69123,143408195.00625,   0.00299,  -0.00128,   0.00197,477570368.00000,   0.00135,276108640.00000,   0.00116,  -0.00038,   0.00011,  64.00000,   2.00000
390335132.42049,-28807220.83249,143975101.12061,   0.00300,  -0.00128,   0.00199,477564320.00000,   0.00136,276115232.00000,   0.00116,  -0.00038,   0.00012, -64.00000,   2.00000
389990714.21486,-28350268.80695,144540775.97045,   0.00300,  -0.00128,   0.00200,477588160.00000,   0.00136,276121888.00000,   0.00117,  -0.00039,   0.00012, 160.00000,   2.00000
389638807.19569,-27905255.85720,145103529.08520,   0.00300,  -0.00128,   0.00201,477579104.00000,   0.00137,276128480.00000,   0.00117,  -0.00039,   0.00013,  32.00000,   2.00000
389300700.75967,-27441328.64088,145660107.45276,   0.00300,  -0.00128,   0.00203,477580768.00000,   0.00138,276135040.00000,   0.00118,  -0.00039,   0.00013, -64.00000,   2.00000
388967871.94936,-26957159.79678,146218891.07399,   0.00301,  -0.00128,   0.00204,477593568.00000,   0.00138,276141632.00000,   0.00119,  -0.00040,   0.00014,  32.00000,   2.00000
388634092.64700,-26463997.20726,146779930.97869,   0.00301,  -0.00128,   0.00205,477587488.00000,   0.00139,276148160.00000,   0.00119,  -0.00040,   0.00015,  64.00000,   2.00000
388319955.13660,-25940870.80097,147334807.99224,   0.00301,  -0.00128,   0.00207,477608096.00000,   0.00139,276154752.00000,   0.00120,  -0.00040,   0.00015,  32.00000,   2.00000
388008976.29583,-25409535.09418,147887950.35458,   0.00302,  -0.00128,   0.00208,477596512.00000,   0.00140,276161280.00000,   0.00120,  -0.00041,   0.00016,  96.00000,   2.00000
387703001.04875,-24858202.67774,148443444.47693,   0.00302,  -0.00128,   0.00209,477609216.00000,   0.00141,276167808.00000,   0.00121,  -0.00041,   0.00016,  64.00000,   2.00000
387410470.76449,-24288272.53455,148993040.34880,   0.00302,  -0.00128,   0.00211,477610976.00000,   0.00141,276174336.00000,   0.00121,  -0.00041,   0.00017, 224.00000,   2.00000
387127037.84596,-23699121.08897,149540839.44746,   0.00303,  -0.00128,   0.00212,477618304.00000,   0.00142,276180864.00000,   0.00122,  -0.00041,   0.00018,  64.00000,   2.00000
386842106.55359,-23101182.23106,150091017.07854,   0.00303,  -0.00128,   0.00213,477612320.00000,   0.00142,276187328.00000,   0.00122,  -0.00042,   0.00018,  32.00000,   2.00000
386576706.71765,-22473680.95473,150634959.13255,   0.00303,  -0.00128,   0.00215,477632832.00000,   0.00143,276193856.00000,   0.00123,  -0.00042,   0.00019,   0.00000,   2.00000
386309841.87484,-21837445.90849,151181133.08626,   0.00303,  -0.00128,   0.00216,477626848.00000,   0.00144,276200320.00000,   0.00123,  -0.00042,   0.00019, -32.00000,   2.00000
386051789.98788,-21182076.49150,151725028.04183,   0.00304,  -0.00128,   0.00217,477634432.00000,   0.00144,276206816.00000,   0.00124,  -0.00043,   0.00020, -32.00000,   2.00000
385792254.68958,-20517983.27924,152270961.33683,   0.00304,  -0.00127,   0.00219,477628864.00000,   0.00145,276213248.00000,   0.00124,  -0.00043,   0.00021, 128.00000,   2.00000
385556186.63294,-19825118.59345,152805996.90190,   0.00304,  -0.00127,   0.00220,477644256.00000,   0.00145,276219712.00000,   0.00125,  -0.00043,   0.00021,  96.00000,   2.00000
385313966.14093,-19122965.31908,153346935.46631,   0.00305,  -0.00127,   0.00221,477644352.00000,   0.00146,276226144.00000,   0.00125,  -0.00043,   0.00022, -96.00000,   2.00000
385084948.20220,-18402558.91920,153881471.65445,   0.00305,  -0.00127,   0.00222,477646400.00000,   0.00147,276232576.00000,   0.00126,  -0.00044,   0.00022, 128.00000,   2.00000
384860028.39832,-17662720.57166,154417519.02900,   0.00305,  -0.00127,   0.00224,477660192.00000,   0.00147,276239008.00000,   0.00127,  -0.00044,   0.00023,   0.00000,   2.00000
384647973.39303,-16904807.48309,154947219.93284,   0.00305,  -0.00127,   0.00225,477662496.00000,   0.00148,276245440.00000,   0.00127,  -0.00044,   0.00024,   0.00000,   2.00000
384433626.70509,-16138512.83838,155479025.10005,   0.00306,  -0.00127,   0.00226,477657632.00000,   0.00148,276251840.00000,   0.00128,  -0.00045,   0.00024,  96.00000,   2.00000
384238283.21582,-15343544.83699,156004231.66331,   0.00306,  -0.00127,   0.00228,477678784.00000,   0.00149,276258272.00000,   0.00128,  -0.00045,   0.00025,  96.00000,   2.00000
384040374.98361,-14540374.17292,156531680.46181,   0.00306,  -0.00127,   0.00229,477673984.00000,   0.00150,276264672.00000,   0.00129,  -0.00045,   0.00025,  64.00000,   2.00000
383840266.85026,-13739344.41076,157056367.14052,   0.00306,  -0.00126,   0.00230,477684064.00000,   0.00150,276271072.00000,   0.00129,  -0.00045,   0.00026,  32.00000,   2.00000
383647605.36678,-12909719.76217,157583980.00572,   0.00307,  -0.00126,   0.00232,477677760.00000,   0.00151,276277408.00000,   0.00130,  -0.00046,   0.00027, -64.00000,   2.00000
383473635.11475,-12051890.18963,158105065.86570,   0.00307,  -0.00126,   0.00233,477699296.00000,   0.00151,276283840.00000,   0.00130,  -0.00046,   0.00027,  96.00000,   2.00000
383296506.27130,-11186075.96163,158628388.14220,   0.00307,  -0.00126,   0.00234,477695232.00000,   0.00152,276290176.00000,   0.00131,  -0.00046,   0.00028, -64.00000,   2.00000
383131439.17805,-10302804.45590,159145620.11470,   0.00307,  -0.00126,   0.00236,477698144.00000,   0.00153,276296512.00000,   0.00131,  -0.00046,   0.00029, 128.00000,   2.00000
382969508.72548,-9401100.51982,159664512.17911,   0.00308,  -0.00126,   0.00237,477713024.00000,   0.00153,276302912.00000,   0.00132,  -0.00047,   0.00029, 160.00000,   2.00000
382808576.71548,-8492002.55945,160181661.09917,   0.00308,  -0.00125,   0.00238,477703264.00000,   0.00154,276309184.00000,   0.00132,  -0.00047,   0.00030, 160.00000,   2.00000
382665639.94942,-7555113.76753,160691886.90550,   0.00308,  -0.00125,   0.00239,477725472.00000,   0.00154,276315552.00000,   0.00133,  -0.00047,   0.00031,  64.00000,   2.00000
382514852.72321,-6609921.33559,161208117.65527,   0.00309,  -0.00125,   0.00241,477727776.00000,   0.00155,276321888.00000,   0.00133,  -0.00047,   0.00031, 288.00000,   2.00000
382375421.29771,-5647432.69548,161717876.63751,   0.00309,  -0.00125,   0.00242,477731264.00000,   0.00156,276328224.00000,   0.00134,  -0.00048,   0.00032,-160.00000,   2.00000
382232518.01352,-4677099.36079,162229739.99296,   0.00309,  -0.00125,   0.00243,477727488.00000,   0.00156,276334496.00000,   0.00134,  -0.00048,   0.00032,  96.00000,   2.00000
382107384.41351,-3679218.18319,162734426.53873,   0.00309,  -0.00124,   0.00245,477750048.00000,   0.00157,276340864.00000,   0.00135,  -0.00048,   0.00033,  96.00000,   2.00000
381978293.08155,-2673456.39242,163240991.02149,   0.00310,  -0.00124,   0.00246,477746560.00000,   0.00157,276347168.00000,   0.00135,  -0.00049,   0.00034,   0.00000,   2.00000
381865807.74079,-1629469.70828,163745273.52096,   0.00310,  -0.00124,   0.00247,477755008.00000,   0.00158,276353472.00000,   0.00136,  -0.00049,   0.00034, -32.00000,   2.00000
381750491.81138,-588393.68972,164246449.03554,   0.00310,  -0.00124,   0.00248,477765792.00000,   0.00158,276359776.00000,   0.00136,  -0.00049,   0.00035,  96.00000,   2.00000
381635748.70645,460281.59504,164745741.31381,   0.00310,  -0.00123,   0.00250,477756256.00000,   0.00159,276366048.00000,   0.00137,  -0.00049,   0.00036, 128.00000,   2.00000
381523073.34124,1527131.22319,165245930.04360,   0.00310,  -0.00123,   0.00251,477771968.00000,   0.00160,276372320.00000,   0.00137,  -0.00050,   0.00036, 192.00000,   2.00000
381417264.46948,2611755.54507,165743353.29588,   0.00311,  -0.00123,   0.00252,477781376.00000,   0.00160,276378624.00000,   0.00138,  -0.00050,   0.00037, -64.00000,   2.00000
381322958.74667,3713818.35105,166234317.27449,   0.00311,  -0.00123,   0.00254,477784416.00000,   0.00161,276384928.00000,   0.00138,  -0.00050,   0.00038, -64.00000,   2.00000
381240471.90211,4854654.42967,166726558.10282,   0.00311,  -0.00122,   0.00255,477798976.00000,   0.00161,276391264.00000,   0.00139,  -0.00050,   0.00038,  32.00000,   2.00000
381148848.06524,5982883.17676,167216562.55790,   0.00311,  -0.00122,   0.00256,477790304.00000,   0.00162,276397504.00000,   0.00139,  -0.00050,   0.00039, -32.00000,   2.00000
381064156.82352,7129119.96415,167703802.67569,   0.00312,  -0.00122,   0.00258,477799424.00000,   0.00163,276403776.00000,   0.00140,  -0.00051,   0.00040,  64.00000,   2.00000
380981737.30374,8293744.22906,168191907.13717,   0.00312,  -0.00121,   0.00259,477814656.00000,   0.00163,276410112.00000,   0.00140,  -0.00051,   0.00040,  64.00000,   2.00000
380909463.79463,9487284.49289,168678564.67911,   0.00312,  -0.00121,   0.00260,477803520.00000,   0.00164,276416352.00000,   0.00141,  -0.00051,   0.00041, -64.00000,   2.00000
380845676.83617,10687881.37210,169157455.99769,   0.00312,  -0.00121,   0.00261,477826112.00000,   0.00164,276422656.00000,   0.00141,  -0.00051,   0.00042, -64.00000,   2.00000
380777969.55175,11897294.03393,169638292.96513,   0.00313,  -0.00120,   0.00263,477821728.00000,   0.00165,276428928.00000,   0.00142,  -0.00052,   0.00042, -64.00000,   2.00000
380715945.49563,13136231.87647,170121441.02815,   0.00313,  -0.00120,   0.00264,477816832.00000,   0.00166,276435168.00000,   0.00142,  -0.00052,   0.00043,  96.00000,   2.00000
380662505.96592,14382359.10903,170596759.03640,   0.00313,  -0.00120,   0.00265,477839008.00000,   0.00166,276441440.00000,   0.00143,  -0.00052,   0.00044,  96.00000,   2.00000
380614651.41880,15658142.89407,171074347.66329,   0.00313,  -0.00119,   0.00267,477834048.00000,   0.00167,276447712.00000,   0.00143,  -0.00052,   0.00044,  64.00000,   2.00000
380564587.04502,16931762.99303,171548894.64770,   0.00313,  -0.00119,   0.00268,477843104.00000,   0.00167,276453984.00000,   0.00144,  -0.00053,   0.00045,   0.00000,   2.00000
380531127.44405,18244466.25605,172020935.05595,   0.00314,  -0.00119,   0.00269,477850784.00000,   0.00168,276460256.00000,   0.00144,  -0.00053,   0.00046,  64.00000,   2.00000
380489192.86330,19545428.53743,172491168.02045,   0.00314,  -0.00118,   0.00270,477840672.00000,   0.00168,276466464.00000,   0.00145,  -0.00053,   0.00046,  32.00000,   2.00000
380458922.10730,20885667.45098,172962286.20380,   0.00314,  -0.00118,   0.00272,477854752.00000,   0.00169,276472736.00000,   0.00145,  -0.00053,   0.00047,  32.00000,   2.00000
380426513.11053,22223588.96181,173430306.25581,   0.00314,  -0.00118,   0.00273,477864032.00000,   0.00170,276479008.00000,   0.00146,  -0.00053,   0.00048, -96.00000,   2.00000
380415007.71281,23600145.48283,173892026.56845,   0.00314,  -0.00117,   0.00274,477865984.00000,   0.00170,276485248.00000,   0.00146,  -0.00054,   0.00048, -32.00000,   2.00000
380385271.48447,24965082.14038,174358822.22212,   0.00315,  -0.00117,   0.00276,477869152.00000,   0.00171,276491488.00000,   0.00146,  -0.00054,   0.00049,  64.00000,   2.00000
380387263.32109,26377541.58121,174814322.40052,   0.00315,  -0.00116,   0.00277,477884128.00000,   0.00171,276497792.00000,   0.00147,  -0.00054,   0.00050,   0.00000,   2.00000
380368455.46606,27789439.82385,175279604.84633,   0.00315,  -0.00116,   0.00278,477875040.00000,   0.00172,276504000.00000,   0.00147,  -0.00054,   0.00050,  96.00000,   2.00000
380362610.71945,29207090.74409,175733005.40575,   0.00315,  -0.00115,   0.00279,477891680.00000,   0.00173,276510272.00000,   0.00148,  -0.00055,   0.00051,  64.00000,   2.00000
380360472.31706,30653369.51690,176187805.30171,   0.00315,  -0.00115,   0.00281,477889152.00000,   0.00173,276516512.00000,   0.00148,  -0.00055,   0.00052,  64.00000,   2.00000
380358891.67340,32116518.17089,176642209.56294,   0.00316,  -0.00115,   0.00282,477906624.00000,   0.00174,276522784.00000,   0.00149,  -0.00055,   0.00052, -96.00000,   2.00000
380358310.40449,33575351.94659,177089255.15176,   0.00316,  -0.00114,   0.00283,477911776.00000,   0.00174,276529088.00000,   0.00149,  -0.00055,   0.00053,  96.00000,   2.00000
380360162.09882,35061930.48811,177537175.11363,   0.00316,  -0.00114,   0.00285,477911360.00000,   0.00175,276535328.00000,   0.00150,  -0.00055,   0.00054,  32.00000,   2.00000
380377432.54497,36573129.54469,177975919.67645,   0.00316,  -0.00113,   0.00286,477936416.00000,   0.00175,276541664.00000,   0.00150,  -0.00056,   0.00055, -96.00000,   2.00000
380376094.97880,38081889.68573,178420121.99177,   0.00316,  -0.00113,   0.00287,477924608.00000,   0.00176,276547904.00000,   0.00151,  -0.00056,   0.00055, 128.00000,   2.00000
380380711.72564,39593940.36174,178854905.35804,   0.00317,  -0.00112,   0.00288,477950752.00000,   0.00177,276554208.00000,   0.00151,  -0.00056,   0.00056, 256.00000,   2.00000
380385918.17904,41132598.60840,179289957.93297,   0.00317,  -0.00112,   0.00290,477952640.00000,   0.00177,276560512.00000,   0.00152,  -0.00056,   0.00057, 192.00000,   2.00000
380388830.15817,42685674.75960,179723524.43054,   0.00317,  -0.00111,   0.00291,477974016.00000,   0.00178,276566880.00000,   0.00152,  -0.00056,   0.00057, -32.00000,   2.00000
380404185.28311,44253180.59854,180145860.97014,   0.00317,  -0.00111,   0.00292,477975744.00000,   0.00178,276573216.00000,   0.00153,  -0.00057,   0.00058, -32.00000,   2.00000
380405678.87178,45826116.74766,180571770.28136,   0.00317,  -0.00110,   0.00294,477985056.00000,   0.00179,276579552.00000,   0.00153,  -0.00057,   0.00059,  32.00000,   2.00000
380400609.53778,47392567.53560,180993053.32411,   0.00317,  -0.00110,   0.00295,478000160.00000,   0.00180,276585920.00000,   0.00154,  -0.00057,   0.00060,   0.00000,   2.00000
380406247.55271,48993753.68726,181409622.39558,   0.00318,  -0.00109,   0.00296,478016128.00000,   0.00180,276592320.00000,   0.00154,  -0.00057,   0.00060, -32.00000,   2.00000
380413723.29712,50609041.99346,181821583.80756,   0.00318,  -0.00109,   0.00297,478031680.00000,   0.00181,276598784.00000,   0.00155,  -0.00057,   0.00061,   0.00000,   2.00000
380412236.35697,52230200.43645,182234279.03338,   0.00318,  -0.00108,   0.00299,478034432.00000,   0.00181,276605184.00000,   0.00155,  -0.00058,   0.00062, 192.00000,   2.00000
380412796.56202,53865804.40945,182642634.22782,   0.00318,  -0.00107,   0.00300,478049728.00000,   0.00182,276611616.00000,   0.00156,  -0.00058,   0.00063, 192.00000,   2.00000
380409537.19700,55508113.82043,183048710.95174,   0.00318,  -0.00107,   0.00301,478045408.00000,   0.00183,276618016.00000,   0.00156,  -0.00058,   0.00063,   0.00000,   2.00000
380415068.72365,57173272.70158,183448990.23765,   0.00318,  -0.00106,   0.00303,478079072.00000,   0.00183,276624512.00000,   0.00156,  -0.00058,   0.00064, 160.00000,   2.00000
380400854.88730,58837180.91019,183855484.88604,   0.00319,  -0.00106,   0.00304,478068608.00000,   0.00184,276630944.00000,   0.00157,  -0.00058,   0.00065,   0.00000,   2.00000
380400927.47524,60524672.39040,184253185.47769,   0.00319,  -0.00105,   0.00305,478094976.00000,   0.00184,276637440.00000,   0.00157,  -0.00058,   0.00066,  96.00000,   2.00000
380390011.53950,62199487.93450,184649518.20115,   0.00319,  -0.00105,   0.00306,478088544.00000,   0.00185,276643872.00000,   0.00158,  -0.00059,   0.00066,  96.00000,   2.00000
380385403.39276,63910287.22929,185044897.81299,   0.00319,  -0.00104,   0.00308,478109728.00000,   0.00186,276650368.00000,   0.00158,  -0.00059,   0.00067,  32.00000,   2.00000
380384676.28357,65637019.52638,185436748.43114,   0.00319,  -0.00103,   0.00309,478123232.00000,   0.00186,276656896.00000,   0.00159,  -0.00059,   0.00068,   0.00000,   2.00000
380381388.24758,67372189.10462,185826694.75210,   0.00319,  -0.00103,   0.00310,478117376.00000,   0.00187,276663360.00000,   0.00159,  -0.00059,   0.00069,  64.00000,   2.00000
380388014.04832,69130861.86764,186210831.88185,   0.00319,  -0.00102,   0.00312,478150400.00000,   0.00188,276669952.00000,   0.00160,  -0.00059,   0.00069,  64.00000,   2.00000
380381033.01083,70890076.85689,186598012.07995,   0.00320,  -0.00101,   0.00313,478131904.00000,   0.00188,276676416.00000,   0.00160,  -0.00059,   0.00070, -32.00000,   2.00000
380383918.87680,72672483.34680,186979055.52785,   0.00320,  -0.00101,   0.00314,478165056.00000,   0.00189,276683008.00000,   0.00161,  -0.00060,   0.00071, 192.00000,   2.00000
380376449.40356,74442609.34602,187358309.29634,   0.00320,  -0.00100,   0.00315,478158560.00000,   0.00189,276689536.00000,   0.00161,  -0.00060,   0.00072,  64.00000,   2.00000
380363751.31052,76240195.66217,187740694.92072,   0.00320,  -0.00099,   0.00317,478168736.00000,   0.00190,276696064.00000,   0.00162,  -0.00060,   0.00073, 160.00000,   2.00000
380365114.52964,78060553.93886,188112907.65255,   0.00320,  -0.00099,   0.00318,478196384.00000,   0.00191,276702688.00000,   0.00162,  -0.00060,   0.00073,  32.00000,   2.00000
380363295.42189,79888466.64229,188482138.00697,   0.00320,  -0.00098,   0.00319,478192096.00000,   0.00191,276709280.00000,   0.00163,  -0.00060,   0.00074, -32.00000,   2.00000
380358747.41302,81729998.98795,188849155.93861,   0.00320,  -0.00097,   0.00320,478215008.00000,   0.00192,276715904.00000,   0.00163,  -0.00060,   0.00075, 160.00000,   2.00000
380342239.38144,83557884.72825,189213392.57471,   0.00320,  -0.00097,   0.00322,478210208.00000,   0.00192,276722496.00000,   0.00164,  -0.00061,   0.00076,  64.00000,   2.00000
380329662.62542,85419031.52937,189574291.47583,   0.00321,  -0.00096,   0.00323,478235616.00000,   0.00193,276729152.00000,   0.00164,  -0.00061,   0.00077, -96.00000,   2.00000
380323687.03749,87294067.08154,189926412.23507,   0.00321,  -0.00095,   0.00324,478245504.00000,   0.00194,276735840.00000,   0.00165,  -0.00061,   0.00077,  96.00000,   2.00000
380294499.07647,89153200.23550,190281648.80123,   0.00321,  -0.00095,   0.00326,478255776.00000,   0.00194,276742528.00000,   0.00165,  -0.00061,   0.00078, 128.00000,   2.00000
380278683.66403,91046277.93490,190627173.65871,   0.00321,  -0.00094,   0.00327,478268320.00000,   0.00195,276749248.00000,   0.00166,  -0.00061,   0.00079, 128.00000,   2.00000
380258107.96107,92951132.30062,190969717.76444,   0.00321,  -0.00093,   0.00328,478292928.00000,   0.00196,276756032.00000,   0.00166,  -0.00061,   0.00080,  64.00000,   2.00000
380224853.80455,94841905.16576,191309577.20653,   0.00321,  -0.00092,   0.00329,478288928.00000,   0.00196,276762752.00000,   0.00167,  -0.00061,   0.00081,   0.00000,   2.00000
380194513.85351,96765268.74675,191645799.25640,   0.00321,  -0.00092,   0.00331,478315232.00000,   0.00197,276769568.00000,   0.00167,  -0.00062,   0.00082,  64.00000,   2.00000
380163439.76067,98682732.21787,191974360.05528,   0.00321,  -0.00091,   0.00332,478322880.00000,   0.00197,276776416.00000,   0.00168,  -0.00062,   0.00082, -32.00000,   2.00000
380125047.14924,100626650.52928,192304919.48184,   0.00321,  -0.00090,   0.00333,478335872.00000,   0.00198,276783232.00000,   0.00168,  -0.00062,   0.00083,  64.00000,   2.00000
380087101.05598,102566142.56092,192628185.95592,   0.00322,  -0.00089,   0.00335,478342144.00000,   0.00199,276790080.00000,   0.00169,  -0.00062,   0.00084, -32.00000,   2.00000
380047350.25475,104520632.89690,192949451.41616,   0.00322,  -0.00089,   0.00336,478363328.00000,   0.00199,276796992.00000,   0.00169,  -0.00062,   0.00085, 192.00000,   2.00000
380013052.00933,106506446.60272,193267287.63441,   0.00322,  -0.00088,   0.00337,478359264.00000,   0.00200,276803872.00000,   0.00170,  -0.00062,   0.00086,   0.00000,   2.00000
379971836.43158,108489134.80305,193584462.16347,   0.00322,  -0.00087,   0.00338,478375424.00000,   0.00201,276810784.00000,   0.00170,  -0.00062,   0.00087,  96.00000,   2.00000
379930537.48457,110484179.68997,193899646.58517,   0.00322,  -0.00086,   0.00340,478365856.00000,   0.00201,276817664.00000,   0.00171,  -0.00063,   0.00088,  32.00000,   2.00000
379888762.41481,112493691.97952,194213691.29599,   0.00322,  -0.00086,   0.00341,478383360.00000,   0.00202,276824576.00000,   0.00171,  -0.00063,   0.00088, -32.00000,   2.00000
379850911.98724,114509895.96048,194520934.96134,   0.00322,  -0.00085,   0.00342,478392896.00000,   0.00203,276831488.00000,   0.00171,  -0.00063,   0.00089,   0.00000,   2.00000
379783277.25316,116508848.34774,194831033.29798,   0.00322,  -0.00084,   0.00343,478419680.00000,   0.00203,276838432.00000,   0.00172,  -0.00063,   0.00090,  64.00000,   2.00000
379710551.28892,118502103.69605,195123335.89484,   0.00322,  -0.00083,   0.00345,478474880.00000,   0.00204,276845504.00000,   0.00172,  -0.00063,   0.00091, -96.00000,   2.00000
379596492.73845,120488348.40534,195414679.18159,   0.00322,  -0.00082,   0.00346,478504288.00000,   0.00205,276852608.00000,   0.00173,  -0.00063,   0.00092,   0.00000,   2.00000
379490119.05296,122508323.75327,195693382.51290,   0.00322,  -0.00081,   0.00347,478522656.00000,   0.00205,276859808.00000,   0.00173,  -0.00063,   0.00093, -64.00000,   2.00000
379413885.70481,124569801.35008,195965714.94593,   0.00322,  -0.00081,   0.00349,478504896.00000,   0.00206,276866976.00000,   0.00174,  -0.00063,   0.00094,   0.00000,   2.00000
379348562.03059,126637113.51467,196244262.82662,   0.00322,  -0.00080,   0.00350,478497024.00000,   0.00207,276874144.00000,   0.00174,  -0.00063,   0.00095,-224.00000,   2.00000
379287081.70425,128730507.56453,196526558.81607,   0.00322,  -0.00079,   0.00351,478494176.00000,   0.00207,276881248.00000,   0.00175,  -0.00063,   0.00096, -64.00000,   2.00000
379220490.12514,130810191.68872,196801981.79417,   0.00322,  -0.00078,   0.00352,478507552.00000,   0.00208,276888352.00000,   0.00175,  -0.00064,   0.00097, -64.00000,   2.00000
379128784.39549,132885434.80302,197077537.56528,   0.00323,  -0.00077,   0.00354,478531648.00000,   0.00209,276895488.00000,   0.00176,  -0.00064,   0.00098,   0.00000,   2.00000
379035344.82245,134984666.64299,197343131.06077,   0.00323,  -0.00076,   0.00355,478564256.00000,   0.00209,276902720.00000,   0.00176,  -0.00064,   0.00098, 128.00000,   2.00000
378928574.58697,137069061.02762,197601509.92594,   0.00323,  -0.00075,   0.00356,478588352.00000,   0.00210,276910016.00000,   0.00177,  -0.00064,   0.00099,  32.00000,   2.00000
378805138.15796,139153525.73556,197856884.57024,   0.00323,  -0.00074,   0.00358,478601184.00000,   0.00211,276917344.00000,   0.00177,  -0.00064,   0.00100, 160.00000,   2.00000
378683184.08831,141246797.75850,198101390.30099,   0.00323,  -0.00074,   0.00359,478617696.00000,   0.00211,276924672.00000,   0.00178,  -0.00064,   0.00101,  32.00000,   2.00000
378552727.88517,143346358.31997,198340609.02130,   0.00323,  -0.00073,   0.00360,478647520.00000,   0.00212,276932128.00000,   0.00178,  -0.00064,   0.00102,  64.00000,   2.00000
378408890.15569,145448526.19941,198577356.44530,   0.00323,  -0.00072,   0.00361,478657216.00000,   0.00213,276939552.00000,   0.00179,  -0.00064,   0.00103, 128.00000,   2.00000
378257615.21881,147540175.11171,198807905.56947,   0.00323,  -0.00071,   0.00363,478674464.00000,   0.00214,276947040.00000,   0.00179,  -0.00064,   0.00104,  32.00000,   2.00000
378100417.68864,149655508.64540,199034560.77527,   0.00323,  -0.00070,   0.00364,478686528.00000,   0.00214,276954560.00000,   0.00180,  -0.00064,   0.00105,   0.00000,   2.00000
377937273.81818,151761434.63034,199255386.76708,   0.00323,  -0.00069,   0.00365,478702944.00000,   0.00215,276962112.00000,   0.00180,  -0.00064,   0.00106,  32.00000,   2.00000
377780416.67272,153897595.30925,199467008.07977,   0.00323,  -0.00068,   0.00367,478727136.00000,   0.00216,276969728.00000,   0.00181,  -0.00064,   0.00107, 128.00000,   2.00000
377606749.10630,156018927.63216,199678338.39779,   0.00323,  -0.00067,   0.00368,478731008.00000,   0.00216,276977312.00000,   0.00182,  -0.00064,   0.00108,  96.00000,   2.00000
377422514.44668,158145142.56253,199887874.80658,   0.00323,  -0.00066,   0.00369,478738976.00000,   0.00217,276984928.00000,   0.00182,  -0.00065,   0.00109, 256.00000,   2.00000
377250192.41072,160287114.90750,200084551.09764,   0.00323,  -0.00065,   0.00370,478772544.00000,   0.00218,276992640.00000,   0.00183,  -0.00065,   0.00110,  96.00000,   2.00000
377055183.67582,162411368.03854,200283665.78050,   0.00323,  -0.00064,   0.00372,478785664.00000,   0.00219,277000352.00000,   0.00183,  -0.00065,   0.00111,  64.00000,   2.00000
376859313.24391,164560072.42730,200476058.72041,   0.00323,  -0.00063,   0.00373,478793632.00000,   0.00219,277008096.00000,   0.00184,  -0.00065,   0.00112,  32.00000,   2.00000
376668292.70485,166702391.43337,200657185.11079,   0.00323,  -0.00062,   0.00374,478826272.00000,   0.00220,277015904.00000,   0.00184,  -0.00065,   0.00113,   0.00000,   2.00000
376457488.93909,168859489.66643,200839037.89644,   0.00323,  -0.00061,   0.00376,478832992.00000,   0.00221,277023680.00000,   0.00185,  -0.00065,   0.00114,  32.00000,   2.00000
376244557.54535,171005720.39600,201011762.61673,   0.00323,  -0.00060,   0.00377,478876224.00000,   0.00222,277031584.00000,   0.00185,  -0.00065,   0.00115,  64.00000,   2.00000
376021835.86865,173152803.19553,201178696.98553,   0.00323,  -0.00059,   0.00378,478886816.00000,   0.00222,277039488.00000,   0.00186,  -0.00065,   0.00117, -64.00000,   2.00000
375783091.05271,175297666.37218,201342197.92814,   0.00323,  -0.00058,   0.00379,478906368.00000,   0.00223,277047392.00000,   0.00186,  -0.00065,   0.00118,   0.00000,   2.00000
375540401.09135,177428424.04368,201496017.86220,   0.00323,  -0.00057,   0.00381,478954688.00000,   0.00224,277055456.00000,   0.00187,  -0.00065,   0.00119,  64.00000,   2.00000
375279396.90854,179571652.64727,201646603.58262,   0.00323,  -0.00056,   0.00382,478962624.00000,   0.00225,277063456.00000,   0.00187,  -0.00065,   0.00120,  32.00000,   2.00000
375013595.29530,181699185.27299,201787257.41650,   0.00323,  -0.00055,   0.00383,479013696.00000,   0.00225,277071584.00000,   0.00188,  -0.00065,   0.00121, -32.00000,   2.00000
374730058.32970,183822131.01772,201924043.31597,   0.00323,  -0.00054,   0.00385,479038784.00000,   0.00226,277079744.00000,   0.00188,  -0.00065,   0.00122, 160.00000,   2.00000
374433867.28392,185942799.92440,202054253.57516,   0.00323,  -0.00053,   0.00386,479056928.00000,   0.00227,277087904.00000,   0.00189,  -0.00065,   0.00123, 224.00000,   2.00000
374125928.04284,188061099.09831,202177766.48664,   0.00323,  -0.00052,   0.00387,479103104.00000,   0.00228,277096192.00000,   0.00189,  -0.00065,   0.00124,  32.00000,   2.00000
373811706.66484,190179637.52899,202292073.87521,   0.00323,  -0.00051,   0.00388,479142144.00000,   0.00228,277104512.00000,   0.00190,  -0.00065,   0.00125,  96.00000,   2.00000
373475073.98999,192275703.41598,202405404.54800,   0.00323,  -0.00050,   0.00390,479162560.00000,   0.00229,277112864.00000,   0.00190,  -0.00065,   0.00127,  32.00000,   2.00000
373138039.04473,194375715.34686,202507324.68387,   0.00323,  -0.00049,   0.00391,479193184.00000,   0.00230,277121248.00000,   0.00191,  -0.00065,   0.00128,  64.00000,   2.00000
372790227.17641,196475037.19485,202603351.74427,   0.00323,  -0.00048,   0.00392,479238208.00000,   0.00231,277129728.00000,   0.00191,  -0.00065,   0.00129,   0.00000,   2.00000
372425668.48577,198572688.90623,202696595.35343,   0.00323,  -0.00047,   0.00394,479261952.00000,   0.00232,277138208.00000,   0.00192,  -0.00065,   0.00130,  32.00000,   2.00000
372044712.18586,200669516.43740,202787295.47189,   0.00323,  -0.00046,   0.00395,479284512.00000,   0.00232,277146720.00000,   0.00192,  -0.00064,   0.00131,   0.00000,   2.00000
371655228.37517,202752386.64852,202873052.95257,   0.00322,  -0.00045,   0.00396,479311712.00000,   0.00233,277155296.00000,   0.00193,  -0.00064,   0.00132,  64.00000,   2.00000
371256571.53220,204837564.36651,202953956.63377,   0.00322,  -0.00044,   0.00397,479351552.00000,   0.00234,277163936.00000,   0.00193,  -0.00064,   0.00134,  96.00000,   2.00000
370859934.83807,206931351.65755,203025063.69146,   0.00322,  -0.00042,   0.00399,479374208.00000,   0.00235,277172608.00000,   0.00194,  -0.00064,   0.00135,   0.00000,   2.00000
370436644.74902,209023194.24341,203100041.33836,   0.00322,  -0.00041,   0.00400,479377088.00000,   0.00236,277181248.00000,   0.00195,  -0.00064,   0.00136,  32.00000,   2.00000
