# sigma_xx, sigma_yy, sigma_xy, epsilon_xx, epsilon_yy, epsilon_xy, vonMises, epsPlastic, hardening, epsilonP__xx, epsilonP__yy, epsilonP__xy, yieldValue, iteration
   0.00000,   0.00000,   0.00000,   0.00000,   0.00000,   0.00000,   0.00000,   0.00000,274640135.82653,   0.00000,   0.00000,   0.00000,-474640135.82653,   0.00000
   0.00000,   0.00000,   0.00000,   0.00000,   0.00000,   0.00000,   0.00000,   0.00000,274640135.82653,   0.00000,   0.00000,   0.00000,-474640135.82653,   0.00000
1186591.51587,524838.55510,-74161.96974,   0.00000,   0.00000,  -0.00000,1037875.69152,   0.00000,274640135.82653,   0.00000,   0.00000,   0.00000,-473602260.13501,   0.00000
2333249.66342,1032562.80948,-142619.17258,   0.00001,   0.00000,  -0.00000,2040106.32195,   0.00000,274640135.82653,   0.00000,   0.00000,   0.00000,-472600029.50458,   0.00000
3459941.12681,1531729.91352,-216781.14232,   0.00001,   0.00000,  -0.00000,3026330.45073,   0.00000,274640135.82653,   0.00000,   0.00000,   0.00000,-471613805.37580,   0.00000
4575223.05639,2042306.55135,-285238.34516,   0.00002,   0.00000,  -0.00000,4000469.57045,   0.00000,274640135.82653,   0.00000,   0.00000,   0.00000,-470639666.25608,   0.00000
5670538.30180,2544326.03884,-359400.31490,   0.00002,   0.00000,  -0.00000,4958669.89501,   0.00000,274640135.82653,   0.00000,   0.00000,   0.00000,-469681465.93152,   0.00000
6717363.02855,3009264.54145,-427857.51774,   0.00002,   0.00000,  -0.00001,5874819.39555,   0.00000,274640135.82653,   0.00000,   0.00000,   0.00000,-468765316.43098,   0.00000
7752778.22148,3485612.57787,-502019.48748,   0.00003,   0.00000,  -0.00001,6781441.92703,   0.00000,274640135.82653,   0.00000,   0.00000,   0.00000,-467858693.89950,   0.00000
8756817.19645,3964812.99774,-570476.69032,   0.00003,   0.00000,  -0.00001,7658901.86922,   0.00000,274640135.82653,   0.00000,   0.00000,   0.00000,-466981233.95731,   0.00000
9752299.02106,4424046.73345,-638933.89316,   0.00004,   0.00000,  -0.00001,8529924.30375,   0.00000,274640135.82653,   0.00000,   0.00000,   0.00000,-466110211.52278,   0.00000
10716404.62771,4886132.85261,-713095.86290,   0.00004,   0.00000,  -0.00001,9374399.33083,   0.00000,274640135.82653,   0.00000,   0.00000,   0.00000,-465265736.49570,   0.00000
11660543.55019,5339661.82142,-781553.06574,   0.00004,   0.00000,  -0.00001,10200459.82418,   0.00000,274640135.82653,   0.00000,   0.00000,   0.00000,-464439676.00235,   0.00000
12564749.10435,5776076.48951,-850010.26858,   0.00005,   0.00000,  -0.00001,10992205.42657,   0.00000,274640135.82653,   0.00000,   0.00000,   0.00000,-463647930.39996,   0.00000
13448987.97435,6203934.00726,-918467.47142,   0.00005,   0.00000,  -0.00001,11766825.75428,   0.00000,274640135.82653,   0.00000,   0.00000,   0.00000,-462873310.07225,   0.00000
14313260.16019,6623234.37464,-986924.67426,   0.00005,   0.00000,  -0.00001,12524321.70724,   0.00000,274640135.82653,   0.00000,   0.00000,   0.00000,-462115814.11929,   0.00000
15166122.81222,7053944.27584,-1055381.87710,   0.00006,   0.00000,  -0.00001,13271394.74673,   0.00000,274640135.82653,   0.00000,   0.00000,   0.00000,-461368741.07980,   0.00000
15970494.94558,7447573.19216,-1123839.07994,   0.00006,   0.00000,  -0.00001,13977505.78858,   0.00000,274640135.82653,   0.00000,   0.00000,   0.00000,-460662630.03795,   0.00000
16763457.54512,7852611.64229,-1198001.04968,   0.00006,   0.00000,  -0.00002,14674662.38566,   0.00000,274640135.82653,   0.00000,   0.00000,   0.00000,-459965473.44087,   0.00000
17536453.46051,8249092.94206,-1266458.25252,   0.00006,   0.00000,  -0.00002,15353392.11333,   0.00000,274640135.82653,   0.00000,   0.00000,   0.00000,-459286743.71320,   0.00000
18278073.15793,8648426.62529,-1334915.45535,   0.00007,   0.00000,  -0.00002,16004770.06147,   0.00000,274640135.82653,   0.00000,   0.00000,   0.00000,-458635365.76506,   0.00000
18991169.02083,9019236.47400,-1397667.89129,   0.00007,   0.00000,  -0.00002,16630866.17222,   0.00000,274640135.82653,   0.00000,   0.00000,   0.00000,-458009269.65431,   0.00000
19692855.34993,9401455.85651,-1466125.09413,   0.00007,   0.00000,  -0.00002,17248274.75921,   0.00000,274640135.82653,   0.00000,   0.00000,   0.00000,-457391861.06732,   0.00000
20366017.84451,9755151.40451,-1534582.29697,   0.00007,   0.00000,  -0.00002,17841774.08965,   0.00000,274640135.82653,   0.00000,   0.00000,   0.00000,-456798361.73688,   0.00000
21007804.12112,10111699.33597,-1603039.49981,   0.00008,   0.00001,  -0.00002,18408120.63695,   0.00000,274640135.82653,   0.00000,   0.00000,   0.00000,-456232015.18958,   0.00000
21629623.71358,10459690.11706,-1671496.70264,   0.00008,   0.00001,  -0.00002,18957538.91263,   0.00000,274640135.82653,   0.00000,   0.00000,   0.00000,-455682596.91390,   0.00000
22240033.77222,10819090.43196,-1739953.90548,   0.00008,   0.00001,  -0.00002,19497107.53298,   0.00000,274640135.82653,   0.00000,   0.00000,   0.00000,-455143028.29355,   0.00000
22801953.31219,11141409.76200,-1808411.10832,   0.00008,   0.00001,  -0.00002,19995630.35568,   0.00000,274640135.82653,   0.00000,   0.00000,   0.00000,-454644505.47085,   0.00000
23343906.16799,11455171.94167,-1876868.31116,   0.00008,   0.00001,  -0.00002,20477264.57369,   0.00000,274640135.82653,   0.00000,   0.00000,   0.00000,-454162871.25284,   0.00000
23874449.48999,11780343.65516,-1945325.51400,   0.00009,   0.00001,  -0.00003,20949212.14701,   0.00000,274640135.82653,   0.00000,   0.00000,   0.00000,-453690923.67952,   0.00000
24385026.12783,12096958.21829,-2008077.94993,   0.00009,   0.00001,  -0.00003,21402765.85698,   0.00000,274640135.82653,   0.00000,   0.00000,   0.00000,-453237369.96955,   0.00000
24855669.39735,12396458.48071,-2076535.15277,   0.00009,   0.00001,  -0.00003,21824073.97994,   0.00000,274640135.82653,   0.00000,   0.00000,   0.00000,-452816061.84659,   0.00000
25306345.98270,12687401.59277,-2144992.35561,   0.00009,   0.00001,  -0.00003,22228641.62429,   0.00000,274640135.82653,   0.00000,   0.00000,   0.00000,-452411494.20224,   0.00000
25745613.03425,12989754.23864,-2213449.55845,   0.00009,   0.00001,  -0.00003,22623863.42991,   0.00000,274640135.82653,   0.00000,   0.00000,   0.00000,-452016272.39662,   0.00000
26136389.56712,13255025.89964,-2281906.76129,   0.00009,   0.00001,  -0.00003,22978018.75643,   0.00000,274640135.82653,   0.00000,   0.00000,   0.00000,-451662117.07010,   0.00000
26535723.25035,13540264.24480,-2344659.19723,   0.00009,   0.00001,  -0.00003,23338271.99591,   0.00000,274640135.82653,   0.00000,   0.00000,   0.00000,-451301863.83062,   0.00000
26875156.88109,13799831.13890,-2413116.40006,   0.00010,   0.00001,  -0.00003,23649654.59231,   0.00000,274640135.82653,   0.00000,   0.00000,   0.00000,-450990481.23422,   0.00000
27214590.51183,14059398.03300,-2481573.60290,   0.00010,   0.00001,  -0.00003,23961520.65512,   0.00000,274640135.82653,   0.00000,   0.00000,   0.00000,-450678615.17141,   0.00000
27534057.45841,14310407.77674,-2550030.80574,   0.00010,   0.00001,  -0.00003,24256885.04760,   0.00000,274640135.82653,   0.00000,   0.00000,   0.00000,-450383250.77893,   0.00000
27813591.03667,14544303.21977,-2618488.00858,   0.00010,   0.00001,  -0.00003,24518824.18039,   0.00000,274640135.82653,   0.00000,   0.00000,   0.00000,-450121311.64614,   0.00000
28073157.93077,14769641.51245,-2681240.44452,   0.00010,   0.00001,  -0.00003,24762495.40770,   0.00000,274640135.82653,   0.00000,   0.00000,   0.00000,-449877640.41883,   0.00000
28301348.60690,14997832.18858,-2749697.64735,   0.00010,   0.00001,  -0.00004,24982492.62313,   0.00000,274640135.82653,   0.00000,   0.00000,   0.00000,-449657643.20340,   0.00000
28520982.13267,15206056.18054,-2818154.85019,   0.00010,   0.00001,  -0.00004,25195334.88611,   0.00000,274640135.82653,   0.00000,   0.00000,   0.00000,-449444800.94042,   0.00000
28709239.44048,15417132.55596,-2886612.05303,   0.00010,   0.00001,  -0.00004,25382904.54022,   0.00000,274640135.82653,   0.00000,   0.00000,   0.00000,-449257231.28630,   0.00000
28877530.06412,15619651.78103,-2955069.25587,   0.00010,   0.00001,  -0.00004,25554365.64245,   0.00000,274640135.82653,   0.00000,   0.00000,   0.00000,-449085770.18408,   0.00000
29005887.31944,15805056.70538,-3023526.45871,   0.00010,   0.00002,  -0.00004,25692932.09259,   0.00000,274640135.82653,   0.00000,   0.00000,   0.00000,-448947203.73394,   0.00000
29134244.57477,15990461.62974,-3086278.89464,   0.00010,   0.00002,  -0.00004,25830300.08221,   0.00000,274640135.82653,   0.00000,   0.00000,   0.00000,-448809835.74432,   0.00000
29231225.61212,16178718.93754,-3154736.09748,   0.00010,   0.00002,  -0.00004,25945111.16574,   0.00000,274640135.82653,   0.00000,   0.00000,   0.00000,-448695024.66079,   0.00000
29299682.81496,16338452.41083,-3223193.30032,   0.00010,   0.00002,  -0.00004,26035973.03861,   0.00000,274640135.82653,   0.00000,   0.00000,   0.00000,-448604162.78792,   0.00000
29356730.48399,16509595.41793,-3291650.50316,   0.00010,   0.00002,  -0.00004,26119370.42875,   0.00000,274640135.82653,   0.00000,   0.00000,   0.00000,-448520765.39778,   0.00000
29365287.63435,16643657.44016,-3360107.70600,   0.00010,   0.00002,  -0.00004,26162122.12729,   0.00000,274640135.82653,   0.00000,   0.00000,   0.00000,-448478013.69924,   0.00000
29362435.25090,16789128.99619,-3428564.90884,   0.00010,   0.00002,  -0.00004,26197765.46285,   0.00000,274640135.82653,   0.00000,   0.00000,   0.00000,-448442370.36368,   0.00000
29339616.18328,16926043.40187,-3497022.11168,   0.00010,   0.00002,  -0.00005,26218083.39792,   0.00000,274640135.82653,   0.00000,   0.00000,   0.00000,-448422052.42860,   0.00000
29296830.43151,17054400.65719,-3565479.31452,   0.00010,   0.00002,  -0.00005,26223174.84918,   0.00000,274640135.82653,   0.00000,   0.00000,   0.00000,-448416960.97735,   0.00000
29234077.99557,17174200.76216,-3633936.51735,   0.00010,   0.00002,  -0.00005,26213146.45963,   0.00000,274640135.82653,   0.00000,   0.00000,   0.00000,-448426989.36690,   0.00000
29139949.34167,17296853.25058,-3702393.72019,   0.00010,   0.00002,  -0.00005,26180364.97631,   0.00000,274640135.82653,   0.00000,   0.00000,   0.00000,-448459770.85022,   0.00000
29017296.85325,17390981.90448,-3770850.92303,   0.00010,   0.00002,  -0.00005,26124096.80412,   0.00000,274640135.82653,   0.00000,   0.00000,   0.00000,-448516039.02241,   0.00000
28883234.83102,17496520.09219,-3839308.12587,   0.00010,   0.00002,  -0.00005,26062122.54879,   0.00000,274640135.82653,   0.00000,   0.00000,   0.00000,-448578013.27774,   0.00000
28720648.97428,17573534.44538,-3913470.09561,   0.00010,   0.00002,  -0.00005,25979361.44195,   0.00000,274640135.82653,   0.00000,   0.00000,   0.00000,-448660774.38458,   0.00000
28526686.89957,17653401.18203,-3981927.29845,   0.00010,   0.00002,  -0.00005,25872545.78811,   0.00000,274640135.82653,   0.00000,   0.00000,   0.00000,-448767590.03841,   0.00000
28332724.82486,17733267.91867,-4050384.50129,   0.00009,   0.00003,  -0.00005,25768141.77849,   0.00000,274640135.82653,   0.00000,   0.00000,   0.00000,-448871994.04804,   0.00000
28098829.38183,17796020.35461,-4118841.70413,   0.00009,   0.00003,  -0.00005,25633762.58808,   0.00000,274640135.82653,   0.00000,   0.00000,   0.00000,-449006373.23845,   0.00000
27844967.25464,17850215.64019,-4193003.67387,   0.00009,   0.00003,  -0.00005,25488773.39636,   0.00000,274640135.82653,   0.00000,   0.00000,   0.00000,-449151362.43017,   0.00000
27551171.75912,17887296.62506,-4261460.87671,   0.00009,   0.00003,  -0.00006,25311787.97796,   0.00000,274640135.82653,   0.00000,   0.00000,   0.00000,-449328347.84857,   0.00000
27257376.26361,17924377.60993,-4329918.07955,   0.00009,   0.00003,  -0.00006,25138037.71978,   0.00000,274640135.82653,   0.00000,   0.00000,   0.00000,-449502098.10675,   0.00000
26932204.55012,17964310.97825,-4404080.04929,   0.00009,   0.00003,  -0.00006,24948534.55068,   0.00000,274640135.82653,   0.00000,   0.00000,   0.00000,-449691601.27585,   0.00000
26578509.00212,17975720.51206,-4472537.25213,   0.00009,   0.00003,  -0.00006,24734320.03652,   0.00000,274640135.82653,   0.00000,   0.00000,   0.00000,-449905815.79001,   0.00000
26213403.92032,17998539.57967,-4546699.22187,   0.00008,   0.00003,  -0.00006,24521509.03911,   0.00000,274640135.82653,   0.00000,   0.00000,   0.00000,-450118626.78741,   0.00000
25819775.00399,17992834.81277,-4615156.42471,   0.00008,   0.00003,  -0.00006,24284376.57796,   0.00000,274640135.82653,   0.00000,   0.00000,   0.00000,-450355759.24857,   0.00000
25414736.55386,17998539.57967,-4689318.39445,   0.00008,   0.00003,  -0.00006,24049890.65142,   0.00000,274640135.82653,   0.00000,   0.00000,   0.00000,-450590245.17511,   0.00000
24969764.73541,17987130.04587,-4763480.36419,   0.00008,   0.00003,  -0.00006,23789994.28874,   0.00000,274640135.82653,   0.00000,   0.00000,   0.00000,-450850141.53779,   0.00000
24524792.91696,17975720.51206,-4831937.56703,   0.00008,   0.00003,  -0.00006,23532616.39536,   0.00000,274640135.82653,   0.00000,   0.00000,   0.00000,-451107519.43117,   0.00000
24039887.73019,17947196.67754,-4906099.53677,   0.00007,   0.00003,  -0.00006,23254653.63012,   0.00000,274640135.82653,   0.00000,   0.00000,   0.00000,-451385482.19641,   0.00000
23535015.85925,17910115.69267,-4980261.50651,   0.00007,   0.00004,  -0.00006,22968747.74061,   0.00000,274640135.82653,   0.00000,   0.00000,   0.00000,-451671388.08592,   0.00000
23010177.30416,17864477.55745,-5054423.47626,   0.00007,   0.00004,  -0.00007,22675639.17419,   0.00000,274640135.82653,   0.00000,   0.00000,   0.00000,-451964496.65234,   0.00000
22465372.06490,17810282.27187,-5128585.44600,   0.00007,   0.00004,  -0.00007,22376140.07889,   0.00000,274640135.82653,   0.00000,   0.00000,   0.00000,-452263995.74764,   0.00000
21880633.45732,17738972.68558,-5202747.41574,   0.00006,   0.00004,  -0.00007,22056723.58277,   0.00000,274640135.82653,   0.00000,   0.00000,   0.00000,-452583412.24376,   0.00000
21304452.00009,17687629.78345,-5276909.38548,   0.00006,   0.00004,  -0.00007,21758767.90288,   0.00000,274640135.82653,   0.00000,   0.00000,   0.00000,-452881367.92365,   0.00000
20679780.02419,17599205.89645,-5351071.35522,   0.00006,   0.00004,  -0.00007,21432207.94602,   0.00000,274640135.82653,   0.00000,   0.00000,   0.00000,-453207927.88051,   0.00000
20035141.36412,17502224.85909,-5425233.32497,   0.00006,   0.00004,  -0.00007,21103902.13091,   0.00000,274640135.82653,   0.00000,   0.00000,   0.00000,-453536233.69562,   0.00000
19399059.85441,17425210.50590,-5499395.29471,   0.00005,   0.00004,  -0.00007,20800452.60692,   0.00000,274640135.82653,   0.00000,   0.00000,   0.00000,-453839683.21961,   0.00000
18723044.97638,17331081.85200,-5579262.03135,   0.00005,   0.00004,  -0.00007,20489330.90141,   0.00000,274640135.82653,   0.00000,   0.00000,   0.00000,-454150804.92512,   0.00000
18018506.26383,17208429.36358,-5653424.00110,   0.00005,   0.00004,  -0.00007,20164573.53060,   0.00000,274640135.82653,   0.00000,   0.00000,   0.00000,-454475562.29592,   0.00000
17282591.33332,17088629.25861,-5727585.97084,   0.00005,   0.00004,  -0.00007,19844121.05309,   0.00000,274640135.82653,   0.00000,   0.00000,   0.00000,-454796014.77344,   0.00000
16546676.40280,16968829.15364,-5807452.70748,   0.00004,   0.00004,  -0.00008,19548285.31441,   0.00000,274640135.82653,   0.00000,   0.00000,   0.00000,-455091850.51212,   0.00000
15790794.78812,16840471.89832,-5881614.67722,   0.00004,   0.00005,  -0.00008,19256334.84210,   0.00000,274640135.82653,   0.00000,   0.00000,   0.00000,-455383800.98443,   0.00000
14994979.80513,16695000.34229,-5961481.41387,   0.00004,   0.00005,  -0.00008,18969687.52377,   0.00000,274640135.82653,   0.00000,   0.00000,   0.00000,-455670448.30276,   0.00000
14199164.82213,16549528.78625,-6041348.15051,   0.00003,   0.00005,  -0.00008,18708483.64127,   0.00000,274640135.82653,   0.00000,   0.00000,   0.00000,-455931652.18526,   0.00000
13363416.47080,16386942.92951,-6121214.88716,   0.00003,   0.00005,  -0.00008,18453592.34353,   0.00000,274640135.82653,   0.00000,   0.00000,   0.00000,-456186543.48300,   0.00000
12507701.43532,16215799.92242,-6201081.62380,   0.00003,   0.00005,  -0.00008,18219018.03802,   0.00000,274640135.82653,   0.00000,   0.00000,   0.00000,-456421117.78851,   0.00000
11651986.39984,16044656.91532,-6275243.59355,   0.00002,   0.00005,  -0.00008,18010655.87090,   0.00000,274640135.82653,   0.00000,   0.00000,   0.00000,-456629479.95563,   0.00000
10756337.99603,15856399.60751,-6360815.09710,   0.00002,   0.00005,  -0.00008,17831077.59272,   0.00000,274640135.82653,   0.00000,   0.00000,   0.00000,-456809058.23381,   0.00000
9840722.90806,15659585.14935,-6440681.83374,   0.00001,   0.00005,  -0.00008,17675065.58810,   0.00000,274640135.82653,   0.00000,   0.00000,   0.00000,-456965070.23843,   0.00000
8905141.13593,15454213.54083,-6520548.57039,   0.00001,   0.00005,  -0.00008,17551779.48434,   0.00000,274640135.82653,   0.00000,   0.00000,   0.00000,-457088356.34219,   0.00000
7958149.83000,15260251.46613,-6600415.30703,   0.00001,   0.00005,  -0.00009,17477428.37465,   0.00000,274640135.82653,   0.00000,   0.00000,   0.00000,-457162707.45188,   0.00000
6982634.68955,15037765.55690,-6685986.81058,   0.00000,   0.00005,  -0.00009,17435470.04284,   0.00000,274640135.82653,   0.00000,   0.00000,   0.00000,-457204665.78369,   0.00000
5987152.86493,14806722.49732,-6765853.54722,  -0.00000,   0.00006,  -0.00009,17428862.33201,   0.00000,274640135.82653,   0.00000,   0.00000,   0.00000,-457211273.49452,   0.00000
4980261.50651,14587088.97154,-6851425.05077,  -0.00001,   0.00006,  -0.00009,17486129.56943,   0.00000,274640135.82653,   0.00000,   0.00000,   0.00000,-457154006.25710,   0.00000
3944846.31358,14338931.61125,-6931291.78742,  -0.00001,   0.00006,  -0.00009,17570723.04174,   0.00000,274640135.82653,   0.00000,   0.00000,   0.00000,-457069412.78479,   0.00000
2898021.58684,14102183.78477,-7016863.29097,  -0.00001,   0.00006,  -0.00009,17723171.13046,   0.00000,274640135.82653,   0.00000,   0.00000,   0.00000,-456916964.69607,   0.00000
1802706.34142,13828354.97342,-7102434.79451,  -0.00002,   0.00006,  -0.00009,17913079.80927,   0.00000,274640135.82653,   0.00000,   0.00000,   0.00000,-456727056.01726,   0.00000
707391.09600,13554526.16206,-7188006.29806,  -0.00002,   0.00006,  -0.00009,18155977.91765,   0.00000,274640135.82653,   0.00000,   0.00000,   0.00000,-456484157.90888,   0.00000
-399333.68323,13292106.88451,-7273577.80161,  -0.00003,   0.00006,  -0.00009,18462458.14967,   0.00000,274640135.82653,   0.00000,   0.00000,   0.00000,-456177677.67686,   0.00000
-1534582.29697,13001163.77245,-7359149.30516,  -0.00003,   0.00006,  -0.00010,18809779.19903,   0.00000,274640135.82653,   0.00000,   0.00000,   0.00000,-455830356.62750,   0.00000
-2681240.44452,12721630.19419,-7444720.80871,  -0.00004,   0.00006,  -0.00010,19220048.86244,   0.00000,274640135.82653,   0.00000,   0.00000,   0.00000,-455420086.96409,   0.00000
-3847865.27622,12433539.46558,-7530292.31226,  -0.00004,   0.00006,  -0.00010,19681398.89643,   0.00000,274640135.82653,   0.00000,   0.00000,   0.00000,-454958736.93010,   0.00000
-5043013.94245,12116924.90245,-7621568.58271,  -0.00005,   0.00006,  -0.00010,20189665.74564,   0.00000,274640135.82653,   0.00000,   0.00000,   0.00000,-454450470.08089,   0.00000
-6249572.14248,11811719.87313,-7707140.08626,  -0.00005,   0.00007,  -0.00010,20750713.21007,   0.00000,274640135.82653,   0.00000,   0.00000,   0.00000,-453889422.61646,   0.00000
-7484654.17703,11477991.00929,-7798416.35671,  -0.00006,   0.00007,  -0.00010,21356942.94903,   0.00000,274640135.82653,   0.00000,   0.00000,   0.00000,-453283192.87750,   0.00000
-8731145.74538,11155671.67926,-7889692.62716,  -0.00006,   0.00007,  -0.00010,22018752.48998,   0.00000,274640135.82653,   0.00000,   0.00000,   0.00000,-452621383.33655,   0.00000
-10006161.14826,10804828.51471,-7975264.13071,  -0.00007,   0.00007,  -0.00010,22711163.53951,   0.00000,274640135.82653,   0.00000,   0.00000,   0.00000,-451928972.28702,   0.00000
-11292586.08493,10465394.88397,-8066540.40116,  -0.00007,   0.00007,  -0.00010,23461363.67165,   0.00000,274640135.82653,   0.00000,   0.00000,   0.00000,-451178772.15488,   0.00000
-12598977.70577,10117404.10287,-8157816.67161,  -0.00008,   0.00007,  -0.00011,24253143.55473,   0.00000,274640135.82653,   0.00000,   0.00000,   0.00000,-450386992.27180,   0.00000
-13913926.47696,9749446.63761,-8254797.70897,  -0.00008,   0.00007,  -0.00011,25074433.17606,   0.00000,274640135.82653,   0.00000,   0.00000,   0.00000,-449565702.65047,   0.00000
-15260251.46613,9384341.55580,-8346073.97942,  -0.00009,   0.00007,  -0.00011,25944544.81853,   0.00000,274640135.82653,   0.00000,   0.00000,   0.00000,-448695591.00800,   0.00000
-16635100.28980,8990712.63948,-8437350.24987,  -0.00009,   0.00007,  -0.00011,26845623.84391,   0.00000,274640135.82653,   0.00000,   0.00000,   0.00000,-447794511.98261,   0.00000
-18001391.96312,8617050.40732,-8534331.28722,  -0.00010,   0.00007,  -0.00011,27783574.35322,   0.00000,274640135.82653,   0.00000,   0.00000,   0.00000,-446856561.47331,   0.00000
-19396207.47096,8214864.34064,-8625607.55768,  -0.00010,   0.00008,  -0.00011,28744345.36923,   0.00000,274640135.82653,   0.00000,   0.00000,   0.00000,-445895790.45730,   0.00000
-20822399.19677,7815530.65742,-8722588.59503,  -0.00011,   0.00008,  -0.00011,29759764.48906,   0.00000,274640135.82653,   0.00000,   0.00000,   0.00000,-444880371.33747,   0.00000
-22257148.07293,7396230.29003,-8819569.63238,  -0.00012,   0.00008,  -0.00011,30790555.06306,   0.00000,274640135.82653,   0.00000,   0.00000,   0.00000,-443849580.76346,   0.00000
-23703306.48290,6988339.45645,-8916550.66974,  -0.00012,   0.00008,  -0.00012,31856632.05773,   0.00000,274640135.82653,   0.00000,   0.00000,   0.00000,-442783503.76880,   0.00000
-25177988.72738,6551924.78835,-9013531.70709,  -0.00013,   0.00008,  -0.00012,32947752.34757,   0.00000,274640135.82653,   0.00000,   0.00000,   0.00000,-441692383.47896,   0.00000
-26644113.82151,6135476.80442,-9110512.74445,  -0.00013,   0.00008,  -0.00012,34059235.84988,   0.00000,274640135.82653,   0.00000,   0.00000,   0.00000,-440580899.97665,   0.00000
-28158729.43432,5681947.83561,-9213198.54871,  -0.00014,   0.00008,  -0.00012,35211419.86371,   0.00000,274640135.82653,   0.00000,   0.00000,   0.00000,-439428715.96282,   0.00000
-29684754.58093,5239828.40061,-9310179.58606,  -0.00015,   0.00008,  -0.00012,36389858.58849,   0.00000,274640135.82653,   0.00000,   0.00000,   0.00000,-438250277.23804,   0.00000
-31219336.87790,4777742.28145,-9412865.39032,  -0.00015,   0.00008,  -0.00012,37582414.32868,   0.00000,274640135.82653,   0.00000,   0.00000,   0.00000,-437057721.49785,   0.00000
-32773885.85902,4307099.01193,-9509846.42767,  -0.00016,   0.00008,  -0.00012,38796270.50160,   0.00000,274640135.82653,   0.00000,   0.00000,   0.00000,-435843865.32493,   0.00000
-34339844.37396,3847865.27622,-9612532.23193,  -0.00016,   0.00008,  -0.00012,40042082.87913,   0.00000,274640135.82653,   0.00000,   0.00000,   0.00000,-434598052.94740,   0.00000
-35934326.72341,3360107.70600,-9715218.03619,  -0.00017,   0.00009,  -0.00013,41309390.62085,   0.00000,274640135.82653,   0.00000,   0.00000,   0.00000,-433330745.20568,   0.00000
-37548775.75702,2863792.98542,-9817903.84045,  -0.00018,   0.00009,  -0.00013,42600674.86789,   0.00000,274640135.82653,   0.00000,   0.00000,   0.00000,-432039460.95864,   0.00000
-39163224.79064,2367478.26484,-9926294.41161,  -0.00018,   0.00009,  -0.00013,43905297.80160,   0.00000,274640135.82653,   0.00000,   0.00000,   0.00000,-430734838.02493,   0.00000
-40789083.35805,1882573.07806,-10028980.21587,  -0.00019,   0.00009,  -0.00013,45230776.74885,   0.00000,274640135.82653,   0.00000,   0.00000,   0.00000,-429409359.07768,   0.00000
-42443465.75999,1369144.05677,-10137370.78703,  -0.00020,   0.00009,  -0.00013,46580386.63947,   0.00000,274640135.82653,   0.00000,   0.00000,   0.00000,-428059749.18706,   0.00000
-44117814.84609,847157.88513,-10240056.59129,  -0.00020,   0.00009,  -0.00013,47948412.85148,   0.00000,274640135.82653,   0.00000,   0.00000,   0.00000,-426691722.97505,   0.00000
-45812130.61634,316614.56313,-10348447.16245,  -0.00021,   0.00009,  -0.00013,49341943.82200,   0.00000,274640135.82653,   0.00000,   0.00000,   0.00000,-425298192.00453,   0.00000
-47506446.38660,-213928.75887,-10456837.73361,  -0.00022,   0.00009,  -0.00014,50742305.67134,   0.00000,274640135.82653,   0.00000,   0.00000,   0.00000,-423897830.15518,   0.00000
-49220728.84102,-753029.23123,-10565228.30477,  -0.00022,   0.00009,  -0.00014,52163729.74070,   0.00000,274640135.82653,   0.00000,   0.00000,   0.00000,-422476406.08583,   0.00000
-50963535.12995,-1320653.53810,-10673618.87593,  -0.00023,   0.00009,  -0.00014,53605030.41182,   0.00000,274640135.82653,   0.00000,   0.00000,   0.00000,-421035105.41471,   0.00000
-52717750.95270,-1876868.31116,-10787714.21400,  -0.00024,   0.00009,  -0.00014,55071444.12359,   0.00000,274640135.82653,   0.00000,   0.00000,   0.00000,-419568691.70294,   0.00000
-54491933.45960,-2441640.23458,-10896104.78516,  -0.00024,   0.00010,  -0.00014,56554911.55039,   0.00000,274640135.82653,   0.00000,   0.00000,   0.00000,-418085224.27614,   0.00000
-56266115.96650,-3006412.15800,-11010200.12322,  -0.00025,   0.00010,  -0.00014,58046780.31687,   0.00000,274640135.82653,   0.00000,   0.00000,   0.00000,-416593355.50966,   0.00000
-58068822.30792,-3599707.91593,-11124295.46129,  -0.00026,   0.00010,  -0.00014,59558081.48781,   0.00000,274640135.82653,   0.00000,   0.00000,   0.00000,-415082054.33872,   0.00000
-59862971.49898,-4173036.98971,-11238390.79935,  -0.00026,   0.00010,  -0.00015,61074409.39791,   0.00000,274640135.82653,   0.00000,   0.00000,   0.00000,-413565726.42862,   0.00000
-61705611.20873,-4783447.04835,-11352486.13742,  -0.00027,   0.00010,  -0.00015,62625355.25651,   0.00000,274640135.82653,   0.00000,   0.00000,   0.00000,-412014780.57002,   0.00000
-63539693.76811,-5373890.42284,-11466581.47548,  -0.00028,   0.00010,  -0.00015,64180709.74065,   0.00000,274640135.82653,   0.00000,   0.00000,   0.00000,-410459426.08588,   0.00000
-65382333.47785,-5984300.48148,-11586381.58045,  -0.00029,   0.00010,  -0.00015,65742882.26062,   0.00000,274640135.82653,   0.00000,   0.00000,   0.00000,-408897253.56591,   0.00000
-67264906.55592,-6611824.84084,-11700476.91851,  -0.00029,   0.00010,  -0.00015,67336792.18660,   0.00000,274640135.82653,   0.00000,   0.00000,   0.00000,-407303343.63993,   0.00000
-69138922.48363,-7219382.51603,-11820277.02348,  -0.00030,   0.00010,  -0.00015,68937120.65854,   0.00000,274640135.82653,   0.00000,   0.00000,   0.00000,-405703015.16799,   0.00000
-71041462.24585,-7855464.02574,-11940077.12845,  -0.00031,   0.00010,  -0.00016,70556575.50916,   0.00000,274640135.82653,   0.00000,   0.00000,   0.00000,-404083560.31737,   0.00000
-72944002.00808,-8491545.53545,-12059877.23342,  -0.00032,   0.00010,  -0.00016,72179279.41314,   0.00000,274640135.82653,   0.00000,   0.00000,   0.00000,-402460856.41338,   0.00000
-74866508.45446,-9136184.19551,-12179677.33838,  -0.00032,   0.00010,  -0.00016,73820751.54523,   0.00000,274640135.82653,   0.00000,   0.00000,   0.00000,-400819384.28130,   0.00000
-76808981.58501,-9789380.00593,-12305182.21025,  -0.00033,   0.00011,  -0.00016,75483718.98698,   0.00000,274640135.82653,   0.00000,   0.00000,   0.00000,-399156416.83955,   0.00000
-78771421.39972,-10451132.96671,-12424982.31522,  -0.00034,   0.00011,  -0.00016,77162510.11467,   0.00000,274640135.82653,   0.00000,   0.00000,   0.00000,-397477625.71186,   0.00000
-80742418.36479,-11132852.61164,-12550487.18709,  -0.00035,   0.00011,  -0.00016,78847506.45014,   0.00000,274640135.82653,   0.00000,   0.00000,   0.00000,-395792629.37639,   0.00000
-82704858.17949,-11794605.57242,-12675992.05896,  -0.00035,   0.00011,  -0.00016,80534324.54542,   0.00000,274640135.82653,   0.00000,   0.00000,   0.00000,-394105811.28111,   0.00000
-84707231.36253,-12473472.83390,-12801496.93084,  -0.00036,   0.00011,  -0.00017,82255359.65162,   0.00000,274640135.82653,   0.00000,   0.00000,   0.00000,-392384776.17491,   0.00000
-86718161.69591,-13172306.77954,-12927001.80271,  -0.00037,   0.00011,  -0.00017,83979718.57191,   0.00000,274640135.82653,   0.00000,   0.00000,   0.00000,-390660417.25462,   0.00000
-88729092.02930,-13871140.72519,-13058211.44148,  -0.00038,   0.00011,  -0.00017,85709026.67489,   0.00000,274640135.82653,   0.00000,   0.00000,   0.00000,-388931109.15164,   0.00000
-90751431.89649,-14558565.13703,-13183716.31335,  -0.00038,   0.00011,  -0.00017,87452814.16319,   0.00000,274640135.82653,   0.00000,   0.00000,   0.00000,-387187321.66334,   0.00000
-92802295.59820,-15274513.38338,-13314925.95213,  -0.00039,   0.00011,  -0.00017,89218432.40387,   0.00000,274640135.82653,   0.00000,   0.00000,   0.00000,-385421703.42266,   0.00000
-94853159.29991,-15990461.62974,-13446135.59090,  -0.00040,   0.00011,  -0.00017,90986079.01788,   0.00000,274640135.82653,   0.00000,   0.00000,   0.00000,-383654056.80865,   0.00000
-96923989.68578,-16714967.02645,-13577345.22967,  -0.00041,   0.00011,  -0.00018,92771771.12728,   0.00000,274640135.82653,   0.00000,   0.00000,   0.00000,-381868364.69925,   0.00000
-99014786.75581,-17448029.57351,-13708554.86845,  -0.00042,   0.00011,  -0.00018,94575484.32078,   0.00000,274640135.82653,   0.00000,   0.00000,   0.00000,-380064651.50575,   0.00000
-101105583.82584,-18181092.12058,-13845469.27413,  -0.00042,   0.00011,  -0.00018,96383464.95267,   0.00000,274640135.82653,   0.00000,   0.00000,   0.00000,-378256670.87386,   0.00000
-103204938.04623,-18934121.35180,-13976678.91290,  -0.00043,   0.00012,  -0.00018,98192199.42399,   0.00000,274640135.82653,   0.00000,   0.00000,   0.00000,-376447936.40253,   0.00000
-105315701.80042,-19675741.04922,-14113593.31858,  -0.00044,   0.00012,  -0.00018,100019737.57012,   0.00000,274640135.82653,   0.00000,   0.00000,   0.00000,-374620398.25641,   0.00000
-107454989.38913,-20445884.58116,-14250507.72425,  -0.00045,   0.00012,  -0.00019,101866714.59021,   0.00000,274640135.82653,   0.00000,   0.00000,   0.00000,-372773421.23632,   0.00000
-109585719.82749,-21196061.42893,-14387422.12993,  -0.00046,   0.00012,  -0.00019,103713601.36282,   0.00000,274640135.82653,   0.00000,   0.00000,   0.00000,-370926534.46371,   0.00000
-111744974.10036,-21974762.11122,-14530041.30251,  -0.00047,   0.00012,  -0.00019,105582320.88902,   0.00000,274640135.82653,   0.00000,   0.00000,   0.00000,-369057814.93751,   0.00000
-113904228.37323,-22753462.79351,-14666955.70819,  -0.00047,   0.00012,  -0.00019,107450158.01440,   0.00000,274640135.82653,   0.00000,   0.00000,   0.00000,-367189977.81212,   0.00000
-116083449.33026,-23540720.62616,-14809574.88077,  -0.00048,   0.00012,  -0.00019,109338077.58715,   0.00000,274640135.82653,   0.00000,   0.00000,   0.00000,-365302058.23938,   0.00000
-118262670.28729,-24327978.45880,-14952194.05335,  -0.00049,   0.00012,  -0.00019,111227345.31207,   0.00000,274640135.82653,   0.00000,   0.00000,   0.00000,-363412790.51446,   0.00000
-120441891.24432,-25115236.29145,-15094813.22593,  -0.00050,   0.00012,  -0.00020,113117893.63965,   0.00000,274640135.82653,   0.00000,   0.00000,   0.00000,-361522242.18687,   0.00000
-122649636.03587,-25931017.95861,-15237432.39851,  -0.00051,   0.00012,  -0.00020,115028079.33603,   0.00000,274640135.82653,   0.00000,   0.00000,   0.00000,-359612056.49050,   0.00000
-124868790.36123,-26735390.09196,-15385756.33800,  -0.00052,   0.00012,  -0.00020,116956165.13593,   0.00000,274640135.82653,   0.00000,   0.00000,   0.00000,-357683970.69060,   0.00000
-127096501.83693,-27559728.90948,-15528375.51058,  -0.00052,   0.00012,  -0.00020,118885262.49613,   0.00000,274640135.82653,   0.00000,   0.00000,   0.00000,-355754873.33040,   0.00000
-129324213.31264,-28384067.72699,-15676699.45006,  -0.00053,   0.00012,  -0.00020,120817784.02703,   0.00000,274640135.82653,   0.00000,   0.00000,   0.00000,-353822351.79950,   0.00000
-131571891.47251,-29216963.69486,-15825023.38954,  -0.00054,   0.00012,  -0.00021,122767896.91375,   0.00000,274640135.82653,   0.00000,   0.00000,   0.00000,-351872238.91278,   0.00000
-133839536.31655,-30058416.81309,-15979052.09593,  -0.00055,   0.00012,  -0.00021,124737787.58547,   0.00000,274640135.82653,   0.00000,   0.00000,   0.00000,-349902348.24106,   0.00000
-136107181.16058,-30899869.93131,-16127376.03542,  -0.00056,   0.00012,  -0.00021,126706547.99194,   0.00000,274640135.82653,   0.00000,   0.00000,   0.00000,-347933587.83459,   0.00000
-138374826.00461,-31741323.04954,-16281404.74180,  -0.00057,   0.00013,  -0.00021,128678500.25433,   0.00000,274640135.82653,   0.00000,   0.00000,   0.00000,-345961635.57220,   0.00000
-140642470.84864,-32582776.16777,-16435433.44819,  -0.00058,   0.00013,  -0.00021,130651407.10975,   0.00000,274640135.82653,   0.00000,   0.00000,   0.00000,-343988728.71678,   0.00000
-142938639.52719,-33452753.12051,-16589462.15458,  -0.00059,   0.00013,  -0.00022,132644189.86701,   0.00000,274640135.82653,   0.00000,   0.00000,   0.00000,-341995945.95952,   0.00000
-145254774.88990,-34331287.22360,-16743490.86096,  -0.00059,   0.00013,  -0.00022,134654509.66096,   0.00000,274640135.82653,   0.00000,   0.00000,   0.00000,-339985626.16557,   0.00000
-147542386.41809,-35181297.49218,-16903224.33425,  -0.00060,   0.00013,  -0.00022,136648834.14277,   0.00000,274640135.82653,   0.00000,   0.00000,   0.00000,-337991301.68375,   0.00000
-149858521.78080,-36059831.59528,-17057253.04064,  -0.00061,   0.00013,  -0.00022,138660969.96037,   0.00000,274640135.82653,   0.00000,   0.00000,   0.00000,-335979165.86616,   0.00000
-152194623.82767,-36946922.84873,-17216986.51393,  -0.00062,   0.00013,  -0.00022,140692677.41907,   0.00000,274640135.82653,   0.00000,   0.00000,   0.00000,-333947458.40746,   0.00000
-154539283.02490,-37853980.78635,-17376719.98722,  -0.00063,   0.00013,  -0.00023,142727845.92155,   0.00000,274640135.82653,   0.00000,   0.00000,   0.00000,-331912289.90498,   0.00000
-156875385.07177,-38741072.03980,-17542158.22741,  -0.00064,   0.00013,  -0.00023,144763318.75064,   0.00000,274640135.82653,   0.00000,   0.00000,   0.00000,-329876817.07589,   0.00000
-159240010.95315,-39656687.12776,-17701891.70071,  -0.00065,   0.00013,  -0.00023,146816802.64557,   0.00000,274640135.82653,   0.00000,   0.00000,   0.00000,-327823333.18096,   0.00000
-161576113.00002,-40543778.38122,-17867329.94090,  -0.00066,   0.00013,  -0.00023,148853809.41750,   0.00000,274640135.82653,   0.00000,   0.00000,   0.00000,-325786326.40903,   0.00000
-163960705.56557,-41467950.61954,-18032768.18109,  -0.00067,   0.00013,  -0.00023,150927570.84451,   0.00000,274640135.82653,   0.00000,   0.00000,   0.00000,-323712564.98202,   0.00000
-166325331.44696,-42383565.70751,-18198206.42129,  -0.00067,   0.00013,  -0.00024,152985443.94704,   0.00000,274640135.82653,   0.00000,   0.00000,   0.00000,-321654691.87949,   0.00000
-168709924.01250,-43307737.94583,-18363644.66148,  -0.00068,   0.00013,  -0.00024,155060709.99468,   0.00000,274640135.82653,   0.00000,   0.00000,   0.00000,-319579425.83185,   0.00000
-171094516.57805,-44231910.18415,-18534787.66858,  -0.00069,   0.00013,  -0.00024,157138707.04920,   0.00000,274640135.82653,   0.00000,   0.00000,   0.00000,-317501428.77733,   0.00000
-173487666.29396,-45176049.10663,-18705930.67567,  -0.00070,   0.00013,  -0.00024,159220268.69857,   0.00000,274640135.82653,   0.00000,   0.00000,   0.00000,-315419867.12796,   0.00000
-175892225.54366,-46108778.49531,-18877073.68277,  -0.00071,   0.00013,  -0.00025,161316305.83071,   0.00000,274640135.82653,   0.00000,   0.00000,   0.00000,-313323829.99582,   0.00000
-178305341.94373,-47061474.56815,-19048216.68987,  -0.00072,   0.00013,  -0.00025,163415937.76661,   0.00000,274640135.82653,   0.00000,   0.00000,   0.00000,-311224198.05992,   0.00000
-180718458.34379,-48014170.64099,-19219359.69696,  -0.00073,   0.00013,  -0.00025,165516241.59909,   0.00000,274640135.82653,   0.00000,   0.00000,   0.00000,-309123894.22744,   0.00000
-183131574.74386,-48966866.71383,-19396207.47096,  -0.00074,   0.00013,  -0.00025,167619172.18841,   0.00000,274640135.82653,   0.00000,   0.00000,   0.00000,-307020963.63812,   0.00000
-185564657.82808,-49928119.93702,-19573055.24496,  -0.00075,   0.00013,  -0.00025,169739442.61147,   0.00000,274640135.82653,   0.00000,   0.00000,   0.00000,-304900693.21506,   0.00000
-188006298.06266,-50909339.84437,-19749903.01896,  -0.00076,   0.00013,  -0.00026,171863400.64550,   0.00000,274640135.82653,   0.00000,   0.00000,   0.00000,-302776735.18103,   0.00000
-190439381.14689,-51870593.06757,-19926750.79296,  -0.00077,   0.00014,  -0.00026,173984881.13849,   0.00000,274640135.82653,   0.00000,   0.00000,   0.00000,-300655254.68804,   0.00000
-192900988.06563,-52860370.12528,-20109303.33387,  -0.00077,   0.00014,  -0.00026,176128772.61117,   0.00000,274640135.82653,   0.00000,   0.00000,   0.00000,-298511363.21536,   0.00000
-195342628.30021,-53841590.03263,-20286151.10787,  -0.00078,   0.00014,  -0.00026,178254552.03150,   0.00000,274640135.82653,   0.00000,   0.00000,   0.00000,-296385583.79503,   0.00000
-197804235.21895,-54831367.09034,-20468703.64877,  -0.00079,   0.00014,  -0.00027,180399615.13656,   0.00000,274640135.82653,   0.00000,   0.00000,   0.00000,-294240520.68997,   0.00000
-200265842.13769,-55821144.14805,-20656960.95658,  -0.00080,   0.00014,  -0.00027,182547170.14268,   0.00000,274640135.82653,   0.00000,   0.00000,   0.00000,-292092965.68385,   0.00000
-202727449.05643,-56810921.20576,-20839513.49748,  -0.00081,   0.00014,  -0.00027,184693319.32428,   0.00000,274640135.82653,   0.00000,   0.00000,   0.00000,-289946816.50225,   0.00000
-205197613.12553,-57820664.94763,-21027770.80528,  -0.00082,   0.00014,  -0.00027,186845199.90070,   0.00000,274640135.82653,   0.00000,   0.00000,   0.00000,-287794935.92583,   0.00000
-207687743.87879,-58838965.83986,-21216028.11309,  -0.00083,   0.00014,  -0.00028,189014418.33312,   0.00000,274640135.82653,   0.00000,   0.00000,   0.00000,-285625717.49340,   0.00000
-210157907.94788,-59848709.58173,-21404285.42090,  -0.00084,   0.00014,  -0.00028,191167374.34952,   0.00000,274640135.82653,   0.00000,   0.00000,   0.00000,-283472761.47701,   0.00000
-212648038.70114,-60867010.47395,-21592542.72870,  -0.00085,   0.00014,  -0.00028,193337644.11791,   0.00000,274640135.82653,   0.00000,   0.00000,   0.00000,-281302491.70862,   0.00000
-215138169.45440,-61885311.36618,-21786504.80341,  -0.00086,   0.00014,  -0.00028,195510323.23202,   0.00000,274640135.82653,   0.00000,   0.00000,   0.00000,-279129812.59451,   0.00000
-217628300.20765,-62903612.25840,-21980466.87812,  -0.00087,   0.00014,  -0.00029,197683479.44695,   0.00000,274640135.82653,   0.00000,   0.00000,   0.00000,-276956656.37958,   0.00000
-220126988.11127,-63941879.83479,-22174428.95283,  -0.00088,   0.00014,  -0.00029,199860544.79985,   0.00000,274640135.82653,   0.00000,   0.00000,   0.00000,-274779591.02668,   0.00000
-222645642.69904,-64988704.56153,-22368391.02754,  -0.00089,   0.00014,  -0.00029,202054935.07870,   0.00000,274640135.82653,   0.00000,   0.00000,   0.00000,-272585200.74783,   0.00000
-225144330.60265,-66026972.13792,-22568057.86916,  -0.00090,   0.00014,  -0.00029,204234874.38844,   0.00000,274640135.82653,   0.00000,   0.00000,   0.00000,-270405261.43809,   0.00000
-227662985.19043,-67073796.86466,-22762019.94387,  -0.00091,   0.00014,  -0.00030,206430222.79978,   0.00000,274640135.82653,   0.00000,   0.00000,   0.00000,-268209913.02675,   0.00000
-230161673.09404,-68112064.44105,-22961686.78548,  -0.00091,   0.00014,  -0.00030,208611072.46340,   0.00000,274640135.82653,   0.00000,   0.00000,   0.00000,-266029063.36313,   0.00000
-232680327.68181,-69158889.16779,-23167058.39399,  -0.00092,   0.00014,  -0.00030,210811080.42809,   0.00000,274640135.82653,   0.00000,   0.00000,   0.00000,-263829055.39844,   0.00000
-235207539.41994,-70225680.57869,-23366725.23561,  -0.00093,   0.00014,  -0.00030,213013226.87671,   0.00000,274640135.82653,   0.00000,   0.00000,   0.00000,-261626908.94982,   0.00000
-237714784.47391,-71283914.83924,-23572096.84412,  -0.00094,   0.00014,  -0.00031,215200850.52969,   0.00000,274640135.82653,   0.00000,   0.00000,   0.00000,-259439285.29684,   0.00000
-240241996.21203,-72350706.25014,-23777468.45264,  -0.00095,   0.00014,  -0.00031,217405766.62086,   0.00000,274640135.82653,   0.00000,   0.00000,   0.00000,-257234369.20567,   0.00000
-242769207.95016,-73417497.66105,-23982840.06116,  -0.00096,   0.00014,  -0.00031,219611109.43416,   0.00000,274640135.82653,   0.00000,   0.00000,   0.00000,-255029026.39237,   0.00000
-245296419.68829,-74484289.07195,-24188211.66967,  -0.00097,   0.00014,  -0.00031,221816866.24196,   0.00000,274640135.82653,   0.00000,   0.00000,   0.00000,-252823269.58457,   0.00000
-247832188.57677,-75571047.16701,-24399288.04509,  -0.00098,   0.00014,  -0.00032,224028602.24435,   0.00000,274640135.82653,   0.00000,   0.00000,   0.00000,-250611533.58218,   0.00000
-250367957.46526,-76657805.26208,-24610364.42051,  -0.00099,   0.00014,  -0.00032,226240768.24573,   0.00000,274640135.82653,   0.00000,   0.00000,   0.00000,-248399367.58080,   0.00000
-252903726.35374,-77744563.35714,-24821440.79593,  -0.00100,   0.00014,  -0.00032,228453351.75478,   0.00000,274640135.82653,   0.00000,   0.00000,   0.00000,-246186784.07175,   0.00000
-255439495.24222,-78831321.45221,-25038221.93825,  -0.00101,   0.00014,  -0.00033,230668198.25013,   0.00000,274640135.82653,   0.00000,   0.00000,   0.00000,-243971937.57640,   0.00000
-257975264.13071,-79918079.54727,-25249298.31367,  -0.00102,   0.00014,  -0.00033,232881579.04352,   0.00000,274640135.82653,   0.00000,   0.00000,   0.00000,-241758556.78301,   0.00000
-260511033.01919,-81004837.64233,-25466079.45599,  -0.00103,   0.00014,  -0.00033,235097196.32741,   0.00000,274640135.82653,   0.00000,   0.00000,   0.00000,-239542939.49912,   0.00000
-263055359.05803,-82111562.42156,-25682860.59832,  -0.00104,   0.00014,  -0.00033,237317028.59756,   0.00000,274640135.82653,   0.00000,   0.00000,   0.00000,-237323107.22897,   0.00000
-265599685.09687,-83218287.20078,-25905346.50754,  -0.00105,   0.00014,  -0.00034,239539111.85104,   0.00000,274640135.82653,   0.00000,   0.00000,   0.00000,-235101023.97549,   0.00000
-268144011.13571,-84325011.98001,-26122127.64986,  -0.00106,   0.00014,  -0.00034,241759732.09130,   0.00000,274640135.82653,   0.00000,   0.00000,   0.00000,-232880403.73523,   0.00000
-270688337.17454,-85431736.75924,-26344613.55909,  -0.00107,   0.00014,  -0.00034,243982578.79091,   0.00000,274640135.82653,   0.00000,   0.00000,   0.00000,-230657557.03562,   0.00000
-273241220.36374,-86558428.22262,-26567099.46832,  -0.00107,   0.00014,  -0.00035,246209723.13131,   0.00000,274640135.82653,   0.00000,   0.00000,   0.00000,-228430412.69522,   0.00000
-275785546.40257,-87665153.00185,-26795290.14444,  -0.00108,   0.00014,  -0.00035,248435157.04525,   0.00000,274640135.82653,   0.00000,   0.00000,   0.00000,-226204978.78128,   0.00000
-278338429.59177,-88791844.46524,-27017776.05367,  -0.00109,   0.00014,  -0.00035,250663062.99652,   0.00000,274640135.82653,   0.00000,   0.00000,   0.00000,-223977072.83001,   0.00000
-280871346.09680,-89909978.77827,-27245966.72980,  -0.00110,   0.00014,  -0.00035,252876271.49314,   0.00000,274640135.82653,   0.00000,   0.00000,   0.00000,-221763864.33339,   0.00000
-283424229.28599,-91036670.24165,-27474157.40593,  -0.00111,   0.00014,  -0.00036,255106759.90757,   0.00000,274640135.82653,   0.00000,   0.00000,   0.00000,-219533375.91896,   0.00000
-285965702.94138,-92174771.23885,-27708052.84896,  -0.00112,   0.00014,  -0.00036,257326557.19718,   0.00000,274640135.82653,   0.00000,   0.00000,   0.00000,-217313578.62935,   0.00000
-288518586.13057,-93301462.70223,-27936243.52509,  -0.00113,   0.00014,  -0.00036,259557763.29996,   0.00000,274640135.82653,   0.00000,   0.00000,   0.00000,-215082372.52657,   0.00000
-291060059.78596,-94439563.69943,-28170138.96812,  -0.00114,   0.00014,  -0.00037,261778293.07694,   0.00000,274640135.82653,   0.00000,   0.00000,   0.00000,-212861842.74959,   0.00000
-293601533.44134,-95577664.69662,-28404034.41115,  -0.00115,   0.00014,  -0.00037,263999183.75402,   0.00000,274640135.82653,   0.00000,   0.00000,   0.00000,-210640952.07251,   0.00000
-296143007.09673,-96715765.69381,-28643634.62109,  -0.00116,   0.00014,  -0.00037,266222267.49978,   0.00000,274640135.82653,   0.00000,   0.00000,   0.00000,-208417868.32675,   0.00000
-298684480.75212,-97853866.69101,-28877530.06412,  -0.00117,   0.00014,  -0.00038,268443852.85226,   0.00000,274640135.82653,   0.00000,   0.00000,   0.00000,-206196282.97427,   0.00000
-301234511.55786,-99011934.37236,-29117130.27406,  -0.00118,   0.00014,  -0.00038,270671764.76092,   0.00000,274640135.82653,   0.00000,   0.00000,   0.00000,-203968371.06561,   0.00000
-303764575.67944,-100161444.90336,-29356730.48399,  -0.00119,   0.00014,  -0.00038,272883100.51459,   0.00000,274640135.82653,   0.00000,   0.00000,   0.00000,-201757035.31193,   0.00000
-306306049.33482,-101299545.90055,-29602035.46083,  -0.00120,   0.00014,  -0.00038,275109381.27376,   0.00000,274640135.82653,   0.00000,   0.00000,   0.00000,-199530754.55277,   0.00000
-308836113.45640,-102449056.43155,-29841635.67077,  -0.00121,   0.00014,  -0.00039,277321393.65995,   0.00000,274640135.82653,   0.00000,   0.00000,   0.00000,-197318742.16658,   0.00000
-311374734.72834,-103618533.64672,-30086940.64761,  -0.00121,   0.00014,  -0.00039,279539808.44891,   0.00000,274640135.82653,   0.00000,   0.00000,   0.00000,-195100327.37762,   0.00000
-313904798.84992,-104768044.17771,-30332245.62444,  -0.00122,   0.00014,  -0.00039,281754342.22420,   0.00000,274640135.82653,   0.00000,   0.00000,   0.00000,-192885793.60233,   0.00000
-316443420.12185,-105937521.39288,-30583255.36819,  -0.00123,   0.00014,  -0.00040,283975300.88942,   0.00000,274640135.82653,   0.00000,   0.00000,   0.00000,-190664834.93711,   0.00000
-318962074.70963,-107098441.45768,-30828560.34502,  -0.00124,   0.00013,  -0.00040,286177812.87001,   0.00000,274640135.82653,   0.00000,   0.00000,   0.00000,-188462322.95651,   0.00000
-321500695.98156,-108267918.67284,-31079570.08877,  -0.00125,   0.00013,  -0.00040,288399458.31310,   0.00000,274640135.82653,   0.00000,   0.00000,   0.00000,-186240677.51343,   0.00000
-324019350.56934,-109428838.73765,-31330579.83251,  -0.00126,   0.00013,  -0.00041,290604481.60247,   0.00000,274640135.82653,   0.00000,   0.00000,   0.00000,-184035654.22406,   0.00000
-326538005.15711,-110589758.80246,-31587294.34315,  -0.00127,   0.00013,  -0.00041,292811672.96673,   0.00000,274640135.82653,   0.00000,   0.00000,   0.00000,-181828462.85980,   0.00000
-329045250.21108,-111762088.40107,-31838304.08690,  -0.00128,   0.00013,  -0.00041,295004728.04615,   0.00000,274640135.82653,   0.00000,   0.00000,   0.00000,-179635407.78038,   0.00000
-331572461.94920,-112942975.15004,-32095018.59754,  -0.00129,   0.00013,  -0.00042,297216930.01033,   0.00000,274640135.82653,   0.00000,   0.00000,   0.00000,-177423205.81620,   0.00000
-334079707.00317,-114115304.74865,-32357437.87509,  -0.00130,   0.00013,  -0.00042,299414357.02337,   0.00000,274640135.82653,   0.00000,   0.00000,   0.00000,-175225778.80316,   0.00000
-336586952.05714,-115287634.34726,-32614152.38573,  -0.00131,   0.00013,  -0.00042,301610262.22793,   0.00000,274640135.82653,   0.00000,   0.00000,   0.00000,-173029873.59860,   0.00000
-339074230.42694,-116451406.79552,-32876571.66328,  -0.00132,   0.00013,  -0.00043,303791375.18361,   0.00000,274640135.82653,   0.00000,   0.00000,   0.00000,-170848760.64292,   0.00000
-341590032.63127,-117643703.07829,-33138990.94083,  -0.00132,   0.00013,  -0.00043,305994204.28393,   0.00000,274640135.82653,   0.00000,   0.00000,   0.00000,-168645931.54260,   0.00000
-344085868.15143,-118827442.21071,-33401410.21838,  -0.00133,   0.00013,  -0.00043,308180409.31296,   0.00000,274640135.82653,   0.00000,   0.00000,   0.00000,-166459726.51357,   0.00000
-346581703.67159,-120011181.34313,-33663829.49593,  -0.00134,   0.00013,  -0.00044,310366946.57570,   0.00000,274640135.82653,   0.00000,   0.00000,   0.00000,-164273189.25083,   0.00000
-349057572.50759,-121186363.32519,-33931953.54038,  -0.00135,   0.00013,  -0.00044,312538698.70907,   0.00000,274640135.82653,   0.00000,   0.00000,   0.00000,-162101437.11746,   0.00000
-351553408.02775,-122370102.45761,-34200077.58483,  -0.00136,   0.00013,  -0.00044,314727739.53396,   0.00000,274640135.82653,   0.00000,   0.00000,   0.00000,-159912396.29257,   0.00000
-354037834.01410,-123565251.12384,-34468201.62928,  -0.00137,   0.00013,  -0.00045,316904648.28095,   0.00000,274640135.82653,   0.00000,   0.00000,   0.00000,-157735487.54558,   0.00000
-356493736.16594,-124731875.95555,-34742030.44064,  -0.00138,   0.00013,  -0.00045,319062248.41553,   0.00000,274640135.82653,   0.00000,   0.00000,   0.00000,-155577887.41100,   0.00000
-358978162.15229,-125927024.62177,-35015859.25199,  -0.00139,   0.00013,  -0.00046,321241678.12687,   0.00000,274640135.82653,   0.00000,   0.00000,   0.00000,-153398457.69966,   0.00000
-361442621.45449,-127113616.13764,-35289688.06335,  -0.00140,   0.00013,  -0.00046,323404464.44500,   0.00000,274640135.82653,   0.00000,   0.00000,   0.00000,-151235671.38153,   0.00000
-363895671.22287,-128311617.18732,-35563516.87470,  -0.00141,   0.00013,  -0.00046,325555186.98892,   0.00000,274640135.82653,   0.00000,   0.00000,   0.00000,-149084948.83761,   0.00000
-366360130.52507,-129498208.70319,-35837345.68606,  -0.00141,   0.00013,  -0.00047,327718624.26460,   0.00000,274640135.82653,   0.00000,   0.00000,   0.00000,-146921511.56193,   0.00000
-368813180.29345,-130696209.75287,-36116879.26431,  -0.00142,   0.00012,  -0.00047,329871889.27531,   0.00000,274640135.82653,   0.00000,   0.00000,   0.00000,-144768246.55122,   0.00000
-371246263.37768,-131885653.65219,-36396412.84257,  -0.00143,   0.00012,  -0.00047,332008515.25688,   0.00000,274640135.82653,   0.00000,   0.00000,   0.00000,-142631620.56965,   0.00000
-373679346.46190,-133075097.55151,-36675946.42083,  -0.00144,   0.00012,  -0.00048,334145470.13947,   0.00000,274640135.82653,   0.00000,   0.00000,   0.00000,-140494665.68706,   0.00000
-376112429.54613,-134264541.45084,-36961184.76599,  -0.00145,   0.00012,  -0.00048,336284628.55302,   0.00000,274640135.82653,   0.00000,   0.00000,   0.00000,-138355507.27351,   0.00000
-378545512.63035,-135453985.35016,-37246423.11115,  -0.00146,   0.00012,  -0.00048,338424108.27443,   0.00000,274640135.82653,   0.00000,   0.00000,   0.00000,-136216027.55210,   0.00000
-380967186.18077,-136654838.78329,-37531661.45631,  -0.00147,   0.00012,  -0.00049,340551625.06607,   0.00000,274640135.82653,   0.00000,   0.00000,   0.00000,-134088510.76046,   0.00000
-383388859.73119,-137855692.21642,-37816899.80147,  -0.00148,   0.00012,  -0.00049,342679481.04304,   0.00000,274640135.82653,   0.00000,   0.00000,   0.00000,-131960654.78349,   0.00000
-385790566.59745,-139047988.49919,-38102138.14664,  -0.00148,   0.00012,  -0.00050,344790691.44620,   0.00000,274640135.82653,   0.00000,   0.00000,   0.00000,-129849444.38033,   0.00000
-388192273.46371,-140240284.78196,-38393081.25870,  -0.00149,   0.00012,  -0.00050,346904121.82266,   0.00000,274640135.82653,   0.00000,   0.00000,   0.00000,-127736014.00387,   0.00000
-390593980.32996,-141432581.06474,-38684024.37076,  -0.00150,   0.00012,  -0.00050,349017877.61485,   0.00000,274640135.82653,   0.00000,   0.00000,   0.00000,-125622258.21168,   0.00000
-392975720.51206,-142616320.19716,-38980672.24973,  -0.00151,   0.00012,  -0.00051,351116873.61820,   0.00000,274640135.82653,   0.00000,   0.00000,   0.00000,-123523262.20833,   0.00000
-395346051.16035,-143811468.86338,-39271615.36180,  -0.00152,   0.00012,  -0.00051,353202097.58351,   0.00000,274640135.82653,   0.00000,   0.00000,   0.00000,-121438038.24302,   0.00000
-397736348.49280,-145015174.67996,-39568263.24076,  -0.00153,   0.00012,  -0.00051,355306543.86637,   0.00000,274640135.82653,   0.00000,   0.00000,   0.00000,-119333591.96016,   0.00000
-400086712.45693,-146201766.19583,-39864911.11973,  -0.00154,   0.00011,  -0.00052,357377368.26279,   0.00000,274640135.82653,   0.00000,   0.00000,   0.00000,-117262767.56374,   0.00000
-402457043.10522,-147396914.86206,-40161558.99870,  -0.00154,   0.00011,  -0.00052,359465503.21450,   0.00000,274640135.82653,   0.00000,   0.00000,   0.00000,-115174632.61203,   0.00000
-404815964.21970,-148603473.06209,-40463911.64457,  -0.00155,   0.00011,  -0.00053,361543750.18240,   0.00000,274640135.82653,   0.00000,   0.00000,   0.00000,-113096385.64413,   0.00000
-407146361.49967,-149781507.42761,-40766264.29044,  -0.00156,   0.00011,  -0.00053,363600507.14103,   0.00000,274640135.82653,   0.00000,   0.00000,   0.00000,-111039628.68550,   0.00000
-409485315.92999,-150979508.47728,-41068616.93631,  -0.00157,   0.00011,  -0.00053,365662464.72086,   0.00000,274640135.82653,   0.00000,   0.00000,   0.00000,-108977671.10567,   0.00000
-411824270.36031,-152177509.52696,-41370969.58218,  -0.00158,   0.00011,  -0.00054,367724766.10905,   0.00000,274640135.82653,   0.00000,   0.00000,   0.00000,-106915369.71748,   0.00000
-414143258.10647,-153366953.42628,-41679026.99496,  -0.00159,   0.00011,  -0.00054,369772355.28663,   0.00000,274640135.82653,   0.00000,   0.00000,   0.00000,-104867780.53990,   0.00000
-416442279.16847,-154547840.17525,-41981379.64083,  -0.00159,   0.00011,  -0.00055,371801372.62840,   0.00000,274640135.82653,   0.00000,   0.00000,   0.00000,-102838763.19813,   0.00000
-418741300.23047,-155728726.92422,-42289437.05360,  -0.00160,   0.00011,  -0.00055,373832653.43144,   0.00000,274640135.82653,   0.00000,   0.00000,   0.00000,-100807482.39509,   0.00000
-421048878.44283,-156929580.35735,-42603199.23328,  -0.00161,   0.00011,  -0.00055,375871155.02505,   0.00000,274640135.82653,   0.00000,   0.00000,   0.00000,-98768980.80148,   0.00000
-423336489.97102,-158121876.64012,-42911256.64605,  -0.00162,   0.00011,  -0.00056,377891094.37713,   0.00000,274640135.82653,   0.00000,   0.00000,   0.00000,-96749041.44940,   0.00000
-425604134.81505,-159305615.77254,-43225018.82573,  -0.00163,   0.00011,  -0.00056,379896350.04003,   0.00000,274640135.82653,   0.00000,   0.00000,   0.00000,-94743785.78650,   0.00000
-427871779.65908,-160489354.90496,-43538781.00541,  -0.00163,   0.00010,  -0.00057,381901955.11575,   0.00000,274640135.82653,   0.00000,   0.00000,   0.00000,-92738180.71078,   0.00000
-430139424.50311,-161673094.03738,-43852543.18509,  -0.00164,   0.00010,  -0.00057,383907904.12808,   0.00000,274640135.82653,   0.00000,   0.00000,   0.00000,-90732231.69845,   0.00000
-432387102.66299,-162848276.01944,-44172010.13167,  -0.00165,   0.00010,  -0.00057,385899174.32835,   0.00000,274640135.82653,   0.00000,   0.00000,   0.00000,-88740961.49818,   0.00000
-434623371.28905,-164034867.53531,-44485772.31134,  -0.00166,   0.00010,  -0.00058,387876884.22391,   0.00000,274640135.82653,   0.00000,   0.00000,   0.00000,-86763251.60262,   0.00000
-436859639.91511,-165221459.05118,-44805239.25792,  -0.00167,   0.00010,  -0.00058,389856918.37557,   0.00000,274640135.82653,   0.00000,   0.00000,   0.00000,-84783217.45096,   0.00000
-439075941.85702,-166399493.41670,-45130410.97141,  -0.00167,   0.00010,  -0.00059,391822308.97926,   0.00000,274640135.82653,   0.00000,   0.00000,   0.00000,-82817826.84727,   0.00000
-441292243.79892,-167577527.78221,-45449877.91799,  -0.00168,   0.00010,  -0.00059,393786088.14644,   0.00000,274640135.82653,   0.00000,   0.00000,   0.00000,-80854047.68009,   0.00000
-443488579.05666,-168747004.99738,-45775049.63147,  -0.00169,   0.00010,  -0.00060,395735223.96827,   0.00000,274640135.82653,   0.00000,   0.00000,   0.00000,-78904911.85826,   0.00000
-445684914.31440,-169916482.21254,-46100221.34496,  -0.00170,   0.00010,  -0.00060,397684714.54606,   0.00000,274640135.82653,   0.00000,   0.00000,   0.00000,-76955421.28047,   0.00000
-447869840.03834,-171097368.96150,-46425393.05844,  -0.00170,   0.00009,  -0.00060,399622701.27664,   0.00000,274640135.82653,   0.00000,   0.00000,   0.00000,-75017434.54989,   0.00000
-450026241.92775,-172249731.87596,-46750564.77192,  -0.00171,   0.00009,  -0.00061,401538958.21606,   0.00000,274640135.82653,   0.00000,   0.00000,   0.00000,-73101177.61047,   0.00000
-452191200.96753,-173422061.47457,-47081441.25231,  -0.00172,   0.00009,  -0.00061,403462699.28864,   0.00000,274640135.82653,   0.00000,   0.00000,   0.00000,-71177436.53788,   0.00000
-454336193.32314,-174585833.92283,-47412317.73270,  -0.00173,   0.00009,  -0.00062,405369843.96426,   0.00000,274640135.82653,   0.00000,   0.00000,   0.00000,-69270291.86227,   0.00000
-456481185.67875,-175749606.37108,-47743194.21308,  -0.00173,   0.00009,  -0.00062,407277357.70655,   0.00000,274640135.82653,   0.00000,   0.00000,   0.00000,-67362778.11998,   0.00000
-458614768.50056,-176924788.35315,-48074070.69347,  -0.00174,   0.00009,  -0.00062,409173452.93550,   0.00000,274640135.82653,   0.00000,   0.00000,   0.00000,-65466682.89103,   0.00000
-460739794.17201,-178080003.65105,-48410651.94076,  -0.00175,   0.00009,  -0.00063,411066752.57150,   0.00000,274640135.82653,   0.00000,   0.00000,   0.00000,-63573383.25503,   0.00000
-462833443.62549,-179238071.33241,-48747233.18805,  -0.00176,   0.00009,  -0.00063,412931697.98418,   0.00000,274640135.82653,   0.00000,   0.00000,   0.00000,-61708437.84235,   0.00000
-464938502.61278,-180384729.47995,-49083814.43534,  -0.00176,   0.00009,  -0.00064,414808773.22125,   0.00000,274640135.82653,   0.00000,   0.00000,   0.00000,-59831362.60528,   0.00000
-467012185.38211,-181534240.01095,-49420395.68263,  -0.00177,   0.00008,  -0.00064,416657516.39784,   0.00000,274640135.82653,   0.00000,   0.00000,   0.00000,-57982619.42869,   0.00000
-469085868.15143,-182683750.54195,-49756976.92992,  -0.00178,   0.00008,  -0.00065,418506641.46574,   0.00000,274640135.82653,   0.00000,   0.00000,   0.00000,-56133494.36079,   0.00000
-471159550.92075,-183833261.07295,-50099262.94412,  -0.00179,   0.00008,  -0.00065,420358182.99607,   0.00000,274640135.82653,   0.00000,   0.00000,   0.00000,-54281952.83046,   0.00000
-473201857.47210,-184985623.98740,-50441548.95831,  -0.00179,   0.00008,  -0.00066,422181463.00439,   0.00000,274640135.82653,   0.00000,   0.00000,   0.00000,-52458672.82214,   0.00000
-475235606.87310,-186118020.21769,-50783834.97250,  -0.00180,   0.00008,  -0.00066,423999861.89286,   0.00000,274640135.82653,   0.00000,   0.00000,   0.00000,-50640273.93367,   0.00000
-477277913.42446,-187270383.13215,-51126120.98670,  -0.00181,   0.00008,  -0.00066,425823937.88419,   0.00000,274640135.82653,   0.00000,   0.00000,   0.00000,-48816197.94234,   0.00000
-479271729.45713,-188385665.06173,-51474111.76779,  -0.00181,   0.00008,  -0.00067,427611246.93507,   0.00000,274640135.82653,   0.00000,   0.00000,   0.00000,-47028888.89146,   0.00000
-481274102.64017,-189520913.67547,-51822102.54889,  -0.00182,   0.00008,  -0.00067,429404263.91635,   0.00000,274640135.82653,   0.00000,   0.00000,   0.00000,-45235871.91018,   0.00000
-483276475.82320,-190656162.28921,-52170093.32999,  -0.00183,   0.00007,  -0.00068,431197683.21735,   0.00000,274640135.82653,   0.00000,   0.00000,   0.00000,-43442452.60918,   0.00000
-485238915.63791,-191774296.60224,-52518084.11108,  -0.00183,   0.00007,  -0.00068,432957598.19218,   0.00000,274640135.82653,   0.00000,   0.00000,   0.00000,-41682537.63435,   0.00000
-487201355.45262,-192892430.91527,-52866074.89218,  -0.00184,   0.00007,  -0.00069,434717911.39119,   0.00000,274640135.82653,   0.00000,   0.00000,   0.00000,-39922224.43534,   0.00000
-489172352.41768,-194030531.91247,-53219770.44018,  -0.00185,   0.00007,  -0.00069,436486079.78345,   0.00000,274640135.82653,   0.00000,   0.00000,   0.00000,-38154056.04308,   0.00000
-491094858.86407,-195131551.92479,-53573465.98818,  -0.00185,   0.00007,  -0.00070,438215391.99442,   0.00000,274640135.82653,   0.00000,   0.00000,   0.00000,-36424743.83211,   0.00000
-493025922.46081,-196252538.62127,-53927161.53618,  -0.00186,   0.00007,  -0.00070,439950504.60097,   0.00000,274640135.82653,   0.00000,   0.00000,   0.00000,-34689631.22556,   0.00000
-494928462.22303,-197345001.48324,-54280857.08418,  -0.00187,   0.00007,  -0.00071,441663682.63052,   0.00000,274640135.82653,   0.00000,   0.00000,   0.00000,-32976453.19601,   0.00000
-496839559.13561,-198457431.02937,-54640257.39908,  -0.00187,   0.00007,  -0.00071,443384787.85243,   0.00000,274640135.82653,   0.00000,   0.00000,   0.00000,-31255347.97410,   0.00000
-498730689.36403,-199561303.42514,-54993952.94708,  -0.00188,   0.00006,  -0.00071,445087263.90776,   0.00000,274640135.82653,   0.00000,   0.00000,   0.00000,-29552871.91877,   0.00000
-500601852.90829,-200656618.67056,-55353353.26199,  -0.00189,   0.00006,  -0.00072,446775334.81467,   0.00000,274640135.82653,   0.00000,   0.00000,   0.00000,-27864801.01186,   0.00000
-502453049.76839,-201743376.76563,-55712753.57689,  -0.00189,   0.00006,  -0.00072,448446892.17035,   0.00000,274640135.82653,   0.00000,   0.00000,   0.00000,-26193243.65618,   0.00000
-504312803.77884,-202850101.54485,-56072153.89179,  -0.00190,   0.00006,  -0.00073,450124342.40032,   0.00000,274640135.82653,   0.00000,   0.00000,   0.00000,-24515793.42621,   0.00000
-506144033.95477,-203928302.48956,-56437258.97360,  -0.00191,   0.00006,  -0.00073,451781954.71491,   0.00000,274640135.82653,   0.00000,   0.00000,   0.00000,-22858181.11162,   0.00000
-507963854.59690,-205017912.96808,-56802364.05540,  -0.00191,   0.00006,  -0.00074,453428559.49852,   0.00000,274640135.82653,   0.00000,   0.00000,   0.00000,-21211576.32801,   0.00000
-509755151.40451,-206078999.61208,-57161764.37031,  -0.00192,   0.00006,  -0.00074,455051028.71413,   0.00000,274640135.82653,   0.00000,   0.00000,   0.00000,-19589107.11240,   0.00000
-511555005.36248,-207160052.94024,-57526869.45211,  -0.00192,   0.00005,  -0.00075,456681586.20614,   0.00000,274640135.82653,   0.00000,   0.00000,   0.00000,-17958549.62039,   0.00000
-513334892.63629,-208232549.11804,-57897679.30082,  -0.00193,   0.00005,  -0.00075,458297825.73178,   0.00000,274640135.82653,   0.00000,   0.00000,   0.00000,-16342310.09475,   0.00000
-515094813.22593,-209296488.14549,-58262784.38263,  -0.00194,   0.00005,  -0.00076,459895430.74942,   0.00000,274640135.82653,   0.00000,   0.00000,   0.00000,-14744705.07711,   0.00000
-516834767.13142,-210351870.02259,-58633594.23134,  -0.00194,   0.00005,  -0.00076,461478733.09228,   0.00000,274640135.82653,   0.00000,   0.00000,   0.00000,-13161402.73425,   0.00000
-518574721.03690,-211407251.89969,-59004404.08005,  -0.00195,   0.00005,  -0.00077,463062490.25131,   0.00000,274640135.82653,   0.00000,   0.00000,   0.00000,-11577645.57522,   0.00000
-520294708.25822,-212454076.62643,-59375213.92876,  -0.00195,   0.00005,  -0.00077,464629782.07099,   0.00000,274640135.82653,   0.00000,   0.00000,   0.00000,-10010353.75554,   0.00000
-521994728.79538,-213492344.20282,-59746023.77747,  -0.00196,   0.00005,  -0.00078,466180610.58241,   0.00000,274640135.82653,   0.00000,   0.00000,   0.00000,-8459525.24412,   0.00000
-523683339.79874,-214542021.31301,-60116833.62618,  -0.00196,   0.00005,  -0.00078,467720576.94651,   0.00000,274640135.82653,   0.00000,   0.00000,   0.00000,-6919558.88002,   0.00000
-525343426.96757,-215563174.58869,-60493348.24179,  -0.00197,   0.00004,  -0.00079,469240702.81132,   0.00000,274640135.82653,   0.00000,   0.00000,   0.00000,-5399433.01521,   0.00000
-527012071.28677,-216604294.54852,-60864158.09050,  -0.00198,   0.00004,  -0.00079,470764700.24780,   0.00000,274640135.82653,   0.00000,   0.00000,   0.00000,-3875435.57873,   0.00000
-528652191.77144,-217616890.67385,-61240672.70611,  -0.00198,   0.00004,  -0.00080,472268847.93577,   0.00000,274640135.82653,   0.00000,   0.00000,   0.00000,-2371287.89076,   0.00000
-530280902.72232,-218640896.33298,-61617187.32173,  -0.00199,   0.00004,  -0.00080,473762196.44684,   0.00000,274640135.82653,   0.00000,   0.00000,   0.00000,-877939.37969,   0.00000
-531237257.56798,-219244552.93769,-61841015.05156,  -0.00199,   0.00004,  -0.00080,474640133.37442,   0.00000,274640135.82653,   0.00000,   0.00000,   0.00000,  -5.26922,   0.00000
-531232789.36720,-219436542.30323,-61906924.95878,  -0.00199,   0.00004,  -0.00081,474643222.02426,   0.00000,274643224.54715,  -0.00000,   0.00000,  -0.00000,  -2.52289,   1.00000
-531218955.89538,-219907719.44030,-62074134.64437,  -0.00200,   0.00004,  -0.00081,474650850.23957,   0.00001,274650854.27778,  -0.00001,   0.00000,  -0.00000,  -4.03821,   1.00000
-531205515.09100,-220375633.92984,-62237755.42458,  -0.00200,   0.00003,  -0.00082,474658384.27098,   0.00002,274658387.04463,  -0.00002,   0.00000,  -0.00001,  -2.77365,   1.00000
-531186119.34153,-220836373.22623,-62410992.38789,  -0.00201,   0.00003,  -0.00082,474665752.85126,   0.00002,274665759.11442,  -0.00002,   0.00000,  -0.00001,  -6.26316,   1.00000
-531166115.34017,-221295428.45012,-62583544.86181,  -0.00201,   0.00003,  -0.00083,474673125.34892,   0.00003,274673133.15140,  -0.00003,   0.00000,  -0.00001,  -7.80248,   1.00000
-531145509.62832,-221752804.83498,-62755415.21065,  -0.00202,   0.00003,  -0.00083,474680501.73744,   0.00004,274680509.14160,  -0.00003,   0.00000,  -0.00001,  -7.40416,   1.00000
-531123662.56403,-222221763.82557,-62930723.43361,  -0.00202,   0.00003,  -0.00084,474687737.36461,   0.00004,274687742.62750,  -0.00004,   0.00000,  -0.00002,  -5.26289,   1.00000
-531098955.62419,-222671269.53774,-63106196.35075,  -0.00203,   0.00003,  -0.00084,474694946.56803,   0.00005,274694948.65683,  -0.00005,   0.00000,  -0.00002,  -2.08880,   1.00000
-531070474.01845,-223131600.81579,-63290475.37042,  -0.00203,   0.00003,  -0.00085,474702019.65117,   0.00006,274702024.41682,  -0.00005,   0.00001,  -0.00002,  -4.76565,   1.00000
-531041674.20241,-223573409.07303,-63469563.52941,  -0.00204,   0.00002,  -0.00085,474709056.16682,   0.00006,274709060.97031,  -0.00006,   0.00001,  -0.00003,  -4.80349,   1.00000
-531010517.70377,-224028322.61766,-63654966.05690,  -0.00204,   0.00002,  -0.00086,474716049.63863,   0.00007,274716054.54656,  -0.00006,   0.00001,  -0.00003,  -4.90792,   1.00000
-530976578.44859,-224463906.40592,-63840537.08154,  -0.00205,   0.00002,  -0.00086,474723011.50875,   0.00008,274723020.71217,  -0.00007,   0.00001,  -0.00003,  -9.20342,   1.00000
-530941301.34133,-224911337.36243,-64029591.62093,  -0.00205,   0.00002,  -0.00087,474729841.91851,   0.00008,274729845.48395,  -0.00007,   0.00001,  -0.00003,  -3.56544,   1.00000
-530905414.01765,-225357202.96551,-64217947.41278,  -0.00206,   0.00002,  -0.00087,474736666.72078,   0.00009,274736672.88237,  -0.00008,   0.00001,  -0.00004,  -6.16159,   1.00000
-530861325.07355,-225778690.35092,-64416908.86134,  -0.00206,   0.00002,  -0.00088,474743302.41101,   0.00009,274743311.14584,  -0.00009,   0.00001,  -0.00004,  -8.73483,   1.00000
-530821335.00677,-226217289.53773,-64608938.36894,  -0.00206,   0.00002,  -0.00088,474749968.82740,   0.00010,274749970.28702,  -0.00009,   0.00001,  -0.00004,  -1.45962,   1.00000
-530776709.10977,-226651386.52565,-64808162.14763,  -0.00207,   0.00001,  -0.00089,474756550.80789,   0.00011,274756557.51501,  -0.00010,   0.00001,  -0.00004,  -6.70713,   1.00000
-530732579.32910,-227082814.16996,-65003908.73909,  -0.00207,   0.00001,  -0.00089,474763048.28936,   0.00011,274763048.70000,  -0.00010,   0.00001,  -0.00005,  -0.41063,   1.00000
-530683796.42617,-227509808.43482,-65206864.25768,  -0.00208,   0.00001,  -0.00090,474769461.21030,   0.00012,274769468.21068,  -0.00011,   0.00001,  -0.00005,  -7.00038,   1.00000
-530634442.91534,-227935366.22604,-65409115.38961,  -0.00208,   0.00001,  -0.00090,474775888.43029,   0.00012,274775890.69126,  -0.00011,   0.00001,  -0.00005,  -2.26097,   1.00000
-530581503.74281,-228355410.51611,-65615834.00193,  -0.00209,   0.00001,  -0.00091,474782141.13615,   0.00013,274782142.81068,  -0.00012,   0.00001,  -0.00005,  -1.67453,   1.00000
-530525387.95985,-228773140.10988,-65827172.89143,  -0.00209,   0.00001,  -0.00091,474788403.46699,   0.00014,274788410.39358,  -0.00012,   0.00001,  -0.00006,  -6.92659,   1.00000
-530468279.64228,-229186383.46866,-66037678.87270,  -0.00209,   0.00000,  -0.00092,474794495.13522,   0.00014,274794495.54857,  -0.00013,   0.00001,  -0.00006,  -0.41335,   1.00000
-530409958.75362,-229614928.81830,-66251873.88037,  -0.00210,   0.00000,  -0.00092,474800618.50792,   0.00015,274800627.17918,  -0.00013,   0.00001,  -0.00006,  -8.67126,   1.00000
-530350158.82145,-230023442.49550,-66463588.64943,  -0.00210,   0.00000,  -0.00093,474806625.53060,   0.00015,274806632.34715,  -0.00014,   0.00001,  -0.00006,  -6.81656,   1.00000
-530285641.40260,-230427728.78281,-66682551.79710,  -0.00211,  -0.00000,  -0.00093,474812564.97459,   0.00016,274812566.64686,  -0.00014,   0.00001,  -0.00007,  -1.67227,   1.00000
-530219006.03498,-230828751.23704,-66903440.48651,  -0.00211,  -0.00000,  -0.00094,474818414.51229,   0.00016,274818417.91188,  -0.00015,   0.00001,  -0.00007,  -3.39958,   1.00000
-530152186.49287,-231244092.72022,-67125316.06966,  -0.00211,  -0.00000,  -0.00094,474824213.85639,   0.00017,274824217.22585,  -0.00015,   0.00001,  -0.00007,  -3.36946,   1.00000
-530082845.58993,-231640572.55688,-67347439.21841,  -0.00212,  -0.00001,  -0.00095,474829987.35968,   0.00017,274829989.11051,  -0.00016,   0.00001,  -0.00007,  -1.75083,   1.00000
-530009819.40060,-232031964.83648,-67574181.43321,  -0.00212,  -0.00001,  -0.00095,474835583.73177,   0.00018,274835591.56576,  -0.00016,   0.00002,  -0.00007,  -7.83399,   1.00000
-529938118.97406,-232439645.87650,-67799259.91167,  -0.00212,  -0.00001,  -0.00096,474841225.18994,   0.00018,274841229.00786,  -0.00017,   0.00002,  -0.00008,  -3.81793,   1.00000
-529860797.37942,-232824771.99805,-68029964.66819,  -0.00213,  -0.00001,  -0.00096,474846657.34656,   0.00019,274846665.91915,  -0.00017,   0.00002,  -0.00008,  -8.57259,   1.00000
-529780224.70191,-233207734.36311,-68265276.15861,  -0.00213,  -0.00001,  -0.00097,474852115.63801,   0.00019,274852119.40413,  -0.00017,   0.00002,  -0.00008,  -3.76611,   1.00000
-529702024.03176,-233606108.78800,-68496296.58811,  -0.00213,  -0.00001,  -0.00097,474857502.43003,   0.00020,274857509.15760,  -0.00018,   0.00002,  -0.00008,  -6.72757,   1.00000
-529615507.87921,-233981113.36110,-68738316.54748,  -0.00214,  -0.00001,  -0.00098,474862706.36292,   0.00020,274862711.17455,  -0.00018,   0.00002,  -0.00009,  -4.81164,   1.00000
-529532929.37113,-234373430.20642,-68973351.94352,  -0.00214,  -0.00002,  -0.00098,474867927.79267,   0.00021,274867936.19033,  -0.00019,   0.00002,  -0.00009,  -8.39767,   1.00000
-529443615.38855,-234744292.07557,-69216712.15401,  -0.00214,  -0.00002,  -0.00099,474873054.16677,   0.00021,274873060.04495,  -0.00019,   0.00002,  -0.00009,  -5.87818,   1.00000
-529353896.26908,-235129670.13681,-69461104.03203,  -0.00215,  -0.00002,  -0.00099,474878128.76417,   0.00022,274878133.47599,  -0.00020,   0.00002,  -0.00009,  -4.71182,   1.00000
-529261762.94353,-235496452.68306,-69705810.38610,  -0.00215,  -0.00002,  -0.00100,474883170.08624,   0.00022,274883179.48535,  -0.00020,   0.00002,  -0.00009,  -9.39910,   1.00000
-529167570.03141,-235876001.59599,-69954313.06609,  -0.00215,  -0.00002,  -0.00101,474888084.14007,   0.00023,274888088.79661,  -0.00020,   0.00002,  -0.00010,  -4.65654,   1.00000
-529069341.27925,-236235240.73229,-70205908.94957,  -0.00215,  -0.00002,  -0.00101,474892874.86615,   0.00023,274892884.26328,  -0.00021,   0.00002,  -0.00010,  -9.39713,   1.00000
-528968869.63727,-236591669.81501,-70459595.96867,  -0.00216,  -0.00003,  -0.00102,474897588.02899,   0.00023,274897597.79321,  -0.00021,   0.00002,  -0.00010,  -9.76422,   1.00000
-528869537.43461,-236964456.80647,-70711573.37526,  -0.00216,  -0.00003,  -0.00102,474902346.36588,   0.00024,274902347.93699,  -0.00022,   0.00002,  -0.00010,  -1.57111,   1.00000
-528764509.17818,-237315301.19241,-70969486.63149,  -0.00216,  -0.00003,  -0.00103,474906889.49437,   0.00024,274906897.80350,  -0.00022,   0.00002,  -0.00010,  -8.30913,   1.00000
-528657795.12546,-237681471.12545,-71230951.31296,  -0.00216,  -0.00003,  -0.00103,474911495.82924,   0.00025,274911497.80395,  -0.00022,   0.00002,  -0.00011,  -1.97472,   1.00000
-528548164.02434,-238026842.47758,-71493135.22671,  -0.00217,  -0.00003,  -0.00104,474915880.97994,   0.00025,274915884.30611,  -0.00023,   0.00002,  -0.00011,  -3.32617,   1.00000
-528437907.84359,-238371232.81075,-71754659.89550,  -0.00217,  -0.00003,  -0.00104,474920272.43673,   0.00026,274920275.57989,  -0.00023,   0.00002,  -0.00011,  -3.14316,   1.00000
-528324182.72834,-238729243.22029,-72022543.96763,  -0.00217,  -0.00004,  -0.00105,474924627.52008,   0.00026,274924631.16260,  -0.00023,   0.00002,  -0.00011,  -3.64251,   1.00000
-528207542.13720,-239066617.82678,-72291248.20303,  -0.00217,  -0.00004,  -0.00105,474928771.94446,   0.00026,274928773.04953,  -0.00024,   0.00002,  -0.00011,  -1.10507,   1.00000
-528089058.70206,-239419303.70501,-72563476.41899,  -0.00218,  -0.00004,  -0.00106,474932960.01517,   0.00027,274932966.05600,  -0.00024,   0.00002,  -0.00011,  -6.04083,   1.00000
-527969385.18143,-239753110.89699,-72833735.22492,  -0.00218,  -0.00004,  -0.00106,474937029.80339,   0.00027,274937031.56948,  -0.00024,   0.00002,  -0.00012,  -1.76610,   1.00000
-527844448.16133,-240083259.80685,-73111461.88049,  -0.00218,  -0.00004,  -0.00107,474941022.53186,   0.00027,274941029.44865,  -0.00025,   0.00002,  -0.00012,  -6.91679,   1.00000
-527717103.09216,-240410861.34469,-73391417.87329,  -0.00218,  -0.00004,  -0.00107,474944944.70425,   0.00028,274944946.14357,  -0.00025,   0.00002,  -0.00012,  -1.43932,   1.00000
-527590048.29005,-240752703.96756,-73670165.80980,  -0.00218,  -0.00005,  -0.00108,474948705.44251,   0.00028,274948714.60874,  -0.00025,   0.00002,  -0.00012,  -9.16623,   1.00000
-527457792.64360,-241075238.60965,-73954626.16258,  -0.00219,  -0.00005,  -0.00108,474952461.47970,   0.00028,274952469.20444,  -0.00026,   0.00002,  -0.00012,  -7.72475,   1.00000
-527323057.43186,-241395287.68765,-74241359.31060,  -0.00219,  -0.00005,  -0.00109,474956133.72273,   0.00029,274956142.86355,  -0.00026,   0.00002,  -0.00013,  -9.14081,   1.00000
-527185833.52327,-241712876.78580,-74530382.61158,  -0.00219,  -0.00005,  -0.00110,474959732.23711,   0.00029,274959735.59168,  -0.00026,   0.00002,  -0.00013,  -3.35457,   1.00000
-527049016.58542,-242029147.43819,-74816487.52159,  -0.00219,  -0.00005,  -0.00110,474963230.54129,   0.00029,274963233.52028,  -0.00026,   0.00002,  -0.00013,  -2.97899,   1.00000
-526906734.36668,-242341872.30122,-75110144.33655,  -0.00219,  -0.00005,  -0.00111,474966658.41262,   0.00030,274966664.58561,  -0.00027,   0.00002,  -0.00013,  -6.17300,   1.00000
-526763722.17607,-242653756.95510,-75403185.39596,  -0.00219,  -0.00005,  -0.00111,474970093.43233,   0.00030,274970101.21995,  -0.00027,   0.00002,  -0.00013,  -7.78762,   1.00000
-526616310.12309,-242961702.68009,-75701537.96074,  -0.00219,  -0.00006,  -0.00112,474973367.92616,   0.00030,274973370.79499,  -0.00027,   0.00002,  -0.00013,  -2.86883,   1.00000
-526466285.68104,-243267283.30632,-76002258.14656,  -0.00220,  -0.00006,  -0.00112,474976554.94368,   0.00031,274976559.79180,  -0.00028,   0.00002,  -0.00013,  -4.84812,   1.00000
-526316618.89312,-243571679.48672,-76300159.99888,  -0.00220,  -0.00006,  -0.00113,474979648.84094,   0.00031,274979653.93343,  -0.00028,   0.00002,  -0.00014,  -5.09249,   1.00000
-526161324.39250,-243872596.31636,-76605677.02550,  -0.00220,  -0.00006,  -0.00113,474982677.07076,   0.00031,274982681.76041,  -0.00028,   0.00002,  -0.00014,  -4.68965,   1.00000
-526001844.85129,-244154006.27724,-76914785.43656,  -0.00220,  -0.00006,  -0.00114,474985593.98658,   0.00032,274985595.52500,  -0.00028,   0.00002,  -0.00014,  -1.53842,   1.00000
-525843079.86193,-244451856.00003,-77222137.78136,  -0.00220,  -0.00006,  -0.00114,474988540.27659,   0.00032,274988548.82329,  -0.00028,   0.00002,  -0.00014,  -8.54670,   1.00000
-525679701.06359,-244745932.62124,-77534968.05990,  -0.00220,  -0.00007,  -0.00115,474991331.25167,   0.00032,274991335.36007,  -0.00029,   0.00002,  -0.00014,  -4.10840,   1.00000
-525512080.70149,-245020575.84521,-77851460.20085,  -0.00220,  -0.00007,  -0.00115,474994006.79361,   0.00032,274994007.81128,  -0.00029,   0.00002,  -0.00014,  -1.01767,   1.00000
-525346223.65516,-245311376.32208,-78164066.44802,  -0.00220,  -0.00007,  -0.00116,474996615.50624,   0.00033,274996619.16248,  -0.00029,   0.00002,  -0.00014,  -3.65624,   1.00000
-525175005.07272,-245583071.95462,-78482508.96750,  -0.00220,  -0.00007,  -0.00116,474999213.43699,   0.00033,274999217.25173,  -0.00029,   0.00002,  -0.00014,  -3.81474,   1.00000
-525000479.16110,-245868270.30985,-78805336.82791,  -0.00220,  -0.00007,  -0.00117,475001676.92234,   0.00033,275001682.75415,  -0.00029,   0.00002,  -0.00015,  -5.83181,   1.00000
-524821640.69389,-246134132.04747,-79131925.48538,  -0.00220,  -0.00007,  -0.00118,475004033.01503,   0.00033,275004034.06221,  -0.00030,   0.00002,  -0.00015,  -1.04719,   1.00000
-524643016.17649,-246399065.56731,-79455914.40969,  -0.00221,  -0.00007,  -0.00118,475006286.27098,   0.00033,275006290.35079,  -0.00030,   0.00002,  -0.00015,  -4.07981,   1.00000
-524460412.17818,-246662084.41569,-79784549.30378,  -0.00221,  -0.00008,  -0.00119,475008560.23007,   0.00034,275008567.70645,  -0.00030,   0.00002,  -0.00015,  -7.47639,   1.00000
-524272870.21858,-246921539.85759,-80118901.93049,  -0.00221,  -0.00008,  -0.00119,475010673.78806,   0.00034,275010678.61717,  -0.00030,   0.00002,  -0.00015,  -4.82911,   1.00000
-524085493.60002,-247180129.59532,-80450724.29450,  -0.00221,  -0.00008,  -0.00120,475012692.42010,   0.00034,275012694.39741,  -0.00030,   0.00002,  -0.00015,  -1.97731,   1.00000
-523894046.70316,-247436797.81256,-80787198.11897,  -0.00221,  -0.00008,  -0.00120,475014725.99615,   0.00034,275014731.63167,  -0.00031,   0.00002,  -0.00015,  -5.63553,   1.00000
-523700678.44381,-247691220.15117,-81124338.57238,  -0.00221,  -0.00008,  -0.00121,475016585.00642,   0.00034,275016587.26353,  -0.00031,   0.00002,  -0.00015,  -2.25712,   1.00000
-523501091.69592,-247942307.34652,-81469304.32912,  -0.00221,  -0.00008,  -0.00121,475018373.17017,   0.00035,275018378.24456,  -0.00031,   0.00002,  -0.00015,  -5.07439,   1.00000
-523300188.28404,-248175515.35829,-81813108.66195,  -0.00221,  -0.00008,  -0.00122,475020035.17092,   0.00035,275020039.39421,  -0.00031,   0.00002,  -0.00015,  -4.22329,   1.00000
-523096511.80077,-248423898.72584,-82160300.77426,  -0.00221,  -0.00009,  -0.00122,475021751.41229,   0.00035,275021757.01133,  -0.00031,   0.00002,  -0.00016,  -5.59904,   1.00000
-522890758.38967,-248670130.87461,-82508301.96864,  -0.00221,  -0.00009,  -0.00123,475023289.48997,   0.00035,275023292.89778,  -0.00031,   0.00002,  -0.00016,  -3.40781,   1.00000
-522680430.87687,-248897266.99024,-82860363.31709,  -0.00221,  -0.00009,  -0.00123,475024705.68322,   0.00035,275024714.19583,  -0.00031,   0.00002,  -0.00016,  -8.51261,   1.00000
-522469082.97972,-249123792.73208,-83211989.81151,  -0.00221,  -0.00009,  -0.00124,475026139.26278,   0.00035,275026141.91295,  -0.00031,   0.00002,  -0.00016,  -2.65018,   1.00000
-522249082.34996,-249345641.86312,-83574771.87674,  -0.00221,  -0.00009,  -0.00124,475027418.11740,   0.00035,275027419.13334,  -0.00032,   0.00002,  -0.00016,  -1.01594,   1.00000
-522029021.50796,-249566811.51188,-83935269.90952,  -0.00220,  -0.00009,  -0.00125,475028591.66024,   0.00035,275028600.87490,  -0.00032,   0.00002,  -0.00016,  -9.21467,   1.00000
-521805655.24119,-249786013.31550,-84298623.63710,  -0.00220,  -0.00009,  -0.00125,475029697.79045,   0.00036,275029702.75833,  -0.00032,   0.00002,  -0.00016,  -4.96787,   1.00000
-521581168.65904,-250004606.91884,-84661569.94259,  -0.00220,  -0.00010,  -0.00126,475030807.64192,   0.00036,275030811.32270,  -0.00032,   0.00002,  -0.00016,  -3.68078,   1.00000
-521354342.54671,-250221222.59539,-85025603.86852,  -0.00220,  -0.00010,  -0.00127,475031735.43629,   0.00036,275031737.59941,  -0.00032,   0.00002,  -0.00016,  -2.16312,   1.00000
-521120796.00682,-250434549.23644,-85397646.56062,  -0.00220,  -0.00010,  -0.00127,475032598.82940,   0.00036,275032600.20746,  -0.00032,   0.00002,  -0.00016,  -1.37806,   1.00000
-520882419.98895,-250628907.10889,-85773978.35644,  -0.00220,  -0.00010,  -0.00128,475033345.11100,   0.00036,275033347.90309,  -0.00032,   0.00002,  -0.00016,  -2.79209,   1.00000
-520647518.43884,-250841050.68932,-86143507.48929,  -0.00220,  -0.00010,  -0.00128,475034116.93386,   0.00036,275034121.36843,  -0.00032,   0.00002,  -0.00016,  -4.43457,   1.00000
-520402089.04227,-251031552.95047,-86525795.39696,  -0.00220,  -0.00010,  -0.00129,475034704.09283,   0.00036,275034709.58203,  -0.00032,   0.00002,  -0.00016,  -5.48920,   1.00000
-520156419.51787,-251221509.49104,-86906027.27883,  -0.00220,  -0.00010,  -0.00129,475035198.11277,   0.00036,275035201.64509,  -0.00032,   0.00002,  -0.00016,  -3.53232,   1.00000
-519905093.10447,-251425170.30932,-87292970.65682,  -0.00220,  -0.00011,  -0.00130,475035665.71453,   0.00036,275035666.03989,  -0.00032,   0.00002,  -0.00016,  -0.32536,   1.00000
-519654498.87518,-251612624.87418,-87675908.67876,  -0.00220,  -0.00011,  -0.00130,475036076.09903,   0.00036,275036085.28580,  -0.00032,   0.00002,  -0.00016,  -9.18677,   1.00000
-519396503.23660,-251779874.45481,-88066715.44841,  -0.00219,  -0.00011,  -0.00131,475036299.12600,   0.00036,275036302.52262,  -0.00032,   0.00002,  -0.00016,  -3.39662,   1.00000
-519136068.52444,-251962206.66607,-88459223.93662,  -0.00219,  -0.00011,  -0.00131,475036466.75186,   0.00036,275036475.76532,  -0.00032,   0.00002,  -0.00016,  -9.01346,   1.00000
-518871836.06377,-252142641.43545,-88854858.25596,  -0.00219,  -0.00011,  -0.00132,475036562.89355,   0.00036,275036569.31978,  -0.00032,   0.00002,  -0.00016,  -6.42623,   1.00000
-518598007.25242,-252302374.90875,-89254191.93919,  -0.00219,  -0.00011,  -0.00132,475032425.20295,   0.00036,275036569.31978,  -0.00032,   0.00002,  -0.00016,-4144.11683,   0.00000
-518312768.90725,-252473517.91584,-89647820.85551,  -0.00219,  -0.00011,  -0.00133,475016790.08938,   0.00036,275036569.31978,  -0.00032,   0.00002,  -0.00016,-19779.23040,   0.00000
-517999006.72758,-252616137.08842,-90047154.53874,  -0.00219,  -0.00011,  -0.00133,474982574.11682,   0.00036,275036569.31978,  -0.00032,   0.00002,  -0.00016,-53995.20296,   0.00000
-517685244.54790,-252758756.26100,-90440783.45506,  -0.00218,  -0.00012,  -0.00134,474946448.22182,   0.00036,275036569.31978,  -0.00032,   0.00002,  -0.00016,-90121.09796,   0.00000
-517331548.99990,-252884261.13287,-90834412.37138,  -0.00218,  -0.00012,  -0.00134,474878980.37537,   0.00036,275036569.31978,  -0.00032,   0.00002,  -0.00016,-157588.94441,   0.00000
-516957886.76774,-253001208.85439,-91233746.05461,  -0.00218,  -0.00012,  -0.00135,474799839.24973,   0.00036,275036569.31978,  -0.00032,   0.00002,  -0.00016,-236730.07005,   0.00000
-516564257.85142,-253109599.42555,-91627374.97093,  -0.00218,  -0.00012,  -0.00135,474702493.10574,   0.00036,275036569.31978,  -0.00032,   0.00002,  -0.00016,-334076.21404,   0.00000
-516142105.10058,-253189466.16220,-92015299.12035,  -0.00218,  -0.00012,  -0.00136,474580109.35513,   0.00036,275036569.31978,  -0.00032,   0.00002,  -0.00016,-456459.96465,   0.00000
-515708542.81593,-253280742.43265,-92408928.03667,  -0.00217,  -0.00012,  -0.00136,474452972.33756,   0.00036,275036569.31978,  -0.00032,   0.00002,  -0.00016,-583596.98222,   0.00000
-515246456.69677,-253343494.86858,-92802556.95299,  -0.00217,  -0.00012,  -0.00137,474304167.39012,   0.00036,275036569.31978,  -0.00032,   0.00002,  -0.00016,-732401.92966,   0.00000
-514764403.89345,-253397690.15416,-93190481.10241,  -0.00217,  -0.00012,  -0.00137,474137181.91612,   0.00036,275036569.31978,  -0.00032,   0.00002,  -0.00016,-899387.40366,   0.00000
-514262384.40596,-253443328.28939,-93584110.01873,  -0.00217,  -0.00013,  -0.00138,473958761.17593,   0.00036,275036569.31978,  -0.00032,   0.00002,  -0.00016,-1077808.14385,   0.00000
-513740398.23432,-253480409.27426,-93972034.16815,  -0.00217,  -0.00013,  -0.00138,473762195.49026,   0.00036,275036569.31978,  -0.00032,   0.00002,  -0.00016,-1274373.82952,   0.00000
-513189888.22816,-253488966.42462,-94359958.31757,  -0.00216,  -0.00013,  -0.00139,473544029.98371,   0.00036,275036569.31978,  -0.00032,   0.00002,  -0.00016,-1492539.33607,   0.00000
-512627968.68819,-253508933.10878,-94747882.46699,  -0.00216,  -0.00013,  -0.00139,473317998.51623,   0.00036,275036569.31978,  -0.00032,   0.00002,  -0.00016,-1718570.80355,   0.00000
-512037525.31371,-253500375.95842,-95130101.84951,  -0.00216,  -0.00013,  -0.00140,473066984.26575,   0.00036,275036569.31978,  -0.00032,   0.00002,  -0.00016,-1969585.05402,   0.00000
-511435672.40542,-253503228.34187,-95518025.99893,  -0.00215,  -0.00013,  -0.00140,472811611.12726,   0.00036,275036569.31978,  -0.00032,   0.00002,  -0.00016,-2224958.19252,   0.00000
-510805295.66261,-253477556.89081,-95900245.38144,  -0.00215,  -0.00013,  -0.00141,472531284.38815,   0.00036,275036569.31978,  -0.00032,   0.00002,  -0.00016,-2505284.93163,   0.00000
-510146395.08529,-253423361.60523,-96282464.76396,  -0.00215,  -0.00013,  -0.00141,472229466.82262,   0.00036,275036569.31978,  -0.00032,   0.00002,  -0.00016,-2807102.49716,   0.00000
-509476084.97416,-253380575.85345,-96664684.14648,  -0.00215,  -0.00013,  -0.00142,471919947.73428,   0.00036,275036569.31978,  -0.00032,   0.00002,  -0.00016,-3116621.58550,   0.00000
-508785808.17887,-253329232.95133,-97046903.52899,  -0.00214,  -0.00014,  -0.00142,471595891.41887,   0.00036,275036569.31978,  -0.00032,   0.00002,  -0.00016,-3440677.90091,   0.00000
-508067007.54906,-253249366.21468,-97429122.91151,  -0.00214,  -0.00014,  -0.00143,471250442.93404,   0.00036,275036569.31978,  -0.00032,   0.00002,  -0.00016,-3786126.38574,   0.00000
-507308273.55093,-253152385.17733,-97805637.52712,  -0.00214,  -0.00014,  -0.00143,470870835.00770,   0.00036,275036569.31978,  -0.00032,   0.00002,  -0.00016,-4165734.31208,   0.00000
-506558096.70316,-253075370.82413,-98187856.90964,  -0.00213,  -0.00014,  -0.00144,470503385.98112,   0.00036,275036569.31978,  -0.00032,   0.00002,  -0.00016,-4533183.33865,   0.00000
-505770838.87052,-252949865.95226,-98564371.52525,  -0.00213,  -0.00014,  -0.00144,470104154.67713,   0.00036,275036569.31978,  -0.00032,   0.00002,  -0.00016,-4932414.64265,   0.00000
-504972171.50406,-252835770.61420,-98940886.14086,  -0.00213,  -0.00014,  -0.00145,469697444.77234,   0.00036,275036569.31978,  -0.00032,   0.00002,  -0.00016,-5339124.54744,   0.00000
-504153537.45345,-252713118.12578,-99311695.98957,  -0.00212,  -0.00014,  -0.00145,469272773.35965,   0.00036,275036569.31978,  -0.00032,   0.00002,  -0.00016,-5763795.96013,   0.00000
-503306379.56832,-252561941.80284,-99688210.60518,  -0.00212,  -0.00014,  -0.00146,468830489.21423,   0.00036,275036569.31978,  -0.00032,   0.00002,  -0.00016,-6206080.10555,   0.00000
-502439254.99903,-252402208.32955,-100059020.45389,  -0.00212,  -0.00014,  -0.00146,468370286.14440,   0.00036,275036569.31978,  -0.00032,   0.00002,  -0.00016,-6666283.17538,   0.00000
-501532197.06142,-252225360.55555,-100429830.30260,  -0.00211,  -0.00015,  -0.00147,467879782.00220,   0.00036,275036569.31978,  -0.00032,   0.00002,  -0.00016,-7156787.31758,   0.00000
-500625139.12381,-252048512.78155,-100800640.15131,  -0.00211,  -0.00015,  -0.00147,467391129.68225,   0.00036,275036569.31978,  -0.00032,   0.00002,  -0.00016,-7645439.63753,   0.00000
-499698114.50203,-251863107.85720,-101171450.00002,  -0.00210,  -0.00015,  -0.00148,466888313.74627,   0.00036,275036569.31978,  -0.00032,   0.00002,  -0.00016,-8148255.57351,   0.00000
-498742566.04574,-251649179.09833,-101536555.08183,  -0.00210,  -0.00015,  -0.00148,466360713.66873,   0.00036,275036569.31978,  -0.00032,   0.00002,  -0.00016,-8675855.65105,   0.00000
-497775608.05565,-251446659.87326,-101907364.93054,  -0.00210,  -0.00015,  -0.00149,465829687.55316,   0.00036,275036569.31978,  -0.00032,   0.00002,  -0.00016,-9206881.76662,   0.00000
-496780126.23103,-251215616.81368,-102272470.01235,  -0.00209,  -0.00015,  -0.00149,465273928.43847,   0.00036,275036569.31978,  -0.00032,   0.00002,  -0.00016,-9762640.88130,   0.00000
-495764677.72226,-250976016.60375,-102631870.32725,  -0.00209,  -0.00015,  -0.00150,464700371.22900,   0.00036,275036569.31978,  -0.00032,   0.00002,  -0.00016,-10336198.09077,   0.00000
-494709295.84516,-250719302.09310,-102996975.40905,  -0.00208,  -0.00015,  -0.00150,464100654.24931,   0.00036,275036569.31978,  -0.00032,   0.00002,  -0.00016,-10935915.07047,   0.00000
-493645356.81771,-250442620.89829,-103356375.72396,  -0.00208,  -0.00015,  -0.00151,463492210.20721,   0.00036,275036569.31978,  -0.00032,   0.00002,  -0.00016,-11544359.11257,   0.00000
-492570008.25645,-250177349.23729,-103721480.80576,  -0.00208,  -0.00015,  -0.00151,462880650.78095,   0.00036,275036569.31978,  -0.00032,   0.00002,  -0.00016,-12155918.53883,   0.00000
-491466135.86068,-249883553.74178,-104080881.12067,  -0.00207,  -0.00015,  -0.00152,462244456.97099,   0.00036,275036569.31978,  -0.00032,   0.00002,  -0.00016,-12792112.34879,   0.00000
-490342296.78075,-249581201.09591,-104434576.66867,  -0.00207,  -0.00015,  -0.00152,461590583.72753,   0.00036,275036569.31978,  -0.00032,   0.00002,  -0.00016,-13445985.59225,   0.00000
-489198491.01665,-249270291.29968,-104793976.98357,  -0.00206,  -0.00016,  -0.00152,460926810.04104,   0.00036,275036569.31978,  -0.00032,   0.00002,  -0.00016,-14109759.27874,   0.00000
-488006194.73387,-248922300.51858,-105147672.53157,  -0.00206,  -0.00016,  -0.00153,460222589.89542,   0.00036,275036569.31978,  -0.00032,   0.00002,  -0.00016,-14813979.42436,   0.00000
-486822455.60146,-248594276.42165,-105501368.07957,  -0.00205,  -0.00016,  -0.00153,459527537.20682,   0.00036,275036569.31978,  -0.00032,   0.00002,  -0.00016,-15509032.11296,   0.00000
-485610192.63452,-248237728.49020,-105855063.62757,  -0.00205,  -0.00016,  -0.00154,458811880.15571,   0.00036,275036569.31978,  -0.00032,   0.00002,  -0.00016,-16224689.16407,   0.00000
-484377962.98342,-247872623.40839,-106203054.40867,  -0.00204,  -0.00016,  -0.00154,458078681.39721,   0.00036,275036569.31978,  -0.00032,   0.00002,  -0.00016,-16957887.92257,   0.00000
-483125766.64817,-247498961.17623,-106551045.18976,  -0.00204,  -0.00016,  -0.00155,457331928.15820,   0.00036,275036569.31978,  -0.00032,   0.00002,  -0.00016,-17704641.16158,   0.00000
-481845046.47839,-247096775.10955,-106899035.97086,  -0.00203,  -0.00016,  -0.00155,456564693.85234,   0.00036,275036569.31978,  -0.00032,   0.00002,  -0.00016,-18471875.46744,   0.00000
-480552916.77481,-246705998.57668,-107247026.75196,  -0.00203,  -0.00016,  -0.00156,455791007.58356,   0.00036,275036569.31978,  -0.00032,   0.00002,  -0.00016,-19245561.73622,   0.00000
-479232263.23672,-246286698.20929,-107595017.53305,  -0.00202,  -0.00016,  -0.00156,454996957.62466,   0.00036,275036569.31978,  -0.00032,   0.00002,  -0.00016,-20039611.69512,   0.00000
-477891643.01446,-245858840.69155,-107937303.54725,  -0.00202,  -0.00016,  -0.00157,454185525.05853,   0.00036,275036569.31978,  -0.00032,   0.00002,  -0.00016,-20851044.26125,   0.00000
-476522498.95768,-245402459.33930,-108279589.56144,  -0.00201,  -0.00016,  -0.00157,453353807.12498,   0.00036,275036569.31978,  -0.00032,   0.00002,  -0.00016,-21682762.19480,   0.00000
-475141945.36710,-244957487.52084,-108621875.57563,  -0.00201,  -0.00016,  -0.00157,452515853.14503,   0.00036,275036569.31978,  -0.00032,   0.00002,  -0.00016,-22520716.17475,   0.00000
-473732867.94201,-244483991.86788,-108958456.82292,  -0.00200,  -0.00016,  -0.00158,451653612.57764,   0.00036,275036569.31978,  -0.00032,   0.00002,  -0.00016,-23382956.74214,   0.00000
-472303823.83275,-244001939.06455,-109295038.07021,  -0.00200,  -0.00016,  -0.00158,450778233.13888,   0.00036,275036569.31978,  -0.00032,   0.00002,  -0.00016,-24258336.18090,   0.00000
-470854813.03933,-243511329.11088,-109631619.31750,  -0.00199,  -0.00017,  -0.00159,449889783.04550,   0.00036,275036569.31978,  -0.00032,   0.00002,  -0.00016,-25146786.27428,   0.00000
-469385835.56175,-243012162.00684,-109968200.56480,  -0.00198,  -0.00017,  -0.00159,448988331.92007,   0.00036,275036569.31978,  -0.00032,   0.00002,  -0.00016,-26048237.39971,   0.00000
-467896891.40001,-242504437.75246,-110299077.04518,  -0.00198,  -0.00017,  -0.00160,448069737.79469,   0.00036,275036569.31978,  -0.00032,   0.00002,  -0.00016,-26966831.52509,   0.00000
-466379423.40375,-241968189.66355,-110629953.52557,  -0.00197,  -0.00017,  -0.00160,447131240.75303,   0.00036,275036569.31978,  -0.00032,   0.00002,  -0.00016,-27905328.56675,   0.00000
-464841988.72333,-241423384.42430,-110960830.00596,  -0.00197,  -0.00017,  -0.00160,446179914.69122,   0.00036,275036569.31978,  -0.00032,   0.00002,  -0.00016,-28856654.62855,   0.00000
-463304554.04291,-240878579.18504,-111286001.71944,  -0.00196,  -0.00017,  -0.00161,445227110.06338,   0.00036,275036569.31978,  -0.00032,   0.00002,  -0.00016,-29809459.25640,   0.00000
-461718628.84382,-240296692.96091,-111616878.19983,  -0.00195,  -0.00017,  -0.00161,444243306.95799,   0.00036,275036569.31978,  -0.00032,   0.00002,  -0.00016,-30793262.36179,   0.00000
-460121294.11091,-239726216.27059,-111942049.91331,  -0.00195,  -0.00017,  -0.00162,443249585.23992,   0.00036,275036569.31978,  -0.00032,   0.00002,  -0.00016,-31786984.07986,   0.00000
-458495435.54350,-239127215.74575,-112261516.85989,  -0.00194,  -0.00017,  -0.00162,442231949.65305,   0.00036,275036569.31978,  -0.00032,   0.00002,  -0.00016,-32804619.66673,   0.00000
-456869576.97608,-238528215.22091,-112586688.57338,  -0.00194,  -0.00017,  -0.00163,441221625.00232,   0.00036,275036569.31978,  -0.00032,   0.00002,  -0.00016,-33814944.31746,   0.00000
-455203785.04033,-237912100.39536,-112906155.51996,  -0.00193,  -0.00017,  -0.00163,440179014.36303,   0.00036,275036569.31978,  -0.00032,   0.00002,  -0.00016,-34857554.95675,   0.00000
-453529435.95424,-237276018.88565,-113219917.69963,  -0.00192,  -0.00017,  -0.00163,439128055.00930,   0.00036,275036569.31978,  -0.00032,   0.00002,  -0.00016,-35908514.31048,   0.00000
-451815153.49982,-236622823.07523,-113539384.64621,  -0.00192,  -0.00017,  -0.00164,438053754.46443,   0.00036,275036569.31978,  -0.00032,   0.00002,  -0.00016,-36982814.85535,   0.00000
-450100871.04540,-235969627.26481,-113853146.82589,  -0.00191,  -0.00017,  -0.00164,436978193.34796,   0.00036,275036569.31978,  -0.00032,   0.00002,  -0.00016,-38058375.97182,   0.00000
-448346655.22266,-235299317.15368,-114166909.00557,  -0.00190,  -0.00017,  -0.00165,435875073.17575,   0.00036,275036569.31978,  -0.00032,   0.00002,  -0.00016,-39161496.14403,   0.00000
-446592439.39992,-234629007.04256,-114474966.41834,  -0.00190,  -0.00017,  -0.00165,434770733.92223,   0.00036,275036569.31978,  -0.00032,   0.00002,  -0.00016,-40265835.39755,   0.00000
-444789733.05850,-233921615.94656,-114788728.59802,  -0.00189,  -0.00017,  -0.00165,433636544.31709,   0.00036,275036569.31978,  -0.00032,   0.00002,  -0.00016,-41400025.00269,   0.00000
-442987026.71708,-233214224.85056,-115096786.01079,  -0.00188,  -0.00017,  -0.00166,432501231.10536,   0.00036,275036569.31978,  -0.00032,   0.00002,  -0.00016,-42535338.21442,   0.00000
-441164353.69150,-232498276.60420,-115399138.65666,  -0.00188,  -0.00017,  -0.00166,431349472.31634,   0.00036,275036569.31978,  -0.00032,   0.00002,  -0.00016,-43687097.00344,   0.00000
-439321713.98176,-231773771.20749,-115707196.06944,  -0.00187,  -0.00017,  -0.00167,430190498.08135,   0.00036,275036569.31978,  -0.00032,   0.00002,  -0.00016,-44846071.23843,   0.00000
-437450550.43750,-231020741.97627,-116009548.71531,  -0.00186,  -0.00017,  -0.00167,429008231.55358,   0.00036,275036569.31978,  -0.00032,   0.00002,  -0.00016,-46028337.76620,   0.00000
-435559420.20908,-230259155.59469,-116311901.36118,  -0.00185,  -0.00017,  -0.00167,427814350.10312,   0.00036,275036569.31978,  -0.00032,   0.00002,  -0.00016,-47222219.21666,   0.00000
-433628356.61234,-229480454.91240,-116608549.24015,  -0.00185,  -0.00017,  -0.00168,426589099.22135,   0.00036,275036569.31978,  -0.00032,   0.00002,  -0.00016,-48447470.09843,   0.00000
-431717259.69976,-228710311.38046,-116905197.11912,  -0.00184,  -0.00017,  -0.00168,425382751.53154,   0.00036,275036569.31978,  -0.00032,   0.00002,  -0.00016,-49653817.78824,   0.00000
-429766229.41886,-227923053.54782,-117201844.99808,  -0.00183,  -0.00017,  -0.00169,424149874.90208,   0.00036,275036569.31978,  -0.00032,   0.00002,  -0.00016,-50886694.41770,   0.00000
-427786675.30344,-227107271.88065,-117492788.11015,  -0.00183,  -0.00017,  -0.00169,422894021.60219,   0.00036,275036569.31978,  -0.00032,   0.00002,  -0.00016,-52142547.71759,   0.00000
-425787154.50386,-226282933.06314,-117783731.22221,  -0.00182,  -0.00017,  -0.00169,421626994.60102,   0.00036,275036569.31978,  -0.00032,   0.00002,  -0.00016,-53409574.71876,   0.00000
-423767667.02012,-225450037.09527,-118074674.33428,  -0.00181,  -0.00017,  -0.00170,420348908.34390,   0.00036,275036569.31978,  -0.00032,   0.00002,  -0.00016,-54687660.97588,   0.00000
-421739622.38602,-224597174.44324,-118365617.44634,  -0.00180,  -0.00017,  -0.00170,419067930.65074,   0.00036,275036569.31978,  -0.00032,   0.00002,  -0.00016,-55968638.66904,   0.00000
-419671644.38360,-223727197.49049,-118650855.79150,  -0.00180,  -0.00018,  -0.00170,417756225.41452,   0.00036,275036569.31978,  -0.00032,   0.00002,  -0.00016,-57280343.90526,   0.00000
-417603666.38118,-222857220.53775,-118936094.13666,  -0.00179,  -0.00018,  -0.00171,416448741.15573,   0.00036,275036569.31978,  -0.00032,   0.00002,  -0.00016,-58587828.16405,   0.00000
-415495755.01044,-221970129.28430,-119215627.71492,  -0.00178,  -0.00018,  -0.00171,415110722.51127,   0.00036,275036569.31978,  -0.00032,   0.00002,  -0.00016,-59925846.80851,   0.00000
-413387843.63970,-221083038.03085,-119495161.29318,  -0.00177,  -0.00018,  -0.00172,413777064.77594,   0.00036,275036569.31978,  -0.00032,   0.00002,  -0.00016,-61259504.54384,   0.00000
-411251408.43444,-220167422.94288,-119774694.87144,  -0.00176,  -0.00018,  -0.00172,412425975.03385,   0.00036,275036569.31978,  -0.00032,   0.00002,  -0.00016,-62610594.28593,   0.00000
-409095006.54502,-219243250.70456,-120054228.44970,  -0.00176,  -0.00018,  -0.00172,411064546.73639,   0.00036,275036569.31978,  -0.00032,   0.00002,  -0.00016,-63972022.58339,   0.00000
-406918637.97144,-218310521.31588,-120328057.26105,  -0.00175,  -0.00018,  -0.00173,409687888.21456,   0.00036,275036569.31978,  -0.00032,   0.00002,  -0.00016,-65348681.10522,   0.00000
-404713745.56335,-217349268.09269,-120601886.07241,  -0.00174,  -0.00018,  -0.00173,408294169.16699,   0.00036,275036569.31978,  -0.00032,   0.00002,  -0.00016,-66742400.15279,   0.00000
-402497443.62145,-216399424.40330,-120870010.11686,  -0.00173,  -0.00018,  -0.00173,406892327.17925,   0.00036,275036569.31978,  -0.00032,   0.00002,  -0.00016,-68144242.14053,   0.00000
-400252617.84503,-215421056.87940,-121143838.92821,  -0.00172,  -0.00018,  -0.00174,405478775.04834,   0.00036,275036569.31978,  -0.00032,   0.00002,  -0.00016,-69557794.27144,   0.00000
-397979268.23409,-214414165.52098,-121411962.97266,  -0.00171,  -0.00017,  -0.00174,404043480.19212,   0.00036,275036569.31978,  -0.00032,   0.00002,  -0.00016,-70993089.12765,   0.00000
-395714475.77351,-213427240.84672,-121674382.25021,  -0.00171,  -0.00017,  -0.00174,402615015.40878,   0.00036,275036569.31978,  -0.00032,   0.00002,  -0.00016,-72421553.91100,   0.00000
-393401192.79425,-212403235.18759,-121936801.52776,  -0.00170,  -0.00017,  -0.00175,401155452.95359,   0.00036,275036569.31978,  -0.00032,   0.00002,  -0.00016,-73881116.36619,   0.00000
-391087909.81500,-211379229.52847,-122199220.80531,  -0.00169,  -0.00017,  -0.00175,399701162.77188,   0.00036,275036569.31978,  -0.00032,   0.00002,  -0.00016,-75335406.54790,   0.00000
-388754660.15158,-210346666.71898,-122461640.08286,  -0.00168,  -0.00017,  -0.00175,398237641.27760,   0.00036,275036569.31978,  -0.00032,   0.00002,  -0.00016,-76798928.04218,   0.00000
-386401443.80400,-209305546.75914,-122718354.59350,  -0.00167,  -0.00017,  -0.00176,396759758.38843,   0.00036,275036569.31978,  -0.00032,   0.00002,  -0.00016,-78276810.93134,   0.00000
-384019703.62190,-208235902.96479,-122975069.10415,  -0.00166,  -0.00017,  -0.00176,395266033.42173,   0.00036,275036569.31978,  -0.00032,   0.00002,  -0.00016,-79770535.89805,   0.00000
-381617996.75564,-207157702.02008,-123226078.84789,  -0.00165,  -0.00017,  -0.00176,393758176.06915,   0.00036,275036569.31978,  -0.00032,   0.00002,  -0.00016,-81278393.25063,   0.00000
-379196323.20523,-206070943.92502,-123477088.59163,  -0.00165,  -0.00017,  -0.00177,392241654.37637,   0.00036,275036569.31978,  -0.00032,   0.00002,  -0.00016,-82794914.94341,   0.00000
-376746125.82029,-204955661.99543,-123728098.33537,  -0.00164,  -0.00017,  -0.00177,390709792.60307,   0.00036,275036569.31978,  -0.00032,   0.00002,  -0.00016,-84326776.71671,   0.00000
-374295928.43536,-203840380.06585,-123973403.31221,  -0.00163,  -0.00017,  -0.00177,389178535.46380,   0.00036,275036569.31978,  -0.00032,   0.00002,  -0.00016,-85858033.85598,   0.00000
-371805797.68210,-202707983.83556,-124224413.05595,  -0.00162,  -0.00017,  -0.00178,387630221.56622,   0.00036,275036569.31978,  -0.00032,   0.00002,  -0.00016,-87406347.75356,   0.00000
-369315666.92884,-201575587.60527,-124464013.26589,  -0.00161,  -0.00017,  -0.00178,386077231.36601,   0.00036,275036569.31978,  -0.00032,   0.00002,  -0.00016,-88959337.95377,   0.00000
-366805569.49142,-200434634.22463,-124709318.24273,  -0.00160,  -0.00017,  -0.00178,384521872.49078,   0.00036,275036569.31978,  -0.00032,   0.00002,  -0.00016,-90514696.82900,   0.00000
-364266948.21949,-199265157.00947,-124948918.45266,  -0.00159,  -0.00017,  -0.00179,382946469.36654,   0.00036,275036569.31978,  -0.00032,   0.00002,  -0.00016,-92090099.95324,   0.00000
-361708360.26339,-198087122.64395,-125188518.66260,  -0.00158,  -0.00017,  -0.00179,381363571.06541,   0.00036,275036569.31978,  -0.00032,   0.00002,  -0.00016,-93672998.25437,   0.00000
-359129805.62313,-196900531.12808,-125422414.10563,  -0.00157,  -0.00017,  -0.00179,379767735.40490,   0.00036,275036569.31978,  -0.00032,   0.00002,  -0.00016,-95268833.91488,   0.00000
-356522727.14836,-195685415.77770,-125656309.54866,  -0.00156,  -0.00017,  -0.00180,378157987.10769,   0.00036,275036569.31978,  -0.00032,   0.00002,  -0.00016,-96878582.21209,   0.00000
-353915648.67359,-194470300.42731,-125890204.99169,  -0.00155,  -0.00017,  -0.00180,376555351.49485,   0.00036,275036569.31978,  -0.00032,   0.00002,  -0.00016,-98481217.82493,   0.00000
-351268636.83049,-193238070.77621,-126118395.66782,  -0.00154,  -0.00017,  -0.00180,374926236.33220,   0.00036,275036569.31978,  -0.00032,   0.00002,  -0.00016,-100110332.98758,   0.00000
-348621624.98739,-192005841.12512,-126346586.34395,  -0.00153,  -0.00017,  -0.00180,373304529.48928,   0.00036,275036569.31978,  -0.00032,   0.00002,  -0.00016,-101732039.83050,   0.00000
-345946089.30978,-190745087.63950,-126574777.02008,  -0.00152,  -0.00017,  -0.00181,371669733.19931,   0.00036,275036569.31978,  -0.00032,   0.00002,  -0.00016,-103366836.12047,   0.00000
-343250586.94801,-189475777.00354,-126797262.92931,  -0.00151,  -0.00017,  -0.00181,370022974.28868,   0.00036,275036569.31978,  -0.00032,   0.00002,  -0.00016,-105013595.03110,   0.00000
-340555084.58624,-188206466.36757,-127019748.83853,  -0.00150,  -0.00017,  -0.00181,368384066.33788,   0.00036,275036569.31978,  -0.00032,   0.00002,  -0.00016,-106652502.98190,   0.00000
-337819648.85614,-186920041.43089,-127236529.98086,  -0.00149,  -0.00017,  -0.00182,366719726.72077,   0.00036,275036569.31978,  -0.00032,   0.00002,  -0.00016,-108316842.59900,   0.00000
-335075655.97569,-185613649.81005,-127459015.89008,  -0.00148,  -0.00017,  -0.00182,365062883.55598,   0.00036,275036569.31978,  -0.00032,   0.00002,  -0.00016,-109973685.76380,   0.00000
-332291729.72691,-184290143.88850,-127675797.03240,  -0.00147,  -0.00017,  -0.00182,363381187.65092,   0.00036,275036569.31978,  -0.00032,   0.00002,  -0.00016,-111655381.66886,   0.00000
-329507803.47814,-182966637.96696,-127886873.40782,  -0.00146,  -0.00017,  -0.00182,361702094.74889,   0.00036,275036569.31978,  -0.00032,   0.00002,  -0.00016,-113334474.57089,   0.00000
-326695353.39485,-181614608.21089,-128097949.78324,  -0.00145,  -0.00016,  -0.00183,360011562.93968,   0.00036,275036569.31978,  -0.00032,   0.00002,  -0.00016,-115025006.38010,   0.00000
-323891460.46192,-180282545.13899,-128309026.15866,  -0.00144,  -0.00016,  -0.00183,358336595.92964,   0.00036,275036569.31978,  -0.00032,   0.00002,  -0.00016,-116699973.39014,   0.00000
-321039077.01030,-178913401.08222,-128520102.53408,  -0.00143,  -0.00016,  -0.00183,356637282.36450,   0.00036,275036569.31978,  -0.00032,   0.00002,  -0.00016,-118399286.95528,   0.00000
-318178136.40834,-177524290.34128,-128725474.14260,  -0.00142,  -0.00016,  -0.00184,354934635.33609,   0.00036,275036569.31978,  -0.00032,   0.00002,  -0.00016,-120101933.98369,   0.00000
-315285819.58840,-176138031.98380,-128930845.75111,  -0.00141,  -0.00016,  -0.00184,353221487.91976,   0.00036,275036569.31978,  -0.00032,   0.00002,  -0.00016,-121815081.40002,   0.00000
-312384945.61811,-174731806.94215,-129130512.59273,  -0.00140,  -0.00016,  -0.00184,351505391.77103,   0.00036,275036569.31978,  -0.00032,   0.00002,  -0.00016,-123531177.54875,   0.00000
-309464104.96366,-173317024.75015,-129330179.43434,  -0.00139,  -0.00016,  -0.00184,349786093.67368,   0.00036,275036569.31978,  -0.00032,   0.00002,  -0.00016,-125250475.64610,   0.00000
-306543264.30921,-171902242.55815,-129529846.27595,  -0.00138,  -0.00016,  -0.00185,348077035.35688,   0.00036,275036569.31978,  -0.00032,   0.00002,  -0.00016,-126959533.96290,   0.00000
-303573933.13608,-170450379.38128,-129729513.11756,  -0.00137,  -0.00016,  -0.00185,346345798.81786,   0.00036,275036569.31978,  -0.00032,   0.00002,  -0.00016,-128690770.50192,   0.00000
-300604601.96296,-168998516.20441,-129923475.19227,  -0.00136,  -0.00016,  -0.00185,344618951.48519,   0.00036,275036569.31978,  -0.00032,   0.00002,  -0.00016,-130417617.83459,   0.00000
-297615304.10567,-167538095.87719,-130117437.26698,  -0.00135,  -0.00016,  -0.00185,342890104.69401,   0.00036,275036569.31978,  -0.00032,   0.00002,  -0.00016,-132146464.62577,   0.00000
-294606039.56421,-166069118.39961,-130305694.57479,  -0.00134,  -0.00016,  -0.00186,341153085.11570,   0.00036,275036569.31978,  -0.00032,   0.00002,  -0.00016,-133883484.20408,   0.00000
-291588217.87241,-164580174.23786,-130493951.88260,  -0.00133,  -0.00016,  -0.00186,339421120.85849,   0.00036,275036569.31978,  -0.00032,   0.00002,  -0.00016,-135615448.46129,   0.00000
-288530462.81228,-163074115.77541,-130682209.19040,  -0.00132,  -0.00015,  -0.00186,337675383.32824,   0.00036,275036569.31978,  -0.00032,   0.00002,  -0.00016,-137361185.99154,   0.00000
-285472707.75215,-161568057.31296,-130864761.73131,  -0.00131,  -0.00015,  -0.00186,335935099.08436,   0.00036,275036569.31978,  -0.00032,   0.00002,  -0.00016,-139101470.23542,   0.00000
-282386428.85751,-160033475.01599,-131047314.27221,  -0.00129,  -0.00015,  -0.00187,334188154.42060,   0.00036,275036569.31978,  -0.00032,   0.00002,  -0.00016,-140848414.89918,   0.00000
-279288740.42906,-158510302.25283,-131229866.81311,  -0.00128,  -0.00015,  -0.00187,332447601.31617,   0.00036,275036569.31978,  -0.00032,   0.00002,  -0.00016,-142588968.00361,   0.00000
-276182494.85025,-156967162.80551,-131406714.58711,  -0.00127,  -0.00015,  -0.00187,330706897.33277,   0.00036,275036569.31978,  -0.00032,   0.00002,  -0.00016,-144329671.98701,   0.00000
-273027758.75277,-155386942.37332,-131583562.36111,  -0.00126,  -0.00015,  -0.00187,328948342.36545,   0.00036,275036569.31978,  -0.00032,   0.00002,  -0.00016,-146088226.95433,   0.00000
-269881579.80564,-153826688.62529,-131760410.13511,  -0.00125,  -0.00015,  -0.00188,327209633.94476,   0.00036,275036569.31978,  -0.00032,   0.00002,  -0.00016,-147826935.37502,   0.00000
-266706877.02400,-152237911.04274,-131937257.90911,  -0.00124,  -0.00015,  -0.00188,325466376.24401,   0.00036,275036569.31978,  -0.00032,   0.00002,  -0.00016,-149570193.07576,   0.00000
-263532174.24235,-150649133.46019,-132108400.91621,  -0.00123,  -0.00015,  -0.00188,323730386.83854,   0.00036,275036569.31978,  -0.00032,   0.00002,  -0.00016,-151306182.48124,   0.00000
-260308980.94203,-149023274.89277,-132273839.15640,  -0.00122,  -0.00015,  -0.00188,321971599.32265,   0.00036,275036569.31978,  -0.00032,   0.00002,  -0.00016,-153064969.99713,   0.00000
-257094344.79206,-147417383.00951,-132444982.16350,  -0.00120,  -0.00014,  -0.00188,320240895.79957,   0.00036,275036569.31978,  -0.00032,   0.00002,  -0.00016,-154795673.52021,   0.00000
-253851184.80758,-145782967.29174,-132610420.40369,  -0.00119,  -0.00014,  -0.00189,318500375.83613,   0.00036,275036569.31978,  -0.00032,   0.00002,  -0.00016,-156536193.48365,   0.00000
-250579500.98858,-144120027.73945,-132775858.64389,  -0.00118,  -0.00014,  -0.00189,316757683.40130,   0.00036,275036569.31978,  -0.00032,   0.00002,  -0.00016,-158278885.91848,   0.00000
-247316374.31994,-142477054.87132,-132935592.11718,  -0.00117,  -0.00014,  -0.00189,315029850.15969,   0.00036,275036569.31978,  -0.00032,   0.00002,  -0.00016,-160006719.16008,   0.00000
-244024723.81678,-140805558.16868,-133095325.59047,  -0.00116,  -0.00014,  -0.00189,313300703.29185,   0.00036,275036569.31978,  -0.00032,   0.00002,  -0.00016,-161735866.02793,   0.00000
-240713106.62945,-139125504.31568,-133255059.06376,  -0.00115,  -0.00014,  -0.00189,311576805.29419,   0.00036,275036569.31978,  -0.00032,   0.00002,  -0.00016,-163459764.02559,   0.00000
-237381522.75797,-137436893.31232,-133409087.77014,  -0.00113,  -0.00014,  -0.00190,309851354.80036,   0.00036,275036569.31978,  -0.00032,   0.00002,  -0.00016,-165185214.51942,   0.00000
-234041381.73613,-135728315.62481,-133568821.24343,  -0.00112,  -0.00014,  -0.00190,308145081.93843,   0.00036,275036569.31978,  -0.00032,   0.00002,  -0.00016,-166891487.38135,   0.00000
-230681274.03013,-134011180.78694,-133717145.18292,  -0.00111,  -0.00014,  -0.00190,306430745.18310,   0.00036,275036569.31978,  -0.00032,   0.00002,  -0.00016,-168605824.13668,   0.00000
-227301199.63997,-132285488.79871,-133871173.88931,  -0.00110,  -0.00013,  -0.00190,304731208.11804,   0.00036,275036569.31978,  -0.00032,   0.00002,  -0.00016,-170305361.20174,   0.00000
-223901158.56565,-130551239.66013,-134019497.82879,  -0.00109,  -0.00013,  -0.00190,303032108.14466,   0.00036,275036569.31978,  -0.00032,   0.00002,  -0.00016,-172004461.17512,   0.00000
-220492560.34098,-128797023.83739,-134167821.76827,  -0.00107,  -0.00013,  -0.00191,301346760.65791,   0.00036,275036569.31978,  -0.00032,   0.00002,  -0.00016,-173689808.66187,   0.00000
-217063995.43214,-127034250.86429,-134316145.70776,  -0.00106,  -0.00013,  -0.00191,299670482.27953,   0.00036,275036569.31978,  -0.00032,   0.00002,  -0.00016,-175366087.04025,   0.00000
-213635430.52330,-125271477.89120,-134458764.88034,  -0.00105,  -0.00013,  -0.00191,298006866.69233,   0.00036,275036569.31978,  -0.00032,   0.00002,  -0.00016,-177029702.62745,   0.00000
-210158375.09578,-123471623.93323,-134601384.05292,  -0.00104,  -0.00013,  -0.00191,296337284.94782,   0.00036,275036569.31978,  -0.00032,   0.00002,  -0.00016,-178699284.37196,   0.00000
-206681319.66827,-121671769.97526,-134738298.45860,  -0.00103,  -0.00013,  -0.00191,294681408.87817,   0.00036,275036569.31978,  -0.00032,   0.00002,  -0.00016,-180355160.44161,   0.00000
-203184297.55659,-119863358.86694,-134880917.63118,  -0.00101,  -0.00012,  -0.00192,293044906.15154,   0.00036,275036569.31978,  -0.00032,   0.00002,  -0.00016,-181991663.16824,   0.00000
-199687275.44492,-118054947.75862,-135017832.03685,  -0.00100,  -0.00012,  -0.00192,291422979.01502,   0.00036,275036569.31978,  -0.00032,   0.00002,  -0.00016,-183613590.30476,   0.00000
-196141762.81456,-116209455.66543,-135154746.44253,  -0.00099,  -0.00012,  -0.00192,289798408.68085,   0.00036,275036569.31978,  -0.00032,   0.00002,  -0.00016,-185238160.63892,   0.00000
-192616216.86837,-114372520.72259,-135285956.08130,  -0.00098,  -0.00012,  -0.00192,288199493.37280,   0.00036,275036569.31978,  -0.00032,   0.00002,  -0.00016,-186837075.94698,   0.00000
-189050737.55385,-112518471.47904,-135417165.72008,  -0.00096,  -0.00012,  -0.00192,286604804.71735,   0.00036,275036569.31978,  -0.00032,   0.00002,  -0.00016,-188431764.60243,   0.00000
-185485258.23934,-110664422.23549,-135548375.35885,  -0.00095,  -0.00012,  -0.00192,285034844.57842,   0.00036,275036569.31978,  -0.00032,   0.00002,  -0.00016,-190001724.74136,   0.00000
-181891255.09031,-108781849.15743,-135679584.99763,  -0.00094,  -0.00012,  -0.00193,283475398.69543,   0.00036,275036569.31978,  -0.00032,   0.00002,  -0.00016,-191561170.62435,   0.00000
-178277285.25712,-106890718.92901,-135805089.86950,  -0.00092,  -0.00011,  -0.00193,281924274.13288,   0.00036,275036569.31978,  -0.00032,   0.00002,  -0.00016,-193112295.18690,   0.00000
-174663315.42392,-104999588.70059,-135930594.74137,  -0.00091,  -0.00011,  -0.00193,280399698.39820,   0.00036,275036569.31978,  -0.00032,   0.00002,  -0.00016,-194636870.92158,   0.00000
-171020821.75621,-103079934.63765,-136056099.61324,  -0.00090,  -0.00011,  -0.00193,278888088.66043,   0.00036,275036569.31978,  -0.00032,   0.00002,  -0.00016,-196148480.65935,   0.00000
-167358361.40434,-101151723.42436,-136175899.71821,  -0.00089,  -0.00011,  -0.00193,277386972.63990,   0.00036,275036569.31978,  -0.00032,   0.00002,  -0.00016,-197649596.67988,   0.00000
-163695901.05247,-99223512.21107,-136301404.59008,  -0.00087,  -0.00011,  -0.00193,275922796.88272,   0.00036,275036569.31978,  -0.00032,   0.00002,  -0.00016,-199113772.43706,   0.00000
-160013474.01644,-97286743.84743,-136415499.92814,  -0.00086,  -0.00011,  -0.00194,274462016.31265,   0.00036,275036569.31978,  -0.00032,   0.00002,  -0.00016,-200574553.00713,   0.00000
-156302523.14590,-95321451.64927,-136535300.03311,  -0.00085,  -0.00010,  -0.00194,273026260.54829,   0.00036,275036569.31978,  -0.00032,   0.00002,  -0.00016,-202010308.77149,   0.00000
-152591572.27535,-93356159.45111,-136649395.37118,  -0.00083,  -0.00010,  -0.00194,271612534.78184,   0.00036,275036569.31978,  -0.00032,   0.00002,  -0.00016,-203424034.53794,   0.00000
-148860654.72064,-91382310.10259,-136769195.47614,  -0.00082,  -0.00010,  -0.00194,270230326.02830,   0.00036,275036569.31978,  -0.00032,   0.00002,  -0.00016,-204806243.29148,   0.00000
-145121180.01558,-89388494.06992,-136877586.04730,  -0.00081,  -0.00010,  -0.00194,268858172.10636,   0.00036,275036569.31978,  -0.00032,   0.00002,  -0.00016,-206178397.21342,   0.00000
-141361738.62635,-87386120.88688,-136991681.38537,  -0.00079,  -0.00010,  -0.00194,267519314.43750,   0.00036,275036569.31978,  -0.00032,   0.00002,  -0.00016,-207517254.88228,   0.00000
-137582330.55296,-85375190.55350,-137100071.95653,  -0.00078,  -0.00010,  -0.00194,266197280.87667,   0.00036,275036569.31978,  -0.00032,   0.00002,  -0.00016,-208839288.44311,   0.00000
-133782955.79542,-83355703.06976,-137208462.52769,  -0.00077,  -0.00009,  -0.00195,264901805.81524,   0.00036,275036569.31978,  -0.00032,   0.00002,  -0.00016,-210134763.50454,   0.00000
-129975023.88752,-81316248.90185,-137316853.09885,  -0.00075,  -0.00009,  -0.00195,263637084.28725,   0.00036,275036569.31978,  -0.00032,   0.00002,  -0.00016,-211399485.03253,   0.00000
-126167091.97961,-79276794.73395,-137425243.67001,  -0.00074,  -0.00009,  -0.00195,262407917.98671,   0.00036,275036569.31978,  -0.00032,   0.00002,  -0.00016,-212628651.33307,   0.00000
-122319226.70339,-77220226.26534,-137527929.47427,  -0.00073,  -0.00009,  -0.00195,261191945.43398,   0.00036,275036569.31978,  -0.00032,   0.00002,  -0.00016,-213844623.88580,   0.00000
-118471361.42716,-75163657.79673,-137630615.27853,  -0.00071,  -0.00009,  -0.00195,260013185.91296,   0.00036,275036569.31978,  -0.00032,   0.00002,  -0.00016,-215023383.40682,   0.00000
-114614939.00058,-73087122.64395,-137733301.08279,  -0.00070,  -0.00008,  -0.00195,258868349.39096,   0.00036,275036569.31978,  -0.00032,   0.00002,  -0.00016,-216168219.92882,   0.00000
-110738549.88984,-71002030.34082,-137835986.88705,  -0.00069,  -0.00008,  -0.00195,257755563.87482,   0.00036,275036569.31978,  -0.00032,   0.00002,  -0.00016,-217281005.44496,   0.00000
-106833636.94459,-68888414.20318,-137932967.92440,  -0.00067,  -0.00008,  -0.00196,256663107.36619,   0.00036,275036569.31978,  -0.00032,   0.00002,  -0.00016,-218373461.95359,   0.00000
-102937281.14968,-66794764.74970,-138029948.96176,  -0.00066,  -0.00008,  -0.00196,255614462.42583,   0.00036,275036569.31978,  -0.00032,   0.00002,  -0.00016,-219422106.89395,   0.00000
-99012401.52027,-64672591.46170,-138126929.99911,  -0.00065,  -0.00008,  -0.00196,254597245.70576,   0.00036,275036569.31978,  -0.00032,   0.00002,  -0.00016,-220439323.61402,   0.00000
-95067555.20669,-62541861.02334,-138223911.03647,  -0.00063,  -0.00007,  -0.00196,253616189.06198,   0.00036,275036569.31978,  -0.00032,   0.00002,  -0.00016,-221420380.25780,   0.00000
-91114151.74275,-60391163.90083,-138315187.30692,  -0.00062,  -0.00007,  -0.00196,252665123.77603,   0.00036,275036569.31978,  -0.00032,   0.00002,  -0.00016,-222371445.54374,   0.00000
-87160748.27882,-58240466.77831,-138412168.34427,  -0.00061,  -0.00007,  -0.00196,251766658.60249,   0.00036,275036569.31978,  -0.00032,   0.00002,  -0.00016,-223269910.71729,   0.00000
-83167411.44656,-56072655.35509,-138503444.61472,  -0.00059,  -0.00007,  -0.00196,250892717.94316,   0.00036,275036569.31978,  -0.00032,   0.00002,  -0.00016,-224143851.37662,   0.00000
-79194041.29846,-53913401.08222,-138594720.88517,  -0.00058,  -0.00007,  -0.00196,250068432.34064,   0.00036,275036569.31978,  -0.00032,   0.00002,  -0.00016,-224968136.97913,   0.00000
-75180737.78205,-51737032.50864,-138680292.38872,  -0.00056,  -0.00006,  -0.00197,249270748.54997,   0.00036,275036569.31978,  -0.00032,   0.00002,  -0.00016,-225765820.76980,   0.00000
-71158877.11527,-49540697.25089,-138771568.65917,  -0.00055,  -0.00006,  -0.00197,248526157.36158,   0.00036,275036569.31978,  -0.00032,   0.00002,  -0.00016,-226510411.95820,   0.00000
-67137016.44850,-47344361.99315,-138857140.16272,  -0.00054,  -0.00006,  -0.00197,247818934.91575,   0.00036,275036569.31978,  -0.00032,   0.00002,  -0.00016,-227217634.40403,   0.00000
-63086631.94721,-45119502.90090,-138942711.66627,  -0.00052,  -0.00006,  -0.00197,247152759.59383,   0.00036,275036569.31978,  -0.00032,   0.00002,  -0.00016,-227883809.72595,   0.00000
-59016280.76176,-42886086.65828,-139028283.16982,  -0.00051,  -0.00006,  -0.00197,246531440.29973,   0.00036,275036569.31978,  -0.00032,   0.00002,  -0.00016,-228505129.02005,   0.00000
-54945929.57631,-40652670.41567,-139113854.67337,  -0.00049,  -0.00005,  -0.00197,245959325.31504,   0.00036,275036569.31978,  -0.00032,   0.00002,  -0.00016,-229077244.00474,   0.00000
-50855611.70670,-38410697.02270,-139193721.41001,  -0.00048,  -0.00005,  -0.00197,245424024.15935,   0.00036,275036569.31978,  -0.00032,   0.00002,  -0.00016,-229612545.16043,   0.00000
-46756736.68673,-36148756.94558,-139273588.14666,  -0.00046,  -0.00005,  -0.00197,244936980.07851,   0.00036,275036569.31978,  -0.00032,   0.00002,  -0.00016,-230099589.24127,   0.00000
-42646452.13296,-33898226.40225,-139359159.65021,  -0.00045,  -0.00005,  -0.00197,244509911.20674,   0.00036,275036569.31978,  -0.00032,   0.00002,  -0.00016,-230526658.11304,   0.00000
-38519053.27847,-31607762.49061,-139439026.38685,  -0.00044,  -0.00004,  -0.00198,244120857.91035,   0.00036,275036569.31978,  -0.00032,   0.00002,  -0.00016,-230915711.40943,   0.00000
-34380244.89019,-29328708.11277,-139513188.35659,  -0.00042,  -0.00004,  -0.00198,243773738.05911,   0.00036,275036569.31978,  -0.00032,   0.00002,  -0.00016,-231262831.26067,   0.00000
-30232879.35154,-27029687.05077,-139593055.09324,  -0.00041,  -0.00004,  -0.00198,243487389.40492,   0.00036,275036569.31978,  -0.00032,   0.00002,  -0.00016,-231549179.91486,   0.00000
-26065547.12874,-24722108.83842,-139672921.82988,  -0.00039,  -0.00004,  -0.00198,243252493.09510,   0.00036,275036569.31978,  -0.00032,   0.00002,  -0.00016,-231784076.22468,   0.00000
-21898214.90593,-22414530.62606,-139747083.79963,  -0.00038,  -0.00003,  -0.00198,243061405.99052,   0.00036,275036569.31978,  -0.00032,   0.00002,  -0.00016,-231975163.32926,   0.00000
-17710915.99896,-20098395.26335,-139821245.76937,  -0.00036,  -0.00003,  -0.00198,242923039.97965,   0.00036,275036569.31978,  -0.00032,   0.00002,  -0.00016,-232113529.34013,   0.00000
-13495093.25748,-17753736.06613,-139895407.73911,  -0.00035,  -0.00003,  -0.00198,242837187.60093,   0.00036,275036569.31978,  -0.00032,   0.00002,  -0.00016,-232199381.71885,   0.00000
-9279270.51600,-15409076.86890,-139969569.70885,  -0.00033,  -0.00003,  -0.00198,242806509.08086,   0.00036,275036569.31978,  -0.00032,   0.00002,  -0.00016,-232230060.23891,   0.00000
-5054890.62416,-13044450.98752,-140043731.67859,  -0.00032,  -0.00002,  -0.00198,242830211.66072,   0.00036,275036569.31978,  -0.00032,   0.00002,  -0.00016,-232206357.65906,   0.00000
-810544.04816,-10671267.95578,-140112188.88143,  -0.00030,  -0.00002,  -0.00198,242899485.03064,   0.00036,275036569.31978,  -0.00032,   0.00002,  -0.00016,-232137084.28914,   0.00000
3425245.37748,-8318051.60820,-140186350.85117,  -0.00029,  -0.00002,  -0.00198,243035085.02103,   0.00036,275036569.31978,  -0.00032,   0.00002,  -0.00016,-232001484.29875,   0.00000
7698115.78800,-5916344.74194,-140254808.05401,  -0.00028,  -0.00002,  -0.00199,243216040.53898,   0.00036,275036569.31978,  -0.00032,   0.00002,  -0.00016,-231820528.78080,   0.00000
11962429.04816,-3534604.55984,-140323265.25685,  -0.00026,  -0.00001,  -0.00199,243453757.23414,   0.00036,275036569.31978,  -0.00032,   0.00002,  -0.00016,-231582812.08564,   0.00000
16255266.14283,-1124340.54323,-140391722.45969,  -0.00025,  -0.00001,  -0.00199,243748397.90118,   0.00036,275036569.31978,  -0.00032,   0.00002,  -0.00016,-231288171.41860,   0.00000
20548103.23751,1285923.47338,-140460179.66253,  -0.00023,  -0.00001,  -0.00199,244099653.97362,   0.00036,275036569.31978,  -0.00032,   0.00002,  -0.00016,-230936915.34616,   0.00000
24869464.16670,3724711.32451,-140528636.86537,  -0.00022,  -0.00001,  -0.00199,244508947.65895,   0.00036,275036569.31978,  -0.00032,   0.00002,  -0.00016,-230527621.66083,   0.00000
29182267.94554,6143532.49148,-140597094.06821,  -0.00020,  -0.00000,  -0.00199,244974884.67982,   0.00036,275036569.31978,  -0.00032,   0.00002,  -0.00016,-230061684.63996,   0.00000
33523595.55889,8590877.49296,-140665551.27105,  -0.00019,  -0.00000,  -0.00199,245499550.86698,   0.00036,275036569.31978,  -0.00032,   0.00002,  -0.00016,-229537018.45280,   0.00000
37873480.32260,11058189.17861,-140728303.70698,  -0.00017,   0.00000,  -0.00199,246071612.22321,   0.00036,275036569.31978,  -0.00032,   0.00002,  -0.00016,-228964957.09657,   0.00000
42214807.93596,13505534.18009,-140796760.90982,  -0.00016,   0.00000,  -0.00199,246709423.36920,   0.00036,275036569.31978,  -0.00032,   0.00002,  -0.00016,-228327145.95058,   0.00000
46584659.38383,15981403.01609,-140859513.34575,  -0.00014,   0.00001,  -0.00199,247396958.38126,   0.00036,275036569.31978,  -0.00032,   0.00002,  -0.00016,-227639610.93852,   0.00000
50954510.83170,18457271.85209,-140927970.54859,  -0.00013,   0.00001,  -0.00199,248150418.99752,   0.00036,275036569.31978,  -0.00032,   0.00002,  -0.00016,-226886150.32226,   0.00000
55344328.96373,20941697.83844,-140990722.98453,  -0.00011,   0.00001,  -0.00200,248953202.72226,   0.00036,275036569.31978,  -0.00032,   0.00002,  -0.00016,-226083366.59752,   0.00000
59742704.24611,23446090.50896,-141053475.42046,  -0.00010,   0.00001,  -0.00200,249812781.50720,   0.00036,275036569.31978,  -0.00032,   0.00002,  -0.00016,-225223787.81258,   0.00000
64161046.21266,25959040.32983,-141116227.85640,  -0.00008,   0.00002,  -0.00200,250731573.06763,   0.00036,275036569.31978,  -0.00032,   0.00002,  -0.00016,-224304996.25215,   0.00000
68579388.17921,28471990.15070,-141178980.29234,  -0.00007,   0.00002,  -0.00200,251705598.80652,   0.00036,275036569.31978,  -0.00032,   0.00002,  -0.00016,-223330970.51326,   0.00000
73006287.29611,31004906.65573,-141241732.72827,  -0.00005,   0.00002,  -0.00200,252735732.12122,   0.00036,275036569.31978,  -0.00032,   0.00002,  -0.00016,-222300837.19856,   0.00000
77453153.09717,33546380.31112,-141304485.16421,  -0.00004,   0.00003,  -0.00200,253824644.60557,   0.00036,275036569.31978,  -0.00032,   0.00002,  -0.00016,-221211924.71421,   0.00000
81900018.89824,36087853.96650,-141367237.60014,  -0.00002,   0.00003,  -0.00200,254967523.37831,   0.00036,275036569.31978,  -0.00032,   0.00002,  -0.00016,-220069045.94147,   0.00000
86366851.38346,38637884.77224,-141429990.03608,  -0.00000,   0.00003,  -0.00200,256168719.69560,   0.00036,275036569.31978,  -0.00032,   0.00002,  -0.00016,-218867849.62417,   0.00000
90842241.01904,41207882.26215,-141492742.47201,   0.00001,   0.00003,  -0.00200,257424890.90666,   0.00036,275036569.31978,  -0.00032,   0.00002,  -0.00016,-217611678.41312,   0.00000
95317630.65462,43777879.75205,-141555494.90795,   0.00003,   0.00004,  -0.00200,258733500.17354,   0.00036,275036569.31978,  -0.00032,   0.00002,  -0.00016,-216303069.14624,   0.00000
99812986.97436,46356434.39231,-141618247.34388,   0.00004,   0.00004,  -0.00200,260099521.60355,   0.00036,275036569.31978,  -0.00032,   0.00002,  -0.00016,-214937047.71623,   0.00000
104316900.44446,48954955.71673,-141675295.01292,   0.00006,   0.00004,  -0.00200,261509926.80354,   0.00036,275036569.31978,  -0.00032,   0.00002,  -0.00016,-213526642.51624,   0.00000
108840780.59871,51562034.19150,-141738047.44885,   0.00007,   0.00005,  -0.00200,262986556.92731,   0.00036,275036569.31978,  -0.00032,   0.00002,  -0.00016,-212050012.39247,   0.00000
113344694.06881,54160555.51592,-141800799.88479,   0.00009,   0.00005,  -0.00201,264507040.35184,   0.00036,275036569.31978,  -0.00032,   0.00002,  -0.00016,-210529528.96793,   0.00000
117888540.90723,56776191.14105,-141857847.55382,   0.00010,   0.00005,  -0.00201,266080680.17735,   0.00036,275036569.31978,  -0.00032,   0.00002,  -0.00016,-208955889.14243,   0.00000
122420978.21184,59403236.29998,-141920599.98975,   0.00012,   0.00006,  -0.00201,267708438.78522,   0.00036,275036569.31978,  -0.00032,   0.00002,  -0.00016,-207328130.53456,   0.00000
126973382.20061,62038838.60927,-141983352.42569,   0.00013,   0.00006,  -0.00201,269391152.81602,   0.00036,275036569.31978,  -0.00032,   0.00002,  -0.00016,-205645416.50376,   0.00000
131525786.18938,64674440.91856,-142046104.86163,   0.00015,   0.00006,  -0.00201,271121276.87028,   0.00036,275036569.31978,  -0.00032,   0.00002,  -0.00016,-203915292.44950,   0.00000
136106714.01267,67338567.06237,-142103152.53066,   0.00017,   0.00007,  -0.00201,272899628.07159,   0.00036,275036569.31978,  -0.00032,   0.00002,  -0.00016,-202136941.24819,   0.00000
140687641.83596,70002693.20617,-142165904.96659,   0.00018,   0.00007,  -0.00201,274733160.35210,   0.00036,275036569.31978,  -0.00032,   0.00002,  -0.00016,-200303408.96768,   0.00000
145268569.65925,72666819.34998,-142228657.40253,   0.00020,   0.00007,  -0.00201,276611988.20045,   0.00036,275036569.31978,  -0.00032,   0.00002,  -0.00016,-198424581.11933,   0.00000
149869464.16670,75339502.64414,-142285705.07156,   0.00021,   0.00008,  -0.00201,278534507.12533,   0.00036,275036569.31978,  -0.00032,   0.00002,  -0.00016,-196502062.19445,   0.00000
154478915.82451,78032152.62246,-142348457.50750,   0.00023,   0.00008,  -0.00201,280513243.90291,   0.00036,275036569.31978,  -0.00032,   0.00002,  -0.00016,-194523325.41687,   0.00000
159088367.48231,80724802.60078,-142411209.94343,   0.00024,   0.00008,  -0.00201,282535101.38510,   0.00036,275036569.31978,  -0.00032,   0.00002,  -0.00016,-192501467.93468,   0.00000
163697819.14012,83417452.57910,-142473962.37937,   0.00026,   0.00008,  -0.00201,284599160.55538,   0.00036,275036569.31978,  -0.00032,   0.00002,  -0.00016,-190437408.76440,   0.00000
168335794.63244,86138626.39194,-142536714.81530,   0.00028,   0.00009,  -0.00202,286717166.90845,   0.00036,275036569.31978,  -0.00032,   0.00002,  -0.00016,-188319402.41133,   0.00000
172973770.12476,88859800.20478,-142599467.25124,   0.00029,   0.00009,  -0.00202,288876095.87964,   0.00036,275036569.31978,  -0.00032,   0.00002,  -0.00016,-186160473.44014,   0.00000
177631712.30124,91589531.16797,-142662219.68717,   0.00031,   0.00009,  -0.00202,291084161.30497,   0.00036,275036569.31978,  -0.00032,   0.00002,  -0.00016,-183952408.01481,   0.00000
182278244.94392,94330671.66497,-142724972.12311,   0.00032,   0.00010,  -0.00202,293326538.04890,   0.00036,275036569.31978,  -0.00032,   0.00002,  -0.00016,-181710031.27088,   0.00000
186936187.12040,97060402.62816,-142787724.55904,   0.00034,   0.00010,  -0.00202,295612518.47651,   0.00036,275036569.31978,  -0.00032,   0.00002,  -0.00016,-179424050.84327,   0.00000
191611243.59760,99830066.95968,-142856181.76188,   0.00036,   0.00011,  -0.00202,297953039.36421,   0.00036,275036569.31978,  -0.00032,   0.00002,  -0.00016,-177083529.95557,   0.00000
196297709.60859,102588321.75739,-142918934.19782,   0.00037,   0.00011,  -0.00202,300327766.31829,   0.00036,275036569.31978,  -0.00032,   0.00002,  -0.00016,-174708803.00149,   0.00000
200992732.76995,105366543.23926,-142981686.63375,   0.00039,   0.00011,  -0.00202,302743399.15222,   0.00036,275036569.31978,  -0.00032,   0.00002,  -0.00016,-172293170.16756,   0.00000
205687755.93130,108144764.72113,-143050143.83659,   0.00040,   0.00012,  -0.00202,305202752.38019,   0.00036,275036569.31978,  -0.00032,   0.00002,  -0.00016,-169833816.93959,   0.00000
210382779.09266,110922986.20300,-143118601.03943,   0.00042,   0.00012,  -0.00202,307696828.70441,   0.00036,275036569.31978,  -0.00032,   0.00002,  -0.00016,-167339740.61537,   0.00000
215077802.25401,113701207.68487,-143181353.47537,   0.00043,   0.00012,  -0.00202,310216891.44539,   0.00036,275036569.31978,  -0.00032,   0.00002,  -0.00016,-164819677.87439,   0.00000
219801349.24988,116507953.00126,-143249810.67821,   0.00045,   0.00013,  -0.00202,312793311.55672,   0.00036,275036569.31978,  -0.00032,   0.00002,  -0.00016,-162243257.76306,   0.00000
224524896.24575,119314698.31764,-143318267.88104,   0.00047,   0.00013,  -0.00203,315402415.54830,   0.00036,275036569.31978,  -0.00032,   0.00002,  -0.00016,-159634153.77148,   0.00000
229257000.39197,122141410.31819,-143386725.08388,   0.00048,   0.00013,  -0.00203,318048395.34400,   0.00036,275036569.31978,  -0.00032,   0.00002,  -0.00016,-156988173.97578,   0.00000
234000514.07200,124956712.78493,-143455182.28672,   0.00050,   0.00014,  -0.00203,320731435.31981,   0.00036,275036569.31978,  -0.00032,   0.00002,  -0.00016,-154305133.99997,   0.00000
238732618.21823,127783424.78548,-143523639.48956,   0.00051,   0.00014,  -0.00203,323439175.67959,   0.00036,275036569.31978,  -0.00032,   0.00002,  -0.00016,-151597393.64019,   0.00000
243493246.19897,130638660.62054,-143597801.45930,   0.00053,   0.00014,  -0.00203,326200513.16866,   0.00036,275036569.31978,  -0.00032,   0.00002,  -0.00016,-148836056.15112,   0.00000
248245317.02935,133473929.77145,-143671963.42904,   0.00055,   0.00015,  -0.00203,328985787.79492,   0.00036,275036569.31978,  -0.00032,   0.00002,  -0.00016,-146050781.52486,   0.00000
253025911.69426,136337722.75686,-143740420.63188,   0.00056,   0.00015,  -0.00203,331808733.46953,   0.00036,275036569.31978,  -0.00032,   0.00002,  -0.00016,-143227835.85025,   0.00000
257786539.67500,139192958.59193,-143814582.60163,   0.00058,   0.00016,  -0.00203,334655660.52778,   0.00036,275036569.31978,  -0.00032,   0.00002,  -0.00016,-140380908.79200,   0.00000
262575691.49025,142076718.26151,-143888744.57137,   0.00060,   0.00016,  -0.00203,337546748.66503,   0.00036,275036569.31978,  -0.00032,   0.00002,  -0.00016,-137489820.65474,   0.00000
267364843.30551,144960477.93109,-143962906.54111,   0.00061,   0.00016,  -0.00203,340464564.24942,   0.00036,275036569.31978,  -0.00032,   0.00002,  -0.00016,-134572005.07036,   0.00000
272153995.12077,147844237.60067,-144042773.27775,   0.00063,   0.00017,  -0.00203,343415604.38331,   0.00036,275036569.31978,  -0.00032,   0.00002,  -0.00016,-131620964.93647,   0.00000
276943146.93602,150727997.27025,-144116935.24750,   0.00064,   0.00017,  -0.00204,346384790.33574,   0.00036,275036569.31978,  -0.00032,   0.00002,  -0.00016,-128651778.98404,   0.00000
281740855.90164,153631723.62399,-144196801.98414,   0.00066,   0.00017,  -0.00204,349391522.77604,   0.00036,275036569.31978,  -0.00032,   0.00002,  -0.00016,-125645046.54374,   0.00000
286558531.55141,156544007.12808,-144276668.72079,   0.00068,   0.00018,  -0.00204,352434488.63345,   0.00036,275036569.31978,  -0.00032,   0.00002,  -0.00016,-122602080.68633,   0.00000
291376207.20118,159456290.63218,-144356535.45743,   0.00069,   0.00018,  -0.00204,355501141.42456,   0.00036,275036569.31978,  -0.00032,   0.00002,  -0.00016,-119535427.89522,   0.00000
296182473.31715,162379983.67008,-144436402.19408,   0.00071,   0.00019,  -0.00204,358584486.91022,   0.00036,275036569.31978,  -0.00032,   0.00002,  -0.00016,-116452082.40956,   0.00000
301008706.11728,165312233.85834,-144521973.69762,   0.00073,   0.00019,  -0.00204,361709492.33735,   0.00036,275036569.31978,  -0.00032,   0.00002,  -0.00016,-113327076.98242,   0.00000
305854905.60157,168253041.19695,-144601840.43427,   0.00074,   0.00019,  -0.00204,364862121.75427,   0.00036,275036569.31978,  -0.00032,   0.00002,  -0.00016,-110174447.56551,   0.00000
310681138.40169,171185291.38521,-144687411.93782,   0.00076,   0.00020,  -0.00204,368030534.14061,   0.00036,275036569.31978,  -0.00032,   0.00002,  -0.00016,-107006035.17917,   0.00000
315515928.35218,174137508.25763,-144772983.44137,   0.00077,   0.00020,  -0.00204,371225895.44752,   0.00036,275036569.31978,  -0.00032,   0.00002,  -0.00016,-103810673.87226,   0.00000
320370684.98682,177098282.28040,-144864259.71182,   0.00079,   0.00021,  -0.00205,374461000.11482,   0.00036,275036569.31978,  -0.00032,   0.00002,  -0.00016,-100575569.20496,   0.00000
325205474.93730,180050499.15282,-144949831.21537,   0.00081,   0.00021,  -0.00205,377696618.72034,   0.00036,275036569.31978,  -0.00032,   0.00002,  -0.00016,-97339950.59944,   0.00000
330068788.72230,183031239.85976,-145041107.48582,   0.00082,   0.00021,  -0.00205,380977307.71858,   0.00036,275036569.31978,  -0.00032,   0.00002,  -0.00016,-94059261.60120,   0.00000
334932102.50730,186011980.56669,-145132383.75627,   0.00084,   0.00022,  -0.00205,384277000.23015,   0.00036,275036569.31978,  -0.00032,   0.00002,  -0.00016,-90759569.08962,   0.00000
339795416.29230,188992721.27362,-145223660.02672,   0.00086,   0.00022,  -0.00205,387595210.91075,   0.00036,275036569.31978,  -0.00032,   0.00002,  -0.00016,-87441358.40903,   0.00000
344667287.22765,191993428.66472,-145320641.06408,   0.00087,   0.00023,  -0.00205,390944276.68112,   0.00036,275036569.31978,  -0.00032,   0.00002,  -0.00016,-84092292.63866,   0.00000
349539158.16301,194994136.05582,-145411917.33453,   0.00089,   0.00023,  -0.00205,394304612.10908,   0.00036,275036569.31978,  -0.00032,   0.00002,  -0.00016,-80731957.21070,   0.00000
354411029.09836,197994843.44691,-145508898.37188,   0.00090,   0.00023,  -0.00205,397688443.22174,   0.00036,275036569.31978,  -0.00032,   0.00002,  -0.00016,-77348126.09804,   0.00000
359302866.71787,201004107.98836,-145611584.17614,   0.00092,   0.00024,  -0.00206,401108525.93338,   0.00036,275036569.31978,  -0.00032,   0.00002,  -0.00016,-73928043.38640,   0.00000
364183294.80358,204024782.06362,-145708565.21350,   0.00094,   0.00024,  -0.00206,404531982.03148,   0.00036,275036569.31978,  -0.00032,   0.00002,  -0.00016,-70504587.28830,   0.00000
369063722.88929,207045456.13888,-145811251.01775,   0.00095,   0.00025,  -0.00206,407977509.65074,   0.00036,275036569.31978,  -0.00032,   0.00002,  -0.00016,-67059059.66904,   0.00000
373964117.65916,210074687.36449,-145913936.82201,   0.00097,   0.00025,  -0.00206,411452027.99572,   0.00036,275036569.31978,  -0.00032,   0.00002,  -0.00016,-63584541.32406,   0.00000
378873069.57939,213123885.27426,-146022327.39317,   0.00099,   0.00026,  -0.00206,414954519.19977,   0.00036,275036569.31978,  -0.00032,   0.00002,  -0.00016,-60082050.12001,   0.00000
383762054.81545,216164526.03368,-146125013.19743,   0.00100,   0.00026,  -0.00206,418452186.98018,   0.00036,275036569.31978,  -0.00032,   0.00002,  -0.00016,-56584382.33960,   0.00000
388671006.73567,219213723.94346,-146233403.76859,   0.00102,   0.00026,  -0.00206,421983903.24744,   0.00036,275036569.31978,  -0.00032,   0.00002,  -0.00016,-53052666.07234,   0.00000
393568549.12209,222274331.38704,-146347499.10666,   0.00104,   0.00027,  -0.00206,425528690.71881,   0.00036,275036569.31978,  -0.00032,   0.00002,  -0.00016,-49507878.60097,   0.00000
398486058.19267,225343495.98097,-146455889.67782,   0.00105,   0.00027,  -0.00207,429095060.75695,   0.00036,275036569.31978,  -0.00032,   0.00002,  -0.00016,-45941508.56283,   0.00000
403403567.26325,228412660.57490,-146569985.01588,   0.00107,   0.00028,  -0.00207,432680691.76967,   0.00036,275036569.31978,  -0.00032,   0.00002,  -0.00016,-42355877.55011,   0.00000
408321076.33383,231481825.16884,-146684080.35395,   0.00108,   0.00028,  -0.00207,436279368.11761,   0.00036,275036569.31978,  -0.00032,   0.00002,  -0.00016,-38757201.20217,   0.00000
413227175.87060,234562399.29658,-146803880.45891,   0.00110,   0.00029,  -0.00207,439889529.50529,   0.00036,275036569.31978,  -0.00032,   0.00002,  -0.00016,-35147039.81448,   0.00000
418153242.09154,237651530.57468,-146923680.56388,   0.00112,   0.00029,  -0.00207,443526019.06725,   0.00036,275036569.31978,  -0.00032,   0.00002,  -0.00016,-31510550.25253,   0.00000
423087865.46283,240760628.53693,-147043480.66885,   0.00113,   0.00030,  -0.00207,447181705.08401,   0.00036,275036569.31978,  -0.00032,   0.00002,  -0.00016,-27854864.23577,   0.00000
428013931.68376,243849759.81503,-147168985.54072,   0.00115,   0.00030,  -0.00208,450847721.02554,   0.00036,275036569.31978,  -0.00032,   0.00002,  -0.00016,-24188848.29424,   0.00000
432928588.37089,246950300.62693,-147288785.64569,   0.00117,   0.00030,  -0.00208,454512626.54771,   0.00036,275036569.31978,  -0.00032,   0.00002,  -0.00016,-20523942.77206,   0.00000
437871768.89253,250079365.27335,-147419995.28446,   0.00118,   0.00031,  -0.00208,458221175.76760,   0.00036,275036569.31978,  -0.00032,   0.00002,  -0.00016,-16815393.55217,   0.00000
442806392.26382,253188463.23561,-147545500.15633,   0.00120,   0.00031,  -0.00208,461927973.63472,   0.00036,275036569.31978,  -0.00032,   0.00002,  -0.00016,-13108595.68506,   0.00000
447729606.10130,256308970.73167,-147676709.79511,   0.00122,   0.00032,  -0.00208,465643861.76450,   0.00036,275036569.31978,  -0.00032,   0.00002,  -0.00016,-9392707.55527,   0.00000
452672786.62295,259438035.37809,-147813624.20079,   0.00123,   0.00032,  -0.00208,469389827.34754,   0.00036,275036569.31978,  -0.00032,   0.00002,  -0.00016,-5646741.97223,   0.00000
457604557.61078,262578509.55832,-147944833.83956,   0.00125,   0.00033,  -0.00209,473133494.58999,   0.00036,275036569.31978,  -0.00032,   0.00002,  -0.00016,-1903074.72978,   0.00000
460103575.38217,264167746.66638,-148013931.10513,   0.00126,   0.00033,  -0.00209,475036572.40256,   0.00036,275036569.31978,  -0.00032,   0.00002,  -0.00016,  -4.11438,   0.00000
460821247.72640,264842297.17278,-147442408.53738,   0.00126,   0.00033,  -0.00209,475047890.63830,   0.00037,275047895.20139,  -0.00032,   0.00003,  -0.00017,  -4.56309,   1.00000
462238863.22346,266186314.88428,-146303203.66843,   0.00128,   0.00034,  -0.00209,475070672.13098,   0.00039,275070676.87711,  -0.00030,   0.00003,  -0.00019,  -4.74613,   1.00000
463639912.71059,267515804.04001,-145164486.63235,   0.00130,   0.00034,  -0.00209,475093521.92315,   0.00041,275093527.26451,  -0.00029,   0.00003,  -0.00020,  -5.34136,   1.00000
465013391.79560,268843882.62523,-144033593.10002,   0.00131,   0.00035,  -0.00209,475116311.94383,   0.00043,275116315.84033,  -0.00028,   0.00003,  -0.00022,  -3.89650,   1.00000
466359588.92751,270153428.03778,-142912183.21557,   0.00133,   0.00035,  -0.00209,475139111.78987,   0.00046,275139115.08146,  -0.00027,   0.00003,  -0.00024,  -3.29159,   1.00000
467685088.58221,271463241.12650,-141793904.54359,   0.00135,   0.00036,  -0.00210,475161927.65114,   0.00048,275161937.35470,  -0.00025,   0.00003,  -0.00025,  -9.70356,   1.00000
468993338.30393,272742381.75324,-140679035.31544,   0.00136,   0.00036,  -0.00210,475184775.63399,   0.00050,275184778.79984,  -0.00024,   0.00003,  -0.00027,  -3.16585,   1.00000
470264539.64236,274016831.37996,-139581040.19162,   0.00138,   0.00036,  -0.00210,475207494.05320,   0.00052,275207498.21136,  -0.00023,   0.00004,  -0.00029,  -4.15815,   1.00000
471521726.84944,275293035.15192,-138481658.08499,   0.00139,   0.00037,  -0.00210,475230318.52743,   0.00054,275230324.35217,  -0.00021,   0.00004,  -0.00030,  -5.82474,   1.00000
472751952.08402,276535144.97317,-137394747.92621,   0.00141,   0.00037,  -0.00210,475253106.53566,   0.00056,275253109.19208,  -0.00020,   0.00004,  -0.00032,  -2.65642,   1.00000
473962661.79350,277777920.35357,-136311371.00311,   0.00143,   0.00038,  -0.00211,475275903.96140,   0.00058,275275912.32921,  -0.00019,   0.00004,  -0.00033,  -8.36781,   1.00000
475142665.57542,279001865.87745,-135242845.41445,   0.00144,   0.00038,  -0.00211,475298627.46181,   0.00060,275298630.33084,  -0.00017,   0.00004,  -0.00035,  -2.86904,   1.00000
476309296.61814,280227633.51874,-134173311.68131,   0.00146,   0.00039,  -0.00211,475321447.36030,   0.00062,275321451.17039,  -0.00016,   0.00004,  -0.00037,  -3.81009,   1.00000
477450554.38481,281437251.97545,-133114579.69053,   0.00148,   0.00039,  -0.00211,475344149.72754,   0.00064,275344156.73442,  -0.00015,   0.00004,  -0.00038,  -7.00688,   1.00000
478567768.55604,282629494.75682,-132066234.05966,   0.00149,   0.00040,  -0.00212,475366852.34607,   0.00067,275366860.20175,  -0.00013,   0.00005,  -0.00040,  -7.85568,   1.00000
479661335.77582,283804561.56737,-131028344.42739,   0.00151,   0.00040,  -0.00212,475389558.39834,   0.00069,275389560.36016,  -0.00012,   0.00005,  -0.00041,  -1.96182,   1.00000
480736938.71764,284980755.01131,-129994320.83150,   0.00153,   0.00041,  -0.00212,475412273.25572,   0.00071,275412274.31287,  -0.00011,   0.00005,  -0.00043,  -1.05715,   1.00000
481793974.90325,286142316.25937,-128966634.62405,   0.00154,   0.00041,  -0.00212,475434952.44617,   0.00073,275434956.14270,  -0.00009,   0.00005,  -0.00045,  -3.69653,   1.00000
482823113.73088,287286327.64413,-127954103.01082,   0.00156,   0.00042,  -0.00212,475457538.99848,   0.00075,275457546.38207,  -0.00008,   0.00005,  -0.00046,  -7.38359,   1.00000
483835078.24201,288431719.83672,-126945539.51774,   0.00157,   0.00042,  -0.00213,475480142.82522,   0.00077,275480148.81105,  -0.00007,   0.00006,  -0.00048,  -5.98584,   1.00000
484829961.65170,289561045.86305,-125943258.02809,   0.00159,   0.00043,  -0.00213,475502821.19360,   0.00079,275502828.57507,  -0.00005,   0.00006,  -0.00049,  -7.38148,   1.00000
485802521.97012,290675708.90892,-124951888.72504,   0.00161,   0.00043,  -0.00213,475525382.21076,   0.00081,275525388.66887,  -0.00004,   0.00006,  -0.00051,  -6.45811,   1.00000
486753667.44014,291791456.66034,-123969013.46777,   0.00162,   0.00044,  -0.00213,475547867.40115,   0.00083,275547874.56213,  -0.00002,   0.00006,  -0.00052,  -7.16098,   1.00000
487684167.87526,292889017.37593,-122996977.83536,   0.00164,   0.00045,  -0.00214,475570454.34587,   0.00085,275570460.27822,  -0.00001,   0.00006,  -0.00054,  -5.93235,   1.00000
488597881.34177,293974822.27905,-122031407.13615,   0.00165,   0.00045,  -0.00214,475592896.74593,   0.00087,275592900.55435,   0.00000,   0.00007,  -0.00055,  -3.80842,   1.00000
489496119.66990,295060397.90450,-121070074.11291,   0.00167,   0.00046,  -0.00214,475615452.10187,   0.00089,275615459.53256,   0.00002,   0.00007,  -0.00057,  -7.43070,   1.00000
490369229.12401,296114427.22491,-120126390.93456,   0.00169,   0.00046,  -0.00214,475637867.36184,   0.00091,275637875.96312,   0.00003,   0.00007,  -0.00058,  -8.60128,   1.00000
491222746.93217,297185637.93281,-119188833.83131,   0.00170,   0.00047,  -0.00215,475660256.28928,   0.00094,275660262.58491,   0.00005,   0.00007,  -0.00060,  -6.29564,   1.00000
492061134.49834,298226086.34989,-118260318.23370,   0.00172,   0.00047,  -0.00215,475682668.26031,   0.00096,275682674.28901,   0.00006,   0.00007,  -0.00061,  -6.02870,   1.00000
492880237.05266,299268593.18567,-117340258.21522,   0.00173,   0.00048,  -0.00215,475705005.63552,   0.00098,275705010.11519,   0.00008,   0.00008,  -0.00063,  -4.47966,   1.00000
493680474.53701,300295774.92564,-116431217.47129,   0.00175,   0.00048,  -0.00216,475727325.17280,   0.00100,275727331.49414,   0.00009,   0.00008,  -0.00064,  -6.32133,   1.00000
494466372.92885,301310118.22534,-115528684.95231,   0.00177,   0.00049,  -0.00216,475749609.72887,   0.00102,275749614.86064,   0.00010,   0.00008,  -0.00066,  -5.13177,   1.00000
495229690.01214,302324621.49357,-114639076.24977,   0.00178,   0.00049,  -0.00216,475771843.90803,   0.00104,275771844.98215,   0.00012,   0.00008,  -0.00067,  -1.07411,   1.00000
495983464.44538,303326395.03898,-113751799.55684,   0.00180,   0.00050,  -0.00216,475794113.42374,   0.00106,275794120.26703,   0.00013,   0.00009,  -0.00069,  -6.84330,   1.00000
496715326.78940,304313477.73702,-112879731.93048,   0.00181,   0.00050,  -0.00217,475816289.86557,   0.00108,275816295.77625,   0.00015,   0.00009,  -0.00070,  -5.91068,   1.00000
497425585.23555,305301157.07434,-112020527.88237,   0.00183,   0.00051,  -0.00217,475838416.51154,   0.00110,275838417.34230,   0.00016,   0.00009,  -0.00071,  -0.83077,   1.00000
498127027.13904,306276340.51212,-111163658.35542,   0.00185,   0.00051,  -0.00217,475860573.86427,   0.00112,275860583.27040,   0.00018,   0.00009,  -0.00073,  -9.40613,   1.00000
498811676.85857,307239610.21132,-110317280.32474,   0.00186,   0.00052,  -0.00218,475882620.92781,   0.00114,275882627.24622,   0.00019,   0.00009,  -0.00074,  -6.31840,   1.00000
499479537.89509,308203541.70834,-109479692.02533,   0.00188,   0.00053,  -0.00218,475904694.45597,   0.00116,275904699.62046,   0.00021,   0.00010,  -0.00076,  -5.16449,   1.00000
500127249.30721,309153603.64152,-108657127.72511,   0.00189,   0.00053,  -0.00218,475926663.42400,   0.00118,275926671.46688,   0.00022,   0.00010,  -0.00077,  -8.04288,   1.00000
500767023.90358,310091502.97039,-107836904.66841,   0.00191,   0.00054,  -0.00219,475948681.46556,   0.00120,275948686.77047,   0.00024,   0.00010,  -0.00078,  -5.30491,   1.00000
501387281.36028,311015958.28826,-107031653.35522,   0.00193,   0.00054,  -0.00219,475970598.77041,   0.00122,275970601.26971,   0.00025,   0.00010,  -0.00080,  -2.49930,   1.00000
501991876.22934,311944182.06902,-106234378.66091,   0.00194,   0.00055,  -0.00219,475992437.88082,   0.00124,275992440.66206,   0.00027,   0.00011,  -0.00081,  -2.78125,   1.00000
502585220.38615,312858227.84793,-105444133.67502,   0.00196,   0.00055,  -0.00220,476014337.04207,   0.00126,276014343.45281,   0.00028,   0.00011,  -0.00083,  -6.41074,   1.00000
503159448.59942,313774002.95491,-104666530.94097,   0.00197,   0.00056,  -0.00220,476036185.00198,   0.00128,276036191.30510,   0.00030,   0.00011,  -0.00084,  -6.30311,   1.00000
503719975.19002,314664450.55690,-103901121.40130,   0.00199,   0.00056,  -0.00220,476057863.82262,   0.00130,276057872.44694,   0.00031,   0.00012,  -0.00085,  -8.62433,   1.00000
504269537.02418,315558568.19517,-103139619.27133,   0.00200,   0.00057,  -0.00221,476079558.51358,   0.00132,276079561.07197,   0.00033,   0.00012,  -0.00087,  -2.55839,   1.00000
504800605.48812,316451944.07332,-102391550.09487,   0.00202,   0.00058,  -0.00221,476101291.56025,   0.00134,276101296.09597,   0.00034,   0.00012,  -0.00088,  -4.53572,   1.00000
505322525.06357,317319819.16582,-101651670.56432,   0.00204,   0.00058,  -0.00221,476122942.19457,   0.00136,276122946.26985,   0.00036,   0.00012,  -0.00089,  -4.07529,   1.00000
505830441.63734,318192308.77507,-100919397.88893,   0.00205,   0.00059,  -0.00222,476144515.44476,   0.00138,276144522.94132,   0.00037,   0.00013,  -0.00090,  -7.49656,   1.00000
506324330.92796,319066459.55653,-100195726.57985,   0.00207,   0.00059,  -0.00222,476166119.04005,   0.00140,276166126.29684,   0.00039,   0.00013,  -0.00092,  -7.25679,   1.00000
506802638.62117,319914219.91532,-99488624.65528,   0.00208,   0.00060,  -0.00222,476187579.78268,   0.00142,276187583.04303,   0.00040,   0.00013,  -0.00093,  -3.26035,   1.00000
507274575.63621,320765182.23563,-98781503.55610,   0.00210,   0.00061,  -0.00223,476209126.18147,   0.00144,276209128.80189,   0.00042,   0.00014,  -0.00094,  -2.62043,   1.00000
507727168.00133,321605494.28291,-98092401.32241,   0.00211,   0.00061,  -0.00223,476230492.35141,   0.00146,276230493.71907,   0.00043,   0.00014,  -0.00096,  -1.36766,   1.00000
508173667.43709,322448999.04431,-97403234.50342,   0.00213,   0.00062,  -0.00224,476251942.91526,   0.00148,276251947.76475,   0.00045,   0.00014,  -0.00097,  -4.84949,   1.00000
508597789.51791,323280068.45881,-96736767.81891,   0.00214,   0.00062,  -0.00224,476273233.23491,   0.00150,276273239.59472,   0.00046,   0.00014,  -0.00098,  -6.35981,   1.00000
509020833.13632,324102184.36575,-96067387.66788,   0.00216,   0.00063,  -0.00224,476294551.18685,   0.00152,276294556.62511,   0.00048,   0.00015,  -0.00099,  -5.43827,   1.00000
509425438.53118,324911281.53659,-95416951.87693,   0.00217,   0.00064,  -0.00225,476315788.45172,   0.00154,276315791.89490,   0.00049,   0.00015,  -0.00101,  -3.44318,   1.00000
509821282.69153,325724853.55123,-94769915.35389,   0.00219,   0.00064,  -0.00225,476337032.39697,   0.00156,276337036.70617,   0.00051,   0.00015,  -0.00102,  -4.30920,   1.00000
510206355.30293,326529786.49558,-94131894.67361,   0.00221,   0.00065,  -0.00226,476358158.30016,   0.00158,276358165.12408,   0.00052,   0.00016,  -0.00103,  -6.82392,   1.00000
510573868.16494,327322164.24809,-93512597.21599,   0.00222,   0.00065,  -0.00226,476379206.13618,   0.00160,276379212.15960,   0.00054,   0.00016,  -0.00104,  -6.02342,   1.00000
510936347.63528,328117999.67641,-92892994.91875,   0.00224,   0.00066,  -0.00226,476400342.37330,   0.00162,276400349.12847,   0.00055,   0.00016,  -0.00106,  -6.75517,   1.00000
511288714.07083,328905573.64061,-92282177.50484,   0.00225,   0.00067,  -0.00227,476421366.61335,   0.00164,276421370.77216,   0.00057,   0.00017,  -0.00107,  -4.15881,   1.00000
511627724.95115,329683028.76000,-91684976.32536,   0.00227,   0.00067,  -0.00227,476442289.35194,   0.00166,276442294.49772,   0.00058,   0.00017,  -0.00108,  -5.14578,   1.00000
511955460.61110,330463263.35420,-91095794.64949,   0.00228,   0.00068,  -0.00228,476463242.31692,   0.00168,276463246.08779,   0.00060,   0.00017,  -0.00109,  -3.77087,   1.00000
512271717.41674,331219635.02859,-90522081.48613,   0.00230,   0.00068,  -0.00228,476484049.60195,   0.00170,276484053.96164,   0.00061,   0.00018,  -0.00110,  -4.35969,   1.00000
512579107.91009,331995000.69699,-89949273.40060,   0.00231,   0.00069,  -0.00229,476504917.52102,   0.00172,276504920.21533,   0.00063,   0.00018,  -0.00112,  -2.69431,   1.00000
512878536.31772,332745321.49421,-89388393.75115,   0.00233,   0.00070,  -0.00229,476525721.60315,   0.00174,276525721.80316,   0.00064,   0.00018,  -0.00113,  -0.20001,   1.00000
513167662.47997,333502155.26213,-88833750.12789,   0.00234,   0.00070,  -0.00229,476546452.52808,   0.00176,276546457.29995,   0.00066,   0.00019,  -0.00114,  -4.77187,   1.00000
513447777.98685,334248136.61425,-88288902.40500,   0.00236,   0.00071,  -0.00230,476567167.74504,   0.00178,276567174.95151,   0.00067,   0.00019,  -0.00115,  -7.20646,   1.00000
513716095.97455,334984935.39015,-87757129.09332,   0.00237,   0.00071,  -0.00230,476587790.55161,   0.00180,276587796.70566,   0.00069,   0.00019,  -0.00116,  -6.15406,   1.00000
513971306.89127,335726525.54851,-87236321.87726,   0.00239,   0.00072,  -0.00231,476608362.00614,   0.00182,276608369.58672,   0.00070,   0.00020,  -0.00117,  -7.58057,   1.00000
514221442.81866,336459529.43867,-86720059.83615,   0.00240,   0.00073,  -0.00231,476628900.57204,   0.00184,276628909.85353,   0.00072,   0.00020,  -0.00119,  -9.28149,   1.00000
514463335.83780,337182089.74677,-86213329.18563,   0.00242,   0.00073,  -0.00232,476649428.06981,   0.00186,276649433.12226,   0.00073,   0.00020,  -0.00120,  -5.05244,   1.00000
514692915.13222,337913274.68485,-85715616.23456,   0.00243,   0.00074,  -0.00232,476669812.64344,   0.00188,276669815.43417,   0.00075,   0.00021,  -0.00121,  -2.79072,   1.00000
514914267.18540,338630489.81579,-85229057.48146,   0.00245,   0.00075,  -0.00233,476690274.06835,   0.00189,276690274.12551,   0.00076,   0.00021,  -0.00122,  -0.05716,   1.00000
515131466.26983,339343106.57909,-84744992.39124,   0.00246,   0.00075,  -0.00233,476710604.73791,   0.00191,276710608.85555,   0.00078,   0.00021,  -0.00123,  -4.11764,   1.00000
515333224.00200,340059012.60939,-84276534.47108,   0.00247,   0.00076,  -0.00234,476730908.67448,   0.00193,276730911.71296,   0.00079,   0.00022,  -0.00124,  -3.03848,   1.00000
515532586.85268,340753193.30225,-83814147.11415,   0.00249,   0.00077,  -0.00234,476751135.70991,   0.00195,276751137.34732,   0.00081,   0.00022,  -0.00125,  -1.63741,   1.00000
515720054.69651,341452879.76188,-83362142.18516,   0.00250,   0.00077,  -0.00235,476771314.50610,   0.00197,276771317.07604,   0.00082,   0.00022,  -0.00126,  -2.56994,   1.00000
515898617.02905,342156215.98198,-82917254.37514,   0.00252,   0.00078,  -0.00235,476791520.24122,   0.00199,276791528.23733,   0.00084,   0.00023,  -0.00127,  -7.99611,   1.00000
516070563.96115,342853426.62939,-82479464.06274,   0.00253,   0.00079,  -0.00236,476811623.05284,   0.00201,276811632.83189,   0.00085,   0.00023,  -0.00128,  -9.77905,   1.00000
516232902.64341,343542735.73927,-82053756.07457,   0.00255,   0.00079,  -0.00236,476831641.20679,   0.00203,276831645.88560,   0.00087,   0.00024,  -0.00130,  -4.67881,   1.00000
516388631.57246,344222399.18258,-81636885.98806,   0.00256,   0.00080,  -0.00237,476851642.24032,   0.00205,276851644.56939,   0.00088,   0.00024,  -0.00131,  -2.32907,   1.00000
516538199.70912,344896376.11989,-81226820.79201,   0.00258,   0.00080,  -0.00237,476871532.02947,   0.00206,276871538.41264,   0.00090,   0.00024,  -0.00132,  -6.38317,   1.00000
516679463.12380,345574295.84265,-80823567.33815,   0.00259,   0.00081,  -0.00238,476891462.52315,   0.00208,276891465.12377,   0.00091,   0.00025,  -0.00133,  -2.60062,   1.00000
516811721.28891,346244734.86229,-80432066.97689,   0.00260,   0.00082,  -0.00238,476911298.31929,   0.00210,276911301.88358,   0.00093,   0.00025,  -0.00134,  -3.56429,   1.00000
516938955.80071,346921018.06125,-80042141.97267,   0.00262,   0.00082,  -0.00239,476931149.59059,   0.00212,276931158.12624,   0.00094,   0.00025,  -0.00135,  -8.53565,   1.00000
517051638.56255,347590090.65914,-79671997.07938,   0.00263,   0.00083,  -0.00239,476950860.67338,   0.00214,276950862.93039,   0.00096,   0.00026,  -0.00136,  -2.25701,   1.00000
517164367.04023,348249720.68509,-79302083.56115,   0.00265,   0.00084,  -0.00240,476970612.82089,   0.00216,276970617.23513,   0.00097,   0.00026,  -0.00137,  -4.41424,   1.00000
517268920.75310,348906241.52785,-78941517.95818,   0.00266,   0.00084,  -0.00241,476990184.93849,   0.00218,276990193.67089,   0.00099,   0.00027,  -0.00138,  -8.73240,   1.00000
517365798.29168,349566875.90529,-78587379.01367,   0.00268,   0.00085,  -0.00241,477009803.44623,   0.00219,277009804.81588,   0.00100,   0.00027,  -0.00139,  -1.36965,   1.00000
517454209.90414,350216508.63351,-78246619.59803,   0.00269,   0.00086,  -0.00242,477029407.82742,   0.00221,277029417.55204,   0.00102,   0.00027,  -0.00140,  -9.72462,   1.00000
517537854.58028,350865233.73348,-77909748.32492,   0.00270,   0.00086,  -0.00242,477048833.45977,   0.00223,277048840.80202,   0.00103,   0.00028,  -0.00141,  -7.34224,   1.00000
517613325.96886,351503182.16865,-77586109.43950,   0.00272,   0.00087,  -0.00243,477068259.49559,   0.00225,277068266.22537,   0.00105,   0.00028,  -0.00142,  -6.72978,   1.00000
517684489.37600,352147269.74963,-77263470.94799,   0.00273,   0.00088,  -0.00243,477087709.37419,   0.00227,277087714.41921,   0.00106,   0.00029,  -0.00143,  -5.04502,   1.00000
517745209.17554,352786974.59201,-76954741.70509,   0.00274,   0.00089,  -0.00244,477106992.11409,   0.00229,277107001.60137,   0.00108,   0.00029,  -0.00144,  -9.48729,   1.00000
517804054.61878,353419789.73434,-76648732.59071,   0.00276,   0.00089,  -0.00245,477126263.44799,   0.00230,277126265.28339,   0.00109,   0.00029,  -0.00145,  -1.83539,   1.00000
517852892.31356,354055054.45881,-76353858.56175,   0.00277,   0.00090,  -0.00245,477145576.13733,   0.00232,277145579.07485,   0.00111,   0.00030,  -0.00146,  -2.93752,   1.00000
517894585.47607,354688088.91784,-76067437.57630,   0.00279,   0.00091,  -0.00246,477164716.29877,   0.00234,277164720.44762,   0.00112,   0.00030,  -0.00147,  -4.14884,   1.00000
517934656.51058,355314341.20493,-75783527.74192,   0.00280,   0.00091,  -0.00246,477183829.82494,   0.00236,277183839.47275,   0.00114,   0.00031,  -0.00148,  -9.64780,   1.00000
517962287.16804,355945462.67914,-75513483.90621,   0.00281,   0.00092,  -0.00247,477202929.71523,   0.00238,277202934.77974,   0.00115,   0.00031,  -0.00149,  -5.06451,   1.00000
517990876.57840,356556979.89035,-75247648.36419,   0.00283,   0.00093,  -0.00248,477221951.83841,   0.00239,277221961.24213,   0.00116,   0.00031,  -0.00150,  -9.40372,   1.00000
518010098.27774,357175399.14023,-74990352.59546,   0.00284,   0.00093,  -0.00248,477240948.58347,   0.00241,277240952.03919,   0.00118,   0.00032,  -0.00151,  -3.45572,   1.00000
518020011.53685,357800635.75906,-74741505.90286,   0.00285,   0.00094,  -0.00249,477259903.98556,   0.00243,277259907.70609,   0.00119,   0.00032,  -0.00152,  -3.72053,   1.00000
518028490.29091,358408914.73764,-74499528.70734,   0.00287,   0.00095,  -0.00250,477278720.70835,   0.00245,277278721.33713,   0.00121,   0.00033,  -0.00153,  -0.62878,   1.00000
518030506.65132,359021691.87113,-74262987.02213,   0.00288,   0.00095,  -0.00250,477297565.29964,   0.00247,277297574.90073,   0.00122,   0.00033,  -0.00154,  -9.60109,   1.00000
518025928.57766,359628669.57414,-74036525.40207,   0.00289,   0.00096,  -0.00251,477316340.00938,   0.00248,277316347.15287,   0.00124,   0.00034,  -0.00155,  -7.14348,   1.00000
518012318.11472,360242637.63788,-73818207.36868,   0.00291,   0.00097,  -0.00252,477335080.52698,   0.00250,277335086.14202,   0.00125,   0.00034,  -0.00156,  -5.61503,   1.00000
517997670.12936,360840031.56248,-73606429.60209,   0.00292,   0.00098,  -0.00252,477353682.75000,   0.00252,277353684.93034,   0.00127,   0.00034,  -0.00157,  -2.18033,   1.00000
517976825.18094,361441997.96732,-73399821.65788,   0.00293,   0.00098,  -0.00253,477372320.29432,   0.00254,277372325.10035,   0.00128,   0.00035,  -0.00157,  -4.80603,   1.00000
517947110.37850,362051025.10668,-73201159.63432,   0.00294,   0.00099,  -0.00254,477390930.98014,   0.00255,277390933.24767,   0.00129,   0.00035,  -0.00158,  -2.26753,   1.00000
517916600.40091,362643701.76616,-73008824.36777,   0.00296,   0.00100,  -0.00254,477409396.15037,   0.00257,277409402.42850,   0.00131,   0.00036,  -0.00159,  -6.27814,   1.00000
517877323.45246,363243573.79046,-72824288.03847,   0.00297,   0.00100,  -0.00255,477427834.41623,   0.00259,277427840.61526,   0.00132,   0.00036,  -0.00160,  -6.19903,   1.00000
517834720.47969,363835396.06654,-72646501.36404,   0.00298,   0.00101,  -0.00256,477446264.01696,   0.00261,277446273.87374,   0.00134,   0.00037,  -0.00161,  -9.85678,   1.00000
517786130.76071,364421926.06826,-72478197.71975,   0.00300,   0.00102,  -0.00256,477464622.54109,   0.00262,277464629.30153,   0.00135,   0.00037,  -0.00162,  -6.76044,   1.00000
517731705.98113,365017534.17577,-72312258.62060,   0.00301,   0.00103,  -0.00257,477482939.16378,   0.00264,277482943.03297,   0.00136,   0.00037,  -0.00163,  -3.86919,   1.00000
517671395.60352,365607862.94867,-72155673.10501,   0.00302,   0.00103,  -0.00258,477501177.07021,   0.00266,277501179.76252,   0.00138,   0.00038,  -0.00164,  -2.69231,   1.00000
517605277.85065,366193010.23668,-72008348.59991,   0.00303,   0.00104,  -0.00258,477519336.15173,   0.00268,277519340.05741,   0.00139,   0.00038,  -0.00165,  -3.90568,   1.00000
517538954.53520,366772151.94798,-71862229.56684,   0.00305,   0.00105,  -0.00259,477537480.15115,   0.00269,277537485.13789,   0.00141,   0.00039,  -0.00166,  -4.98675,   1.00000
517458628.78723,367359582.90064,-71731406.81179,   0.00306,   0.00106,  -0.00260,477555540.00061,   0.00271,277555541.70975,   0.00142,   0.00039,  -0.00167,  -1.70914,   1.00000
517378222.82116,367940993.50804,-71601628.58029,   0.00307,   0.00106,  -0.00261,477573578.07470,   0.00273,277573583.97562,   0.00143,   0.00040,  -0.00167,  -5.90092,   1.00000
517297772.20471,368516459.14123,-71472891.93443,   0.00308,   0.00107,  -0.00261,477591609.32310,   0.00275,277591611.93703,   0.00145,   0.00040,  -0.00168,  -2.61392,   1.00000
517206220.60662,369088028.30096,-71361089.12879,   0.00310,   0.00108,  -0.00262,477609503.88945,   0.00276,277609504.82516,   0.00146,   0.00041,  -0.00169,  -0.93570,   1.00000
517109085.80079,369668847.41238,-71251065.08423,   0.00311,   0.00108,  -0.00263,477627351.03571,   0.00278,277627360.24880,   0.00148,   0.00041,  -0.00170,  -9.21310,   1.00000
517009339.93942,370241939.10121,-71147103.80696,   0.00312,   0.00109,  -0.00264,477645204.77208,   0.00280,277645214.38543,   0.00149,   0.00042,  -0.00171,  -9.61335,   1.00000
516904203.89189,370810246.98018,-71051880.61404,   0.00313,   0.00110,  -0.00264,477662986.81470,   0.00281,277662995.40779,   0.00150,   0.00042,  -0.00172,  -8.59309,   1.00000
516793611.19887,371378562.51165,-70962818.02906,   0.00314,   0.00111,  -0.00265,477680614.48506,   0.00283,277680620.01868,   0.00152,   0.00042,  -0.00173,  -5.53362,   1.00000
516677642.30031,371951444.60549,-70877792.77089,   0.00316,   0.00111,  -0.00266,477698285.81688,   0.00285,277698292.79765,   0.00153,   0.00043,  -0.00174,  -6.98077,   1.00000
516559261.12021,372516697.19755,-70798599.42721,   0.00317,   0.00112,  -0.00267,477715956.52991,   0.00286,277715965.62636,   0.00154,   0.00043,  -0.00175,  -9.09645,   1.00000
516435491.98815,373082105.35549,-70725394.88341,   0.00318,   0.00113,  -0.00267,477733480.65059,   0.00288,277733483.42814,   0.00156,   0.00044,  -0.00175,  -2.77754,   1.00000
516306510.94092,373642940.91129,-70660620.21402,   0.00319,   0.00114,  -0.00268,477750925.81836,   0.00290,277750930.32783,   0.00157,   0.00044,  -0.00176,  -4.50947,   1.00000
516172282.78500,374208328.10668,-70599655.71632,   0.00320,   0.00114,  -0.00269,477768422.50790,   0.00291,277768426.84277,   0.00158,   0.00045,  -0.00177,  -4.33488,   1.00000
516030017.85095,374772151.76250,-70549705.65235,   0.00321,   0.00115,  -0.00270,477785776.05325,   0.00293,277785781.67107,   0.00160,   0.00045,  -0.00178,  -5.61782,   1.00000
515888283.15365,375330313.09381,-70500040.59324,   0.00323,   0.00116,  -0.00271,477803119.44960,   0.00295,277803126.83225,   0.00161,   0.00046,  -0.00179,  -7.38264,   1.00000
515738786.75239,375882223.33976,-70463803.01528,   0.00324,   0.00117,  -0.00271,477820408.48289,   0.00296,277820414.31576,   0.00162,   0.00046,  -0.00180,  -5.83287,   1.00000
515586602.63968,376445378.18595,-70423355.05714,   0.00325,   0.00117,  -0.00272,477837651.06289,   0.00298,277837658.58167,   0.00164,   0.00047,  -0.00181,  -7.51879,   1.00000
515429770.80106,376990384.02895,-70398090.39692,   0.00326,   0.00118,  -0.00273,477854794.30333,   0.00300,277854797.18690,   0.00165,   0.00047,  -0.00181,  -2.88357,   1.00000
515267569.59576,377544868.81289,-70373728.71802,   0.00327,   0.00119,  -0.00274,477871901.62064,   0.00301,277871905.20187,   0.00166,   0.00048,  -0.00182,  -3.58123,   1.00000
515097303.34048,378106868.63294,-70355475.01066,   0.00328,   0.00120,  -0.00275,477888989.41138,   0.00303,277888994.47228,   0.00168,   0.00048,  -0.00183,  -5.06091,   1.00000
514925208.40365,378652695.75336,-70346977.68261,   0.00329,   0.00121,  -0.00275,477905961.23574,   0.00304,277905967.82120,   0.00169,   0.00049,  -0.00184,  -6.58546,   1.00000
514750776.66762,379204856.90129,-70336527.64624,   0.00331,   0.00121,  -0.00276,477922977.40887,   0.00306,277922982.86985,   0.00170,   0.00049,  -0.00185,  -5.46097,   1.00000
514568402.50261,379755902.05167,-70336592.87426,   0.00332,   0.00122,  -0.00277,477939857.12533,   0.00308,277939860.63966,   0.00172,   0.00050,  -0.00186,  -3.51433,   1.00000
514381140.20983,380302741.75354,-70344389.73445,   0.00333,   0.00123,  -0.00278,477956665.77845,   0.00309,277956672.70026,   0.00173,   0.00050,  -0.00186,  -6.92181,   1.00000
514194765.03677,380844151.53271,-70351943.09964,   0.00334,   0.00124,  -0.00279,477973475.02616,   0.00311,277973478.59980,   0.00174,   0.00051,  -0.00187,  -3.57364,   1.00000
513994578.73306,381394441.87565,-70373195.56031,   0.00335,   0.00124,  -0.00280,477990200.46201,   0.00312,277990209.51674,   0.00175,   0.00051,  -0.00188,  -9.05472,   1.00000
513798030.57233,381941129.68135,-70388854.90223,   0.00336,   0.00125,  -0.00280,478006919.63691,   0.00314,278006923.51043,   0.00177,   0.00052,  -0.00189,  -3.87352,   1.00000
513593948.51378,382481826.85549,-70417324.52709,   0.00337,   0.00126,  -0.00281,478023575.69044,   0.00316,278023584.70047,   0.00178,   0.00052,  -0.00190,  -9.01003,   1.00000
513384618.12800,383023586.93941,-70450728.96913,   0.00338,   0.00127,  -0.00282,478040094.55725,   0.00317,278040100.30636,   0.00179,   0.00053,  -0.00191,  -5.74911,   1.00000
513173619.91698,383558099.22140,-70488880.51413,   0.00339,   0.00128,  -0.00283,478056616.16540,   0.00319,278056623.05345,   0.00180,   0.00053,  -0.00191,  -6.88804,   1.00000
512954574.47672,384100189.07174,-70532528.33377,   0.00340,   0.00128,  -0.00284,478073126.56044,   0.00320,278073132.35417,   0.00182,   0.00054,  -0.00192,  -5.79373,   1.00000
512730240.88877,384643401.83430,-70580972.23651,   0.00341,   0.00129,  -0.00285,478089493.02750,   0.00322,278089497.56131,   0.00183,   0.00054,  -0.00193,  -4.53381,   1.00000
512504311.75896,385179335.79192,-70634024.81387,   0.00342,   0.00130,  -0.00286,478105863.05026,   0.00324,278105870.92729,   0.00184,   0.00055,  -0.00194,  -7.87703,   1.00000
512273609.52193,385711343.83012,-70694333.78375,   0.00343,   0.00131,  -0.00287,478122176.77267,   0.00325,278122182.66813,   0.00185,   0.00055,  -0.00195,  -5.89546,   1.00000
512034272.78362,386256080.51708,-70757387.83503,   0.00344,   0.00131,  -0.00288,478138399.15381,   0.00327,278138401.47160,   0.00187,   0.00056,  -0.00196,  -2.31779,   1.00000
511794045.55638,386780213.81162,-70832055.15844,   0.00345,   0.00132,  -0.00288,478154586.51907,   0.00328,278154591.34105,   0.00188,   0.00056,  -0.00196,  -4.82199,   1.00000
511551100.50597,387315753.27608,-70901432.99065,   0.00346,   0.00133,  -0.00289,478170744.53943,   0.00330,278170747.74400,   0.00189,   0.00057,  -0.00197,  -3.20457,   1.00000
511297388.36314,387848814.23705,-70985831.55770,   0.00347,   0.00134,  -0.00290,478186784.73869,   0.00331,278186785.92520,   0.00190,   0.00057,  -0.00198,  -1.18651,   1.00000
511044909.14639,388376594.70487,-71069303.82695,   0.00348,   0.00135,  -0.00291,478202817.60232,   0.00333,278202823.04518,   0.00191,   0.00058,  -0.00199,  -5.44286,   1.00000
510784290.49184,388911849.21809,-71157831.31172,   0.00349,   0.00135,  -0.00292,478218847.16071,   0.00334,278218851.03253,   0.00193,   0.00058,  -0.00200,  -3.87181,   1.00000
510521599.55468,389437282.53410,-71252729.08402,   0.00350,   0.00136,  -0.00293,478234681.34342,   0.00336,278234689.25751,   0.00194,   0.00059,  -0.00200,  -7.91409,   1.00000
510254109.79529,389966807.87494,-71349880.98867,   0.00351,   0.00137,  -0.00294,478250580.71737,   0.00337,278250588.90796,   0.00195,   0.00059,  -0.00201,  -8.19058,   1.00000
509981833.18066,390492526.90377,-71453910.10061,   0.00352,   0.00138,  -0.00295,478266424.53162,   0.00339,278266430.70097,   0.00196,   0.00060,  -0.00202,  -6.16935,   1.00000
509704030.42120,391019839.04593,-71562249.36203,   0.00353,   0.00139,  -0.00296,478282125.75845,   0.00340,278282134.21433,   0.00197,   0.00060,  -0.00203,  -8.45588,   1.00000
509415302.01928,391552564.34222,-71680618.55983,   0.00354,   0.00139,  -0.00297,478297842.33771,   0.00342,278297842.80305,   0.00199,   0.00061,  -0.00204,  -0.46534,   1.00000
509134068.82920,392070848.50362,-71794533.24105,   0.00355,   0.00140,  -0.00298,478313483.95259,   0.00343,278313490.71252,   0.00200,   0.00061,  -0.00204,  -6.75994,   1.00000
508838368.78668,392598014.51805,-71921131.95450,   0.00356,   0.00141,  -0.00299,478329071.79221,   0.00345,278329075.31916,   0.00201,   0.00062,  -0.00205,  -3.52695,   1.00000
508540543.49494,393123385.90424,-72049157.53137,   0.00357,   0.00142,  -0.00300,478344586.98470,   0.00346,278344592.84707,   0.00202,   0.00062,  -0.00206,  -5.86237,   1.00000
508244132.34481,393643554.09430,-72175891.60713,   0.00358,   0.00143,  -0.00301,478360112.39127,   0.00348,278360112.43224,   0.00203,   0.00063,  -0.00207,  -0.04098,   1.00000
507936570.66992,394161502.53918,-72317188.95888,   0.00359,   0.00143,  -0.00302,478375517.21921,   0.00349,278375519.81833,   0.00204,   0.00063,  -0.00208,  -2.59912,   1.00000
507626862.91429,394677785.70834,-72459808.57024,   0.00359,   0.00144,  -0.00303,478390856.76554,   0.00351,278390861.32387,   0.00205,   0.00064,  -0.00208,  -4.55834,   1.00000
507311492.43267,395203375.84476,-72601728.07068,   0.00360,   0.00145,  -0.00304,478406184.09012,   0.00352,278406187.95921,   0.00207,   0.00064,  -0.00209,  -3.86908,   1.00000
506992000.44796,395712296.28337,-72757392.04355,   0.00361,   0.00146,  -0.00305,478421420.44902,   0.00354,278421421.88097,   0.00208,   0.00065,  -0.00210,  -1.43196,   1.00000
506669526.49352,396232567.87643,-72907046.09983,   0.00362,   0.00147,  -0.00306,478436622.22792,   0.00355,278436630.26920,   0.00209,   0.00065,  -0.00211,  -8.04128,   1.00000
506339387.84974,396747128.26590,-73068361.68726,   0.00363,   0.00148,  -0.00307,478451792.61549,   0.00357,278451797.58932,   0.00210,   0.00066,  -0.00212,  -4.97383,   1.00000
506003315.40548,397263606.70447,-73233596.37037,   0.00364,   0.00148,  -0.00308,478466827.73500,   0.00358,278466832.37196,   0.00211,   0.00066,  -0.00212,  -4.63696,   1.00000
505666009.38093,397772898.77005,-73402433.61971,   0.00365,   0.00149,  -0.00309,478481879.97260,   0.00360,278481883.97904,   0.00212,   0.00067,  -0.00213,  -4.00644,   1.00000
505319131.25291,398294967.70201,-73573086.32976,   0.00365,   0.00150,  -0.00310,478496850.29435,   0.00361,278496855.12673,   0.00213,   0.00067,  -0.00214,  -4.83237,   1.00000
504974598.52824,398799020.86104,-73749363.10151,   0.00366,   0.00151,  -0.00311,478511791.30650,   0.00363,278511792.32473,   0.00214,   0.00068,  -0.00215,  -1.01823,   1.00000
504617632.10463,399313803.69986,-73932586.47173,   0.00367,   0.00152,  -0.00312,478526660.06568,   0.00364,278526662.06893,   0.00215,   0.00068,  -0.00216,  -2.00325,   1.00000
504258363.93484,399826997.10983,-74116837.58339,   0.00368,   0.00152,  -0.00313,478541465.95317,   0.00365,278541469.87205,   0.00216,   0.00069,  -0.00216,  -3.91888,   1.00000
503894012.01887,400336543.36941,-74307298.22658,   0.00369,   0.00153,  -0.00314,478556224.51125,   0.00367,278556227.99404,   0.00218,   0.00069,  -0.00217,  -3.48279,   1.00000
503527318.22240,400844565.87246,-74498745.17256,   0.00370,   0.00154,  -0.00315,478570920.55912,   0.00368,278570924.86598,   0.00219,   0.00070,  -0.00218,  -4.30686,   1.00000
503155489.78906,401348987.67726,-74696356.16634,   0.00370,   0.00155,  -0.00316,478585569.37806,   0.00370,278585572.80806,   0.00220,   0.00070,  -0.00219,  -3.43000,   1.00000
502774534.02041,401853430.49741,-74902868.73929,   0.00371,   0.00156,  -0.00317,478600104.09032,   0.00371,278600104.33385,   0.00221,   0.00071,  -0.00219,  -0.24353,   1.00000
502391546.37079,402363348.17539,-75105344.33296,   0.00372,   0.00157,  -0.00318,478614691.96954,   0.00372,278614695.89670,   0.00222,   0.00071,  -0.00220,  -3.92717,   1.00000
502002945.34443,402862700.76978,-75318837.48155,   0.00373,   0.00157,  -0.00319,478629117.67764,   0.00374,278629119.85886,   0.00223,   0.00072,  -0.00221,  -2.18122,   1.00000
501612319.84563,403367523.14178,-75528229.40592,   0.00373,   0.00158,  -0.00320,478643603.76432,   0.00375,278643604.56441,   0.00224,   0.00072,  -0.00222,  -0.80009,   1.00000
501212330.53842,403872344.79212,-75746461.70716,   0.00374,   0.00159,  -0.00321,478657969.09884,   0.00377,278657974.58368,   0.00225,   0.00073,  -0.00223,  -5.48483,   1.00000
500809848.86496,404375703.56454,-75965513.55157,   0.00375,   0.00160,  -0.00322,478672285.71759,   0.00378,278672286.02899,   0.00226,   0.00074,  -0.00223,  -0.31140,   1.00000
500401509.25478,404868663.20803,-76195538.44890,   0.00376,   0.00161,  -0.00323,478686426.62145,   0.00379,278686431.53934,   0.00227,   0.00074,  -0.00224,  -4.91790,   1.00000
499984671.78046,405375232.90069,-76424276.89764,   0.00376,   0.00162,  -0.00324,478700698.75958,   0.00381,278700704.33372,   0.00228,   0.00075,  -0.00225,  -5.57414,   1.00000
499568923.46757,405869937.23146,-76655966.60801,   0.00377,   0.00162,  -0.00325,478714862.19050,   0.00382,278714867.20656,   0.00229,   0.00075,  -0.00226,  -5.01606,   1.00000
499143497.07389,406364728.59105,-76896387.73261,   0.00378,   0.00163,  -0.00326,478728915.91858,   0.00383,278728917.87911,   0.00230,   0.00076,  -0.00226,  -1.96053,   1.00000
498715416.43703,406858136.08701,-77137503.30376,   0.00378,   0.00164,  -0.00327,478742903.83309,   0.00385,278742912.12070,   0.00231,   0.00076,  -0.00227,  -8.28761,   1.00000
498278157.11520,407358243.61746,-77382232.59129,   0.00379,   0.00165,  -0.00329,478756906.31913,   0.00386,278756915.42847,   0.00232,   0.00077,  -0.00228,  -9.10934,   1.00000
497841880.49523,407846658.12885,-77629873.93438,   0.00380,   0.00166,  -0.00330,478770800.34871,   0.00387,278770810.02082,   0.00233,   0.00077,  -0.00229,  -9.67212,   1.00000
497396346.53385,408341742.78028,-77881072.62899,   0.00380,   0.00167,  -0.00331,478784709.30828,   0.00389,278784714.61688,   0.00234,   0.00078,  -0.00229,  -5.30861,   1.00000
496943633.37560,408839097.73687,-78135771.85412,   0.00381,   0.00167,  -0.00332,478798488.32802,   0.00390,278798496.86010,   0.00235,   0.00078,  -0.00230,  -8.53208,   1.00000
496489715.96757,409329091.10889,-78393363.83839,   0.00382,   0.00168,  -0.00333,478812298.49427,   0.00392,278812304.27008,   0.00236,   0.00079,  -0.00231,  -5.77580,   1.00000
496029319.88908,409808994.26910,-78661852.97023,   0.00382,   0.00169,  -0.00334,478825941.86184,   0.00393,278825949.61532,   0.00237,   0.00079,  -0.00232,  -7.75348,   1.00000
495562364.69637,410297748.02604,-78928605.13005,   0.00383,   0.00170,  -0.00335,478839588.19279,   0.00394,278839594.55306,   0.00238,   0.00080,  -0.00233,  -6.36027,   1.00000
495092517.66912,410785146.38636,-79195927.17447,   0.00384,   0.00171,  -0.00336,478853181.92655,   0.00395,278853185.89088,   0.00238,   0.00080,  -0.00233,  -3.96433,   1.00000
494612262.59132,411272594.13172,-79471836.06213,   0.00384,   0.00172,  -0.00337,478866669.17369,   0.00397,278866669.77601,   0.00239,   0.00081,  -0.00234,  -0.60232,   1.00000
494127053.07771,411762681.16348,-79748151.28007,   0.00385,   0.00172,  -0.00339,478880228.10436,   0.00398,278880234.58555,   0.00240,   0.00081,  -0.00235,  -6.48120,   1.00000
493637913.96849,412245063.74415,-80030229.95346,   0.00385,   0.00173,  -0.00340,478893623.36257,   0.00399,278893626.27589,   0.00241,   0.00082,  -0.00236,  -2.91332,   1.00000
493145724.97740,412726119.77813,-80312810.93162,   0.00386,   0.00174,  -0.00341,478906960.95872,   0.00401,278906965.95580,   0.00242,   0.00082,  -0.00236,  -4.99709,   1.00000
492647547.07390,413203517.71195,-80601006.05772,   0.00387,   0.00175,  -0.00342,478920264.52940,   0.00402,278920266.89356,   0.00243,   0.00083,  -0.00237,  -2.36416,   1.00000
492139617.14829,413687169.97946,-80892400.86343,   0.00387,   0.00176,  -0.00343,478933579.39486,   0.00403,278933583.74219,   0.00244,   0.00083,  -0.00238,  -4.34733,   1.00000
491627448.90259,414163254.47563,-81189568.57849,   0.00388,   0.00177,  -0.00344,478946723.32437,   0.00405,278946728.87028,   0.00245,   0.00084,  -0.00239,  -5.54591,   1.00000
491112073.94866,414638037.24768,-81487177.92638,   0.00388,   0.00177,  -0.00345,478959815.85021,   0.00406,278959823.52688,   0.00246,   0.00085,  -0.00239,  -7.67667,   1.00000
490586795.37197,415118965.25610,-81787911.27680,   0.00389,   0.00178,  -0.00346,478972925.68430,   0.00407,278972935.61693,   0.00247,   0.00085,  -0.00240,  -9.93262,   1.00000
490061974.40580,415588706.22374,-82091493.18182,   0.00389,   0.00179,  -0.00348,478985938.56703,   0.00408,278985943.37932,   0.00247,   0.00086,  -0.00241,  -4.81229,   1.00000
489527160.48790,416064539.22359,-82398145.87580,   0.00390,   0.00180,  -0.00349,478998969.22662,   0.00410,278998969.55796,   0.00248,   0.00086,  -0.00242,  -0.33134,   1.00000
488987701.03046,416532966.01581,-82710617.90277,   0.00390,   0.00181,  -0.00350,479011821.38136,   0.00411,279011825.51491,   0.00249,   0.00087,  -0.00242,  -4.13355,   1.00000
488443191.73667,417003674.73784,-83023114.47570,   0.00391,   0.00182,  -0.00351,479024762.46602,   0.00412,279024767.47221,   0.00250,   0.00087,  -0.00243,  -5.00619,   1.00000
487890172.79768,417476765.84938,-83338978.47135,   0.00391,   0.00182,  -0.00352,479037592.78921,   0.00413,279037594.61431,   0.00251,   0.00088,  -0.00244,  -1.82510,   1.00000
487329266.06716,417940048.05202,-83665756.03072,   0.00392,   0.00183,  -0.00353,479050265.26513,   0.00415,279050266.11020,   0.00252,   0.00088,  -0.00245,  -0.84507,   1.00000
486766253.27867,418407964.41906,-83987363.19332,   0.00392,   0.00184,  -0.00355,479063006.67713,   0.00416,279063011.64954,   0.00252,   0.00089,  -0.00245,  -4.97240,   1.00000
486198179.83189,418868628.93777,-84314849.02469,   0.00393,   0.00185,  -0.00356,479075583.49387,   0.00417,279075588.34967,   0.00253,   0.00089,  -0.00246,  -4.85580,   1.00000
485619743.10507,419335095.12204,-84645206.59590,   0.00393,   0.00186,  -0.00357,479088184.70645,   0.00418,279088187.28625,   0.00254,   0.00090,  -0.00247,  -2.57980,   1.00000
485034614.52840,419797647.50055,-84980927.10671,   0.00394,   0.00187,  -0.00358,479100747.14834,   0.00419,279100753.71518,   0.00255,   0.00090,  -0.00248,  -6.56683,   1.00000
484452514.36116,420251839.48904,-85314461.46455,   0.00394,   0.00188,  -0.00359,479113200.57410,   0.00421,279113204.52859,   0.00256,   0.00091,  -0.00248,  -3.95449,   1.00000
483854516.02125,420715438.86573,-85653842.63969,   0.00395,   0.00188,  -0.00361,479125610.24843,   0.00422,279125612.98631,   0.00256,   0.00091,  -0.00249,  -2.73788,   1.00000
483258794.19005,421161871.73418,-85998088.15060,   0.00395,   0.00189,  -0.00362,479137996.37292,   0.00423,279138000.29985,   0.00257,   0.00092,  -0.00250,  -3.92694,   1.00000
482650039.04260,421620218.19249,-86343081.04161,   0.00395,   0.00190,  -0.00363,479150327.90976,   0.00424,279150332.50213,   0.00258,   0.00092,  -0.00251,  -4.59238,   1.00000
482035555.23528,422071439.09017,-86694024.69592,   0.00396,   0.00191,  -0.00364,479162495.89235,   0.00425,279162498.09471,   0.00259,   0.00093,  -0.00251,  -2.20237,   1.00000
481415874.09030,422524425.15242,-87044572.41814,   0.00396,   0.00192,  -0.00365,479174749.93955,   0.00427,279174755.68537,   0.00260,   0.00093,  -0.00252,  -5.74582,   1.00000
480790278.49673,422970336.42079,-87401097.54070,   0.00397,   0.00193,  -0.00367,479186839.44703,   0.00428,279186847.20280,   0.00260,   0.00094,  -0.00253,  -7.75577,   1.00000
480156909.51906,423424284.85831,-87755240.11478,   0.00397,   0.00193,  -0.00368,479198949.53619,   0.00429,279198951.45992,   0.00261,   0.00094,  -0.00254,  -1.92373,   1.00000
479520011.84102,423864813.74632,-88117314.73000,   0.00397,   0.00194,  -0.00369,479210960.90059,   0.00430,279210970.34362,   0.00262,   0.00095,  -0.00254,  -9.44303,   1.00000
478875257.87022,424313327.81558,-88476963.05401,   0.00398,   0.00195,  -0.00370,479222993.45975,   0.00431,279223002.88476,   0.00263,   0.00095,  -0.00255,  -9.42500,   1.00000
478221081.17020,424752135.46411,-88847652.18381,   0.00398,   0.00196,  -0.00371,479234879.26240,   0.00432,279234885.02163,   0.00263,   0.00096,  -0.00256,  -5.75924,   1.00000
477562590.67261,425189560.12564,-89218556.96020,   0.00398,   0.00197,  -0.00373,479246716.11541,   0.00434,279246725.17543,   0.00264,   0.00096,  -0.00257,  -9.06002,   1.00000
476896084.88657,425634842.28743,-89586972.02167,   0.00399,   0.00198,  -0.00374,479258574.82055,   0.00435,279258580.48595,   0.00265,   0.00097,  -0.00257,  -5.66540,   1.00000
476225728.85570,426066719.96423,-89963329.56638,   0.00399,   0.00198,  -0.00375,479270343.78220,   0.00436,279270351.93665,   0.00265,   0.00097,  -0.00258,  -8.15446,   1.00000
475544945.21471,426500875.16671,-90343036.41572,   0.00399,   0.00199,  -0.00376,479282013.85874,   0.00437,279282016.86098,   0.00266,   0.00098,  -0.00259,  -3.00224,   1.00000
474859620.15195,426933591.50825,-90722950.71695,   0.00400,   0.00200,  -0.00377,479293635.12949,   0.00438,279293641.11786,   0.00267,   0.00098,  -0.00260,  -5.98837,   1.00000
474166576.86068,427362107.62709,-91108039.26741,   0.00400,   0.00201,  -0.00379,479305237.24574,   0.00439,279305239.93948,   0.00268,   0.00099,  -0.00260,  -2.69374,   1.00000
