# sigma_xx, sigma_yy, sigma_xy, epsilon_xx, epsilon_yy, epsilon_xy, vonMises, epsPlastic, hardening, epsilonP__xx, epsilonP__yy, epsilonP__xy, yieldValue, iteration
   0.00000,   0.00000,   0.00000,   0.00000,   0.00000,   0.00000,1181185.37500,   0.00000,274640576.00000,   0.00000,   0.00000,   0.00000,-473459392.00000,   0.00000
   0.00000,   0.00000,   0.00000,   0.00000,   0.00000,   0.00000,1181185.37500,   0.00000,274640576.00000,   0.00000,   0.00000,   0.00000,-473459392.00000,   0.00000
2174898.05165,2509497.75191,217489.80517,   0.00001,   0.00001,   0.00000,3459486.00000,   0.00000,274640576.00000,   0.00000,   0.00000,   0.00000,-471181088.00000,   0.00000
4321912.79495,4991112.19546,429402.94866,   0.00001,   0.00001,   0.00001,5239503.00000,   0.00000,274640576.00000,   0.00000,   0.00000,   0.00000,-469401088.00000,   0.00000
6496810.84661,7500609.94737,646892.75383,   0.00001,   0.00002,   0.00001,7433584.00000,   0.00000,274640576.00000,   0.00000,   0.00000,   0.00000,-467206992.00000,   0.00000
8671708.89826,10010107.69928,858805.89732,   0.00002,   0.00003,   0.00001,9942826.00000,   0.00000,274640576.00000,   0.00000,   0.00000,   0.00000,-464697744.00000,   0.00000
10818723.64156,12491722.14283,1070719.04081,   0.00002,   0.00004,   0.00001,12473386.00000,   0.00000,274640576.00000,   0.00000,   0.00000,   0.00000,-462167184.00000,   0.00000
12974103.37737,14992854.90223,1282632.18431,   0.00003,   0.00004,   0.00002,14970686.00000,   0.00000,274640576.00000,   0.00000,   0.00000,   0.00000,-459669888.00000,   0.00000
15129483.11317,17493987.66164,1488968.66613,   0.00003,   0.00005,   0.00002,17400962.00000,   0.00000,274640576.00000,   0.00000,   0.00000,   0.00000,-457239616.00000,   0.00000
17284862.84898,19995120.42104,1700881.80963,   0.00004,   0.00006,   0.00002,19786570.00000,   0.00000,274640576.00000,   0.00000,   0.00000,   0.00000,-454854000.00000,   0.00000
19440242.58478,22496253.18044,1907218.29145,   0.00004,   0.00006,   0.00002,22148330.00000,   0.00000,274640576.00000,   0.00000,   0.00000,   0.00000,-452492240.00000,   0.00000
21595622.32059,24997385.93984,2113554.77327,   0.00005,   0.00007,   0.00003,24503826.00000,   0.00000,274640576.00000,   0.00000,   0.00000,   0.00000,-450136752.00000,   0.00000
23751002.05639,27498518.69924,2319891.25510,   0.00005,   0.00008,   0.00003,26860248.00000,   0.00000,274640576.00000,   0.00000,   0.00000,   0.00000,-447780320.00000,   0.00000
25886863.47635,29991286.46614,2526227.73692,   0.00006,   0.00009,   0.00003,29206488.00000,   0.00000,274640576.00000,   0.00000,   0.00000,   0.00000,-445434080.00000,   0.00000
28042243.21216,32492419.22554,2726987.55707,   0.00006,   0.00009,   0.00004,31564638.00000,   0.00000,274640576.00000,   0.00000,   0.00000,   0.00000,-443075936.00000,   0.00000
30178104.63211,34985186.99244,2927747.37723,   0.00007,   0.00010,   0.00004,33910132.00000,   0.00000,274640576.00000,   0.00000,   0.00000,   0.00000,-440730448.00000,   0.00000
32313966.05207,37477954.75933,3134083.85905,   0.00007,   0.00011,   0.00004,36256324.00000,   0.00000,274640576.00000,   0.00000,   0.00000,   0.00000,-438384256.00000,   0.00000
34449827.47203,39970722.52623,3329267.01753,   0.00008,   0.00011,   0.00004,38598220.00000,   0.00000,274640576.00000,   0.00000,   0.00000,   0.00000,-436042352.00000,   0.00000
36585688.89199,42463490.29312,3530026.83768,   0.00008,   0.00012,   0.00005,40941020.00000,   0.00000,274640576.00000,   0.00000,   0.00000,   0.00000,-433699552.00000,   0.00000
38721550.31194,44956258.06002,3730786.65784,   0.00009,   0.00013,   0.00005,43283352.00000,   0.00000,274640576.00000,   0.00000,   0.00000,   0.00000,-431357216.00000,   0.00000
40857411.73190,47449025.82691,3925969.81632,   0.00009,   0.00014,   0.00005,45623736.00000,   0.00000,274640576.00000,   0.00000,   0.00000,   0.00000,-429016832.00000,   0.00000
42973754.83601,49933428.60130,4121152.97480,   0.00010,   0.00014,   0.00005,47951360.00000,   0.00000,274640576.00000,   0.00000,   0.00000,   0.00000,-426689216.00000,   0.00000
45109616.25597,52426196.36820,4316336.13328,   0.00010,   0.00015,   0.00006,50291020.00000,   0.00000,274640576.00000,   0.00000,   0.00000,   0.00000,-424349552.00000,   0.00000
47225959.36008,54910599.14259,4511519.29176,   0.00011,   0.00016,   0.00006,52617848.00000,   0.00000,274640576.00000,   0.00000,   0.00000,   0.00000,-422022720.00000,   0.00000
49361820.78004,57403366.90948,4701125.78857,   0.00011,   0.00016,   0.00006,54955024.00000,   0.00000,274640576.00000,   0.00000,   0.00000,   0.00000,-419685552.00000,   0.00000
51478163.88414,59887769.68387,4896308.94706,   0.00012,   0.00017,   0.00006,57280732.00000,   0.00000,274640576.00000,   0.00000,   0.00000,   0.00000,-417359840.00000,   0.00000
53586141.99575,62352654.14241,5085915.44387,   0.00012,   0.00018,   0.00007,59590044.00000,   0.00000,274640576.00000,   0.00000,   0.00000,   0.00000,-415050528.00000,   0.00000
55702485.09986,64837056.91680,5275521.94068,   0.00013,   0.00019,   0.00007,61913792.00000,   0.00000,274640576.00000,   0.00000,   0.00000,   0.00000,-412726784.00000,   0.00000
57799309.88812,67313094.69869,5459551.77582,   0.00013,   0.00019,   0.00007,64223748.00000,   0.00000,274640576.00000,   0.00000,   0.00000,   0.00000,-410416832.00000,   0.00000
59907287.99972,69777979.15723,5649158.27263,   0.00014,   0.00020,   0.00007,66533520.00000,   0.00000,274640576.00000,   0.00000,   0.00000,   0.00000,-408107056.00000,   0.00000
62023631.10383,72262381.93162,5833188.10777,   0.00014,   0.00021,   0.00008,68857176.00000,   0.00000,274640576.00000,   0.00000,   0.00000,   0.00000,-405783392.00000,   0.00000
64112090.89959,74718901.39765,6017217.94291,   0.00015,   0.00021,   0.00008,71154592.00000,   0.00000,274640576.00000,   0.00000,   0.00000,   0.00000,-403485984.00000,   0.00000
66208915.68785,77194939.17953,6201247.77805,   0.00015,   0.00022,   0.00008,73467976.00000,   0.00000,274640576.00000,   0.00000,   0.00000,   0.00000,-401172608.00000,   0.00000
68297375.48360,79651458.64557,6385277.61319,   0.00016,   0.00023,   0.00008,75768056.00000,   0.00000,274640576.00000,   0.00000,   0.00000,   0.00000,-398872512.00000,   0.00000
70385835.27936,82107978.11160,6563730.78666,   0.00016,   0.00024,   0.00009,78068368.00000,   0.00000,274640576.00000,   0.00000,   0.00000,   0.00000,-396572208.00000,   0.00000
72482660.06762,84584015.89349,6742183.96013,   0.00016,   0.00024,   0.00009,80385464.00000,   0.00000,274640576.00000,   0.00000,   0.00000,   0.00000,-394255104.00000,   0.00000
74571119.86337,87040535.35952,6920637.13360,   0.00017,   0.00025,   0.00009,82689888.00000,   0.00000,274640576.00000,   0.00000,   0.00000,   0.00000,-391950688.00000,   0.00000
76659579.65913,89497054.82556,7099090.30706,   0.00017,   0.00026,   0.00009,84996688.00000,   0.00000,274640576.00000,   0.00000,   0.00000,   0.00000,-389643888.00000,   0.00000
78720156.14653,91925690.98324,7277543.48053,   0.00018,   0.00026,   0.00009,87278624.00000,   0.00000,274640576.00000,   0.00000,   0.00000,   0.00000,-387361952.00000,   0.00000
80808615.94228,94382210.44927,7450419.99233,   0.00018,   0.00027,   0.00010,89588856.00000,   0.00000,274640576.00000,   0.00000,   0.00000,   0.00000,-385051712.00000,   0.00000
82877557.42219,96830364.92280,7623296.50413,   0.00019,   0.00028,   0.00010,91889056.00000,   0.00000,274640576.00000,   0.00000,   0.00000,   0.00000,-382751520.00000,   0.00000
84938133.90959,99259001.08048,7796173.01593,   0.00019,   0.00029,   0.00010,94176000.00000,   0.00000,274640576.00000,   0.00000,   0.00000,   0.00000,-380464576.00000,   0.00000
87007075.38949,101707155.55401,7963472.86606,   0.00020,   0.00029,   0.00010,96477944.00000,   0.00000,274640576.00000,   0.00000,   0.00000,   0.00000,-378162624.00000,   0.00000
89067651.87690,104135791.71169,8136349.37785,   0.00020,   0.00030,   0.00011,98766984.00000,   0.00000,274640576.00000,   0.00000,   0.00000,   0.00000,-375873600.00000,   0.00000
91108710.04845,106556062.87686,8303649.22798,   0.00021,   0.00031,   0.00011,101042200.00000,   0.00000,274640576.00000,   0.00000,   0.00000,   0.00000,-373598368.00000,   0.00000
93169286.53585,108984699.03454,8470949.07811,   0.00021,   0.00031,   0.00011,103329288.00000,   0.00000,274640576.00000,   0.00000,   0.00000,   0.00000,-371311296.00000,   0.00000
95210344.70740,111404970.19971,8638248.92824,   0.00022,   0.00032,   0.00011,105603160.00000,   0.00000,274640576.00000,   0.00000,   0.00000,   0.00000,-369037408.00000,   0.00000
97270921.19480,113833606.35739,8799972.11669,   0.00022,   0.00033,   0.00011,107886888.00000,   0.00000,274640576.00000,   0.00000,   0.00000,   0.00000,-366753696.00000,   0.00000
99303614.37385,116234359.20672,8967271.96682,   0.00023,   0.00034,   0.00012,110143448.00000,   0.00000,274640576.00000,   0.00000,   0.00000,   0.00000,-364497120.00000,   0.00000
101344672.54540,118654630.37189,9128995.15528,   0.00023,   0.00034,   0.00012,112412672.00000,   0.00000,274640576.00000,   0.00000,   0.00000,   0.00000,-362227904.00000,   0.00000
103377365.72444,121055383.22122,9285141.68206,   0.00023,   0.00035,   0.00012,114664648.00000,   0.00000,274640576.00000,   0.00000,   0.00000,   0.00000,-359975936.00000,   0.00000
105410058.90349,123456136.07054,9446864.87052,   0.00024,   0.00036,   0.00012,116917176.00000,   0.00000,274640576.00000,   0.00000,   0.00000,   0.00000,-357723392.00000,   0.00000
107423233.76669,125848523.92736,9603011.39730,   0.00024,   0.00036,   0.00012,119155784.00000,   0.00000,274640576.00000,   0.00000,   0.00000,   0.00000,-355484800.00000,   0.00000
109455926.94573,128249276.77669,9759157.92409,   0.00025,   0.00037,   0.00013,121406208.00000,   0.00000,274640576.00000,   0.00000,   0.00000,   0.00000,-353234368.00000,   0.00000
111469101.80893,130641664.63351,9915304.45087,   0.00025,   0.00038,   0.00013,123643888.00000,   0.00000,274640576.00000,   0.00000,   0.00000,   0.00000,-350996688.00000,   0.00000
113473911.67962,133014534.17448,10071450.97766,   0.00026,   0.00038,   0.00013,125866432.00000,   0.00000,274640576.00000,   0.00000,   0.00000,   0.00000,-348774144.00000,   0.00000
115478721.55031,135387403.71545,10222020.84277,   0.00026,   0.00039,   0.00013,128087160.00000,   0.00000,274640576.00000,   0.00000,   0.00000,   0.00000,-346553408.00000,   0.00000
117491896.41351,137779791.57227,10378167.36956,   0.00027,   0.00040,   0.00013,130324000.00000,   0.00000,274640576.00000,   0.00000,   0.00000,   0.00000,-344316576.00000,   0.00000
119496706.28420,140152661.11324,10528737.23467,   0.00027,   0.00040,   0.00014,132544328.00000,   0.00000,274640576.00000,   0.00000,   0.00000,   0.00000,-342096256.00000,   0.00000
121473632.84654,142497647.34586,10673730.43812,   0.00027,   0.00041,   0.00014,134736048.00000,   0.00000,274640576.00000,   0.00000,   0.00000,   0.00000,-339904528.00000,   0.00000
123478442.71723,144870516.88683,10824300.30323,   0.00028,   0.00042,   0.00014,136956656.00000,   0.00000,274640576.00000,   0.00000,   0.00000,   0.00000,-337683920.00000,   0.00000
125455369.27957,147215503.11945,10969293.50667,   0.00028,   0.00043,   0.00014,139149008.00000,   0.00000,274640576.00000,   0.00000,   0.00000,   0.00000,-335491568.00000,   0.00000
127432295.84190,149560489.35206,11114286.71012,   0.00029,   0.00043,   0.00014,141342288.00000,   0.00000,274640576.00000,   0.00000,   0.00000,   0.00000,-333298288.00000,   0.00000
129409222.40424,151905475.58468,11259279.91356,   0.00029,   0.00044,   0.00015,143536608.00000,   0.00000,274640576.00000,   0.00000,   0.00000,   0.00000,-331103968.00000,   0.00000
131386148.96657,154250461.81729,11404273.11701,   0.00030,   0.00045,   0.00015,145732304.00000,   0.00000,274640576.00000,   0.00000,   0.00000,   0.00000,-328908272.00000,   0.00000
133363075.52891,156595448.04991,11543689.65878,   0.00030,   0.00045,   0.00015,147928224.00000,   0.00000,274640576.00000,   0.00000,   0.00000,   0.00000,-326712352.00000,   0.00000
135331637.09874,158920915.96668,11683106.20055,   0.00031,   0.00046,   0.00015,150110736.00000,   0.00000,274640576.00000,   0.00000,   0.00000,   0.00000,-324529840.00000,   0.00000
137280680.35272,161238018.89094,11822522.74232,   0.00031,   0.00047,   0.00015,152282096.00000,   0.00000,274640576.00000,   0.00000,   0.00000,   0.00000,-322358480.00000,   0.00000
139229723.60671,163555121.81520,11956362.62243,   0.00031,   0.00047,   0.00016,154453584.00000,   0.00000,274640576.00000,   0.00000,   0.00000,   0.00000,-320186992.00000,   0.00000
141178766.86069,165872224.73947,12095779.16420,   0.00032,   0.00048,   0.00016,156627024.00000,   0.00000,274640576.00000,   0.00000,   0.00000,   0.00000,-318013552.00000,   0.00000
143119445.12216,168169809.34788,12229619.04430,   0.00032,   0.00049,   0.00016,158784672.00000,   0.00000,274640576.00000,   0.00000,   0.00000,   0.00000,-315855904.00000,   0.00000
145060123.38364,170467393.95629,12363458.92440,   0.00033,   0.00049,   0.00016,160942432.00000,   0.00000,274640576.00000,   0.00000,   0.00000,   0.00000,-313698144.00000,   0.00000
147000801.64512,172764978.56471,12491722.14283,   0.00033,   0.00050,   0.00016,163098688.00000,   0.00000,274640576.00000,   0.00000,   0.00000,   0.00000,-311541888.00000,   0.00000
148921961.59074,175054198.18061,12625562.02293,   0.00034,   0.00051,   0.00016,165243392.00000,   0.00000,274640576.00000,   0.00000,   0.00000,   0.00000,-309397184.00000,   0.00000
150854274.85971,177332264.47318,12753825.24136,   0.00034,   0.00051,   0.00017,167384256.00000,   0.00000,274640576.00000,   0.00000,   0.00000,   0.00000,-307256320.00000,   0.00000
152775434.80534,179621484.08909,12882088.45980,   0.00034,   0.00052,   0.00017,169527936.00000,   0.00000,274640576.00000,   0.00000,   0.00000,   0.00000,-305112640.00000,   0.00000
154688229.75846,181891185.38915,13010351.67823,   0.00035,   0.00053,   0.00017,171657392.00000,   0.00000,274640576.00000,   0.00000,   0.00000,   0.00000,-302983184.00000,   0.00000
156592659.71908,184141368.37336,13133038.23499,   0.00035,   0.00053,   0.00017,173771200.00000,   0.00000,274640576.00000,   0.00000,   0.00000,   0.00000,-300869376.00000,   0.00000
158485936.35635,186402704.68091,13261301.45342,   0.00036,   0.00054,   0.00017,175888112.00000,   0.00000,274640576.00000,   0.00000,   0.00000,   0.00000,-298752464.00000,   0.00000
160390366.31696,188652887.66512,13383988.01018,   0.00036,   0.00055,   0.00017,177997936.00000,   0.00000,274640576.00000,   0.00000,   0.00000,   0.00000,-296642640.00000,   0.00000
162275277.96173,190894705.65683,13501097.90527,   0.00037,   0.00055,   0.00018,180087744.00000,   0.00000,274640576.00000,   0.00000,   0.00000,   0.00000,-294552832.00000,   0.00000
164179707.92235,193144888.64104,13623784.46203,   0.00037,   0.00056,   0.00018,182183728.00000,   0.00000,274640576.00000,   0.00000,   0.00000,   0.00000,-292456848.00000,   0.00000
166056254.57461,195367188.31689,13740894.35712,   0.00037,   0.00057,   0.00018,184246800.00000,   0.00000,274640576.00000,   0.00000,   0.00000,   0.00000,-290393776.00000,   0.00000
167932801.22687,197589487.99275,13858004.25220,   0.00038,   0.00057,   0.00018,186310576.00000,   0.00000,274640576.00000,   0.00000,   0.00000,   0.00000,-288330000.00000,   0.00000
169789829.56328,199803422.67610,13975114.14729,   0.00038,   0.00058,   0.00018,188367392.00000,   0.00000,274640576.00000,   0.00000,   0.00000,   0.00000,-286273184.00000,   0.00000
171666376.21554,202025722.35196,14092224.04238,   0.00039,   0.00058,   0.00018,190442656.00000,   0.00000,274640576.00000,   0.00000,   0.00000,   0.00000,-284197920.00000,   0.00000
173515039.55944,204220138.71946,14203757.27580,   0.00039,   0.00059,   0.00018,192494800.00000,   0.00000,274640576.00000,   0.00000,   0.00000,   0.00000,-282145776.00000,   0.00000
175383221.21920,206422920.07947,14315290.50922,   0.00040,   0.00060,   0.00019,194563280.00000,   0.00000,274640576.00000,   0.00000,   0.00000,   0.00000,-280077296.00000,   0.00000
177231884.56310,208617336.44697,14426823.74264,   0.00040,   0.00060,   0.00019,196622400.00000,   0.00000,274640576.00000,   0.00000,   0.00000,   0.00000,-278018176.00000,   0.00000
179080547.90701,210811752.81447,14538356.97606,   0.00040,   0.00061,   0.00019,198684160.00000,   0.00000,274640576.00000,   0.00000,   0.00000,   0.00000,-275956416.00000,   0.00000
180901327.94256,212978285.87362,14644313.54780,   0.00041,   0.00062,   0.00019,200721440.00000,   0.00000,274640576.00000,   0.00000,   0.00000,   0.00000,-273919136.00000,   0.00000
182741626.29396,215153183.92527,14750270.11955,   0.00041,   0.00062,   0.00019,202778336.00000,   0.00000,274640576.00000,   0.00000,   0.00000,   0.00000,-271862240.00000,   0.00000
184554041.33700,217300198.66857,14856226.69130,   0.00042,   0.00063,   0.00019,204817536.00000,   0.00000,274640576.00000,   0.00000,   0.00000,   0.00000,-269823040.00000,   0.00000
186394339.68840,219475096.72023,14962183.26304,   0.00042,   0.00064,   0.00019,206893536.00000,   0.00000,274640576.00000,   0.00000,   0.00000,   0.00000,-267747040.00000,   0.00000
188206754.73145,221622111.46353,15062563.17312,   0.00042,   0.00064,   0.00020,208947984.00000,   0.00000,274640576.00000,   0.00000,   0.00000,   0.00000,-265692592.00000,   0.00000
189991286.46614,223741242.89847,15168519.74487,   0.00043,   0.00065,   0.00020,210995680.00000,   0.00000,274640576.00000,   0.00000,   0.00000,   0.00000,-263644896.00000,   0.00000
191803701.50918,225888257.64177,15268899.65494,   0.00043,   0.00065,   0.00020,213053392.00000,   0.00000,274640576.00000,   0.00000,   0.00000,   0.00000,-261587184.00000,   0.00000
193607751.55972,228015754.06922,15363702.90335,   0.00044,   0.00066,   0.00020,215060560.00000,   0.00000,274640576.00000,   0.00000,   0.00000,   0.00000,-259580016.00000,   0.00000
195383918.30191,230115367.18832,15464082.81343,   0.00044,   0.00067,   0.00020,217039600.00000,   0.00000,274640576.00000,   0.00000,   0.00000,   0.00000,-257600976.00000,   0.00000
197168450.03660,232234498.62326,15558886.06183,   0.00044,   0.00067,   0.00020,219032448.00000,   0.00000,274640576.00000,   0.00000,   0.00000,   0.00000,-255608128.00000,   0.00000
198944616.77878,234334111.74236,15653689.31024,   0.00045,   0.00068,   0.00020,221004816.00000,   0.00000,274640576.00000,   0.00000,   0.00000,   0.00000,-253635760.00000,   0.00000
200720783.52096,236433724.86145,15748492.55864,   0.00045,   0.00068,   0.00020,222971536.00000,   0.00000,274640576.00000,   0.00000,   0.00000,   0.00000,-251669040.00000,   0.00000
202488585.27064,238513819.66470,15843295.80705,   0.00046,   0.00069,   0.00021,224919888.00000,   0.00000,274640576.00000,   0.00000,   0.00000,   0.00000,-249720688.00000,   0.00000
204264752.01283,240613432.78380,15932522.39378,   0.00046,   0.00070,   0.00021,226880912.00000,   0.00000,274640576.00000,   0.00000,   0.00000,   0.00000,-247759664.00000,   0.00000
206004670.45415,242665644.27869,16027325.64219,   0.00046,   0.00070,   0.00021,228799760.00000,   0.00000,274640576.00000,   0.00000,   0.00000,   0.00000,-245840816.00000,   0.00000
207752953.88798,244737374.08944,16116552.22892,   0.00047,   0.00071,   0.00021,230731888.00000,   0.00000,274640576.00000,   0.00000,   0.00000,   0.00000,-243908688.00000,   0.00000
209492872.32930,246789585.58433,16200202.15399,   0.00047,   0.00071,   0.00021,232646960.00000,   0.00000,274640576.00000,   0.00000,   0.00000,   0.00000,-241993616.00000,   0.00000
211232790.77063,248841797.07922,16289428.74072,   0.00048,   0.00072,   0.00021,234562800.00000,   0.00000,274640576.00000,   0.00000,   0.00000,   0.00000,-240077776.00000,   0.00000
212953190.89610,250885643.58161,16373078.66578,   0.00048,   0.00073,   0.00021,236464560.00000,   0.00000,274640576.00000,   0.00000,   0.00000,   0.00000,-238176016.00000,   0.00000
214684744.34492,252918336.76066,16456728.59085,   0.00048,   0.00073,   0.00021,238363888.00000,   0.00000,274640576.00000,   0.00000,   0.00000,   0.00000,-236276688.00000,   0.00000
216396779.47789,254942664.94720,16540378.51591,   0.00049,   0.00074,   0.00022,240251168.00000,   0.00000,274640576.00000,   0.00000,   0.00000,   0.00000,-234389408.00000,   0.00000
218100449.61835,256947474.81789,16624028.44097,   0.00049,   0.00074,   0.00022,242123776.00000,   0.00000,274640576.00000,   0.00000,   0.00000,   0.00000,-232516800.00000,   0.00000
219804119.75881,258952284.68858,16702101.70437,   0.00050,   0.00075,   0.00022,243995712.00000,   0.00000,274640576.00000,   0.00000,   0.00000,   0.00000,-230644864.00000,   0.00000
221507789.89927,260957094.55927,16780174.96776,   0.00050,   0.00076,   0.00022,245868224.00000,   0.00000,274640576.00000,   0.00000,   0.00000,   0.00000,-228772352.00000,   0.00000
223203095.04723,262942386.11411,16858248.23115,   0.00050,   0.00076,   0.00022,247726304.00000,   0.00000,274640576.00000,   0.00000,   0.00000,   0.00000,-226914272.00000,   0.00000
224887246.87184,264938830.99230,16936321.49455,   0.00051,   0.00077,   0.00022,249587472.00000,   0.00000,274640576.00000,   0.00000,   0.00000,   0.00000,-225053104.00000,   0.00000
226554668.71144,266896239.23879,17008818.09627,   0.00051,   0.00077,   0.00022,251417600.00000,   0.00000,274640576.00000,   0.00000,   0.00000,   0.00000,-223222976.00000,   0.00000
228230455.54355,268873165.80112,17086891.35966,   0.00051,   0.00078,   0.00022,253264368.00000,   0.00000,274640576.00000,   0.00000,   0.00000,   0.00000,-221376208.00000,   0.00000
229897877.38315,270830574.04761,17159387.96138,   0.00052,   0.00078,   0.00022,255095184.00000,   0.00000,274640576.00000,   0.00000,   0.00000,   0.00000,-219545392.00000,   0.00000
231565299.22275,272787982.29410,17226307.90143,   0.00052,   0.00079,   0.00022,256925360.00000,   0.00000,274640576.00000,   0.00000,   0.00000,   0.00000,-217715216.00000,   0.00000
233204837.75400,274717507.23223,17298804.50315,   0.00053,   0.00080,   0.00022,258729536.00000,   0.00000,274640576.00000,   0.00000,   0.00000,   0.00000,-215911040.00000,   0.00000
234863894.60109,276655397.16287,17371301.10488,   0.00053,   0.00080,   0.00023,260546288.00000,   0.00000,274640576.00000,   0.00000,   0.00000,   0.00000,-214094288.00000,   0.00000
236495068.13983,278565403.78516,17438221.04493,   0.00053,   0.00081,   0.00023,262334880.00000,   0.00000,274640576.00000,   0.00000,   0.00000,   0.00000,-212305696.00000,   0.00000
238134606.67108,280494928.72329,17505140.98498,   0.00054,   0.00081,   0.00023,264139008.00000,   0.00000,274640576.00000,   0.00000,   0.00000,   0.00000,-210501568.00000,   0.00000
239746261.89397,282396570.35307,17566484.26336,   0.00054,   0.00082,   0.00023,265915200.00000,   0.00000,274640576.00000,   0.00000,   0.00000,   0.00000,-208725376.00000,   0.00000
241369070.44021,284287058.65951,17633404.20341,   0.00054,   0.00082,   0.00023,267690016.00000,   0.00000,274640576.00000,   0.00000,   0.00000,   0.00000,-206950560.00000,   0.00000
242972360.67059,286169181.97344,17694747.48179,   0.00055,   0.00083,   0.00023,269451968.00000,   0.00000,274640576.00000,   0.00000,   0.00000,   0.00000,-205188608.00000,   0.00000
244575650.90098,288051305.28737,17761667.42184,   0.00055,   0.00083,   0.00023,271215392.00000,   0.00000,274640576.00000,   0.00000,   0.00000,   0.00000,-203425184.00000,   0.00000
246190094.45471,289922275.27796,17817434.03855,   0.00055,   0.00084,   0.00023,272974464.00000,   0.00000,274640576.00000,   0.00000,   0.00000,   0.00000,-201666112.00000,   0.00000
247773866.36924,291796033.59939,17878777.31693,   0.00056,   0.00084,   0.00023,274725536.00000,   0.00000,274640576.00000,   0.00000,   0.00000,   0.00000,-199915040.00000,   0.00000
249360426.61462,293639120.28162,17940120.59531,   0.00056,   0.00085,   0.00023,276458816.00000,   0.00000,274640576.00000,   0.00000,   0.00000,   0.00000,-198181760.00000,   0.00000
250927468.54414,295473841.97135,17995887.21202,   0.00057,   0.00086,   0.00023,278178880.00000,   0.00000,274640576.00000,   0.00000,   0.00000,   0.00000,-196461696.00000,   0.00000
252514028.78952,297316928.65358,18051653.82873,   0.00057,   0.00086,   0.00023,279910944.00000,   0.00000,274640576.00000,   0.00000,   0.00000,   0.00000,-194729632.00000,   0.00000
254081070.71904,299151650.34331,18107420.44544,   0.00057,   0.00087,   0.00024,281629792.00000,   0.00000,274640576.00000,   0.00000,   0.00000,   0.00000,-193010784.00000,   0.00000
255639747.65606,300966853.71719,18163187.06214,   0.00058,   0.00087,   0.00024,283331712.00000,   0.00000,274640576.00000,   0.00000,   0.00000,   0.00000,-191308864.00000,   0.00000
257178906.27723,302773692.09857,18213377.01718,   0.00058,   0.00088,   0.00024,285016928.00000,   0.00000,274640576.00000,   0.00000,   0.00000,   0.00000,-189623648.00000,   0.00000
258729218.22174,304569377.15660,18269143.63389,   0.00058,   0.00088,   0.00024,286694688.00000,   0.00000,274640576.00000,   0.00000,   0.00000,   0.00000,-187945888.00000,   0.00000
260260011.85041,306356697.22213,18319333.58893,   0.00059,   0.00089,   0.00024,288350688.00000,   0.00000,274640576.00000,   0.00000,   0.00000,   0.00000,-186289888.00000,   0.00000
261810323.79492,308152382.28016,18369523.54397,   0.00059,   0.00089,   0.00024,290008128.00000,   0.00000,274640576.00000,   0.00000,   0.00000,   0.00000,-184632448.00000,   0.00000
263313234.11523,309911819.03733,18414136.83734,   0.00059,   0.00090,   0.00024,291615232.00000,   0.00000,274640576.00000,   0.00000,   0.00000,   0.00000,-183025344.00000,   0.00000
264835662.75139,311679620.78701,18464326.79237,   0.00060,   0.00090,   0.00024,293231008.00000,   0.00000,274640576.00000,   0.00000,   0.00000,   0.00000,-181409568.00000,   0.00000
266349726.39504,313427904.22084,18508940.08574,   0.00060,   0.00091,   0.00024,294838880.00000,   0.00000,274640576.00000,   0.00000,   0.00000,   0.00000,-179801696.00000,   0.00000
267844271.72284,315167822.66216,18553553.37911,   0.00060,   0.00091,   0.00024,296452576.00000,   0.00000,274640576.00000,   0.00000,   0.00000,   0.00000,-178188000.00000,   0.00000
269358335.36649,316916106.09599,18598166.67248,   0.00061,   0.00092,   0.00024,298097856.00000,   0.00000,274640576.00000,   0.00000,   0.00000,   0.00000,-176542720.00000,   0.00000
270844515.70179,318636506.22146,18642779.96584,   0.00061,   0.00092,   0.00024,299726368.00000,   0.00000,274640576.00000,   0.00000,   0.00000,   0.00000,-174914208.00000,   0.00000
272311177.72124,320348541.35443,18687393.25921,   0.00061,   0.00093,   0.00024,301342080.00000,   0.00000,274640576.00000,   0.00000,   0.00000,   0.00000,-173298496.00000,   0.00000
273797358.05653,322068941.47991,18726429.89091,   0.00062,   0.00093,   0.00024,302963776.00000,   0.00000,274640576.00000,   0.00000,   0.00000,   0.00000,-171676800.00000,   0.00000
275275173.39932,323769823.28953,18765466.52260,   0.00062,   0.00094,   0.00024,304563808.00000,   0.00000,274640576.00000,   0.00000,   0.00000,   0.00000,-170076768.00000,   0.00000
276725105.43376,325442821.79081,18804503.15430,   0.00062,   0.00094,   0.00024,306132352.00000,   0.00000,274640576.00000,   0.00000,   0.00000,   0.00000,-168508224.00000,   0.00000
278183402.46070,327135338.60793,18843539.78600,   0.00063,   0.00095,   0.00024,307714784.00000,   0.00000,274640576.00000,   0.00000,   0.00000,   0.00000,-166925792.00000,   0.00000
279633334.49514,328808337.10920,18876999.75602,   0.00063,   0.00095,   0.00025,309282144.00000,   0.00000,274640576.00000,   0.00000,   0.00000,   0.00000,-165358432.00000,   0.00000
281074901.53707,330461817.29462,18916036.38772,   0.00063,   0.00096,   0.00025,310837568.00000,   0.00000,274640576.00000,   0.00000,   0.00000,   0.00000,-163803008.00000,   0.00000
282496950.26315,332106932.48754,18949496.35774,   0.00064,   0.00096,   0.00025,312382272.00000,   0.00000,274640576.00000,   0.00000,   0.00000,   0.00000,-162258304.00000,   0.00000
283938517.30508,333760412.67296,18982956.32777,   0.00064,   0.00096,   0.00025,313941408.00000,   0.00000,274640576.00000,   0.00000,   0.00000,   0.00000,-160699168.00000,   0.00000
285352201.03865,335386009.55003,19016416.29779,   0.00064,   0.00097,   0.00025,315475008.00000,   0.00000,274640576.00000,   0.00000,   0.00000,   0.00000,-159165568.00000,   0.00000
286765884.77223,337011606.42710,19049876.26782,   0.00065,   0.00097,   0.00025,317009632.00000,   0.00000,274640576.00000,   0.00000,   0.00000,   0.00000,-157630944.00000,   0.00000
288179568.50580,338637203.30417,19077759.57617,   0.00065,   0.00098,   0.00025,318543776.00000,   0.00000,274640576.00000,   0.00000,   0.00000,   0.00000,-156096800.00000,   0.00000
289565368.93102,340234916.87289,19111219.54620,   0.00065,   0.00098,   0.00025,320051168.00000,   0.00000,274640576.00000,   0.00000,   0.00000,   0.00000,-154589408.00000,   0.00000
290962322.67959,341821477.11826,19139102.85455,   0.00066,   0.00099,   0.00025,321554208.00000,   0.00000,274640576.00000,   0.00000,   0.00000,   0.00000,-153086368.00000,   0.00000
292348123.10481,343419190.68698,19166986.16291,   0.00066,   0.00099,   0.00025,323058944.00000,   0.00000,274640576.00000,   0.00000,   0.00000,   0.00000,-151581632.00000,   0.00000
293725558.53752,344997385.93984,19194869.47126,   0.00066,   0.00100,   0.00025,324546816.00000,   0.00000,274640576.00000,   0.00000,   0.00000,   0.00000,-150093760.00000,   0.00000
295094628.97773,346556062.87686,19217176.11795,   0.00067,   0.00100,   0.00025,326016832.00000,   0.00000,274640576.00000,   0.00000,   0.00000,   0.00000,-148623744.00000,   0.00000
296463699.41794,348114739.81388,19245059.42630,   0.00067,   0.00101,   0.00025,327485664.00000,   0.00000,274640576.00000,   0.00000,   0.00000,   0.00000,-147154912.00000,   0.00000
297813251.54230,349665051.75839,19267366.07298,   0.00067,   0.00101,   0.00025,328938752.00000,   0.00000,274640576.00000,   0.00000,   0.00000,   0.00000,-145701824.00000,   0.00000
299173956.99000,351204210.37956,19289672.71967,   0.00068,   0.00101,   0.00025,330386720.00000,   0.00000,274640576.00000,   0.00000,   0.00000,   0.00000,-144253856.00000,   0.00000
300515144.12185,352735004.00823,19311979.36635,   0.00068,   0.00102,   0.00025,331819680.00000,   0.00000,274640576.00000,   0.00000,   0.00000,   0.00000,-142820896.00000,   0.00000
301847966.26120,354246279.32104,19334286.01304,   0.00068,   0.00102,   0.00025,333235168.00000,   0.00000,274640576.00000,   0.00000,   0.00000,   0.00000,-141405408.00000,   0.00000
303161270.08470,355749189.64135,19356592.65972,   0.00069,   0.00103,   0.00025,334635840.00000,   0.00000,274640576.00000,   0.00000,   0.00000,   0.00000,-140004736.00000,   0.00000
304494092.22404,357260464.95417,19373322.64473,   0.00069,   0.00103,   0.00025,336045536.00000,   0.00000,274640576.00000,   0.00000,   0.00000,   0.00000,-138595040.00000,   0.00000
305799031.05503,358743856.95863,19395629.29142,   0.00069,   0.00104,   0.00025,337426976.00000,   0.00000,274640576.00000,   0.00000,   0.00000,   0.00000,-137213600.00000,   0.00000
307123488.20188,360235613.95560,19412359.27643,   0.00069,   0.00104,   0.00025,338817760.00000,   0.00000,274640576.00000,   0.00000,   0.00000,   0.00000,-135822816.00000,   0.00000
308420062.04036,361699487.64421,19429089.26144,   0.00070,   0.00104,   0.00025,340180192.00000,   0.00000,274640576.00000,   0.00000,   0.00000,   0.00000,-134460384.00000,   0.00000
309716635.87885,363163361.33282,19445819.24645,   0.00070,   0.00105,   0.00025,341541568.00000,   0.00000,274640576.00000,   0.00000,   0.00000,   0.00000,-133099008.00000,   0.00000
310993691.40148,364618870.02893,19456972.56980,   0.00070,   0.00105,   0.00025,342889152.00000,   0.00000,274640576.00000,   0.00000,   0.00000,   0.00000,-131751424.00000,   0.00000
312281900.24746,366063225.40169,19473702.55481,   0.00071,   0.00106,   0.00025,344234848.00000,   0.00000,274640576.00000,   0.00000,   0.00000,   0.00000,-130405728.00000,   0.00000
313550590.77760,367499215.78195,19484855.87815,   0.00071,   0.00106,   0.00025,345567648.00000,   0.00000,274640576.00000,   0.00000,   0.00000,   0.00000,-129072928.00000,   0.00000
314810916.31522,368915687.84636,19501585.86316,   0.00071,   0.00106,   0.00025,346887264.00000,   0.00000,274640576.00000,   0.00000,   0.00000,   0.00000,-127753312.00000,   0.00000
316071241.85285,370332159.91077,19512739.18650,   0.00072,   0.00107,   0.00025,348207136.00000,   0.00000,274640576.00000,   0.00000,   0.00000,   0.00000,-126433440.00000,   0.00000
317331567.39047,371748631.97518,19523892.50985,   0.00072,   0.00107,   0.00025,349528384.00000,   0.00000,274640576.00000,   0.00000,   0.00000,   0.00000,-125112192.00000,   0.00000
318583527.93559,373145585.72375,19529469.17152,   0.00072,   0.00108,   0.00025,350835456.00000,   0.00000,274640576.00000,   0.00000,   0.00000,   0.00000,-123805120.00000,   0.00000
319815970.16486,374534174.47980,19540622.49486,   0.00072,   0.00108,   0.00025,352133216.00000,   0.00000,274640576.00000,   0.00000,   0.00000,   0.00000,-122507360.00000,   0.00000
321059565.71747,375911609.91252,19551775.81820,   0.00073,   0.00108,   0.00025,353430432.00000,   0.00000,274640576.00000,   0.00000,   0.00000,   0.00000,-121210144.00000,   0.00000
322283642.95424,377280680.35272,19557352.47987,   0.00073,   0.00109,   0.00025,354716576.00000,   0.00000,274640576.00000,   0.00000,   0.00000,   0.00000,-119924000.00000,   0.00000
323507720.19100,378649750.79293,19562929.14154,   0.00073,   0.00109,   0.00025,356004864.00000,   0.00000,274640576.00000,   0.00000,   0.00000,   0.00000,-118635712.00000,   0.00000
324703914.11941,379990937.92478,19568505.80321,   0.00074,   0.00110,   0.00025,357267904.00000,   0.00000,274640576.00000,   0.00000,   0.00000,   0.00000,-117372672.00000,   0.00000
325911261.37116,381320971.73330,19574082.46488,   0.00074,   0.00110,   0.00025,358530976.00000,   0.00000,274640576.00000,   0.00000,   0.00000,   0.00000,-116109600.00000,   0.00000
327107455.29957,382662158.86515,19579659.12656,   0.00074,   0.00110,   0.00025,359799648.00000,   0.00000,274640576.00000,   0.00000,   0.00000,   0.00000,-114840928.00000,   0.00000
328314802.55132,383992192.67366,19585235.78823,   0.00075,   0.00111,   0.00025,361069664.00000,   0.00000,274640576.00000,   0.00000,   0.00000,   0.00000,-113570912.00000,   0.00000
329494266.49472,385294343.17382,19585235.78823,   0.00075,   0.00111,   0.00025,362316512.00000,   0.00000,274640576.00000,   0.00000,   0.00000,   0.00000,-112324064.00000,   0.00000
330673730.43812,386596493.67397,19585235.78823,   0.00075,   0.00111,   0.00025,363569184.00000,   0.00000,274640576.00000,   0.00000,   0.00000,   0.00000,-111071392.00000,   0.00000
331833676.06567,387890279.18162,19590812.44990,   0.00075,   0.00112,   0.00025,364815840.00000,   0.00000,274640576.00000,   0.00000,   0.00000,   0.00000,-109824736.00000,   0.00000
333004775.01656,389172911.36593,19590812.44990,   0.00076,   0.00112,   0.00025,366062528.00000,   0.00000,274640576.00000,   0.00000,   0.00000,   0.00000,-108578048.00000,   0.00000
334156355.65160,390447178.55774,19590812.44990,   0.00076,   0.00112,   0.00025,367296224.00000,   0.00000,274640576.00000,   0.00000,   0.00000,   0.00000,-107344352.00000,   0.00000
335299571.29413,391701927.43369,19590812.44990,   0.00076,   0.00113,   0.00025,368511136.00000,   0.00000,274640576.00000,   0.00000,   0.00000,   0.00000,-106129440.00000,   0.00000
336462305.25252,392965041.30215,19585235.78823,   0.00076,   0.00113,   0.00025,369732704.00000,   0.00000,274640576.00000,   0.00000,   0.00000,   0.00000,-104907872.00000,   0.00000
337586002.57921,394211425.18560,19585235.78823,   0.00077,   0.00114,   0.00025,370925760.00000,   0.00000,274640576.00000,   0.00000,   0.00000,   0.00000,-103714816.00000,   0.00000
338720853.22924,395446655.74570,19579659.12656,   0.00077,   0.00114,   0.00025,372113056.00000,   0.00000,274640576.00000,   0.00000,   0.00000,   0.00000,-102527520.00000,   0.00000
339855703.87927,396681886.30581,19579659.12656,   0.00077,   0.00114,   0.00025,373301152.00000,   0.00000,274640576.00000,   0.00000,   0.00000,   0.00000,-101339424.00000,   0.00000
340962671.22094,397889233.55756,19574082.46488,   0.00078,   0.00115,   0.00025,374462016.00000,   0.00000,274640576.00000,   0.00000,   0.00000,   0.00000,-100178560.00000,   0.00000
342069638.56262,399096580.80931,19568505.80321,   0.00078,   0.00115,   0.00025,375624640.00000,   0.00000,274640576.00000,   0.00000,   0.00000,   0.00000,-99015936.00000,   0.00000
343176605.90429,400303928.06106,19562929.14154,   0.00078,   0.00115,   0.00025,376788864.00000,   0.00000,274640576.00000,   0.00000,   0.00000,   0.00000,-97851712.00000,   0.00000
344275208.25346,401491756.99697,19557352.47987,   0.00078,   0.00116,   0.00025,377938912.00000,   0.00000,274640576.00000,   0.00000,   0.00000,   0.00000,-96701664.00000,   0.00000
345373810.60263,402679585.93287,19546199.15653,   0.00079,   0.00116,   0.00025,379088576.00000,   0.00000,274640576.00000,   0.00000,   0.00000,   0.00000,-95552000.00000,   0.00000
346464047.95929,403847896.55293,19540622.49486,   0.00079,   0.00116,   0.00025,380223744.00000,   0.00000,274640576.00000,   0.00000,   0.00000,   0.00000,-94416832.00000,   0.00000
347543131.99261,405027360.49632,19535045.83319,   0.00079,   0.00117,   0.00025,381360864.00000,   0.00000,274640576.00000,   0.00000,   0.00000,   0.00000,-93279712.00000,   0.00000
348605486.04092,406167787.80802,19523892.50985,   0.00079,   0.00117,   0.00025,382465536.00000,   0.00000,274640576.00000,   0.00000,   0.00000,   0.00000,-92175040.00000,   0.00000
349667840.08923,407308215.11972,19512739.18650,   0.00080,   0.00117,   0.00025,383568640.00000,   0.00000,274640576.00000,   0.00000,   0.00000,   0.00000,-91071936.00000,   0.00000
350730194.13753,408448642.43142,19501585.86316,   0.00080,   0.00117,   0.00025,384669792.00000,   0.00000,274640576.00000,   0.00000,   0.00000,   0.00000,-89970784.00000,   0.00000
351792548.18584,409589069.74313,19490432.53982,   0.00080,   0.00118,   0.00025,385768800.00000,   0.00000,274640576.00000,   0.00000,   0.00000,   0.00000,-88871776.00000,   0.00000
352846537.24164,410709978.73898,19479279.21648,   0.00080,   0.00118,   0.00025,386850432.00000,   0.00000,274640576.00000,   0.00000,   0.00000,   0.00000,-87790144.00000,   0.00000
353872642.98909,411803004.42648,19468125.89314,   0.00081,   0.00118,   0.00025,387902176.00000,   0.00000,274640576.00000,   0.00000,   0.00000,   0.00000,-86738400.00000,   0.00000
354918267.05239,412904395.10648,19456972.56980,   0.00081,   0.00119,   0.00025,388964000.00000,   0.00000,274640576.00000,   0.00000,   0.00000,   0.00000,-85676576.00000,   0.00000
355944372.79983,413997420.79398,19440242.58478,   0.00081,   0.00119,   0.00025,390010272.00000,   0.00000,274640576.00000,   0.00000,   0.00000,   0.00000,-84630304.00000,   0.00000
356970478.54728,415090446.48148,19429089.26144,   0.00081,   0.00119,   0.00025,391054976.00000,   0.00000,274640576.00000,   0.00000,   0.00000,   0.00000,-83585600.00000,   0.00000
357988219.30222,416163953.85312,19412359.27643,   0.00082,   0.00120,   0.00025,392081696.00000,   0.00000,274640576.00000,   0.00000,   0.00000,   0.00000,-82558880.00000,   0.00000
359005960.05716,417237461.22477,19395629.29142,   0.00082,   0.00120,   0.00025,393106400.00000,   0.00000,274640576.00000,   0.00000,   0.00000,   0.00000,-81534176.00000,   0.00000
359995817.50375,418283085.28807,19384475.96807,   0.00082,   0.00120,   0.00025,394103040.00000,   0.00000,274640576.00000,   0.00000,   0.00000,   0.00000,-80537536.00000,   0.00000
361005193.26618,419337074.34387,19367745.98306,   0.00082,   0.00120,   0.00025,395109504.00000,   0.00000,274640576.00000,   0.00000,   0.00000,   0.00000,-79531072.00000,   0.00000
361986685.72026,420363180.09132,19351015.99805,   0.00083,   0.00121,   0.00025,396087680.00000,   0.00000,274640576.00000,   0.00000,   0.00000,   0.00000,-78552896.00000,   0.00000
362968178.17434,421389285.83876,19328709.35136,   0.00083,   0.00121,   0.00025,397063872.00000,   0.00000,274640576.00000,   0.00000,   0.00000,   0.00000,-77576704.00000,   0.00000
363949670.62842,422415391.58621,19311979.36635,   0.00083,   0.00121,   0.00025,398040320.00000,   0.00000,274640576.00000,   0.00000,   0.00000,   0.00000,-76600256.00000,   0.00000
364922798.08999,423421979.01781,19295249.38134,   0.00083,   0.00121,   0.00025,399001600.00000,   0.00000,274640576.00000,   0.00000,   0.00000,   0.00000,-75638976.00000,   0.00000
365895925.55157,424428566.44941,19272942.73466,   0.00084,   0.00122,   0.00025,399962176.00000,   0.00000,274640576.00000,   0.00000,   0.00000,   0.00000,-74678400.00000,   0.00000
366849534.69729,425426788.88850,19256212.74964,   0.00084,   0.00122,   0.00025,400911264.00000,   0.00000,274640576.00000,   0.00000,   0.00000,   0.00000,-73729312.00000,   0.00000
367814297.16636,426413858.00425,19233906.10296,   0.00084,   0.00122,   0.00025,401857984.00000,   0.00000,274640576.00000,   0.00000,   0.00000,   0.00000,-72782592.00000,   0.00000
368759541.31958,427392562.12750,19217176.11795,   0.00084,   0.00123,   0.00025,402793952.00000,   0.00000,274640576.00000,   0.00000,   0.00000,   0.00000,-71846624.00000,   0.00000
369696420.48029,428351747.93489,19194869.47126,   0.00085,   0.00123,   0.00025,403715552.00000,   0.00000,274640576.00000,   0.00000,   0.00000,   0.00000,-70925024.00000,   0.00000
370652817.95685,429319298.73479,19172562.82458,   0.00085,   0.00123,   0.00025,404650880.00000,   0.00000,274640576.00000,   0.00000,   0.00000,   0.00000,-69989696.00000,   0.00000
371589697.11756,430278484.54219,19150256.17790,   0.00085,   0.00123,   0.00025,405575232.00000,   0.00000,274640576.00000,   0.00000,   0.00000,   0.00000,-69065344.00000,   0.00000
372498692.96992,431209787.04123,19127949.53121,   0.00085,   0.00124,   0.00025,406474112.00000,   0.00000,274640576.00000,   0.00000,   0.00000,   0.00000,-68166464.00000,   0.00000
373427207.13813,432149454.53278,19105642.88453,   0.00086,   0.00124,   0.00025,407387264.00000,   0.00000,274640576.00000,   0.00000,   0.00000,   0.00000,-67253312.00000,   0.00000
374355721.30633,433089122.02433,19077759.57617,   0.00086,   0.00124,   0.00025,408301408.00000,   0.00000,274640576.00000,   0.00000,   0.00000,   0.00000,-66339168.00000,   0.00000
375256352.16618,434000906.20752,19055452.92949,   0.00086,   0.00124,   0.00025,409190848.00000,   0.00000,274640576.00000,   0.00000,   0.00000,   0.00000,-65449728.00000,   0.00000
376156983.02604,434912690.39071,19033146.28281,   0.00086,   0.00125,   0.00025,410081920.00000,   0.00000,274640576.00000,   0.00000,   0.00000,   0.00000,-64558656.00000,   0.00000
377068767.20923,435813321.25057,19005262.97445,   0.00087,   0.00125,   0.00025,410971584.00000,   0.00000,274640576.00000,   0.00000,   0.00000,   0.00000,-63668992.00000,   0.00000
377961033.07657,436705587.11791,18977379.66610,   0.00087,   0.00125,   0.00025,411850208.00000,   0.00000,274640576.00000,   0.00000,   0.00000,   0.00000,-62790368.00000,   0.00000
378853298.94392,437597852.98526,18955073.01941,   0.00087,   0.00125,   0.00025,412731104.00000,   0.00000,274640576.00000,   0.00000,   0.00000,   0.00000,-61909472.00000,   0.00000
379717681.50291,438462235.54425,18927189.71106,   0.00087,   0.00125,   0.00025,413584768.00000,   0.00000,274640576.00000,   0.00000,   0.00000,   0.00000,-61055808.00000,   0.00000
380601582.37775,439334983.09574,18899306.40270,   0.00088,   0.00126,   0.00025,414452128.00000,   0.00000,274640576.00000,   0.00000,   0.00000,   0.00000,-60188448.00000,   0.00000
381485483.25259,440207730.64724,18871423.09435,   0.00088,   0.00126,   0.00025,415320256.00000,   0.00000,274640576.00000,   0.00000,   0.00000,   0.00000,-59320320.00000,   0.00000
382341500.81907,441052594.89038,18843539.78600,   0.00088,   0.00126,   0.00024,416161280.00000,   0.00000,274640576.00000,   0.00000,   0.00000,   0.00000,-58479296.00000,   0.00000
383217036.70140,441905824.12603,18815656.47764,   0.00088,   0.00126,   0.00024,417015328.00000,   0.00000,274640576.00000,   0.00000,   0.00000,   0.00000,-57625248.00000,   0.00000
384064689.27538,442731170.05333,18787773.16929,   0.00088,   0.00127,   0.00024,417841824.00000,   0.00000,274640576.00000,   0.00000,   0.00000,   0.00000,-56798752.00000,   0.00000
384920706.84187,443576034.29647,18759889.86093,   0.00089,   0.00127,   0.00024,418683360.00000,   0.00000,274640576.00000,   0.00000,   0.00000,   0.00000,-55957216.00000,   0.00000
385759994.42334,444381861.90792,18726429.89091,   0.00089,   0.00127,   0.00024,419493792.00000,   0.00000,274640576.00000,   0.00000,   0.00000,   0.00000,-55146784.00000,   0.00000
386607646.99732,445207207.83521,18698546.58255,   0.00089,   0.00127,   0.00024,420319680.00000,   0.00000,274640576.00000,   0.00000,   0.00000,   0.00000,-54320896.00000,   0.00000
387446934.57879,446013035.44666,18665086.61253,   0.00089,   0.00127,   0.00024,421129312.00000,   0.00000,274640576.00000,   0.00000,   0.00000,   0.00000,-53511264.00000,   0.00000
388266703.84441,446810498.06560,18637203.30417,   0.00090,   0.00128,   0.00024,421926464.00000,   0.00000,274640576.00000,   0.00000,   0.00000,   0.00000,-52714112.00000,   0.00000
389097626.43338,447596807.36119,18603743.33415,   0.00090,   0.00128,   0.00024,422719872.00000,   0.00000,274640576.00000,   0.00000,   0.00000,   0.00000,-51920704.00000,   0.00000
389928549.02234,448383116.65679,18570283.36412,   0.00090,   0.00128,   0.00024,423512576.00000,   0.00000,274640576.00000,   0.00000,   0.00000,   0.00000,-51128000.00000,   0.00000
390739953.29546,449161060.95988,18542400.05577,   0.00090,   0.00128,   0.00024,424292672.00000,   0.00000,274640576.00000,   0.00000,   0.00000,   0.00000,-50347904.00000,   0.00000
391542992.57607,449919486.94713,18508940.08574,   0.00090,   0.00128,   0.00024,425056480.00000,   0.00000,274640576.00000,   0.00000,   0.00000,   0.00000,-49584096.00000,   0.00000
392365550.17253,450686277.92688,18475480.11572,   0.00091,   0.00129,   0.00024,425832128.00000,   0.00000,274640576.00000,   0.00000,   0.00000,   0.00000,-48808448.00000,   0.00000
393168589.45314,451444703.91412,18442020.14569,   0.00091,   0.00129,   0.00024,426594592.00000,   0.00000,274640576.00000,   0.00000,   0.00000,   0.00000,-48045984.00000,   0.00000
393963263.74124,452183611.58551,18408560.17566,   0.00091,   0.00129,   0.00024,427341664.00000,   0.00000,274640576.00000,   0.00000,   0.00000,   0.00000,-47298912.00000,   0.00000
394757938.02935,452922519.25691,18375100.20564,   0.00091,   0.00129,   0.00024,428088160.00000,   0.00000,274640576.00000,   0.00000,   0.00000,   0.00000,-46552416.00000,   0.00000
395544247.32495,453641908.61246,18341640.23561,   0.00092,   0.00129,   0.00024,428819232.00000,   0.00000,274640576.00000,   0.00000,   0.00000,   0.00000,-45821344.00000,   0.00000
396319403.29720,454372451.29135,18302603.60392,   0.00092,   0.00129,   0.00024,429551680.00000,   0.00000,274640576.00000,   0.00000,   0.00000,   0.00000,-45088896.00000,   0.00000
397097347.60029,455072322.33104,18269143.63389,   0.00092,   0.00130,   0.00024,430267424.00000,   0.00000,274640576.00000,   0.00000,   0.00000,   0.00000,-44373152.00000,   0.00000
397883656.89589,455791711.68659,18235683.66387,   0.00092,   0.00130,   0.00024,430997920.00000,   0.00000,274640576.00000,   0.00000,   0.00000,   0.00000,-43642656.00000,   0.00000
398642082.88313,456483217.73378,18196647.03217,   0.00092,   0.00130,   0.00024,431700256.00000,   0.00000,274640576.00000,   0.00000,   0.00000,   0.00000,-42940320.00000,   0.00000
399420027.18623,457183088.77348,18163187.06214,   0.00093,   0.00130,   0.00024,432416032.00000,   0.00000,274640576.00000,   0.00000,   0.00000,   0.00000,-42224544.00000,   0.00000
400178453.17347,457874594.82068,18124150.43045,   0.00093,   0.00130,   0.00024,433118240.00000,   0.00000,274640576.00000,   0.00000,   0.00000,   0.00000,-41522336.00000,   0.00000
400928514.16821,458546582.55202,18085113.79875,   0.00093,   0.00130,   0.00024,433805856.00000,   0.00000,274640576.00000,   0.00000,   0.00000,   0.00000,-40834720.00000,   0.00000
401678575.16294,459218570.28336,18051653.82873,   0.00093,   0.00131,   0.00023,434494592.00000,   0.00000,274640576.00000,   0.00000,   0.00000,   0.00000,-40145984.00000,   0.00000
402448154.47353,459898923.00721,18012617.19703,   0.00093,   0.00131,   0.00023,435195520.00000,   0.00000,274640576.00000,   0.00000,   0.00000,   0.00000,-39445056.00000,   0.00000
403189850.47576,460551392.42271,17973580.56533,   0.00094,   0.00131,   0.00023,435869152.00000,   0.00000,274640576.00000,   0.00000,   0.00000,   0.00000,-38771424.00000,   0.00000
403931546.47799,461203861.83821,17934543.93364,   0.00094,   0.00131,   0.00023,436543264.00000,   0.00000,274640576.00000,   0.00000,   0.00000,   0.00000,-38097312.00000,   0.00000
404664877.48771,461836812.93785,17895507.30194,   0.00094,   0.00131,   0.00023,437202944.00000,   0.00000,274640576.00000,   0.00000,   0.00000,   0.00000,-37437632.00000,   0.00000
405387055.17410,462480917.36084,17856470.67025,   0.00094,   0.00131,   0.00023,437865152.00000,   0.00000,274640576.00000,   0.00000,   0.00000,   0.00000,-36775424.00000,   0.00000
406120386.18382,463113868.46049,17817434.03855,   0.00094,   0.00132,   0.00023,438525472.00000,   0.00000,274640576.00000,   0.00000,   0.00000,   0.00000,-36115104.00000,   0.00000
406845352.20104,463727301.24429,17778397.40685,   0.00095,   0.00132,   0.00023,439171552.00000,   0.00000,274640576.00000,   0.00000,   0.00000,   0.00000,-35469024.00000,   0.00000
407578683.21076,464360252.34394,17733784.11349,   0.00095,   0.00132,   0.00023,439832096.00000,   0.00000,274640576.00000,   0.00000,   0.00000,   0.00000,-34808480.00000,   0.00000
408284130.91213,464965320.13523,17694747.48179,   0.00095,   0.00132,   0.00023,440466240.00000,   0.00000,274640576.00000,   0.00000,   0.00000,   0.00000,-34174336.00000,   0.00000
409000731.93684,465559234.60319,17655710.85009,   0.00095,   0.00132,   0.00023,441098560.00000,   0.00000,274640576.00000,   0.00000,   0.00000,   0.00000,-33542016.00000,   0.00000
409706179.63821,466164302.39448,17611097.55673,   0.00096,   0.00132,   0.00023,441732576.00000,   0.00000,274640576.00000,   0.00000,   0.00000,   0.00000,-32908000.00000,   0.00000
410422780.66293,466758216.86243,17572060.92503,   0.00096,   0.00132,   0.00023,442365568.00000,   0.00000,274640576.00000,   0.00000,   0.00000,   0.00000,-32275008.00000,   0.00000
411119863.37179,467343766.33788,17527447.63166,   0.00096,   0.00132,   0.00023,442985504.00000,   0.00000,274640576.00000,   0.00000,   0.00000,   0.00000,-31655072.00000,   0.00000
411808581.08815,467909797.49747,17488410.99997,   0.00096,   0.00133,   0.00023,443591360.00000,   0.00000,274640576.00000,   0.00000,   0.00000,   0.00000,-31049216.00000,   0.00000
412516817.12035,468484193.64958,17443797.70660,   0.00096,   0.00133,   0.00023,444209568.00000,   0.00000,274640576.00000,   0.00000,   0.00000,   0.00000,-30431008.00000,   0.00000
413205534.83671,469050224.80917,17399184.41323,   0.00097,   0.00133,   0.00023,444815360.00000,   0.00000,274640576.00000,   0.00000,   0.00000,   0.00000,-29825216.00000,   0.00000
413894252.55307,469616255.96877,17360147.78153,   0.00097,   0.00133,   0.00023,445421792.00000,   0.00000,274640576.00000,   0.00000,   0.00000,   0.00000,-29218784.00000,   0.00000
414574605.27692,470162768.81252,17315534.48817,   0.00097,   0.00133,   0.00023,446012928.00000,   0.00000,274640576.00000,   0.00000,   0.00000,   0.00000,-28627648.00000,   0.00000
415254958.00077,470709281.65627,17270921.19480,   0.00097,   0.00133,   0.00022,446604192.00000,   0.00000,274640576.00000,   0.00000,   0.00000,   0.00000,-28036384.00000,   0.00000
415926945.73211,471236276.18417,17226307.90143,   0.00097,   0.00133,   0.00022,447180704.00000,   0.00000,274640576.00000,   0.00000,   0.00000,   0.00000,-27459872.00000,   0.00000
416607298.45596,471782789.02792,17181694.60807,   0.00098,   0.00133,   0.00022,447772096.00000,   0.00000,274640576.00000,   0.00000,   0.00000,   0.00000,-26868480.00000,   0.00000
417279286.18731,472309783.55582,17137081.31470,   0.00098,   0.00134,   0.00022,448348832.00000,   0.00000,274640576.00000,   0.00000,   0.00000,   0.00000,-26291744.00000,   0.00000
417951273.91865,472836778.08372,17092468.02133,   0.00098,   0.00134,   0.00022,448925504.00000,   0.00000,274640576.00000,   0.00000,   0.00000,   0.00000,-25715072.00000,   0.00000
418614896.65749,473344254.29577,17047854.72796,   0.00098,   0.00134,   0.00022,449487360.00000,   0.00000,274640576.00000,   0.00000,   0.00000,   0.00000,-25153216.00000,   0.00000
419278519.39633,473851730.50782,16997664.77293,   0.00098,   0.00134,   0.00022,450048608.00000,   0.00000,274640576.00000,   0.00000,   0.00000,   0.00000,-24591968.00000,   0.00000
419942142.13516,474359206.71988,16953051.47956,   0.00099,   0.00134,   0.00022,450610688.00000,   0.00000,274640576.00000,   0.00000,   0.00000,   0.00000,-24029888.00000,   0.00000
420605764.87400,474866682.93193,16908438.18619,   0.00099,   0.00134,   0.00022,451172640.00000,   0.00000,274640576.00000,   0.00000,   0.00000,   0.00000,-23467936.00000,   0.00000
421261022.62033,475354640.82813,16858248.23115,   0.00099,   0.00134,   0.00022,451719200.00000,   0.00000,274640576.00000,   0.00000,   0.00000,   0.00000,-22921376.00000,   0.00000
421916280.36667,475842598.72434,16813634.93779,   0.00099,   0.00134,   0.00022,452266432.00000,   0.00000,274640576.00000,   0.00000,   0.00000,   0.00000,-22374144.00000,   0.00000
422552019.79715,476322191.62804,16763444.98275,   0.00099,   0.00134,   0.00022,452800160.00000,   0.00000,274640576.00000,   0.00000,   0.00000,   0.00000,-21840416.00000,   0.00000
423198912.55097,476790631.20839,16718831.68938,   0.00100,   0.00134,   0.00022,453332512.00000,   0.00000,274640576.00000,   0.00000,   0.00000,   0.00000,-21308064.00000,   0.00000
423854170.29731,477278589.10460,16668641.73434,   0.00100,   0.00135,   0.00022,453879296.00000,   0.00000,274640576.00000,   0.00000,   0.00000,   0.00000,-20761280.00000,   0.00000
424501063.05113,477747028.68495,16618451.77930,   0.00100,   0.00135,   0.00022,454411104.00000,   0.00000,274640576.00000,   0.00000,   0.00000,   0.00000,-20229472.00000,   0.00000
425120072.49660,478187584.95696,16573838.48594,   0.00100,   0.00135,   0.00022,454916032.00000,   0.00000,274640576.00000,   0.00000,   0.00000,   0.00000,-19724544.00000,   0.00000
425766965.25043,478656024.53731,16523648.53090,   0.00100,   0.00135,   0.00021,455448032.00000,   0.00000,274640576.00000,   0.00000,   0.00000,   0.00000,-19192544.00000,   0.00000
426405493.01175,479104945.80182,16473458.57586,   0.00101,   0.00135,   0.00021,455965376.00000,   0.00000,274640576.00000,   0.00000,   0.00000,   0.00000,-18675200.00000,   0.00000
427044020.77306,479553867.06633,16423268.62082,   0.00101,   0.00135,   0.00021,456482656.00000,   0.00000,274640576.00000,   0.00000,   0.00000,   0.00000,-18157920.00000,   0.00000
427654665.22603,479974905.02248,16373078.66578,   0.00101,   0.00135,   0.00021,456972512.00000,   0.00000,274640576.00000,   0.00000,   0.00000,   0.00000,-17668064.00000,   0.00000
428293192.98735,480423826.28699,16322888.71075,   0.00101,   0.00135,   0.00021,457489984.00000,   0.00000,274640576.00000,   0.00000,   0.00000,   0.00000,-17150592.00000,   0.00000
428923355.75616,480853229.23565,16272698.75571,   0.00101,   0.00135,   0.00021,457992800.00000,   0.00000,274640576.00000,   0.00000,   0.00000,   0.00000,-16647776.00000,   0.00000
429525635.21662,481254748.87595,16222508.80067,   0.00102,   0.00135,   0.00021,458468064.00000,   0.00000,274640576.00000,   0.00000,   0.00000,   0.00000,-16172512.00000,   0.00000
430155797.98543,481684151.82461,16166742.18396,   0.00102,   0.00135,   0.00021,458970528.00000,   0.00000,274640576.00000,   0.00000,   0.00000,   0.00000,-15670048.00000,   0.00000
430777595.76174,482094036.45743,16116552.22892,   0.00102,   0.00135,   0.00021,459458816.00000,   0.00000,274640576.00000,   0.00000,   0.00000,   0.00000,-15181760.00000,   0.00000
431379875.22220,482495556.09773,16066362.27388,   0.00102,   0.00135,   0.00021,459934304.00000,   0.00000,274640576.00000,   0.00000,   0.00000,   0.00000,-14706272.00000,   0.00000
432001672.99850,482905440.73054,16010595.65717,   0.00102,   0.00135,   0.00021,460422400.00000,   0.00000,274640576.00000,   0.00000,   0.00000,   0.00000,-14218176.00000,   0.00000
432615105.78230,483295807.04751,15960405.70214,   0.00103,   0.00136,   0.00021,460896192.00000,   0.00000,274640576.00000,   0.00000,   0.00000,   0.00000,-13744384.00000,   0.00000
433236903.55861,483705691.68032,15904639.08543,   0.00103,   0.00136,   0.00021,461384544.00000,   0.00000,274640576.00000,   0.00000,   0.00000,   0.00000,-13256032.00000,   0.00000
433830818.02656,484087693.00478,15854449.13039,   0.00103,   0.00136,   0.00021,461845632.00000,   0.00000,274640576.00000,   0.00000,   0.00000,   0.00000,-12794944.00000,   0.00000
434435885.81785,484458541.00589,15798682.51368,   0.00103,   0.00136,   0.00021,462304672.00000,   0.00000,274640576.00000,   0.00000,   0.00000,   0.00000,-12335904.00000,   0.00000
435049318.60165,484848907.32285,15742915.89697,   0.00103,   0.00136,   0.00020,462778400.00000,   0.00000,274640576.00000,   0.00000,   0.00000,   0.00000,-11862176.00000,   0.00000
435654386.39295,485219755.32397,15692725.94193,   0.00104,   0.00136,   0.00020,463238176.00000,   0.00000,274640576.00000,   0.00000,   0.00000,   0.00000,-11402400.00000,   0.00000
436259454.18424,485590603.32508,15636959.32522,   0.00104,   0.00136,   0.00020,463697312.00000,   0.00000,274640576.00000,   0.00000,   0.00000,   0.00000,-10943264.00000,   0.00000
436864521.97553,485961451.32620,15581192.70851,   0.00104,   0.00136,   0.00020,464156736.00000,   0.00000,274640576.00000,   0.00000,   0.00000,   0.00000,-10483840.00000,   0.00000
437441706.45847,486304416.01896,15525426.09181,   0.00104,   0.00136,   0.00020,464588544.00000,   0.00000,274640576.00000,   0.00000,   0.00000,   0.00000,-10052032.00000,   0.00000
438046774.24976,486675264.02008,15469659.47510,   0.00104,   0.00136,   0.00020,465048160.00000,   0.00000,274640576.00000,   0.00000,   0.00000,   0.00000,-9592416.00000,   0.00000
438643477.04855,487026593.70534,15413892.85839,   0.00105,   0.00136,   0.00020,465493312.00000,   0.00000,274640576.00000,   0.00000,   0.00000,   0.00000,-9147264.00000,   0.00000
439231814.85483,487358405.07476,15358126.24168,   0.00105,   0.00136,   0.00020,465923680.00000,   0.00000,274640576.00000,   0.00000,   0.00000,   0.00000,-8716896.00000,   0.00000
439828517.65362,487709734.76003,15296782.96330,   0.00105,   0.00136,   0.00020,466368544.00000,   0.00000,274640576.00000,   0.00000,   0.00000,   0.00000,-8272032.00000,   0.00000
440416855.45990,488041546.12945,15241016.34659,   0.00105,   0.00136,   0.00020,466799296.00000,   0.00000,274640576.00000,   0.00000,   0.00000,   0.00000,-7841280.00000,   0.00000
441024711.58203,488381722.49137,15185249.72988,   0.00105,   0.00136,   0.00020,467243424.00000,   0.00000,274640576.00000,   0.00000,   0.00000,   0.00000,-7397152.00000,   0.00000
441613049.38831,488713533.86079,15123906.45150,   0.00106,   0.00136,   0.00020,467674016.00000,   0.00000,274640576.00000,   0.00000,   0.00000,   0.00000,-6966560.00000,   0.00000
442201387.19459,489045345.23021,15068139.83479,   0.00106,   0.00136,   0.00020,468105472.00000,   0.00000,274640576.00000,   0.00000,   0.00000,   0.00000,-6535104.00000,   0.00000
442781360.00836,489357638.28378,15006796.55641,   0.00106,   0.00136,   0.00020,468521888.00000,   0.00000,274640576.00000,   0.00000,   0.00000,   0.00000,-6118688.00000,   0.00000
443361332.82214,489669931.33735,14945453.27803,   0.00106,   0.00136,   0.00019,468938688.00000,   0.00000,274640576.00000,   0.00000,   0.00000,   0.00000,-5701888.00000,   0.00000
443960823.95176,489990589.38343,14889686.66132,   0.00106,   0.00136,   0.00019,469369056.00000,   0.00000,274640576.00000,   0.00000,   0.00000,   0.00000,-5271520.00000,   0.00000
444540796.76554,490302882.43700,14828343.38294,   0.00107,   0.00136,   0.00019,469786304.00000,   0.00000,274640576.00000,   0.00000,   0.00000,   0.00000,-4854272.00000,   0.00000
445140287.89516,490623540.48308,14767000.10456,   0.00107,   0.00136,   0.00019,470216832.00000,   0.00000,274640576.00000,   0.00000,   0.00000,   0.00000,-4423744.00000,   0.00000
445711895.71643,490916315.22080,14705656.82618,   0.00107,   0.00136,   0.00019,470619968.00000,   0.00000,274640576.00000,   0.00000,   0.00000,   0.00000,-4020608.00000,   0.00000
446303021.85354,491217454.95103,14644313.54780,   0.00107,   0.00136,   0.00019,471036384.00000,   0.00000,274640576.00000,   0.00000,   0.00000,   0.00000,-3604192.00000,   0.00000
446874629.67481,491510229.68875,14582970.26942,   0.00107,   0.00136,   0.00019,471440160.00000,   0.00000,274640576.00000,   0.00000,   0.00000,   0.00000,-3200416.00000,   0.00000
447457390.81942,491791851.10313,14521626.99104,   0.00108,   0.00137,   0.00019,471842400.00000,   0.00000,274640576.00000,   0.00000,   0.00000,   0.00000,-2798176.00000,   0.00000
448048516.95654,492092990.83336,14460283.71266,   0.00108,   0.00137,   0.00019,472259872.00000,   0.00000,274640576.00000,   0.00000,   0.00000,   0.00000,-2380704.00000,   0.00000
448631278.10115,492374612.24774,14393363.77261,   0.00108,   0.00137,   0.00019,472662368.00000,   0.00000,274640576.00000,   0.00000,   0.00000,   0.00000,-1978208.00000,   0.00000
449194520.92991,492647868.66962,14332020.49423,   0.00108,   0.00137,   0.00019,473052736.00000,   0.00000,274640576.00000,   0.00000,   0.00000,   0.00000,-1587840.00000,   0.00000
449777282.07452,492929490.08400,14265100.55418,   0.00109,   0.00137,   0.00019,473455808.00000,   0.00000,274640576.00000,   0.00000,   0.00000,   0.00000,-1184768.00000,   0.00000
450351678.22662,493191593.18253,14203757.27580,   0.00109,   0.00137,   0.00018,473845216.00000,   0.00000,274640576.00000,   0.00000,   0.00000,   0.00000,-795360.00000,   0.00000
450953957.68708,493481579.58942,14136837.33575,   0.00109,   0.00137,   0.00018,474262080.00000,   0.00000,274640576.00000,   0.00000,   0.00000,   0.00000,-378496.00000,   0.00000
451510403.95943,493735491.96612,14077411.03482,   0.00109,   0.00137,   0.00018,474639904.00000,   0.00000,274640576.00000,   0.00000,   0.00000,   0.00000,-672.00000,   0.00000
451517444.60603,493731546.55736,14075085.96020,   0.00109,   0.00137,   0.00018,474639904.00000,   0.00000,274640608.00000,   0.00000,   0.00000,   0.00000, -96.00000,   1.00000
451725893.68734,493586923.55821,13994555.30481,   0.00109,   0.00137,   0.00018,475030272.00000,   0.00000,274641920.00000,   0.00000,   0.00000,   0.00000,  32.00000,   2.00000
451933814.28468,493442078.89838,13914085.46509,   0.00110,   0.00137,   0.00018,475031968.00000,   0.00000,274643200.00000,   0.00000,   0.00000,   0.00000, -32.00000,   2.00000
452153826.65894,493287509.96740,13833730.52479,   0.00110,   0.00137,   0.00018,475032032.00000,   0.00000,274644480.00000,   0.00000,   0.00000,   0.00000,   0.00000,   2.00000
452366289.27647,493138213.61747,13753892.31814,   0.00110,   0.00137,   0.00018,475020320.00000,   0.00000,274645728.00000,   0.00000,   0.00000,   0.00000,  64.00000,   2.00000
452580004.14743,492987674.25957,13673164.07461,   0.00110,   0.00137,   0.00018,475049760.00000,   0.00001,274647072.00000,   0.00000,   0.00001,   0.00000,  64.00000,   2.00000
452791505.25007,492838034.71158,13593444.88724,   0.00110,   0.00137,   0.00018,475023520.00000,   0.00001,274648320.00000,   0.00001,   0.00001,   0.00000,   0.00000,   2.00000
453015497.94766,492679100.98301,13508278.61503,   0.00111,   0.00137,   0.00018,475023072.00000,   0.00001,274649568.00000,   0.00001,   0.00001,   0.00000, -96.00000,   2.00000
453233373.32802,492524063.15172,13428248.72248,   0.00111,   0.00137,   0.00018,475039648.00000,   0.00001,274650848.00000,   0.00001,   0.00001,   0.00000,  32.00000,   2.00000
453456451.38845,492364865.54865,13343207.14178,   0.00111,   0.00137,   0.00018,475026240.00000,   0.00001,274652096.00000,   0.00001,   0.00001,   0.00000,  64.00000,   2.00000
453678691.34020,492205121.19402,13263788.30926,   0.00111,   0.00137,   0.00017,475028160.00000,   0.00001,274653344.00000,   0.00001,   0.00001,   0.00000, -32.00000,   2.00000
453900941.28968,492045764.38428,13178873.98692,   0.00112,   0.00137,   0.00017,475029280.00000,   0.00001,274654560.00000,   0.00001,   0.00001,   0.00000, -32.00000,   2.00000
454122534.50237,491886060.40805,13094017.35194,   0.00112,   0.00137,   0.00017,475030848.00000,   0.00001,274655808.00000,   0.00001,   0.00001,   0.00000, -64.00000,   2.00000
454350447.37259,491720605.90652,13014357.04066,   0.00112,   0.00137,   0.00017,475045888.00000,   0.00002,274657120.00000,   0.00001,   0.00001,   0.00000, -32.00000,   2.00000
454576625.16682,491556370.46711,12930100.97232,   0.00112,   0.00137,   0.00017,475019232.00000,   0.00002,274658304.00000,   0.00001,   0.00002,   0.00000,   0.00000,   2.00000
454809292.51880,491386592.83751,12845477.91793,   0.00112,   0.00137,   0.00017,475034016.00000,   0.00002,274659552.00000,   0.00001,   0.00002,   0.00000, -96.00000,   2.00000
455034551.31154,491222098.98801,12761344.91794,   0.00113,   0.00137,   0.00017,475022272.00000,   0.00002,274660736.00000,   0.00001,   0.00002,   0.00000,-128.00000,   2.00000
455266801.83027,491052639.68700,12671295.91529,   0.00113,   0.00137,   0.00017,475036608.00000,   0.00002,274661984.00000,   0.00001,   0.00002,   0.00000,  32.00000,   2.00000
455497927.74155,490882343.31752,12586865.89503,   0.00113,   0.00137,   0.00017,475038656.00000,   0.00002,274663232.00000,   0.00002,   0.00002,   0.00000, -32.00000,   2.00000
455734058.83255,490707534.54572,12502959.69849,   0.00113,   0.00136,   0.00017,475025504.00000,   0.00002,274664416.00000,   0.00002,   0.00002,   0.00000,   0.00000,   2.00000
455964634.68473,490537432.02223,12413099.80310,   0.00114,   0.00136,   0.00016,475041088.00000,   0.00002,274665664.00000,   0.00002,   0.00002,   0.00000,-192.00000,   2.00000
456200353.87991,490362936.58205,12323766.87529,   0.00114,   0.00136,   0.00016,475028128.00000,   0.00002,274666880.00000,   0.00002,   0.00002,   0.00000,  32.00000,   2.00000
456441919.33092,490182315.92058,12239643.08852,   0.00114,   0.00136,   0.00016,475043552.00000,   0.00003,274668128.00000,   0.00002,   0.00002,   0.00000,  96.00000,   2.00000
456681826.19367,490002746.46126,12150873.37951,   0.00114,   0.00136,   0.00016,475017056.00000,   0.00003,274669280.00000,   0.00002,   0.00003,   0.00000, -32.00000,   2.00000
456922642.50277,489822131.27034,12061318.19356,   0.00114,   0.00136,   0.00016,475046176.00000,   0.00003,274670528.00000,   0.00002,   0.00003,   0.00000,  32.00000,   2.00000
457161588.78292,489642276.86794,11972674.75546,   0.00115,   0.00136,   0.00016,475019840.00000,   0.00003,274671680.00000,   0.00002,   0.00003,   0.00000,  64.00000,   2.00000
457401349.61146,489461334.85098,11883255.70406,   0.00115,   0.00136,   0.00016,475049184.00000,   0.00003,274672928.00000,   0.00002,   0.00003,   0.00000,-128.00000,   2.00000
457646478.00815,489276168.31605,11788780.25427,   0.00115,   0.00136,   0.00016,475035808.00000,   0.00003,274674112.00000,   0.00002,   0.00003,   0.00000,  32.00000,   2.00000
457890621.77456,489090339.08244,11699932.49763,   0.00115,   0.00136,   0.00016,475037888.00000,   0.00003,274675296.00000,   0.00002,   0.00003,   0.00000,  96.00000,   2.00000
458139695.44985,488899773.44440,11611576.62390,   0.00116,   0.00136,   0.00016,475024992.00000,   0.00003,274676480.00000,   0.00002,   0.00003,   0.00000,   0.00000,   2.00000
458389839.99553,488708541.96435,11516907.46642,   0.00116,   0.00136,   0.00015,475053856.00000,   0.00003,274677696.00000,   0.00003,   0.00003,   0.00000, -32.00000,   2.00000
458638204.80698,488518004.47462,11423120.69647,   0.00116,   0.00136,   0.00015,475027584.00000,   0.00003,274678880.00000,   0.00003,   0.00003,   0.00000,  64.00000,   2.00000
458892688.99623,488321804.82640,11329014.47474,   0.00116,   0.00136,   0.00015,475042528.00000,   0.00004,274680064.00000,   0.00003,   0.00003,   0.00000,   0.00000,   2.00000
459139449.00308,488130341.33674,11240919.06091,   0.00117,   0.00136,   0.00015,475031136.00000,   0.00004,274681216.00000,   0.00003,   0.00004,   0.00001,  32.00000,   2.00000
459393200.88579,487934185.83683,11141388.67416,   0.00117,   0.00136,   0.00015,475045184.00000,   0.00004,274682432.00000,   0.00003,   0.00004,   0.00001, -64.00000,   2.00000
459645921.49453,487737344.23324,11047492.23161,   0.00117,   0.00136,   0.00015,475047232.00000,   0.00004,274683616.00000,   0.00003,   0.00004,   0.00001, -32.00000,   2.00000
459903561.53262,487535661.30430,10954070.06424,   0.00117,   0.00136,   0.00015,475034304.00000,   0.00004,274684800.00000,   0.00003,   0.00004,   0.00001, -64.00000,   2.00000
460161796.16336,487333047.59063,10859945.41045,   0.00118,   0.00136,   0.00015,475063648.00000,   0.00004,274686048.00000,   0.00003,   0.00004,   0.00001,   0.00000,   2.00000
460418671.29346,487131375.48533,10761098.96158,   0.00118,   0.00136,   0.00015,475037088.00000,   0.00004,274687200.00000,   0.00003,   0.00004,   0.00001,   0.00000,   2.00000
460681343.09339,486923829.31970,10661953.90178,   0.00118,   0.00136,   0.00014,475052256.00000,   0.00004,274688384.00000,   0.00003,   0.00004,   0.00001, -64.00000,   2.00000
460943247.02459,486715904.70314,10568452.54543,   0.00118,   0.00136,   0.00014,475054048.00000,   0.00004,274689600.00000,   0.00003,   0.00004,   0.00001,  32.00000,   2.00000
461198158.43134,486513399.74726,10469816.51986,   0.00118,   0.00136,   0.00014,475041824.00000,   0.00005,274690752.00000,   0.00003,   0.00004,   0.00001,   0.00000,   2.00000
461471154.87453,486295148.82827,10370924.77348,   0.00119,   0.00136,   0.00014,475056000.00000,   0.00005,274691968.00000,   0.00004,   0.00004,   0.00001,  32.00000,   2.00000
461731762.30748,486087176.81588,10266521.99666,   0.00119,   0.00136,   0.00014,475058112.00000,   0.00005,274693184.00000,   0.00004,   0.00005,   0.00001, -32.00000,   2.00000
461996825.77332,485873757.18063,10168136.40456,   0.00119,   0.00136,   0.00014,475045728.00000,   0.00005,274694336.00000,   0.00004,   0.00005,   0.00001, -64.00000,   2.00000
462267863.61640,485654777.04461,10069480.49197,   0.00119,   0.00136,   0.00014,475060736.00000,   0.00005,274695552.00000,   0.00004,   0.00005,   0.00001,  32.00000,   2.00000
462532004.73036,485441257.69125,9965681.77512,   0.00120,   0.00136,   0.00014,475048640.00000,   0.00005,274696704.00000,   0.00004,   0.00005,   0.00001,  32.00000,   2.00000
462801975.52961,485222059.23089,9861621.93560,   0.00120,   0.00135,   0.00014,475063744.00000,   0.00005,274697920.00000,   0.00004,   0.00005,   0.00001,  96.00000,   2.00000
463076460.09967,484997428.34023,9763567.88881,   0.00120,   0.00135,   0.00013,475051424.00000,   0.00005,274699072.00000,   0.00004,   0.00005,   0.00001,  96.00000,   2.00000
463344947.88680,484777596.63324,9659666.90487,   0.00120,   0.00135,   0.00013,475067104.00000,   0.00005,274700288.00000,   0.00004,   0.00005,   0.00001, -64.00000,   2.00000
463625127.91669,484547663.41684,9550310.07897,   0.00121,   0.00135,   0.00013,475067392.00000,   0.00006,274701504.00000,   0.00004,   0.00005,   0.00001,   0.00000,   2.00000
463897887.23604,484322576.44488,9446934.16970,   0.00121,   0.00135,   0.00013,475055968.00000,   0.00006,274702656.00000,   0.00004,   0.00005,   0.00001,  64.00000,   2.00000
464176227.03851,484091660.02316,9343312.14745,   0.00121,   0.00135,   0.00013,475071264.00000,   0.00006,274703872.00000,   0.00004,   0.00005,   0.00001,   0.00000,   2.00000
464454140.71329,483860779.27565,9234211.04108,   0.00122,   0.00135,   0.00013,475072576.00000,   0.00006,274705088.00000,   0.00005,   0.00006,   0.00001,  32.00000,   2.00000
464731346.98812,483629639.57148,9125201.12119,   0.00122,   0.00135,   0.00013,475074144.00000,   0.00006,274706304.00000,   0.00005,   0.00006,   0.00001, -64.00000,   2.00000
465013062.06798,483392962.93372,9022178.01998,   0.00122,   0.00135,   0.00013,475061888.00000,   0.00006,274707488.00000,   0.00005,   0.00006,   0.00001,   0.00000,   2.00000
465288817.10807,483161281.00668,8913345.74262,   0.00122,   0.00135,   0.00012,475077536.00000,   0.00006,274708704.00000,   0.00005,   0.00006,   0.00001, -96.00000,   2.00000
465575662.91217,482918885.73827,8804621.47838,   0.00123,   0.00135,   0.00012,475078528.00000,   0.00006,274709920.00000,   0.00005,   0.00006,   0.00001, -32.00000,   2.00000
465861944.55409,482676406.76520,8690422.59678,   0.00123,   0.00135,   0.00012,475080000.00000,   0.00006,274711136.00000,   0.00005,   0.00006,   0.00001, -32.00000,   2.00000
466141058.16235,482438927.72200,8582189.22359,   0.00123,   0.00135,   0.00012,475068288.00000,   0.00007,274712320.00000,   0.00005,   0.00006,   0.00001,  64.00000,   2.00000
466431997.38112,482190356.55523,8467884.07090,   0.00123,   0.00135,   0.00012,475097120.00000,   0.00007,274713568.00000,   0.00005,   0.00006,   0.00001,  64.00000,   2.00000
466716054.17734,481947077.91726,8353976.83318,   0.00124,   0.00135,   0.00012,475085120.00000,   0.00007,274714816.00000,   0.00005,   0.00006,   0.00001, 128.00000,   2.00000
467004367.96235,481697897.57932,8246030.45910,   0.00124,   0.00135,   0.00012,475073088.00000,   0.00007,274716000.00000,   0.00005,   0.00006,   0.00001, -96.00000,   2.00000
467298779.24088,481443680.02082,8126761.86533,   0.00124,   0.00134,   0.00011,475087808.00000,   0.00007,274717216.00000,   0.00005,   0.00007,   0.00001,  64.00000,   2.00000
467586453.18696,481193865.95549,8012869.39718,   0.00124,   0.00134,   0.00011,475104096.00000,   0.00007,274718496.00000,   0.00006,   0.00007,   0.00001, -32.00000,   2.00000
467878839.36743,480938598.20924,7899369.23240,   0.00125,   0.00134,   0.00011,475091744.00000,   0.00007,274719712.00000,   0.00006,   0.00007,   0.00001,   0.00000,   2.00000
468170775.80970,480683394.46276,7780406.02645,   0.00125,   0.00134,   0.00011,475093216.00000,   0.00007,274720928.00000,   0.00006,   0.00007,   0.00001, 128.00000,   2.00000
468466917.07533,480422166.24309,7667388.80107,   0.00125,   0.00134,   0.00011,475081216.00000,   0.00007,274722112.00000,   0.00006,   0.00007,   0.00001, -32.00000,   2.00000
468763073.78152,480160659.25845,7548364.79572,   0.00126,   0.00134,   0.00011,475110528.00000,   0.00008,274723392.00000,   0.00006,   0.00007,   0.00001, -64.00000,   2.00000
469058417.98953,479898876.87129,7429453.30720,   0.00126,   0.00134,   0.00011,475112288.00000,   0.00008,274724672.00000,   0.00006,   0.00007,   0.00001,   0.00000,   2.00000
469358613.85348,479631711.06741,7305350.71960,   0.00126,   0.00134,   0.00010,475099808.00000,   0.00008,274725920.00000,   0.00006,   0.00007,   0.00001,-128.00000,   2.00000
469657751.49994,479364011.14436,7186928.88718,   0.00126,   0.00134,   0.00010,475101856.00000,   0.00008,274727168.00000,   0.00006,   0.00007,   0.00001,  64.00000,   2.00000
469955862.49862,479095811.68902,7068612.35632,   0.00127,   0.00134,   0.00010,475103744.00000,   0.00008,274728384.00000,   0.00006,   0.00007,   0.00001, -64.00000,   2.00000
470259370.56943,478822111.23737,6944595.14481,   0.00127,   0.00134,   0.00010,475119040.00000,   0.00008,274729664.00000,   0.00006,   0.00008,   0.00001, -32.00000,   2.00000
470555991.62471,478553504.77284,6820935.40725,   0.00127,   0.00134,   0.00010,475107200.00000,   0.00008,274730912.00000,   0.00006,   0.00008,   0.00001,  64.00000,   2.00000
470863173.22906,478273714.37986,6697395.60856,   0.00128,   0.00134,   0.00010,475108736.00000,   0.00008,274732160.00000,   0.00007,   0.00008,   0.00001,  32.00000,   2.00000
471169689.46690,477993341.47332,6573502.54025,   0.00128,   0.00133,   0.00010,475138528.00000,   0.00008,274733504.00000,   0.00007,   0.00008,   0.00001,   0.00000,   2.00000
471475115.34051,477712913.43424,6444622.99891,   0.00128,   0.00133,   0.00009,475112512.00000,   0.00009,274734752.00000,   0.00007,   0.00008,   0.00001, -32.00000,   2.00000
471785304.59520,477426472.12646,6321211.09159,   0.00128,   0.00133,   0.00009,475128288.00000,   0.00009,274736032.00000,   0.00007,   0.00008,   0.00001, -32.00000,   2.00000
472083363.06942,477150778.05210,6192347.75921,   0.00129,   0.00133,   0.00009,475130336.00000,   0.00009,274737344.00000,   0.00007,   0.00008,   0.00001,  96.00000,   2.00000
472397305.38860,476858269.81061,6063828.66592,   0.00129,   0.00133,   0.00009,475118176.00000,   0.00009,274738592.00000,   0.00007,   0.00008,   0.00001,  32.00000,   2.00000
472710429.26132,476565268.37799,5935010.97519,   0.00129,   0.00133,   0.00009,475147936.00000,   0.00009,274739936.00000,   0.00007,   0.00008,   0.00001,  96.00000,   2.00000
473017117.59814,476277715.66743,5800961.79233,   0.00130,   0.00133,   0.00009,475135808.00000,   0.00009,274741248.00000,   0.00007,   0.00008,   0.00001, 128.00000,   2.00000
473333741.73856,475978413.37563,5672612.73324,   0.00130,   0.00133,   0.00008,475137984.00000,   0.00009,274742528.00000,   0.00007,   0.00009,   0.00001,  64.00000,   2.00000
473638229.65172,475689883.25800,5538819.60945,   0.00130,   0.00133,   0.00008,475139936.00000,   0.00009,274743840.00000,   0.00007,   0.00009,   0.00001,  96.00000,   2.00000
473953134.42363,475390090.58963,5405162.87432,   0.00131,   0.00133,   0.00008,475141664.00000,   0.00010,274745152.00000,   0.00008,   0.00009,   0.00001,  64.00000,   2.00000
474272499.51367,475084222.22529,5271452.35317,   0.00131,   0.00133,   0.00008,475157760.00000,   0.00010,274746528.00000,   0.00008,   0.00009,   0.00001, -32.00000,   2.00000
474585195.25068,474783487.69430,5138059.20326,   0.00131,   0.00132,   0.00008,475145952.00000,   0.00010,274747840.00000,   0.00008,   0.00009,   0.00001, -32.00000,   2.00000
474902587.66160,474476961.94222,4999055.23464,   0.00131,   0.00132,   0.00008,475161760.00000,   0.00010,274749184.00000,   0.00008,   0.00009,   0.00001,   0.00000,   2.00000
475224190.36588,474164125.36405,4865932.07020,   0.00132,   0.00132,   0.00007,475150144.00000,   0.00010,274750496.00000,   0.00008,   0.00009,   0.00001,-128.00000,   2.00000
475539478.28052,473856839.41515,4727210.22615,   0.00132,   0.00132,   0.00007,475165888.00000,   0.00010,274751872.00000,   0.00008,   0.00009,   0.00001,  32.00000,   2.00000
475859162.20986,473543386.28752,4588790.35190,   0.00132,   0.00132,   0.00007,475154144.00000,   0.00010,274753184.00000,   0.00008,   0.00009,   0.00001,  32.00000,   2.00000
476183333.92133,473224052.70844,4444784.55142,   0.00133,   0.00132,   0.00007,475170144.00000,   0.00010,274754560.00000,   0.00008,   0.00010,   0.00001, -96.00000,   2.00000
476500888.73927,472910075.35226,4306351.37237,   0.00133,   0.00132,   0.00007,475186304.00000,   0.00011,274755968.00000,   0.00008,   0.00010,   0.00001,  64.00000,   2.00000
476822766.00101,472589828.82463,4162638.64194,   0.00133,   0.00132,   0.00007,475174592.00000,   0.00011,274757344.00000,   0.00009,   0.00010,   0.00001, -32.00000,   2.00000
477149208.90297,472263520.94075,4019214.52754,   0.00134,   0.00132,   0.00006,475162912.00000,   0.00011,274758688.00000,   0.00009,   0.00010,   0.00001,  64.00000,   2.00000
477468853.44812,471942452.06672,3875801.20392,   0.00134,   0.00132,   0.00006,475178944.00000,   0.00011,274760064.00000,   0.00009,   0.00010,   0.00001,  96.00000,   2.00000
477792826.71517,471615501.73381,3732409.32180,   0.00134,   0.00131,   0.00006,475195136.00000,   0.00011,274761504.00000,   0.00009,   0.00010,   0.00001, 128.00000,   2.00000
478121130.58274,471282229.07092,3583722.81903,   0.00135,   0.00131,   0.00006,475183520.00000,   0.00011,274762880.00000,   0.00009,   0.00010,   0.00001, -64.00000,   2.00000
478448429.62263,470948677.06817,3435193.05981,   0.00135,   0.00131,   0.00006,475185664.00000,   0.00011,274764256.00000,   0.00009,   0.00010,   0.00001,   0.00000,   2.00000
478779534.60900,470608829.96963,3292273.46365,   0.00135,   0.00131,   0.00005,475202272.00000,   0.00011,274765696.00000,   0.00009,   0.00010,   0.00001, -32.00000,   2.00000
479104501.90902,470274417.86088,3138477.81874,   0.00136,   0.00131,   0.00005,475190176.00000,   0.00012,274767104.00000,   0.00009,   0.00011,   0.00001,   0.00000,   2.00000
479433224.05756,469933711.77579,2990309.25998,   0.00136,   0.00131,   0.00005,475206656.00000,   0.00012,274768544.00000,   0.00009,   0.00011,   0.00001, -32.00000,   2.00000
479761127.00190,469592946.11726,2836733.44868,   0.00136,   0.00131,   0.00005,475208768.00000,   0.00012,274769984.00000,   0.00010,   0.00011,   0.00001,  32.00000,   2.00000
480093034.35100,469245433.55059,2688981.53187,   0.00137,   0.00131,   0.00005,475197664.00000,   0.00012,274771392.00000,   0.00010,   0.00011,   0.00001,   0.00000,   2.00000
480423402.19883,468897981.62363,2535644.50748,   0.00137,   0.00131,   0.00004,475227776.00000,   0.00012,274772896.00000,   0.00010,   0.00011,   0.00001, -96.00000,   2.00000
480758333.73740,468544317.23288,2376988.82779,   0.00137,   0.00131,   0.00004,475216352.00000,   0.00012,274774336.00000,   0.00010,   0.00011,   0.00001,  32.00000,   2.00000
481091757.92500,468189954.56550,2224074.92131,   0.00138,   0.00130,   0.00004,475218816.00000,   0.00012,274775808.00000,   0.00010,   0.00011,   0.00001,  32.00000,   2.00000
481424000.12176,467835209.29143,2065757.45465,   0.00138,   0.00130,   0.00004,475221152.00000,   0.00012,274777280.00000,   0.00010,   0.00011,   0.00001, 128.00000,   2.00000
481754767.41699,467479800.02710,1907611.68641,   0.00138,   0.00130,   0.00004,475223712.00000,   0.00013,274778720.00000,   0.00010,   0.00011,   0.00001,  64.00000,   2.00000
482095038.01314,467112431.30096,1749637.14869,   0.00139,   0.00130,   0.00003,475226368.00000,   0.00013,274780192.00000,   0.00010,   0.00012,   0.00001, -64.00000,   2.00000
482428440.11344,466750723.21036,1591784.77284,   0.00139,   0.00130,   0.00003,475242528.00000,   0.00013,274781728.00000,   0.00011,   0.00012,   0.00001,  96.00000,   2.00000
482766064.99519,466382363.42092,1428585.44120,   0.00139,   0.00130,   0.00003,475231328.00000,   0.00013,274783200.00000,   0.00011,   0.00012,   0.00001, 128.00000,   2.00000
483107285.56241,466007925.16042,1265523.66642,   0.00140,   0.00130,   0.00003,475248032.00000,   0.00013,274784704.00000,   0.00011,   0.00012,   0.00001,   0.00000,   2.00000
483442181.77877,465638522.31026,1102682.15407,   0.00140,   0.00130,   0.00003,475236288.00000,   0.00013,274786208.00000,   0.00011,   0.00012,   0.00001,   0.00000,   2.00000
483780776.67333,465263190.01523,939989.99037,   0.00140,   0.00129,   0.00002,475253056.00000,   0.00013,274787744.00000,   0.00011,   0.00012,   0.00001,  32.00000,   2.00000
484117855.73975,464887223.12265,771911.96288,   0.00141,   0.00129,   0.00002,475255552.00000,   0.00014,274789280.00000,   0.00011,   0.00012,   0.00001, -96.00000,   2.00000
484458620.42421,464505399.67519,609576.80312,   0.00141,   0.00129,   0.00002,475272192.00000,   0.00014,274790848.00000,   0.00011,   0.00012,   0.00001, -32.00000,   2.00000
484798531.36258,464122162.98134,441885.86397,   0.00142,   0.00129,   0.00002,475247040.00000,   0.00014,274792352.00000,   0.00011,   0.00012,   0.00001, -64.00000,   2.00000
485141970.69091,463732958.40855,268803.19984,   0.00142,   0.00129,   0.00002,475263840.00000,   0.00014,274793888.00000,   0.00012,   0.00013,   0.00001, -96.00000,   2.00000
485478322.13810,463349481.99133,101487.44017,   0.00142,   0.00129,   0.00001,475280000.00000,   0.00014,274795488.00000,   0.00012,   0.00013,   0.00001,   0.00000,   2.00000
485823764.22202,462953763.38256,-71201.62459,   0.00143,   0.00129,   0.00001,475283264.00000,   0.00014,274797088.00000,   0.00012,   0.00013,   0.00001,  32.00000,   2.00000
486168476.82051,462556580.57301,-243708.90284,   0.00143,   0.00129,   0.00001,475258080.00000,   0.00014,274798592.00000,   0.00012,   0.00013,   0.00001, 160.00000,   2.00000
486510858.76936,462159693.89429,-415989.97703,   0.00143,   0.00128,   0.00001,475288544.00000,   0.00015,274800224.00000,   0.00012,   0.00013,   0.00001, -32.00000,   2.00000
486851847.78249,461762353.68609,-588065.89750,   0.00144,   0.00128,   0.00000,475291008.00000,   0.00015,274801824.00000,   0.00012,   0.00013,   0.00001,   0.00000,   2.00000
487201716.43675,461352610.22674,-765503.72275,   0.00144,   0.00128,   0.00000,475294560.00000,   0.00015,274803424.00000,   0.00012,   0.00013,   0.00001, 128.00000,   2.00000
487545163.53340,460947612.62524,-942760.98544,   0.00144,   0.00128,  -0.00000,475282944.00000,   0.00015,274805024.00000,   0.00013,   0.00013,   0.00001,   0.00000,   2.00000
487886389.11065,460543260.74224,-1119726.32492,   0.00145,   0.00128,  -0.00000,475313280.00000,   0.00015,274806688.00000,   0.00013,   0.00013,   0.00001, 128.00000,   2.00000
488236882.98722,460125009.28452,-1302125.16843,   0.00145,   0.00128,  -0.00001,475289120.00000,   0.00015,274808256.00000,   0.00013,   0.00014,   0.00001, -32.00000,   2.00000
488585136.16783,459707529.16220,-1478625.85014,   0.00146,   0.00128,  -0.00001,475319456.00000,   0.00015,274809952.00000,   0.00013,   0.00014,   0.00001, -64.00000,   2.00000
488927072.59075,459294857.72216,-1660525.84795,   0.00146,   0.00127,  -0.00001,475307840.00000,   0.00016,274811584.00000,   0.00013,   0.00014,   0.00001, -64.00000,   2.00000
489277461.22454,458869466.02210,-1842187.00239,   0.00146,   0.00127,  -0.00001,475311552.00000,   0.00016,274813216.00000,   0.00013,   0.00014,   0.00001,   0.00000,   2.00000
489620914.71504,458450381.63977,-2029113.11678,   0.00147,   0.00127,  -0.00001,475327616.00000,   0.00016,274814912.00000,   0.00013,   0.00014,   0.00001,  32.00000,   2.00000
489972400.52438,458018248.29213,-2215780.49483,   0.00147,   0.00127,  -0.00002,475331648.00000,   0.00016,274816608.00000,   0.00014,   0.00014,   0.00001, -96.00000,   2.00000
490317915.09547,457591192.41965,-2402285.85067,   0.00148,   0.00127,  -0.00002,475319968.00000,   0.00016,274818272.00000,   0.00014,   0.00014,   0.00001, -96.00000,   2.00000
490666176.87508,457158058.09391,-2588449.28477,   0.00148,   0.00127,  -0.00002,475337120.00000,   0.00016,274819968.00000,   0.00014,   0.00014,   0.00001, -64.00000,   2.00000
491018318.72428,456717632.10861,-2774455.86418,   0.00148,   0.00127,  -0.00002,475326688.00000,   0.00016,274821632.00000,   0.00014,   0.00015,   0.00001,  64.00000,   2.00000
491363082.42440,456283283.32586,-2965684.10066,   0.00149,   0.00126,  -0.00003,475343104.00000,   0.00017,274823360.00000,   0.00014,   0.00015,   0.00001, -64.00000,   2.00000
491716070.79525,455836118.97158,-3156645.07285,   0.00149,   0.00126,  -0.00003,475347168.00000,   0.00017,274825088.00000,   0.00014,   0.00015,   0.00001,  32.00000,   2.00000
492067278.14470,455388342.12202,-3347347.97410,   0.00149,   0.00126,  -0.00003,475350080.00000,   0.00017,274826816.00000,   0.00014,   0.00015,   0.00001,  64.00000,   2.00000
492416648.71617,454939901.44828,-3543362.76066,   0.00150,   0.00126,  -0.00003,475353184.00000,   0.00017,274828544.00000,   0.00015,   0.00015,   0.00001,  64.00000,   2.00000
492764325.03654,454490926.64279,-3733545.18037,   0.00150,   0.00126,  -0.00004,475355968.00000,   0.00017,274830304.00000,   0.00015,   0.00015,   0.00001,  32.00000,   2.00000
493114362.03214,454035793.46060,-3934463.83031,   0.00151,   0.00126,  -0.00004,475373728.00000,   0.00017,274832064.00000,   0.00015,   0.00015,   0.00001,  64.00000,   2.00000
493468230.68390,453573216.23136,-4129676.28658,   0.00151,   0.00125,  -0.00004,475363392.00000,   0.00018,274833824.00000,   0.00015,   0.00015,   0.00001,  32.00000,   2.00000
493814805.61596,453117046.27314,-4324480.58984,   0.00152,   0.00125,  -0.00005,475379680.00000,   0.00018,274835616.00000,   0.00015,   0.00015,   0.00001, -32.00000,   2.00000
494164973.81198,452653168.81308,-4524734.11889,   0.00152,   0.00125,  -0.00005,475369568.00000,   0.00018,274837376.00000,   0.00015,   0.00016,   0.00001,  32.00000,   2.00000
494517495.37475,452183276.49926,-4724541.83732,   0.00152,   0.00125,  -0.00005,475387360.00000,   0.00018,274839200.00000,   0.00016,   0.00016,   0.00001,  64.00000,   2.00000
494867953.79836,451712597.52880,-4929636.59363,   0.00153,   0.00125,  -0.00005,475390784.00000,   0.00018,274841024.00000,   0.00016,   0.00016,   0.00001,  32.00000,   2.00000
495216720.58880,451241468.48464,-5128875.87001,   0.00153,   0.00125,  -0.00006,475393536.00000,   0.00018,274842848.00000,   0.00016,   0.00016,   0.00001,-192.00000,   2.00000
495568984.88267,450762487.04659,-5333576.65965,   0.00154,   0.00125,  -0.00006,475383744.00000,   0.00019,274844640.00000,   0.00016,   0.00016,   0.00001, -32.00000,   2.00000
495923524.00367,450277578.03459,-5537791.11016,   0.00154,   0.00124,  -0.00006,475401440.00000,   0.00019,274846464.00000,   0.00016,   0.00016,   0.00001,   0.00000,   2.00000
496275998.77020,449791928.19765,-5747279.47518,   0.00154,   0.00124,  -0.00006,475404896.00000,   0.00019,274848320.00000,   0.00016,   0.00016,   0.00001,  64.00000,   2.00000
496626313.08864,449305456.12600,-5956462.24562,   0.00155,   0.00124,  -0.00007,475408256.00000,   0.00019,274850144.00000,   0.00016,   0.00016,   0.00001,-128.00000,   2.00000
496975046.10376,448818679.35007,-6165346.13177,   0.00155,   0.00124,  -0.00007,475411328.00000,   0.00019,274852000.00000,   0.00017,   0.00017,   0.00001,  96.00000,   2.00000
497325642.94098,448325782.51433,-6373689.48821,   0.00156,   0.00124,  -0.00007,475429408.00000,   0.00019,274853920.00000,   0.00017,   0.00017,   0.00001,-128.00000,   2.00000
497679830.30447,447825055.06894,-6581934.58398,   0.00156,   0.00124,  -0.00008,475419744.00000,   0.00020,274855776.00000,   0.00017,   0.00017,   0.00001, 128.00000,   2.00000
498026412.39552,447330911.76064,-6795216.28893,   0.00157,   0.00123,  -0.00008,475436320.00000,   0.00020,274857696.00000,   0.00017,   0.00017,   0.00001,   0.00000,   2.00000
498376344.87555,446828681.98070,-7008398.36021,   0.00157,   0.00123,  -0.00008,475426720.00000,   0.00020,274859584.00000,   0.00017,   0.00017,   0.00001,  96.00000,   2.00000
498727941.72413,446320323.51293,-7226561.52793,   0.00157,   0.00123,  -0.00008,475444992.00000,   0.00020,274861504.00000,   0.00018,   0.00017,   0.00001,  32.00000,   2.00000
499083008.47268,445803971.76280,-7439060.65088,   0.00158,   0.00123,  -0.00009,475435296.00000,   0.00020,274863424.00000,   0.00018,   0.00017,   0.00001, -64.00000,   2.00000
499430545.60573,445294423.61412,-7656557.35421,   0.00158,   0.00123,  -0.00009,475451712.00000,   0.00020,274865344.00000,   0.00018,   0.00017,   0.00001,-128.00000,   2.00000
499781172.99852,444776505.58113,-7879531.33476,   0.00159,   0.00122,  -0.00009,475442528.00000,   0.00021,274867264.00000,   0.00018,   0.00018,   0.00001, -96.00000,   2.00000
500133770.12439,444252892.33882,-8096303.23374,   0.00159,   0.00122,  -0.00010,475460608.00000,   0.00021,274869216.00000,   0.00018,   0.00018,   0.00001,   0.00000,   2.00000
500484086.81013,443728503.43008,-8318297.72463,   0.00160,   0.00122,  -0.00010,475464416.00000,   0.00021,274871200.00000,   0.00018,   0.00018,   0.00001,  32.00000,   2.00000
500832191.72807,443203402.03913,-8539938.74708,   0.00160,   0.00122,  -0.00010,475468032.00000,   0.00021,274873184.00000,   0.00019,   0.00018,   0.00001,  32.00000,   2.00000
501181954.98710,442672477.90658,-8760908.40823,   0.00160,   0.00122,  -0.00011,475486464.00000,   0.00021,274875200.00000,   0.00019,   0.00018,   0.00001,  64.00000,   2.00000
501530867.40540,442138172.99695,-8987693.43104,   0.00161,   0.00122,  -0.00011,475462656.00000,   0.00022,274877152.00000,   0.00019,   0.00018,   0.00001,  96.00000,   2.00000
501881244.18763,441597942.26206,-9213784.80163,   0.00161,   0.00121,  -0.00011,475481056.00000,   0.00022,274879136.00000,   0.00019,   0.00018,   0.00001, -32.00000,   2.00000
502229522.14791,441057155.96527,-9439514.44656,   0.00162,   0.00121,  -0.00011,475484736.00000,   0.00022,274881152.00000,   0.00019,   0.00018,   0.00001,  64.00000,   2.00000
502578874.62350,440510239.29980,-9670085.35773,   0.00162,   0.00121,  -0.00012,475503584.00000,   0.00022,274883200.00000,   0.00020,   0.00019,   0.00001,  32.00000,   2.00000
502926333.68023,439963022.90257,-9894711.95673,   0.00163,   0.00121,  -0.00012,475507072.00000,   0.00022,274885280.00000,   0.00020,   0.00019,   0.00001, -32.00000,   2.00000
503276004.26630,439406643.89557,-10130393.27671,   0.00163,   0.00121,  -0.00012,475498688.00000,   0.00022,274887296.00000,   0.00020,   0.00019,   0.00001, -32.00000,   2.00000
503623788.75191,438850040.76254,-10360117.15029,   0.00164,   0.00120,  -0.00013,475502080.00000,   0.00023,274889344.00000,   0.00020,   0.00019,   0.00001,  64.00000,   2.00000
503968573.66189,438292328.67211,-10594991.13624,   0.00164,   0.00120,  -0.00013,475506496.00000,   0.00023,274891392.00000,   0.00020,   0.00019,   0.00001, -64.00000,   2.00000
504314695.19702,437729150.69376,-10823478.90032,   0.00165,   0.00120,  -0.00013,475524992.00000,   0.00023,274893472.00000,   0.00020,   0.00019,   0.00001, -96.00000,   2.00000
504657317.06297,437164652.61936,-11062632.15443,   0.00165,   0.00120,  -0.00014,475529696.00000,   0.00023,274895584.00000,   0.00021,   0.00019,   0.00001, -64.00000,   2.00000
505002822.96941,436591795.39147,-11296096.11947,   0.00165,   0.00120,  -0.00014,475520864.00000,   0.00023,274897664.00000,   0.00021,   0.00019,   0.00001,-128.00000,   2.00000
505348206.21878,436012631.68500,-11534191.62868,   0.00166,   0.00119,  -0.00014,475540832.00000,   0.00024,274899808.00000,   0.00021,   0.00020,   0.00001, -32.00000,   2.00000
505687172.13085,435437813.40097,-11772209.34921,   0.00166,   0.00119,  -0.00015,475530240.00000,   0.00024,274901888.00000,   0.00021,   0.00020,   0.00001, -64.00000,   2.00000
506026162.31332,434856869.60183,-12014827.64373,   0.00167,   0.00119,  -0.00015,475550112.00000,   0.00024,274904032.00000,   0.00021,   0.00020,   0.00001, 160.00000,   2.00000
506362487.01983,434275351.19641,-12251379.96899,   0.00167,   0.00119,  -0.00015,475554144.00000,   0.00024,274906208.00000,   0.00022,   0.00020,   0.00001,   0.00000,   2.00000
506704132.89513,433679355.16336,-12492945.48469,   0.00168,   0.00119,  -0.00016,475561216.00000,   0.00024,274908384.00000,   0.00022,   0.00020,   0.00000, -64.00000,   2.00000
507043481.33037,433082770.46571,-12734080.79118,   0.00168,   0.00118,  -0.00016,475565248.00000,   0.00025,274910560.00000,   0.00022,   0.00020,   0.00000, 128.00000,   2.00000
507380066.61541,432485040.78546,-12980366.28180,   0.00169,   0.00118,  -0.00016,475569824.00000,   0.00025,274912736.00000,   0.00022,   0.00020,   0.00000,   0.00000,   2.00000
507714858.61419,431886854.68446,-13226268.97638,   0.00169,   0.00118,  -0.00017,475573280.00000,   0.00025,274914944.00000,   0.00022,   0.00020,   0.00000,   0.00000,   2.00000
508052944.58903,431279715.63179,-13472205.57655,   0.00170,   0.00118,  -0.00017,475564480.00000,   0.00025,274917120.00000,   0.00023,   0.00021,   0.00000,  96.00000,   2.00000
508387256.52978,430675555.54050,-13716803.40988,   0.00170,   0.00118,  -0.00017,475595680.00000,   0.00025,274919360.00000,   0.00023,   0.00021,   0.00000,   0.00000,   2.00000
508724200.71864,430062052.62378,-13966941.46104,   0.00171,   0.00117,  -0.00018,475587424.00000,   0.00026,274921600.00000,   0.00023,   0.00021,   0.00000,  64.00000,   2.00000
509063865.46193,429439387.88023,-14217028.55046,   0.00171,   0.00117,  -0.00018,475579040.00000,   0.00026,274923776.00000,   0.00023,   0.00021,   0.00000,   0.00000,   2.00000
509395702.72294,428824471.67345,-14471710.79853,   0.00172,   0.00117,  -0.00019,475595968.00000,   0.00026,274926016.00000,   0.00024,   0.00021,   0.00000,  64.00000,   2.00000
509733348.34220,428195634.29860,-14720175.58785,   0.00172,   0.00117,  -0.00019,475602816.00000,   0.00026,274928256.00000,   0.00024,   0.00021,   0.00000, -32.00000,   2.00000
510062725.98665,427574484.61314,-14973161.95980,   0.00173,   0.00116,  -0.00019,475620128.00000,   0.00026,274930560.00000,   0.00024,   0.00021,   0.00000,  64.00000,   2.00000
510394158.49632,426943943.64889,-15226026.54580,   0.00173,   0.00116,  -0.00020,475612480.00000,   0.00027,274932832.00000,   0.00024,   0.00021,   0.00000, 128.00000,   2.00000
510729794.21296,426298398.36093,-15483733.93139,   0.00174,   0.00116,  -0.00020,475620640.00000,   0.00027,274935136.00000,   0.00024,   0.00022,   0.00000,   0.00000,   2.00000
511054525.10981,425665908.71966,-15740975.62734,   0.00174,   0.00116,  -0.00020,475622240.00000,   0.00027,274937408.00000,   0.00025,   0.00022,   0.00000,   0.00000,   2.00000
511384230.74336,425019033.72136,-15997529.08346,   0.00175,   0.00116,  -0.00021,475629760.00000,   0.00027,274939712.00000,   0.00025,   0.00022,   0.00000,  96.00000,   2.00000
511710753.78238,424371307.74897,-16253517.36183,   0.00175,   0.00115,  -0.00021,475634336.00000,   0.00028,274942048.00000,   0.00025,   0.00022,   0.00000, -32.00000,   2.00000
512036778.55334,423717693.20021,-16513876.03349,   0.00176,   0.00115,  -0.00021,475654656.00000,   0.00028,274944416.00000,   0.00025,   0.00022,  -0.00000, -96.00000,   2.00000
512357115.53130,423068348.39705,-16774336.53884,   0.00176,   0.00115,  -0.00022,475643808.00000,   0.00028,274946752.00000,   0.00026,   0.00022,  -0.00000,  32.00000,   2.00000
512682320.82836,422404511.79500,-17034135.09406,   0.00177,   0.00115,  -0.00022,475651360.00000,   0.00028,274949120.00000,   0.00026,   0.00022,  -0.00000,  96.00000,   2.00000
513003874.16661,421739409.74524,-17298949.01587,   0.00177,   0.00114,  -0.00023,475656288.00000,   0.00028,274951488.00000,   0.00026,   0.00023,  -0.00000,   0.00000,   2.00000
513326227.37833,421069550.35158,-17557032.07193,   0.00178,   0.00114,  -0.00023,475675296.00000,   0.00029,274953920.00000,   0.00026,   0.00023,  -0.00000, -32.00000,   2.00000
513646536.31261,420393727.82052,-17826908.49422,   0.00178,   0.00114,  -0.00023,475653376.00000,   0.00029,274956256.00000,   0.00026,   0.00023,  -0.00000, -32.00000,   2.00000
513962829.30802,419722367.81813,-18089494.86647,   0.00179,   0.00114,  -0.00024,475684576.00000,   0.00029,274958688.00000,   0.00027,   0.00023,  -0.00000,  64.00000,   2.00000
514280354.58592,419040612.32028,-18357650.54329,   0.00179,   0.00113,  -0.00024,475677408.00000,   0.00029,274961088.00000,   0.00027,   0.00023,  -0.00000, -32.00000,   2.00000
514595199.70437,418358365.43878,-18625289.40476,   0.00180,   0.00113,  -0.00025,475681728.00000,   0.00029,274963520.00000,   0.00027,   0.00023,  -0.00000, -64.00000,   2.00000
514910115.43024,417670980.73961,-18891689.60769,   0.00180,   0.00113,  -0.00025,475701376.00000,   0.00030,274966016.00000,   0.00027,   0.00023,  -0.00000,  96.00000,   2.00000
515223414.08462,416977712.03350,-19164389.13126,   0.00181,   0.00113,  -0.00025,475679200.00000,   0.00030,274968416.00000,   0.00028,   0.00023,  -0.00000,  96.00000,   2.00000
515536697.66195,416279314.60558,-19435819.39314,   0.00181,   0.00112,  -0.00026,475698816.00000,   0.00030,274970848.00000,   0.00028,   0.00024,  -0.00000,  96.00000,   2.00000
515849695.80375,415575668.96108,-19705948.38208,   0.00182,   0.00112,  -0.00026,475718688.00000,   0.00030,274973376.00000,   0.00028,   0.00024,  -0.00001,   0.00000,   2.00000
516156688.80199,414875720.17891,-19981822.95870,   0.00182,   0.00112,  -0.00027,475708320.00000,   0.00031,274975872.00000,   0.00028,   0.00024,  -0.00001, -32.00000,   2.00000
516467978.03827,414161043.29620,-20256948.26455,   0.00183,   0.00112,  -0.00027,475716384.00000,   0.00031,274978368.00000,   0.00029,   0.00024,  -0.00001, -64.00000,   2.00000
516776296.60671,413445790.54322,-20531493.61607,   0.00183,   0.00111,  -0.00027,475720960.00000,   0.00031,274980864.00000,   0.00029,   0.00024,  -0.00001,-224.00000,   2.00000
517082045.88195,412730279.80152,-20805471.04021,   0.00184,   0.00111,  -0.00028,475725376.00000,   0.00031,274983392.00000,   0.00029,   0.00024,  -0.00001,   0.00000,   2.00000
517383868.08532,412013489.43008,-21084375.69803,   0.00184,   0.00111,  -0.00028,475730816.00000,   0.00032,274985920.00000,   0.00029,   0.00024,  -0.00001,  32.00000,   2.00000
517689808.39177,411281962.83142,-21362474.99930,   0.00185,   0.00111,  -0.00029,475739104.00000,   0.00032,274988448.00000,   0.00030,   0.00024,  -0.00001,   0.00000,   2.00000
517990459.79438,410554582.81976,-21640787.03125,   0.00186,   0.00110,  -0.00029,475728384.00000,   0.00032,274990976.00000,   0.00030,   0.00025,  -0.00001, -32.00000,   2.00000
518289627.34348,409821470.86524,-21923160.54724,   0.00186,   0.00110,  -0.00029,475749344.00000,   0.00032,274993536.00000,   0.00030,   0.00025,  -0.00001, -96.00000,   2.00000
518588327.12051,409083493.07585,-22204041.64036,   0.00187,   0.00110,  -0.00030,475769504.00000,   0.00032,274996160.00000,   0.00030,   0.00025,  -0.00001,   0.00000,   2.00000
518885946.14552,408339570.10664,-22485757.22974,   0.00187,   0.00109,  -0.00030,475747424.00000,   0.00033,274998720.00000,   0.00031,   0.00025,  -0.00001, -32.00000,   2.00000
519182761.47065,407590626.74812,-22765934.49076,   0.00188,   0.00109,  -0.00031,475767872.00000,   0.00033,275001312.00000,   0.00031,   0.00025,  -0.00001,   0.00000,   2.00000
519475784.46052,406840702.18247,-23050963.59067,   0.00188,   0.00109,  -0.00031,475773536.00000,   0.00033,275003936.00000,   0.00031,   0.00025,  -0.00001,  64.00000,   2.00000
519769967.15234,406080212.63494,-23335954.79916,   0.00189,   0.00109,  -0.00032,475767040.00000,   0.00033,275006560.00000,   0.00032,   0.00025,  -0.00001,   0.00000,   2.00000
520055565.30363,405328514.55093,-23625082.87474,   0.00189,   0.00108,  -0.00032,475784448.00000,   0.00034,275009184.00000,   0.00032,   0.00025,  -0.00001, -96.00000,   2.00000
520345800.74696,404562751.38539,-23907741.08451,   0.00190,   0.00108,  -0.00032,475792640.00000,   0.00034,275011872.00000,   0.00032,   0.00025,  -0.00001,  32.00000,   2.00000
520633954.15935,403790026.84389,-24196809.57873,   0.00190,   0.00108,  -0.00033,475771712.00000,   0.00034,275014464.00000,   0.00032,   0.00026,  -0.00001,  96.00000,   2.00000
520915584.77523,403021778.40242,-24489008.49966,   0.00191,   0.00108,  -0.00033,475804896.00000,   0.00034,275017152.00000,   0.00033,   0.00026,  -0.00001,   0.00000,   2.00000
521201646.43493,402239415.44369,-24774687.73303,   0.00192,   0.00107,  -0.00034,475813440.00000,   0.00035,275019872.00000,   0.00033,   0.00026,  -0.00002,   0.00000,   2.00000
521481093.88334,401460057.92006,-25066080.50502,   0.00192,   0.00107,  -0.00034,475804032.00000,   0.00035,275022528.00000,   0.00033,   0.00026,  -0.00002, -96.00000,   2.00000
521763688.58267,400665681.94180,-25356438.83440,   0.00193,   0.00107,  -0.00035,475813504.00000,   0.00035,275025248.00000,   0.00033,   0.00026,  -0.00002,-128.00000,   2.00000
522035660.54209,399884774.77965,-25651807.81951,   0.00193,   0.00106,  -0.00035,475815520.00000,   0.00035,275027936.00000,   0.00034,   0.00026,  -0.00002, -64.00000,   2.00000
522313793.68070,399085331.53794,-25939592.67336,   0.00194,   0.00106,  -0.00036,475840160.00000,   0.00036,275030720.00000,   0.00034,   0.00026,  -0.00002,  96.00000,   2.00000
522585351.99950,398288856.42288,-26233108.04672,   0.00194,   0.00106,  -0.00036,475830976.00000,   0.00036,275033472.00000,   0.00034,   0.00026,  -0.00002,  32.00000,   2.00000
522856695.72212,397480711.88787,-26532075.05718,   0.00195,   0.00105,  -0.00036,475826080.00000,   0.00036,275036192.00000,   0.00035,   0.00027,  -0.00002,  96.00000,   2.00000
523127766.36735,396668734.89330,-26823684.85127,   0.00195,   0.00105,  -0.00037,475846368.00000,   0.00036,275038944.00000,   0.00035,   0.00027,  -0.00002,  32.00000,   2.00000
523394311.56565,395855538.18562,-27119986.11455,   0.00196,   0.00105,  -0.00037,475852896.00000,   0.00037,275041760.00000,   0.00035,   0.00027,  -0.00002,  64.00000,   2.00000
523657478.29613,395041946.48937,-27415471.32160,   0.00197,   0.00105,  -0.00038,475858400.00000,   0.00037,275044544.00000,   0.00035,   0.00027,  -0.00002,  32.00000,   2.00000
523920357.37555,394216600.54559,-27716418.05673,   0.00197,   0.00104,  -0.00038,475853824.00000,   0.00037,275047328.00000,   0.00036,   0.00027,  -0.00002,  64.00000,   2.00000
524182565.76630,393387356.78239,-28009924.29397,   0.00198,   0.00104,  -0.00039,475874400.00000,   0.00037,275050176.00000,   0.00036,   0.00027,  -0.00002,-128.00000,   2.00000
524438623.78371,392561210.36287,-28309242.81996,   0.00198,   0.00104,  -0.00039,475865088.00000,   0.00038,275052960.00000,   0.00036,   0.00027,  -0.00002, 160.00000,   2.00000
524695672.25210,391718803.94268,-28612875.19910,   0.00199,   0.00103,  -0.00040,475876512.00000,   0.00038,275055808.00000,   0.00037,   0.00027,  -0.00002,-128.00000,   2.00000
524950726.91495,390877048.37729,-28910204.46660,   0.00199,   0.00103,  -0.00040,475881184.00000,   0.00038,275058656.00000,   0.00037,   0.00027,  -0.00003, 128.00000,   2.00000
525200999.31001,390033993.53524,-29212194.27435,   0.00200,   0.00103,  -0.00041,475887968.00000,   0.00038,275061504.00000,   0.00037,   0.00028,  -0.00003,   0.00000,   2.00000
525449770.52874,389186723.84576,-29512196.57908,   0.00201,   0.00102,  -0.00041,475909536.00000,   0.00039,275064416.00000,   0.00037,   0.00028,  -0.00003,  64.00000,   2.00000
525697735.45107,388327297.42200,-29817668.10616,   0.00201,   0.00102,  -0.00042,475905184.00000,   0.00039,275067328.00000,   0.00038,   0.00028,  -0.00003,  32.00000,   2.00000
525940392.74680,387471416.27665,-30123496.61473,   0.00202,   0.00102,  -0.00042,475895168.00000,   0.00039,275070176.00000,   0.00038,   0.00028,  -0.00003,  64.00000,   2.00000
526183166.21549,386607493.08121,-30426093.84981,   0.00202,   0.00101,  -0.00042,475932640.00000,   0.00040,275073152.00000,   0.00038,   0.00028,  -0.00003,  64.00000,   2.00000
526424439.40184,385735976.53958,-30729907.36427,   0.00203,   0.00101,  -0.00043,475911584.00000,   0.00040,275076064.00000,   0.00039,   0.00028,  -0.00003, -32.00000,   2.00000
526662319.46599,384864228.93964,-31032912.42964,   0.00203,   0.00101,  -0.00043,475917248.00000,   0.00040,275078976.00000,   0.00039,   0.00028,  -0.00003,  96.00000,   2.00000
526897078.65464,383987495.11864,-31339334.59566,   0.00204,   0.00100,  -0.00044,475940032.00000,   0.00040,275081952.00000,   0.00039,   0.00028,  -0.00003,  32.00000,   2.00000
527132144.47704,383099324.99167,-31645787.64419,   0.00205,   0.00100,  -0.00044,475935008.00000,   0.00041,275084928.00000,   0.00040,   0.00028,  -0.00003,  64.00000,   2.00000
527362295.67445,382209978.57554,-31956888.19386,   0.00205,   0.00100,  -0.00045,475941888.00000,   0.00041,275087904.00000,   0.00040,   0.00029,  -0.00003,  96.00000,   2.00000
527588915.41933,381320410.50804,-32267161.07069,   0.00206,   0.00099,  -0.00045,475947712.00000,   0.00041,275090880.00000,   0.00040,   0.00029,  -0.00003,  64.00000,   2.00000
527811988.50496,380430624.56048,-32576607.92306,   0.00206,   0.00099,  -0.00046,475953568.00000,   0.00041,275093888.00000,   0.00040,   0.00029,  -0.00004,  96.00000,   2.00000
528036614.74798,379525457.82398,-32884792.47702,   0.00207,   0.00099,  -0.00046,475964640.00000,   0.00042,275096896.00000,   0.00041,   0.00029,  -0.00004, -32.00000,   2.00000
528256163.60102,378623820.69627,-33193473.59465,   0.00208,   0.00098,  -0.00047,475954336.00000,   0.00042,275099904.00000,   0.00041,   0.00029,  -0.00004,  96.00000,   2.00000
528475871.99278,377705936.08420,-33506355.77820,   0.00208,   0.00098,  -0.00047,475966784.00000,   0.00042,275102912.00000,   0.00041,   0.00029,  -0.00004, -32.00000,   2.00000
528688272.02620,376799387.63352,-33817505.02893,   0.00209,   0.00098,  -0.00048,475983328.00000,   0.00043,275105984.00000,   0.00042,   0.00029,  -0.00004, -64.00000,   2.00000
528899301.11141,375880254.13472,-34134176.76901,   0.00209,   0.00097,  -0.00048,475979808.00000,   0.00043,275109024.00000,   0.00042,   0.00029,  -0.00004, -32.00000,   2.00000
529113105.08538,374946765.66384,-34444075.70819,   0.00210,   0.00097,  -0.00049,475989952.00000,   0.00043,275112128.00000,   0.00042,   0.00029,  -0.00004,  64.00000,   2.00000
529316821.40009,374027437.96578,-34759053.92327,   0.00211,   0.00097,  -0.00049,475991712.00000,   0.00043,275115200.00000,   0.00043,   0.00030,  -0.00004,  64.00000,   2.00000
529521549.88938,373092658.97625,-35072674.62854,   0.00211,   0.00096,  -0.00050,476003424.00000,   0.00044,275118304.00000,   0.00043,   0.00030,  -0.00004, -32.00000,   2.00000
529724381.83521,372144983.41500,-35391778.18152,   0.00212,   0.00096,  -0.00050,476000160.00000,   0.00044,275121408.00000,   0.00043,   0.00030,  -0.00004,-160.00000,   2.00000
529921847.87021,371210246.53193,-35703648.67492,   0.00212,   0.00095,  -0.00051,476015200.00000,   0.00044,275124544.00000,   0.00044,   0.00030,  -0.00004, 128.00000,   2.00000
530117275.60345,370262501.55181,-36020987.70979,   0.00213,   0.00095,  -0.00051,476012448.00000,   0.00044,275127648.00000,   0.00044,   0.00030,  -0.00005, 128.00000,   2.00000
530312054.29666,369298414.37090,-36342348.84988,   0.00214,   0.00095,  -0.00052,476025568.00000,   0.00045,275130816.00000,   0.00044,   0.00030,  -0.00005,  32.00000,   2.00000
530499681.26116,368350461.00698,-36657834.06000,   0.00214,   0.00094,  -0.00052,476024896.00000,   0.00045,275133952.00000,   0.00045,   0.00030,  -0.00005,  96.00000,   2.00000
530686782.62073,367386295.86863,-36977321.79181,   0.00215,   0.00094,  -0.00053,476038240.00000,   0.00045,275137152.00000,   0.00045,   0.00030,  -0.00005,  96.00000,   2.00000
530873231.11412,366410000.45302,-37296791.14258,   0.00215,   0.00094,  -0.00054,476034368.00000,   0.00046,275140320.00000,   0.00045,   0.00030,  -0.00005,   0.00000,   2.00000
531052532.12618,365445750.13767,-37614344.94417,   0.00216,   0.00093,  -0.00054,476050976.00000,   0.00046,275143520.00000,   0.00046,   0.00030,  -0.00005, 192.00000,   2.00000
531229578.66766,364468282.87850,-37937308.62818,   0.00217,   0.00093,  -0.00055,476048608.00000,   0.00046,275146720.00000,   0.00046,   0.00031,  -0.00005, -32.00000,   2.00000
531407298.35194,363475466.75501,-38258732.49155,   0.00217,   0.00092,  -0.00055,476060864.00000,   0.00047,275149984.00000,   0.00046,   0.00031,  -0.00005,  32.00000,   2.00000
531576828.21009,362498025.71988,-38579729.06559,   0.00218,   0.00092,  -0.00056,476061376.00000,   0.00047,275153184.00000,   0.00047,   0.00031,  -0.00005,  64.00000,   2.00000
531746954.51836,361505156.73611,-38899163.49546,   0.00218,   0.00092,  -0.00056,476073984.00000,   0.00047,275156448.00000,   0.00047,   0.00031,  -0.00006, -32.00000,   2.00000
531911795.14269,360511290.51928,-39223041.52210,   0.00219,   0.00091,  -0.00057,476081952.00000,   0.00047,275159744.00000,   0.00047,   0.00031,  -0.00006, -32.00000,   2.00000
532075997.31212,359504984.45511,-39546906.51856,   0.00220,   0.00091,  -0.00057,476078432.00000,   0.00048,275163008.00000,   0.00048,   0.00031,  -0.00006,-160.00000,   2.00000
532236762.30989,358498724.07588,-39869816.49374,   0.00220,   0.00090,  -0.00058,476084832.00000,   0.00048,275166272.00000,   0.00048,   0.00031,  -0.00006, 128.00000,   2.00000
532394144.49498,357492469.93322,-40191791.42332,   0.00221,   0.00090,  -0.00058,476091296.00000,   0.00048,275169568.00000,   0.00048,   0.00031,  -0.00006, 160.00000,   2.00000
532549173.03055,356472433.03063,-40519239.26553,   0.00222,   0.00090,  -0.00059,476089344.00000,   0.00049,275172832.00000,   0.00049,   0.00031,  -0.00006,  32.00000,   2.00000
532702555.38663,355449693.37803,-40844222.63807,   0.00222,   0.00089,  -0.00059,476111712.00000,   0.00049,275176192.00000,   0.00049,   0.00031,  -0.00006,-160.00000,   2.00000
532852984.00295,354426998.79490,-41168372.13099,   0.00223,   0.00089,  -0.00060,476117984.00000,   0.00049,275179520.00000,   0.00049,   0.00031,  -0.00006, 224.00000,   2.00000
533001662.72077,353394135.64187,-41494319.36417,   0.00223,   0.00088,  -0.00060,476098496.00000,   0.00050,275182784.00000,   0.00050,   0.00032,  -0.00007,  32.00000,   2.00000
533147606.66089,352357693.58022,-41823354.42603,   0.00224,   0.00088,  -0.00061,476121920.00000,   0.00050,275186144.00000,   0.00050,   0.00032,  -0.00007,   0.00000,   2.00000
533290775.32588,351321089.50545,-42151684.94805,   0.00225,   0.00088,  -0.00062,476127872.00000,   0.00050,275189504.00000,   0.00051,   0.00032,  -0.00007,-128.00000,   2.00000
533435740.40402,350269105.48077,-42478766.70103,   0.00225,   0.00087,  -0.00062,476140064.00000,   0.00050,275192864.00000,   0.00051,   0.00032,  -0.00007,   0.00000,   2.00000
533577127.52144,349219747.72706,-42806936.89115,   0.00226,   0.00087,  -0.00063,476129600.00000,   0.00051,275196224.00000,   0.00051,   0.00032,  -0.00007, -32.00000,   2.00000
533718613.77906,348153833.91519,-43139359.38862,   0.00227,   0.00086,  -0.00063,476142976.00000,   0.00051,275199584.00000,   0.00052,   0.00032,  -0.00007,-192.00000,   2.00000
533854222.64921,347103460.10371,-43471975.37451,   0.00227,   0.00086,  -0.00064,476141952.00000,   0.00051,275202944.00000,   0.00052,   0.00032,  -0.00007, -64.00000,   2.00000
533992029.52202,346037767.00950,-43803514.17364,   0.00228,   0.00085,  -0.00064,476153632.00000,   0.00052,275206336.00000,   0.00052,   0.00032,  -0.00007,  96.00000,   2.00000
534129962.72321,344958959.14865,-44135582.08808,   0.00228,   0.00085,  -0.00065,476149568.00000,   0.00052,275209696.00000,   0.00053,   0.00032,  -0.00008,   0.00000,   2.00000
534264245.94970,343879409.26631,-44472606.33613,   0.00229,   0.00085,  -0.00065,476156192.00000,   0.00052,275213056.00000,   0.00053,   0.00032,  -0.00008,  64.00000,   2.00000
534395828.01023,342799973.87989,-44809029.35244,   0.00230,   0.00084,  -0.00066,476161952.00000,   0.00053,275216448.00000,   0.00053,   0.00032,  -0.00008,  32.00000,   2.00000
534524323.91828,341720884.27738,-45144688.62287,   0.00230,   0.00084,  -0.00067,476167936.00000,   0.00053,275219840.00000,   0.00054,   0.00032,  -0.00008, 128.00000,   2.00000
534650939.48947,340629013.12577,-45480274.87231,   0.00231,   0.00083,  -0.00067,476164960.00000,   0.00053,275223200.00000,   0.00054,   0.00033,  -0.00008,  32.00000,   2.00000
534771659.66096,339534355.42395,-45818069.67579,   0.00232,   0.00083,  -0.00068,476190272.00000,   0.00054,275226688.00000,   0.00055,   0.00033,  -0.00008,-160.00000,   2.00000
534886412.61302,338429809.13167,-46156560.35198,   0.00232,   0.00082,  -0.00068,476173760.00000,   0.00054,275230080.00000,   0.00055,   0.00033,  -0.00008, 160.00000,   2.00000
534992635.58532,337323879.63976,-46490507.57919,   0.00233,   0.00082,  -0.00069,476200960.00000,   0.00054,275233568.00000,   0.00055,   0.00033,  -0.00008,  64.00000,   2.00000
535087299.94877,336219328.59798,-46820996.82554,   0.00234,   0.00081,  -0.00069,476213696.00000,   0.00055,275237120.00000,   0.00056,   0.00033,  -0.00009, -32.00000,   2.00000
535168848.80113,335101605.63162,-47153909.91438,   0.00234,   0.00081,  -0.00070,476220608.00000,   0.00055,275240704.00000,   0.00056,   0.00033,  -0.00009, -64.00000,   2.00000
535238916.88152,333986326.91372,-47477422.98841,   0.00235,   0.00081,  -0.00071,476233856.00000,   0.00055,275244320.00000,   0.00056,   0.00033,  -0.00009, 128.00000,   2.00000
535294990.83947,332870667.63849,-47802838.02685,   0.00235,   0.00080,  -0.00071,476249824.00000,   0.00056,275248032.00000,   0.00057,   0.00033,  -0.00009,   0.00000,   2.00000
535342104.32543,331739743.68081,-48132399.15432,   0.00236,   0.00080,  -0.00072,476254432.00000,   0.00056,275251712.00000,   0.00057,   0.00033,  -0.00009, -32.00000,   2.00000
535387342.51518,330609182.52613,-48455808.89293,   0.00237,   0.00079,  -0.00072,476260608.00000,   0.00056,275255424.00000,   0.00058,   0.00033,  -0.00009,  32.00000,   2.00000
535431405.14831,329474772.00349,-48782913.81696,   0.00237,   0.00079,  -0.00073,476283200.00000,   0.00057,275259200.00000,   0.00058,   0.00033,  -0.00010,-160.00000,   2.00000
535478637.64551,328327462.36142,-49113976.99035,   0.00238,   0.00078,  -0.00074,476260416.00000,   0.00057,275262848.00000,   0.00058,   0.00033,  -0.00010, -32.00000,   2.00000
535529236.39265,327178161.59599,-49443830.39089,   0.00239,   0.00078,  -0.00074,476278848.00000,   0.00057,275266560.00000,   0.00059,   0.00033,  -0.00010, -32.00000,   2.00000
535581602.33496,326029254.07998,-49774081.63041,   0.00239,   0.00077,  -0.00075,476281472.00000,   0.00058,275270272.00000,   0.00059,   0.00033,  -0.00010, 128.00000,   2.00000
535633171.24597,324865442.22982,-50110587.89799,   0.00240,   0.00077,  -0.00075,476278592.00000,   0.00058,275273952.00000,   0.00060,   0.00033,  -0.00010,  32.00000,   2.00000
535683884.25992,323704794.40946,-50443103.51938,   0.00241,   0.00076,  -0.00076,476265312.00000,   0.00058,275277600.00000,   0.00060,   0.00034,  -0.00010, -64.00000,   2.00000
535732625.85531,322527868.75940,-50779142.67300,   0.00241,   0.00076,  -0.00076,476280128.00000,   0.00059,275281248.00000,   0.00060,   0.00034,  -0.00010, 128.00000,   2.00000
535774812.50448,321350011.01878,-51119146.03908,   0.00242,   0.00075,  -0.00077,476288544.00000,   0.00059,275284960.00000,   0.00061,   0.00034,  -0.00011,-128.00000,   2.00000
535815432.60011,320172335.56324,-51450130.07450,   0.00243,   0.00075,  -0.00078,476309664.00000,   0.00059,275288736.00000,   0.00061,   0.00034,  -0.00011,  64.00000,   2.00000
535848049.90657,318981322.75735,-51787396.02392,   0.00243,   0.00074,  -0.00078,476293664.00000,   0.00060,275292448.00000,   0.00062,   0.00034,  -0.00011, -96.00000,   2.00000
535873899.35813,317791094.00715,-52122145.95964,   0.00244,   0.00074,  -0.00079,476301120.00000,   0.00060,275296192.00000,   0.00062,   0.00034,  -0.00011, -96.00000,   2.00000
535892097.39944,316601717.69815,-52454000.97658,   0.00244,   0.00073,  -0.00079,476308960.00000,   0.00060,275299968.00000,   0.00062,   0.00034,  -0.00011,-192.00000,   2.00000
535905257.98338,315397941.53150,-52781812.75577,   0.00245,   0.00073,  -0.00080,476324992.00000,   0.00061,275303808.00000,   0.00063,   0.00034,  -0.00011, -64.00000,   2.00000
535908137.62335,314195763.95578,-53114177.69892,   0.00246,   0.00072,  -0.00081,476319616.00000,   0.00061,275307648.00000,   0.00063,   0.00034,  -0.00012, -96.00000,   2.00000
535909220.39266,312995331.22222,-53436826.75504,   0.00246,   0.00072,  -0.00081,476342720.00000,   0.00061,275311552.00000,   0.00064,   0.00034,  -0.00012,   0.00000,   2.00000
535906236.20837,311780717.20995,-53764782.44324,   0.00247,   0.00071,  -0.00082,476345824.00000,   0.00062,275315424.00000,   0.00064,   0.00034,  -0.00012, 192.00000,   2.00000
535899258.95063,310566989.93309,-54100509.67381,   0.00248,   0.00071,  -0.00083,476340864.00000,   0.00062,275319264.00000,   0.00064,   0.00034,  -0.00012,  64.00000,   2.00000
535897627.66976,309338954.83322,-54431304.61083,   0.00248,   0.00070,  -0.00083,476355552.00000,   0.00062,275323136.00000,   0.00065,   0.00034,  -0.00012,  32.00000,   2.00000
535895193.93078,308109590.12337,-54769387.46412,   0.00249,   0.00070,  -0.00084,476365568.00000,   0.00063,275327008.00000,   0.00065,   0.00034,  -0.00013,   0.00000,   2.00000
535894449.73285,306880791.91561,-55103489.27723,   0.00250,   0.00069,  -0.00084,476371328.00000,   0.00063,275330848.00000,   0.00066,   0.00034,  -0.00013,  64.00000,   2.00000
535889148.04575,305635971.27344,-55443743.85341,   0.00250,   0.00069,  -0.00085,476372448.00000,   0.00064,275334688.00000,   0.00066,   0.00034,  -0.00013,   0.00000,   2.00000
535874701.23305,304390498.99316,-55786920.75446,   0.00251,   0.00068,  -0.00086,476382784.00000,   0.00064,275338560.00000,   0.00066,   0.00034,  -0.00013, -64.00000,   2.00000
535852337.03255,303147138.92985,-56120517.23328,   0.00252,   0.00068,  -0.00086,476390528.00000,   0.00064,275342464.00000,   0.00067,   0.00034,  -0.00013, -96.00000,   2.00000
535817645.48815,301889579.81541,-56455295.94264,   0.00252,   0.00067,  -0.00087,476394560.00000,   0.00065,275346432.00000,   0.00067,   0.00034,  -0.00013,-128.00000,   2.00000
535775837.83630,300634388.31140,-56777422.02474,   0.00253,   0.00067,  -0.00087,476419712.00000,   0.00065,275350464.00000,   0.00068,   0.00034,  -0.00014, -96.00000,   2.00000
535722367.01861,299365463.90679,-57104027.71361,   0.00254,   0.00066,  -0.00088,476408224.00000,   0.00065,275354496.00000,   0.00068,   0.00034,  -0.00014, -32.00000,   2.00000
535659351.07869,298112035.69369,-57431882.49247,   0.00254,   0.00066,  -0.00089,476427840.00000,   0.00066,275358592.00000,   0.00069,   0.00034,  -0.00014,  96.00000,   2.00000
535596311.56816,296829917.14218,-57752812.05998,   0.00255,   0.00065,  -0.00089,476434976.00000,   0.00066,275362688.00000,   0.00069,   0.00035,  -0.00014, 224.00000,   2.00000
535526112.43245,295563048.70692,-58079657.68536,   0.00256,   0.00065,  -0.00090,476436480.00000,   0.00066,275366784.00000,   0.00070,   0.00035,  -0.00014,  32.00000,   2.00000
535456927.08542,294282690.40975,-58402505.84115,   0.00256,   0.00064,  -0.00091,476433408.00000,   0.00067,275370848.00000,   0.00070,   0.00035,  -0.00015,  96.00000,   2.00000
535385086.75382,293001541.34541,-58728630.76148,   0.00257,   0.00063,  -0.00091,476458144.00000,   0.00067,275375008.00000,   0.00070,   0.00035,  -0.00015, 224.00000,   2.00000
535310669.65920,291705814.86590,-59058682.07513,   0.00258,   0.00063,  -0.00092,476440832.00000,   0.00068,275379040.00000,   0.00071,   0.00035,  -0.00015,  32.00000,   2.00000
535233487.38194,290409513.93095,-59391952.73505,   0.00258,   0.00062,  -0.00092,476465728.00000,   0.00068,275383168.00000,   0.00071,   0.00035,  -0.00015,  96.00000,   2.00000
535156651.51298,289099650.35678,-59721157.38819,   0.00259,   0.00062,  -0.00093,476462656.00000,   0.00068,275387296.00000,   0.00072,   0.00035,  -0.00015, -64.00000,   2.00000
535073583.62905,287805341.92776,-60056737.24923,   0.00259,   0.00061,  -0.00094,476463072.00000,   0.00069,275391360.00000,   0.00072,   0.00035,  -0.00016, -32.00000,   2.00000
534988973.64097,286496370.66454,-60390656.41729,   0.00260,   0.00061,  -0.00094,476478912.00000,   0.00069,275395520.00000,   0.00073,   0.00035,  -0.00016,  32.00000,   2.00000
534901181.31860,285172976.58258,-60725041.11683,   0.00261,   0.00060,  -0.00095,476478912.00000,   0.00069,275399648.00000,   0.00073,   0.00035,  -0.00016, 160.00000,   2.00000
534808195.70177,283850695.60084,-61060905.11157,   0.00261,   0.00060,  -0.00096,476470528.00000,   0.00070,275403712.00000,   0.00073,   0.00035,  -0.00016,   0.00000,   2.00000
534709967.19046,282528404.81403,-61398613.53219,   0.00262,   0.00059,  -0.00096,476496832.00000,   0.00070,275407872.00000,   0.00074,   0.00035,  -0.00016, -96.00000,   2.00000
534607943.37191,281191876.20481,-61736267.37938,   0.00263,   0.00058,  -0.00097,476497312.00000,   0.00071,275412032.00000,   0.00074,   0.00035,  -0.00017,   0.00000,   2.00000
534503513.36168,279857516.67554,-62067293.72640,   0.00263,   0.00058,  -0.00098,476503616.00000,   0.00071,275416224.00000,   0.00075,   0.00035,  -0.00017, -32.00000,   2.00000
534391204.79452,278523351.29046,-62404584.58648,   0.00264,   0.00057,  -0.00098,476497600.00000,   0.00071,275420352.00000,   0.00075,   0.00035,  -0.00017, 128.00000,   2.00000
534272937.77432,277173710.37243,-62744274.55021,   0.00265,   0.00057,  -0.00099,476517248.00000,   0.00072,275424576.00000,   0.00076,   0.00035,  -0.00017, -32.00000,   2.00000
534152479.75253,275826494.76361,-63077126.58589,   0.00265,   0.00056,  -0.00100,476523680.00000,   0.00072,275428800.00000,   0.00076,   0.00035,  -0.00018,  32.00000,   2.00000
534024879.75878,274479521.47900,-63413566.03638,   0.00266,   0.00056,  -0.00100,476534528.00000,   0.00073,275433024.00000,   0.00077,   0.00035,  -0.00018, -64.00000,   2.00000
533895071.65756,273119186.11107,-63744194.44455,   0.00267,   0.00055,  -0.00101,476533856.00000,   0.00073,275437280.00000,   0.00077,   0.00035,  -0.00018,  96.00000,   2.00000
533756717.63527,271758688.90103,-64080777.85160,   0.00267,   0.00054,  -0.00101,476528512.00000,   0.00073,275441504.00000,   0.00078,   0.00035,  -0.00018,   0.00000,   2.00000
533615277.85620,270400092.95007,-64413164.80782,   0.00268,   0.00054,  -0.00102,476553664.00000,   0.00074,275445792.00000,   0.00078,   0.00035,  -0.00018,  32.00000,   2.00000
533466143.18961,269025691.92935,-64750056.63985,   0.00269,   0.00053,  -0.00103,476557920.00000,   0.00074,275450080.00000,   0.00078,   0.00035,  -0.00019, -64.00000,   2.00000
533315089.92797,267653852.92450,-65079955.18560,   0.00269,   0.00053,  -0.00103,476564576.00000,   0.00075,275454400.00000,   0.00079,   0.00035,  -0.00019,  96.00000,   2.00000
533156293.05018,266266155.29312,-65414345.19704,   0.00270,   0.00052,  -0.00104,476569152.00000,   0.00075,275458752.00000,   0.00079,   0.00035,  -0.00019,  32.00000,   2.00000
532995682.49522,264881041.26482,-65741757.82276,   0.00271,   0.00051,  -0.00105,476575840.00000,   0.00075,275463072.00000,   0.00080,   0.00035,  -0.00019, -96.00000,   2.00000
532828146.33510,263496331.17803,-66072620.08747,   0.00271,   0.00051,  -0.00105,476587424.00000,   0.00076,275467456.00000,   0.00080,   0.00035,  -0.00020,  32.00000,   2.00000
532654062.00130,262095982.86893,-66405368.42829,   0.00272,   0.00050,  -0.00106,476573600.00000,   0.00076,275471744.00000,   0.00081,   0.00035,  -0.00020,-192.00000,   2.00000
532474742.79049,260696957.55738,-66739038.97323,   0.00273,   0.00050,  -0.00107,476601472.00000,   0.00077,275476160.00000,   0.00081,   0.00035,  -0.00020,  32.00000,   2.00000
532293518.07570,259300399.60373,-67065769.09634,   0.00273,   0.00049,  -0.00107,476608672.00000,   0.00077,275480576.00000,   0.00082,   0.00035,  -0.00020,  32.00000,   2.00000
532104533.57339,257887825.28541,-67397084.52803,   0.00274,   0.00048,  -0.00108,476613792.00000,   0.00077,275484992.00000,   0.00082,   0.00035,  -0.00020, -32.00000,   2.00000
531911465.98008,256476798.72384,-67726760.60860,   0.00275,   0.00048,  -0.00109,476623232.00000,   0.00078,275489440.00000,   0.00083,   0.00035,  -0.00021,  96.00000,   2.00000
531715519.85853,255067323.95277,-68052294.66730,   0.00275,   0.00047,  -0.00109,476613952.00000,   0.00078,275493824.00000,   0.00083,   0.00035,  -0.00021,  64.00000,   2.00000
531510567.81227,253641728.36506,-68385027.57847,   0.00276,   0.00047,  -0.00110,476637888.00000,   0.00079,275498304.00000,   0.00084,   0.00035,  -0.00021,   0.00000,   2.00000
531304329.26869,252218776.77747,-68711044.01335,   0.00277,   0.00046,  -0.00111,476644928.00000,   0.00079,275502784.00000,   0.00084,   0.00035,  -0.00021,  64.00000,   2.00000
531092827.36845,250780708.29895,-69036602.42149,   0.00277,   0.00045,  -0.00111,476647968.00000,   0.00079,275507296.00000,   0.00085,   0.00035,  -0.00022, -64.00000,   2.00000
530874464.05570,249358588.60294,-69367473.47166,   0.00278,   0.00045,  -0.00112,476650048.00000,   0.00080,275511744.00000,   0.00085,   0.00035,  -0.00022, 128.00000,   2.00000
530653705.27573,247906912.16508,-69691128.04978,   0.00279,   0.00044,  -0.00113,476660576.00000,   0.00080,275516256.00000,   0.00085,   0.00035,  -0.00022,   0.00000,   2.00000
530426090.27257,246471175.02511,-70020149.64184,   0.00279,   0.00043,  -0.00113,476662528.00000,   0.00081,275520768.00000,   0.00086,   0.00035,  -0.00022, -96.00000,   2.00000
530194727.26471,245021643.84195,-70346078.58236,   0.00280,   0.00043,  -0.00114,476682048.00000,   0.00081,275525312.00000,   0.00086,   0.00035,  -0.00023,  32.00000,   2.00000
529956631.54697,243572688.94537,-70675717.42602,   0.00281,   0.00042,  -0.00115,476693920.00000,   0.00081,275529888.00000,   0.00087,   0.00035,  -0.00023, -96.00000,   2.00000
529714388.41823,242108157.48567,-71002582.45291,   0.00281,   0.00041,  -0.00115,476678176.00000,   0.00082,275534400.00000,   0.00087,   0.00035,  -0.00023,-128.00000,   2.00000
529469489.76446,240662102.56329,-71326947.63653,   0.00282,   0.00041,  -0.00116,476693920.00000,   0.00082,275538976.00000,   0.00088,   0.00035,  -0.00023, -96.00000,   2.00000
529216594.93046,239184569.97255,-71654403.94370,   0.00282,   0.00040,  -0.00117,476709760.00000,   0.00083,275543552.00000,   0.00088,   0.00035,  -0.00024, 128.00000,   2.00000
528959354.65953,237724016.88649,-71982080.15672,   0.00283,   0.00040,  -0.00117,476709312.00000,   0.00083,275548160.00000,   0.00089,   0.00035,  -0.00024,-128.00000,   2.00000
528698250.23387,236250037.97945,-72306589.47244,   0.00284,   0.00039,  -0.00118,476728864.00000,   0.00084,275552800.00000,   0.00089,   0.00034,  -0.00024,  64.00000,   2.00000
528431142.51903,234776076.39079,-72632355.73112,   0.00284,   0.00038,  -0.00119,476722176.00000,   0.00084,275557408.00000,   0.00090,   0.00034,  -0.00024, 128.00000,   2.00000
528158070.41447,233286898.06280,-72957641.06085,   0.00285,   0.00038,  -0.00120,476725568.00000,   0.00084,275562016.00000,   0.00090,   0.00034,  -0.00025,   0.00000,   2.00000
527880807.30004,231799635.13686,-73281398.81497,   0.00286,   0.00037,  -0.00120,476734912.00000,   0.00085,275566656.00000,   0.00091,   0.00034,  -0.00025,  96.00000,   2.00000
527596447.30007,230313288.93658,-73608714.64666,   0.00286,   0.00036,  -0.00121,476746976.00000,   0.00085,275571328.00000,   0.00091,   0.00034,  -0.00025, 128.00000,   2.00000
527305804.33930,228811746.36047,-73935446.72022,   0.00287,   0.00036,  -0.00122,476750432.00000,   0.00086,275576000.00000,   0.00092,   0.00034,  -0.00025, -96.00000,   2.00000
527013805.18322,227313320.15864,-74255476.18858,   0.00288,   0.00035,  -0.00122,476757312.00000,   0.00086,275580672.00000,   0.00092,   0.00034,  -0.00026,  64.00000,   2.00000
526714473.77815,225815934.56691,-74578971.87597,   0.00288,   0.00034,  -0.00123,476769408.00000,   0.00087,275585408.00000,   0.00093,   0.00034,  -0.00026, -32.00000,   2.00000
526408693.78502,224303426.93865,-74901825.70981,   0.00289,   0.00034,  -0.00124,476773088.00000,   0.00087,275590112.00000,   0.00093,   0.00034,  -0.00026,  32.00000,   2.00000
526097902.57577,222809488.88859,-75227125.06759,   0.00290,   0.00033,  -0.00124,476790976.00000,   0.00087,275594912.00000,   0.00094,   0.00034,  -0.00027, -64.00000,   2.00000
525781243.77685,221284114.89000,-75547643.97138,   0.00290,   0.00032,  -0.00125,476786496.00000,   0.00088,275599648.00000,   0.00094,   0.00034,  -0.00027, 128.00000,   2.00000
525457384.98585,219775053.79842,-75873402.29633,   0.00291,   0.00032,  -0.00126,476788128.00000,   0.00088,275604416.00000,   0.00095,   0.00034,  -0.00027, -32.00000,   2.00000
525131698.53949,218254306.59859,-76190499.81202,   0.00292,   0.00031,  -0.00126,476805760.00000,   0.00089,275609216.00000,   0.00095,   0.00034,  -0.00027,  64.00000,   2.00000
524796698.89947,216732547.23639,-76513871.76738,   0.00292,   0.00030,  -0.00127,476801760.00000,   0.00089,275613984.00000,   0.00096,   0.00034,  -0.00028,  96.00000,   2.00000
524456724.86634,215198229.61019,-76833613.64560,   0.00293,   0.00029,  -0.00128,476822336.00000,   0.00090,275618848.00000,   0.00096,   0.00034,  -0.00028,  64.00000,   2.00000
524110107.95062,213663814.37731,-77154523.29674,   0.00294,   0.00029,  -0.00129,476815808.00000,   0.00090,275623648.00000,   0.00097,   0.00034,  -0.00028,-128.00000,   2.00000
523759257.99410,212132013.01800,-77473774.13427,   0.00294,   0.00028,  -0.00129,476825536.00000,   0.00091,275628480.00000,   0.00097,   0.00034,  -0.00028,  32.00000,   2.00000
523403264.77189,210587846.14997,-77789356.37389,   0.00295,   0.00027,  -0.00130,476846464.00000,   0.00091,275633376.00000,   0.00098,   0.00034,  -0.00029, 128.00000,   2.00000
523040494.59185,209060281.48515,-78110288.34317,   0.00296,   0.00027,  -0.00131,476848160.00000,   0.00091,275638304.00000,   0.00098,   0.00034,  -0.00029,-160.00000,   2.00000
522667894.99528,207499983.15624,-78431430.42673,   0.00296,   0.00026,  -0.00131,476847840.00000,   0.00092,275643168.00000,   0.00099,   0.00034,  -0.00029,  64.00000,   2.00000
522296317.60419,205960919.22728,-78744820.03335,   0.00297,   0.00025,  -0.00132,476860384.00000,   0.00092,275648096.00000,   0.00099,   0.00033,  -0.00030,  32.00000,   2.00000
521912720.56808,204402953.24681,-79065529.00184,   0.00297,   0.00025,  -0.00133,476851648.00000,   0.00093,275652992.00000,   0.00100,   0.00033,  -0.00030,  64.00000,   2.00000
521526874.98310,202850609.46304,-79381564.23618,   0.00298,   0.00024,  -0.00133,476878016.00000,   0.00093,275657952.00000,   0.00100,   0.00033,  -0.00030,  32.00000,   2.00000
521136732.32645,201300916.91582,-79695890.20571,   0.00299,   0.00023,  -0.00134,476888096.00000,   0.00094,275662944.00000,   0.00101,   0.00033,  -0.00031, -32.00000,   2.00000
520737173.81002,199732867.53687,-80012411.40032,   0.00299,   0.00023,  -0.00135,476877056.00000,   0.00094,275667904.00000,   0.00101,   0.00033,  -0.00031,  32.00000,   2.00000
520332748.59400,198169728.28435,-80329267.44050,   0.00300,   0.00022,  -0.00136,476906272.00000,   0.00095,275672928.00000,   0.00102,   0.00033,  -0.00031,  96.00000,   2.00000
519924979.87867,196606836.27898,-80642332.36332,   0.00301,   0.00021,  -0.00136,476897312.00000,   0.00095,275677920.00000,   0.00102,   0.00033,  -0.00031,  32.00000,   2.00000
519506907.21830,195027610.91618,-80959569.87542,   0.00301,   0.00020,  -0.00137,476905440.00000,   0.00096,275682944.00000,   0.00103,   0.00033,  -0.00032, -32.00000,   2.00000
519084992.26175,193450955.51263,-81275043.48084,   0.00302,   0.00020,  -0.00138,476915456.00000,   0.00096,275687968.00000,   0.00103,   0.00033,  -0.00032, -96.00000,   2.00000
518659352.74912,191876859.19016,-81588746.82616,   0.00303,   0.00019,  -0.00138,476925504.00000,   0.00097,275693024.00000,   0.00104,   0.00033,  -0.00032, 256.00000,   2.00000
518229769.47715,190305219.66725,-81900616.50307,   0.00303,   0.00018,  -0.00139,476935712.00000,   0.00097,275698112.00000,   0.00105,   0.00033,  -0.00033, -32.00000,   2.00000
517793057.21044,188717992.61583,-82211552.39987,   0.00304,   0.00017,  -0.00140,476941024.00000,   0.00097,275703200.00000,   0.00105,   0.00033,  -0.00033,   0.00000,   2.00000
517352756.24516,187133302.74085,-82520675.72849,   0.00304,   0.00017,  -0.00140,476951136.00000,   0.00098,275708320.00000,   0.00106,   0.00032,  -0.00033,   0.00000,   2.00000
516902798.11895,185529339.27406,-82831901.66506,   0.00305,   0.00016,  -0.00141,476940640.00000,   0.00098,275713376.00000,   0.00106,   0.00032,  -0.00034, -96.00000,   2.00000
516452397.63306,183948960.51819,-83142363.17004,   0.00306,   0.00015,  -0.00142,476974112.00000,   0.00099,275718560.00000,   0.00107,   0.00032,  -0.00034,   0.00000,   2.00000
515995181.77589,182349996.45502,-83449885.96467,   0.00306,   0.00015,  -0.00143,476961088.00000,   0.00099,275723648.00000,   0.00107,   0.00032,  -0.00034,  32.00000,   2.00000
515531346.73583,180752795.41342,-83760554.95718,   0.00307,   0.00014,  -0.00143,476974208.00000,   0.00100,275728800.00000,   0.00108,   0.00032,  -0.00034,  32.00000,   2.00000
515060001.60679,179139928.63921,-84070161.91155,   0.00308,   0.00013,  -0.00144,476980256.00000,   0.00100,275733952.00000,   0.00108,   0.00032,  -0.00035, -32.00000,   2.00000
514585177.07358,177529802.43976,-84377909.62039,   0.00308,   0.00012,  -0.00145,476990592.00000,   0.00101,275739136.00000,   0.00109,   0.00032,  -0.00035,  96.00000,   2.00000
514106498.18626,175922380.59971,-84683729.25699,   0.00309,   0.00012,  -0.00146,477001280.00000,   0.00101,275744352.00000,   0.00109,   0.00032,  -0.00035,  96.00000,   2.00000
513624327.74266,174317817.47293,-84987694.97586,   0.00310,   0.00011,  -0.00146,477011648.00000,   0.00102,275749568.00000,   0.00110,   0.00032,  -0.00036,  96.00000,   2.00000
513131567.80578,172693638.20496,-85293720.51935,   0.00310,   0.00010,  -0.00147,477002272.00000,   0.00102,275754752.00000,   0.00110,   0.00032,  -0.00036,  32.00000,   2.00000
512631968.60458,171071587.81060,-85602836.80963,   0.00311,   0.00009,  -0.00148,477015904.00000,   0.00103,275759968.00000,   0.00111,   0.00032,  -0.00036,  96.00000,   2.00000
512134442.85386,169457454.78798,-85901904.45627,   0.00311,   0.00009,  -0.00148,477039680.00000,   0.00103,275765248.00000,   0.00111,   0.00031,  -0.00037, -32.00000,   2.00000
511627430.30888,167841388.18886,-86207297.93114,   0.00312,   0.00008,  -0.00149,477037344.00000,   0.00104,275770528.00000,   0.00112,   0.00031,  -0.00037, 224.00000,   2.00000
511112032.38901,166209786.14893,-86511544.23499,   0.00313,   0.00007,  -0.00150,477044320.00000,   0.00104,275775808.00000,   0.00113,   0.00031,  -0.00037, -32.00000,   2.00000
510590030.41755,164576903.92317,-86817155.40352,   0.00313,   0.00006,  -0.00151,477039008.00000,   0.00105,275781024.00000,   0.00113,   0.00031,  -0.00038, -32.00000,   2.00000
510067336.62429,162951517.23124,-87117758.34477,   0.00314,   0.00006,  -0.00151,477065600.00000,   0.00105,275786368.00000,   0.00114,   0.00031,  -0.00038,   0.00000,   2.00000
509536535.96845,161310665.88035,-87417331.85621,   0.00315,   0.00005,  -0.00152,477072544.00000,   0.00106,275791712.00000,   0.00114,   0.00031,  -0.00038, 160.00000,   2.00000
509003403.60312,159686921.92922,-87717566.97759,   0.00315,   0.00004,  -0.00153,477071168.00000,   0.00106,275797024.00000,   0.00115,   0.00031,  -0.00039,   0.00000,   2.00000
508462038.00387,158047587.12646,-88016787.57540,   0.00316,   0.00003,  -0.00153,477078048.00000,   0.00107,275802368.00000,   0.00115,   0.00031,  -0.00039,-192.00000,   2.00000
507914256.51418,156410664.12529,-88319274.46553,   0.00316,   0.00003,  -0.00154,477091424.00000,   0.00107,275807744.00000,   0.00116,   0.00030,  -0.00039, 128.00000,   2.00000
507361160.10776,154758797.35092,-88615772.34678,   0.00317,   0.00002,  -0.00155,477095424.00000,   0.00108,275813120.00000,   0.00116,   0.00030,  -0.00040,  96.00000,   2.00000
506801289.88597,153109312.54359,-88915471.09834,   0.00318,   0.00001,  -0.00156,477108992.00000,   0.00108,275818528.00000,   0.00117,   0.00030,  -0.00040, -32.00000,   2.00000
506234800.22464,151458155.59139,-89216703.51425,   0.00318,   0.00000,  -0.00156,477103392.00000,   0.00109,275823872.00000,   0.00117,   0.00030,  -0.00040, 160.00000,   2.00000
505667801.05118,149810774.39096,-89511238.92028,   0.00319,  -0.00000,  -0.00157,477110496.00000,   0.00109,275829280.00000,   0.00118,   0.00030,  -0.00041,-256.00000,   2.00000
505097790.99538,148170918.21335,-89805775.76199,   0.00319,  -0.00001,  -0.00158,477139360.00000,   0.00110,275834752.00000,   0.00119,   0.00030,  -0.00041,   0.00000,   2.00000
504515856.45540,146510588.69615,-90102459.33717,   0.00320,  -0.00002,  -0.00159,477130880.00000,   0.00110,275840192.00000,   0.00119,   0.00030,  -0.00041, 192.00000,   2.00000
503927035.16294,144852963.86659,-90402215.51636,   0.00321,  -0.00003,  -0.00159,477144416.00000,   0.00111,275845664.00000,   0.00120,   0.00030,  -0.00042,  32.00000,   2.00000
503334559.71297,143194407.67512,-90698508.75751,   0.00321,  -0.00004,  -0.00160,477135936.00000,   0.00111,275851104.00000,   0.00120,   0.00029,  -0.00042,   0.00000,   2.00000
502736801.73351,141525755.25748,-90990323.03906,   0.00322,  -0.00004,  -0.00161,477159008.00000,   0.00112,275856608.00000,   0.00121,   0.00029,  -0.00042,  32.00000,   2.00000
502133876.71356,139873839.79488,-91287771.93344,   0.00322,  -0.00005,  -0.00162,477160384.00000,   0.00112,275862112.00000,   0.00121,   0.00029,  -0.00043,  32.00000,   2.00000
501525154.09350,138207433.59607,-91579015.66613,   0.00323,  -0.00006,  -0.00162,477164800.00000,   0.00113,275867584.00000,   0.00122,   0.00029,  -0.00043, -32.00000,   2.00000
500909676.32378,136544350.35559,-91873253.88520,   0.00324,  -0.00007,  -0.00163,477178976.00000,   0.00113,275873152.00000,   0.00122,   0.00029,  -0.00044,   0.00000,   2.00000
500290332.52600,134885214.08365,-92165504.32334,   0.00324,  -0.00007,  -0.00164,477190208.00000,   0.00114,275878720.00000,   0.00123,   0.00029,  -0.00044,   0.00000,   2.00000
499658299.38707,133205691.37124,-92459741.32205,   0.00325,  -0.00008,  -0.00164,477182720.00000,   0.00114,275884224.00000,   0.00124,   0.00029,  -0.00044,  96.00000,   2.00000
499026161.78979,131535713.94366,-92748719.46375,   0.00325,  -0.00009,  -0.00165,477209696.00000,   0.00115,275889856.00000,   0.00124,   0.00028,  -0.00045,   0.00000,   2.00000
498392428.88825,129883159.09285,-93038573.76614,   0.00326,  -0.00010,  -0.00166,477208160.00000,   0.00115,275895456.00000,   0.00125,   0.00028,  -0.00045, -64.00000,   2.00000
497743853.58288,128196456.88384,-93327735.50759,   0.00327,  -0.00011,  -0.00167,477214048.00000,   0.00116,275901056.00000,   0.00125,   0.00028,  -0.00045, -96.00000,   2.00000
497097643.87474,126532625.91927,-93614585.79091,   0.00327,  -0.00011,  -0.00167,477228160.00000,   0.00116,275906688.00000,   0.00126,   0.00028,  -0.00046, 224.00000,   2.00000
496441001.22471,124866107.06512,-93907927.63085,   0.00328,  -0.00012,  -0.00168,477227328.00000,   0.00117,275912320.00000,   0.00126,   0.00028,  -0.00046,  96.00000,   2.00000
495782666.63961,123190381.66040,-94192030.46342,   0.00328,  -0.00013,  -0.00169,477248032.00000,   0.00117,275918016.00000,   0.00127,   0.00028,  -0.00046, -64.00000,   2.00000
495114281.59270,121511624.99818,-94482833.93648,   0.00329,  -0.00014,  -0.00170,477246816.00000,   0.00118,275923648.00000,   0.00127,   0.00027,  -0.00047,  96.00000,   2.00000
494443014.50949,119836044.79620,-94772182.01953,   0.00330,  -0.00015,  -0.00170,477257696.00000,   0.00118,275929344.00000,   0.00128,   0.00027,  -0.00047, 160.00000,   2.00000
493766415.36421,118144905.48070,-95055834.88674,   0.00330,  -0.00015,  -0.00171,477262816.00000,   0.00119,275935008.00000,   0.00129,   0.00027,  -0.00048,  96.00000,   2.00000
493085834.41422,116469280.48408,-95345856.02227,   0.00331,  -0.00016,  -0.00172,477263552.00000,   0.00119,275940672.00000,   0.00129,   0.00027,  -0.00048,  96.00000,   2.00000
492400732.16632,114783354.22495,-95631793.75078,   0.00331,  -0.00017,  -0.00173,477287104.00000,   0.00120,275946400.00000,   0.00130,   0.00027,  -0.00048, -32.00000,   2.00000
491709149.51516,113094007.73842,-95919858.33685,   0.00332,  -0.00018,  -0.00173,477281600.00000,   0.00121,275952096.00000,   0.00130,   0.00027,  -0.00049,  96.00000,   2.00000
491011777.93506,111406731.34715,-96211555.09534,   0.00333,  -0.00019,  -0.00174,477294880.00000,   0.00121,275957824.00000,   0.00131,   0.00026,  -0.00049, 128.00000,   2.00000
490311166.32646,109716193.00948,-96500518.58356,   0.00333,  -0.00019,  -0.00175,477285568.00000,   0.00122,275963488.00000,   0.00131,   0.00026,  -0.00049, 160.00000,   2.00000
489612308.98532,108034240.84485,-96784926.00552,   0.00334,  -0.00020,  -0.00176,477310048.00000,   0.00122,275969248.00000,   0.00132,   0.00026,  -0.00050, -32.00000,   2.00000
488897478.95597,106328738.44496,-97076741.80604,   0.00334,  -0.00021,  -0.00176,477304544.00000,   0.00123,275974944.00000,   0.00133,   0.00026,  -0.00050,  32.00000,   2.00000
488183815.45735,104626066.34638,-97362441.87719,   0.00335,  -0.00022,  -0.00177,477309376.00000,   0.00123,275980640.00000,   0.00133,   0.00026,  -0.00051, 160.00000,   2.00000
487464379.03797,102925403.99207,-97651565.87893,   0.00335,  -0.00023,  -0.00178,477321184.00000,   0.00124,275986400.00000,   0.00134,   0.00026,  -0.00051,  64.00000,   2.00000
486742948.98706,101227594.35535,-97939246.42517,   0.00336,  -0.00023,  -0.00179,477329088.00000,   0.00124,275992160.00000,   0.00134,   0.00025,  -0.00051,  96.00000,   2.00000
486014882.77986,99526778.96611,-98228597.79379,   0.00337,  -0.00024,  -0.00179,477322304.00000,   0.00125,275997888.00000,   0.00135,   0.00025,  -0.00052, 128.00000,   2.00000
485287736.80376,97830509.54748,-98511254.80177,   0.00337,  -0.00025,  -0.00180,477328160.00000,   0.00125,276003616.00000,   0.00135,   0.00025,  -0.00052, 160.00000,   2.00000
484547765.27806,96119465.34687,-98796965.72172,   0.00338,  -0.00026,  -0.00181,477340096.00000,   0.00126,276009376.00000,   0.00136,   0.00025,  -0.00052,  96.00000,   2.00000
483801189.36457,94413630.45154,-99085061.11585,   0.00338,  -0.00027,  -0.00182,477355008.00000,   0.00126,276015200.00000,   0.00137,   0.00025,  -0.00053,   0.00000,   2.00000
483049490.20377,92707478.00527,-99369007.60310,   0.00339,  -0.00028,  -0.00182,477349280.00000,   0.00127,276020992.00000,   0.00137,   0.00024,  -0.00053,  64.00000,   2.00000
482293702.47339,91007465.26171,-99650169.13184,   0.00339,  -0.00028,  -0.00183,477362400.00000,   0.00127,276026816.00000,   0.00138,   0.00024,  -0.00054,   0.00000,   2.00000
481533604.68718,89313592.12852,-99928477.77748,   0.00340,  -0.00029,  -0.00184,477376224.00000,   0.00128,276032672.00000,   0.00138,   0.00024,  -0.00054,  96.00000,   2.00000
480765991.77604,87625442.83429,-100208769.70309,   0.00340,  -0.00030,  -0.00185,477393056.00000,   0.00129,276038592.00000,   0.00139,   0.00024,  -0.00054,  96.00000,   2.00000
479992912.03671,85936475.58328,-100484922.79696,   0.00341,  -0.00031,  -0.00185,477388000.00000,   0.00129,276044448.00000,   0.00139,   0.00024,  -0.00055,  32.00000,   2.00000
479210593.96387,84240588.37153,-100760172.66266,   0.00342,  -0.00032,  -0.00186,477418080.00000,   0.00130,276050464.00000,   0.00140,   0.00023,  -0.00055, 128.00000,   2.00000
478414500.59999,82535890.82295,-101039629.94040,   0.00342,  -0.00033,  -0.00187,477401280.00000,   0.00130,276056352.00000,   0.00141,   0.00023,  -0.00056,   0.00000,   2.00000
477620187.86262,80843642.13838,-101313345.99588,   0.00343,  -0.00033,  -0.00188,477428640.00000,   0.00131,276062336.00000,   0.00141,   0.00023,  -0.00056, 160.00000,   2.00000
476829608.19116,79175793.16610,-101584474.91258,   0.00343,  -0.00034,  -0.00188,477441920.00000,   0.00131,276068384.00000,   0.00142,   0.00023,  -0.00056, -64.00000,   2.00000
476024174.92447,77486062.32715,-101857272.79612,   0.00344,  -0.00035,  -0.00189,477437568.00000,   0.00132,276074368.00000,   0.00142,   0.00023,  -0.00057, 288.00000,   2.00000
475208199.28838,75781559.37070,-102128220.70686,   0.00344,  -0.00036,  -0.00190,477448576.00000,   0.00132,276080416.00000,   0.00143,   0.00022,  -0.00057,  96.00000,   2.00000
474391657.98191,74093538.61286,-102400438.38503,   0.00345,  -0.00037,  -0.00191,477446176.00000,   0.00133,276086400.00000,   0.00143,   0.00022,  -0.00058, 160.00000,   2.00000
473578066.86507,72417356.25119,-102667496.61046,   0.00345,  -0.00037,  -0.00192,477472224.00000,   0.00134,276092480.00000,   0.00144,   0.00022,  -0.00058, -32.00000,   2.00000
472749170.48184,70718424.53483,-102936440.56592,   0.00346,  -0.00038,  -0.00192,477467936.00000,   0.00134,276098528.00000,   0.00145,   0.00022,  -0.00058,  64.00000,   2.00000
471922065.41835,69042892.15665,-103208253.06668,   0.00346,  -0.00039,  -0.00193,477483360.00000,   0.00135,276104608.00000,   0.00145,   0.00021,  -0.00059,   0.00000,   2.00000
471083228.99991,67344497.76007,-103477327.82138,   0.00347,  -0.00040,  -0.00194,477475520.00000,   0.00135,276110624.00000,   0.00146,   0.00021,  -0.00059, 160.00000,   2.00000
470244149.56352,65657662.90740,-103746099.18632,   0.00348,  -0.00041,  -0.00195,477504896.00000,   0.00136,276116768.00000,   0.00146,   0.00021,  -0.00060, 160.00000,   2.00000
469400797.77201,63967261.50567,-104011953.50834,   0.00348,  -0.00042,  -0.00195,477497600.00000,   0.00136,276122848.00000,   0.00147,   0.00021,  -0.00060,  32.00000,   2.00000
468551923.93125,62280731.67411,-104280943.29879,   0.00349,  -0.00042,  -0.00196,477512224.00000,   0.00137,276128960.00000,   0.00148,   0.00021,  -0.00061,  96.00000,   2.00000
467695409.17800,60590404.81595,-104551733.67528,   0.00349,  -0.00043,  -0.00197,477508608.00000,   0.00138,276135040.00000,   0.00148,   0.00020,  -0.00061,  96.00000,   2.00000
466836773.26396,58904142.41159,-104820858.88013,   0.00350,  -0.00044,  -0.00198,477519776.00000,   0.00138,276141120.00000,   0.00149,   0.00020,  -0.00061, 192.00000,   2.00000
465975961.63315,57222006.35196,-105088268.81729,   0.00350,  -0.00045,  -0.00198,477531008.00000,   0.00139,276147264.00000,   0.00149,   0.00020,  -0.00062,   0.00000,   2.00000
465105226.38125,55524620.75133,-105354074.25586,   0.00351,  -0.00046,  -0.00199,477541728.00000,   0.00139,276153408.00000,   0.00150,   0.00020,  -0.00062,  64.00000,   2.00000
464234409.82233,53842995.59027,-105621372.02271,   0.00351,  -0.00047,  -0.00200,477538784.00000,   0.00140,276159520.00000,   0.00150,   0.00019,  -0.00063, 160.00000,   2.00000
463367561.63471,52173791.83771,-105883487.56809,   0.00352,  -0.00047,  -0.00201,477564544.00000,   0.00140,276165728.00000,   0.00151,   0.00019,  -0.00063, 288.00000,   2.00000
462478521.93021,50473331.98605,-106150575.64271,   0.00352,  -0.00048,  -0.00201,477546688.00000,   0.00141,276171808.00000,   0.00152,   0.00019,  -0.00063,  32.00000,   2.00000
461589879.28949,48785528.57025,-106417023.77410,   0.00353,  -0.00049,  -0.00202,477576032.00000,   0.00142,276178016.00000,   0.00152,   0.00019,  -0.00064,  64.00000,   2.00000
460704818.13812,47113645.68714,-106680208.74929,   0.00353,  -0.00050,  -0.00203,477569440.00000,   0.00142,276184192.00000,   0.00153,   0.00018,  -0.00064,  96.00000,   2.00000
459805990.03656,45426891.34703,-106946138.87813,   0.00354,  -0.00051,  -0.00204,477584320.00000,   0.00143,276190368.00000,   0.00153,   0.00018,  -0.00065, 224.00000,   2.00000
458908395.76046,43744873.50671,-107205351.40480,   0.00354,  -0.00052,  -0.00205,477592352.00000,   0.00143,276196576.00000,   0.00154,   0.00018,  -0.00065,  64.00000,   2.00000
458007533.37425,42078711.66865,-107470671.79560,   0.00355,  -0.00052,  -0.00205,477592960.00000,   0.00144,276202784.00000,   0.00155,   0.00018,  -0.00066, -32.00000,   2.00000
457096214.87112,40397791.37608,-107733962.75594,   0.00355,  -0.00053,  -0.00206,477604352.00000,   0.00144,276208992.00000,   0.00155,   0.00017,  -0.00066,  64.00000,   2.00000
456186428.65876,38721607.56011,-107990609.60295,   0.00356,  -0.00054,  -0.00207,477612160.00000,   0.00145,276215232.00000,   0.00156,   0.00017,  -0.00067, 224.00000,   2.00000
455264747.04779,37041705.32836,-108253333.69117,   0.00356,  -0.00055,  -0.00208,477612896.00000,   0.00146,276221440.00000,   0.00156,   0.00017,  -0.00067,   0.00000,   2.00000
454347451.30414,35375074.18158,-108510663.19282,   0.00357,  -0.00056,  -0.00208,477638528.00000,   0.00146,276227744.00000,   0.00157,   0.00017,  -0.00067,  32.00000,   2.00000
453415569.02134,33695936.21324,-108772952.45684,   0.00357,  -0.00057,  -0.00209,477621408.00000,   0.00147,276233920.00000,   0.00158,   0.00016,  -0.00068, 160.00000,   2.00000
452488100.66426,32030065.76641,-109029870.61530,   0.00358,  -0.00058,  -0.00210,477646624.00000,   0.00147,276240224.00000,   0.00158,   0.00016,  -0.00068,   0.00000,   2.00000
451552553.14967,30360082.87737,-109288430.77626,   0.00358,  -0.00058,  -0.00211,477643648.00000,   0.00148,276246464.00000,   0.00159,   0.00016,  -0.00069,  32.00000,   2.00000
450615171.50960,28694612.01895,-109545164.30347,   0.00359,  -0.00059,  -0.00212,477654816.00000,   0.00149,276252736.00000,   0.00159,   0.00016,  -0.00069,  64.00000,   2.00000
449672629.68243,27033714.34186,-109804769.59218,   0.00359,  -0.00060,  -0.00212,477669536.00000,   0.00149,276259072.00000,   0.00160,   0.00015,  -0.00070,  32.00000,   2.00000
448725251.45816,25368273.41208,-110061433.34924,   0.00360,  -0.00061,  -0.00213,477662624.00000,   0.00150,276265344.00000,   0.00160,   0.00015,  -0.00070,  64.00000,   2.00000
447767581.66602,23687709.86568,-110316319.62768,   0.00360,  -0.00062,  -0.00214,477674016.00000,   0.00150,276271616.00000,   0.00161,   0.00015,  -0.00070, 192.00000,   2.00000
446813590.12465,22031094.40492,-110574264.09240,   0.00361,  -0.00063,  -0.00215,477688320.00000,   0.00151,276277952.00000,   0.00162,   0.00015,  -0.00071, 160.00000,   2.00000
445854669.32026,20369638.86841,-110829342.83544,   0.00361,  -0.00063,  -0.00215,477681408.00000,   0.00151,276284224.00000,   0.00162,   0.00014,  -0.00071, -32.00000,   2.00000
444890965.17753,18712570.16521,-111087463.47030,   0.00362,  -0.00064,  -0.00216,477695840.00000,   0.00152,276290528.00000,   0.00163,   0.00014,  -0.00072,  64.00000,   2.00000
443925820.14562,17059725.62903,-111343951.65676,   0.00362,  -0.00065,  -0.00217,477706688.00000,   0.00153,276296864.00000,   0.00163,   0.00014,  -0.00072, 192.00000,   2.00000
442955701.26730,15401856.92821,-111597598.37528,   0.00362,  -0.00066,  -0.00218,477699840.00000,   0.00153,276303136.00000,   0.00164,   0.00013,  -0.00073,  96.00000,   2.00000
441980763.10502,13748424.92876,-111854230.91531,   0.00363,  -0.00067,  -0.00219,477714464.00000,   0.00154,276309472.00000,   0.00165,   0.00013,  -0.00073,  96.00000,   2.00000
441004463.86775,12099273.47485,-112109190.31809,   0.00363,  -0.00068,  -0.00219,477725376.00000,   0.00154,276315808.00000,   0.00165,   0.00013,  -0.00074,  96.00000,   2.00000
440010514.53913,10425859.94374,-112365635.89858,   0.00364,  -0.00068,  -0.00220,477723392.00000,   0.00155,276322112.00000,   0.00166,   0.00013,  -0.00074, 160.00000,   2.00000
439024317.59901,8776295.77496,-112620539.58309,   0.00364,  -0.00069,  -0.00221,477733376.00000,   0.00156,276328448.00000,   0.00166,   0.00012,  -0.00075, 128.00000,   2.00000
438036638.62651,7131196.71541,-112873615.45758,   0.00365,  -0.00070,  -0.00222,477744480.00000,   0.00156,276334784.00000,   0.00167,   0.00012,  -0.00075,   0.00000,   2.00000
437047803.89607,5490618.88664,-113124908.23417,   0.00365,  -0.00071,  -0.00222,477755296.00000,   0.00157,276341152.00000,   0.00167,   0.00012,  -0.00075, 160.00000,   2.00000
436050296.93475,3845329.42018,-113377736.36683,   0.00366,  -0.00072,  -0.00223,477752672.00000,   0.00157,276347488.00000,   0.00168,   0.00011,  -0.00076, 192.00000,   2.00000
435043921.19728,2195369.47388,-113632013.21234,   0.00366,  -0.00073,  -0.00224,477750080.00000,   0.00158,276353792.00000,   0.00169,   0.00011,  -0.00076,  96.00000,   2.00000
434043653.88621,559575.88614,-113880903.55736,   0.00367,  -0.00074,  -0.00225,477774816.00000,   0.00159,276360192.00000,   0.00169,   0.00011,  -0.00077, -32.00000,   2.00000
433044062.95355,-1061460.80390,-114131540.37257,   0.00367,  -0.00074,  -0.00226,477771328.00000,   0.00159,276366528.00000,   0.00170,   0.00011,  -0.00077,  64.00000,   2.00000
432026190.22793,-2706508.49156,-114383263.27920,   0.00367,  -0.00075,  -0.00226,477769984.00000,   0.00160,276372864.00000,   0.00170,   0.00010,  -0.00078,  64.00000,   2.00000
431011160.55277,-4336733.35985,-114634079.26239,   0.00368,  -0.00076,  -0.00227,477798624.00000,   0.00160,276379296.00000,   0.00171,   0.00010,  -0.00078, 128.00000,   2.00000
429990471.04802,-5971854.74330,-114881624.20666,   0.00368,  -0.00077,  -0.00228,477792384.00000,   0.00161,276385664.00000,   0.00172,   0.00010,  -0.00079,  64.00000,   2.00000
428957451.64675,-7611203.97461,-115135112.38889,   0.00369,  -0.00078,  -0.00229,477793888.00000,   0.00162,276392000.00000,   0.00172,   0.00009,  -0.00079, 160.00000,   2.00000
427943908.10681,-9216915.00736,-115378893.15190,   0.00369,  -0.00079,  -0.00230,477813056.00000,   0.00162,276398432.00000,   0.00173,   0.00009,  -0.00080, -96.00000,   2.00000
426911847.34389,-10846670.39356,-115623733.12318,   0.00370,  -0.00079,  -0.00230,477811968.00000,   0.00163,276404832.00000,   0.00173,   0.00009,  -0.00080,  96.00000,   2.00000
425876932.92095,-12461419.27261,-115874913.28922,   0.00370,  -0.00080,  -0.00231,477812160.00000,   0.00163,276411168.00000,   0.00174,   0.00008,  -0.00080, 128.00000,   2.00000
424831071.47320,-14090517.94461,-116123666.90106,   0.00370,  -0.00081,  -0.00232,477824704.00000,   0.00164,276417568.00000,   0.00174,   0.00008,  -0.00081,  64.00000,   2.00000
423797317.49039,-15695813.38573,-116366348.04041,   0.00371,  -0.00082,  -0.00233,477829856.00000,   0.00164,276423968.00000,   0.00175,   0.00008,  -0.00081, 160.00000,   2.00000
422759111.77975,-17295812.00050,-116611679.50096,   0.00371,  -0.00083,  -0.00233,477844640.00000,   0.00165,276430432.00000,   0.00176,   0.00008,  -0.00082,   0.00000,   2.00000
421711919.32565,-18900902.55745,-116858595.47906,   0.00372,  -0.00084,  -0.00234,477842112.00000,   0.00166,276436832.00000,   0.00176,   0.00007,  -0.00082, 128.00000,   2.00000
420667086.86106,-20501709.12974,-117099124.47959,   0.00372,  -0.00084,  -0.00235,477848928.00000,   0.00166,276443232.00000,   0.00177,   0.00007,  -0.00083,  96.00000,   2.00000
419599862.64237,-22126552.53874,-117345367.77395,   0.00373,  -0.00085,  -0.00236,477852256.00000,   0.00167,276449632.00000,   0.00177,   0.00007,  -0.00083,  96.00000,   2.00000
418551671.39687,-23708236.23980,-117590823.84484,   0.00373,  -0.00086,  -0.00237,477859456.00000,   0.00167,276456064.00000,   0.00178,   0.00006,  -0.00084,  64.00000,   2.00000
417492582.50520,-25304585.07792,-117834032.47833,   0.00373,  -0.00087,  -0.00237,477872256.00000,   0.00168,276462496.00000,   0.00178,   0.00006,  -0.00084, -64.00000,   2.00000
416427945.52079,-26906994.36613,-118074499.27754,   0.00374,  -0.00088,  -0.00238,477865856.00000,   0.00169,276468864.00000,   0.00179,   0.00006,  -0.00085, 224.00000,   2.00000
415358870.94713,-28504286.14360,-118317714.62145,   0.00374,  -0.00089,  -0.00239,477880992.00000,   0.00169,276475296.00000,   0.00180,   0.00005,  -0.00085, 128.00000,   2.00000
414299348.56498,-30077882.38912,-118559836.66733,   0.00375,  -0.00089,  -0.00240,477889824.00000,   0.00170,276481728.00000,   0.00180,   0.00005,  -0.00086, 256.00000,   2.00000
413220283.10417,-31676294.59657,-118803065.53290,   0.00375,  -0.00090,  -0.00241,477890112.00000,   0.00170,276488128.00000,   0.00181,   0.00005,  -0.00086,  32.00000,   2.00000
412150890.38788,-33251008.54876,-119045209.42441,   0.00375,  -0.00091,  -0.00241,477898976.00000,   0.00171,276494560.00000,   0.00181,   0.00004,  -0.00087,  32.00000,   2.00000
411080763.64805,-34821156.45823,-119285608.93839,   0.00376,  -0.00092,  -0.00242,477910336.00000,   0.00172,276500992.00000,   0.00182,   0.00004,  -0.00087, 128.00000,   2.00000
410001234.51120,-36396950.99823,-119527638.81551,   0.00376,  -0.00093,  -0.00243,477908896.00000,   0.00172,276507392.00000,   0.00182,   0.00004,  -0.00088,   0.00000,   2.00000
408912540.30615,-37978425.51889,-119771355.14161,   0.00376,  -0.00094,  -0.00244,477907296.00000,   0.00173,276513760.00000,   0.00183,   0.00003,  -0.00088, 160.00000,   2.00000
407831771.80479,-39544794.66127,-120009787.33698,   0.00377,  -0.00094,  -0.00245,477932000.00000,   0.00173,276520224.00000,   0.00184,   0.00003,  -0.00089,  64.00000,   2.00000
406752014.77415,-41097665.67749,-120250457.51141,   0.00377,  -0.00095,  -0.00245,477928352.00000,   0.00174,276526624.00000,   0.00184,   0.00003,  -0.00089, 128.00000,   2.00000
405652273.95211,-42675183.19320,-120491979.67156,   0.00378,  -0.00096,  -0.00246,477929664.00000,   0.00175,276532992.00000,   0.00185,   0.00002,  -0.00089,  96.00000,   2.00000
404571389.43841,-44218294.72974,-120728914.33892,   0.00378,  -0.00097,  -0.00247,477951936.00000,   0.00175,276539456.00000,   0.00185,   0.00002,  -0.00090, 128.00000,   2.00000
403461414.72662,-45796434.63332,-120970041.02070,   0.00378,  -0.00098,  -0.00248,477940928.00000,   0.00176,276545824.00000,   0.00186,   0.00002,  -0.00090,  64.00000,   2.00000
402370297.87526,-47339984.76618,-121206521.26968,   0.00379,  -0.00098,  -0.00248,477963200.00000,   0.00176,276552256.00000,   0.00186,   0.00002,  -0.00091,   0.00000,   2.00000
401269532.42928,-48889045.02447,-121444488.69207,   0.00379,  -0.00099,  -0.00249,477962464.00000,   0.00177,276558656.00000,   0.00187,   0.00001,  -0.00091, 128.00000,   2.00000
400168081.77197,-50433018.98079,-121680505.12471,   0.00379,  -0.00100,  -0.00250,477974592.00000,   0.00178,276565088.00000,   0.00188,   0.00001,  -0.00092,  96.00000,   2.00000
399067496.85461,-51963553.59386,-121918757.84185,   0.00380,  -0.00101,  -0.00251,477971040.00000,   0.00178,276571456.00000,   0.00188,   0.00001,  -0.00092,  96.00000,   2.00000
397955702.28669,-53508010.59839,-122154361.04733,   0.00380,  -0.00102,  -0.00252,477985952.00000,   0.00179,276577888.00000,   0.00189,   0.00000,  -0.00093, 160.00000,   2.00000
396844500.44387,-55039069.57340,-122392174.84263,   0.00381,  -0.00103,  -0.00252,477982400.00000,   0.00179,276584256.00000,   0.00189,  -0.00000,  -0.00093,  64.00000,   2.00000
395732894.48867,-56565156.16324,-122628187.33267,   0.00381,  -0.00103,  -0.00253,477994080.00000,   0.00180,276590656.00000,   0.00190,  -0.00000,  -0.00094, 224.00000,   2.00000
394620610.70210,-58086226.05942,-122862333.49626,   0.00381,  -0.00104,  -0.00254,478005952.00000,   0.00181,276597056.00000,   0.00190,  -0.00001,  -0.00094, -32.00000,   2.00000
393498353.25858,-59613113.72475,-123098072.26747,   0.00382,  -0.00105,  -0.00255,478004672.00000,   0.00181,276603456.00000,   0.00191,  -0.00001,  -0.00095,  32.00000,   2.00000
392372268.11088,-61134283.70575,-123336483.08009,   0.00382,  -0.00106,  -0.00256,478020512.00000,   0.00182,276609888.00000,   0.00191,  -0.00001,  -0.00095, -32.00000,   2.00000
391263134.53220,-62633403.42303,-123565125.67318,   0.00382,  -0.00107,  -0.00256,478020096.00000,   0.00182,276616288.00000,   0.00192,  -0.00002,  -0.00096,  32.00000,   2.00000
390140666.37259,-64137838.80710,-123799920.61799,   0.00383,  -0.00107,  -0.00257,478022944.00000,   0.00183,276622656.00000,   0.00193,  -0.00002,  -0.00096,  96.00000,   2.00000
388997008.72863,-65667262.90202,-124035489.81770,   0.00383,  -0.00108,  -0.00258,478024608.00000,   0.00184,276629024.00000,   0.00193,  -0.00003,  -0.00097,   0.00000,   2.00000
387884583.45420,-67143575.72615,-124267862.44335,   0.00383,  -0.00109,  -0.00259,478041312.00000,   0.00184,276635424.00000,   0.00194,  -0.00003,  -0.00097,  64.00000,   2.00000
386751152.25882,-68645174.45023,-124501137.86309,   0.00384,  -0.00110,  -0.00260,478042912.00000,   0.00185,276641824.00000,   0.00194,  -0.00003,  -0.00098,  64.00000,   2.00000
385607447.48258,-70153271.64341,-124736151.04631,   0.00384,  -0.00111,  -0.00260,478040992.00000,   0.00185,276648160.00000,   0.00195,  -0.00004,  -0.00098, 128.00000,   2.00000
384474371.88737,-71638257.15119,-124970504.45116,   0.00384,  -0.00111,  -0.00261,478048160.00000,   0.00186,276654528.00000,   0.00195,  -0.00004,  -0.00099, 160.00000,   2.00000
383340883.51528,-73118973.40883,-125203267.67255,   0.00385,  -0.00112,  -0.00262,478058432.00000,   0.00187,276660896.00000,   0.00196,  -0.00004,  -0.00099, -64.00000,   2.00000
382197315.40640,-74606585.99603,-125437871.89055,   0.00385,  -0.00113,  -0.00263,478056192.00000,   0.00187,276667232.00000,   0.00196,  -0.00005,  -0.00100, 128.00000,   2.00000
381056794.73075,-76091003.47437,-125666516.06936,   0.00385,  -0.00114,  -0.00263,478061792.00000,   0.00188,276673568.00000,   0.00197,  -0.00005,  -0.00100, 128.00000,   2.00000
379913813.43267,-77562786.64748,-125902296.63104,   0.00385,  -0.00115,  -0.00264,478060416.00000,   0.00188,276679872.00000,   0.00197,  -0.00005,  -0.00101,   0.00000,   2.00000
378770612.15631,-79030544.31418,-126136459.73852,   0.00386,  -0.00115,  -0.00265,478070400.00000,   0.00189,276686208.00000,   0.00198,  -0.00006,  -0.00101,-128.00000,   2.00000
377630773.39887,-80495328.63324,-126364679.31881,   0.00386,  -0.00116,  -0.00266,478076096.00000,   0.00190,276692512.00000,   0.00199,  -0.00006,  -0.00102, 160.00000,   2.00000
376477178.57990,-81966203.40096,-126598880.55579,   0.00386,  -0.00117,  -0.00267,478078336.00000,   0.00190,276698816.00000,   0.00199,  -0.00006,  -0.00102, -32.00000,   2.00000
375323821.85598,-83433112.63280,-126831449.10120,   0.00387,  -0.00118,  -0.00267,478088288.00000,   0.00191,276705120.00000,   0.00200,  -0.00007,  -0.00103, 128.00000,   2.00000
374174457.02967,-84889473.50885,-127062121.86356,   0.00387,  -0.00119,  -0.00268,478078400.00000,   0.00191,276711392.00000,   0.00200,  -0.00007,  -0.00103,  32.00000,   2.00000
373025273.56043,-86341779.96550,-127291004.36826,   0.00387,  -0.00119,  -0.00269,478088672.00000,   0.00192,276717632.00000,   0.00201,  -0.00007,  -0.00104,  32.00000,   2.00000
371872811.61727,-87788832.18399,-127522291.47982,   0.00388,  -0.00120,  -0.00270,478103712.00000,   0.00193,276723936.00000,   0.00201,  -0.00008,  -0.00104, -32.00000,   2.00000
370713519.13181,-89243957.61138,-127750574.64402,   0.00388,  -0.00121,  -0.00271,478097888.00000,   0.00193,276730208.00000,   0.00202,  -0.00008,  -0.00104,  64.00000,   2.00000
369565558.30349,-90676126.75254,-127977788.02826,   0.00388,  -0.00122,  -0.00271,478105024.00000,   0.00194,276736448.00000,   0.00202,  -0.00008,  -0.00105,  32.00000,   2.00000
368404034.93744,-92114057.84262,-128210468.08545,   0.00388,  -0.00122,  -0.00272,478108576.00000,   0.00194,276742688.00000,   0.00203,  -0.00009,  -0.00105,  32.00000,   2.00000
367246067.13143,-93548484.73584,-128436498.56379,   0.00389,  -0.00123,  -0.00273,478115712.00000,   0.00195,276748928.00000,   0.00203,  -0.00009,  -0.00106, -32.00000,   2.00000
366077784.95099,-94989544.47035,-128663457.56110,   0.00389,  -0.00124,  -0.00274,478115488.00000,   0.00195,276755136.00000,   0.00204,  -0.00009,  -0.00106,  96.00000,   2.00000
364921098.43003,-96407283.54695,-128889021.30163,   0.00389,  -0.00125,  -0.00274,478123488.00000,   0.00196,276761344.00000,   0.00204,  -0.00010,  -0.00107,  64.00000,   2.00000
363768176.27604,-97821313.81440,-129107757.03051,   0.00389,  -0.00126,  -0.00275,478131168.00000,   0.00197,276767552.00000,   0.00205,  -0.00010,  -0.00107, 128.00000,   2.00000
362601535.64692,-99240599.05908,-129331469.89788,   0.00390,  -0.00126,  -0.00276,478136384.00000,   0.00197,276773760.00000,   0.00205,  -0.00010,  -0.00108,  96.00000,   2.00000
361424337.00102,-100666203.31955,-129555725.72780,   0.00390,  -0.00127,  -0.00277,478137472.00000,   0.00198,276779936.00000,   0.00206,  -0.00011,  -0.00108, -64.00000,   2.00000
360270064.37733,-102056886.67538,-129775104.84993,   0.00390,  -0.00128,  -0.00278,478157920.00000,   0.00198,276786176.00000,   0.00206,  -0.00011,  -0.00109, 128.00000,   2.00000
359097434.02529,-103466663.33294,-129994026.33187,   0.00390,  -0.00129,  -0.00278,478142784.00000,   0.00199,276792288.00000,   0.00207,  -0.00012,  -0.00109, 160.00000,   2.00000
357936347.36666,-104859839.03659,-130206798.16509,   0.00391,  -0.00129,  -0.00279,478167904.00000,   0.00200,276798496.00000,   0.00207,  -0.00012,  -0.00110,  32.00000,   2.00000
356772880.62626,-106240018.51161,-130425600.25642,   0.00391,  -0.00130,  -0.00280,478169728.00000,   0.00200,276804672.00000,   0.00208,  -0.00012,  -0.00110,  96.00000,   2.00000
355601774.23679,-107628052.40799,-130640595.67306,   0.00391,  -0.00131,  -0.00281,478166848.00000,   0.00201,276810816.00000,   0.00208,  -0.00013,  -0.00111, -32.00000,   2.00000
354431238.06890,-109011332.18569,-130852861.21666,   0.00391,  -0.00132,  -0.00282,478180000.00000,   0.00201,276816960.00000,   0.00209,  -0.00013,  -0.00111,  64.00000,   2.00000
353261182.93551,-110389958.94929,-131062420.21654,   0.00392,  -0.00132,  -0.00282,478193152.00000,   0.00202,276823136.00000,   0.00209,  -0.00013,  -0.00112,  96.00000,   2.00000
352091623.01470,-111757485.57509,-131273951.09485,   0.00392,  -0.00133,  -0.00283,478189984.00000,   0.00202,276829280.00000,   0.00210,  -0.00014,  -0.00112, -64.00000,   2.00000
350922478.60613,-113120748.27076,-131482939.16987,   0.00392,  -0.00134,  -0.00284,478202848.00000,   0.00203,276835424.00000,   0.00210,  -0.00014,  -0.00113,  32.00000,   2.00000
349745434.11195,-114492920.46704,-131688626.06383,   0.00392,  -0.00135,  -0.00285,478198944.00000,   0.00204,276841504.00000,   0.00211,  -0.00014,  -0.00113,  96.00000,   2.00000
348577025.56791,-115841712.79593,-131897544.58289,   0.00393,  -0.00135,  -0.00285,478211328.00000,   0.00204,276847616.00000,   0.00211,  -0.00015,  -0.00114,  64.00000,   2.00000
347400377.18671,-117199823.80866,-132103362.89193,   0.00393,  -0.00136,  -0.00286,478206688.00000,   0.00205,276853696.00000,   0.00212,  -0.00015,  -0.00114, -32.00000,   2.00000
346220804.83487,-118553107.57535,-132311348.80780,   0.00393,  -0.00137,  -0.00287,478223072.00000,   0.00205,276859776.00000,   0.00212,  -0.00015,  -0.00115,  96.00000,   2.00000
345056248.86875,-119886345.83713,-132514636.19317,   0.00393,  -0.00138,  -0.00288,478224320.00000,   0.00206,276865856.00000,   0.00213,  -0.00016,  -0.00115,   0.00000,   2.00000
343880060.18261,-121228105.84336,-132719496.48800,   0.00393,  -0.00138,  -0.00288,478223200.00000,   0.00206,276871904.00000,   0.00213,  -0.00016,  -0.00116, 128.00000,   2.00000
342704070.15478,-122566826.84195,-132922792.31126,   0.00394,  -0.00139,  -0.00289,478233248.00000,   0.00207,276877952.00000,   0.00214,  -0.00016,  -0.00116, 128.00000,   2.00000
341519325.45187,-123915534.10382,-133123697.36489,   0.00394,  -0.00140,  -0.00290,478226752.00000,   0.00208,276883936.00000,   0.00214,  -0.00017,  -0.00117,  96.00000,   2.00000
340343041.76528,-125241771.36449,-133328868.39267,   0.00394,  -0.00141,  -0.00291,478235840.00000,   0.00208,276889952.00000,   0.00215,  -0.00017,  -0.00117,   0.00000,   2.00000
339158120.81860,-126578148.58780,-133532007.70953,   0.00394,  -0.00141,  -0.00292,478228160.00000,   0.00209,276895904.00000,   0.00215,  -0.00018,  -0.00118,  64.00000,   2.00000
337984755.01179,-127893386.97125,-133735466.96450,   0.00394,  -0.00142,  -0.00292,478231712.00000,   0.00209,276901824.00000,   0.00216,  -0.00018,  -0.00118,  32.00000,   2.00000
336799331.79167,-129217178.48668,-133941224.68707,   0.00395,  -0.00143,  -0.00293,478228192.00000,   0.00210,276907744.00000,   0.00216,  -0.00018,  -0.00119,   0.00000,   2.00000
335613909.84106,-130537672.63325,-134146108.69445,   0.00395,  -0.00143,  -0.00294,478235904.00000,   0.00210,276913664.00000,   0.00217,  -0.00019,  -0.00119,  64.00000,   2.00000
334440258.55014,-131836785.24807,-134351693.36595,   0.00395,  -0.00144,  -0.00295,478238240.00000,   0.00211,276919552.00000,   0.00217,  -0.00019,  -0.00120, 160.00000,   2.00000
333245729.61706,-133163297.59016,-134554075.36291,   0.00395,  -0.00145,  -0.00295,478234528.00000,   0.00212,276925440.00000,   0.00218,  -0.00019,  -0.00120, -32.00000,   2.00000
332059419.63960,-134460464.72930,-134766197.61936,   0.00395,  -0.00146,  -0.00296,478224800.00000,   0.00212,276931232.00000,   0.00218,  -0.00020,  -0.00121, 128.00000,   2.00000
330876837.33170,-135761275.86225,-134968826.48661,   0.00396,  -0.00146,  -0.00297,478243072.00000,   0.00213,276937120.00000,   0.00219,  -0.00020,  -0.00121, 128.00000,   2.00000
329681494.59663,-137063520.94947,-135178761.29478,   0.00396,  -0.00147,  -0.00298,478222496.00000,   0.00213,276942880.00000,   0.00219,  -0.00020,  -0.00122,  96.00000,   2.00000
328498436.75329,-138349563.97647,-135384878.01205,   0.00396,  -0.00148,  -0.00298,478240192.00000,   0.00214,276948736.00000,   0.00219,  -0.00021,  -0.00122,-192.00000,   2.00000
327306007.94333,-139638538.30106,-135594268.62881,   0.00396,  -0.00148,  -0.00299,478214624.00000,   0.00214,276954432.00000,   0.00220,  -0.00021,  -0.00123,  96.00000,   2.00000
326122908.29179,-140909527.57752,-135804073.85610,   0.00396,  -0.00149,  -0.00300,478237152.00000,   0.00215,276960224.00000,   0.00220,  -0.00021,  -0.00123, 160.00000,   2.00000
324930637.96304,-142189147.40812,-136012269.04858,   0.00396,  -0.00150,  -0.00301,478228256.00000,   0.00215,276965984.00000,   0.00221,  -0.00022,  -0.00124, -32.00000,   2.00000
323738205.86336,-143458248.98113,-136224693.88212,   0.00397,  -0.00150,  -0.00301,478218656.00000,   0.00216,276971648.00000,   0.00221,  -0.00022,  -0.00124,  96.00000,   2.00000
322549111.95148,-144724120.82460,-136432332.72341,   0.00397,  -0.00151,  -0.00302,478220800.00000,   0.00216,276977312.00000,   0.00222,  -0.00022,  -0.00125, 160.00000,   2.00000
321356400.09595,-145977805.04333,-136648165.63217,   0.00397,  -0.00152,  -0.00303,478216544.00000,   0.00217,276982976.00000,   0.00222,  -0.00023,  -0.00125,  32.00000,   2.00000
320167393.95332,-147228504.66090,-136859286.60235,   0.00397,  -0.00152,  -0.00304,478218688.00000,   0.00217,276988608.00000,   0.00223,  -0.00023,  -0.00126,  96.00000,   2.00000
318978610.33626,-148474414.75377,-137069648.89230,   0.00397,  -0.00153,  -0.00304,478226080.00000,   0.00218,276994240.00000,   0.00223,  -0.00023,  -0.00126, 128.00000,   2.00000
317777718.68302,-149727716.59983,-137282421.73467,   0.00397,  -0.00154,  -0.00305,478222944.00000,   0.00219,276999872.00000,   0.00223,  -0.00024,  -0.00127, 128.00000,   2.00000
316592186.58124,-150960485.85963,-137491790.58749,   0.00397,  -0.00154,  -0.00306,478220224.00000,   0.00219,277005440.00000,   0.00224,  -0.00024,  -0.00127,  96.00000,   2.00000
315403437.02930,-152181760.21169,-137709260.99595,   0.00398,  -0.00155,  -0.00307,478216416.00000,   0.00220,277011008.00000,   0.00224,  -0.00024,  -0.00127,  64.00000,   2.00000
314218223.81699,-153400392.45679,-137921605.84316,   0.00398,  -0.00156,  -0.00307,478219520.00000,   0.00220,277016544.00000,   0.00225,  -0.00025,  -0.00128,   0.00000,   2.00000
313020700.80173,-154626874.65820,-138135972.71868,   0.00398,  -0.00156,  -0.00308,478217312.00000,   0.00221,277022048.00000,   0.00225,  -0.00025,  -0.00128, 192.00000,   2.00000
311826745.68586,-155850954.85027,-138345019.91976,   0.00398,  -0.00157,  -0.00309,478220864.00000,   0.00221,277027552.00000,   0.00226,  -0.00025,  -0.00129,   0.00000,   2.00000
310632595.07986,-157065896.84493,-138557612.28792,   0.00398,  -0.00158,  -0.00309,478213120.00000,   0.00222,277032992.00000,   0.00226,  -0.00026,  -0.00129,  96.00000,   2.00000
309451083.56229,-158259781.46057,-138770565.52445,   0.00398,  -0.00158,  -0.00310,478216128.00000,   0.00222,277038432.00000,   0.00226,  -0.00026,  -0.00130,   0.00000,   2.00000
308257236.84835,-159462381.69458,-138985081.81578,   0.00398,  -0.00159,  -0.00311,478214688.00000,   0.00223,277043808.00000,   0.00227,  -0.00026,  -0.00130,   0.00000,   2.00000
307067131.01496,-160663592.91067,-139193847.63473,   0.00398,  -0.00160,  -0.00312,478218976.00000,   0.00223,277049216.00000,   0.00227,  -0.00027,  -0.00131,  96.00000,   2.00000
305877691.80802,-161861792.52188,-139400854.29922,   0.00398,  -0.00160,  -0.00312,478228416.00000,   0.00224,277054624.00000,   0.00228,  -0.00027,  -0.00131,  64.00000,   2.00000
304687932.25901,-163051970.81890,-139610810.84084,   0.00399,  -0.00161,  -0.00313,478221728.00000,   0.00224,277059936.00000,   0.00228,  -0.00027,  -0.00132, 128.00000,   2.00000
303497637.56147,-164233783.85067,-139823621.25482,   0.00399,  -0.00162,  -0.00314,478215328.00000,   0.00225,277065216.00000,   0.00229,  -0.00028,  -0.00132,  64.00000,   2.00000
302311133.24937,-165413463.31281,-140030529.23482,   0.00399,  -0.00162,  -0.00314,478220480.00000,   0.00225,277070496.00000,   0.00229,  -0.00028,  -0.00132,  32.00000,   2.00000
301125268.77895,-166587466.23339,-140235758.81860,   0.00399,  -0.00163,  -0.00315,478231232.00000,   0.00226,277075808.00000,   0.00229,  -0.00028,  -0.00133,  64.00000,   2.00000
299941822.25878,-167750442.72925,-140440278.23466,   0.00399,  -0.00164,  -0.00316,478221184.00000,   0.00226,277081024.00000,   0.00230,  -0.00029,  -0.00133,   0.00000,   2.00000
298745951.11625,-168915261.38387,-140646799.52936,   0.00399,  -0.00164,  -0.00317,478223008.00000,   0.00227,277086272.00000,   0.00230,  -0.00029,  -0.00134,   0.00000,   2.00000
297564622.83940,-170055286.50087,-140849594.23782,   0.00399,  -0.00165,  -0.00317,478245600.00000,   0.00227,277091552.00000,   0.00231,  -0.00029,  -0.00134, 192.00000,   2.00000
296369433.74555,-171189715.54523,-141059328.79946,   0.00399,  -0.00166,  -0.00318,478232416.00000,   0.00228,277096800.00000,   0.00231,  -0.00030,  -0.00135,   0.00000,   2.00000
295204500.80427,-172284837.95059,-141263163.45130,   0.00399,  -0.00166,  -0.00319,478242976.00000,   0.00228,277102048.00000,   0.00231,  -0.00030,  -0.00135,  64.00000,   2.00000
294000845.27362,-173410889.91253,-141469439.97947,   0.00399,  -0.00167,  -0.00319,478242720.00000,   0.00229,277107296.00000,   0.00232,  -0.00031,  -0.00135, -32.00000,   2.00000
292839710.63334,-174485807.36519,-141671142.64842,   0.00399,  -0.00167,  -0.00320,478245024.00000,   0.00229,277112512.00000,   0.00232,  -0.00031,  -0.00136, 224.00000,   2.00000
291638945.61726,-175597028.61844,-141874295.89013,   0.00399,  -0.00168,  -0.00321,478243392.00000,   0.00230,277117696.00000,   0.00233,  -0.00031,  -0.00136,  96.00000,   2.00000
290477701.32574,-176660084.25747,-142076611.22868,   0.00400,  -0.00169,  -0.00321,478248128.00000,   0.00230,277122880.00000,   0.00233,  -0.00032,  -0.00137,  96.00000,   2.00000
289279071.29801,-177765452.45566,-142275882.16095,   0.00400,  -0.00169,  -0.00322,478240256.00000,   0.00231,277128000.00000,   0.00233,  -0.00032,  -0.00137, -64.00000,   2.00000
288107389.13185,-178841814.70506,-142472260.67800,   0.00400,  -0.00170,  -0.00323,478250688.00000,   0.00231,277133120.00000,   0.00234,  -0.00032,  -0.00138, 160.00000,   2.00000
286934062.60108,-179914350.55099,-142671324.13890,   0.00400,  -0.00170,  -0.00323,478241824.00000,   0.00232,277138176.00000,   0.00234,  -0.00033,  -0.00138, 192.00000,   2.00000
285749451.49609,-181001942.28399,-142867077.13615,   0.00400,  -0.00171,  -0.00324,478234592.00000,   0.00232,277143200.00000,   0.00234,  -0.00033,  -0.00138, -96.00000,   2.00000
284565031.29064,-182090281.72083,-143061152.47586,   0.00400,  -0.00172,  -0.00325,478241024.00000,   0.00233,277148192.00000,   0.00235,  -0.00033,  -0.00139,  96.00000,   2.00000
283395844.14069,-183164972.34628,-143251760.94794,   0.00400,  -0.00172,  -0.00325,478235168.00000,   0.00233,277153152.00000,   0.00235,  -0.00034,  -0.00139, -32.00000,   2.00000
282212410.06497,-184252820.36437,-143443890.43017,   0.00400,  -0.00173,  -0.00326,478231712.00000,   0.00233,277158080.00000,   0.00236,  -0.00034,  -0.00140,  96.00000,   2.00000
281026929.88659,-185337333.96343,-143639839.55937,   0.00400,  -0.00173,  -0.00327,478220704.00000,   0.00234,277162912.00000,   0.00236,  -0.00034,  -0.00140,  32.00000,   2.00000
279844239.04805,-186425211.26707,-143830933.04498,   0.00400,  -0.00174,  -0.00327,478220256.00000,   0.00234,277167712.00000,   0.00236,  -0.00035,  -0.00141, 160.00000,   2.00000
278673520.28326,-187497825.86096,-144023421.81327,   0.00400,  -0.00174,  -0.00328,478217632.00000,   0.00235,277172512.00000,   0.00237,  -0.00035,  -0.00141,  96.00000,   2.00000
277491098.37244,-188586565.02755,-144214201.25827,   0.00400,  -0.00175,  -0.00329,478206688.00000,   0.00235,277177216.00000,   0.00237,  -0.00035,  -0.00141,  32.00000,   2.00000
276306513.13225,-189673113.77495,-144409684.08754,   0.00400,  -0.00176,  -0.00329,478193280.00000,   0.00236,277181856.00000,   0.00237,  -0.00035,  -0.00142,   0.00000,   2.00000
275124407.43267,-190764247.59370,-144601014.22126,   0.00400,  -0.00176,  -0.00330,478190752.00000,   0.00236,277186464.00000,   0.00238,  -0.00036,  -0.00142,  64.00000,   2.00000
273941928.36719,-191858325.18477,-144792420.11452,   0.00400,  -0.00177,  -0.00331,478192576.00000,   0.00237,277191040.00000,   0.00238,  -0.00036,  -0.00143,  32.00000,   2.00000
