# sigma_xx, sigma_yy, sigma_xy, epsilon_xx, epsilon_yy, epsilon_xy, vonMises, epsPlastic, hardening, epsilonP__xx, epsilonP__yy, epsilonP__xy, yieldValue, iteration
   0.00000,   0.00000,   0.00000,   0.00000,   0.00000,   0.00000,   0.00000,   0.00000,274640135.82653,   0.00000,   0.00000,   0.00000,-474640135.82653,   0.00000
   0.00000,   0.00000,   0.00000,   0.00000,   0.00000,   0.00000,   0.00000,   0.00000,274640135.82653,   0.00000,   0.00000,   0.00000,-474640135.82653,   0.00000
-1200213.91154,-1017902.93764,704935.76577,  -0.00000,  -0.00000,   0.00001,1657028.02002,   0.00000,274640135.82653,   0.00000,   0.00000,   0.00000,-472983107.80651,   0.00000
-2409543.37178,-2057075.48890,1409871.53153,  -0.00001,  -0.00000,   0.00002,3323260.36059,   0.00000,274640135.82653,   0.00000,   0.00000,   0.00000,-471316875.46594,   0.00000
-3618872.83202,-3096248.04016,2102653.23237,  -0.00001,  -0.00001,   0.00003,4974084.48195,   0.00000,274640135.82653,   0.00000,   0.00000,   0.00000,-469666051.34458,   0.00000
-4816048.22733,-4147574.65634,2795434.93321,  -0.00001,  -0.00001,   0.00004,6623076.76869,   0.00000,274640135.82653,   0.00000,   0.00000,   0.00000,-468017059.05784,   0.00000
-6043608.78496,-5229286.43485,3488216.63405,  -0.00002,  -0.00001,   0.00005,8292758.78010,   0.00000,274640135.82653,   0.00000,   0.00000,   0.00000,-466347377.04643,   0.00000
-7259015.27766,-6323152.27828,4168844.26997,  -0.00002,  -0.00001,   0.00005,9945525.93814,   0.00000,274640135.82653,   0.00000,   0.00000,   0.00000,-464694609.88839,   0.00000
-8474421.77036,-7417018.12171,4855548.93834,  -0.00002,  -0.00002,   0.00006,11606123.76273,   0.00000,274640135.82653,   0.00000,   0.00000,   0.00000,-463034012.06380,   0.00000
-9720213.42538,-8541269.12746,5530099.54179,  -0.00003,  -0.00002,   0.00007,13272485.49920,   0.00000,274640135.82653,   0.00000,   0.00000,   0.00000,-461367650.32733,   0.00000
-10953851.01547,-9677674.19814,6204650.14524,  -0.00003,  -0.00002,   0.00008,14937519.16773,   0.00000,274640135.82653,   0.00000,   0.00000,   0.00000,-459702616.65880,   0.00000
-12166218.99194,-10804963.72012,6873123.71623,  -0.00003,  -0.00003,   0.00009,16583969.95866,   0.00000,274640135.82653,   0.00000,   0.00000,   0.00000,-458056165.86787,   0.00000
-13408972.13073,-11962638.40441,7535520.25475,  -0.00004,  -0.00003,   0.00010,18244198.05724,   0.00000,274640135.82653,   0.00000,   0.00000,   0.00000,-456395937.76929,   0.00000
-14660840.81821,-13141582.70233,8191839.76081,  -0.00004,  -0.00003,   0.00011,19907122.17577,   0.00000,274640135.82653,   0.00000,   0.00000,   0.00000,-454733013.65075,   0.00000
-15912709.50569,-14320527.00026,8848159.26687,  -0.00004,  -0.00003,   0.00012,21570424.16110,   0.00000,274640135.82653,   0.00000,   0.00000,   0.00000,-453069711.66543,   0.00000
-17152424.12825,-15511625.36310,9504478.77293,  -0.00005,  -0.00004,   0.00012,23232725.79723,   0.00000,274640135.82653,   0.00000,   0.00000,   0.00000,-451407410.02930,   0.00000
-18401254.29950,-16723993.33957,10148644.21406,  -0.00005,  -0.00004,   0.00013,24890572.44868,   0.00000,274640135.82653,   0.00000,   0.00000,   0.00000,-449749563.37785,   0.00000
-19680469.63307,-17966746.47836,10792809.65519,  -0.00005,  -0.00004,   0.00014,26570379.67894,   0.00000,274640135.82653,   0.00000,   0.00000,   0.00000,-448069756.14759,   0.00000
-20938415.35301,-19200384.06845,11430898.06386,  -0.00006,  -0.00005,   0.00015,28231943.98102,   0.00000,274640135.82653,   0.00000,   0.00000,   0.00000,-446408191.84551,   0.00000
-22205476.62166,-20455291.27217,12062909.44006,  -0.00006,  -0.00005,   0.00016,29896889.35940,   0.00000,274640135.82653,   0.00000,   0.00000,   0.00000,-444743246.46713,   0.00000
-23481653.43899,-21731468.08950,12694920.81627,  -0.00006,  -0.00005,   0.00017,31572725.48814,   0.00000,274640135.82653,   0.00000,   0.00000,   0.00000,-443067410.33839,   0.00000
-24757830.25633,-23007644.90684,13320855.16001,  -0.00007,  -0.00006,   0.00017,33241811.96236,   0.00000,274640135.82653,   0.00000,   0.00000,   0.00000,-441398323.86417,   0.00000
-26043122.62236,-24305091.33780,13940712.47129,  -0.00007,  -0.00006,   0.00018,34914633.31363,   0.00000,274640135.82653,   0.00000,   0.00000,   0.00000,-439725502.51290,   0.00000
-27316260.92347,-25614691.83368,14560569.78256,  -0.00007,  -0.00006,   0.00019,36587204.32267,   0.00000,274640135.82653,   0.00000,   0.00000,   0.00000,-438052931.50386,   0.00000
-28619784.38689,-26954677.49189,15174350.06138,  -0.00008,  -0.00007,   0.00020,38275218.33202,   0.00000,274640135.82653,   0.00000,   0.00000,   0.00000,-436364917.49451,   0.00000
-29923307.85031,-28294663.15009,15782053.30773,  -0.00008,  -0.00007,   0.00021,39956751.86179,   0.00000,274640135.82653,   0.00000,   0.00000,   0.00000,-434683383.96474,   0.00000
-31214677.24881,-29646802.87322,16389756.55408,  -0.00008,  -0.00007,   0.00021,41638275.33544,   0.00000,274640135.82653,   0.00000,   0.00000,   0.00000,-433001860.49109,   0.00000
-32515162.19600,-31020212.20997,16985305.73550,  -0.00009,  -0.00008,   0.00022,43317016.74409,   0.00000,274640135.82653,   0.00000,   0.00000,   0.00000,-431323119.08244,   0.00000
-33846032.30550,-32424006.70904,17580854.91693,  -0.00009,  -0.00008,   0.00023,45018946.16909,   0.00000,274640135.82653,   0.00000,   0.00000,   0.00000,-429621189.65744,   0.00000
-35155632.80139,-33818685.65942,18176404.09835,  -0.00009,  -0.00009,   0.00024,46710274.24848,   0.00000,274640135.82653,   0.00000,   0.00000,   0.00000,-427929861.57805,   0.00000
-36474348.84597,-35234634.22342,18759799.21485,  -0.00010,  -0.00009,   0.00024,48399250.32699,   0.00000,274640135.82653,   0.00000,   0.00000,   0.00000,-426240885.49954,   0.00000
-37802180.43925,-36671852.40104,19343194.33134,  -0.00010,  -0.00009,   0.00025,50100210.81592,   0.00000,274640135.82653,   0.00000,   0.00000,   0.00000,-424539925.01061,   0.00000
-39130012.03252,-38109070.57866,19926589.44784,  -0.00010,  -0.00010,   0.00026,51802100.46718,   0.00000,274640135.82653,   0.00000,   0.00000,   0.00000,-422838035.35935,   0.00000
-40466959.17450,-39567558.36990,20497830.49941,  -0.00011,  -0.00010,   0.00027,53502064.04004,   0.00000,274640135.82653,   0.00000,   0.00000,   0.00000,-421138071.78649,   0.00000
-41813021.86516,-41047315.77476,21069071.55098,  -0.00011,  -0.00011,   0.00027,55214273.02677,   0.00000,274640135.82653,   0.00000,   0.00000,   0.00000,-419425862.79976,   0.00000
-43168200.10452,-42548342.79325,21634235.57009,  -0.00011,  -0.00011,   0.00028,56931889.52606,   0.00000,274640135.82653,   0.00000,   0.00000,   0.00000,-417708246.30047,   0.00000
-44502108.73026,-44040254.26304,22193322.55673,  -0.00012,  -0.00011,   0.00029,58632142.98994,   0.00000,274640135.82653,   0.00000,   0.00000,   0.00000,-416007992.83659,   0.00000
-45875518.06702,-45583820.50877,22752409.54337,  -0.00012,  -0.00012,   0.00030,60367896.17725,   0.00000,274640135.82653,   0.00000,   0.00000,   0.00000,-414272239.64928,   0.00000
-47218542.24145,-47097001.59218,23305419.49755,  -0.00012,  -0.00012,   0.00030,62074908.49873,   0.00000,274640135.82653,   0.00000,   0.00000,   0.00000,-412565227.32780,   0.00000
-48601067.12690,-48661837.45154,23852352.41927,  -0.00013,  -0.00013,   0.00031,63810853.85208,   0.00000,274640135.82653,   0.00000,   0.00000,   0.00000,-410829281.97445,   0.00000
-49971437.94742,-50238827.37582,24399285.34098,  -0.00013,  -0.00013,   0.00032,65548099.26550,   0.00000,274640135.82653,   0.00000,   0.00000,   0.00000,-409092036.56103,   0.00000
-51363078.38156,-51824932.84879,24934064.19777,  -0.00013,  -0.00014,   0.00032,67284649.58545,   0.00000,274640135.82653,   0.00000,   0.00000,   0.00000,-407355486.24108,   0.00000
-52742564.75078,-53423192.38669,25468843.05456,  -0.00014,  -0.00014,   0.00033,69022643.65584,   0.00000,274640135.82653,   0.00000,   0.00000,   0.00000,-405617492.17069,   0.00000
-54122051.12000,-55021451.92460,26003621.91135,  -0.00014,  -0.00014,   0.00034,70761909.33752,   0.00000,274640135.82653,   0.00000,   0.00000,   0.00000,-403878226.48901,   0.00000
-55541038.20023,-56671366.23844,26526246.70321,  -0.00014,  -0.00015,   0.00034,72524405.89940,   0.00000,274640135.82653,   0.00000,   0.00000,   0.00000,-402115729.92713,   0.00000
-56938755.66683,-58312165.00359,27048871.49507,  -0.00015,  -0.00015,   0.00035,74276730.65113,   0.00000,274640135.82653,   0.00000,   0.00000,   0.00000,-400363405.17540,   0.00000
-58345588.68213,-59974233.38235,27571496.28693,  -0.00015,  -0.00016,   0.00036,76042400.39947,   0.00000,274640135.82653,   0.00000,   0.00000,   0.00000,-398597735.42706,   0.00000
-59752421.69744,-61636301.76112,28081967.01387,  -0.00015,  -0.00016,   0.00037,77796258.99039,   0.00000,274640135.82653,   0.00000,   0.00000,   0.00000,-396843876.83614,   0.00000
-61177485.81013,-63340909.36714,28592437.74080,  -0.00015,  -0.00017,   0.00037,79575753.04941,   0.00000,274640135.82653,   0.00000,   0.00000,   0.00000,-395064382.77712,   0.00000
-62602549.92282,-65045516.97315,29096831.43527,  -0.00016,  -0.00017,   0.00038,81350231.16313,   0.00000,274640135.82653,   0.00000,   0.00000,   0.00000,-393289904.66340,   0.00000
-64036729.58421,-66771394.19279,29595148.09728,  -0.00016,  -0.00018,   0.00038,83131934.15954,   0.00000,274640135.82653,   0.00000,   0.00000,   0.00000,-391508201.66699,   0.00000
-65470909.24560,-68497271.41242,30093464.75929,  -0.00016,  -0.00018,   0.00039,84915177.51165,   0.00000,274640135.82653,   0.00000,   0.00000,   0.00000,-389724958.31488,   0.00000
-66923320.00438,-70265687.85930,30585704.38883,  -0.00017,  -0.00019,   0.00040,86718166.92998,   0.00000,274640135.82653,   0.00000,   0.00000,   0.00000,-387921968.89654,   0.00000
-68375730.76315,-72034104.30619,31071866.98591,  -0.00017,  -0.00019,   0.00040,88516388.15923,   0.00000,274640135.82653,   0.00000,   0.00000,   0.00000,-386123747.66730,   0.00000
-69815987.45700,-73814674.81799,31558029.58299,  -0.00017,  -0.00020,   0.00041,90317006.18007,   0.00000,274640135.82653,   0.00000,   0.00000,   0.00000,-384323129.64646,   0.00000
-71277513.76448,-75604360.87850,32032038.11515,  -0.00018,  -0.00021,   0.00042,92118222.28284,   0.00000,274640135.82653,   0.00000,   0.00000,   0.00000,-382521913.54369,   0.00000
-72757271.16934,-77436586.16624,32506046.64730,  -0.00018,  -0.00021,   0.00042,93946260.66468,   0.00000,274640135.82653,   0.00000,   0.00000,   0.00000,-380693875.16185,   0.00000
-74237028.57421,-79268811.45399,32980055.17945,  -0.00018,  -0.00022,   0.00043,95776051.17576,   0.00000,274640135.82653,   0.00000,   0.00000,   0.00000,-378864084.65077,   0.00000
-75704631.91414,-81113190.80667,33447986.67914,  -0.00019,  -0.00022,   0.00043,97602255.10386,   0.00000,274640135.82653,   0.00000,   0.00000,   0.00000,-377037880.72267,   0.00000
-77202620.41640,-82987955.32166,33909841.14637,  -0.00019,  -0.00023,   0.00044,99448427.30538,   0.00000,274640135.82653,   0.00000,   0.00000,   0.00000,-375191708.52115,   0.00000
-78700608.91865,-84862719.83665,34365618.58113,  -0.00019,  -0.00023,   0.00045,101290209.58610,   0.00000,274640135.82653,   0.00000,   0.00000,   0.00000,-373349926.24043,   0.00000
-80207712.96960,-86758753.96526,34815318.98343,  -0.00020,  -0.00024,   0.00045,103140470.62879,   0.00000,274640135.82653,   0.00000,   0.00000,   0.00000,-371499665.19774,   0.00000
-81702662.95563,-88666942.15880,35265019.38573,  -0.00020,  -0.00024,   0.00046,104993767.68244,   0.00000,274640135.82653,   0.00000,   0.00000,   0.00000,-369646368.14408,   0.00000
-83227998.10397,-90605515.51466,35708642.75557,  -0.00020,  -0.00025,   0.00046,106867511.14788,   0.00000,274640135.82653,   0.00000,   0.00000,   0.00000,-367772624.67865,   0.00000
-84732063.63868,-92534973.32183,36152266.12541,  -0.00021,  -0.00026,   0.00047,108731429.15385,   0.00000,274640135.82653,   0.00000,   0.00000,   0.00000,-365908706.67268,   0.00000
-86266514.33572,-94494816.29131,36589812.46278,  -0.00021,  -0.00026,   0.00048,110615941.46190,   0.00000,274640135.82653,   0.00000,   0.00000,   0.00000,-364024194.36463,   0.00000
-87810080.58145,-96475928.87441,37021281.76769,  -0.00021,  -0.00027,   0.00048,112509474.82962,   0.00000,274640135.82653,   0.00000,   0.00000,   0.00000,-362130660.99691,   0.00000
-89341492.76225,-98469195.52244,37446674.04013,  -0.00021,  -0.00027,   0.00049,114400437.35386,   0.00000,274640135.82653,   0.00000,   0.00000,   0.00000,-360239698.47266,   0.00000
-90894174.55668,-100471577.71917,37872066.31258,  -0.00022,  -0.00028,   0.00049,116305150.33687,   0.00000,274640135.82653,   0.00000,   0.00000,   0.00000,-358334985.48966,   0.00000
-92434702.28618,-102486113.98082,38285304.52010,  -0.00022,  -0.00029,   0.00050,118201514.11014,   0.00000,274640135.82653,   0.00000,   0.00000,   0.00000,-356438621.71639,   0.00000
-94005615.17800,-104531035.40479,38704619.76008,  -0.00022,  -0.00029,   0.00050,120130893.32760,   0.00000,274640135.82653,   0.00000,   0.00000,   0.00000,-354509242.49893,   0.00000
-95576528.06981,-106575956.82876,39111780.93513,  -0.00023,  -0.00030,   0.00051,122050569.79051,   0.00000,274640135.82653,   0.00000,   0.00000,   0.00000,-352589566.03602,   0.00000
-97144402.44540,-108654301.93128,39518942.11019,  -0.00023,  -0.00030,   0.00051,123987400.07330,   0.00000,274640135.82653,   0.00000,   0.00000,   0.00000,-350652735.75323,   0.00000
-98733546.43461,-110741762.58250,39920026.25278,  -0.00023,  -0.00031,   0.00052,125932321.90868,   0.00000,274640135.82653,   0.00000,   0.00000,   0.00000,-348707813.91785,   0.00000
-100331805.97251,-112850492.84733,40321110.39537,  -0.00024,  -0.00032,   0.00052,127892873.54610,   0.00000,274640135.82653,   0.00000,   0.00000,   0.00000,-346747262.28043,   0.00000
-101908795.89679,-114950107.56347,40716117.50550,  -0.00024,  -0.00032,   0.00053,129838012.67022,   0.00000,274640135.82653,   0.00000,   0.00000,   0.00000,-344802123.15631,   0.00000
-103516170.98339,-117080107.44193,41105047.58316,  -0.00024,  -0.00033,   0.00053,131804930.11798,   0.00000,274640135.82653,   0.00000,   0.00000,   0.00000,-342835205.70855,   0.00000
-105132661.61868,-119231376.93402,41487900.62837,  -0.00025,  -0.00034,   0.00054,133781999.81583,   0.00000,274640135.82653,   0.00000,   0.00000,   0.00000,-340858136.01070,   0.00000
-106736998.18904,-121394800.49102,41870753.67357,  -0.00025,  -0.00034,   0.00054,135763204.91234,   0.00000,274640135.82653,   0.00000,   0.00000,   0.00000,-338876930.91419,   0.00000
-108371719.92173,-123588609.21035,42247529.68630,  -0.00025,  -0.00035,   0.00055,137766560.37031,   0.00000,274640135.82653,   0.00000,   0.00000,   0.00000,-336873575.45622,   0.00000
-110006441.65441,-125782417.92968,42618228.66658,  -0.00026,  -0.00036,   0.00055,139766583.59780,   0.00000,274640135.82653,   0.00000,   0.00000,   0.00000,-334873552.22873,   0.00000
-111629009.32217,-127988380.71393,42988927.64685,  -0.00026,  -0.00036,   0.00056,141770902.78635,   0.00000,274640135.82653,   0.00000,   0.00000,   0.00000,-332869233.04018,   0.00000
-113281962.15224,-130224728.66050,43353549.59466,  -0.00026,  -0.00037,   0.00056,143797638.74184,   0.00000,274640135.82653,   0.00000,   0.00000,   0.00000,-330842497.08469,   0.00000
-114934914.98232,-132461076.60707,43712094.51001,  -0.00026,  -0.00038,   0.00057,145821159.43495,   0.00000,274640135.82653,   0.00000,   0.00000,   0.00000,-328818976.39158,   0.00000
-116596983.36109,-134718694.16726,44070639.42536,  -0.00027,  -0.00039,   0.00057,147860926.28842,   0.00000,274640135.82653,   0.00000,   0.00000,   0.00000,-326779209.53811,   0.00000
-118268167.28855,-136997581.34108,44423107.30824,  -0.00027,  -0.00039,   0.00058,149911577.96409,   0.00000,274640135.82653,   0.00000,   0.00000,   0.00000,-324728557.86244,   0.00000
-119948466.76471,-139297738.12852,44769498.15866,  -0.00027,  -0.00040,   0.00058,151973248.66815,   0.00000,274640135.82653,   0.00000,   0.00000,   0.00000,-322666887.15838,   0.00000
-121628766.24087,-141597894.91595,45115889.00908,  -0.00028,  -0.00041,   0.00059,154037247.71695,   0.00000,274640135.82653,   0.00000,   0.00000,   0.00000,-320602888.10958,   0.00000
-123318181.26572,-143919321.31701,45456202.82704,  -0.00028,  -0.00041,   0.00059,156112379.55903,   0.00000,274640135.82653,   0.00000,   0.00000,   0.00000,-318527756.26750,   0.00000
-125016711.83927,-146262017.33170,45796516.64499,  -0.00028,  -0.00042,   0.00060,158204052.69682,   0.00000,274640135.82653,   0.00000,   0.00000,   0.00000,-316436083.12971,   0.00000
-126715242.41282,-148604713.34638,46124676.39802,  -0.00029,  -0.00043,   0.00060,160287518.32751,   0.00000,274640135.82653,   0.00000,   0.00000,   0.00000,-314352617.49902,   0.00000
-128422888.53507,-150968678.97468,46452836.15105,  -0.00029,  -0.00044,   0.00060,162387636.40816,   0.00000,274640135.82653,   0.00000,   0.00000,   0.00000,-312252499.41837,   0.00000
-130139650.20601,-153353914.21661,46780995.90408,  -0.00029,  -0.00044,   0.00061,164504442.31314,   0.00000,274640135.82653,   0.00000,   0.00000,   0.00000,-310135693.51338,   0.00000
-131865527.42565,-155760419.07216,47097001.59218,  -0.00030,  -0.00045,   0.00061,166627663.77979,   0.00000,274640135.82653,   0.00000,   0.00000,   0.00000,-308012472.04674,   0.00000
-133612674.25891,-158176039.47640,47413007.28028,  -0.00030,  -0.00046,   0.00062,168765109.92209,   0.00000,274640135.82653,   0.00000,   0.00000,   0.00000,-305875025.90444,   0.00000
-135347667.02724,-160603813.94557,47729012.96839,  -0.00030,  -0.00047,   0.00062,170907578.90503,   0.00000,274640135.82653,   0.00000,   0.00000,   0.00000,-303732556.92150,   0.00000
-137091775.34426,-163052858.02837,48038941.62403,  -0.00031,  -0.00047,   0.00062,173061848.28918,   0.00000,274640135.82653,   0.00000,   0.00000,   0.00000,-301578287.53735,   0.00000
-138857153.27491,-165511017.65986,48342793.24720,  -0.00031,  -0.00048,   0.00063,175225267.04604,   0.00000,274640135.82653,   0.00000,   0.00000,   0.00000,-299414868.78049,   0.00000
-140619492.68933,-168002600.96989,48640567.83791,  -0.00031,  -0.00049,   0.00063,177403465.74056,   0.00000,274640135.82653,   0.00000,   0.00000,   0.00000,-297236670.08597,   0.00000
-142393986.16867,-170482030.21501,48938342.42863,  -0.00032,  -0.00050,   0.00064,179581285.63349,   0.00000,274640135.82653,   0.00000,   0.00000,   0.00000,-295058850.19304,   0.00000
-144186710.74541,-173003998.68736,49230039.98687,  -0.00032,  -0.00051,   0.00064,181785874.34724,   0.00000,274640135.82653,   0.00000,   0.00000,   0.00000,-292854261.47929,   0.00000
-145958165.70852,-175516851.61102,49521737.54512,  -0.00032,  -0.00051,   0.00064,183981088.95434,   0.00000,274640135.82653,   0.00000,   0.00000,   0.00000,-290659046.87219,   0.00000
-147760005.83395,-178060089.69700,49807358.07091,  -0.00033,  -0.00052,   0.00065,186200359.09885,   0.00000,274640135.82653,   0.00000,   0.00000,   0.00000,-288439776.72768,   0.00000
-149570961.50808,-180624597.39660,50086901.56423,  -0.00033,  -0.00053,   0.00065,188431993.38602,   0.00000,274640135.82653,   0.00000,   0.00000,   0.00000,-286208142.44051,   0.00000
-151381917.18220,-183189105.09620,50366445.05755,  -0.00033,  -0.00054,   0.00065,190666073.28667,   0.00000,274640135.82653,   0.00000,   0.00000,   0.00000,-283974062.53986,   0.00000
-153201988.40502,-185774882.40942,50639911.51841,  -0.00033,  -0.00055,   0.00066,192912614.20765,   0.00000,274640135.82653,   0.00000,   0.00000,   0.00000,-281727521.61888,   0.00000
-155031175.17654,-188381929.33627,50907300.94680,  -0.00034,  -0.00055,   0.00066,195171730.94255,   0.00000,274640135.82653,   0.00000,   0.00000,   0.00000,-279468404.88398,   0.00000
-156860361.94805,-190988976.26311,51174690.37520,  -0.00034,  -0.00056,   0.00067,197433302.82599,   0.00000,274640135.82653,   0.00000,   0.00000,   0.00000,-277206833.00054,   0.00000
-158698664.26826,-193617292.80358,51436002.77113,  -0.00034,  -0.00057,   0.00067,199707544.94802,   0.00000,274640135.82653,   0.00000,   0.00000,   0.00000,-274932590.87851,   0.00000
-160567351.75079,-196275994.50636,51697315.16706,  -0.00035,  -0.00058,   0.00067,202011041.78740,   0.00000,274640135.82653,   0.00000,   0.00000,   0.00000,-272629094.03913,   0.00000
-162414769.61970,-198925580.66045,51952550.53052,  -0.00035,  -0.00059,   0.00068,204300499.74771,   0.00000,274640135.82653,   0.00000,   0.00000,   0.00000,-270339636.07881,   0.00000
-164292572.65092,-201605551.97686,52201708.86153,  -0.00035,  -0.00060,   0.00068,206614637.53896,   0.00000,274640135.82653,   0.00000,   0.00000,   0.00000,-268025498.28757,   0.00000
-166158221.61722,-204297677.35819,52450867.19253,  -0.00036,  -0.00061,   0.00068,208934528.60245,   0.00000,274640135.82653,   0.00000,   0.00000,   0.00000,-265705607.22408,   0.00000
-168045140.19714,-206998918.28822,52693948.49107,  -0.00036,  -0.00061,   0.00069,211264089.93179,   0.00000,274640135.82653,   0.00000,   0.00000,   0.00000,-263376045.89474,   0.00000
-169941174.32575,-209721428.83187,52937029.78961,  -0.00036,  -0.00062,   0.00069,213611240.14053,   0.00000,274640135.82653,   0.00000,   0.00000,   0.00000,-261028895.68600,   0.00000
-171846324.00306,-212465208.98915,53174034.05569,  -0.00037,  -0.00063,   0.00069,215971508.89436,   0.00000,274640135.82653,   0.00000,   0.00000,   0.00000,-258668626.93217,   0.00000
-173751473.68037,-215208989.14642,53404961.28930,  -0.00037,  -0.00064,   0.00069,218329737.49127,   0.00000,274640135.82653,   0.00000,   0.00000,   0.00000,-256310398.33526,   0.00000
-175665738.90638,-217974038.91732,53635888.52292,  -0.00037,  -0.00065,   0.00070,220705660.26172,   0.00000,274640135.82653,   0.00000,   0.00000,   0.00000,-253934475.56481,   0.00000
-177589119.68108,-220760358.30183,53860738.72407,  -0.00038,  -0.00066,   0.00070,223094892.50778,   0.00000,274640135.82653,   0.00000,   0.00000,   0.00000,-251545243.31875,   0.00000
-179512500.45578,-223546677.68635,54079511.89275,  -0.00038,  -0.00067,   0.00070,225482178.15186,   0.00000,274640135.82653,   0.00000,   0.00000,   0.00000,-249157957.67467,   0.00000
-181444996.77917,-226354266.68449,54298285.06144,  -0.00038,  -0.00068,   0.00071,227887259.39549,   0.00000,274640135.82653,   0.00000,   0.00000,   0.00000,-246752876.43104,   0.00000
-183398762.71619,-229170971.23133,54517058.23013,  -0.00039,  -0.00069,   0.00071,230306527.39522,   0.00000,274640135.82653,   0.00000,   0.00000,   0.00000,-244333608.43131,   0.00000
-185349490.13698,-232021099.45671,54729754.36635,  -0.00039,  -0.00069,   0.00071,232742926.08116,   0.00000,274640135.82653,   0.00000,   0.00000,   0.00000,-241897209.74537,   0.00000
-187312371.62269,-234859073.61717,54936373.47011,  -0.00039,  -0.00070,   0.00071,235173796.02548,   0.00000,274640135.82653,   0.00000,   0.00000,   0.00000,-239466339.80105,   0.00000
-189293484.20579,-237739587.00487,55142992.57387,  -0.00040,  -0.00071,   0.00072,237638019.94677,   0.00000,274640135.82653,   0.00000,   0.00000,   0.00000,-237002115.87976,   0.00000
-191274596.78890,-240620100.39258,55343534.64516,  -0.00040,  -0.00072,   0.00072,240100420.42624,   0.00000,274640135.82653,   0.00000,   0.00000,   0.00000,-234539715.40029,   0.00000
-193264824.92069,-243521883.39390,55537999.68399,  -0.00040,  -0.00073,   0.00072,242576574.11951,   0.00000,274640135.82653,   0.00000,   0.00000,   0.00000,-232063561.70702,   0.00000
-195255053.05249,-246423666.39523,55732464.72283,  -0.00041,  -0.00074,   0.00072,245055128.32636,   0.00000,274640135.82653,   0.00000,   0.00000,   0.00000,-229585007.50016,   0.00000
-197254396.73299,-249346719.01017,55926929.76166,  -0.00041,  -0.00075,   0.00073,247551633.18716,   0.00000,274640135.82653,   0.00000,   0.00000,   0.00000,-227088502.63937,   0.00000
-199275010.02710,-252278887.17382,56115317.76803,  -0.00041,  -0.00076,   0.00073,250058144.09531,   0.00000,274640135.82653,   0.00000,   0.00000,   0.00000,-224581991.73122,   0.00000
-201283469.25629,-255223209.40238,56297628.74193,  -0.00042,  -0.00077,   0.00073,252566778.48870,   0.00000,274640135.82653,   0.00000,   0.00000,   0.00000,-222073357.33783,   0.00000
-203322313.64780,-258197916.79327,56479939.71584,  -0.00042,  -0.00078,   0.00073,255105233.99755,   0.00000,274640135.82653,   0.00000,   0.00000,   0.00000,-219534901.82898,   0.00000
-205361158.03931,-261172624.18416,56656173.65728,  -0.00043,  -0.00079,   0.00074,257641996.46857,   0.00000,274640135.82653,   0.00000,   0.00000,   0.00000,-216998139.35796,   0.00000
-207409117.97951,-264168601.18867,56832407.59872,  -0.00043,  -0.00080,   0.00074,260196816.20841,   0.00000,274640135.82653,   0.00000,   0.00000,   0.00000,-214443319.61812,   0.00000
-209466193.46841,-267185847.80680,57002564.50770,  -0.00043,  -0.00081,   0.00074,262765747.51483,   0.00000,274640135.82653,   0.00000,   0.00000,   0.00000,-211874388.31170,   0.00000
-211523268.95730,-270203094.42493,57166644.38421,  -0.00044,  -0.00082,   0.00074,265333072.61347,   0.00000,274640135.82653,   0.00000,   0.00000,   0.00000,-209307063.21306,   0.00000
-213589459.99490,-273241610.65668,57330724.26073,  -0.00044,  -0.00083,   0.00075,267918537.95445,   0.00000,274640135.82653,   0.00000,   0.00000,   0.00000,-206721597.87207,   0.00000
-215676920.64611,-276289242.43713,57494804.13724,  -0.00044,  -0.00084,   0.00075,270518066.08381,   0.00000,274640135.82653,   0.00000,   0.00000,   0.00000,-204122069.74272,   0.00000
-217752227.23240,-279349028.28251,57652806.98129,  -0.00045,  -0.00085,   0.00075,273120078.79648,   0.00000,274640135.82653,   0.00000,   0.00000,   0.00000,-201520057.03005,   0.00000
-219848803.43231,-282417929.67658,57810809.82535,  -0.00045,  -0.00086,   0.00075,275736121.43530,   0.00000,274640135.82653,   0.00000,   0.00000,   0.00000,-198904014.39123,   0.00000
-221954495.18091,-285508100.68427,57956658.60447,  -0.00045,  -0.00087,   0.00075,278362694.98570,   0.00000,274640135.82653,   0.00000,   0.00000,   0.00000,-196277440.84083,   0.00000
-224069302.47821,-288619541.30559,58108584.41606,  -0.00046,  -0.00088,   0.00076,281011272.69758,   0.00000,274640135.82653,   0.00000,   0.00000,   0.00000,-193628863.12895,   0.00000
-226184109.77551,-291730981.92691,58254433.19518,  -0.00046,  -0.00089,   0.00076,283658318.84607,   0.00000,274640135.82653,   0.00000,   0.00000,   0.00000,-190981816.98046,   0.00000
-228298917.07281,-294842422.54822,58394204.94184,  -0.00046,  -0.00090,   0.00076,286303848.04995,   0.00000,274640135.82653,   0.00000,   0.00000,   0.00000,-188336287.77658,   0.00000
-230453225.08113,-298005517.94548,58533976.68850,  -0.00047,  -0.00091,   0.00076,288995370.64571,   0.00000,274640135.82653,   0.00000,   0.00000,   0.00000,-185644765.18082,   0.00000
-232577147.92712,-301138228.18041,58673748.43516,  -0.00047,  -0.00092,   0.00076,291661307.39923,   0.00000,274640135.82653,   0.00000,   0.00000,   0.00000,-182978828.42730,   0.00000
-234740571.48413,-304322593.19129,58807443.14936,  -0.00047,  -0.00093,   0.00076,294369603.21237,   0.00000,274640135.82653,   0.00000,   0.00000,   0.00000,-180270532.61416,   0.00000
-236894879.49245,-307485688.58855,58935060.83109,  -0.00048,  -0.00094,   0.00077,297060383.85852,   0.00000,274640135.82653,   0.00000,   0.00000,   0.00000,-177579751.96801,   0.00000
-239067418.59815,-310691323.21305,59062678.51283,  -0.00048,  -0.00095,   0.00077,299785517.18354,   0.00000,274640135.82653,   0.00000,   0.00000,   0.00000,-174854618.64299,   0.00000
-241239957.70385,-313896957.83755,59184219.16210,  -0.00049,  -0.00096,   0.00077,302509245.96450,   0.00000,274640135.82653,   0.00000,   0.00000,   0.00000,-172130889.86203,   0.00000
-243433766.42318,-317111708.01074,59305759.81137,  -0.00049,  -0.00097,   0.00077,305246877.09285,   0.00000,274640135.82653,   0.00000,   0.00000,   0.00000,-169393258.73368,   0.00000
-245615421.07758,-320338612.24887,59427300.46064,  -0.00049,  -0.00098,   0.00077,307991023.49557,   0.00000,274640135.82653,   0.00000,   0.00000,   0.00000,-166649112.33096,   0.00000
-247818345.34560,-323574632.03568,59542764.07745,  -0.00050,  -0.00099,   0.00077,310745502.20705,   0.00000,274640135.82653,   0.00000,   0.00000,   0.00000,-163894633.61948,   0.00000
-250030385.16232,-326831921.43612,59652150.66179,  -0.00050,  -0.00100,   0.00078,313514791.37317,   0.00000,274640135.82653,   0.00000,   0.00000,   0.00000,-161125344.45336,   0.00000
-252251540.52773,-330110480.45019,59761537.24613,  -0.00050,  -0.00101,   0.00078,316302411.88745,   0.00000,274640135.82653,   0.00000,   0.00000,   0.00000,-158337723.93908,   0.00000
-254472695.89314,-333389039.46425,59870923.83048,  -0.00051,  -0.00102,   0.00078,319092117.57307,   0.00000,274640135.82653,   0.00000,   0.00000,   0.00000,-155548018.25345,   0.00000
-256715120.87218,-336676714.02701,59974233.38235,  -0.00051,  -0.00103,   0.00078,321892195.81337,   0.00000,274640135.82653,   0.00000,   0.00000,   0.00000,-152747940.01316,   0.00000
-258945391.78628,-339976542.65469,60071465.90177,  -0.00052,  -0.00104,   0.00078,324695471.93283,   0.00000,274640135.82653,   0.00000,   0.00000,   0.00000,-149944663.89369,   0.00000
-261206047.86271,-343306756.44469,60174775.45365,  -0.00052,  -0.00105,   0.00078,327532194.15477,   0.00000,274640135.82653,   0.00000,   0.00000,   0.00000,-147107941.67176,   0.00000
-263466703.93913,-346636970.23470,60265930.94060,  -0.00052,  -0.00106,   0.00078,330364254.27590,   0.00000,274640135.82653,   0.00000,   0.00000,   0.00000,-144275881.55063,   0.00000
-265727360.01556,-349967184.02470,60363163.46002,  -0.00053,  -0.00107,   0.00078,333201648.19634,   0.00000,274640135.82653,   0.00000,   0.00000,   0.00000,-141438487.63019,   0.00000
-267997131.64068,-353318667.42832,60448241.91451,  -0.00053,  -0.00109,   0.00079,336050775.54846,   0.00000,274640135.82653,   0.00000,   0.00000,   0.00000,-138589360.27807,   0.00000
-270266903.26580,-356670150.83195,60539397.40146,  -0.00053,  -0.00110,   0.00079,338905170.00463,   0.00000,274640135.82653,   0.00000,   0.00000,   0.00000,-135734965.82190,   0.00000
-272567060.05323,-360052019.39789,60624475.85595,  -0.00054,  -0.00111,   0.00079,341786365.61963,   0.00000,274640135.82653,   0.00000,   0.00000,   0.00000,-132853770.20690,   0.00000
-274867216.84067,-363433887.96383,60703477.27798,  -0.00054,  -0.00112,   0.00079,344666292.20879,   0.00000,274640135.82653,   0.00000,   0.00000,   0.00000,-129973843.61774,   0.00000
-277176489.17681,-366837026.14339,60782478.70000,  -0.00055,  -0.00113,   0.00079,347564583.99321,   0.00000,274640135.82653,   0.00000,   0.00000,   0.00000,-127075551.83332,   0.00000
-279485761.51294,-370240164.32296,60861480.12203,  -0.00055,  -0.00114,   0.00079,350464798.78272,   0.00000,274640135.82653,   0.00000,   0.00000,   0.00000,-124175337.04381,   0.00000
-281804149.39777,-373664572.11614,60934404.51159,  -0.00055,  -0.00115,   0.00079,353380204.77499,   0.00000,274640135.82653,   0.00000,   0.00000,   0.00000,-121259931.05154,   0.00000
-284143806.89622,-377098095.45803,61007328.90115,  -0.00056,  -0.00116,   0.00079,356309234.67930,   0.00000,274640135.82653,   0.00000,   0.00000,   0.00000,-118330901.14723,   0.00000
-286462194.78104,-380522503.25121,61074176.25825,  -0.00056,  -0.00117,   0.00079,359225302.68801,   0.00000,274640135.82653,   0.00000,   0.00000,   0.00000,-115414833.13852,   0.00000
-288810967.82819,-383977296.20672,61141023.61535,  -0.00057,  -0.00118,   0.00079,362171449.59917,   0.00000,274640135.82653,   0.00000,   0.00000,   0.00000,-112468686.22736,   0.00000
-291159740.87534,-387432089.16222,61207870.97245,  -0.00057,  -0.00120,   0.00080,365119435.44390,   0.00000,274640135.82653,   0.00000,   0.00000,   0.00000,-109520700.38263,   0.00000
-293517629.47118,-390908151.73135,61268641.29708,  -0.00057,  -0.00121,   0.00080,368082717.71767,   0.00000,274640135.82653,   0.00000,   0.00000,   0.00000,-106557418.10886,   0.00000
-295896787.68064,-394393329.84917,61323334.58925,  -0.00058,  -0.00122,   0.00080,371056521.70476,   0.00000,274640135.82653,   0.00000,   0.00000,   0.00000,-103583614.12177,   0.00000
-298263791.82518,-397890662.03192,61384104.91389,  -0.00058,  -0.00123,   0.00080,374039992.33357,   0.00000,274640135.82653,   0.00000,   0.00000,   0.00000,-100600143.49296,   0.00000
-300652065.58333,-401397109.76336,61432721.17360,  -0.00059,  -0.00124,   0.00080,377030995.79312,   0.00000,274640135.82653,   0.00000,   0.00000,   0.00000,-97609140.03341,   0.00000
-303040339.34149,-404903557.49480,61487414.46577,  -0.00059,  -0.00125,   0.00080,380026753.12326,   0.00000,274640135.82653,   0.00000,   0.00000,   0.00000,-94613382.70327,   0.00000
-305437728.64835,-408431274.83987,61536030.72548,  -0.00059,  -0.00126,   0.00080,383037910.24582,   0.00000,274640135.82653,   0.00000,   0.00000,   0.00000,-91602225.58071,   0.00000
-307856387.56882,-411968107.73363,61584646.98518,  -0.00060,  -0.00127,   0.00080,386062520.77738,   0.00000,274640135.82653,   0.00000,   0.00000,   0.00000,-88577615.04915,   0.00000
-310253776.87568,-415495825.07870,61627186.21243,  -0.00060,  -0.00129,   0.00080,389074244.78895,   0.00000,274640135.82653,   0.00000,   0.00000,   0.00000,-85565891.03758,   0.00000
-312681551.34485,-419053927.58608,61669725.43967,  -0.00061,  -0.00130,   0.00080,392116028.37603,   0.00000,274640135.82653,   0.00000,   0.00000,   0.00000,-82524107.45050,   0.00000
-315109325.81402,-422612030.09346,61712264.66692,  -0.00061,  -0.00131,   0.00080,395159504.68387,   0.00000,274640135.82653,   0.00000,   0.00000,   0.00000,-79480631.14266,   0.00000
-317546215.83188,-426191402.21447,61748726.86170,  -0.00061,  -0.00132,   0.00080,398218481.89721,   0.00000,274640135.82653,   0.00000,   0.00000,   0.00000,-76421653.92932,   0.00000
-320004375.46337,-429779889.88417,61785189.05648,  -0.00062,  -0.00133,   0.00080,401290839.13751,   0.00000,274640135.82653,   0.00000,   0.00000,   0.00000,-73349296.68902,   0.00000
-322441265.48124,-433359262.00518,61815574.21880,  -0.00062,  -0.00134,   0.00080,404350351.11874,   0.00000,274640135.82653,   0.00000,   0.00000,   0.00000,-70289784.70779,   0.00000
-324908540.66142,-436969019.28850,61845959.38112,  -0.00063,  -0.00135,   0.00080,407439916.20449,   0.00000,274640135.82653,   0.00000,   0.00000,   0.00000,-67200219.62204,   0.00000
-327375815.84161,-440578776.57182,61876344.54343,  -0.00063,  -0.00137,   0.00080,410531110.61521,   0.00000,274640135.82653,   0.00000,   0.00000,   0.00000,-64109025.21132,   0.00000
-329843091.02179,-444188533.85515,61900652.67329,  -0.00063,  -0.00138,   0.00080,413621169.31331,   0.00000,274640135.82653,   0.00000,   0.00000,   0.00000,-61018966.51322,   0.00000
-332340751.36429,-447828676.30079,61924960.80314,  -0.00064,  -0.00139,   0.00081,416741264.91365,   0.00000,274640135.82653,   0.00000,   0.00000,   0.00000,-57898870.91288,   0.00000
-334817142.09317,-451459703.19773,61949268.93299,  -0.00064,  -0.00140,   0.00081,419851247.96757,   0.00000,274640135.82653,   0.00000,   0.00000,   0.00000,-54788887.85896,   0.00000
-337314802.43567,-455099845.64338,61967500.03039,  -0.00065,  -0.00141,   0.00081,422971800.60282,   0.00000,274640135.82653,   0.00000,   0.00000,   0.00000,-51668335.22371,   0.00000
-339821578.32687,-458761257.70264,61985731.12778,  -0.00065,  -0.00142,   0.00081,426110683.49441,   0.00000,274640135.82653,   0.00000,   0.00000,   0.00000,-48529452.33212,   0.00000
-342319238.66937,-462401400.14828,62003962.22517,  -0.00066,  -0.00144,   0.00081,429234312.18708,   0.00000,274640135.82653,   0.00000,   0.00000,   0.00000,-45405823.63945,   0.00000
-344856399.72289,-466093197.36986,62016116.29009,  -0.00066,  -0.00145,   0.00081,432402103.51374,   0.00000,274640135.82653,   0.00000,   0.00000,   0.00000,-42238032.31278,   0.00000
-347363175.61408,-469754609.42912,62028270.35502,  -0.00066,  -0.00146,   0.00081,435542919.73543,   0.00000,274640135.82653,   0.00000,   0.00000,   0.00000,-39097216.09110,   0.00000
-349900336.66760,-473446406.65070,62040424.41995,  -0.00067,  -0.00147,   0.00081,438713723.60121,   0.00000,274640135.82653,   0.00000,   0.00000,   0.00000,-35926412.22532,   0.00000
-352437497.72111,-477138203.87229,62046501.45241,  -0.00067,  -0.00148,   0.00081,441883430.08303,   0.00000,274640135.82653,   0.00000,   0.00000,   0.00000,-32756705.74350,   0.00000
-354974658.77463,-480830001.09387,62052578.48487,  -0.00068,  -0.00150,   0.00081,445054603.66910,   0.00000,274640135.82653,   0.00000,   0.00000,   0.00000,-29585532.15743,   0.00000
-357542204.99046,-484552183.47776,62058655.51734,  -0.00068,  -0.00151,   0.00081,448255753.92044,   0.00000,274640135.82653,   0.00000,   0.00000,   0.00000,-26384381.90609,   0.00000
-360088481.59267,-488265250.31297,62058655.51734,  -0.00069,  -0.00152,   0.00081,451444134.76431,   0.00000,274640135.82653,   0.00000,   0.00000,   0.00000,-23196001.06222,   0.00000
-362656027.80850,-491987432.69687,62058655.51734,  -0.00069,  -0.00153,   0.00081,454645631.82528,   0.00000,274640135.82653,   0.00000,   0.00000,   0.00000,-19994504.00125,   0.00000
-365223574.02433,-495709615.08076,62058655.51734,  -0.00070,  -0.00154,   0.00081,457848527.77143,   0.00000,274640135.82653,   0.00000,   0.00000,   0.00000,-16791608.05510,   0.00000
-367821505.40248,-499462182.62698,62058655.51734,  -0.00070,  -0.00156,   0.00081,461081370.23680,   0.00000,274640135.82653,   0.00000,   0.00000,   0.00000,-13558765.58973,   0.00000
-370398167.16701,-503205634.62450,62052578.48487,  -0.00070,  -0.00157,   0.00081,464301449.14200,   0.00000,274640135.82653,   0.00000,   0.00000,   0.00000,-10338686.68453,   0.00000
-372996098.54516,-506958202.17072,62046501.45241,  -0.00071,  -0.00158,   0.00081,467534578.15479,   0.00000,274640135.82653,   0.00000,   0.00000,   0.00000,-7105557.67174,   0.00000
-375594029.92331,-510710769.71693,62034347.38748,  -0.00071,  -0.00159,   0.00081,470766640.98367,   0.00000,274640135.82653,   0.00000,   0.00000,   0.00000,-3873494.84286,   0.00000
-378201076.85015,-514484606.87677,62022193.32256,  -0.00072,  -0.00160,   0.00081,474016972.57984,   0.00000,274640135.82653,   0.00000,   0.00000,   0.00000,-623163.24669,   0.00000
-378703057.69714,-515207111.10162,62019872.02384,  -0.00072,  -0.00161,   0.00081,474640135.78174,   0.00000,274640135.82653,   0.00000,   0.00000,   0.00000,  -0.04479,   0.00000
-378850632.23005,-515399772.04434,61608923.88862,  -0.00072,  -0.00162,   0.00081,474640135.78174,   0.00001,274649529.21328,  -0.00000,  -0.00001,   0.00001,  -0.00000,   2.00000
-379018391.27276,-515637966.12474,61106398.53123,  -0.00073,  -0.00163,   0.00081,477902629.82480,   0.00002,274661096.42235,  -0.00001,  -0.00002,   0.00001,  -0.00000,   2.00000
-379196101.38423,-515868952.63724,60605860.30242,  -0.00073,  -0.00164,   0.00081,477927334.41912,   0.00003,274672702.86359,  -0.00001,  -0.00003,   0.00002,   0.00000,   2.00000
-379373009.62051,-516098867.08542,60103363.34084,  -0.00074,  -0.00165,   0.00081,477938055.61911,   0.00004,274684298.68923,  -0.00002,  -0.00004,   0.00002,   0.00000,   2.00000
-379543802.41014,-516327992.13387,59602134.45440,  -0.00074,  -0.00166,   0.00081,477968053.81750,   0.00005,274695952.45612,  -0.00002,  -0.00005,   0.00003,  -0.00000,   2.00000
-379726181.10515,-516552391.07810,59097270.99467,  -0.00075,  -0.00168,   0.00081,477990575.92960,   0.00006,274707637.24364,  -0.00002,  -0.00007,   0.00004,   0.00000,   2.00000
-379891928.96437,-516774430.61281,58603601.37151,  -0.00075,  -0.00169,   0.00080,477994248.73179,   0.00007,274719286.34050,  -0.00003,  -0.00008,   0.00004,   0.00000,   2.00000
-380069293.11023,-516991790.90267,58106269.63467,  -0.00075,  -0.00170,   0.00080,478016768.90846,   0.00008,274730966.57629,  -0.00003,  -0.00009,   0.00005,   0.00000,   2.00000
-380244140.77617,-517205705.47200,57612698.78746,  -0.00076,  -0.00171,   0.00080,478029852.94154,   0.00009,274742644.46159,  -0.00004,  -0.00010,   0.00006,   0.00000,   2.00000
-380426828.31610,-517417629.83829,57113121.03627,  -0.00076,  -0.00172,   0.00080,478069443.58165,   0.00010,274754413.69135,  -0.00004,  -0.00011,   0.00006,   0.00000,   2.00000
-380596649.48889,-517624769.55929,56627079.69522,  -0.00077,  -0.00174,   0.00080,478056064.86994,   0.00011,274766086.76397,  -0.00005,  -0.00012,   0.00007,   0.00000,   2.00000
-380774315.91655,-517829930.97736,56135041.67068,  -0.00077,  -0.00175,   0.00080,478095666.98153,   0.00013,274777851.27238,  -0.00005,  -0.00014,   0.00007,   0.00000,   2.00000
-380951074.04806,-518034085.76435,55641040.79970,  -0.00078,  -0.00176,   0.00080,478106661.64654,   0.00014,274789605.75234,  -0.00005,  -0.00015,   0.00008,  -0.00000,   2.00000
-381123736.22960,-518232614.40368,55156570.77256,  -0.00078,  -0.00177,   0.00080,478121918.44544,   0.00015,274801365.42547,  -0.00006,  -0.00016,   0.00009,   0.00000,   2.00000
-381307825.06647,-518426477.85379,54668503.90854,  -0.00079,  -0.00179,   0.00080,478144657.91255,   0.00016,274813156.54508,  -0.00006,  -0.00017,   0.00009,   0.00000,   2.00000
-381475527.75926,-518618610.15794,54191522.29567,  -0.00079,  -0.00180,   0.00080,478148113.90760,   0.00017,274824911.23756,  -0.00007,  -0.00018,   0.00010,  -0.00000,   2.00000
-381650949.41965,-518808702.37091,53708668.74275,  -0.00080,  -0.00181,   0.00080,478187892.34013,   0.00018,274836757.54519,  -0.00007,  -0.00019,   0.00010,   0.00000,   2.00000
-381829192.06706,-518995298.00251,53226041.18043,  -0.00080,  -0.00182,   0.00080,478181960.98461,   0.00019,274848534.08178,  -0.00008,  -0.00021,   0.00011,   0.00000,   2.00000
-381999675.82659,-519179132.26553,52750711.29973,  -0.00081,  -0.00184,   0.00080,478214129.11309,   0.00020,274860375.39273,  -0.00008,  -0.00022,   0.00011,   0.00000,   2.00000
-382181520.07138,-519358318.27406,52271811.40048,  -0.00081,  -0.00185,   0.00080,478237014.56965,   0.00021,274872248.40592,  -0.00009,  -0.00023,   0.00012,   0.00000,   2.00000
-382360860.59699,-519534464.65339,51796665.55093,  -0.00082,  -0.00186,   0.00080,478250176.88979,   0.00022,274884118.86593,  -0.00009,  -0.00024,   0.00013,  -0.00000,   2.00000
-382537734.22398,-519707622.13061,51325250.03879,  -0.00082,  -0.00187,   0.00080,478263315.45155,   0.00023,274895986.77155,  -0.00009,  -0.00025,   0.00013,   0.00000,   2.00000
-382713646.97423,-519879967.09679,50851757.96822,  -0.00083,  -0.00188,   0.00080,478274475.89055,   0.00024,274907845.20557,  -0.00010,  -0.00027,   0.00014,   0.00000,   2.00000
-382885670.38274,-520047258.85063,50387777.48905,  -0.00083,  -0.00190,   0.00080,478289530.93822,   0.00026,274919708.00086,  -0.00010,  -0.00028,   0.00014,   0.00000,   2.00000
-383068972.48265,-520209957.66072,49920214.70557,  -0.00084,  -0.00191,   0.00080,478312490.92286,   0.00027,274931602.73948,  -0.00011,  -0.00029,   0.00015,   0.00000,   2.00000
-383237615.99977,-520373675.36013,49457788.55082,  -0.00084,  -0.00192,   0.00080,478313795.33727,   0.00028,274943453.57732,  -0.00011,  -0.00030,   0.00015,   0.00000,   2.00000
-383416109.04458,-520530729.71100,48997591.12537,  -0.00085,  -0.00193,   0.00080,478338665.63551,   0.00029,274955343.19838,  -0.00012,  -0.00031,   0.00016,  -0.00000,   2.00000
-383601908.71251,-520685640.55672,48531791.90351,  -0.00085,  -0.00195,   0.00079,478378795.83543,   0.00030,274967324.73843,  -0.00012,  -0.00033,   0.00016,   0.00000,   2.00000
-383775528.65186,-520837230.18093,48078947.64777,  -0.00086,  -0.00196,   0.00079,478364908.76093,   0.00031,274979209.01977,  -0.00013,  -0.00034,   0.00017,   0.00000,   2.00000
-383960342.94452,-520984276.00288,47622507.90917,  -0.00086,  -0.00197,   0.00079,478387945.50505,   0.00032,274991125.48786,  -0.00013,  -0.00035,   0.00017,   0.00000,   2.00000
-384126679.18407,-521134992.15211,47169104.18956,  -0.00087,  -0.00198,   0.00079,478406291.49233,   0.00033,275003057.81594,  -0.00013,  -0.00036,   0.00018,  -0.00000,   2.00000
-384306764.29846,-521276758.49828,46719935.69260,  -0.00087,  -0.00200,   0.00079,478414109.60561,   0.00034,275014969.07668,  -0.00014,  -0.00037,   0.00018,   0.00000,   2.00000
-384492672.54800,-521414429.91197,46271067.83886,  -0.00088,  -0.00201,   0.00079,478456116.48192,   0.00035,275026978.66377,  -0.00014,  -0.00039,   0.00019,   0.00000,   2.00000
-384669289.56356,-521553074.05070,45823265.37508,  -0.00088,  -0.00202,   0.00079,478438509.68050,   0.00036,275038878.27125,  -0.00015,  -0.00040,   0.00019,  -0.00000,   2.00000
-384851723.12036,-521687616.88744,45375819.16299,  -0.00089,  -0.00203,   0.00079,478480517.90711,   0.00038,275050876.22997,  -0.00015,  -0.00041,   0.00020,   0.00000,   2.00000
-385034387.09451,-521815440.48815,44939722.61529,  -0.00089,  -0.00204,   0.00079,478478233.14256,   0.00039,275062817.82360,  -0.00016,  -0.00042,   0.00020,   0.00000,   2.00000
-385212034.71523,-521945117.46906,44499433.49672,  -0.00090,  -0.00206,   0.00079,478506653.20262,   0.00040,275074810.29190,  -0.00016,  -0.00043,   0.00021,   0.00000,   2.00000
-385391310.17894,-522070068.79895,44064573.83852,  -0.00090,  -0.00207,   0.00079,478502592.35029,   0.00041,275086740.37512,  -0.00017,  -0.00045,   0.00021,   0.00000,   2.00000
-385581592.15304,-522190542.46350,43626106.81245,  -0.00091,  -0.00208,   0.00079,478525787.18004,   0.00042,275098703.07347,  -0.00017,  -0.00046,   0.00022,  -0.00000,   2.00000
-385752138.79758,-522313195.86256,43196490.40164,  -0.00091,  -0.00209,   0.00079,478545729.23387,   0.00043,275110687.18978,  -0.00018,  -0.00047,   0.00022,   0.00000,   2.00000
-385937733.29206,-522429066.15951,42765070.37211,  -0.00092,  -0.00211,   0.00078,478551852.19707,   0.00044,275122644.46058,  -0.00018,  -0.00048,   0.00023,   0.00000,   2.00000
-386120954.72398,-522542705.19490,42337158.21385,  -0.00092,  -0.00212,   0.00078,478564847.05540,   0.00045,275134598.94258,  -0.00018,  -0.00049,   0.00023,   0.00000,   2.00000
-386308614.71134,-522650643.80160,41915592.29350,  -0.00093,  -0.00213,   0.00078,478608491.90526,   0.00046,275146657.05799,  -0.00019,  -0.00051,   0.00024,   0.00000,   2.00000
-386487138.93593,-522759978.96389,41494598.82253,  -0.00093,  -0.00214,   0.00078,478590874.57258,   0.00047,275158605.88184,  -0.00019,  -0.00052,   0.00024,   0.00000,   2.00000
-386676591.17822,-522864881.68069,41069967.87937,  -0.00094,  -0.00216,   0.00078,478614153.90016,   0.00048,275170587.63134,  -0.00020,  -0.00053,   0.00025,   0.00000,   2.00000
-386862464.41903,-522965968.31679,40654682.60429,  -0.00094,  -0.00217,   0.00078,478628703.42246,   0.00050,275182572.00421,  -0.00020,  -0.00054,   0.00025,   0.00000,   2.00000
-387046015.35678,-523065038.96291,40242803.81377,  -0.00095,  -0.00218,   0.00078,478641647.08398,   0.00051,275194553.48539,  -0.00021,  -0.00056,   0.00026,   0.00000,   2.00000
-387228443.76050,-523163809.14071,39828431.41934,  -0.00095,  -0.00219,   0.00078,478653041.44627,   0.00052,275206526.73801,  -0.00021,  -0.00057,   0.00026,   0.00000,   2.00000
-387420540.70186,-523256500.85649,39416302.32607,  -0.00096,  -0.00221,   0.00078,478677917.02863,   0.00053,275218538.38618,  -0.00022,  -0.00058,   0.00026,   0.00000,   2.00000
-387597170.99221,-523349713.29665,39014602.53385,  -0.00096,  -0.00222,   0.00078,478680422.03543,   0.00054,275230511.10814,  -0.00022,  -0.00059,   0.00027,   0.00000,   2.00000
-387788774.44828,-523436352.47163,38610820.92854,  -0.00097,  -0.00223,   0.00078,478686595.83816,   0.00055,275242457.62409,  -0.00023,  -0.00060,   0.00027,   0.00000,   2.00000
-387973941.82786,-523523377.30717,38208744.58978,  -0.00098,  -0.00224,   0.00077,478716621.98387,   0.00056,275254460.55880,  -0.00023,  -0.00062,   0.00028,   0.00000,   2.00000
-388173974.15525,-523603831.03437,37804587.03546,  -0.00098,  -0.00225,   0.00077,478722870.04810,   0.00057,275266437.39337,  -0.00024,  -0.00063,   0.00028,  -0.00000,   2.00000
-388354460.02833,-523687259.22546,37409182.59223,  -0.00099,  -0.00227,   0.00077,478742395.71493,   0.00058,275278434.33655,  -0.00024,  -0.00064,   0.00029,   0.00000,   2.00000
-388548762.03769,-523762585.16163,37017527.80491,  -0.00099,  -0.00228,   0.00077,478750067.81425,   0.00059,275290410.30129,  -0.00025,  -0.00065,   0.00029,   0.00000,   2.00000
-388741820.68575,-523837780.15005,36623217.54970,  -0.00100,  -0.00229,   0.00077,478761492.65507,   0.00061,275302378.33843,  -0.00025,  -0.00067,   0.00029,   0.00000,   2.00000
-388931490.60383,-523909757.69275,36238074.17934,  -0.00100,  -0.00230,   0.00077,478775721.17583,   0.00062,275314348.24582,  -0.00025,  -0.00068,   0.00030,   0.00000,   2.00000
-389119958.28915,-523981638.35206,35850222.23256,  -0.00101,  -0.00232,   0.00077,478787140.43440,   0.00063,275326310.35068,  -0.00026,  -0.00069,   0.00030,   0.00000,   2.00000
-389310335.65703,-524049715.27674,35467089.00044,  -0.00101,  -0.00233,   0.00077,478782760.12762,   0.00064,275338210.31152,  -0.00026,  -0.00070,   0.00031,   0.00000,   2.00000
-389506127.10831,-524114211.35154,35084597.73678,  -0.00102,  -0.00234,   0.00077,478824677.08405,   0.00065,275350207.70444,  -0.00027,  -0.00072,   0.00031,   0.00000,   2.00000
-389703792.43035,-524174995.92170,34706764.58217,  -0.00102,  -0.00235,   0.00077,478820308.77511,   0.00066,275362142.89691,  -0.00027,  -0.00073,   0.00031,   0.00000,   2.00000
-389899150.27356,-524234296.67820,34332068.73848,  -0.00103,  -0.00236,   0.00076,478833044.02095,   0.00067,275374075.02959,  -0.00028,  -0.00074,   0.00032,   0.00000,   2.00000
-390092231.22016,-524292144.06056,33960486.89874,  -0.00104,  -0.00238,   0.00076,478845762.47996,   0.00068,275386004.11177,  -0.00028,  -0.00075,   0.00032,   0.00000,   2.00000
-390283065.44025,-524348567.97285,33591995.85518,  -0.00104,  -0.00239,   0.00076,478858464.39062,   0.00069,275397930.15281,  -0.00029,  -0.00076,   0.00033,  -0.00000,   2.00000
-390484457.40515,-524400764.20811,33219664.77306,  -0.00105,  -0.00240,   0.00076,478881919.71701,   0.00070,275409889.97421,  -0.00029,  -0.00078,   0.00033,   0.00000,   2.00000
-390674995.75046,-524452276.71850,32858734.38986,  -0.00105,  -0.00241,   0.00076,478866681.02994,   0.00072,275421750.82618,  -0.00030,  -0.00079,   0.00033,  -0.00000,   2.00000
-390875120.37361,-524498220.91739,32499831.86410,  -0.00106,  -0.00243,   0.00076,478891329.81734,   0.00073,275433649.89171,  -0.00030,  -0.00080,   0.00034,  -0.00000,   2.00000
-391073928.05772,-524544256.78755,32137990.98375,  -0.00106,  -0.00244,   0.00076,478902719.84834,   0.00074,275445541.55727,  -0.00031,  -0.00081,   0.00034,   0.00000,   2.00000
-391269523.80110,-524587669.03401,31785093.98241,  -0.00107,  -0.00245,   0.00076,478916569.98396,   0.00075,275457434.37412,  -0.00031,  -0.00083,   0.00034,   0.00000,   2.00000
-391463841.33843,-524631197.52660,31429209.08876,  -0.00107,  -0.00246,   0.00076,478927956.06844,   0.00076,275469319.91005,  -0.00032,  -0.00084,   0.00035,  -0.00000,   2.00000
-391671949.81324,-524667069.98515,31076683.47972,  -0.00108,  -0.00247,   0.00076,478935448.23628,   0.00077,275481184.76100,  -0.00032,  -0.00085,   0.00035,   0.00000,   2.00000
-391877734.11344,-524701783.42210,30727095.39827,  -0.00109,  -0.00249,   0.00075,478948019.63678,   0.00078,275493046.45002,  -0.00033,  -0.00086,   0.00035,  -0.00000,   2.00000
-392069520.43258,-524739670.80677,30381329.49531,  -0.00109,  -0.00250,   0.00075,478948477.45250,   0.00079,275504863.73031,  -0.00033,  -0.00087,   0.00036,   0.00000,   2.00000
-392269954.66998,-524770844.89582,30043483.02103,  -0.00110,  -0.00251,   0.00075,478974226.56527,   0.00080,275516723.22449,  -0.00034,  -0.00089,   0.00036,   0.00000,   2.00000
-392473372.80853,-524800098.78471,29703776.90324,  -0.00110,  -0.00252,   0.00075,478968400.54322,   0.00081,275528516.82608,  -0.00034,  -0.00090,   0.00036,   0.00000,   2.00000
-392686223.43656,-524823981.25969,29366017.24655,  -0.00111,  -0.00253,   0.00075,478992969.55874,   0.00082,275540348.57108,  -0.00035,  -0.00091,   0.00037,  -0.00000,   2.00000
-392885091.79954,-524851210.15746,29031945.61087,  -0.00111,  -0.00255,   0.00075,478993330.76098,   0.00084,275552135.81282,  -0.00035,  -0.00092,   0.00037,   0.00000,   2.00000
-393094282.91467,-524874310.98918,28693849.02451,  -0.00112,  -0.00256,   0.00075,479016782.92637,   0.00085,275563957.43734,  -0.00036,  -0.00094,   0.00037,   0.00000,   2.00000
-393293042.12481,-524897455.72172,28366578.22134,  -0.00113,  -0.00257,   0.00075,479001020.24062,   0.00086,275575679.70042,  -0.00036,  -0.00095,   0.00038,  -0.00000,   2.00000
-393501272.55148,-524915306.83312,28041181.70975,  -0.00113,  -0.00258,   0.00075,479025498.89575,   0.00087,275587440.16406,  -0.00037,  -0.00096,   0.00038,   0.00000,   2.00000
-393707262.29197,-524932273.29515,27718494.93384,  -0.00114,  -0.00259,   0.00074,479037868.56105,   0.00088,275599197.43909,  -0.00037,  -0.00097,   0.00038,   0.00000,   2.00000
-393915408.29283,-524946249.60643,27399658.59198,  -0.00114,  -0.00260,   0.00074,479033035.46737,   0.00089,275610892.95108,  -0.00037,  -0.00098,   0.00039,   0.00000,   2.00000
-394133739.32627,-524956155.15041,27076697.49897,  -0.00115,  -0.00262,   0.00074,479056445.55998,   0.00090,275622623.02816,  -0.00038,  -0.00100,   0.00039,   0.00000,   2.00000
-394337364.42069,-524968509.34534,26763186.43613,  -0.00116,  -0.00263,   0.00074,479057638.23107,   0.00091,275634312.10129,  -0.00038,  -0.00101,   0.00039,  -0.00000,   2.00000
-394550395.19685,-524975672.06390,26451484.00663,  -0.00116,  -0.00264,   0.00074,479082075.00121,   0.00092,275646039.34633,  -0.00039,  -0.00102,   0.00040,  -0.00000,   2.00000
-394754811.00802,-524985486.28302,26138314.27328,  -0.00117,  -0.00265,   0.00074,479063991.48279,   0.00093,275657660.11002,  -0.00039,  -0.00103,   0.00040,   0.00000,   2.00000
-394967833.58795,-524989020.69725,25832919.11721,  -0.00117,  -0.00266,   0.00074,479089367.31085,   0.00094,275669322.52345,  -0.00040,  -0.00104,   0.00040,   0.00000,   2.00000
-395178632.22815,-524991867.87065,25530060.32507,  -0.00118,  -0.00267,   0.00074,479101576.18891,   0.00095,275680981.71422,  -0.00040,  -0.00106,   0.00040,   0.00000,   2.00000
-395392418.85018,-524992983.35926,25224822.18445,  -0.00118,  -0.00269,   0.00073,479095621.24901,   0.00097,275692575.99165,  -0.00041,  -0.00107,   0.00041,  -0.00000,   2.00000
-395603231.40842,-524992375.73352,24928074.88028,  -0.00119,  -0.00270,   0.00073,479108721.25473,   0.00098,275704170.38939,  -0.00041,  -0.00108,   0.00041,   0.00000,   2.00000
-395828548.50722,-524985603.63262,24628115.68880,  -0.00120,  -0.00271,   0.00073,479114932.03513,   0.00099,275715741.39279,  -0.00042,  -0.00109,   0.00041,   0.00000,   2.00000
-396039335.30433,-524981671.13775,24337339.67313,  -0.00120,  -0.00272,   0.00073,479115746.31481,   0.00100,275727270.98793,  -0.00042,  -0.00110,   0.00042,   0.00000,   2.00000
-396260164.02570,-524973714.95718,24042262.35434,  -0.00121,  -0.00273,   0.00073,479139092.30905,   0.00101,275738835.63238,  -0.00043,  -0.00112,   0.00042,   0.00000,   2.00000
-396466555.88860,-524968673.47255,23756316.73277,  -0.00121,  -0.00274,   0.00073,479139845.21049,   0.00102,275750358.80044,  -0.00043,  -0.00113,   0.00042,   0.00000,   2.00000
-396687476.45683,-524957462.43309,23467041.33552,  -0.00122,  -0.00276,   0.00073,479146028.81385,   0.00103,275761858.92654,  -0.00044,  -0.00114,   0.00042,   0.00000,   2.00000
-396905454.96339,-524944756.28654,23186123.95796,  -0.00123,  -0.00277,   0.00073,479158924.35091,   0.00104,275773358.90154,  -0.00044,  -0.00115,   0.00043,   0.00000,   2.00000
-397125731.69508,-524929440.72438,22908493.76997,  -0.00123,  -0.00278,   0.00073,479153729.20298,   0.00105,275784797.50622,  -0.00045,  -0.00116,   0.00043,   0.00000,   2.00000
-397344492.94118,-524914644.43493,22627163.90694,  -0.00124,  -0.00279,   0.00072,479164769.07968,   0.00106,275796229.93667,  -0.00045,  -0.00118,   0.00043,   0.00000,   2.00000
-397564890.35941,-524896301.27082,22355069.53957,  -0.00124,  -0.00280,   0.00072,479160371.94480,   0.00107,275807604.05004,  -0.00046,  -0.00119,   0.00043,   0.00000,   2.00000
-397790642.64682,-524876117.54947,22077611.83953,  -0.00125,  -0.00281,   0.00072,479200810.97905,   0.00108,275819071.57533,  -0.00046,  -0.00120,   0.00044,   0.00000,   2.00000
-398011154.29743,-524854839.87420,21810933.63437,  -0.00126,  -0.00282,   0.00072,479166962.80738,   0.00109,275830381.23435,  -0.00047,  -0.00121,   0.00044,   0.00000,   2.00000
-398236982.93115,-524831729.55685,21538874.49751,  -0.00126,  -0.00284,   0.00072,479207355.26589,   0.00110,275841784.35940,  -0.00047,  -0.00122,   0.00044,   0.00000,   2.00000
-398453122.15647,-524809752.30293,21276580.96583,  -0.00127,  -0.00285,   0.00072,479190561.11223,   0.00111,275853087.64158,  -0.00048,  -0.00124,   0.00044,   0.00000,   2.00000
-398683667.75441,-524781613.09667,21010689.17229,  -0.00127,  -0.00286,   0.00072,479196645.66547,   0.00112,275864368.57310,  -0.00048,  -0.00125,   0.00044,   0.00000,   2.00000
-398900010.84118,-524756855.86650,20753577.51768,  -0.00128,  -0.00287,   0.00072,479196842.83432,   0.00113,275875607.56274,  -0.00049,  -0.00126,   0.00045,   0.00000,   2.00000
-399125565.66310,-524727232.71605,20497925.91213,  -0.00129,  -0.00288,   0.00072,479220830.39220,   0.00115,275886884.92456,  -0.00049,  -0.00127,   0.00045,  -0.00000,   2.00000
-399354124.35538,-524696037.22638,20239224.63640,  -0.00129,  -0.00289,   0.00071,479214594.64703,   0.00116,275898098.61260,  -0.00050,  -0.00128,   0.00045,  -0.00000,   2.00000
-399579863.90690,-524663736.67534,19988607.62498,  -0.00130,  -0.00290,   0.00071,479227004.22285,   0.00117,275909311.76930,  -0.00050,  -0.00129,   0.00045,   0.00000,   2.00000
-399808024.11628,-524629036.51124,19740857.96568,  -0.00130,  -0.00291,   0.00071,479221473.19510,   0.00118,275920463.98170,  -0.00051,  -0.00131,   0.00046,   0.00000,   2.00000
-400034009.49519,-524594139.19080,19495106.44685,  -0.00131,  -0.00292,   0.00071,479233024.58848,   0.00119,275931613.04339,  -0.00051,  -0.00132,   0.00046,  -0.00000,   2.00000
-400263033.83896,-524557681.39911,19246160.61639,  -0.00132,  -0.00293,   0.00071,479226684.61669,   0.00120,275942698.74414,  -0.00052,  -0.00133,   0.00046,   0.00000,   2.00000
-400500528.70664,-524515605.59213,19004624.36749,  -0.00132,  -0.00295,   0.00071,479251288.90218,   0.00121,275953825.37752,  -0.00052,  -0.00134,   0.00046,   0.00000,   2.00000
-400724561.22860,-524478028.65406,18765609.82745,  -0.00133,  -0.00296,   0.00071,479250416.98410,   0.00122,275964907.25982,  -0.00053,  -0.00135,   0.00046,   0.00000,   2.00000
-400951107.45942,-524438107.99020,18529300.62951,  -0.00133,  -0.00297,   0.00071,479244738.29232,   0.00123,275975928.42300,  -0.00053,  -0.00136,   0.00047,   0.00000,   2.00000
-401191356.00700,-524391212.99213,18295094.20786,  -0.00134,  -0.00298,   0.00071,479251405.52240,   0.00124,275986930.48848,  -0.00054,  -0.00137,   0.00047,  -0.00000,   2.00000
-401418187.81300,-524348891.10123,18063312.22887,  -0.00135,  -0.00299,   0.00070,479250371.73800,   0.00125,275997887.81525,  -0.00054,  -0.00139,   0.00047,  -0.00000,   2.00000
-401654074.69155,-524301814.37527,17832827.26132,  -0.00135,  -0.00300,   0.00070,479274114.40227,   0.00126,276008883.68383,  -0.00055,  -0.00140,   0.00047,   0.00000,   2.00000
-401881274.86572,-524257125.29816,17605470.39254,  -0.00136,  -0.00301,   0.00070,479255921.30974,   0.00127,276019777.32501,  -0.00055,  -0.00141,   0.00047,   0.00000,   2.00000
-402122181.77307,-524205469.87600,17380115.62795,  -0.00136,  -0.00302,   0.00070,479262485.53676,   0.00128,276030652.09675,  -0.00056,  -0.00142,   0.00048,   0.00000,   2.00000
-402349752.70211,-524158474.63231,17157071.80590,  -0.00137,  -0.00303,   0.00070,479261274.28752,   0.00129,276041482.14431,  -0.00056,  -0.00143,   0.00048,   0.00000,   2.00000
-402586350.58195,-524106749.75837,16935265.16253,  -0.00138,  -0.00304,   0.00070,479284904.24928,   0.00130,276052350.83440,  -0.00057,  -0.00144,   0.00048,   0.00000,   2.00000
-402825467.84407,-524052776.66300,16715921.63337,  -0.00138,  -0.00305,   0.00070,479279010.28044,   0.00131,276063159.09330,  -0.00057,  -0.00145,   0.00048,   0.00000,   2.00000
-403055512.96671,-524000578.86342,16505516.12794,  -0.00139,  -0.00306,   0.00070,479261216.91558,   0.00132,276073867.44218,  -0.00058,  -0.00146,   0.00048,  -0.00000,   2.00000
-403295064.06766,-523944383.00518,16290247.20956,  -0.00139,  -0.00307,   0.00070,479284099.43638,   0.00133,276084612.36895,  -0.00058,  -0.00148,   0.00048,   0.00000,   2.00000
-403537159.51575,-523885964.20633,16077345.74011,  -0.00140,  -0.00308,   0.00069,479278081.41866,   0.00134,276095297.00952,  -0.00059,  -0.00149,   0.00049,  -0.00000,   2.00000
-403776588.90738,-523826926.68213,15872109.97859,  -0.00141,  -0.00309,   0.00069,479289713.54597,   0.00135,276105980.70062,  -0.00059,  -0.00150,   0.00049,  -0.00000,   2.00000
-404008062.28006,-523771100.03876,15663617.02918,  -0.00141,  -0.00310,   0.00069,479270512.12697,   0.00136,276116560.42765,  -0.00060,  -0.00151,   0.00049,  -0.00000,   2.00000
-404248012.55804,-523709929.22215,15462264.72692,  -0.00142,  -0.00311,   0.00069,479294517.92517,   0.00137,276127180.98160,  -0.00060,  -0.00152,   0.00049,  -0.00000,   2.00000
-404490575.44526,-523646580.42903,15263121.36621,  -0.00142,  -0.00312,   0.00069,479288360.00228,   0.00138,276137741.40777,  -0.00060,  -0.00153,   0.00049,   0.00000,   2.00000
-404731464.30031,-523583984.46309,15059508.50523,  -0.00143,  -0.00314,   0.00069,479298654.37843,   0.00139,276148296.91414,  -0.00061,  -0.00154,   0.00049,  -0.00000,   2.00000
-404974515.76765,-523518570.52289,14864105.74124,  -0.00144,  -0.00315,   0.00069,479293016.52916,   0.00140,276158794.34192,  -0.00061,  -0.00155,   0.00049,   0.00000,   2.00000
-405209244.39647,-523455770.34148,14671280.85310,  -0.00144,  -0.00316,   0.00069,479274191.64283,   0.00141,276169190.01413,  -0.00062,  -0.00156,   0.00050,  -0.00000,   2.00000
-405452880.30057,-523388319.20683,14479475.32920,  -0.00145,  -0.00317,   0.00069,479297435.49989,   0.00142,276179624.62239,  -0.00062,  -0.00157,   0.00050,   0.00000,   2.00000
-405694395.25445,-523321025.96989,14289137.23432,  -0.00145,  -0.00318,   0.00069,479308170.65350,   0.00143,276190056.31886,  -0.00063,  -0.00159,   0.00050,   0.00000,   2.00000
-405943382.92148,-523249256.33763,14101446.81969,  -0.00146,  -0.00319,   0.00068,479284758.39529,   0.00144,276200371.24513,  -0.00063,  -0.00160,   0.00050,   0.00000,   2.00000
-406179325.85010,-523182475.77102,13915610.55816,  -0.00147,  -0.00320,   0.00068,479282792.42524,   0.00145,276210641.46898,  -0.00064,  -0.00161,   0.00050,   0.00000,   2.00000
-406424135.56026,-523111051.99898,13730748.30585,  -0.00147,  -0.00320,   0.00068,479305935.07697,   0.00146,276220950.74219,  -0.00064,  -0.00162,   0.00050,  -0.00000,   2.00000
-406671228.62332,-523036911.43995,13553871.55849,  -0.00148,  -0.00321,   0.00068,479299996.08312,   0.00147,276231202.07593,  -0.00065,  -0.00163,   0.00050,   0.00000,   2.00000
-406921452.41206,-522961212.20129,13372878.10322,  -0.00148,  -0.00322,   0.00068,479292958.43042,   0.00147,276241392.02966,  -0.00065,  -0.00164,   0.00051,  -0.00000,   2.00000
-407158705.11063,-522890565.90464,13193653.03777,  -0.00149,  -0.00323,   0.00068,479290824.90140,   0.00148,276251537.29157,  -0.00066,  -0.00165,   0.00051,  -0.00000,   2.00000
-407409206.92622,-522812370.85238,13021923.86620,  -0.00150,  -0.00324,   0.00068,479297320.07800,   0.00149,276261666.65803,  -0.00066,  -0.00166,   0.00051,   0.00000,   2.00000
-407646787.10837,-522739278.34485,12851877.20189,  -0.00150,  -0.00325,   0.00068,479295092.51946,   0.00150,276271751.30852,  -0.00067,  -0.00167,   0.00051,   0.00000,   2.00000
-407903269.70386,-522657346.99768,12677750.32244,  -0.00151,  -0.00326,   0.00068,479283511.08731,   0.00151,276281760.19072,  -0.00067,  -0.00168,   0.00051,   0.00000,   2.00000
-408141576.99552,-522582393.55473,12510788.67087,  -0.00151,  -0.00327,   0.00068,479298676.01853,   0.00152,276291782.63934,  -0.00068,  -0.00169,   0.00051,  -0.00000,   2.00000
-408387625.61900,-522502909.17324,12346102.31384,  -0.00152,  -0.00328,   0.00067,479274889.28069,   0.00153,276301689.18867,  -0.00068,  -0.00170,   0.00051,  -0.00000,   2.00000
-408642405.83975,-522418815.42280,12182237.11726,  -0.00153,  -0.00329,   0.00067,479297725.57312,   0.00154,276311635.03685,  -0.00069,  -0.00171,   0.00051,   0.00000,   2.00000
-408884337.07036,-522339899.39258,12019951.80773,  -0.00153,  -0.00330,   0.00067,479295267.01518,   0.00155,276321536.18618,  -0.00069,  -0.00172,   0.00052,   0.00000,   2.00000
-409134045.60577,-522256429.68929,11859852.74307,  -0.00154,  -0.00331,   0.00067,479271382.00352,   0.00156,276331321.69153,  -0.00070,  -0.00173,   0.00052,   0.00000,   2.00000
-409381721.12090,-522173251.84820,11700910.86256,  -0.00155,  -0.00332,   0.00067,479281429.06414,   0.00157,276341104.58133,  -0.00070,  -0.00174,   0.00052,   0.00000,   2.00000
-409627019.55452,-522089884.21650,11549138.24702,  -0.00155,  -0.00333,   0.00067,479291911.88929,   0.00158,276350886.34524,  -0.00071,  -0.00175,   0.00052,   0.00000,   2.00000
-409875595.27999,-522004872.12430,11392922.91377,  -0.00156,  -0.00334,   0.00067,479284491.63350,   0.00159,276360607.63269,  -0.00071,  -0.00176,   0.00052,   0.00000,   2.00000
-410126718.57636,-521917248.27281,11244325.43535,  -0.00156,  -0.00335,   0.00067,479277895.89893,   0.00159,276370271.42322,  -0.00071,  -0.00177,   0.00052,   0.00000,   2.00000
-410381097.18616,-521827967.35115,11091235.97852,  -0.00157,  -0.00336,   0.00067,479270382.50023,   0.00160,276379874.88994,  -0.00072,  -0.00178,   0.00052,  -0.00000,   2.00000
-410633093.60216,-521738551.24399,10945256.92282,  -0.00158,  -0.00336,   0.00067,479280665.77002,   0.00161,276389477.22840,  -0.00072,  -0.00179,   0.00052,   0.00000,   2.00000
-410877390.99168,-521651949.48505,10801111.84873,  -0.00158,  -0.00337,   0.00066,479260776.57524,   0.00162,276398978.66289,  -0.00073,  -0.00180,   0.00052,   0.00000,   2.00000
-411135313.28642,-521558249.65344,10658093.43965,  -0.00159,  -0.00338,   0.00066,479266281.23051,   0.00163,276408463.51802,  -0.00073,  -0.00181,   0.00053,   0.00000,   2.00000
-411380605.17930,-521469865.63673,10516413.08917,  -0.00159,  -0.00339,   0.00066,479263253.17622,   0.00164,276417903.74550,  -0.00074,  -0.00182,   0.00053,  -0.00000,   2.00000
-411639508.85188,-521374362.61987,10375832.88028,  -0.00160,  -0.00340,   0.00066,479268722.34109,   0.00165,276427327.52453,  -0.00074,  -0.00183,   0.00053,   0.00000,   2.00000
-411890777.63119,-521281692.72571,10236990.20846,  -0.00160,  -0.00341,   0.00066,479248641.70748,   0.00166,276436650.55545,  -0.00075,  -0.00184,   0.00053,   0.00000,   2.00000
-412140095.83352,-521189380.15097,10099108.46520,  -0.00161,  -0.00342,   0.00066,479258204.04611,   0.00167,276445971.19543,  -0.00075,  -0.00185,   0.00053,   0.00000,   2.00000
-412392140.74935,-521094485.49693,9968625.49919,  -0.00162,  -0.00343,   0.00066,479251177.92158,   0.00167,276455234.66892,  -0.00076,  -0.00186,   0.00053,   0.00000,   2.00000
-412647542.19139,-520997851.15506,9833428.07737,  -0.00162,  -0.00343,   0.00066,479243334.25087,   0.00168,276464438.48614,  -0.00076,  -0.00187,   0.00053,   0.00000,   2.00000
-412890169.07271,-520906182.48494,9705490.10535,  -0.00163,  -0.00344,   0.00066,479240334.30427,   0.00169,276473598.98031,  -0.00077,  -0.00188,   0.00053,   0.00000,   2.00000
-413151741.10665,-520805179.11978,9572897.19301,  -0.00163,  -0.00345,   0.00066,479228267.91918,   0.00170,276482686.28435,  -0.00077,  -0.00189,   0.00053,  -0.00000,   2.00000
-413400547.27920,-520709178.39047,9447528.14326,  -0.00164,  -0.00346,   0.00066,479225131.00378,   0.00171,276491730.24823,  -0.00077,  -0.00190,   0.00053,   0.00000,   2.00000
-413657939.56570,-520608540.80935,9322706.01229,  -0.00165,  -0.00347,   0.00066,479247241.83349,   0.00172,276500814.22811,  -0.00078,  -0.00191,   0.00053,  -0.00000,   2.00000
-413912975.73577,-520508177.28256,9199793.57987,  -0.00165,  -0.00348,   0.00065,479209831.97358,   0.00173,276509741.92808,  -0.00078,  -0.00192,   0.00054,   0.00000,   2.00000
-414166109.69466,-520408208.26596,9077698.31517,  -0.00166,  -0.00348,   0.00065,479218989.57291,   0.00173,276518667.41988,  -0.00079,  -0.00192,   0.00054,  -0.00000,   2.00000
-414417071.69955,-520308260.56703,8962443.68451,  -0.00166,  -0.00349,   0.00065,479228484.85674,   0.00174,276527591.85113,  -0.00079,  -0.00193,   0.00054,   0.00000,   2.00000
-414666134.28539,-520208930.69216,8842951.45552,  -0.00167,  -0.00350,   0.00065,479190558.69046,   0.00175,276536359.11182,  -0.00080,  -0.00194,   0.00054,  -0.00000,   2.00000
-414923475.46069,-520104570.33157,8729991.15409,  -0.00168,  -0.00351,   0.00065,479212769.86331,   0.00176,276545167.72269,  -0.00080,  -0.00195,   0.00054,   0.00000,   2.00000
-415173884.72072,-520003428.19952,8612379.92518,  -0.00168,  -0.00352,   0.00065,479191659.83055,   0.00177,276553875.02735,  -0.00081,  -0.00196,   0.00054,   0.00000,   2.00000
-415427256.31967,-519899692.85290,8501919.93702,  -0.00169,  -0.00352,   0.00065,479184004.96167,   0.00177,276562525.68404,  -0.00081,  -0.00197,   0.00054,   0.00000,   2.00000
-415678794.97211,-519796370.45676,8392173.22227,  -0.00169,  -0.00353,   0.00065,479192872.91407,   0.00178,276571174.26605,  -0.00081,  -0.00198,   0.00054,   0.00000,   2.00000
-415938662.54259,-519688156.29079,8283829.72577,  -0.00170,  -0.00354,   0.00065,479167937.53434,   0.00179,276579709.62327,  -0.00082,  -0.00199,   0.00054,   0.00000,   2.00000
-416196666.14567,-519580363.11832,8176176.79048,  -0.00170,  -0.00355,   0.00065,479176699.78825,   0.00180,276588242.95723,  -0.00082,  -0.00200,   0.00054,  -0.00000,   2.00000
-416442530.35460,-519478088.32425,8069469.46152,  -0.00171,  -0.00356,   0.00065,479172512.81206,   0.00181,276596731.82242,  -0.00083,  -0.00200,   0.00054,  -0.00000,   2.00000
-416696836.36327,-519370857.36249,7964106.78394,  -0.00172,  -0.00356,   0.00065,479147437.88453,   0.00181,276605107.75796,  -0.00083,  -0.00201,   0.00054,   0.00000,   2.00000
-416949097.91575,-519263712.16111,7865436.87449,  -0.00172,  -0.00357,   0.00065,479156333.01458,   0.00182,276613482.75706,  -0.00084,  -0.00202,   0.00054,  -0.00000,   2.00000
-417204945.95206,-519154616.08723,7761677.16836,  -0.00173,  -0.00358,   0.00065,479147743.76099,   0.00183,276621799.42120,  -0.00084,  -0.00203,   0.00054,   0.00000,   2.00000
-417463867.99032,-519042907.37914,7664917.39435,  -0.00173,  -0.00359,   0.00064,479139704.41818,   0.00184,276630059.78073,  -0.00085,  -0.00204,   0.00055,   0.00000,   2.00000
-417710774.70349,-518936760.74195,7568999.78878,  -0.00174,  -0.00359,   0.00064,479135193.78044,   0.00185,276638275.71284,  -0.00085,  -0.00205,   0.00055,   0.00000,   2.00000
-417966234.81186,-518825569.80720,7474297.91614,  -0.00174,  -0.00360,   0.00064,479109889.71868,   0.00185,276646379.17449,  -0.00085,  -0.00206,   0.00055,   0.00000,   2.00000
-418219947.36131,-518714802.53494,7380170.82979,  -0.00175,  -0.00361,   0.00064,479118206.55197,   0.00186,276654480.82704,  -0.00086,  -0.00206,   0.00055,   0.00000,   2.00000
-418477066.54527,-518601708.41137,7286919.91675,  -0.00176,  -0.00362,   0.00064,479109668.98909,   0.00187,276662525.43680,  -0.00086,  -0.00207,   0.00055,   0.00000,   2.00000
-418722283.61157,-518494197.31539,7194463.94800,  -0.00176,  -0.00362,   0.00064,479104904.37440,   0.00188,276670525.66512,  -0.00087,  -0.00208,   0.00055,   0.00000,   2.00000
-418986062.98601,-518376098.19772,7108962.56502,  -0.00177,  -0.00363,   0.00064,479092729.07401,   0.00188,276678457.32270,  -0.00087,  -0.00209,   0.00055,   0.00000,   2.00000
-419238173.37670,-518263902.01767,7018160.83863,  -0.00177,  -0.00364,   0.00064,479087569.53001,   0.00189,276686343.71725,  -0.00087,  -0.00210,   0.00055,   0.00000,   2.00000
-419483436.20277,-518154218.53766,6934447.22274,  -0.00178,  -0.00364,   0.00064,479066048.02585,   0.00190,276694131.53150,  -0.00088,  -0.00210,   0.00055,   0.00000,   2.00000
-419742572.50557,-518037252.82424,6845250.21281,  -0.00178,  -0.00365,   0.00064,479070003.24878,   0.00191,276701904.42722,  -0.00088,  -0.00211,   0.00055,  -0.00000,   2.00000
-419994878.28511,-517922803.65986,6763112.54416,  -0.00179,  -0.00366,   0.00064,479048365.54916,   0.00191,276709578.80692,  -0.00089,  -0.00212,   0.00055,  -0.00000,   2.00000
-420245539.03042,-517808774.88248,6681448.24092,  -0.00179,  -0.00366,   0.00064,479056244.40694,   0.00192,276717251.58303,  -0.00089,  -0.00213,   0.00055,   0.00000,   2.00000
-420499759.86178,-517692333.95904,6600530.19206,  -0.00180,  -0.00367,   0.00064,479047309.95032,   0.00193,276724867.78871,  -0.00090,  -0.00214,   0.00055,   0.00000,   2.00000
-420747291.21535,-517578407.46763,6526597.75850,  -0.00180,  -0.00368,   0.00064,479025482.12358,   0.00193,276732385.56147,  -0.00090,  -0.00214,   0.00055,  -0.00000,   2.00000
-421008671.54271,-517457100.93333,6447103.64138,  -0.00181,  -0.00368,   0.00064,479029253.60617,   0.00194,276739888.84116,  -0.00090,  -0.00215,   0.00055,   0.00000,   2.00000
-421263379.20305,-517338309.49612,6374569.88043,  -0.00182,  -0.00369,   0.00064,479007311.89737,   0.00195,276747293.75617,  -0.00091,  -0.00216,   0.00055,  -0.00000,   2.00000
-421506698.73301,-517225428.31656,6296606.07171,  -0.00182,  -0.00370,   0.00064,479001555.94386,   0.00195,276754653.59830,  -0.00091,  -0.00217,   0.00055,   0.00000,   2.00000
-421758738.87873,-517106917.89833,6225632.68431,  -0.00183,  -0.00370,   0.00064,478975779.80676,   0.00196,276761903.16297,  -0.00092,  -0.00217,   0.00055,   0.00000,   2.00000
-422019163.11260,-516983579.80552,6154845.27042,  -0.00183,  -0.00371,   0.00063,478996374.67407,   0.00197,276769194.15082,  -0.00092,  -0.00218,   0.00055,   0.00000,   2.00000
-422263323.34456,-516868248.62348,6085097.25170,  -0.00184,  -0.00372,   0.00063,478960804.72800,   0.00198,276776343.27612,  -0.00092,  -0.00219,   0.00056,   0.00000,   2.00000
-422515908.66580,-516748066.55780,6015527.99310,  -0.00184,  -0.00372,   0.00063,478981305.29190,   0.00198,276783533.90721,  -0.00093,  -0.00219,   0.00056,   0.00000,   2.00000
-422767530.82374,-516627697.96198,5947025.32390,  -0.00185,  -0.00373,   0.00063,478942005.58957,   0.00199,276790570.93064,  -0.00093,  -0.00220,   0.00056,   0.00000,   2.00000
-423017433.40565,-516507486.52269,5884926.86735,  -0.00185,  -0.00373,   0.00063,478949471.45249,   0.00200,276797607.38510,  -0.00093,  -0.00221,   0.00056,   0.00000,   2.00000
-423266668.19886,-516387295.46606,5817791.11911,  -0.00186,  -0.00374,   0.00063,478909790.50594,   0.00200,276804489.65513,  -0.00094,  -0.00222,   0.00056,   0.00000,   2.00000
-423514230.29242,-516267255.76048,5757045.59535,  -0.00186,  -0.00375,   0.00063,478917094.19112,   0.00201,276811371.40805,  -0.00094,  -0.00222,   0.00056,   0.00000,   2.00000
-423765784.80635,-516144878.92135,5690809.66856,  -0.00187,  -0.00375,   0.00063,478907211.32082,   0.00201,276818196.65722,  -0.00095,  -0.00223,   0.00056,   0.00000,   2.00000
-424015663.61520,-516022660.00700,5630956.99253,  -0.00187,  -0.00376,   0.00063,478914457.94069,   0.00202,276825021.40549,  -0.00095,  -0.00224,   0.00056,   0.00000,   2.00000
-424264830.77632,-515900147.29553,5572058.72539,  -0.00188,  -0.00376,   0.00063,478874797.12995,   0.00203,276831692.98895,  -0.00095,  -0.00224,   0.00056,   0.00000,   2.00000
-424512552.98880,-515778021.15917,5513456.64632,  -0.00188,  -0.00377,   0.00063,478881668.00124,   0.00203,276838363.42174,  -0.00096,  -0.00225,   0.00056,   0.00000,   2.00000
-424754179.78290,-515658346.81445,5461599.42553,  -0.00189,  -0.00377,   0.00063,478858783.04680,   0.00204,276844935.94662,  -0.00096,  -0.00226,   0.00056,   0.00000,   2.00000
-424999914.59549,-515536253.00656,5404179.91039,  -0.00189,  -0.00378,   0.00063,478848618.39342,   0.00205,276851452.29208,  -0.00096,  -0.00226,   0.00056,   0.00000,   2.00000
-425249564.64830,-515411498.49025,5347264.85549,  -0.00190,  -0.00379,   0.00063,478838620.99340,   0.00205,276857913.20490,  -0.00097,  -0.00227,   0.00056,   0.00000,   2.00000
-425493211.10158,-515289175.74134,5297066.38080,  -0.00190,  -0.00379,   0.00063,478815515.16990,   0.00206,276864276.32439,  -0.00097,  -0.00228,   0.00056,  -0.00000,   2.00000
-425740827.31034,-515164164.28332,5247326.62541,  -0.00191,  -0.00380,   0.00063,478805369.78209,   0.00206,276870584.12964,  -0.00097,  -0.00228,   0.00056,  -0.00000,   2.00000
-425987073.02974,-515039521.77794,5197823.40052,  -0.00191,  -0.00380,   0.00063,478811875.04009,   0.00207,276876890.93641,  -0.00098,  -0.00229,   0.00056,   0.00000,   2.00000
-426227603.87700,-514917509.69123,5148939.59458,  -0.00192,  -0.00381,   0.00063,478788394.90142,   0.00208,276883099.38620,  -0.00098,  -0.00230,   0.00056,   0.00000,   2.00000
-426477508.34904,-514789673.79261,5100708.07478,  -0.00192,  -0.00381,   0.00063,478761425.39187,   0.00208,276889198.49040,  -0.00099,  -0.00230,   0.00056,   0.00000,   2.00000
-426726063.23231,-514662193.48011,5052698.36872,  -0.00193,  -0.00382,   0.00063,478767728.43584,   0.00209,276895296.68854,  -0.00099,  -0.00231,   0.00056,   0.00000,   2.00000
-426963634.73682,-514540427.94864,5005075.42066,  -0.00193,  -0.00382,   0.00063,478760707.32757,   0.00209,276901350.78982,  -0.00099,  -0.00231,   0.00056,   0.00000,   2.00000
-427210493.34291,-514412556.17027,4964128.36514,  -0.00194,  -0.00383,   0.00063,478733802.86186,   0.00210,276907296.41714,  -0.00100,  -0.00232,   0.00056,   0.00000,   2.00000
-427451965.71707,-514287470.95184,4917684.65423,  -0.00194,  -0.00383,   0.00063,478709758.66330,   0.00210,276913143.28552,  -0.00100,  -0.00233,   0.00056,   0.00000,   2.00000
-427692021.18909,-514162517.63645,4877493.57234,  -0.00195,  -0.00384,   0.00063,478715984.72466,   0.00211,276918989.94913,  -0.00100,  -0.00233,   0.00056,   0.00000,   2.00000
-427926626.20318,-514040126.67472,4837840.87927,  -0.00195,  -0.00384,   0.00063,478692013.12219,   0.00211,276924738.52543,  -0.00101,  -0.00234,   0.00056,  -0.00000,   2.00000
-428180365.04763,-513906340.70820,4798598.02544,  -0.00195,  -0.00385,   0.00063,478678016.88501,   0.00212,276930421.65154,  -0.00101,  -0.00234,   0.00056,   0.00000,   2.00000
-428413703.11569,-513783670.99478,4759839.90326,  -0.00196,  -0.00385,   0.00063,478657165.94203,   0.00213,276936017.44326,  -0.00101,  -0.00235,   0.00056,   0.00000,   2.00000
-428645877.60678,-513661317.51272,4721245.49396,  -0.00196,  -0.00385,   0.00063,478662941.16910,   0.00213,276941612.50339,  -0.00102,  -0.00235,   0.00056,   0.00000,   2.00000
-428887690.97286,-513532878.34458,4683201.72415,  -0.00197,  -0.00386,   0.00063,478635456.92419,   0.00214,276947099.07097,  -0.00102,  -0.00236,   0.00056,   0.00000,   2.00000
-429133557.92292,-513401346.30186,4651557.14738,  -0.00197,  -0.00386,   0.00062,478624693.65600,   0.00214,276952531.69566,  -0.00102,  -0.00236,   0.00056,   0.00000,   2.00000
-429368880.19826,-513275732.15803,4614146.05828,  -0.00198,  -0.00387,   0.00062,478616742.36635,   0.00215,276957919.72351,  -0.00102,  -0.00237,   0.00056,   0.00000,   2.00000
-429604261.32338,-513149180.71491,4583469.12923,  -0.00198,  -0.00387,   0.00062,478575850.30803,   0.00215,276963156.70462,  -0.00103,  -0.00238,   0.00056,   0.00000,   2.00000
-429838527.19059,-513022922.34897,4552913.02300,  -0.00199,  -0.00388,   0.00062,478581272.26865,   0.00216,276968393.08947,  -0.00103,  -0.00238,   0.00057,  -0.00000,   2.00000
-430077109.06780,-512893700.71898,4522664.20840,  -0.00199,  -0.00388,   0.00062,478570090.78951,   0.00216,276973575.15029,  -0.00103,  -0.00239,   0.00057,  -0.00000,   2.00000
-430310566.02130,-512766936.97182,4492869.24300,  -0.00199,  -0.00388,   0.00062,478545426.36626,   0.00217,276978659.49934,  -0.00104,  -0.00239,   0.00057,   0.00000,   2.00000
-430548378.99072,-512637174.93182,4463372.59525,  -0.00200,  -0.00389,   0.00062,478534104.19692,   0.00217,276983689.63845,  -0.00104,  -0.00240,   0.00057,   0.00000,   2.00000
-430775695.14903,-512513136.78374,4434136.09600,  -0.00200,  -0.00389,   0.00062,478525867.34077,   0.00217,276988675.78252,  -0.00104,  -0.00240,   0.00057,  -0.00000,   2.00000
-431012873.38000,-512382767.90678,4405373.10956,  -0.00201,  -0.00390,   0.00062,478497868.97054,   0.00218,276993554.18905,  -0.00105,  -0.00241,   0.00057,  -0.00000,   2.00000
-431239465.92084,-512257939.71030,4382915.04401,  -0.00201,  -0.00390,   0.00062,478489631.83294,   0.00218,276998389.16122,  -0.00105,  -0.00241,   0.00057,   0.00000,   2.00000
-431476116.97483,-512126906.16619,4354845.01548,  -0.00202,  -0.00390,   0.00062,478461336.21243,   0.00219,277003116.02068,  -0.00105,  -0.00241,   0.00057,  -0.00000,   2.00000
-431702241.03421,-512001412.56583,4333073.38961,  -0.00202,  -0.00391,   0.00062,478452929.77806,   0.00219,277007799.45512,  -0.00105,  -0.00242,   0.00057,   0.00000,   2.00000
-431932856.67715,-511872822.91505,4311555.81900,  -0.00202,  -0.00391,   0.00062,478441230.07824,   0.00220,277012428.97848,  -0.00106,  -0.00242,   0.00057,   0.00000,   2.00000
-432158640.88499,-511746598.81040,4290433.90842,  -0.00203,  -0.00391,   0.00062,478415980.89937,   0.00220,277016961.05644,  -0.00106,  -0.00243,   0.00057,   0.00000,   2.00000
-432388952.56042,-511617243.58950,4269559.48891,  -0.00203,  -0.00392,   0.00062,478404141.82766,   0.00221,277021439.33118,  -0.00106,  -0.00243,   0.00057,   0.00000,   2.00000
-432614497.97886,-511490228.52248,4249073.07238,  -0.00204,  -0.00392,   0.00062,478378736.92928,   0.00221,277025820.23204,  -0.00106,  -0.00244,   0.00057,   0.00000,   2.00000
-432839118.06895,-511363437.35261,4228653.61465,  -0.00204,  -0.00392,   0.00062,478383295.58327,   0.00221,277030200.81495,  -0.00107,  -0.00244,   0.00057,   0.00000,   2.00000
-433064547.00873,-511235564.88120,4208789.62987,  -0.00204,  -0.00393,   0.00062,478341247.60933,   0.00222,277034430.71301,  -0.00107,  -0.00245,   0.00057,   0.00000,   2.00000
-433288933.70755,-511107730.64856,4195043.75372,  -0.00205,  -0.00393,   0.00062,478345817.15764,   0.00222,277038660.86098,  -0.00107,  -0.00245,   0.00057,   0.00000,   2.00000
-433508841.66457,-510982364.54250,4175598.00203,  -0.00205,  -0.00393,   0.00062,478319985.26090,   0.00223,277042793.22402,  -0.00107,  -0.00245,   0.00057,   0.00000,   2.00000
-433733257.19332,-510853596.22951,4162439.45869,  -0.00205,  -0.00394,   0.00062,478307932.58188,   0.00223,277046872.58313,  -0.00108,  -0.00246,   0.00057,   0.00000,   2.00000
-433953114.81778,-510727098.33706,4149631.29564,  -0.00206,  -0.00394,   0.00062,478282106.01362,   0.00223,277050854.74224,  -0.00108,  -0.00246,   0.00057,   0.00000,   2.00000
-434168469.79678,-510602856.16073,4137170.66807,  -0.00206,  -0.00394,   0.00062,478256172.86985,   0.00224,277054739.72639,  -0.00108,  -0.00247,   0.00057,   0.00000,   2.00000
-434388547.40793,-510475330.23757,4124915.05464,  -0.00206,  -0.00395,   0.00062,478243723.81007,   0.00224,277058571.33424,  -0.00108,  -0.00247,   0.00057,   0.00000,   2.00000
-434613339.02128,-510344504.38719,4112862.71400,  -0.00207,  -0.00395,   0.00062,478231235.46256,   0.00224,277062349.62494,  -0.00109,  -0.00247,   0.00057,  -0.00000,   2.00000
-434828162.80282,-510219385.20139,4100982.49698,  -0.00207,  -0.00395,   0.00062,478221590.23047,   0.00225,277066083.97640,  -0.00109,  -0.00248,   0.00057,  -0.00000,   2.00000
-435038619.38498,-510096475.70757,4089441.43095,  -0.00208,  -0.00395,   0.00062,478195393.30345,   0.00225,277069721.25085,  -0.00109,  -0.00248,   0.00057,   0.00000,   2.00000
-435259417.53091,-509966709.12677,4078266.00120,  -0.00208,  -0.00396,   0.00062,478166233.92367,   0.00225,277073252.23709,  -0.00109,  -0.00248,   0.00057,   0.99871,   1.00000
-435470206.83331,-509842472.51374,4073316.26650,  -0.00208,  -0.00396,   0.00062,478156470.44302,   0.00226,277076739.79564,  -0.00109,  -0.00249,   0.00057,   0.96692,   1.00000
-435685964.66281,-509715020.79987,4062485.71796,  -0.00209,  -0.00396,   0.00062,478143496.94217,   0.00226,277080173.74025,  -0.00110,  -0.00249,   0.00057,   0.93009,   1.00000
-435897333.06064,-509589559.72719,4058045.92319,  -0.00209,  -0.00396,   0.00062,478117149.20011,   0.00226,277083511.23256,  -0.00110,  -0.00249,   0.00057,   0.87182,   1.00000
-436113698.90480,-509460847.40391,4047722.01938,  -0.00209,  -0.00397,   0.00062,478104039.34681,   0.00227,277086795.20928,  -0.00110,  -0.00250,   0.00057,   0.83739,   1.00000
-436320169.52096,-509337663.96438,4043620.13892,  -0.00210,  -0.00397,   0.00062,478093991.11507,   0.00227,277090035.73593,  -0.00110,  -0.00250,   0.00057,   0.80920,   1.00000
-436528077.67646,-509213029.80197,4039995.86826,  -0.00210,  -0.00397,   0.00062,478050826.68893,   0.00227,277093126.43930,  -0.00110,  -0.00250,   0.00057,   0.73043,   1.00000
-436735337.64214,-509088510.35079,4036378.39835,  -0.00210,  -0.00397,   0.00062,478054079.40555,   0.00228,277096217.15006,  -0.00111,  -0.00251,   0.00057,   0.72482,   1.00000
-436938521.98999,-508966088.54401,4033070.74601,  -0.00210,  -0.00397,   0.00062,478027210.58901,   0.00228,277099211.01385,  -0.00111,  -0.00251,   0.00057,   0.67495,   1.00000
-437143258.90186,-508842144.01364,4030237.02008,  -0.00211,  -0.00398,   0.00062,477983804.72406,   0.00228,277102055.20575,  -0.00111,  -0.00251,   0.00057,   0.60445,   1.00000
-437347396.31857,-508718292.69312,4027407.71739,  -0.00211,  -0.00398,   0.00062,477986808.26696,   0.00228,277104899.45574,  -0.00111,  -0.00252,   0.00057,   0.59983,   1.00000
-437556387.45587,-508590742.39312,4030810.04941,  -0.00211,  -0.00398,   0.00062,477973543.46164,   0.00229,277107691.46826,  -0.00111,  -0.00252,   0.00057,   0.57343,   1.00000
-437747002.47792,-508474634.59011,4028416.47422,  -0.00212,  -0.00398,   0.00062,477948921.80603,   0.00229,277110394.96184,  -0.00112,  -0.00252,   0.00057,   0.53374,   1.00000
-437948283.40178,-508351317.26369,4026356.08406,  -0.00212,  -0.00398,   0.00062,477918939.97638,   0.00229,277112993.01199,  -0.00112,  -0.00252,   0.00057,   0.48910,   1.00000
-438154476.77580,-508224248.37090,4030526.30850,  -0.00212,  -0.00398,   0.00062,477905441.75912,   0.00229,277115538.94571,  -0.00112,  -0.00253,   0.00057,   0.46596,   1.00000
-438351333.08818,-508103016.84635,4028761.05661,  -0.00212,  -0.00399,   0.00062,477894263.57765,   0.00230,277118040.41433,  -0.00112,  -0.00253,   0.00057,   0.44639,   1.00000
-438544237.24451,-507983618.19808,4033364.58697,  -0.00213,  -0.00399,   0.00062,477866930.21601,   0.00230,277120445.69625,  -0.00112,  -0.00253,   0.00057,   0.40963,   1.00000
-438738984.28914,-507862514.34390,4038426.88561,  -0.00213,  -0.00399,   0.00062,477822947.53181,   0.00230,277122701.66373,  -0.00112,  -0.00253,   0.00057,   0.35760,   1.00000
-438933250.95392,-507741455.16677,4043478.62778,  -0.00213,  -0.00399,   0.00062,477825353.12161,   0.00230,277124957.79089,  -0.00112,  -0.00253,   0.00057,   0.35493,   1.00000
-439132798.89366,-507616895.76781,4042620.32273,  -0.00213,  -0.00399,   0.00062,477811221.93024,   0.00231,277127160.98088,  -0.00113,  -0.00254,   0.00057,   0.33580,   1.00000
-439314018.22387,-507503461.82072,4048105.12289,  -0.00214,  -0.00399,   0.00062,477786195.13279,   0.00231,277129276.47020,  -0.00113,  -0.00254,   0.00057,   0.30738,   1.00000
-439506076.84746,-507382607.52400,4053910.81308,  -0.00214,  -0.00399,   0.00062,477755696.14570,   0.00231,277131286.99125,  -0.00113,  -0.00254,   0.00057,   0.27550,   1.00000
-439694504.57925,-507263670.74074,4060011.41394,  -0.00214,  -0.00399,   0.00062,477727702.26090,   0.00231,277133200.95624,  -0.00113,  -0.00254,   0.00057,   0.24779,   1.00000
-439882518.85940,-507144751.72009,4066101.33747,  -0.00214,  -0.00399,   0.00063,477729759.27969,   0.00231,277135115.12767,  -0.00113,  -0.00254,   0.00057,   0.24597,   1.00000
-440066819.05150,-507027565.48975,4078554.10184,  -0.00215,  -0.00400,   0.00063,477701815.41292,   0.00231,277136933.25980,  -0.00113,  -0.00255,   0.00057,   0.22026,   1.00000
-440247724.85247,-506912432.57804,4085228.51272,  -0.00215,  -0.00400,   0.00063,477673457.51749,   0.00232,277138654.36274,  -0.00113,  -0.00255,   0.00057,   0.19593,   1.00000
-440433912.46923,-506793525.30480,4092059.55646,  -0.00215,  -0.00400,   0.00063,477658963.55048,   0.00232,277140323.23786,  -0.00113,  -0.00255,   0.00057,   0.18282,   1.00000
-440616470.70118,-506676309.87272,4105256.91705,  -0.00215,  -0.00400,   0.00063,477630768.71351,   0.00232,277141896.13221,  -0.00114,  -0.00255,   0.00057,   0.16118,   1.00000
-440795720.36179,-506561108.93099,4112678.44778,  -0.00215,  -0.00400,   0.00063,477602158.08056,   0.00232,277143372.04846,  -0.00114,  -0.00255,   0.00057,   0.14087,   1.00000
-440971556.89576,-506447743.40839,4120400.43998,  -0.00216,  -0.00400,   0.00063,477573600.52987,   0.00232,277144751.49598,  -0.00114,  -0.00255,   0.00057,   0.12216,   1.00000
-441146942.47546,-506334189.50013,4134181.58254,  -0.00216,  -0.00400,   0.00063,477575266.34958,   0.00232,277146131.70353,  -0.00114,  -0.00256,   0.00057,   0.12140,   1.00000
-441319109.06480,-506222621.93424,4142189.78966,  -0.00216,  -0.00400,   0.00063,477546447.18303,   0.00232,277147414.94908,  -0.00114,  -0.00256,   0.00057,   0.10419,   1.00000
-441502183.41292,-506103182.62838,4156596.85422,  -0.00216,  -0.00400,   0.00063,477515372.12088,   0.00233,277148594.33009,  -0.00114,  -0.00256,   0.00057,   0.08733,   1.00000
-441667564.56947,-505995044.20461,4171277.95244,  -0.00216,  -0.00400,   0.00063,477488977.81979,   0.00233,277149685.21707,  -0.00114,  -0.00256,   0.00057,   0.07420,   1.00000
-441832841.76625,-505887040.16216,4179875.07760,  -0.00216,  -0.00400,   0.00063,477490025.59897,   0.00233,277150775.85227,  -0.00114,  -0.00256,   0.00057,   0.07364,   1.00000
-442009084.32214,-505771097.15060,4194875.62608,  -0.00217,  -0.00400,   0.00063,477458777.79866,   0.00233,277151762.75009,  -0.00114,  -0.00256,   0.00057,   0.05985,   1.00000
-442173423.83412,-505662587.63787,4210326.65166,  -0.00217,  -0.00400,   0.00063,477415842.50403,   0.00233,277152608.82763,  -0.00114,  -0.00256,   0.00057,   0.04368,   1.00000
-442337546.59707,-505554022.03877,4225766.18620,  -0.00217,  -0.00400,   0.00063,477416805.72877,   0.00233,277153455.19691,  -0.00114,  -0.00256,   0.00057,   0.04340,   1.00000
-442498499.86178,-505447195.80433,4241514.15978,  -0.00217,  -0.00400,   0.00063,477387586.57115,   0.00233,277154205.17735,  -0.00114,  -0.00256,   0.00057,   0.03384,   1.00000
-442662155.21007,-505338368.09329,4251673.74086,  -0.00217,  -0.00400,   0.00063,477341813.34810,   0.00233,277154806.07462,  -0.00114,  -0.00256,   0.00057,   0.02157,   1.00000
-442825477.96717,-505229291.29801,4267899.71451,  -0.00217,  -0.00400,   0.00063,477342694.02133,   0.00233,277155407.81145,  -0.00114,  -0.00256,   0.00057,   0.02148,   1.00000
-442980005.61674,-505125837.01389,4284265.69045,  -0.00217,  -0.00400,   0.00063,477329506.89524,   0.00233,277155965.33802,  -0.00114,  -0.00256,   0.00057,   0.01831,   1.00000
-443137171.37354,-505020154.99407,4301122.93598,  -0.00218,  -0.00400,   0.00063,477283704.23345,   0.00233,277156374.36658,  -0.00114,  -0.00257,   0.00057,   0.00979,   1.00000
-443291300.27864,-504916153.70887,4318299.49745,  -0.00218,  -0.00400,   0.00063,477254032.92358,   0.00233,277156687.04926,  -0.00114,  -0.00257,   0.00057,   0.00568,   1.00000
-443445293.40475,-504812062.96482,4335470.68554,  -0.00218,  -0.00400,   0.00063,477254452.49513,   0.00233,277157000.04792,  -0.00114,  -0.00257,   0.00057,   0.00566,   1.00000
-443596291.80301,-504709637.29856,4352965.09115,  -0.00218,  -0.00400,   0.00063,477224678.48521,   0.00233,277157216.70454,  -0.00114,  -0.00257,   0.00057,   0.00269,   1.00000
-443744323.51010,-504608866.99926,4370785.37488,  -0.00218,  -0.00400,   0.00063,477194803.20977,   0.00233,277157337.01948,  -0.00115,  -0.00257,   0.00057,   0.00082,   1.00000
-443897965.90687,-504504026.13207,4388781.27591,  -0.00218,  -0.00400,   0.00063,477178767.27017,   0.00233,277157405.61253,  -0.00115,  -0.00257,   0.00057,   0.00027,   1.00000
-444019506.55614,-504382485.48280,4413089.40576,  -0.00218,  -0.00400,   0.00063,477134967.92715,   0.00233,277157405.61253,  -0.00115,  -0.00257,   0.00057,-22437.68538,   0.00000
-444141047.20541,-504260944.83353,4431320.50315,  -0.00218,  -0.00399,   0.00063,477112456.34355,   0.00233,277157405.61253,  -0.00115,  -0.00257,   0.00057,-44949.26898,   0.00000
-444223087.14367,-504087749.40832,4449551.60054,  -0.00218,  -0.00399,   0.00063,477043592.92403,   0.00233,277157405.61253,  -0.00115,  -0.00257,   0.00057,-113812.68850,   0.00000
-444283857.46830,-503905438.43442,4467782.69793,  -0.00218,  -0.00399,   0.00063,476960866.47702,   0.00233,277157405.61253,  -0.00115,  -0.00257,   0.00057,-196539.13552,   0.00000
-444335512.24424,-503701857.84689,4486013.79532,  -0.00218,  -0.00399,   0.00063,476861991.53875,   0.00233,277157405.61253,  -0.00115,  -0.00257,   0.00057,-295414.07378,   0.00000
-444356781.85786,-503467892.09705,4504244.89271,  -0.00219,  -0.00399,   0.00063,476733007.37507,   0.00233,277157405.61253,  -0.00115,  -0.00257,   0.00057,-424398.23747,   0.00000
-444356781.85786,-503224810.79851,4522475.99010,  -0.00219,  -0.00399,   0.00063,476590139.08814,   0.00233,277157405.61253,  -0.00115,  -0.00257,   0.00057,-567266.52439,   0.00000
-444317281.14685,-502930074.72403,4540707.08749,  -0.00219,  -0.00399,   0.00063,476400920.48803,   0.00233,277157405.61253,  -0.00115,  -0.00257,   0.00057,-756485.12450,   0.00000
-444256510.82222,-502626223.10085,4565015.21735,  -0.00219,  -0.00399,   0.00063,476197977.23828,   0.00233,277157405.61253,  -0.00115,  -0.00257,   0.00057,-959428.37426,   0.00000
-444186624.94889,-502301101.86405,4583246.31474,  -0.00219,  -0.00399,   0.00063,475978720.12577,   0.00233,277157405.61253,  -0.00115,  -0.00257,   0.00057,-1178685.48676,   0.00000
-444065084.29962,-501936479.91624,4601477.41213,  -0.00219,  -0.00398,   0.00063,475715339.75771,   0.00233,277157405.61253,  -0.00115,  -0.00257,   0.00057,-1442065.85482,   0.00000
-443934428.10165,-501550588.35481,4619708.50952,  -0.00219,  -0.00398,   0.00063,475435821.79701,   0.00233,277157405.61253,  -0.00115,  -0.00257,   0.00057,-1721583.81553,   0.00000
-443782502.29006,-501155581.24468,4637939.60691,  -0.00219,  -0.00398,   0.00063,475142378.15787,   0.00233,277157405.61253,  -0.00115,  -0.00257,   0.00057,-2015027.45466,   0.00000
-443612345.38109,-500718034.90731,4656170.70430,  -0.00219,  -0.00398,   0.00063,474816597.63849,   0.00233,277157405.61253,  -0.00115,  -0.00257,   0.00057,-2340807.97405,   0.00000
-443399649.24486,-500262257.47255,4674401.80169,  -0.00219,  -0.00398,   0.00063,474462870.83905,   0.00233,277157405.61253,  -0.00115,  -0.00257,   0.00057,-2694534.77348,   0.00000
-443177837.55994,-499785210.42416,4692632.89908,  -0.00219,  -0.00398,   0.00063,474093013.94704,   0.00233,277157405.61253,  -0.00115,  -0.00257,   0.00057,-3064391.66550,   0.00000
-442925640.71271,-499277778.21346,4710863.99647,  -0.00219,  -0.00397,   0.00063,473693012.32813,   0.00233,277157405.61253,  -0.00115,  -0.00257,   0.00057,-3464393.28441,   0.00000
-442652174.25185,-498761230.45406,4729095.09386,  -0.00219,  -0.00397,   0.00063,473279053.31014,   0.00233,277157405.61253,  -0.00115,  -0.00257,   0.00057,-3878352.30240,   0.00000
-442339207.07998,-498193027.91872,4747326.19125,  -0.00219,  -0.00397,   0.00063,472818749.16560,   0.00233,277157405.61253,  -0.00115,  -0.00257,   0.00057,-4338656.44693,   0.00000
-442026239.90811,-497624825.38338,4765557.28864,  -0.00219,  -0.00397,   0.00064,472358512.95897,   0.00233,277157405.61253,  -0.00115,  -0.00257,   0.00057,-4798892.65356,   0.00000
-441661617.96030,-497017122.13703,4783788.38603,  -0.00219,  -0.00397,   0.00064,471854079.19572,   0.00233,277157405.61253,  -0.00115,  -0.00257,   0.00057,-5303326.41681,   0.00000
-441296996.01249,-496409418.89068,4802019.48343,  -0.00219,  -0.00396,   0.00064,471349703.16913,   0.00233,277157405.61253,  -0.00115,  -0.00257,   0.00057,-5807702.44341,   0.00000
-440892873.35367,-495750060.86839,4820250.58082,  -0.00218,  -0.00396,   0.00064,470798984.99310,   0.00233,277157405.61253,  -0.00115,  -0.00257,   0.00057,-6358420.61944,   0.00000
-440467481.08122,-495081587.29741,4838481.67821,  -0.00218,  -0.00396,   0.00064,470234274.59004,   0.00233,277157405.61253,  -0.00115,  -0.00257,   0.00057,-6923131.02249,   0.00000
-440011703.64646,-494382728.56410,4850635.74313,  -0.00218,  -0.00396,   0.00064,469639203.00674,   0.00233,277157405.61253,  -0.00115,  -0.00257,   0.00057,-7518202.60579,   0.00000
-439525541.04938,-493653484.66848,4868866.84052,  -0.00218,  -0.00396,   0.00064,469014143.51082,   0.00233,277157405.61253,  -0.00115,  -0.00257,   0.00057,-8143262.10171,   0.00000
-439030262.90360,-492902971.15924,4887097.93791,  -0.00218,  -0.00395,   0.00064,468372971.98661,   0.00233,277157405.61253,  -0.00115,  -0.00257,   0.00057,-8784433.62593,   0.00000
-438513715.14420,-492143342.10130,4905329.03531,  -0.00218,  -0.00395,   0.00064,467717787.74675,   0.00233,277157405.61253,  -0.00115,  -0.00257,   0.00057,-9439617.86578,   0.00000
-437945512.60886,-491344212.33235,4917483.10023,  -0.00218,  -0.00395,   0.00064,467018157.02344,   0.00233,277157405.61253,  -0.00115,  -0.00257,   0.00057,-10139248.58909,   0.00000
-437368194.52483,-490523812.94977,4935714.19762,  -0.00218,  -0.00395,   0.00064,466302603.50478,   0.00233,277157405.61253,  -0.00115,  -0.00257,   0.00057,-10854802.10775,   0.00000
-436760491.27848,-489673028.40488,4947868.26255,  -0.00218,  -0.00394,   0.00064,465556670.27562,   0.00233,277157405.61253,  -0.00115,  -0.00257,   0.00057,-11600735.33691,   0.00000
-436152788.03213,-488822243.85999,4966099.35994,  -0.00218,  -0.00394,   0.00064,464810975.03977,   0.00233,277157405.61253,  -0.00115,  -0.00257,   0.00057,-12346430.57277,   0.00000
-435493430.00984,-487931958.60409,4978253.42487,  -0.00218,  -0.00394,   0.00064,464020808.33356,   0.00233,277157405.61253,  -0.00115,  -0.00257,   0.00057,-13136597.27897,   0.00000
-434803686.82523,-487011288.18587,4990407.48979,  -0.00217,  -0.00393,   0.00064,463200442.32416,   0.00233,277157405.61253,  -0.00115,  -0.00257,   0.00057,-13956963.28838,   0.00000
-434104828.09193,-486069348.15402,5008638.58718,  -0.00217,  -0.00393,   0.00064,462364165.51019,   0.00233,277157405.61253,  -0.00115,  -0.00257,   0.00057,-14793240.10235,   0.00000
-433384699.74500,-485118292.57349,5020792.65211,  -0.00217,  -0.00393,   0.00064,461513634.97873,   0.00233,277157405.61253,  -0.00115,  -0.00257,   0.00057,-15643770.63381,   0.00000
-432625070.68706,-484115582.21701,5032946.71704,  -0.00217,  -0.00393,   0.00064,460616763.06114,   0.00233,277157405.61253,  -0.00115,  -0.00257,   0.00057,-16540642.55139,   0.00000
-431844172.01550,-483103756.31183,5045100.78197,  -0.00217,  -0.00392,   0.00064,459705825.22957,   0.00233,277157405.61253,  -0.00115,  -0.00257,   0.00057,-17451580.38297,   0.00000
-431042003.73032,-482082814.85796,5057254.84689,  -0.00217,  -0.00392,   0.00064,458780812.98225,   0.00233,277157405.61253,  -0.00115,  -0.00257,   0.00057,-18376592.63028,   0.00000
-430200334.73412,-481010218.62815,5069408.91182,  -0.00216,  -0.00392,   0.00064,457809456.09045,   0.00233,277157405.61253,  -0.00115,  -0.00257,   0.00057,-19347949.52208,   0.00000
-429337396.12431,-479928506.84965,5075485.94428,  -0.00216,  -0.00391,   0.00064,456823814.63075,   0.00233,277157405.61253,  -0.00115,  -0.00257,   0.00057,-20333590.98178,   0.00000
-428465341.96579,-478825525.45752,5087640.00921,  -0.00216,  -0.00391,   0.00064,455822271.10028,   0.00233,277157405.61253,  -0.00115,  -0.00257,   0.00057,-21335134.51225,   0.00000
-427550748.58004,-477704312.96801,5099794.07414,  -0.00216,  -0.00391,   0.00064,454792524.48671,   0.00233,277157405.61253,  -0.00115,  -0.00257,   0.00057,-22364881.12582,   0.00000
-426617924.09689,-476540561.25124,5105871.10660,  -0.00216,  -0.00390,   0.00064,453730343.31934,   0.00233,277157405.61253,  -0.00115,  -0.00257,   0.00057,-23427062.29319,   0.00000
-425663830.00012,-475367693.98579,5118025.17153,  -0.00215,  -0.00390,   0.00064,452654271.95641,   0.00233,277157405.61253,  -0.00115,  -0.00257,   0.00057,-24503133.65612,   0.00000
-424688466.28972,-474185711.17164,5124102.20399,  -0.00215,  -0.00390,   0.00064,451563892.41731,   0.00233,277157405.61253,  -0.00115,  -0.00257,   0.00057,-25593513.19522,   0.00000
-423673601.86832,-472952073.58154,5130179.23645,  -0.00215,  -0.00389,   0.00064,450427166.71707,   0.00233,277157405.61253,  -0.00115,  -0.00257,   0.00057,-26730238.89546,   0.00000
-422637467.83329,-471709320.44276,5136256.26892,  -0.00215,  -0.00389,   0.00064,449276332.39377,   0.00233,277157405.61253,  -0.00115,  -0.00257,   0.00057,-27881073.21877,   0.00000
-421570948.63594,-470436182.14165,5148410.33385,  -0.00215,  -0.00388,   0.00064,448095477.56097,   0.00233,277157405.61253,  -0.00115,  -0.00257,   0.00057,-29061928.05157,   0.00000
-420474044.27628,-469132658.67823,5148410.33385,  -0.00214,  -0.00388,   0.00064,446883973.12830,   0.00233,277157405.61253,  -0.00115,  -0.00257,   0.00057,-30273432.48424,   0.00000
-419377139.91662,-467829135.21481,5154487.36631,  -0.00214,  -0.00388,   0.00064,445672690.17122,   0.00233,277157405.61253,  -0.00115,  -0.00257,   0.00057,-31484715.44131,   0.00000
-418228580.78101,-466486111.04037,5160564.39877,  -0.00214,  -0.00387,   0.00064,444417042.51293,   0.00233,277157405.61253,  -0.00115,  -0.00257,   0.00057,-32740363.09960,   0.00000
-417070906.09672,-465121817.25231,5166641.43124,  -0.00214,  -0.00387,   0.00064,443145292.63064,   0.00233,277157405.61253,  -0.00115,  -0.00257,   0.00057,-34012112.98190,   0.00000
-415870692.18517,-463739292.36687,5166641.43124,  -0.00213,  -0.00387,   0.00064,441845070.06921,   0.00233,277157405.61253,  -0.00115,  -0.00257,   0.00057,-35312335.54333,   0.00000
-414661362.72494,-462335497.86780,5172718.46370,  -0.00213,  -0.00386,   0.00064,440528956.81499,   0.00233,277157405.61253,  -0.00115,  -0.00257,   0.00057,-36628448.79754,   0.00000
-413421648.10238,-460901318.20641,5172718.46370,  -0.00213,  -0.00386,   0.00064,439182391.16289,   0.00233,277157405.61253,  -0.00115,  -0.00257,   0.00057,-37975014.44964,   0.00000
-412160663.86620,-459458022.99633,5172718.46370,  -0.00212,  -0.00385,   0.00064,437821693.16563,   0.00233,277157405.61253,  -0.00115,  -0.00257,   0.00057,-39335712.44691,   0.00000
-410860178.91901,-457963073.01030,5172718.46370,  -0.00212,  -0.00385,   0.00064,436414646.63323,   0.00233,277157405.61253,  -0.00115,  -0.00257,   0.00057,-40742758.97931,   0.00000
-409547539.90689,-456480277.08921,5172718.46370,  -0.00212,  -0.00384,   0.00064,435009571.58003,   0.00233,277157405.61253,  -0.00115,  -0.00257,   0.00057,-42147834.03251,   0.00000
-408195400.18376,-454945826.39217,5166641.43124,  -0.00212,  -0.00384,   0.00064,433557929.88687,   0.00233,277157405.61253,  -0.00115,  -0.00257,   0.00057,-43599475.72566,   0.00000
-406821990.84701,-453402260.14644,5166641.43124,  -0.00211,  -0.00384,   0.00064,432092367.63261,   0.00233,277157405.61253,  -0.00115,  -0.00257,   0.00057,-45065037.97993,   0.00000
-405439465.96156,-451837424.28709,5166641.43124,  -0.00211,  -0.00383,   0.00064,430610702.48221,   0.00233,277157405.61253,  -0.00115,  -0.00257,   0.00057,-46546703.13033,   0.00000
-404014401.84887,-450254357.33034,5160564.39877,  -0.00211,  -0.00383,   0.00064,429100539.05156,   0.00233,277157405.61253,  -0.00115,  -0.00257,   0.00057,-48056866.56098,   0.00000
-402549837.02517,-448619635.59766,5154487.36631,  -0.00210,  -0.00382,   0.00064,427544025.51862,   0.00233,277157405.61253,  -0.00115,  -0.00257,   0.00057,-49613380.09391,   0.00000
-401094387.75016,-447006183.47860,5148410.33385,  -0.00210,  -0.00382,   0.00064,426003618.36115,   0.00233,277157405.61253,  -0.00115,  -0.00257,   0.00057,-51153787.25139,   0.00000
-399599437.76413,-445341076.58360,5142333.30138,  -0.00209,  -0.00381,   0.00064,424416861.25002,   0.00233,277157405.61253,  -0.00115,  -0.00257,   0.00057,-52740544.36252,   0.00000
-398061948.55087,-443657738.59121,5136256.26892,  -0.00209,  -0.00381,   0.00064,422801825.17117,   0.00233,277157405.61253,  -0.00115,  -0.00257,   0.00057,-54355580.44137,   0.00000
-396515343.78890,-441953130.98519,5124102.20399,  -0.00209,  -0.00380,   0.00064,421170463.64466,   0.00233,277157405.61253,  -0.00115,  -0.00257,   0.00057,-55986941.96787,   0.00000
-394947469.41332,-440239407.83048,5118025.17153,  -0.00208,  -0.00380,   0.00064,419525186.71615,   0.00233,277157405.61253,  -0.00115,  -0.00257,   0.00057,-57632218.89638,   0.00000
-393349209.87542,-438495299.51346,5105871.10660,  -0.00208,  -0.00379,   0.00064,417849445.09545,   0.00233,277157405.61253,  -0.00115,  -0.00257,   0.00057,-59307960.51708,   0.00000
-391720565.17520,-436720806.03411,5093717.04167,  -0.00208,  -0.00379,   0.00064,416143461.44174,   0.00233,277157405.61253,  -0.00115,  -0.00257,   0.00057,-61013944.17080,   0.00000
-390070650.86135,-434937197.00607,5081562.97675,  -0.00207,  -0.00378,   0.00064,414423345.54147,   0.00233,277157405.61253,  -0.00115,  -0.00257,   0.00057,-62734060.07106,   0.00000
-388390351.38519,-433123202.81572,5069408.91182,  -0.00207,  -0.00378,   0.00064,412672991.18300,   0.00233,277157405.61253,  -0.00115,  -0.00257,   0.00057,-64484414.42953,   0.00000
-386679666.74672,-431278823.46304,5051177.81443,  -0.00206,  -0.00377,   0.00064,410892175.27637,   0.00233,277157405.61253,  -0.00115,  -0.00257,   0.00057,-66265230.33616,   0.00000
-384947712.49462,-429425328.56167,5032946.71704,  -0.00206,  -0.00377,   0.00064,409097235.27059,   0.00233,277157405.61253,  -0.00115,  -0.00257,   0.00057,-68060170.34194,   0.00000
-383194488.62889,-427562718.11161,5020792.65211,  -0.00205,  -0.00376,   0.00064,407288401.48911,   0.00233,277157405.61253,  -0.00115,  -0.00257,   0.00057,-69869004.12342,   0.00000
-381401764.05216,-425648452.88560,5002561.55472,  -0.00205,  -0.00376,   0.00064,405432999.56428,   0.00233,277157405.61253,  -0.00115,  -0.00257,   0.00057,-71724406.04825,   0.00000
-379609039.47543,-423734187.65960,4984330.45733,  -0.00205,  -0.00375,   0.00064,403577610.03673,   0.00233,277157405.61253,  -0.00115,  -0.00257,   0.00057,-73579795.57581,   0.00000
-377773775.67145,-421801691.33620,4960022.32748,  -0.00204,  -0.00375,   0.00064,401693764.38144,   0.00233,277157405.61253,  -0.00115,  -0.00257,   0.00057,-75463641.23110,   0.00000
-375920280.77008,-419826655.78556,4941791.23009,  -0.00204,  -0.00374,   0.00064,399777923.33539,   0.00233,277157405.61253,  -0.00115,  -0.00257,   0.00057,-77379482.27714,   0.00000
-374033362.19016,-417854658.75115,4917483.10023,  -0.00203,  -0.00374,   0.00064,397849762.94064,   0.00233,277157405.61253,  -0.00115,  -0.00257,   0.00057,-79307642.67189,   0.00000
-372128212.51285,-415840122.48950,4893174.97038,  -0.00203,  -0.00373,   0.00064,395889381.05337,   0.00233,277157405.61253,  -0.00115,  -0.00257,   0.00057,-81268024.55916,   0.00000
-370201793.22192,-413816470.67915,4868866.84052,  -0.00202,  -0.00373,   0.00064,393914911.10748,   0.00233,277157405.61253,  -0.00115,  -0.00257,   0.00057,-83242494.50505,   0.00000
-368232834.70374,-411774587.77141,4844558.71067,  -0.00202,  -0.00372,   0.00064,391912257.04428,   0.00233,277157405.61253,  -0.00115,  -0.00257,   0.00057,-85245148.56825,   0.00000
-366245645.08817,-409690165.63643,4814173.54835,  -0.00201,  -0.00372,   0.00064,389877152.66007,   0.00233,277157405.61253,  -0.00115,  -0.00257,   0.00057,-87280252.95246,   0.00000
-364246301.40768,-407617897.56637,4783788.38603,  -0.00201,  -0.00371,   0.00064,387844119.23277,   0.00233,277157405.61253,  -0.00115,  -0.00257,   0.00057,-89313286.37976,   0.00000
-362207457.01617,-405493974.72038,4753403.22372,  -0.00200,  -0.00370,   0.00063,385764758.05914,   0.00233,277157405.61253,  -0.00115,  -0.00257,   0.00057,-91392647.55339,   0.00000
-360147343.01104,-403360936.32569,4723018.06140,  -0.00200,  -0.00370,   0.00063,383671350.03559,   0.00233,277157405.61253,  -0.00115,  -0.00257,   0.00057,-93486055.57695,   0.00000
-358065959.39229,-401218782.38230,4692632.89908,  -0.00199,  -0.00369,   0.00063,381563909.17186,   0.00233,277157405.61253,  -0.00115,  -0.00257,   0.00057,-95593496.44068,   0.00000
-355954190.61122,-399046243.27660,4656170.70430,  -0.00199,  -0.00369,   0.00063,379426076.22799,   0.00233,277157405.61253,  -0.00115,  -0.00257,   0.00057,-97731329.38454,   0.00000
-353812036.66784,-396843319.00858,4619708.50952,  -0.00198,  -0.00368,   0.00063,377258080.51846,   0.00233,277157405.61253,  -0.00115,  -0.00257,   0.00057,-99899325.09407,   0.00000
-351648613.11083,-394631279.19186,4583246.31474,  -0.00198,  -0.00368,   0.00063,375076085.67029,   0.00233,277157405.61253,  -0.00115,  -0.00257,   0.00057,-102081319.94224,   0.00000
-349463919.94020,-392410123.82645,4546784.11996,  -0.00197,  -0.00367,   0.00063,372880109.77035,   0.00233,277157405.61253,  -0.00115,  -0.00257,   0.00057,-104277295.84218,   0.00000
-347260995.67218,-390146429.23379,4504244.89271,  -0.00196,  -0.00366,   0.00063,370651672.80291,   0.00233,277157405.61253,  -0.00115,  -0.00257,   0.00057,-106505732.80962,   0.00000
-345024647.72560,-387885773.15737,4467782.69793,  -0.00196,  -0.00366,   0.00063,368411606.17084,   0.00233,277157405.61253,  -0.00115,  -0.00257,   0.00057,-108745799.44169,   0.00000
-342748799.06802,-385573462.30500,4425243.47069,  -0.00195,  -0.00365,   0.00063,366125035.03342,   0.00233,277157405.61253,  -0.00115,  -0.00257,   0.00057,-111032370.57911,   0.00000
-340472950.41044,-383261151.45264,4376627.21098,  -0.00195,  -0.00365,   0.00063,363838356.63443,   0.00233,277157405.61253,  -0.00115,  -0.00257,   0.00057,-113319048.97811,   0.00000
-338154562.52561,-380930609.50288,4334087.98374,  -0.00194,  -0.00364,   0.00063,361523950.46527,   0.00233,277157405.61253,  -0.00115,  -0.00257,   0.00057,-115633455.14726,   0.00000
-335827059.09209,-378578797.93950,4285471.72403,  -0.00193,  -0.00363,   0.00063,359193278.50728,   0.00233,277157405.61253,  -0.00115,  -0.00257,   0.00057,-117964127.10525,   0.00000
-333457016.43132,-376208755.27874,4236855.46432,  -0.00193,  -0.00363,   0.00063,356834713.97517,   0.00233,277157405.61253,  -0.00115,  -0.00257,   0.00057,-120322691.63736,   0.00000
-331077858.22185,-373817443.00435,4188239.20461,  -0.00192,  -0.00362,   0.00063,354460117.00350,   0.00233,277157405.61253,  -0.00115,  -0.00257,   0.00057,-122697288.60903,   0.00000
-328668314.85007,-371395745.56764,4139622.94490,  -0.00192,  -0.00362,   0.00063,352055473.76558,   0.00233,277157405.61253,  -0.00115,  -0.00257,   0.00057,-125101931.84696,   0.00000
-326216232.25105,-368955817.03354,4084929.65273,  -0.00191,  -0.00361,   0.00063,349622808.97844,   0.00233,277157405.61253,  -0.00115,  -0.00257,   0.00057,-127534596.63410,   0.00000
-323764149.65202,-366515888.49944,4030236.36056,  -0.00190,  -0.00360,   0.00063,347190357.82092,   0.00233,277157405.61253,  -0.00115,  -0.00257,   0.00057,-129967047.79161,   0.00000
-321281681.89068,-364045574.80303,3975543.06839,  -0.00190,  -0.00360,   0.00062,344727921.58840,   0.00233,277157405.61253,  -0.00115,  -0.00257,   0.00057,-132429484.02413,   0.00000
-318768828.96702,-361544875.94429,3914772.74375,  -0.00189,  -0.00359,   0.00062,342235303.92947,   0.00233,277157405.61253,  -0.00115,  -0.00257,   0.00057,-134922101.68306,   0.00000
-316234706.42974,-359035061.53686,3854002.41912,  -0.00188,  -0.00358,   0.00062,339728976.80994,   0.00233,277157405.61253,  -0.00115,  -0.00257,   0.00057,-137428428.80259,   0.00000
-313679314.27883,-356516131.58074,3793232.09448,  -0.00188,  -0.00358,   0.00062,337208977.38541,   0.00233,277157405.61253,  -0.00115,  -0.00257,   0.00057,-139948428.22712,   0.00000
-311093536.96561,-353966816.46230,3732461.76985,  -0.00187,  -0.00357,   0.00062,334659081.46815,   0.00233,277157405.61253,  -0.00115,  -0.00257,   0.00057,-142498324.14438,   0.00000
-308498644.10369,-351396231.73024,3665614.41275,  -0.00186,  -0.00356,   0.00062,332093020.46741,   0.00233,277157405.61253,  -0.00115,  -0.00257,   0.00057,-145064385.14512,   0.00000
-305861212.01453,-348807415.90078,3604844.08811,  -0.00186,  -0.00356,   0.00062,329499651.16523,   0.00233,277157405.61253,  -0.00115,  -0.00257,   0.00057,-147657754.44730,   0.00000
-303202510.31175,-346209484.52263,3531919.69855,  -0.00185,  -0.00355,   0.00062,326892349.25591,   0.00233,277157405.61253,  -0.00115,  -0.00257,   0.00057,-150265056.35663,   0.00000
-300513423.44664,-343581167.98217,3465072.34145,  -0.00184,  -0.00354,   0.00062,324255460.74120,   0.00233,277157405.61253,  -0.00115,  -0.00257,   0.00057,-152901944.87133,   0.00000
-297824336.58154,-340952851.44170,3392147.95189,  -0.00184,  -0.00354,   0.00062,321618789.22637,   0.00233,277157405.61253,  -0.00115,  -0.00257,   0.00057,-155538616.38617,   0.00000
-295083594.94050,-338285034.19022,3319223.56233,  -0.00183,  -0.00353,   0.00062,318938520.86544,   0.00233,277157405.61253,  -0.00115,  -0.00257,   0.00057,-158218884.74709,   0.00000
-292342853.29946,-335617216.93874,3246299.17277,  -0.00182,  -0.00352,   0.00062,316258724.36920,   0.00233,277157405.61253,  -0.00115,  -0.00257,   0.00057,-160898681.24333,   0.00000
-289571726.49610,-332919014.52494,3167297.75074,  -0.00181,  -0.00352,   0.00061,313549065.57658,   0.00233,277157405.61253,  -0.00115,  -0.00257,   0.00057,-163608340.03595,   0.00000
-286758060.46550,-330202581.01375,3088296.32872,  -0.00181,  -0.00351,   0.00061,310812307.96176,   0.00233,277157405.61253,  -0.00115,  -0.00257,   0.00057,-166345097.65078,   0.00000
-283935278.88620,-327464877.88894,3009294.90669,  -0.00180,  -0.00350,   0.00061,308059775.02049,   0.00233,277157405.61253,  -0.00115,  -0.00257,   0.00057,-169097630.59204,   0.00000
-281091227.69327,-324718059.21544,2930293.48467,  -0.00179,  -0.00350,   0.00061,305294052.03414,   0.00233,277157405.61253,  -0.00115,  -0.00257,   0.00057,-171863353.57839,   0.00000
-278216791.33804,-321940855.37962,2845215.03018,  -0.00178,  -0.00349,   0.00061,302498646.78434,   0.00233,277157405.61253,  -0.00115,  -0.00257,   0.00057,-174658758.82820,   0.00000
-275321085.36917,-319154535.99510,2760136.57569,  -0.00178,  -0.00348,   0.00061,299690172.85555,   0.00233,277157405.61253,  -0.00115,  -0.00257,   0.00057,-177467232.75698,   0.00000
-272404109.78669,-316359101.06188,2668981.08873,  -0.00177,  -0.00347,   0.00061,296868541.50590,   0.00233,277157405.61253,  -0.00115,  -0.00257,   0.00057,-180288864.10664,   0.00000
-269456749.04189,-313533280.96635,2577825.60178,  -0.00176,  -0.00347,   0.00061,294017575.71040,   0.00233,277157405.61253,  -0.00115,  -0.00257,   0.00057,-183139829.90214,   0.00000
-266488118.68347,-310698345.32213,2486670.11483,  -0.00175,  -0.00346,   0.00061,291153760.48951,   0.00233,277157405.61253,  -0.00115,  -0.00257,   0.00057,-186003645.12303,   0.00000
-263510372.77635,-307842140.06428,2395514.62788,  -0.00174,  -0.00345,   0.00060,288274379.96894,   0.00233,277157405.61253,  -0.00115,  -0.00257,   0.00057,-188883025.64360,   0.00000
-260490087.64198,-304967703.70904,2298282.10846,  -0.00174,  -0.00345,   0.00060,285368478.46267,   0.00233,277157405.61253,  -0.00115,  -0.00257,   0.00057,-191788927.14986,   0.00000
-257439417.34530,-302062882.19148,2201049.58904,  -0.00173,  -0.00344,   0.00060,282433496.35937,   0.00233,277157405.61253,  -0.00115,  -0.00257,   0.00057,-194723909.25317,   0.00000
-254397862.59732,-299179330.28755,2103817.06963,  -0.00172,  -0.00343,   0.00060,279516082.08783,   0.00233,277157405.61253,  -0.00115,  -0.00257,   0.00057,-197641323.52471,   0.00000
-251316807.13832,-296244123.60767,2000507.51775,  -0.00171,  -0.00342,   0.00060,276553063.86785,   0.00233,277157405.61253,  -0.00115,  -0.00257,   0.00057,-200604341.74469,   0.00000
-248193212.45208,-293290685.83041,1897197.96587,  -0.00170,  -0.00342,   0.00060,273564138.15410,   0.00233,277157405.61253,  -0.00115,  -0.00257,   0.00057,-203593267.45843,   0.00000
-245069617.76583,-290337248.05315,1793888.41399,  -0.00169,  -0.00341,   0.00060,270576515.72582,   0.00233,277157405.61253,  -0.00115,  -0.00257,   0.00057,-206580889.88672,   0.00000
-241924753.46597,-287374694.72719,1684501.82965,  -0.00169,  -0.00340,   0.00060,267576646.91472,   0.00233,277157405.61253,  -0.00115,  -0.00257,   0.00057,-209580758.69782,   0.00000
-238749504.00379,-284381756.23891,1575115.24530,  -0.00168,  -0.00339,   0.00059,264548197.23053,   0.00233,277157405.61253,  -0.00115,  -0.00257,   0.00057,-212609208.38201,   0.00000
-235552984.92798,-281379702.20194,1459651.62850,  -0.00167,  -0.00339,   0.00059,261507759.95475,   0.00233,277157405.61253,  -0.00115,  -0.00257,   0.00057,-215649645.65779,   0.00000
-232326080.68986,-278347263.00265,1350265.04415,  -0.00166,  -0.00338,   0.00059,258439059.64983,   0.00233,277157405.61253,  -0.00115,  -0.00257,   0.00057,-218718345.96270,   0.00000
-229099176.45174,-275314823.80335,1228724.39488,  -0.00165,  -0.00337,   0.00059,255371914.56648,   0.00233,277157405.61253,  -0.00115,  -0.00257,   0.00057,-221785491.04606,   0.00000
-225820617.43767,-272242883.89305,1113260.77808,  -0.00164,  -0.00336,   0.00059,252263356.44575,   0.00233,277157405.61253,  -0.00115,  -0.00257,   0.00057,-224894049.16678,   0.00000
-222551173.97231,-269192213.59637,991720.12881,  -0.00163,  -0.00336,   0.00059,249173393.97241,   0.00233,277157405.61253,  -0.00115,  -0.00257,   0.00057,-227984011.64012,   0.00000
-219220960.18231,-266080772.97506,870179.47954,  -0.00162,  -0.00335,   0.00058,246025600.76056,   0.00233,277157405.61253,  -0.00115,  -0.00257,   0.00057,-231131804.85198,   0.00000
-215899861.94100,-262990601.96736,748638.83027,  -0.00161,  -0.00334,   0.00058,242896796.67105,   0.00233,277157405.61253,  -0.00115,  -0.00257,   0.00057,-234260608.94148,   0.00000
-212548378.53737,-259870045.79735,621021.14853,  -0.00161,  -0.00333,   0.00058,239740388.87664,   0.00233,277157405.61253,  -0.00115,  -0.00257,   0.00057,-237417016.73589,   0.00000
-209175625.52013,-256740374.07864,487326.43434,  -0.00160,  -0.00333,   0.00058,236573341.92755,   0.00233,277157405.61253,  -0.00115,  -0.00257,   0.00057,-240584063.68499,   0.00000
-205772487.34056,-253580317.19762,359708.75260,  -0.00159,  -0.00332,   0.00058,233379153.69022,   0.00233,277157405.61253,  -0.00115,  -0.00257,   0.00057,-243778251.92231,   0.00000
-202348079.54738,-250411144.76790,226014.03840,  -0.00158,  -0.00331,   0.00058,230174772.13299,   0.00233,277157405.61253,  -0.00115,  -0.00257,   0.00057,-246982633.47954,   0.00000
-198902402.14057,-247232856.78949,92319.32421,  -0.00157,  -0.00330,   0.00057,226960497.70532,   0.00233,277157405.61253,  -0.00115,  -0.00257,   0.00057,-250196907.90721,   0.00000
-195426339.57144,-244024183.64876,-47452.42245,  -0.00156,  -0.00330,   0.00057,223719713.43971,   0.00233,277157405.61253,  -0.00115,  -0.00257,   0.00057,-253437692.17282,   0.00000
-191950277.00232,-240815510.50802,-187224.16911,  -0.00155,  -0.00329,   0.00057,220482471.30487,   0.00233,277157405.61253,  -0.00115,  -0.00257,   0.00057,-256674934.30766,   0.00000
-188431675.20595,-237588606.26990,-333072.94824,  -0.00154,  -0.00328,   0.00057,217223285.52362,   0.00233,277157405.61253,  -0.00115,  -0.00257,   0.00057,-259934120.08891,   0.00000
-184903957.86088,-234340432.41816,-478921.72736,  -0.00153,  -0.00327,   0.00057,213951224.71176,   0.00233,277157405.61253,  -0.00115,  -0.00257,   0.00057,-263206180.90077,   0.00000
-181354970.90219,-231083143.01772,-624770.50649,  -0.00152,  -0.00326,   0.00057,210670688.02867,   0.00233,277157405.61253,  -0.00115,  -0.00257,   0.00057,-266486717.58386,   0.00000
-177784714.32988,-227816738.06858,-776696.31807,  -0.00151,  -0.00326,   0.00056,207382127.64843,   0.00233,277157405.61253,  -0.00115,  -0.00257,   0.00057,-269775277.96411,   0.00000
-174193188.14395,-224541217.57075,-928622.12966,  -0.00150,  -0.00325,   0.00056,204085917.30620,   0.00233,277157405.61253,  -0.00115,  -0.00257,   0.00057,-273071488.30633,   0.00000
-170592546.40932,-221244427.45930,-1080547.94125,  -0.00149,  -0.00324,   0.00056,200777902.33144,   0.00233,277157405.61253,  -0.00115,  -0.00257,   0.00057,-276379503.28109,   0.00000
-166949365.44745,-217929406.25045,-1238550.78530,  -0.00148,  -0.00323,   0.00056,197450608.17904,   0.00233,277157405.61253,  -0.00115,  -0.00257,   0.00057,-279706797.43350,   0.00000
-163275799.32326,-214583999.87929,-1396553.62935,  -0.00147,  -0.00322,   0.00055,194099862.52620,   0.00233,277157405.61253,  -0.00115,  -0.00257,   0.00057,-283057543.08633,   0.00000
-159602233.19907,-211238593.50813,-1554556.47340,  -0.00146,  -0.00322,   0.00055,190755641.86986,   0.00233,277157405.61253,  -0.00115,  -0.00257,   0.00057,-286401763.74267,   0.00000
-155907397.46125,-207884071.58828,-1718636.34992,  -0.00145,  -0.00321,   0.00055,187406244.18891,   0.00233,277157405.61253,  -0.00115,  -0.00257,   0.00057,-289751161.42362,   0.00000
-152191292.10982,-204520434.11973,-1888793.25890,  -0.00144,  -0.00320,   0.00055,184052359.00406,   0.00233,277157405.61253,  -0.00115,  -0.00257,   0.00057,-293105046.60847,   0.00000
-148444801.59607,-201126411.48886,-2058950.16787,  -0.00143,  -0.00319,   0.00055,180677170.93609,   0.00233,277157405.61253,  -0.00115,  -0.00257,   0.00057,-296480234.67644,   0.00000
-144698311.08231,-197732388.85799,-2229107.07685,  -0.00142,  -0.00318,   0.00054,177310639.48511,   0.00233,277157405.61253,  -0.00115,  -0.00257,   0.00057,-299846766.12742,   0.00000
-140909281.34132,-194320135.12973,-2399263.98583,  -0.00141,  -0.00318,   0.00054,173929581.43084,   0.00233,277157405.61253,  -0.00115,  -0.00257,   0.00057,-303227824.18170,   0.00000
-137111136.05163,-190886611.78785,-2575497.92727,  -0.00140,  -0.00317,   0.00054,170541436.48584,   0.00233,277157405.61253,  -0.00115,  -0.00257,   0.00057,-306615969.12669,   0.00000
-133270451.53469,-187434857.34857,-2757808.90118,  -0.00139,  -0.00316,   0.00054,167141040.61888,   0.00233,277157405.61253,  -0.00115,  -0.00257,   0.00057,-310016364.99365,   0.00000
-129429767.01775,-183983102.90930,-2940119.87508,  -0.00138,  -0.00315,   0.00053,163752525.22111,   0.00233,277157405.61253,  -0.00115,  -0.00257,   0.00057,-313404880.39143,   0.00000
-125589082.50082,-180531348.47003,-3122430.84899,  -0.00136,  -0.00314,   0.00053,160376643.34322,   0.00233,277157405.61253,  -0.00115,  -0.00257,   0.00057,-316780762.26932,   0.00000
-121696743.20794,-177040093.31974,-3304741.82289,  -0.00135,  -0.00313,   0.00053,156974052.41437,   0.00233,277157405.61253,  -0.00115,  -0.00257,   0.00057,-320183353.19817,   0.00000
-117792249.85014,-173560992.23439,-3493129.82926,  -0.00134,  -0.00313,   0.00053,153593288.44921,   0.00233,277157405.61253,  -0.00115,  -0.00257,   0.00057,-323564117.16332,   0.00000
-113869525.39494,-170039351.92178,-3687594.86809,  -0.00133,  -0.00312,   0.00053,150193690.88476,   0.00233,277157405.61253,  -0.00115,  -0.00257,   0.00057,-326963714.72778,   0.00000
-109934646.87482,-166529865.67411,-3882059.90693,  -0.00132,  -0.00311,   0.00052,146818363.75364,   0.00233,277157405.61253,  -0.00115,  -0.00257,   0.00057,-330339041.85889,   0.00000
-105978498.74108,-163011263.87774,-4076524.94576,  -0.00131,  -0.00310,   0.00052,143451314.00472,   0.00233,277157405.61253,  -0.00115,  -0.00257,   0.00057,-333706091.60781,   0.00000
-101991965.44502,-159462276.91905,-4277067.01705,  -0.00130,  -0.00309,   0.00052,140077077.51463,   0.00233,277157405.61253,  -0.00115,  -0.00257,   0.00057,-337080328.09791,   0.00000
-98005432.14895,-155913289.96036,-4477609.08835,  -0.00129,  -0.00308,   0.00051,136725331.61810,   0.00233,277157405.61253,  -0.00115,  -0.00257,   0.00057,-340432073.99443,   0.00000
-93967244.07695,-152324802.29066,-4684228.19211,  -0.00128,  -0.00308,   0.00051,133360310.65408,   0.00233,277157405.61253,  -0.00115,  -0.00257,   0.00057,-343797094.95845,   0.00000
-89938171.55365,-148757584.23458,-4890847.29587,  -0.00126,  -0.00307,   0.00051,130040261.46060,   0.00233,277157405.61253,  -0.00115,  -0.00257,   0.00057,-347117144.15194,   0.00000
-85878713.86803,-145159981.01618,-5097466.39963,  -0.00125,  -0.00306,   0.00051,126721638.24917,   0.00233,277157405.61253,  -0.00115,  -0.00257,   0.00057,-350435767.36336,   0.00000
-81819256.18240,-141562377.79779,-5310162.53585,  -0.00124,  -0.00305,   0.00050,123435661.43400,   0.00233,277157405.61253,  -0.00115,  -0.00257,   0.00057,-353721744.17853,   0.00000
-77717259.26954,-137946543.48200,-5522858.67207,  -0.00123,  -0.00304,   0.00050,120166134.43732,   0.00233,277157405.61253,  -0.00115,  -0.00257,   0.00057,-356991271.17521,   0.00000
-73606146.80797,-134309439.55259,-5741631.84076,  -0.00122,  -0.00303,   0.00050,116917873.24455,   0.00233,277157405.61253,  -0.00115,  -0.00257,   0.00057,-360239532.36799,   0.00000
-69473764.73279,-130663220.07449,-5960405.00945,  -0.00121,  -0.00303,   0.00050,113703098.19582,   0.00233,277157405.61253,  -0.00115,  -0.00257,   0.00057,-363454307.41672,   0.00000
-65320113.04398,-127007885.04769,-6185255.21060,  -0.00119,  -0.00302,   0.00049,110527475.17986,   0.00233,277157405.61253,  -0.00115,  -0.00257,   0.00057,-366629930.43268,   0.00000
-61145191.74155,-123343434.47219,-6410105.41175,  -0.00118,  -0.00301,   0.00049,107395287.15829,   0.00233,277157405.61253,  -0.00115,  -0.00257,   0.00057,-369762118.45424,   0.00000
-56970270.43912,-119678983.89670,-6641032.64536,  -0.00117,  -0.00300,   0.00049,104320835.72215,   0.00233,277157405.61253,  -0.00115,  -0.00257,   0.00057,-372836569.89038,   0.00000
-52743694.36075,-115975032.61019,-6871959.87897,  -0.00116,  -0.00299,   0.00048,101275985.84077,   0.00233,277157405.61253,  -0.00115,  -0.00257,   0.00057,-375881419.77177,   0.00000
-48526233.83108,-112292350.93730,-7102887.11259,  -0.00115,  -0.00298,   0.00048,98318846.54446,   0.00233,277157405.61253,  -0.00115,  -0.00257,   0.00057,-378838559.06808,   0.00000
-44299657.75271,-108588399.65080,-7339891.37866,  -0.00113,  -0.00297,   0.00048,95420612.50922,   0.00233,277157405.61253,  -0.00115,  -0.00257,   0.00057,-381736793.10331,   0.00000
-40030542.44709,-104866217.26690,-7576895.64474,  -0.00112,  -0.00297,   0.00047,92594515.67853,   0.00233,277157405.61253,  -0.00115,  -0.00257,   0.00057,-384562889.93400,   0.00000
-35752311.59278,-101122765.26938,-7819976.94328,  -0.00111,  -0.00296,   0.00047,89845005.12048,   0.00233,277157405.61253,  -0.00115,  -0.00257,   0.00057,-387312400.49206,   0.00000
-31461926.67355,-97391467.33678,-8063058.24182,  -0.00110,  -0.00295,   0.00047,87211617.69327,   0.00233,277157405.61253,  -0.00115,  -0.00257,   0.00057,-389945787.91926,   0.00000
-27141156.59199,-93629784.24187,-8312216.57282,  -0.00109,  -0.00294,   0.00047,84671347.42998,   0.00233,277157405.61253,  -0.00115,  -0.00257,   0.00057,-392486058.18256,   0.00000
-22820386.51044,-89868101.14696,-8561374.90383,  -0.00107,  -0.00293,   0.00046,82256381.28343,   0.00233,277157405.61253,  -0.00115,  -0.00257,   0.00057,-394901024.32910,   0.00000
-18478346.81526,-86097302.50336,-8816610.26729,  -0.00106,  -0.00292,   0.00046,79977852.14470,   0.00233,277157405.61253,  -0.00115,  -0.00257,   0.00057,-397179553.46783,   0.00000
-14115037.50647,-82317388.31105,-9071845.63076,  -0.00105,  -0.00291,   0.00046,77848370.74828,   0.00233,277157405.61253,  -0.00115,  -0.00257,   0.00057,-399309034.86425,   0.00000
-9730458.58405,-78528358.57006,-9327080.99423,  -0.00104,  -0.00290,   0.00045,75883142.41545,   0.00233,277157405.61253,  -0.00115,  -0.00257,   0.00057,-401274263.19709,   0.00000
-5336764.11293,-74718059.21544,-9588393.39016,  -0.00102,  -0.00290,   0.00045,74083254.72415,   0.00233,277157405.61253,  -0.00115,  -0.00257,   0.00057,-403074150.88838,   0.00000
-921800.02819,-70898644.31212,-9855782.81855,  -0.00101,  -0.00289,   0.00045,72481187.02921,   0.00233,277157405.61253,  -0.00115,  -0.00257,   0.00057,-404676218.58333,   0.00000
3505318.12147,-67091383.47374,-10123172.24695,  -0.00100,  -0.00288,   0.00044,71106634.59103,   0.00233,277157405.61253,  -0.00115,  -0.00257,   0.00057,-406050771.02151,   0.00000
7962821.43346,-63253737.47303,-10390561.67534,  -0.00099,  -0.00287,   0.00044,69942915.02198,   0.00233,277157405.61253,  -0.00115,  -0.00257,   0.00057,-407214490.59055,   0.00000
12429440.29413,-59394821.85870,-10664028.13620,  -0.00097,  -0.00286,   0.00043,69004671.79833,   0.00233,277157405.61253,  -0.00115,  -0.00257,   0.00057,-408152733.81420,   0.00000
16908213.21974,-55548060.30930,-10937494.59706,  -0.00096,  -0.00285,   0.00043,68334321.46619,   0.00233,277157405.61253,  -0.00115,  -0.00257,   0.00057,-408823084.14634,   0.00000
21386986.14534,-51701298.75990,-11217038.09038,  -0.00095,  -0.00284,   0.00043,67923694.39805,   0.00233,277157405.61253,  -0.00115,  -0.00257,   0.00057,-409233711.21449,   0.00000
25917413.84689,-47815036.49949,-11496581.58370,  -0.00093,  -0.00283,   0.00042,67777181.33230,   0.00233,277157405.61253,  -0.00115,  -0.00257,   0.00057,-409380224.28023,   0.00000
30447841.54843,-43928774.23908,-11782202.10949,  -0.00092,  -0.00283,   0.00042,67902912.14816,   0.00233,277157405.61253,  -0.00115,  -0.00257,   0.00057,-409254493.46437,   0.00000
34978269.24998,-40042511.97867,-12067822.63527,  -0.00091,  -0.00282,   0.00042,68296389.94991,   0.00233,277157405.61253,  -0.00115,  -0.00257,   0.00057,-408861015.66263,   0.00000
39551236.17877,-36138018.62086,-12359520.19352,  -0.00089,  -0.00281,   0.00041,68977048.36291,   0.00233,277157405.61253,  -0.00115,  -0.00257,   0.00057,-408180357.24963,   0.00000
44124203.10756,-32233525.26306,-12651217.75177,  -0.00088,  -0.00280,   0.00041,69916979.32655,   0.00233,277157405.61253,  -0.00115,  -0.00257,   0.00057,-407240426.28599,   0.00000
48718439.64997,-28319916.35656,-12942915.31002,  -0.00087,  -0.00279,   0.00040,71117953.64355,   0.00233,277157405.61253,  -0.00115,  -0.00257,   0.00057,-406039451.96898,   0.00000
53321791.74108,-24385037.83644,-13240689.90073,  -0.00085,  -0.00278,   0.00040,72553739.12499,   0.00233,277157405.61253,  -0.00115,  -0.00257,   0.00057,-404603666.48754,   0.00000
57937297.89711,-20462313.38124,-13544541.52390,  -0.00084,  -0.00277,   0.00040,74238343.98639,   0.00233,277157405.61253,  -0.00115,  -0.00257,   0.00057,-402919061.62614,   0.00000
62583189.21546,-16509203.76373,-13848393.14708,  -0.00083,  -0.00276,   0.00039,76142905.00435,   0.00233,277157405.61253,  -0.00115,  -0.00257,   0.00057,-401014500.60819,   0.00000
67229080.53381,-12556094.14622,-14152244.77025,  -0.00081,  -0.00275,   0.00039,78245750.87689,   0.00233,277157405.61253,  -0.00115,  -0.00257,   0.00057,-398911654.73564,   0.00000
71896241.46579,-8593868.98001,-14462173.42589,  -0.00080,  -0.00275,   0.00039,80549701.30836,   0.00233,277157405.61253,  -0.00115,  -0.00257,   0.00057,-396607704.30417,   0.00000
76584672.01138,-4622528.26511,-14778179.11400,  -0.00079,  -0.00274,   0.00038,83040823.09007,   0.00233,277157405.61253,  -0.00115,  -0.00257,   0.00057,-394116582.52247,   0.00000
81273102.55698,-651187.55021,-15094184.80210,  -0.00077,  -0.00273,   0.00038,85686454.71447,   0.00233,277157405.61253,  -0.00115,  -0.00257,   0.00057,-391470950.89807,   0.00000
85982802.71620,3329268.71339,-15410190.49020,  -0.00076,  -0.00272,   0.00037,88488917.10807,   0.00233,277157405.61253,  -0.00115,  -0.00257,   0.00057,-388668488.50447,   0.00000
90713772.48904,7318840.52568,-15732273.21077,  -0.00075,  -0.00271,   0.00037,91439310.87141,   0.00233,277157405.61253,  -0.00115,  -0.00257,   0.00057,-385718094.74113,   0.00000
95453857.81057,11329681.95159,-16054355.93133,  -0.00073,  -0.00270,   0.00036,94506961.89757,   0.00233,277157405.61253,  -0.00115,  -0.00257,   0.00057,-382650443.71497,   0.00000
100206097.19703,15328369.31258,-16382515.68436,  -0.00072,  -0.00269,   0.00036,97700487.28886,   0.00233,277157405.61253,  -0.00115,  -0.00257,   0.00057,-379456918.32367,   0.00000
104967452.13219,19348326.28719,-16710675.43739,  -0.00071,  -0.00268,   0.00036,100991679.08582,   0.00233,277157405.61253,  -0.00115,  -0.00257,   0.00057,-376165726.52672,   0.00000
109750076.68097,23377398.81050,-17044912.22288,  -0.00069,  -0.00267,   0.00035,104391081.48031,   0.00233,277157405.61253,  -0.00115,  -0.00257,   0.00057,-372766324.13223,   0.00000
114553970.84338,27415586.88250,-17385226.04084,  -0.00068,  -0.00266,   0.00035,107890687.98176,   0.00233,277157405.61253,  -0.00115,  -0.00257,   0.00057,-369266717.63077,   0.00000
119348749.45708,31432505.34088,-17719462.82633,  -0.00066,  -0.00266,   0.00034,111456871.80609,   0.00233,277157405.61253,  -0.00115,  -0.00257,   0.00057,-365700533.80645,   0.00000
124173913.23311,35479808.96157,-18065853.67675,  -0.00065,  -0.00265,   0.00034,115114882.00603,   0.00233,277157405.61253,  -0.00115,  -0.00257,   0.00057,-362042523.60651,   0.00000
129029462.17145,39557497.74459,-18406167.49471,  -0.00064,  -0.00264,   0.00033,118851487.50758,   0.00233,277157405.61253,  -0.00115,  -0.00257,   0.00057,-358305918.10495,   0.00000
133875895.56110,43613916.91398,-18758635.37759,  -0.00062,  -0.00263,   0.00033,122644756.01822,   0.00233,277157405.61253,  -0.00115,  -0.00257,   0.00057,-354512649.59432,   0.00000
138722328.95074,47670336.08337,-19105026.22801,  -0.00061,  -0.00262,   0.00032,126484827.27185,   0.00233,277157405.61253,  -0.00115,  -0.00257,   0.00057,-350672578.34068,   0.00000
143611301.56764,51744986.35015,-19463571.14336,  -0.00059,  -0.00261,   0.00032,130411182.48042,   0.00233,277157405.61253,  -0.00115,  -0.00257,   0.00057,-346746223.13212,   0.00000
148488120.11960,55831790.68186,-19816039.02624,  -0.00058,  -0.00260,   0.00032,134363608.29557,   0.00233,277157405.61253,  -0.00115,  -0.00257,   0.00057,-342793797.31697,   0.00000
153398362.35012,59915556.49734,-20174583.94159,  -0.00056,  -0.00259,   0.00031,138387227.54555,   0.00233,277157405.61253,  -0.00115,  -0.00257,   0.00057,-338770178.06698,   0.00000
158317720.12932,64020591.92644,-20539205.88940,  -0.00055,  -0.00258,   0.00031,142453920.54323,   0.00233,277157405.61253,  -0.00115,  -0.00257,   0.00057,-334703485.06930,   0.00000
163227962.35984,68104357.74191,-20903827.83721,  -0.00054,  -0.00257,   0.00030,146546735.72717,   0.00233,277157405.61253,  -0.00115,  -0.00257,   0.00057,-330610669.88537,   0.00000
168168589.75267,72218508.71971,-21274526.81748,  -0.00052,  -0.00257,   0.00030,150695452.11980,   0.00233,277157405.61253,  -0.00115,  -0.00257,   0.00057,-326461953.49274,   0.00000
173130486.75912,76341775.24620,-21645225.79776,  -0.00051,  -0.00256,   0.00029,154889285.56963,   0.00233,277157405.61253,  -0.00115,  -0.00257,   0.00057,-322268120.04290,   0.00000
178092383.76558,80465041.77269,-22022001.81050,  -0.00049,  -0.00255,   0.00029,159110699.49854,   0.00233,277157405.61253,  -0.00115,  -0.00257,   0.00057,-318046706.11399,   0.00000
183066434.83696,84576154.23425,-22398777.82323,  -0.00048,  -0.00254,   0.00028,163366171.97269,   0.00233,277157405.61253,  -0.00115,  -0.00257,   0.00057,-313791233.63985,   0.00000
188049601.45703,88708536.30943,-22775553.83597,  -0.00046,  -0.00253,   0.00028,167649723.17630,   0.00233,277157405.61253,  -0.00115,  -0.00257,   0.00057,-309507682.43623,   0.00000
193054037.69073,92850033.93332,-23158406.88117,  -0.00045,  -0.00252,   0.00027,171973404.18619,   0.00233,277157405.61253,  -0.00115,  -0.00257,   0.00057,-305184001.42634,   0.00000
198058473.92443,96991531.55720,-23547336.95884,  -0.00043,  -0.00251,   0.00027,176317760.86609,   0.00233,277157405.61253,  -0.00115,  -0.00257,   0.00057,-300839644.74644,   0.00000
203084179.77175,101142144.72977,-23936267.03650,  -0.00042,  -0.00250,   0.00026,180696935.91821,   0.00233,277157405.61253,  -0.00115,  -0.00257,   0.00057,-296460469.69432,   0.00000
208109885.61907,105292757.90235,-24325197.11417,  -0.00040,  -0.00249,   0.00026,185091791.28049,   0.00233,277157405.61253,  -0.00115,  -0.00257,   0.00057,-292065614.33204,   0.00000
213165976.62871,109473756.23724,-24720204.22429,  -0.00039,  -0.00248,   0.00025,189529475.87093,   0.00233,277157405.61253,  -0.00115,  -0.00257,   0.00057,-287627929.74160,   0.00000
218234221.70328,113642600.50721,-25121288.36689,  -0.00037,  -0.00247,   0.00025,193993167.62733,   0.00233,277157405.61253,  -0.00115,  -0.00257,   0.00057,-283164237.98520,   0.00000
223302466.77784,117811444.77717,-25522372.50948,  -0.00036,  -0.00247,   0.00024,198469434.55275,   0.00233,277157405.61253,  -0.00115,  -0.00257,   0.00057,-278687971.05979,   0.00000
228370711.85241,121980289.04714,-25923456.65207,  -0.00034,  -0.00246,   0.00024,202957444.60531,   0.00233,277157405.61253,  -0.00115,  -0.00257,   0.00057,-274199961.00723,   0.00000
233469342.08929,126179518.47942,-26330617.82712,  -0.00033,  -0.00245,   0.00023,207485083.12706,   0.00233,277157405.61253,  -0.00115,  -0.00257,   0.00057,-269672322.48547,   0.00000
238558856.77748,130357478.29808,-26743856.03464,  -0.00031,  -0.00244,   0.00023,212016911.60573,   0.00233,277157405.61253,  -0.00115,  -0.00257,   0.00057,-265140494.00681,   0.00000
243669641.07929,134544553.66544,-27157094.24216,  -0.00030,  -0.00243,   0.00022,216576155.44409,   0.00233,277157405.61253,  -0.00115,  -0.00257,   0.00057,-260581250.16844,   0.00000
248789540.92979,138752898.64642,-27570332.44968,  -0.00028,  -0.00242,   0.00021,221153119.57121,   0.00233,277157405.61253,  -0.00115,  -0.00257,   0.00057,-256004286.04133,   0.00000
253921594.84522,142949089.56247,-27989647.68966,  -0.00027,  -0.00241,   0.00021,225749903.35652,   0.00233,277157405.61253,  -0.00115,  -0.00257,   0.00057,-251407502.25601,   0.00000
259062764.30935,147166550.09214,-28415039.96211,  -0.00025,  -0.00240,   0.00020,230365751.63211,   0.00233,277157405.61253,  -0.00115,  -0.00257,   0.00057,-246791653.98042,   0.00000
264216087.83840,151371856.55689,-28834355.20209,  -0.00024,  -0.00239,   0.00020,234995660.38881,   0.00233,277157405.61253,  -0.00115,  -0.00257,   0.00057,-242161745.22372,   0.00000
269378526.91615,155598432.63526,-29265824.50700,  -0.00022,  -0.00238,   0.00019,239646097.15274,   0.00233,277157405.61253,  -0.00115,  -0.00257,   0.00057,-237511308.45979,   0.00000
274553120.05883,159812854.64870,-29697293.81191,  -0.00021,  -0.00237,   0.00019,244311756.07193,   0.00233,277157405.61253,  -0.00115,  -0.00257,   0.00057,-232845649.54061,   0.00000
279736828.75020,164048546.27577,-30128763.11682,  -0.00019,  -0.00237,   0.00018,248992822.98692,   0.00233,277157405.61253,  -0.00115,  -0.00257,   0.00057,-228164582.62561,   0.00000
284941807.05520,168293353.45153,-30566309.45419,  -0.00018,  -0.00236,   0.00018,253699767.04154,   0.00233,277157405.61253,  -0.00115,  -0.00257,   0.00057,-223457638.57099,   0.00000
290137669.81150,172516891.01367,-31003855.79156,  -0.00016,  -0.00235,   0.00017,258402812.65626,   0.00233,277157405.61253,  -0.00115,  -0.00257,   0.00057,-218754592.95627,   0.00000
295342648.11649,176761698.18943,-31447479.16140,  -0.00015,  -0.00234,   0.00016,263122673.95885,   0.00233,277157405.61253,  -0.00115,  -0.00257,   0.00057,-214034731.65368,   0.00000
300559780.48641,180994351.30026,-31891102.53123,  -0.00013,  -0.00233,   0.00016,267855635.77145,   0.00233,277157405.61253,  -0.00115,  -0.00257,   0.00057,-209301769.84108,   0.00000
305786028.40503,185248274.02471,-32340802.93353,  -0.00012,  -0.00232,   0.00015,272604964.76974,   0.00233,277157405.61253,  -0.00115,  -0.00257,   0.00057,-204552440.84280,   0.00000
311033545.93727,189511312.29786,-32790503.33583,  -0.00010,  -0.00231,   0.00015,277376423.03374,   0.00233,277157405.61253,  -0.00115,  -0.00257,   0.00057,-199780982.57880,   0.00000
316271947.92081,193753080.95739,-33246280.77059,  -0.00008,  -0.00230,   0.00014,282144435.79005,   0.00233,277157405.61253,  -0.00115,  -0.00257,   0.00057,-195012969.82249,   0.00000
321519465.45305,198016119.23054,-33702058.20536,  -0.00007,  -0.00229,   0.00014,286926122.05249,   0.00233,277157405.61253,  -0.00115,  -0.00257,   0.00057,-190231283.56005,   0.00000
326788252.59891,202288273.05239,-34163912.67258,  -0.00005,  -0.00228,   0.00013,291731374.66927,   0.00233,277157405.61253,  -0.00115,  -0.00257,   0.00057,-185426030.94326,   0.00000
332078309.35839,206569542.42293,-34625767.13981,  -0.00004,  -0.00227,   0.00012,296557829.50457,   0.00233,277157405.61253,  -0.00115,  -0.00257,   0.00057,-180599576.10796,   0.00000
337337980.95556,210820426.63115,-35087621.60704,  -0.00002,  -0.00226,   0.00012,301360004.29103,   0.00233,277157405.61253,  -0.00115,  -0.00257,   0.00057,-175797401.32151,   0.00000
342628037.71504,215101696.00169,-35555553.10673,  -0.00001,  -0.00226,   0.00011,306195087.99326,   0.00233,277157405.61253,  -0.00115,  -0.00257,   0.00057,-170962317.61927,   0.00000
347939364.08815,219392080.92093,-36029561.63888,   0.00001,  -0.00225,   0.00010,311052942.54668,   0.00233,277157405.61253,  -0.00115,  -0.00257,   0.00057,-166104463.06586,   0.00000
353241574.91256,223661196.22654,-36503570.17103,   0.00003,  -0.00224,   0.00010,315903529.02112,   0.00233,277157405.61253,  -0.00115,  -0.00257,   0.00057,-161253876.59142,   0.00000
358552901.28566,227951581.14578,-36977578.70319,   0.00004,  -0.00223,   0.00009,320766939.65402,   0.00233,277157405.61253,  -0.00115,  -0.00257,   0.00057,-156390465.95852,   0.00000
363864227.65877,232241966.06502,-37457664.26781,   0.00006,  -0.00222,   0.00009,325635061.37462,   0.00233,277157405.61253,  -0.00115,  -0.00257,   0.00057,-151522344.23791,   0.00000
369196823.64550,236541466.53295,-37943826.86489,   0.00007,  -0.00221,   0.00008,330525345.27102,   0.00233,277157405.61253,  -0.00115,  -0.00257,   0.00057,-146632060.34151,   0.00000
374541573.69715,240828812.93595,-38429989.46197,   0.00009,  -0.00220,   0.00007,335425248.37759,   0.00233,277157405.61253,  -0.00115,  -0.00257,   0.00057,-141732157.23494,   0.00000
379874169.68388,245128313.40388,-38916152.05905,   0.00011,  -0.00219,   0.00007,340320086.06338,   0.00233,277157405.61253,  -0.00115,  -0.00257,   0.00057,-136837319.54915,   0.00000
385228035.28423,249436929.42051,-39408391.68859,   0.00012,  -0.00218,   0.00006,345236711.09274,   0.00233,277157405.61253,  -0.00115,  -0.00257,   0.00057,-131920694.51980,   0.00000
390594054.94951,253733391.37221,-39900631.31814,   0.00014,  -0.00217,   0.00005,350162500.25629,   0.00233,277157405.61253,  -0.00115,  -0.00257,   0.00057,-126994905.35624,   0.00000
395947920.54986,258042007.38884,-40398947.98014,   0.00015,  -0.00216,   0.00005,355085147.70207,   0.00233,277157405.61253,  -0.00115,  -0.00257,   0.00057,-122072257.91046,   0.00000
401323055.76383,262359738.95416,-40897264.64215,   0.00017,  -0.00215,   0.00004,360027185.54417,   0.00233,277157405.61253,  -0.00115,  -0.00257,   0.00057,-117130220.06836,   0.00000
406710345.04273,266665316.45455,-41401658.33662,   0.00019,  -0.00215,   0.00003,364980060.87660,   0.00233,277157405.61253,  -0.00115,  -0.00257,   0.00057,-112177344.73593,   0.00000
412085480.25670,270983048.01988,-41906052.03109,   0.00020,  -0.00214,   0.00003,369927597.58950,   0.00233,277157405.61253,  -0.00115,  -0.00257,   0.00057,-107229808.02303,   0.00000
417481885.08429,275309895.13389,-42416522.75803,   0.00022,  -0.00213,   0.00002,374896322.91870,   0.00233,277157405.61253,  -0.00115,  -0.00257,   0.00057,-102261082.69384,   0.00000
422890443.97682,279624588.18298,-42926993.48496,   0.00023,  -0.00212,   0.00002,379873468.39290,   0.00233,277157405.61253,  -0.00115,  -0.00257,   0.00057,-97283937.21964,   0.00000
428286848.80441,283951435.29700,-43437464.21190,   0.00025,  -0.00211,   0.00001,384845185.65350,   0.00233,277157405.61253,  -0.00115,  -0.00257,   0.00057,-92312219.95904,   0.00000
433704523.24563,288287397.95971,-43954011.97129,   0.00027,  -0.00210,   0.00000,389837856.44980,   0.00233,277157405.61253,  -0.00115,  -0.00257,   0.00057,-87319549.16273,   0.00000
439113082.13815,292602091.00880,-44476636.76316,   0.00028,  -0.00209,  -0.00001,394823239.18170,   0.00233,277157405.61253,  -0.00115,  -0.00257,   0.00057,-82334166.43083,   0.00000
444552026.19299,296947169.22021,-44999261.55502,   0.00030,  -0.00208,  -0.00001,399838042.42788,   0.00233,277157405.61253,  -0.00115,  -0.00257,   0.00057,-77319363.18465,   0.00000
449960585.08551,301261862.26930,-45521886.34688,   0.00031,  -0.00207,  -0.00002,404825888.97889,   0.00233,277157405.61253,  -0.00115,  -0.00257,   0.00057,-72331516.63364,   0.00000
455399529.14035,305606940.48071,-46050588.17120,   0.00033,  -0.00206,  -0.00003,409845149.32720,   0.00233,277157405.61253,  -0.00115,  -0.00257,   0.00057,-67312256.28533,   0.00000
460859742.80881,309961134.24081,-46579289.99553,   0.00035,  -0.00205,  -0.00003,414882982.83271,   0.00233,277157405.61253,  -0.00115,  -0.00257,   0.00057,-62274422.77982,   0.00000
466289571.31495,314284942.83860,-47114068.85232,   0.00036,  -0.00205,  -0.00004,419895707.04718,   0.00233,277157405.61253,  -0.00115,  -0.00257,   0.00057,-57261698.56535,   0.00000
471749784.98342,318639136.59870,-47648847.70911,   0.00038,  -0.00204,  -0.00005,424937704.71746,   0.00233,277157405.61253,  -0.00115,  -0.00257,   0.00057,-52219700.89507,   0.00000
477200883.10318,322972060.74518,-48189703.59836,   0.00040,  -0.00203,  -0.00005,429971888.44142,   0.00233,277157405.61253,  -0.00115,  -0.00257,   0.00057,-47185517.17111,   0.00000
482682366.38526,327335370.05398,-48730559.48761,   0.00041,  -0.00202,  -0.00006,435035288.88164,   0.00233,277157405.61253,  -0.00115,  -0.00257,   0.00057,-42122116.73090,   0.00000
488133464.50503,331668294.20046,-49271415.37686,   0.00043,  -0.00201,  -0.00007,440071312.57638,   0.00233,277157405.61253,  -0.00115,  -0.00257,   0.00057,-37086093.03615,   0.00000
493614947.78711,336031603.50926,-49818348.29858,   0.00045,  -0.00200,  -0.00007,445138558.53704,   0.00233,277157405.61253,  -0.00115,  -0.00257,   0.00057,-32018847.07550,   0.00000
499087315.52050,340373643.20444,-50365281.22029,   0.00046,  -0.00199,  -0.00008,450195715.54834,   0.00233,277157405.61253,  -0.00115,  -0.00257,   0.00057,-26961690.06419,   0.00000
504580952.86751,344724798.44831,-50918291.17447,   0.00048,  -0.00198,  -0.00009,455273076.85848,   0.00233,277157405.61253,  -0.00115,  -0.00257,   0.00057,-21884328.75405,   0.00000
510062436.14960,349088107.75711,-51471301.12865,   0.00049,  -0.00197,  -0.00010,460344815.97438,   0.00233,277157405.61253,  -0.00115,  -0.00257,   0.00057,-16812589.63815,   0.00000
515556073.49661,353439263.00098,-52030388.11530,   0.00051,  -0.00196,  -0.00010,465425722.06516,   0.00233,277157405.61253,  -0.00115,  -0.00257,   0.00057,-11731683.54737,   0.00000
521049710.84362,357790418.24485,-52589475.10194,   0.00053,  -0.00195,  -0.00011,470507331.78500,   0.00233,277157405.61253,  -0.00115,  -0.00257,   0.00057,-6650073.82754,   0.00000
526552463.73933,362162843.10234,-53154639.12104,   0.00054,  -0.00195,  -0.00012,475602703.59178,   0.00233,277157405.61253,  -0.00115,  -0.00257,   0.00057,-1554702.02075,   0.00000
528232947.36636,363491489.93694,-53326853.97208,   0.00055,  -0.00194,  -0.00012,477157404.77501,   0.00233,277157405.61253,  -0.00115,  -0.00257,   0.00057,  -0.83752,   0.00000
528131939.31159,364012681.78253,-53257384.92004,   0.00056,  -0.00194,  -0.00013,477157404.77501,   0.00235,277169677.78902,  -0.00113,  -0.00256,   0.00057,   0.00000,   2.00000
527985115.97733,364756602.21294,-53160366.63962,   0.00058,  -0.00193,  -0.00013,482255542.07553,   0.00236,277187257.13540,  -0.00111,  -0.00256,   0.00056,   0.00000,   2.00000
527835313.54563,365499306.89433,-53066385.45021,   0.00059,  -0.00192,  -0.00014,482304523.85295,   0.00238,277204928.83563,  -0.00109,  -0.00255,   0.00055,   0.00000,   2.00000
527689141.14060,366218948.76349,-52974761.86122,   0.00061,  -0.00191,  -0.00015,482311997.08838,   0.00240,277222549.50021,  -0.00108,  -0.00255,   0.00054,   0.00000,   2.00000
527541236.46362,366927625.02035,-52889789.56812,   0.00063,  -0.00190,  -0.00015,482332510.48236,   0.00241,277240164.59056,  -0.00106,  -0.00254,   0.00053,   0.00000,   2.00000
527395956.94967,367623688.00881,-52803436.10708,   0.00064,  -0.00189,  -0.00016,482368265.38853,   0.00243,277257826.81002,  -0.00104,  -0.00253,   0.00052,   0.00000,   2.00000
527247978.73529,368323573.52542,-52716508.80090,   0.00066,  -0.00188,  -0.00017,482397940.17690,   0.00245,277275514.91106,  -0.00102,  -0.00253,   0.00052,   0.00000,   2.00000
527099579.66485,369002954.07872,-52639838.92502,   0.00068,  -0.00187,  -0.00018,482389945.07804,   0.00246,277293099.61266,  -0.00100,  -0.00252,   0.00051,   0.00000,   2.00000
526953968.56839,369670057.09064,-52561716.00044,   0.00069,  -0.00186,  -0.00019,482425571.91991,   0.00248,277310731.51699,  -0.00098,  -0.00252,   0.00050,   0.00000,   2.00000
526806855.12126,370326892.25742,-52490117.48127,   0.00071,  -0.00185,  -0.00019,482445943.91479,   0.00250,277328358.21311,  -0.00096,  -0.00251,   0.00049,   0.00000,   2.00000
526662636.17105,370971695.61458,-52417027.25621,   0.00073,  -0.00184,  -0.00020,482481538.36745,   0.00251,277346032.10639,  -0.00095,  -0.00251,   0.00048,   0.00000,   2.00000
526514837.38311,371609872.85266,-52352607.87855,   0.00074,  -0.00184,  -0.00021,482484637.76739,   0.00253,277363641.75145,  -0.00093,  -0.00250,   0.00047,   0.00000,   2.00000
526370038.73430,372236234.05617,-52286625.56960,   0.00076,  -0.00183,  -0.00022,482520156.83154,   0.00255,277381298.67369,  -0.00091,  -0.00249,   0.00046,   0.00000,   2.00000
526226080.09408,372854301.04499,-52221297.18920,   0.00078,  -0.00182,  -0.00022,482538446.64456,   0.00256,277398943.79248,  -0.00089,  -0.00249,   0.00046,   0.00000,   2.00000
526080806.80766,373462752.80740,-52162368.45610,   0.00079,  -0.00181,  -0.00023,482558701.06299,   0.00258,277416584.09109,  -0.00087,  -0.00248,   0.00045,   0.00000,   2.00000
525936443.94691,374063158.19959,-52104015.86739,   0.00081,  -0.00180,  -0.00024,482576935.46530,   0.00260,277434212.81603,  -0.00085,  -0.00248,   0.00044,   0.00000,   2.00000
525793008.21351,374655629.83185,-52046236.55423,   0.00083,  -0.00179,  -0.00025,482595140.20914,   0.00261,277451830.04767,  -0.00083,  -0.00247,   0.00043,   0.00000,   2.00000
525648350.72466,375238837.91672,-51994778.32381,   0.00084,  -0.00178,  -0.00026,482615304.78033,   0.00263,277469442.72981,  -0.00082,  -0.00246,   0.00042,   0.00000,   2.00000
525504776.34053,375809413.54920,-51947397.87082,   0.00086,  -0.00177,  -0.00026,482652644.12024,   0.00265,277487109.66027,  -0.00080,  -0.00246,   0.00041,   0.00000,   2.00000
525362121.89519,376377403.92659,-51896887.34161,   0.00088,  -0.00176,  -0.00027,482651646.48174,   0.00266,277504699.97237,  -0.00078,  -0.00245,   0.00040,   0.00000,   2.00000
525218451.83400,376931491.29868,-51856208.48964,   0.00089,  -0.00175,  -0.00028,482690895.52931,   0.00268,277522351.36058,  -0.00076,  -0.00244,   0.00040,   0.00000,   2.00000
525078020.19248,377479711.87930,-51810156.19631,   0.00091,  -0.00174,  -0.00029,482707045.87681,   0.00270,277539984.97360,  -0.00074,  -0.00244,   0.00039,   0.00000,   2.00000
524936499.32968,378019257.48250,-51770305.06827,   0.00093,  -0.00174,  -0.00029,482727124.83020,   0.00271,277557614.44525,  -0.00072,  -0.00243,   0.00038,   0.00000,   2.00000
524796082.48368,378551694.04725,-51730829.24579,   0.00095,  -0.00173,  -0.00030,482745205.36063,   0.00273,277575233.11629,  -0.00070,  -0.00243,   0.00037,   0.00000,   2.00000
524654631.00898,379075670.86326,-51697480.47386,   0.00096,  -0.00172,  -0.00031,482765237.90892,   0.00275,277592847.85305,  -0.00069,  -0.00242,   0.00036,   0.00000,   2.00000
524514331.34146,379592753.48951,-51664432.86201,   0.00098,  -0.00171,  -0.00032,482783276.45477,   0.00276,277610452.01563,  -0.00067,  -0.00241,   0.00035,   0.00000,   2.00000
524378842.10243,380090605.96697,-51633147.06029,   0.00100,  -0.00170,  -0.00033,482789668.00050,   0.00278,277628006.46957,  -0.00065,  -0.00241,   0.00034,   0.00000,   2.00000
524241071.36994,380589256.11587,-51604289.41987,   0.00101,  -0.00169,  -0.00034,482838340.12832,   0.00280,277645654.71011,  -0.00063,  -0.00240,   0.00034,   0.00000,   2.00000
524102106.49892,381085007.96930,-51577836.92155,   0.00103,  -0.00168,  -0.00034,482839236.39261,   0.00281,277663234.59967,  -0.00061,  -0.00239,   0.00033,   0.00000,   2.00000
523964608.00051,381569124.29002,-51555220.15740,   0.00105,  -0.00167,  -0.00035,482876281.03268,   0.00283,277680868.98190,  -0.00059,  -0.00239,   0.00032,   0.00000,   2.00000
523825928.15991,382050572.29432,-51534933.06204,   0.00106,  -0.00166,  -0.00036,482877154.96544,   0.00285,277698435.35859,  -0.00058,  -0.00238,   0.00031,   0.00000,   2.00000
523694641.43035,382509709.38414,-51514128.39195,   0.00108,  -0.00165,  -0.00037,482900471.22088,   0.00286,277716010.20732,  -0.00056,  -0.00237,   0.00030,   0.00000,   2.00000
523560835.68554,382975132.56894,-51492025.79617,   0.00110,  -0.00165,  -0.00038,482930074.92657,   0.00288,277733614.61922,  -0.00054,  -0.00237,   0.00029,   0.00000,   2.00000
523426135.38400,383432995.70633,-51475864.77468,   0.00111,  -0.00164,  -0.00039,482949966.01472,   0.00290,277751215.84459,  -0.00052,  -0.00236,   0.00028,   0.00000,   2.00000
523290572.83131,383883399.11615,-51465573.44631,   0.00113,  -0.00163,  -0.00039,482969845.03751,   0.00291,277768814.02792,  -0.00050,  -0.00235,   0.00028,   0.00000,   2.00000
523158438.32416,384329377.14155,-51449571.17803,   0.00115,  -0.00162,  -0.00040,482985778.69857,   0.00293,277786395.89206,  -0.00048,  -0.00235,   0.00027,   0.00000,   2.00000
523029237.55448,384755880.72894,-51440919.03935,   0.00116,  -0.00161,  -0.00041,482993830.38176,   0.00295,277803935.31752,  -0.00046,  -0.00234,   0.00026,   0.00000,   2.00000
522895383.57190,385187525.93430,-51436575.26040,   0.00118,  -0.00160,  -0.00042,483025398.01382,   0.00296,277821511.65391,  -0.00045,  -0.00233,   0.00025,   0.00000,   2.00000
522764982.15906,385615009.72781,-51426452.59178,   0.00120,  -0.00159,  -0.00043,483041284.89695,   0.00298,277839071.96570,  -0.00043,  -0.00233,   0.00024,   0.00000,   2.00000
522633750.89085,386035447.15225,-51422135.83976,   0.00122,  -0.00158,  -0.00044,483061074.88632,   0.00300,277856629.61733,  -0.00041,  -0.00232,   0.00023,   0.00000,   2.00000
522505559.33324,386436844.67644,-51425038.64324,   0.00123,  -0.00157,  -0.00044,483069011.03154,   0.00301,277874145.12753,  -0.00039,  -0.00231,   0.00022,   0.00000,   2.00000
522374841.49431,386845105.51963,-51426350.82539,   0.00125,  -0.00156,  -0.00045,483098618.39670,   0.00303,277891691.37962,  -0.00037,  -0.00231,   0.00022,   0.00000,   2.00000
522245469.12854,387248055.12787,-51427576.29172,   0.00127,  -0.00155,  -0.00046,483116409.25220,   0.00305,277909228.63653,  -0.00035,  -0.00230,   0.00021,   0.00000,   2.00000
522120010.33762,387641912.08242,-51426587.15239,   0.00128,  -0.00155,  -0.00047,483151209.67003,   0.00306,277926814.11753,  -0.00034,  -0.00229,   0.00020,   0.00000,   2.00000
521995057.54351,388021031.77838,-51434923.28949,   0.00130,  -0.00154,  -0.00048,483142057.31165,   0.00308,277944300.51247,  -0.00032,  -0.00228,   0.00019,   0.00000,   2.00000
521867545.46404,388407234.68727,-51441600.47076,   0.00132,  -0.00153,  -0.00049,483171662.96478,   0.00310,277961818.07372,  -0.00030,  -0.00228,   0.00018,   0.00000,   2.00000
521741391.34497,388788430.51732,-51448130.94152,   0.00133,  -0.00152,  -0.00050,483189397.29026,   0.00311,277979326.96080,  -0.00028,  -0.00227,   0.00017,   0.00000,   2.00000
521617087.45004,389159300.33925,-51458143.17947,   0.00135,  -0.00151,  -0.00051,483226083.86169,   0.00313,277996890.84949,  -0.00026,  -0.00226,   0.00016,  -0.00000,   2.00000
521491513.55446,389529270.90887,-51470100.86484,   0.00137,  -0.00150,  -0.00051,483226848.04613,   0.00315,278014389.31605,  -0.00025,  -0.00226,   0.00015,  -0.00000,   2.00000
521367309.58504,389894456.55990,-51481850.42050,   0.00138,  -0.00149,  -0.00052,483244545.73760,   0.00316,278031879.36526,  -0.00023,  -0.00225,   0.00015,   0.00000,   2.00000
521248951.48369,390237622.78718,-51498524.93873,   0.00140,  -0.00148,  -0.00053,483269201.39026,   0.00318,278049384.65259,  -0.00021,  -0.00224,   0.00014,   0.00000,   2.00000
521125311.52272,390592170.55291,-51515563.72069,   0.00142,  -0.00147,  -0.00054,483281882.70992,   0.00320,278066864.95253,  -0.00019,  -0.00223,   0.00013,   0.00000,   2.00000
521003050.12768,390942143.93366,-51532334.93517,   0.00144,  -0.00146,  -0.00055,483299546.89220,   0.00321,278084337.08344,  -0.00017,  -0.00223,   0.00012,   0.00000,   2.00000
520880038.91639,391286104.46496,-51554596.97873,   0.00145,  -0.00145,  -0.00056,483319166.06392,   0.00323,278101807.75298,  -0.00015,  -0.00222,   0.00011,   0.00000,   2.00000
520761118.60594,391621666.30446,-51574398.53707,   0.00147,  -0.00145,  -0.00057,483353772.85203,   0.00325,278119327.06087,  -0.00014,  -0.00221,   0.00010,   0.00000,   2.00000
520640854.65174,391956879.94309,-51596032.91266,   0.00149,  -0.00144,  -0.00058,483354498.54613,   0.00327,278136781.83548,  -0.00012,  -0.00220,   0.00009,   0.00000,   2.00000
520521967.14239,392287784.06872,-51617347.52808,   0.00150,  -0.00143,  -0.00059,483372117.47487,   0.00328,278154228.73321,  -0.00010,  -0.00220,   0.00009,   0.00000,   2.00000
520402325.67041,392612927.84141,-51644100.39973,   0.00152,  -0.00142,  -0.00059,483391695.45194,   0.00330,278171674.45670,  -0.00008,  -0.00219,   0.00008,   0.00000,   2.00000
520284071.08484,392933897.17249,-51670471.33515,   0.00154,  -0.00141,  -0.00060,483409299.27288,   0.00332,278189112.49383,  -0.00006,  -0.00218,   0.00007,   0.00000,   2.00000
520167827.12183,393245224.55760,-51700086.80311,   0.00155,  -0.00140,  -0.00061,483445795.51908,   0.00333,278206605.92697,  -0.00005,  -0.00218,   0.00006,   0.00000,   2.00000
520052318.70852,393558092.00350,-51725667.59986,   0.00157,  -0.00139,  -0.00062,483444531.37766,   0.00335,278224028.82810,  -0.00003,  -0.00217,   0.00005,   0.00000,   2.00000
519936047.03032,393865436.47392,-51756636.76242,   0.00159,  -0.00138,  -0.00063,483464072.86809,   0.00337,278241450.83321,  -0.00001,  -0.00216,   0.00004,   0.00000,   2.00000
519819028.37920,394167326.91038,-51792926.64917,   0.00160,  -0.00137,  -0.00064,483483615.42775,   0.00338,278258872.08503,   0.00001,  -0.00215,   0.00003,   0.00000,   2.00000
519702731.02848,394470922.88557,-51825103.23661,   0.00162,  -0.00136,  -0.00065,483482292.49901,   0.00340,278276223.20386,   0.00003,  -0.00215,   0.00002,   0.00000,   2.00000
519588495.96169,394765071.11168,-51860451.88879,   0.00164,  -0.00135,  -0.00066,483518668.37364,   0.00342,278293629.85382,   0.00004,  -0.00214,   0.00002,  -0.00000,   2.00000
519471560.40340,395067074.41273,-51893780.69557,   0.00166,  -0.00135,  -0.00067,483548354.40275,   0.00343,278311069.46048,   0.00006,  -0.00213,   0.00001,  -0.00000,   2.00000
519360108.44446,395353614.63045,-51928189.21521,   0.00167,  -0.00134,  -0.00068,483553779.55389,   0.00345,278328461.60555,   0.00008,  -0.00212,  -0.00000,  -0.00000,   2.00000
519247883.37113,395634973.43549,-51967878.96213,   0.00169,  -0.00133,  -0.00069,483573280.20230,   0.00347,278345853.30929,   0.00010,  -0.00212,  -0.00001,   0.00000,   2.00000
519130078.17639,395928390.77044,-52007628.18545,   0.00171,  -0.00132,  -0.00069,483586092.88660,   0.00348,278363222.24959,   0.00012,  -0.00211,  -0.00002,   0.00000,   2.00000
519020658.54040,396202428.53591,-52046246.57599,   0.00172,  -0.00131,  -0.00070,483608293.99756,   0.00350,278380599.88193,   0.00013,  -0.00210,  -0.00003,   0.00000,   2.00000
518905602.78085,396488609.61248,-52084937.39256,   0.00174,  -0.00130,  -0.00071,483621113.87823,   0.00352,278397954.94196,   0.00015,  -0.00209,  -0.00004,   0.00000,   2.00000
518796814.36320,396753985.58546,-52128263.75202,   0.00176,  -0.00129,  -0.00072,483645251.99507,   0.00353,278415325.32843,   0.00017,  -0.00208,  -0.00004,   0.00000,   2.00000
518682359.37987,397031602.24228,-52171601.77198,   0.00177,  -0.00128,  -0.00073,483658092.44472,   0.00355,278432673.43055,   0.00019,  -0.00208,  -0.00005,   0.00000,   2.00000
518573436.74615,397294200.66697,-52215916.86864,   0.00179,  -0.00127,  -0.00074,483663348.07334,   0.00357,278449974.46591,   0.00021,  -0.00207,  -0.00006,  -0.00000,   2.00000
518459593.42929,397563398.42043,-52263832.19741,   0.00181,  -0.00126,  -0.00075,483694992.28077,   0.00358,278467315.85650,   0.00022,  -0.00206,  -0.00007,   0.00000,   2.00000
518349292.91390,397830727.17618,-52305365.12634,   0.00182,  -0.00125,  -0.00076,483710466.05207,   0.00360,278484643.93507,   0.00024,  -0.00205,  -0.00008,   0.00000,   2.00000
518238222.17744,398093108.95949,-52352089.84797,   0.00184,  -0.00125,  -0.00077,483729910.49522,   0.00362,278501972.00509,   0.00026,  -0.00205,  -0.00009,   0.00000,   2.00000
518130550.10402,398339178.20179,-52405507.87520,   0.00186,  -0.00124,  -0.00078,483737099.99771,   0.00363,278519259.88289,   0.00028,  -0.00204,  -0.00010,   0.00000,   2.00000
518022217.18334,398595119.23727,-52450912.26533,   0.00187,  -0.00123,  -0.00079,483764767.74214,   0.00365,278536575.13503,   0.00029,  -0.00203,  -0.00011,   0.00000,   2.00000
517913102.10298,398846258.17944,-52501460.42132,   0.00189,  -0.00122,  -0.00080,483784199.56231,   0.00367,278553890.58799,   0.00031,  -0.00202,  -0.00012,  -0.00000,   2.00000
517802381.32761,399098375.02327,-52553496.40847,   0.00191,  -0.00121,  -0.00081,483784814.24267,   0.00368,278571144.17607,   0.00033,  -0.00201,  -0.00012,   0.00000,   2.00000
517696036.74837,399343146.64951,-52602695.17638,   0.00192,  -0.00120,  -0.00082,483819000.04320,   0.00370,278588446.93252,   0.00035,  -0.00201,  -0.00013,   0.00000,   2.00000
517583858.21513,399600352.18357,-52651823.29289,   0.00194,  -0.00119,  -0.00083,483831907.38940,   0.00372,278605728.35163,   0.00037,  -0.00200,  -0.00014,  -0.00000,   2.00000
517478134.26375,399837208.75966,-52705470.88290,   0.00196,  -0.00118,  -0.00084,483855812.57618,   0.00373,278623025.07777,   0.00038,  -0.00199,  -0.00015,  -0.00000,   2.00000
517372892.67867,400076835.70676,-52754834.22987,   0.00198,  -0.00117,  -0.00085,483854407.85728,   0.00375,278640253.60218,   0.00040,  -0.00198,  -0.00016,   0.00000,   2.00000
517262637.90454,400323187.66000,-52807705.65246,   0.00199,  -0.00116,  -0.00085,483886084.77652,   0.00377,278657523.09527,   0.00042,  -0.00198,  -0.00017,  -0.00000,   2.00000
517155828.50951,400553540.00569,-52867215.17304,   0.00201,  -0.00115,  -0.00086,483893153.85619,   0.00378,278674752.67539,   0.00044,  -0.00197,  -0.00018,  -0.00000,   2.00000
517048328.35103,400793872.07657,-52918617.79451,   0.00203,  -0.00114,  -0.00087,483920821.55718,   0.00380,278692010.06706,   0.00045,  -0.00196,  -0.00019,   0.00000,   2.00000
516936977.89552,401033784.20447,-52977252.09426,   0.00204,  -0.00114,  -0.00088,483923435.59131,   0.00382,278709212.84932,   0.00047,  -0.00195,  -0.00019,  -0.00000,   2.00000
516834327.48755,401255204.20560,-53034554.79461,   0.00206,  -0.00113,  -0.00089,483945171.65706,   0.00383,278726424.34055,   0.00049,  -0.00194,  -0.00020,   0.00000,   2.00000
516728779.90394,401485104.00554,-53089513.26199,   0.00208,  -0.00112,  -0.00090,483974853.82488,   0.00385,278743670.48782,   0.00051,  -0.00194,  -0.00021,  -0.00000,   2.00000
516621497.88738,401716325.94822,-53145925.73445,   0.00209,  -0.00111,  -0.00091,483975446.91533,   0.00387,278760855.58666,   0.00052,  -0.00193,  -0.00022,   0.00000,   2.00000
516513422.53707,401943044.58277,-53207342.63475,   0.00211,  -0.00110,  -0.00092,483994774.19026,   0.00388,278778041.53674,   0.00054,  -0.00192,  -0.00023,  -0.00000,   2.00000
516404653.87648,402179728.24561,-53260616.08281,   0.00213,  -0.00109,  -0.00093,484022436.76038,   0.00390,278795255.48271,   0.00056,  -0.00191,  -0.00024,   0.00000,   2.00000
516299351.87363,402400625.26845,-53320542.78358,   0.00214,  -0.00108,  -0.00094,484029398.41537,   0.00392,278812429.65292,   0.00058,  -0.00190,  -0.00025,   0.00000,   2.00000
516195408.33013,402618755.18808,-53379693.85092,   0.00216,  -0.00107,  -0.00095,484046682.07148,   0.00393,278829598.10509,   0.00060,  -0.00190,  -0.00026,   0.00000,   2.00000
516086385.28643,402843720.27017,-53442196.50755,   0.00218,  -0.00106,  -0.00096,484078410.14605,   0.00395,278846808.18839,   0.00061,  -0.00189,  -0.00027,   0.00000,   2.00000
515982040.89216,403060545.75322,-53501954.99402,   0.00219,  -0.00105,  -0.00097,484064545.33027,   0.00396,278863910.34386,   0.00063,  -0.00188,  -0.00028,   0.00000,   2.00000
515875768.35548,403279953.32532,-53562870.47902,   0.00221,  -0.00104,  -0.00098,484112953.22920,   0.00398,278881109.07429,   0.00065,  -0.00187,  -0.00028,   0.00000,   2.00000
515767697.64245,403500856.51432,-53625180.41449,   0.00223,  -0.00103,  -0.00099,484113543.46630,   0.00400,278898247.33600,   0.00067,  -0.00186,  -0.00029,   0.00000,   2.00000
515661015.33461,403718988.74506,-53686684.32293,   0.00224,  -0.00102,  -0.00100,484130798.28842,   0.00401,278915379.98261,   0.00068,  -0.00186,  -0.00030,   0.00000,   2.00000
515555709.18165,403934388.80418,-53747393.27031,   0.00226,  -0.00101,  -0.00101,484148043.87391,   0.00403,278932507.03587,   0.00070,  -0.00185,  -0.00031,   0.00000,   2.00000
515451766.94674,404147094.90180,-53807318.16495,   0.00228,  -0.00101,  -0.00102,484165280.34452,   0.00405,278949628.51731,   0.00072,  -0.00184,  -0.00032,  -0.00000,   2.00000
515342706.65854,404366603.03620,-53870562.34720,   0.00229,  -0.00100,  -0.00103,484197029.77434,   0.00406,278966791.88541,   0.00074,  -0.00183,  -0.00033,  -0.00000,   2.00000
515238303.91738,404578180.53889,-53931091.28830,   0.00231,  -0.00099,  -0.00104,484183084.94734,   0.00408,278983847.61036,   0.00075,  -0.00182,  -0.00034,   0.00000,   2.00000
515128771.25846,404796551.87382,-53994927.58655,   0.00232,  -0.00098,  -0.00105,484214789.40353,   0.00410,279000945.32891,   0.00077,  -0.00181,  -0.00035,   0.00000,   2.00000
515028189.30293,404996849.48712,-54057388.64702,   0.00234,  -0.00097,  -0.00106,484236202.90360,   0.00411,279018051.44317,   0.00079,  -0.00181,  -0.00036,   0.00000,   2.00000
514919184.18960,405208342.38528,-54125325.01766,   0.00236,  -0.00096,  -0.00107,484251289.78870,   0.00413,279035145.18463,   0.00081,  -0.00180,  -0.00037,   0.00000,   2.00000
514813778.53822,405418829.38158,-54186657.66127,   0.00237,  -0.00095,  -0.00108,484266439.05574,   0.00415,279052226.74668,   0.00082,  -0.00179,  -0.00037,   0.00000,   2.00000
514706467.74920,405630982.19534,-54249403.01913,   0.00239,  -0.00094,  -0.00109,484266959.81958,   0.00416,279069248.42658,   0.00084,  -0.00178,  -0.00038,   0.00000,   2.00000
514597313.25509,405845545.05825,-54313204.56667,   0.00241,  -0.00093,  -0.00110,484315350.76081,   0.00418,279086366.68180,   0.00086,  -0.00177,  -0.00039,   0.00000,   2.00000
514490594.93658,406050722.32509,-54380049.29438,   0.00242,  -0.00092,  -0.00111,484303401.84186,   0.00420,279103384.41639,   0.00087,  -0.00176,  -0.00040,  -0.00000,   2.00000
514384240.79041,406260018.35918,-54442162.74420,   0.00244,  -0.00091,  -0.00112,484349723.90904,   0.00421,279120491.98124,   0.00089,  -0.00176,  -0.00041,   0.00000,   2.00000
514275957.95719,406471004.10146,-54505684.70378,   0.00246,  -0.00090,  -0.00113,484350292.89504,   0.00423,279137539.84323,   0.00091,  -0.00175,  -0.00042,   0.00000,   2.00000
514169075.73815,406679350.75334,-54568388.04933,   0.00247,  -0.00089,  -0.00114,484367457.49952,   0.00425,279154582.36236,   0.00093,  -0.00174,  -0.00043,  -0.00000,   2.00000
514058038.98184,406887749.41808,-54638222.52783,   0.00249,  -0.00088,  -0.00115,484370055.81748,   0.00426,279171572.19495,   0.00094,  -0.00173,  -0.00044,  -0.00000,   2.00000
513953982.71116,407090887.98675,-54699220.49007,   0.00251,  -0.00087,  -0.00116,484401722.61985,   0.00428,279188604.19145,   0.00096,  -0.00172,  -0.00045,   0.00000,   2.00000
513845722.06165,407294153.45964,-54767375.39197,   0.00252,  -0.00086,  -0.00117,484404318.14176,   0.00430,279205583.61676,   0.00098,  -0.00171,  -0.00046,   0.00000,   2.00000
513737881.67652,407501467.22678,-54830753.78164,   0.00254,  -0.00085,  -0.00118,484450618.43621,   0.00431,279222652.83382,   0.00100,  -0.00171,  -0.00047,   0.00000,   2.00000
513628069.75714,407710518.77525,-54895536.81297,   0.00256,  -0.00084,  -0.00119,484451182.80695,   0.00433,279239662.66386,   0.00101,  -0.00170,  -0.00048,   0.00000,   2.00000
513519677.03342,407916955.01556,-54959485.74250,   0.00257,  -0.00084,  -0.00120,484468313.08620,   0.00435,279256667.25969,   0.00103,  -0.00169,  -0.00048,   0.00000,   2.00000
513409293.41819,408125154.76647,-55024838.50176,   0.00259,  -0.00083,  -0.00121,484468824.51540,   0.00436,279273612.60862,   0.00105,  -0.00168,  -0.00049,   0.00000,   2.00000
513303737.79137,408326410.68153,-55087124.05024,   0.00260,  -0.00082,  -0.00122,484502496.90256,   0.00438,279290606.79015,   0.00106,  -0.00167,  -0.00050,   0.00000,   2.00000
513193923.11192,408527822.22634,-55156558.45760,   0.00262,  -0.00081,  -0.00123,484505102.88436,   0.00440,279307548.74711,   0.00108,  -0.00166,  -0.00051,   0.00000,   2.00000
513086809.74248,408734902.67712,-55215453.86775,   0.00264,  -0.00080,  -0.00124,484549277.35481,   0.00441,279324573.53098,   0.00110,  -0.00166,  -0.00052,   0.00000,   2.00000
512975431.89036,408942057.81717,-55281540.40837,   0.00265,  -0.00079,  -0.00125,484551929.16576,   0.00443,279341546.05846,   0.00112,  -0.00165,  -0.00053,   0.00000,   2.00000
512862043.68811,409150981.85579,-55349012.97933,   0.00267,  -0.00078,  -0.00126,484552441.24477,   0.00445,279358459.60127,   0.00113,  -0.00164,  -0.00054,   0.00000,   2.00000
512753566.92066,409352929.53647,-55413381.53007,   0.00269,  -0.00077,  -0.00127,484586063.92235,   0.00446,279375421.89655,   0.00115,  -0.00163,  -0.00055,   0.00000,   2.00000
512642117.33699,409563152.94611,-55475212.25554,   0.00270,  -0.00076,  -0.00128,484615789.77622,   0.00448,279392419.97949,   0.00117,  -0.00162,  -0.00056,   0.00000,   2.00000
512533019.74910,409764329.29569,-55540200.32899,   0.00272,  -0.00075,  -0.00129,484603685.76990,   0.00449,279409318.19756,   0.00118,  -0.00161,  -0.00057,   0.00000,   2.00000
512420943.71548,409973774.34608,-55602639.40745,   0.00273,  -0.00074,  -0.00130,484633363.43157,   0.00451,279426252.29334,   0.00120,  -0.00160,  -0.00058,   0.00000,   2.00000
512308075.93985,410178888.13338,-55669988.15702,   0.00275,  -0.00073,  -0.00131,484652541.30485,   0.00453,279443188.20584,   0.00122,  -0.00160,  -0.00059,   0.00000,   2.00000
512194504.12274,410393896.51363,-55729035.92664,   0.00277,  -0.00072,  -0.00132,484680156.91786,   0.00454,279460153.05270,   0.00124,  -0.00159,  -0.00060,   0.00000,   2.00000
512081036.76321,410598140.19606,-55797006.93961,   0.00278,  -0.00071,  -0.00133,484670139.56792,   0.00456,279477025.07061,   0.00125,  -0.00158,  -0.00060,   0.00000,   2.00000
511966863.10641,410812278.25100,-55856666.90148,   0.00280,  -0.00070,  -0.00134,484697702.73216,   0.00458,279493926.10445,   0.00127,  -0.00157,  -0.00061,   0.00000,   2.00000
511855452.70548,411017616.58609,-55919015.92572,   0.00281,  -0.00069,  -0.00135,484733397.39091,   0.00459,279510882.49084,   0.00129,  -0.00156,  -0.00062,   0.00000,   2.00000
511741937.05204,411224782.16161,-55982815.93232,   0.00283,  -0.00068,  -0.00136,484733941.57448,   0.00461,279527780.27304,   0.00130,  -0.00155,  -0.00063,   0.00000,   2.00000
511626320.89048,411433758.45009,-56048052.10794,   0.00285,  -0.00067,  -0.00137,484734437.82278,   0.00463,279544619.53985,   0.00132,  -0.00154,  -0.00064,   0.00000,   2.00000
511511335.90339,411646392.59614,-56108452.91839,   0.00286,  -0.00066,  -0.00138,484780649.99235,   0.00464,279561548.25539,   0.00134,  -0.00154,  -0.00065,   0.00000,   2.00000
511397831.96100,411856356.66329,-56168073.56018,   0.00288,  -0.00065,  -0.00139,484797705.62068,   0.00466,279578471.83103,   0.00136,  -0.00153,  -0.00066,   0.00000,   2.00000
511282200.09294,412068101.91117,-56229186.28788,   0.00290,  -0.00064,  -0.00140,484798240.24879,   0.00468,279595336.90714,   0.00137,  -0.00152,  -0.00067,   0.00000,   2.00000
511168051.40638,412277194.96548,-56289512.20757,   0.00291,  -0.00063,  -0.00141,484815234.03169,   0.00469,279612196.91654,   0.00139,  -0.00151,  -0.00068,   0.00000,   2.00000
511050935.81685,412494300.18207,-56347310.49981,   0.00293,  -0.00062,  -0.00142,484844966.67879,   0.00471,279629092.90044,   0.00141,  -0.00150,  -0.00069,   0.00000,   2.00000
510929435.83433,412711355.27296,-56412333.37819,   0.00294,  -0.00061,  -0.00143,484847644.44205,   0.00473,279645937.47129,   0.00142,  -0.00149,  -0.00070,   0.00000,   2.00000
510815375.96392,412922998.94405,-56468544.58133,   0.00296,  -0.00060,  -0.00144,484878972.82065,   0.00474,279662823.25166,   0.00144,  -0.00148,  -0.00071,   0.00000,   2.00000
510696878.83560,413134671.27855,-56532004.32165,   0.00298,  -0.00059,  -0.00145,484881647.72973,   0.00476,279679657.73212,   0.00146,  -0.00147,  -0.00072,   0.00000,   2.00000
510577707.46307,413356020.18083,-56587180.22349,   0.00299,  -0.00058,  -0.00146,484909240.61969,   0.00478,279696521.27666,   0.00147,  -0.00147,  -0.00073,   0.00000,   2.00000
510457792.45593,413572825.90491,-56647344.39199,   0.00301,  -0.00057,  -0.00147,484928393.42651,   0.00479,279713386.67455,   0.00149,  -0.00146,  -0.00074,   0.00000,   2.00000
510339409.58080,413786902.01494,-56706730.68344,   0.00302,  -0.00056,  -0.00148,484945395.53419,   0.00481,279730247.01205,   0.00151,  -0.00145,  -0.00075,  -0.00000,   2.00000
510222544.80033,413998287.05489,-56765349.84169,   0.00304,  -0.00055,  -0.00149,484962388.66187,   0.00482,279747102.30572,   0.00153,  -0.00144,  -0.00076,  -0.00000,   2.00000
510101282.52048,414223763.73785,-56818014.27495,   0.00306,  -0.00054,  -0.00150,484973558.39540,   0.00484,279763933.59599,   0.00154,  -0.00143,  -0.00077,  -0.00000,   2.00000
509979290.16716,414444630.83788,-56875695.89214,   0.00307,  -0.00053,  -0.00151,484992690.36344,   0.00486,279780766.73737,   0.00156,  -0.00142,  -0.00077,  -0.00000,   2.00000
509858849.73871,414662714.15422,-56932630.58407,   0.00309,  -0.00052,  -0.00152,485009662.97947,   0.00487,279797594.79815,   0.00158,  -0.00141,  -0.00078,   0.00000,   2.00000
509735468.79142,414888541.43449,-56987045.94295,   0.00310,  -0.00051,  -0.00153,485039456.95768,   0.00489,279814458.94144,   0.00159,  -0.00140,  -0.00079,   0.00000,   2.00000
509618139.16251,415101036.66095,-57042538.56282,   0.00312,  -0.00050,  -0.00154,485043623.50848,   0.00491,279831276.75251,   0.00161,  -0.00140,  -0.00080,   0.00000,   2.00000
509491797.21085,415324021.27008,-57103510.01874,   0.00313,  -0.00049,  -0.00156,485059157.43161,   0.00492,279848084.93599,   0.00163,  -0.00139,  -0.00081,   0.00000,   2.00000
509364840.38876,415556419.49539,-57156202.54668,   0.00315,  -0.00048,  -0.00157,485086794.08818,   0.00494,279864922.23122,   0.00164,  -0.00138,  -0.00082,   0.00000,   2.00000
509243979.77057,415775434.43317,-57210001.18128,   0.00317,  -0.00047,  -0.00158,485090917.63949,   0.00496,279881713.12790,   0.00166,  -0.00137,  -0.00083,   0.00000,   2.00000
509120163.94768,416002118.31690,-57261306.74895,   0.00318,  -0.00046,  -0.00159,485120711.73017,   0.00497,279898540.16653,   0.00168,  -0.00136,  -0.00084,   0.00000,   2.00000
508991139.01574,416234555.47565,-57315840.77660,   0.00320,  -0.00045,  -0.00160,485152736.92469,   0.00499,279915410.34965,   0.00169,  -0.00135,  -0.00085,   0.00000,   2.00000
508866717.09482,416459922.41172,-57368059.56158,   0.00321,  -0.00044,  -0.00161,485138289.16619,   0.00501,279932174.37093,   0.00171,  -0.00134,  -0.00086,   0.00000,   2.00000
508743189.19107,416688335.50562,-57415502.83300,   0.00323,  -0.00043,  -0.00162,485184483.94531,   0.00502,279949027.17642,   0.00173,  -0.00133,  -0.00087,   0.00000,   2.00000
508615112.79553,416916555.53356,-57470313.87046,   0.00324,  -0.00042,  -0.00163,485187269.48070,   0.00504,279965829.25460,   0.00174,  -0.00132,  -0.00088,   0.00000,   2.00000
508486424.29569,417154040.00669,-57516906.79499,   0.00326,  -0.00041,  -0.00164,485214941.91604,   0.00506,279982660.42140,   0.00176,  -0.00131,  -0.00089,   0.00000,   2.00000
508353209.08929,417391207.65499,-57570877.19922,   0.00328,  -0.00040,  -0.00165,485217733.03032,   0.00507,279999440.90224,   0.00178,  -0.00130,  -0.00090,   0.00000,   2.00000
508227823.62195,417622652.30493,-57616151.39105,   0.00329,  -0.00039,  -0.00166,485248856.48328,   0.00509,280016261.65048,   0.00179,  -0.00130,  -0.00091,   0.00000,   2.00000
508097856.21820,417853868.68695,-57668823.09185,   0.00331,  -0.00038,  -0.00167,485251643.50127,   0.00511,280033031.83037,   0.00181,  -0.00129,  -0.00092,   0.00000,   2.00000
507971180.78291,418089744.68933,-57710995.07558,   0.00332,  -0.00037,  -0.00168,485295674.27934,   0.00512,280049883.54873,   0.00183,  -0.00128,  -0.00093,  -0.00000,   2.00000
507839914.42099,418325328.57305,-57760602.52395,   0.00334,  -0.00036,  -0.00169,485298508.88826,   0.00514,280066684.69493,   0.00184,  -0.00127,  -0.00094,   0.00000,   2.00000
507701838.58896,418572714.33172,-57810034.98835,   0.00335,  -0.00034,  -0.00170,485312073.14507,   0.00516,280083469.69700,   0.00186,  -0.00126,  -0.00095,   0.00000,   2.00000
507576252.61491,418803963.17085,-57852650.92463,   0.00337,  -0.00033,  -0.00171,485330206.10120,   0.00517,280100253.31871,   0.00188,  -0.00125,  -0.00096,   0.00000,   2.00000
507440867.74971,419050948.17427,-57896735.04878,   0.00339,  -0.00032,  -0.00172,485375280.27645,   0.00519,280117121.58948,   0.00189,  -0.00124,  -0.00097,   0.00000,   2.00000
507307781.23883,419289074.02956,-57944371.48451,   0.00340,  -0.00031,  -0.00173,485362995.88997,   0.00520,280133890.93316,   0.00191,  -0.00123,  -0.00098,  -0.00000,   2.00000
507171807.76568,419534381.77972,-57989545.38155,   0.00342,  -0.00030,  -0.00174,485392914.91980,   0.00522,280150696.53307,   0.00193,  -0.00122,  -0.00099,   0.00000,   2.00000
507039834.21688,419778378.91222,-58028432.63434,   0.00343,  -0.00029,  -0.00175,485407677.05918,   0.00524,280167489.75265,   0.00194,  -0.00121,  -0.00100,  -0.00000,   2.00000
506902655.32612,420027615.06520,-58070649.88696,   0.00345,  -0.00028,  -0.00176,485439840.44822,   0.00525,280184326.21449,   0.00196,  -0.00120,  -0.00101,   0.00000,   2.00000
506763189.29525,420278207.81970,-58114612.38465,   0.00346,  -0.00027,  -0.00177,485440535.25327,   0.00527,280201105.29307,   0.00198,  -0.00119,  -0.00102,   0.00000,   2.00000
506629476.37271,420521022.78245,-58155682.06455,   0.00348,  -0.00026,  -0.00178,485473788.42520,   0.00529,280217931.17799,   0.00199,  -0.00118,  -0.00103,   0.00000,   2.00000
506491141.06955,420777276.61958,-58190979.54584,   0.00349,  -0.00025,  -0.00179,485485296.22630,   0.00530,280234734.09537,   0.00201,  -0.00118,  -0.00104,   0.00000,   2.00000
506352228.09767,421028393.69415,-58231487.81189,   0.00351,  -0.00024,  -0.00180,485504481.32886,   0.00532,280251538.75349,   0.00203,  -0.00117,  -0.00105,  -0.00000,   2.00000
506215050.79359,421276282.86220,-58271454.94245,   0.00353,  -0.00023,  -0.00181,485521455.39485,   0.00534,280268338.12803,   0.00204,  -0.00116,  -0.00106,   0.00000,   2.00000
506075000.34034,421531087.01948,-58309032.53856,   0.00354,  -0.00022,  -0.00182,485551480.33213,   0.00535,280285173.73869,   0.00206,  -0.00115,  -0.00107,   0.00000,   2.00000
505932621.37775,421787189.69633,-58348416.19252,   0.00356,  -0.00021,  -0.00183,485552216.62769,   0.00537,280301952.14677,   0.00208,  -0.00114,  -0.00108,   0.00000,   2.00000
505798405.77229,422037256.51072,-58379274.55037,   0.00357,  -0.00019,  -0.00184,485583216.71279,   0.00539,280318769.91883,   0.00209,  -0.00113,  -0.00109,   0.00000,   2.00000
505654867.38804,422296902.09151,-58415849.00579,   0.00359,  -0.00018,  -0.00185,485599239.93627,   0.00540,280335579.20379,   0.00211,  -0.00112,  -0.00109,   0.00000,   2.00000
505508501.64963,422563226.93812,-58450063.06512,   0.00360,  -0.00017,  -0.00186,485629326.10131,   0.00542,280352424.70049,   0.00213,  -0.00111,  -0.00110,   0.00000,   2.00000
505368565.57664,422816074.78254,-58485678.14061,   0.00362,  -0.00016,  -0.00188,485633252.61664,   0.00544,280369223.19671,   0.00214,  -0.00110,  -0.00111,   0.00000,   2.00000
505225761.53777,423075668.85763,-58518942.75750,   0.00363,  -0.00015,  -0.00189,485663335.44905,   0.00545,280386057.97673,   0.00216,  -0.00109,  -0.00112,   0.00000,   2.00000
505075960.72115,423346501.83109,-58552196.05446,   0.00365,  -0.00014,  -0.00190,485677238.50892,   0.00547,280402877.35310,   0.00218,  -0.00108,  -0.00113,   0.00000,   2.00000
504934479.65627,423611061.06527,-58576995.93591,   0.00366,  -0.00013,  -0.00191,485708252.24112,   0.00549,280419735.71616,   0.00219,  -0.00107,  -0.00114,   0.00000,   2.00000
504788280.55492,423874941.09246,-58609446.83626,   0.00368,  -0.00012,  -0.00192,485711291.50695,   0.00550,280436544.15823,   0.00221,  -0.00106,  -0.00115,   0.00000,   2.00000
504639258.22441,424145337.85326,-58639574.21680,   0.00369,  -0.00011,  -0.00193,485741437.18054,   0.00552,280453388.87691,   0.00223,  -0.00105,  -0.00116,   0.00000,   2.00000
