# sigma_xx, sigma_yy, sigma_xy, epsilon_xx, epsilon_yy, epsilon_xy, vonMises, epsPlastic, hardening, epsilonP__xx, epsilonP__yy, epsilonP__xy, yieldValue, iteration
   0.00000,   0.00000,   0.00000,   0.00000,   0.00000,   0.00000,   0.00000,   0.00000,274640135.82653,   0.00000,   0.00000,   0.00000,-474640135.82653,   0.00000
   0.00000,   0.00000,   0.00000,   0.00000,   0.00000,   0.00000,   0.00000,   0.00000,274640135.82653,   0.00000,   0.00000,   0.00000,-474640135.82653,   0.00000
-2853380.67692,-2654802.40280,-264771.03216,  -0.00001,  -0.00001,  -0.00000,2797303.39908,   0.00000,274640135.82653,   0.00000,   0.00000,   0.00000,-471842832.42744,   0.00000
-5723309.54334,-5316696.88681,-534270.11846,  -0.00002,  -0.00001,  -0.00001,5608098.56923,   0.00000,274640135.82653,   0.00000,   0.00000,   0.00000,-469032037.25730,   0.00000
-8576690.22026,-7971499.28961,-803769.20476,  -0.00002,  -0.00002,  -0.00001,8406751.50484,   0.00000,274640135.82653,   0.00000,   0.00000,   0.00000,-466233384.32169,   0.00000
-11439527.00546,-10616845.58412,-1077996.34521,  -0.00003,  -0.00003,  -0.00001,11207797.50237,   0.00000,274640135.82653,   0.00000,   0.00000,   0.00000,-463432338.32415,   0.00000
-14302363.79067,-13262191.87862,-1352223.48566,  -0.00004,  -0.00003,  -0.00002,14008860.60970,   0.00000,274640135.82653,   0.00000,   0.00000,   0.00000,-460631275.21683,   0.00000
-17148652.38637,-15900446.09191,-1626450.62611,  -0.00005,  -0.00004,  -0.00002,16797775.64707,   0.00000,274640135.82653,   0.00000,   0.00000,   0.00000,-457842360.17946,   0.00000
-20011489.17157,-18545792.38641,-1905405.82071,  -0.00005,  -0.00005,  -0.00002,19600227.15710,   0.00000,274640135.82653,   0.00000,   0.00000,   0.00000,-455039908.66943,   0.00000
-22874325.95678,-21191138.68092,-2184361.01530,  -0.00006,  -0.00005,  -0.00003,22402688.05576,   0.00000,274640135.82653,   0.00000,   0.00000,   0.00000,-452237447.77077,   0.00000
-25730070.66077,-23819936.78592,-2468044.26404,  -0.00007,  -0.00006,  -0.00003,25195455.85070,   0.00000,274640135.82653,   0.00000,   0.00000,   0.00000,-449444679.97583,   0.00000
-28585815.36476,-26448734.89091,-2746999.45864,  -0.00008,  -0.00006,  -0.00004,27986850.18454,   0.00000,274640135.82653,   0.00000,   0.00000,   0.00000,-446653285.64199,   0.00000
-31441560.06875,-29077532.99591,-3035410.76152,  -0.00009,  -0.00007,  -0.00004,30781045.78822,   0.00000,274640135.82653,   0.00000,   0.00000,   0.00000,-443859090.03831,   0.00000
-34290212.69152,-31689782.91139,-3319094.01026,  -0.00009,  -0.00008,  -0.00004,33562788.71560,   0.00000,274640135.82653,   0.00000,   0.00000,   0.00000,-441077347.11093,   0.00000
-37155413.50380,-34309124.90810,-3607505.31315,  -0.00010,  -0.00008,  -0.00005,36358126.53915,   0.00000,274640135.82653,   0.00000,   0.00000,   0.00000,-438282009.28738,   0.00000
-40004066.12657,-36921374.82358,-3900644.67018,  -0.00011,  -0.00009,  -0.00005,39142728.47062,   0.00000,274640135.82653,   0.00000,   0.00000,   0.00000,-435497407.35591,   0.00000
-42869266.93884,-39540716.82029,-4193784.02721,  -0.00012,  -0.00010,  -0.00005,41939531.03713,   0.00000,274640135.82653,   0.00000,   0.00000,   0.00000,-432700604.78940,   0.00000
-45717919.56161,-42152966.73578,-4486923.38425,  -0.00013,  -0.00010,  -0.00006,44724179.98721,   0.00000,274640135.82653,   0.00000,   0.00000,   0.00000,-429915955.83932,   0.00000
-48576028.29268,-44755760.54297,-4780062.74128,  -0.00013,  -0.00011,  -0.00006,47509983.53511,   0.00000,274640135.82653,   0.00000,   0.00000,   0.00000,-427130152.29142,   0.00000
-51434137.02374,-47358554.35016,-5077930.15246,  -0.00014,  -0.00012,  -0.00007,50297245.17030,   0.00000,274640135.82653,   0.00000,   0.00000,   0.00000,-424342890.65623,   0.00000
-54285153.67358,-49944799.96785,-5380525.61778,  -0.00015,  -0.00012,  -0.00007,53074946.81592,   0.00000,274640135.82653,   0.00000,   0.00000,   0.00000,-421565189.01061,   0.00000
-57143262.40464,-52547593.77504,-5683121.08310,  -0.00016,  -0.00013,  -0.00007,55863715.46638,   0.00000,274640135.82653,   0.00000,   0.00000,   0.00000,-418776420.36015,   0.00000
-59994279.05448,-55133839.39273,-5985716.54843,  -0.00017,  -0.00013,  -0.00008,58641497.48576,   0.00000,274640135.82653,   0.00000,   0.00000,   0.00000,-415998638.34077,   0.00000
-62838203.62311,-57703536.82090,-6288312.01375,  -0.00017,  -0.00014,  -0.00008,61408305.65682,   0.00000,274640135.82653,   0.00000,   0.00000,   0.00000,-413231830.16971,   0.00000
-65689220.27295,-60289782.43859,-6595635.53322,  -0.00018,  -0.00015,  -0.00009,64187615.25407,   0.00000,274640135.82653,   0.00000,   0.00000,   0.00000,-410452520.57246,   0.00000
-68533144.84157,-62859479.86676,-6907687.10683,  -0.00019,  -0.00015,  -0.00009,66957424.80203,   0.00000,274640135.82653,   0.00000,   0.00000,   0.00000,-407682711.02450,   0.00000
-71393617.59971,-65436269.37616,-7215010.62630,  -0.00020,  -0.00016,  -0.00009,69738017.79419,   0.00000,274640135.82653,   0.00000,   0.00000,   0.00000,-404902118.03234,   0.00000
-74230450.08711,-67989418.61482,-7527062.19992,  -0.00021,  -0.00016,  -0.00010,72496935.21013,   0.00000,274640135.82653,   0.00000,   0.00000,   0.00000,-402143200.61640,   0.00000
-77083830.76403,-70549659.93471,-7843841.82768,  -0.00021,  -0.00017,  -0.00010,75269588.80681,   0.00000,274640135.82653,   0.00000,   0.00000,   0.00000,-399370547.01972,   0.00000
-79920663.25144,-73102809.17337,-8160621.45544,  -0.00022,  -0.00018,  -0.00011,78030092.63435,   0.00000,274640135.82653,   0.00000,   0.00000,   0.00000,-396610043.19218,   0.00000
-82774043.92835,-75663050.49325,-8477401.08320,  -0.00023,  -0.00018,  -0.00011,80802858.11957,   0.00000,274640135.82653,   0.00000,   0.00000,   0.00000,-393837277.70696,   0.00000
-85620332.52405,-78206743.62363,-8794180.71096,  -0.00024,  -0.00019,  -0.00011,83564714.67188,   0.00000,274640135.82653,   0.00000,   0.00000,   0.00000,-391075421.15465,   0.00000
-88466621.11975,-80750436.75400,-9115688.39286,  -0.00025,  -0.00019,  -0.00012,86328124.72980,   0.00000,274640135.82653,   0.00000,   0.00000,   0.00000,-388312011.09673,   0.00000
-91305817.63422,-83277581.69487,-9441924.12892,  -0.00025,  -0.00020,  -0.00012,89082153.39403,   0.00000,274640135.82653,   0.00000,   0.00000,   0.00000,-385557982.43250,   0.00000
-94145014.14870,-85804726.63573,-9768159.86497,  -0.00026,  -0.00021,  -0.00013,91836258.85448,   0.00000,274640135.82653,   0.00000,   0.00000,   0.00000,-382803876.97204,   0.00000
-96984210.66318,-88331871.57659,-10094395.60102,  -0.00027,  -0.00021,  -0.00013,94590434.40315,   0.00000,274640135.82653,   0.00000,   0.00000,   0.00000,-380049701.42338,   0.00000
-99823407.17766,-90859016.51746,-10420631.33707,  -0.00028,  -0.00022,  -0.00014,97344674.09099,   0.00000,274640135.82653,   0.00000,   0.00000,   0.00000,-377295461.73554,   0.00000
-102672059.80043,-93376705.35003,-10751595.12727,  -0.00029,  -0.00022,  -0.00014,100101811.58883,   0.00000,274640135.82653,   0.00000,   0.00000,   0.00000,-374538324.23770,   0.00000
-105504164.23369,-95887302.10138,-11082558.91746,  -0.00029,  -0.00023,  -0.00014,102846794.03160,   0.00000,274640135.82653,   0.00000,   0.00000,   0.00000,-371793341.79493,   0.00000
-108345724.77524,-98388442.74445,-11418250.76181,  -0.00030,  -0.00024,  -0.00015,105594715.56604,   0.00000,274640135.82653,   0.00000,   0.00000,   0.00000,-369045420.26049,   0.00000
-111170737.12728,-100882491.30629,-11753942.60615,  -0.00031,  -0.00024,  -0.00015,108330487.04864,   0.00000,274640135.82653,   0.00000,   0.00000,   0.00000,-366309648.77789,   0.00000
-114012297.66883,-103383631.94935,-12089634.45049,  -0.00032,  -0.00025,  -0.00016,111078583.61678,   0.00000,274640135.82653,   0.00000,   0.00000,   0.00000,-363561552.20975,   0.00000
-116846766.12917,-105868224.40291,-12430054.34898,  -0.00033,  -0.00025,  -0.00016,113817427.44021,   0.00000,274640135.82653,   0.00000,   0.00000,   0.00000,-360822708.38632,   0.00000
-119681234.58950,-108352816.85646,-12770474.24747,  -0.00033,  -0.00026,  -0.00017,116556368.24507,   0.00000,274640135.82653,   0.00000,   0.00000,   0.00000,-358083767.58146,   0.00000
-122508610.96861,-110820861.12050,-13115622.20011,  -0.00034,  -0.00027,  -0.00017,119286092.63371,   0.00000,274640135.82653,   0.00000,   0.00000,   0.00000,-355354043.19282,   0.00000
-125335987.34773,-113288905.38454,-13460770.15274,  -0.00035,  -0.00027,  -0.00017,122015925.16986,   0.00000,274640135.82653,   0.00000,   0.00000,   0.00000,-352624210.65667,   0.00000
-128163363.72684,-115756949.64859,-13805918.10537,  -0.00036,  -0.00028,  -0.00018,124745858.75371,   0.00000,274640135.82653,   0.00000,   0.00000,   0.00000,-349894277.07282,   0.00000
-130983648.02474,-118208445.72312,-14155794.11215,  -0.00037,  -0.00028,  -0.00018,127466618.22937,   0.00000,274640135.82653,   0.00000,   0.00000,   0.00000,-347173517.59716,   0.00000
-133803932.32263,-120659941.79765,-14505670.11893,  -0.00037,  -0.00029,  -0.00019,130187490.06746,   0.00000,274640135.82653,   0.00000,   0.00000,   0.00000,-344452645.75907,   0.00000
-136640764.81004,-123118529.95341,-14855546.12571,  -0.00038,  -0.00029,  -0.00019,132920738.34703,   0.00000,274640135.82653,   0.00000,   0.00000,   0.00000,-341719397.47950,   0.00000
-139453957.02672,-125553477.83843,-15210150.18664,  -0.00039,  -0.00030,  -0.00020,135632586.90595,   0.00000,274640135.82653,   0.00000,   0.00000,   0.00000,-339007548.92058,   0.00000
-142276605.35168,-127978969.61516,-15564754.24757,  -0.00040,  -0.00030,  -0.00020,138346017.16445,   0.00000,274640135.82653,   0.00000,   0.00000,   0.00000,-336294118.66208,   0.00000
-145089797.56836,-130413917.50018,-15919358.30849,  -0.00041,  -0.00031,  -0.00021,141058102.40052,   0.00000,274640135.82653,   0.00000,   0.00000,   0.00000,-333582033.42601,   0.00000
-147905353.81211,-132822861.08741,-16278690.42356,  -0.00041,  -0.00032,  -0.00021,143762586.00894,   0.00000,274640135.82653,   0.00000,   0.00000,   0.00000,-330877549.81759,   0.00000
-150728002.13708,-135248352.86414,-16638022.53863,  -0.00042,  -0.00032,  -0.00022,146478001.56728,   0.00000,274640135.82653,   0.00000,   0.00000,   0.00000,-328162134.25925,   0.00000
-153543558.38083,-137657296.45136,-17002082.70785,  -0.00043,  -0.00033,  -0.00022,149184372.17595,   0.00000,274640135.82653,   0.00000,   0.00000,   0.00000,-325455763.65058,   0.00000
-156352022.54336,-140049691.84907,-17361414.82292,  -0.00044,  -0.00033,  -0.00023,151878486.74912,   0.00000,274640135.82653,   0.00000,   0.00000,   0.00000,-322761649.07741,   0.00000
-159160486.70589,-142442087.24678,-17730203.04629,  -0.00045,  -0.00034,  -0.00023,154575991.39020,   0.00000,274640135.82653,   0.00000,   0.00000,   0.00000,-320064144.43633,   0.00000
-161968950.86843,-144834482.64450,-18094263.21550,  -0.00045,  -0.00034,  -0.00024,157272013.68569,   0.00000,274640135.82653,   0.00000,   0.00000,   0.00000,-317368122.14084,   0.00000
-164770322.94974,-147210329.85270,-18463051.43887,  -0.00046,  -0.00035,  -0.00024,159959056.49333,   0.00000,274640135.82653,   0.00000,   0.00000,   0.00000,-314681079.33320,   0.00000
-167571695.03105,-149586177.06090,-18831839.66223,  -0.00047,  -0.00035,  -0.00024,162646250.04947,   0.00000,274640135.82653,   0.00000,   0.00000,   0.00000,-311993885.77705,   0.00000
-170382523.22066,-151952568.16081,-19205355.93974,  -0.00048,  -0.00036,  -0.00025,165336814.73562,   0.00000,274640135.82653,   0.00000,   0.00000,   0.00000,-309303321.09091,   0.00000
-173176803.22075,-154311867.17950,-19578872.21724,  -0.00049,  -0.00036,  -0.00025,168015232.58595,   0.00000,274640135.82653,   0.00000,   0.00000,   0.00000,-306624903.24058,   0.00000
-175987631.41035,-156678258.27941,-19952388.49475,  -0.00050,  -0.00037,  -0.00026,170706124.31527,   0.00000,274640135.82653,   0.00000,   0.00000,   0.00000,-303934011.51126,   0.00000
-178767727.24801,-159004460.91909,-20330632.82641,  -0.00050,  -0.00037,  -0.00026,173365096.51644,   0.00000,274640135.82653,   0.00000,   0.00000,   0.00000,-301275039.31009,   0.00000
-181571463.35640,-161354303.82949,-20708877.15806,  -0.00051,  -0.00038,  -0.00027,176047275.99129,   0.00000,274640135.82653,   0.00000,   0.00000,   0.00000,-298592859.83524,   0.00000
-184368107.38357,-163687598.55038,-21087121.48972,  -0.00052,  -0.00039,  -0.00027,178718930.92412,   0.00000,274640135.82653,   0.00000,   0.00000,   0.00000,-295921204.90241,   0.00000
-187141111.14000,-165997253.00054,-21470093.87552,  -0.00053,  -0.00039,  -0.00028,181369423.83655,   0.00000,274640135.82653,   0.00000,   0.00000,   0.00000,-293270711.98998,   0.00000
-189930663.08595,-168313999.53192,-21853066.26131,  -0.00054,  -0.00040,  -0.00028,184032440.60768,   0.00000,274640135.82653,   0.00000,   0.00000,   0.00000,-290607695.21885,   0.00000
-192720215.03190,-170630746.06330,-22236038.64711,  -0.00054,  -0.00040,  -0.00029,186695642.57324,   0.00000,274640135.82653,   0.00000,   0.00000,   0.00000,-287944493.25329,   0.00000
-195502674.89663,-172930944.40518,-22623739.08706,  -0.00055,  -0.00041,  -0.00029,189350061.87438,   0.00000,274640135.82653,   0.00000,   0.00000,   0.00000,-285290073.95215,   0.00000
-198285134.76136,-175231142.74705,-23011439.52701,  -0.00056,  -0.00041,  -0.00030,192004677.93545,   0.00000,274640135.82653,   0.00000,   0.00000,   0.00000,-282635457.89108,   0.00000
-201077050.73438,-177521884.98063,-23399139.96695,  -0.00057,  -0.00042,  -0.00030,194661198.39346,   0.00000,274640135.82653,   0.00000,   0.00000,   0.00000,-279978937.43307,   0.00000
-203845326.43668,-179788986.94348,-23791568.46104,  -0.00058,  -0.00042,  -0.00031,197296650.73826,   0.00000,274640135.82653,   0.00000,   0.00000,   0.00000,-277343485.08827,   0.00000
-206613602.13897,-182056088.90633,-24183996.95513,  -0.00059,  -0.00043,  -0.00031,199932320.80536,   0.00000,274640135.82653,   0.00000,   0.00000,   0.00000,-274707815.02117,   0.00000
-209381877.84126,-184323190.86918,-24576425.44922,  -0.00059,  -0.00043,  -0.00032,202568200.09624,   0.00000,274640135.82653,   0.00000,   0.00000,   0.00000,-272071935.73029,   0.00000
-212159609.65185,-186580836.72374,-24973581.99746,  -0.00060,  -0.00044,  -0.00032,205207773.98940,   0.00000,274640135.82653,   0.00000,   0.00000,   0.00000,-269432361.83713,   0.00000
-214913701.19171,-188814842.30757,-25370738.54570,  -0.00061,  -0.00044,  -0.00033,207824613.93773,   0.00000,274640135.82653,   0.00000,   0.00000,   0.00000,-266815521.88880,   0.00000
-217691433.00229,-191072488.16213,-25767895.09393,  -0.00062,  -0.00044,  -0.00033,210464641.28791,   0.00000,274640135.82653,   0.00000,   0.00000,   0.00000,-264175494.53862,   0.00000
-220438432.46093,-193289945.55646,-26169779.69632,  -0.00063,  -0.00045,  -0.00034,213073097.92226,   0.00000,274640135.82653,   0.00000,   0.00000,   0.00000,-261567037.90427,   0.00000
-223201980.10908,-195514495.03200,-26571664.29870,  -0.00063,  -0.00045,  -0.00035,215694180.01390,   0.00000,274640135.82653,   0.00000,   0.00000,   0.00000,-258945955.81263,   0.00000
-225965527.75722,-197739044.50754,-26973548.90108,  -0.00064,  -0.00046,  -0.00035,218315503.17821,   0.00000,274640135.82653,   0.00000,   0.00000,   0.00000,-256324632.64831,   0.00000
-228698343.05342,-199923405.52284,-27375433.50346,  -0.00065,  -0.00046,  -0.00036,220903580.07300,   0.00000,274640135.82653,   0.00000,   0.00000,   0.00000,-253736555.75353,   0.00000
-231454798.62035,-202131406.80887,-27782046.15999,  -0.00066,  -0.00047,  -0.00036,223516602.58610,   0.00000,274640135.82653,   0.00000,   0.00000,   0.00000,-251123533.24043,   0.00000
-234204162.10606,-204322859.90539,-28188658.81652,  -0.00067,  -0.00047,  -0.00037,226119344.33411,   0.00000,274640135.82653,   0.00000,   0.00000,   0.00000,-248520791.49242,   0.00000
-236946433.51056,-206497764.81240,-28599999.52719,  -0.00068,  -0.00048,  -0.00037,228713598.73116,   0.00000,274640135.82653,   0.00000,   0.00000,   0.00000,-245926537.09537,   0.00000
-239688704.91505,-208672669.71941,-29006612.18372,  -0.00068,  -0.00048,  -0.00038,231306348.91113,   0.00000,274640135.82653,   0.00000,   0.00000,   0.00000,-243333786.91539,   0.00000
-242423884.23832,-210831026.43691,-29417952.89440,  -0.00069,  -0.00049,  -0.00038,233890642.96876,   0.00000,274640135.82653,   0.00000,   0.00000,   0.00000,-240749492.85777,   0.00000
-245159063.56160,-212989383.15442,-29834021.65922,  -0.00070,  -0.00049,  -0.00039,236477002.27567,   0.00000,274640135.82653,   0.00000,   0.00000,   0.00000,-238163133.55086,   0.00000
-247887150.80365,-215131191.68241,-30245362.36989,  -0.00071,  -0.00050,  -0.00039,239051368.63812,   0.00000,274640135.82653,   0.00000,   0.00000,   0.00000,-235588767.18841,   0.00000
-250615238.04571,-217273000.21040,-30661431.13471,  -0.00072,  -0.00050,  -0.00040,241627812.07921,   0.00000,274640135.82653,   0.00000,   0.00000,   0.00000,-233012323.74732,   0.00000
-253352781.39605,-219405352.63010,-31077499.89953,  -0.00072,  -0.00050,  -0.00040,244206505.36350,   0.00000,274640135.82653,   0.00000,   0.00000,   0.00000,-230433630.46303,   0.00000
-256066684.47567,-221514064.77907,-31498296.71849,  -0.00073,  -0.00051,  -0.00041,246764429.66745,   0.00000,274640135.82653,   0.00000,   0.00000,   0.00000,-227875706.15908,   0.00000
-258780587.55529,-223622776.92804,-31914365.48331,  -0.00074,  -0.00051,  -0.00041,249320848.35587,   0.00000,274640135.82653,   0.00000,   0.00000,   0.00000,-225319287.47066,   0.00000
-261494490.63491,-225731489.07701,-32335162.30228,  -0.00075,  -0.00052,  -0.00042,251879378.27505,   0.00000,274640135.82653,   0.00000,   0.00000,   0.00000,-222760757.55148,   0.00000
-264210757.74160,-227814196.92818,-32760687.17539,  -0.00076,  -0.00052,  -0.00043,254431639.35789,   0.00000,274640135.82653,   0.00000,   0.00000,   0.00000,-220208496.46864,   0.00000
-266917568.74000,-229906360.88764,-33181483.99435,  -0.00077,  -0.00053,  -0.00043,256980367.01835,   0.00000,274640135.82653,   0.00000,   0.00000,   0.00000,-217659768.80818,   0.00000
-269626743.76547,-231972520.54931,-33607008.86747,  -0.00077,  -0.00053,  -0.00044,259522887.27556,   0.00000,274640135.82653,   0.00000,   0.00000,   0.00000,-215117248.55097,   0.00000
-272319370.60143,-234031588.12975,-34032533.74058,  -0.00078,  -0.00053,  -0.00044,262053294.43714,   0.00000,274640135.82653,   0.00000,   0.00000,   0.00000,-212586841.38939,   0.00000
-275028545.62690,-236097747.79141,-34462786.66783,  -0.00079,  -0.00054,  -0.00045,264598333.73569,   0.00000,274640135.82653,   0.00000,   0.00000,   0.00000,-210041802.09084,   0.00000
-277714080.38165,-238140267.18234,-34888311.54094,  -0.00080,  -0.00054,  -0.00045,267119027.47661,   0.00000,274640135.82653,   0.00000,   0.00000,   0.00000,-207521108.34992,   0.00000
-280409071.24468,-240173330.46498,-35318564.46820,  -0.00081,  -0.00055,  -0.00046,269644021.55027,   0.00000,274640135.82653,   0.00000,   0.00000,   0.00000,-204996114.27626,   0.00000
-283087513.91821,-242199301.66640,-35748817.39546,  -0.00082,  -0.00055,  -0.00046,272156899.44982,   0.00000,274640135.82653,   0.00000,   0.00000,   0.00000,-202483236.37671,   0.00000
-285775412.70003,-244215816.75953,-36183798.37686,  -0.00082,  -0.00055,  -0.00047,274674129.89213,   0.00000,274640135.82653,   0.00000,   0.00000,   0.00000,-199966005.93440,   0.00000
-288446763.29233,-246225239.77145,-36618779.35826,  -0.00083,  -0.00056,  -0.00048,277179247.97222,   0.00000,274640135.82653,   0.00000,   0.00000,   0.00000,-197460887.85431,   0.00000
-291127569.99293,-248225206.67507,-37053760.33966,  -0.00084,  -0.00056,  -0.00048,279686891.85318,   0.00000,274640135.82653,   0.00000,   0.00000,   0.00000,-194953243.97335,   0.00000
-293801284.61231,-250208625.38918,-37488741.32107,  -0.00085,  -0.00057,  -0.00049,282184607.44002,   0.00000,274640135.82653,   0.00000,   0.00000,   0.00000,-192455528.38651,   0.00000
-296474999.23169,-252192044.10329,-37923722.30247,  -0.00086,  -0.00057,  -0.00049,284682704.66695,   0.00000,274640135.82653,   0.00000,   0.00000,   0.00000,-189957431.15958,   0.00000
-299125073.58034,-254151822.54667,-38363431.33802,  -0.00087,  -0.00057,  -0.00050,287160294.12241,   0.00000,274640135.82653,   0.00000,   0.00000,   0.00000,-187479841.70412,   0.00000
-301791696.11850,-256118693.07127,-38803140.37356,  -0.00087,  -0.00058,  -0.00050,289650770.93897,   0.00000,274640135.82653,   0.00000,   0.00000,   0.00000,-184989364.88756,   0.00000
-304451226.57545,-258069015.40636,-39242849.40911,  -0.00088,  -0.00058,  -0.00051,292131377.09558,   0.00000,274640135.82653,   0.00000,   0.00000,   0.00000,-182508758.73095,   0.00000
-307103664.95117,-260002789.55195,-39682558.44466,  -0.00089,  -0.00058,  -0.00052,294602135.71263,   0.00000,274640135.82653,   0.00000,   0.00000,   0.00000,-180038000.11390,   0.00000
-309739555.13739,-261929471.61631,-40126995.53435,  -0.00090,  -0.00059,  -0.00052,297062702.83215,   0.00000,274640135.82653,   0.00000,   0.00000,   0.00000,-177577432.99438,   0.00000
-312384901.43189,-263846697.57238,-40571432.62405,  -0.00091,  -0.00059,  -0.00053,299525967.62833,   0.00000,274640135.82653,   0.00000,   0.00000,   0.00000,-175114168.19820,   0.00000
-315030247.72640,-265763923.52845,-41015869.71374,  -0.00092,  -0.00059,  -0.00053,301989652.25817,   0.00000,274640135.82653,   0.00000,   0.00000,   0.00000,-172650483.56836,   0.00000
-317668501.93968,-267664601.29501,-41460306.80343,  -0.00092,  -0.00060,  -0.00054,304443548.32392,   0.00000,274640135.82653,   0.00000,   0.00000,   0.00000,-170196587.50261,   0.00000
-320299664.07175,-269548730.87207,-41909471.94727,  -0.00093,  -0.00060,  -0.00054,306889616.45293,   0.00000,274640135.82653,   0.00000,   0.00000,   0.00000,-167750519.37360,   0.00000
-322914278.01431,-271425768.36790,-42358637.09111,  -0.00094,  -0.00061,  -0.00055,309323592.79767,   0.00000,274640135.82653,   0.00000,   0.00000,   0.00000,-165316543.02886,   0.00000
-325538348.06516,-273293349.75544,-42807802.23495,  -0.00095,  -0.00061,  -0.00056,311760371.53802,   0.00000,274640135.82653,   0.00000,   0.00000,   0.00000,-162879764.28851,   0.00000
-328155326.03479,-275144382.95347,-43256967.37879,  -0.00096,  -0.00061,  -0.00056,314187444.78661,   0.00000,274640135.82653,   0.00000,   0.00000,   0.00000,-160452691.03992,   0.00000
-330772304.00443,-276995416.15151,-43706132.52263,  -0.00096,  -0.00062,  -0.00057,316614977.10390,   0.00000,274640135.82653,   0.00000,   0.00000,   0.00000,-158025158.72263,   0.00000
-333382189.89284,-278829901.16003,-44160025.72061,  -0.00097,  -0.00062,  -0.00057,319034792.58109,   0.00000,274640135.82653,   0.00000,   0.00000,   0.00000,-155605343.24544,   0.00000
-335968435.51052,-280640745.89782,-44613918.91860,  -0.00098,  -0.00062,  -0.00058,321432404.80932,   0.00000,274640135.82653,   0.00000,   0.00000,   0.00000,-153207731.01721,   0.00000
-338571229.31772,-282458682.71683,-45067812.11658,  -0.00099,  -0.00062,  -0.00059,323843055.18548,   0.00000,274640135.82653,   0.00000,   0.00000,   0.00000,-150797080.64105,   0.00000
-341174023.12491,-284276619.53585,-45521705.31457,  -0.00100,  -0.00063,  -0.00059,326254179.23271,   0.00000,274640135.82653,   0.00000,   0.00000,   0.00000,-148385956.59382,   0.00000
-343762632.76967,-286061459.97584,-45980326.56670,  -0.00101,  -0.00063,  -0.00060,328647588.23176,   0.00000,274640135.82653,   0.00000,   0.00000,   0.00000,-145992547.59477,   0.00000
-346334694.22492,-287839208.33461,-46434219.76468,  -0.00101,  -0.00063,  -0.00060,331026942.05989,   0.00000,274640135.82653,   0.00000,   0.00000,   0.00000,-143613193.76664,   0.00000
-348923303.86968,-289624048.77461,-46892841.01682,  -0.00102,  -0.00064,  -0.00061,333421350.91992,   0.00000,274640135.82653,   0.00000,   0.00000,   0.00000,-141218784.90661,   0.00000
-351497729.35200,-291375792.83558,-47351462.26895,  -0.00103,  -0.00064,  -0.00062,335796158.04436,   0.00000,274640135.82653,   0.00000,   0.00000,   0.00000,-138843977.78217,   0.00000
-354055606.64481,-293120444.81533,-47814811.57522,  -0.00104,  -0.00064,  -0.00062,338160907.66704,   0.00000,274640135.82653,   0.00000,   0.00000,   0.00000,-136479228.15949,   0.00000
-356630032.12713,-294872188.87631,-48273432.82735,  -0.00105,  -0.00065,  -0.00063,340536756.23368,   0.00000,274640135.82653,   0.00000,   0.00000,   0.00000,-134103379.59285,   0.00000
-359197365.52823,-296607384.74777,-48736782.13363,  -0.00106,  -0.00065,  -0.00063,342905116.16180,   0.00000,274640135.82653,   0.00000,   0.00000,   0.00000,-131735019.66473,   0.00000
-361741058.65860,-298318940.34850,-49195403.38576,  -0.00106,  -0.00065,  -0.00064,345249384.55178,   0.00000,274640135.82653,   0.00000,   0.00000,   0.00000,-129390751.27475,   0.00000
-364294207.89727,-300021039.84095,-49658752.69204,  -0.00107,  -0.00065,  -0.00065,347598823.86187,   0.00000,274640135.82653,   0.00000,   0.00000,   0.00000,-127041311.96466,   0.00000
-366847357.13593,-301723139.33339,-50126830.05246,  -0.00108,  -0.00066,  -0.00065,349950849.79027,   0.00000,274640135.82653,   0.00000,   0.00000,   0.00000,-124689286.03626,   0.00000
-369376866.10387,-303401598.55511,-50590179.35873,  -0.00109,  -0.00066,  -0.00066,352278818.99990,   0.00000,274640135.82653,   0.00000,   0.00000,   0.00000,-122361316.82662,   0.00000
-371922923.26132,-305087149.85804,-51053528.66501,  -0.00110,  -0.00066,  -0.00066,354619956.57115,   0.00000,274640135.82653,   0.00000,   0.00000,   0.00000,-120020179.25538,   0.00000
-374438248.06682,-306732512.70074,-51521606.02543,  -0.00111,  -0.00067,  -0.00067,356931196.37344,   0.00000,274640135.82653,   0.00000,   0.00000,   0.00000,-117708939.45309,   0.00000
-376960664.95354,-308394423.73294,-51989683.38585,  -0.00111,  -0.00067,  -0.00068,359252944.32911,   0.00000,274640135.82653,   0.00000,   0.00000,   0.00000,-115387191.49742,   0.00000
-379485445.86733,-310030330.46734,-52457760.74628,  -0.00112,  -0.00067,  -0.00068,361568058.92191,   0.00000,274640135.82653,   0.00000,   0.00000,   0.00000,-113072076.90462,   0.00000
-381993678.59161,-311659145.12053,-52925838.10670,  -0.00113,  -0.00067,  -0.00069,363871135.05717,   0.00000,274640135.82653,   0.00000,   0.00000,   0.00000,-110769000.76936,   0.00000
-384494819.23467,-313271411.58421,-53393915.46712,  -0.00114,  -0.00068,  -0.00069,366164907.10134,   0.00000,274640135.82653,   0.00000,   0.00000,   0.00000,-108475228.72519,   0.00000
-387012508.06724,-314890770.12910,-53866720.88169,  -0.00115,  -0.00068,  -0.00070,368473991.82811,   0.00000,274640135.82653,   0.00000,   0.00000,   0.00000,-106166143.99842,   0.00000
-389506556.62909,-316486488.40327,-54334798.24211,  -0.00116,  -0.00068,  -0.00071,370759091.02991,   0.00000,274640135.82653,   0.00000,   0.00000,   0.00000,-103881044.79662,   0.00000
-391993513.10971,-318065658.48792,-54807603.65668,  -0.00116,  -0.00068,  -0.00071,373037026.06441,   0.00000,274640135.82653,   0.00000,   0.00000,   0.00000,-101603109.76212,   0.00000
-394473377.50912,-319628280.38307,-55280409.07124,  -0.00117,  -0.00069,  -0.00072,375305751.02868,   0.00000,274640135.82653,   0.00000,   0.00000,   0.00000,-99334384.79785,   0.00000
-396953241.90853,-321190902.27821,-55753214.48581,  -0.00118,  -0.00069,  -0.00072,377575111.48594,   0.00000,274640135.82653,   0.00000,   0.00000,   0.00000,-97065024.34059,   0.00000
-399426014.22671,-322736975.98385,-56226019.90038,  -0.00119,  -0.00069,  -0.00073,379835291.26312,   0.00000,274640135.82653,   0.00000,   0.00000,   0.00000,-94804844.56341,   0.00000
-401898786.54490,-324283049.68949,-56698825.31495,  -0.00120,  -0.00069,  -0.00074,382096109.83518,   0.00000,274640135.82653,   0.00000,   0.00000,   0.00000,-92544025.99135,   0.00000
-404364466.78187,-325812575.20561,-57176358.78366,  -0.00120,  -0.00069,  -0.00074,384349887.37520,   0.00000,274640135.82653,   0.00000,   0.00000,   0.00000,-90290248.45133,   0.00000
-406806506.74812,-327318460.45101,-57649164.19823,  -0.00121,  -0.00070,  -0.00075,386579755.53906,   0.00000,274640135.82653,   0.00000,   0.00000,   0.00000,-88060380.28747,   0.00000
-409258002.82265,-328814889.58812,-58126697.66694,  -0.00122,  -0.00070,  -0.00076,388815326.88802,   0.00000,274640135.82653,   0.00000,   0.00000,   0.00000,-85824808.93851,   0.00000
-411709498.89718,-330311318.72522,-58604231.13565,  -0.00123,  -0.00070,  -0.00076,391051580.95671,   0.00000,274640135.82653,   0.00000,   0.00000,   0.00000,-83588554.86982,   0.00000
-414137354.70099,-331784107.59160,-59081764.60437,  -0.00124,  -0.00070,  -0.00077,393266086.36592,   0.00000,274640135.82653,   0.00000,   0.00000,   0.00000,-81374049.46061,   0.00000
-416581758.69430,-333263988.53920,-59559298.07308,  -0.00125,  -0.00070,  -0.00077,395493968.65139,   0.00000,274640135.82653,   0.00000,   0.00000,   0.00000,-79146167.17514,   0.00000
-419002522.41689,-334720229.21606,-60036831.54179,  -0.00125,  -0.00071,  -0.00078,397700124.11038,   0.00000,274640135.82653,   0.00000,   0.00000,   0.00000,-76940011.71615,   0.00000
-421432742.24776,-336167013.78464,-60514365.01051,  -0.00126,  -0.00071,  -0.00079,399909984.92251,   0.00000,274640135.82653,   0.00000,   0.00000,   0.00000,-74730150.90402,   0.00000
-423839321.80791,-337590158.08249,-60996626.53337,  -0.00127,  -0.00071,  -0.00079,402100319.86980,   0.00000,274640135.82653,   0.00000,   0.00000,   0.00000,-72539815.95673,   0.00000
-426245901.36806,-339013302.38034,-61474160.00208,  -0.00128,  -0.00071,  -0.00080,404289220.75528,   0.00000,274640135.82653,   0.00000,   0.00000,   0.00000,-70350915.07125,   0.00000
-428645388.84699,-340419898.48868,-61956421.52494,  -0.00129,  -0.00071,  -0.00081,406471341.44048,   0.00000,274640135.82653,   0.00000,   0.00000,   0.00000,-68168794.38605,   0.00000
-431044876.32592,-341826494.59702,-62438683.04780,  -0.00129,  -0.00071,  -0.00081,408654188.95326,   0.00000,274640135.82653,   0.00000,   0.00000,   0.00000,-65985946.87327,   0.00000
-433437271.72364,-343216542.51584,-62920944.57066,  -0.00130,  -0.00072,  -0.00082,410828136.29821,   0.00000,274640135.82653,   0.00000,   0.00000,   0.00000,-63811999.52832,   0.00000
-435822575.04013,-344590042.24516,-63398478.03937,  -0.00131,  -0.00072,  -0.00082,412991035.78381,   0.00000,274640135.82653,   0.00000,   0.00000,   0.00000,-61649100.04272,   0.00000
-438200786.27540,-345946993.78497,-63880739.56223,  -0.00132,  -0.00072,  -0.00083,415147267.33547,   0.00000,274640135.82653,   0.00000,   0.00000,   0.00000,-59492868.49106,   0.00000
-440562449.32117,-347296853.24356,-64367729.13923,  -0.00133,  -0.00072,  -0.00084,417293706.37700,   0.00000,274640135.82653,   0.00000,   0.00000,   0.00000,-57346429.44953,   0.00000
-442933568.47523,-348637256.59386,-64849990.66209,  -0.00134,  -0.00072,  -0.00084,419441894.03013,   0.00000,274640135.82653,   0.00000,   0.00000,   0.00000,-55198241.79640,   0.00000
-445281047.35855,-349954019.67343,-65332252.18495,  -0.00134,  -0.00072,  -0.00085,421568552.12584,   0.00000,274640135.82653,   0.00000,   0.00000,   0.00000,-53071583.70069,   0.00000
-447645074.43139,-351277874.83422,-65814513.70781,  -0.00135,  -0.00073,  -0.00086,423708742.21363,   0.00000,274640135.82653,   0.00000,   0.00000,   0.00000,-50931393.61290,   0.00000
-449985461.23350,-352578089.72428,-66301503.28482,  -0.00136,  -0.00073,  -0.00086,425829635.37455,   0.00000,274640135.82653,   0.00000,   0.00000,   0.00000,-48810500.45198,   0.00000
-452318755.95439,-353861756.42483,-66783764.80767,  -0.00137,  -0.00073,  -0.00087,427939603.13103,   0.00000,274640135.82653,   0.00000,   0.00000,   0.00000,-46700532.69550,   0.00000
-454652050.67528,-355145423.12539,-67270754.38468,  -0.00138,  -0.00073,  -0.00087,430052586.34812,   0.00000,274640135.82653,   0.00000,   0.00000,   0.00000,-44587549.47841,   0.00000
-456978253.31496,-356412541.63643,-67757743.96168,  -0.00138,  -0.00073,  -0.00088,432156891.30488,   0.00000,274640135.82653,   0.00000,   0.00000,   0.00000,-42483244.52165,   0.00000
-459297363.87341,-357663111.95796,-68240005.48454,  -0.00139,  -0.00073,  -0.00089,434250320.30507,   0.00000,274640135.82653,   0.00000,   0.00000,   0.00000,-40389815.52146,   0.00000
-461616474.43187,-358913682.27949,-68726995.06155,  -0.00140,  -0.00073,  -0.00089,436346802.10319,   0.00000,274640135.82653,   0.00000,   0.00000,   0.00000,-38293333.72334,   0.00000
-463911944.71959,-360140612.33029,-69213984.63855,  -0.00141,  -0.00073,  -0.00090,438421883.88941,   0.00000,274640135.82653,   0.00000,   0.00000,   0.00000,-36218251.93712,   0.00000
-466216871.11561,-361358086.27280,-69700974.21556,  -0.00142,  -0.00074,  -0.00091,440501167.43652,   0.00000,274640135.82653,   0.00000,   0.00000,   0.00000,-34138968.39001,   0.00000
-468505249.32212,-362568468.13410,-70187963.79256,  -0.00142,  -0.00074,  -0.00091,442568506.50721,   0.00000,274640135.82653,   0.00000,   0.00000,   0.00000,-32071629.31932,   0.00000
-470786535.44740,-363762301.80588,-70674953.36957,  -0.00143,  -0.00074,  -0.00092,444627290.52712,   0.00000,274640135.82653,   0.00000,   0.00000,   0.00000,-30012845.29941,   0.00000
-473077277.68098,-364946679.36937,-71161942.94657,  -0.00144,  -0.00074,  -0.00093,446690356.10566,   0.00000,274640135.82653,   0.00000,   0.00000,   0.00000,-27949779.72087,   0.00000
-475351471.72505,-366123964.85165,-71653660.57772,  -0.00145,  -0.00074,  -0.00093,448743752.05275,   0.00000,274640135.82653,   0.00000,   0.00000,   0.00000,-25896383.77378,   0.00000
-477594933.41718,-367261061.87368,-72140650.15473,  -0.00146,  -0.00074,  -0.00094,450764246.38196,   0.00000,274640135.82653,   0.00000,   0.00000,   0.00000,-23875889.44457,   0.00000
-479862035.38003,-368421799.16644,-72627639.73173,  -0.00146,  -0.00074,  -0.00094,452807776.91282,   0.00000,274640135.82653,   0.00000,   0.00000,   0.00000,-21832358.91371,   0.00000
-482114953.18044,-369549440.08019,-73114629.30873,  -0.00147,  -0.00074,  -0.00095,454833544.05596,   0.00000,274640135.82653,   0.00000,   0.00000,   0.00000,-19806591.77057,   0.00000
-484351322.79135,-370669988.91271,-73606346.93989,  -0.00148,  -0.00074,  -0.00096,456849677.73969,   0.00000,274640135.82653,   0.00000,   0.00000,   0.00000,-17790458.08684,   0.00000
-486597148.51054,-371781081.63695,-74093336.51689,  -0.00149,  -0.00074,  -0.00096,458867966.80052,   0.00000,274640135.82653,   0.00000,   0.00000,   0.00000,-15772169.02601,   0.00000
-488826426.04023,-372885082.27996,-74585054.14804,  -0.00150,  -0.00074,  -0.00097,460876630.12390,   0.00000,274640135.82653,   0.00000,   0.00000,   0.00000,-13763505.70262,   0.00000
-491048611.48870,-373972534.73347,-75072043.72504,  -0.00151,  -0.00074,  -0.00098,462874644.92165,   0.00000,274640135.82653,   0.00000,   0.00000,   0.00000,-11765490.90488,   0.00000
-493263704.85595,-375043438.99746,-75563761.35620,  -0.00151,  -0.00074,  -0.00098,464866640.61034,   0.00000,274640135.82653,   0.00000,   0.00000,   0.00000,-9773495.21619,   0.00000
-495478798.22320,-376114343.26146,-76050750.93320,  -0.00152,  -0.00075,  -0.00099,466857265.18339,   0.00000,274640135.82653,   0.00000,   0.00000,   0.00000,-7782870.64313,   0.00000
-497663159.23850,-377145059.06522,-76542468.56435,  -0.00153,  -0.00075,  -0.00100,468819861.49985,   0.00000,274640135.82653,   0.00000,   0.00000,   0.00000,-5820274.32668,   0.00000
-499871160.52453,-378199415.13970,-77029458.14135,  -0.00154,  -0.00075,  -0.00100,470803150.41982,   0.00000,274640135.82653,   0.00000,   0.00000,   0.00000,-3836985.40671,   0.00000
-502048429.45861,-379213582.75395,-77521175.77250,  -0.00154,  -0.00075,  -0.00101,472758480.93441,   0.00000,274640135.82653,   0.00000,   0.00000,   0.00000,-1881654.89212,   0.00000
-504142635.94499,-380189060.04239,-77994134.45781,  -0.00155,  -0.00075,  -0.00101,474640136.20397,   0.00000,274640135.82653,   0.00000,   0.00000,   0.00000,   0.37745,   0.00000
-504146834.38086,-380171600.62602,-77998602.79702,  -0.00155,  -0.00075,  -0.00101,474640136.20397,   0.00000,274640404.57166,  -0.00000,  -0.00000,  -0.00000,   0.02591,   1.00000
-504261079.71439,-379708383.80121,-78112382.39304,  -0.00156,  -0.00075,  -0.00102,476586187.94429,   0.00001,274647412.82430,  -0.00001,  -0.00000,  -0.00001,   0.00000,   2.00000
-504371653.75922,-379245110.69843,-78229783.15845,  -0.00157,  -0.00075,  -0.00103,476596341.30571,   0.00001,274654434.67902,  -0.00001,  -0.00001,  -0.00001,   0.00000,   2.00000
-504483566.30495,-378773848.93241,-78348275.69886,  -0.00158,  -0.00075,  -0.00103,476595053.66477,   0.00002,274661428.90413,  -0.00002,  -0.00001,  -0.00001,  -0.00000,   2.00000
-504596326.55787,-378298849.69181,-78466067.26132,  -0.00158,  -0.00075,  -0.00104,476578548.45236,   0.00003,274668340.73136,  -0.00003,  -0.00001,  -0.00002,  -0.00000,   2.00000
-504708297.49158,-377821290.31452,-78584985.54218,  -0.00159,  -0.00075,  -0.00105,476601532.31864,   0.00003,274675312.86034,  -0.00003,  -0.00001,  -0.00002,   0.00000,   2.00000
-504818622.80309,-377338192.12613,-78707464.57329,  -0.00160,  -0.00075,  -0.00105,476587386.68765,   0.00004,274682211.19437,  -0.00004,  -0.00002,  -0.00003,  -0.00000,   2.00000
-504930191.47699,-376847031.08074,-78831012.03602,  -0.00161,  -0.00075,  -0.00106,476586085.63022,   0.00004,274689082.36244,  -0.00005,  -0.00002,  -0.00003,  -0.00000,   2.00000
-505045447.41746,-376349539.14252,-78951369.74288,  -0.00162,  -0.00075,  -0.00107,476582434.41448,   0.00005,274695917.97395,  -0.00005,  -0.00002,  -0.00004,  -0.00000,   2.00000
-505156916.67563,-375852023.89062,-79075307.93649,  -0.00162,  -0.00075,  -0.00107,476592536.52506,   0.00006,274702767.83349,  -0.00006,  -0.00002,  -0.00004,  -0.00000,   2.00000
-505264224.88626,-375358670.97666,-79201055.13375,  -0.00163,  -0.00075,  -0.00108,476587385.37257,   0.00006,274709576.77807,  -0.00006,  -0.00003,  -0.00005,   0.00000,   2.00000
-505378022.54816,-374844885.16124,-79327103.47945,  -0.00164,  -0.00075,  -0.00108,476589979.93646,   0.00007,274716373.02759,  -0.00007,  -0.00003,  -0.00005,  -0.00000,   2.00000
-505490118.90089,-374336997.14907,-79450710.20840,  -0.00165,  -0.00075,  -0.00109,476582440.24309,   0.00008,274723119.93518,  -0.00008,  -0.00003,  -0.00006,   0.00000,   2.00000
-505598405.95355,-373829082.91280,-79577880.71538,  -0.00166,  -0.00075,  -0.00110,476592495.42691,   0.00008,274729881.31343,  -0.00008,  -0.00003,  -0.00006,  -0.00000,   2.00000
-505707796.21158,-373312967.63558,-79706097.52869,  -0.00166,  -0.00075,  -0.00110,476591224.43499,   0.00009,274736616.18167,  -0.00009,  -0.00004,  -0.00007,   0.00000,   2.00000
-505817915.71403,-372792750.23193,-79833629.36937,  -0.00167,  -0.00075,  -0.00111,476574654.42396,   0.00009,274743269.25404,  -0.00010,  -0.00004,  -0.00007,   0.00000,   2.00000
-505929396.15580,-372260180.80874,-79963927.05402,  -0.00168,  -0.00075,  -0.00112,476588658.30862,   0.00010,274749951.56463,  -0.00010,  -0.00004,  -0.00008,   0.00000,   2.00000
-506036672.80304,-371731702.34871,-80096033.91184,  -0.00169,  -0.00075,  -0.00112,476583412.62305,   0.00011,274756593.28324,  -0.00011,  -0.00004,  -0.00008,  -0.00000,   2.00000
-506147477.43107,-371196676.63607,-80224925.82712,  -0.00169,  -0.00075,  -0.00113,476579743.32647,   0.00011,274763200.25593,  -0.00011,  -0.00004,  -0.00009,   0.00000,   2.00000
-506254385.05908,-370661641.05495,-80357349.19948,  -0.00170,  -0.00075,  -0.00114,476589759.66302,   0.00012,274769822.22434,  -0.00012,  -0.00005,  -0.00009,   0.00000,   2.00000
-506362249.40637,-370118280.88838,-80490792.86787,  -0.00171,  -0.00075,  -0.00114,476588516.98151,   0.00012,274776418.35298,  -0.00013,  -0.00005,  -0.00010,   0.00000,   2.00000
-506470760.68447,-369570603.94164,-80623560.86366,  -0.00172,  -0.00075,  -0.00115,476571929.57378,   0.00013,274782933.05484,  -0.00013,  -0.00005,  -0.00010,   0.00000,   2.00000
-506578143.66175,-369020643.70092,-80757291.46334,  -0.00172,  -0.00074,  -0.00115,476594856.41360,   0.00014,274789510.02296,  -0.00014,  -0.00005,  -0.00010,  -0.00000,   2.00000
-506686151.61850,-368466297.17032,-80890355.21044,  -0.00173,  -0.00074,  -0.00116,476578282.66166,   0.00014,274796005.64478,  -0.00015,  -0.00006,  -0.00011,   0.00000,   2.00000
-506792449.58201,-367901791.85971,-81028666.46358,  -0.00174,  -0.00074,  -0.00117,476579451.79480,   0.00015,274802484.69372,  -0.00015,  -0.00006,  -0.00011,   0.00000,   2.00000
-506899883.84354,-367340768.41451,-81161999.56716,  -0.00175,  -0.00074,  -0.00117,476584602.71625,   0.00015,274808961.64759,  -0.00016,  -0.00006,  -0.00012,   0.00000,   2.00000
-507002776.50640,-366771755.40576,-81303142.23227,  -0.00176,  -0.00074,  -0.00118,476572840.68253,   0.00016,274815375.09257,  -0.00016,  -0.00006,  -0.00012,   0.00000,   2.00000
-507109593.40979,-366204015.97228,-81436728.66547,  -0.00176,  -0.00074,  -0.00119,476590904.27872,   0.00017,274821833.66494,  -0.00017,  -0.00006,  -0.00013,  -0.00000,   2.00000
-507211826.50969,-365628216.83732,-81578127.64909,  -0.00177,  -0.00074,  -0.00119,476579174.34191,   0.00017,274828228.88450,  -0.00018,  -0.00007,  -0.00013,   0.00000,   2.00000
-507317373.65531,-365045615.55703,-81716281.74889,  -0.00178,  -0.00074,  -0.00120,476575524.99278,   0.00018,274834590.36779,  -0.00018,  -0.00007,  -0.00014,  -0.00000,   2.00000
-507418705.45417,-364466899.65714,-81856276.65742,  -0.00179,  -0.00074,  -0.00121,476570045.89380,   0.00018,274840911.53796,  -0.00019,  -0.00007,  -0.00014,   0.00000,   2.00000
-507520902.59277,-363875716.40003,-81998887.92307,  -0.00179,  -0.00074,  -0.00121,476584242.25223,   0.00019,274847264.28310,  -0.00019,  -0.00007,  -0.00015,   0.00000,   2.00000
-507621478.02950,-363290131.38903,-82139109.26199,  -0.00180,  -0.00074,  -0.00122,476576319.88655,   0.00019,274853567.83259,  -0.00020,  -0.00007,  -0.00015,   0.00000,   2.00000
-507722713.60106,-362695899.35112,-82280315.72826,  -0.00181,  -0.00074,  -0.00122,476575108.89163,   0.00020,274859846.85067,  -0.00021,  -0.00008,  -0.00015,   0.00000,   2.00000
-507824563.70901,-362093002.10544,-82422499.98931,  -0.00182,  -0.00074,  -0.00123,476573918.09306,   0.00021,274866101.52459,  -0.00021,  -0.00008,  -0.00016,   0.00000,   2.00000
-507924914.76671,-361491844.83987,-82563921.02916,  -0.00182,  -0.00073,  -0.00124,476581379.05658,   0.00021,274872363.49832,  -0.00022,  -0.00008,  -0.00016,   0.00000,   2.00000
-508025832.74562,-360881980.19124,-82706316.04909,  -0.00183,  -0.00073,  -0.00124,476580224.49332,   0.00022,274878601.32598,  -0.00022,  -0.00008,  -0.00017,   0.00000,   2.00000
-508124559.64699,-360265417.32482,-82852298.36255,  -0.00184,  -0.00073,  -0.00125,476566075.91908,   0.00022,274884767.63772,  -0.00023,  -0.00008,  -0.00017,  -0.00000,   2.00000
-508221763.82001,-359650584.65306,-82997502.99311,  -0.00185,  -0.00073,  -0.00126,476573490.28508,   0.00023,274890941.45879,  -0.00024,  -0.00009,  -0.00018,   0.00000,   2.00000
-508317460.52200,-359037483.89262,-83141934.32541,  -0.00185,  -0.00073,  -0.00126,476580903.20475,   0.00023,274897122.75091,  -0.00024,  -0.00009,  -0.00018,   0.00000,   2.00000
-508410952.15491,-358417542.92342,-83289961.86472,  -0.00186,  -0.00073,  -0.00127,476566742.06637,   0.00024,274903232.58732,  -0.00025,  -0.00009,  -0.00019,   0.00000,   2.00000
-508507594.76528,-357786782.61724,-83436296.88240,  -0.00187,  -0.00073,  -0.00127,476578608.61334,   0.00025,274909366.50524,  -0.00025,  -0.00009,  -0.00019,   0.00000,   2.00000
-508600002.16503,-357159709.11387,-83584494.84704,  -0.00188,  -0.00073,  -0.00128,476572995.53576,   0.00025,274915460.39742,  -0.00026,  -0.00009,  -0.00019,  -0.00000,   2.00000
-508695468.65878,-356525455.60707,-83729435.56793,  -0.00188,  -0.00073,  -0.00129,476569368.00170,   0.00026,274921521.66706,  -0.00026,  -0.00010,  -0.00020,   0.00000,   2.00000
-508788645.38013,-355880549.78283,-83879530.92248,  -0.00189,  -0.00072,  -0.00129,476570754.18205,   0.00026,274927568.86041,  -0.00027,  -0.00010,  -0.00020,   0.00000,   2.00000
-508880235.00038,-355240987.94504,-84027291.78681,  -0.00190,  -0.00072,  -0.00130,476562575.52813,   0.00027,274933566.88915,  -0.00028,  -0.00010,  -0.00021,  -0.00000,   2.00000
-508967618.25634,-354601413.12728,-84178470.26376,  -0.00191,  -0.00072,  -0.00131,476572395.96866,   0.00027,274939581.97177,  -0.00028,  -0.00010,  -0.00021,   0.00000,   2.00000
-509057997.44292,-353954541.95869,-84326384.23560,  -0.00191,  -0.00072,  -0.00131,476568778.48753,   0.00028,274945564.72633,  -0.00029,  -0.00010,  -0.00022,   0.00000,   2.00000
-509145983.27650,-353296909.31456,-84479432.18581,  -0.00192,  -0.00072,  -0.00132,476570211.21478,   0.00028,274951533.86805,  -0.00029,  -0.00010,  -0.00022,   0.00000,   2.00000
-509235057.98476,-352642720.25771,-84627482.11661,  -0.00193,  -0.00072,  -0.00133,476575020.05394,   0.00029,274957501.80554,  -0.00030,  -0.00011,  -0.00023,   0.00000,   2.00000
-509321718.24601,-351981238.86125,-84779153.39965,  -0.00194,  -0.00072,  -0.00133,476560904.70231,   0.00029,274963398.98321,  -0.00030,  -0.00011,  -0.00023,   0.00000,   2.00000
-509406792.18896,-351321461.52070,-84930029.04312,  -0.00194,  -0.00071,  -0.00134,476568175.63557,   0.00030,274969304.28469,  -0.00031,  -0.00011,  -0.00023,   0.00000,   2.00000
-509492058.05742,-350652527.34636,-85081831.16848,  -0.00195,  -0.00071,  -0.00134,476567116.67846,   0.00031,274975187.05948,  -0.00032,  -0.00011,  -0.00024,   0.00000,   2.00000
-509575722.56937,-349985304.77247,-85232835.03357,  -0.00196,  -0.00071,  -0.00135,476574394.83674,   0.00031,274981078.06971,  -0.00032,  -0.00011,  -0.00024,   0.00000,   2.00000
-509656904.30036,-349310598.62161,-85387465.36013,  -0.00196,  -0.00071,  -0.00136,476560298.54387,   0.00032,274986898.55563,  -0.00033,  -0.00011,  -0.00025,   0.00000,   2.00000
-509738191.33624,-348626643.00898,-85543004.08485,  -0.00197,  -0.00071,  -0.00136,476559258.19681,   0.00032,274992696.89860,  -0.00033,  -0.00011,  -0.00025,   0.00000,   2.00000
-509817847.91862,-347944386.13103,-85697729.95363,  -0.00198,  -0.00071,  -0.00137,476566499.60743,   0.00033,274998503.70438,  -0.00034,  -0.00012,  -0.00026,  -0.00000,   2.00000
-509895890.13920,-347263831.41882,-85851647.32772,  -0.00199,  -0.00070,  -0.00138,476573739.78867,   0.00033,275004318.93271,  -0.00034,  -0.00012,  -0.00026,   0.00000,   2.00000
-509974099.01731,-346577305.73677,-86005020.11894,  -0.00199,  -0.00070,  -0.00138,476557097.32523,   0.00034,275010054.36127,  -0.00035,  -0.00012,  -0.00026,  -0.00000,   2.00000
-510049592.00345,-345879702.67632,-86163478.53990,  -0.00200,  -0.00070,  -0.00139,476558651.00168,   0.00034,275015777.52355,  -0.00035,  -0.00012,  -0.00027,  -0.00000,   2.00000
-510126172.59999,-345185493.39638,-86316941.19548,  -0.00201,  -0.00070,  -0.00139,476563277.84705,   0.00035,275021499.77818,  -0.00036,  -0.00012,  -0.00027,   0.00000,   2.00000
-510198386.25472,-344491268.63769,-86473773.92468,  -0.00202,  -0.00070,  -0.00140,476573045.96727,   0.00035,275027240.16320,  -0.00037,  -0.00012,  -0.00028,   0.00000,   2.00000
-510270709.49039,-343790869.57806,-86630073.51800,  -0.00202,  -0.00069,  -0.00141,476556412.33791,   0.00036,275032900.90934,  -0.00037,  -0.00013,  -0.00028,   0.00000,   2.00000
-510345529.10969,-343079442.25102,-86784517.80075,  -0.00203,  -0.00069,  -0.00141,476568549.76139,   0.00036,275038588.83778,  -0.00038,  -0.00013,  -0.00028,   0.00000,   2.00000
-510416094.97636,-342371232.88046,-86940906.52854,  -0.00204,  -0.00069,  -0.00142,476562637.53592,   0.00037,275044236.97160,  -0.00038,  -0.00013,  -0.00029,   0.00000,   2.00000
-510482442.99521,-341666199.83338,-87099244.31820,  -0.00204,  -0.00069,  -0.00143,476556666.89243,   0.00037,275049845.19260,  -0.00039,  -0.00013,  -0.00029,   0.00000,   2.00000
-510551228.95950,-340950105.34523,-87255703.78224,  -0.00205,  -0.00069,  -0.00143,476568829.54285,   0.00038,275055480.92481,  -0.00039,  -0.00013,  -0.00030,  -0.00000,   2.00000
-510617250.48357,-340225884.06394,-87415816.93797,  -0.00206,  -0.00068,  -0.00144,476554824.03619,   0.00038,275061046.98998,  -0.00040,  -0.00013,  -0.00030,   0.00000,   2.00000
-510681593.71531,-339503326.81262,-87575103.59019,  -0.00206,  -0.00068,  -0.00144,476561945.00726,   0.00039,275066622.03803,  -0.00040,  -0.00013,  -0.00031,   0.00000,   2.00000
-510747053.00684,-338784129.63699,-87729411.31801,  -0.00207,  -0.00068,  -0.00145,476566444.32717,   0.00039,275072196.26295,  -0.00041,  -0.00013,  -0.00031,  -0.00000,   2.00000
-510806927.38008,-338054952.33010,-87891552.06109,  -0.00208,  -0.00068,  -0.00146,476555051.03501,   0.00040,275077710.63285,  -0.00041,  -0.00014,  -0.00031,   0.00000,   2.00000
-510865137.79234,-337327425.60773,-88052862.79821,  -0.00209,  -0.00068,  -0.00146,476562129.56499,   0.00040,275083234.02892,  -0.00042,  -0.00014,  -0.00032,   0.00000,   2.00000
-510925848.87773,-336591834.66767,-88210886.00212,  -0.00209,  -0.00067,  -0.00147,476558634.06967,   0.00041,275088727.07245,  -0.00042,  -0.00014,  -0.00032,   0.00000,   2.00000
-510984879.08570,-335857897.62823,-88368093.35843,  -0.00210,  -0.00067,  -0.00147,476565705.16549,   0.00041,275094229.19602,  -0.00043,  -0.00014,  -0.00033,   0.00000,   2.00000
-511038212.90895,-335113780.95626,-88533128.78483,  -0.00211,  -0.00067,  -0.00148,476554370.38883,   0.00042,275099671.83341,  -0.00044,  -0.00014,  -0.00033,   0.00000,   2.00000
-511095208.66523,-334371701.79284,-88690366.25060,  -0.00211,  -0.00067,  -0.00149,476571927.41415,   0.00042,275105162.86169,  -0.00044,  -0.00014,  -0.00033,  -0.00000,   2.00000
-511149257.28844,-333621034.96067,-88851287.21280,  -0.00212,  -0.00066,  -0.00149,476557996.52670,   0.00043,275110584.68205,  -0.00045,  -0.00014,  -0.00034,   0.00000,   2.00000
-511197828.60688,-332884796.36935,-89012521.53968,  -0.00213,  -0.00066,  -0.00150,476559715.07185,   0.00043,275115995.85633,  -0.00045,  -0.00014,  -0.00034,   0.00000,   2.00000
-511249753.46433,-332125821.07566,-89173471.43507,  -0.00213,  -0.00066,  -0.00151,476564224.97228,   0.00044,275121406.92858,  -0.00046,  -0.00015,  -0.00035,   0.00000,   2.00000
-511300263.86011,-331371367.19337,-89332283.29364,  -0.00214,  -0.00066,  -0.00151,476555448.31313,   0.00044,275126768.19216,  -0.00046,  -0.00015,  -0.00035,   0.00000,   2.00000
-511346251.97136,-330616867.20392,-89494417.65552,  -0.00215,  -0.00066,  -0.00152,476565105.82067,   0.00045,275132148.75038,  -0.00047,  -0.00015,  -0.00035,  -0.00000,   2.00000
-511389204.19594,-329853498.98452,-89660239.42287,  -0.00216,  -0.00065,  -0.00152,476551184.68201,   0.00045,275137460.33506,  -0.00047,  -0.00015,  -0.00036,   0.00000,   2.00000
-511435823.75730,-329092283.41067,-89818242.81951,  -0.00216,  -0.00065,  -0.00153,476568645.45956,   0.00046,275142820.62765,  -0.00048,  -0.00015,  -0.00036,  -0.00000,   2.00000
-511478238.94458,-328333812.62232,-89978283.73458,  -0.00217,  -0.00065,  -0.00154,476562464.99941,   0.00046,275148140.88913,  -0.00048,  -0.00015,  -0.00037,  -0.00000,   2.00000
-511517227.41248,-327563558.27975,-90143306.66452,  -0.00218,  -0.00065,  -0.00154,476564413.56709,   0.00047,275153451.77033,  -0.00049,  -0.00015,  -0.00037,   0.00000,   2.00000
-511555934.19086,-326785885.93048,-90307889.90079,  -0.00218,  -0.00064,  -0.00155,476547846.29290,   0.00047,275158683.83804,  -0.00049,  -0.00015,  -0.00037,   0.00000,   2.00000
-511594389.44150,-326020567.73514,-90467109.63028,  -0.00219,  -0.00064,  -0.00155,476575605.19683,   0.00048,275164003.65885,  -0.00050,  -0.00015,  -0.00038,   0.00000,   2.00000
-511629695.31766,-325246074.41821,-90630047.47788,  -0.00220,  -0.00064,  -0.00156,476561750.13167,   0.00048,275169254.70296,  -0.00050,  -0.00016,  -0.00038,   0.00000,   2.00000
-511664311.56523,-324461340.98810,-90793817.65291,  -0.00220,  -0.00064,  -0.00157,476561071.24271,   0.00049,275174486.72154,  -0.00051,  -0.00016,  -0.00039,  -0.00000,   2.00000
-511694706.04984,-323679185.29200,-90959634.83855,  -0.00221,  -0.00063,  -0.00157,476554816.77306,   0.00049,275179678.78285,  -0.00051,  -0.00016,  -0.00039,   0.00000,   2.00000
-511728792.11633,-322899328.04790,-91117613.44750,  -0.00222,  -0.00063,  -0.00158,476572182.66242,   0.00050,275184919.85605,  -0.00052,  -0.00016,  -0.00039,  -0.00000,   2.00000
-511755804.25468,-322120358.97315,-91281789.25471,  -0.00222,  -0.00063,  -0.00158,476568627.19417,   0.00050,275190131.03058,  -0.00052,  -0.00016,  -0.00040,   0.00000,   2.00000
-511782454.33088,-321333575.92177,-91445570.16814,  -0.00223,  -0.00062,  -0.00159,476552063.30142,   0.00051,275195263.38294,  -0.00053,  -0.00016,  -0.00040,   0.00000,   2.00000
-511807895.16295,-320533861.48902,-91611386.89894,  -0.00224,  -0.00062,  -0.00160,476567342.48976,   0.00051,275200437.25115,  -0.00053,  -0.00016,  -0.00041,   0.00000,   2.00000
-511831161.42709,-319750259.19452,-91773511.46948,  -0.00224,  -0.00062,  -0.00160,476565790.11520,   0.00052,275205588.93487,  -0.00054,  -0.00016,  -0.00041,   0.00000,   2.00000
-511853605.74888,-318956199.47394,-91936463.97928,  -0.00225,  -0.00062,  -0.00161,476565170.20298,   0.00052,275210722.05005,  -0.00054,  -0.00016,  -0.00041,   0.00000,   2.00000
-511875169.07725,-318151657.20628,-92100233.80903,  -0.00226,  -0.00061,  -0.00161,476564590.96210,   0.00053,275215836.83556,  -0.00055,  -0.00016,  -0.00042,  -0.00000,   2.00000
-511891737.29342,-317361578.22073,-92264454.88345,  -0.00226,  -0.00061,  -0.00162,476565651.23424,   0.00053,275220939.47895,  -0.00055,  -0.00016,  -0.00042,   0.00000,   2.00000
-511909908.05293,-316560194.06686,-92426566.58914,  -0.00227,  -0.00061,  -0.00163,476578281.10765,   0.00054,275226073.80782,  -0.00056,  -0.00017,  -0.00043,  -0.00000,   2.00000
-511924633.47974,-315748987.54788,-92592418.16412,  -0.00228,  -0.00060,  -0.00163,476564565.92591,   0.00054,275231140.06057,  -0.00056,  -0.00017,  -0.00043,   0.00000,   2.00000
-511934445.12441,-314952241.55401,-92758738.07192,  -0.00228,  -0.00060,  -0.00164,476565520.02980,   0.00054,275236193.91853,  -0.00057,  -0.00017,  -0.00043,   0.00000,   2.00000
-511948727.33610,-314145794.29219,-92918825.05352,  -0.00229,  -0.00060,  -0.00164,476575415.05643,   0.00055,275241269.30921,  -0.00057,  -0.00017,  -0.00044,   0.00000,   2.00000
-511956556.53348,-313327729.17383,-93086764.55405,  -0.00230,  -0.00060,  -0.00165,476564485.36769,   0.00055,275246287.26376,  -0.00058,  -0.00017,  -0.00044,   0.00000,   2.00000
-511964986.20647,-312525110.85810,-93248147.06198,  -0.00230,  -0.00059,  -0.00166,476575779.11427,   0.00056,275251332.18130,  -0.00058,  -0.00017,  -0.00044,   0.00000,   2.00000
-511972383.86079,-311711773.21688,-93410340.70412,  -0.00231,  -0.00059,  -0.00166,476575289.23133,   0.00056,275256359.28220,  -0.00059,  -0.00017,  -0.00045,   0.00000,   2.00000
-511975616.20722,-310900588.97187,-93574675.64352,  -0.00232,  -0.00059,  -0.00167,476568838.60498,   0.00057,275261345.95728,  -0.00059,  -0.00017,  -0.00045,   0.00000,   2.00000
-511977755.24082,-310078612.62101,-93739807.27349,  -0.00232,  -0.00058,  -0.00167,476568361.83580,   0.00057,275266315.06085,  -0.00060,  -0.00017,  -0.00046,   0.00000,   2.00000
-511978203.33354,-309258190.09857,-93904111.94360,  -0.00233,  -0.00058,  -0.00168,476575113.34845,   0.00058,275271294.12430,  -0.00060,  -0.00017,  -0.00046,   0.00000,   2.00000
-511976976.42346,-308439327.52700,-94067593.51358,  -0.00233,  -0.00058,  -0.00169,476581864.83112,   0.00058,275276283.10696,  -0.00061,  -0.00017,  -0.00046,  -0.00000,   2.00000
-511971603.45495,-307622512.52386,-94233233.86078,  -0.00234,  -0.00058,  -0.00169,476575375.61217,   0.00059,275281231.53731,  -0.00061,  -0.00017,  -0.00047,   0.00000,   2.00000
-511967574.42503,-306808844.36751,-94393975.06391,  -0.00235,  -0.00057,  -0.00170,476579257.29578,   0.00059,275286179.01943,  -0.00062,  -0.00017,  -0.00047,  -0.00000,   2.00000
-511959376.70010,-305982645.18444,-94559594.08705,  -0.00235,  -0.00057,  -0.00170,476581664.23322,   0.00060,275291119.98571,  -0.00062,  -0.00018,  -0.00048,   0.00000,   2.00000
-511950023.30316,-305160002.66771,-94723305.08726,  -0.00236,  -0.00057,  -0.00171,476572312.08517,   0.00060,275296009.54700,  -0.00063,  -0.00018,  -0.00048,   0.00000,   2.00000
-511938916.57936,-304324381.61038,-94888878.05415,  -0.00237,  -0.00056,  -0.00172,476587991.75968,   0.00060,275300943.48298,  -0.00063,  -0.00018,  -0.00048,  -0.00000,   2.00000
-511926280.48405,-303504828.78432,-95050958.43363,  -0.00237,  -0.00056,  -0.00172,476585675.61470,   0.00061,275305852.83014,  -0.00064,  -0.00018,  -0.00049,  -0.00000,   2.00000
-511912376.63922,-302674230.67235,-95213826.01436,  -0.00238,  -0.00056,  -0.00173,476585320.76842,   0.00061,275310745.18831,  -0.00064,  -0.00018,  -0.00049,  -0.00000,   2.00000
-511894340.93515,-301845481.12395,-95378892.50181,  -0.00239,  -0.00055,  -0.00173,476578740.38738,   0.00062,275315596.77418,  -0.00064,  -0.00018,  -0.00049,   0.00000,   2.00000
-511874686.51237,-301018253.92773,-95543146.41592,  -0.00239,  -0.00055,  -0.00174,476585360.97679,   0.00062,275320458.22501,  -0.00065,  -0.00018,  -0.00050,   0.00000,   2.00000
-511853688.20217,-300179889.76641,-95708172.76949,  -0.00240,  -0.00055,  -0.00175,476585045.86008,   0.00063,275325302.97671,  -0.00065,  -0.00018,  -0.00050,   0.00000,   2.00000
-511833837.90593,-299357324.70374,-95866741.68497,  -0.00240,  -0.00054,  -0.00175,476595740.75270,   0.00063,275330173.20049,  -0.00066,  -0.00018,  -0.00051,   0.00000,   2.00000
-511809596.95082,-298522004.30829,-96030158.83954,  -0.00241,  -0.00054,  -0.00176,476598317.06574,   0.00064,275335037.73808,  -0.00066,  -0.00018,  -0.00051,   0.00000,   2.00000
-511784278.62320,-297689975.17296,-96191741.32172,  -0.00242,  -0.00054,  -0.00176,476588831.30494,   0.00064,275339850.27831,  -0.00067,  -0.00018,  -0.00051,   0.00000,   2.00000
-511754492.96801,-296845126.39597,-96358152.00882,  -0.00242,  -0.00053,  -0.00177,476591435.28488,   0.00064,275344657.44852,  -0.00067,  -0.00018,  -0.00052,  -0.00000,   2.00000
-511725989.74290,-296016163.82446,-96518122.64426,  -0.00243,  -0.00053,  -0.00178,476601992.99004,   0.00065,275349489.75154,  -0.00068,  -0.00018,  -0.00052,   0.00000,   2.00000
-511693528.95279,-295176008.99923,-96681913.67243,  -0.00244,  -0.00053,  -0.00178,476588505.23350,   0.00065,275354254.68586,  -0.00068,  -0.00018,  -0.00052,   0.00000,   2.00000
-511661983.13580,-294337285.31143,-96841850.56058,  -0.00244,  -0.00052,  -0.00179,476608314.15924,   0.00066,275359080.54617,  -0.00069,  -0.00018,  -0.00053,  -0.00000,   2.00000
-511626348.22854,-293500149.65112,-97004048.14748,  -0.00245,  -0.00052,  -0.00179,476601647.20580,   0.00066,275363865.20997,  -0.00069,  -0.00018,  -0.00053,   0.00000,   2.00000
-511586640.77996,-292664555.26380,-97168509.64197,  -0.00245,  -0.00052,  -0.00180,476594929.23686,   0.00067,275368608.58458,  -0.00070,  -0.00018,  -0.00054,   0.00000,   2.00000
-511547903.35489,-291830459.96011,-97329109.71424,  -0.00246,  -0.00052,  -0.00180,476614691.87488,   0.00067,275373412.85870,  -0.00070,  -0.00018,  -0.00054,  -0.00000,   2.00000
-511508161.25995,-290986459.63903,-97489495.08366,  -0.00247,  -0.00051,  -0.00181,476598378.71287,   0.00068,275378138.70885,  -0.00071,  -0.00019,  -0.00054,   0.00000,   2.00000
-511463831.98070,-290155395.76377,-97651587.91783,  -0.00247,  -0.00051,  -0.00182,476614455.22643,   0.00068,275382911.34265,  -0.00071,  -0.00019,  -0.00055,   0.00000,   2.00000
-511421003.27038,-289314382.42879,-97810397.24044,  -0.00248,  -0.00051,  -0.00182,476611395.48267,   0.00068,275387656.72760,  -0.00072,  -0.00019,  -0.00055,   0.00000,   2.00000
-511374114.35699,-288474776.43574,-97971506.66858,  -0.00248,  -0.00050,  -0.00183,476604628.13063,   0.00069,275392360.59977,  -0.00072,  -0.00019,  -0.00055,  -0.00000,   2.00000
-511322622.95317,-287635130.38195,-98135867.17675,  -0.00249,  -0.00050,  -0.00183,476614008.94481,   0.00069,275397085.53248,  -0.00072,  -0.00019,  -0.00056,   0.00000,   2.00000
-511272714.49002,-286798515.52264,-98295402.22522,  -0.00250,  -0.00050,  -0.00184,476617549.03810,   0.00070,275401808.83214,  -0.00073,  -0.00019,  -0.00056,   0.00000,   2.00000
-511221137.18576,-285950301.39810,-98455689.15235,  -0.00250,  -0.00049,  -0.00185,476617455.00085,   0.00070,275406516.46271,  -0.00073,  -0.00019,  -0.00057,   0.00000,   2.00000
-511168236.94185,-285116722.05770,-98613666.75263,  -0.00251,  -0.00049,  -0.00185,476630456.95507,   0.00071,275411259.15305,  -0.00074,  -0.00019,  -0.00057,   0.00000,   2.00000
-511111104.88049,-284271269.39895,-98775498.82604,  -0.00251,  -0.00049,  -0.00186,476617138.66358,   0.00071,275415934.79244,  -0.00074,  -0.00019,  -0.00057,   0.00000,   2.00000
-511055836.55124,-283442000.86018,-98931006.20580,  -0.00252,  -0.00048,  -0.00186,476627093.83824,   0.00071,275420633.78447,  -0.00075,  -0.00019,  -0.00058,  -0.00000,   2.00000
-510995745.50730,-282599512.58371,-99091296.81962,  -0.00253,  -0.00048,  -0.00187,476629980.10446,   0.00072,275425328.67169,  -0.00075,  -0.00019,  -0.00058,  -0.00000,   2.00000
-510934748.01057,-281759722.69863,-99249905.74348,  -0.00253,  -0.00048,  -0.00187,476620176.57707,   0.00072,275429970.14655,  -0.00076,  -0.00019,  -0.00058,   0.00000,   2.00000
-510871734.18176,-280920243.67134,-99408649.86179,  -0.00254,  -0.00047,  -0.00188,476642776.55744,   0.00073,275434684.30599,  -0.00076,  -0.00019,  -0.00059,   0.00000,   2.00000
-510807842.26021,-280083414.88356,-99565731.12696,  -0.00254,  -0.00047,  -0.00189,476632964.68582,   0.00073,275439344.86153,  -0.00077,  -0.00019,  -0.00059,   0.00000,   2.00000
-510742524.02113,-279248073.57402,-99722055.04404,  -0.00255,  -0.00046,  -0.00189,476639326.97295,   0.00074,275444014.89520,  -0.00077,  -0.00019,  -0.00059,  -0.00000,   2.00000
-510673227.34088,-278413808.25500,-99880755.71035,  -0.00256,  -0.00046,  -0.00190,476632417.07038,   0.00074,275448642.69001,  -0.00077,  -0.00019,  -0.00060,  -0.00000,   2.00000
-510601969.58957,-277579965.61737,-100039575.67106,  -0.00256,  -0.00046,  -0.00190,476654990.11617,   0.00074,275453343.24136,  -0.00078,  -0.00019,  -0.00060,   0.00000,   2.00000
-510533025.27167,-276750138.07785,-100192756.53106,  -0.00257,  -0.00045,  -0.00191,476642123.14378,   0.00075,275457978.12824,  -0.00078,  -0.00019,  -0.00061,   0.00000,   2.00000
-510459568.12762,-275920302.66481,-100349208.14957,  -0.00257,  -0.00045,  -0.00191,476651412.81955,   0.00075,275462633.97716,  -0.00079,  -0.00019,  -0.00061,   0.00000,   2.00000
-510381654.54964,-275078017.47180,-100509543.14890,  -0.00258,  -0.00045,  -0.00192,476638206.21439,   0.00076,275467222.95187,  -0.00079,  -0.00019,  -0.00061,   0.00000,   2.00000
-510305474.20625,-274251183.83370,-100664487.12183,  -0.00258,  -0.00044,  -0.00193,476664000.81210,   0.00076,275471897.51201,  -0.00080,  -0.00019,  -0.00062,   0.00000,   2.00000
-510228521.14664,-273426748.65558,-100817845.26043,  -0.00259,  -0.00044,  -0.00193,476654038.95783,   0.00077,275476517.64545,  -0.00080,  -0.00019,  -0.00062,   0.00000,   2.00000
-510146500.16480,-272588827.19190,-100975946.23377,  -0.00260,  -0.00044,  -0.00194,476657118.37770,   0.00077,275481134.55498,  -0.00081,  -0.00019,  -0.00062,   0.00000,   2.00000
-510066900.58068,-271767362.03900,-101127830.45952,  -0.00260,  -0.00043,  -0.00194,476666557.90413,   0.00077,275485773.06135,  -0.00081,  -0.00019,  -0.00063,   0.00000,   2.00000
-509983399.53952,-270946727.69356,-101282158.53506,  -0.00261,  -0.00043,  -0.00195,476659538.09771,   0.00078,275490368.65432,  -0.00082,  -0.00019,  -0.00063,   0.00000,   2.00000
-509897947.28092,-270113997.21093,-101437224.29929,  -0.00261,  -0.00043,  -0.00195,476659625.87286,   0.00078,275494949.33332,  -0.00082,  -0.00019,  -0.00063,   0.00000,   2.00000
-509811870.46954,-269296307.56877,-101590098.24597,  -0.00262,  -0.00042,  -0.00196,476671948.86837,   0.00079,275499563.04346,  -0.00082,  -0.00019,  -0.00064,  -0.00000,   2.00000
-509723816.15565,-268466485.77718,-101743708.89373,  -0.00263,  -0.00042,  -0.00196,476672083.43230,   0.00079,275504161.91653,  -0.00083,  -0.00019,  -0.00064,   0.00000,   2.00000
-509635213.28632,-267651758.36195,-101895141.16179,  -0.00263,  -0.00042,  -0.00197,476684363.77797,   0.00080,275508793.60273,  -0.00083,  -0.00019,  -0.00065,   0.00000,   2.00000
-509542744.42373,-266837730.44123,-102049045.74840,  -0.00264,  -0.00041,  -0.00198,476677302.82607,   0.00080,275513382.05307,  -0.00084,  -0.00019,  -0.00065,   0.00000,   2.00000
-509452238.73372,-266026598.42315,-102198253.02645,  -0.00264,  -0.00041,  -0.00198,476680414.15452,   0.00080,275517967.33139,  -0.00084,  -0.00019,  -0.00065,   0.00000,   2.00000
-509356511.63810,-265201794.82282,-102352183.85274,  -0.00265,  -0.00041,  -0.00199,476683625.65590,   0.00081,275522549.88858,  -0.00085,  -0.00019,  -0.00066,  -0.00000,   2.00000
-509263577.43435,-264393599.38596,-102499978.22324,  -0.00265,  -0.00040,  -0.00199,476692715.02112,   0.00081,275527152.77968,  -0.00085,  -0.00019,  -0.00066,   0.00000,   2.00000
-509166259.32414,-263585434.13670,-102651058.05470,  -0.00266,  -0.00040,  -0.00200,476701920.44716,   0.00082,275531776.40480,  -0.00086,  -0.00019,  -0.00066,   0.00000,   2.00000
-509068305.23060,-262779264.52560,-102800662.16403,  -0.00266,  -0.00040,  -0.00200,476691752.82344,   0.00082,275536344.39154,  -0.00086,  -0.00019,  -0.00067,  -0.00000,   2.00000
-508969184.99017,-261974539.03113,-102949574.66535,  -0.00267,  -0.00039,  -0.00201,476697849.57536,   0.00083,275540920.97590,  -0.00087,  -0.00019,  -0.00067,  -0.00000,   2.00000
-508868910.00605,-261171261.35979,-103097798.48465,  -0.00268,  -0.00039,  -0.00202,476703947.45142,   0.00083,275545506.12438,  -0.00087,  -0.00019,  -0.00068,  -0.00000,   2.00000
-508767491.61470,-260369435.13930,-103245336.54261,  -0.00268,  -0.00039,  -0.00202,476710046.44977,   0.00083,275550099.80348,  -0.00087,  -0.00019,  -0.00068,  -0.00000,   2.00000
-508662256.67943,-259568062.92766,-103395407.35820,  -0.00269,  -0.00038,  -0.00203,476702884.76462,   0.00084,275554649.64591,  -0.00088,  -0.00019,  -0.00068,  -0.00000,   2.00000
-508555898.68144,-258768125.19381,-103544792.28770,  -0.00269,  -0.00038,  -0.00203,476708938.25314,   0.00084,275559207.95593,  -0.00088,  -0.00019,  -0.00069,  -0.00000,   2.00000
-508448428.69946,-257969625.45002,-103693494.19956,  -0.00270,  -0.00038,  -0.00204,476714992.91626,   0.00085,275563774.70058,  -0.00089,  -0.00019,  -0.00069,   0.00000,   2.00000
-508344151.35793,-257187864.93501,-103836150.09407,  -0.00270,  -0.00037,  -0.00204,476723716.05080,   0.00085,275568360.33190,  -0.00089,  -0.00019,  -0.00069,   0.00000,   2.00000
-508234506.66263,-256392224.51119,-103983514.61251,  -0.00271,  -0.00037,  -0.00205,476727086.45192,   0.00085,275572943.66830,  -0.00090,  -0.00019,  -0.00070,  -0.00000,   2.00000
-508125415.68032,-255612238.72527,-104128082.07271,  -0.00271,  -0.00037,  -0.00205,476722504.40045,   0.00086,275577493.18025,  -0.00090,  -0.00019,  -0.00070,   0.00000,   2.00000
-508014785.95271,-254833426.91894,-104272718.11571,  -0.00272,  -0.00036,  -0.00206,476744837.38564,   0.00086,275582115.54023,  -0.00091,  -0.00019,  -0.00070,   0.00000,   2.00000
-507903650.54179,-254056278.18230,-104415981.61743,  -0.00273,  -0.00036,  -0.00207,476734505.53667,   0.00087,275586681.09722,  -0.00091,  -0.00019,  -0.00071,  -0.00000,   2.00000
-507791507.86896,-253280552.13783,-104558598.25652,  -0.00273,  -0.00036,  -0.00207,476740475.06864,   0.00087,275591254.62863,  -0.00091,  -0.00019,  -0.00071,   0.00000,   2.00000
-507675625.93467,-252505031.48637,-104703815.84114,  -0.00274,  -0.00035,  -0.00208,476733194.59993,   0.00088,275595783.55751,  -0.00092,  -0.00019,  -0.00072,   0.00000,   2.00000
-507561502.96865,-251732160.39936,-104845137.50583,  -0.00274,  -0.00035,  -0.00208,476752369.05339,   0.00088,275600372.97412,  -0.00092,  -0.00019,  -0.00072,   0.00000,   2.00000
-507444910.05566,-250973504.27552,-104987696.94880,  -0.00275,  -0.00035,  -0.00209,476750690.94358,   0.00088,275604939.85883,  -0.00093,  -0.00019,  -0.00072,   0.00000,   2.00000
-507326103.91692,-250202180.98981,-105130997.22674,  -0.00275,  -0.00034,  -0.00209,476751018.78083,   0.00089,275609492.28140,  -0.00093,  -0.00019,  -0.00073,   0.00000,   2.00000
-507210902.80558,-249447726.25598,-105268346.65064,  -0.00276,  -0.00034,  -0.00210,476759362.68787,   0.00089,275614062.07313,  -0.00094,  -0.00019,  -0.00073,   0.00000,   2.00000
-507091533.62934,-248693312.78344,-105409025.74937,  -0.00276,  -0.00034,  -0.00210,476768393.01452,   0.00090,275618651.91279,  -0.00094,  -0.00019,  -0.00073,   0.00000,   2.00000
-506971744.14379,-247940306.49768,-105548405.84673,  -0.00277,  -0.00033,  -0.00211,476757910.19025,   0.00090,275623184.09435,  -0.00095,  -0.00019,  -0.00074,   0.00000,   2.00000
-506847795.86013,-247187331.28430,-105691110.73939,  -0.00277,  -0.00033,  -0.00212,476766904.19694,   0.00091,275627736.32086,  -0.00095,  -0.00019,  -0.00074,   0.00000,   2.00000
-506726231.72917,-246437100.33750,-105829255.47615,  -0.00278,  -0.00033,  -0.00212,476769611.02688,   0.00091,275632283.46783,  -0.00095,  -0.00019,  -0.00075,   0.00000,   2.00000
-506605217.64056,-245702439.71953,-105965442.25143,  -0.00278,  -0.00032,  -0.00213,476780909.61847,   0.00091,275636859.72648,  -0.00096,  -0.00019,  -0.00075,   0.00000,   2.00000
-506483377.72231,-244969162.22525,-106101034.91804,  -0.00279,  -0.00032,  -0.00213,476786732.97394,   0.00092,275641443.16988,  -0.00096,  -0.00019,  -0.00075,   0.00000,   2.00000
-506360720.65476,-244237269.63463,-106236035.94967,  -0.00280,  -0.00032,  -0.00214,476792557.57125,   0.00092,275646033.76939,  -0.00097,  -0.00019,  -0.00076,   0.00000,   2.00000
-506234429.07939,-243505264.71834,-106373728.83385,  -0.00280,  -0.00031,  -0.00214,476785150.80843,   0.00093,275650578.70923,  -0.00097,  -0.00019,  -0.00076,  -0.00000,   2.00000
-506108850.17986,-242788876.61453,-106509492.74749,  -0.00281,  -0.00031,  -0.00215,476796307.22876,   0.00093,275655152.17883,  -0.00098,  -0.00019,  -0.00076,   0.00000,   2.00000
-505980977.53924,-242059581.51299,-106646009.27272,  -0.00281,  -0.00031,  -0.00215,476796710.96223,   0.00094,275659711.17861,  -0.00098,  -0.00019,  -0.00077,   0.00000,   2.00000
-505853879.00907,-241345940.33096,-106780608.66465,  -0.00282,  -0.00031,  -0.00216,476807830.98443,   0.00094,275664298.51696,  -0.00099,  -0.00019,  -0.00077,   0.00000,   2.00000
-505729331.66825,-240634984.07003,-106910711.22543,  -0.00282,  -0.00030,  -0.00216,476810405.17102,   0.00094,275668879.91800,  -0.00099,  -0.00019,  -0.00077,   0.00000,   2.00000
-505600758.14580,-239924066.54394,-107044174.64896,  -0.00283,  -0.00030,  -0.00217,476819341.39842,   0.00095,275673480.84729,  -0.00099,  -0.00019,  -0.00078,  -0.00000,   2.00000
-505473513.37819,-239228530.09373,-107175128.87720,  -0.00283,  -0.00030,  -0.00218,476813968.82235,   0.00095,275678043.93355,  -0.00100,  -0.00019,  -0.00078,   0.00000,   2.00000
-505345585.43276,-238534323.24921,-107305532.56209,  -0.00284,  -0.00029,  -0.00218,476819647.97039,   0.00096,275682613.52656,  -0.00100,  -0.00019,  -0.00079,   0.00000,   2.00000
-505213680.83107,-237840137.73614,-107439303.15795,  -0.00284,  -0.00029,  -0.00219,476828532.84624,   0.00096,275687202.44650,  -0.00101,  -0.00019,  -0.00079,   0.00000,   2.00000
-505084414.01894,-237148594.70804,-107568601.45487,  -0.00285,  -0.00029,  -0.00219,476831027.12313,   0.00096,275691785.00390,  -0.00101,  -0.00019,  -0.00079,   0.00000,   2.00000
-504956197.90477,-236472779.32376,-107696051.34882,  -0.00285,  -0.00028,  -0.00220,476841915.93817,   0.00097,275696394.81147,  -0.00102,  -0.00019,  -0.00080,  -0.00000,   2.00000
-504824457.29100,-235796547.26275,-107826281.47267,  -0.00286,  -0.00028,  -0.00220,476834369.06838,   0.00097,275700957.85677,  -0.00102,  -0.00019,  -0.00080,   0.00000,   2.00000
-504695018.16154,-235123376.51716,-107952662.71322,  -0.00286,  -0.00028,  -0.00221,476853198.39711,   0.00098,275705580.08184,  -0.00103,  -0.00019,  -0.00080,   0.00000,   2.00000
-504565367.25948,-234451041.45665,-108077926.90354,  -0.00287,  -0.00027,  -0.00221,476842434.63114,   0.00098,275710142.51554,  -0.00103,  -0.00019,  -0.00081,   0.00000,   2.00000
-504433591.67944,-233793172.21318,-108205286.37582,  -0.00287,  -0.00027,  -0.00222,476856396.81232,   0.00099,275714744.58704,  -0.00103,  -0.00019,  -0.00081,   0.00000,   2.00000
-504301258.33156,-233136594.33677,-108332127.49140,  -0.00288,  -0.00027,  -0.00222,476862001.67826,   0.00099,275719352.58828,  -0.00104,  -0.00019,  -0.00082,   0.00000,   2.00000
-504171695.06187,-232482591.05911,-108454550.66276,  -0.00288,  -0.00027,  -0.00223,476864373.18317,   0.00099,275723953.48443,  -0.00104,  -0.00019,  -0.00082,   0.00000,   2.00000
-504040485.70053,-231842514.15358,-108578516.54891,  -0.00289,  -0.00026,  -0.00223,476861841.65848,   0.00100,275728527.54713,  -0.00105,  -0.00019,  -0.00082,   0.00000,   2.00000
-503908399.63770,-231204296.16768,-108702556.41844,  -0.00289,  -0.00026,  -0.00224,476883804.37302,   0.00100,275733173.36119,  -0.00105,  -0.00019,  -0.00083,   0.00000,   2.00000
-503776175.74259,-230566730.28398,-108825530.56080,  -0.00290,  -0.00026,  -0.00225,476872955.88111,   0.00101,275737758.67516,  -0.00106,  -0.00019,  -0.00083,   0.00000,   2.00000
-503645365.93680,-229944961.05566,-108946740.38229,  -0.00290,  -0.00025,  -0.00225,476883512.21313,   0.00101,275742369.78440,  -0.00106,  -0.00019,  -0.00083,  -0.00000,   2.00000
-503514095.90118,-229324432.99004,-109067470.18906,  -0.00291,  -0.00025,  -0.00226,476889022.67770,   0.00102,275746986.27809,  -0.00107,  -0.00019,  -0.00084,   0.00000,   2.00000
-503382371.27637,-228705146.10976,-109187721.90616,  -0.00292,  -0.00025,  -0.00226,476894534.34668,   0.00102,275751608.13416,  -0.00107,  -0.00019,  -0.00084,   0.00000,   2.00000
-503250197.66565,-228087100.40925,-109307497.45299,  -0.00292,  -0.00025,  -0.00227,476900047.21655,   0.00102,275756235.33064,  -0.00108,  -0.00019,  -0.00085,  -0.00000,   2.00000
-503122909.71288,-227486146.54601,-109421650.30040,  -0.00293,  -0.00024,  -0.00227,476907262.16107,   0.00103,275760874.64407,  -0.00108,  -0.00019,  -0.00085,   0.00000,   2.00000
-502988856.16681,-226883145.29894,-109542584.96441,  -0.00293,  -0.00024,  -0.00228,476902825.54690,   0.00103,275765479.06857,  -0.00108,  -0.00019,  -0.00085,   0.00000,   2.00000
-502859767.95366,-226297222.95533,-109657912.34647,  -0.00294,  -0.00024,  -0.00228,476909941.55646,   0.00104,275770095.25651,  -0.00109,  -0.00019,  -0.00086,   0.00000,   2.00000
-502729988.68330,-225713287.11699,-109773331.04055,  -0.00294,  -0.00023,  -0.00229,476931811.85875,   0.00104,275774782.69438,  -0.00109,  -0.00019,  -0.00086,  -0.00000,   2.00000
-502600161.67448,-225129736.02200,-109887771.24308,  -0.00295,  -0.00023,  -0.00229,476920847.17325,   0.00105,275779408.59233,  -0.00110,  -0.00019,  -0.00086,   0.00000,   2.00000
-502472050.67525,-224562026.14948,-110000526.18889,  -0.00295,  -0.00023,  -0.00230,476931154.39931,   0.00105,275784059.00212,  -0.00110,  -0.00019,  -0.00087,   0.00000,   2.00000
-502340559.86374,-223993382.09278,-110116207.49755,  -0.00296,  -0.00023,  -0.00230,476923392.08488,   0.00105,275788660.85716,  -0.00111,  -0.00019,  -0.00087,   0.00000,   2.00000
-502211799.35787,-223428009.65451,-110228096.41865,  -0.00296,  -0.00022,  -0.00231,476941923.60404,   0.00106,275793320.54700,  -0.00111,  -0.00019,  -0.00088,  -0.00000,   2.00000
-502084849.58783,-222878493.74420,-110338323.33936,  -0.00297,  -0.00022,  -0.00231,476952174.60707,   0.00106,275798004.34998,  -0.00112,  -0.00019,  -0.00088,  -0.00000,   2.00000
-501954539.15623,-222327971.40748,-110451497.32566,  -0.00297,  -0.00022,  -0.00232,476944408.87724,   0.00107,275802639.34195,  -0.00112,  -0.00019,  -0.00088,   0.00000,   2.00000
-501826106.13521,-221793294.39357,-110563019.79180,  -0.00298,  -0.00022,  -0.00233,476954572.94562,   0.00107,275807298.15840,  -0.00112,  -0.00019,  -0.00089,   0.00000,   2.00000
-501700781.15910,-221260955.54143,-110670260.49255,  -0.00298,  -0.00021,  -0.00233,476956613.98398,   0.00108,275811947.83241,  -0.00113,  -0.00019,  -0.00089,   0.00000,   2.00000
-501571834.77338,-220728500.14573,-110780975.72127,  -0.00299,  -0.00021,  -0.00234,476965239.09801,   0.00108,275816615.04713,  -0.00113,  -0.00019,  -0.00090,   0.00000,   2.00000
-501448221.06701,-220213121.49087,-110886192.34134,  -0.00299,  -0.00021,  -0.00234,476972044.73551,   0.00108,275821292.31119,  -0.00114,  -0.00018,  -0.00090,   0.00000,   2.00000
-501321015.29242,-219697609.35307,-110994892.53133,  -0.00300,  -0.00021,  -0.00235,476980666.33955,   0.00109,275825986.94817,  -0.00114,  -0.00018,  -0.00090,   0.00000,   2.00000
-501199210.39933,-219199166.97997,-111098114.12283,  -0.00300,  -0.00020,  -0.00235,476987428.58957,   0.00109,275830691.30103,  -0.00115,  -0.00018,  -0.00091,   0.00000,   2.00000
-501074091.15768,-218699521.75524,-111204339.10458,  -0.00301,  -0.00020,  -0.00236,476979583.68296,   0.00110,275835346.15705,  -0.00115,  -0.00018,  -0.00091,   0.00000,   2.00000
-500954186.67646,-218217991.18413,-111305595.03723,  -0.00301,  -0.00020,  -0.00236,477002702.05364,   0.00110,275840077.11947,  -0.00116,  -0.00018,  -0.00091,   0.00000,   2.00000
-500830983.85339,-217735203.80123,-111409869.48663,  -0.00302,  -0.00020,  -0.00237,476994853.34037,   0.00111,275844758.38210,  -0.00116,  -0.00018,  -0.00092,  -0.00000,   2.00000
-500711000.07862,-217254647.78632,-111509916.09027,  -0.00302,  -0.00019,  -0.00237,476996777.55639,   0.00111,275849429.73493,  -0.00117,  -0.00018,  -0.00092,   0.00000,   2.00000
-500589791.92486,-216788723.38843,-111612262.34218,  -0.00303,  -0.00019,  -0.00238,477010012.39856,   0.00111,275854137.05306,  -0.00117,  -0.00018,  -0.00093,   0.00000,   2.00000
-500471834.90489,-216325000.88304,-111710394.49599,  -0.00303,  -0.00019,  -0.00238,477011923.07424,   0.00112,275858834.24365,  -0.00117,  -0.00018,  -0.00093,   0.00000,   2.00000
-500352706.03593,-215875907.89831,-111810839.04220,  -0.00304,  -0.00019,  -0.00239,477025131.71965,   0.00112,275863567.15499,  -0.00118,  -0.00018,  -0.00093,   0.00000,   2.00000
-500236858.73564,-215428986.56760,-111907082.88137,  -0.00304,  -0.00019,  -0.00239,477027029.71546,   0.00113,275868289.72639,  -0.00118,  -0.00018,  -0.00094,   0.00000,   2.00000
-500120904.55324,-214983035.12999,-112002994.41099,  -0.00304,  -0.00018,  -0.00240,477032245.33869,   0.00113,275873015.46014,  -0.00119,  -0.00018,  -0.00094,   0.00000,   2.00000
-500004047.73300,-214550519.34848,-112100772.59734,  -0.00305,  -0.00018,  -0.00240,477028951.23180,   0.00114,275877709.74841,  -0.00119,  -0.00018,  -0.00095,  -0.00000,   2.00000
-499892698.85880,-214136210.22224,-112193634.68592,  -0.00305,  -0.00018,  -0.00241,477051845.41632,   0.00114,275882479.02334,  -0.00120,  -0.00018,  -0.00095,  -0.00000,   2.00000
-499778091.38711,-213720400.55012,-112289579.03865,  -0.00306,  -0.00018,  -0.00241,477043925.34077,   0.00115,275887197.81735,  -0.00120,  -0.00018,  -0.00095,   0.00000,   2.00000
-499663423.98001,-213305498.29227,-112385203.31107,  -0.00306,  -0.00017,  -0.00242,477049082.56598,   0.00115,275891919.45701,  -0.00121,  -0.00018,  -0.00096,   0.00000,   2.00000
-499554533.22686,-212907577.76035,-112475475.34618,  -0.00307,  -0.00017,  -0.00242,477055460.53600,   0.00115,275896648.83228,  -0.00121,  -0.00018,  -0.00096,  -0.00000,   2.00000
-499444650.96359,-212524249.85924,-112568110.55710,  -0.00307,  -0.00017,  -0.00243,477068512.34238,   0.00116,275901413.01042,  -0.00122,  -0.00018,  -0.00097,   0.00000,   2.00000
-499338150.31069,-212142954.78912,-112656599.01358,  -0.00308,  -0.00017,  -0.00243,477070301.63597,   0.00116,275906166.04583,  -0.00122,  -0.00018,  -0.00097,   0.00000,   2.00000
-499231627.93390,-211762507.37608,-112744798.39123,  -0.00308,  -0.00017,  -0.00244,477075430.81283,   0.00117,275910921.55975,  -0.00123,  -0.00018,  -0.00097,   0.00000,   2.00000
-499127569.54585,-211397826.80676,-112831531.03059,  -0.00309,  -0.00017,  -0.00244,477085093.53293,   0.00117,275915697.93626,  -0.00123,  -0.00018,  -0.00098,  -0.00000,   2.00000
-499026003.53535,-211048891.72375,-112916806.60270,  -0.00309,  -0.00016,  -0.00245,477094743.03253,   0.00118,275920494.99351,  -0.00123,  -0.00018,  -0.00098,   0.00000,   2.00000
-498921203.92803,-210698235.72610,-113005218.31311,  -0.00310,  -0.00016,  -0.00245,477086759.56819,   0.00118,275925240.90564,  -0.00124,  -0.00018,  -0.00099,   0.00000,   2.00000
-498823080.80592,-210352055.21294,-113086101.84212,  -0.00310,  -0.00016,  -0.00246,477101569.04786,   0.00119,275930028.60859,  -0.00124,  -0.00018,  -0.00099,   0.00000,   2.00000
-498720826.95740,-210017903.62539,-113172803.84563,  -0.00311,  -0.00016,  -0.00246,477101441.45405,   0.00119,275934797.11323,  -0.00125,  -0.00017,  -0.00099,  -0.00000,   2.00000
-498624552.22205,-209700625.89211,-113254227.93434,  -0.00311,  -0.00016,  -0.00247,477107627.36010,   0.00119,275939572.13816,  -0.00125,  -0.00017,  -0.00100,   0.00000,   2.00000
-498531588.75108,-209386619.11152,-113331985.46780,  -0.00312,  -0.00015,  -0.00247,477125779.67192,   0.00120,275944402.36961,  -0.00126,  -0.00017,  -0.00100,   0.00000,   2.00000
-498435390.96769,-209070774.55188,-113412915.95741,  -0.00312,  -0.00015,  -0.00248,477117785.36246,   0.00120,275949181.11605,  -0.00126,  -0.00017,  -0.00101,   0.00000,   2.00000
-498341801.11672,-208770617.84947,-113492430.06648,  -0.00313,  -0.00015,  -0.00248,477127303.07177,   0.00121,275953979.86080,  -0.00127,  -0.00017,  -0.00101,   0.00000,   2.00000
-498250841.02751,-208486124.14343,-113570536.03868,  -0.00313,  -0.00015,  -0.00249,477136812.39626,   0.00121,275958798.44403,  -0.00127,  -0.00017,  -0.00101,   0.00000,   2.00000
-498159948.71908,-208202286.71546,-113648405.23135,  -0.00314,  -0.00015,  -0.00250,477141866.77030,   0.00122,275963618.63367,  -0.00128,  -0.00017,  -0.00102,   0.00000,   2.00000
-498071838.26915,-207932654.46262,-113724468.36450,  -0.00314,  -0.00015,  -0.00250,477134883.15008,   0.00122,275968391.32306,  -0.00128,  -0.00017,  -0.00102,  -0.00000,   2.00000
-497983683.79661,-207665085.48498,-113800710.90120,  -0.00315,  -0.00014,  -0.00251,477156351.19373,   0.00123,275973232.64679,  -0.00129,  -0.00017,  -0.00103,   0.00000,   2.00000
-497901638.73543,-207414292.58452,-113871737.49448,  -0.00315,  -0.00014,  -0.00251,477162439.46908,   0.00123,275978079.58857,  -0.00129,  -0.00017,  -0.00103,   0.00000,   2.00000
-497816365.35063,-207161467.10399,-113945978.97591,  -0.00316,  -0.00014,  -0.00252,477154395.12027,   0.00123,275982874.52755,  -0.00129,  -0.00017,  -0.00103,  -0.00000,   2.00000
-497737116.97302,-206926858.53192,-114015417.38058,  -0.00316,  -0.00014,  -0.00252,477176881.50689,   0.00124,275987742.07531,  -0.00130,  -0.00017,  -0.00104,  -0.00000,   2.00000
-497654639.76481,-206690168.99056,-114088079.93840,  -0.00317,  -0.00014,  -0.00252,477168843.55654,   0.00124,275992557.50164,  -0.00130,  -0.00017,  -0.00104,   0.00000,   2.00000
-497578321.49336,-206470197.59876,-114155551.57119,  -0.00317,  -0.00014,  -0.00253,477174836.29997,   0.00125,275997378.16567,  -0.00131,  -0.00017,  -0.00105,  -0.00000,   2.00000
-497501313.92647,-206264606.70610,-114225496.40051,  -0.00317,  -0.00014,  -0.00253,477187615.27110,   0.00125,276002231.68511,  -0.00131,  -0.00017,  -0.00105,   0.00000,   2.00000
-497431180.56580,-206063307.24733,-114287986.87741,  -0.00318,  -0.00014,  -0.00254,477202284.66447,   0.00126,276007125.60941,  -0.00132,  -0.00017,  -0.00105,   0.00000,   2.00000
-497360464.18238,-205874853.99689,-114352577.54252,  -0.00318,  -0.00013,  -0.00254,477198628.21866,   0.00126,276011985.00083,  -0.00132,  -0.00017,  -0.00106,   0.00000,   2.00000
-497289856.56907,-205686848.58262,-114416984.85331,  -0.00319,  -0.00013,  -0.00255,477203615.83764,   0.00127,276016845.25372,  -0.00133,  -0.00017,  -0.00106,   0.00000,   2.00000
-497218676.89072,-205511649.51951,-114483493.50990,  -0.00319,  -0.00013,  -0.00255,477199909.34806,   0.00127,276021670.86821,  -0.00133,  -0.00017,  -0.00107,   0.00000,   2.00000
-497154399.72927,-205340689.52599,-114542561.04609,  -0.00320,  -0.00013,  -0.00256,477214508.63961,   0.00127,276026536.63098,  -0.00134,  -0.00017,  -0.00107,   0.00000,   2.00000
-497089470.84288,-205184027.97236,-114604129.48016,  -0.00320,  -0.00013,  -0.00256,477227266.72420,   0.00128,276031434.83318,  -0.00134,  -0.00016,  -0.00107,   0.00000,   2.00000
-497030777.49860,-205043931.15835,-114660559.40794,  -0.00321,  -0.00013,  -0.00257,477233212.35461,   0.00128,276036337.49111,  -0.00135,  -0.00016,  -0.00108,   0.00000,   2.00000
-496968834.32874,-204901482.62768,-114720273.11974,  -0.00321,  -0.00013,  -0.00257,477225136.89084,   0.00129,276041187.39599,  -0.00135,  -0.00016,  -0.00108,   0.00000,   2.00000
-496913063.83590,-204777114.63404,-114775231.82439,  -0.00322,  -0.00013,  -0.00258,477247495.73226,   0.00129,276046108.87327,  -0.00136,  -0.00016,  -0.00109,   0.00000,   2.00000
-496854037.89806,-204650350.39754,-114833481.25196,  -0.00322,  -0.00013,  -0.00258,477239431.04215,   0.00130,276050977.51240,  -0.00136,  -0.00016,  -0.00109,  -0.00000,   2.00000
-496804642.02070,-204542788.96159,-114883166.10903,  -0.00323,  -0.00012,  -0.00259,477258364.84416,   0.00130,276055903.61555,  -0.00137,  -0.00016,  -0.00110,   0.00000,   2.00000
-496751977.84342,-204432785.13027,-114936159.67721,  -0.00323,  -0.00012,  -0.00259,477250293.70090,   0.00131,276060776.77331,  -0.00137,  -0.00016,  -0.00110,  -0.00000,   2.00000
-496704833.80945,-204353152.73054,-114986713.52000,  -0.00324,  -0.00012,  -0.00260,477263921.46762,   0.00131,276065685.65012,  -0.00137,  -0.00016,  -0.00110,   0.00000,   2.00000
-496655093.32166,-204258659.95581,-115038278.06775,  -0.00324,  -0.00012,  -0.00260,477264536.47643,   0.00132,276070577.04668,  -0.00138,  -0.00016,  -0.00111,   0.00000,   2.00000
-496614267.95753,-204197222.19415,-115083960.05076,  -0.00325,  -0.00012,  -0.00261,477291220.42638,   0.00132,276075557.29610,  -0.00138,  -0.00016,  -0.00111,   0.00000,   2.00000
-496570158.18299,-204133220.11108,-115132965.82155,  -0.00325,  -0.00012,  -0.00261,477283184.58053,   0.00132,276080484.37889,  -0.00139,  -0.00016,  -0.00112,   0.00000,   2.00000
-496529603.40875,-204070519.37732,-115178030.14289,  -0.00325,  -0.00012,  -0.00262,477284720.67685,   0.00133,276085397.55923,  -0.00139,  -0.00016,  -0.00112,   0.00000,   2.00000
-496488471.75678,-204020310.01947,-115225275.89598,  -0.00326,  -0.00012,  -0.00262,477280955.84228,   0.00133,276090275.23656,  -0.00140,  -0.00016,  -0.00112,   0.00000,   2.00000
-496453554.49317,-203988002.41009,-115267795.63893,  -0.00326,  -0.00012,  -0.00263,477303254.68762,   0.00134,276095223.83667,  -0.00140,  -0.00016,  -0.00113,   0.00000,   2.00000
-496418730.41254,-203955772.95355,-115310200.16645,  -0.00327,  -0.00012,  -0.00263,477308229.73389,   0.00134,276100172.38271,  -0.00141,  -0.00016,  -0.00113,   0.00000,   2.00000
-496392887.16206,-203954886.92907,-115346387.30090,  -0.00327,  -0.00012,  -0.00264,477318435.52159,   0.00135,276105142.11034,  -0.00141,  -0.00016,  -0.00114,   0.00000,   2.00000
-496357547.14482,-203935069.67950,-115390883.54091,  -0.00328,  -0.00012,  -0.00264,477309476.62793,   0.00135,276110054.82234,  -0.00142,  -0.00016,  -0.00114,   0.00000,   2.00000
-496331876.39166,-203934229.28399,-115426850.71059,  -0.00328,  -0.00012,  -0.00265,477328355.48819,   0.00136,276115024.24310,  -0.00142,  -0.00016,  -0.00114,   0.00000,   2.00000
-496309047.80222,-203946870.07551,-115461221.58816,  -0.00329,  -0.00012,  -0.00265,477321187.38028,   0.00136,276119943.84441,  -0.00143,  -0.00016,  -0.00115,   0.00000,   2.00000
-496288957.15609,-203976111.21914,-115494696.49001,  -0.00329,  -0.00012,  -0.00265,477346941.53490,   0.00137,276124948.06870,  -0.00143,  -0.00015,  -0.00115,   0.00000,   2.00000
-496268973.35877,-204003697.38157,-115527731.34974,  -0.00330,  -0.00011,  -0.00266,477335468.92564,   0.00137,276129884.73255,  -0.00144,  -0.00015,  -0.00116,   0.00000,   2.00000
-496248310.42649,-204045118.26219,-115563326.55531,  -0.00330,  -0.00011,  -0.00266,477348196.33719,   0.00138,276134852.78120,  -0.00144,  -0.00015,  -0.00116,   0.00000,   2.00000
-496234572.91509,-204090298.21281,-115591560.66422,  -0.00331,  -0.00011,  -0.00267,477362775.22121,   0.00138,276139859.60161,  -0.00145,  -0.00015,  -0.00117,   0.00000,   2.00000
-496223638.90976,-204148842.91427,-115618219.53752,  -0.00331,  -0.00011,  -0.00267,477355640.55289,   0.00138,276144816.45085,  -0.00145,  -0.00015,  -0.00117,   0.00000,   2.00000
-496211994.00864,-204221136.28205,-115647450.11643,  -0.00332,  -0.00011,  -0.00268,477368391.24966,   0.00139,276149804.58301,  -0.00146,  -0.00015,  -0.00117,  -0.00000,   2.00000
-496203838.88594,-204294387.74582,-115672793.78914,  -0.00332,  -0.00011,  -0.00268,477369941.82608,   0.00139,276154778.19320,  -0.00146,  -0.00015,  -0.00118,   0.00000,   2.00000
-496198416.24828,-204382496.05839,-115696907.87933,  -0.00332,  -0.00011,  -0.00269,477379268.13513,   0.00140,276159768.99338,  -0.00147,  -0.00015,  -0.00118,   0.00000,   2.00000
-496196465.74455,-204471522.62327,-115717148.35182,  -0.00333,  -0.00011,  -0.00269,477380818.93494,   0.00140,276164745.20718,  -0.00147,  -0.00015,  -0.00119,   0.00000,   2.00000
-496196467.03407,-204589253.85765,-115738812.89518,  -0.00333,  -0.00011,  -0.00270,477397952.13903,   0.00141,276169770.31830,  -0.00147,  -0.00015,  -0.00119,   0.00000,   2.00000
-496193801.52737,-204690071.28556,-115761227.02273,  -0.00334,  -0.00011,  -0.00270,477382146.30073,   0.00141,276174709.95046,  -0.00148,  -0.00015,  -0.00120,   0.00000,   2.00000
-496199948.23740,-204823411.28464,-115777790.18011,  -0.00334,  -0.00011,  -0.00270,477408850.16105,   0.00142,276179737.55799,  -0.00148,  -0.00015,  -0.00120,   0.00000,   2.00000
-496206062.08833,-204956390.64708,-115794293.66776,  -0.00335,  -0.00011,  -0.00271,477413892.10665,   0.00142,276184764.51427,  -0.00149,  -0.00015,  -0.00120,  -0.00000,   2.00000
-496214878.70704,-205102512.51812,-115809242.13624,  -0.00335,  -0.00011,  -0.00271,477406809.10087,   0.00143,276189741.39760,  -0.00149,  -0.00015,  -0.00121,   0.00000,   2.00000
-496227065.19756,-205250932.41307,-115820668.80590,  -0.00336,  -0.00011,  -0.00272,477424842.96391,   0.00143,276194770.69636,  -0.00150,  -0.00015,  -0.00121,   0.00000,   2.00000
-496238461.92025,-205411296.14524,-115834348.97634,  -0.00336,  -0.00011,  -0.00272,477421224.01368,   0.00144,276199763.98692,  -0.00150,  -0.00015,  -0.00122,   0.00000,   2.00000
-496252474.36076,-205586255.10440,-115846807.34745,  -0.00337,  -0.00011,  -0.00273,477430618.65105,   0.00144,276204774.36151,  -0.00151,  -0.00015,  -0.00122,  -0.00000,   2.00000
-496273289.74359,-205764578.27226,-115851945.62782,  -0.00337,  -0.00011,  -0.00273,477445244.51099,   0.00145,276209823.00858,  -0.00151,  -0.00015,  -0.00123,   0.00000,   2.00000
-496293262.86164,-205954764.68185,-115859345.77439,  -0.00337,  -0.00011,  -0.00274,477441669.28411,   0.00145,276214835.65819,  -0.00152,  -0.00015,  -0.00123,   0.00000,   2.00000
-496315795.84395,-206159450.08661,-115865530.76863,  -0.00338,  -0.00011,  -0.00274,477451109.31524,   0.00145,276219865.38219,  -0.00152,  -0.00014,  -0.00123,   0.00000,   2.00000
-496341676.84147,-206364741.84976,-115867872.67704,  -0.00338,  -0.00012,  -0.00274,477452728.05852,   0.00146,276224880.27607,  -0.00153,  -0.00014,  -0.00124,   0.00000,   2.00000
-496370080.40276,-206584481.80693,-115869006.96418,  -0.00339,  -0.00012,  -0.00275,477462187.60202,   0.00146,276229912.25101,  -0.00153,  -0.00014,  -0.00124,   0.00000,   2.00000
-496398341.30744,-206803615.88607,-115870106.06859,  -0.00339,  -0.00012,  -0.00275,477467267.27250,   0.00147,276234943.42093,  -0.00154,  -0.00014,  -0.00125,   0.00000,   2.00000
-496428320.69111,-207049508.88590,-115872285.38495,  -0.00340,  -0.00012,  -0.00276,477468141.72816,   0.00147,276239956.61740,  -0.00154,  -0.00014,  -0.00125,   0.00000,   2.00000
-496462376.98865,-207283532.53094,-115868332.11996,  -0.00340,  -0.00012,  -0.00276,477478384.04178,   0.00148,276244990.01837,  -0.00155,  -0.00014,  -0.00126,   0.00000,   2.00000
-496501505.44503,-207546892.95172,-115861994.54937,  -0.00341,  -0.00012,  -0.00277,477492333.48560,   0.00148,276250058.50394,  -0.00155,  -0.00014,  -0.00126,   0.00000,   2.00000
-496540487.42721,-207808076.01142,-115855301.42500,  -0.00341,  -0.00012,  -0.00277,477480986.26966,   0.00149,276255059.14461,  -0.00156,  -0.00014,  -0.00126,   0.00000,   2.00000
-496585271.26922,-208086127.71543,-115843931.41125,  -0.00342,  -0.00012,  -0.00277,477503545.88486,   0.00149,276260129.91289,  -0.00156,  -0.00014,  -0.00127,  -0.00000,   2.00000
-496626417.61267,-208360794.19759,-115836012.95691,  -0.00342,  -0.00012,  -0.00278,477495661.62022,   0.00150,276265146.87664,  -0.00157,  -0.00014,  -0.00127,   0.00000,   2.00000
-496673326.65121,-208652259.28305,-115823412.72682,  -0.00342,  -0.00012,  -0.00278,477518263.70695,   0.00150,276270233.99154,  -0.00157,  -0.00014,  -0.00128,   0.00000,   2.00000
-496722628.14575,-208956465.22651,-115809275.74575,  -0.00343,  -0.00012,  -0.00279,477511424.59289,   0.00151,276275271.39553,  -0.00158,  -0.00014,  -0.00128,   0.00000,   2.00000
-496771653.37212,-209259812.90930,-115795120.92703,  -0.00343,  -0.00012,  -0.00279,477516569.88899,   0.00151,276280307.95019,  -0.00158,  -0.00014,  -0.00129,   0.00000,   2.00000
-496822965.49534,-209577258.17310,-115779754.39887,  -0.00344,  -0.00012,  -0.00279,477526198.68787,   0.00152,276285361.80213,  -0.00159,  -0.00014,  -0.00129,  -0.00000,   2.00000
-496879998.62560,-209909942.64989,-115759374.24396,  -0.00344,  -0.00012,  -0.00280,477532418.22953,   0.00152,276290418.98630,  -0.00159,  -0.00014,  -0.00129,   0.00000,   2.00000
-496936701.74909,-210241677.81841,-115738983.80574,  -0.00345,  -0.00012,  -0.00280,477537609.25545,   0.00153,276295475.31867,  -0.00160,  -0.00014,  -0.00130,   0.00000,   2.00000
-496995609.00153,-210587400.28196,-115717382.36182,  -0.00345,  -0.00013,  -0.00281,477547310.61821,   0.00153,276300549.03931,  -0.00160,  -0.00014,  -0.00130,   0.00000,   2.00000
-497060151.82938,-210948257.30115,-115690766.79903,  -0.00346,  -0.00013,  -0.00281,477553607.06609,   0.00153,276305626.21119,  -0.00161,  -0.00014,  -0.00131,  -0.00000,   2.00000
-497120930.90973,-211305555.86484,-115667615.43098,  -0.00346,  -0.00013,  -0.00282,477545801.78547,   0.00154,276310649.71135,  -0.00161,  -0.00014,  -0.00131,   0.00000,   2.00000
-497190679.35144,-211680458.00999,-115635976.29954,  -0.00346,  -0.00013,  -0.00282,477565128.35003,   0.00154,276315729.59341,  -0.00162,  -0.00014,  -0.00132,   0.00000,   2.00000
-497259126.34089,-212066683.72360,-115606598.35189,  -0.00347,  -0.00013,  -0.00282,477561891.16320,   0.00155,276320774.21409,  -0.00162,  -0.00013,  -0.00132,  -0.00000,   2.00000
-497330509.82453,-212454275.23012,-115573747.26365,  -0.00347,  -0.00013,  -0.00283,477580176.19796,   0.00155,276325870.82897,  -0.00163,  -0.00013,  -0.00132,   0.00000,   2.00000
-497404016.70514,-212854366.55163,-115539348.97491,  -0.00348,  -0.00013,  -0.00283,477573548.69453,   0.00156,276330918.35732,  -0.00163,  -0.00013,  -0.00133,   0.00000,   2.00000
-497477058.35240,-213253294.64372,-115504952.40279,  -0.00348,  -0.00013,  -0.00283,477578805.67777,   0.00156,276335965.10106,  -0.00163,  -0.00013,  -0.00133,  -0.00000,   2.00000
-497552079.81428,-213665937.00604,-115469336.54308,  -0.00349,  -0.00014,  -0.00284,477588654.90692,   0.00157,276341029.58538,  -0.00164,  -0.00013,  -0.00134,   0.00000,   2.00000
-497632504.88554,-214093458.56000,-115428693.98744,  -0.00349,  -0.00014,  -0.00284,477595112.63066,   0.00157,276346097.95920,  -0.00164,  -0.00013,  -0.00134,   0.00000,   2.00000
-497712402.69579,-214519721.80884,-115388058.70665,  -0.00350,  -0.00014,  -0.00285,477600425.99619,   0.00158,276351165.58198,  -0.00165,  -0.00013,  -0.00135,  -0.00000,   2.00000
-497797642.29253,-214960806.50051,-115342398.08265,  -0.00350,  -0.00014,  -0.00285,477606930.51855,   0.00158,276356237.20958,  -0.00165,  -0.00013,  -0.00135,   0.00000,   2.00000
-497881369.10442,-215413029.70584,-115298983.15616,  -0.00350,  -0.00014,  -0.00285,477603852.63759,   0.00159,276361274.10401,  -0.00166,  -0.00013,  -0.00135,   0.00000,   2.00000
-497967856.20345,-215866301.18168,-115252108.03885,  -0.00351,  -0.00014,  -0.00286,477622225.92600,   0.00159,276366362.99587,  -0.00166,  -0.00013,  -0.00136,  -0.00000,   2.00000
-498056246.94251,-216331909.65774,-115203664.25390,  -0.00351,  -0.00014,  -0.00286,477615774.12244,   0.00160,276371403.43346,  -0.00167,  -0.00013,  -0.00136,   0.00000,   2.00000
-498150811.24433,-216799731.29683,-115147963.37415,  -0.00352,  -0.00015,  -0.00286,477630743.61061,   0.00160,276376482.01641,  -0.00167,  -0.00013,  -0.00137,   0.00000,   2.00000
-498242629.36921,-217292175.55850,-115097070.93615,  -0.00352,  -0.00015,  -0.00287,477635876.67771,   0.00161,276381558.83945,  -0.00168,  -0.00013,  -0.00137,   0.00000,   2.00000
-498334911.86000,-217769589.13415,-115043622.97597,  -0.00353,  -0.00015,  -0.00287,477633165.48648,   0.00161,276386602.33630,  -0.00168,  -0.00013,  -0.00138,   0.00000,   2.00000
-498434618.42640,-218276392.01297,-114983883.77636,  -0.00353,  -0.00015,  -0.00288,477644538.56498,   0.00161,276391669.29794,  -0.00169,  -0.00013,  -0.00138,   0.00000,   2.00000
-498533602.53293,-218781663.44051,-114924165.59392,  -0.00354,  -0.00015,  -0.00288,477649972.31951,   0.00162,276396735.69567,  -0.00169,  -0.00013,  -0.00139,   0.00000,   2.00000
-498631868.29917,-219285407.08858,-114864469.23216,  -0.00354,  -0.00015,  -0.00288,477655403.29536,   0.00162,276401801.52279,  -0.00170,  -0.00013,  -0.00139,   0.00000,   2.00000
-498734098.27641,-219816121.74969,-114801920.73356,  -0.00354,  -0.00016,  -0.00289,477653864.02590,   0.00163,276406838.64692,  -0.00170,  -0.00013,  -0.00139,  -0.00000,   2.00000
-498842297.78758,-220348738.59644,-114732120.31422,  -0.00355,  -0.00016,  -0.00289,477668960.59126,   0.00163,276411914.08526,  -0.00171,  -0.00013,  -0.00140,   0.00000,   2.00000
-498942956.97042,-220876227.48328,-114669621.62711,  -0.00355,  -0.00016,  -0.00289,477664795.53588,   0.00164,276416950.24943,  -0.00171,  -0.00013,  -0.00140,   0.00000,   2.00000
-499051964.37674,-221419368.95260,-114598242.84602,  -0.00356,  -0.00016,  -0.00290,477668212.00128,   0.00164,276421977.72456,  -0.00172,  -0.00013,  -0.00141,  -0.00000,   2.00000
-499162171.61332,-221976494.45476,-114525984.95936,  -0.00356,  -0.00016,  -0.00290,477694971.40830,   0.00165,276427090.26013,  -0.00172,  -0.00013,  -0.00141,   0.00000,   2.00000
-499275144.16592,-222532252.58329,-114449576.70985,  -0.00357,  -0.00017,  -0.00290,477680652.36319,   0.00165,276432122.50939,  -0.00173,  -0.00013,  -0.00142,   0.00000,   2.00000
-499382703.78047,-223097544.35458,-114379193.00781,  -0.00357,  -0.00017,  -0.00291,477681321.18631,   0.00166,276437134.99781,  -0.00173,  -0.00013,  -0.00142,   0.00000,   2.00000
-499501694.61669,-223680489.31570,-114296458.50695,  -0.00357,  -0.00017,  -0.00291,477697939.86095,   0.00166,276442191.70983,  -0.00174,  -0.00013,  -0.00142,  -0.00000,   2.00000
-499616297.53057,-224260338.30404,-114217583.38566,  -0.00358,  -0.00017,  -0.00291,477706909.45623,   0.00167,276447261.77339,  -0.00174,  -0.00013,  -0.00143,   0.00000,   2.00000
-499732282.85796,-224852199.74529,-114137076.58598,  -0.00358,  -0.00017,  -0.00292,477700899.86091,   0.00167,276452285.05188,  -0.00175,  -0.00012,  -0.00143,   0.00000,   2.00000
-499853997.48055,-225445614.49429,-114049333.04091,  -0.00359,  -0.00018,  -0.00292,477716138.05497,   0.00168,276457346.85677,  -0.00175,  -0.00012,  -0.00144,   0.00000,   2.00000
-499973572.99622,-226049713.46470,-113963783.32533,  -0.00359,  -0.00018,  -0.00292,477713577.70383,   0.00168,276462375.70855,  -0.00176,  -0.00012,  -0.00144,   0.00000,   2.00000
-500097648.79945,-226667833.17678,-113873144.01269,  -0.00360,  -0.00018,  -0.00293,477720714.59028,   0.00169,276467410.51579,  -0.00176,  -0.00012,  -0.00145,   0.00000,   2.00000
-500220681.01994,-227284009.97212,-113782544.61023,  -0.00360,  -0.00018,  -0.00293,477726337.46735,   0.00169,276472445.19468,  -0.00177,  -0.00012,  -0.00145,  -0.00000,   2.00000
-500342895.36121,-227897528.54834,-113691598.58329,  -0.00360,  -0.00018,  -0.00293,477715483.98929,   0.00169,276477413.88507,  -0.00177,  -0.00012,  -0.00145,  -0.00000,   2.00000
-500471294.38686,-228540283.82761,-113594633.62976,  -0.00361,  -0.00019,  -0.00294,477744106.33048,   0.00170,276482474.53496,  -0.00178,  -0.00012,  -0.00146,   0.00000,   2.00000
-500598800.90597,-229180315.10072,-113497317.31845,  -0.00361,  -0.00019,  -0.00294,477733340.37338,   0.00170,276487469.38712,  -0.00178,  -0.00012,  -0.00146,   0.00000,   2.00000
-500725196.68801,-229818325.47884,-113400043.18390,  -0.00362,  -0.00019,  -0.00294,477738975.90476,   0.00171,276492464.24112,  -0.00179,  -0.00012,  -0.00147,   0.00000,   2.00000
-500859048.83748,-230472116.46752,-113294228.05944,  -0.00362,  -0.00019,  -0.00294,477759371.80344,   0.00171,276497517.90400,  -0.00179,  -0.00012,  -0.00147,  -0.00000,   2.00000
-500987285.85964,-231134465.98651,-113194003.44168,  -0.00362,  -0.00020,  -0.00295,477743967.85250,   0.00172,276502487.32000,  -0.00180,  -0.00012,  -0.00148,  -0.00000,   2.00000
-501120951.93734,-231797948.23466,-113086551.78779,  -0.00363,  -0.00020,  -0.00295,477759362.29363,   0.00172,276507495.62380,  -0.00180,  -0.00012,  -0.00148,   0.00000,   2.00000
-501258725.21559,-232475121.30234,-112973985.70834,  -0.00363,  -0.00020,  -0.00295,477766802.84714,   0.00173,276512510.87608,  -0.00181,  -0.00012,  -0.00148,   0.00000,   2.00000
-501392088.12318,-233148243.90231,-112864902.09441,  -0.00364,  -0.00020,  -0.00296,477759449.93865,   0.00173,276517474.16980,  -0.00181,  -0.00012,  -0.00149,   0.00000,   2.00000
-501526070.03233,-233833669.25196,-112754527.46518,  -0.00364,  -0.00021,  -0.00296,477770271.53198,   0.00174,276522458.03154,  -0.00182,  -0.00012,  -0.00149,   0.00000,   2.00000
-501662208.89965,-234518228.03270,-112640359.22486,  -0.00365,  -0.00021,  -0.00296,477772656.26003,   0.00174,276527428.79552,  -0.00182,  -0.00012,  -0.00150,   0.00000,   2.00000
-501802294.74816,-235216352.21620,-112521057.05526,  -0.00365,  -0.00021,  -0.00296,477780202.58147,   0.00175,276532406.98040,  -0.00183,  -0.00012,  -0.00150,   0.00000,   2.00000
-501942839.77963,-235926620.87600,-112400463.50190,  -0.00365,  -0.00022,  -0.00297,477791161.26461,   0.00175,276537406.05352,  -0.00183,  -0.00012,  -0.00151,   0.00000,   2.00000
-502082312.25714,-236634159.52696,-112279493.88521,  -0.00366,  -0.00022,  -0.00297,477780527.93277,   0.00176,276542340.20027,  -0.00183,  -0.00012,  -0.00151,   0.00000,   2.00000
-502226964.98496,-237342505.75549,-112151324.77404,  -0.00366,  -0.00022,  -0.00297,477796054.91333,   0.00176,276547313.51096,  -0.00184,  -0.00012,  -0.00151,   0.00000,   2.00000
-502368849.41657,-238061179.04917,-112025276.09259,  -0.00367,  -0.00022,  -0.00297,477793983.61219,   0.00176,276552255.97576,  -0.00184,  -0.00012,  -0.00152,   0.00000,   2.00000
-502514437.28509,-238793216.07774,-111894071.88261,  -0.00367,  -0.00023,  -0.00298,477801711.13907,   0.00177,276557206.52123,  -0.00185,  -0.00012,  -0.00152,  -0.00000,   2.00000
-502655486.63675,-239521173.06163,-111766336.30450,  -0.00367,  -0.00023,  -0.00298,477794430.91243,   0.00177,276562105.68880,  -0.00185,  -0.00012,  -0.00153,   0.00000,   2.00000
-502803251.22273,-240264092.53476,-111630030.06520,  -0.00368,  -0.00023,  -0.00298,477815311.68195,   0.00178,276567065.12328,  -0.00186,  -0.00012,  -0.00153,   0.00000,   2.00000
-502949840.39781,-241004298.21816,-111493337.33140,  -0.00368,  -0.00024,  -0.00298,477804750.34965,   0.00178,276571960.14840,  -0.00186,  -0.00012,  -0.00154,  -0.00000,   2.00000
-503096553.75294,-241756350.34983,-111355333.62668,  -0.00369,  -0.00024,  -0.00299,477815908.96262,   0.00179,276576876.90969,  -0.00187,  -0.00012,  -0.00154,   0.00000,   2.00000
-503245139.34311,-242507297.52546,-111213538.40749,  -0.00369,  -0.00024,  -0.00299,477818465.69100,   0.00179,276581781.29886,  -0.00187,  -0.00012,  -0.00154,   0.00000,   2.00000
-503393756.73006,-243269999.69358,-111070430.90312,  -0.00369,  -0.00024,  -0.00299,477829707.98885,   0.00180,276586707.62334,  -0.00188,  -0.00012,  -0.00155,   0.00000,   2.00000
-503541145.99269,-244030010.70861,-110926918.75349,  -0.00370,  -0.00025,  -0.00299,477819185.61884,   0.00180,276591569.89784,  -0.00188,  -0.00012,  -0.00155,  -0.00000,   2.00000
-503691873.22577,-244803108.88640,-110778215.50742,  -0.00370,  -0.00025,  -0.00300,477827158.19812,   0.00181,276596441.32188,  -0.00189,  -0.00012,  -0.00156,   0.00000,   2.00000
-503842479.16540,-245587817.61051,-110628187.33756,  -0.00371,  -0.00025,  -0.00300,477838499.31563,   0.00181,276601335.07295,  -0.00189,  -0.00012,  -0.00156,   0.00000,   2.00000
-503993352.30949,-246357124.36027,-110475768.87532,  -0.00371,  -0.00026,  -0.00300,477835691.94733,   0.00182,276606195.35351,  -0.00190,  -0.00012,  -0.00156,  -0.00000,   2.00000
-504145849.01528,-247152128.68927,-110320120.01191,  -0.00371,  -0.00026,  -0.00300,477836124.61607,   0.00182,276611034.99532,  -0.00190,  -0.00012,  -0.00157,   0.00000,   2.00000
-504295244.23832,-247930333.95825,-110165960.95504,  -0.00372,  -0.00026,  -0.00300,477836548.45589,   0.00182,276615854.12144,  -0.00191,  -0.00012,  -0.00157,  -0.00000,   2.00000
-504449148.66595,-248735581.70927,-110005174.75302,  -0.00372,  -0.00027,  -0.00301,477850204.00101,   0.00183,276620704.73198,  -0.00191,  -0.00012,  -0.00158,   0.00000,   2.00000
-504603312.11423,-249525428.78711,-109842013.43313,  -0.00373,  -0.00027,  -0.00301,477847362.73702,   0.00183,276625521.90423,  -0.00192,  -0.00012,  -0.00158,   0.00000,   2.00000
-504761814.45672,-250342188.41550,-109672219.48099,  -0.00373,  -0.00027,  -0.00301,477861156.08985,   0.00184,276630370.99233,  -0.00192,  -0.00012,  -0.00158,  -0.00000,   2.00000
-504914226.08780,-251140787.39606,-109507305.26566,  -0.00373,  -0.00028,  -0.00301,477848435.10140,   0.00184,276635147.89851,  -0.00193,  -0.00012,  -0.00159,   0.00000,   2.00000
-505069554.16492,-251952164.23103,-109337165.79546,  -0.00374,  -0.00028,  -0.00301,477856698.42211,   0.00185,276639935.19065,  -0.00193,  -0.00012,  -0.00159,   0.00000,   2.00000
-505224366.61686,-252774804.23261,-109165687.21436,  -0.00374,  -0.00028,  -0.00302,477868292.11622,   0.00185,276644745.80978,  -0.00193,  -0.00012,  -0.00160,   0.00000,   2.00000
-505377750.66976,-253594824.49554,-108993754.93847,  -0.00374,  -0.00029,  -0.00302,477857903.81750,   0.00186,276649493.59531,  -0.00194,  -0.00012,  -0.00160,   0.00000,   2.00000
-505533877.86265,-254427478.50333,-108816577.42433,  -0.00375,  -0.00029,  -0.00302,477866295.10160,   0.00186,276654252.27186,  -0.00194,  -0.00012,  -0.00161,   0.00000,   2.00000
-505691472.35252,-255258731.09321,-108635599.79586,  -0.00375,  -0.00029,  -0.00302,477869063.48473,   0.00186,276658999.79024,  -0.00195,  -0.00012,  -0.00161,   0.00000,   2.00000
-505847193.70724,-256087139.75222,-108454727.70794,  -0.00376,  -0.00030,  -0.00302,477875056.98471,   0.00187,276663748.80664,  -0.00195,  -0.00012,  -0.00161,   0.00000,   2.00000
-506002597.72790,-256926932.10972,-108271935.91146,  -0.00376,  -0.00030,  -0.00302,477870408.22584,   0.00187,276668457.73028,  -0.00196,  -0.00012,  -0.00162,   0.00000,   2.00000
-506159421.37134,-257765305.31326,-108085340.79469,  -0.00376,  -0.00030,  -0.00303,477873178.94073,   0.00188,276673155.69827,  -0.00196,  -0.00012,  -0.00162,   0.00000,   2.00000
-506318736.04460,-258616134.14762,-107893487.76090,  -0.00377,  -0.00031,  -0.00303,477881742.88540,   0.00188,276677865.28486,  -0.00197,  -0.00012,  -0.00162,   0.00000,   2.00000
-506476081.79921,-259464023.41654,-107701748.49792,  -0.00377,  -0.00031,  -0.00303,477887780.24403,   0.00189,276682576.58828,  -0.00197,  -0.00012,  -0.00163,   0.00000,   2.00000
-506631896.61553,-260309408.78776,-107509524.86555,  -0.00377,  -0.00032,  -0.00303,477877439.17591,   0.00189,276687225.86316,  -0.00198,  -0.00012,  -0.00163,  -0.00000,   2.00000
-506790074.41341,-261167165.92898,-107312028.95670,  -0.00378,  -0.00032,  -0.00303,477886076.53882,   0.00190,276691887.18107,  -0.00198,  -0.00012,  -0.00164,   0.00000,   2.00000
-506943382.90747,-262020970.83619,-107117952.14037,  -0.00378,  -0.00032,  -0.00303,477878925.67353,   0.00190,276696499.14327,  -0.00199,  -0.00012,  -0.00164,   0.00000,   2.00000
-507105113.08213,-262889510.76747,-106911369.20472,  -0.00378,  -0.00033,  -0.00303,477897614.47688,   0.00190,276701162.25517,  -0.00199,  -0.00012,  -0.00164,   0.00000,   2.00000
-507261922.33642,-263754086.06466,-106708209.62605,  -0.00379,  -0.00033,  -0.00304,477890511.96496,   0.00191,276705776.18882,  -0.00199,  -0.00012,  -0.00165,  -0.00000,   2.00000
-507418032.73363,-264629957.79687,-106503047.71300,  -0.00379,  -0.00033,  -0.00304,477886132.17403,   0.00191,276710351.71857,  -0.00200,  -0.00012,  -0.00165,   0.00000,   2.00000
-507574890.31887,-265503665.01047,-106294717.29394,  -0.00380,  -0.00034,  -0.00304,477905337.90703,   0.00192,276714980.40554,  -0.00200,  -0.00012,  -0.00166,   0.00000,   2.00000
-507733385.48034,-266376441.99255,-106081931.80034,  -0.00380,  -0.00034,  -0.00304,477891907.61646,   0.00192,276719535.61641,  -0.00201,  -0.00012,  -0.00166,   0.00000,   2.00000
-507886970.15133,-267245363.62418,-105872551.28362,  -0.00380,  -0.00035,  -0.00304,477884725.82748,   0.00193,276724041.93196,  -0.00201,  -0.00012,  -0.00166,   0.00000,   2.00000
-508045345.23665,-268127196.80103,-105654590.92675,  -0.00381,  -0.00035,  -0.00304,477906768.07243,   0.00193,276728612.48995,  -0.00202,  -0.00012,  -0.00167,  -0.00000,   2.00000
-508202795.85624,-269020263.97431,-105434589.89814,  -0.00381,  -0.00035,  -0.00304,477902575.16214,   0.00193,276733145.57742,  -0.00202,  -0.00012,  -0.00167,   0.00000,   2.00000
-508360578.89271,-269898120.10911,-105212283.39294,  -0.00381,  -0.00036,  -0.00304,477899415.96238,   0.00194,276737645.41948,  -0.00203,  -0.00012,  -0.00168,   0.00000,   2.00000
-508514144.72787,-270785750.84552,-104991865.40098,  -0.00382,  -0.00036,  -0.00304,477898335.98962,   0.00194,276742120.18104,  -0.00203,  -0.00012,  -0.00168,   0.00000,   2.00000
-508672707.96441,-271686825.61159,-104762168.55844,  -0.00382,  -0.00037,  -0.00304,477904248.35113,   0.00195,276746596.86237,  -0.00203,  -0.00012,  -0.00168,   0.00000,   2.00000
-508826261.47178,-272584070.10796,-104535853.11752,  -0.00382,  -0.00037,  -0.00305,477897114.24672,   0.00195,276751025.24399,  -0.00204,  -0.00012,  -0.00169,   0.00000,   2.00000
-508983583.27156,-273480312.85458,-104302479.97856,  -0.00383,  -0.00037,  -0.00305,477913217.54631,   0.00196,276755494.94167,  -0.00204,  -0.00012,  -0.00169,   0.00000,   2.00000
-509135917.52723,-274372785.96312,-104072490.43796,  -0.00383,  -0.00038,  -0.00305,477906068.74177,   0.00196,276759916.37878,  -0.00205,  -0.00012,  -0.00169,   0.00000,   2.00000
-509290310.51817,-275278027.11383,-103836421.49886,  -0.00383,  -0.00038,  -0.00305,477898917.92934,   0.00196,276764289.74999,  -0.00205,  -0.00012,  -0.00170,   0.00000,   2.00000
-509445642.53355,-276181611.47310,-103596529.36502,  -0.00384,  -0.00039,  -0.00305,477901839.00593,   0.00197,276768653.94955,  -0.00206,  -0.00012,  -0.00170,   0.00000,   2.00000
-509598690.32413,-277082013.63613,-103356788.50726,  -0.00384,  -0.00039,  -0.00305,477907838.53330,   0.00197,276773020.82960,  -0.00206,  -0.00012,  -0.00170,  -0.00000,   2.00000
-509753147.68867,-277994122.52150,-103111698.35341,  -0.00384,  -0.00039,  -0.00305,477917078.65235,   0.00198,276777402.72867,  -0.00207,  -0.00012,  -0.00171,   0.00000,   2.00000
-509905766.07295,-278904060.74767,-102865991.74384,  -0.00385,  -0.00040,  -0.00305,477906864.39469,   0.00198,276781725.10271,  -0.00207,  -0.00012,  -0.00171,   0.00000,   2.00000
-510056559.20708,-279811890.76886,-102619655.10900,  -0.00385,  -0.00040,  -0.00305,477896595.78034,   0.00198,276785988.06916,  -0.00207,  -0.00012,  -0.00172,   0.00000,   2.00000
-510208224.15597,-280718070.88469,-102369487.98161,  -0.00385,  -0.00041,  -0.00305,477899490.41888,   0.00199,276790242.23646,  -0.00208,  -0.00012,  -0.00172,   0.00000,   2.00000
-510361108.71164,-281635854.94294,-102113952.46790,  -0.00386,  -0.00041,  -0.00305,477908801.39970,   0.00199,276794512.08988,  -0.00208,  -0.00012,  -0.00172,   0.00000,   2.00000
-510511607.10192,-282550376.08455,-101858581.51690,  -0.00386,  -0.00041,  -0.00305,477914807.06731,   0.00200,276798784.93452,  -0.00209,  -0.00012,  -0.00173,  -0.00000,   2.00000
-510663405.00332,-283464421.88512,-101598562.76633,  -0.00386,  -0.00042,  -0.00305,477901537.93737,   0.00200,276802987.27635,  -0.00209,  -0.00012,  -0.00173,   0.00000,   2.00000
-510810444.49078,-284388126.87110,-101340322.78970,  -0.00386,  -0.00042,  -0.00305,477900743.89556,   0.00200,276807166.97692,  -0.00209,  -0.00012,  -0.00173,   0.00000,   2.00000
-510960869.42694,-285310363.06918,-101075084.62291,  -0.00387,  -0.00043,  -0.00305,477916917.26827,   0.00201,276811388.68995,  -0.00210,  -0.00012,  -0.00174,   0.00000,   2.00000
-511106737.23739,-286230404.99406,-100812316.29688,  -0.00387,  -0.00043,  -0.00305,477893470.63928,   0.00201,276815501.58241,  -0.00210,  -0.00013,  -0.00174,   0.00000,   2.00000
-511255961.44602,-287148952.48210,-100542560.85195,  -0.00387,  -0.00044,  -0.00305,477909602.67578,   0.00202,276819656.55184,  -0.00211,  -0.00013,  -0.00174,   0.00000,   2.00000
-511403265.51307,-288065618.17616,-100272111.55590,  -0.00388,  -0.00044,  -0.00305,477899336.16762,   0.00202,276823753.18659,  -0.00211,  -0.00013,  -0.00175,  -0.00000,   2.00000
-511548790.14875,-288993502.53648,-99999390.14202,  -0.00388,  -0.00044,  -0.00305,477895628.72030,   0.00202,276827816.63185,  -0.00212,  -0.00013,  -0.00175,   0.00000,   2.00000
-511694959.66481,-289919658.73380,-99722819.51406,  -0.00388,  -0.00045,  -0.00305,477898568.22012,   0.00203,276831872.23630,  -0.00212,  -0.00013,  -0.00175,   0.00000,   2.00000
-511841757.37955,-290844086.31006,-99442405.06609,  -0.00389,  -0.00045,  -0.00305,477901514.55036,   0.00203,276835920.05481,  -0.00212,  -0.00013,  -0.00176,  -0.00000,   2.00000
-511983521.58412,-291778129.45526,-99163712.48509,  -0.00389,  -0.00046,  -0.00305,477900866.14830,   0.00203,276839946.50599,  -0.00213,  -0.00013,  -0.00176,  -0.00000,   2.00000
-512128949.02025,-292699045.81711,-98878705.90123,  -0.00389,  -0.00046,  -0.00305,477894189.80449,   0.00204,276843928.94887,  -0.00213,  -0.00013,  -0.00176,   0.00000,   2.00000
-512269299.27291,-293629606.94537,-98595406.31229,  -0.00389,  -0.00047,  -0.00305,477893531.30505,   0.00204,276847890.31139,  -0.00214,  -0.00013,  -0.00177,  -0.00000,   2.00000
-512413293.31928,-294560003.47138,-98304210.61931,  -0.00390,  -0.00047,  -0.00305,477893542.22741,   0.00205,276851833.20704,  -0.00214,  -0.00013,  -0.00177,   0.00000,   2.00000
-512552185.88407,-295487154.08802,-98016278.22583,  -0.00390,  -0.00047,  -0.00305,477886164.77122,   0.00205,276855729.91087,  -0.00214,  -0.00013,  -0.00177,  -0.00000,   2.00000
-512694689.72468,-296414171.15691,-97720437.79397,  -0.00390,  -0.00048,  -0.00305,477886155.14885,   0.00205,276859608.38717,  -0.00215,  -0.00013,  -0.00177,  -0.00000,   2.00000
-512831969.39353,-297350814.95349,-97426269.07015,  -0.00390,  -0.00048,  -0.00304,477885554.51456,   0.00206,276863466.48382,  -0.00215,  -0.00013,  -0.00178,  -0.00000,   2.00000
-512969886.64092,-298272942.48048,-97129807.84831,  -0.00391,  -0.00049,  -0.00304,477881631.27581,   0.00206,276867291.85597,  -0.00215,  -0.00013,  -0.00178,  -0.00000,   2.00000
-513108639.50846,-299207889.06450,-96826887.88000,  -0.00391,  -0.00049,  -0.00304,477875256.94413,   0.00206,276871075.42621,  -0.00216,  -0.00013,  -0.00178,   0.00000,   2.00000
-513244787.14364,-300139517.61252,-96524152.82852,  -0.00391,  -0.00050,  -0.00304,477881035.65724,   0.00207,276874863.00931,  -0.00216,  -0.00013,  -0.00179,   0.00000,   2.00000
-513378864.23532,-301069664.51455,-96220571.04417,  -0.00391,  -0.00050,  -0.00304,477870695.86669,   0.00207,276878594.17934,  -0.00217,  -0.00013,  -0.00179,   0.00000,   2.00000
-513513373.02713,-301998105.85624,-95913105.88003,  -0.00392,  -0.00050,  -0.00304,477873563.26919,   0.00207,276882318.68153,  -0.00217,  -0.00013,  -0.00179,   0.00000,   2.00000
-513647979.11018,-302937454.54151,-95600174.81950,  -0.00392,  -0.00051,  -0.00304,477883425.71495,   0.00208,276886062.66338,  -0.00217,  -0.00013,  -0.00180,   0.00000,   2.00000
-513783785.40821,-303864357.29381,-95283879.76031,  -0.00392,  -0.00051,  -0.00304,477863291.41696,   0.00208,276889713.94595,  -0.00218,  -0.00013,  -0.00180,   0.00000,   2.00000
-513914492.91898,-304788349.27557,-94970775.64526,  -0.00392,  -0.00052,  -0.00304,477855714.78183,   0.00208,276893319.93719,  -0.00218,  -0.00013,  -0.00180,   0.00000,   2.00000
-514045183.04513,-305723209.27673,-94652186.39770,  -0.00393,  -0.00052,  -0.00304,477865578.78312,   0.00209,276896945.88890,  -0.00218,  -0.00013,  -0.00180,   0.00000,   2.00000
-514173725.59061,-306656761.88617,-94332678.12681,  -0.00393,  -0.00053,  -0.00303,477855213.02648,   0.00209,276900516.30230,  -0.00219,  -0.00013,  -0.00181,   0.00000,   2.00000
-514302574.89348,-307588601.90053,-94009264.74284,  -0.00393,  -0.00053,  -0.00303,477858064.26339,   0.00210,276904080.67905,  -0.00219,  -0.00014,  -0.00181,   0.00000,   2.00000
-514432223.12014,-308520804.88276,-93680811.96642,  -0.00393,  -0.00054,  -0.00303,477844880.94306,   0.00210,276907579.39798,  -0.00219,  -0.00014,  -0.00181,   0.00000,   2.00000
-514559180.56864,-309449715.61587,-93352550.49322,  -0.00394,  -0.00054,  -0.00303,477850489.95156,   0.00210,276911082.65428,  -0.00220,  -0.00014,  -0.00182,   0.00000,   2.00000
-514683970.05932,-310377477.36970,-93023320.65030,  -0.00394,  -0.00055,  -0.00303,477840064.91787,   0.00210,276914530.89542,  -0.00220,  -0.00014,  -0.00182,   0.00000,   2.00000
-514806593.51840,-311304144.00171,-92693102.24792,  -0.00394,  -0.00055,  -0.00303,477829599.44084,   0.00211,276917924.27419,  -0.00221,  -0.00014,  -0.00182,   0.00000,   2.00000
-514932385.98298,-312230750.85794,-92354840.69339,  -0.00394,  -0.00055,  -0.00302,477829610.88195,   0.00211,276921301.89100,  -0.00221,  -0.00014,  -0.00182,  -0.00000,   2.00000
-515055470.08165,-313154097.78975,-92016772.46349,  -0.00394,  -0.00056,  -0.00302,477835130.69285,   0.00211,276924684.22408,  -0.00221,  -0.00014,  -0.00183,   0.00000,   2.00000
-515173959.93950,-314077118.16694,-91680585.83064,  -0.00395,  -0.00056,  -0.00302,477811386.65334,   0.00212,276927963.02806,  -0.00222,  -0.00014,  -0.00183,   0.00000,   2.00000
-515297244.20829,-315011645.78970,-91331837.07568,  -0.00395,  -0.00057,  -0.00302,477831943.69511,   0.00212,276931302.48884,  -0.00222,  -0.00014,  -0.00183,   0.00000,   2.00000
-515416088.49635,-315931380.96511,-90987764.33943,  -0.00395,  -0.00057,  -0.00302,477816900.60453,   0.00212,276934570.90840,  -0.00222,  -0.00014,  -0.00183,  -0.00000,   2.00000
-515535593.84632,-316851837.87071,-90638487.50674,  -0.00395,  -0.00058,  -0.00301,477803665.17303,   0.00213,276937775.33246,  -0.00223,  -0.00014,  -0.00184,  -0.00000,   2.00000
-515649206.39787,-317782010.34727,-90290666.71922,  -0.00395,  -0.00058,  -0.00301,477803168.04832,   0.00213,276940963.01935,  -0.00223,  -0.00014,  -0.00184,   0.00000,   2.00000
-515766589.47435,-318700010.36667,-89936327.39446,  -0.00396,  -0.00059,  -0.00301,477795818.36324,   0.00213,276944108.85246,  -0.00223,  -0.00014,  -0.00184,   0.00000,   2.00000
-515881232.06387,-319614811.77108,-89582174.52044,  -0.00396,  -0.00059,  -0.00301,477801168.29788,   0.00214,276947259.75972,  -0.00223,  -0.00014,  -0.00184,   0.00000,   2.00000
-515993224.31977,-320543398.50601,-89223982.91196,  -0.00396,  -0.00059,  -0.00301,477782120.34218,   0.00214,276950326.05103,  -0.00224,  -0.00014,  -0.00185,   0.00000,   2.00000
-516106154.94372,-321458334.98218,-88863395.30391,  -0.00396,  -0.00060,  -0.00300,477777330.36432,   0.00214,276953360.54258,  -0.00224,  -0.00014,  -0.00185,   0.00000,   2.00000
-516219142.60686,-322371693.24505,-88498824.55325,  -0.00396,  -0.00060,  -0.00300,477779965.19604,   0.00214,276956390.62044,  -0.00224,  -0.00014,  -0.00185,  -0.00000,   2.00000
-516329830.28546,-323284430.58292,-88133075.45643,  -0.00397,  -0.00061,  -0.00300,477769344.80972,   0.00215,276959367.75720,  -0.00225,  -0.00014,  -0.00185,   0.00000,   2.00000
-516437212.26651,-324208513.68528,-87764535.15307,  -0.00397,  -0.00061,  -0.00300,477766247.51213,   0.00215,276962319.73903,  -0.00225,  -0.00014,  -0.00185,   0.00000,   2.00000
-516545578.91803,-325119087.25733,-87393576.02112,  -0.00397,  -0.00062,  -0.00299,477761331.51048,   0.00215,276965240.07881,  -0.00225,  -0.00015,  -0.00186,   0.00000,   2.00000
-516651616.11898,-326029153.31638,-87021383.79064,  -0.00397,  -0.00062,  -0.00299,477750664.31299,   0.00216,276968107.94669,  -0.00226,  -0.00015,  -0.00186,  -0.00000,   2.00000
-516755317.60578,-326938758.45819,-86647934.74567,  -0.00397,  -0.00063,  -0.00299,477739965.22248,   0.00216,276970923.51463,  -0.00226,  -0.00015,  -0.00186,   0.00000,   2.00000
-516861724.15331,-327848416.33231,-86266268.05235,  -0.00397,  -0.00063,  -0.00298,477739945.67259,   0.00216,276973725.97548,  -0.00226,  -0.00015,  -0.00186,  -0.00000,   2.00000
-516963003.76677,-328756082.89409,-85887505.59688,  -0.00398,  -0.00064,  -0.00298,477731802.90678,   0.00216,276976485.83223,  -0.00226,  -0.00015,  -0.00187,  -0.00000,   2.00000
-517066925.59829,-329663802.20823,-85500505.40479,  -0.00398,  -0.00064,  -0.00298,477731797.62107,   0.00217,276979232.90079,  -0.00227,  -0.00015,  -0.00187,  -0.00000,   2.00000
-517166921.10439,-330557896.98721,-85117965.78425,  -0.00398,  -0.00064,  -0.00298,477715895.64639,   0.00217,276981909.52208,  -0.00227,  -0.00015,  -0.00187,   0.00000,   2.00000
-517266035.87175,-331465010.15783,-84728293.70037,  -0.00398,  -0.00065,  -0.00297,477710303.44853,   0.00217,276984553.47213,  -0.00227,  -0.00015,  -0.00187,   0.00000,   2.00000
-517363978.29301,-332360229.75475,-84338826.71057,  -0.00398,  -0.00065,  -0.00297,477691763.56855,   0.00217,276987118.00032,  -0.00227,  -0.00015,  -0.00187,   0.00000,   2.00000
-517460495.69366,-333265608.71034,-83943706.85730,  -0.00398,  -0.00066,  -0.00297,477701975.86832,   0.00218,276989707.68197,  -0.00228,  -0.00015,  -0.00187,   0.00000,   2.00000
-517555866.11573,-334159215.75294,-83548753.18137,  -0.00398,  -0.00066,  -0.00296,477683383.19087,   0.00218,276992218.14233,  -0.00228,  -0.00015,  -0.00188,   0.00000,   2.00000
-517651061.16593,-335051378.40142,-83149709.70910,  -0.00398,  -0.00067,  -0.00296,477685792.05806,   0.00218,276994725.75116,  -0.00228,  -0.00015,  -0.00188,  -0.00000,   2.00000
-517741556.42916,-335944841.09979,-82751869.81521,  -0.00399,  -0.00067,  -0.00296,477661664.90878,   0.00218,276997134.67027,  -0.00229,  -0.00015,  -0.00188,   0.00000,   2.00000
-517834473.92943,-336838449.51184,-82345676.93271,  -0.00399,  -0.00068,  -0.00295,477661572.90839,   0.00218,276999532.16504,  -0.00229,  -0.00015,  -0.00188,   0.00000,   2.00000
-517924500.95014,-337729045.86710,-81939606.69165,  -0.00399,  -0.00068,  -0.00295,477666407.16436,   0.00219,277001936.05898,  -0.00229,  -0.00015,  -0.00188,   0.00000,   2.00000
-518016104.21322,-338609808.47538,-81529348.57332,  -0.00399,  -0.00068,  -0.00295,477645164.95356,   0.00219,277004252.41453,  -0.00229,  -0.00015,  -0.00189,   0.00000,   2.00000
-518103717.42770,-339502053.74280,-81115998.90896,  -0.00399,  -0.00069,  -0.00294,477642175.86268,   0.00219,277006547.36229,  -0.00229,  -0.00015,  -0.00189,  -0.00000,   2.00000
-518190298.40937,-340383035.77661,-80702646.12054,  -0.00399,  -0.00069,  -0.00294,477623277.98934,   0.00219,277008763.86090,  -0.00230,  -0.00015,  -0.00189,   0.00000,   2.00000
-518274357.91646,-341264201.89323,-80287706.70092,  -0.00399,  -0.00070,  -0.00293,477612273.71481,   0.00220,277010930.68538,  -0.00230,  -0.00016,  -0.00189,  -0.00000,   2.00000
-518358090.13556,-342144007.17442,-79868592.68445,  -0.00399,  -0.00070,  -0.00293,477614528.56771,   0.00220,277013095.66539,  -0.00230,  -0.00016,  -0.00189,   0.00000,   2.00000
-518440871.09223,-343012797.77132,-79449400.45073,  -0.00399,  -0.00071,  -0.00293,477595466.31018,   0.00220,277015182.43907,  -0.00230,  -0.00016,  -0.00189,   0.00000,   2.00000
-518524215.91146,-343893037.98123,-79020201.79870,  -0.00399,  -0.00071,  -0.00292,477603389.38129,   0.00220,277017288.00836,  -0.00231,  -0.00016,  -0.00189,   0.00000,   2.00000
-518601875.04513,-344762489.34321,-78597677.61072,  -0.00399,  -0.00071,  -0.00292,477573360.27961,   0.00220,277019276.56776,  -0.00231,  -0.00016,  -0.00190,   0.00000,   2.00000
-518681668.50893,-345632184.79567,-78166651.00212,  -0.00400,  -0.00072,  -0.00291,477573180.75706,   0.00221,277021255.39675,  -0.00231,  -0.00016,  -0.00190,   0.00000,   2.00000
-518761023.84709,-346500553.24639,-77731403.62900,  -0.00400,  -0.00072,  -0.00291,477575372.62293,   0.00221,277023233.00617,  -0.00231,  -0.00016,  -0.00190,   0.00000,   2.00000
-518837300.73517,-347359997.50414,-77298433.20032,  -0.00400,  -0.00073,  -0.00290,477542851.51502,   0.00221,277025085.64800,  -0.00231,  -0.00016,  -0.00190,   0.00000,   2.00000
-518911359.16873,-348229240.05389,-76859683.16279,  -0.00400,  -0.00073,  -0.00290,477553135.21424,   0.00221,277026966.46190,  -0.00232,  -0.00016,  -0.00190,   0.00000,   2.00000
-518986991.65597,-349089459.71815,-76416358.99416,  -0.00400,  -0.00074,  -0.00290,477531540.48767,   0.00221,277028761.86061,  -0.00232,  -0.00016,  -0.00190,   0.00000,   2.00000
-519057488.03214,-349948715.79007,-75975514.33730,  -0.00400,  -0.00074,  -0.00289,477522630.43391,   0.00221,277030517.41345,  -0.00232,  -0.00016,  -0.00190,  -0.00000,   2.00000
-519129596.50562,-350799133.98228,-75530017.75162,  -0.00400,  -0.00074,  -0.00289,477500906.66345,   0.00222,277032187.84139,  -0.00232,  -0.00016,  -0.00190,   0.00000,   2.00000
-519198761.17203,-351646828.06047,-75084532.92214,  -0.00400,  -0.00075,  -0.00288,477505142.83021,   0.00222,277033865.71699,  -0.00232,  -0.00016,  -0.00191,   0.00000,   2.00000
-519267639.65266,-352496725.04621,-74632827.09237,  -0.00400,  -0.00075,  -0.00288,477491662.41347,   0.00222,277035488.19570,  -0.00232,  -0.00016,  -0.00191,   0.00000,   2.00000
-519333774.98706,-353347335.41931,-74179188.90999,  -0.00400,  -0.00076,  -0.00287,477480405.39727,   0.00222,277037063.45245,  -0.00233,  -0.00016,  -0.00191,   0.00000,   2.00000
-519401496.76487,-354189364.34084,-73720753.69644,  -0.00400,  -0.00076,  -0.00287,477458576.33069,   0.00222,277038554.35485,  -0.00233,  -0.00016,  -0.00191,   0.95660,   1.00000
-519464219.60818,-355039502.38604,-73260803.01586,  -0.00400,  -0.00077,  -0.00286,477471083.33975,   0.00222,277040082.68997,  -0.00233,  -0.00016,  -0.00191,   0.99923,   1.00000
-519528390.67621,-355872422.69987,-72799824.54000,  -0.00400,  -0.00077,  -0.00286,477427569.24374,   0.00222,277041450.51109,  -0.00233,  -0.00016,  -0.00191,   0.79555,   1.00000
-519587527.37650,-356713457.98876,-72337314.30435,  -0.00400,  -0.00077,  -0.00285,477439993.08198,   0.00223,277042855.96064,  -0.00233,  -0.00016,  -0.00191,   0.83477,   1.00000
-519648239.59725,-357546169.76766,-71869858.08973,  -0.00400,  -0.00078,  -0.00285,477418053.06335,   0.00223,277044177.76865,  -0.00233,  -0.00016,  -0.00191,   0.73377,   1.00000
-519708239.27006,-358377727.29199,-71397988.28426,  -0.00400,  -0.00078,  -0.00284,477419917.82117,   0.00223,277045500.17422,  -0.00233,  -0.00016,  -0.00191,   0.72978,   1.00000
-519767672.06870,-359203227.65577,-70923388.88765,  -0.00400,  -0.00079,  -0.00284,477384656.58248,   0.00223,277046692.64049,  -0.00234,  -0.00016,  -0.00191,   0.58960,   1.00000
-519821900.97228,-360036744.22613,-70447239.40103,  -0.00400,  -0.00079,  -0.00283,477397065.98519,   0.00223,277047923.31833,  -0.00234,  -0.00016,  -0.00191,   0.62388,   1.00000
-519877587.76769,-360850153.45212,-69971810.98812,  -0.00400,  -0.00079,  -0.00283,477368581.84201,   0.00223,277049048.51790,  -0.00234,  -0.00017,  -0.00192,   0.51810,   1.00000
-519930429.92994,-361676687.85353,-69488330.70182,  -0.00400,  -0.00080,  -0.00282,477363534.99505,   0.00223,277050150.96148,  -0.00234,  -0.00017,  -0.00192,   0.49399,   1.00000
-519982542.28983,-362493828.33620,-69004032.77181,  -0.00400,  -0.00080,  -0.00281,477343484.07543,   0.00223,277051178.23487,  -0.00234,  -0.00017,  -0.00192,   0.42599,   1.00000
-520033797.99964,-363309871.66400,-68515222.32663,  -0.00400,  -0.00081,  -0.00281,477345216.41322,   0.00223,277052206.95946,  -0.00234,  -0.00017,  -0.00192,   0.42424,   1.00000
-520082252.10034,-364118965.46937,-68027729.19598,  -0.00400,  -0.00081,  -0.00280,477311809.37588,   0.00224,277053114.31380,  -0.00234,  -0.00017,  -0.00192,   0.32772,   1.00000
-520132009.85890,-364928433.55810,-67531289.32913,  -0.00400,  -0.00081,  -0.00280,477311447.20744,   0.00224,277054016.34023,  -0.00234,  -0.00017,  -0.00192,   0.32157,   1.00000
-520178901.29146,-365727377.05487,-67038278.41918,  -0.00400,  -0.00082,  -0.00279,477293200.76082,   0.00224,277054850.69038,  -0.00234,  -0.00017,  -0.00192,   0.27315,   1.00000
-520222555.86639,-366539411.30227,-66537028.77431,  -0.00400,  -0.00082,  -0.00278,477288261.69623,   0.00224,277055664.09490,  -0.00234,  -0.00017,  -0.00192,   0.25768,   1.00000
-520267901.91356,-367332147.54597,-66036132.56229,  -0.00400,  -0.00082,  -0.00278,477259250.53665,   0.00224,277056372.87347,  -0.00235,  -0.00017,  -0.00192,   0.19420,   1.00000
-520307748.15038,-368136572.17112,-65531337.97190,  -0.00400,  -0.00083,  -0.00277,477256276.91701,   0.00224,277057068.14729,  -0.00235,  -0.00017,  -0.00192,   0.18545,   1.00000
-520348988.25545,-368929692.37677,-65023297.98945,  -0.00399,  -0.00083,  -0.00277,477249135.54856,   0.00224,277057735.51274,  -0.00235,  -0.00017,  -0.00192,   0.16955,   1.00000
-520389568.12097,-369714047.11668,-64514089.82515,  -0.00399,  -0.00084,  -0.00276,477228676.38352,   0.00224,277058328.89514,  -0.00235,  -0.00017,  -0.00192,   0.13300,   1.00000
-520427004.18342,-370503794.93718,-63999935.23937,  -0.00399,  -0.00084,  -0.00275,477201760.96745,   0.00224,277058826.30123,  -0.00235,  -0.00017,  -0.00192,   0.09272,   1.00000
-520463311.02277,-371292531.14927,-63481072.19296,  -0.00399,  -0.00084,  -0.00275,477203258.56318,   0.00224,277059326.68751,  -0.00235,  -0.00017,  -0.00192,   0.09308,   1.00000
-520498928.34405,-372072682.17352,-62960902.51678,  -0.00399,  -0.00085,  -0.00274,477182688.39523,   0.00224,277059753.66062,  -0.00235,  -0.00017,  -0.00192,   0.06722,   1.00000
-520533888.25352,-372844347.01637,-62439377.96949,  -0.00399,  -0.00085,  -0.00273,477162025.84824,   0.00224,277060107.29952,  -0.00235,  -0.00017,  -0.00192,   0.04573,   1.00000
-520565063.68528,-373625082.23095,-61911746.33794,  -0.00399,  -0.00085,  -0.00273,477172320.07246,   0.00224,277060494.93500,  -0.00235,  -0.00017,  -0.00192,   0.05449,   1.00000
-520596111.35825,-374390033.40104,-61386019.84662,  -0.00399,  -0.00086,  -0.00272,477129494.06420,   0.00224,277060733.06224,  -0.00235,  -0.00017,  -0.00192,   0.02039,   1.00000
-520625255.02492,-375165347.04508,-60849699.46005,  -0.00399,  -0.00086,  -0.00271,477137954.32798,   0.00224,277060999.30762,  -0.00235,  -0.00017,  -0.00192,   0.02527,   1.00000
-520654298.84822,-375925111.88984,-60315132.79093,  -0.00399,  -0.00086,  -0.00271,477095009.23749,   0.00224,277061116.45597,  -0.00235,  -0.00017,  -0.00192,   0.00485,   1.00000
-520677389.08748,-376692531.10574,-59778861.31111,  -0.00398,  -0.00087,  -0.00270,477107060.00525,   0.00224,277061274.55865,  -0.00235,  -0.00017,  -0.00192,   0.00875,   1.00000
-520701717.43967,-377453113.69086,-59236499.59131,  -0.00398,  -0.00087,  -0.00269,477084441.76074,   0.00224,277061354.20631,  -0.00235,  -0.00017,  -0.00192,   0.00220,   1.00000
-520727256.57484,-378206921.86961,-58687984.07561,  -0.00398,  -0.00087,  -0.00269,477061779.79093,   0.00224,277061355.66806,  -0.00235,  -0.00017,  -0.00192,   0.00000,   1.00000
-520736712.68313,-378953954.42463,-58139529.79471,  -0.00398,  -0.00088,  -0.00268,477051571.42493,   0.00224,277061355.66806,  -0.00235,  -0.00017,  -0.00192,-9784.24313,   0.00000
-520722528.52070,-379677346.70891,-57581619.40552,  -0.00398,  -0.00088,  -0.00267,477019098.14252,   0.00224,277061355.66806,  -0.00235,  -0.00017,  -0.00192,-42257.52554,   0.00000
-520691796.16875,-380393646.91198,-57023709.01633,  -0.00398,  -0.00088,  -0.00266,476976448.17810,   0.00224,277061355.66806,  -0.00235,  -0.00017,  -0.00192,-84907.48996,   0.00000
-520637423.54607,-381086306.84433,-56456342.51885,  -0.00398,  -0.00089,  -0.00266,476911168.82355,   0.00224,277061355.66806,  -0.00235,  -0.00017,  -0.00192,-150186.84451,   0.00000
-520575958.84218,-381762418.58716,-55884247.96722,  -0.00397,  -0.00089,  -0.00265,476838215.30645,   0.00224,277061355.66806,  -0.00235,  -0.00017,  -0.00192,-223140.36161,   0.00000
-520481397.75927,-382424346.16755,-55307425.36145,  -0.00397,  -0.00089,  -0.00264,476740224.46716,   0.00224,277061355.66806,  -0.00235,  -0.00017,  -0.00192,-321131.20090,   0.00000
-520386836.67635,-383086273.74795,-54721146.64739,  -0.00397,  -0.00090,  -0.00263,476642119.85671,   0.00224,277061355.66806,  -0.00235,  -0.00017,  -0.00192,-419235.81135,   0.00000
-520252087.13320,-383717468.97639,-54134867.93332,  -0.00397,  -0.00090,  -0.00263,476511561.07501,   0.00224,277061355.66806,  -0.00235,  -0.00017,  -0.00192,-549794.59305,   0.00000
-520110245.50883,-384332116.01533,-53539133.11097,  -0.00397,  -0.00090,  -0.00262,476371795.96324,   0.00224,277061355.66806,  -0.00235,  -0.00017,  -0.00192,-689559.70482,   0.00000
-519935307.50544,-384932578.89183,-52943398.28861,  -0.00397,  -0.00091,  -0.00261,476208762.80802,   0.00224,277061355.66806,  -0.00235,  -0.00017,  -0.00192,-852592.86004,   0.00000
-519760369.50205,-385533041.76833,-52338207.35797,  -0.00396,  -0.00091,  -0.00260,476045833.51147,   0.00224,277061355.66806,  -0.00235,  -0.00017,  -0.00192,-1015522.15659,   0.00000
-519554699.14671,-386093316.18460,-51728288.37317,  -0.00396,  -0.00091,  -0.00260,475852902.61704,   0.00224,277061355.66806,  -0.00235,  -0.00017,  -0.00192,-1208453.05102,   0.00000
-519332480.60187,-386646498.51964,-51108913.28009,  -0.00396,  -0.00092,  -0.00259,475646946.88747,   0.00224,277061355.66806,  -0.00235,  -0.00017,  -0.00192,-1414408.78059,   0.00000
-519093713.86751,-387192588.77347,-50489538.18701,  -0.00396,  -0.00092,  -0.00258,475431094.99535,   0.00224,277061355.66806,  -0.00235,  -0.00017,  -0.00192,-1630260.67270,   0.00000
-518831306.86243,-387715038.75656,-49865435.03978,  -0.00396,  -0.00092,  -0.00257,475194550.52158,   0.00224,277061355.66806,  -0.00235,  -0.00017,  -0.00192,-1866805.14647,   0.00000
-518545259.58661,-388213848.46893,-49231875.78426,  -0.00395,  -0.00092,  -0.00256,474935848.65019,   0.00224,277061355.66806,  -0.00235,  -0.00017,  -0.00192,-2125507.01787,   0.00000
-518242664.12129,-388705566.10008,-48593588.47459,  -0.00395,  -0.00093,  -0.00255,474665859.75900,   0.00224,277061355.66806,  -0.00235,  -0.00017,  -0.00192,-2395495.90906,   0.00000
-517916428.38524,-389173643.46050,-47950573.11078,  -0.00395,  -0.00093,  -0.00255,474375273.91072,   0.00224,277061355.66806,  -0.00235,  -0.00017,  -0.00192,-2686081.75734,   0.00000
-517566552.37846,-389618080.55020,-47302829.69282,  -0.00395,  -0.00093,  -0.00254,474064100.33740,   0.00224,277061355.66806,  -0.00235,  -0.00017,  -0.00192,-2997255.33066,   0.00000
-517216676.37168,-390062517.63989,-46650358.22072,  -0.00394,  -0.00094,  -0.00253,473754986.04239,   0.00224,277061355.66806,  -0.00235,  -0.00017,  -0.00192,-3306369.62567,   0.00000
-516826611.90466,-390476222.37764,-45993158.69447,  -0.00394,  -0.00094,  -0.00252,473412120.58256,   0.00224,277061355.66806,  -0.00235,  -0.00017,  -0.00192,-3649235.08549,   0.00000
-516412907.16691,-390866286.84466,-45326503.05993,  -0.00394,  -0.00094,  -0.00251,473047381.36497,   0.00224,277061355.66806,  -0.00235,  -0.00017,  -0.00192,-4013974.30309,   0.00000
-515982654.23966,-391249259.23046,-44659847.42539,  -0.00394,  -0.00094,  -0.00250,472672991.60596,   0.00224,277061355.66806,  -0.00235,  -0.00017,  -0.00192,-4388364.06210,   0.00000
-515545309.23118,-391615683.42675,-43983735.68256,  -0.00393,  -0.00095,  -0.00249,472290046.24047,   0.00224,277061355.66806,  -0.00235,  -0.00017,  -0.00192,-4771309.42758,   0.00000
-515074867.84369,-391967923.46060,-43307623.93973,  -0.00393,  -0.00095,  -0.00249,471884304.68144,   0.00224,277061355.66806,  -0.00235,  -0.00017,  -0.00192,-5177050.98662,   0.00000
-514580786.18546,-392296523.22372,-42622056.08860,  -0.00393,  -0.00095,  -0.00248,471456905.03167,   0.00224,277061355.66806,  -0.00235,  -0.00017,  -0.00192,-5604450.63639,   0.00000
-514079612.44602,-392608574.79734,-41931760.18333,  -0.00392,  -0.00095,  -0.00247,471022392.77816,   0.00224,277061355.66806,  -0.00235,  -0.00017,  -0.00192,-6038962.88989,   0.00000
-513538250.24634,-392889894.01901,-41236736.22392,  -0.00392,  -0.00096,  -0.00246,470554374.98503,   0.00224,277061355.66806,  -0.00235,  -0.00017,  -0.00192,-6506980.68303,   0.00000
-512996888.04666,-393171213.24067,-40536984.21036,  -0.00392,  -0.00096,  -0.00245,470088866.56814,   0.00224,277061355.66806,  -0.00235,  -0.00017,  -0.00192,-6972489.09992,   0.00000
-512415337.38674,-393421800.11039,-39827776.08851,  -0.00391,  -0.00096,  -0.00244,469588736.65887,   0.00224,277061355.66806,  -0.00235,  -0.00017,  -0.00192,-7472619.00919,   0.00000
-511810146.45610,-393648746.70939,-39118567.96666,  -0.00391,  -0.00096,  -0.00243,469069638.93965,   0.00224,277061355.66806,  -0.00235,  -0.00017,  -0.00192,-7991716.72840,   0.00000
-511204955.52545,-393875693.30838,-38404631.79066,  -0.00391,  -0.00096,  -0.00242,468553208.59172,   0.00224,277061355.66806,  -0.00235,  -0.00017,  -0.00192,-8508147.07634,   0.00000
-510559576.13456,-394071907.55543,-37681239.50637,  -0.00390,  -0.00097,  -0.00241,468002340.21984,   0.00224,277061355.66806,  -0.00235,  -0.00017,  -0.00192,-9059015.44821,   0.00000
-509907104.66246,-394251573.61296,-36957847.22208,  -0.00390,  -0.00097,  -0.00240,467445748.38779,   0.00224,277061355.66806,  -0.00235,  -0.00017,  -0.00192,-9615607.28027,   0.00000
-509221536.81134,-394417055.50806,-36224998.82950,  -0.00390,  -0.00097,  -0.00239,466864519.63961,   0.00224,277061355.66806,  -0.00235,  -0.00017,  -0.00192,-10196836.02845,   0.00000
-508521784.79778,-394549441.02414,-35487422.38278,  -0.00389,  -0.00097,  -0.00238,466266825.46364,   0.00224,277061355.66806,  -0.00235,  -0.00017,  -0.00192,-10794530.20442,   0.00000
-507788936.40520,-394667642.37778,-34745117.88191,  -0.00389,  -0.00097,  -0.00237,465645744.28301,   0.00224,277061355.66806,  -0.00235,  -0.00017,  -0.00192,-11415611.38504,   0.00000
-507056088.01262,-394785843.73142,-34002813.38103,  -0.00389,  -0.00098,  -0.00237,465028759.57262,   0.00224,277061355.66806,  -0.00235,  -0.00017,  -0.00192,-12032596.09543,   0.00000
-506275959.07858,-394856764.54361,-33251052.77187,  -0.00388,  -0.00098,  -0.00236,464367980.81922,   0.00224,277061355.66806,  -0.00235,  -0.00017,  -0.00192,-12693374.84884,   0.00000
-505495830.14455,-394927685.35579,-32494564.10856,  -0.00388,  -0.00098,  -0.00235,463710365.30127,   0.00224,277061355.66806,  -0.00235,  -0.00017,  -0.00192,-13350990.36679,   0.00000
-504675512.75027,-394967873.81603,-31733347.39111,  -0.00388,  -0.00098,  -0.00234,463019865.97602,   0.00224,277061355.66806,  -0.00235,  -0.00017,  -0.00192,-14041489.69204,   0.00000
-503848103.27478,-394991514.08676,-30962674.56536,  -0.00387,  -0.00098,  -0.00233,462321904.99761,   0.00224,277061355.66806,  -0.00235,  -0.00017,  -0.00192,-14739450.67045,   0.00000
-502987597.42026,-395000970.19505,-30192001.73962,  -0.00387,  -0.00099,  -0.00232,461601962.23987,   0.00224,277061355.66806,  -0.00235,  -0.00017,  -0.00192,-15459393.42819,   0.00000
-502096359.21380,-394970237.84310,-29416600.85973,  -0.00386,  -0.00099,  -0.00231,460852615.82982,   0.00224,277061355.66806,  -0.00235,  -0.00017,  -0.00192,-16208739.83824,   0.00000
-501205121.00734,-394939505.49116,-28636471.92569,  -0.00386,  -0.00099,  -0.00230,460106755.28008,   0.00224,277061355.66806,  -0.00235,  -0.00017,  -0.00192,-16954600.38798,   0.00000
-500273694.34065,-394878040.78726,-27851614.93751,  -0.00386,  -0.00099,  -0.00229,459328289.38622,   0.00224,277061355.66806,  -0.00235,  -0.00017,  -0.00192,-17733066.28184,   0.00000
-499342267.67395,-394816576.08337,-27057301.84104,  -0.00385,  -0.00099,  -0.00227,458552633.14910,   0.00224,277061355.66806,  -0.00235,  -0.00017,  -0.00192,-18508722.51896,   0.00000
-498363560.46579,-394707830.83802,-26262988.74456,  -0.00385,  -0.00099,  -0.00226,457735451.91324,   0.00224,277061355.66806,  -0.00235,  -0.00017,  -0.00192,-19325903.75481,   0.00000
-497368305.06813,-394591993.51145,-25463947.59394,  -0.00384,  -0.00099,  -0.00225,456908917.73377,   0.00224,277061355.66806,  -0.00235,  -0.00017,  -0.00192,-20152437.93429,   0.00000
-496365957.58925,-394459607.99537,-24660178.38918,  -0.00384,  -0.00100,  -0.00224,456076307.57912,   0.00224,277061355.66806,  -0.00235,  -0.00017,  -0.00192,-20985048.08893,   0.00000
-495323421.65012,-394296490.12734,-23846953.07612,  -0.00384,  -0.00100,  -0.00223,455210675.44651,   0.00224,277061355.66806,  -0.00235,  -0.00017,  -0.00192,-21850680.22155,   0.00000
-494264337.52149,-394126280.17810,-23033727.76307,  -0.00383,  -0.00100,  -0.00222,454336717.80359,   0.00224,277061355.66806,  -0.00235,  -0.00017,  -0.00192,-22724637.86447,   0.00000
-493191069.23042,-393922973.84984,-22215774.39586,  -0.00383,  -0.00100,  -0.00221,453446875.96668,   0.00224,277061355.66806,  -0.00235,  -0.00017,  -0.00192,-23614479.70138,   0.00000
-492084704.56034,-393705483.35914,-21388364.92037,  -0.00382,  -0.00100,  -0.00220,452534312.60913,   0.00224,277061355.66806,  -0.00235,  -0.00017,  -0.00192,-24527043.05892,   0.00000
-490954699.61952,-393464352.59771,-20560955.44488,  -0.00382,  -0.00100,  -0.00219,451603586.64369,   0.00224,277061355.66806,  -0.00235,  -0.00017,  -0.00192,-25457769.02436,   0.00000
-489801054.40797,-393199581.56555,-19728817.91524,  -0.00381,  -0.00100,  -0.00218,450654072.39689,   0.00224,277061355.66806,  -0.00235,  -0.00017,  -0.00192,-26407283.27116,   0.00000
-488623768.92570,-392911170.26266,-18891952.33145,  -0.00381,  -0.00100,  -0.00217,449685841.44741,   0.00224,277061355.66806,  -0.00235,  -0.00017,  -0.00192,-27375514.22065,   0.00000
-487439391.36221,-392606210.77027,-18045630.63938,  -0.00380,  -0.00101,  -0.00216,448711487.39428,   0.00224,277061355.66806,  -0.00235,  -0.00017,  -0.00192,-28349868.27378,   0.00000
-486221917.41970,-392287067.11543,-17199308.94730,  -0.00380,  -0.00101,  -0.00215,447716176.54301,   0.00224,277061355.66806,  -0.00235,  -0.00017,  -0.00192,-29345179.12504,   0.00000
-484973711.12524,-391927735.00036,-16348259.20108,  -0.00379,  -0.00101,  -0.00214,446692286.19463,   0.00224,277061355.66806,  -0.00235,  -0.00017,  -0.00192,-30369069.47343,   0.00000
-483708956.64127,-391561310.80407,-15492481.40071,  -0.00379,  -0.00101,  -0.00212,445660131.35944,   0.00224,277061355.66806,  -0.00235,  -0.00017,  -0.00192,-31401224.30861,   0.00000
-482420561.88657,-391171246.33705,-14631975.54620,  -0.00378,  -0.00101,  -0.00211,444609687.43967,   0.00224,277061355.66806,  -0.00235,  -0.00017,  -0.00192,-32451668.22839,   0.00000
-481108526.86115,-390757541.59931,-13766741.63754,  -0.00378,  -0.00101,  -0.00210,443541041.23796,   0.00224,277061355.66806,  -0.00235,  -0.00017,  -0.00192,-33520314.43009,   0.00000
-479772851.56500,-390320196.59083,-12896779.67474,  -0.00377,  -0.00101,  -0.00209,442454282.38594,   0.00224,277061355.66806,  -0.00235,  -0.00017,  -0.00192,-34607073.28212,   0.00000
-478420628.07933,-389875759.50114,-12022089.65779,  -0.00377,  -0.00101,  -0.00208,441359707.49967,   0.00224,277061355.66806,  -0.00235,  -0.00017,  -0.00192,-35701648.16839,   0.00000
-477037672.24172,-389391133.95121,-11147399.64084,  -0.00376,  -0.00101,  -0.00207,440237378.42466,   0.00224,277061355.66806,  -0.00235,  -0.00017,  -0.00192,-36823977.24340,   0.00000
-475638168.21460,-388899416.32006,-10263253.51560,  -0.00376,  -0.00101,  -0.00206,439107071.44909,   0.00224,277061355.66806,  -0.00235,  -0.00017,  -0.00192,-37954284.21896,   0.00000
-474215023.91675,-388384058.41818,-9374379.33621,  -0.00375,  -0.00101,  -0.00204,437959070.18110,   0.00224,277061355.66806,  -0.00235,  -0.00017,  -0.00192,-39102285.48695,   0.00000
-472744599.07745,-387821419.97484,-8485505.15682,  -0.00375,  -0.00101,  -0.00203,436770465.39555,   0.00224,277061355.66806,  -0.00235,  -0.00017,  -0.00192,-40290890.27251,   0.00000
-471274174.23814,-387258781.53151,-7591902.92329,  -0.00374,  -0.00101,  -0.00202,435587602.74412,   0.00224,277061355.66806,  -0.00235,  -0.00017,  -0.00192,-41473752.92394,   0.00000
-469780109.12811,-386672502.81744,-6688844.58146,  -0.00373,  -0.00101,  -0.00201,434387093.18143,   0.00224,277061355.66806,  -0.00235,  -0.00017,  -0.00192,-42674262.48663,   0.00000
-468262403.74735,-386062583.83265,-5785786.23964,  -0.00373,  -0.00101,  -0.00200,433169516.31391,   0.00224,277061355.66806,  -0.00235,  -0.00017,  -0.00192,-43891839.35414,   0.00000
-466728150.17707,-385445572.76664,-4877999.84367,  -0.00372,  -0.00101,  -0.00199,431945067.35142,   0.00224,277061355.66806,  -0.00235,  -0.00017,  -0.00192,-45116288.31663,   0.00000
-465146616.06535,-384781281.15917,-3970213.44770,  -0.00372,  -0.00101,  -0.00197,430680375.33131,   0.00224,277061355.66806,  -0.00235,  -0.00017,  -0.00192,-46380980.33675,   0.00000
-463557989.87240,-384100441.36219,-3052970.94344,  -0.00371,  -0.00101,  -0.00196,429411565.30415,   0.00224,277061355.66806,  -0.00235,  -0.00017,  -0.00192,-47649790.36391,   0.00000
-461952815.48994,-383412509.48400,-2131000.38503,  -0.00370,  -0.00101,  -0.00195,428136300.03263,   0.00224,277061355.66806,  -0.00235,  -0.00017,  -0.00192,-48925055.63543,   0.00000
-460300360.56603,-382677297.06435,-1209029.82663,  -0.00370,  -0.00101,  -0.00194,426821066.80189,   0.00224,277061355.66806,  -0.00235,  -0.00017,  -0.00192,-50240288.86617,   0.00000
-458647905.64211,-381942084.64469,-282331.21407,  -0.00369,  -0.00101,  -0.00193,425512584.19288,   0.00224,277061355.66806,  -0.00235,  -0.00017,  -0.00192,-51548771.47518,   0.00000
-456955262.25796,-381176139.87309,649095.45263,  -0.00369,  -0.00101,  -0.00191,424174707.31566,   0.00224,277061355.66806,  -0.00235,  -0.00017,  -0.00192,-52886648.35239,   0.00000
-455248434.71137,-380377098.72247,1585250.17347,  -0.00368,  -0.00101,  -0.00190,422823053.77139,   0.00224,277061355.66806,  -0.00235,  -0.00017,  -0.00192,-54238301.89667,   0.00000
-453508510.78576,-379563873.40942,2526132.94846,  -0.00367,  -0.00101,  -0.00189,421452726.19562,   0.00224,277061355.66806,  -0.00235,  -0.00017,  -0.00192,-55608629.47244,   0.00000
-451761494.77894,-378734099.90685,3467015.72345,  -0.00367,  -0.00101,  -0.00188,420079211.68936,   0.00224,277061355.66806,  -0.00235,  -0.00017,  -0.00192,-56982143.97869,   0.00000
-449974290.31187,-377873594.05234,4417354.60673,  -0.00366,  -0.00101,  -0.00187,418677025.61470,   0.00224,277061355.66806,  -0.00235,  -0.00017,  -0.00192,-58384330.05336,   0.00000
-448179993.76359,-376996540.00832,5367693.49001,  -0.00365,  -0.00101,  -0.00185,417271886.71004,   0.00224,277061355.66806,  -0.00235,  -0.00017,  -0.00192,-59789468.95802,   0.00000
-446345508.75507,-376088753.61235,6322760.42744,  -0.00365,  -0.00101,  -0.00184,415838273.38235,   0.00224,277061355.66806,  -0.00235,  -0.00017,  -0.00192,-61223082.28571,   0.00000
-444511023.74654,-375180967.21638,7277827.36486,  -0.00364,  -0.00101,  -0.00183,414412394.69821,   0.00224,277061355.66806,  -0.00235,  -0.00017,  -0.00192,-62648960.96985,   0.00000
-442629258.19656,-374225900.27895,8242350.41058,  -0.00363,  -0.00101,  -0.00182,412948133.58785,   0.00224,277061355.66806,  -0.00235,  -0.00017,  -0.00192,-64113222.08020,   0.00000
-440740400.56537,-373254285.15201,9206873.45630,  -0.00363,  -0.00101,  -0.00180,411481370.75783,   0.00224,277061355.66806,  -0.00235,  -0.00017,  -0.00192,-65579984.91023,   0.00000
-438811354.47393,-372251937.67313,10176124.55616,  -0.00362,  -0.00101,  -0.00179,409986821.09758,   0.00224,277061355.66806,  -0.00235,  -0.00017,  -0.00192,-67074534.57047,   0.00000
-436865760.19298,-371242498.11303,11150103.71017,  -0.00361,  -0.00101,  -0.00178,408488094.21861,   0.00224,277061355.66806,  -0.00235,  -0.00017,  -0.00192,-68573261.44945,   0.00000
-434905981.74960,-370199962.17391,12124082.86418,  -0.00361,  -0.00101,  -0.00177,406976691.12387,   0.00224,277061355.66806,  -0.00235,  -0.00017,  -0.00192,-70084664.54419,   0.00000
-432906014.84598,-369126693.88284,13102790.07234,  -0.00360,  -0.00100,  -0.00175,405438055.84534,   0.00224,277061355.66806,  -0.00235,  -0.00017,  -0.00192,-71623299.82272,   0.00000
-430889499.75285,-368046333.51055,14086225.33464,  -0.00359,  -0.00100,  -0.00174,403895814.91781,   0.00224,277061355.66806,  -0.00235,  -0.00017,  -0.00192,-73165540.75024,   0.00000
-428858800.49728,-366932876.75924,15069660.59694,  -0.00359,  -0.00100,  -0.00173,402341269.85970,   0.00224,277061355.66806,  -0.00235,  -0.00017,  -0.00192,-74720085.80836,   0.00000
-426795004.86269,-365805235.84550,16062551.96753,  -0.00358,  -0.00100,  -0.00171,400771276.49493,   0.00224,277061355.66806,  -0.00235,  -0.00017,  -0.00192,-76290079.17312,   0.00000
-424700476.87616,-364637406.47152,17055443.33812,  -0.00357,  -0.00100,  -0.00170,399176549.01579,   0.00224,277061355.66806,  -0.00235,  -0.00017,  -0.00192,-77884806.65227,   0.00000
-422605948.88963,-363469577.09754,18048334.70871,  -0.00356,  -0.00100,  -0.00169,397591175.89280,   0.00224,277061355.66806,  -0.00235,  -0.00017,  -0.00192,-79470179.77526,   0.00000
-420471232.44285,-362271015.37161,19050682.18760,  -0.00356,  -0.00100,  -0.00168,395980543.78240,   0.00224,277061355.66806,  -0.00235,  -0.00017,  -0.00192,-81080811.88566,   0.00000
-418305783.64413,-361032265.18544,20053029.66648,  -0.00355,  -0.00100,  -0.00166,394345676.43410,   0.00224,277061355.66806,  -0.00235,  -0.00017,  -0.00192,-82715679.23396,   0.00000
-416140334.84541,-359793514.99927,21055377.14536,  -0.00354,  -0.00099,  -0.00165,392720695.44904,   0.00224,277061355.66806,  -0.00235,  -0.00017,  -0.00192,-84340660.21901,   0.00000
-413927605.50524,-358507484.27165,22067180.73254,  -0.00353,  -0.00099,  -0.00164,391060629.25621,   0.00224,277061355.66806,  -0.00235,  -0.00017,  -0.00192,-86000726.41185,   0.00000
-411698327.97555,-357214361.46281,23078984.31971,  -0.00353,  -0.00099,  -0.00162,389398223.54723,   0.00224,277061355.66806,  -0.00235,  -0.00017,  -0.00192,-87663132.12082,   0.00000
-409445410.17514,-355897598.38324,24090787.90689,  -0.00352,  -0.00099,  -0.00161,387722973.89244,   0.00224,277061355.66806,  -0.00235,  -0.00017,  -0.00192,-89338381.77562,   0.00000
-407178308.21228,-354547738.92465,25107319.54821,  -0.00351,  -0.00099,  -0.00160,386037896.87550,   0.00224,277061355.66806,  -0.00235,  -0.00017,  -0.00192,-91023458.79256,   0.00000
-404878109.87041,-353183695.30362,26128579.24367,  -0.00350,  -0.00099,  -0.00158,384339390.96697,   0.00224,277061355.66806,  -0.00235,  -0.00017,  -0.00192,-92721964.70109,   0.00000
-402570819.44732,-351803103.49308,27154566.99329,  -0.00350,  -0.00099,  -0.00157,382642308.38514,   0.00224,277061355.66806,  -0.00235,  -0.00017,  -0.00192,-94419047.28291,   0.00000
-400216248.48278,-350375231.14109,28180554.74290,  -0.00349,  -0.00098,  -0.00156,380909987.49715,   0.00224,277061355.66806,  -0.00235,  -0.00017,  -0.00192,-96151368.17091,   0.00000
-397845129.32872,-348940266.70787,29206542.49251,  -0.00348,  -0.00098,  -0.00154,379176657.37418,   0.00224,277061355.66806,  -0.00235,  -0.00017,  -0.00192,-97884698.29388,   0.00000
-395466918.09345,-347488754.08515,30241986.35041,  -0.00347,  -0.00098,  -0.00153,377446610.90947,   0.00224,277061355.66806,  -0.00235,  -0.00017,  -0.00192,-99614744.75858,   0.00000
-393048518.39793,-346006509.11048,31272702.15417,  -0.00346,  -0.00098,  -0.00152,375691684.89572,   0.00224,277061355.66806,  -0.00235,  -0.00017,  -0.00192,-101369670.77234,   0.00000
-390615934.53998,-344491167.75679,32312874.06622,  -0.00346,  -0.00098,  -0.00150,373929938.67321,   0.00224,277061355.66806,  -0.00235,  -0.00017,  -0.00192,-103131416.99485,   0.00000
-388150254.30301,-342961642.24067,33353045.97827,  -0.00345,  -0.00097,  -0.00149,372155795.79002,   0.00224,277061355.66806,  -0.00235,  -0.00017,  -0.00192,-104905559.87804,   0.00000
-385677481.98482,-341415568.53503,34393217.89032,  -0.00344,  -0.00097,  -0.00148,370383711.94721,   0.00224,277061355.66806,  -0.00235,  -0.00017,  -0.00192,-106677643.72084,   0.00000
-383157429.12518,-339822214.28794,35438117.85651,  -0.00343,  -0.00097,  -0.00146,368579607.98560,   0.00224,277061355.66806,  -0.00235,  -0.00017,  -0.00192,-108481747.68246,   0.00000
-380637376.26553,-338228860.04085,36483017.82270,  -0.00342,  -0.00097,  -0.00145,366788849.17615,   0.00224,277061355.66806,  -0.00235,  -0.00017,  -0.00192,-110272506.49191,   0.00000
-378077134.94565,-336604773.44181,37532645.84304,  -0.00341,  -0.00096,  -0.00144,364977565.93050,   0.00224,277061355.66806,  -0.00235,  -0.00017,  -0.00192,-112083789.73756,   0.00000
-375502709.46333,-334947590.46375,38587001.91753,  -0.00341,  -0.00096,  -0.00142,363160178.95052,   0.00224,277061355.66806,  -0.00235,  -0.00017,  -0.00192,-113901176.71754,   0.00000
-372911735.79150,-333283315.40447,39641357.99202,  -0.00340,  -0.00096,  -0.00141,361344687.45306,   0.00224,277061355.66806,  -0.00235,  -0.00017,  -0.00192,-115716668.21500,   0.00000
-370290029.76772,-331578851.88495,40695714.06650,  -0.00339,  -0.00096,  -0.00139,359509835.27303,   0.00224,277061355.66806,  -0.00235,  -0.00017,  -0.00192,-117551520.39502,   0.00000
-367635227.36492,-329860204.20300,41754798.19513,  -0.00338,  -0.00095,  -0.00138,357666846.46839,   0.00224,277061355.66806,  -0.00235,  -0.00017,  -0.00192,-119394509.19967,   0.00000
-364973332.88091,-328125008.33154,42818610.37791,  -0.00337,  -0.00095,  -0.00137,355829983.41697,   0.00224,277061355.66806,  -0.00235,  -0.00017,  -0.00192,-121231372.25109,   0.00000
-362280706.04494,-326349623.99983,43882422.56069,  -0.00336,  -0.00095,  -0.00135,353974880.30435,   0.00224,277061355.66806,  -0.00235,  -0.00017,  -0.00192,-123086475.36371,   0.00000
-359571531.01947,-324567147.58691,44946234.74346,  -0.00335,  -0.00094,  -0.00134,352123423.09024,   0.00224,277061355.66806,  -0.00235,  -0.00017,  -0.00192,-124937932.57782,   0.00000
-356831623.64205,-322744482.71376,46014774.98039,  -0.00334,  -0.00094,  -0.00132,350256262.63411,   0.00224,277061355.66806,  -0.00235,  -0.00017,  -0.00192,-126805093.03394,   0.00000
-354075168.07512,-320914725.75938,47083315.21731,  -0.00334,  -0.00094,  -0.00131,348393550.61649,   0.00224,277061355.66806,  -0.00235,  -0.00017,  -0.00192,-128667805.05156,   0.00000
-351304528.34576,-319051872.42598,48156583.50838,  -0.00333,  -0.00094,  -0.00130,346528167.65729,   0.00224,277061355.66806,  -0.00235,  -0.00017,  -0.00192,-130533188.01077,   0.00000
-348500792.23737,-317174834.93015,49229851.79945,  -0.00332,  -0.00093,  -0.00128,344655961.46986,   0.00224,277061355.66806,  -0.00235,  -0.00017,  -0.00192,-132405394.19819,   0.00000
-345666323.77704,-315257608.97408,50303120.09052,  -0.00331,  -0.00093,  -0.00127,342767910.32023,   0.00224,277061355.66806,  -0.00235,  -0.00017,  -0.00192,-134293445.34782,   0.00000
-342831855.31671,-313340383.01801,51381116.43573,  -0.00330,  -0.00093,  -0.00126,340900086.78879,   0.00224,277061355.66806,  -0.00235,  -0.00017,  -0.00192,-136161268.87927,   0.00000
-339950106.31492,-311375876.52048,52459112.78094,  -0.00329,  -0.00092,  -0.00124,339005345.79365,   0.00224,277061355.66806,  -0.00235,  -0.00017,  -0.00192,-138056009.87441,   0.00000
-337068357.31313,-309411370.02295,53537109.12616,  -0.00328,  -0.00092,  -0.00123,337129585.37388,   0.00224,277061355.66806,  -0.00235,  -0.00017,  -0.00192,-139931770.29417,   0.00000
-334139327.76988,-307399582.98396,54619833.52552,  -0.00327,  -0.00092,  -0.00121,335230193.46307,   0.00224,277061355.66806,  -0.00235,  -0.00017,  -0.00192,-141831162.20499,   0.00000
-331210298.22663,-305387795.94498,55707285.97902,  -0.00326,  -0.00091,  -0.00120,333353100.67141,   0.00224,277061355.66806,  -0.00235,  -0.00017,  -0.00192,-143708254.99665,   0.00000
-328250536.33144,-303335820.44576,56790010.37838,  -0.00325,  -0.00091,  -0.00118,331460713.59039,   0.00224,277061355.66806,  -0.00235,  -0.00017,  -0.00192,-145600642.07766,   0.00000
-325267134.16552,-301260204.67580,57877462.83189,  -0.00324,  -0.00091,  -0.00117,329569079.53889,   0.00224,277061355.66806,  -0.00235,  -0.00017,  -0.00192,-147492276.12917,   0.00000
-322267183.81009,-299177496.82463,58964915.28539,  -0.00323,  -0.00090,  -0.00116,327687056.06104,   0.00224,277061355.66806,  -0.00235,  -0.00017,  -0.00192,-149374299.60701,   0.00000
-319236501.10271,-297054600.51323,60057095.79305,  -0.00322,  -0.00090,  -0.00114,325796366.28322,   0.00224,277061355.66806,  -0.00235,  -0.00017,  -0.00192,-151264989.38483,   0.00000
-316198726.31411,-294915156.01231,61144548.24655,  -0.00321,  -0.00089,  -0.00113,323914733.23613,   0.00224,277061355.66806,  -0.00235,  -0.00017,  -0.00192,-153146622.43192,   0.00000
-313127855.14650,-292761527.34895,62241456.80835,  -0.00320,  -0.00089,  -0.00111,322038154.99568,   0.00224,277061355.66806,  -0.00235,  -0.00017,  -0.00192,-155023200.67238,   0.00000
-310042799.81644,-290574802.30658,63333637.31600,  -0.00319,  -0.00089,  -0.00110,320161017.36050,   0.00224,277061355.66806,  -0.00235,  -0.00017,  -0.00192,-156900338.30756,   0.00000
-306917556.02615,-288357344.91225,64430545.87780,  -0.00318,  -0.00088,  -0.00109,318277078.54255,   0.00224,277061355.66806,  -0.00235,  -0.00017,  -0.00192,-158784277.12550,   0.00000
-303785220.15464,-286123339.32842,65522726.38545,  -0.00317,  -0.00088,  -0.00107,316404277.28230,   0.00224,277061355.66806,  -0.00235,  -0.00017,  -0.00192,-160657078.38576,   0.00000
-300629244.01240,-283865693.47386,66619634.94724,  -0.00316,  -0.00087,  -0.00106,314537553.78058,   0.00224,277061355.66806,  -0.00235,  -0.00017,  -0.00192,-162523801.88747,   0.00000
-297456719.68065,-281600955.53808,67721271.56319,  -0.00315,  -0.00087,  -0.00104,312688365.01578,   0.00224,277061355.66806,  -0.00235,  -0.00017,  -0.00192,-164372990.65227,   0.00000
-294253462.99696,-279296029.14207,68818180.12498,  -0.00314,  -0.00087,  -0.00103,310830137.45617,   0.00224,277061355.66806,  -0.00235,  -0.00017,  -0.00192,-166231218.21189,   0.00000
-291043114.23204,-276974554.55654,69919816.74093,  -0.00313,  -0.00086,  -0.00101,308991591.49039,   0.00224,277061355.66806,  -0.00235,  -0.00017,  -0.00192,-168069764.17767,   0.00000
-287792577.00689,-274622347.61907,71021453.35687,  -0.00312,  -0.00086,  -0.00100,307147958.77210,   0.00224,277061355.66806,  -0.00235,  -0.00017,  -0.00192,-169913396.89596,   0.00000
-284534947.70052,-272253592.49208,72123089.97281,  -0.00311,  -0.00085,  -0.00099,305322311.18680,   0.00224,277061355.66806,  -0.00235,  -0.00017,  -0.00192,-171739044.48126,   0.00000
-281253678.12342,-269861197.09437,73224726.58875,  -0.00310,  -0.00085,  -0.00097,303504241.55450,   0.00224,277061355.66806,  -0.00235,  -0.00017,  -0.00192,-173557114.11356,   0.00000
-277948768.27559,-267445161.42593,74331091.25884,  -0.00309,  -0.00084,  -0.00096,301698048.28611,   0.00224,277061355.66806,  -0.00235,  -0.00017,  -0.00192,-175363307.38195,   0.00000
-274627310.23826,-265022033.67627,75437455.92893,  -0.00308,  -0.00084,  -0.00094,299911618.43334,   0.00224,277061355.66806,  -0.00235,  -0.00017,  -0.00192,-177149737.23472,   0.00000
-271275119.84897,-262558717.46637,76539092.54487,  -0.00307,  -0.00083,  -0.00093,298121319.73637,   0.00224,277061355.66806,  -0.00235,  -0.00017,  -0.00192,-178940035.93169,   0.00000
-267915837.37847,-260078853.06697,77645457.21496,  -0.00306,  -0.00083,  -0.00091,296356395.41830,   0.00224,277061355.66806,  -0.00235,  -0.00017,  -0.00192,-180704960.24976,   0.00000
-264532914.63724,-257575348.39683,78751821.88505,  -0.00305,  -0.00083,  -0.00090,294603315.88213,   0.00224,277061355.66806,  -0.00235,  -0.00017,  -0.00192,-182458039.78592,   0.00000
-261126351.62528,-255048203.45597,79858186.55514,  -0.00304,  -0.00082,  -0.00088,292863006.57787,   0.00224,277061355.66806,  -0.00235,  -0.00017,  -0.00192,-184198349.09018,   0.00000
-257696148.34259,-252497418.24437,80969279.27937,  -0.00303,  -0.00082,  -0.00087,291140363.92043,   0.00224,277061355.66806,  -0.00235,  -0.00017,  -0.00192,-185920991.74763,   0.00000
-254242304.78917,-249922992.76205,82075643.94946,  -0.00302,  -0.00081,  -0.00086,289428554.47446,   0.00224,277061355.66806,  -0.00235,  -0.00017,  -0.00192,-187632801.19360,   0.00000
-250781369.15454,-247332019.09022,83182008.61955,  -0.00301,  -0.00081,  -0.00084,287742767.19497,   0.00224,277061355.66806,  -0.00235,  -0.00017,  -0.00192,-189318588.47309,   0.00000
-247280245.05967,-244710313.06645,84293101.34378,  -0.00300,  -0.00080,  -0.00083,286067494.72215,   0.00224,277061355.66806,  -0.00235,  -0.00017,  -0.00192,-190993860.94591,   0.00000
-243772028.88357,-242072058.85316,85399466.01387,  -0.00299,  -0.00080,  -0.00081,284416056.52129,   0.00224,277061355.66806,  -0.00235,  -0.00017,  -0.00192,-192645299.14676,   0.00000
-240240172.43675,-239410164.36914,86510558.73810,  -0.00298,  -0.00079,  -0.00080,282787656.03202,   0.00224,277061355.66806,  -0.00235,  -0.00017,  -0.00192,-194273699.63604,   0.00000
-236701223.90872,-236731721.69562,87616923.40819,  -0.00297,  -0.00078,  -0.00078,281184752.42451,   0.00224,277061355.66806,  -0.00235,  -0.00017,  -0.00192,-195876603.24354,   0.00000
-233122086.92044,-234022546.67014,88728016.13242,  -0.00295,  -0.00078,  -0.00077,279597242.17940,   0.00224,277061355.66806,  -0.00235,  -0.00017,  -0.00192,-197464113.48865,   0.00000
-229535857.85094,-231296823.45516,89839108.85666,  -0.00294,  -0.00077,  -0.00076,278041745.48135,   0.00224,277061355.66806,  -0.00235,  -0.00017,  -0.00192,-199019610.18671,   0.00000
-225933080.59194,-228564008.15896,90945473.52675,  -0.00293,  -0.00077,  -0.00074,276514610.32045,   0.00224,277061355.66806,  -0.00235,  -0.00017,  -0.00192,-200546745.34761,   0.00000
-222316119.17050,-225798096.48374,92056566.25098,  -0.00292,  -0.00076,  -0.00073,275016208.36257,   0.00224,277061355.66806,  -0.00235,  -0.00017,  -0.00192,-202045147.30549,   0.00000
-218658969.28882,-223001452.45657,93162930.92107,  -0.00291,  -0.00076,  -0.00071,273529011.25390,   0.00224,277061355.66806,  -0.00235,  -0.00017,  -0.00192,-203532344.41416,   0.00000
-214994727.32592,-220188260.23990,94274023.64530,  -0.00290,  -0.00075,  -0.00070,272082822.60664,   0.00224,277061355.66806,  -0.00235,  -0.00017,  -0.00192,-204978533.06141,   0.00000
-211306845.09229,-217351427.75249,95385116.36954,  -0.00289,  -0.00075,  -0.00068,270664631.46985,   0.00224,277061355.66806,  -0.00235,  -0.00017,  -0.00192,-206396724.19821,   0.00000
-207595322.58793,-214490954.99436,96491481.03963,  -0.00288,  -0.00074,  -0.00067,269270656.55246,   0.00224,277061355.66806,  -0.00235,  -0.00017,  -0.00192,-207790699.11560,   0.00000
-203876708.00236,-211613934.04671,97597845.70971,  -0.00287,  -0.00073,  -0.00065,267916097.62996,   0.00224,277061355.66806,  -0.00235,  -0.00017,  -0.00192,-209145258.03810,   0.00000
-200141545.22727,-208729821.01785,98708938.43395,  -0.00285,  -0.00073,  -0.00064,266607634.87727,   0.00224,277061355.66806,  -0.00235,  -0.00017,  -0.00192,-210453720.79079,   0.00000
-196375650.10024,-205805519.52875,99815303.10404,  -0.00284,  -0.00072,  -0.00063,265317544.33201,   0.00224,277061355.66806,  -0.00235,  -0.00017,  -0.00192,-211743811.33605,   0.00000
-192586114.70248,-202857577.76892,100921667.77412,  -0.00283,  -0.00072,  -0.00061,264061744.24352,   0.00224,277061355.66806,  -0.00235,  -0.00017,  -0.00192,-212999611.42454,   0.00000
-188796579.30473,-199909636.00909,102028032.44421,  -0.00282,  -0.00071,  -0.00060,262859113.76856,   0.00224,277061355.66806,  -0.00235,  -0.00017,  -0.00192,-214202241.89949,   0.00000
-184976311.55502,-196921505.78902,103134397.11430,  -0.00281,  -0.00070,  -0.00058,261684185.75908,   0.00224,277061355.66806,  -0.00235,  -0.00017,  -0.00192,-215377169.90898,   0.00000
-181148951.72409,-193916827.37945,104240761.78439,  -0.00280,  -0.00070,  -0.00057,260555671.40703,   0.00224,277061355.66806,  -0.00235,  -0.00017,  -0.00192,-216505684.26103,   0.00000
-177288495.51415,-190897964.80743,105342398.40033,  -0.00278,  -0.00069,  -0.00055,259461545.00054,   0.00224,277061355.66806,  -0.00235,  -0.00017,  -0.00192,-217599810.66751,   0.00000
-173413855.14177,-187846005.85640,106448763.07042,  -0.00277,  -0.00069,  -0.00054,258413243.66305,   0.00224,277061355.66806,  -0.00235,  -0.00017,  -0.00192,-218648112.00501,   0.00000
-169539214.76939,-184794046.90537,107550399.68636,  -0.00276,  -0.00068,  -0.00052,257417584.72952,   0.00224,277061355.66806,  -0.00235,  -0.00017,  -0.00192,-219643770.93854,   0.00000
-165617293.85555,-181694807.41287,108652036.30230,  -0.00275,  -0.00067,  -0.00051,256448988.55605,   0.00224,277061355.66806,  -0.00235,  -0.00017,  -0.00192,-220612367.11200,   0.00000
-161695372.94171,-178595567.92038,109753672.91825,  -0.00274,  -0.00067,  -0.00050,255541189.84633,   0.00224,277061355.66806,  -0.00235,  -0.00017,  -0.00192,-221520165.82173,   0.00000
-157742719.67592,-175456139.96766,110855309.53419,  -0.00273,  -0.00066,  -0.00048,254671146.61173,   0.00224,277061355.66806,  -0.00235,  -0.00017,  -0.00192,-222390209.05633,   0.00000
-153790066.41014,-172316712.01493,111952218.09599,  -0.00271,  -0.00065,  -0.00047,253857701.46196,   0.00224,277061355.66806,  -0.00235,  -0.00017,  -0.00192,-223203654.20609,   0.00000
-149813772.87363,-169153643.79147,113053854.71193,  -0.00270,  -0.00065,  -0.00045,253098989.27992,   0.00224,277061355.66806,  -0.00235,  -0.00017,  -0.00192,-223962366.38814,   0.00000
-145813839.06638,-165966935.29728,114150763.27373,  -0.00269,  -0.00064,  -0.00044,252383861.50741,   0.00224,277061355.66806,  -0.00235,  -0.00017,  -0.00192,-224677494.16064,   0.00000
-141806813.17792,-162763678.61359,115247671.83552,  -0.00268,  -0.00063,  -0.00042,251726570.63711,   0.00224,277061355.66806,  -0.00235,  -0.00017,  -0.00192,-225334785.03094,   0.00000
-137776147.01873,-159536781.65916,116339852.34317,  -0.00267,  -0.00063,  -0.00041,251115057.36299,   0.00224,277061355.66806,  -0.00235,  -0.00017,  -0.00192,-225946298.30507,   0.00000
-133738388.77833,-156293336.51523,117436760.90497,  -0.00265,  -0.00062,  -0.00040,250569996.41877,   0.00224,277061355.66806,  -0.00235,  -0.00017,  -0.00192,-226491359.24928,   0.00000
-129660442.07768,-153019159.01935,118528941.41262,  -0.00264,  -0.00061,  -0.00038,250066973.66737,   0.00224,277061355.66806,  -0.00235,  -0.00017,  -0.00192,-226994382.00069,   0.00000
-125591951.48533,-149735525.41518,119616393.86613,  -0.00263,  -0.00061,  -0.00037,249625187.13120,   0.00224,277061355.66806,  -0.00235,  -0.00017,  -0.00192,-227436168.53685,   0.00000
-121483272.43273,-146421159.45906,120708574.37378,  -0.00262,  -0.00060,  -0.00035,249241448.39065,   0.00224,277061355.66806,  -0.00235,  -0.00017,  -0.00192,-227819907.27741,   0.00000
-117374593.38014,-143106793.50294,121796026.82728,  -0.00261,  -0.00059,  -0.00034,248921803.53123,   0.00224,277061355.66806,  -0.00235,  -0.00017,  -0.00192,-228139552.13683,   0.00000
-113251730.16511,-139759331.16780,122883479.28079,  -0.00259,  -0.00058,  -0.00033,248659782.45958,   0.00224,277061355.66806,  -0.00235,  -0.00017,  -0.00192,-228401573.20848,   0.00000
-109095770.57106,-136397684.67023,123970931.73429,  -0.00258,  -0.00058,  -0.00031,248459615.97791,   0.00224,277061355.66806,  -0.00235,  -0.00017,  -0.00192,-228601739.69014,   0.00000
-104942175.00409,-133010033.87485,125053656.13365,  -0.00257,  -0.00057,  -0.00030,248317171.55881,   0.00224,277061355.66806,  -0.00235,  -0.00017,  -0.00192,-228744184.10925,   0.00000
-100755483.05809,-129608198.91703,126136380.53301,  -0.00256,  -0.00056,  -0.00028,248238545.32389,   0.00224,277061355.66806,  -0.00235,  -0.00017,  -0.00192,-228822810.34417,   0.00000
-96561699.03088,-126189815.76971,127214376.87823,  -0.00254,  -0.00056,  -0.00027,248220509.55986,   0.00224,277061355.66806,  -0.00235,  -0.00017,  -0.00192,-228840846.10820,   0.00000
-92360822.92244,-122754884.43288,128292373.22344,  -0.00253,  -0.00055,  -0.00026,248270699.44111,   0.00224,277061355.66806,  -0.00235,  -0.00017,  -0.00192,-228790656.22695,   0.00000
-88136306.54328,-119296312.82531,129370369.56866,  -0.00252,  -0.00054,  -0.00024,248385506.73327,   0.00224,277061355.66806,  -0.00235,  -0.00017,  -0.00192,-228675848.93479,   0.00000
-83888149.89339,-115814100.94702,130443637.85972,  -0.00251,  -0.00053,  -0.00023,248558494.09129,   0.00224,277061355.66806,  -0.00235,  -0.00017,  -0.00192,-228502861.57677,   0.00000
-79632901.16228,-112315340.87922,131516906.15079,  -0.00249,  -0.00053,  -0.00021,248801583.82841,   0.00224,277061355.66806,  -0.00235,  -0.00017,  -0.00192,-228259771.83965,   0.00000
-75361104.24166,-108809488.73021,132590174.44186,  -0.00248,  -0.00052,  -0.00020,249116961.93383,   0.00224,277061355.66806,  -0.00235,  -0.00017,  -0.00192,-227944393.73422,   0.00000
-71075123.15861,-105270540.20217,133658714.67878,  -0.00247,  -0.00051,  -0.00019,249490278.73923,   0.00224,277061355.66806,  -0.00235,  -0.00017,  -0.00192,-227571076.92883,   0.00000
-66772593.88604,-101724499.59291,134722526.86156,  -0.00246,  -0.00050,  -0.00017,249929034.21574,   0.00224,277061355.66806,  -0.00235,  -0.00017,  -0.00192,-227132321.45232,   0.00000
-62462972.53226,-98161910.79414,135791067.09848,  -0.00244,  -0.00049,  -0.00016,250446682.23378,   0.00224,277061355.66806,  -0.00235,  -0.00017,  -0.00192,-226614673.43427,   0.00000
-58129710.90775,-94575681.72465,136850151.22712,  -0.00243,  -0.00049,  -0.00014,251017643.80019,   0.00224,277061355.66806,  -0.00235,  -0.00017,  -0.00192,-226043711.86787,   0.00000
-53789357.20202,-90972904.46564,137913963.40989,  -0.00242,  -0.00048,  -0.00013,251667983.96179,   0.00224,277061355.66806,  -0.00235,  -0.00017,  -0.00192,-225393371.70627,   0.00000
-49425363.22556,-87346486.93591,138968319.48438,  -0.00240,  -0.00047,  -0.00012,252372195.23489,   0.00224,277061355.66806,  -0.00235,  -0.00017,  -0.00192,-224689160.43317,   0.00000
-45061369.24910,-83720069.40618,140027403.61301,  -0.00239,  -0.00046,  -0.00010,253160141.70226,   0.00224,277061355.66806,  -0.00235,  -0.00017,  -0.00192,-223901213.96580,   0.00000
-40666642.92069,-80053463.41620,141081759.68750,  -0.00238,  -0.00045,  -0.00009,254005936.91805,   0.00224,277061355.66806,  -0.00235,  -0.00017,  -0.00192,-223055418.75000,   0.00000
-36271916.59229,-76386857.42623,142131387.70784,  -0.00237,  -0.00045,  -0.00008,254919399.64367,   0.00224,277061355.66806,  -0.00235,  -0.00017,  -0.00192,-222141956.02439,   0.00000
-31853549.99315,-72696611.16553,143181015.72818,  -0.00235,  -0.00044,  -0.00006,255902736.55997,   0.00224,277061355.66806,  -0.00235,  -0.00017,  -0.00192,-221158619.10809,   0.00000
-27428091.31280,-68989816.71532,144225915.69437,  -0.00234,  -0.00043,  -0.00005,256949372.99903,   0.00224,277061355.66806,  -0.00235,  -0.00017,  -0.00192,-220111982.66903,   0.00000
-22978992.36172,-65259381.99438,145270815.66057,  -0.00233,  -0.00042,  -0.00003,258065991.24241,   0.00224,277061355.66806,  -0.00235,  -0.00017,  -0.00192,-218995364.42565,   0.00000
-18522801.32942,-61512399.08393,146310987.57261,  -0.00231,  -0.00041,  -0.00002,259245448.78559,   0.00224,277061355.66806,  -0.00235,  -0.00017,  -0.00192,-217815906.88246,   0.00000
-14050062.10761,-57758324.09227,147351159.48466,  -0.00230,  -0.00040,  -0.00001,260497625.34593,   0.00224,277061355.66806,  -0.00235,  -0.00017,  -0.00192,-216563730.32212,   0.00000
-9570230.80458,-53987700.91109,148386603.34257,  -0.00229,  -0.00040,   0.00001,261811647.11224,   0.00224,277061355.66806,  -0.00235,  -0.00017,  -0.00192,-215249708.55582,   0.00000
-5066759.23083,-50193437.45919,149417319.14632,  -0.00228,  -0.00039,   0.00002,263186893.54358,   0.00224,277061355.66806,  -0.00235,  -0.00017,  -0.00192,-213874462.12447,   0.00000
-572743.76536,-46389717.89899,150448034.95008,  -0.00226,  -0.00038,   0.00003,264631060.53804,   0.00224,277061355.66806,  -0.00235,  -0.00017,  -0.00192,-212430295.13002,   0.00000
3961460.16034,-42555265.98685,151474022.69969,  -0.00225,  -0.00037,   0.00005,266135986.81710,   0.00224,277061355.66806,  -0.00235,  -0.00017,  -0.00192,-210925368.85095,   0.00000
8495664.08605,-38720814.07470,152500010.44930,  -0.00224,  -0.00036,   0.00006,267711031.41541,   0.00224,277061355.66806,  -0.00235,  -0.00017,  -0.00192,-209350324.25265,   0.00000
13036960.09297,-34869813.97305,153521270.14477,  -0.00222,  -0.00035,   0.00007,269345138.78811,   0.00224,277061355.66806,  -0.00235,  -0.00017,  -0.00192,-207716216.87995,   0.00000
17585348.18111,-31002265.68189,154542529.84024,  -0.00221,  -0.00034,   0.00009,271045662.52339,   0.00224,277061355.66806,  -0.00235,  -0.00017,  -0.00192,-206015693.14467,   0.00000
22157376.53998,-27111077.12000,155559061.48156,  -0.00220,  -0.00034,   0.00010,272804939.48783,   0.00224,277061355.66806,  -0.00235,  -0.00017,  -0.00192,-204256416.18022,   0.00000
26753045.16957,-23196248.28738,156570865.06873,  -0.00218,  -0.00033,   0.00011,274622775.82852,   0.00224,277061355.66806,  -0.00235,  -0.00017,  -0.00192,-202438579.83953,   0.00000
31348713.79917,-19281419.45476,157577940.60176,  -0.00217,  -0.00032,   0.00013,276498435.41340,   0.00224,277061355.66806,  -0.00235,  -0.00017,  -0.00192,-200562920.25466,   0.00000
35951474.50999,-15350042.43263,158585016.13479,  -0.00216,  -0.00031,   0.00014,278437804.56106,   0.00224,277061355.66806,  -0.00235,  -0.00017,  -0.00192,-198623551.10700,   0.00000
40561327.30202,-11402117.22099,159587363.61367,  -0.00214,  -0.00030,   0.00015,280431978.26504,   0.00224,277061355.66806,  -0.00235,  -0.00017,  -0.00192,-196629377.40301,   0.00000
45187728.28357,-7447099.92813,160589711.09256,  -0.00213,  -0.00029,   0.00016,282490837.97389,   0.00224,277061355.66806,  -0.00235,  -0.00017,  -0.00192,-194570517.69416,   0.00000
49844861.61706,-3451894.17503,161587330.51729,  -0.00212,  -0.00028,   0.00018,284604780.60216,   0.00224,277061355.66806,  -0.00235,  -0.00017,  -0.00192,-192456575.06589,   0.00000
54485446.76104,536219.49685,162580221.88789,  -0.00210,  -0.00027,   0.00019,286769456.05938,   0.00224,277061355.66806,  -0.00235,  -0.00017,  -0.00192,-190291899.60868,   0.00000
59149672.17575,4547973.43945,163568385.20433,  -0.00209,  -0.00026,   0.00020,288988246.40105,   0.00224,277061355.66806,  -0.00235,  -0.00017,  -0.00192,-188073109.26701,   0.00000
63830445.77997,8566819.46328,164556548.52078,  -0.00208,  -0.00025,   0.00022,291268716.62117,   0.00224,277061355.66806,  -0.00235,  -0.00017,  -0.00192,-185792639.04689,   0.00000
68501763.27589,12595121.59539,165539983.78308,  -0.00206,  -0.00025,   0.00023,293596320.33569,   0.00224,277061355.66806,  -0.00235,  -0.00017,  -0.00192,-183465035.33237,   0.00000
73196721.04255,16647063.99824,166518690.99123,  -0.00205,  -0.00024,   0.00024,295976008.41924,   0.00224,277061355.66806,  -0.00235,  -0.00017,  -0.00192,-181085347.24881,   0.00000
77915319.07994,20722646.67181,167497398.19939,  -0.00204,  -0.00023,   0.00025,298415396.07649,   0.00224,277061355.66806,  -0.00235,  -0.00017,  -0.00192,-178645959.59156,   0.00000
82617368.92781,24791137.26416,168466649.29925,  -0.00202,  -0.00022,   0.00027,300890490.67769,   0.00224,277061355.66806,  -0.00235,  -0.00017,  -0.00192,-176170864.99036,   0.00000
87343059.04641,28883268.12725,169435900.39912,  -0.00201,  -0.00021,   0.00028,303423587.05279,   0.00224,277061355.66806,  -0.00235,  -0.00017,  -0.00192,-173637768.61527,   0.00000
92075841.24623,32991947.17984,170405151.49898,  -0.00200,  -0.00020,   0.00029,306010481.52172,   0.00224,277061355.66806,  -0.00235,  -0.00017,  -0.00192,-171050874.14634,   0.00000
96832263.71679,37124266.50316,171364946.49055,  -0.00198,  -0.00019,   0.00030,308638471.92584,   0.00224,277061355.66806,  -0.00235,  -0.00017,  -0.00192,-168422883.74222,   0.00000
101588686.18734,41256585.82648,172324741.48212,  -0.00197,  -0.00018,   0.00032,311317545.70740,   0.00224,277061355.66806,  -0.00235,  -0.00017,  -0.00192,-165743809.96065,   0.00000
106352200.73910,45405453.33931,173275080.36540,  -0.00196,  -0.00017,   0.00033,314032221.80808,   0.00224,277061355.66806,  -0.00235,  -0.00017,  -0.00192,-163029133.85998,   0.00000
111115715.29087,49554320.85214,174225419.24869,  -0.00194,  -0.00016,   0.00034,316795768.95789,   0.00224,277061355.66806,  -0.00235,  -0.00017,  -0.00192,-160265586.71017,   0.00000
115902870.11337,53726828.63570,175175758.13197,  -0.00193,  -0.00015,   0.00035,319613191.97763,   0.00224,277061355.66806,  -0.00235,  -0.00017,  -0.00192,-157448163.69043,   0.00000
120697117.01709,57915884.60877,176116640.90696,  -0.00191,  -0.00014,   0.00037,322463915.89995,   0.00224,277061355.66806,  -0.00235,  -0.00017,  -0.00192,-154597439.76811,   0.00000
125498456.00202,62121488.77135,177057523.68195,  -0.00190,  -0.00013,   0.00038,325362706.80251,   0.00224,277061355.66806,  -0.00235,  -0.00017,  -0.00192,-151698648.86555,   0.00000
130316343.17646,66334185.01515,177988950.34864,  -0.00189,  -0.00012,   0.00039,328296122.91402,   0.00224,277061355.66806,  -0.00235,  -0.00017,  -0.00192,-148765232.75403,   0.00000
135117682.16140,70539789.17773,178920377.01534,  -0.00187,  -0.00011,   0.00040,331268744.39040,   0.00224,277061355.66806,  -0.00235,  -0.00017,  -0.00192,-145792611.27765,   0.00000
139949753.49828,74785581.80054,179847075.62789,  -0.00186,  -0.00010,   0.00042,334286560.97274,   0.00224,277061355.66806,  -0.00235,  -0.00017,  -0.00192,-142774794.69532,   0.00000
144781824.83516,79031374.42336,180769046.18630,  -0.00185,  -0.00009,   0.00043,337339254.33444,   0.00224,277061355.66806,  -0.00235,  -0.00017,  -0.00192,-139722101.33362,   0.00000
149637536.44277,83300807.31691,181691016.74471,  -0.00183,  -0.00008,   0.00044,340441428.02968,   0.00224,277061355.66806,  -0.00235,  -0.00017,  -0.00192,-136619927.63837,   0.00000
154476699.86087,87563148.12923,182603531.19482,  -0.00182,  -0.00007,   0.00045,343563732.62065,   0.00224,277061355.66806,  -0.00235,  -0.00017,  -0.00192,-133497623.04741,   0.00000
159339503.54970,91849129.21229,183516045.64494,  -0.00180,  -0.00006,   0.00046,346734137.78546,   0.00224,277061355.66806,  -0.00235,  -0.00017,  -0.00192,-130327217.88260,   0.00000
164202307.23852,96135110.29534,184419103.98676,  -0.00179,  -0.00005,   0.00047,349928518.36149,   0.00224,277061355.66806,  -0.00235,  -0.00017,  -0.00192,-127132837.30657,   0.00000
169072203.00857,100437639.56791,185322162.32859,  -0.00178,  -0.00004,   0.00049,353164023.98297,   0.00224,277061355.66806,  -0.00235,  -0.00017,  -0.00192,-123897331.68508,   0.00000
173965739.04934,104763809.11120,186220492.61627,  -0.00176,  -0.00003,   0.00050,356438544.76691,   0.00224,277061355.66806,  -0.00235,  -0.00017,  -0.00192,-120622810.90115,   0.00000
178859275.09012,109089978.65450,187114094.84980,  -0.00175,  -0.00002,   0.00051,359742356.00112,   0.00224,277061355.66806,  -0.00235,  -0.00017,  -0.00192,-117318999.66693,   0.00000
183743355.02260,113425604.30608,188002969.02919,  -0.00174,  -0.00001,   0.00052,363071805.89776,   0.00224,277061355.66806,  -0.00235,  -0.00017,  -0.00192,-113989549.77029,   0.00000
188643983.14460,117768322.03888,188887115.15443,  -0.00172,  -0.00000,   0.00053,366435084.98631,   0.00224,277061355.66806,  -0.00235,  -0.00017,  -0.00192,-110626270.68174,   0.00000
193551703.34781,122127587.96120,189766533.22552,  -0.00171,   0.00001,   0.00054,369828904.13231,   0.00224,277061355.66806,  -0.00235,  -0.00017,  -0.00192,-107232451.53574,   0.00000
198483063.82175,126510494.15424,190641223.24247,  -0.00169,   0.00002,   0.00056,373259252.08632,   0.00224,277061355.66806,  -0.00235,  -0.00017,  -0.00192,-103802103.58174,   0.00000
203397876.10618,130886308.26606,191511185.20528,  -0.00168,   0.00003,   0.00057,376708808.97520,   0.00224,277061355.66806,  -0.00235,  -0.00017,  -0.00192,-100352546.69285,   0.00000
208336328.66134,135285762.64861,192381147.16808,  -0.00167,   0.00004,   0.00058,380201054.26243,   0.00224,277061355.66806,  -0.00235,  -0.00017,  -0.00192,-96860301.40563,   0.00000
213274781.21650,139685217.03117,193241653.02259,  -0.00165,   0.00005,   0.00059,383710525.58824,   0.00224,277061355.66806,  -0.00235,  -0.00017,  -0.00192,-93350830.07982,   0.00000
218203777.66336,144094127.52201,194097430.82296,  -0.00164,   0.00006,   0.00060,387240960.08132,   0.00224,277061355.66806,  -0.00235,  -0.00017,  -0.00192,-89820395.58673,   0.00000
223149322.29974,148510130.09407,194953208.62333,  -0.00162,   0.00007,   0.00061,390808398.77854,   0.00224,277061355.66806,  -0.00235,  -0.00017,  -0.00192,-86252956.88952,   0.00000
228118507.20685,152949772.93686,195799530.31541,  -0.00161,   0.00008,   0.00062,394402561.73982,   0.00224,277061355.66806,  -0.00235,  -0.00017,  -0.00192,-82658793.92824,   0.00000
233071143.92444,157382323.69843,196641123.95334,  -0.00160,   0.00009,   0.00063,398011646.32957,   0.00224,277061355.66806,  -0.00235,  -0.00017,  -0.00192,-79049709.33848,   0.00000
238030872.72326,161831422.64951,197482717.59127,  -0.00158,   0.00010,   0.00064,401653460.33682,   0.00224,277061355.66806,  -0.00235,  -0.00017,  -0.00192,-75407895.33123,   0.00000
243007149.71158,166287613.68181,198314855.12091,  -0.00157,   0.00011,   0.00066,405316310.46216,   0.00224,277061355.66806,  -0.00235,  -0.00017,  -0.00192,-71745045.20590,   0.00000
247973970.59161,170753260.82240,199146992.65054,  -0.00156,   0.00012,   0.00067,409003638.29693,   0.00224,277061355.66806,  -0.00235,  -0.00017,  -0.00192,-68057717.37113,   0.00000
252957339.66115,175226000.04421,199969674.07189,  -0.00154,   0.00013,   0.00068,412711128.53248,   0.00224,277061355.66806,  -0.00235,  -0.00017,  -0.00192,-64350227.13558,   0.00000
