# sigma_xx, sigma_yy, sigma_xy, epsilon_xx, epsilon_yy, epsilon_xy, vonMises, epsPlastic, hardening, epsilonP__xx, epsilonP__yy, epsilonP__xy, yieldValue, iteration
   0.00000,   0.00000,   0.00000,   0.00000,   0.00000,   0.00000,   0.00000,   0.00000,274640135.82653,   0.00000,   0.00000,   0.00000,-474640135.82653,   0.00000
   0.00000,   0.00000,   0.00000,   0.00000,   0.00000,   0.00000,   0.00000,   0.00000,274640135.82653,   0.00000,   0.00000,   0.00000,-474640135.82653,   0.00000
-2698424.12031,-278019.45482,-595288.71503,  -0.00001,   0.00000,  -0.00001,2769779.61402,   0.00000,274640135.82653,   0.00000,   0.00000,   0.00000,-471870356.21251,   0.00000
-5383764.97217,-569122.17810,-1190577.43005,  -0.00002,   0.00001,  -0.00002,5522429.64035,   0.00000,274640135.82653,   0.00000,   0.00000,   0.00000,-469117706.18618,   0.00000
-8078918.27536,-883120.62119,-1779324.51085,  -0.00004,   0.00001,  -0.00002,8271163.78452,   0.00000,274640135.82653,   0.00000,   0.00000,   0.00000,-466368972.04201,   0.00000
-10783884.02991,-1220014.78409,-2361529.95741,  -0.00005,   0.00002,  -0.00003,11016104.76152,   0.00000,274640135.82653,   0.00000,   0.00000,   0.00000,-463624031.06501,   0.00000
-13508474.68715,-1602700.38661,-2943735.40398,  -0.00006,   0.00002,  -0.00004,13762057.75619,   0.00000,274640135.82653,   0.00000,   0.00000,   0.00000,-460878078.07034,   0.00000
-16210169.62458,-1975573.53778,-3519399.21631,  -0.00007,   0.00002,  -0.00005,16486558.78098,   0.00000,274640135.82653,   0.00000,   0.00000,   0.00000,-458153577.04555,   0.00000
-18954385.18451,-2404050.57992,-4088521.39441,  -0.00008,   0.00003,  -0.00005,19225735.29924,   0.00000,274640135.82653,   0.00000,   0.00000,   0.00000,-455414400.52729,   0.00000
-21652809.30482,-2812902.71936,-4657643.57252,  -0.00009,   0.00003,  -0.00006,21930122.14444,   0.00000,274640135.82653,   0.00000,   0.00000,   0.00000,-452710013.68209,   0.00000
-24393754.04764,-3277358.74976,-5220224.11639,  -0.00010,   0.00003,  -0.00007,24649573.08189,   0.00000,274640135.82653,   0.00000,   0.00000,   0.00000,-449990562.74464,   0.00000
-27121615.52199,-3754898.04863,-5776263.02603,  -0.00012,   0.00004,  -0.00008,27348455.72087,   0.00000,274640135.82653,   0.00000,   0.00000,   0.00000,-447291680.10565,   0.00000
-29859289.44769,-4255333.06731,-6332301.93567,  -0.00013,   0.00004,  -0.00008,30048593.10342,   0.00000,274640135.82653,   0.00000,   0.00000,   0.00000,-444591542.72311,   0.00000
-32616588.27608,-4801559.52560,-6881799.21108,  -0.00014,   0.00004,  -0.00009,32746966.20551,   0.00000,274640135.82653,   0.00000,   0.00000,   0.00000,-441893169.62102,   0.00000
-35350991.38467,-5337973.53255,-7424754.85226,  -0.00015,   0.00004,  -0.00010,35424071.62934,   0.00000,274640135.82653,   0.00000,   0.00000,   0.00000,-439216064.19719,   0.00000
-38095206.94460,-5897283.25930,-7961168.85920,  -0.00016,   0.00005,  -0.00010,38098623.92046,   0.00000,274640135.82653,   0.00000,   0.00000,   0.00000,-436541511.90607,   0.00000
-40826339.23607,-6469676.25452,-8497582.86615,  -0.00017,   0.00005,  -0.00011,40757088.12518,   0.00000,274640135.82653,   0.00000,   0.00000,   0.00000,-433883047.70135,   0.00000
-43577096.43023,-7087860.68936,-9033996.87310,  -0.00018,   0.00005,  -0.00012,43418567.59736,   0.00000,274640135.82653,   0.00000,   0.00000,   0.00000,-431221568.22917,   0.00000
-46327853.62439,-7706045.12419,-9557327.61158,  -0.00020,   0.00006,  -0.00012,46072509.76003,   0.00000,274640135.82653,   0.00000,   0.00000,   0.00000,-428567626.06650,   0.00000
-49075340.00144,-8360208.54730,-10080658.35007,  -0.00021,   0.00006,  -0.00013,48712021.35594,   0.00000,274640135.82653,   0.00000,   0.00000,   0.00000,-425928114.47058,   0.00000
-51832638.82983,-9037267.69021,-10597447.45432,  -0.00022,   0.00006,  -0.00014,51349653.36606,   0.00000,274640135.82653,   0.00000,   0.00000,   0.00000,-423290482.46047,   0.00000
-54567041.93842,-9704514.38178,-11114236.55858,  -0.00023,   0.00006,  -0.00014,53970100.84179,   0.00000,274640135.82653,   0.00000,   0.00000,   0.00000,-420670034.98474,   0.00000
-57321069.94969,-10417552.51297,-11624484.02860,  -0.00024,   0.00006,  -0.00015,56590379.84526,   0.00000,274640135.82653,   0.00000,   0.00000,   0.00000,-418049755.98127,   0.00000
-60062014.69251,-11143673.91262,-12128189.86439,  -0.00025,   0.00007,  -0.00016,59191169.43503,   0.00000,274640135.82653,   0.00000,   0.00000,   0.00000,-415448966.39150,   0.00000
-62812771.88667,-11892691.03207,-12625354.06595,  -0.00026,   0.00007,  -0.00016,61790502.66042,   0.00000,274640135.82653,   0.00000,   0.00000,   0.00000,-412849633.16611,   0.00000
-65573341.53218,-12664603.87134,-13122518.26751,  -0.00027,   0.00007,  -0.00017,64392517.98876,   0.00000,274640135.82653,   0.00000,   0.00000,   0.00000,-410247617.83777,   0.00000
-68297932.18942,-13439787.52772,-13613140.83484,  -0.00028,   0.00007,  -0.00018,66957288.94676,   0.00000,274640135.82653,   0.00000,   0.00000,   0.00000,-407682846.87977,   0.00000
-71032335.29800,-14237866.90391,-14097221.76794,  -0.00030,   0.00007,  -0.00018,69520900.17209,   0.00000,274640135.82653,   0.00000,   0.00000,   0.00000,-405119235.65444,   0.00000
-73766738.40659,-15035946.28010,-14581302.70104,  -0.00031,   0.00008,  -0.00019,72085378.71942,   0.00000,274640135.82653,   0.00000,   0.00000,   0.00000,-402554757.10711,   0.00000
-76497870.69806,-15870004.64456,-15058841.99991,  -0.00032,   0.00008,  -0.00020,74632873.94046,   0.00000,274640135.82653,   0.00000,   0.00000,   0.00000,-400007261.88607,   0.00000
-79238815.44087,-16726958.72883,-15529839.66454,  -0.00033,   0.00008,  -0.00020,77179559.37428,   0.00000,274640135.82653,   0.00000,   0.00000,   0.00000,-397460576.45225,   0.00000
-81943781.19542,-17587183.63021,-16000837.32918,  -0.00034,   0.00008,  -0.00021,79693239.13051,   0.00000,274640135.82653,   0.00000,   0.00000,   0.00000,-394946896.69602,   0.00000
-84681455.12112,-18480116.70275,-16465293.35959,  -0.00035,   0.00008,  -0.00021,82224436.98702,   0.00000,274640135.82653,   0.00000,   0.00000,   0.00000,-392415698.83951,   0.00000
-87383150.05855,-19376320.59241,-16923207.75576,  -0.00036,   0.00008,  -0.00022,84718815.30203,   0.00000,274640135.82653,   0.00000,   0.00000,   0.00000,-389921320.52450,   0.00000
-90094657.44732,-20295420.20187,-17374580.51770,  -0.00037,   0.00008,  -0.00023,87212789.17328,   0.00000,274640135.82653,   0.00000,   0.00000,   0.00000,-387427346.65325,   0.00000
-92793081.56764,-21227603.07980,-17825953.27965,  -0.00038,   0.00008,  -0.00023,89692174.94434,   0.00000,274640135.82653,   0.00000,   0.00000,   0.00000,-384947960.88218,   0.00000
-95501318.13930,-22182681.67754,-18270784.40736,  -0.00039,   0.00009,  -0.00024,92171375.60687,   0.00000,274640135.82653,   0.00000,   0.00000,   0.00000,-382468760.21966,   0.00000
-98196471.44250,-23150843.54373,-18709073.90084,  -0.00040,   0.00009,  -0.00024,94632265.91556,   0.00000,274640135.82653,   0.00000,   0.00000,   0.00000,-380007869.91097,   0.00000
-100878541.47723,-24132088.67839,-19140821.76009,  -0.00041,   0.00009,  -0.00025,97074925.18068,   0.00000,274640135.82653,   0.00000,   0.00000,   0.00000,-377565210.64585,   0.00000
-103560611.51197,-25113333.81305,-19572569.61934,  -0.00042,   0.00009,  -0.00025,99518762.19923,   0.00000,274640135.82653,   0.00000,   0.00000,   0.00000,-375121373.62730,   0.00000
-106216515.00978,-26120745.48464,-19997775.84436,  -0.00043,   0.00009,  -0.00026,101928994.73077,   0.00000,274640135.82653,   0.00000,   0.00000,   0.00000,-372711141.09576,   0.00000
-108905126.67875,-27160865.32738,-20422982.06938,  -0.00044,   0.00009,  -0.00027,104361757.04195,   0.00000,274640135.82653,   0.00000,   0.00000,   0.00000,-370278378.78458,   0.00000
-111547946.90810,-28181360.26742,-20835105.02594,  -0.00045,   0.00009,  -0.00027,106751418.96645,   0.00000,274640135.82653,   0.00000,   0.00000,   0.00000,-367888716.86008,   0.00000
-114187496.32033,-29237834.19574,-21247227.98249,  -0.00046,   0.00009,  -0.00028,109130079.58644,   0.00000,274640135.82653,   0.00000,   0.00000,   0.00000,-365510056.24009,   0.00000
-116827045.73256,-30294308.12406,-21659350.93905,  -0.00047,   0.00009,  -0.00028,111510051.77997,   0.00000,274640135.82653,   0.00000,   0.00000,   0.00000,-363130084.04656,   0.00000
-119463324.32768,-31386761.04064,-22058390.62715,  -0.00048,   0.00009,  -0.00029,113871706.78193,   0.00000,274640135.82653,   0.00000,   0.00000,   0.00000,-360768429.04460,   0.00000
-122076707.20299,-32469401.50588,-22457430.31524,  -0.00049,   0.00009,  -0.00029,116216330.10931,   0.00000,274640135.82653,   0.00000,   0.00000,   0.00000,-358423805.71721,   0.00000
-124699902.52965,-33574937.69093,-22849928.36911,  -0.00050,   0.00009,  -0.00030,118561833.46160,   0.00000,274640135.82653,   0.00000,   0.00000,   0.00000,-356078302.36493,   0.00000
-127287118.86804,-34683744.69310,-23235884.78874,  -0.00051,   0.00009,  -0.00030,120871410.46529,   0.00000,274640135.82653,   0.00000,   0.00000,   0.00000,-353768725.36124,   0.00000
-129884147.65777,-35815447.41507,-23621841.20837,  -0.00052,   0.00009,  -0.00031,123185848.91155,   0.00000,274640135.82653,   0.00000,   0.00000,   0.00000,-351454286.91498,   0.00000
-132468093.17904,-36960233.40551,-23994714.35954,  -0.00053,   0.00009,  -0.00031,125479248.77360,   0.00000,274640135.82653,   0.00000,   0.00000,   0.00000,-349160887.05293,   0.00000
-135038955.43185,-38118102.66441,-24367587.51071,  -0.00054,   0.00009,  -0.00032,127759220.53335,   0.00000,274640135.82653,   0.00000,   0.00000,   0.00000,-346880915.29318,   0.00000
-137596734.41619,-39289055.19177,-24740460.66188,  -0.00055,   0.00009,  -0.00032,130025830.77398,   0.00000,274640135.82653,   0.00000,   0.00000,   0.00000,-344614305.05255,   0.00000
-140131617.68073,-40450195.26778,-25100250.54459,  -0.00056,   0.00009,  -0.00033,132267928.85975,   0.00000,274640135.82653,   0.00000,   0.00000,   0.00000,-342372206.96678,   0.00000
-142663230.12815,-41647314.33207,-25460040.42730,  -0.00057,   0.00009,  -0.00033,134500545.01219,   0.00000,274640135.82653,   0.00000,   0.00000,   0.00000,-340139590.81434,   0.00000
-145194842.57557,-42844433.39635,-25813288.67578,  -0.00058,   0.00009,  -0.00034,136731030.26802,   0.00000,274640135.82653,   0.00000,   0.00000,   0.00000,-337909105.55851,   0.00000
-147700288.48607,-44067718.99756,-26166536.92425,  -0.00059,   0.00009,  -0.00034,138933751.23230,   0.00000,274640135.82653,   0.00000,   0.00000,   0.00000,-335706384.59423,   0.00000
-150205734.39657,-45291004.59877,-26506701.90427,  -0.00060,   0.00009,  -0.00034,141130736.81302,   0.00000,274640135.82653,   0.00000,   0.00000,   0.00000,-333509399.01351,   0.00000
-152688284.58726,-46504477.74863,-26846866.88429,  -0.00060,   0.00009,  -0.00035,143310685.40871,   0.00000,274640135.82653,   0.00000,   0.00000,   0.00000,-331329450.41782,   0.00000
-155144668.24102,-47744117.43542,-27187031.86430,  -0.00061,   0.00009,  -0.00035,145463148.86629,   0.00000,274640135.82653,   0.00000,   0.00000,   0.00000,-329176986.96024,   0.00000
-157610864.34613,-49006652.84201,-27514113.57585,  -0.00062,   0.00008,  -0.00036,147614142.30068,   0.00000,274640135.82653,   0.00000,   0.00000,   0.00000,-327025993.52585,   0.00000
-160054164.73143,-50259375.79726,-27841195.28741,  -0.00063,   0.00008,  -0.00036,149748170.45743,   0.00000,274640135.82653,   0.00000,   0.00000,   0.00000,-324891965.36910,   0.00000
-162471298.57981,-51538265.28943,-28161735.36473,  -0.00064,   0.00008,  -0.00037,151851495.80886,   0.00000,274640135.82653,   0.00000,   0.00000,   0.00000,-322788640.01767,   0.00000
-164888432.42819,-52817154.78161,-28475733.80782,  -0.00065,   0.00008,  -0.00037,153952951.83359,   0.00000,274640135.82653,   0.00000,   0.00000,   0.00000,-320687183.99294,   0.00000
-167292483.00811,-54109127.54224,-28783190.61668,  -0.00066,   0.00008,  -0.00037,156038259.54132,   0.00000,274640135.82653,   0.00000,   0.00000,   0.00000,-318601876.28521,   0.00000
-169673637.86821,-55391287.85153,-29090647.42554,  -0.00066,   0.00008,  -0.00038,158106591.08406,   0.00000,274640135.82653,   0.00000,   0.00000,   0.00000,-316533544.74247,   0.00000
-172051521.91120,-56709427.14909,-29391562.60017,  -0.00067,   0.00008,  -0.00038,160163460.02776,   0.00000,274640135.82653,   0.00000,   0.00000,   0.00000,-314476675.79877,   0.00000
-174383614.51458,-58007941.54396,-29685936.14057,  -0.00068,   0.00008,  -0.00039,162181059.89904,   0.00000,274640135.82653,   0.00000,   0.00000,   0.00000,-312459075.92749,   0.00000
-176725519.56930,-59329351.65863,-29973768.04673,  -0.00069,   0.00007,  -0.00039,164201556.17548,   0.00000,274640135.82653,   0.00000,   0.00000,   0.00000,-310438579.65105,   0.00000
-179054341.35556,-60663845.04177,-30261599.95290,  -0.00070,   0.00007,  -0.00039,166209890.59199,   0.00000,274640135.82653,   0.00000,   0.00000,   0.00000,-308430245.23453,   0.00000
-181347184.15355,-62001609.24202,-30542890.22484,  -0.00070,   0.00007,  -0.00040,168183792.11402,   0.00000,274640135.82653,   0.00000,   0.00000,   0.00000,-306456343.71251,   0.00000
-183649839.40288,-63362269.16208,-30817638.86254,  -0.00071,   0.00007,  -0.00040,170160955.29069,   0.00000,274640135.82653,   0.00000,   0.00000,   0.00000,-304479180.53584,   0.00000
-185906703.21260,-64703304.17945,-31092387.50025,  -0.00072,   0.00007,  -0.00040,172102445.03071,   0.00000,274640135.82653,   0.00000,   0.00000,   0.00000,-302537690.79582,   0.00000
-188150483.75385,-66057422.46528,-31354052.86949,  -0.00073,   0.00007,  -0.00041,174024945.05449,   0.00000,274640135.82653,   0.00000,   0.00000,   0.00000,-300615190.77204,   0.00000
-190381181.02664,-67424624.01957,-31615718.23873,  -0.00073,   0.00006,  -0.00041,175935656.93574,   0.00000,274640135.82653,   0.00000,   0.00000,   0.00000,-298704478.89079,   0.00000
-192611878.29944,-68791825.57386,-31877383.60797,  -0.00074,   0.00006,  -0.00041,177848336.93196,   0.00000,274640135.82653,   0.00000,   0.00000,   0.00000,-296791798.89457,   0.00000
-194793513.31550,-70175381.21373,-32125965.70875,  -0.00075,   0.00006,  -0.00042,179709824.22108,   0.00000,274640135.82653,   0.00000,   0.00000,   0.00000,-294930311.60545,   0.00000
-196975148.33156,-71558936.85360,-32374547.80953,  -0.00076,   0.00006,  -0.00042,181573380.04312,   0.00000,274640135.82653,   0.00000,   0.00000,   0.00000,-293066755.78341,   0.00000
-199143700.07915,-72955575.76194,-32616588.27608,  -0.00076,   0.00006,  -0.00042,183421949.36716,   0.00000,274640135.82653,   0.00000,   0.00000,   0.00000,-291218186.45937,   0.00000
-201289356.10694,-74342402.21892,-32852087.10840,  -0.00077,   0.00005,  -0.00043,185250215.27024,   0.00000,274640135.82653,   0.00000,   0.00000,   0.00000,-289389920.55629,   0.00000
-203399033.14646,-75732499.49302,-33081044.30649,  -0.00078,   0.00005,  -0.00043,187044720.50008,   0.00000,274640135.82653,   0.00000,   0.00000,   0.00000,-287595415.32645,   0.00000
-205495626.91752,-77135680.03559,-33310001.50458,  -0.00078,   0.00005,  -0.00043,188827936.20346,   0.00000,274640135.82653,   0.00000,   0.00000,   0.00000,-285812199.62307,   0.00000
-207579137.42011,-78551943.84661,-33532417.06843,  -0.00079,   0.00005,  -0.00044,190596512.06452,   0.00000,274640135.82653,   0.00000,   0.00000,   0.00000,-284043623.76201,   0.00000
-209649564.65424,-79981290.92610,-33748290.99806,  -0.00080,   0.00004,  -0.00044,192350579.59530,   0.00000,274640135.82653,   0.00000,   0.00000,   0.00000,-282289556.23123,   0.00000
-211697096.16856,-81400825.55424,-33957623.29345,  -0.00080,   0.00004,  -0.00044,194084510.12582,   0.00000,274640135.82653,   0.00000,   0.00000,   0.00000,-280555625.70071,   0.00000
-213708648.69462,-82823630.99950,-34166955.58885,  -0.00081,   0.00004,  -0.00044,195788550.94353,   0.00000,274640135.82653,   0.00000,   0.00000,   0.00000,-278851584.88300,   0.00000
-215720201.22067,-84246436.44475,-34369746.25001,  -0.00082,   0.00004,  -0.00045,197491385.68102,   0.00000,274640135.82653,   0.00000,   0.00000,   0.00000,-277148750.14551,   0.00000
-217705587.20980,-85695408.42693,-34565995.27694,  -0.00082,   0.00003,  -0.00045,199166966.64736,   0.00000,274640135.82653,   0.00000,   0.00000,   0.00000,-275473169.17917,   0.00000
-219668077.47912,-87134567.95777,-34755702.66964,  -0.00083,   0.00003,  -0.00045,200822535.52697,   0.00000,274640135.82653,   0.00000,   0.00000,   0.00000,-273817600.29955,   0.00000
-221584776.30882,-88554102.58591,-34945410.06234,  -0.00084,   0.00003,  -0.00045,202442451.61817,   0.00000,274640135.82653,   0.00000,   0.00000,   0.00000,-272197684.20836,   0.00000
-223521100.04121,-90019428.65367,-35128575.82081,  -0.00084,   0.00003,  -0.00046,204073487.98561,   0.00000,274640135.82653,   0.00000,   0.00000,   0.00000,-270566647.84092,   0.00000
-225411632.33399,-91465129.81873,-35305199.94505,  -0.00085,   0.00002,  -0.00046,205665605.24218,   0.00000,274640135.82653,   0.00000,   0.00000,   0.00000,-268974530.58435,   0.00000
-227279268.90696,-92901018.53245,-35475282.43506,  -0.00085,   0.00002,  -0.00046,207237730.00596,   0.00000,274640135.82653,   0.00000,   0.00000,   0.00000,-267402405.82057,   0.00000
-229143634.66281,-94372886.23444,-35645364.92507,  -0.00086,   0.00002,  -0.00046,208805835.45305,   0.00000,274640135.82653,   0.00000,   0.00000,   0.00000,-265834300.37348,   0.00000
-230962208.97905,-95825129.03374,-35808905.78084,  -0.00086,   0.00001,  -0.00047,210335082.79206,   0.00000,274640135.82653,   0.00000,   0.00000,   0.00000,-264305053.03447,   0.00000
-232757887.57547,-97267559.38168,-35965905.00239,  -0.00087,   0.00001,  -0.00047,211844423.22914,   0.00000,274640135.82653,   0.00000,   0.00000,   0.00000,-262795712.59739,   0.00000
-234540482.90344,-98723072.99810,-36116362.58970,  -0.00087,   0.00001,  -0.00047,213340340.74270,   0.00000,274640135.82653,   0.00000,   0.00000,   0.00000,-261299795.08382,   0.00000
-236309994.96294,-100191669.88297,-36266820.17702,  -0.00088,   0.00000,  -0.00047,214826297.65745,   0.00000,274640135.82653,   0.00000,   0.00000,   0.00000,-259813838.16908,   0.00000
-238043528.03417,-101663537.58496,-36410736.13010,  -0.00088,   0.00000,  -0.00047,216280082.46414,   0.00000,274640135.82653,   0.00000,   0.00000,   0.00000,-258360053.36239,   0.00000
-239754165.38560,-103125592.83560,-36548110.44895,  -0.00089,  -0.00000,  -0.00048,217714148.39052,   0.00000,274640135.82653,   0.00000,   0.00000,   0.00000,-256925987.43601,   0.00000
-241451719.46856,-104600731.35471,-36678943.13357,  -0.00089,  -0.00001,  -0.00048,219135241.34467,   0.00000,274640135.82653,   0.00000,   0.00000,   0.00000,-255504894.48186,   0.00000
-243103482.11190,-106056244.97112,-36809775.81819,  -0.00090,  -0.00001,  -0.00048,220520897.98355,   0.00000,274640135.82653,   0.00000,   0.00000,   0.00000,-254119237.84298,   0.00000
-244751973.93813,-107547737.57580,-36934066.86859,  -0.00090,  -0.00001,  -0.00048,221900652.15404,   0.00000,274640135.82653,   0.00000,   0.00000,   0.00000,-252739483.67249,   0.00000
-246367757.59320,-109006522.00933,-37051816.28474,  -0.00091,  -0.00002,  -0.00048,223253919.78999,   0.00000,274640135.82653,   0.00000,   0.00000,   0.00000,-251386216.03654,   0.00000
-247970457.97981,-110478389.71132,-37163024.06667,  -0.00091,  -0.00002,  -0.00048,224594560.93965,   0.00000,274640135.82653,   0.00000,   0.00000,   0.00000,-250045574.88687,   0.00000
-249537179.37815,-111953528.23042,-37274231.84860,  -0.00092,  -0.00002,  -0.00048,225906914.01305,   0.00000,274640135.82653,   0.00000,   0.00000,   0.00000,-248733221.81347,   0.00000
-251090817.50803,-113441750.01799,-37372356.36207,  -0.00092,  -0.00003,  -0.00049,227203711.66113,   0.00000,274640135.82653,   0.00000,   0.00000,   0.00000,-247436424.16539,   0.00000
-252598664.19829,-114910346.90286,-37470480.87553,  -0.00093,  -0.00003,  -0.00049,228465278.89595,   0.00000,274640135.82653,   0.00000,   0.00000,   0.00000,-246174856.93058,   0.00000
-254093427.62009,-116392027.05620,-37568605.38900,  -0.00093,  -0.00003,  -0.00049,229717925.18704,   0.00000,274640135.82653,   0.00000,   0.00000,   0.00000,-244922210.63949,   0.00000
-255565295.32208,-117863894.75819,-37653646.63400,  -0.00093,  -0.00004,  -0.00049,230948020.34973,   0.00000,274640135.82653,   0.00000,   0.00000,   0.00000,-243692115.47680,   0.00000
-257001184.03580,-119339033.27729,-37738687.87901,  -0.00094,  -0.00004,  -0.00049,232150309.70019,   0.00000,274640135.82653,   0.00000,   0.00000,   0.00000,-242489826.12634,   0.00000
-258437072.74951,-120814171.79640,-37817187.48978,  -0.00094,  -0.00005,  -0.00049,233352400.41915,   0.00000,274640135.82653,   0.00000,   0.00000,   0.00000,-241287735.40738,   0.00000
-259814086.75515,-122282768.68127,-37895687.10055,  -0.00094,  -0.00005,  -0.00049,234507779.45395,   0.00000,274640135.82653,   0.00000,   0.00000,   0.00000,-240132356.37258,   0.00000
-261191100.76079,-123751365.56615,-37961103.44286,  -0.00095,  -0.00005,  -0.00049,235659865.75369,   0.00000,274640135.82653,   0.00000,   0.00000,   0.00000,-238980270.07284,   0.00000
-262532135.77816,-125223233.26814,-38026519.78517,  -0.00095,  -0.00006,  -0.00049,236784514.29170,   0.00000,274640135.82653,   0.00000,   0.00000,   0.00000,-237855621.53483,   0.00000
-263837191.80726,-126698371.78724,-38085394.49325,  -0.00095,  -0.00006,  -0.00050,237878730.44158,   0.00000,274640135.82653,   0.00000,   0.00000,   0.00000,-236761405.38495,   0.00000
-265142247.83635,-128173510.30634,-38144269.20133,  -0.00096,  -0.00007,  -0.00050,238976156.79179,   0.00000,274640135.82653,   0.00000,   0.00000,   0.00000,-235663979.03474,   0.00000
-266388429.15737,-129642107.19122,-38190060.64095,  -0.00096,  -0.00007,  -0.00050,240021157.51298,   0.00000,274640135.82653,   0.00000,   0.00000,   0.00000,-234618978.31355,   0.00000
-267634610.47839,-131110704.07609,-38235852.08057,  -0.00096,  -0.00007,  -0.00050,241069451.37714,   0.00000,274640135.82653,   0.00000,   0.00000,   0.00000,-233570684.44939,   0.00000
-268844812.81114,-132582571.77808,-38275101.88595,  -0.00096,  -0.00008,  -0.00050,242087763.62342,   0.00000,274640135.82653,   0.00000,   0.00000,   0.00000,-232552372.20311,   0.00000
-270032119.42407,-134044627.02872,-38314351.69134,  -0.00097,  -0.00008,  -0.00050,243090356.57248,   0.00000,274640135.82653,   0.00000,   0.00000,   0.00000,-231549779.25405,   0.00000
-271183447.04874,-135509953.09648,-38340518.22826,  -0.00097,  -0.00009,  -0.00050,244060113.83544,   0.00000,274640135.82653,   0.00000,   0.00000,   0.00000,-230580021.99109,   0.00000
-272311878.95360,-136965466.71289,-38366684.76519,  -0.00097,  -0.00009,  -0.00050,245014249.37826,   0.00000,274640135.82653,   0.00000,   0.00000,   0.00000,-229625886.44827,   0.00000
-273427227.59000,-138434063.59777,-38386309.66788,  -0.00097,  -0.00010,  -0.00050,245957969.67763,   0.00000,274640135.82653,   0.00000,   0.00000,   0.00000,-228682166.14890,   0.00000
-274496784.78678,-139883035.57995,-38405934.57057,  -0.00098,  -0.00010,  -0.00050,246867074.39257,   0.00000,274640135.82653,   0.00000,   0.00000,   0.00000,-227773061.43396,   0.00000
-275530362.99528,-141335278.37924,-38419017.83904,  -0.00098,  -0.00011,  -0.00050,247746935.57364,   0.00000,274640135.82653,   0.00000,   0.00000,   0.00000,-226893200.25289,   0.00000
-276563941.20379,-142787521.17854,-38425559.47327,  -0.00098,  -0.00011,  -0.00050,248627393.96360,   0.00000,274640135.82653,   0.00000,   0.00000,   0.00000,-226012741.86293,   0.00000
-277561540.42403,-144243034.79495,-38425559.47327,  -0.00098,  -0.00012,  -0.00050,249478884.35456,   0.00000,274640135.82653,   0.00000,   0.00000,   0.00000,-225161251.47197,   0.00000
-278513348.20465,-145678923.50867,-38419017.83904,  -0.00098,  -0.00012,  -0.00050,250292972.19201,   0.00000,274640135.82653,   0.00000,   0.00000,   0.00000,-224347163.63452,   0.00000
-279452072.71681,-147127895.49085,-38412476.20481,  -0.00098,  -0.00012,  -0.00050,251100454.42504,   0.00000,274640135.82653,   0.00000,   0.00000,   0.00000,-223539681.40149,   0.00000
-280367901.50916,-148567055.02169,-38399392.93634,  -0.00099,  -0.00013,  -0.00050,251889731.26802,   0.00000,274640135.82653,   0.00000,   0.00000,   0.00000,-222750404.55850,   0.00000
-281247751.31323,-150009485.36964,-38386309.66788,  -0.00099,  -0.00013,  -0.00050,252653595.25149,   0.00000,274640135.82653,   0.00000,   0.00000,   0.00000,-221986540.57504,   0.00000
-282104705.39750,-151442103.26624,-38360143.13096,  -0.00099,  -0.00014,  -0.00050,253396423.15056,   0.00000,274640135.82653,   0.00000,   0.00000,   0.00000,-221243712.67597,   0.00000
-282925680.49350,-152877991.97996,-38333976.59403,  -0.00099,  -0.00014,  -0.00050,254114132.79403,   0.00000,274640135.82653,   0.00000,   0.00000,   0.00000,-220526003.03250,   0.00000
-283723759.86969,-154304068.24233,-38301268.42288,  -0.00099,  -0.00015,  -0.00050,254813948.74345,   0.00000,274640135.82653,   0.00000,   0.00000,   0.00000,-219826187.08308,   0.00000
-284498943.52607,-155720332.05335,-38268560.25172,  -0.00099,  -0.00015,  -0.00050,255498823.55653,   0.00000,274640135.82653,   0.00000,   0.00000,   0.00000,-219141312.27000,   0.00000
-285238148.19418,-157139866.68149,-38229310.44634,  -0.00099,  -0.00016,  -0.00050,256155997.07565,   0.00000,274640135.82653,   0.00000,   0.00000,   0.00000,-218484138.75088,   0.00000
-285964269.59383,-158572484.57810,-38183519.00672,  -0.00099,  -0.00016,  -0.00050,256804740.98186,   0.00000,274640135.82653,   0.00000,   0.00000,   0.00000,-217835394.84467,   0.00000
-286644599.55386,-159985477.57201,-38131185.93287,  -0.00099,  -0.00017,  -0.00050,257416915.44305,   0.00000,274640135.82653,   0.00000,   0.00000,   0.00000,-217223220.38348,   0.00000
-287302033.79408,-161388658.11457,-38072311.22479,  -0.00099,  -0.00017,  -0.00049,258011570.53244,   0.00000,274640135.82653,   0.00000,   0.00000,   0.00000,-216628565.29409,   0.00000
-287923489.04603,-162795109.47425,-38013436.51671,  -0.00099,  -0.00018,  -0.00049,258582117.24933,   0.00000,274640135.82653,   0.00000,   0.00000,   0.00000,-216058018.57720,   0.00000
-288522048.57818,-164191748.38258,-37948020.17440,  -0.00099,  -0.00018,  -0.00049,259135331.15955,   0.00000,274640135.82653,   0.00000,   0.00000,   0.00000,-215504804.66698,   0.00000
-289097712.39051,-165578574.83957,-37882603.83209,  -0.00099,  -0.00019,  -0.00049,259674102.61253,   0.00000,274640135.82653,   0.00000,   0.00000,   0.00000,-214966033.21399,   0.00000
-289637397.21457,-166968672.11367,-37810645.85555,  -0.00099,  -0.00019,  -0.00049,260186322.74833,   0.00000,274640135.82653,   0.00000,   0.00000,   0.00000,-214453813.07820,   0.00000
-290163998.77017,-168371852.65623,-37732146.24477,  -0.00099,  -0.00020,  -0.00049,260691237.83285,   0.00000,274640135.82653,   0.00000,   0.00000,   0.00000,-213948897.99368,   0.00000
-290644808.88616,-169755408.29610,-37647104.99977,  -0.00099,  -0.00021,  -0.00049,261160274.39338,   0.00000,274640135.82653,   0.00000,   0.00000,   0.00000,-213479861.43315,   0.00000
-291102723.28233,-171129151.48462,-37562063.75477,  -0.00099,  -0.00021,  -0.00049,261615263.04981,   0.00000,274640135.82653,   0.00000,   0.00000,   0.00000,-213024872.77672,   0.00000
-291514846.23889,-172483269.77045,-37470480.87553,  -0.00099,  -0.00022,  -0.00049,262034465.04917,   0.00000,274640135.82653,   0.00000,   0.00000,   0.00000,-212605670.77736,   0.00000
-291913885.92698,-173850471.32475,-37372356.36207,  -0.00099,  -0.00022,  -0.00049,262446976.70643,   0.00000,274640135.82653,   0.00000,   0.00000,   0.00000,-212193159.12010,   0.00000
-292299842.34662,-175230756.14750,-37274231.84860,  -0.00099,  -0.00023,  -0.00048,262855851.02751,   0.00000,274640135.82653,   0.00000,   0.00000,   0.00000,-211784284.79902,   0.00000
-292630194.87528,-176568520.34775,-37163024.06667,  -0.00099,  -0.00023,  -0.00048,263216382.25171,   0.00000,274640135.82653,   0.00000,   0.00000,   0.00000,-211423753.57482,   0.00000
-292957276.58684,-177942263.53628,-37058357.91898,  -0.00099,  -0.00024,  -0.00048,263586607.81090,   0.00000,274640135.82653,   0.00000,   0.00000,   0.00000,-211053528.01563,   0.00000
-293228754.40743,-179273486.10230,-36940608.50282,  -0.00098,  -0.00024,  -0.00048,263908639.25272,   0.00000,274640135.82653,   0.00000,   0.00000,   0.00000,-210731496.57381,   0.00000
-293487148.95955,-180617791.93678,-36822859.08666,  -0.00098,  -0.00025,  -0.00048,264227669.66307,   0.00000,274640135.82653,   0.00000,   0.00000,   0.00000,-210412466.16346,   0.00000
-293699752.07206,-181942472.86857,-36698568.03627,  -0.00098,  -0.00026,  -0.00048,264511820.74830,   0.00000,274640135.82653,   0.00000,   0.00000,   0.00000,-210128315.07823,   0.00000
-293899271.91611,-183280237.06882,-36567735.35165,  -0.00098,  -0.00026,  -0.00048,264790666.20243,   0.00000,274640135.82653,   0.00000,   0.00000,   0.00000,-209849469.62410,   0.00000
-294075896.04035,-184608188.81773,-36436902.66702,  -0.00098,  -0.00027,  -0.00047,265056486.61264,   0.00000,274640135.82653,   0.00000,   0.00000,   0.00000,-209583649.21389,   0.00000
-294206728.72497,-185916515.66394,-36299528.34817,  -0.00098,  -0.00027,  -0.00047,265287819.94116,   0.00000,274640135.82653,   0.00000,   0.00000,   0.00000,-209352315.88537,   0.00000
-294301582.42132,-187228113.32727,-36155612.39509,  -0.00097,  -0.00028,  -0.00047,265495654.82847,   0.00000,274640135.82653,   0.00000,   0.00000,   0.00000,-209144480.99806,   0.00000
-294396436.11767,-188539710.99060,-36011696.44201,  -0.00097,  -0.00028,  -0.00047,265709601.02866,   0.00000,274640135.82653,   0.00000,   0.00000,   0.00000,-208930534.79787,   0.00000
-294422602.65460,-189821871.29989,-35861238.85469,  -0.00097,  -0.00029,  -0.00047,265870735.03001,   0.00000,274640135.82653,   0.00000,   0.00000,   0.00000,-208769400.79652,   0.00000
-294458581.64287,-191126927.32899,-35704239.63315,  -0.00097,  -0.00030,  -0.00046,266046561.52944,   0.00000,274640135.82653,   0.00000,   0.00000,   0.00000,-208593574.29709,   0.00000
-294448769.19152,-192412358.45539,-35547240.41160,  -0.00096,  -0.00030,  -0.00046,266191341.22465,   0.00000,274640135.82653,   0.00000,   0.00000,   0.00000,-208448794.60188,   0.00000
-294416061.02036,-193687977.13045,-35383699.55582,  -0.00096,  -0.00031,  -0.00046,266321266.06911,   0.00000,274640135.82653,   0.00000,   0.00000,   0.00000,-208318869.75742,   0.00000
-294347373.86094,-194966866.62262,-35220158.70005,  -0.00096,  -0.00031,  -0.00046,266431696.94272,   0.00000,274640135.82653,   0.00000,   0.00000,   0.00000,-208208438.88381,   0.00000
-294255790.98170,-196235943.66345,-35043534.57581,  -0.00096,  -0.00032,  -0.00046,266525048.04750,   0.00000,274640135.82653,   0.00000,   0.00000,   0.00000,-208115087.77903,   0.00000
-294118416.66285,-197485395.80158,-34866910.45157,  -0.00095,  -0.00033,  -0.00045,266587953.55620,   0.00000,274640135.82653,   0.00000,   0.00000,   0.00000,-208052182.27032,   0.00000
-293967959.07554,-198747931.20817,-34690286.32733,  -0.00095,  -0.00033,  -0.00045,266650755.31719,   0.00000,274640135.82653,   0.00000,   0.00000,   0.00000,-207989380.50934,   0.00000
-293794605.76841,-200000654.16342,-34500578.93463,  -0.00095,  -0.00034,  -0.00045,266696997.62375,   0.00000,274640135.82653,   0.00000,   0.00000,   0.00000,-207943138.20278,   0.00000
-293575461.02167,-201233752.21598,-34310871.54193,  -0.00094,  -0.00034,  -0.00045,266713311.40943,   0.00000,274640135.82653,   0.00000,   0.00000,   0.00000,-207926824.41710,   0.00000
-293343233.00647,-202479933.53700,-34121164.14923,  -0.00094,  -0.00035,  -0.00044,266730236.45971,   0.00000,274640135.82653,   0.00000,   0.00000,   0.00000,-207909899.36682,   0.00000
-293065213.55165,-203706489.95532,-33924915.12230,  -0.00094,  -0.00036,  -0.00044,266715142.16771,   0.00000,274640135.82653,   0.00000,   0.00000,   0.00000,-207924993.65882,   0.00000
-292764298.37702,-204923233.92230,-33722124.46113,  -0.00093,  -0.00036,  -0.00044,266686715.90364,   0.00000,274640135.82653,   0.00000,   0.00000,   0.00000,-207953419.92289,   0.00000
-292440487.48258,-206130165.43793,-33512792.16574,  -0.00093,  -0.00037,  -0.00044,266645081.47201,   0.00000,274640135.82653,   0.00000,   0.00000,   0.00000,-207995054.35451,   0.00000
-292080697.59987,-207340367.77068,-33303459.87034,  -0.00092,  -0.00037,  -0.00043,266586578.95071,   0.00000,274640135.82653,   0.00000,   0.00000,   0.00000,-208053556.87582,   0.00000
-291698011.99736,-208540757.65208,-33087585.94072,  -0.00092,  -0.00038,  -0.00043,266515324.90259,   0.00000,274640135.82653,   0.00000,   0.00000,   0.00000,-208124810.92394,   0.00000
-291292430.67503,-209731335.08213,-32871712.01109,  -0.00092,  -0.00039,  -0.00043,266433877.44566,   0.00000,274640135.82653,   0.00000,   0.00000,   0.00000,-208206258.38087,   0.00000
-290850870.36443,-210925183.32930,-32649296.44724,  -0.00091,  -0.00039,  -0.00042,266334035.14504,   0.00000,274640135.82653,   0.00000,   0.00000,   0.00000,-208306100.68148,   0.00000
-290386414.33403,-212109219.12512,-32420339.24915,  -0.00091,  -0.00040,  -0.00042,266222069.08857,   0.00000,274640135.82653,   0.00000,   0.00000,   0.00000,-208418066.73796,   0.00000
-289876166.86401,-213273630.01825,-32191382.05106,  -0.00090,  -0.00041,  -0.00042,266082217.08551,   0.00000,274640135.82653,   0.00000,   0.00000,   0.00000,-208557918.74102,   0.00000
-289343023.67417,-214428228.46003,-31955883.21875,  -0.00090,  -0.00041,  -0.00042,265930581.05936,   0.00000,274640135.82653,   0.00000,   0.00000,   0.00000,-208709554.76717,   0.00000
-288796797.21588,-215595910.17028,-31713842.75220,  -0.00089,  -0.00042,  -0.00041,265780137.85950,   0.00000,274640135.82653,   0.00000,   0.00000,   0.00000,-208859997.96703,   0.00000
-288204779.31797,-216743966.97783,-31471802.28565,  -0.00089,  -0.00042,  -0.00041,265602556.25460,   0.00000,274640135.82653,   0.00000,   0.00000,   0.00000,-209037579.57193,   0.00000
-287589865.70025,-217882211.33404,-31223220.18487,  -0.00088,  -0.00043,  -0.00041,265413905.83277,   0.00000,274640135.82653,   0.00000,   0.00000,   0.00000,-209226229.99376,   0.00000
-286952056.36272,-219010643.23889,-30974638.08409,  -0.00088,  -0.00044,  -0.00040,265216656.10083,   0.00000,274640135.82653,   0.00000,   0.00000,   0.00000,-209423479.72570,   0.00000
-286278268.03692,-220142345.96087,-30719514.34907,  -0.00087,  -0.00044,  -0.00040,265003764.87446,   0.00000,274640135.82653,   0.00000,   0.00000,   0.00000,-209636370.95206,   0.00000
-285571771.53997,-221241340.51169,-30457848.97983,  -0.00087,  -0.00045,  -0.00040,264767308.40026,   0.00000,274640135.82653,   0.00000,   0.00000,   0.00000,-209872827.42627,   0.00000
-284862004.22590,-222376314.05078,-30196183.61059,  -0.00086,  -0.00046,  -0.00039,264549527.50566,   0.00000,274640135.82653,   0.00000,   0.00000,   0.00000,-210090608.32087,   0.00000
-284119528.74067,-223478579.41871,-29927976.60712,  -0.00086,  -0.00046,  -0.00039,264308540.82707,   0.00000,274640135.82653,   0.00000,   0.00000,   0.00000,-210331594.99946,   0.00000
-283331261.81583,-224561219.88395,-29659769.60364,  -0.00085,  -0.00047,  -0.00039,264042112.95193,   0.00000,274640135.82653,   0.00000,   0.00000,   0.00000,-210598022.87460,   0.00000
-282507015.90271,-225647131.16631,-29385020.96594,  -0.00085,  -0.00048,  -0.00038,263761980.83982,   0.00000,274640135.82653,   0.00000,   0.00000,   0.00000,-210878154.98671,   0.00000
-281682769.98960,-226733042.44866,-29103730.69400,  -0.00084,  -0.00048,  -0.00038,263490693.23765,   0.00000,274640135.82653,   0.00000,   0.00000,   0.00000,-211149442.58888,   0.00000
-280812732.63687,-227799328.82833,-28822440.42207,  -0.00083,  -0.00049,  -0.00037,263194931.98036,   0.00000,274640135.82653,   0.00000,   0.00000,   0.00000,-211445203.84617,   0.00000
-279929612.01567,-228878698.47645,-28541150.15013,  -0.00083,  -0.00050,  -0.00037,262906661.74905,   0.00000,274640135.82653,   0.00000,   0.00000,   0.00000,-211733474.07747,   0.00000
-279023595.67467,-229948255.67323,-28246776.60973,  -0.00082,  -0.00050,  -0.00037,262608109.69930,   0.00000,274640135.82653,   0.00000,   0.00000,   0.00000,-212032026.12723,   0.00000
-278061975.44271,-230975292.24751,-27952403.06933,  -0.00081,  -0.00051,  -0.00036,262272019.64216,   0.00000,274640135.82653,   0.00000,   0.00000,   0.00000,-212368116.18437,   0.00000
-277097084.39362,-232038307.81006,-27658029.52894,  -0.00081,  -0.00052,  -0.00036,261958645.02107,   0.00000,274640135.82653,   0.00000,   0.00000,   0.00000,-212681490.80546,   0.00000
-276099485.17339,-233068615.20145,-27357114.35431,  -0.00080,  -0.00052,  -0.00036,261623805.40601,   0.00000,274640135.82653,   0.00000,   0.00000,   0.00000,-213016330.42052,   0.00000
-275056094.51353,-234079297.69015,-27049657.54545,  -0.00080,  -0.00053,  -0.00035,261264400.99448,   0.00000,274640135.82653,   0.00000,   0.00000,   0.00000,-213375734.83205,   0.00000
-274022516.30502,-235112875.89866,-26742200.73659,  -0.00079,  -0.00054,  -0.00035,260932209.37002,   0.00000,274640135.82653,   0.00000,   0.00000,   0.00000,-213707926.45651,   0.00000
-272943146.65690,-236126829.20447,-26428202.29350,  -0.00078,  -0.00054,  -0.00034,260576266.44294,   0.00000,274640135.82653,   0.00000,   0.00000,   0.00000,-214063869.38359,   0.00000
-271817985.56915,-237121157.60759,-26114203.85041,  -0.00077,  -0.00055,  -0.00034,260199001.14247,   0.00000,274640135.82653,   0.00000,   0.00000,   0.00000,-214441134.68406,   0.00000
-270692824.48141,-238115486.01072,-25793663.77308,  -0.00077,  -0.00056,  -0.00034,259833361.43643,   0.00000,274640135.82653,   0.00000,   0.00000,   0.00000,-214806774.39010,   0.00000
-269531684.40540,-239113085.23095,-25473123.69576,  -0.00076,  -0.00056,  -0.00033,259461912.22194,   0.00000,274640135.82653,   0.00000,   0.00000,   0.00000,-215178223.60459,   0.00000
-268337836.15823,-240077976.28003,-25146041.98421,  -0.00075,  -0.00057,  -0.00033,259070636.36580,   0.00000,274640135.82653,   0.00000,   0.00000,   0.00000,-215569499.46073,   0.00000
-267130904.64260,-241055950.59758,-24812418.63842,  -0.00075,  -0.00058,  -0.00032,258689709.37617,   0.00000,274640135.82653,   0.00000,   0.00000,   0.00000,-215950426.45036,   0.00000
-265901077.40716,-242024112.46378,-24478795.29264,  -0.00074,  -0.00058,  -0.00032,258306438.12045,   0.00000,274640135.82653,   0.00000,   0.00000,   0.00000,-216333697.70608,   0.00000
-264625458.73210,-242972649.42728,-24145171.94686,  -0.00073,  -0.00059,  -0.00031,257904170.09011,   0.00000,274640135.82653,   0.00000,   0.00000,   0.00000,-216735965.73642,   0.00000
-263349840.05704,-243921186.39078,-23805006.96684,  -0.00072,  -0.00060,  -0.00031,257515267.65591,   0.00000,274640135.82653,   0.00000,   0.00000,   0.00000,-217124868.17062,   0.00000
-262038242.39371,-244872994.17140,-23458300.35259,  -0.00071,  -0.00060,  -0.00030,257121781.09836,   0.00000,274640135.82653,   0.00000,   0.00000,   0.00000,-217518354.72817,   0.00000
-260693936.55923,-245792093.78087,-23111593.73835,  -0.00071,  -0.00061,  -0.00030,256711921.64845,   0.00000,274640135.82653,   0.00000,   0.00000,   0.00000,-217928214.17808,   0.00000
-259313651.73648,-246714464.20745,-22758345.48987,  -0.00070,  -0.00062,  -0.00030,256298644.25030,   0.00000,274640135.82653,   0.00000,   0.00000,   0.00000,-218341491.57623,   0.00000
-257933366.91372,-247636834.63403,-22405097.24139,  -0.00069,  -0.00062,  -0.00029,255901907.48251,   0.00000,274640135.82653,   0.00000,   0.00000,   0.00000,-218738228.34402,   0.00000
-256507290.65135,-248539580.15792,-22051848.99292,  -0.00068,  -0.00063,  -0.00029,255488846.85727,   0.00000,274640135.82653,   0.00000,   0.00000,   0.00000,-219151288.96926,   0.00000
-255081214.38898,-249442325.68180,-21692059.11021,  -0.00067,  -0.00064,  -0.00028,255091130.19880,   0.00000,274640135.82653,   0.00000,   0.00000,   0.00000,-219549005.62773,   0.00000
-253619159.13834,-250348342.02280,-21325727.59327,  -0.00067,  -0.00064,  -0.00028,254692352.08826,   0.00000,274640135.82653,   0.00000,   0.00000,   0.00000,-219947783.73827,   0.00000
-252124395.71654,-251221650.19265,-20959396.07633,  -0.00066,  -0.00065,  -0.00027,254279001.38798,   0.00000,274640135.82653,   0.00000,   0.00000,   0.00000,-220361134.43855,   0.00000
-250593653.30647,-252098229.17961,-20586522.92516,  -0.00065,  -0.00066,  -0.00027,253865899.18540,   0.00000,274640135.82653,   0.00000,   0.00000,   0.00000,-220774236.64113,   0.00000
-249062910.89640,-252974808.16658,-20213649.77399,  -0.00064,  -0.00067,  -0.00026,253471339.51837,   0.00000,274640135.82653,   0.00000,   0.00000,   0.00000,-221168796.30816,   0.00000
-247509272.76652,-253841574.70219,-19834234.98858,  -0.00063,  -0.00067,  -0.00026,253077917.31599,   0.00000,274640135.82653,   0.00000,   0.00000,   0.00000,-221562218.51054,   0.00000
-245909843.19703,-254688716.33511,-19454820.20318,  -0.00062,  -0.00068,  -0.00025,252671725.76094,   0.00000,274640135.82653,   0.00000,   0.00000,   0.00000,-221968410.06559,   0.00000
-244310413.62753,-255535857.96804,-19068863.78355,  -0.00061,  -0.00069,  -0.00025,252283464.49077,   0.00000,274640135.82653,   0.00000,   0.00000,   0.00000,-222356671.33576,   0.00000
-242665192.61842,-256363374.69827,-18682907.36392,  -0.00060,  -0.00069,  -0.00024,251883427.35572,   0.00000,274640135.82653,   0.00000,   0.00000,   0.00000,-222756708.47081,   0.00000
-241006888.34085,-257203974.69696,-18296950.94428,  -0.00060,  -0.00070,  -0.00024,251504692.71688,   0.00000,274640135.82653,   0.00000,   0.00000,   0.00000,-223135443.10965,   0.00000
-239338771.61192,-258021678.97584,-17904452.89042,  -0.00059,  -0.00071,  -0.00023,251128156.57112,   0.00000,274640135.82653,   0.00000,   0.00000,   0.00000,-223511979.25541,   0.00000
-237634675.89473,-258842654.07184,-17505413.20233,  -0.00058,  -0.00071,  -0.00023,250757027.85886,   0.00000,274640135.82653,   0.00000,   0.00000,   0.00000,-223883107.96767,   0.00000
-235907684.45773,-259653816.71649,-17106373.51423,  -0.00057,  -0.00072,  -0.00022,250391879.86809,   0.00000,274640135.82653,   0.00000,   0.00000,   0.00000,-224248255.95844,   0.00000
-234157797.30092,-260455166.90980,-16707333.82614,  -0.00056,  -0.00073,  -0.00022,250033127.48178,   0.00000,274640135.82653,   0.00000,   0.00000,   0.00000,-224607008.34475,   0.00000
-232385014.42430,-261246704.65176,-16301752.50381,  -0.00055,  -0.00074,  -0.00021,249679910.67699,   0.00000,274640135.82653,   0.00000,   0.00000,   0.00000,-224960225.14953,   0.00000
-230589335.82788,-262028429.94237,-15896171.18148,  -0.00054,  -0.00074,  -0.00021,249333998.96898,   0.00000,274640135.82653,   0.00000,   0.00000,   0.00000,-225306136.85755,   0.00000
-228770761.51164,-262800342.78163,-15484048.22493,  -0.00053,  -0.00075,  -0.00020,248994606.75561,   0.00000,274640135.82653,   0.00000,   0.00000,   0.00000,-225645529.07092,   0.00000
-226939103.92694,-263585338.88936,-15071925.26837,  -0.00052,  -0.00076,  -0.00020,248681032.54297,   0.00000,274640135.82653,   0.00000,   0.00000,   0.00000,-225959103.28356,   0.00000
-225074738.17109,-264337626.82593,-14653260.67758,  -0.00051,  -0.00076,  -0.00019,248357505.86119,   0.00000,274640135.82653,   0.00000,   0.00000,   0.00000,-226282629.96534,   0.00000
-223197289.14677,-265102998.03097,-14234596.08679,  -0.00050,  -0.00077,  -0.00019,248060940.33431,   0.00000,274640135.82653,   0.00000,   0.00000,   0.00000,-226579195.49222,   0.00000
-221287131.95130,-265835661.06485,-13815931.49601,  -0.00049,  -0.00078,  -0.00018,247756376.99746,   0.00000,274640135.82653,   0.00000,   0.00000,   0.00000,-226883758.82907,   0.00000
-219363891.48737,-266581407.36719,-13390725.27099,  -0.00048,  -0.00079,  -0.00017,247478813.82849,   0.00000,274640135.82653,   0.00000,   0.00000,   0.00000,-227161321.99804,   0.00000
-217417755.30363,-267317341.21818,-12965519.04597,  -0.00047,  -0.00079,  -0.00017,247212093.16745,   0.00000,274640135.82653,   0.00000,   0.00000,   0.00000,-227428042.65908,   0.00000
-215448723.40008,-268043462.61783,-12533771.18672,  -0.00046,  -0.00080,  -0.00016,246955693.78051,   0.00000,274640135.82653,   0.00000,   0.00000,   0.00000,-227684442.04602,   0.00000
-213456795.77672,-268759771.56613,-12102023.32747,  -0.00045,  -0.00081,  -0.00016,246711158.46108,   0.00000,274640135.82653,   0.00000,   0.00000,   0.00000,-227928977.36545,   0.00000
-211441972.43355,-269466268.06309,-11663733.83399,  -0.00044,  -0.00081,  -0.00015,246478043.98713,   0.00000,274640135.82653,   0.00000,   0.00000,   0.00000,-228162091.83940,   0.00000
-209404253.37058,-270162952.10870,-11225444.34051,  -0.00043,  -0.00082,  -0.00015,246257837.53819,   0.00000,274640135.82653,   0.00000,   0.00000,   0.00000,-228382298.28834,   0.00000
-207366534.30760,-270859636.15430,-10787154.84702,  -0.00042,  -0.00083,  -0.00014,246064394.30428,   0.00000,274640135.82653,   0.00000,   0.00000,   0.00000,-228575741.52225,   0.00000
-205292836.25635,-271559591.01703,-10342323.71931,  -0.00040,  -0.00084,  -0.00013,245889024.60004,   0.00000,274640135.82653,   0.00000,   0.00000,   0.00000,-228751111.22649,   0.00000
-203209325.75376,-272236650.15994,-9897492.59160,  -0.00039,  -0.00084,  -0.00013,245722768.00887,   0.00000,274640135.82653,   0.00000,   0.00000,   0.00000,-228917367.81766,   0.00000
-201102919.53136,-272903896.85151,-9452661.46389,  -0.00038,  -0.00085,  -0.00012,245571189.63491,   0.00000,274640135.82653,   0.00000,   0.00000,   0.00000,-229068946.19162,   0.00000
-198960534.32068,-273574414.36020,-9001288.70194,  -0.00037,  -0.00086,  -0.00012,245440038.19061,   0.00000,274640135.82653,   0.00000,   0.00000,   0.00000,-229200097.63591,   0.00000
-196818149.11001,-274244931.86888,-8549915.94000,  -0.00036,  -0.00086,  -0.00011,245337705.55984,   0.00000,274640135.82653,   0.00000,   0.00000,   0.00000,-229302430.26669,   0.00000
-194665951.44799,-274892553.65775,-8092001.54383,  -0.00035,  -0.00087,  -0.00011,245244713.85299,   0.00000,274640135.82653,   0.00000,   0.00000,   0.00000,-229395421.97354,   0.00000
-192477774.79770,-275543446.26375,-7634087.14765,  -0.00034,  -0.00088,  -0.00010,245174902.94232,   0.00000,274640135.82653,   0.00000,   0.00000,   0.00000,-229465232.88421,   0.00000
-190266702.42760,-276184526.41839,-7176172.75148,  -0.00033,  -0.00089,  -0.00009,245122589.63332,   0.00000,274640135.82653,   0.00000,   0.00000,   0.00000,-229517546.19321,   0.00000
-188055630.05750,-276825606.57303,-6711716.72107,  -0.00032,  -0.00089,  -0.00009,245099702.19227,   0.00000,274640135.82653,   0.00000,   0.00000,   0.00000,-229540433.63425,   0.00000
-185811849.51625,-277433978.55652,-6247260.69067,  -0.00030,  -0.00090,  -0.00008,245075947.41737,   0.00000,274640135.82653,   0.00000,   0.00000,   0.00000,-229564188.40916,   0.00000
-183554985.70653,-278055433.80847,-5782804.66026,  -0.00029,  -0.00091,  -0.00008,245090020.92909,   0.00000,274640135.82653,   0.00000,   0.00000,   0.00000,-229550114.89744,   0.00000
-181275226.17700,-278667076.60908,-5311806.99562,  -0.00028,  -0.00091,  -0.00007,245122940.07631,   0.00000,274640135.82653,   0.00000,   0.00000,   0.00000,-229517195.75022,   0.00000
-178972570.92767,-279268906.95834,-4840809.33099,  -0.00027,  -0.00092,  -0.00006,245175711.65311,   0.00000,274640135.82653,   0.00000,   0.00000,   0.00000,-229464424.17342,   0.00000
-176679728.12968,-279893633.02740,-4369811.66635,  -0.00026,  -0.00093,  -0.00006,245279283.50096,   0.00000,274640135.82653,   0.00000,   0.00000,   0.00000,-229360852.32557,   0.00000
-174354177.16054,-280485650.92531,-3892272.36748,  -0.00025,  -0.00094,  -0.00005,245383748.33809,   0.00000,274640135.82653,   0.00000,   0.00000,   0.00000,-229256387.48844,   0.00000
-172005730.47159,-281067856.37188,-3414733.06862,  -0.00023,  -0.00094,  -0.00004,245509287.92819,   0.00000,274640135.82653,   0.00000,   0.00000,   0.00000,-229130847.89834,   0.00000
-169634388.06283,-281640249.36710,-2937193.76975,  -0.00022,  -0.00095,  -0.00004,245656397.52199,   0.00000,274640135.82653,   0.00000,   0.00000,   0.00000,-228983738.30454,   0.00000
-167263045.65407,-282212642.36232,-2453112.83665,  -0.00021,  -0.00096,  -0.00003,245835736.12223,   0.00000,274640135.82653,   0.00000,   0.00000,   0.00000,-228804399.70430,   0.00000
-164878619.97684,-282798118.62600,-1969031.90355,  -0.00020,  -0.00097,  -0.00003,246056909.98767,   0.00000,274640135.82653,   0.00000,   0.00000,   0.00000,-228583225.83886,   0.00000
-162461486.12846,-283350886.71852,-1484950.97045,  -0.00019,  -0.00097,  -0.00002,246281279.36424,   0.00000,274640135.82653,   0.00000,   0.00000,   0.00000,-228358856.46229,   0.00000
-160044352.28009,-283903654.81104,-1000870.03735,  -0.00017,  -0.00098,  -0.00001,246538655.36693,   0.00000,274640135.82653,   0.00000,   0.00000,   0.00000,-228101480.45960,   0.00000
-157614135.16325,-284469506.17203,-510247.47002,  -0.00016,  -0.00099,  -0.00001,246838978.70239,   0.00000,274640135.82653,   0.00000,   0.00000,   0.00000,-227801157.12414,   0.00000
-155151209.87525,-285002649.36186,-19624.90269,  -0.00015,  -0.00099,  -0.00000,247143487.38800,   0.00000,274640135.82653,   0.00000,   0.00000,   0.00000,-227496648.43853,   0.00000
-152665388.86745,-285525980.10035,477539.29887,  -0.00014,  -0.00100,   0.00001,247472333.03519,   0.00000,274640135.82653,   0.00000,   0.00000,   0.00000,-227167802.79134,   0.00000
-150189380.31099,-286072206.55864,968161.86620,  -0.00013,  -0.00101,   0.00001,247854719.35892,   0.00000,274640135.82653,   0.00000,   0.00000,   0.00000,-226785416.46761,   0.00000
-147680663.58338,-286585724.84578,1465326.06776,  -0.00011,  -0.00102,   0.00002,248242276.02186,   0.00000,274640135.82653,   0.00000,   0.00000,   0.00000,-226397859.80467,   0.00000
-145181759.30711,-287122138.85273,1962490.26932,  -0.00010,  -0.00102,   0.00003,248683579.48281,   0.00000,274640135.82653,   0.00000,   0.00000,   0.00000,-225956556.34372,   0.00000
-142650146.85969,-287625844.68852,2466196.10511,  -0.00009,  -0.00103,   0.00003,249130625.00645,   0.00000,274640135.82653,   0.00000,   0.00000,   0.00000,-225509510.82008,   0.00000
-140105451.14380,-288142633.79277,2963360.30667,  -0.00008,  -0.00104,   0.00004,249623127.25560,   0.00000,274640135.82653,   0.00000,   0.00000,   0.00000,-225017008.57093,   0.00000
-137550942.97657,-288636527.17722,3467066.14246,  -0.00006,  -0.00105,   0.00005,250130249.84369,   0.00000,274640135.82653,   0.00000,   0.00000,   0.00000,-224509885.98283,   0.00000
-134983351.54088,-289143503.83013,3970771.97826,  -0.00005,  -0.00105,   0.00005,250683491.41381,   0.00000,274640135.82653,   0.00000,   0.00000,   0.00000,-223956644.41272,   0.00000
-132415760.10519,-289650480.48303,4481019.44828,  -0.00004,  -0.00106,   0.00006,251271336.28049,   0.00000,274640135.82653,   0.00000,   0.00000,   0.00000,-223368799.54604,   0.00000
-129815460.49834,-290124748.96479,4984725.28407,  -0.00002,  -0.00107,   0.00006,251865615.58879,   0.00000,274640135.82653,   0.00000,   0.00000,   0.00000,-222774520.23774,   0.00000
-127202077.62303,-290612100.71500,5494972.75409,  -0.00001,  -0.00107,   0.00007,252507193.59449,   0.00000,274640135.82653,   0.00000,   0.00000,   0.00000,-222132942.23204,   0.00000
-124578882.29638,-291076556.74541,6005220.22412,   0.00000,  -0.00108,   0.00008,253163298.50272,   0.00000,274640135.82653,   0.00000,   0.00000,   0.00000,-221476837.32381,   0.00000
-121965499.42107,-291563908.49562,6515467.69414,   0.00001,  -0.00109,   0.00008,253873417.33877,   0.00000,274640135.82653,   0.00000,   0.00000,   0.00000,-220766718.48776,   0.00000
-119329220.82595,-292041447.79449,7032256.79839,   0.00003,  -0.00110,   0.00009,254611369.86723,   0.00000,274640135.82653,   0.00000,   0.00000,   0.00000,-220028765.95930,   0.00000
-116660234.05967,-292486278.92220,7549045.90265,   0.00004,  -0.00110,   0.00010,255357161.81934,   0.00000,274640135.82653,   0.00000,   0.00000,   0.00000,-219282974.00719,   0.00000
-114001059.74475,-292954005.76972,8065835.00690,   0.00005,  -0.00111,   0.00010,256156977.43437,   0.00000,274640135.82653,   0.00000,   0.00000,   0.00000,-218483158.39216,   0.00000
-111309177.25866,-293389024.44609,8582624.11116,   0.00007,  -0.00112,   0.00011,256964873.06539,   0.00000,274640135.82653,   0.00000,   0.00000,   0.00000,-217675262.76114,   0.00000
-108627107.22393,-293846938.84226,9099413.21541,   0.00008,  -0.00113,   0.00012,257826544.25090,   0.00000,274640135.82653,   0.00000,   0.00000,   0.00000,-216813591.57563,   0.00000
-105945037.18919,-294304853.23844,9616202.31966,   0.00009,  -0.00113,   0.00013,258721806.12497,   0.00000,274640135.82653,   0.00000,   0.00000,   0.00000,-215918329.70155,   0.00000
-103230258.98330,-294730059.46346,10139533.05815,   0.00011,  -0.00114,   0.00013,259626008.60551,   0.00000,274640135.82653,   0.00000,   0.00000,   0.00000,-215014127.22102,   0.00000
-100502397.50895,-295168348.95694,10662863.79663,   0.00012,  -0.00115,   0.00014,260578297.99336,   0.00000,274640135.82653,   0.00000,   0.00000,   0.00000,-214061837.83317,   0.00000
-97764723.58325,-295583742.73061,11186194.53512,   0.00013,  -0.00115,   0.00015,261544298.51311,   0.00000,274640135.82653,   0.00000,   0.00000,   0.00000,-213095837.31342,   0.00000
-95036862.10889,-296022032.22409,11709525.27360,   0.00014,  -0.00116,   0.00015,262563102.14939,   0.00000,274640135.82653,   0.00000,   0.00000,   0.00000,-212077033.67714,   0.00000
-92276292.46338,-296427613.54642,12232856.01209,   0.00016,  -0.00117,   0.00016,263590461.43671,   0.00000,274640135.82653,   0.00000,   0.00000,   0.00000,-211049674.38982,   0.00000
-89525535.26922,-296856090.58855,12762728.38481,   0.00017,  -0.00118,   0.00017,264671156.88031,   0.00000,274640135.82653,   0.00000,   0.00000,   0.00000,-209968978.94622,   0.00000
-86764965.62371,-297261671.91088,13286059.12329,   0.00018,  -0.00118,   0.00017,265763654.78263,   0.00000,274640135.82653,   0.00000,   0.00000,   0.00000,-208876481.04390,   0.00000
-83991312.70974,-297680336.50166,13815931.49601,   0.00020,  -0.00119,   0.00018,266904853.85078,   0.00000,274640135.82653,   0.00000,   0.00000,   0.00000,-207735281.97575,   0.00000
-81207847.34442,-298076105.37264,14345803.86872,   0.00021,  -0.00120,   0.00019,268058513.14263,   0.00000,274640135.82653,   0.00000,   0.00000,   0.00000,-206581622.68390,   0.00000
-78411298.71064,-298484957.51209,14875676.24144,   0.00023,  -0.00121,   0.00019,269259847.90400,   0.00000,274640135.82653,   0.00000,   0.00000,   0.00000,-205380287.92252,   0.00000
-75604937.62552,-298870913.93172,15405548.61415,   0.00024,  -0.00121,   0.00020,270473299.54389,   0.00000,274640135.82653,   0.00000,   0.00000,   0.00000,-204166836.28264,   0.00000
-72808388.99174,-299279766.07116,15935420.98687,   0.00025,  -0.00122,   0.00021,271737327.55697,   0.00000,274640135.82653,   0.00000,   0.00000,   0.00000,-202902808.26956,   0.00000
-70002027.90661,-299665722.49079,16471834.99382,   0.00027,  -0.00123,   0.00021,273013891.44639,   0.00000,274640135.82653,   0.00000,   0.00000,   0.00000,-201626244.38014,   0.00000
-67172771.10168,-300041866.45908,17001707.36653,   0.00028,  -0.00123,   0.00022,274317030.73138,   0.00000,274640135.82653,   0.00000,   0.00000,   0.00000,-200323105.09515,   0.00000
-64353326.74809,-300440906.14717,17538121.37348,   0.00029,  -0.00124,   0.00023,275670952.49996,   0.00000,274640135.82653,   0.00000,   0.00000,   0.00000,-198969183.32657,   0.00000
-61501174.22334,-300807237.66411,18067993.74620,   0.00031,  -0.00125,   0.00023,277032033.39105,   0.00000,274640135.82653,   0.00000,   0.00000,   0.00000,-197608102.43548,   0.00000
-58671917.41841,-301183381.63240,18604407.75314,   0.00032,  -0.00126,   0.00024,278426271.62982,   0.00000,274640135.82653,   0.00000,   0.00000,   0.00000,-196213864.19671,   0.00000
-55819764.89367,-301549713.14934,19140821.76009,   0.00033,  -0.00126,   0.00025,279847734.91032,   0.00000,274640135.82653,   0.00000,   0.00000,   0.00000,-194792400.91620,   0.00000
-52967612.36892,-301916044.66628,19677235.76704,   0.00035,  -0.00127,   0.00026,281298195.49270,   0.00000,274640135.82653,   0.00000,   0.00000,   0.00000,-193341940.33383,   0.00000
-50102376.57572,-302295459.45168,20213649.77399,   0.00036,  -0.00128,   0.00026,282794708.06332,   0.00000,274640135.82653,   0.00000,   0.00000,   0.00000,-191845427.76321,   0.00000
-47250224.05097,-302661790.96862,20750063.78093,   0.00038,  -0.00128,   0.00027,284301954.60285,   0.00000,274640135.82653,   0.00000,   0.00000,   0.00000,-190338181.22368,   0.00000
-44375175.80642,-303018310.03421,21286477.78788,   0.00039,  -0.00129,   0.00028,285835799.14586,   0.00000,274640135.82653,   0.00000,   0.00000,   0.00000,-188804336.68067,   0.00000
-41500127.56187,-303374829.09981,21822891.79483,   0.00040,  -0.00130,   0.00028,287397232.46954,   0.00000,274640135.82653,   0.00000,   0.00000,   0.00000,-187242903.35699,   0.00000
-38625079.31731,-303731348.16540,22359305.80178,   0.00042,  -0.00131,   0.00029,288985807.37539,   0.00000,274640135.82653,   0.00000,   0.00000,   0.00000,-185654328.45114,   0.00000
-35727135.35295,-304078054.77965,22902261.44295,   0.00043,  -0.00131,   0.00030,290602124.07298,   0.00000,274640135.82653,   0.00000,   0.00000,   0.00000,-184038011.75355,   0.00000
-32852087.10840,-304434573.84524,23438675.44990,   0.00044,  -0.00132,   0.00030,292243858.38110,   0.00000,274640135.82653,   0.00000,   0.00000,   0.00000,-182396277.44543,   0.00000
-29944330.69269,-304758384.73968,23975089.45685,   0.00046,  -0.00133,   0.00031,293892777.89552,   0.00000,274640135.82653,   0.00000,   0.00000,   0.00000,-180747357.93101,   0.00000
-27046386.72833,-305105091.35392,24518045.09803,   0.00047,  -0.00134,   0.00032,295587613.26870,   0.00000,274640135.82653,   0.00000,   0.00000,   0.00000,-179052522.55783,   0.00000
-24148442.76397,-305451797.96817,25054459.10497,   0.00049,  -0.00134,   0.00033,297306139.64843,   0.00000,274640135.82653,   0.00000,   0.00000,   0.00000,-177333996.17810,   0.00000
-21250498.79961,-305798504.58241,25590873.11192,   0.00050,  -0.00135,   0.00033,299049522.16884,   0.00000,274640135.82653,   0.00000,   0.00000,   0.00000,-175590613.65769,   0.00000
-18342742.38390,-306122315.47685,26133828.75310,   0.00051,  -0.00136,   0.00034,300800825.25852,   0.00000,274640135.82653,   0.00000,   0.00000,   0.00000,-173839310.56801,   0.00000
-15444798.41954,-306469022.09110,26670242.76005,   0.00053,  -0.00136,   0.00035,302592723.93484,   0.00000,274640135.82653,   0.00000,   0.00000,   0.00000,-172047411.89169,   0.00000
-12523958.73537,-306805916.25400,27213198.40122,   0.00054,  -0.00137,   0.00035,304410856.66842,   0.00000,274640135.82653,   0.00000,   0.00000,   0.00000,-170229279.15811,   0.00000
-9616202.31966,-307129727.14844,27749612.40817,   0.00056,  -0.00138,   0.00036,306231680.29630,   0.00000,274640135.82653,   0.00000,   0.00000,   0.00000,-168408455.53023,   0.00000
-6718258.35530,-307476433.76268,28292568.04935,   0.00057,  -0.00139,   0.00037,308095106.11992,   0.00000,274640135.82653,   0.00000,   0.00000,   0.00000,-166545029.70661,   0.00000
-3787606.21979,-307790432.20577,28828982.05630,   0.00058,  -0.00139,   0.00037,309962639.33269,   0.00000,274640135.82653,   0.00000,   0.00000,   0.00000,-164677496.49384,   0.00000
-879849.80408,-308114243.10021,29365396.06324,   0.00060,  -0.00140,   0.00038,311850999.89951,   0.00000,274640135.82653,   0.00000,   0.00000,   0.00000,-162789135.92702,   0.00000
2040989.88009,-308451137.26311,29908351.70442,   0.00061,  -0.00141,   0.00039,313782319.24900,   0.00000,274640135.82653,   0.00000,   0.00000,   0.00000,-160857816.57753,   0.00000
4971642.01561,-308765135.70620,30444765.71137,   0.00062,  -0.00141,   0.00040,315715611.35188,   0.00000,274640135.82653,   0.00000,   0.00000,   0.00000,-158924524.47465,   0.00000
7879398.43132,-309088946.60064,30981179.71832,   0.00064,  -0.00142,   0.00040,317668061.47539,   0.00000,274640135.82653,   0.00000,   0.00000,   0.00000,-156972074.35114,   0.00000
10810050.56683,-309402945.04373,31517593.72526,   0.00065,  -0.00143,   0.00041,319643202.99223,   0.00000,274640135.82653,   0.00000,   0.00000,   0.00000,-154996932.83430,   0.00000
13717806.98254,-309726755.93817,32060549.36644,   0.00067,  -0.00144,   0.00042,321638383.75529,   0.00000,274640135.82653,   0.00000,   0.00000,   0.00000,-153001752.07124,   0.00000
16648459.11806,-310040754.38126,32596963.37339,   0.00068,  -0.00144,   0.00042,323653869.83018,   0.00000,274640135.82653,   0.00000,   0.00000,   0.00000,-150986265.99635,   0.00000
19556215.53376,-310364565.27570,33133377.38034,   0.00069,  -0.00145,   0.00043,325686394.20036,   0.00000,274640135.82653,   0.00000,   0.00000,   0.00000,-148953741.62617,   0.00000
22486867.66928,-310678563.71879,33669791.38728,   0.00071,  -0.00146,   0.00044,327740722.94752,   0.00000,274640135.82653,   0.00000,   0.00000,   0.00000,-146899412.87901,   0.00000
25394624.08499,-311002374.61323,34206205.39423,   0.00072,  -0.00146,   0.00044,329811075.92490,   0.00000,274640135.82653,   0.00000,   0.00000,   0.00000,-144829059.90163,   0.00000
28312192.95204,-311303289.78786,34736077.76695,   0.00074,  -0.00147,   0.00045,331880675.25162,   0.00000,274640135.82653,   0.00000,   0.00000,   0.00000,-142759460.57491,   0.00000
31242845.08756,-311617288.23095,35272491.77389,   0.00075,  -0.00148,   0.00046,333990578.28657,   0.00000,274640135.82653,   0.00000,   0.00000,   0.00000,-140649557.53996,   0.00000
34150601.50327,-311941099.12538,35808905.78084,   0.00076,  -0.00149,   0.00047,336115043.21433,   0.00000,274640135.82653,   0.00000,   0.00000,   0.00000,-138525092.61220,   0.00000
37068170.37032,-312242014.30001,36338778.15356,   0.00078,  -0.00149,   0.00047,338237912.31123,   0.00000,274640135.82653,   0.00000,   0.00000,   0.00000,-136402223.51530,   0.00000
39953031.06622,-312575637.64580,36875192.16051,   0.00079,  -0.00150,   0.00048,340393092.60484,   0.00000,274640135.82653,   0.00000,   0.00000,   0.00000,-134247043.22169,   0.00000
42870599.93328,-312876552.82043,37405064.53322,   0.00081,  -0.00151,   0.00049,342549628.12139,   0.00000,274640135.82653,   0.00000,   0.00000,   0.00000,-132090507.70514,   0.00000
45788168.80033,-313177467.99505,37934936.90594,   0.00082,  -0.00151,   0.00049,344722618.84749,   0.00000,274640135.82653,   0.00000,   0.00000,   0.00000,-129917516.97904,   0.00000
48682841.94758,-313488195.62103,38464809.27865,   0.00083,  -0.00152,   0.00050,346907752.62626,   0.00000,274640135.82653,   0.00000,   0.00000,   0.00000,-127732383.20027,   0.00000
51567702.64347,-313821818.96681,38994681.65137,   0.00085,  -0.00153,   0.00051,349124888.61489,   0.00000,274640135.82653,   0.00000,   0.00000,   0.00000,-125515247.21164,   0.00000
54462375.79072,-314132546.59279,39524554.02409,   0.00086,  -0.00154,   0.00051,351340836.11030,   0.00000,274640135.82653,   0.00000,   0.00000,   0.00000,-123299299.71623,   0.00000
57357048.93797,-314443274.21877,40054426.39680,   0.00087,  -0.00154,   0.00052,353571793.63433,   0.00000,274640135.82653,   0.00000,   0.00000,   0.00000,-121068342.19219,   0.00000
60251722.08521,-314754001.84474,40577757.13529,   0.00089,  -0.00155,   0.00053,355815240.62111,   0.00000,274640135.82653,   0.00000,   0.00000,   0.00000,-118824895.20542,   0.00000
63123499.51265,-315074541.92206,41107629.50800,   0.00090,  -0.00156,   0.00053,358070750.63860,   0.00000,274640135.82653,   0.00000,   0.00000,   0.00000,-116569385.18793,   0.00000
66027985.11124,-315362373.82823,41630960.24649,   0.00092,  -0.00156,   0.00054,360326621.72165,   0.00000,274640135.82653,   0.00000,   0.00000,   0.00000,-114313514.10488,   0.00000
68899762.53868,-315682913.90555,42154290.98497,   0.00093,  -0.00157,   0.00055,362607652.92632,   0.00000,274640135.82653,   0.00000,   0.00000,   0.00000,-112032482.90021,   0.00000
71748644.24631,-316013266.43422,42677621.72346,   0.00094,  -0.00158,   0.00055,364897128.14987,   0.00000,274640135.82653,   0.00000,   0.00000,   0.00000,-109743007.67666,   0.00000
74630234.12509,-316310910.79173,43200952.46194,   0.00096,  -0.00158,   0.00056,367188763.90901,   0.00000,274640135.82653,   0.00000,   0.00000,   0.00000,-107451371.91752,   0.00000
77479115.83272,-316641263.32040,43717741.56620,   0.00097,  -0.00159,   0.00057,369501706.25929,   0.00000,274640135.82653,   0.00000,   0.00000,   0.00000,-105138429.56724,   0.00000
80337809.99169,-316948720.12926,44241072.30468,   0.00098,  -0.00160,   0.00058,371813714.64310,   0.00000,274640135.82653,   0.00000,   0.00000,   0.00000,-102826421.18343,   0.00000
83196504.15067,-317256176.93812,44757861.40894,   0.00100,  -0.00161,   0.00058,374135728.61122,   0.00000,274640135.82653,   0.00000,   0.00000,   0.00000,-100504407.21531,   0.00000
86032302.58983,-317573446.19833,45274650.51319,   0.00101,  -0.00161,   0.00059,376464351.00059,   0.00000,274640135.82653,   0.00000,   0.00000,   0.00000,-98175784.82594,   0.00000
88858288.57765,-317913611.17834,45791439.61745,   0.00102,  -0.00162,   0.00060,378820124.66733,   0.00000,274640135.82653,   0.00000,   0.00000,   0.00000,-95820011.15920,   0.00000
91694087.01682,-318230880.43855,46301687.08747,   0.00104,  -0.00163,   0.00060,381169421.10084,   0.00000,274640135.82653,   0.00000,   0.00000,   0.00000,-93470714.72569,   0.00000
94539697.90733,-318525253.97895,46818476.19172,   0.00105,  -0.00163,   0.00061,383516990.92548,   0.00000,274640135.82653,   0.00000,   0.00000,   0.00000,-91123144.90105,   0.00000
97352600.62669,-318852335.69050,47328723.66175,   0.00106,  -0.00164,   0.00062,385882714.26663,   0.00000,274640135.82653,   0.00000,   0.00000,   0.00000,-88757421.55990,   0.00000
100142607.62624,-319189229.85340,47838971.13177,   0.00108,  -0.00165,   0.00062,388253074.16318,   0.00000,274640135.82653,   0.00000,   0.00000,   0.00000,-86387061.66335,   0.00000
102955510.34559,-319516311.56496,48349218.60179,   0.00109,  -0.00165,   0.00063,390639752.46475,   0.00000,274640135.82653,   0.00000,   0.00000,   0.00000,-84000383.36178,   0.00000
105755329.79649,-319830310.00805,48852924.43758,   0.00110,  -0.00166,   0.00064,393012978.88535,   0.00000,274640135.82653,   0.00000,   0.00000,   0.00000,-81627156.94118,   0.00000
108522441.07623,-320177016.62229,49356630.27337,   0.00112,  -0.00167,   0.00064,395404937.33194,   0.00000,274640135.82653,   0.00000,   0.00000,   0.00000,-79235198.49458,   0.00000
111322260.52712,-320491015.06538,49860336.10917,   0.00113,  -0.00168,   0.00065,397797787.89352,   0.00000,274640135.82653,   0.00000,   0.00000,   0.00000,-76842347.93301,   0.00000
114089371.80686,-320837721.67963,50364041.94496,   0.00114,  -0.00168,   0.00065,400208711.41610,   0.00000,274640135.82653,   0.00000,   0.00000,   0.00000,-74431424.41043,   0.00000
116843399.81814,-321171345.02541,50861206.14652,   0.00116,  -0.00169,   0.00066,402604957.36574,   0.00000,274640135.82653,   0.00000,   0.00000,   0.00000,-72035178.46079,   0.00000
119597427.82942,-321504968.37120,51364911.98231,   0.00117,  -0.00170,   0.00067,405012616.13832,   0.00000,274640135.82653,   0.00000,   0.00000,   0.00000,-69627519.68821,   0.00000
122351455.84070,-321838591.71698,51862076.18387,   0.00118,  -0.00170,   0.00067,407426561.41360,   0.00000,274640135.82653,   0.00000,   0.00000,   0.00000,-67213574.41293,   0.00000
125082588.13217,-322182027.51411,52352698.75120,   0.00120,  -0.00171,   0.00068,409839834.27393,   0.00000,274640135.82653,   0.00000,   0.00000,   0.00000,-64800301.55260,   0.00000
127813720.42364,-322525463.31124,52849862.95276,   0.00121,  -0.00172,   0.00069,412263902.19398,   0.00000,274640135.82653,   0.00000,   0.00000,   0.00000,-62376233.63255,   0.00000
130521956.99530,-322878711.55972,53340485.52009,   0.00122,  -0.00172,   0.00069,414686661.38158,   0.00000,274640135.82653,   0.00000,   0.00000,   0.00000,-59953474.44495,   0.00000
133240006.01830,-323209064.08839,53824566.45319,   0.00124,  -0.00173,   0.00070,417100261.11066,   0.00000,274640135.82653,   0.00000,   0.00000,   0.00000,-57539874.71587,   0.00000
135925346.87016,-323572124.78821,54315189.02052,   0.00125,  -0.00174,   0.00071,419531515.42654,   0.00000,274640135.82653,   0.00000,   0.00000,   0.00000,-55108620.39999,   0.00000
138620500.17335,-323912289.76823,54799269.95362,   0.00126,  -0.00174,   0.00071,421953289.01850,   0.00000,274640135.82653,   0.00000,   0.00000,   0.00000,-52686846.80803,   0.00000
141282945.30540,-324285162.91940,55283350.88672,   0.00128,  -0.00175,   0.00072,424389499.29954,   0.00000,274640135.82653,   0.00000,   0.00000,   0.00000,-50250636.52699,   0.00000
143955202.88879,-324635140.35076,55767431.81982,   0.00129,  -0.00176,   0.00072,426818476.21520,   0.00000,274640135.82653,   0.00000,   0.00000,   0.00000,-47821659.61133,   0.00000
146604564.75237,-324994930.23347,56244971.11868,   0.00130,  -0.00176,   0.00073,429244491.75932,   0.00000,274640135.82653,   0.00000,   0.00000,   0.00000,-45395644.06721,   0.00000
149253926.61595,-325354720.11618,56722510.41755,   0.00131,  -0.00177,   0.00074,431677226.17337,   0.00000,274640135.82653,   0.00000,   0.00000,   0.00000,-42962909.65316,   0.00000
151880392.75972,-325724322.45023,57193508.08219,   0.00133,  -0.00178,   0.00074,434106459.36900,   0.00000,274640135.82653,   0.00000,   0.00000,   0.00000,-40533676.45753,   0.00000
154506858.90349,-326093924.78429,57671047.38106,   0.00134,  -0.00179,   0.00075,436544630.44855,   0.00000,274640135.82653,   0.00000,   0.00000,   0.00000,-38095505.37798,   0.00000
157110429.32745,-326473339.56969,58142045.04569,   0.00135,  -0.00179,   0.00076,438978800.40304,   0.00000,274640135.82653,   0.00000,   0.00000,   0.00000,-35661335.42349,   0.00000
159700916.48296,-326839671.08663,58606501.07610,   0.00136,  -0.00180,   0.00076,441394737.44278,   0.00000,274640135.82653,   0.00000,   0.00000,   0.00000,-33245398.38375,   0.00000
162281591.18711,-327228898.32338,59070957.10650,   0.00138,  -0.00181,   0.00077,443830403.37376,   0.00000,274640135.82653,   0.00000,   0.00000,   0.00000,-30809732.45277,   0.00000
164872078.34261,-327595229.84032,59535413.13691,   0.00139,  -0.00181,   0.00077,446257929.32136,   0.00000,274640135.82653,   0.00000,   0.00000,   0.00000,-28382206.50517,   0.00000
167429857.32696,-327994269.52841,59999869.16732,   0.00140,  -0.00182,   0.00078,448696985.30243,   0.00000,274640135.82653,   0.00000,   0.00000,   0.00000,-25943150.52410,   0.00000
169974553.04284,-328380225.94805,60457783.56349,   0.00141,  -0.00183,   0.00079,451117096.09553,   0.00000,274640135.82653,   0.00000,   0.00000,   0.00000,-23523039.73100,   0.00000
172519248.75872,-328766182.36768,60915697.95966,   0.00143,  -0.00183,   0.00079,453542451.63378,   0.00000,274640135.82653,   0.00000,   0.00000,   0.00000,-21097684.19275,   0.00000
175041048.75480,-329161951.23866,61367070.72161,   0.00144,  -0.00184,   0.00080,455962239.83381,   0.00000,274640135.82653,   0.00000,   0.00000,   0.00000,-18677895.99272,   0.00000
177539953.03107,-329567532.56098,61818443.48355,   0.00145,  -0.00185,   0.00080,458378836.28745,   0.00000,274640135.82653,   0.00000,   0.00000,   0.00000,-16261299.53908,   0.00000
180038857.30733,-329973113.88331,62269816.24549,   0.00146,  -0.00185,   0.00081,460800193.61738,   0.00000,274640135.82653,   0.00000,   0.00000,   0.00000,-13839942.20915,   0.00000
182514865.86379,-330388507.65698,62714647.37321,   0.00147,  -0.00186,   0.00082,463215325.08810,   0.00000,274640135.82653,   0.00000,   0.00000,   0.00000,-11424810.73843,   0.00000
184977791.15179,-330790818.16219,63159478.50092,   0.00149,  -0.00187,   0.00082,465613211.42152,   0.00000,274640135.82653,   0.00000,   0.00000,   0.00000,-9026924.40500,   0.00000
187430903.98843,-331216024.38721,63597767.99440,   0.00150,  -0.00187,   0.00083,468026223.33450,   0.00000,274640135.82653,   0.00000,   0.00000,   0.00000,-6613912.49203,   0.00000
189870933.55662,-331628147.34377,64036057.48788,   0.00151,  -0.00188,   0.00083,470421720.82708,   0.00000,274640135.82653,   0.00000,   0.00000,   0.00000,-4218414.99945,   0.00000
192301150.67346,-332063166.02014,64474346.98136,   0.00152,  -0.00189,   0.00084,472834677.19237,   0.00000,274640135.82653,   0.00000,   0.00000,   0.00000,-1805458.63415,   0.00000
194114721.39213,-332390203.36285,64801384.32407,   0.00153,  -0.00189,   0.00084,474640139.79324,   0.00000,274640135.82653,   0.00000,   0.00000,   0.00000,  -5.13133,   0.00000
194444992.27505,-332105056.91744,64827268.74411,   0.00153,  -0.00189,   0.00084,474643564.57900,   0.00000,274643570.47490,   0.00000,  -0.00000,   0.00000,  -5.89589,   1.00000
195801187.42493,-330934818.72894,64927057.08748,   0.00155,  -0.00190,   0.00085,474657727.14418,   0.00002,274657731.11395,   0.00001,  -0.00001,   0.00001,  -3.96977,   1.00000
197149084.20356,-329765411.10311,65032049.56812,   0.00156,  -0.00191,   0.00085,474671927.73155,   0.00003,274671929.10677,   0.00002,  -0.00002,   0.00001,  -1.37522,   1.00000
198453035.67951,-328631486.99194,65132290.11170,   0.00157,  -0.00191,   0.00086,474686026.20253,   0.00004,274686029.47712,   0.00003,  -0.00003,   0.00001,  -3.27459,   1.00000
199751380.35524,-327501970.17247,65225479.88255,   0.00158,  -0.00192,   0.00087,474700131.35601,   0.00005,274700133.48954,   0.00003,  -0.00004,   0.00002,  -2.13353,   1.00000
201058510.96182,-326360907.21181,65319581.20286,   0.00159,  -0.00193,   0.00087,474714174.73255,   0.00007,274714179.44009,   0.00004,  -0.00005,   0.00002,  -4.70754,   1.00000
202305486.89870,-325267819.04296,65413423.05552,   0.00160,  -0.00193,   0.00088,474728213.17653,   0.00008,274728217.96332,   0.00005,  -0.00006,   0.00003,  -4.78679,   1.00000
203562808.43512,-324164848.60920,65502059.68298,   0.00162,  -0.00194,   0.00088,474742174.76309,   0.00009,274742181.22674,   0.00006,  -0.00007,   0.00003,  -6.46365,   1.00000
204796051.99971,-323081843.70017,65584952.04890,   0.00163,  -0.00195,   0.00089,474756089.49409,   0.00011,274756093.71665,   0.00006,  -0.00008,   0.00003,  -4.22256,   1.00000
205988601.46795,-322031388.90906,65666517.23154,   0.00164,  -0.00195,   0.00089,474770038.29596,   0.00012,274770047.17685,   0.00007,  -0.00009,   0.00004,  -8.88089,   1.00000
207171929.65298,-320984710.78411,65750332.46341,   0.00165,  -0.00196,   0.00090,474783880.91077,   0.00013,274783887.13630,   0.00008,  -0.00009,   0.00004,  -6.22553,   1.00000
208350495.74999,-319942361.35863,65827258.66338,   0.00166,  -0.00197,   0.00090,474797722.42598,   0.00014,274797726.77856,   0.00009,  -0.00010,   0.00005,  -4.35257,   1.00000
209520041.59066,-318903684.68717,65906473.71743,   0.00167,  -0.00197,   0.00091,474811447.89050,   0.00016,274811452.46035,   0.00010,  -0.00011,   0.00005,  -4.56985,   1.00000
210650679.04033,-317899500.07180,65978323.78376,   0.00168,  -0.00198,   0.00091,474825193.00339,   0.00017,274825199.19005,   0.00010,  -0.00012,   0.00006,  -6.18667,   1.00000
211775657.58067,-316897843.46508,66049511.60446,   0.00169,  -0.00198,   0.00092,474838957.40747,   0.00018,274838960.09986,   0.00011,  -0.00013,   0.00006,  -2.69239,   1.00000
212874777.92530,-315917119.73871,66118187.52782,   0.00170,  -0.00199,   0.00092,474852533.41834,   0.00019,274852534.83278,   0.00012,  -0.00014,   0.00006,  -1.41444,   1.00000
213952806.62727,-314953553.74924,66184484.60776,   0.00171,  -0.00200,   0.00093,474866190.91407,   0.00021,274866198.07243,   0.00013,  -0.00015,   0.00007,  -7.15836,   1.00000
215023946.72214,-313995150.19406,66247066.55376,   0.00173,  -0.00200,   0.00093,474879721.54707,   0.00022,274879728.03767,   0.00013,  -0.00016,   0.00007,  -6.49060,   1.00000
216071363.94738,-313054866.46536,66310347.48927,   0.00174,  -0.00201,   0.00094,474893211.44411,   0.00023,274893215.54694,   0.00014,  -0.00016,   0.00008,  -4.10282,   1.00000
217096524.99601,-312134427.34601,66368211.81756,   0.00175,  -0.00202,   0.00094,474906643.48689,   0.00024,274906643.48823,   0.00015,  -0.00017,   0.00008,  -0.00134,   1.00000
218116716.95315,-311216372.08732,66425540.45853,   0.00176,  -0.00202,   0.00095,474920080.73674,   0.00026,274920082.75932,   0.00016,  -0.00018,   0.00008,  -2.02258,   1.00000
219096522.56454,-310333833.12150,66478806.57931,   0.00177,  -0.00203,   0.00095,474933398.51334,   0.00027,274933405.72375,   0.00017,  -0.00019,   0.00009,  -7.21041,   1.00000
220072955.60709,-309455356.96542,66525456.05209,   0.00178,  -0.00204,   0.00096,474946720.89497,   0.00028,274946722.39876,   0.00017,  -0.00020,   0.00009,  -1.50380,   1.00000
221042126.35517,-308579927.85632,66574688.57627,   0.00179,  -0.00204,   0.00096,474959918.70936,   0.00029,274959919.32106,   0.00018,  -0.00021,   0.00010,  -0.61170,   1.00000
221972704.82450,-307737513.72572,66623045.77860,   0.00180,  -0.00205,   0.00097,474973134.00372,   0.00030,274973143.60515,   0.00019,  -0.00022,   0.00010,  -9.60144,   1.00000
222897697.55611,-306899758.79635,66667879.20083,   0.00181,  -0.00206,   0.00097,474986224.52942,   0.00032,274986230.64130,   0.00020,  -0.00022,   0.00010,  -6.11188,   1.00000
223801473.90406,-306081669.79736,66707489.52635,   0.00182,  -0.00206,   0.00098,474999246.96778,   0.00033,274999253.59727,   0.00020,  -0.00023,   0.00011,  -6.62950,   1.00000
224701060.34605,-305265761.70392,66746714.76687,   0.00183,  -0.00207,   0.00098,475012277.66031,   0.00034,275012284.79684,   0.00021,  -0.00024,   0.00011,  -7.13653,   1.00000
225560156.54750,-304483515.58885,66788230.09024,   0.00184,  -0.00207,   0.00099,475025207.71554,   0.00035,275025210.43326,   0.00022,  -0.00025,   0.00012,  -2.71771,   1.00000
226418000.92325,-303706801.41867,66817116.34268,   0.00185,  -0.00208,   0.00099,475038104.07493,   0.00036,275038110.63069,   0.00023,  -0.00026,   0.00012,  -6.55576,   1.00000
227252481.07892,-302946224.54264,66853160.76953,   0.00186,  -0.00209,   0.00099,475050967.36730,   0.00038,275050977.19718,   0.00023,  -0.00027,   0.00012,  -9.82989,   1.00000
228049722.16429,-302222641.84848,66879314.51824,   0.00187,  -0.00209,   0.00100,475063699.58320,   0.00039,275063702.96578,   0.00024,  -0.00027,   0.00013,  -3.38257,   1.00000
228859163.86602,-301485746.78504,66906895.63958,   0.00188,  -0.00210,   0.00100,475076358.47210,   0.00040,275076362.43515,   0.00025,  -0.00028,   0.00013,  -3.96305,   1.00000
229646971.76905,-300766604.26510,66935548.53674,   0.00189,  -0.00211,   0.00101,475088965.07532,   0.00041,275088970.46331,   0.00026,  -0.00029,   0.00014,  -5.38799,   1.00000
230398888.96840,-300082230.01252,66957458.45078,   0.00190,  -0.00211,   0.00101,475101577.48398,   0.00042,275101581.99960,   0.00026,  -0.00030,   0.00014,  -4.51561,   1.00000
231146664.44391,-299401833.92220,66976064.28211,   0.00191,  -0.00212,   0.00101,475114042.56157,   0.00043,275114052.43537,   0.00027,  -0.00031,   0.00014,  -9.87380,   1.00000
231891192.15791,-298723301.96477,66994451.07529,   0.00191,  -0.00213,   0.00102,475126518.07676,   0.00044,275126527.77290,   0.00028,  -0.00031,   0.00015,  -9.69613,   1.00000
232598003.21725,-298079878.58035,67009241.04177,   0.00192,  -0.00213,   0.00102,475138868.99215,   0.00046,275138875.10941,   0.00028,  -0.00032,   0.00015,  -6.11726,   1.00000
233299673.15920,-297438550.05174,67026906.99276,   0.00193,  -0.00214,   0.00103,475151095.80862,   0.00047,275151096.92931,   0.00029,  -0.00033,   0.00016,  -1.12070,   1.00000
233983958.29648,-296816137.91371,67036564.43844,   0.00194,  -0.00214,   0.00103,475163372.13274,   0.00048,275163377.76939,   0.00030,  -0.00034,   0.00016,  -5.63666,   1.00000
234631013.44967,-296228713.54235,67042707.70031,   0.00195,  -0.00215,   0.00103,475175525.92498,   0.00049,275175528.69542,   0.00031,  -0.00035,   0.00016,  -2.77044,   1.00000
235291168.01585,-295627381.40879,67050400.04464,   0.00196,  -0.00216,   0.00104,475187607.89026,   0.00050,275187611.82042,   0.00031,  -0.00035,   0.00017,  -3.93017,   1.00000
235914333.19321,-295060967.73637,67054606.34486,   0.00197,  -0.00216,   0.00104,475199557.48989,   0.00051,275199564.23996,   0.00032,  -0.00036,   0.00017,  -6.75007,   1.00000
236536347.47134,-294497789.76178,67052574.27278,   0.00198,  -0.00217,   0.00105,475211496.62872,   0.00052,275211503.01055,   0.00033,  -0.00037,   0.00017,  -6.38182,   1.00000
237120269.66788,-293967766.96378,67053248.48248,   0.00199,  -0.00218,   0.00105,475223316.84516,   0.00053,275223326.39497,   0.00033,  -0.00038,   0.00018,  -9.54981,   1.00000
237703253.71551,-293440886.97607,67047712.16612,   0.00199,  -0.00218,   0.00105,475235133.06967,   0.00054,275235135.51356,   0.00034,  -0.00038,   0.00018,  -2.44389,   1.00000
238248419.61251,-292947075.76368,67044917.79762,   0.00200,  -0.00219,   0.00106,475246819.54183,   0.00055,275246828.31028,   0.00035,  -0.00039,   0.00019,  -8.76845,   1.00000
238792848.26509,-292456308.56019,67035938.07893,   0.00201,  -0.00219,   0.00106,475258500.91899,   0.00057,275258506.31843,   0.00035,  -0.00040,   0.00019,  -5.39944,   1.00000
239316951.49671,-291984496.09280,67025266.69185,   0.00202,  -0.00220,   0.00106,475269973.64321,   0.00058,275269980.47484,   0.00036,  -0.00040,   0.00019,  -6.83163,   1.00000
239823219.26475,-291529699.32683,67012918.43805,   0.00203,  -0.00221,   0.00107,475281523.73588,   0.00059,275281526.02712,   0.00037,  -0.00041,   0.00020,  -2.29125,   1.00000
240309425.81882,-291093729.42098,66998904.70954,   0.00204,  -0.00221,   0.00107,475292863.52631,   0.00060,275292867.10506,   0.00038,  -0.00042,   0.00020,  -3.57875,   1.00000
240793792.34607,-290658959.87932,66984891.75944,   0.00204,  -0.00222,   0.00107,475304199.21489,   0.00061,275304209.14175,   0.00038,  -0.00043,   0.00020,  -9.92686,   1.00000
241261528.10276,-290244523.28739,66960037.04208,   0.00205,  -0.00222,   0.00108,475315458.54791,   0.00062,275315459.40409,   0.00039,  -0.00043,   0.00021,  -0.85618,   1.00000
241690852.54120,-289861228.09748,66944190.08813,   0.00206,  -0.00223,   0.00108,475326604.40318,   0.00063,275326606.94372,   0.00040,  -0.00044,   0.00021,  -2.54054,   1.00000
242121436.20161,-289482286.33090,66916102.98322,   0.00207,  -0.00224,   0.00108,475337717.21213,   0.00064,275337722.08983,   0.00040,  -0.00045,   0.00021,  -4.87770,   1.00000
242531089.86459,-289120235.88078,66892562.47477,   0.00208,  -0.00224,   0.00109,475348641.52542,   0.00065,275348647.90330,   0.00041,  -0.00045,   0.00022,  -6.37788,   1.00000
242924858.90591,-288776646.83379,66861304.62528,   0.00208,  -0.00225,   0.00109,475359618.80142,   0.00066,275359626.90274,   0.00041,  -0.00046,   0.00022,  -8.10132,   1.00000
243299341.60089,-288451473.03898,66828480.30188,   0.00209,  -0.00226,   0.00109,475370395.30702,   0.00067,275370399.75109,   0.00042,  -0.00047,   0.00022,  -4.44406,   1.00000
243654950.68697,-288143019.56032,66797171.05451,   0.00210,  -0.00226,   0.00109,475381104.08391,   0.00068,275381112.17010,   0.00043,  -0.00047,   0.00023,  -8.08620,   1.00000
244010750.28371,-287837046.15633,66759821.02491,   0.00211,  -0.00227,   0.00110,475391802.72266,   0.00069,275391807.87202,   0.00043,  -0.00048,   0.00023,  -5.14936,   1.00000
244330249.12055,-287563587.25656,66725430.92529,   0.00211,  -0.00227,   0.00110,475402376.58226,   0.00070,275402382.47481,   0.00044,  -0.00049,   0.00023,  -5.89255,   1.00000
244633988.51863,-287309977.23664,66680303.02036,   0.00212,  -0.00228,   0.00110,475412857.90721,   0.00071,275412863.45739,   0.00045,  -0.00049,   0.00024,  -5.55018,   1.00000
244935282.52339,-287055431.59649,66641459.41079,   0.00213,  -0.00229,   0.00111,475423357.66033,   0.00072,275423359.88623,   0.00045,  -0.00050,   0.00024,  -2.22589,   1.00000
245219254.68549,-286820603.52571,66594941.40887,   0.00213,  -0.00229,   0.00111,475433628.13765,   0.00073,275433633.13906,   0.00046,  -0.00051,   0.00024,  -5.00142,   1.00000
245468951.84008,-286618180.13660,66548380.77164,   0.00214,  -0.00230,   0.00111,475443911.21215,   0.00074,275443913.79509,   0.00047,  -0.00051,   0.00025,  -2.58294,   1.00000
245717626.66143,-286417843.57502,66498884.08994,   0.00215,  -0.00230,   0.00111,475454046.86747,   0.00075,275454047.74075,   0.00047,  -0.00052,   0.00025,  -0.87328,   1.00000
245949444.97180,-286235507.00537,66444838.65539,   0.00215,  -0.00231,   0.00112,475464098.31193,   0.00075,275464103.82264,   0.00048,  -0.00053,   0.00025,  -5.51071,   1.00000
246164481.44809,-286071125.92634,66386261.54628,   0.00216,  -0.00232,   0.00112,475474077.68728,   0.00076,275474081.85968,   0.00048,  -0.00053,   0.00026,  -4.17240,   1.00000
246343910.83906,-285938889.86817,66330731.34332,   0.00217,  -0.00232,   0.00112,475483935.90030,   0.00077,275483937.28514,   0.00049,  -0.00054,   0.00026,  -1.38483,   1.00000
246522782.70650,-285806999.20646,66275388.89814,   0.00217,  -0.00233,   0.00112,475493786.99509,   0.00078,275493791.37628,   0.00049,  -0.00055,   0.00026,  -4.38119,   1.00000
246686496.91707,-285694533.22785,66209374.30879,   0.00218,  -0.00233,   0.00112,475503545.10447,   0.00079,275503551.10185,   0.00050,  -0.00055,   0.00026,  -5.99738,   1.00000
246830672.01719,-285598107.90510,66148034.64543,   0.00219,  -0.00234,   0.00113,475513112.59612,   0.00080,275513119.34979,   0.00051,  -0.00056,   0.00027,  -6.75367,   1.00000
246959973.78400,-285519505.65535,66079151.37531,   0.00219,  -0.00234,   0.00113,475522732.50811,   0.00081,275522738.59670,   0.00051,  -0.00056,   0.00027,  -6.08859,   1.00000
247071288.40725,-285458454.39871,66008799.33637,   0.00220,  -0.00235,   0.00113,475532147.83802,   0.00082,275532150.20731,   0.00052,  -0.00057,   0.00027,  -2.36929,   1.00000
247182267.08159,-285397544.46694,65938678.50269,   0.00220,  -0.00236,   0.00113,475541556.09815,   0.00083,275541560.34839,   0.00052,  -0.00058,   0.00028,  -4.25023,   1.00000
247259463.01490,-285370109.74256,65865479.23507,   0.00221,  -0.00236,   0.00113,475550823.51410,   0.00083,275550831.41696,   0.00053,  -0.00058,   0.00028,  -7.90286,   1.00000
247320414.50508,-285360196.97691,65787788.80941,   0.00222,  -0.00237,   0.00114,475560018.41885,   0.00084,275560024.13604,   0.00053,  -0.00059,   0.00028,  -5.71719,   1.00000
247381032.46904,-285351769.65897,65707210.66448,   0.00222,  -0.00237,   0.00114,475569065.08726,   0.00085,275569070.13409,   0.00054,  -0.00059,   0.00028,  -5.04683,   1.00000
247408160.22721,-285375190.66033,65626709.32061,   0.00223,  -0.00238,   0.00114,475578114.52583,   0.00086,275578122.31204,   0.00055,  -0.00060,   0.00029,  -7.78621,   1.00000
247435053.33462,-285400013.68475,65543317.67669,   0.00223,  -0.00239,   0.00114,475587027.27677,   0.00087,275587027.79477,   0.00055,  -0.00060,   0.00029,  -0.51801,   1.00000
247412517.18829,-285474051.98711,65455264.20738,   0.00224,  -0.00239,   0.00114,475595854.32469,   0.00088,275595862.89742,   0.00056,  -0.00061,   0.00029,  -8.57273,   1.00000
247405892.15232,-285531896.30199,65369071.56618,   0.00224,  -0.00240,   0.00114,475604625.05353,   0.00088,275604628.05664,   0.00056,  -0.00062,   0.00029,  -3.00311,   1.00000
247384632.54129,-285608603.49414,65272238.98122,   0.00225,  -0.00240,   0.00115,475613294.36672,   0.00089,275613299.39310,   0.00057,  -0.00062,   0.00030,  -5.02638,   1.00000
247327115.22752,-285715246.04283,65184663.63092,   0.00225,  -0.00241,   0.00115,475621858.67178,   0.00090,275621863.78122,   0.00057,  -0.00063,   0.00030,  -5.10943,   1.00000
247270956.28268,-285824660.22922,65088018.60345,   0.00226,  -0.00241,   0.00115,475630265.83400,   0.00091,275630266.11143,   0.00058,  -0.00063,   0.00030,  -0.27742,   1.00000
247182966.52460,-285967172.03607,64985313.57330,   0.00226,  -0.00242,   0.00115,475638654.10141,   0.00092,275638659.27093,   0.00058,  -0.00064,   0.00031,  -5.16952,   1.00000
247111025.35041,-286093317.82601,64884483.16507,   0.00227,  -0.00243,   0.00115,475646977.21640,   0.00092,275646982.76307,   0.00059,  -0.00064,   0.00031,  -5.54667,   1.00000
246972376.48803,-286284273.46015,64780386.83865,   0.00227,  -0.00243,   0.00115,475655172.26584,   0.00093,275655176.08307,   0.00059,  -0.00065,   0.00031,  -3.81723,   1.00000
246849875.34349,-286458743.92060,64678153.17884,   0.00228,  -0.00244,   0.00115,475663293.35928,   0.00094,275663299.96383,   0.00060,  -0.00065,   0.00031,  -6.60455,   1.00000
246712926.43475,-286651760.21749,64565262.62454,   0.00228,  -0.00244,   0.00115,475671329.54388,   0.00095,275671330.98688,   0.00060,  -0.00066,   0.00031,  -1.44300,   1.00000
246558756.52747,-286860113.38233,64454062.39154,   0.00229,  -0.00245,   0.00116,475679299.94828,   0.00095,275679300.70146,   0.00061,  -0.00066,   0.00032,  -0.75318,   1.00000
246371300.55001,-287101221.62246,64339755.52547,   0.00229,  -0.00245,   0.00116,475687127.19146,   0.00096,275687133.24704,   0.00061,  -0.00067,   0.00032,  -6.05558,   1.00000
246183969.48228,-287343210.93151,64222523.72300,   0.00230,  -0.00246,   0.00116,475694815.64281,   0.00097,275694820.61132,   0.00062,  -0.00067,   0.00032,  -4.96852,   1.00000
245981075.82943,-287600433.55061,64104023.39040,   0.00230,  -0.00247,   0.00116,475702575.71617,   0.00097,275702576.06775,   0.00062,  -0.00068,   0.00032,  -0.35158,   1.00000
245762174.64828,-287875957.19737,63977788.48336,   0.00230,  -0.00247,   0.00116,475710107.88883,   0.00098,275710110.90296,   0.00063,  -0.00068,   0.00033,  -3.01413,   1.00000
245526131.45870,-288166613.79882,63853231.02672,   0.00231,  -0.00248,   0.00116,475717581.95025,   0.00099,275717585.25142,   0.00063,  -0.00069,   0.00033,  -3.30117,   1.00000
245255447.86601,-288488257.53188,63731702.21836,   0.00231,  -0.00248,   0.00116,475724937.17458,   0.00100,275724939.18005,   0.00063,  -0.00069,   0.00033,  -2.00547,   1.00000
244987924.34535,-288812147.67564,63598102.66306,   0.00232,  -0.00249,   0.00116,475732261.14261,   0.00100,275732262.37266,   0.00064,  -0.00070,   0.00033,  -1.23005,   1.00000
244703279.66077,-289151036.28407,63466168.00198,   0.00232,  -0.00249,   0.00116,475739516.12145,   0.00101,275739525.75412,   0.00064,  -0.00070,   0.00034,  -9.63266,   1.00000
244401235.57009,-289506527.37467,63332615.92723,   0.00232,  -0.00250,   0.00116,475746578.60805,   0.00102,275746585.22450,   0.00065,  -0.00071,   0.00034,  -6.61646,   1.00000
244067534.67437,-289894318.04455,63192966.61433,   0.00233,  -0.00251,   0.00116,475753635.53665,   0.00102,275753639.03972,   0.00065,  -0.00071,   0.00034,  -3.50307,   1.00000
243751555.49968,-290266811.90566,63048986.35504,   0.00233,  -0.00251,   0.00116,475760605.61539,   0.00103,275760609.26844,   0.00066,  -0.00071,   0.00034,  -3.65304,   1.00000
243400860.18947,-290670089.63431,62907991.72678,   0.00233,  -0.00252,   0.00116,475767459.86524,   0.00103,275767460.79483,   0.00066,  -0.00072,   0.00034,  -0.92958,   1.00000
243034383.37568,-291089723.09343,62762432.10444,   0.00234,  -0.00252,   0.00116,475774230.49531,   0.00104,275774238.57209,   0.00066,  -0.00072,   0.00035,  -8.07678,   1.00000
242634510.94987,-291541572.37993,62613635.04489,   0.00234,  -0.00253,   0.00116,475780877.13380,   0.00105,275780883.33516,   0.00067,  -0.00073,   0.00035,  -6.20135,   1.00000
242236472.79651,-291993750.61498,62458931.94529,   0.00234,  -0.00253,   0.00116,475787505.00400,   0.00105,275787514.54730,   0.00067,  -0.00073,   0.00035,  -9.54329,   1.00000
241837197.29077,-292444906.32285,62307390.64322,   0.00235,  -0.00254,   0.00116,475794012.69984,   0.00106,275794018.52599,   0.00068,  -0.00074,   0.00035,  -5.82615,   1.00000
241388520.60054,-292943881.77652,62151023.05400,   0.00235,  -0.00254,   0.00116,475800457.11307,   0.00107,275800460.20038,   0.00068,  -0.00074,   0.00035,  -3.08732,   1.00000
240939905.75153,-293443289.19199,61991587.73623,   0.00235,  -0.00255,   0.00116,475806758.51325,   0.00107,275806760.35453,   0.00068,  -0.00074,   0.00035,  -1.84128,   1.00000
240475409.00646,-293958800.04361,61827533.29291,   0.00235,  -0.00255,   0.00116,475812980.85561,   0.00108,275812988.84861,   0.00069,  -0.00075,   0.00036,  -7.99300,   1.00000
239995014.36389,-294490375.79349,61658855.13603,   0.00236,  -0.00256,   0.00116,475819139.56162,   0.00108,275819145.98700,   0.00069,  -0.00075,   0.00036,  -6.42538,   1.00000
239497399.99629,-295036426.53434,61491747.09807,   0.00236,  -0.00257,   0.00116,475825240.53462,   0.00109,275825247.05711,   0.00069,  -0.00076,   0.00036,  -6.52249,   1.00000
238983846.03499,-295598453.94614,61319989.96788,   0.00236,  -0.00257,   0.00116,475831276.35334,   0.00109,275831277.54617,   0.00070,  -0.00076,   0.00036,  -1.19283,   1.00000
238452449.86063,-296176746.04695,61146386.57434,   0.00236,  -0.00258,   0.00116,475837102.59230,   0.00110,275837109.38278,   0.00070,  -0.00076,   0.00036,  -6.79048,   1.00000
237922821.90261,-296755049.53600,60966831.38541,   0.00237,  -0.00258,   0.00116,475842926.80904,   0.00110,275842929.90649,   0.00071,  -0.00077,   0.00037,  -3.09745,   1.00000
237342176.69431,-297379105.60193,60788547.36646,   0.00237,  -0.00259,   0.00116,475848702.83142,   0.00111,275848707.66922,   0.00071,  -0.00077,   0.00037,  -4.83780,   1.00000
236762634.89178,-298004966.51188,60600874.61331,   0.00237,  -0.00259,   0.00116,475854331.11461,   0.00112,275854331.81803,   0.00071,  -0.00077,   0.00037,  -0.70342,   1.00000
236165713.00930,-298645050.81517,60414708.62139,   0.00237,  -0.00260,   0.00116,475859898.28254,   0.00112,275859902.28340,   0.00072,  -0.00078,   0.00037,  -4.00086,   1.00000
235567292.32504,-299283909.97251,60231557.74728,   0.00237,  -0.00260,   0.00115,475865348.53512,   0.00113,275865348.73226,   0.00072,  -0.00078,   0.00037,  -0.19714,   1.00000
234938030.24292,-299955417.16122,60035918.06437,   0.00238,  -0.00261,   0.00115,475870780.33941,   0.00113,275870783.83896,   0.00072,  -0.00079,   0.00037,  -3.49955,   1.00000
234307195.69971,-300625652.99541,59843271.99387,   0.00238,  -0.00261,   0.00115,475876087.35166,   0.00114,275876095.64121,   0.00072,  -0.00079,   0.00037,  -8.28955,   1.00000
233627504.00583,-301344271.23482,59639345.52091,   0.00238,  -0.00262,   0.00115,475881334.96868,   0.00114,275881339.91966,   0.00073,  -0.00079,   0.00038,  -4.95098,   1.00000
232946155.59103,-302061536.64287,59438377.82936,   0.00238,  -0.00262,   0.00115,475886456.32495,   0.00114,275886461.88858,   0.00073,  -0.00080,   0.00038,  -5.56363,   1.00000
232265201.39030,-302776896.63756,59237619.29154,   0.00238,  -0.00263,   0.00115,475891580.51618,   0.00115,275891589.93224,   0.00073,  -0.00080,   0.00038,  -9.41606,   1.00000
231551062.66230,-303525148.73069,59027026.85218,   0.00238,  -0.00264,   0.00115,475896575.90949,   0.00115,275896581.62914,   0.00074,  -0.00080,   0.00038,  -5.71966,   1.00000
230835137.74865,-304272068.34957,58819346.65517,   0.00238,  -0.00264,   0.00115,475901443.40034,   0.00116,275901451.80507,   0.00074,  -0.00081,   0.00038,  -8.40473,   1.00000
230086823.24150,-305049585.33680,58605309.00765,   0.00238,  -0.00265,   0.00114,475906327.43896,   0.00116,275906329.56176,   0.00074,  -0.00081,   0.00038,  -2.12280,   1.00000
229319747.70133,-305843121.52192,58389097.37255,   0.00239,  -0.00265,   0.00114,475911009.75667,   0.00117,275911016.00658,   0.00075,  -0.00081,   0.00038,  -6.24991,   1.00000
228554146.39759,-306636053.76537,58166818.53119,   0.00239,  -0.00266,   0.00114,475915691.23272,   0.00117,275915696.24853,   0.00075,  -0.00081,   0.00039,  -5.01580,   1.00000
227770700.43185,-307442737.29784,57945889.41306,   0.00239,  -0.00266,   0.00114,475920323.80329,   0.00118,275920328.18417,   0.00075,  -0.00082,   0.00039,  -4.38088,   1.00000
226952377.57320,-308280493.50055,57721208.48567,   0.00239,  -0.00267,   0.00114,475924835.49989,   0.00118,275924842.47903,   0.00075,  -0.00082,   0.00039,  -6.97914,   1.00000
226117264.46715,-309133357.68670,57491586.95170,   0.00239,  -0.00267,   0.00114,475929287.84757,   0.00118,275929296.04550,   0.00076,  -0.00082,   0.00039,  -8.19792,   1.00000
225281163.71277,-309986310.27062,57258503.55230,   0.00239,  -0.00268,   0.00113,475933609.52859,   0.00119,275933617.04101,   0.00076,  -0.00083,   0.00039,  -7.51243,   1.00000
224412284.87194,-310869256.68918,57018957.31002,   0.00239,  -0.00268,   0.00113,475937950.81308,   0.00119,275937950.90377,   0.00076,  -0.00083,   0.00039,  -0.09069,   1.00000
223541151.10070,-311750751.74143,56782165.27331,   0.00239,  -0.00269,   0.00113,475942162.69095,   0.00120,275942166.88938,   0.00076,  -0.00083,   0.00039,  -4.19843,   1.00000
222652986.22790,-312647207.07255,56540363.75572,   0.00239,  -0.00269,   0.00113,475946321.40386,   0.00120,275946324.35079,   0.00077,  -0.00084,   0.00039,  -2.94693,   1.00000
221747719.30410,-313558552.92886,56293535.05698,   0.00239,  -0.00270,   0.00113,475950414.83259,   0.00120,275950424.04703,   0.00077,  -0.00084,   0.00039,  -9.21444,   1.00000
220806927.75270,-314500578.29160,56042768.12751,   0.00239,  -0.00270,   0.00112,475954404.47226,   0.00121,275954411.95129,   0.00077,  -0.00084,   0.00040,  -7.47903,   1.00000
219882016.64277,-315425289.17238,55793574.09741,   0.00239,  -0.00271,   0.00112,475958329.80148,   0.00121,275958338.19480,   0.00077,  -0.00084,   0.00040,  -8.39331,   1.00000
218905552.83849,-316395308.49951,55538908.15103,   0.00239,  -0.00271,   0.00112,475962218.23002,   0.00122,275962227.69303,   0.00078,  -0.00085,   0.00040,  -9.46301,   1.00000
217927537.19773,-317365297.71715,55280601.26426,   0.00239,  -0.00272,   0.00112,475965981.99462,   0.00122,275965988.74009,   0.00078,  -0.00085,   0.00040,  -6.74547,   1.00000
216950553.17194,-318334086.66191,55016093.80027,   0.00239,  -0.00272,   0.00111,475969748.17564,   0.00122,275969749.31334,   0.00078,  -0.00085,   0.00040,  -1.13769,   1.00000
215936477.92064,-319331817.18541,54753783.68859,   0.00239,  -0.00273,   0.00111,475973413.47955,   0.00123,275973415.51563,   0.00078,  -0.00085,   0.00040,  -2.03608,   1.00000
214921671.76951,-320330999.01284,54481485.98957,   0.00239,  -0.00273,   0.00111,475976937.15042,   0.00123,275976941.57762,   0.00078,  -0.00086,   0.00040,  -4.42721,   1.00000
213853742.96696,-321373479.41863,54209861.64211,   0.00239,  -0.00274,   0.00111,475980446.46432,   0.00123,275980449.59546,   0.00079,  -0.00086,   0.00040,  -3.13114,   1.00000
212802462.70227,-322400055.25571,53933436.89190,   0.00239,  -0.00274,   0.00110,475983882.43691,   0.00124,275983885.03588,   0.00079,  -0.00086,   0.00040,  -2.59897,   1.00000
211716541.16465,-323453899.14957,53656613.26117,   0.00238,  -0.00275,   0.00110,475987348.43683,   0.00124,275987357.32767,   0.00079,  -0.00086,   0.00040,  -8.89084,   1.00000
210609833.57259,-324523432.16268,53377001.62493,   0.00238,  -0.00275,   0.00110,475990650.08224,   0.00124,275990652.32765,   0.00079,  -0.00086,   0.00040,  -2.24540,   1.00000
209520628.76039,-325578538.63100,53086253.02102,   0.00238,  -0.00276,   0.00110,475993854.57959,   0.00124,275993862.86918,   0.00079,  -0.00087,   0.00041,  -8.28959,   1.00000
208376839.00567,-326674969.26798,52802353.54754,   0.00238,  -0.00276,   0.00109,475997064.77986,   0.00125,275997073.25549,   0.00080,  -0.00087,   0.00041,  -8.47563,   1.00000
207234690.38054,-327771113.78588,52505843.79082,   0.00238,  -0.00277,   0.00109,476000269.02010,   0.00125,276000275.54818,   0.00080,  -0.00087,   0.00041,  -6.52808,   1.00000
206070272.08932,-328881442.36625,52212710.22499,   0.00238,  -0.00277,   0.00109,476003308.61511,   0.00125,276003316.29232,   0.00080,  -0.00087,   0.00041,  -7.67722,   1.00000
204888504.04582,-330007162.98975,51907903.50435,   0.00238,  -0.00278,   0.00108,476006294.07887,   0.00126,276006298.72271,   0.00080,  -0.00088,   0.00041,  -4.64384,   1.00000
203687362.23717,-331145311.80794,51604011.56782,   0.00238,  -0.00278,   0.00108,476009239.59158,   0.00126,276009248.57044,   0.00080,  -0.00088,   0.00041,  -8.97886,   1.00000
202466795.40767,-332295830.27579,51301015.45403,   0.00237,  -0.00279,   0.00108,476012160.03842,   0.00126,276012166.44566,   0.00081,  -0.00088,   0.00041,  -6.40724,   1.00000
201244322.61333,-333447579.63836,50987692.09568,   0.00237,  -0.00279,   0.00107,476014949.63697,   0.00126,276014952.25393,   0.00081,  -0.00088,   0.00041,  -2.61696,   1.00000
199986562.73583,-334625465.45135,50673811.72039,   0.00237,  -0.00280,   0.00107,476017782.88814,   0.00127,276017784.19470,   0.00081,  -0.00088,   0.00041,  -1.30656,   1.00000
198725767.79791,-335803090.32487,50355863.79888,   0.00237,  -0.00280,   0.00107,476020495.63976,   0.00127,276020497.67632,   0.00081,  -0.00089,   0.00041,  -2.03656,   1.00000
197426148.14509,-337008520.55762,50039637.77562,   0.00237,  -0.00281,   0.00106,476023126.59340,   0.00127,276023132.48843,   0.00081,  -0.00089,   0.00041,  -5.89503,   1.00000
196127634.17878,-338213089.23323,49710658.50367,   0.00237,  -0.00281,   0.00106,476025760.18894,   0.00127,276025765.19080,   0.00081,  -0.00089,   0.00041,  -5.00186,   1.00000
194809245.60953,-339429606.22352,49382461.73402,   0.00236,  -0.00281,   0.00106,476028368.75830,   0.00128,276028370.58350,   0.00081,  -0.00089,   0.00041,  -1.82520,   1.00000
193468211.60453,-340661458.46693,49050961.81057,   0.00236,  -0.00282,   0.00105,476030809.80340,   0.00128,276030811.23024,   0.00082,  -0.00089,   0.00041,  -1.42684,   1.00000
192110741.48354,-341902995.89339,48717939.47791,   0.00236,  -0.00282,   0.00105,476033346.02911,   0.00128,276033352.90213,   0.00082,  -0.00089,   0.00042,  -6.87302,   1.00000
190731212.93810,-343161161.77735,48375205.95979,   0.00236,  -0.00283,   0.00104,476035718.00361,   0.00128,276035720.30870,   0.00082,  -0.00090,   0.00042,  -2.30509,   1.00000
189350796.37954,-344415334.16838,48032319.75697,   0.00235,  -0.00283,   0.00104,476038103.02717,   0.00129,276038112.03014,   0.00082,  -0.00090,   0.00042,  -9.00297,   1.00000
187930757.14203,-345696682.90417,47690947.20899,   0.00235,  -0.00284,   0.00104,476040423.43867,   0.00129,276040432.72175,   0.00082,  -0.00090,   0.00042,  -9.28308,   1.00000
186507574.71863,-346978944.49505,47338903.41002,   0.00235,  -0.00284,   0.00103,476042624.24148,   0.00129,276042630.05469,   0.00082,  -0.00090,   0.00042,  -5.81321,   1.00000
185048378.35977,-348285817.47233,46986127.79351,   0.00235,  -0.00285,   0.00103,476044879.53342,   0.00129,276044885.17984,   0.00082,  -0.00090,   0.00042,  -5.64641,   1.00000
183604514.43071,-349576597.08905,46628172.53366,   0.00234,  -0.00285,   0.00102,476047073.02751,   0.00129,276047076.53956,   0.00083,  -0.00090,   0.00042,  -3.51205,   1.00000
182121333.00713,-350895523.06267,46265256.99215,   0.00234,  -0.00286,   0.00102,476049189.11997,   0.00130,276049190.49613,   0.00083,  -0.00091,   0.00042,  -1.37616,   1.00000
180617467.11829,-352225545.60194,45902911.61467,   0.00234,  -0.00286,   0.00102,476051281.04849,   0.00130,276051285.98480,   0.00083,  -0.00091,   0.00042,  -4.93631,   1.00000
179109107.73268,-353554971.18914,45536096.38873,   0.00233,  -0.00287,   0.00101,476053267.78887,   0.00130,276053273.04626,   0.00083,  -0.00091,   0.00042,  -5.25738,   1.00000
177565195.00807,-354909584.94127,45162121.29347,   0.00233,  -0.00287,   0.00101,476055304.79236,   0.00130,276055312.61115,   0.00083,  -0.00091,   0.00042,  -7.81878,   1.00000
176016566.73203,-356263480.75427,44783620.04321,   0.00233,  -0.00287,   0.00100,476057236.14937,   0.00130,276057245.58681,   0.00083,  -0.00091,   0.00042,  -9.43744,   1.00000
174466708.25044,-357612695.27258,44404882.44738,   0.00232,  -0.00288,   0.00100,476059200.76828,   0.00131,276059208.29601,   0.00083,  -0.00091,   0.00042,  -7.52773,   1.00000
172876754.06050,-358989337.92085,44020984.67137,   0.00232,  -0.00288,   0.00099,476061098.59107,   0.00131,276061101.50160,   0.00083,  -0.00091,   0.00042,  -2.91053,   1.00000
171265657.13870,-360376484.97559,43637541.75092,   0.00232,  -0.00289,   0.00099,476062975.77672,   0.00131,276062981.75860,   0.00083,  -0.00091,   0.00042,  -5.98188,   1.00000
169650120.15831,-361764096.92131,43243081.46370,   0.00231,  -0.00289,   0.00098,476064743.37648,   0.00131,276064748.16092,   0.00084,  -0.00092,   0.00042,  -4.78444,   1.00000
167997923.89484,-363174517.68673,42847748.37994,   0.00231,  -0.00290,   0.00098,476066577.63021,   0.00131,276066584.91557,   0.00084,  -0.00092,   0.00042,  -7.28537,   1.00000
166339695.05048,-364582686.92920,42454098.13636,   0.00231,  -0.00290,   0.00097,476068329.20097,   0.00131,276068329.92767,   0.00084,  -0.00092,   0.00042,  -0.72671,   1.00000
164661350.51431,-366003512.24951,42048058.37495,   0.00230,  -0.00291,   0.00097,476070038.53579,   0.00132,276070045.83361,   0.00084,  -0.00092,   0.00042,  -7.29783,   1.00000
162976757.68392,-367422064.66266,41643646.86505,   0.00230,  -0.00291,   0.00096,476071668.88931,   0.00132,276071671.28901,   0.00084,  -0.00092,   0.00042,  -2.39970,   1.00000
161255306.01302,-368862724.97426,41238318.05575,   0.00229,  -0.00292,   0.00096,476073368.09940,   0.00132,276073371.71775,   0.00084,  -0.00092,   0.00042,  -3.61835,   1.00000
159528688.49866,-370303500.03131,40821780.76261,   0.00229,  -0.00292,   0.00095,476074962.21697,   0.00132,276074964.04191,   0.00084,  -0.00092,   0.00042,  -1.82494,   1.00000
157780310.91535,-371753920.66184,40405549.11385,   0.00228,  -0.00292,   0.00095,476076546.81112,   0.00132,276076551.12230,   0.00084,  -0.00092,   0.00042,  -4.31119,   1.00000
156030973.40229,-373199915.04978,39982603.88390,   0.00228,  -0.00293,   0.00094,476078158.61779,   0.00132,276078165.38234,   0.00084,  -0.00093,   0.00042,  -6.76454,   1.00000
154239504.11432,-374670495.79313,39560541.48230,   0.00228,  -0.00293,   0.00094,476079726.36085,   0.00132,276079735.39286,   0.00084,  -0.00093,   0.00043,  -9.03200,   1.00000
152441790.08004,-376139729.81454,39133546.99381,   0.00227,  -0.00294,   0.00093,476081204.14680,   0.00133,276081210.41400,   0.00084,  -0.00093,   0.00043,  -6.26719,   1.00000
150622606.11061,-377619345.90785,38700380.46794,   0.00227,  -0.00294,   0.00093,476082669.52173,   0.00133,276082675.02621,   0.00085,  -0.00093,   0.00043,  -5.50448,   1.00000
148801742.42170,-379092911.13284,38266875.58640,   0.00226,  -0.00295,   0.00092,476084174.10856,   0.00133,276084178.83072,   0.00085,  -0.00093,   0.00043,  -4.72216,   1.00000
146938839.74960,-380591643.52517,37827726.35588,   0.00226,  -0.00295,   0.00092,476085629.80823,   0.00133,276085635.04557,   0.00085,  -0.00093,   0.00043,  -5.23734,   1.00000
145054236.70142,-382100245.59945,37382351.05819,   0.00225,  -0.00295,   0.00091,476087081.58589,   0.00133,276087084.68392,   0.00085,  -0.00093,   0.00043,  -3.09803,   1.00000
143182862.29562,-383590995.23812,36937794.39920,   0.00225,  -0.00296,   0.00091,476088481.58424,   0.00133,276088491.03142,   0.00085,  -0.00093,   0.00043,  -9.44717,   1.00000
141269071.07439,-385106417.79839,36487501.37683,   0.00224,  -0.00296,   0.00090,476089847.24426,   0.00133,276089854.30332,   0.00085,  -0.00093,   0.00043,  -7.05906,   1.00000
139353493.41561,-386615236.13430,36036848.35106,   0.00224,  -0.00297,   0.00090,476091255.97785,   0.00133,276091260.18809,   0.00085,  -0.00094,   0.00043,  -4.21024,   1.00000
137395757.15281,-388149426.25440,35573974.75289,   0.00223,  -0.00297,   0.00089,476092615.49936,   0.00134,276092618.15220,   0.00085,  -0.00094,   0.00043,  -2.65283,   1.00000
135435712.42828,-389675567.78196,35117167.12135,   0.00223,  -0.00297,   0.00088,476094018.80876,   0.00134,276094028.77034,   0.00085,  -0.00094,   0.00043,  -9.96158,   1.00000
133468861.43957,-391200842.38017,34648729.14689,   0.00222,  -0.00298,   0.00088,476095337.48409,   0.00134,276095345.07600,   0.00085,  -0.00094,   0.00043,  -7.59191,   1.00000
131458523.30266,-392748660.33530,34180847.30847,   0.00222,  -0.00298,   0.00087,476096632.44875,   0.00134,276096634.70365,   0.00085,  -0.00094,   0.00043,  -2.25490,   1.00000
129446316.93573,-394289252.72043,33712591.60809,   0.00221,  -0.00299,   0.00087,476097964.55127,   0.00134,276097970.58839,   0.00085,  -0.00094,   0.00043,  -6.03713,   1.00000
127412247.88973,-395839439.83641,33231529.94109,   0.00221,  -0.00299,   0.00086,476099295.96877,   0.00134,276099302.26240,   0.00085,  -0.00094,   0.00043,  -6.29363,   1.00000
125370022.63048,-397386185.37668,32751605.33618,   0.00220,  -0.00299,   0.00085,476100557.56384,   0.00134,276100559.69995,   0.00085,  -0.00094,   0.00043,  -2.13611,   1.00000
123304923.72172,-398940068.36297,32271728.52084,   0.00219,  -0.00300,   0.00085,476101827.80963,   0.00134,276101830.63293,   0.00086,  -0.00094,   0.00043,  -2.82330,   1.00000
121238380.73675,-400487385.63400,31785039.53661,   0.00219,  -0.00300,   0.00084,476103139.42508,   0.00135,276103142.34944,   0.00086,  -0.00094,   0.00043,  -2.92435,   1.00000
119128217.70463,-402057101.44861,31292333.03682,   0.00218,  -0.00301,   0.00084,476104422.69576,   0.00135,276104428.89287,   0.00086,  -0.00095,   0.00043,  -6.19711,   1.00000
116995048.72228,-403633336.04125,30799647.99881,   0.00218,  -0.00301,   0.00083,476105732.11836,   0.00135,276105732.80576,   0.00086,  -0.00095,   0.00043,  -0.68740,   1.00000
114874842.92549,-405192246.72539,30301158.58698,   0.00217,  -0.00301,   0.00082,476106986.58586,   0.00135,276106992.33300,   0.00086,  -0.00095,   0.00043,  -5.74714,   1.00000
112731579.63047,-406757493.25673,29802681.70625,   0.00217,  -0.00302,   0.00082,476108266.69834,   0.00135,276108270.45278,   0.00086,  -0.00095,   0.00043,  -3.75445,   1.00000
110544293.68970,-408344198.39263,29298093.95645,   0.00216,  -0.00302,   0.00081,476109526.42256,   0.00135,276109530.30653,   0.00086,  -0.00095,   0.00043,  -3.88396,   1.00000
108369456.10067,-409912446.28192,28794123.39504,   0.00215,  -0.00303,   0.00080,476110749.83780,   0.00135,276110754.21914,   0.00086,  -0.00095,   0.00043,  -4.38134,   1.00000
106157501.15358,-411497305.87300,28282712.03790,   0.00215,  -0.00303,   0.00080,476112076.00257,   0.00135,276112082.71271,   0.00086,  -0.00095,   0.00043,  -6.71014,   1.00000
103936889.29900,-413078797.66284,27765761.63693,   0.00214,  -0.00303,   0.00079,476113335.09787,   0.00136,276113339.28852,   0.00086,  -0.00095,   0.00043,  -4.19065,   1.00000
101714476.68609,-414651451.96606,27248480.25207,   0.00213,  -0.00304,   0.00079,476114645.70740,   0.00136,276114650.22075,   0.00086,  -0.00095,   0.00043,  -4.51335,   1.00000
99447646.68644,-416244352.19323,26725004.02724,   0.00213,  -0.00304,   0.00078,476115945.91773,   0.00136,276115951.16414,   0.00086,  -0.00095,   0.00043,  -5.24641,   1.00000
97171578.53604,-417832625.54601,26202395.04636,   0.00212,  -0.00305,   0.00077,476117181.95474,   0.00136,276117189.60466,   0.00086,  -0.00095,   0.00043,  -7.64992,   1.00000
94893744.05946,-419411654.20011,25679466.52205,   0.00211,  -0.00305,   0.00077,476118478.44028,   0.00136,276118484.38905,   0.00086,  -0.00096,   0.00043,  -5.94877,   1.00000
92593135.79100,-420997070.21942,25143540.37967,   0.00211,  -0.00305,   0.00076,476119789.22100,   0.00136,276119796.24804,   0.00086,  -0.00096,   0.00043,  -7.02703,   1.00000
90268934.57828,-422585983.06077,24614066.85161,   0.00210,  -0.00306,   0.00075,476121136.84321,   0.00136,276121144.14072,   0.00087,  -0.00096,   0.00043,  -7.29751,   1.00000
87935746.55773,-424171623.76158,24072424.82054,   0.00209,  -0.00306,   0.00074,476122416.23505,   0.00136,276122421.37715,   0.00087,  -0.00096,   0.00043,  -5.14210,   1.00000
85565368.62659,-425770243.69617,23529916.58024,   0.00209,  -0.00306,   0.00074,476123819.50519,   0.00137,276123822.44822,   0.00087,  -0.00096,   0.00043,  -2.94303,   1.00000
83207159.91234,-427349808.07069,22987959.56903,   0.00208,  -0.00307,   0.00073,476125185.84173,   0.00137,276125192.24335,   0.00087,  -0.00096,   0.00043,  -6.40162,   1.00000
80817681.59902,-428938646.61412,22440489.76882,   0.00207,  -0.00307,   0.00072,476126468.41881,   0.00137,276126474.32772,   0.00087,  -0.00096,   0.00043,  -5.90891,   1.00000
78413007.01471,-430525925.26478,21891989.33470,   0.00207,  -0.00308,   0.00072,476127905.06656,   0.00137,276127909.15998,   0.00087,  -0.00096,   0.00043,  -4.09342,   1.00000
75998757.51377,-432108413.28673,21337729.56256,   0.00206,  -0.00308,   0.00071,476129279.29975,   0.00137,276129284.15213,   0.00087,  -0.00096,   0.00043,  -4.85238,   1.00000
73561128.19385,-433693825.98501,20783442.89451,   0.00205,  -0.00308,   0.00070,476130692.04209,   0.00137,276130697.26655,   0.00087,  -0.00097,   0.00043,  -5.22446,   1.00000
71100320.46548,-435282622.24780,20222633.32695,   0.00204,  -0.00309,   0.00070,476132140.72579,   0.00137,276132145.18150,   0.00087,  -0.00097,   0.00043,  -4.45572,   1.00000
68651547.01278,-436852080.77184,19662342.86107,   0.00204,  -0.00309,   0.00069,476133562.90334,   0.00137,276133564.06956,   0.00087,  -0.00097,   0.00043,  -1.16622,   1.00000
66179435.36948,-438423909.84173,19102042.78371,   0.00203,  -0.00309,   0.00068,476135015.83907,   0.00138,276135023.84067,   0.00087,  -0.00097,   0.00043,  -8.00160,   1.00000
63662243.32120,-440012428.25286,18528882.42290,   0.00202,  -0.00310,   0.00067,476136487.74797,   0.00138,276136495.59861,   0.00087,  -0.00097,   0.00043,  -7.85064,   1.00000
61165807.05353,-441575557.89418,17961935.41177,   0.00201,  -0.00310,   0.00067,476138055.63826,   0.00138,276138058.68786,   0.00087,  -0.00097,   0.00043,  -3.04959,   1.00000
58624146.12952,-443154081.12319,17388647.65810,   0.00201,  -0.00310,   0.00066,476139638.06571,   0.00138,276139641.26084,   0.00087,  -0.00097,   0.00043,  -3.19512,   1.00000
56072435.42921,-444726563.98403,16809492.86855,   0.00200,  -0.00311,   0.00065,476141169.63580,   0.00138,276141172.95249,   0.00088,  -0.00097,   0.00043,  -3.31668,   1.00000
53519575.82310,-446286492.80104,16236757.13838,   0.00199,  -0.00311,   0.00064,476142771.96061,   0.00138,276142775.66483,   0.00088,  -0.00097,   0.00043,  -3.70421,   1.00000
50956695.39075,-447840840.63387,15651615.82726,   0.00198,  -0.00311,   0.00064,476144318.33062,   0.00138,276144325.01274,   0.00088,  -0.00098,   0.00043,  -6.68212,   1.00000
48357692.66808,-449402870.01745,15072486.61334,   0.00197,  -0.00312,   0.00063,476146019.04320,   0.00139,276146021.18631,   0.00088,  -0.00098,   0.00043,  -2.14310,   1.00000
45770914.51846,-450946048.05624,14480834.97205,   0.00197,  -0.00312,   0.00062,476147678.38968,   0.00139,276147685.15683,   0.00088,  -0.00098,   0.00043,  -6.76715,   1.00000
43138639.89475,-452501599.29885,13895891.80483,   0.00196,  -0.00312,   0.00061,476149378.44240,   0.00139,276149385.87480,   0.00088,  -0.00098,   0.00043,  -7.43240,   1.00000
40518433.05256,-454037582.47741,13304932.35213,   0.00195,  -0.00313,   0.00061,476151052.48503,   0.00139,276151058.93592,   0.00088,  -0.00098,   0.00043,  -6.45088,   1.00000
37862791.83705,-455580936.98911,12707083.10041,   0.00194,  -0.00313,   0.00060,476152871.68984,   0.00139,276152877.46245,   0.00088,  -0.00098,   0.00043,  -5.77261,   1.00000
35219113.93789,-457103585.76941,12116285.74329,   0.00193,  -0.00313,   0.00059,476154670.79415,   0.00139,276154674.85496,   0.00088,  -0.00098,   0.00043,  -4.06081,   1.00000
32542596.35578,-458631386.52390,11519621.92280,   0.00192,  -0.00314,   0.00058,476156413.83676,   0.00140,276156413.93919,   0.00088,  -0.00099,   0.00043,  -0.10243,   1.00000
29853500.69946,-460153067.79417,10916105.35913,   0.00192,  -0.00314,   0.00058,476158315.37871,   0.00140,276158318.13776,   0.00088,  -0.00099,   0.00043,  -2.75905,   1.00000
27153953.06717,-461666568.62658,10313183.33349,   0.00191,  -0.00314,   0.00057,476160178.24173,   0.00140,276160184.89687,   0.00088,  -0.00099,   0.00043,  -6.65514,   1.00000
24431753.04211,-463178470.35929,9710467.16078,   0.00190,  -0.00315,   0.00056,476162102.10470,   0.00140,276162110.79097,   0.00088,  -0.00099,   0.00044,  -8.68627,   1.00000
21709617.85840,-464676751.52498,9101404.04569,   0.00189,  -0.00315,   0.00055,476164102.26461,   0.00140,276164108.29401,   0.00089,  -0.00099,   0.00044,  -6.02940,   1.00000
18977000.94119,-466166452.62813,8492931.56022,   0.00188,  -0.00315,   0.00055,476166062.40927,   0.00140,276166070.72273,   0.00089,  -0.00099,   0.00044,  -8.31346,   1.00000
16221960.16221,-467653860.44449,7884729.00864,   0.00187,  -0.00316,   0.00054,476168094.61428,   0.00141,276168095.08619,   0.00089,  -0.00100,   0.00044,  -0.47191,   1.00000
13467278.23320,-469127113.49775,7270257.98383,   0.00186,  -0.00316,   0.00053,476170191.75859,   0.00141,276170192.74270,   0.00089,  -0.00100,   0.00044,  -0.98412,   1.00000
10667709.89492,-470608966.90037,6662682.89411,   0.00186,  -0.00316,   0.00052,476172336.16026,   0.00141,276172344.85403,   0.00089,  -0.00100,   0.00044,  -8.69377,   1.00000
7880411.09398,-472070309.85928,6042605.75446,   0.00185,  -0.00316,   0.00051,476174469.80022,   0.00141,276174473.89627,   0.00089,  -0.00100,   0.00044,  -4.09605,   1.00000
5093745.69685,-473516499.70676,5429416.52324,   0.00184,  -0.00317,   0.00051,476176679.46244,   0.00141,276176680.49379,   0.00089,  -0.00100,   0.00044,  -1.03134,   1.00000
2273907.19241,-474964919.13280,4810306.42112,   0.00183,  -0.00317,   0.00050,476178840.72070,   0.00142,276178846.16007,   0.00089,  -0.00100,   0.00044,  -5.43937,   1.00000
-556401.20553,-476403966.27424,4184900.04462,   0.00182,  -0.00317,   0.00049,476181180.94704,   0.00142,276181185.57490,   0.00089,  -0.00101,   0.00044,  -4.62786,   1.00000
-3397113.88575,-477832882.89017,3566651.33160,   0.00181,  -0.00318,   0.00048,476183488.41336,   0.00142,276183498.19952,   0.00089,  -0.00101,   0.00044,  -9.78616,   1.00000
-6236637.46781,-479246292.80792,2942347.39935,   0.00180,  -0.00318,   0.00047,476185879.31149,   0.00142,276185888.14802,   0.00089,  -0.00101,   0.00044,  -8.83653,   1.00000
-9086542.73435,-480649558.29611,2318668.13929,   0.00179,  -0.00318,   0.00047,476188249.60642,   0.00143,276188251.40312,   0.00090,  -0.00101,   0.00044,  -1.79670,   1.00000
-11957841.61835,-482047928.19072,1695533.84668,   0.00178,  -0.00318,   0.00046,476190683.21047,   0.00143,276190686.58119,   0.00090,  -0.00101,   0.00044,  -3.37072,   1.00000
-14850372.53029,-483441095.29135,1066447.12174,   0.00177,  -0.00319,   0.00045,476193193.72252,   0.00143,276193194.71661,   0.00090,  -0.00102,   0.00044,  -0.99410,   1.00000
-17741154.47542,-484817826.99423,437987.41858,   0.00176,  -0.00319,   0.00044,476195780.61059,   0.00143,276195783.06860,   0.00090,  -0.00102,   0.00044,  -2.45801,   1.00000
-20642171.93909,-486183651.78331,-189810.28396,   0.00175,  -0.00319,   0.00043,476198345.30736,   0.00143,276198348.43799,   0.00090,  -0.00102,   0.00044,  -3.13063,   1.00000
-23541189.62443,-487532833.46412,-823455.80987,   0.00174,  -0.00320,   0.00043,476200989.78497,   0.00144,276200994.25888,   0.00090,  -0.00102,   0.00044,  -4.47391,   1.00000
-26483725.71198,-488886292.14240,-1449834.02869,   0.00173,  -0.00320,   0.00042,476203706.37262,   0.00144,276203712.63406,   0.00090,  -0.00103,   0.00044,  -6.26143,   1.00000
-29390658.34137,-490207353.08989,-2082054.52352,   0.00173,  -0.00320,   0.00041,476206413.06387,   0.00144,276206417.96620,   0.00090,  -0.00103,   0.00044,  -4.90233,   1.00000
-32340874.41574,-491532046.91327,-2713481.65299,   0.00172,  -0.00320,   0.00040,476209195.67795,   0.00144,276209198.50262,   0.00090,  -0.00103,   0.00044,  -2.82467,   1.00000
-35288440.13355,-492839217.55487,-3350597.18739,   0.00171,  -0.00321,   0.00039,476212054.28626,   0.00145,276212061.90680,   0.00091,  -0.00103,   0.00044,  -7.62053,   1.00000
-38256031.36210,-494139124.24366,-3980284.74275,   0.00170,  -0.00321,   0.00038,476214997.88380,   0.00145,276215005.02950,   0.00091,  -0.00103,   0.00044,  -7.14571,   1.00000
-41210625.92908,-495416707.40243,-4615756.85513,   0.00169,  -0.00321,   0.00038,476217925.62774,   0.00145,276217932.91218,   0.00091,  -0.00104,   0.00044,  -7.28444,   1.00000
-44207838.89858,-496696309.85472,-5250266.37600,   0.00168,  -0.00321,   0.00037,476220938.94207,   0.00146,276220942.33935,   0.00091,  -0.00104,   0.00044,  -3.39728,   1.00000
-47169083.28688,-497943772.84075,-5884004.76815,   0.00167,  -0.00322,   0.00036,476223935.32038,   0.00146,276223936.42893,   0.00091,  -0.00104,   0.00044,  -1.10855,   1.00000
-50172651.91480,-499192636.17548,-6516707.75387,   0.00166,  -0.00322,   0.00035,476227012.12612,   0.00146,276227014.42147,   0.00091,  -0.00105,   0.00044,  -2.29535,   1.00000
-53172550.31713,-500422862.22596,-7154856.21273,   0.00165,  -0.00322,   0.00034,476230172.52834,   0.00146,276230177.84893,   0.00091,  -0.00105,   0.00044,  -5.32058,   1.00000
-56168582.45639,-501634651.88114,-7791865.06970,   0.00164,  -0.00322,   0.00033,476233415.24897,   0.00147,276233425.01121,   0.00091,  -0.00105,   0.00043,  -9.76224,   1.00000
-59196977.15687,-502843009.72435,-8421493.24095,   0.00163,  -0.00323,   0.00033,476236656.52513,   0.00147,276236659.75779,   0.00091,  -0.00105,   0.00043,  -3.23266,   1.00000
-62221147.99254,-504032190.18497,-9056441.93622,   0.00161,  -0.00323,   0.00032,476239977.24182,   0.00147,276239981.06456,   0.00092,  -0.00106,   0.00043,  -3.82273,   1.00000
-65240884.90530,-505202083.52336,-9696651.97757,   0.00160,  -0.00323,   0.00031,476243385.73173,   0.00148,276243388.86377,   0.00092,  -0.00106,   0.00043,  -3.13204,   1.00000
-68269893.76066,-506358746.05156,-10329432.67901,   0.00159,  -0.00323,   0.00030,476246776.19663,   0.00148,276246783.78835,   0.00092,  -0.00106,   0.00043,  -7.59171,   1.00000
-71316978.60900,-507505193.42913,-10960855.39116,   0.00158,  -0.00324,   0.00029,476250267.00720,   0.00148,276250267.96368,   0.00092,  -0.00107,   0.00043,  -0.95648,   1.00000
-74359039.76183,-508631811.99043,-11597408.00028,   0.00157,  -0.00324,   0.00028,476253833.00086,   0.00149,276253839.73296,   0.00092,  -0.00107,   0.00043,  -6.73209,   1.00000
-77410081.92333,-509744238.59843,-12232996.86752,   0.00156,  -0.00324,   0.00027,476257393.57506,   0.00149,276257403.04627,   0.00092,  -0.00107,   0.00043,  -9.47122,   1.00000
-80478596.36342,-510846139.08302,-12860556.27792,   0.00155,  -0.00324,   0.00027,476261045.83611,   0.00149,276261055.48314,   0.00092,  -0.00107,   0.00043,  -9.64703,   1.00000
-83541469.63873,-511927706.60606,-13493110.43377,   0.00154,  -0.00324,   0.00026,476264793.01878,   0.00150,276264796.39459,   0.00092,  -0.00108,   0.00043,  -3.37581,   1.00000
-86590279.78302,-512986286.11390,-14124685.28595,   0.00153,  -0.00325,   0.00025,476268517.18086,   0.00150,276268523.31236,   0.00092,  -0.00108,   0.00043,  -6.13150,   1.00000
-89678634.67562,-514041369.73373,-14754553.08972,   0.00152,  -0.00325,   0.00024,476272348.15926,   0.00150,276272351.67413,   0.00093,  -0.00108,   0.00043,  -3.51487,   1.00000
-92730051.84997,-515065221.64923,-15383471.51260,   0.00151,  -0.00325,   0.00023,476276153.03136,   0.00151,276276158.05841,   0.00093,  -0.00109,   0.00043,  -5.02704,   1.00000
-95828386.87545,-516087143.21380,-16016400.01156,   0.00150,  -0.00325,   0.00022,476280165.35269,   0.00151,276280171.00802,   0.00093,  -0.00109,   0.00043,  -5.65533,   1.00000
-98912289.50164,-517086375.67065,-16641750.55895,   0.00149,  -0.00325,   0.00022,476284166.45526,   0.00151,276284167.66643,   0.00093,  -0.00109,   0.00043,  -1.21117,   1.00000
-101981738.11606,-518062427.16026,-17266050.58874,   0.00148,  -0.00326,   0.00021,476288143.96195,   0.00152,276288150.71888,   0.00093,  -0.00110,   0.00043,  -6.75693,   1.00000
-105096911.69487,-519035091.88887,-17894088.33452,   0.00147,  -0.00326,   0.00020,476292344.50396,   0.00152,276292344.56288,   0.00093,  -0.00110,   0.00043,  -0.05892,   1.00000
-108167417.83281,-519974962.19462,-18515397.37110,   0.00145,  -0.00326,   0.00019,476296401.84558,   0.00153,276296411.06034,   0.00093,  -0.00111,   0.00043,  -9.21477,   1.00000
-111282894.17666,-520910596.26029,-19140270.61641,   0.00144,  -0.00326,   0.00018,476300685.44067,   0.00153,276300690.73231,   0.00093,  -0.00111,   0.00043,  -5.29163,   1.00000
-114361032.92822,-521816359.87059,-19757611.40796,   0.00143,  -0.00326,   0.00017,476304934.88206,   0.00153,276304940.93380,   0.00094,  -0.00111,   0.00043,  -6.05174,   1.00000
-117476213.69182,-522714525.00361,-20379198.53532,   0.00142,  -0.00327,   0.00016,476309298.03312,   0.00154,276309307.49223,   0.00094,  -0.00112,   0.00043,  -9.45911,   1.00000
-120583327.23889,-523592344.40145,-20992204.89469,   0.00141,  -0.00327,   0.00016,476313754.70177,   0.00154,276313756.42140,   0.00094,  -0.00112,   0.00043,  -1.71963,   1.00000
-123675137.91665,-524445737.86688,-21610517.53119,   0.00140,  -0.00327,   0.00015,476318187.92573,   0.00155,276318196.74526,   0.00094,  -0.00112,   0.00043,  -8.81953,   1.00000
-126780967.69147,-525285596.21460,-22220038.13425,   0.00139,  -0.00327,   0.00014,476322732.44188,   0.00155,276322733.12198,   0.00094,  -0.00113,   0.00043,  -0.68010,   1.00000
-129893663.43615,-526107465.34035,-22834675.80830,   0.00138,  -0.00327,   0.00013,476327272.06340,   0.00155,276327276.79436,   0.00094,  -0.00113,   0.00043,  -4.73096,   1.00000
-132997532.14216,-526908838.77164,-23440578.69258,   0.00136,  -0.00328,   0.00012,476331895.74014,   0.00156,276331902.04673,   0.00094,  -0.00114,   0.00043,  -6.30660,   1.00000
-136092014.13841,-527687703.89390,-24050668.43400,   0.00135,  -0.00328,   0.00011,476336614.85386,   0.00156,276336618.01193,   0.00094,  -0.00114,   0.00043,  -3.15807,   1.00000
-139193338.48016,-528450331.85461,-24652833.06364,   0.00134,  -0.00328,   0.00010,476341326.50537,   0.00157,276341332.54791,   0.00094,  -0.00115,   0.00042,  -6.04254,   1.00000
-142307002.74473,-529196247.39705,-25258892.37250,   0.00133,  -0.00328,   0.00010,476346149.75891,   0.00157,276346155.83585,   0.00095,  -0.00115,   0.00042,  -6.07694,   1.00000
-145410920.18274,-529921463.33068,-25856035.61519,   0.00132,  -0.00328,   0.00009,476351056.60912,   0.00158,276351059.88153,   0.00095,  -0.00115,   0.00042,  -3.27241,   1.00000
-148521013.22902,-530628854.73747,-26451648.52298,   0.00131,  -0.00328,   0.00008,476355966.50526,   0.00158,276355969.49135,   0.00095,  -0.00116,   0.00042,  -2.98609,   1.00000
-151620502.97040,-531313141.43301,-27051204.41186,   0.00130,  -0.00328,   0.00007,476360964.41874,   0.00159,276360970.47830,   0.00095,  -0.00116,   0.00042,  -6.05956,   1.00000
-154731600.71959,-531982206.73875,-27641472.70590,   0.00128,  -0.00329,   0.00006,476366068.46511,   0.00159,276366071.18445,   0.00095,  -0.00117,   0.00042,  -2.71934,   1.00000
-157826450.58879,-532627590.47266,-28230378.76013,   0.00127,  -0.00329,   0.00005,476371157.19051,   0.00160,276371158.78212,   0.00095,  -0.00117,   0.00042,  -1.59161,   1.00000
-160932143.90103,-533256211.63510,-28816363.08200,   0.00126,  -0.00329,   0.00004,476376348.22149,   0.00160,276376352.50716,   0.00095,  -0.00118,   0.00042,  -4.28567,   1.00000
-164021432.77401,-533861178.87998,-29400960.75006,   0.00125,  -0.00329,   0.00004,476381530.64652,   0.00161,276381533.01593,   0.00095,  -0.00118,   0.00042,  -2.36941,   1.00000
-167121336.12301,-534450390.30242,-29976086.89719,   0.00124,  -0.00329,   0.00003,476386812.07623,   0.00161,276386814.25485,   0.00095,  -0.00119,   0.00042,  -2.17862,   1.00000
-170209157.15082,-535016060.07858,-30554884.20779,   0.00122,  -0.00329,   0.00002,476392182.89003,   0.00162,276392186.53038,   0.00096,  -0.00119,   0.00042,  -3.64035,   1.00000
-173301938.39464,-535562849.55412,-31131918.42892,   0.00121,  -0.00329,   0.00001,476397561.65327,   0.00162,276397568.42641,   0.00096,  -0.00120,   0.00042,  -6.77314,   1.00000
-176382861.25909,-536088794.82449,-31699654.72475,   0.00120,  -0.00330,   0.00000,476403021.07694,   0.00163,276403028.44515,   0.00096,  -0.00120,   0.00041,  -7.36821,   1.00000
-179472862.62953,-536596965.66104,-32264136.65553,   0.00119,  -0.00330,  -0.00001,476408587.25882,   0.00163,276408596.71791,   0.00096,  -0.00121,   0.00041,  -9.45909,   1.00000
-182545846.70016,-537081555.65917,-32827153.87012,   0.00118,  -0.00330,  -0.00001,476414150.02658,   0.00164,276414151.25912,   0.00096,  -0.00121,   0.00041,  -1.23254,   1.00000
-185627343.65112,-537548047.60021,-33386805.94841,   0.00116,  -0.00330,  -0.00002,476419809.05836,   0.00164,276419814.87822,   0.00096,  -0.00122,   0.00041,  -5.81985,   1.00000
-188691657.96693,-537990995.05404,-33944969.31200,   0.00115,  -0.00330,  -0.00003,476425463.78452,   0.00165,276425464.71590,   0.00096,  -0.00122,   0.00041,  -0.93137,   1.00000
-191763916.39992,-538415550.10751,-34499657.41259,   0.00114,  -0.00330,  -0.00004,476431221.45399,   0.00165,276431224.35321,   0.00096,  -0.00123,   0.00041,  -2.89922,   1.00000
-194822984.12439,-538819294.01363,-35044830.28356,   0.00113,  -0.00330,  -0.00005,476437051.84395,   0.00166,276437060.30030,   0.00096,  -0.00123,   0.00041,  -8.45635,   1.00000
-197864188.67925,-539198100.23452,-35594906.18083,   0.00112,  -0.00330,  -0.00006,476442888.34653,   0.00166,276442888.85961,   0.00096,  -0.00124,   0.00041,  -0.51308,   1.00000
-200912956.06781,-539559836.91752,-36134942.43846,   0.00110,  -0.00330,  -0.00007,476448815.62965,   0.00167,276448820.42239,   0.00096,  -0.00124,   0.00040,  -4.79274,   1.00000
-203968385.87650,-539902624.97039,-36671283.33901,   0.00109,  -0.00331,  -0.00007,476454855.16099,   0.00167,276454862.82790,   0.00097,  -0.00125,   0.00040,  -7.66692,   1.00000
-207006522.26145,-540223707.93826,-37199675.16124,   0.00108,  -0.00331,  -0.00008,476460881.23807,   0.00168,276460883.40958,   0.00097,  -0.00125,   0.00040,  -2.17151,   1.00000
-210029465.34172,-540520851.57736,-37731205.44849,   0.00107,  -0.00331,  -0.00009,476466990.91604,   0.00169,276466993.29460,   0.00097,  -0.00126,   0.00040,  -2.37856,   1.00000
-213055831.91287,-540799569.25924,-38254248.22886,   0.00105,  -0.00331,  -0.00010,476473107.34089,   0.00169,276473110.39923,   0.00097,  -0.00126,   0.00040,  -3.05834,   1.00000
-216087699.46063,-541058864.99511,-38773401.09560,   0.00104,  -0.00331,  -0.00011,476479331.90850,   0.00170,276479339.48608,   0.00097,  -0.00127,   0.00040,  -7.57758,   1.00000
-219101447.09333,-541294919.39349,-39290976.60401,   0.00103,  -0.00331,  -0.00011,476485546.75216,   0.00170,276485554.03728,   0.00097,  -0.00127,   0.00040,  -7.28512,   1.00000
-222099675.90136,-541508813.18265,-39805160.83392,   0.00102,  -0.00331,  -0.00012,476491848.16891,   0.00171,276491849.50364,   0.00097,  -0.00128,   0.00039,  -1.33473,   1.00000
-225103148.45193,-541704898.39842,-40308930.28774,   0.00100,  -0.00331,  -0.00013,476498243.24264,   0.00171,276498249.28701,   0.00097,  -0.00129,   0.00039,  -6.04436,   1.00000
-228088298.76562,-541878008.37788,-40811121.33873,   0.00099,  -0.00331,  -0.00014,476504625.16405,   0.00172,276504633.73920,   0.00097,  -0.00129,   0.00039,  -8.57515,   1.00000
-231057340.41815,-542029185.79332,-41309847.42720,   0.00098,  -0.00331,  -0.00015,476511092.41847,   0.00173,276511097.79752,   0.00097,  -0.00130,   0.00039,  -5.37906,   1.00000
-234050901.21566,-542164468.36429,-41797360.20175,   0.00096,  -0.00331,  -0.00016,476517691.85239,   0.00173,276517699.66556,   0.00097,  -0.00130,   0.00039,  -7.81316,   1.00000
-237005781.91908,-542274943.82906,-42283972.62803,   0.00095,  -0.00331,  -0.00016,476524250.49957,   0.00174,276524252.18942,   0.00097,  -0.00131,   0.00039,  -1.68986,   1.00000
-239963853.93239,-542365455.89723,-42766329.25194,   0.00094,  -0.00331,  -0.00017,476530912.59734,   0.00175,276530917.66838,   0.00097,  -0.00132,   0.00038,  -5.07104,   1.00000
-242903254.52708,-542433357.04612,-43247093.89699,   0.00093,  -0.00332,  -0.00018,476537557.27878,   0.00175,276537567.07575,   0.00097,  -0.00132,   0.00038,  -9.79698,   1.00000
-245846008.95254,-542483150.94822,-43717165.98904,   0.00091,  -0.00332,  -0.00019,476544314.20627,   0.00176,276544321.24354,   0.00097,  -0.00133,   0.00038,  -7.03727,   1.00000
-248789549.51385,-542511801.44550,-44184873.09145,   0.00090,  -0.00332,  -0.00020,476551085.40186,   0.00176,276551095.17158,   0.00097,  -0.00133,   0.00038,  -9.76972,   1.00000
-251695908.29819,-542517513.02133,-44649725.83862,   0.00089,  -0.00332,  -0.00020,476557906.27553,   0.00177,276557910.85081,   0.00097,  -0.00134,   0.00038,  -4.57529,   1.00000
-254604831.66390,-542505096.83489,-45103780.70989,   0.00087,  -0.00332,  -0.00021,476564827.32673,   0.00178,276564831.19523,   0.00097,  -0.00135,   0.00037,  -3.86850,   1.00000
-257514075.75031,-542471470.98239,-45555421.86210,   0.00086,  -0.00332,  -0.00022,476571763.69513,   0.00178,276571771.97294,   0.00097,  -0.00135,   0.00037,  -8.27780,   1.00000
-260405082.57421,-542416445.44672,-46003352.67334,   0.00085,  -0.00332,  -0.00023,476578779.87478,   0.00179,276578789.67072,   0.00098,  -0.00136,   0.00037,  -9.79594,   1.00000
-263278584.46554,-542342363.47330,-46441245.68236,   0.00083,  -0.00332,  -0.00024,476585868.87006,   0.00180,276585874.36124,   0.00098,  -0.00136,   0.00037,  -5.49118,   1.00000
-266151945.62095,-542247025.21027,-46876679.93386,   0.00082,  -0.00332,  -0.00024,476592974.25076,   0.00180,276592980.16262,   0.00098,  -0.00137,   0.00037,  -5.91186,   1.00000
-269024937.61265,-542130231.95959,-47309619.10070,   0.00081,  -0.00332,  -0.00025,476600098.41538,   0.00181,276600108.12340,   0.00098,  -0.00138,   0.00036,  -9.70802,   1.00000
-271861112.15926,-541994209.56143,-47733424.83010,   0.00080,  -0.00332,  -0.00026,476607258.07038,   0.00182,276607262.98723,   0.00098,  -0.00138,   0.00036,  -4.91685,   1.00000
-274697039.82237,-541837785.21941,-48152512.56497,   0.00078,  -0.00332,  -0.00027,476614526.54523,   0.00182,276614532.17152,   0.00098,  -0.00139,   0.00036,  -5.62630,   1.00000
-277532136.92965,-541659884.74389,-48569063.89021,   0.00077,  -0.00332,  -0.00027,476621814.82700,   0.00183,276621824.20035,   0.00098,  -0.00140,   0.00036,  -9.37336,   1.00000
-280348742.12230,-541463549.05358,-48975508.80493,   0.00076,  -0.00332,  -0.00028,476629173.12006,   0.00184,276629181.29447,   0.00098,  -0.00140,   0.00035,  -8.17441,   1.00000
-283146771.93617,-541249041.06603,-49371868.78546,   0.00074,  -0.00332,  -0.00029,476636595.74510,   0.00184,276636602.45079,   0.00097,  -0.00141,   0.00035,  -6.70569,   1.00000
-285942490.01634,-541010790.95022,-49771960.05498,   0.00073,  -0.00332,  -0.00030,476644054.67231,   0.00185,276644056.60182,   0.00097,  -0.00142,   0.00035,  -1.92951,   1.00000
-288720745.66233,-540755885.36930,-50157981.18178,   0.00072,  -0.00332,  -0.00030,476651469.44169,   0.00186,276651473.55824,   0.00097,  -0.00142,   0.00035,  -4.11655,   1.00000
-291495458.30731,-540479159.65402,-50543035.85432,   0.00070,  -0.00332,  -0.00031,476659101.77539,   0.00187,276659106.36287,   0.00097,  -0.00143,   0.00034,  -4.58748,   1.00000
-294252064.68482,-540182647.08030,-50922672.22868,   0.00069,  -0.00332,  -0.00032,476666619.56592,   0.00187,276666620.59393,   0.00097,  -0.00144,   0.00034,  -1.02801,   1.00000
-296988801.01479,-539869746.82906,-51289846.98990,   0.00067,  -0.00332,  -0.00033,476674278.58790,   0.00188,276674287.45261,   0.00097,  -0.00144,   0.00034,  -8.86471,   1.00000
-299723510.36781,-539535369.66917,-51654430.10498,   0.00066,  -0.00332,  -0.00033,476681972.88635,   0.00189,276681979.04883,   0.00097,  -0.00145,   0.00034,  -6.16248,   1.00000
-302438431.57956,-539180270.97915,-52017573.79599,   0.00065,  -0.00332,  -0.00034,476689645.33200,   0.00189,276689652.15010,   0.00097,  -0.00146,   0.00033,  -6.81811,   1.00000
-305151222.77176,-538807165.07617,-52369417.66150,   0.00063,  -0.00332,  -0.00035,476697422.22290,   0.00190,276697430.86389,   0.00097,  -0.00146,   0.00033,  -8.64099,   1.00000
-307825720.37814,-538415924.12320,-52718653.30395,   0.00062,  -0.00332,  -0.00036,476705234.90730,   0.00191,276705235.13449,   0.00097,  -0.00147,   0.00033,  -0.22719,   1.00000
-310516134.68200,-538004449.25320,-53057770.03735,   0.00061,  -0.00332,  -0.00036,476713096.28987,   0.00192,276713100.65134,   0.00097,  -0.00148,   0.00033,  -4.36147,   1.00000
-313185207.43125,-537573916.97873,-53393044.14163,   0.00059,  -0.00332,  -0.00037,476721032.84743,   0.00192,276721036.39660,   0.00097,  -0.00148,   0.00032,  -3.54917,   1.00000
-315835634.31766,-537125703.19293,-53720721.72460,   0.00058,  -0.00332,  -0.00038,476728937.22420,   0.00193,276728942.84555,   0.00097,  -0.00149,   0.00032,  -5.62135,   1.00000
-318464676.98904,-536658916.42354,-54044592.07735,   0.00056,  -0.00332,  -0.00039,476736917.37994,   0.00194,276736918.26838,   0.00097,  -0.00150,   0.00032,  -0.88844,   1.00000
-321091931.45085,-536173156.48244,-54359591.04753,   0.00055,  -0.00332,  -0.00039,476744903.67984,   0.00195,276744910.78531,   0.00097,  -0.00150,   0.00031,  -7.10547,   1.00000
-323714035.65139,-535667291.18792,-54669424.61014,   0.00054,  -0.00332,  -0.00040,476753018.96373,   0.00195,276753019.29656,   0.00097,  -0.00151,   0.00031,  -0.33283,   1.00000
-326299131.38986,-535147594.42038,-54970604.25056,   0.00052,  -0.00331,  -0.00041,476761132.78031,   0.00196,276761137.98225,   0.00096,  -0.00152,   0.00031,  -5.20194,   1.00000
-328896981.67852,-534604540.37292,-55267744.27350,   0.00051,  -0.00331,  -0.00041,476769325.87525,   0.00197,276769332.97353,   0.00096,  -0.00152,   0.00031,  -7.09828,   1.00000
-331457860.14548,-534048185.45411,-55556295.97287,   0.00050,  -0.00331,  -0.00042,476777531.70690,   0.00198,276777536.74100,   0.00096,  -0.00153,   0.00030,  -5.03410,   1.00000
-334014908.42169,-533470467.43748,-55842210.66235,   0.00048,  -0.00331,  -0.00043,476785766.17185,   0.00198,276785769.35557,   0.00096,  -0.00154,   0.00030,  -3.18372,   1.00000
-336551156.76437,-532877849.48993,-56118157.47466,   0.00047,  -0.00331,  -0.00043,476794053.79215,   0.00199,276794058.22368,   0.00096,  -0.00154,   0.00030,  -4.43153,   1.00000
-339084750.32173,-532266440.20680,-56385266.10102,   0.00045,  -0.00331,  -0.00044,476802362.60830,   0.00200,276802366.08023,   0.00096,  -0.00155,   0.00029,  -3.47193,   1.00000
-341595845.57801,-531637881.22114,-56648658.53139,   0.00044,  -0.00331,  -0.00045,476810736.48633,   0.00201,276810740.17674,   0.00096,  -0.00156,   0.00029,  -3.69041,   1.00000
-344086990.82089,-530990545.87597,-56910944.13439,   0.00042,  -0.00331,  -0.00045,476819090.07907,   0.00202,276819094.27452,   0.00096,  -0.00157,   0.00029,  -4.19546,   1.00000
-346572546.96988,-530326471.09156,-57161786.09720,   0.00041,  -0.00331,  -0.00046,476827547.24464,   0.00202,276827553.82324,   0.00095,  -0.00157,   0.00028,  -6.57860,   1.00000
-349036916.16631,-529648461.03232,-57402765.29338,   0.00040,  -0.00331,  -0.00047,476836059.89881,   0.00203,276836067.69027,   0.00095,  -0.00158,   0.00028,  -7.79147,   1.00000
-351498062.89148,-528951859.73666,-57634953.07907,   0.00038,  -0.00331,  -0.00047,476844594.73117,   0.00204,276844601.85591,   0.00095,  -0.00159,   0.00028,  -7.12474,   1.00000
-353934622.27133,-528236413.41252,-57869698.50987,   0.00037,  -0.00331,  -0.00048,476853201.58621,   0.00205,276853211.44429,   0.00095,  -0.00159,   0.00027,  -9.85808,   1.00000
-356354492.26864,-527508078.31137,-58091096.03241,   0.00035,  -0.00331,  -0.00049,476861772.15654,   0.00206,276861779.11648,   0.00095,  -0.00160,   0.00027,  -6.95994,   1.00000
-358766135.54803,-526760909.73778,-58307270.14589,   0.00034,  -0.00330,  -0.00049,476870457.62456,   0.00206,276870462.93865,   0.00094,  -0.00161,   0.00026,  -5.31409,   1.00000
-361159469.36666,-525998425.25358,-58516352.49726,   0.00032,  -0.00330,  -0.00050,476879108.43203,   0.00207,276879115.72262,   0.00094,  -0.00161,   0.00026,  -7.29059,   1.00000
-363544108.94457,-525217281.15133,-58720205.65452,   0.00031,  -0.00330,  -0.00051,476887880.68703,   0.00208,276887884.94213,   0.00094,  -0.00162,   0.00026,  -4.25509,   1.00000
-365892803.33048,-524426914.15951,-58916083.90422,   0.00030,  -0.00330,  -0.00051,476896648.01501,   0.00209,276896652.62701,   0.00094,  -0.00163,   0.00025,  -4.61199,   1.00000
-368251894.82926,-523614950.75342,-59101527.35270,   0.00028,  -0.00330,  -0.00052,476905492.23954,   0.00210,276905496.23965,   0.00094,  -0.00164,   0.00025,  -4.00011,   1.00000
-370576943.56269,-522788955.46194,-59287934.47860,   0.00027,  -0.00330,  -0.00052,476914255.74630,   0.00210,276914265.67466,   0.00093,  -0.00164,   0.00025,  -9.92836,   1.00000
-372894431.76821,-521947504.57036,-59462980.25146,   0.00025,  -0.00330,  -0.00053,476923132.90773,   0.00211,276923140.50326,   0.00093,  -0.00165,   0.00024,  -7.59554,   1.00000
-375202211.92393,-521087994.73252,-59632832.50262,   0.00024,  -0.00330,  -0.00054,476932127.23949,   0.00212,276932131.95151,   0.00093,  -0.00166,   0.00024,  -4.71202,   1.00000
-377478254.42509,-520217788.22477,-59797632.05586,   0.00022,  -0.00329,  -0.00054,476941031.49947,   0.00213,276941037.04739,   0.00093,  -0.00166,   0.00024,  -5.54792,   1.00000
-379746253.57633,-519332556.01695,-59951119.49400,   0.00021,  -0.00329,  -0.00055,476950037.76334,   0.00214,276950047.40901,   0.00092,  -0.00167,   0.00023,  -9.64567,   1.00000
-382009770.82020,-518429344.83150,-60095995.06664,   0.00019,  -0.00329,  -0.00055,476959077.12100,   0.00215,276959082.09964,   0.00092,  -0.00168,   0.00023,  -4.97864,   1.00000
-384249533.00753,-517512462.77148,-60237600.21702,   0.00018,  -0.00329,  -0.00056,476968170.88199,   0.00216,276968177.64644,   0.00092,  -0.00169,   0.00022,  -6.76446,   1.00000
-386471506.44466,-516581695.40373,-60372502.65163,   0.00016,  -0.00329,  -0.00057,476977236.90407,   0.00216,276977241.86021,   0.00092,  -0.00169,   0.00022,  -4.95613,   1.00000
-388669855.70153,-515637773.29373,-60504207.48438,   0.00015,  -0.00329,  -0.00057,476986360.81965,   0.00217,276986366.06070,   0.00091,  -0.00170,   0.00022,  -5.24105,   1.00000
-390859343.50570,-514679522.82451,-60624679.87450,   0.00014,  -0.00329,  -0.00058,476995589.75237,   0.00218,276995595.70020,   0.00091,  -0.00171,   0.00021,  -5.94783,   1.00000
-393043873.49246,-513703578.53941,-60736628.00003,   0.00012,  -0.00328,  -0.00058,477004845.57343,   0.00219,277004851.35188,   0.00091,  -0.00171,   0.00021,  -5.77845,   1.00000
-395193898.62519,-512721986.88413,-60841299.18151,   0.00011,  -0.00328,  -0.00059,477014091.50640,   0.00220,277014097.52052,   0.00090,  -0.00172,   0.00020,  -6.01412,   1.00000
-397349416.34440,-511715878.14972,-60941681.45982,   0.00009,  -0.00328,  -0.00059,477023436.23796,   0.00221,277023439.21091,   0.00090,  -0.00173,   0.00020,  -2.97294,   1.00000
-399475024.51698,-510700882.20574,-61037556.58205,   0.00008,  -0.00328,  -0.00060,477032691.54126,   0.00222,277032691.93150,   0.00090,  -0.00173,   0.00020,  -0.39024,   1.00000
-401586565.60015,-509675994.32048,-61119636.75407,   0.00006,  -0.00328,  -0.00060,477042122.58452,   0.00223,277042129.07102,   0.00089,  -0.00174,   0.00019,  -6.48650,   1.00000
-403683257.15772,-508631660.40583,-61204153.33875,   0.00005,  -0.00328,  -0.00061,477051462.49459,   0.00223,277051467.90746,   0.00089,  -0.00175,   0.00019,  -5.41287,   1.00000
-405765433.48888,-507577887.83417,-61274911.77033,   0.00003,  -0.00327,  -0.00061,477060983.50588,   0.00224,277060990.92954,   0.00089,  -0.00176,   0.00018,  -7.42366,   1.00000
-407830315.50668,-506511447.95664,-61339363.93774,   0.00002,  -0.00327,  -0.00062,477070479.31555,   0.00225,277070482.87237,   0.00088,  -0.00176,   0.00018,  -3.55682,   1.00000
-409878053.54955,-505432417.44378,-61397550.88666,   0.00000,  -0.00327,  -0.00062,477079940.56192,   0.00226,277079943.89967,   0.00088,  -0.00177,   0.00017,  -3.33775,   1.00000
-411913418.96408,-504337789.40119,-61450897.94416,  -0.00001,  -0.00327,  -0.00063,477089515.67830,   0.00227,277089522.37748,   0.00088,  -0.00178,   0.00017,  -6.69918,   1.00000
-413931699.36189,-503230767.77139,-61498039.55759,  -0.00003,  -0.00327,  -0.00063,477099064.24336,   0.00228,277099070.33195,   0.00087,  -0.00178,   0.00017,  -6.08859,   1.00000
-415923409.09899,-502120397.71481,-61533719.82071,  -0.00004,  -0.00326,  -0.00064,477108734.42753,   0.00229,277108740.45603,   0.00087,  -0.00179,   0.00016,  -6.02850,   1.00000
-417914249.92773,-500988575.39886,-61563845.62828,  -0.00006,  -0.00326,  -0.00064,477118360.08300,   0.00230,277118364.32901,   0.00086,  -0.00180,   0.00016,  -4.24601,   1.00000
-419881168.91724,-499846643.96594,-61591383.29664,  -0.00008,  -0.00326,  -0.00065,477128039.24809,   0.00231,277128045.01337,   0.00086,  -0.00180,   0.00015,  -5.76528,   1.00000
-421837177.07372,-498692600.53210,-61608098.75784,  -0.00009,  -0.00326,  -0.00065,477137829.61389,   0.00232,277137832.34533,   0.00086,  -0.00181,   0.00015,  -2.73145,   1.00000
-423765779.04638,-497531696.32054,-61620991.72405,  -0.00011,  -0.00326,  -0.00066,477147521.53396,   0.00232,277147527.73277,   0.00085,  -0.00182,   0.00014,  -6.19881,   1.00000
-425693914.30572,-496354015.82485,-61620979.07224,  -0.00012,  -0.00325,  -0.00066,477157383.89970,   0.00233,277157391.66925,   0.00085,  -0.00182,   0.00014,  -7.76955,   1.00000
-427594982.76483,-495169718.15105,-61617262.70200,  -0.00014,  -0.00325,  -0.00067,477167154.30721,   0.00234,277167163.42556,   0.00084,  -0.00183,   0.00013,  -9.11835,   1.00000
-429492846.23753,-493966259.75964,-61606822.71961,  -0.00015,  -0.00325,  -0.00067,477177113.57260,   0.00235,277177115.68113,   0.00084,  -0.00184,   0.00013,  -2.10853,   1.00000
-431358832.76512,-492761711.84746,-61590166.31316,  -0.00017,  -0.00325,  -0.00068,477187045.26937,   0.00236,277187049.66749,   0.00083,  -0.00185,   0.00013,  -4.39812,   1.00000
-433218536.26204,-491540742.75489,-61565533.16266,  -0.00018,  -0.00324,  -0.00068,477197009.08580,   0.00237,277197016.72465,   0.00083,  -0.00185,   0.00012,  -7.63885,   1.00000
-435059679.17692,-490305931.18717,-61541293.47033,  -0.00020,  -0.00324,  -0.00068,477206959.17810,   0.00238,277206965.48674,   0.00082,  -0.00186,   0.00012,  -6.30864,   1.00000
-436881631.76467,-489068078.52045,-61502637.53018,  -0.00021,  -0.00324,  -0.00069,477216940.90060,   0.00239,277216947.18976,   0.00082,  -0.00187,   0.00011,  -6.28916,   1.00000
-438689607.69556,-487817060.03490,-61459666.64580,  -0.00023,  -0.00324,  -0.00069,477227045.69199,   0.00240,277227047.14270,   0.00082,  -0.00187,   0.00011,  -1.45071,   1.00000
-440490908.10046,-486549807.97429,-61408830.48229,  -0.00025,  -0.00323,  -0.00070,477237176.24667,   0.00241,277237182.20318,   0.00081,  -0.00188,   0.00010,  -5.95651,   1.00000
-442261422.93881,-485282835.18453,-61352153.00114,  -0.00026,  -0.00323,  -0.00070,477247293.50907,   0.00242,277247296.48949,   0.00081,  -0.00189,   0.00010,  -2.98042,   1.00000
-444025328.60945,-483999792.18124,-61287694.03766,  -0.00028,  -0.00323,  -0.00070,477257445.02249,   0.00243,277257446.33590,   0.00080,  -0.00189,   0.00009,  -1.31341,   1.00000
-445774730.29173,-482704239.51095,-61219077.61151,  -0.00029,  -0.00323,  -0.00071,477267710.22210,   0.00244,277267715.26891,   0.00079,  -0.00190,   0.00009,  -5.04680,   1.00000
-447505109.63037,-481406793.51950,-61136382.21198,  -0.00031,  -0.00322,  -0.00071,477278006.79602,   0.00245,277278016.35910,   0.00079,  -0.00191,   0.00008,  -9.56309,   1.00000
-449222848.63157,-480090022.41155,-61056959.20090,  -0.00032,  -0.00322,  -0.00072,477288221.81681,   0.00246,277288228.93718,   0.00078,  -0.00191,   0.00008,  -7.12036,   1.00000
-450914069.06548,-478775589.73453,-60967185.42522,  -0.00034,  -0.00322,  -0.00072,477298550.97877,   0.00247,277298555.31588,   0.00078,  -0.00192,   0.00007,  -4.33711,   1.00000
-452598374.55954,-477445428.29524,-60869809.00401,  -0.00036,  -0.00322,  -0.00072,477308916.54275,   0.00248,277308919.31452,   0.00077,  -0.00193,   0.00007,  -2.77177,   1.00000
-454267750.51559,-476103714.45616,-60768520.93422,  -0.00037,  -0.00321,  -0.00073,477319402.61101,   0.00249,277319402.85483,   0.00077,  -0.00193,   0.00006,  -0.24381,   1.00000
-455915603.02198,-474759719.24456,-60658201.99811,  -0.00039,  -0.00321,  -0.00073,477329777.84240,   0.00250,277329781.93534,   0.00076,  -0.00194,   0.00006,  -4.09295,   1.00000
-457548543.22746,-473404555.20109,-60544082.26019,  -0.00040,  -0.00321,  -0.00073,477340272.12817,   0.00251,277340280.49471,   0.00076,  -0.00194,   0.00005,  -8.36654,   1.00000
-459176565.81009,-472036303.45403,-60416356.45181,  -0.00042,  -0.00320,  -0.00074,477350803.90706,   0.00252,277350807.97898,   0.00075,  -0.00195,   0.00005,  -4.07192,   1.00000
-460781334.29018,-470662676.09337,-60287284.05587,  -0.00043,  -0.00320,  -0.00074,477361379.52627,   0.00253,277361388.66200,   0.00074,  -0.00196,   0.00005,  -9.13573,   1.00000
-462370913.04556,-469279154.76895,-60153169.53487,  -0.00045,  -0.00320,  -0.00074,477371937.25936,   0.00254,277371942.74057,   0.00074,  -0.00196,   0.00004,  -5.48122,   1.00000
-463947527.18556,-467887555.38101,-60009308.26238,  -0.00047,  -0.00319,  -0.00074,477382602.71661,   0.00255,277382606.49908,   0.00073,  -0.00197,   0.00004,  -3.78247,   1.00000
-465501139.18065,-466491246.39369,-59864270.46692,  -0.00048,  -0.00319,  -0.00075,477393317.46681,   0.00256,277393322.93502,   0.00073,  -0.00198,   0.00003,  -5.46821,   1.00000
-467042197.18393,-465087662.17584,-59708171.70592,  -0.00050,  -0.00319,  -0.00075,477404002.01321,   0.00257,277404002.61687,   0.00072,  -0.00198,   0.00003,  -0.60366,   1.00000
-468567806.44460,-463674218.33903,-59548655.00312,  -0.00052,  -0.00319,  -0.00075,477414794.00477,   0.00258,277414802.81425,   0.00071,  -0.00199,   0.00002,  -8.80948,   1.00000
-470080949.18014,-462253582.40276,-59378166.36660,  -0.00053,  -0.00318,  -0.00076,477425565.26819,   0.00259,277425566.88723,   0.00071,  -0.00200,   0.00002,  -1.61903,   1.00000
-471578466.75442,-460823440.09226,-59204380.70542,  -0.00055,  -0.00318,  -0.00076,477436443.94395,   0.00260,277436451.88941,   0.00070,  -0.00200,   0.00001,  -7.94545,   1.00000
-473054307.18736,-459389422.69820,-59028225.43318,  -0.00056,  -0.00318,  -0.00076,477447241.42587,   0.00261,277447243.04024,   0.00069,  -0.00201,   0.00001,  -1.61437,   1.00000
-474523768.03809,-457943051.72116,-58840337.59277,  -0.00058,  -0.00317,  -0.00076,477458206.11574,   0.00262,277458213.95887,   0.00069,  -0.00201,   0.00000,  -7.84313,   1.00000
-475978541.50227,-456487368.53424,-58647801.98694,  -0.00060,  -0.00317,  -0.00077,477469152.66487,   0.00263,277469160.62000,   0.00068,  -0.00202,  -0.00000,  -7.95513,   1.00000
-477413195.03656,-455030700.02726,-58448402.33545,  -0.00061,  -0.00317,  -0.00077,477480139.51292,   0.00264,277480149.16783,   0.00067,  -0.00203,  -0.00001,  -9.65491,   1.00000
-478825572.40467,-453571062.79866,-58248373.95887,  -0.00063,  -0.00316,  -0.00077,477491186.54983,   0.00265,277491189.43322,   0.00067,  -0.00203,  -0.00001,  -2.88340,   1.00000
-480232459.09181,-452099045.48828,-58035276.25138,  -0.00065,  -0.00316,  -0.00077,477502256.74609,   0.00266,277502265.43923,   0.00066,  -0.00204,  -0.00002,  -8.69314,   1.00000
-481617154.98417,-450624405.45944,-57821677.65833,  -0.00066,  -0.00315,  -0.00077,477513386.06219,   0.00267,277513393.18667,   0.00065,  -0.00204,  -0.00002,  -7.12448,   1.00000
-482990724.86980,-449146248.80852,-57592927.20995,  -0.00068,  -0.00315,  -0.00078,477524613.64653,   0.00268,277524622.33996,   0.00064,  -0.00205,  -0.00003,  -8.69343,   1.00000
-484347782.31348,-447657028.46116,-57365997.20341,  -0.00069,  -0.00315,  -0.00078,477535834.56729,   0.00269,277535838.39255,   0.00064,  -0.00206,  -0.00003,  -3.82526,   1.00000
-485696682.20666,-446153442.07886,-57132339.47522,  -0.00071,  -0.00314,  -0.00078,477547094.06960,   0.00270,277547102.70363,   0.00063,  -0.00206,  -0.00004,  -8.63403,   1.00000
-487025973.34538,-444650079.98235,-56892233.01403,  -0.00073,  -0.00314,  -0.00078,477558407.81185,   0.00271,277558408.84709,   0.00062,  -0.00207,  -0.00004,  -1.03524,   1.00000
-488335840.88037,-443147128.87048,-56645751.81010,  -0.00074,  -0.00314,  -0.00078,477569753.12324,   0.00272,277569756.47613,   0.00061,  -0.00207,  -0.00005,  -3.35289,   1.00000
-489637499.16337,-441630037.20325,-56392699.86182,  -0.00076,  -0.00313,  -0.00079,477581148.25504,   0.00274,277581153.50327,   0.00061,  -0.00208,  -0.00005,  -5.24824,   1.00000
-490919845.38654,-440113666.34925,-56133398.75358,  -0.00078,  -0.00313,  -0.00079,477592583.93732,   0.00275,277592592.14319,   0.00060,  -0.00208,  -0.00006,  -8.20587,   1.00000
-492180759.81560,-438596186.33331,-55874108.34768,  -0.00079,  -0.00313,  -0.00079,477604081.54452,   0.00276,277604081.81510,   0.00059,  -0.00209,  -0.00006,  -0.27058,   1.00000
-493435763.49026,-437066826.45983,-55602180.32712,  -0.00081,  -0.00312,  -0.00079,477615606.57479,   0.00277,277615612.40894,   0.00058,  -0.00210,  -0.00007,  -5.83415,   1.00000
-494679948.10042,-435521548.96590,-55330061.19500,  -0.00083,  -0.00312,  -0.00079,477627198.18155,   0.00278,277627204.47840,   0.00057,  -0.00210,  -0.00007,  -6.29685,   1.00000
-495897029.27814,-433994842.79177,-55046060.36033,  -0.00084,  -0.00311,  -0.00079,477638817.76699,   0.00279,277638818.05798,   0.00057,  -0.00211,  -0.00008,  -0.29099,   1.00000
-497108765.12744,-432442425.23939,-54763964.20803,  -0.00086,  -0.00311,  -0.00079,477650427.44807,   0.00280,277650431.80834,   0.00056,  -0.00211,  -0.00008,  -4.36027,   1.00000
-498303634.16008,-430898445.19844,-54465475.62818,  -0.00088,  -0.00311,  -0.00079,477662207.84302,   0.00281,277662211.85842,   0.00055,  -0.00212,  -0.00009,  -4.01539,   1.00000
-499482806.05664,-429344189.02210,-54169357.49924,  -0.00090,  -0.00310,  -0.00080,477673972.25726,   0.00282,277673981.80327,   0.00054,  -0.00212,  -0.00009,  -9.54601,   1.00000
-500643477.98330,-427791961.64805,-53867478.70970,  -0.00091,  -0.00310,  -0.00080,477685790.82148,   0.00283,277685793.19902,   0.00053,  -0.00213,  -0.00010,  -2.37754,   1.00000
-501795597.90339,-426226267.74126,-53559501.32677,  -0.00093,  -0.00309,  -0.00080,477697654.45481,   0.00285,277697658.92440,   0.00052,  -0.00213,  -0.00010,  -4.46959,   1.00000
-502929327.86551,-424662873.09807,-53245885.60550,  -0.00095,  -0.00309,  -0.00080,477709560.59122,   0.00286,277709566.39717,   0.00051,  -0.00214,  -0.00011,  -5.80595,   1.00000
-504054392.56672,-423086135.61575,-52926272.43222,  -0.00096,  -0.00309,  -0.00080,477721524.18076,   0.00287,277721529.34325,   0.00050,  -0.00214,  -0.00011,  -5.16249,   1.00000
-505161192.98508,-421511974.78723,-52601144.75746,  -0.00098,  -0.00308,  -0.00080,477733529.31892,   0.00288,277733534.30346,   0.00050,  -0.00215,  -0.00012,  -4.98454,   1.00000
-506247689.34169,-419938755.51380,-52276795.74786,  -0.00100,  -0.00308,  -0.00080,477745587.96852,   0.00289,277745590.13100,   0.00049,  -0.00215,  -0.00012,  -2.16249,   1.00000
-507327779.02281,-418354222.07906,-51940348.99156,  -0.00101,  -0.00307,  -0.00080,477757691.43731,   0.00290,277757693.63296,   0.00048,  -0.00216,  -0.00013,  -2.19565,   1.00000
-508393946.05110,-416767695.41532,-51596337.21648,  -0.00103,  -0.00307,  -0.00080,477769912.30807,   0.00291,277769913.65344,   0.00047,  -0.00216,  -0.00013,  -1.34537,   1.00000
-509436114.34535,-415187603.70721,-51255565.93865,  -0.00105,  -0.00306,  -0.00080,477782105.60206,   0.00293,277782109.84731,   0.00046,  -0.00217,  -0.00013,  -4.24525,   1.00000
-510471830.24312,-413596339.58350,-50902849.30350,  -0.00107,  -0.00306,  -0.00080,477794350.47019,   0.00294,277794355.17807,   0.00045,  -0.00217,  -0.00014,  -4.70788,   1.00000
-511491495.86484,-412001902.72989,-50549029.66975,  -0.00108,  -0.00306,  -0.00080,477806720.20210,   0.00295,277806726.47106,   0.00044,  -0.00218,  -0.00014,  -6.26896,   1.00000
-512500781.56893,-410401274.38152,-50185586.61353,  -0.00110,  -0.00305,  -0.00080,477819068.84987,   0.00296,277819073.22529,   0.00043,  -0.00218,  -0.00015,  -4.37542,   1.00000
-513490451.79933,-408802676.89604,-49823385.40908,  -0.00112,  -0.00305,  -0.00080,477831466.80727,   0.00297,277831470.98320,   0.00042,  -0.00219,  -0.00015,  -4.17593,   1.00000
-514466424.30634,-407203173.04127,-49454030.37150,  -0.00114,  -0.00304,  -0.00080,477843979.59234,   0.00299,277843986.35105,   0.00041,  -0.00219,  -0.00016,  -6.75870,   1.00000
-515430071.50913,-405595879.31114,-49081422.61133,  -0.00115,  -0.00304,  -0.00080,477856485.76700,   0.00300,277856486.81626,   0.00040,  -0.00220,  -0.00016,  -1.04926,   1.00000
-516379983.77965,-403988000.97532,-48701805.06362,  -0.00117,  -0.00303,  -0.00080,477869095.71436,   0.00301,277869105.63561,   0.00039,  -0.00220,  -0.00017,  -9.92125,   1.00000
-517312960.33787,-402384451.64287,-48317429.63505,  -0.00119,  -0.00303,  -0.00080,477881759.43823,   0.00302,277881766.61219,   0.00038,  -0.00221,  -0.00017,  -7.17396,   1.00000
-518236990.31922,-400768550.74435,-47927797.15296,  -0.00121,  -0.00302,  -0.00080,477894489.47263,   0.00303,277894489.91969,   0.00037,  -0.00221,  -0.00018,  -0.44706,   1.00000
-519144207.09452,-399157205.40606,-47533524.19363,  -0.00122,  -0.00302,  -0.00080,477907249.62861,   0.00305,277907255.83963,   0.00036,  -0.00222,  -0.00018,  -6.21103,   1.00000
-520039404.10205,-397538170.55542,-47136202.39261,  -0.00124,  -0.00302,  -0.00080,477920004.05078,   0.00306,277920008.55834,   0.00035,  -0.00222,  -0.00019,  -4.50756,   1.00000
-520920990.76808,-395919394.27764,-46732246.67936,  -0.00126,  -0.00301,  -0.00080,477932872.79248,   0.00307,277932880.85599,   0.00034,  -0.00223,  -0.00019,  -8.06351,   1.00000
-521784084.28972,-394304078.14559,-46330115.45331,  -0.00128,  -0.00301,  -0.00080,477945795.15585,   0.00308,277945803.94432,   0.00033,  -0.00223,  -0.00020,  -8.78846,   1.00000
-522635831.43259,-392690916.06671,-45915216.17488,  -0.00129,  -0.00300,  -0.00080,477958832.61339,   0.00309,277958838.47624,   0.00032,  -0.00223,  -0.00020,  -5.86285,   1.00000
-523475827.53073,-391070179.95810,-45497459.97297,  -0.00131,  -0.00300,  -0.00080,477971859.18970,   0.00311,277971860.91538,   0.00031,  -0.00224,  -0.00020,  -1.72568,   1.00000
-524300345.52339,-389448999.66510,-45079693.51093,  -0.00133,  -0.00299,  -0.00080,477985006.95007,   0.00312,277985011.65527,   0.00030,  -0.00224,  -0.00021,  -4.70520,   1.00000
-525113225.25115,-387820315.15177,-44659103.62231,  -0.00135,  -0.00299,  -0.00079,477998144.64061,   0.00313,277998151.24789,   0.00028,  -0.00225,  -0.00021,  -6.60729,   1.00000
-525914716.50746,-386194347.89129,-44226027.38201,  -0.00137,  -0.00298,  -0.00079,478011398.28277,   0.00315,278011404.03343,   0.00027,  -0.00225,  -0.00022,  -5.75066,   1.00000
-526698432.87599,-384572711.76741,-43795189.21197,  -0.00138,  -0.00298,  -0.00079,478024707.53062,   0.00316,278024707.60958,   0.00026,  -0.00225,  -0.00022,  -0.07896,   1.00000
-527470734.85291,-382943596.81830,-43361642.92562,  -0.00140,  -0.00297,  -0.00079,478038000.87552,   0.00317,278038000.93377,   0.00025,  -0.00226,  -0.00023,  -0.05825,   1.00000
-528225744.90362,-381329702.25067,-42920819.51932,  -0.00142,  -0.00297,  -0.00079,478051465.44798,   0.00318,278051468.69246,   0.00024,  -0.00226,  -0.00023,  -3.24448,   1.00000
-528973586.65134,-379694896.73315,-42478692.05713,  -0.00144,  -0.00296,  -0.00079,478064866.37118,   0.00320,278064873.84347,   0.00023,  -0.00227,  -0.00024,  -7.47229,   1.00000
-529704279.58326,-378075833.89304,-42029479.30224,  -0.00146,  -0.00296,  -0.00079,478078449.79024,   0.00321,278078453.61337,   0.00022,  -0.00227,  -0.00024,  -3.82313,   1.00000
-530423831.40955,-376449370.45491,-41577740.62501,  -0.00147,  -0.00295,  -0.00078,478092017.90149,   0.00322,278092024.24947,   0.00021,  -0.00227,  -0.00024,  -6.34798,   1.00000
-531130391.68760,-374825402.94780,-41120374.57392,  -0.00149,  -0.00295,  -0.00078,478105708.18844,   0.00324,278105717.27838,   0.00019,  -0.00228,  -0.00025,  -9.08993,   1.00000
-531820215.39636,-373206736.23069,-40665669.18927,  -0.00151,  -0.00294,  -0.00078,478119454.29406,   0.00325,278119460.78690,   0.00018,  -0.00228,  -0.00025,  -6.49284,   1.00000
-532501007.18069,-371581906.39544,-40202174.16030,  -0.00153,  -0.00294,  -0.00078,478133183.14552,   0.00326,278133188.90022,   0.00017,  -0.00229,  -0.00026,  -5.75469,   1.00000
-533167188.66212,-369958858.45069,-39739610.18365,  -0.00155,  -0.00293,  -0.00078,478147041.59270,   0.00327,278147047.09874,   0.00016,  -0.00229,  -0.00026,  -5.50604,   1.00000
-533822468.86631,-368340146.51161,-39265372.19394,  -0.00157,  -0.00293,  -0.00078,478161012.38589,   0.00329,278161021.47115,   0.00015,  -0.00229,  -0.00026,  -9.08526,   1.00000
-534465178.74621,-366712984.75960,-38795195.48534,  -0.00158,  -0.00292,  -0.00077,478174990.05454,   0.00330,278174995.63080,   0.00013,  -0.00230,  -0.00027,  -5.57626,   1.00000
-535093596.79138,-365092848.00316,-38321586.89213,  -0.00160,  -0.00292,  -0.00077,478189012.68763,   0.00332,278189013.65003,   0.00012,  -0.00230,  -0.00027,  -0.96240,   1.00000
-535709529.52639,-363476338.58609,-37842864.02887,  -0.00162,  -0.00291,  -0.00077,478203155.02214,   0.00333,278203155.45515,   0.00011,  -0.00230,  -0.00028,  -0.43301,   1.00000
-536316467.01890,-361849114.36637,-37360202.91636,  -0.00164,  -0.00291,  -0.00077,478217366.93509,   0.00334,278217371.43541,   0.00010,  -0.00231,  -0.00028,  -4.50032,   1.00000
-536904530.02839,-360247227.46187,-36874952.93125,  -0.00166,  -0.00290,  -0.00076,478231593.85968,   0.00336,278231600.68476,   0.00008,  -0.00231,  -0.00028,  -6.82508,   1.00000
-537485249.83004,-358631402.86507,-36384199.15346,  -0.00168,  -0.00290,  -0.00076,478245980.20695,   0.00337,278245984.95665,   0.00007,  -0.00231,  -0.00029,  -4.74969,   1.00000
-538054144.82601,-357011559.19045,-35893010.74624,  -0.00169,  -0.00289,  -0.00076,478260276.05072,   0.00338,278260283.43977,   0.00006,  -0.00232,  -0.00029,  -7.38904,   1.00000
-538607360.70453,-355406800.92093,-35400820.35316,  -0.00171,  -0.00289,  -0.00076,478274835.60242,   0.00340,278274843.08414,   0.00004,  -0.00232,  -0.00030,  -7.48172,   1.00000
-539150739.57887,-353798933.29688,-34901837.60064,  -0.00173,  -0.00288,  -0.00075,478289309.35672,   0.00341,278289310.51564,   0.00003,  -0.00232,  -0.00030,  -1.15892,   1.00000
-539680544.45957,-352194766.51572,-34404659.90147,  -0.00175,  -0.00287,  -0.00075,478303901.45705,   0.00343,278303909.31413,   0.00002,  -0.00232,  -0.00030,  -7.85708,   1.00000
-540198523.38443,-350595487.45871,-33902977.31636,  -0.00177,  -0.00287,  -0.00075,478318629.65541,   0.00344,278318633.30743,   0.00000,  -0.00233,  -0.00031,  -3.65202,   1.00000
-540706541.35577,-348988967.51734,-33399351.12731,  -0.00179,  -0.00286,  -0.00075,478333352.04989,   0.00345,278333353.36218,  -0.00001,  -0.00233,  -0.00031,  -1.31229,   1.00000
-541202789.04384,-347387607.63418,-32891364.09490,  -0.00181,  -0.00286,  -0.00074,478348191.35418,   0.00347,278348199.45109,  -0.00002,  -0.00233,  -0.00031,  -8.09691,   1.00000
-541686299.30888,-345794420.93575,-32380623.86837,  -0.00183,  -0.00285,  -0.00074,478363086.59554,   0.00348,278363089.77728,  -0.00004,  -0.00234,  -0.00032,  -3.18175,   1.00000
-542157253.90085,-344209440.94329,-31867177.30588,  -0.00185,  -0.00285,  -0.00074,478378023.00229,   0.00350,278378024.14210,  -0.00005,  -0.00234,  -0.00032,  -1.13981,   1.00000
-542616837.89544,-342630006.54987,-31349616.64681,  -0.00186,  -0.00284,  -0.00073,478393079.82613,   0.00351,278393084.38875,  -0.00006,  -0.00234,  -0.00033,  -4.56261,   1.00000
-543066380.06321,-341039821.90841,-30835254.66893,  -0.00188,  -0.00284,  -0.00073,478408225.82034,   0.00353,278408229.53441,  -0.00008,  -0.00234,  -0.00033,  -3.71406,   1.00000
-543503725.90927,-339458150.48769,-30318315.37528,  -0.00190,  -0.00283,  -0.00073,478423418.29287,   0.00354,278423419.07761,  -0.00009,  -0.00235,  -0.00033,  -0.78474,   1.00000
-543930440.30058,-337885795.46616,-29792445.79276,  -0.00192,  -0.00283,  -0.00072,478438642.50613,   0.00355,278438647.44793,  -0.00011,  -0.00235,  -0.00034,  -4.94180,   1.00000
-544347243.34506,-336302867.30312,-29269940.08999,  -0.00194,  -0.00282,  -0.00072,478453957.37395,   0.00357,278453961.78979,  -0.00012,  -0.00235,  -0.00034,  -4.41584,   1.00000
-544748454.16327,-334743869.18504,-28750657.85237,  -0.00196,  -0.00281,  -0.00072,478469363.67117,   0.00358,278469371.56670,  -0.00013,  -0.00235,  -0.00034,  -7.89553,   1.00000
-545142664.45542,-333175942.73924,-28221963.54663,  -0.00198,  -0.00281,  -0.00071,478484848.19449,   0.00360,278484857.29876,  -0.00015,  -0.00236,  -0.00035,  -9.10427,   1.00000
-545526096.36864,-331614566.61127,-27689664.16212,  -0.00200,  -0.00280,  -0.00071,478500465.08838,   0.00361,278500470.36881,  -0.00016,  -0.00236,  -0.00035,  -5.28043,   1.00000
-545896166.62952,-330063616.30263,-27162803.68894,  -0.00202,  -0.00280,  -0.00070,478516046.10172,   0.00363,278516049.43284,  -0.00018,  -0.00236,  -0.00035,  -3.33112,   1.00000
-546258654.23619,-328500979.71200,-26631847.39224,  -0.00204,  -0.00279,  -0.00070,478531789.74181,   0.00364,278531794.17403,  -0.00019,  -0.00236,  -0.00035,  -4.43222,   1.00000
-546607874.55628,-326963787.38821,-26098037.55451,  -0.00206,  -0.00279,  -0.00070,478547624.17300,   0.00366,278547628.03815,  -0.00021,  -0.00236,  -0.00036,  -3.86515,   1.00000
-546948297.74415,-325419216.07867,-25562730.78012,  -0.00208,  -0.00278,  -0.00069,478563454.44030,   0.00367,278563461.31544,  -0.00022,  -0.00237,  -0.00036,  -6.87514,   1.00000
-547278511.87143,-323881800.28155,-25024137.11585,  -0.00209,  -0.00277,  -0.00069,478579421.56415,   0.00369,278579422.41726,  -0.00024,  -0.00237,  -0.00036,  -0.85310,   1.00000
-547598035.56583,-322353562.36410,-24483497.13431,  -0.00211,  -0.00277,  -0.00069,478595419.02522,   0.00371,278595427.69170,  -0.00025,  -0.00237,  -0.00037,  -8.66648,   1.00000
-547908343.84083,-320815453.99511,-23946744.46831,  -0.00213,  -0.00276,  -0.00068,478611517.21138,   0.00372,278611521.50021,  -0.00027,  -0.00237,  -0.00037,  -4.28883,   1.00000
-548206400.42098,-319303416.00603,-23407410.09858,  -0.00215,  -0.00276,  -0.00068,478627697.84816,   0.00374,278627703.16418,  -0.00028,  -0.00237,  -0.00037,  -5.31601,   1.00000
-548496536.32677,-317782180.83060,-22865608.07881,  -0.00217,  -0.00275,  -0.00067,478643967.28927,   0.00375,278643969.36527,  -0.00030,  -0.00238,  -0.00037,  -2.07601,   1.00000
-548774844.88156,-316287231.16686,-22321366.37987,  -0.00219,  -0.00275,  -0.00067,478660314.77820,   0.00377,278660322.67945,  -0.00031,  -0.00238,  -0.00038,  -7.90125,   1.00000
-549044343.52803,-314782621.25038,-21781217.34134,  -0.00221,  -0.00274,  -0.00066,478676755.70217,   0.00378,278676764.85788,  -0.00033,  -0.00238,  -0.00038,  -9.15572,   1.00000
-549305042.26824,-313288030.54166,-21232777.36696,  -0.00223,  -0.00273,  -0.00066,478693239.12847,   0.00380,278693246.95739,  -0.00034,  -0.00238,  -0.00038,  -7.82892,   1.00000
-549556963.01160,-311783905.82268,-20688534.24532,  -0.00225,  -0.00273,  -0.00065,478709817.60606,   0.00382,278709818.88630,  -0.00036,  -0.00238,  -0.00039,  -1.28023,   1.00000
-549797810.65573,-310306541.81848,-20142047.08997,  -0.00227,  -0.00272,  -0.00065,478726468.20095,   0.00383,278726477.13392,  -0.00038,  -0.00238,  -0.00039,  -8.93297,   1.00000
-550028769.76310,-308836964.51286,-19599371.41543,  -0.00229,  -0.00272,  -0.00064,478743259.63702,   0.00385,278743267.03707,  -0.00039,  -0.00238,  -0.00039,  -7.40005,   1.00000
-550252762.23088,-307360198.37925,-19048984.23559,  -0.00231,  -0.00271,  -0.00064,478760051.73119,   0.00386,278760054.94206,  -0.00041,  -0.00239,  -0.00039,  -3.21087,   1.00000
-550467007.59269,-305891463.73433,-18502540.98455,  -0.00233,  -0.00271,  -0.00064,478776970.42804,   0.00388,278776975.08065,  -0.00042,  -0.00239,  -0.00039,  -4.65261,   1.00000
-550671082.33234,-304449879.08568,-17954059.68186,  -0.00235,  -0.00270,  -0.00063,478793974.62528,   0.00390,278793979.86698,  -0.00044,  -0.00239,  -0.00040,  -5.24170,   1.00000
-550867024.20126,-302999020.71069,-17410032.70959,  -0.00237,  -0.00269,  -0.00063,478811073.12388,   0.00391,278811074.73381,  -0.00046,  -0.00239,  -0.00040,  -1.60993,   1.00000
-551055082.75900,-301558341.30394,-16857962.40244,  -0.00239,  -0.00269,  -0.00062,478828208.66119,   0.00393,278828209.62014,  -0.00047,  -0.00239,  -0.00040,  -0.95895,   1.00000
-551234045.73873,-300126089.47324,-16310080.81715,  -0.00241,  -0.00268,  -0.00062,478845466.13776,   0.00395,278845476.07042,  -0.00049,  -0.00239,  -0.00040,  -9.93266,   1.00000
-551405790.61994,-298685120.43160,-15760314.94772,  -0.00243,  -0.00268,  -0.00061,478862824.51262,   0.00396,278862830.60866,  -0.00051,  -0.00239,  -0.00041,  -6.09605,   1.00000
-551567335.87668,-297272294.56711,-15215927.76362,  -0.00245,  -0.00267,  -0.00060,478880182.25030,   0.00398,278880185.68858,  -0.00052,  -0.00239,  -0.00041,  -3.43828,   1.00000
-551721948.01635,-295868044.00171,-14662211.66680,  -0.00247,  -0.00266,  -0.00060,478897750.19813,   0.00400,278897752.04747,  -0.00054,  -0.00239,  -0.00041,  -1.84934,   1.00000
-551868629.64205,-294455518.37911,-14113917.57813,  -0.00249,  -0.00266,  -0.00059,478915317.43795,   0.00401,278915323.69487,  -0.00056,  -0.00239,  -0.00041,  -6.25692,   1.00000
-552006705.15391,-293070825.66783,-13563934.24273,  -0.00251,  -0.00265,  -0.00059,478932971.79802,   0.00403,278932977.56636,  -0.00057,  -0.00240,  -0.00041,  -5.76834,   1.00000
-552137299.81779,-291677143.79432,-13018734.35333,  -0.00253,  -0.00265,  -0.00058,478950713.33219,   0.00405,278950722.55433,  -0.00059,  -0.00240,  -0.00041,  -9.22213,   1.00000
-552259728.67225,-290311434.85653,-12471898.72477,  -0.00255,  -0.00264,  -0.00058,478968545.57548,   0.00407,278968548.88372,  -0.00061,  -0.00240,  -0.00042,  -3.30825,   1.00000
-552375455.19780,-288937040.03013,-11923433.43949,  -0.00257,  -0.00263,  -0.00057,478986463.68260,   0.00408,278986464.08772,  -0.00062,  -0.00240,  -0.00042,  -0.40511,   1.00000
-552483363.49768,-287590706.54168,-11373442.76055,  -0.00260,  -0.00263,  -0.00057,479004453.18463,   0.00410,279004459.99882,  -0.00064,  -0.00240,  -0.00042,  -6.81419,   1.00000
-552584181.28144,-286235454.72481,-10828396.99290,  -0.00262,  -0.00262,  -0.00056,479022537.13732,   0.00412,279022547.02967,  -0.00066,  -0.00240,  -0.00042,  -9.89235,   1.00000
-552678079.20344,-284889874.56511,-10281605.89322,  -0.00264,  -0.00262,  -0.00055,479040755.53318,   0.00414,279040762.25299,  -0.00068,  -0.00240,  -0.00042,  -6.71980,   1.00000
-552764568.02297,-283554068.08134,-9740073.65425,  -0.00266,  -0.00261,  -0.00055,479059017.59317,   0.00415,279059020.70036,  -0.00069,  -0.00240,  -0.00042,  -3.10719,   1.00000
-552844068.31308,-282246539.15561,-9197104.55730,  -0.00268,  -0.00261,  -0.00054,479077350.70333,   0.00417,279077358.12988,  -0.00071,  -0.00240,  -0.00042,  -7.42655,   1.00000
-552917306.27764,-280930331.47790,-8652700.34989,  -0.00270,  -0.00260,  -0.00054,479095777.75555,   0.00419,279095784.91177,  -0.00073,  -0.00240,  -0.00042,  -7.15622,   1.00000
-552983994.89712,-279624041.64820,-8107126.54202,  -0.00272,  -0.00259,  -0.00053,479114245.41799,   0.00421,279114252.46300,  -0.00075,  -0.00240,  -0.00043,  -7.04501,   1.00000
-553044017.81925,-278327470.28661,-7566524.09934,  -0.00274,  -0.00259,  -0.00053,479132842.52477,   0.00423,279132849.10819,  -0.00077,  -0.00240,  -0.00043,  -6.58342,   1.00000
-553097888.66476,-277040857.98515,-7024435.77222,  -0.00276,  -0.00258,  -0.00052,479151568.82437,   0.00424,279151573.24992,  -0.00078,  -0.00240,  -0.00043,  -4.42554,   1.00000
-553145375.06925,-275782594.76471,-6487583.34241,  -0.00278,  -0.00258,  -0.00051,479170371.50666,   0.00426,279170375.68846,  -0.00080,  -0.00240,  -0.00043,  -4.18179,   1.00000
-553186831.31548,-274515473.38490,-5949713.78270,  -0.00280,  -0.00257,  -0.00051,479189177.55102,   0.00428,279189180.44107,  -0.00082,  -0.00240,  -0.00043,  -2.89005,   1.00000
-553222501.16540,-273258397.02120,-5410465.12121,  -0.00282,  -0.00256,  -0.00050,479208110.19041,   0.00430,279208112.29681,  -0.00084,  -0.00240,  -0.00043,  -2.10641,   1.00000
-553252255.19918,-272011322.74167,-4876385.08983,  -0.00284,  -0.00256,  -0.00049,479227166.62429,   0.00432,279227172.13323,  -0.00086,  -0.00240,  -0.00043,  -5.50894,   1.00000
-553276677.76041,-270792845.57350,-4341127.09048,  -0.00287,  -0.00255,  -0.00049,479246301.56157,   0.00434,279246307.35477,  -0.00088,  -0.00240,  -0.00043,  -5.79321,   1.00000
-553295238.41266,-269565541.40918,-3811178.43594,  -0.00289,  -0.00255,  -0.00048,479265528.39395,   0.00435,279265533.25297,  -0.00090,  -0.00240,  -0.00043,  -4.85903,   1.00000
-553308406.26724,-268348025.25307,-3280139.16927,  -0.00291,  -0.00254,  -0.00047,479284795.15251,   0.00437,279284797.88710,  -0.00091,  -0.00240,  -0.00043,  -2.73458,   1.00000
-553316734.36979,-267159126.77512,-2747977.15839,  -0.00293,  -0.00253,  -0.00047,479304126.94237,   0.00439,279304136.77378,  -0.00093,  -0.00240,  -0.00043,  -9.83141,   1.00000
-553319458.34533,-265961352.70169,-2221189.32279,  -0.00295,  -0.00253,  -0.00046,479323558.30151,   0.00441,279323566.13194,  -0.00095,  -0.00240,  -0.00043,  -7.83043,   1.00000
-553317739.31212,-264792810.79302,-1699693.77834,  -0.00297,  -0.00252,  -0.00046,479343155.48245,   0.00443,279343157.17467,  -0.00097,  -0.00240,  -0.00043,  -1.69222,   1.00000
-553311243.50743,-263633840.10405,-1170642.99604,  -0.00299,  -0.00252,  -0.00045,479362782.40619,   0.00445,279362785.05079,  -0.00099,  -0.00240,  -0.00043,  -2.64460,   1.00000
-553300023.23680,-262485025.55932,-653514.35029,  -0.00301,  -0.00251,  -0.00044,479382534.99523,   0.00447,279382538.36201,  -0.00101,  -0.00240,  -0.00043,  -3.36678,   1.00000
-553283469.78915,-261326595.17006,-128828.53455,  -0.00304,  -0.00250,  -0.00044,479402285.92655,   0.00449,279402293.43107,  -0.00103,  -0.00239,  -0.00043,  -7.50452,   1.00000
-553263213.04126,-260197671.40179,383894.36685,  -0.00306,  -0.00250,  -0.00043,479422208.00324,   0.00451,279422208.53825,  -0.00105,  -0.00239,  -0.00043,  -0.53501,   1.00000
-553238512.25617,-259078139.12001,904182.76802,  -0.00308,  -0.00249,  -0.00042,479442157.10332,   0.00453,279442159.92546,  -0.00107,  -0.00239,  -0.00043,  -2.82214,   1.00000
-553210540.17385,-257988093.97062,1418911.90998,  -0.00310,  -0.00249,  -0.00041,479462267.02333,   0.00455,279462269.85104,  -0.00109,  -0.00239,  -0.00043,  -2.82771,   1.00000
-553177573.89978,-256888006.85250,1928227.24512,  -0.00312,  -0.00248,  -0.00041,479482373.10313,   0.00457,279482380.36864,  -0.00111,  -0.00239,  -0.00043,  -7.26551,   1.00000
-553140646.34689,-255798203.20169,2438511.95185,  -0.00314,  -0.00248,  -0.00040,479502607.88710,   0.00459,279502614.86738,  -0.00113,  -0.00239,  -0.00043,  -6.98027,   1.00000
-553100848.65065,-254737017.84183,2943313.97255,  -0.00317,  -0.00247,  -0.00039,479522914.54881,   0.00461,279522917.93458,  -0.00115,  -0.00239,  -0.00043,  -3.38577,   1.00000
-553057364.36971,-253685982.83153,3449040.51419,  -0.00319,  -0.00246,  -0.00039,479543337.73688,   0.00463,279543343.95018,  -0.00117,  -0.00239,  -0.00043,  -6.21330,   1.00000
-553010467.64602,-252645186.40430,3949158.31585,  -0.00321,  -0.00246,  -0.00038,479563887.72674,   0.00465,279563892.05914,  -0.00119,  -0.00239,  -0.00043,  -4.33240,   1.00000
-552959733.99521,-251612169.96067,4450557.92346,  -0.00323,  -0.00245,  -0.00037,479584377.68390,   0.00467,279584385.22850,  -0.00121,  -0.00239,  -0.00043,  -7.54460,   1.00000
-552905999.05402,-250590628.02414,4946108.24538,  -0.00325,  -0.00245,  -0.00037,479605084.48360,   0.00469,279605088.79449,  -0.00123,  -0.00238,  -0.00043,  -4.31090,   1.00000
-552849031.97168,-249578073.56402,5436280.07443,  -0.00328,  -0.00244,  -0.00036,479625822.91602,   0.00471,279625824.69948,  -0.00125,  -0.00238,  -0.00043,  -1.78346,   1.00000
-552789980.00170,-248593882.32869,5927491.36981,  -0.00330,  -0.00243,  -0.00035,479646618.39976,   0.00473,279646626.55747,  -0.00127,  -0.00238,  -0.00043,  -8.15770,   1.00000
-552726540.46109,-247600131.81884,6419634.19639,  -0.00332,  -0.00243,  -0.00034,479667514.67918,   0.00475,279667516.80949,  -0.00129,  -0.00238,  -0.00043,  -2.13031,   1.00000
-552661758.78858,-246636246.29498,6905959.33526,  -0.00334,  -0.00242,  -0.00034,479688558.10660,   0.00477,279688560.21643,  -0.00131,  -0.00238,  -0.00043,  -2.10983,   1.00000
-552594222.97056,-245681022.69304,7386934.70547,  -0.00336,  -0.00242,  -0.00033,479709627.53659,   0.00479,279709633.99464,  -0.00133,  -0.00238,  -0.00043,  -6.45805,   1.00000
-552525172.22962,-244753933.27963,7868945.62971,  -0.00339,  -0.00241,  -0.00032,479730763.63726,   0.00481,279730771.49514,  -0.00135,  -0.00238,  -0.00042,  -7.85788,   1.00000
-552452337.15745,-243817109.15443,8345394.13133,  -0.00341,  -0.00241,  -0.00031,479751990.68418,   0.00483,279751995.04610,  -0.00137,  -0.00237,  -0.00042,  -4.36192,   1.00000
-552378858.12941,-242910120.03897,8816011.93830,  -0.00343,  -0.00240,  -0.00031,479773363.98552,   0.00485,279773369.21919,  -0.00139,  -0.00237,  -0.00042,  -5.23367,   1.00000
-552302676.00749,-242011307.53442,9287848.84998,  -0.00345,  -0.00240,  -0.00030,479794767.09631,   0.00487,279794773.35505,  -0.00141,  -0.00237,  -0.00042,  -6.25874,   1.00000
-552224279.70767,-241120758.13236,9754426.14702,  -0.00347,  -0.00239,  -0.00029,479816198.77526,   0.00489,279816205.53395,  -0.00143,  -0.00237,  -0.00042,  -6.75869,   1.00000
-552145257.95476,-240259768.84959,10221617.65668,  -0.00350,  -0.00238,  -0.00028,479837779.63446,   0.00491,279837788.29050,  -0.00145,  -0.00237,  -0.00042,  -8.65604,   1.00000
-552063301.15637,-239388897.54369,10676792.72128,  -0.00352,  -0.00238,  -0.00028,479859447.56891,   0.00494,279859453.67510,  -0.00147,  -0.00237,  -0.00042,  -6.10619,   1.00000
-551980182.84522,-238545657.91306,11139575.03723,  -0.00354,  -0.00237,  -0.00027,479881180.80132,   0.00496,279881181.43983,  -0.00150,  -0.00236,  -0.00041,  -0.63851,   1.00000
-551896058.06921,-237712339.73265,11590147.46429,  -0.00356,  -0.00237,  -0.00026,479903017.98944,   0.00498,279903022.72709,  -0.00152,  -0.00236,  -0.00041,  -4.73765,   1.00000
-551811523.46321,-236906596.48324,12041874.50934,  -0.00359,  -0.00236,  -0.00025,479924914.11184,   0.00500,279924922.96494,  -0.00154,  -0.00236,  -0.00041,  -8.85311,   1.00000
-551725723.19610,-236110402.23736,12487900.65324,  -0.00361,  -0.00236,  -0.00025,479946930.65025,   0.00502,279946937.44916,  -0.00156,  -0.00236,  -0.00041,  -6.79891,   1.00000
-551638422.82441,-235321803.11348,12928843.22640,  -0.00363,  -0.00235,  -0.00024,479968975.23963,   0.00504,279968976.24055,  -0.00158,  -0.00236,  -0.00041,  -1.00092,   1.00000
-551549076.31484,-234540526.46242,13371208.73123,  -0.00365,  -0.00235,  -0.00023,479991040.62168,   0.00506,279991041.55698,  -0.00160,  -0.00235,  -0.00040,  -0.93531,   1.00000
-551461037.98979,-233790754.16673,13807037.63109,  -0.00368,  -0.00234,  -0.00022,480013337.37081,   0.00509,280013340.65340,  -0.00162,  -0.00235,  -0.00040,  -3.28260,   1.00000
-551371397.28189,-233046191.25858,14238502.31744,  -0.00370,  -0.00233,  -0.00022,480035567.16141,   0.00511,280035572.78420,  -0.00165,  -0.00235,  -0.00040,  -5.62279,   1.00000
-551280660.83924,-232312776.00793,14670116.13913,  -0.00372,  -0.00233,  -0.00021,480058006.03200,   0.00513,280058009.49564,  -0.00167,  -0.00235,  -0.00040,  -3.46364,   1.00000
-551190504.98476,-231604447.04831,15097191.91599,  -0.00375,  -0.00232,  -0.00020,480080405.93621,   0.00515,280080408.98685,  -0.00169,  -0.00235,  -0.00040,  -3.05063,   1.00000
-551099724.55313,-230905177.92548,15518627.35497,  -0.00377,  -0.00232,  -0.00019,480102917.12054,   0.00517,280102919.49187,  -0.00171,  -0.00234,  -0.00039,  -2.37132,   1.00000
-551008405.16928,-230214956.84563,15934448.84714,  -0.00379,  -0.00231,  -0.00018,480125538.46384,   0.00520,280125540.64423,  -0.00173,  -0.00234,  -0.00039,  -2.18039,   1.00000
-550918388.31585,-229551663.03485,16345178.23110,  -0.00381,  -0.00231,  -0.00018,480148205.14757,   0.00522,280148212.28949,  -0.00176,  -0.00234,  -0.00039,  -7.14192,   1.00000
-550827267.58411,-228896935.77054,16756795.42878,  -0.00384,  -0.00230,  -0.00017,480170993.30299,   0.00524,280170996.39844,  -0.00178,  -0.00234,  -0.00039,  -3.09545,   1.00000
-550735408.34795,-228248725.25168,17163597.57730,  -0.00386,  -0.00230,  -0.00016,480193797.25920,   0.00526,280193799.87189,  -0.00180,  -0.00233,  -0.00038,  -2.61269,   1.00000
-550645586.58035,-227629453.46908,17564566.04399,  -0.00388,  -0.00229,  -0.00015,480216740.77394,   0.00529,280216741.94487,  -0.00182,  -0.00233,  -0.00038,  -1.17093,   1.00000
-550555176.11224,-227016403.60591,17960820.03061,  -0.00391,  -0.00229,  -0.00014,480239696.97541,   0.00531,280239702.05906,  -0.00184,  -0.00233,  -0.00038,  -5.08365,   1.00000
-550464706.33431,-226411889.48837,18351575.31021,  -0.00393,  -0.00228,  -0.00014,480262764.86180,   0.00533,280262769.77908,  -0.00187,  -0.00233,  -0.00038,  -4.91728,   1.00000
-550375259.47486,-225833433.09064,18743865.02139,  -0.00395,  -0.00228,  -0.00013,480285882.40337,   0.00535,280285887.82467,  -0.00189,  -0.00232,  -0.00037,  -5.42129,   1.00000
-550289126.39530,-225283778.65051,19123923.25651,  -0.00398,  -0.00227,  -0.00012,480309132.88162,   0.00538,280309138.15813,  -0.00191,  -0.00232,  -0.00037,  -5.27650,   1.00000
-550199387.38241,-224719211.17835,19506192.63496,  -0.00400,  -0.00227,  -0.00011,480332376.67114,   0.00540,280332378.36990,  -0.00193,  -0.00232,  -0.00037,  -1.69876,   1.00000
