# sigma_xx, sigma_yy, sigma_xy, epsilon_xx, epsilon_yy, epsilon_xy, vonMises, epsPlastic, hardening, epsilonP__xx, epsilonP__yy, epsilonP__xy, yieldValue, iteration
   0.00000,   0.00000,   0.00000,   0.00000,   0.00000,   0.00000,   0.00000,   0.00000,274640135.82653,   0.00000,   0.00000,   0.00000,-474640135.82653,   0.00000
   0.00000,   0.00000,   0.00000,   0.00000,   0.00000,   0.00000,   0.00000,   0.00000,274640135.82653,   0.00000,   0.00000,   0.00000,-474640135.82653,   0.00000
-456909.58314,1439051.67775,-444099.03408,  -0.00000,   0.00001,  -0.00001,1878516.55751,   0.00000,274640135.82653,   0.00000,   0.00000,   0.00000,-472761619.26902,   0.00000
-913819.16629,2878103.35551,-883927.88515,  -0.00001,   0.00001,  -0.00001,3754010.64476,   0.00000,274640135.82653,   0.00000,   0.00000,   0.00000,-470886125.18177,   0.00000
-1349377.83433,4338505.94836,-1323756.73621,  -0.00001,   0.00002,  -0.00002,5635133.88081,   0.00000,274640135.82653,   0.00000,   0.00000,   0.00000,-469005001.94572,   0.00000
-1784936.50238,5798908.54122,-1759315.40426,  -0.00002,   0.00003,  -0.00002,7513294.49650,   0.00000,274640135.82653,   0.00000,   0.00000,   0.00000,-467126841.33003,   0.00000
-2199144.25532,7280662.04918,-2194874.07230,  -0.00002,   0.00004,  -0.00003,9397229.27411,   0.00000,274640135.82653,   0.00000,   0.00000,   0.00000,-465242906.55242,   0.00000
-2613352.00827,8762415.55713,-2626162.55733,  -0.00003,   0.00004,  -0.00003,11278253.44373,   0.00000,274640135.82653,   0.00000,   0.00000,   0.00000,-463361882.38280,   0.00000
-3012614.12064,10250574.33962,-3057451.04235,  -0.00003,   0.00005,  -0.00004,13155803.42515,   0.00000,274640135.82653,   0.00000,   0.00000,   0.00000,-461484332.40138,   0.00000
-3399065.68396,11768624.40324,-3484469.34436,  -0.00004,   0.00006,  -0.00005,15049288.19114,   0.00000,274640135.82653,   0.00000,   0.00000,   0.00000,-459590847.63539,   0.00000
-3791922.52180,13271728.82630,-3911487.64636,  -0.00004,   0.00007,  -0.00005,16933459.08882,   0.00000,274640135.82653,   0.00000,   0.00000,   0.00000,-457706676.73771,   0.00000
-4148482.80397,14802589.43898,-4334235.76534,  -0.00005,   0.00008,  -0.00006,18817323.14716,   0.00000,274640135.82653,   0.00000,   0.00000,   0.00000,-455822812.67937,   0.00000
-4513583.45219,16341990.41771,-4756983.88433,  -0.00005,   0.00008,  -0.00006,20714263.46614,   0.00000,274640135.82653,   0.00000,   0.00000,   0.00000,-453925872.36039,   0.00000
-4855198.09379,17879256.30493,-5179732.00331,  -0.00006,   0.00009,  -0.00007,22595064.87169,   0.00000,274640135.82653,   0.00000,   0.00000,   0.00000,-452045070.95484,   0.00000
-5184002.18633,19446413.47328,-5598209.93928,  -0.00006,   0.00010,  -0.00007,24492182.20527,   0.00000,274640135.82653,   0.00000,   0.00000,   0.00000,-450147953.62126,   0.00000
-5512806.27888,21013570.64164,-6012417.69222,  -0.00007,   0.00011,  -0.00008,26386595.60973,   0.00000,274640135.82653,   0.00000,   0.00000,   0.00000,-448253540.21680,   0.00000
-5826664.73085,22587133.08452,-6426625.44517,  -0.00007,   0.00011,  -0.00008,28277920.68763,   0.00000,274640135.82653,   0.00000,   0.00000,   0.00000,-446362215.13890,   0.00000
-6134117.90829,24175641.16798,-6836563.01509,  -0.00008,   0.00012,  -0.00009,30176166.81102,   0.00000,274640135.82653,   0.00000,   0.00000,   0.00000,-444463969.01551,   0.00000
-6426625.44517,25770554.52597,-7246500.58502,  -0.00008,   0.00013,  -0.00009,32071420.43669,   0.00000,274640135.82653,   0.00000,   0.00000,   0.00000,-442568715.38984,   0.00000
-6719132.98204,27365467.88395,-7656438.15494,  -0.00008,   0.00014,  -0.00010,33966909.39764,   0.00000,274640135.82653,   0.00000,   0.00000,   0.00000,-440673226.42889,   0.00000
-6990289.60381,28981732.15704,-8062105.54184,  -0.00009,   0.00015,  -0.00010,35866255.53175,   0.00000,274640135.82653,   0.00000,   0.00000,   0.00000,-438773880.29478,   0.00000
-7240095.31049,30619347.34523,-8463502.74573,  -0.00009,   0.00015,  -0.00011,37769604.72732,   0.00000,274640135.82653,   0.00000,   0.00000,   0.00000,-436870531.09921,   0.00000
-7489901.01716,32256962.53341,-8864899.94961,  -0.00010,   0.00016,  -0.00012,39673304.10954,   0.00000,274640135.82653,   0.00000,   0.00000,   0.00000,-434966831.71699,   0.00000
-7739706.72383,33894577.72160,-9266297.15350,  -0.00010,   0.00017,  -0.00012,41577305.57649,   0.00000,274640135.82653,   0.00000,   0.00000,   0.00000,-433062830.25004,   0.00000
-7968161.51540,35553543.82489,-9663424.17436,  -0.00011,   0.00018,  -0.00013,43485489.03262,   0.00000,274640135.82653,   0.00000,   0.00000,   0.00000,-431154646.79391,   0.00000
-8181670.66640,37218915.20271,-10056281.01220,  -0.00011,   0.00019,  -0.00013,45388177.46835,   0.00000,274640135.82653,   0.00000,   0.00000,   0.00000,-429251958.35818,   0.00000
-8395179.81741,38884286.58052,-10449137.85005,  -0.00011,   0.00019,  -0.00014,47291233.96979,   0.00000,274640135.82653,   0.00000,   0.00000,   0.00000,-427348901.85673,   0.00000
-8602283.69388,40564603.59891,-10841994.68789,  -0.00012,   0.00020,  -0.00014,49204482.76744,   0.00000,274640135.82653,   0.00000,   0.00000,   0.00000,-425435653.05909,   0.00000
-8794441.92978,42251325.89183,-11230581.34272,  -0.00012,   0.00021,  -0.00015,51112341.48786,   0.00000,274640135.82653,   0.00000,   0.00000,   0.00000,-423527794.33867,   0.00000
-8965249.25058,43959399.09985,-11614897.81452,  -0.00013,   0.00022,  -0.00015,53024795.96289,   0.00000,274640135.82653,   0.00000,   0.00000,   0.00000,-421615339.86364,   0.00000
-9136056.57138,45667472.30786,-11999214.28632,  -0.00013,   0.00023,  -0.00016,54937688.31694,   0.00000,274640135.82653,   0.00000,   0.00000,   0.00000,-419702447.50959,   0.00000
-9285512.97709,47396896.43098,-12383530.75813,  -0.00013,   0.00023,  -0.00016,56858126.43354,   0.00000,274640135.82653,   0.00000,   0.00000,   0.00000,-417782009.39299,   0.00000
-9434969.38279,49126320.55410,-12763577.04691,  -0.00014,   0.00024,  -0.00017,58776237.08483,   0.00000,274640135.82653,   0.00000,   0.00000,   0.00000,-415863898.74170,   0.00000
-9569480.14792,50862149.95175,-13139353.15268,  -0.00014,   0.00025,  -0.00017,60689252.64057,   0.00000,274640135.82653,   0.00000,   0.00000,   0.00000,-413950883.18596,   0.00000
-9697585.63852,52612924.98997,-13515129.25844,  -0.00015,   0.00026,  -0.00018,62612758.64883,   0.00000,274640135.82653,   0.00000,   0.00000,   0.00000,-412027377.17770,   0.00000
-9810745.48855,54370105.30271,-13890905.36420,  -0.00015,   0.00027,  -0.00018,64534038.29369,   0.00000,274640135.82653,   0.00000,   0.00000,   0.00000,-410106097.53284,   0.00000
-9923905.33858,56127285.61546,-14262411.28695,  -0.00015,   0.00027,  -0.00019,66453044.20598,   0.00000,274640135.82653,   0.00000,   0.00000,   0.00000,-408187091.62055,   0.00000
-10015714.27351,57905816.84331,-14629647.02667,  -0.00016,   0.00028,  -0.00019,68377232.97525,   0.00000,274640135.82653,   0.00000,   0.00000,   0.00000,-406262902.85128,   0.00000
-10101117.93391,59699293.71173,-14996882.76640,  -0.00016,   0.00029,  -0.00019,70312071.06660,   0.00000,274640135.82653,   0.00000,   0.00000,   0.00000,-404328064.75993,   0.00000
-10177981.22828,61484230.21411,-15359848.32310,  -0.00017,   0.00030,  -0.00020,72232001.42170,   0.00000,274640135.82653,   0.00000,   0.00000,   0.00000,-402408134.40483,   0.00000
-10233493.60754,63290517.63159,-15722813.87980,  -0.00017,   0.00031,  -0.00020,74160081.91734,   0.00000,274640135.82653,   0.00000,   0.00000,   0.00000,-400480053.90919,   0.00000
-10289005.98680,65096805.04906,-16085779.43651,  -0.00017,   0.00032,  -0.00021,76088737.59567,   0.00000,274640135.82653,   0.00000,   0.00000,   0.00000,-398551398.23086,   0.00000
-10338113.09153,66918038.10711,-16440204.62717,  -0.00018,   0.00032,  -0.00021,78022737.94710,   0.00000,274640135.82653,   0.00000,   0.00000,   0.00000,-396617397.87943,   0.00000
-10357328.91512,68752081.71422,-16798900.00085,  -0.00018,   0.00033,  -0.00022,79955112.71910,   0.00000,274640135.82653,   0.00000,   0.00000,   0.00000,-394685023.10743,   0.00000
-10385085.10475,70594665.68737,-17153325.19152,  -0.00018,   0.00034,  -0.00022,81898095.96460,   0.00000,274640135.82653,   0.00000,   0.00000,   0.00000,-392742039.86193,   0.00000
-10404300.92834,72428709.29448,-17503480.19916,  -0.00019,   0.00035,  -0.00023,83826326.13010,   0.00000,274640135.82653,   0.00000,   0.00000,   0.00000,-390813809.69643,   0.00000
-10402165.83683,74284103.81669,-17853635.20680,  -0.00019,   0.00036,  -0.00023,85763078.13494,   0.00000,274640135.82653,   0.00000,   0.00000,   0.00000,-388877057.69159,   0.00000
-10393625.47079,76154443.97947,-18199520.03143,  -0.00020,   0.00037,  -0.00024,87708124.73785,   0.00000,274640135.82653,   0.00000,   0.00000,   0.00000,-386932011.08868,   0.00000
-10370139.46418,78031189.41678,-18545404.85605,  -0.00020,   0.00038,  -0.00024,89651529.57388,   0.00000,274640135.82653,   0.00000,   0.00000,   0.00000,-384988606.25265,   0.00000
-10346653.45757,79907934.85409,-18887019.49766,  -0.00020,   0.00038,  -0.00025,91592955.61000,   0.00000,274640135.82653,   0.00000,   0.00000,   0.00000,-383047180.21653,   0.00000
-10308221.81039,81791085.56593,-19228634.13926,  -0.00021,   0.00039,  -0.00025,93532790.39810,   0.00000,274640135.82653,   0.00000,   0.00000,   0.00000,-381107345.42843,   0.00000
-10248439.24811,83695587.19287,-19565978.59784,  -0.00021,   0.00040,  -0.00025,95478864.25139,   0.00000,274640135.82653,   0.00000,   0.00000,   0.00000,-379161271.57514,   0.00000
-10188656.68583,85600088.81981,-19903323.05643,  -0.00021,   0.00041,  -0.00026,97425667.32821,   0.00000,274640135.82653,   0.00000,   0.00000,   0.00000,-377214468.49832,   0.00000
-10122468.84901,87519536.08732,-20236397.33199,  -0.00022,   0.00042,  -0.00026,99380997.58604,   0.00000,274640135.82653,   0.00000,   0.00000,   0.00000,-375259138.24049,   0.00000
-10047740.64616,89430442.98879,-20569471.60755,  -0.00022,   0.00043,  -0.00027,101324452.17680,   0.00000,274640135.82653,   0.00000,   0.00000,   0.00000,-373315683.64973,   0.00000
-9951661.52821,91362700.80536,-20898275.70010,  -0.00022,   0.00044,  -0.00027,103274406.90728,   0.00000,274640135.82653,   0.00000,   0.00000,   0.00000,-371365728.91925,   0.00000
-9849177.13573,93309904.26250,-21222809.60962,  -0.00023,   0.00044,  -0.00028,105233042.54133,   0.00000,274640135.82653,   0.00000,   0.00000,   0.00000,-369407093.28520,   0.00000
-9738152.37721,95248567.35360,-21547343.51914,  -0.00023,   0.00045,  -0.00028,107179896.88104,   0.00000,274640135.82653,   0.00000,   0.00000,   0.00000,-367460238.94549,   0.00000
-9620722.34416,97202176.08527,-21871877.42867,  -0.00023,   0.00046,  -0.00028,109138048.12375,   0.00000,274640135.82653,   0.00000,   0.00000,   0.00000,-365502087.70277,   0.00000
-9496887.03658,99170730.45751,-22192141.15517,  -0.00024,   0.00047,  -0.00029,111104956.03034,   0.00000,274640135.82653,   0.00000,   0.00000,   0.00000,-363535179.79619,   0.00000
-9349565.72239,101137149.73824,-22508134.69865,  -0.00024,   0.00048,  -0.00029,113055624.57332,   0.00000,274640135.82653,   0.00000,   0.00000,   0.00000,-361584511.25321,   0.00000
-9210784.77424,103112109.38501,-22824128.24214,  -0.00024,   0.00049,  -0.00030,115019613.95860,   0.00000,274640135.82653,   0.00000,   0.00000,   0.00000,-359620521.86792,   0.00000
-9042112.54494,105099879.58084,-23140121.78562,  -0.00025,   0.00050,  -0.00030,116980618.63220,   0.00000,274640135.82653,   0.00000,   0.00000,   0.00000,-357659517.19433,   0.00000
-8867035.04112,107102595.41724,-23451845.14608,  -0.00025,   0.00050,  -0.00030,118950577.31830,   0.00000,274640135.82653,   0.00000,   0.00000,   0.00000,-355689558.50823,   0.00000
-8691957.53730,109105311.25364,-23759298.32353,  -0.00025,   0.00051,  -0.00031,120918859.45779,   0.00000,274640135.82653,   0.00000,   0.00000,   0.00000,-353721276.36874,   0.00000
-8501934.39291,111114432.36457,-24066751.50097,  -0.00026,   0.00052,  -0.00031,122886179.71773,   0.00000,274640135.82653,   0.00000,   0.00000,   0.00000,-351753956.10880,   0.00000
-8296965.60795,113129958.75003,-24369934.49539,  -0.00026,   0.00053,  -0.00032,124850084.91783,   0.00000,274640135.82653,   0.00000,   0.00000,   0.00000,-349790050.90870,   0.00000
-8085591.54845,115160430.77606,-24673117.48982,  -0.00026,   0.00054,  -0.00032,126825588.87312,   0.00000,274640135.82653,   0.00000,   0.00000,   0.00000,-347814546.95340,   0.00000
-7880622.76349,117175957.16152,-24976300.48424,  -0.00026,   0.00055,  -0.00032,128791208.64732,   0.00000,274640135.82653,   0.00000,   0.00000,   0.00000,-345848927.17921,   0.00000
-7647897.78890,119227780.10266,-25270943.11262,  -0.00027,   0.00056,  -0.00033,130772540.93281,   0.00000,274640135.82653,   0.00000,   0.00000,   0.00000,-343867594.89372,   0.00000
-7406632.44827,121271062.67775,-25569855.92402,  -0.00027,   0.00057,  -0.00033,132744836.55120,   0.00000,274640135.82653,   0.00000,   0.00000,   0.00000,-341895299.27533,   0.00000
-7158961.83310,123329290.89341,-25860228.36939,  -0.00027,   0.00058,  -0.00034,134723897.83242,   0.00000,274640135.82653,   0.00000,   0.00000,   0.00000,-339916237.99411,   0.00000
-6896345.57737,125393924.38360,-26150600.81475,  -0.00028,   0.00058,  -0.00034,136702295.00419,   0.00000,274640135.82653,   0.00000,   0.00000,   0.00000,-337937840.82234,   0.00000
-6633729.32164,127458557.87379,-26440973.26011,  -0.00028,   0.00059,  -0.00034,138681617.79222,   0.00000,274640135.82653,   0.00000,   0.00000,   0.00000,-335958518.03431,   0.00000
-6356167.42534,129529596.63851,-26727075.52246,  -0.00028,   0.00060,  -0.00035,140657878.45121,   0.00000,274640135.82653,   0.00000,   0.00000,   0.00000,-333982257.37532,   0.00000
-6072200.25450,131615581.04380,-27013177.78480,  -0.00028,   0.00061,  -0.00035,142645940.27255,   0.00000,274640135.82653,   0.00000,   0.00000,   0.00000,-331994195.55398,   0.00000
-5773287.44310,133707970.72363,-27295009.86412,  -0.00029,   0.00062,  -0.00035,144631046.18926,   0.00000,274640135.82653,   0.00000,   0.00000,   0.00000,-330009089.63727,   0.00000
-5474374.63170,135800360.40345,-27572571.76043,  -0.00029,   0.00063,  -0.00036,146614695.21072,   0.00000,274640135.82653,   0.00000,   0.00000,   0.00000,-328025440.61581,   0.00000
-5160516.17972,137899155.35780,-27850133.65673,  -0.00029,   0.00064,  -0.00036,148597875.59761,   0.00000,274640135.82653,   0.00000,   0.00000,   0.00000,-326042260.22892,   0.00000
-4825306.81265,140019301.22725,-28127695.55303,  -0.00029,   0.00065,  -0.00037,150591587.28658,   0.00000,274640135.82653,   0.00000,   0.00000,   0.00000,-324048548.53995,   0.00000
-4490097.44558,142139447.09670,-28400987.26631,  -0.00030,   0.00066,  -0.00037,152583916.57529,   0.00000,274640135.82653,   0.00000,   0.00000,   0.00000,-322056219.25124,   0.00000
-4154888.07850,144259592.96615,-28670008.79658,  -0.00030,   0.00066,  -0.00037,154574848.96942,   0.00000,274640135.82653,   0.00000,   0.00000,   0.00000,-320065286.85711,   0.00000
-3804733.07086,146386144.11014,-28939030.32684,  -0.00030,   0.00067,  -0.00038,156565455.36471,   0.00000,274640135.82653,   0.00000,   0.00000,   0.00000,-318074680.46182,   0.00000
-3439632.42265,148519100.52865,-29203781.67408,  -0.00031,   0.00068,  -0.00038,158553423.16962,   0.00000,274640135.82653,   0.00000,   0.00000,   0.00000,-316086712.65691,   0.00000
-3068126.49990,150667002.58773,-29468533.02133,  -0.00031,   0.00069,  -0.00038,160553442.21653,   0.00000,274640135.82653,   0.00000,   0.00000,   0.00000,-314086693.61000,   0.00000
-2681674.93659,152821309.92134,-29729014.18555,  -0.00031,   0.00070,  -0.00039,162550927.63952,   0.00000,274640135.82653,   0.00000,   0.00000,   0.00000,-312089208.18701,   0.00000
-2295223.37327,154975617.25496,-29989495.34977,  -0.00031,   0.00071,  -0.00039,164549455.01855,   0.00000,274640135.82653,   0.00000,   0.00000,   0.00000,-310090680.80798,   0.00000
-1893826.16939,157136329.86310,-30245706.33097,  -0.00032,   0.00072,  -0.00039,166545518.96836,   0.00000,274640135.82653,   0.00000,   0.00000,   0.00000,-308094616.85817,   0.00000
-1486023.69098,159311988.11181,-30501917.31218,  -0.00032,   0.00073,  -0.00040,168553730.57365,   0.00000,274640135.82653,   0.00000,   0.00000,   0.00000,-306086405.25288,   0.00000
-1063275.57199,161494051.63505,-30753858.11036,  -0.00032,   0.00074,  -0.00040,170559582.88700,   0.00000,274640135.82653,   0.00000,   0.00000,   0.00000,-304080552.93953,   0.00000
-640527.45301,163676115.15830,-31005798.90854,  -0.00032,   0.00075,  -0.00040,172566505.12704,   0.00000,274640135.82653,   0.00000,   0.00000,   0.00000,-302073630.69949,   0.00000
-202833.69345,165864583.95607,-31253469.52370,  -0.00032,   0.00076,  -0.00041,174571138.36603,   0.00000,274640135.82653,   0.00000,   0.00000,   0.00000,-300068997.46050,   0.00000
234860.06610,168053052.75384,-31496869.95585,  -0.00033,   0.00076,  -0.00041,176574554.22315,   0.00000,274640135.82653,   0.00000,   0.00000,   0.00000,-298065581.60338,   0.00000
687499.46623,170247926.82614,-31740270.38799,  -0.00033,   0.00077,  -0.00041,178578045.06211,   0.00000,274640135.82653,   0.00000,   0.00000,   0.00000,-296062090.76442,   0.00000
1161489.78145,172464151.81355,-31979400.63711,  -0.00033,   0.00078,  -0.00042,180590596.55643,   0.00000,274640135.82653,   0.00000,   0.00000,   0.00000,-294049539.27010,   0.00000
1620534.45611,174673971.52642,-32218530.88623,  -0.00033,   0.00079,  -0.00042,182605198.36164,   0.00000,274640135.82653,   0.00000,   0.00000,   0.00000,-292034937.46489,   0.00000
2109470.41190,176896601.78835,-32457661.13536,  -0.00034,   0.00080,  -0.00042,184619063.86227,   0.00000,274640135.82653,   0.00000,   0.00000,   0.00000,-290021071.96426,   0.00000
2598406.36770,179119232.05029,-32692521.20146,  -0.00034,   0.00081,  -0.00043,186631801.36387,   0.00000,274640135.82653,   0.00000,   0.00000,   0.00000,-288008334.46266,   0.00000
3087342.32349,181341862.31222,-32923111.08454,  -0.00034,   0.00082,  -0.00043,188643399.12492,   0.00000,274640135.82653,   0.00000,   0.00000,   0.00000,-285996736.70161,   0.00000
3597629.19439,183585843.48925,-33153700.96762,  -0.00034,   0.00083,  -0.00043,190666553.80223,   0.00000,274640135.82653,   0.00000,   0.00000,   0.00000,-283973582.02430,   0.00000
4116456.43132,185821284.30025,-33380020.66769,  -0.00034,   0.00084,  -0.00043,192676534.71825,   0.00000,274640135.82653,   0.00000,   0.00000,   0.00000,-281963601.10828,   0.00000
4641688.94279,188071670.75181,-33602070.18473,  -0.00035,   0.00085,  -0.00044,194696753.39650,   0.00000,274640135.82653,   0.00000,   0.00000,   0.00000,-279943382.43003,   0.00000
5181867.09482,190328462.47790,-33828389.88479,  -0.00035,   0.00086,  -0.00044,196719593.49658,   0.00000,274640135.82653,   0.00000,   0.00000,   0.00000,-277920542.32995,   0.00000
5722045.24686,192585254.20400,-34046169.21881,  -0.00035,   0.00087,  -0.00044,198739189.17923,   0.00000,274640135.82653,   0.00000,   0.00000,   0.00000,-275900946.64729,   0.00000
6262223.39889,194842045.93009,-34263948.55283,  -0.00035,   0.00087,  -0.00045,200759927.26713,   0.00000,274640135.82653,   0.00000,   0.00000,   0.00000,-273880208.55940,   0.00000
6817347.19150,197105242.93071,-34481727.88686,  -0.00035,   0.00088,  -0.00045,202781130.31880,   0.00000,274640135.82653,   0.00000,   0.00000,   0.00000,-271859005.50773,   0.00000
7393821.89921,199389790.84644,-34695237.03786,  -0.00036,   0.00089,  -0.00045,204812067.79231,   0.00000,274640135.82653,   0.00000,   0.00000,   0.00000,-269828068.03421,   0.00000
7970296.60691,201674338.76216,-34904476.00584,  -0.00036,   0.00090,  -0.00045,206842035.33360,   0.00000,274640135.82653,   0.00000,   0.00000,   0.00000,-267798100.49293,   0.00000
8555311.68066,203950346.31184,-35113714.97382,  -0.00036,   0.00091,  -0.00046,208861191.40804,   0.00000,274640135.82653,   0.00000,   0.00000,   0.00000,-265778944.41849,   0.00000
9146732.02893,206241299.50210,-35318683.75879,  -0.00036,   0.00092,  -0.00046,210890802.77394,   0.00000,274640135.82653,   0.00000,   0.00000,   0.00000,-263749333.05259,   0.00000
9753098.01778,208538657.96688,-35523652.54375,  -0.00036,   0.00093,  -0.00046,212921080.41730,   0.00000,274640135.82653,   0.00000,   0.00000,   0.00000,-261719055.40923,   0.00000
10359464.00663,210836016.43166,-35728621.32871,  -0.00036,   0.00094,  -0.00046,214952551.37333,   0.00000,274640135.82653,   0.00000,   0.00000,   0.00000,-259687584.45320,   0.00000
10980775.63604,213139780.17098,-35925049.74763,  -0.00037,   0.00095,  -0.00047,216980484.87788,   0.00000,274640135.82653,   0.00000,   0.00000,   0.00000,-257659650.94865,   0.00000
11608492.53999,215458489.55086,-36125748.34957,  -0.00037,   0.00096,  -0.00047,219023237.65165,   0.00000,274640135.82653,   0.00000,   0.00000,   0.00000,-255616898.17488,   0.00000
12229804.16941,217762253.29018,-36317906.58548,  -0.00037,   0.00097,  -0.00047,221051460.91140,   0.00000,274640135.82653,   0.00000,   0.00000,   0.00000,-253588674.91513,   0.00000
12887412.35449,220093773.21912,-36510064.82138,  -0.00037,   0.00098,  -0.00047,223091617.26671,   0.00000,274640135.82653,   0.00000,   0.00000,   0.00000,-251548518.55982,   0.00000
13523669.62448,222403942.23296,-36702223.05728,  -0.00037,   0.00099,  -0.00048,225121845.35263,   0.00000,274640135.82653,   0.00000,   0.00000,   0.00000,-249518290.47390,   0.00000
14196223.45014,224741867.43644,-36890111.11016,  -0.00037,   0.00099,  -0.00048,227162045.38500,   0.00000,274640135.82653,   0.00000,   0.00000,   0.00000,-247478090.44153,   0.00000
14853831.63522,227073387.36538,-37073728.98002,  -0.00038,   0.00100,  -0.00048,229201731.75725,   0.00000,274640135.82653,   0.00000,   0.00000,   0.00000,-245438404.06928,   0.00000
15541331.10145,229417717.84339,-37257346.84989,  -0.00038,   0.00101,  -0.00048,231242070.57153,   0.00000,274640135.82653,   0.00000,   0.00000,   0.00000,-243398065.25500,   0.00000
16213884.92711,231755643.04686,-37440964.71975,  -0.00038,   0.00102,  -0.00049,233283917.87339,   0.00000,274640135.82653,   0.00000,   0.00000,   0.00000,-241356217.95314,   0.00000
16916330.03391,234106378.79940,-37620312.40659,  -0.00038,   0.00103,  -0.00049,235324460.62039,   0.00000,274640135.82653,   0.00000,   0.00000,   0.00000,-239315675.20614,   0.00000
17603829.50013,236450709.27740,-37795389.91041,  -0.00038,   0.00104,  -0.00049,237364422.89229,   0.00000,274640135.82653,   0.00000,   0.00000,   0.00000,-237275712.93424,   0.00000
18306274.60693,238801445.02993,-37970467.41423,  -0.00038,   0.00105,  -0.00049,239405418.05917,   0.00000,274640135.82653,   0.00000,   0.00000,   0.00000,-235234717.76736,   0.00000
19023665.35430,241158586.05700,-38141274.73504,  -0.00038,   0.00106,  -0.00050,241445467.44410,   0.00000,274640135.82653,   0.00000,   0.00000,   0.00000,-233194668.38243,   0.00000
19747461.37619,243530672.72463,-38312082.05584,  -0.00039,   0.00107,  -0.00050,243498429.41861,   0.00000,274640135.82653,   0.00000,   0.00000,   0.00000,-231141706.40792,   0.00000
20479797.76413,245894219.02623,-38478619.19362,  -0.00039,   0.00108,  -0.00050,245538871.86166,   0.00000,274640135.82653,   0.00000,   0.00000,   0.00000,-229101263.96487,   0.00000
21218539.42660,248272710.96839,-38645156.33140,  -0.00039,   0.00109,  -0.00050,247592256.43060,   0.00000,274640135.82653,   0.00000,   0.00000,   0.00000,-227047879.39593,   0.00000
21965821.45511,250642662.54452,-38807423.28616,  -0.00039,   0.00110,  -0.00050,249633166.72960,   0.00000,274640135.82653,   0.00000,   0.00000,   0.00000,-225006969.09692,   0.00000
22719508.75815,253027559.76121,-38965420.05790,  -0.00039,   0.00111,  -0.00051,251685065.30532,   0.00000,274640135.82653,   0.00000,   0.00000,   0.00000,-222955070.52121,   0.00000
23488141.70175,255418862.25244,-39123416.82965,  -0.00039,   0.00112,  -0.00051,253738248.59158,   0.00000,274640135.82653,   0.00000,   0.00000,   0.00000,-220901887.23495,   0.00000
24250369.37083,257795219.10309,-39281413.60139,  -0.00039,   0.00113,  -0.00051,255780989.29615,   0.00000,274640135.82653,   0.00000,   0.00000,   0.00000,-218859146.53038,   0.00000
25019002.31444,260186521.59432,-39435140.19011,  -0.00039,   0.00114,  -0.00051,257834753.58385,   0.00000,274640135.82653,   0.00000,   0.00000,   0.00000,-216805382.24268,   0.00000
25817526.53919,262590634.63460,-39584596.59581,  -0.00039,   0.00114,  -0.00051,259887987.90776,   0.00000,274640135.82653,   0.00000,   0.00000,   0.00000,-214752147.91877,   0.00000
26601105.12337,264988342.40036,-39734053.00151,  -0.00040,   0.00115,  -0.00052,261942441.29769,   0.00000,274640135.82653,   0.00000,   0.00000,   0.00000,-212697694.52884,   0.00000
27399629.34811,267392455.44064,-39879239.22419,  -0.00040,   0.00116,  -0.00052,263996348.28674,   0.00000,274640135.82653,   0.00000,   0.00000,   0.00000,-210643787.53979,   0.00000
28206693.93890,269788028.11489,-40024425.44687,  -0.00040,   0.00117,  -0.00052,266039909.14282,   0.00000,274640135.82653,   0.00000,   0.00000,   0.00000,-208600226.68371,   0.00000
29020163.80422,272198546.42970,-40165341.48654,  -0.00040,   0.00118,  -0.00052,268094640.28808,   0.00000,274640135.82653,   0.00000,   0.00000,   0.00000,-206545495.53845,   0.00000
29833633.66954,274609064.74452,-40306257.52620,  -0.00040,   0.00119,  -0.00052,270150663.67708,   0.00000,274640135.82653,   0.00000,   0.00000,   0.00000,-204489472.14945,   0.00000
30662049.17543,277025988.33386,-40442903.38284,  -0.00040,   0.00120,  -0.00053,272206282.61839,   0.00000,274640135.82653,   0.00000,   0.00000,   0.00000,-202433853.20814,   0.00000
31505410.32189,279449317.19774,-40575279.05646,  -0.00040,   0.00121,  -0.00053,274261565.24543,   0.00000,274640135.82653,   0.00000,   0.00000,   0.00000,-200378570.58110,   0.00000
32348771.46835,281872646.06161,-40711924.91310,  -0.00040,   0.00122,  -0.00053,276320068.56732,   0.00000,274640135.82653,   0.00000,   0.00000,   0.00000,-198320067.25921,   0.00000
33192132.61480,284295974.92549,-40840030.40370,  -0.00040,   0.00123,  -0.00053,278376100.94061,   0.00000,274640135.82653,   0.00000,   0.00000,   0.00000,-196264034.88592,   0.00000
34050439.40183,286725709.06389,-40968135.89430,  -0.00040,   0.00124,  -0.00053,280433758.23211,   0.00000,274640135.82653,   0.00000,   0.00000,   0.00000,-194206377.59442,   0.00000
34915151.46339,289170388.84287,-41091971.20189,  -0.00041,   0.00125,  -0.00053,282502750.34385,   0.00000,274640135.82653,   0.00000,   0.00000,   0.00000,-192137385.48268,   0.00000
35788403.89099,291606528.25580,-41215806.50947,  -0.00041,   0.00126,  -0.00054,284561545.33365,   0.00000,274640135.82653,   0.00000,   0.00000,   0.00000,-190078590.49288,   0.00000
36661656.31859,294042667.66874,-41339641.81705,  -0.00041,   0.00127,  -0.00054,286621656.86735,   0.00000,274640135.82653,   0.00000,   0.00000,   0.00000,-188018478.95918,   0.00000
37549854.38676,296485212.35620,-41454936.75859,  -0.00041,   0.00128,  -0.00054,288679807.92487,   0.00000,274640135.82653,   0.00000,   0.00000,   0.00000,-185960327.90166,   0.00000
38438052.45493,298927757.04367,-41574501.88315,  -0.00041,   0.00129,  -0.00054,290741129.91234,   0.00000,274640135.82653,   0.00000,   0.00000,   0.00000,-183899005.91419,   0.00000
39341196.16367,301376707.00566,-41685526.64167,  -0.00041,   0.00129,  -0.00054,292800578.01493,   0.00000,274640135.82653,   0.00000,   0.00000,   0.00000,-181839557.81160,   0.00000
40244339.87241,303825656.96766,-41796551.40019,  -0.00041,   0.00130,  -0.00054,294861372.25733,   0.00000,274640135.82653,   0.00000,   0.00000,   0.00000,-179778763.56920,   0.00000
41147483.58115,306274606.92965,-41907576.15871,  -0.00041,   0.00131,  -0.00054,296923484.61095,   0.00000,274640135.82653,   0.00000,   0.00000,   0.00000,-177716651.21558,   0.00000
42065572.93046,308729962.16618,-42014330.73422,  -0.00041,   0.00132,  -0.00055,298985637.09133,   0.00000,274640135.82653,   0.00000,   0.00000,   0.00000,-175654498.73519,   0.00000
42998607.92034,311191722.67723,-42121085.30972,  -0.00041,   0.00133,  -0.00055,301049688.85130,   0.00000,274640135.82653,   0.00000,   0.00000,   0.00000,-173590446.97523,   0.00000
43931642.91022,313653483.18829,-42223569.70220,  -0.00041,   0.00134,  -0.00055,303113301.35636,   0.00000,274640135.82653,   0.00000,   0.00000,   0.00000,-171526834.47017,   0.00000
44864677.90009,316115243.69935,-42321783.91166,  -0.00041,   0.00135,  -0.00055,305176470.61117,   0.00000,274640135.82653,   0.00000,   0.00000,   0.00000,-169463665.21536,   0.00000
45812658.53054,318583409.48493,-42419998.12112,  -0.00041,   0.00136,  -0.00055,307241605.66277,   0.00000,274640135.82653,   0.00000,   0.00000,   0.00000,-167398530.16376,   0.00000
46760639.16099,321051575.27052,-42513942.14756,  -0.00041,   0.00137,  -0.00055,309306321.18647,   0.00000,274640135.82653,   0.00000,   0.00000,   0.00000,-165333814.64006,   0.00000
47723565.43201,323526146.33063,-42607886.17400,  -0.00041,   0.00138,  -0.00055,311373057.17799,   0.00000,274640135.82653,   0.00000,   0.00000,   0.00000,-163267078.64854,   0.00000
48680086.42850,325985771.75018,-42697560.01742,  -0.00041,   0.00139,  -0.00056,313427349.71490,   0.00000,274640135.82653,   0.00000,   0.00000,   0.00000,-161212786.11163,   0.00000
49657958.34009,328466748.08482,-42787233.86084,  -0.00041,   0.00140,  -0.00056,315495755.08366,   0.00000,274640135.82653,   0.00000,   0.00000,   0.00000,-159144380.74287,   0.00000
50635830.25168,330947724.41947,-42872637.52124,  -0.00041,   0.00141,  -0.00056,317563788.79195,   0.00000,274640135.82653,   0.00000,   0.00000,   0.00000,-157076347.03458,   0.00000
51613702.16327,333428700.75411,-42958041.18165,  -0.00042,   0.00142,  -0.00056,319633169.41559,   0.00000,274640135.82653,   0.00000,   0.00000,   0.00000,-155006966.41094,   0.00000
52600114.44090,335901136.72272,-43039174.65903,  -0.00042,   0.00143,  -0.00056,321690875.10273,   0.00000,274640135.82653,   0.00000,   0.00000,   0.00000,-152949260.72380,   0.00000
53607877.63364,338394923.60643,-43116037.95339,  -0.00042,   0.00144,  -0.00056,323761136.32868,   0.00000,274640135.82653,   0.00000,   0.00000,   0.00000,-150878999.49785,   0.00000
54600695.18580,340882305.21560,-43192901.24775,  -0.00042,   0.00144,  -0.00056,325831937.10433,   0.00000,274640135.82653,   0.00000,   0.00000,   0.00000,-148808198.72220,   0.00000
55616998.74457,343367551.73327,-43269764.54211,  -0.00042,   0.00145,  -0.00056,327893688.57843,   0.00000,274640135.82653,   0.00000,   0.00000,   0.00000,-146746447.24810,   0.00000
56618356.66277,345846392.97640,-43342357.65345,  -0.00042,   0.00146,  -0.00056,329954226.09627,   0.00000,274640135.82653,   0.00000,   0.00000,   0.00000,-144685909.73026,   0.00000
57641065.49607,348346585.13464,-43410680.58177,  -0.00042,   0.00147,  -0.00056,332027452.24322,   0.00000,274640135.82653,   0.00000,   0.00000,   0.00000,-142612683.58331,   0.00000
58672314.69541,350838236.92683,-43479003.51009,  -0.00042,   0.00148,  -0.00057,334090839.13838,   0.00000,274640135.82653,   0.00000,   0.00000,   0.00000,-140549296.68815,   0.00000
59703563.89475,353329888.71903,-43543056.25539,  -0.00042,   0.00149,  -0.00057,336153931.19976,   0.00000,274640135.82653,   0.00000,   0.00000,   0.00000,-138486204.62676,   0.00000
60741218.36862,355836486.15180,-43607109.00069,  -0.00042,   0.00150,  -0.00057,338230540.67173,   0.00000,274640135.82653,   0.00000,   0.00000,   0.00000,-136409595.15480,   0.00000
61787413.20853,358334543.21852,-43666891.56297,  -0.00042,   0.00151,  -0.00057,340295690.63127,   0.00000,274640135.82653,   0.00000,   0.00000,   0.00000,-134344445.19526,   0.00000
62833608.04844,360832600.28525,-43722403.94223,  -0.00042,   0.00152,  -0.00057,342360569.24103,   0.00000,274640135.82653,   0.00000,   0.00000,   0.00000,-132279566.58550,   0.00000
63894748.52892,363337062.62650,-43777916.32149,  -0.00042,   0.00153,  -0.00057,344427855.42437,   0.00000,274640135.82653,   0.00000,   0.00000,   0.00000,-130212280.40216,   0.00000
64955889.00940,365841524.96776,-43833428.70075,  -0.00042,   0.00154,  -0.00057,346496516.33443,   0.00000,274640135.82653,   0.00000,   0.00000,   0.00000,-128143619.49210,   0.00000
66010624.21535,368331041.66845,-43884670.89699,  -0.00042,   0.00155,  -0.00057,348552707.35808,   0.00000,274640135.82653,   0.00000,   0.00000,   0.00000,-126087428.46845,   0.00000
67086710.33640,370841909.28423,-43931642.91022,  -0.00042,   0.00156,  -0.00057,350621950.80023,   0.00000,274640135.82653,   0.00000,   0.00000,   0.00000,-124018185.02630,   0.00000
68177742.09803,373359182.17455,-43978614.92344,  -0.00042,   0.00157,  -0.00057,352693710.05329,   0.00000,274640135.82653,   0.00000,   0.00000,   0.00000,-121946425.77323,   0.00000
69247422.94455,375855104.14976,-44025586.93666,  -0.00042,   0.00158,  -0.00057,354753469.96515,   0.00000,274640135.82653,   0.00000,   0.00000,   0.00000,-119886665.86138,   0.00000
70353400.34674,378378782.31461,-44064018.58384,  -0.00042,   0.00158,  -0.00057,356825984.32936,   0.00000,274640135.82653,   0.00000,   0.00000,   0.00000,-117814151.49717,   0.00000
71438026.83383,380881109.56436,-44106720.41404,  -0.00042,   0.00159,  -0.00057,358888039.27182,   0.00000,274640135.82653,   0.00000,   0.00000,   0.00000,-115752096.55470,   0.00000
72537598.96149,383389842.08863,-44140881.87820,  -0.00042,   0.00160,  -0.00057,360949508.97247,   0.00000,274640135.82653,   0.00000,   0.00000,   0.00000,-113690626.85406,   0.00000
73637171.08915,385898574.61291,-44175043.34236,  -0.00042,   0.00161,  -0.00057,363012350.83032,   0.00000,274640135.82653,   0.00000,   0.00000,   0.00000,-111627784.99621,   0.00000
74758094.13191,388428658.05228,-44209204.80652,  -0.00042,   0.00162,  -0.00057,365090085.07655,   0.00000,274640135.82653,   0.00000,   0.00000,   0.00000,-109550050.74998,   0.00000
75866206.62562,390928850.21052,-44239096.08766,  -0.00042,   0.00163,  -0.00058,367143093.59792,   0.00000,274640135.82653,   0.00000,   0.00000,   0.00000,-107497042.22861,   0.00000
76995670.03442,393450393.28386,-44268987.36880,  -0.00042,   0.00164,  -0.00058,369211048.38703,   0.00000,274640135.82653,   0.00000,   0.00000,   0.00000,-105429087.43950,   0.00000
78125133.44322,395971936.35719,-44290338.28390,  -0.00042,   0.00165,  -0.00058,371277325.84446,   0.00000,274640135.82653,   0.00000,   0.00000,   0.00000,-103362809.98207,   0.00000
79254596.85202,398493479.43053,-44315959.38202,  -0.00042,   0.00166,  -0.00058,373346510.60141,   0.00000,274640135.82653,   0.00000,   0.00000,   0.00000,-101293625.22512,   0.00000
80392600.62686,401006482.13782,-44337310.29712,  -0.00042,   0.00167,  -0.00058,375404590.05980,   0.00000,274640135.82653,   0.00000,   0.00000,   0.00000,-99235545.76673,   0.00000
81537009.67623,403534430.48569,-44354391.02920,  -0.00042,   0.00168,  -0.00058,377474854.50273,   0.00000,274640135.82653,   0.00000,   0.00000,   0.00000,-97165281.32379,   0.00000
82689959.09165,406053838.46752,-44371471.76128,  -0.00042,   0.00169,  -0.00058,379535579.74936,   0.00000,274640135.82653,   0.00000,   0.00000,   0.00000,-95104556.07717,   0.00000
83842908.50706,408573246.44934,-44384282.31034,  -0.00042,   0.00170,  -0.00058,381596193.96583,   0.00000,274640135.82653,   0.00000,   0.00000,   0.00000,-93043941.86070,   0.00000
84995857.92247,411092654.43117,-44397092.85940,  -0.00041,   0.00170,  -0.00058,383658180.03183,   0.00000,274640135.82653,   0.00000,   0.00000,   0.00000,-90981955.79470,   0.00000
86163752.97845,413618467.68753,-44405633.22544,  -0.00041,   0.00171,  -0.00058,385721519.29703,   0.00000,274640135.82653,   0.00000,   0.00000,   0.00000,-88918616.52950,   0.00000
87331648.03443,416144280.94388,-44409903.40846,  -0.00041,   0.00172,  -0.00058,387784775.35615,   0.00000,274640135.82653,   0.00000,   0.00000,   0.00000,-86855360.47038,   0.00000
88493137.81589,418655148.55967,-44414173.59148,  -0.00041,   0.00173,  -0.00058,389837039.72896,   0.00000,274640135.82653,   0.00000,   0.00000,   0.00000,-84803096.09757,   0.00000
89675978.51244,421187367.09055,-44418443.77450,  -0.00041,   0.00174,  -0.00058,391904560.42251,   0.00000,274640135.82653,   0.00000,   0.00000,   0.00000,-82735575.40402,   0.00000
90852413.93446,423704639.98087,-44418443.77450,  -0.00041,   0.00175,  -0.00058,393959627.58078,   0.00000,274640135.82653,   0.00000,   0.00000,   0.00000,-80680508.24575,   0.00000
92050200.27158,426243263.78629,-44414173.59148,  -0.00041,   0.00176,  -0.00058,396028582.23205,   0.00000,274640135.82653,   0.00000,   0.00000,   0.00000,-78611553.59448,   0.00000
93241581.33418,428766941.95113,-44409903.40846,  -0.00041,   0.00177,  -0.00058,398086540.68020,   0.00000,274640135.82653,   0.00000,   0.00000,   0.00000,-76553595.14633,   0.00000
94432962.39677,431290620.11598,-44401363.04242,  -0.00041,   0.00178,  -0.00058,400144443.41467,   0.00000,274640135.82653,   0.00000,   0.00000,   0.00000,-74495692.41186,   0.00000
95639289.09993,433820703.55535,-44392822.67638,  -0.00041,   0.00179,  -0.00058,402205346.66196,   0.00000,274640135.82653,   0.00000,   0.00000,   0.00000,-72434789.16457,   0.00000
96839210.52856,436335841.35416,-44380012.12732,  -0.00041,   0.00180,  -0.00058,404253802.91748,   0.00000,274640135.82653,   0.00000,   0.00000,   0.00000,-70386332.90904,   0.00000
98045537.23173,438865924.79354,-44367201.57826,  -0.00041,   0.00181,  -0.00058,406316044.07717,   0.00000,274640135.82653,   0.00000,   0.00000,   0.00000,-68324091.74936,   0.00000
99260404.30093,441387467.86687,-44350120.84618,  -0.00041,   0.00181,  -0.00058,408367513.14875,   0.00000,274640135.82653,   0.00000,   0.00000,   0.00000,-66272622.67778,   0.00000
100481676.64466,443923956.58078,-44333040.11410,  -0.00041,   0.00182,  -0.00058,410432794.06617,   0.00000,274640135.82653,   0.00000,   0.00000,   0.00000,-64207341.76036,   0.00000
101711489.35443,446451904.92865,-44311689.19900,  -0.00041,   0.00183,  -0.00058,412487357.02407,   0.00000,274640135.82653,   0.00000,   0.00000,   0.00000,-62152778.80246,   0.00000
102941302.06421,448979853.27651,-44286068.10088,  -0.00041,   0.00184,  -0.00058,414541936.48592,   0.00000,274640135.82653,   0.00000,   0.00000,   0.00000,-60098199.34061,   0.00000
104164709.49945,451492855.98381,-44260447.00276,  -0.00041,   0.00185,  -0.00058,416585435.45297,   0.00000,274640135.82653,   0.00000,   0.00000,   0.00000,-58054700.37356,   0.00000
105409467.84979,454027209.60620,-44230555.72162,  -0.00041,   0.00186,  -0.00057,418643192.46775,   0.00000,274640135.82653,   0.00000,   0.00000,   0.00000,-55996943.35878,   0.00000
106647820.92560,456546617.58803,-44200664.44048,  -0.00041,   0.00187,  -0.00057,420689869.18331,   0.00000,274640135.82653,   0.00000,   0.00000,   0.00000,-53950266.64322,   0.00000
107892579.27595,459080971.21043,-44170773.15934,  -0.00040,   0.00188,  -0.00057,422750385.35098,   0.00000,274640135.82653,   0.00000,   0.00000,   0.00000,-51889750.47554,   0.00000
109145877.99233,461606784.46678,-44132341.51216,  -0.00040,   0.00189,  -0.00057,424798963.12570,   0.00000,274640135.82653,   0.00000,   0.00000,   0.00000,-49841172.70083,   0.00000
110399176.70871,464132597.72314,-44093909.86498,  -0.00040,   0.00190,  -0.00057,426848929.33733,   0.00000,274640135.82653,   0.00000,   0.00000,   0.00000,-47791206.48920,   0.00000
111652475.42510,466658410.97949,-44055478.21780,  -0.00040,   0.00191,  -0.00057,428900264.07739,   0.00000,274640135.82653,   0.00000,   0.00000,   0.00000,-45739871.74914,   0.00000
112914314.50752,469175683.86981,-44012776.38760,  -0.00040,   0.00191,  -0.00057,430941048.73368,   0.00000,274640135.82653,   0.00000,   0.00000,   0.00000,-43699087.09285,   0.00000
114182558.86447,471707902.40070,-43970074.55740,  -0.00040,   0.00192,  -0.00057,432995714.72839,   0.00000,274640135.82653,   0.00000,   0.00000,   0.00000,-41644421.09814,   0.00000
115444397.94690,474225175.29101,-43923102.54418,  -0.00040,   0.00193,  -0.00057,435037932.66300,   0.00000,274640135.82653,   0.00000,   0.00000,   0.00000,-39602203.16353,   0.00000
116721182.66989,476748853.45586,-43871860.34793,  -0.00040,   0.00194,  -0.00057,437082182.35776,   0.00000,274640135.82653,   0.00000,   0.00000,   0.00000,-37557953.46877,   0.00000
117997967.39288,479272531.62071,-43820618.15169,  -0.00040,   0.00195,  -0.00057,439127811.73831,   0.00000,274640135.82653,   0.00000,   0.00000,   0.00000,-35512324.08822,   0.00000
119289697.75645,481802615.06008,-43765105.77243,  -0.00040,   0.00196,  -0.00057,441175539.88247,   0.00000,274640135.82653,   0.00000,   0.00000,   0.00000,-33464595.94406,   0.00000
120581428.12001,484332698.49946,-43709593.39317,  -0.00040,   0.00197,  -0.00057,443224661.81016,   0.00000,274640135.82653,   0.00000,   0.00000,   0.00000,-31415474.01636,   0.00000
121866753.20904,486847836.29826,-43649810.83089,  -0.00039,   0.00198,  -0.00057,445261354.80885,   0.00000,274640135.82653,   0.00000,   0.00000,   0.00000,-29378781.01768,   0.00000
123158483.57261,489377919.73764,-43590028.26861,  -0.00039,   0.00199,  -0.00057,447311960.05385,   0.00000,274640135.82653,   0.00000,   0.00000,   0.00000,-27328175.77268,   0.00000
124458754.30221,491899462.81098,-43525975.52331,  -0.00039,   0.00200,  -0.00057,449352200.71629,   0.00000,274640135.82653,   0.00000,   0.00000,   0.00000,-25287935.11024,   0.00000
125752619.75728,494406060.24374,-43461922.77801,  -0.00039,   0.00200,  -0.00057,451381249.80632,   0.00000,274640135.82653,   0.00000,   0.00000,   0.00000,-23258886.02021,   0.00000
127052890.48689,496927603.31708,-43393599.84969,  -0.00039,   0.00201,  -0.00056,453422986.93286,   0.00000,274640135.82653,   0.00000,   0.00000,   0.00000,-21217148.89367,   0.00000
128368106.85706,499455551.66494,-43325276.92137,  -0.00039,   0.00202,  -0.00056,455468214.23834,   0.00000,274640135.82653,   0.00000,   0.00000,   0.00000,-19171921.58819,   0.00000
129676917.95270,501968554.37224,-43252683.81003,  -0.00039,   0.00203,  -0.00056,457501018.09549,   0.00000,274640135.82653,   0.00000,   0.00000,   0.00000,-17139117.73104,   0.00000
131000674.68892,504487962.35407,-43175820.51567,  -0.00039,   0.00204,  -0.00056,459536148.65415,   0.00000,274640135.82653,   0.00000,   0.00000,   0.00000,-15103987.17237,   0.00000
132309485.78456,507000965.06136,-43098957.22131,  -0.00039,   0.00205,  -0.00056,461570473.45219,   0.00000,274640135.82653,   0.00000,   0.00000,   0.00000,-13069662.37434,   0.00000
133633242.52077,509520373.04319,-43017823.74393,  -0.00039,   0.00206,  -0.00056,463607154.76740,   0.00000,274640135.82653,   0.00000,   0.00000,   0.00000,-11032981.05913,   0.00000
134965539.62303,512031240.65897,-42936690.26654,  -0.00038,   0.00207,  -0.00056,465634828.71264,   0.00000,274640135.82653,   0.00000,   0.00000,   0.00000,-9005307.11389,   0.00000
136289296.35924,514550648.64080,-42851286.60614,  -0.00038,   0.00208,  -0.00056,467673063.97282,   0.00000,274640135.82653,   0.00000,   0.00000,   0.00000,-6967071.85371,   0.00000
137621593.46150,517061516.25659,-42765882.94574,  -0.00038,   0.00208,  -0.00056,469702296.17065,   0.00000,274640135.82653,   0.00000,   0.00000,   0.00000,-4937839.65588,   0.00000
138953890.56375,519572383.87237,-42676209.10232,  -0.00038,   0.00209,  -0.00055,471731722.57874,   0.00000,274640135.82653,   0.00000,   0.00000,   0.00000,-2908413.24778,   0.00000
140301133.30657,522089656.76269,-42586535.25890,  -0.00038,   0.00210,  -0.00055,473764800.43405,   0.00000,274640135.82653,   0.00000,   0.00000,   0.00000,-875335.39248,   0.00000
140882079.84447,523173843.61367,-42545831.99828,  -0.00038,   0.00211,  -0.00055,474640132.43252,   0.00000,274640135.82653,   0.00000,   0.00000,   0.00000,  -7.24796,   0.00000
141417394.01782,523368809.93757,-42381785.68039,  -0.00038,   0.00211,  -0.00055,474646167.79982,   0.00001,274646175.16255,  -0.00000,   0.00001,  -0.00000,  -7.36274,   1.00000
142362237.18340,523712528.86548,-42088096.29250,  -0.00038,   0.00212,  -0.00055,474656882.14209,   0.00002,274656889.53464,  -0.00000,   0.00001,  -0.00000,  -7.39254,   1.00000
143298883.63723,524051290.48408,-41796748.33847,  -0.00038,   0.00213,  -0.00055,474667530.73040,   0.00002,274667535.90152,  -0.00001,   0.00002,  -0.00001,  -5.17112,   1.00000
144245660.21681,524390403.40529,-41506300.67865,  -0.00037,   0.00214,  -0.00055,474678190.68551,   0.00003,274678193.21214,  -0.00001,   0.00003,  -0.00001,  -2.52663,   1.00000
145184508.67617,524725794.03394,-41214017.13041,  -0.00037,   0.00215,  -0.00055,474688771.20871,   0.00004,274688776.76614,  -0.00001,   0.00004,  -0.00001,  -5.55743,   1.00000
146137475.21358,525064028.88131,-40917306.74278,  -0.00037,   0.00215,  -0.00055,474699423.37645,   0.00005,274699432.13049,  -0.00001,   0.00005,  -0.00001,  -8.75404,   1.00000
147067913.59006,525393603.26941,-40623151.48862,  -0.00037,   0.00216,  -0.00054,474710006.03353,   0.00006,274710006.91411,  -0.00002,   0.00006,  -0.00002,  -0.88058,   1.00000
148008680.96562,525724608.50429,-40325759.45360,  -0.00037,   0.00217,  -0.00054,474720579.28724,   0.00007,274720587.40690,  -0.00002,   0.00007,  -0.00002,  -8.11966,   1.00000
148945124.18928,526052121.43958,-40029526.05032,  -0.00037,   0.00218,  -0.00054,474731160.55345,   0.00008,274731166.44692,  -0.00002,   0.00008,  -0.00002,  -5.89347,   1.00000
149891828.04542,526380984.20606,-39730067.24441,  -0.00037,   0.00219,  -0.00054,474741748.11920,   0.00009,274741751.45731,  -0.00002,   0.00009,  -0.00002,  -3.33811,   1.00000
150830492.30669,526705027.63599,-39432920.74148,  -0.00037,   0.00220,  -0.00054,474752262.38784,   0.00010,274752268.88204,  -0.00002,   0.00010,  -0.00003,  -6.49420,   1.00000
151768693.98347,527027996.83934,-39131643.22063,  -0.00036,   0.00221,  -0.00054,474762837.27387,   0.00011,274762845.57923,  -0.00003,   0.00010,  -0.00003,  -8.30535,   1.00000
152698933.64887,527346233.44063,-38832679.35871,  -0.00036,   0.00222,  -0.00054,474773354.04371,   0.00012,274773354.60919,  -0.00003,   0.00011,  -0.00003,  -0.56548,   1.00000
153635823.54282,527664473.29866,-38531616.59488,  -0.00036,   0.00222,  -0.00053,474783796.24830,   0.00013,274783804.16216,  -0.00003,   0.00012,  -0.00003,  -7.91386,   1.00000
154572173.93513,527981582.02525,-38226460.79005,  -0.00036,   0.00223,  -0.00053,474794306.93213,   0.00014,274794313.05915,  -0.00003,   0.00013,  -0.00004,  -6.12702,   1.00000
155500638.37392,528294007.38534,-37923611.99786,  -0.00036,   0.00224,  -0.00053,474804751.88999,   0.00015,274804754.50654,  -0.00004,   0.00014,  -0.00004,  -2.61655,   1.00000
156425027.54383,528604090.24587,-37617791.21379,  -0.00036,   0.00225,  -0.00053,474815183.76909,   0.00016,274815189.29826,  -0.00004,   0.00015,  -0.00004,  -5.52917,   1.00000
157359389.51973,528914218.82070,-37312947.68138,  -0.00036,   0.00226,  -0.00053,474825628.99745,   0.00017,274825636.61145,  -0.00004,   0.00016,  -0.00004,  -7.61400,   1.00000
158289396.26155,529220900.72443,-37009310.80796,  -0.00035,   0.00227,  -0.00053,474836082.37706,   0.00018,274836082.53797,  -0.00004,   0.00017,  -0.00004,  -0.16091,   1.00000
159211860.93760,529524073.31451,-36703779.75139,  -0.00035,   0.00228,  -0.00052,474846448.97404,   0.00019,274846456.04231,  -0.00004,   0.00018,  -0.00005,  -7.06827,   1.00000
160147896.59910,529829429.01486,-36393997.12665,  -0.00035,   0.00228,  -0.00052,474856897.49951,   0.00020,274856903.13947,  -0.00005,   0.00019,  -0.00005,  -5.63996,   1.00000
161076159.95391,530130205.90786,-36086503.91663,  -0.00035,   0.00229,  -0.00052,474867280.37734,   0.00021,274867283.06421,  -0.00005,   0.00019,  -0.00005,  -2.68688,   1.00000
161996959.50747,530427511.78707,-35777106.29228,  -0.00035,   0.00230,  -0.00052,474877584.23158,   0.00022,274877590.86290,  -0.00005,   0.00020,  -0.00005,  -6.63132,   1.00000
162917014.06663,530723549.85520,-35463726.82176,  -0.00035,   0.00231,  -0.00052,474887956.85541,   0.00023,274887958.15351,  -0.00005,   0.00021,  -0.00006,  -1.29810,   1.00000
163843638.14082,531018400.94364,-35152399.49543,  -0.00034,   0.00232,  -0.00051,474898269.88577,   0.00024,274898273.02658,  -0.00005,   0.00022,  -0.00006,  -3.14081,   1.00000
164765912.55521,531309841.11550,-34842313.17047,  -0.00034,   0.00233,  -0.00051,474908583.56802,   0.00024,274908586.65958,  -0.00006,   0.00023,  -0.00006,  -3.09157,   1.00000
165684076.88511,531598900.83647,-34529289.29543,  -0.00034,   0.00234,  -0.00051,474918884.65645,   0.00025,274918894.21110,  -0.00006,   0.00024,  -0.00006,  -9.55465,   1.00000
166597915.53198,531884594.66134,-34217522.17838,  -0.00034,   0.00234,  -0.00051,474929193.87588,   0.00026,274929200.42841,  -0.00006,   0.00025,  -0.00006,  -6.55252,   1.00000
167518626.57800,532170116.46991,-33903595.17705,  -0.00034,   0.00235,  -0.00051,474939446.02978,   0.00027,274939449.98883,  -0.00006,   0.00026,  -0.00007,  -3.95906,   1.00000
168421086.63193,532450087.48410,-33586973.85975,  -0.00034,   0.00236,  -0.00050,474949671.24100,   0.00028,274949678.59234,  -0.00006,   0.00027,  -0.00007,  -7.35135,   1.00000
169347543.25835,532733012.63622,-33271170.35826,  -0.00033,   0.00237,  -0.00050,474959933.66658,   0.00029,274959936.27391,  -0.00007,   0.00028,  -0.00007,  -2.60732,   1.00000
170255716.29031,533010395.09728,-32952683.54544,  -0.00033,   0.00238,  -0.00050,474970169.23419,   0.00030,274970172.94247,  -0.00007,   0.00028,  -0.00007,  -3.70827,   1.00000
171156495.83751,533283508.27273,-32636445.37088,  -0.00033,   0.00239,  -0.00050,474980338.95993,   0.00031,274980342.92430,  -0.00007,   0.00029,  -0.00007,  -3.96437,   1.00000
172067109.82293,533556391.98031,-32321255.18109,  -0.00033,   0.00239,  -0.00050,474990524.13675,   0.00032,274990527.14703,  -0.00007,   0.00030,  -0.00008,  -3.01027,   1.00000
172973852.78777,533827837.49418,-31998963.55292,  -0.00033,   0.00240,  -0.00049,475000691.64224,   0.00033,275000701.31727,  -0.00007,   0.00031,  -0.00008,  -9.67502,   1.00000
173890125.63053,534098029.34999,-31681941.86538,  -0.00033,   0.00241,  -0.00049,475010887.92336,   0.00034,275010894.37017,  -0.00008,   0.00032,  -0.00008,  -6.44681,   1.00000
174785436.94918,534362879.65076,-31358978.78643,  -0.00032,   0.00242,  -0.00049,475020992.54725,   0.00035,275020996.51428,  -0.00008,   0.00033,  -0.00008,  -3.96703,   1.00000
175693268.58856,534627353.94202,-31040374.93913,  -0.00032,   0.00243,  -0.00049,475031177.44896,   0.00036,275031182.94741,  -0.00008,   0.00034,  -0.00008,  -5.49845,   1.00000
176594265.38522,534889484.82197,-30715596.39396,  -0.00032,   0.00244,  -0.00048,475041286.09117,   0.00037,275041294.48740,  -0.00008,   0.00035,  -0.00008,  -8.39623,   1.00000
177488055.01524,535147493.52713,-30393039.83327,  -0.00032,   0.00244,  -0.00048,475051336.53108,   0.00038,275051339.73802,  -0.00008,   0.00036,  -0.00009,  -3.20694,   1.00000
178380465.15584,535403082.53997,-30070903.74525,  -0.00032,   0.00245,  -0.00048,475061446.54069,   0.00038,275061449.03159,  -0.00008,   0.00036,  -0.00009,  -2.49090,   1.00000
179279959.66363,535658344.56203,-29746550.96041,  -0.00032,   0.00246,  -0.00048,475071501.47265,   0.00039,275071504.21642,  -0.00009,   0.00037,  -0.00009,  -2.74377,   1.00000
180175142.75954,535910334.74231,-29423522.02408,  -0.00031,   0.00247,  -0.00047,475081549.66114,   0.00040,275081558.38431,  -0.00009,   0.00038,  -0.00009,  -8.72317,   1.00000
181066250.38955,536159958.84169,-29097618.40756,  -0.00031,   0.00248,  -0.00047,475091600.98843,   0.00041,275091607.41112,  -0.00009,   0.00039,  -0.00009,  -6.42268,   1.00000
181950514.96893,536406432.97294,-28769706.82820,  -0.00031,   0.00249,  -0.00047,475101581.36243,   0.00042,275101586.45894,  -0.00009,   0.00040,  -0.00010,  -5.09651,   1.00000
182844487.30234,536652446.43136,-28442919.78679,  -0.00031,   0.00249,  -0.00047,475111578.92470,   0.00043,275111581.10055,  -0.00009,   0.00041,  -0.00010,  -2.17585,   1.00000
183734154.26173,536895221.88097,-28117473.25273,  -0.00031,   0.00250,  -0.00046,475121569.81954,   0.00044,275121574.78723,  -0.00010,   0.00042,  -0.00010,  -4.96770,   1.00000
184619745.73988,537135619.94000,-27789163.48121,  -0.00030,   0.00251,  -0.00046,475131556.48218,   0.00045,275131563.62969,  -0.00010,   0.00043,  -0.00010,  -7.14751,   1.00000
185498601.01194,537372924.52350,-27458821.31636,  -0.00030,   0.00252,  -0.00046,475141479.84761,   0.00046,275141482.88831,  -0.00010,   0.00044,  -0.00010,  -3.04070,   1.00000
186373220.58781,537607055.75078,-27129837.42159,  -0.00030,   0.00253,  -0.00046,475151396.49364,   0.00047,275151401.22649,  -0.00010,   0.00044,  -0.00010,  -4.73285,   1.00000
187257504.04860,537840660.23862,-26801998.58271,  -0.00030,   0.00253,  -0.00045,475161330.91864,   0.00048,275161335.63618,  -0.00010,   0.00045,  -0.00011,  -4.71754,   1.00000
188123841.34005,538069299.33568,-26471519.34813,  -0.00030,   0.00254,  -0.00045,475171243.95290,   0.00049,275171248.30322,  -0.00010,   0.00046,  -0.00011,  -4.35032,   1.00000
188997478.67773,538297499.86336,-26138771.79939,  -0.00029,   0.00255,  -0.00045,475181103.60842,   0.00049,275181109.04173,  -0.00011,   0.00047,  -0.00011,  -5.43330,   1.00000
189883276.50255,538525760.89792,-25806422.68184,  -0.00029,   0.00256,  -0.00045,475191048.14864,   0.00050,275191050.78659,  -0.00011,   0.00048,  -0.00011,  -2.63796,   1.00000
190746079.96706,538747789.88965,-25472975.03527,  -0.00029,   0.00257,  -0.00044,475200838.05992,   0.00051,275200841.73233,  -0.00011,   0.00049,  -0.00011,  -3.67240,   1.00000
191621027.28560,538969860.96948,-25139949.14783,  -0.00029,   0.00258,  -0.00044,475210713.07996,   0.00052,275210713.80128,  -0.00011,   0.00050,  -0.00011,  -0.72132,   1.00000
192475629.50008,539186451.58566,-24805042.58067,  -0.00029,   0.00258,  -0.00044,475220492.24587,   0.00053,275220499.65076,  -0.00011,   0.00051,  -0.00011,  -7.40489,   1.00000
193342321.42596,539403045.85958,-24470593.89756,  -0.00028,   0.00259,  -0.00043,475230356.73591,   0.00054,275230366.68846,  -0.00011,   0.00051,  -0.00012,  -9.95255,   1.00000
194213714.02159,539617758.37088,-24138789.00658,  -0.00028,   0.00260,  -0.00043,475240114.32345,   0.00055,275240121.92623,  -0.00011,   0.00052,  -0.00012,  -7.60278,   1.00000
195069888.17575,539829015.99497,-23799417.33992,  -0.00028,   0.00261,  -0.00043,475249911.93686,   0.00056,275249916.38077,  -0.00012,   0.00053,  -0.00012,  -4.44391,   1.00000
195919302.76667,540035926.33997,-23466384.70327,  -0.00028,   0.00262,  -0.00043,475259641.04908,   0.00057,275259649.01531,  -0.00012,   0.00054,  -0.00012,  -7.96623,   1.00000
196778517.50422,540242877.24805,-23130328.23332,  -0.00028,   0.00262,  -0.00042,475269392.18076,   0.00058,275269395.68035,  -0.00012,   0.00055,  -0.00012,  -3.49959,   1.00000
197633715.04315,540447458.45656,-22791459.01302,  -0.00027,   0.00263,  -0.00042,475279132.17954,   0.00058,275279138.55848,  -0.00012,   0.00056,  -0.00012,  -6.37894,   1.00000
198484715.73945,540649013.04251,-22454012.03876,  -0.00027,   0.00264,  -0.00042,475288880.56356,   0.00059,275288880.67487,  -0.00012,   0.00057,  -0.00012,  -0.11131,   1.00000
199329450.93667,540847676.91378,-22114426.77389,  -0.00027,   0.00265,  -0.00041,475298551.19573,   0.00060,275298555.03505,  -0.00012,   0.00058,  -0.00013,  -3.83932,   1.00000
200183733.37003,541045590.82915,-21776075.75861,  -0.00027,   0.00266,  -0.00041,475308241.66259,   0.00061,275308247.08779,  -0.00012,   0.00058,  -0.00013,  -5.42519,   1.00000
201018106.44201,541238419.93159,-21435755.05597,  -0.00027,   0.00266,  -0.00041,475317850.28938,   0.00062,275317853.15070,  -0.00013,   0.00059,  -0.00013,  -2.86132,   1.00000
201864248.10054,541430999.06651,-21096040.09634,  -0.00026,   0.00267,  -0.00040,475327538.24043,   0.00063,275327541.07035,  -0.00013,   0.00060,  -0.00013,  -2.82992,   1.00000
202704220.72360,541620727.94966,-20754160.23754,  -0.00026,   0.00268,  -0.00040,475337156.08880,   0.00064,275337161.67519,  -0.00013,   0.00061,  -0.00013,  -5.58639,   1.00000
203540054.26038,541807504.29980,-20413719.54463,  -0.00026,   0.00269,  -0.00040,475346774.90962,   0.00065,275346781.70216,  -0.00013,   0.00062,  -0.00013,  -6.79254,   1.00000
204383444.55908,541993599.06177,-20070914.64210,  -0.00026,   0.00269,  -0.00039,475356350.51218,   0.00066,275356353.40444,  -0.00013,   0.00063,  -0.00013,  -2.89226,   1.00000
205211160.03031,542175109.12979,-19729134.99527,  -0.00026,   0.00270,  -0.00039,475365966.78747,   0.00066,275365969.53927,  -0.00013,   0.00064,  -0.00013,  -2.75179,   1.00000
206046469.63350,542355914.44704,-19384986.68348,  -0.00025,   0.00271,  -0.00039,475375532.87228,   0.00067,275375537.73398,  -0.00013,   0.00064,  -0.00014,  -4.86170,   1.00000
206864061.97191,542531760.65619,-19042466.29184,  -0.00025,   0.00272,  -0.00038,475385079.97784,   0.00068,275385086.42857,  -0.00013,   0.00065,  -0.00014,  -6.45073,   1.00000
207689324.41966,542706910.59028,-18697560.89170,  -0.00025,   0.00273,  -0.00038,475394584.54200,   0.00069,275394587.55098,  -0.00014,   0.00066,  -0.00014,  -3.00899,   1.00000
208510502.73784,542879178.46126,-18354111.40402,  -0.00025,   0.00273,  -0.00038,475404082.80556,   0.00070,275404088.29716,  -0.00014,   0.00067,  -0.00014,  -5.49161,   1.00000
209341151.43771,543050563.80136,-18011949.94494,  -0.00025,   0.00274,  -0.00037,475413602.28502,   0.00071,275413607.87019,  -0.00014,   0.00068,  -0.00014,  -5.58517,   1.00000
210154307.17816,543217668.27101,-17667174.19083,  -0.00024,   0.00275,  -0.00037,475423098.25729,   0.00072,275423105.32115,  -0.00014,   0.00069,  -0.00014,  -7.06386,   1.00000
210975165.71296,543384002.92893,-17319994.86876,  -0.00024,   0.00276,  -0.00037,475432552.30342,   0.00073,275432556.01913,  -0.00014,   0.00070,  -0.00014,  -3.71572,   1.00000
211778446.16712,543545600.34056,-16974446.73497,  -0.00024,   0.00277,  -0.00036,475441986.76108,   0.00073,275441986.91509,  -0.00014,   0.00070,  -0.00014,  -0.15401,   1.00000
212591371.67575,543706792.31180,-16625976.08141,  -0.00024,   0.00277,  -0.00036,475451431.58051,   0.00074,275451434.85161,  -0.00014,   0.00071,  -0.00014,  -3.27110,   1.00000
213400237.38852,543865171.53391,-16278990.95382,  -0.00023,   0.00278,  -0.00036,475460877.51972,   0.00075,275460882.50441,  -0.00014,   0.00072,  -0.00014,  -4.98469,   1.00000
214203230.91036,544020407.39685,-15933970.46703,  -0.00023,   0.00279,  -0.00035,475470265.20659,   0.00076,275470266.58453,  -0.00015,   0.00073,  -0.00015,  -1.37793,   1.00000
215015810.92082,544175156.45614,-15586033.27363,  -0.00023,   0.00280,  -0.00035,475479663.70943,   0.00077,275479668.17145,  -0.00015,   0.00074,  -0.00015,  -4.46201,   1.00000
215811044.21287,544325808.73217,-15235492.12541,  -0.00023,   0.00280,  -0.00035,475489045.44961,   0.00078,275489047.61857,  -0.00015,   0.00075,  -0.00015,  -2.16896,   1.00000
216613945.61893,544475125.85802,-14886756.63355,  -0.00023,   0.00281,  -0.00034,475498375.79159,   0.00079,275498383.79003,  -0.00015,   0.00076,  -0.00015,  -7.99844,   1.00000
217399437.58193,544619981.37083,-14539649.00775,  -0.00022,   0.00282,  -0.00034,475507693.00108,   0.00079,275507699.74643,  -0.00015,   0.00076,  -0.00015,  -6.74535,   1.00000
218194527.54988,544764301.54435,-14189646.36878,  -0.00022,   0.00283,  -0.00033,475517029.01213,   0.00080,275517033.75183,  -0.00015,   0.00077,  -0.00015,  -4.73970,   1.00000
218985622.35043,544905901.40978,-13841143.07544,  -0.00022,   0.00283,  -0.00033,475526358.85897,   0.00081,275526367.68044,  -0.00015,   0.00078,  -0.00015,  -8.82147,   1.00000
219771211.23528,545044927.12811,-13490306.20069,  -0.00022,   0.00284,  -0.00033,475535633.94081,   0.00082,275535636.73164,  -0.00015,   0.00079,  -0.00015,  -2.79084,   1.00000
220552986.88663,545181672.84203,-13136728.95164,  -0.00021,   0.00285,  -0.00032,475544899.06731,   0.00083,275544904.05644,  -0.00015,   0.00080,  -0.00015,  -4.98913,   1.00000
221344028.73856,545316971.58431,-12788780.96716,  -0.00021,   0.00286,  -0.00032,475554183.96014,   0.00084,275554193.52664,  -0.00016,   0.00081,  -0.00015,  -9.56650,   1.00000
222116303.68530,545448120.59371,-12438590.65318,  -0.00021,   0.00286,  -0.00032,475563392.02673,   0.00085,275563397.99847,  -0.00016,   0.00082,  -0.00015,  -5.97173,   1.00000
222898124.08633,545578600.29138,-12085535.16068,  -0.00021,   0.00287,  -0.00031,475572619.84988,   0.00085,275572621.47313,  -0.00016,   0.00082,  -0.00015,  -1.62325,   1.00000
223662715.98932,545704888.55603,-11734113.67269,  -0.00020,   0.00288,  -0.00031,475581819.12856,   0.00086,275581824.44445,  -0.00016,   0.00083,  -0.00015,  -5.31589,   1.00000
224435316.34594,545830209.69912,-11380190.19680,  -0.00020,   0.00289,  -0.00030,475590979.14620,   0.00087,275590984.03472,  -0.00016,   0.00084,  -0.00016,  -4.88852,   1.00000
225205527.28137,545953186.57899,-11027448.19592,  -0.00020,   0.00289,  -0.00030,475600199.79023,   0.00088,275600206.41570,  -0.00016,   0.00085,  -0.00016,  -6.62547,   1.00000
225968875.20925,546073080.06555,-10676881.02706,  -0.00020,   0.00290,  -0.00030,475609302.91211,   0.00089,275609303.79154,  -0.00016,   0.00086,  -0.00016,  -0.87943,   1.00000
226729948.63633,546190983.89199,-10323254.06483,  -0.00020,   0.00291,  -0.00029,475618455.79576,   0.00090,275618462.56083,  -0.00016,   0.00087,  -0.00016,  -6.76507,   1.00000
227499049.73525,546307843.73298,-9967109.06856,  -0.00019,   0.00292,  -0.00029,475627577.24085,   0.00091,275627578.73641,  -0.00016,   0.00087,  -0.00016,  -1.49555,   1.00000
228251056.09488,546420713.26904,-9612595.90498,  -0.00019,   0.00292,  -0.00028,475636669.76190,   0.00091,275636674.21334,  -0.00016,   0.00088,  -0.00016,  -4.45143,   1.00000
228999258.52031,546531081.69199,-9259609.23226,  -0.00019,   0.00293,  -0.00028,475645763.44366,   0.00092,275645769.96667,  -0.00016,   0.00089,  -0.00016,  -6.52301,   1.00000
229756933.95086,546640612.49657,-8903807.03046,  -0.00019,   0.00294,  -0.00028,475654885.57125,   0.00093,275654886.00469,  -0.00017,   0.00090,  -0.00016,  -0.43343,   1.00000
230509400.41868,546747393.06062,-8549806.87549,  -0.00018,   0.00295,  -0.00027,475663935.29246,   0.00094,275663940.18783,  -0.00017,   0.00091,  -0.00016,  -4.89537,   1.00000
231244914.37000,546850382.05830,-8197420.17286,  -0.00018,   0.00295,  -0.00027,475672969.69609,   0.00095,275672973.36117,  -0.00017,   0.00092,  -0.00016,  -3.66508,   1.00000
231988606.30586,546952280.90991,-7842462.73581,  -0.00018,   0.00296,  -0.00026,475681959.24322,   0.00096,275681965.11933,  -0.00017,   0.00092,  -0.00016,  -5.87610,   1.00000
232728609.64237,547051960.24740,-7484784.95042,  -0.00018,   0.00297,  -0.00026,475690946.79566,   0.00096,275690956.38907,  -0.00017,   0.00093,  -0.00016,  -9.59341,   1.00000
233464855.67996,547149206.75673,-7128649.98523,  -0.00017,   0.00297,  -0.00025,475699942.87697,   0.00097,275699948.15980,  -0.00017,   0.00094,  -0.00016,  -5.28283,   1.00000
234210433.82566,547245259.20555,-6773981.97100,  -0.00017,   0.00298,  -0.00025,475708957.20326,   0.00098,275708962.11344,  -0.00017,   0.00095,  -0.00016,  -4.91017,   1.00000
234937992.99131,547337677.79019,-6416869.83219,  -0.00017,   0.00299,  -0.00025,475717886.17448,   0.00099,275717892.07052,  -0.00017,   0.00096,  -0.00016,  -5.89604,   1.00000
235661854.75622,547427719.23384,-6061297.60859,  -0.00017,   0.00300,  -0.00024,475726816.46003,   0.00100,275726822.63614,  -0.00017,   0.00097,  -0.00016,  -6.17611,   1.00000
236395070.54673,547516573.71971,-5707200.26326,  -0.00016,   0.00300,  -0.00024,475735772.47368,   0.00101,275735775.62794,  -0.00017,   0.00097,  -0.00016,  -3.15426,   1.00000
237110427.34427,547601903.36349,-5350611.96789,  -0.00016,   0.00301,  -0.00023,475744642.79373,   0.00101,275744644.77159,  -0.00017,   0.00098,  -0.00016,  -1.97785,   1.00000
237835207.21020,547686181.10788,-4991256.22336,  -0.00016,   0.00302,  -0.00023,475753528.95313,   0.00102,275753535.97286,  -0.00017,   0.00099,  -0.00016,  -7.01973,   1.00000
238556284.97135,547768108.84939,-4633456.38949,  -0.00016,   0.00303,  -0.00022,475762423.75078,   0.00103,275762427.92967,  -0.00017,   0.00100,  -0.00016,  -4.17889,   1.00000
239259605.18386,547846458.95856,-4277386.80710,  -0.00015,   0.00303,  -0.00022,475771228.54168,   0.00104,275771236.85430,  -0.00017,   0.00101,  -0.00016,  -8.31262,   1.00000
239973424.32407,547923891.98772,-3918437.70513,  -0.00015,   0.00304,  -0.00022,475780123.19313,   0.00105,275780129.87463,  -0.00018,   0.00101,  -0.00016,  -6.68150,   1.00000
240681484.34340,547998713.54531,-3561270.59500,  -0.00015,   0.00305,  -0.00021,475788893.42170,   0.00105,275788900.46501,  -0.00018,   0.00102,  -0.00016,  -7.04331,   1.00000
241386962.49603,548071415.65918,-3205543.66780,  -0.00015,   0.00305,  -0.00021,475797724.45806,   0.00106,275797733.55820,  -0.00018,   0.00103,  -0.00017,  -9.10014,   1.00000
242087857.14539,548141820.73387,-2847199.05533,  -0.00014,   0.00306,  -0.00020,475806501.68828,   0.00107,275806505.54514,  -0.00018,   0.00104,  -0.00017,  -3.85686,   1.00000
242785164.85067,548209979.89456,-2490404.31724,  -0.00014,   0.00307,  -0.00020,475815273.32261,   0.00108,275815278.52339,  -0.00018,   0.00105,  -0.00017,  -5.20078,   1.00000
243477964.96180,548275852.19365,-2130970.03256,  -0.00014,   0.00307,  -0.00019,475823984.14817,   0.00109,275823990.71602,  -0.00018,   0.00105,  -0.00017,  -6.56784,   1.00000
244181043.20951,548340587.75853,-1773011.72899,  -0.00014,   0.00308,  -0.00019,475832781.55780,   0.00110,275832787.95119,  -0.00018,   0.00106,  -0.00017,  -6.39338,   1.00000
244866715.00294,548402049.63613,-1416674.85759,  -0.00014,   0.00309,  -0.00018,475841495.32078,   0.00110,275841502.21608,  -0.00018,   0.00107,  -0.00017,  -6.89530,   1.00000
245547987.28251,548461258.20458,-1057662.24184,  -0.00013,   0.00310,  -0.00018,475850148.36977,   0.00111,275850156.05679,  -0.00018,   0.00108,  -0.00017,  -7.68702,   1.00000
246238612.34788,548519192.85796,-700188.91496,  -0.00013,   0.00310,  -0.00017,475858828.90053,   0.00112,275858833.80381,  -0.00018,   0.00109,  -0.00017,  -4.90328,   1.00000
246912882.94247,548574121.19705,-340015.72904,  -0.00013,   0.00311,  -0.00017,475867489.19187,   0.00113,275867489.84719,  -0.00018,   0.00109,  -0.00017,  -0.65532,   1.00000
247596490.86161,548627746.57793,18598.51093,  -0.00013,   0.00312,  -0.00017,475876163.30078,   0.00114,275876170.04676,  -0.00018,   0.00110,  -0.00017,  -6.74598,   1.00000
248275760.89885,548679122.99569,375664.95938,  -0.00012,   0.00312,  -0.00016,475884786.56355,   0.00114,275884790.28714,  -0.00018,   0.00111,  -0.00017,  -3.72359,   1.00000
248938762.14909,548727566.89981,735446.76485,  -0.00012,   0.00313,  -0.00016,475893382.34611,   0.00115,275893388.90381,  -0.00018,   0.00112,  -0.00017,  -6.55770,   1.00000
249611120.20789,548774719.10762,1093660.26195,  -0.00012,   0.00314,  -0.00015,475902006.26092,   0.00116,275902011.89527,  -0.00018,   0.00113,  -0.00017,  -5.63434,   1.00000
250279235.37150,548819627.89969,1454613.72492,  -0.00012,   0.00314,  -0.00015,475910569.85715,   0.00117,275910575.38570,  -0.00018,   0.00113,  -0.00017,  -5.52855,   1.00000
250943914.91605,548862456.90635,1814006.92069,  -0.00011,   0.00315,  -0.00014,475919135.16003,   0.00118,275919140.33604,  -0.00018,   0.00114,  -0.00017,  -5.17601,   1.00000
251605172.72253,548903230.05793,2171843.45367,  -0.00011,   0.00316,  -0.00014,475927702.08725,   0.00118,275927706.73207,  -0.00018,   0.00115,  -0.00017,  -4.64482,   1.00000
252262320.22898,548941865.97550,2528204.52464,  -0.00011,   0.00316,  -0.00013,475936211.16755,   0.00119,275936213.65782,  -0.00019,   0.00116,  -0.00017,  -2.49027,   1.00000
252916060.74035,548978404.50846,2887278.16201,  -0.00011,   0.00317,  -0.00013,475944719.50303,   0.00120,275944722.43373,  -0.00019,   0.00117,  -0.00016,  -2.93070,   1.00000
253566395.15381,549012836.42973,3249049.36374,  -0.00010,   0.00318,  -0.00012,475953227.17108,   0.00121,275953233.18603,  -0.00019,   0.00117,  -0.00016,  -6.01495,   1.00000
254212767.18089,549045279.04658,3605111.78547,  -0.00010,   0.00318,  -0.00012,475961679.38189,   0.00121,275961684.32097,  -0.00019,   0.00118,  -0.00016,  -4.93908,   1.00000
254855773.45632,549075641.80036,3963889.43264,  -0.00010,   0.00319,  -0.00011,475970130.95754,   0.00122,275970137.54822,  -0.00019,   0.00119,  -0.00016,  -6.59067,   1.00000
255494806.60048,549103816.43402,4325500.08115,  -0.00010,   0.00320,  -0.00011,475978522.51093,   0.00123,275978532.30129,  -0.00019,   0.00120,  -0.00016,  -9.79036,   1.00000
256131203.83743,549130293.08723,4681161.69339,  -0.00009,   0.00320,  -0.00010,475986984.23134,   0.00124,275986988.86006,  -0.00019,   0.00121,  -0.00016,  -4.62871,   1.00000
256763680.27542,549154599.58628,5039685.28275,  -0.00009,   0.00321,  -0.00010,475995379.18833,   0.00125,275995387.12359,  -0.00019,   0.00121,  -0.00016,  -7.93525,   1.00000
257392281.58269,549176743.87490,5401077.52968,  -0.00009,   0.00322,  -0.00009,476003721.04502,   0.00125,276003727.24912,  -0.00019,   0.00122,  -0.00016,  -6.20409,   1.00000
258030291.31744,549197688.15875,5756597.96180,  -0.00009,   0.00322,  -0.00009,476012087.77729,   0.00126,276012092.40234,  -0.00019,   0.00123,  -0.00016,  -4.62506,   1.00000
258652385.37388,549216040.24260,6114908.53079,  -0.00008,   0.00323,  -0.00008,476020433.11609,   0.00127,276020436.23761,  -0.00019,   0.00124,  -0.00016,  -3.12152,   1.00000
259271192.40997,549232332.88465,6475924.11902,  -0.00008,   0.00324,  -0.00008,476028778.14485,   0.00128,276028782.78801,  -0.00019,   0.00124,  -0.00016,  -4.64316,   1.00000
259898930.41586,549247355.93511,6831257.54960,  -0.00008,   0.00324,  -0.00007,476037088.81858,   0.00128,276037094.05509,  -0.00019,   0.00125,  -0.00016,  -5.23651,   1.00000
260510833.29490,549259854.34056,7189397.13022,  -0.00008,   0.00325,  -0.00007,476045377.87675,   0.00129,276045384.08057,  -0.00019,   0.00126,  -0.00016,  -6.20383,   1.00000
261119041.82075,549270211.54016,7550475.86489,  -0.00007,   0.00326,  -0.00006,476053607.28186,   0.00130,276053616.73789,  -0.00019,   0.00127,  -0.00016,  -9.45603,   1.00000
261736706.46097,549279427.21358,7905662.55369,  -0.00007,   0.00326,  -0.00006,476061868.84133,   0.00131,276061874.69639,  -0.00019,   0.00128,  -0.00016,  -5.85506,   1.00000
262338611.80269,549286175.48422,8263671.32971,  -0.00007,   0.00327,  -0.00005,476070101.82665,   0.00132,276070111.52599,  -0.00019,   0.00128,  -0.00016,  -9.69934,   1.00000
262949766.74202,549291284.51696,8624281.87884,  -0.00007,   0.00328,  -0.00005,476078370.28434,   0.00132,276078375.83232,  -0.00019,   0.00129,  -0.00016,  -5.54798,   1.00000
263545042.46253,549294403.26434,8979475.96183,  -0.00006,   0.00328,  -0.00004,476086554.10232,   0.00133,276086556.69350,  -0.00019,   0.00130,  -0.00016,  -2.59118,   1.00000
264136779.05518,549295403.27306,9337682.83100,  -0.00006,   0.00329,  -0.00004,476094671.78089,   0.00134,276094680.78237,  -0.00019,   0.00131,  -0.00016,  -9.00148,   1.00000
264738239.34281,549295119.41640,9693944.34001,  -0.00006,   0.00330,  -0.00003,476102886.42447,   0.00135,276102891.68714,  -0.00019,   0.00131,  -0.00016,  -5.26267,   1.00000
265323730.47232,549292367.43659,10053351.11307,  -0.00005,   0.00330,  -0.00003,476111012.72015,   0.00135,276111021.54221,  -0.00019,   0.00132,  -0.00016,  -8.82206,   1.00000
265918417.61132,549288439.20193,10407164.46171,  -0.00005,   0.00331,  -0.00002,476119112.11107,   0.00136,276119116.98073,  -0.00019,   0.00133,  -0.00016,  -4.86967,   1.00000
266497541.75874,549282199.94032,10763850.10928,  -0.00005,   0.00332,  -0.00002,476127189.23238,   0.00137,276127191.46268,  -0.00019,   0.00134,  -0.00016,  -2.23030,   1.00000
267085905.08023,549274214.18153,11123119.55359,  -0.00005,   0.00332,  -0.00001,476135289.37810,   0.00138,276135294.46534,  -0.00019,   0.00134,  -0.00016,  -5.08724,   1.00000
267659026.31608,549264641.18213,11476753.08184,  -0.00004,   0.00333,  -0.00001,476143370.16979,   0.00138,276143373.76369,  -0.00019,   0.00135,  -0.00016,  -3.59390,   1.00000
268241135.08049,549253204.99632,11833331.11986,  -0.00004,   0.00333,  -0.00000,476151414.75099,   0.00139,276151421.87989,  -0.00019,   0.00136,  -0.00015,  -7.12890,   1.00000
268807924.57889,549239898.04852,12188544.32384,  -0.00004,   0.00334,   0.00000,476159438.28997,   0.00140,276159447.67281,  -0.00019,   0.00137,  -0.00015,  -9.38284,   1.00000
269383736.37833,549224704.03311,12546712.09094,  -0.00004,   0.00335,   0.00001,476167439.05328,   0.00141,276167442.62488,  -0.00019,   0.00137,  -0.00015,  -3.57160,   1.00000
269944453.78520,549208082.24560,12899281.66379,  -0.00003,   0.00335,   0.00002,476175413.43438,   0.00141,276175413.67956,  -0.00019,   0.00138,  -0.00015,  -0.24519,   1.00000
270514395.08852,549189640.65316,13254425.26894,  -0.00003,   0.00336,   0.00002,476183405.09547,   0.00142,276183414.02082,  -0.00019,   0.00139,  -0.00015,  -8.92535,   1.00000
271068800.13748,549168933.58467,13612890.37833,  -0.00003,   0.00337,   0.00003,476191327.59457,   0.00143,276191333.90208,  -0.00019,   0.00140,  -0.00015,  -6.30751,   1.00000
271632779.97398,549147215.16259,13965418.11683,  -0.00003,   0.00337,   0.00003,476199270.38706,   0.00144,276199279.97484,  -0.00019,   0.00140,  -0.00015,  -9.58778,   1.00000
272181313.22428,549123274.13658,14321315.14197,  -0.00002,   0.00338,   0.00004,476207143.78582,   0.00144,276207145.67224,  -0.00019,   0.00141,  -0.00015,  -1.88642,   1.00000
272739248.46951,549097886.79264,14675521.29736,  -0.00002,   0.00338,   0.00004,476215029.93068,   0.00145,276215039.49358,  -0.00019,   0.00142,  -0.00015,  -9.56290,   1.00000
273282110.65911,549070882.95778,15028425.51886,  -0.00002,   0.00339,   0.00005,476222907.30591,   0.00146,276222910.79910,  -0.00019,   0.00142,  -0.00015,  -3.49319,   1.00000
273822098.58156,549042255.33227,15380311.86257,  -0.00002,   0.00340,   0.00005,476230720.58183,   0.00146,276230725.41492,  -0.00019,   0.00143,  -0.00015,  -4.83309,   1.00000
274371300.74576,549011725.21792,15734750.00702,  -0.00001,   0.00340,   0.00006,476238565.21738,   0.00147,276238570.22766,  -0.00019,   0.00144,  -0.00015,  -5.01028,   1.00000
274905506.40114,548979644.10273,16087903.47109,  -0.00001,   0.00341,   0.00006,476246387.84681,   0.00148,276246392.56223,  -0.00019,   0.00145,  -0.00015,  -4.71542,   1.00000
275436928.51614,548945972.90135,16440074.11605,  -0.00001,   0.00341,   0.00007,476254152.91480,   0.00149,276254158.40953,  -0.00019,   0.00145,  -0.00014,  -5.49473,   1.00000
275977774.64784,548910874.19298,16790546.12730,  -0.00001,   0.00342,   0.00007,476261950.70030,   0.00149,276261952.75817,  -0.00019,   0.00146,  -0.00014,  -2.05787,   1.00000
276503480.26217,548873657.03241,17144530.76312,  -0.00000,   0.00343,   0.00008,476269665.62317,   0.00150,276269667.29017,  -0.00019,   0.00147,  -0.00014,  -1.66701,   1.00000
277026489.56207,548835000.55232,17497037.46248,  -0.00000,   0.00343,   0.00009,476277376.28238,   0.00151,276277384.97795,  -0.00019,   0.00147,  -0.00014,  -8.69556,   1.00000
277558926.77700,548794911.78726,17847832.01807,   0.00000,   0.00344,   0.00009,476285126.39392,   0.00152,276285131.42375,  -0.00019,   0.00148,  -0.00014,  -5.02983,   1.00000
278076573.90212,548753294.55448,18197955.06369,   0.00000,   0.00344,   0.00010,476292787.97377,   0.00152,276292796.00622,  -0.00019,   0.00149,  -0.00014,  -8.03245,   1.00000
278591632.63466,548710155.57913,18547191.05416,   0.00001,   0.00345,   0.00010,476300398.29052,   0.00153,276300404.47374,  -0.00019,   0.00150,  -0.00014,  -6.18322,   1.00000
279103748.95422,548665214.99205,18898630.72197,   0.00001,   0.00346,   0.00011,476308069.55900,   0.00154,276308077.71391,  -0.00019,   0.00150,  -0.00014,  -8.15492,   1.00000
279613319.25287,548618762.58210,19249194.44014,   0.00001,   0.00346,   0.00011,476315689.65396,   0.00154,276315694.99695,  -0.00019,   0.00151,  -0.00014,  -5.34299,   1.00000
280120378.85654,548570800.53197,19598904.82105,   0.00001,   0.00347,   0.00012,476323252.19636,   0.00155,276323256.42279,  -0.00019,   0.00152,  -0.00014,  -4.22642,   1.00000
280624856.61065,548521499.20845,19947171.33850,   0.00002,   0.00347,   0.00012,476330816.88216,   0.00156,276330821.17895,  -0.00019,   0.00152,  -0.00014,  -4.29679,   1.00000
281126763.76365,548470875.96475,20293997.77668,   0.00002,   0.00348,   0.00013,476338383.65647,   0.00157,276338389.25978,  -0.00019,   0.00153,  -0.00013,  -5.60331,   1.00000
281625969.20671,548418149.12057,20644248.74775,   0.00002,   0.00348,   0.00014,476345898.54316,   0.00157,276345904.15569,  -0.00019,   0.00154,  -0.00013,  -5.61253,   1.00000
282122917.48180,548364759.00704,20988832.24545,   0.00002,   0.00349,   0.00014,476353416.14300,   0.00158,276353419.89441,  -0.00019,   0.00154,  -0.00013,  -3.75142,   1.00000
282617211.96650,548309258.04905,21336875.00986,   0.00003,   0.00350,   0.00015,476360875.66291,   0.00159,276360882.65432,  -0.00019,   0.00155,  -0.00013,  -6.99141,   1.00000
283108998.71947,548252481.33874,21683491.17693,   0.00003,   0.00350,   0.00015,476368343.59727,   0.00159,276368348.88788,  -0.00019,   0.00156,  -0.00013,  -5.29061,   1.00000
283597981.42491,548193758.51987,22032906.43515,   0.00003,   0.00351,   0.00016,476375813.30332,   0.00160,276375821.37047,  -0.00019,   0.00157,  -0.00013,  -8.06716,   1.00000
284084983.15083,548134276.84300,22377351.08233,   0.00003,   0.00351,   0.00016,476383232.09896,   0.00161,276383235.71902,  -0.00019,   0.00157,  -0.00013,  -3.62006,   1.00000
284557594.65779,548073782.69604,22720701.92616,   0.00004,   0.00352,   0.00017,476390627.05436,   0.00161,276390627.21619,  -0.00019,   0.00158,  -0.00013,  -0.16183,   1.00000
285039634.44299,548010944.48457,23067262.28807,   0.00004,   0.00352,   0.00017,476397990.08815,   0.00162,276397992.68049,  -0.00019,   0.00159,  -0.00013,  -2.59234,   1.00000
285519234.22895,547946883.09609,23412412.41423,   0.00004,   0.00353,   0.00018,476405361.55131,   0.00163,276405361.79217,  -0.00019,   0.00159,  -0.00012,  -0.24085,   1.00000
285984768.27252,547881659.08099,23757215.60969,   0.00004,   0.00353,   0.00019,476412643.20834,   0.00163,276412649.27483,  -0.00019,   0.00160,  -0.00012,  -6.06649,   1.00000
286459833.81958,547814993.05787,24100293.00766,   0.00005,   0.00354,   0.00019,476419965.47675,   0.00164,276419966.97456,  -0.00019,   0.00161,  -0.00012,  -1.49781,   1.00000
286920633.89710,547747421.78813,24442319.59977,   0.00005,   0.00355,   0.00020,476427257.53126,   0.00165,276427261.78745,  -0.00019,   0.00161,  -0.00012,  -4.25619,   1.00000
287390904.48762,547677423.18899,24787591.83310,   0.00005,   0.00355,   0.00020,476434524.31795,   0.00165,276434531.29485,  -0.00019,   0.00162,  -0.00012,  -6.97690,   1.00000
287847619.22276,547607107.55830,25128380.08719,   0.00005,   0.00356,   0.00021,476441707.26110,   0.00166,276441716.11349,  -0.00019,   0.00163,  -0.00012,  -8.85238,   1.00000
288301371.76589,547535114.36063,25471237.71090,   0.00006,   0.00356,   0.00021,476448958.13866,   0.00167,276448966.51505,  -0.00019,   0.00163,  -0.00012,  -8.37639,   1.00000
288765670.31623,547461988.05740,25809723.34855,   0.00006,   0.00357,   0.00022,476456124.13408,   0.00168,276456127.02533,  -0.00019,   0.00164,  -0.00012,  -2.89124,   1.00000
289215135.90041,547387517.35183,26150633.51273,   0.00006,   0.00357,   0.00023,476463325.62407,   0.00168,276463326.36602,  -0.00019,   0.00165,  -0.00011,  -0.74195,   1.00000
289663041.80310,547311446.62443,26491801.48269,   0.00006,   0.00358,   0.00023,476470403.68449,   0.00169,276470412.41217,  -0.00019,   0.00165,  -0.00011,  -8.72768,   1.00000
290108348.99513,547234539.01066,26830796.69181,   0.00007,   0.00358,   0.00024,476477555.78909,   0.00170,276477560.92144,  -0.00019,   0.00166,  -0.00011,  -5.13234,   1.00000
290551797.43308,547156295.92169,27169271.93835,   0.00007,   0.00359,   0.00024,476484650.24011,   0.00170,276484654.78585,  -0.00019,   0.00167,  -0.00011,  -4.54574,   1.00000
290993417.70729,547076719.38733,27507248.04044,   0.00007,   0.00359,   0.00025,476491687.02742,   0.00171,276491694.06832,  -0.00019,   0.00167,  -0.00011,  -7.04090,   1.00000
291432446.39166,546995234.33123,27848096.65955,   0.00007,   0.00360,   0.00025,476498738.03385,   0.00171,276498740.73446,  -0.00019,   0.00168,  -0.00011,  -2.70061,   1.00000
291858359.05775,546913690.98166,28184662.25854,   0.00007,   0.00360,   0.00026,476505698.07593,   0.00172,276505702.41186,  -0.00019,   0.00168,  -0.00011,  -4.33593,   1.00000
292293471.20981,546829823.01464,28523708.39936,   0.00008,   0.00361,   0.00027,476512693.78965,   0.00173,276512698.77988,  -0.00019,   0.00169,  -0.00011,  -4.99024,   1.00000
292726826.08435,546745796.22169,28857221.14528,   0.00008,   0.00361,   0.00027,476519691.54407,   0.00173,276519695.68275,  -0.00019,   0.00170,  -0.00010,  -4.13867,   1.00000
293146362.40669,546660027.98248,29194936.28446,   0.00008,   0.00362,   0.00028,476526610.19489,   0.00174,276526614.51930,  -0.00019,   0.00170,  -0.00010,  -4.32440,   1.00000
293575918.85192,546573690.93039,29526713.79294,   0.00008,   0.00362,   0.00028,476533552.53757,   0.00175,276533561.16813,  -0.00019,   0.00171,  -0.00010,  -8.63056,   1.00000
293991720.55033,546485629.07216,29862736.54725,   0.00009,   0.00363,   0.00029,476540421.46480,   0.00175,276540429.79422,  -0.00019,   0.00172,  -0.00010,  -8.32941,   1.00000
294417606.08559,546395793.57963,30197948.42804,   0.00009,   0.00363,   0.00029,476547266.03090,   0.00176,276547271.63218,  -0.00018,   0.00172,  -0.00010,  -5.60128,   1.00000
294829740.52416,546305455.62049,30532306.35424,   0.00009,   0.00364,   0.00030,476554085.28797,   0.00177,276554090.25265,  -0.00018,   0.00173,  -0.00010,  -4.96468,   1.00000
295240288.19828,546215099.69000,30861183.54963,   0.00009,   0.00364,   0.00031,476560906.29035,   0.00177,276560909.25660,  -0.00018,   0.00174,  -0.00010,  -2.96625,   1.00000
295648880.07884,546122529.77709,31193941.66992,   0.00010,   0.00365,   0.00031,476567675.67503,   0.00178,276567677.92366,  -0.00018,   0.00174,  -0.00009,  -2.24863,   1.00000
296067077.59171,546028481.13209,31524966.81840,   0.00010,   0.00365,   0.00032,476574475.34378,   0.00179,276574478.40746,  -0.00018,   0.00175,  -0.00009,  -3.06368,   1.00000
296472148.94775,545933685.70759,31856155.94287,   0.00010,   0.00366,   0.00032,476581194.88881,   0.00179,276581197.26538,  -0.00018,   0.00175,  -0.00009,  -2.37657,   1.00000
296863640.72476,545838509.96352,32186553.30998,   0.00010,   0.00366,   0.00033,476587888.50530,   0.00180,276587892.74059,  -0.00018,   0.00176,  -0.00009,  -4.23529,   1.00000
297265350.82403,545741530.80081,32516217.60754,   0.00011,   0.00367,   0.00033,476594558.14256,   0.00180,276594561.97051,  -0.00018,   0.00177,  -0.00009,  -3.82796,   1.00000
297665098.88418,545643637.38282,32844632.92116,   0.00011,   0.00367,   0.00034,476601230.13708,   0.00181,276601235.50973,  -0.00018,   0.00177,  -0.00009,  -5.37265,   1.00000
298063470.41865,545544484.87354,33172817.93687,   0.00011,   0.00368,   0.00035,476607849.80359,   0.00182,276607855.17922,  -0.00018,   0.00178,  -0.00008,  -5.37563,   1.00000
298448940.20387,545444661.27153,33501284.11555,   0.00011,   0.00368,   0.00035,476614388.61438,   0.00182,276614393.20166,  -0.00018,   0.00178,  -0.00008,  -4.58729,   1.00000
298844079.97925,545343361.68350,33828029.77179,   0.00012,   0.00369,   0.00036,476620958.27873,   0.00183,276620963.47367,  -0.00018,   0.00179,  -0.00008,  -5.19494,   1.00000
299225775.59652,545241790.28037,34154054.71285,   0.00012,   0.00369,   0.00036,476627501.75078,   0.00184,276627510.19901,  -0.00018,   0.00180,  -0.00008,  -8.44823,   1.00000
299606237.05776,545138989.51939,34479918.48511,   0.00012,   0.00370,   0.00037,476633998.14845,   0.00184,276634003.16484,  -0.00018,   0.00180,  -0.00008,  -5.01639,   1.00000
299996366.03984,545034710.60941,34804059.89461,   0.00012,   0.00370,   0.00038,476640525.56747,   0.00185,276640528.53595,  -0.00018,   0.00181,  -0.00008,  -2.96848,   1.00000
300373748.56412,544929817.45450,35128586.70262,   0.00012,   0.00371,   0.00038,476646971.68392,   0.00185,276646972.19893,  -0.00018,   0.00181,  -0.00008,  -0.51501,   1.00000
300749954.61589,544823678.75424,35453001.27034,   0.00013,   0.00371,   0.00039,476653359.76051,   0.00186,276653362.27585,  -0.00018,   0.00182,  -0.00007,  -2.51533,   1.00000
301124358.72277,544716714.11486,35776229.34202,   0.00013,   0.00372,   0.00039,476659755.57695,   0.00187,276659756.79596,  -0.00018,   0.00182,  -0.00007,  -1.21901,   1.00000
301496962.59811,544608922.67171,36098272.92529,   0.00013,   0.00372,   0.00040,476666148.41495,   0.00187,276666155.80345,  -0.00018,   0.00183,  -0.00007,  -7.38850,   1.00000
301868452.15138,544499901.73682,36420248.63434,   0.00013,   0.00372,   0.00040,476672493.85041,   0.00188,276672501.25557,  -0.00018,   0.00184,  -0.00007,  -7.40516,   1.00000
302227948.80171,544391443.69556,36738553.61300,   0.00014,   0.00373,   0.00041,476678750.93950,   0.00188,276678760.44661,  -0.00018,   0.00184,  -0.00007,  -9.50711,   1.00000
302596629.29903,544280402.30466,37059329.59434,   0.00014,   0.00373,   0.00042,476685056.40002,   0.00189,276685056.86360,  -0.00018,   0.00185,  -0.00007,  -0.46358,   1.00000
302952822.27550,544168808.52797,37380644.65541,   0.00014,   0.00374,   0.00042,476691269.21537,   0.00190,276691271.57168,  -0.00018,   0.00185,  -0.00006,  -2.35631,   1.00000
303319299.21771,544056874.14963,37696081.00103,   0.00014,   0.00374,   0.00043,476697507.18275,   0.00190,276697514.58126,  -0.00018,   0.00186,  -0.00006,  -7.39850,   1.00000
303672797.16018,543943284.53228,38016278.71952,   0.00015,   0.00375,   0.00043,476703679.61185,   0.00191,276703680.33128,  -0.00018,   0.00186,  -0.00006,  -0.71943,   1.00000
304025192.66140,543830090.28042,38331176.81299,   0.00015,   0.00375,   0.00044,476709842.82081,   0.00191,276709845.97258,  -0.00017,   0.00187,  -0.00006,  -3.15177,   1.00000
304376079.21235,543714497.10634,38650294.93009,   0.00015,   0.00376,   0.00044,476715954.22714,   0.00192,276715962.98810,  -0.00017,   0.00188,  -0.00006,  -8.76096,   1.00000
304726646.21772,543598867.20004,38965317.54294,   0.00015,   0.00376,   0.00045,476722021.26639,   0.00192,276722021.89594,  -0.00017,   0.00188,  -0.00006,  -0.62955,   1.00000
305075567.86431,543482481.17641,39279235.63096,   0.00015,   0.00376,   0.00046,476728075.46804,   0.00193,276728085.41129,  -0.00017,   0.00189,  -0.00005,  -9.94325,   1.00000
305422868.10388,543365383.77637,39592054.69128,   0.00016,   0.00377,   0.00046,476734147.18261,   0.00194,276734153.39051,  -0.00017,   0.00189,  -0.00005,  -6.20790,   1.00000
305769309.15105,543247053.82296,39904991.68151,   0.00016,   0.00377,   0.00047,476740160.51047,   0.00194,276740168.10860,  -0.00017,   0.00190,  -0.00005,  -7.59813,   1.00000
306103584.40774,543128278.98472,40218675.57533,   0.00016,   0.00378,   0.00047,476746100.58693,   0.00195,276746100.82984,  -0.00017,   0.00190,  -0.00005,  -0.24292,   1.00000
306447624.91464,543008002.91438,40530664.33332,   0.00016,   0.00378,   0.00048,476752062.91744,   0.00195,276752066.94784,  -0.00017,   0.00191,  -0.00005,  -4.03040,   1.00000
306779546.37309,542887280.47731,40843438.79272,   0.00017,   0.00378,   0.00048,476757941.95548,   0.00196,276757951.09168,  -0.00017,   0.00191,  -0.00005,  -9.13619,   1.00000
307122665.66460,542765783.18557,41151624.01926,   0.00017,   0.00379,   0.00049,476763800.51002,   0.00196,276763805.83183,  -0.00017,   0.00192,  -0.00004,  -5.32181,   1.00000
307452291.50538,542643140.80109,41463538.52945,   0.00017,   0.00379,   0.00050,476769638.06807,   0.00197,276769641.34753,  -0.00017,   0.00192,  -0.00004,  -3.27946,   1.00000
307781030.27307,542521075.31204,41770249.69104,   0.00017,   0.00380,   0.00050,476775466.57420,   0.00197,276775476.39449,  -0.00017,   0.00193,  -0.00004,  -9.82029,   1.00000
308109092.88527,542397800.91901,42077202.09982,   0.00018,   0.00380,   0.00051,476781255.86676,   0.00198,276781258.19494,  -0.00017,   0.00193,  -0.00004,  -2.32818,   1.00000
308436484.98851,542273286.14538,42384409.89493,   0.00018,   0.00380,   0.00051,476786986.46623,   0.00199,276786986.88634,  -0.00017,   0.00194,  -0.00004,  -0.42011,   1.00000
308763223.19589,542147521.50759,42691889.13365,   0.00018,   0.00381,   0.00052,476792658.37489,   0.00199,276792662.51687,  -0.00017,   0.00194,  -0.00004,  -4.14198,   1.00000
309077239.46485,542021948.99456,42999010.87927,   0.00018,   0.00381,   0.00052,476798311.90165,   0.00200,276798313.65976,  -0.00017,   0.00195,  -0.00003,  -1.75811,   1.00000
309401067.25498,541894877.87514,43304453.51785,   0.00018,   0.00382,   0.00053,476803998.11107,   0.00200,276803998.55330,  -0.00017,   0.00195,  -0.00003,  -0.44223,   1.00000
309713727.72717,541768739.11381,43606743.64798,   0.00019,   0.00382,   0.00054,476809593.38229,   0.00201,276809595.88983,  -0.00017,   0.00196,  -0.00003,  -2.50754,   1.00000
310037069.81920,541640495.83632,43908701.44901,   0.00019,   0.00382,   0.00054,476815164.77163,   0.00201,276815169.33617,  -0.00017,   0.00196,  -0.00003,  -4.56454,   1.00000
310347950.44849,541510529.58009,44215830.44463,   0.00019,   0.00383,   0.00055,476820658.08641,   0.00202,276820665.94852,  -0.00017,   0.00197,  -0.00003,  -7.86211,   1.00000
310658816.35090,541382636.55829,44513710.80497,   0.00019,   0.00383,   0.00055,476826154.51138,   0.00202,276826156.25027,  -0.00017,   0.00197,  -0.00003,  -1.73889,   1.00000
310967611.78422,541252775.03602,44814760.17190,   0.00019,   0.00383,   0.00056,476831655.22671,   0.00203,276831656.59206,  -0.00016,   0.00198,  -0.00002,  -1.36535,   1.00000
311276815.32793,541121006.48128,45117576.37486,   0.00020,   0.00384,   0.00056,476837040.19853,   0.00203,276837046.37755,  -0.00016,   0.00198,  -0.00002,  -6.17902,   1.00000
311584460.99772,540990658.61258,45413930.59792,   0.00020,   0.00384,   0.00057,476842491.34254,   0.00204,276842492.75786,  -0.00016,   0.00199,  -0.00002,  -1.41532,   1.00000
311881395.01286,540859295.63963,45712819.64290,   0.00020,   0.00385,   0.00057,476847791.48520,   0.00204,276847799.12114,  -0.00016,   0.00199,  -0.00002,  -7.63594,   1.00000
312188187.52673,540726432.14703,46010059.99296,   0.00020,   0.00385,   0.00058,476853133.48616,   0.00205,276853139.51123,  -0.00016,   0.00200,  -0.00002,  -6.02507,   1.00000
312494561.66343,540592296.39551,46307768.84815,   0.00021,   0.00385,   0.00059,476858425.17222,   0.00205,276858426.92580,  -0.00016,   0.00200,  -0.00002,  -1.75357,   1.00000
312788456.33385,540458481.13935,46605274.42664,   0.00021,   0.00386,   0.00059,476863679.72011,   0.00206,276863689.44368,  -0.00016,   0.00201,  -0.00001,  -9.72357,   1.00000
313082737.70532,540324822.76685,46899162.85774,   0.00021,   0.00386,   0.00060,476868885.97954,   0.00206,276868893.20106,  -0.00016,   0.00201,  -0.00001,  -7.22152,   1.00000
313376690.19033,540189893.42849,47193578.15948,   0.00021,   0.00386,   0.00060,476874041.54402,   0.00207,276874043.95703,  -0.00016,   0.00202,  -0.00001,  -2.41301,   1.00000
313669374.18761,540054384.88293,47487095.64573,   0.00021,   0.00387,   0.00061,476879195.14236,   0.00207,276879199.29985,  -0.00016,   0.00202,  -0.00001,  -4.15749,   1.00000
313962501.14457,539919036.33433,47777053.28451,   0.00022,   0.00387,   0.00061,476884291.33251,   0.00208,276884295.79490,  -0.00016,   0.00202,  -0.00001,  -4.46239,   1.00000
314254590.07953,539780950.41676,48071700.03778,   0.00022,   0.00387,   0.00062,476889343.08337,   0.00208,276889345.20556,  -0.00016,   0.00203,  -0.00001,  -2.12219,   1.00000
314546186.54317,539643746.42782,48361354.52440,   0.00022,   0.00388,   0.00062,476894386.45371,   0.00209,276894393.29676,  -0.00016,   0.00203,  -0.00000,  -6.84305,   1.00000
314826445.51460,539506224.21521,48652378.93011,   0.00022,   0.00388,   0.00063,476899351.84094,   0.00209,276899358.56490,  -0.00016,   0.00204,  -0.00000,  -6.72396,   1.00000
315117355.08252,539368651.47826,48937669.29276,   0.00022,   0.00388,   0.00063,476904343.90017,   0.00210,276904352.20385,  -0.00016,   0.00204,  -0.00000,  -8.30368,   1.00000
315397183.76192,539228517.27290,49229968.67113,   0.00023,   0.00388,   0.00064,476909206.30595,   0.00210,276909211.51493,  -0.00016,   0.00205,   0.00000,  -5.20898,   1.00000
315676612.30313,539089317.63961,49517319.38803,   0.00023,   0.00389,   0.00065,476914060.58657,   0.00210,276914069.33488,  -0.00016,   0.00205,   0.00000,  -8.74831,   1.00000
315965923.86774,538948590.91548,49803051.07554,   0.00023,   0.00389,   0.00065,476918956.36350,   0.00211,276918961.60200,  -0.00016,   0.00205,   0.00000,  -5.23850,   1.00000
316244791.24055,538809047.03585,50086155.92062,   0.00023,   0.00389,   0.00066,476923758.68770,   0.00211,276923764.73256,  -0.00016,   0.00206,   0.00001,  -6.04486,   1.00000
316511696.88475,538667679.72482,50374864.32558,   0.00023,   0.00390,   0.00066,476928488.29334,   0.00212,276928490.98638,  -0.00016,   0.00206,   0.00001,  -2.69304,   1.00000
316790325.91102,538525483.66439,50659388.82239,   0.00024,   0.00390,   0.00067,476933186.82276,   0.00212,276933188.22692,  -0.00015,   0.00207,   0.00001,  -1.40416,   1.00000
317068621.34828,538384287.33602,50939018.73801,   0.00024,   0.00390,   0.00067,476937877.13158,   0.00213,276937883.67112,  -0.00015,   0.00207,   0.00001,  -6.53954,   1.00000
317346008.21797,538240217.68016,51223497.96540,   0.00024,   0.00391,   0.00068,476942529.60764,   0.00213,276942532.37952,  -0.00015,   0.00208,   0.00001,  -2.77189,   1.00000
317613119.17597,538097365.39219,51505466.69211,   0.00024,   0.00391,   0.00068,476947088.01882,   0.00214,276947091.63098,  -0.00015,   0.00208,   0.00001,  -3.61215,   1.00000
317879976.70486,537955564.97364,51782575.91140,   0.00024,   0.00391,   0.00069,476951645.89084,   0.00214,276951648.88535,  -0.00015,   0.00208,   0.00002,  -2.99450,   1.00000
318156956.95172,537809799.85273,52063749.43666,   0.00025,   0.00391,   0.00069,476956185.35738,   0.00214,276956189.83175,  -0.00015,   0.00209,   0.00002,  -4.47437,   1.00000
318423743.81361,537665281.44192,52342482.71945,   0.00025,   0.00392,   0.00070,476960637.94475,   0.00215,276960641.04553,  -0.00015,   0.00209,   0.00002,  -3.10078,   1.00000
318689468.33195,537520252.97326,52620465.88877,   0.00025,   0.00392,   0.00070,476965089.11606,   0.00215,276965096.65798,  -0.00015,   0.00209,   0.00002,  -7.54193,   1.00000
318945089.72335,537376502.63356,52896061.79755,   0.00025,   0.00392,   0.00071,476969452.95763,   0.00216,276969462.31418,  -0.00015,   0.00210,   0.00002,  -9.35654,   1.00000
319211717.39500,537230316.99763,53171680.68296,   0.00025,   0.00392,   0.00071,476973798.83817,   0.00216,276973805.34888,  -0.00015,   0.00210,   0.00002,  -6.51071,   1.00000
319478374.82254,537082732.72774,53448182.04514,   0.00026,   0.00393,   0.00072,476978091.39229,   0.00216,276978095.38430,  -0.00015,   0.00211,   0.00002,  -3.99202,   1.00000
319733064.12746,536935719.75036,53724823.97821,   0.00026,   0.00393,   0.00072,476982354.66249,   0.00217,276982359.26414,  -0.00015,   0.00211,   0.00003,  -4.60165,   1.00000
319999624.29333,536787836.21925,53997433.69281,   0.00026,   0.00393,   0.00073,476986586.06051,   0.00217,276986594.06769,  -0.00015,   0.00211,   0.00003,  -8.00718,   1.00000
320256208.00109,536641254.65782,54267774.58335,   0.00026,   0.00393,   0.00073,476990729.22331,   0.00218,276990738.50785,  -0.00015,   0.00212,   0.00003,  -9.28454,   1.00000
320510944.42203,536492566.47612,54541501.75385,   0.00026,   0.00394,   0.00074,476994891.44274,   0.00218,276994893.87093,  -0.00015,   0.00212,   0.00003,  -2.42819,   1.00000
320766671.16892,536344078.42189,54812113.72582,   0.00027,   0.00394,   0.00074,476998979.65063,   0.00218,276998989.51208,  -0.00015,   0.00212,   0.00003,  -9.86145,   1.00000
321023425.91578,536195824.62875,55079639.53933,   0.00027,   0.00394,   0.00075,477003020.77376,   0.00219,277003025.20923,  -0.00015,   0.00213,   0.00003,  -4.43547,   1.00000
321280324.10608,536046123.56624,55348164.80764,   0.00027,   0.00394,   0.00075,477007000.97132,   0.00219,277007007.82130,  -0.00015,   0.00213,   0.00004,  -6.84998,   1.00000
321536268.50165,535895943.55040,55616032.44265,   0.00027,   0.00395,   0.00076,477010986.74491,   0.00220,277010994.62666,  -0.00015,   0.00213,   0.00004,  -7.88175,   1.00000
321792380.01405,535744309.99617,55884921.52944,   0.00027,   0.00395,   0.00076,477014924.60801,   0.00220,277014928.33036,  -0.00015,   0.00214,   0.00004,  -3.72235,   1.00000
322038709.44190,535594002.96903,56151694.89056,   0.00028,   0.00395,   0.00077,477018766.30975,   0.00220,277018771.17890,  -0.00014,   0.00214,   0.00004,  -4.86916,   1.00000
322295899.78302,535443789.74169,56412864.36434,   0.00028,   0.00395,   0.00077,477022635.51034,   0.00221,277022642.09007,  -0.00014,   0.00214,   0.00004,  -6.57973,   1.00000
322542661.45676,535290529.35738,56681783.19435,   0.00028,   0.00395,   0.00078,477026373.40724,   0.00221,277026378.61165,  -0.00014,   0.00215,   0.00004,  -5.20441,   1.00000
322790373.81869,535140201.42104,56941973.69453,   0.00028,   0.00396,   0.00078,477030103.92378,   0.00221,277030105.19928,  -0.00014,   0.00215,   0.00004,  -1.27550,   1.00000
323037412.33816,534986670.65981,57207326.81769,   0.00028,   0.00396,   0.00079,477033785.54703,   0.00222,277033785.66019,  -0.00014,   0.00215,   0.00005,  -0.11316,   1.00000
323284495.67304,534834381.53470,57468022.26529,   0.00029,   0.00396,   0.00079,477037460.01796,   0.00222,277037463.14659,  -0.00014,   0.00216,   0.00005,  -3.12864,   1.00000
323532790.18188,534682310.89332,57725802.86792,   0.00029,   0.00396,   0.00080,477041072.60394,   0.00222,277041080.27609,  -0.00014,   0.00216,   0.00005,  -7.67215,   1.00000
323780431.16673,534527000.41601,57988783.08805,   0.00029,   0.00396,   0.00080,477044647.81338,   0.00223,277044651.31075,  -0.00014,   0.00216,   0.00005,  -3.49737,   1.00000
324030254.82879,534373624.59865,58244830.98340,   0.00029,   0.00397,   0.00081,477048148.47925,   0.00223,277048154.79065,  -0.00014,   0.00217,   0.00005,  -6.31140,   1.00000
324269598.53229,534219883.38308,58503022.30104,   0.00029,   0.00397,   0.00081,477051569.61968,   0.00223,277051573.75463,  -0.00014,   0.00217,   0.00005,  -4.13495,   1.00000
324518902.24100,534064511.75181,58759695.42883,   0.00030,   0.00397,   0.00082,477055025.09196,   0.00224,277055027.93334,  -0.00014,   0.00217,   0.00005,  -2.84138,   1.00000
324757747.56286,533908747.43536,59018539.25216,   0.00030,   0.00397,   0.00082,477058389.39826,   0.00224,277058397.61619,  -0.00014,   0.00217,   0.00006,  -8.21793,   1.00000
324998895.70546,533754961.22589,59270532.92172,   0.00030,   0.00397,   0.00083,477061690.02108,   0.00224,277061699.32498,  -0.00014,   0.00218,   0.00006,  -9.30390,   1.00000
325239451.12818,533597839.20301,59527812.06774,   0.00030,   0.00397,   0.00083,477064950.98196,   0.00225,277064955.03371,  -0.00014,   0.00218,   0.00006,  -4.05175,   1.00000
325480177.70556,533442030.48653,59780524.61351,   0.00030,   0.00397,   0.00084,477068205.24917,   0.00225,277068207.27932,  -0.00014,   0.00218,   0.00006,  -2.03015,   1.00000
325723472.13623,533285287.59818,60032269.10631,   0.00030,   0.00398,   0.00084,477071339.27292,   0.00225,277071341.55019,  -0.00014,   0.00219,   0.00006,  -2.27727,   1.00000
325965977.68489,533128082.60564,60283506.16551,   0.00031,   0.00398,   0.00085,477074478.18955,   0.00226,277074479.65124,  -0.00014,   0.00219,   0.00006,  -1.46169,   1.00000
326207689.73849,532970407.57104,60534234.64079,   0.00031,   0.00398,   0.00085,477077611.64078,   0.00226,277077621.62849,  -0.00014,   0.00219,   0.00006,  -9.98771,   1.00000
326452036.37611,532811779.96227,60784062.22065,   0.00031,   0.00398,   0.00085,477080644.13361,   0.00226,277080645.44485,  -0.00014,   0.00219,   0.00006,  -1.31124,   1.00000
326685890.21422,532655704.74273,61030382.58256,   0.00031,   0.00398,   0.00086,477083630.37626,   0.00226,277083633.92355,  -0.00014,   0.00220,   0.00007,  -3.54729,   1.00000
326932137.12298,532495601.81907,61278868.44608,   0.00031,   0.00398,   0.00086,477086535.42440,   0.00227,277086543.40569,  -0.00014,   0.00220,   0.00007,  -7.98129,   1.00000
327166918.51866,532336247.83025,61527898.03073,   0.00032,   0.00398,   0.00087,477089415.32675,   0.00227,277089424.98423,  -0.00014,   0.00220,   0.00007,  -9.65748,   1.00000
327403209.35855,532177076.13282,61774283.17811,   0.00032,   0.00399,   0.00087,477092239.90034,   0.00227,277092245.43752,  -0.00013,   0.00220,   0.00007,  -5.53717,   1.00000
327639796.82288,532019289.30092,62016195.94694,   0.00032,   0.00399,   0.00088,477095058.11439,   0.00227,277095061.86957,  -0.00013,   0.00220,   0.00007,  -3.75517,   1.00000
327878123.50192,531858609.42076,62261368.96535,   0.00032,   0.00399,   0.00088,477097763.20711,   0.00228,277097767.62499,  -0.00013,   0.00221,   0.00007,  -4.41789,   1.00000
328116766.84478,531699319.74174,62502089.05672,   0.00032,   0.00399,   0.00089,477100462.14674,   0.00228,277100469.27191,  -0.00013,   0.00221,   0.00007,  -7.12517,   1.00000
328355943.80699,531538342.80112,62744245.23487,   0.00032,   0.00399,   0.00089,477103115.07194,   0.00228,277103117.33033,  -0.00013,   0.00221,   0.00007,  -2.25838,   1.00000
328595648.67187,531375638.93341,62987844.81579,   0.00033,   0.00399,   0.00089,477105704.21851,   0.00229,277105711.92127,  -0.00013,   0.00221,   0.00008,  -7.70276,   1.00000
328836751.79744,531216225.74119,63223007.85726,   0.00033,   0.00399,   0.00090,477108285.21011,   0.00229,277108294.37246,  -0.00013,   0.00222,   0.00008,  -9.16235,   1.00000
329067973.86607,531053196.04842,63466598.36747,   0.00033,   0.00399,   0.00090,477110738.23990,   0.00229,277110741.95888,  -0.00013,   0.00222,   0.00008,  -3.71898,   1.00000
329311276.32357,530892214.82211,63700715.64914,   0.00033,   0.00399,   0.00091,477113205.79282,   0.00229,277113209.28565,  -0.00013,   0.00222,   0.00008,  -3.49283,   1.00000
329544530.91297,530730745.26602,63937405.51165,   0.00033,   0.00399,   0.00091,477115586.42134,   0.00229,277115590.90655,  -0.00013,   0.00222,   0.00008,  -4.48522,   1.00000
329778391.69927,530567512.21989,64175614.74872,   0.00033,   0.00399,   0.00091,477117910.34537,   0.00230,277117918.88794,  -0.00013,   0.00222,   0.00008,  -8.54257,   1.00000
330024558.26217,530403149.38060,64410281.14131,   0.00034,   0.00400,   0.00092,477120213.15798,   0.00230,277120217.30750,  -0.00013,   0.00223,   0.00008,  -4.14953,   1.00000
330261802.39926,530240174.86254,64643576.45384,   0.00034,   0.00400,   0.00092,477122417.45478,   0.00230,277122421.88068,  -0.00013,   0.00223,   0.00008,  -4.42590,   1.00000
330498408.18471,530076732.39201,64876510.75726,   0.00034,   0.00400,   0.00093,477124625.97189,   0.00230,277124629.83850,  -0.00013,   0.00223,   0.00008,  -3.86661,   1.00000
330738027.61982,529912067.90206,65108955.06959,   0.00034,   0.00400,   0.00093,477126711.22352,   0.00230,277126718.89069,  -0.00013,   0.00223,   0.00008,  -7.66717,   1.00000
330977022.07508,529746932.13610,65341053.40605,   0.00034,   0.00400,   0.00093,477128807.53327,   0.00231,277128811.28089,  -0.00013,   0.00223,   0.00009,  -3.74762,   1.00000
331217774.53656,529581894.07730,65570759.99139,   0.00034,   0.00400,   0.00094,477130835.31654,   0.00231,277130841.79913,  -0.00013,   0.00223,   0.00009,  -6.48260,   1.00000
331448640.38596,529416312.26722,65803187.68680,   0.00035,   0.00400,   0.00094,477132785.01738,   0.00231,277132786.16199,  -0.00013,   0.00224,   0.00009,  -1.14461,   1.00000
331691870.34207,529249517.41877,66032146.44717,   0.00035,   0.00400,   0.00095,477134697.25227,   0.00231,277134700.95660,  -0.00013,   0.00224,   0.00009,  -3.70434,   1.00000
331935608.20375,529084201.26688,66256801.06591,   0.00035,   0.00400,   0.00095,477136610.36201,   0.00231,277136610.75091,  -0.00013,   0.00224,   0.00009,  -0.38889,   1.00000
332170809.57397,528916906.68456,66486195.44282,   0.00035,   0.00400,   0.00095,477138372.35377,   0.00232,277138377.20975,  -0.00013,   0.00224,   0.00009,  -4.85598,   1.00000
332417089.46624,528749780.98402,66710180.34268,   0.00035,   0.00400,   0.00096,477140161.26637,   0.00232,277140171.10574,  -0.00013,   0.00224,   0.00009,  -9.83937,   1.00000
332654700.29020,528584052.08784,66932997.96406,   0.00036,   0.00400,   0.00096,477141864.61751,   0.00232,277141870.19222,  -0.00013,   0.00224,   0.00009,  -5.57472,   1.00000
332893060.61687,528416403.43177,67157511.25847,   0.00036,   0.00400,   0.00096,477143506.04338,   0.00232,277143515.40697,  -0.00013,   0.00224,   0.00009,  -9.36359,   1.00000
333133327.82112,528248826.60050,67379760.03668,   0.00036,   0.00400,   0.00097,477145096.98283,   0.00232,277145098.25764,  -0.00013,   0.00225,   0.00009,  -1.27481,   1.00000
333386008.89545,528079963.05676,67598612.42445,   0.00036,   0.00400,   0.00097,477146648.58223,   0.00232,277146651.46293,  -0.00013,   0.00225,   0.00009,  -2.88071,   1.00000
333627626.86107,527911929.39917,67818342.99073,   0.00036,   0.00400,   0.00098,477148171.27160,   0.00233,277148175.08032,  -0.00013,   0.00225,   0.00009,  -3.80872,   1.00000
333871369.14533,527740458.23627,68041824.73282,   0.00036,   0.00400,   0.00098,477149581.14682,   0.00233,277149587.74374,  -0.00013,   0.00225,   0.00009,  -6.59692,   1.00000
334116883.48666,527572498.25972,68257115.32794,   0.00037,   0.00400,   0.00098,477150977.36221,   0.00233,277150986.44907,  -0.00013,   0.00225,   0.00010,  -9.08687,   1.00000
334352746.28231,527403908.09465,68475343.71507,   0.00037,   0.00400,   0.00099,477152296.69284,   0.00233,277152298.26034,  -0.00013,   0.00225,   0.00010,  -1.56750,   1.00000
334602421.40553,527232478.82655,68692251.12551,   0.00037,   0.00400,   0.00099,477153517.40829,   0.00233,277153523.36804,  -0.00013,   0.00225,   0.00010,  -5.95975,   1.00000
334851579.88700,527060534.92943,68908926.04852,   0.00037,   0.00400,   0.00099,477154750.03733,   0.00233,277154751.47355,  -0.00013,   0.00225,   0.00010,  -1.43622,   1.00000
335101387.69530,526890093.33785,69121406.84410,   0.00037,   0.00400,   0.00100,477155965.80656,   0.00233,277155974.00014,  -0.00013,   0.00225,   0.00010,  -8.19358,   1.00000
335344156.96996,526719493.78213,69334974.57277,   0.00037,   0.00400,   0.00100,477157039.38956,   0.00233,277157043.76004,  -0.00013,   0.00226,   0.00010,  -4.37049,   1.00000
335598235.56136,526545464.01363,69549190.18789,   0.00038,   0.00400,   0.00100,477158089.40727,   0.00233,277158092.50207,  -0.00013,   0.00226,   0.00010,  -3.09480,   1.00000
335842580.09451,526374321.50543,69760432.70235,   0.00038,   0.00400,   0.00101,477159102.00626,   0.00234,277159102.39712,  -0.00013,   0.00226,   0.00010,  -0.39086,   1.00000
336100803.18063,526200206.91981,69970440.44492,   0.00038,   0.00400,   0.00101,477160018.32690,   0.00234,277160025.60613,  -0.00012,   0.00226,   0.00010,  -7.27923,   1.00000
336348137.32186,526026936.98699,70181454.71373,   0.00038,   0.00400,   0.00101,477160913.35765,   0.00234,277160918.54237,  -0.00012,   0.00226,   0.00010,  -5.18472,   1.00000
336609197.81467,525854304.42309,70385244.77682,   0.00038,   0.00400,   0.00102,477161769.21602,   0.00234,277161772.92149,  -0.00012,   0.00226,   0.00010,  -3.70547,   1.00000
336859574.07130,525678854.66344,70596083.01683,   0.00038,   0.00400,   0.00102,477162547.37301,   0.00234,277162548.80364,  -0.00012,   0.00226,   0.00010,  -1.43062,   1.00000
337113314.59419,525505410.85402,70800933.59179,   0.00038,   0.00399,   0.00102,477163252.37361,   0.00234,277163252.82400,  -0.00012,   0.00226,   0.00010,  -0.45039,   1.00000
337378379.23055,525328408.54152,71006479.16184,   0.00039,   0.00399,   0.00102,477163934.93681,   0.00234,277163936.02634,  -0.00012,   0.00226,   0.00010,  -1.08954,   1.00000
337635245.21723,525152704.70611,71211231.00116,   0.00039,   0.00399,   0.00103,477164518.90852,   0.00234,277164522.85690,  -0.00012,   0.00226,   0.00010,  -3.94837,   1.00000
337894311.56376,524976899.83414,71413982.53954,   0.00039,   0.00399,   0.00103,477165038.21712,   0.00234,277165046.57322,  -0.00012,   0.00226,   0.00010,  -8.35610,   1.00000
338152954.77690,524800540.40901,71616583.80025,   0.00039,   0.00399,   0.00103,477165568.59834,   0.00234,277165573.01181,  -0.00012,   0.00226,   0.00010,  -4.41347,   1.00000
338415239.14278,524622405.91498,71819312.64743,   0.00039,   0.00399,   0.00104,477165974.18734,   0.00234,277165979.36633,  -0.00012,   0.00226,   0.00010,  -5.17899,   1.00000
338678350.21162,524445803.39534,72017967.37647,   0.00039,   0.00399,   0.00104,477166374.55591,   0.00234,277166379.42155,  -0.00012,   0.00226,   0.00010,  -4.86565,   1.00000
338943722.62355,524269065.80186,72214669.89494,   0.00040,   0.00399,   0.00104,477166708.06702,   0.00234,277166716.21400,  -0.00012,   0.00226,   0.00010,  -8.14699,   1.00000
339211556.77381,524088383.25384,72415488.03005,   0.00040,   0.00399,   0.00104,477166937.30792,   0.00234,277166941.87198,  -0.00012,   0.00226,   0.00010,  -4.56405,   1.00000
339480247.25041,523909220.41234,72612253.77918,   0.00040,   0.00399,   0.00105,477167157.31554,   0.00234,277167161.15241,  -0.00012,   0.00226,   0.00010,  -3.83688,   1.00000
339751248.68011,523729887.90538,72807105.26461,   0.00040,   0.00398,   0.00105,477167315.31945,   0.00234,277167317.07543,  -0.00012,   0.00226,   0.00010,  -1.75598,   1.00000
340024574.51110,523550367.29599,73000054.27541,   0.00040,   0.00398,   0.00105,477167403.81643,   0.00234,277167409.63673,  -0.00012,   0.00226,   0.00010,  -5.82030,   1.00000
340298979.34914,523368522.07662,73195039.07790,   0.00040,   0.00398,   0.00105,477167447.12673,   0.00234,277167447.94788,  -0.00012,   0.00226,   0.00010,  -0.82115,   1.00000
340574281.34287,523188196.55512,73385996.49729,   0.00041,   0.00398,   0.00106,477167475.34140,   0.00234,277167479.74014,  -0.00012,   0.00226,   0.00010,  -4.39874,   1.00000
340826222.14105,522978957.58714,73573884.55017,   0.00041,   0.00398,   0.00106,477141395.04720,   0.00234,277167479.74014,  -0.00012,   0.00226,   0.00010,-26084.69294,   0.00000
341086703.30527,522761178.25312,73761772.60305,   0.00041,   0.00398,   0.00106,477110992.37656,   0.00234,277167479.74014,  -0.00012,   0.00226,   0.00010,-56487.36358,   0.00000
341347184.46950,522543398.91910,73941120.28990,   0.00041,   0.00398,   0.00106,477077199.12420,   0.00234,277167479.74014,  -0.00012,   0.00226,   0.00010,-90280.61594,   0.00000
341594855.08466,522295728.30394,74120467.97674,   0.00041,   0.00397,   0.00107,477019780.01211,   0.00234,277167479.74014,  -0.00012,   0.00226,   0.00010,-147699.72803,   0.00000
341842525.69982,522048057.68877,74295545.48056,   0.00041,   0.00397,   0.00107,476960946.58913,   0.00234,277167479.74014,  -0.00012,   0.00226,   0.00010,-206533.15101,   0.00000
342068845.39988,521779036.15851,74466352.80136,   0.00042,   0.00397,   0.00107,476881346.05342,   0.00234,277167479.74014,  -0.00012,   0.00226,   0.00010,-286133.68672,   0.00000
342303705.46599,521501474.26221,74637160.12216,   0.00042,   0.00397,   0.00107,476797487.82977,   0.00234,277167479.74014,  -0.00012,   0.00226,   0.00010,-369991.91037,   0.00000
342525754.98303,521194021.08476,74803697.25994,   0.00042,   0.00397,   0.00108,476688057.58879,   0.00234,277167479.74014,  -0.00012,   0.00226,   0.00010,-479422.15135,   0.00000
342732858.85950,520880162.63279,74961694.03169,   0.00042,   0.00397,   0.00108,476567913.12501,   0.00234,277167479.74014,  -0.00012,   0.00226,   0.00010,-599566.61513,   0.00000
342948503.10201,520557763.81478,75123960.98645,   0.00042,   0.00396,   0.00108,476445572.87504,   0.00234,277167479.74014,  -0.00012,   0.00226,   0.00010,-721906.86510,   0.00000
343157742.07000,520220419.35619,75277687.57517,   0.00042,   0.00396,   0.00108,476307722.91947,   0.00234,277167479.74014,  -0.00012,   0.00226,   0.00010,-859756.82067,   0.00000
343366981.03798,519883074.89761,75427143.98087,   0.00042,   0.00396,   0.00108,476168431.81707,   0.00234,277167479.74014,  -0.00012,   0.00226,   0.00010,-999047.92307,   0.00000
343548463.81633,519509433.88336,75576600.38657,   0.00043,   0.00396,   0.00109,475998317.76344,   0.00234,277167479.74014,  -0.00012,   0.00226,   0.00010,-1169161.97670,   0.00000
343738486.96072,519127252.50306,75721786.60925,   0.00043,   0.00396,   0.00109,475822027.96407,   0.00234,277167479.74014,  -0.00012,   0.00226,   0.00010,-1345451.77607,   0.00000
343922104.83058,518730125.48220,75862702.64892,   0.00043,   0.00395,   0.00109,475632263.03374,   0.00234,277167479.74014,  -0.00012,   0.00226,   0.00010,-1535216.70640,   0.00000
344105722.70045,518332998.46133,75999348.50556,   0.00043,   0.00395,   0.00109,475441055.83542,   0.00234,277167479.74014,  -0.00012,   0.00226,   0.00010,-1726423.90473,   0.00000
344276530.02125,517905980.15933,76135994.36220,   0.00043,   0.00395,   0.00109,475226397.19856,   0.00234,277167479.74014,  -0.00012,   0.00226,   0.00010,-1941082.54158,   0.00000
344432391.70148,517472556.58280,76264099.85280,   0.00043,   0.00395,   0.00109,475000892.36223,   0.00234,277167479.74014,  -0.00012,   0.00226,   0.00010,-2166587.37791,   0.00000
344596793.74775,517030592.64022,76392205.34340,   0.00044,   0.00394,   0.00110,474771320.32747,   0.00234,277167479.74014,  -0.00012,   0.00226,   0.00010,-2396159.41267,   0.00000
344748385.24496,516558737.41651,76516040.65098,   0.00044,   0.00394,   0.00110,474516281.23020,   0.00234,277167479.74014,  -0.00012,   0.00226,   0.00010,-2651198.50994,   0.00000
344899976.74217,516086882.19279,76635605.77554,   0.00044,   0.00394,   0.00110,474259800.61644,   0.00234,277167479.74014,  -0.00012,   0.00226,   0.00010,-2907679.12370,   0.00000
345045162.96486,515600081.32851,76750900.71708,   0.00044,   0.00394,   0.00110,473989869.66745,   0.00234,277167479.74014,  -0.00012,   0.00226,   0.00010,-3177610.07269,   0.00000
345183943.91301,515098334.82365,76866195.65863,   0.00044,   0.00393,   0.00110,473708571.86785,   0.00234,277167479.74014,  -0.00012,   0.00226,   0.00010,-3458907.87229,   0.00000
345316319.58663,514581642.67823,76972950.23413,   0.00044,   0.00393,   0.00110,473411759.23399,   0.00234,277167479.74014,  -0.00012,   0.00226,   0.00010,-3755720.50615,   0.00000
345442289.98572,514050004.89223,77079704.80963,   0.00045,   0.00393,   0.00110,473103598.65864,   0.00234,277167479.74014,  -0.00012,   0.00226,   0.00010,-4063881.08150,   0.00000
345561855.11028,513503421.46566,77182189.20211,   0.00045,   0.00393,   0.00111,472782017.03020,   0.00234,277167479.74014,  -0.00012,   0.00226,   0.00010,-4385462.70994,   0.00000
345675014.96031,512941892.39853,77280403.41157,   0.00045,   0.00392,   0.00111,472447020.17362,   0.00234,277167479.74014,  -0.00012,   0.00226,   0.00010,-4720459.56653,   0.00000
345781769.53581,512365417.69082,77374347.43801,   0.00045,   0.00392,   0.00111,472098614.20586,   0.00234,277167479.74014,  -0.00012,   0.00226,   0.00010,-5068865.53428,   0.00000
345882118.83678,511773997.34255,77464021.28143,   0.00045,   0.00392,   0.00111,471736805.53869,   0.00234,277167479.74014,  -0.00012,   0.00226,   0.00010,-5430674.20145,   0.00000
345982468.13775,511182576.99427,77553695.12485,   0.00045,   0.00392,   0.00111,471375659.64553,   0.00234,277167479.74014,  -0.00012,   0.00226,   0.00010,-5791820.09461,   0.00000
346084952.53024,510567670.63938,77634828.60223,   0.00046,   0.00391,   0.00111,470994535.47740,   0.00234,277167479.74014,  -0.00012,   0.00226,   0.00010,-6172944.26274,   0.00000
346172491.28215,509946359.00997,77715962.07961,   0.00046,   0.00391,   0.00111,470606622.94017,   0.00234,277167479.74014,  -0.00012,   0.00226,   0.00010,-6560856.79997,   0.00000
346247219.48500,509295156.09941,77792825.37398,   0.00046,   0.00391,   0.00111,470193398.90072,   0.00234,277167479.74014,  -0.00012,   0.00226,   0.00010,-6974080.83942,   0.00000
346336893.32842,508650358.46338,77865418.48532,   0.00046,   0.00390,   0.00112,469786245.10770,   0.00234,277167479.74014,  -0.00012,   0.00226,   0.00010,-7381234.63244,   0.00000
346398810.98221,507969264.27169,77933741.41364,   0.00046,   0.00390,   0.00112,469346316.36732,   0.00234,277167479.74014,  -0.00012,   0.00226,   0.00010,-7821163.37282,   0.00000
346475674.27657,507294575.35452,77997794.15894,   0.00046,   0.00390,   0.00112,468912482.96212,   0.00234,277167479.74014,  -0.00012,   0.00226,   0.00010,-8254996.77802,   0.00000
346546132.29640,506604940.79678,78057576.72122,   0.00047,   0.00389,   0.00112,468465325.14659,   0.00234,277167479.74014,  -0.00012,   0.00226,   0.00010,-8702154.59355,   0.00000
346595239.40113,505893955.32395,78117359.28350,   0.00047,   0.00389,   0.00112,467999447.55953,   0.00234,277167479.74014,  -0.00012,   0.00226,   0.00010,-9168032.18061,   0.00000
346652886.87190,505174429.48507,78168601.47974,   0.00047,   0.00389,   0.00112,467525661.96864,   0.00234,277167479.74014,  -0.00012,   0.00226,   0.00010,-9641817.77150,   0.00000
346704129.06814,504439958.00562,78219843.67598,   0.00047,   0.00388,   0.00112,467040726.13872,   0.00234,277167479.74014,  -0.00012,   0.00226,   0.00010,-10126753.60142,   0.00000
346748965.98985,503690540.88560,78262545.50618,   0.00047,   0.00388,   0.00112,466540362.93662,   0.00234,277167479.74014,  -0.00012,   0.00226,   0.00010,-10627116.80352,   0.00000
346787397.63703,502926178.12502,78305247.33638,   0.00047,   0.00388,   0.00112,466028877.39820,   0.00234,277167479.74014,  -0.00012,   0.00226,   0.00010,-11138602.34194,   0.00000
346819424.00968,502146869.72386,78343678.98356,   0.00048,   0.00387,   0.00112,465504134.92043,   0.00234,277167479.74014,  -0.00012,   0.00226,   0.00010,-11663344.81971,   0.00000
346845045.10780,501352615.68213,78377840.44772,   0.00048,   0.00387,   0.00112,464966146.70932,   0.00234,277167479.74014,  -0.00012,   0.00226,   0.00010,-12201333.03082,   0.00000
346870666.20592,500558361.64040,78407731.72886,   0.00048,   0.00387,   0.00112,464426783.56196,   0.00234,277167479.74014,  -0.00012,   0.00226,   0.00010,-12740696.17818,   0.00000
346898422.39555,499740621.59206,78433352.82698,   0.00048,   0.00386,   0.00112,463869964.10582,   0.00234,277167479.74014,  -0.00012,   0.00226,   0.00010,-13297515.63433,   0.00000
346911232.94461,498916476.26919,78458973.92510,   0.00048,   0.00386,   0.00112,463306330.28832,   0.00234,277167479.74014,  -0.00012,   0.00226,   0.00010,-13861149.45182,   0.00000
346926178.58518,498068844.93971,78476054.65718,   0.00048,   0.00385,   0.00112,462723135.47488,   0.00234,277167479.74014,  -0.00012,   0.00226,   0.00010,-14444344.26526,   0.00000
346941124.22575,497221213.61024,78488865.20624,   0.00049,   0.00385,   0.00112,462138613.39248,   0.00234,277167479.74014,  -0.00012,   0.00226,   0.00010,-15028866.34766,   0.00000
346934718.95122,496352231.36566,78501675.75530,   0.00049,   0.00385,   0.00112,461535431.13714,   0.00234,277167479.74014,  -0.00012,   0.00226,   0.00010,-15632048.60300,   0.00000
346930448.76820,495459763.11447,78505945.93832,   0.00049,   0.00384,   0.00112,460912774.64079,   0.00234,277167479.74014,  -0.00012,   0.00226,   0.00010,-16254705.09935,   0.00000
346926178.58518,494567294.86328,78510216.12134,   0.00049,   0.00384,   0.00112,460290998.15468,   0.00234,277167479.74014,  -0.00012,   0.00226,   0.00010,-16876481.58546,   0.00000
346915503.12763,493659880.97152,78510216.12134,   0.00049,   0.00383,   0.00112,459656111.14855,   0.00234,277167479.74014,  -0.00012,   0.00226,   0.00010,-17511368.59159,   0.00000
346913368.03612,492743926.71372,78505945.93832,   0.00049,   0.00383,   0.00112,459015857.76837,   0.00234,277167479.74014,  -0.00012,   0.00226,   0.00010,-18151621.97177,   0.00000
346889882.02951,491806621.54082,78493135.38926,   0.00050,   0.00383,   0.00112,458352614.50976,   0.00234,277167479.74014,  -0.00012,   0.00226,   0.00010,-18814865.23039,   0.00000
346859990.74837,490854370.72735,78480324.84020,   0.00050,   0.00382,   0.00112,457678498.63839,   0.00234,277167479.74014,  -0.00012,   0.00226,   0.00010,-19488981.10175,   0.00000
346845045.10780,489908525.18841,78463244.10812,   0.00050,   0.00382,   0.00112,457010881.57544,   0.00234,277167479.74014,  -0.00012,   0.00226,   0.00010,-20156598.16470,   0.00000
346817288.91817,488932788.36833,78441893.19302,   0.00050,   0.00381,   0.00112,456318475.55429,   0.00234,277167479.74014,  -0.00012,   0.00226,   0.00010,-20849004.18585,   0.00000
346783127.45401,487942105.90768,78416272.09490,   0.00050,   0.00381,   0.00112,455613083.53583,   0.00234,277167479.74014,  -0.00012,   0.00226,   0.00010,-21554396.20431,   0.00000
346748965.98985,486951423.44703,78386380.81376,   0.00050,   0.00380,   0.00112,454906480.20864,   0.00234,277167479.74014,  -0.00012,   0.00226,   0.00010,-22260999.53150,   0.00000
346701993.97663,485930849.70524,78356489.53262,   0.00051,   0.00380,   0.00112,454177374.10696,   0.00234,277167479.74014,  -0.00012,   0.00226,   0.00010,-22990105.63318,   0.00000
346655021.96341,484910275.96345,78318057.88544,   0.00051,   0.00379,   0.00112,453444872.27870,   0.00234,277167479.74014,  -0.00012,   0.00226,   0.00010,-23722607.46144,   0.00000
346616590.31623,483881161.85562,78275356.05524,   0.00051,   0.00379,   0.00112,452707295.21101,   0.00234,277167479.74014,  -0.00012,   0.00226,   0.00010,-24460184.52913,   0.00000
346556807.75395,482830696.83269,78228384.04202,   0.00051,   0.00379,   0.00112,451948977.24641,   0.00234,277167479.74014,  -0.00012,   0.00226,   0.00010,-25218502.49373,   0.00000
346505565.55771,481771691.44372,78181412.02880,   0.00051,   0.00378,   0.00112,451187873.04853,   0.00234,277167479.74014,  -0.00012,   0.00226,   0.00010,-25979606.69161,   0.00000
346447918.08694,480697740.41417,78125899.64954,   0.00052,   0.00378,   0.00112,450411716.96419,   0.00234,277167479.74014,  -0.00012,   0.00226,   0.00010,-26755762.77595,   0.00000
346383865.34164,479608843.74406,78070387.27028,   0.00052,   0.00377,   0.00112,449624972.75399,   0.00234,277167479.74014,  -0.00012,   0.00226,   0.00010,-27542506.98615,   0.00000
346313407.32181,478505001.43338,78006334.52498,   0.00052,   0.00377,   0.00112,448823216.53269,   0.00234,277167479.74014,  -0.00012,   0.00226,   0.00010,-28344263.20745,   0.00000
346251489.66802,477392618.75666,77942281.77968,   0.00052,   0.00376,   0.00112,448018860.10158,   0.00234,277167479.74014,  -0.00012,   0.00226,   0.00010,-29148619.63856,   0.00000
346174626.37366,476273830.80541,77869688.66834,   0.00052,   0.00376,   0.00112,447203291.20468,   0.00234,277167479.74014,  -0.00012,   0.00226,   0.00010,-29964188.53546,   0.00000
346099898.17081,475131556.84755,77797095.55700,   0.00052,   0.00375,   0.00111,446373516.92821,   0.00234,277167479.74014,  -0.00012,   0.00226,   0.00010,-30793962.81193,   0.00000
346025169.96796,473989282.88969,77720232.26263,   0.00053,   0.00375,   0.00111,445542747.53340,   0.00234,277167479.74014,  -0.00012,   0.00226,   0.00010,-31624732.20674,   0.00000
345944036.49057,472832063.29125,77634828.60223,   0.00053,   0.00374,   0.00111,444697092.11868,   0.00234,277167479.74014,  -0.00012,   0.00226,   0.00010,-32470387.62146,   0.00000
345856497.73866,471659898.05225,77549424.94183,   0.00053,   0.00374,   0.00111,443841048.03523,   0.00234,277167479.74014,  -0.00012,   0.00226,   0.00010,-33326431.70491,   0.00000
345777499.35279,470479192.44721,77459751.09841,   0.00053,   0.00373,   0.00111,442980439.79753,   0.00234,277167479.74014,  -0.00012,   0.00226,   0.00010,-34187039.94261,   0.00000
345677150.05182,469277135.92707,77361536.88895,   0.00053,   0.00373,   0.00111,442097004.75074,   0.00234,277167479.74014,  -0.00012,   0.00226,   0.00010,-35070474.98940,   0.00000
345585341.11689,468066539.04088,77263322.67949,   0.00054,   0.00372,   0.00111,441211334.28230,   0.00234,277167479.74014,  -0.00012,   0.00226,   0.00010,-35956145.45784,   0.00000
345487126.90743,466840996.51413,77160838.28701,   0.00054,   0.00371,   0.00111,440313185.32637,   0.00234,277167479.74014,  -0.00012,   0.00226,   0.00010,-36854294.41377,   0.00000
345403858.33854,465621859.26191,77054083.71151,   0.00054,   0.00371,   0.00110,439422291.09559,   0.00234,277167479.74014,  -0.00012,   0.00226,   0.00010,-37745188.64455,   0.00000
345292833.58002,464366425.45402,76943058.95299,   0.00054,   0.00370,   0.00110,438499284.04656,   0.00234,277167479.74014,  -0.00012,   0.00226,   0.00010,-38668195.69358,   0.00000
345196754.46207,463117396.92065,76823493.82843,   0.00054,   0.00370,   0.00110,437581361.44241,   0.00234,277167479.74014,  -0.00012,   0.00226,   0.00010,-39586118.29773,   0.00000
345094270.06959,461853422.74672,76703928.70386,   0.00055,   0.00369,   0.00110,436653349.43365,   0.00234,277167479.74014,  -0.00012,   0.00226,   0.00010,-40514130.30649,   0.00000
344985380.40257,460574502.93222,76580093.39628,   0.00055,   0.00369,   0.00110,435713033.38174,   0.00234,277167479.74014,  -0.00012,   0.00226,   0.00010,-41454446.35840,   0.00000
344870085.46103,459280637.47714,76451987.90568,   0.00055,   0.00368,   0.00110,434760447.22831,   0.00234,277167479.74014,  -0.00012,   0.00226,   0.00010,-42407032.51183,   0.00000
344763330.88553,457978231.65603,76319612.23206,   0.00055,   0.00368,   0.00110,433803831.25213,   0.00234,277167479.74014,  -0.00012,   0.00226,   0.00010,-43363648.48801,   0.00000
344641630.66946,456669420.56039,76182966.37542,   0.00055,   0.00367,   0.00109,432838367.73550,   0.00234,277167479.74014,  -0.00012,   0.00226,   0.00010,-44329112.00464,   0.00000
344522065.54490,455337123.45813,76042050.33576,   0.00056,   0.00366,   0.00109,431857434.35905,   0.00234,277167479.74014,  -0.00012,   0.00226,   0.00010,-45310045.38109,   0.00000
344417446.06091,454011231.63041,75896864.11308,   0.00056,   0.00366,   0.00109,430884194.02800,   0.00234,277167479.74014,  -0.00012,   0.00226,   0.00010,-46283285.71214,   0.00000
344291475.66182,452663988.88758,75747407.70737,   0.00056,   0.00365,   0.00109,429890641.51142,   0.00234,277167479.74014,  -0.00012,   0.00226,   0.00010,-47276838.22872,   0.00000
344174045.62877,451308205.77872,75593681.11865,   0.00056,   0.00365,   0.00109,428893358.72051,   0.00234,277167479.74014,  -0.00012,   0.00226,   0.00010,-48274121.01963,   0.00000
344050210.32119,449937477.02929,75435684.34691,   0.00056,   0.00364,   0.00108,427884124.81989,   0.00234,277167479.74014,  -0.00012,   0.00226,   0.00010,-49283354.92025,   0.00000
343919969.73907,448551802.63928,75273417.39215,   0.00057,   0.00363,   0.00108,426862981.46342,   0.00234,277167479.74014,  -0.00012,   0.00226,   0.00010,-50304498.27672,   0.00000
343804674.79753,447172533.52381,75106880.25437,   0.00057,   0.00363,   0.00108,425849799.89291,   0.00234,277167479.74014,  -0.00012,   0.00226,   0.00010,-51317679.84723,   0.00000
343661623.66636,445756967.85266,74936072.93357,   0.00057,   0.00362,   0.00108,424804976.09782,   0.00234,277167479.74014,  -0.00012,   0.00226,   0.00010,-52362503.64232,   0.00000
343533518.17576,444347807.45605,74760995.42974,   0.00057,   0.00362,   0.00107,423768221.82071,   0.00234,277167479.74014,  -0.00012,   0.00226,   0.00010,-53399257.91943,   0.00000
343413953.05120,442930106.69339,74581647.74290,   0.00058,   0.00361,   0.00107,422728175.35722,   0.00234,277167479.74014,  -0.00012,   0.00226,   0.00010,-54439304.38292,   0.00000
343279442.28607,441506000.65621,74398029.87304,   0.00058,   0.00360,   0.00107,421679488.45946,   0.00234,277167479.74014,  -0.00012,   0.00226,   0.00010,-55487991.28069,   0.00000
343147066.61245,440058408.61241,74210141.82016,   0.00058,   0.00360,   0.00107,420616209.51722,   0.00234,277167479.74014,  -0.00012,   0.00226,   0.00010,-56551270.22293,   0.00000
343008285.66429,438595870.92805,74017983.58426,   0.00058,   0.00359,   0.00107,419541404.30315,   0.00234,277167479.74014,  -0.00012,   0.00226,   0.00010,-57626075.43699,   0.00000
342884450.35671,437139738.51821,73821555.16533,   0.00058,   0.00358,   0.00106,418475022.35903,   0.00234,277167479.74014,  -0.00012,   0.00226,   0.00010,-58692457.38111,   0.00000
342739264.13403,435662255.19328,73620856.56339,   0.00059,   0.00358,   0.00106,417388709.22283,   0.00234,277167479.74014,  -0.00012,   0.00226,   0.00010,-59778770.51732,   0.00000
342602618.27739,434176231.50230,73415887.77843,   0.00059,   0.00357,   0.00106,416299553.30321,   0.00234,277167479.74014,  -0.00012,   0.00226,   0.00010,-60867926.43693,   0.00000
342465972.42075,432690207.81133,73206648.81045,   0.00059,   0.00357,   0.00105,415210459.54675,   0.00234,277167479.74014,  -0.00012,   0.00226,   0.00010,-61957020.19339,   0.00000
342331461.65562,431180698.11374,72993139.65945,   0.00059,   0.00356,   0.00105,414107354.14164,   0.00234,277167479.74014,  -0.00012,   0.00226,   0.00010,-63060125.59850,   0.00000
342196950.89049,429671188.41616,72775360.32542,   0.00060,   0.00355,   0.00105,413004445.50111,   0.00234,277167479.74014,  -0.00012,   0.00226,   0.00010,-64163034.23903,   0.00000
342056034.85082,428146733.07800,72553310.80838,   0.00060,   0.00355,   0.00105,411890435.55296,   0.00234,277167479.74014,  -0.00012,   0.00226,   0.00010,-65277044.18718,   0.00000
341923659.17720,426613737.37380,72326991.10832,   0.00060,   0.00354,   0.00104,410774050.31405,   0.00234,277167479.74014,  -0.00012,   0.00226,   0.00010,-66393429.42609,   0.00000
341769932.58848,425059390.75451,72096401.22524,   0.00060,   0.00353,   0.00104,409638043.12435,   0.00234,277167479.74014,  -0.00012,   0.00226,   0.00010,-67529436.61579,   0.00000
341631151.64033,423511449.40974,71861541.15913,   0.00060,   0.00352,   0.00104,408511114.47649,   0.00234,277167479.74014,  -0.00012,   0.00226,   0.00010,-68656365.26365,   0.00000
341500911.05822,421954967.69894,71622410.91001,   0.00061,   0.00352,   0.00103,407382093.81165,   0.00234,277167479.74014,  -0.00012,   0.00226,   0.00010,-69785385.92849,   0.00000
341364265.20158,420383540.34756,71379010.47787,   0.00061,   0.00351,   0.00103,406242358.21561,   0.00234,277167479.74014,  -0.00012,   0.00226,   0.00010,-70925121.52453,   0.00000
341221214.07041,418797167.35561,71131339.86271,   0.00061,   0.00350,   0.00103,405091975.91958,   0.00234,277167479.74014,  -0.00012,   0.00226,   0.00010,-72075503.82056,   0.00000
341078162.93923,417210794.36367,70879399.06452,   0.00061,   0.00350,   0.00102,403942244.01866,   0.00234,277167479.74014,  -0.00012,   0.00226,   0.00010,-73225235.72148,   0.00000
340937246.89957,415600935.36511,70623188.08332,   0.00062,   0.00349,   0.00102,402779603.71983,   0.00234,277167479.74014,  -0.00012,   0.00226,   0.00010,-74387876.02031,   0.00000
340796330.85991,413991076.36655,70362706.91910,   0.00062,   0.00348,   0.00102,401617781.20397,   0.00234,277167479.74014,  -0.00012,   0.00226,   0.00010,-75549698.53617,   0.00000
340655414.82025,412381217.36800,70097955.57186,   0.00062,   0.00348,   0.00101,400456808.58709,   0.00234,277167479.74014,  -0.00012,   0.00226,   0.00010,-76710671.15305,   0.00000
340516633.87210,410747872.36283,69828934.04159,   0.00062,   0.00347,   0.00101,399283295.18678,   0.00234,277167479.74014,  -0.00012,   0.00226,   0.00010,-77884184.55336,   0.00000
340377852.92395,409114527.35766,69555642.32831,   0.00063,   0.00346,   0.00101,398110809.91768,   0.00234,277167479.74014,  -0.00012,   0.00226,   0.00010,-79056669.82246,   0.00000
340247612.34184,407472641.98646,69278080.43201,   0.00063,   0.00345,   0.00100,396937218.49464,   0.00234,277167479.74014,  -0.00012,   0.00226,   0.00010,-80230261.24550,   0.00000
340110966.48519,405815810.97468,68996248.35268,   0.00063,   0.00345,   0.00100,395753687.45622,   0.00234,277167479.74014,  -0.00012,   0.00226,   0.00010,-81413792.28392,   0.00000
339974320.62855,404158979.96290,68710146.09034,   0.00064,   0.00344,   0.00100,394571410.08942,   0.00234,277167479.74014,  -0.00012,   0.00226,   0.00010,-82596069.65072,   0.00000
339831269.49738,402487203.31055,68419773.64498,   0.00064,   0.00343,   0.00099,393379332.92989,   0.00234,277167479.74014,  -0.00012,   0.00226,   0.00010,-83788146.81025,   0.00000
339696758.73225,400806886.29217,68125131.01660,   0.00064,   0.00343,   0.00099,392186624.28682,   0.00234,277167479.74014,  -0.00012,   0.00226,   0.00010,-84980855.45332,   0.00000
339570788.33316,399118028.90774,67826218.20519,   0.00064,   0.00342,   0.00098,390993459.28325,   0.00234,277167479.74014,  -0.00012,   0.00226,   0.00010,-86174020.45689,   0.00000
339429872.29350,397422766.24878,67523035.21077,   0.00065,   0.00341,   0.00098,389792785.20245,   0.00234,277167479.74014,  -0.00012,   0.00226,   0.00010,-87374694.53769,   0.00000
339297496.61988,395718963.22378,67215582.03333,   0.00065,   0.00340,   0.00098,388591866.72499,   0.00234,277167479.74014,  -0.00012,   0.00226,   0.00010,-88575613.01515,   0.00000
339180066.58682,394021565.47332,66899588.48984,   0.00065,   0.00340,   0.00097,387399684.60794,   0.00234,277167479.74014,  -0.00012,   0.00226,   0.00010,-89767795.13220,   0.00000
339049826.00471,392294276.44171,66583594.94636,   0.00065,   0.00339,   0.00097,386189594.65590,   0.00234,277167479.74014,  -0.00012,   0.00226,   0.00010,-90977885.08424,   0.00000
338919585.42260,390566987.41010,66263331.21986,   0.00066,   0.00338,   0.00096,384981483.68188,   0.00234,277167479.74014,  -0.00012,   0.00226,   0.00010,-92185996.05826,   0.00000
338804290.48106,388846103.65302,65938797.31033,   0.00066,   0.00337,   0.00096,383784687.41239,   0.00234,277167479.74014,  -0.00012,   0.00226,   0.00010,-93382792.32775,   0.00000
338676184.99046,387095328.61480,65609993.21779,   0.00066,   0.00336,   0.00096,382568158.92377,   0.00234,277167479.74014,  -0.00012,   0.00226,   0.00010,-94599320.81637,   0.00000
338548079.49986,385344553.57659,65276918.94223,   0.00067,   0.00336,   0.00095,381353899.92088,   0.00234,277167479.74014,  -0.00012,   0.00226,   0.00010,-95813579.81926,   0.00000
338434919.64983,383600183.81290,64939574.48364,   0.00067,   0.00335,   0.00095,380151342.85656,   0.00234,277167479.74014,  -0.00012,   0.00226,   0.00010,-97016136.88358,   0.00000
338323894.89131,381832328.04260,64597959.84204,   0.00067,   0.00334,   0.00094,378938878.21300,   0.00234,277167479.74014,  -0.00012,   0.00226,   0.00010,-98228601.52714,   0.00000
338197924.49221,380058066.99777,64252075.01742,   0.00067,   0.00333,   0.00094,377719616.12800,   0.00234,277167479.74014,  -0.00012,   0.00226,   0.00010,-99447863.61214,   0.00000
338101845.37426,378296616.50200,63901920.00977,   0.00068,   0.00333,   0.00093,376521938.14834,   0.00234,277167479.74014,  -0.00012,   0.00226,   0.00010,-100645541.59180,   0.00000
337978010.06668,376498869.45057,63547494.81911,   0.00068,   0.00332,   0.00093,375295946.67447,   0.00234,277167479.74014,  -0.00012,   0.00226,   0.00010,-101871533.06567,   0.00000
337869120.39967,374707527.67366,63188799.44542,   0.00068,   0.00331,   0.00092,374082402.89912,   0.00234,277167479.74014,  -0.00012,   0.00226,   0.00010,-103085076.84102,   0.00000
337775176.37323,372922591.17128,62825833.88872,   0.00069,   0.00330,   0.00092,372881470.42306,   0.00234,277167479.74014,  -0.00012,   0.00226,   0.00010,-104286009.31708,   0.00000
337674827.07226,371122709.02833,62458598.14900,   0.00069,   0.00329,   0.00091,371672956.84417,   0.00234,277167479.74014,  -0.00012,   0.00226,   0.00010,-105494522.89597,   0.00000
337568072.49676,369307881.24481,62087092.22625,   0.00069,   0.00329,   0.00091,370456996.36040,   0.00234,277167479.74014,  -0.00012,   0.00226,   0.00010,-106710483.37974,   0.00000
337476263.56183,367499458.73582,61711316.12049,   0.00070,   0.00328,   0.00091,369254107.70306,   0.00234,277167479.74014,  -0.00012,   0.00226,   0.00010,-107913372.03708,   0.00000
337371644.07784,365661144.94569,61331269.83171,   0.00070,   0.00327,   0.00090,368033383.65232,   0.00234,277167479.74014,  -0.00012,   0.00226,   0.00010,-109134096.08782,   0.00000
337288375.50894,363844182.07066,60946953.35990,   0.00070,   0.00326,   0.00090,366836772.06995,   0.00234,277167479.74014,  -0.00012,   0.00226,   0.00010,-110330707.67019,   0.00000
337198701.66552,362012273.55506,60558366.70508,   0.00070,   0.00325,   0.00089,365633326.31699,   0.00234,277167479.74014,  -0.00012,   0.00226,   0.00010,-111534153.42315,   0.00000
337117568.18814,360171824.67343,60165509.86723,   0.00071,   0.00325,   0.00089,364433003.63528,   0.00234,277167479.74014,  -0.00012,   0.00226,   0.00010,-112734476.10486,   0.00000
337030029.43623,358316430.15122,59768382.84637,   0.00071,   0.00324,   0.00088,363226219.62210,   0.00234,277167479.74014,  -0.00012,   0.00226,   0.00010,-113941260.11804,   0.00000
336963841.59942,356482386.54411,59366985.64248,   0.00071,   0.00323,   0.00087,362044147.83561,   0.00234,277167479.74014,  -0.00012,   0.00226,   0.00010,-115123331.90453,   0.00000
336884843.21355,354618451.65586,58961318.25558,   0.00072,   0.00322,   0.00087,360845359.54673,   0.00234,277167479.74014,  -0.00012,   0.00226,   0.00010,-116322120.19341,   0.00000
336820790.46825,352760922.04214,58551380.68566,   0.00072,   0.00321,   0.00086,359661080.66307,   0.00234,277167479.74014,  -0.00012,   0.00226,   0.00010,-117506399.07707,   0.00000
336750332.44842,350888446.78785,58141443.11573,   0.00072,   0.00320,   0.00086,358473108.62592,   0.00234,277167479.74014,  -0.00012,   0.00226,   0.00010,-118694371.11422,   0.00000
336679874.42859,349015971.53356,57722965.17977,   0.00073,   0.00320,   0.00085,357287915.95674,   0.00234,277167479.74014,  -0.00012,   0.00226,   0.00010,-119879563.78340,   0.00000
336632902.41537,347141361.18776,57300217.06078,   0.00073,   0.00319,   0.00085,356117363.09322,   0.00234,277167479.74014,  -0.00012,   0.00226,   0.00010,-121050116.64692,   0.00000
336570984.76158,345260345.56743,56873198.75878,   0.00073,   0.00318,   0.00084,354941969.49520,   0.00234,277167479.74014,  -0.00012,   0.00226,   0.00010,-122225510.24494,   0.00000
336517607.47383,343370789.58106,56441910.27375,   0.00074,   0.00317,   0.00084,353771607.67544,   0.00234,277167479.74014,  -0.00012,   0.00226,   0.00010,-123395872.06470,   0.00000
336479175.82665,341487638.86922,56010621.78873,   0.00074,   0.00316,   0.00083,352618963.24961,   0.00234,277167479.74014,  -0.00012,   0.00226,   0.00010,-124548516.49053,   0.00000
336434338.90494,339589542.51681,55570792.93767,   0.00074,   0.00315,   0.00083,351459638.69080,   0.00234,277167479.74014,  -0.00012,   0.00226,   0.00010,-125707841.04934,   0.00000
336398042.34927,337682905.79836,55126693.90358,   0.00075,   0.00314,   0.00082,350306118.21902,   0.00234,277167479.74014,  -0.00012,   0.00226,   0.00010,-126861361.52112,   0.00000
336368151.06813,335791214.72048,54682594.86950,   0.00075,   0.00314,   0.00081,349170963.05532,   0.00234,277167479.74014,  -0.00012,   0.00226,   0.00010,-127996516.68482,   0.00000
336340394.87850,333876037.63599,54229955.46937,   0.00076,   0.00313,   0.00081,348029791.26248,   0.00234,277167479.74014,  -0.00012,   0.00226,   0.00010,-129137688.47766,   0.00000
336312638.68886,331960860.55150,53773045.88623,   0.00076,   0.00312,   0.00080,346895073.93174,   0.00234,277167479.74014,  -0.00012,   0.00226,   0.00010,-130272405.80840,   0.00000
336299828.13980,330052088.74154,53316136.30308,   0.00076,   0.00311,   0.00080,345779302.64754,   0.00234,277167479.74014,  -0.00012,   0.00226,   0.00010,-131388177.09260,   0.00000
336280612.31621,328128371.29101,52850686.35390,   0.00077,   0.00310,   0.00079,344658169.48686,   0.00234,277167479.74014,  -0.00012,   0.00226,   0.00010,-132509310.25328,   0.00000
336276342.13319,326211059.11501,52385236.40471,   0.00077,   0.00309,   0.00078,343556415.49003,   0.00234,277167479.74014,  -0.00012,   0.00226,   0.00010,-133611064.25011,   0.00000
336265666.67564,324278801.29844,51911246.08949,   0.00077,   0.00308,   0.00078,342449769.54389,   0.00234,277167479.74014,  -0.00012,   0.00226,   0.00010,-134717710.19625,   0.00000
336263531.58413,322338003.11583,51437255.77426,   0.00078,   0.00307,   0.00077,341352910.45982,   0.00234,277167479.74014,  -0.00012,   0.00226,   0.00010,-135814569.28032,   0.00000
336282747.40772,320418555.84832,50958995.27602,   0.00078,   0.00307,   0.00077,340284237.73890,   0.00234,277167479.74014,  -0.00012,   0.00226,   0.00010,-136883242.00124,   0.00000
336295557.95678,318484162.94024,50472194.41173,   0.00079,   0.00306,   0.00076,339211412.38913,   0.00234,277167479.74014,  -0.00012,   0.00226,   0.00010,-137956067.35101,   0.00000
336316908.87188,316541229.66612,49985393.54745,   0.00079,   0.00305,   0.00075,338149174.30647,   0.00234,277167479.74014,  -0.00012,   0.00226,   0.00010,-139018305.43367,   0.00000
336338259.78699,314598296.39200,49494322.50014,   0.00079,   0.00304,   0.00075,337095140.02444,   0.00234,277167479.74014,  -0.00012,   0.00226,   0.00010,-140072339.71570,   0.00000
336368151.06813,312646822.75184,48998981.26982,   0.00080,   0.00303,   0.00074,336050346.85280,   0.00234,277167479.74014,  -0.00012,   0.00226,   0.00010,-141117132.88734,   0.00000
336398042.34927,310695349.11168,48499369.85647,   0.00080,   0.00302,   0.00073,335014182.20320,   0.00234,277167479.74014,  -0.00012,   0.00226,   0.00010,-142153297.53694,   0.00000
336442879.27098,308750280.74605,47995488.26011,   0.00081,   0.00301,   0.00073,333997625.92415,   0.00234,277167479.74014,  -0.00012,   0.00226,   0.00010,-143169853.81600,   0.00000
336496256.55873,306796672.01438,47487336.48072,   0.00081,   0.00300,   0.00072,332991198.61901,   0.00234,277167479.74014,  -0.00012,   0.00226,   0.00010,-144176281.12114,   0.00000
336549633.84648,304843063.28271,46974914.51832,   0.00081,   0.00299,   0.00071,331994059.77722,   0.00234,277167479.74014,  -0.00012,   0.00226,   0.00010,-145173419.96292,   0.00000
336617956.77480,302895859.82557,46458222.37289,   0.00082,   0.00299,   0.00071,331017317.59959,   0.00234,277167479.74014,  -0.00012,   0.00226,   0.00010,-146150162.14055,   0.00000
336679874.42859,300933710.72786,45937260.04445,   0.00082,   0.00298,   0.00070,330040615.28799,   0.00234,277167479.74014,  -0.00012,   0.00226,   0.00010,-147126864.45215,   0.00000
336750332.44842,298963021.26411,45412027.53298,   0.00083,   0.00297,   0.00069,329075271.66437,   0.00234,277167479.74014,  -0.00012,   0.00226,   0.00010,-148092208.07577,   0.00000
336842141.38335,297013682.71546,44886795.02151,   0.00083,   0.00296,   0.00069,328142505.82301,   0.00234,277167479.74014,  -0.00012,   0.00226,   0.00010,-149024973.91714,   0.00000
336927545.04375,295049398.52624,44353022.14401,   0.00083,   0.00295,   0.00068,327208832.99163,   0.00234,277167479.74014,  -0.00012,   0.00226,   0.00010,-149958646.74851,   0.00000
337021489.07019,293076573.97098,43819249.26650,   0.00084,   0.00294,   0.00067,326289194.96852,   0.00234,277167479.74014,  -0.00012,   0.00226,   0.00010,-150878284.77162,   0.00000
337121838.37116,291118695.05629,43276936.02296,   0.00084,   0.00293,   0.00067,325388135.04958,   0.00234,277167479.74014,  -0.00012,   0.00226,   0.00010,-151779344.69056,   0.00000
337230728.03817,289152275.77556,42734622.77941,   0.00085,   0.00292,   0.00066,324501639.43800,   0.00234,277167479.74014,  -0.00012,   0.00226,   0.00010,-152665840.30214,   0.00000
337348158.07123,287177316.12879,42188039.35285,   0.00085,   0.00291,   0.00065,323628404.20830,   0.00234,277167479.74014,  -0.00012,   0.00226,   0.00010,-153539075.53184,   0.00000
337465588.10428,285202356.48202,41637185.74326,   0.00086,   0.00290,   0.00064,322766776.55606,   0.00234,277167479.74014,  -0.00012,   0.00226,   0.00010,-154400703.18408,   0.00000
337597963.77790,283233802.10978,41077791.76764,   0.00086,   0.00289,   0.00064,321926656.03943,   0.00234,277167479.74014,  -0.00012,   0.00226,   0.00010,-155240823.70072,   0.00000
337730339.45152,281265247.73754,40518397.79201,   0.00086,   0.00289,   0.00063,321100195.97546,   0.00234,277167479.74014,  -0.00012,   0.00226,   0.00010,-156067283.76468,   0.00000
337886201.13175,279294558.27379,39954733.63336,   0.00087,   0.00288,   0.00062,320299703.59623,   0.00234,277167479.74014,  -0.00012,   0.00226,   0.00010,-156867776.14391,   0.00000
338027117.17141,277317463.53551,39391069.47472,   0.00087,   0.00287,   0.00061,319501883.95043,   0.00234,277167479.74014,  -0.00012,   0.00226,   0.00010,-157665595.78971,   0.00000
338197924.49221,275353179.34629,38818864.95003,   0.00088,   0.00286,   0.00061,318738213.23734,   0.00234,277167479.74014,  -0.00012,   0.00226,   0.00010,-158429266.50280,   0.00000
338368731.81302,273388895.15707,38242390.24233,   0.00088,   0.00285,   0.00060,317987537.73101,   0.00234,277167479.74014,  -0.00012,   0.00226,   0.00010,-159179942.00913,   0.00000
338548079.49986,271416070.60181,37665915.53462,   0.00089,   0.00284,   0.00059,317254250.79187,   0.00234,277167479.74014,  -0.00012,   0.00226,   0.00010,-159913228.94827,   0.00000
338727427.18670,269443246.04655,37080900.46087,   0.00089,   0.00283,   0.00058,316532928.45991,   0.00234,277167479.74014,  -0.00012,   0.00226,   0.00010,-160634551.28023,   0.00000
338930260.88015,267468286.39978,36495885.38713,   0.00090,   0.00282,   0.00058,315841350.73459,   0.00234,277167479.74014,  -0.00012,   0.00226,   0.00010,-161326129.00555,   0.00000
339124554.20756,265501867.11905,35906600.13036,   0.00090,   0.00281,   0.00057,315160838.59027,   0.00234,277167479.74014,  -0.00012,   0.00226,   0.00010,-162006641.14987,   0.00000
339342333.54159,263533312.74680,35313044.69058,   0.00091,   0.00280,   0.00056,314509221.36444,   0.00234,277167479.74014,  -0.00012,   0.00226,   0.00010,-162658258.37570,   0.00000
339560112.87561,261564758.37456,34715219.06777,   0.00091,   0.00279,   0.00055,313872065.50832,   0.00234,277167479.74014,  -0.00012,   0.00226,   0.00010,-163295414.23182,   0.00000
339792837.85020,259602609.27685,34113123.26194,   0.00092,   0.00278,   0.00055,313261385.45023,   0.00234,277167479.74014,  -0.00012,   0.00226,   0.00010,-163906094.28991,   0.00000
340034103.19083,257631919.81310,33506757.27310,   0.00092,   0.00277,   0.00054,312668941.50407,   0.00234,277167479.74014,  -0.00012,   0.00226,   0.00010,-164498538.23607,   0.00000
340275368.53147,255661230.34935,32900391.28425,   0.00093,   0.00276,   0.00053,312093061.43618,   0.00234,277167479.74014,  -0.00012,   0.00226,   0.00010,-165074418.30396,   0.00000
340531579.51267,253696946.16013,32285484.92936,   0.00093,   0.00275,   0.00052,311543147.82112,   0.00234,277167479.74014,  -0.00012,   0.00226,   0.00010,-165624331.91902,   0.00000
340787790.49387,251732661.97091,31670578.57448,   0.00094,   0.00274,   0.00051,311010144.89270,   0.00234,277167479.74014,  -0.00012,   0.00226,   0.00010,-166157334.84745,   0.00000
341073892.75621,249781188.33075,31051402.03657,   0.00094,   0.00274,   0.00051,310516938.06919,   0.00234,277167479.74014,  -0.00012,   0.00226,   0.00010,-166650541.67095,   0.00000
341359995.01856,247829714.69059,30427955.31564,   0.00095,   0.00273,   0.00050,310039747.29788,   0.00234,277167479.74014,  -0.00012,   0.00226,   0.00010,-167127732.44226,   0.00000
341639692.00637,245863295.40986,29800238.41170,   0.00095,   0.00272,   0.00049,309570575.62483,   0.00234,277167479.74014,  -0.00012,   0.00226,   0.00010,-167596904.11531,   0.00000
341949280.27532,243909686.67819,29168251.32473,   0.00096,   0.00271,   0.00048,309142142.67955,   0.00234,277167479.74014,  -0.00012,   0.00226,   0.00010,-168025337.06059,   0.00000
342258868.54428,241956077.94652,28531994.05475,   0.00096,   0.00270,   0.00047,308730444.45164,   0.00234,277167479.74014,  -0.00012,   0.00226,   0.00010,-168437035.28851,   0.00000
342583402.45380,240008874.48938,27895736.78476,   0.00097,   0.00269,   0.00047,308349001.97843,   0.00234,277167479.74014,  -0.00012,   0.00226,   0.00010,-168818477.76171,   0.00000
342922882.00389,238068076.30677,27250939.14873,   0.00097,   0.00268,   0.00046,307995717.78109,   0.00234,277167479.74014,  -0.00012,   0.00226,   0.00010,-169171761.95906,   0.00000
343255956.27946,236112332.48359,26606141.51271,   0.00098,   0.00267,   0.00045,307653020.29189,   0.00234,277167479.74014,  -0.00012,   0.00226,   0.00010,-169514459.44825,   0.00000
343610381.47012,234177939.57551,25957073.69366,   0.00098,   0.00266,   0.00044,307347912.81650,   0.00234,277167479.74014,  -0.00012,   0.00226,   0.00010,-169819566.92364,   0.00000
343973347.02682,232235006.30139,25303735.69159,   0.00099,   0.00265,   0.00043,307065052.26451,   0.00234,277167479.74014,  -0.00012,   0.00226,   0.00010,-170102427.47563,   0.00000
344336312.58353,230292073.02727,24650397.68953,   0.00099,   0.00264,   0.00042,306801137.77192,   0.00234,277167479.74014,  -0.00012,   0.00226,   0.00010,-170366341.96822,   0.00000
344729169.42137,228361950.30221,23988519.32142,   0.00100,   0.00263,   0.00041,306579031.11328,   0.00234,277167479.74014,  -0.00012,   0.00226,   0.00010,-170588448.62686,   0.00000
345128431.53375,226446773.21772,23326640.95331,   0.00101,   0.00262,   0.00041,306383668.33375,   0.00234,277167479.74014,  -0.00012,   0.00226,   0.00010,-170783811.40639,   0.00000
345514883.09706,224501704.85209,22660492.40218,   0.00101,   0.00261,   0.00040,306191710.14862,   0.00234,277167479.74014,  -0.00012,   0.00226,   0.00010,-170975769.59152,   0.00000
345937631.21604,222584392.67609,21990073.66804,   0.00102,   0.00260,   0.00039,306050696.82342,   0.00234,277167479.74014,  -0.00012,   0.00226,   0.00010,-171116782.91672,   0.00000
346360379.33503,220667080.50009,21315384.75087,   0.00102,   0.00259,   0.00038,305928383.71424,   0.00234,277167479.74014,  -0.00012,   0.00226,   0.00010,-171239096.02590,   0.00000
346798073.09458,218756173.59862,20636425.65068,   0.00103,   0.00258,   0.00037,305837430.17981,   0.00234,277167479.74014,  -0.00012,   0.00226,   0.00010,-171330049.56033,   0.00000
347250712.49471,216851671.97168,19957466.55050,   0.00103,   0.00257,   0.00036,305778856.00627,   0.00234,277167479.74014,  -0.00012,   0.00226,   0.00010,-171388623.73387,   0.00000
347711892.26087,214938629.97870,19274237.26729,   0.00104,   0.00256,   0.00035,305744902.80888,   0.00234,277167479.74014,  -0.00012,   0.00226,   0.00010,-171422576.93126,   0.00000
348179477.30157,213040533.62629,18582467.61804,   0.00105,   0.00255,   0.00034,305736487.92391,   0.00234,277167479.74014,  -0.00012,   0.00226,   0.00010,-171430991.81623,   0.00000
348662007.98283,211148842.54841,17894968.15182,   0.00105,   0.00254,   0.00034,305761573.36958,   0.00234,277167479.74014,  -0.00012,   0.00226,   0.00010,-171405906.37057,   0.00000
349153079.03014,209248611.10449,17198928.31955,   0.00106,   0.00254,   0.00033,305811161.34225,   0.00234,277167479.74014,  -0.00012,   0.00226,   0.00010,-171356318.39789,   0.00000
349665500.99254,207369730.57567,16498618.30426,   0.00106,   0.00253,   0.00032,305899885.95750,   0.00234,277167479.74014,  -0.00012,   0.00226,   0.00010,-171267593.78264,   0.00000
350171517.68042,205475904.40628,15798308.28897,   0.00107,   0.00252,   0.00031,306002270.29854,   0.00234,277167479.74014,  -0.00012,   0.00226,   0.00010,-171165209.44160,   0.00000
350698885.28339,203603429.15199,15093728.09067,   0.00108,   0.00251,   0.00030,306143807.28836,   0.00234,277167479.74014,  -0.00012,   0.00226,   0.00010,-171023672.45178,   0.00000
351234793.25241,201722413.53166,14384877.70934,   0.00108,   0.00250,   0.00029,306311371.02803,   0.00234,277167479.74014,  -0.00012,   0.00226,   0.00010,-170856108.71211,   0.00000
351792052.13653,199862748.82644,13676027.32801,   0.00109,   0.00249,   0.00028,306518744.82651,   0.00234,277167479.74014,  -0.00012,   0.00226,   0.00010,-170648734.91363,   0.00000
352364256.66121,198009489.39574,12958636.58064,   0.00109,   0.00248,   0.00027,306758275.36753,   0.00234,277167479.74014,  -0.00012,   0.00226,   0.00010,-170409204.37261,   0.00000
352930055.91137,196141284.32447,12241245.83328,   0.00110,   0.00247,   0.00026,307012080.60521,   0.00234,277167479.74014,  -0.00012,   0.00226,   0.00010,-170155399.13493,   0.00000
353517206.07662,194294430.16830,11519584.90289,   0.00111,   0.00246,   0.00025,307305091.05172,   0.00234,277167479.74014,  -0.00012,   0.00226,   0.00010,-169862388.68842,   0.00000
354119301.88245,192453981.28666,10797923.97250,   0.00111,   0.00245,   0.00024,307631485.49428,   0.00234,277167479.74014,  -0.00012,   0.00226,   0.00010,-169535994.24586,   0.00000
354736343.32885,190619937.67955,10067722.67607,   0.00112,   0.00244,   0.00023,307990407.93653,   0.00234,277167479.74014,  -0.00012,   0.00226,   0.00010,-169177071.80362,   0.00000
355368330.41581,188792299.34697,9337521.37965,   0.00113,   0.00243,   0.00022,308382791.76616,   0.00234,277167479.74014,  -0.00012,   0.00226,   0.00010,-168784687.97398,   0.00000
356000317.50278,186964661.01439,8603049.90020,   0.00113,   0.00242,   0.00021,308795351.73014,   0.00234,277167479.74014,  -0.00012,   0.00226,   0.00010,-168372128.01000,   0.00000
356647250.23032,185143427.95634,7868578.42075,   0.00114,   0.00241,   0.00021,309241328.27376,   0.00234,277167479.74014,  -0.00012,   0.00226,   0.00010,-167926151.46638,   0.00000
357309128.59842,183328600.17282,7125566.57526,   0.00114,   0.00240,   0.00020,309720079.65779,   0.00234,277167479.74014,  -0.00012,   0.00226,   0.00010,-167447400.08235,   0.00000
357985952.60710,181520177.66383,6382554.72978,   0.00115,   0.00239,   0.00019,310232258.89543,   0.00234,277167479.74014,  -0.00012,   0.00226,   0.00010,-166935220.84471,   0.00000
358684127.53088,179733106.06995,5635272.70127,   0.00116,   0.00238,   0.00018,310783122.63744,   0.00234,277167479.74014,  -0.00012,   0.00226,   0.00010,-166384357.10270,   0.00000
359375897.18012,177931088.83549,4883720.48974,   0.00116,   0.00237,   0.00017,311348543.17818,   0.00234,277167479.74014,  -0.00012,   0.00226,   0.00010,-165818936.56196,   0.00000
360103963.38504,176156827.79066,4132168.27821,   0.00117,   0.00236,   0.00016,311965615.09591,   0.00234,277167479.74014,  -0.00012,   0.00226,   0.00010,-165201864.64423,   0.00000
360832029.58996,174382566.74583,3376345.88366,   0.00118,   0.00235,   0.00015,312602650.04227,   0.00234,277167479.74014,  -0.00012,   0.00226,   0.00010,-164564829.69788,   0.00000
361575041.43545,172614710.97553,2616253.30610,   0.00118,   0.00234,   0.00014,313272584.34940,   0.00234,277167479.74014,  -0.00012,   0.00226,   0.00010,-163894895.39074,   0.00000
362318053.28093,170846855.20523,1856160.72853,   0.00119,   0.00233,   0.00013,313962506.80236,   0.00234,277167479.74014,  -0.00012,   0.00226,   0.00010,-163204972.93778,   0.00000
363090956.40756,169091809.98400,1087527.78492,   0.00120,   0.00233,   0.00012,314698147.39031,   0.00234,277167479.74014,  -0.00012,   0.00226,   0.00010,-162469332.34983,   0.00000
363885210.44929,167358115.67786,323165.02433,   0.00121,   0.00232,   0.00011,315471639.66042,   0.00234,277167479.74014,  -0.00012,   0.00226,   0.00010,-161695840.07972,   0.00000
364673059.21649,165609475.73115,-449738.10229,   0.00121,   0.00231,   0.00010,316259752.75590,   0.00234,277167479.74014,  -0.00012,   0.00226,   0.00010,-160907726.98424,   0.00000
365482258.89879,163882186.69954,-1222641.22892,   0.00122,   0.00230,   0.00009,317085328.34820,   0.00234,277167479.74014,  -0.00012,   0.00226,   0.00010,-160082151.39194,   0.00000
366306404.22166,162161302.94246,-1999814.53857,   0.00123,   0.00229,   0.00008,317943303.02054,   0.00234,277167479.74014,  -0.00012,   0.00226,   0.00010,-159224176.71960,   0.00000
367145495.18509,160446824.45992,-2781258.03124,   0.00123,   0.00228,   0.00007,318833617.24491,   0.00234,277167479.74014,  -0.00012,   0.00226,   0.00010,-158333862.49523,   0.00000
368005937.06363,158753696.89247,-3566971.70693,   0.00124,   0.00227,   0.00006,319760805.70538,   0.00234,277167479.74014,  -0.00012,   0.00226,   0.00010,-157406674.03476,   0.00000
368859973.66764,157045623.68445,-4352685.38262,   0.00125,   0.00226,   0.00005,320702355.90932,   0.00234,277167479.74014,  -0.00012,   0.00226,   0.00010,-156465123.83082,   0.00000
369750306.82732,155365306.66606,-5138399.05830,   0.00126,   0.00225,   0.00004,321693188.51802,   0.00234,277167479.74014,  -0.00012,   0.00226,   0.00010,-155474291.22213,   0.00000
370640639.98700,153684989.64768,-5932653.10003,   0.00126,   0.00224,   0.00003,322703031.05485,   0.00234,277167479.74014,  -0.00012,   0.00226,   0.00010,-154464448.68529,   0.00000
371552324.06178,152026023.54439,-6726907.14176,   0.00127,   0.00223,   0.00002,323748625.97967,   0.00234,277167479.74014,  -0.00012,   0.00226,   0.00010,-153418853.76047,   0.00000
372472548.50260,150358517.07506,-7525431.36651,   0.00128,   0.00222,   0.00001,324821426.86832,   0.00234,277167479.74014,  -0.00012,   0.00226,   0.00010,-152346052.87182,   0.00000
373414123.85852,148712361.52084,-8323955.59126,   0.00129,   0.00221,  -0.00001,325929506.01618,   0.00234,277167479.74014,  -0.00012,   0.00226,   0.00010,-151237973.72396,   0.00000
374377050.12954,147087556.88171,-9126749.99902,   0.00129,   0.00220,  -0.00002,327072793.26417,   0.00234,277167479.74014,  -0.00012,   0.00226,   0.00010,-150094686.47597,   0.00000
375333571.12603,145447806.60201,-9933814.58981,   0.00130,   0.00219,  -0.00003,328230028.19987,   0.00234,277167479.74014,  -0.00012,   0.00226,   0.00010,-148937451.54027,   0.00000
376326388.67819,143835812.51194,-10745149.36362,   0.00131,   0.00218,  -0.00004,329435053.68413,   0.00234,277167479.74014,  -0.00012,   0.00226,   0.00010,-147732426.05601,   0.00000
377319206.23035,142223818.42188,-11556484.13743,   0.00132,   0.00218,  -0.00005,330657340.18719,   0.00234,277167479.74014,  -0.00012,   0.00226,   0.00010,-146510139.55296,   0.00000
378341915.06365,140624634.88087,-12367818.91124,   0.00132,   0.00217,  -0.00006,331922562.95304,   0.00234,277167479.74014,  -0.00012,   0.00226,   0.00010,-145244916.78710,   0.00000
379371029.17148,139040396.98044,-13187694.05109,   0.00133,   0.00216,  -0.00007,333209329.23822,   0.00234,277167479.74014,  -0.00012,   0.00226,   0.00010,-143958150.50192,   0.00000
380415088.91988,137462564.35453,-14007569.19094,   0.00134,   0.00215,  -0.00008,334525632.52863,   0.00234,277167479.74014,  -0.00012,   0.00226,   0.00010,-142641847.21151,   0.00000
381459148.66828,135884731.72862,-14827444.33078,   0.00135,   0.00214,  -0.00009,335858344.62407,   0.00234,277167479.74014,  -0.00012,   0.00226,   0.00010,-141309135.11607,   0.00000
382539504.97235,134334655.29235,-15651589.65365,   0.00136,   0.00213,  -0.00010,337237122.38854,   0.00234,277167479.74014,  -0.00012,   0.00226,   0.00010,-139930357.35161,   0.00000
383634806.91700,132790984.13060,-16480005.15954,   0.00136,   0.00212,  -0.00011,338645299.24026,   0.00234,277167479.74014,  -0.00012,   0.00226,   0.00010,-138522180.49988,   0.00000
384730108.86164,131247312.96885,-17312690.84845,   0.00137,   0.00211,  -0.00012,340069858.43084,   0.00234,277167479.74014,  -0.00012,   0.00226,   0.00010,-137097621.30931,   0.00000
385861707.36195,129731397.99674,-18145376.53736,   0.00138,   0.00210,  -0.00013,341538984.85245,   0.00234,277167479.74014,  -0.00012,   0.00226,   0.00010,-135628494.88769,   0.00000
386993305.86226,128215483.02462,-18978062.22627,   0.00139,   0.00209,  -0.00014,343023316.65443,   0.00234,277167479.74014,  -0.00012,   0.00226,   0.00010,-134144163.08571,   0.00000
388139850.00314,126705973.32704,-19815018.09820,   0.00140,   0.00208,  -0.00015,344536230.57996,   0.00234,277167479.74014,  -0.00012,   0.00226,   0.00010,-132631249.16018,   0.00000
389307745.05912,125217814.54455,-20656244.15314,   0.00140,   0.00207,  -0.00017,346080623.10436,   0.00234,277167479.74014,  -0.00012,   0.00226,   0.00010,-131086856.63578,   0.00000
390490585.75568,123736061.03660,-21501740.39111,   0.00141,   0.00207,  -0.00018,347653157.51611,   0.00234,277167479.74014,  -0.00012,   0.00226,   0.00010,-129514322.22403,   0.00000
391694777.36733,122275658.44374,-22347236.62908,   0.00142,   0.00206,  -0.00019,349255773.62156,   0.00234,277167479.74014,  -0.00012,   0.00226,   0.00010,-127911706.11858,   0.00000
392913914.61955,120821661.12542,-23192732.86705,   0.00143,   0.00205,  -0.00020,350885187.53100,   0.00234,277167479.74014,  -0.00012,   0.00226,   0.00010,-126282292.20914,   0.00000
394133051.87177,119367663.80709,-24042499.28804,   0.00144,   0.00204,  -0.00021,352529268.89192,   0.00234,277167479.74014,  -0.00012,   0.00226,   0.00010,-124638210.84822,   0.00000
395388485.67967,117941422.67840,-24896535.89205,   0.00145,   0.00203,  -0.00022,354216128.62491,   0.00234,277167479.74014,  -0.00012,   0.00226,   0.00010,-122951351.11523,   0.00000
396643919.48756,116515181.54970,-25750572.49606,   0.00145,   0.00202,  -0.00023,355916316.09124,   0.00234,277167479.74014,  -0.00012,   0.00226,   0.00010,-121251163.64890,   0.00000
397920704.21055,115110291.33611,-26608879.28309,   0.00146,   0.00201,  -0.00024,357645907.55476,   0.00234,277167479.74014,  -0.00012,   0.00226,   0.00010,-119521572.18538,   0.00000
399227380.21469,113718211.67157,-27471456.25313,   0.00147,   0.00200,  -0.00025,359414735.05760,   0.00234,277167479.74014,  -0.00012,   0.00226,   0.00010,-117752744.68254,   0.00000
400540461.49335,112341077.64761,-28334033.22318,   0.00148,   0.00199,  -0.00027,361198676.97816,   0.00234,277167479.74014,  -0.00012,   0.00226,   0.00010,-115968802.76198,   0.00000
401868488.41258,110970348.89817,-29196610.19323,   0.00149,   0.00199,  -0.00028,363007630.88894,   0.00234,277167479.74014,  -0.00012,   0.00226,   0.00010,-114159848.85120,   0.00000
403217866.24692,109620971.06384,-30063457.34630,   0.00150,   0.00198,  -0.00029,364844768.78840,   0.00234,277167479.74014,  -0.00012,   0.00226,   0.00010,-112322710.95174,   0.00000
404567244.08125,108271593.22951,-30934574.68239,   0.00151,   0.00197,  -0.00030,366694827.52167,   0.00234,277167479.74014,  -0.00012,   0.00226,   0.00010,-110472652.21847,   0.00000
405946513.19673,106935025.94423,-31805692.01848,   0.00151,   0.00196,  -0.00031,368581845.13610,   0.00234,277167479.74014,  -0.00012,   0.00226,   0.00010,-108585634.60404,   0.00000
407347133.22730,105619809.57406,-32676809.35457,   0.00152,   0.00195,  -0.00032,370495109.40057,   0.00234,277167479.74014,  -0.00012,   0.00226,   0.00010,-106672370.33957,   0.00000
408754158.53241,104319538.84446,-33556467.05670,   0.00153,   0.00194,  -0.00033,372423941.80206,   0.00234,277167479.74014,  -0.00012,   0.00226,   0.00010,-104743537.93808,   0.00000
410191075.11865,103032078.66391,-34431854.57581,   0.00154,   0.00193,  -0.00034,374387694.84390,   0.00234,277167479.74014,  -0.00012,   0.00226,   0.00010,-102779784.89624,   0.00000
411627991.70490,101744618.48337,-35311512.27794,   0.00155,   0.00192,  -0.00036,376363317.38137,   0.00234,277167479.74014,  -0.00012,   0.00226,   0.00010,-100804162.35878,   0.00000
413092664.48077,100493454.85850,-36195440.16309,   0.00156,   0.00192,  -0.00037,378367155.75304,   0.00234,277167479.74014,  -0.00012,   0.00226,   0.00010,-98800323.98710,   0.00000
414565877.62269,99233750.86758,-37079368.04823,   0.00157,   0.00191,  -0.00038,380391792.48069,   0.00234,277167479.74014,  -0.00012,   0.00226,   0.00010,-96775687.25945,   0.00000
416060441.67970,97995397.79177,-37967566.11640,   0.00158,   0.00190,  -0.00039,382442137.92633,   0.00234,277167479.74014,  -0.00012,   0.00226,   0.00010,-94725341.81381,   0.00000
417576356.65182,96778395.63106,-38855764.18457,   0.00159,   0.00189,  -0.00040,384516596.36016,   0.00234,277167479.74014,  -0.00012,   0.00226,   0.00010,-92650883.37998,   0.00000
419107217.26450,95567798.74487,-39748232.43576,   0.00160,   0.00188,  -0.00041,386614375.66829,   0.00234,277167479.74014,  -0.00012,   0.00226,   0.00010,-90553104.07185,   0.00000
420659428.79229,94378552.77379,-40640700.68695,   0.00161,   0.00187,  -0.00043,388735691.45686,   0.00234,277167479.74014,  -0.00012,   0.00226,   0.00010,-88431788.28328,   0.00000
422218045.59460,93204252.44328,-41537439.12116,   0.00162,   0.00186,  -0.00044,390869121.23851,   0.00234,277167479.74014,  -0.00012,   0.00226,   0.00010,-86298358.50163,   0.00000
423806553.67806,92042762.66183,-42434177.55537,   0.00163,   0.00186,  -0.00045,393036279.92665,   0.00234,277167479.74014,  -0.00012,   0.00226,   0.00010,-84131199.81349,   0.00000
425395061.76152,90881272.88038,-43330915.98958,   0.00163,   0.00185,  -0.00046,395212125.93115,   0.00234,277167479.74014,  -0.00012,   0.00226,   0.00010,-81955353.80899,   0.00000
427019866.40064,89747539.28855,-44231924.60681,   0.00164,   0.00184,  -0.00047,397424199.48420,   0.00234,277167479.74014,  -0.00012,   0.00226,   0.00010,-79743280.25594,   0.00000
428651076.31430,88628751.33730,-45137203.40706,   0.00165,   0.00183,  -0.00048,399647460.30736,   0.00234,277167479.74014,  -0.00012,   0.00226,   0.00010,-77520019.43278,   0.00000
430297231.86853,87516368.66058,-46042482.20731,   0.00166,   0.00182,  -0.00050,401891156.73631,   0.00234,277167479.74014,  -0.00012,   0.00226,   0.00010,-75276323.00383,   0.00000
431964738.33786,86425336.89896,-46947761.00756,   0.00167,   0.00181,  -0.00051,404156470.66073,   0.00234,277167479.74014,  -0.00012,   0.00226,   0.00010,-73011009.07941,   0.00000
433653595.72228,85355656.05244,-47857309.99083,   0.00168,   0.00181,  -0.00052,406444594.37826,   0.00234,277167479.74014,  -0.00012,   0.00226,   0.00010,-70722885.36188,   0.00000
435357398.74728,84292380.48045,-48766858.97410,   0.00169,   0.00180,  -0.00053,408752465.62372,   0.00234,277167479.74014,  -0.00012,   0.00226,   0.00010,-68415014.11642,   0.00000
437067607.04681,83244050.54903,-49680678.14038,   0.00170,   0.00179,  -0.00054,411070427.60159,   0.00234,277167479.74014,  -0.00012,   0.00226,   0.00010,-66097052.13855,   0.00000
438814111.90201,82223476.80724,-50594497.30667,   0.00171,   0.00178,  -0.00055,413421228.84910,   0.00234,277167479.74014,  -0.00012,   0.00226,   0.00010,-63746250.89104,   0.00000
440575562.39778,81209308.33998,-51512586.65598,   0.00172,   0.00177,  -0.00057,415792713.98297,   0.00234,277167479.74014,  -0.00012,   0.00226,   0.00010,-61374765.75717,   0.00000
442343418.16807,80210085.51329,-52430676.00529,   0.00173,   0.00177,  -0.00058,418172071.49244,   0.00234,277167479.74014,  -0.00012,   0.00226,   0.00010,-58995408.24770,   0.00000
444126219.57894,79217267.96113,-53348765.35460,   0.00174,   0.00176,  -0.00059,420570185.59373,   0.00234,277167479.74014,  -0.00012,   0.00226,   0.00010,-56597294.14641,   0.00000
445945317.54548,78252206.59860,-54271124.88693,   0.00175,   0.00175,  -0.00060,423001765.89173,   0.00234,277167479.74014,  -0.00012,   0.00226,   0.00010,-54165713.84841,   0.00000
447770820.78655,77302090.87664,-55193484.41926,   0.00176,   0.00174,  -0.00061,425440551.29763,   0.00234,277167479.74014,  -0.00012,   0.00226,   0.00010,-51726928.44251,   0.00000
449617674.94272,76373326.06978,-56115843.95159,   0.00177,   0.00173,  -0.00063,427898475.21102,   0.00234,277167479.74014,  -0.00012,   0.00226,   0.00010,-49269004.52912,   0.00000
451479474.73946,75450966.53745,-57042473.66694,   0.00178,   0.00173,  -0.00064,430376036.88829,   0.00234,277167479.74014,  -0.00012,   0.00226,   0.00010,-46791442.85185,   0.00000
453347679.81073,74543552.64569,-57973373.56531,   0.00179,   0.00172,  -0.00065,432861928.93539,   0.00234,277167479.74014,  -0.00012,   0.00226,   0.00010,-44305550.80475,   0.00000
455245776.16314,73648949.30299,-58900003.28066,   0.00180,   0.00171,  -0.00066,435375863.49976,   0.00234,277167479.74014,  -0.00012,   0.00226,   0.00010,-41791616.24038,   0.00000
457171628.70518,72790642.51596,-59835173.36205,   0.00181,   0.00170,  -0.00067,437912437.65291,   0.00234,277167479.74014,  -0.00012,   0.00226,   0.00010,-39255042.08723,   0.00000
459097481.24722,71932335.72893,-60766073.26042,   0.00183,   0.00170,  -0.00069,440452439.01703,   0.00234,277167479.74014,  -0.00012,   0.00226,   0.00010,-36715040.72311,   0.00000
461038279.42983,71080434.21643,-61701243.34181,   0.00184,   0.00169,  -0.00070,443011345.70744,   0.00234,277167479.74014,  -0.00012,   0.00226,   0.00010,-34156134.03270,   0.00000
463021779.44264,70271234.53413,-62636413.42320,   0.00185,   0.00168,  -0.00071,445600789.32057,   0.00234,277167479.74014,  -0.00012,   0.00226,   0.00010,-31566690.41957,   0.00000
465005279.45545,69462034.85183,-63575853.68761,   0.00186,   0.00167,  -0.00072,448196763.48196,   0.00234,277167479.74014,  -0.00012,   0.00226,   0.00010,-28970716.25818,   0.00000
467010130.38336,68674186.08464,-64511023.76900,   0.00187,   0.00167,  -0.00074,450808253.78523,   0.00234,277167479.74014,  -0.00012,   0.00226,   0.00010,-26359225.95491,   0.00000
469036332.22637,67907688.23254,-65454734.21643,   0.00188,   0.00166,  -0.00075,453440545.98693,   0.00234,277167479.74014,  -0.00012,   0.00226,   0.00010,-23726933.75321,   0.00000
471062534.06938,67141190.38044,-66394174.48084,   0.00189,   0.00165,  -0.00076,456075334.10995,   0.00234,277167479.74014,  -0.00012,   0.00226,   0.00010,-21092145.63019,   0.00000
473125032.46806,66402448.71797,-67337884.92827,   0.00190,   0.00164,  -0.00077,458740768.92929,   0.00234,277167479.74014,  -0.00012,   0.00226,   0.00010,-18426710.81085,   0.00000
475208881.78184,65685057.97061,-68281595.37570,   0.00191,   0.00164,  -0.00078,461422814.80018,   0.00234,277167479.74014,  -0.00012,   0.00226,   0.00010,-15744664.93997,   0.00000
477299136.37016,64982612.86381,-69229576.00615,   0.00192,   0.00163,  -0.00080,464111261.59285,   0.00234,277167479.74014,  -0.00012,   0.00226,   0.00010,-13056218.14729,   0.00000
479410741.87357,64301518.67211,-70177556.63660,   0.00193,   0.00162,  -0.00081,466815996.21645,   0.00234,277167479.74014,  -0.00012,   0.00226,   0.00010,-10351483.52369,   0.00000
481537293.01755,63626829.75494,-71125537.26705,   0.00194,   0.00161,  -0.00082,469536338.12776,   0.00234,277167479.74014,  -0.00012,   0.00226,   0.00010,-7631141.61238,   0.00000
483685195.07663,62973491.75288,-72077788.08052,   0.00195,   0.00161,  -0.00083,472274608.21059,   0.00234,277167479.74014,  -0.00012,   0.00226,   0.00010,-4892871.52956,   0.00000
485854448.05081,62341504.66591,-73025768.71097,   0.00197,   0.00160,  -0.00085,475026735.29196,   0.00234,277167479.74014,  -0.00012,   0.00226,   0.00010,-2140744.44818,   0.00000
487547803.14123,61869477.80835,-73761866.53780,   0.00197,   0.00159,  -0.00086,477167479.51907,   0.00234,277167479.74014,  -0.00012,   0.00226,   0.00010,  -5.50563,   0.00000
487432247.40482,61708813.19231,-73875507.19895,   0.00198,   0.00159,  -0.00086,477170912.38718,   0.00235,277170913.05451,  -0.00012,   0.00226,   0.00010,  -0.66733,   1.00000
486923224.91934,61005672.07776,-74376754.09753,   0.00199,   0.00159,  -0.00087,477186069.63666,   0.00236,277186072.56468,  -0.00011,   0.00226,   0.00010,  -2.92802,   1.00000
486435582.76920,60347900.83222,-74866699.60938,   0.00200,   0.00158,  -0.00088,477201369.59134,   0.00238,277201379.51222,  -0.00010,   0.00225,   0.00009,  -9.92088,   1.00000
485946683.07526,59693464.18443,-75357254.97257,   0.00201,   0.00157,  -0.00090,477216717.19198,   0.00239,277216721.30000,  -0.00008,   0.00225,   0.00008,  -4.10801,   1.00000
485466000.44315,59063233.10784,-75846376.60300,   0.00202,   0.00157,  -0.00091,477232155.32143,   0.00240,277232164.63378,  -0.00007,   0.00224,   0.00008,  -9.31236,   1.00000
484997554.75718,58457230.27657,-76326251.15002,   0.00203,   0.00156,  -0.00092,477247684.11579,   0.00242,277247686.32496,  -0.00006,   0.00224,   0.00007,  -2.20916,   1.00000
484531406.04952,57860387.10742,-76804781.74995,   0.00204,   0.00155,  -0.00093,477263299.05388,   0.00243,277263306.47569,  -0.00005,   0.00223,   0.00006,  -7.42181,   1.00000
484081716.20048,57302450.71287,-77277946.12878,   0.00206,   0.00155,  -0.00095,477279009.60274,   0.00245,277279016.78228,  -0.00003,   0.00223,   0.00006,  -7.17954,   1.00000
483632845.63662,56747447.72092,-77747882.12423,   0.00207,   0.00154,  -0.00096,477294743.42584,   0.00246,277294748.49802,  -0.00002,   0.00222,   0.00005,  -5.07218,   1.00000
483196058.18111,56222354.71341,-78214414.97435,   0.00208,   0.00153,  -0.00097,477310640.73771,   0.00248,277310643.56086,  -0.00001,   0.00222,   0.00005,  -2.82315,   1.00000
482774332.91906,55729805.46254,-78673759.16176,   0.00209,   0.00153,  -0.00098,477326543.60340,   0.00249,277326550.58809,   0.00000,   0.00221,   0.00004,  -6.98469,   1.00000
482348984.79390,55231073.62247,-79131850.13303,   0.00210,   0.00152,  -0.00100,477342551.47719,   0.00251,277342552.09926,   0.00002,   0.00221,   0.00003,  -0.62208,   1.00000
481940399.63641,54770832.67389,-79584644.92800,   0.00211,   0.00151,  -0.00101,477358631.48284,   0.00252,277358640.70619,   0.00003,   0.00220,   0.00003,  -9.22335,   1.00000
481536807.22419,54327857.28973,-80038139.09027,   0.00213,   0.00151,  -0.00102,477374759.46454,   0.00254,277374761.47233,   0.00004,   0.00220,   0.00002,  -2.00779,   1.00000
481147614.22187,53914383.22457,-80484333.20851,   0.00214,   0.00150,  -0.00103,477391028.61826,   0.00255,277391031.17139,   0.00005,   0.00219,   0.00001,  -2.55313,   1.00000
480761405.06620,53503165.45945,-80923570.74493,   0.00215,   0.00149,  -0.00105,477407303.27464,   0.00257,277407306.92743,   0.00007,   0.00219,   0.00001,  -3.65280,   1.00000
480383928.17724,53115128.11383,-81361494.74576,   0.00216,   0.00149,  -0.00106,477423669.16438,   0.00259,277423678.05224,   0.00008,   0.00218,  -0.00000,  -8.88786,   1.00000
480021365.84356,52765015.60098,-81798051.75828,   0.00217,   0.00148,  -0.00107,477440140.22126,   0.00260,277440145.25827,   0.00009,   0.00218,  -0.00001,  -5.03701,   1.00000
479665567.67257,52422992.98656,-82225615.22000,   0.00219,   0.00147,  -0.00108,477456676.26419,   0.00262,277456681.38536,   0.00010,   0.00217,  -0.00002,  -5.12117,   1.00000
479314772.44745,52097630.14465,-82653991.01911,   0.00220,   0.00147,  -0.00110,477473242.29675,   0.00263,277473247.16109,   0.00012,   0.00217,  -0.00002,  -4.86434,   1.00000
478974868.79226,51795057.79256,-83077213.06641,   0.00221,   0.00146,  -0.00111,477489886.72920,   0.00265,277489894.38870,   0.00013,   0.00216,  -0.00003,  -7.65950,   1.00000
478643508.16095,51506497.97949,-83493215.76764,   0.00222,   0.00146,  -0.00112,477506678.05845,   0.00266,277506685.75596,   0.00014,   0.00215,  -0.00004,  -7.69751,   1.00000
478321632.27718,51243005.90804,-83908341.68768,   0.00223,   0.00145,  -0.00113,477523424.28870,   0.00268,277523429.86021,   0.00016,   0.00215,  -0.00004,  -5.57151,   1.00000
478014527.04946,51008185.37623,-84316226.58839,   0.00225,   0.00144,  -0.00115,477540309.95900,   0.00270,277540318.14575,   0.00017,   0.00214,  -0.00005,  -8.18675,   1.00000
477716222.26216,50795648.40434,-84722863.41628,   0.00226,   0.00144,  -0.00116,477557297.50736,   0.00271,277557298.24581,   0.00018,   0.00214,  -0.00006,  -0.73845,   1.00000
477418765.24607,50584237.08766,-85126606.92105,   0.00227,   0.00143,  -0.00117,477574283.28710,   0.00273,277574292.28100,   0.00020,   0.00213,  -0.00007,  -8.99390,   1.00000
477140654.02613,50409904.37584,-85521434.82625,   0.00228,   0.00143,  -0.00119,477591347.16262,   0.00274,277591353.03158,   0.00021,   0.00213,  -0.00007,  -5.86896,   1.00000
476861201.51645,50236448.65176,-85917262.91339,   0.00229,   0.00142,  -0.00120,477608439.22657,   0.00276,277608439.48358,   0.00022,   0.00212,  -0.00008,  -0.25701,   1.00000
476594433.35285,50091167.01921,-86309673.38990,   0.00231,   0.00141,  -0.00121,477625676.35836,   0.00278,277625680.94574,   0.00024,   0.00212,  -0.00009,  -4.58738,   1.00000
476343092.56909,49976365.83368,-86695400.70494,   0.00232,   0.00141,  -0.00122,477642920.84550,   0.00279,277642923.50113,   0.00025,   0.00211,  -0.00010,  -2.65562,   1.00000
476096441.10241,49868354.06727,-87076160.12201,   0.00233,   0.00140,  -0.00124,477660236.00199,   0.00281,277660242.10050,   0.00026,   0.00211,  -0.00010,  -6.09852,   1.00000
475858515.67999,49781920.92094,-87455735.51033,   0.00234,   0.00140,  -0.00125,477677645.09087,   0.00283,277677650.24180,   0.00028,   0.00210,  -0.00011,  -5.15092,   1.00000
475631499.58571,49716968.46111,-87830319.78260,   0.00236,   0.00139,  -0.00126,477695132.17788,   0.00284,277695134.60132,   0.00029,   0.00209,  -0.00012,  -2.42344,   1.00000
475419831.57807,49682021.33609,-88198336.96152,   0.00237,   0.00139,  -0.00127,477712613.62249,   0.00286,277712618.24819,   0.00030,   0.00209,  -0.00013,  -4.62570,   1.00000
475210559.69767,49653365.75947,-88565239.34758,   0.00238,   0.00138,  -0.00129,477730189.44595,   0.00288,277730189.56674,   0.00032,   0.00208,  -0.00014,  -0.12079,   1.00000
475012121.98316,49645845.32310,-88927196.51974,   0.00240,   0.00138,  -0.00130,477747827.30725,   0.00289,277747836.06720,   0.00033,   0.00208,  -0.00014,  -8.75995,   1.00000
474820508.56777,49653101.92734,-89286480.16333,   0.00241,   0.00137,  -0.00131,477765487.86861,   0.00291,277765493.16515,   0.00034,   0.00207,  -0.00015,  -5.29654,   1.00000
474637439.41492,49681244.39801,-89644621.33404,   0.00242,   0.00137,  -0.00133,477783236.11617,   0.00293,277783238.17249,   0.00036,   0.00207,  -0.00016,  -2.05632,   1.00000
474467389.02677,49730201.88954,-89994066.14656,   0.00243,   0.00136,  -0.00134,477801039.14529,   0.00294,277801043.99917,   0.00037,   0.00206,  -0.00017,  -4.85388,   1.00000
474308068.96912,49799815.51335,-90338633.69798,   0.00245,   0.00136,  -0.00135,477818917.37193,   0.00296,277818923.51707,   0.00039,   0.00205,  -0.00018,  -6.14514,   1.00000
474153127.90311,49883699.91058,-90684382.15033,   0.00246,   0.00135,  -0.00136,477836825.04706,   0.00298,277836825.94833,   0.00040,   0.00205,  -0.00019,  -0.90127,   1.00000
474011124.04043,49988048.79338,-91021489.41507,   0.00247,   0.00135,  -0.00138,477854783.53274,   0.00300,277854788.11129,   0.00041,   0.00204,  -0.00019,  -4.57855,   1.00000
473877450.64790,50112667.37400,-91357517.02739,   0.00249,   0.00134,  -0.00139,477872830.73613,   0.00301,277872836.76046,   0.00043,   0.00204,  -0.00020,  -6.02433,   1.00000
473752584.70237,50251274.29398,-91687248.29751,   0.00250,   0.00134,  -0.00140,477890871.95728,   0.00303,277890880.35085,   0.00044,   0.00203,  -0.00021,  -8.39357,   1.00000
473635960.93142,50409926.00666,-92015919.12072,   0.00251,   0.00133,  -0.00142,477909006.50404,   0.00305,277909009.99595,   0.00045,   0.00203,  -0.00022,  -3.49191,   1.00000
473529820.36538,50588521.69456,-92339765.13523,   0.00252,   0.00133,  -0.00143,477927204.06734,   0.00306,277927211.85289,   0.00047,   0.00202,  -0.00023,  -7.78555,   1.00000
473430043.33308,50780727.02958,-92661129.69124,   0.00254,   0.00132,  -0.00144,477945416.58739,   0.00308,277945421.59638,   0.00048,   0.00201,  -0.00024,  -5.00899,   1.00000
473340671.27059,50992651.86989,-92977695.58742,   0.00255,   0.00132,  -0.00145,477963702.79332,   0.00310,277963703.03411,   0.00050,   0.00201,  -0.00025,  -0.24080,   1.00000
473263972.57146,51224201.02887,-93285744.73010,   0.00256,   0.00131,  -0.00147,477982037.47002,   0.00312,277982041.92386,   0.00051,   0.00200,  -0.00025,  -4.45384,   1.00000
473191124.03739,51468977.56807,-93595133.26897,   0.00258,   0.00131,  -0.00148,478000396.53341,   0.00313,278000401.88752,   0.00052,   0.00200,  -0.00026,  -5.35412,   1.00000
473128523.24331,51733113.26342,-93899761.31725,   0.00259,   0.00130,  -0.00149,478018826.57436,   0.00315,278018832.85863,   0.00054,   0.00199,  -0.00027,  -6.28426,   1.00000
473082265.58730,52031318.77296,-94199597.56694,   0.00260,   0.00130,  -0.00151,478037327.54376,   0.00317,278037335.68193,   0.00055,   0.00198,  -0.00028,  -8.13817,   1.00000
473035819.85838,52327505.42631,-94497115.64330,   0.00262,   0.00129,  -0.00152,478055838.63965,   0.00319,278055843.89565,   0.00057,   0.00198,  -0.00029,  -5.25600,   1.00000
472999448.90390,52642688.72607,-94789909.42705,   0.00263,   0.00129,  -0.00153,478074418.23530,   0.00321,278074422.50450,   0.00058,   0.00197,  -0.00030,  -4.26920,   1.00000
472968968.25681,52970582.30311,-95080373.56676,   0.00264,   0.00129,  -0.00154,478093001.59735,   0.00322,278093007.41039,   0.00060,   0.00197,  -0.00031,  -5.81304,   1.00000
472948452.81421,53317245.06256,-95366134.46353,   0.00266,   0.00128,  -0.00156,478111658.38882,   0.00324,278111662.35404,   0.00061,   0.00196,  -0.00032,  -3.96522,   1.00000
472943942.53448,53697382.88581,-95647148.84497,   0.00267,   0.00128,  -0.00157,478130380.74312,   0.00326,278130388.49294,   0.00062,   0.00196,  -0.00033,  -7.74982,   1.00000
