# sigma_xx, sigma_yy, sigma_xy, epsilon_xx, epsilon_yy, epsilon_xy, vonMises, epsPlastic, hardening, epsilonP__xx, epsilonP__yy, epsilonP__xy, yieldValue, iteration
   0.00000,   0.00000,   0.00000,   0.00000,   0.00000,   0.00000,1181185.37500,   0.00000,274640576.00000,   0.00000,   0.00000,   0.00000,-473459392.00000,   0.00000
   0.00000,   0.00000,   0.00000,   0.00000,   0.00000,   0.00000,1181185.37500,   0.00000,274640576.00000,   0.00000,   0.00000,   0.00000,-473459392.00000,   0.00000
-2083529.33348,-2230386.02659,422212.99269,  -0.00001,  -0.00001,   0.00001,2050406.25000,   0.00000,274640576.00000,   0.00000,   0.00000,   0.00000,-472590176.00000,   0.00000
-4160174.75946,-4444709.60236,844425.98537,  -0.00001,  -0.00001,   0.00001,4124818.75000,   0.00000,274640576.00000,   0.00000,   0.00000,   0.00000,-470515744.00000,   0.00000
-6259766.54375,-6681979.53644,1262049.70640,  -0.00002,  -0.00002,   0.00002,6465053.50000,   0.00000,274640576.00000,   0.00000,   0.00000,   0.00000,-468175520.00000,   0.00000
-8359358.32804,-8919249.47051,1679673.42743,  -0.00002,  -0.00002,   0.00002,8799187.00000,   0.00000,274640576.00000,   0.00000,   0.00000,   0.00000,-465841392.00000,   0.00000
-10465834.01981,-11172581.85540,2097297.14846,  -0.00003,  -0.00003,   0.00003,11123802.00000,   0.00000,274640576.00000,   0.00000,   0.00000,   0.00000,-463516768.00000,   0.00000
-12597550.70572,-13423619.60445,2510331.59782,  -0.00003,  -0.00004,   0.00003,13400741.00000,   0.00000,274640576.00000,   0.00000,   0.00000,   0.00000,-461239840.00000,   0.00000
-14720088.84830,-15683835.89682,2923366.04719,  -0.00004,  -0.00004,   0.00004,15658990.00000,   0.00000,274640576.00000,   0.00000,   0.00000,   0.00000,-458981584.00000,   0.00000
-16867867.98501,-17941757.55337,3331811.22490,  -0.00004,  -0.00005,   0.00004,17937438.00000,   0.00000,274640576.00000,   0.00000,   0.00000,   0.00000,-456703136.00000,   0.00000
-19006468.57840,-20208857.75323,3740256.40261,  -0.00005,  -0.00005,   0.00005,20240528.00000,   0.00000,274640576.00000,   0.00000,   0.00000,   0.00000,-454400048.00000,   0.00000
-21177194.07341,-22489725.76807,4148701.58032,  -0.00005,  -0.00006,   0.00005,22585552.00000,   0.00000,274640576.00000,   0.00000,   0.00000,   0.00000,-452055024.00000,   0.00000
-23338741.02511,-24779772.32623,4557146.75802,  -0.00006,  -0.00007,   0.00006,24943728.00000,   0.00000,274640576.00000,   0.00000,   0.00000,   0.00000,-449696848.00000,   0.00000
-25509466.52012,-27060640.34107,4961002.66407,  -0.00006,  -0.00007,   0.00006,27302554.00000,   0.00000,274640576.00000,   0.00000,   0.00000,   0.00000,-447338016.00000,   0.00000
-27696254.46593,-29348392.26341,5360269.29846,  -0.00007,  -0.00008,   0.00007,29666980.00000,   0.00000,274640576.00000,   0.00000,   0.00000,   0.00000,-444973600.00000,   0.00000
-29889926.31924,-31652206.63655,5764125.20451,  -0.00007,  -0.00009,   0.00007,32039366.00000,   0.00000,274640576.00000,   0.00000,   0.00000,   0.00000,-442601216.00000,   0.00000
-32099660.62336,-33962904.91718,6163391.83890,  -0.00008,  -0.00009,   0.00008,34413552.00000,   0.00000,274640576.00000,   0.00000,   0.00000,   0.00000,-440227024.00000,   0.00000
-34293332.47667,-36266719.29032,6558069.20163,  -0.00009,  -0.00010,   0.00009,36769804.00000,   0.00000,274640576.00000,   0.00000,   0.00000,   0.00000,-437870768.00000,   0.00000
-36519129.23160,-38584301.47843,6952746.56436,  -0.00009,  -0.00010,   0.00009,39144348.00000,   0.00000,274640576.00000,   0.00000,   0.00000,   0.00000,-435496224.00000,   0.00000
-38744925.98652,-40901883.66655,7347423.92709,  -0.00010,  -0.00011,   0.00010,41518424.00000,   0.00000,274640576.00000,   0.00000,   0.00000,   0.00000,-433122144.00000,   0.00000
-40970722.74145,-43219465.85467,7742101.28981,  -0.00010,  -0.00012,   0.00010,43893464.00000,   0.00000,274640576.00000,   0.00000,   0.00000,   0.00000,-430747104.00000,   0.00000
-43212581.94718,-45543931.95028,8132189.38088,  -0.00011,  -0.00012,   0.00011,46278340.00000,   0.00000,274640576.00000,   0.00000,   0.00000,   0.00000,-428362240.00000,   0.00000
-45454441.15292,-47868398.04589,8522277.47195,  -0.00011,  -0.00013,   0.00011,48664828.00000,   0.00000,274640576.00000,   0.00000,   0.00000,   0.00000,-425975744.00000,   0.00000
-47703184.26614,-50208926.59231,8907776.29136,  -0.00012,  -0.00014,   0.00012,51061052.00000,   0.00000,274640576.00000,   0.00000,   0.00000,   0.00000,-423579520.00000,   0.00000
-49961105.92268,-52540276.59540,9297864.38243,  -0.00012,  -0.00014,   0.00012,53458780.00000,   0.00000,274640576.00000,   0.00000,   0.00000,   0.00000,-421181792.00000,   0.00000
-52241973.93753,-54894572.95680,9678773.93018,  -0.00013,  -0.00015,   0.00013,55872500.00000,   0.00000,274640576.00000,   0.00000,   0.00000,   0.00000,-418768080.00000,   0.00000
-54522841.95237,-57248869.31819,10064272.74959,  -0.00014,  -0.00015,   0.00013,58287004.00000,   0.00000,274640576.00000,   0.00000,   0.00000,   0.00000,-416353568.00000,   0.00000
-56803709.96721,-59603165.67959,10445182.29734,  -0.00014,  -0.00016,   0.00014,60697112.00000,   0.00000,274640576.00000,   0.00000,   0.00000,   0.00000,-413943456.00000,   0.00000
-59084577.98205,-61957462.04099,10826091.84509,  -0.00015,  -0.00017,   0.00014,63105524.00000,   0.00000,274640576.00000,   0.00000,   0.00000,   0.00000,-411535056.00000,   0.00000
-61381508.44770,-64318642.30987,11202412.12118,  -0.00015,  -0.00017,   0.00015,65521084.00000,   0.00000,274640576.00000,   0.00000,   0.00000,   0.00000,-409119488.00000,   0.00000
-63694501.36416,-66686706.48625,11578732.39727,  -0.00016,  -0.00018,   0.00015,67946896.00000,   0.00000,274640576.00000,   0.00000,   0.00000,   0.00000,-406693680.00000,   0.00000
-65991431.82981,-69047886.75513,11955052.67337,  -0.00017,  -0.00019,   0.00016,70362544.00000,   0.00000,274640576.00000,   0.00000,   0.00000,   0.00000,-404278032.00000,   0.00000
-68304424.74627,-71415950.93151,12326783.67780,  -0.00017,  -0.00019,   0.00016,72787536.00000,   0.00000,274640576.00000,   0.00000,   0.00000,   0.00000,-401853040.00000,   0.00000
-70633480.11354,-73790899.01537,12698514.68223,  -0.00018,  -0.00020,   0.00017,75224880.00000,   0.00000,274640576.00000,   0.00000,   0.00000,   0.00000,-399415696.00000,   0.00000
-72946473.03000,-76158963.19175,13070245.68666,  -0.00018,  -0.00020,   0.00017,77653128.00000,   0.00000,274640576.00000,   0.00000,   0.00000,   0.00000,-396987456.00000,   0.00000
-75291590.84807,-78540795.18310,13437387.41943,  -0.00019,  -0.00021,   0.00017,80102032.00000,   0.00000,274640576.00000,   0.00000,   0.00000,   0.00000,-394538544.00000,   0.00000
-77627530.12283,-80931805.71777,13804529.15220,  -0.00020,  -0.00022,   0.00018,82552616.00000,   0.00000,274640576.00000,   0.00000,   0.00000,   0.00000,-392087968.00000,   0.00000
-79972647.94091,-83313637.70913,14167081.61331,  -0.00020,  -0.00022,   0.00018,85000960.00000,   0.00000,274640576.00000,   0.00000,   0.00000,   0.00000,-389639616.00000,   0.00000
-82317765.75899,-85695469.70048,14534223.34608,  -0.00021,  -0.00023,   0.00019,87451496.00000,   0.00000,274640576.00000,   0.00000,   0.00000,   0.00000,-387189088.00000,   0.00000
-84669767.48455,-88093364.14264,14896775.80720,  -0.00021,  -0.00024,   0.00019,89910248.00000,   0.00000,274640576.00000,   0.00000,   0.00000,   0.00000,-384730336.00000,   0.00000
-87030947.75344,-90482080.04149,15254738.99665,  -0.00022,  -0.00024,   0.00020,92365088.00000,   0.00000,274640576.00000,   0.00000,   0.00000,   0.00000,-382275488.00000,   0.00000
-89399011.92981,-92886858.39114,15612702.18610,  -0.00023,  -0.00025,   0.00020,94829688.00000,   0.00000,274640576.00000,   0.00000,   0.00000,   0.00000,-379810880.00000,   0.00000
-91760192.19870,-95275574.28998,15970665.37555,  -0.00023,  -0.00025,   0.00021,97281496.00000,   0.00000,274640576.00000,   0.00000,   0.00000,   0.00000,-377359072.00000,   0.00000
-94137434.91839,-97671174.09632,16328628.56500,  -0.00024,  -0.00026,   0.00021,99742600.00000,   0.00000,274640576.00000,   0.00000,   0.00000,   0.00000,-374897984.00000,   0.00000
-96521561.54557,-100082836.35346,16682002.48280,  -0.00024,  -0.00027,   0.00022,102211600.00000,   0.00000,274640576.00000,   0.00000,   0.00000,   0.00000,-372428976.00000,   0.00000
-98898804.26527,-102478436.15979,17035376.40059,  -0.00025,  -0.00027,   0.00022,104668704.00000,   0.00000,274640576.00000,   0.00000,   0.00000,   0.00000,-369971872.00000,   0.00000
-101282930.89245,-104890098.41693,17384161.04672,  -0.00026,  -0.00028,   0.00023,107134736.00000,   0.00000,274640576.00000,   0.00000,   0.00000,   0.00000,-367505840.00000,   0.00000
-103676236.06296,-107292582.13075,17737534.96451,  -0.00026,  -0.00029,   0.00023,109602984.00000,   0.00000,274640576.00000,   0.00000,   0.00000,   0.00000,-365037600.00000,   0.00000
-106069541.23346,-109695065.84458,18086319.61065,  -0.00027,  -0.00029,   0.00024,112070064.00000,   0.00000,274640576.00000,   0.00000,   0.00000,   0.00000,-362570512.00000,   0.00000
-108469730.31145,-112113612.00921,18430514.98512,  -0.00027,  -0.00030,   0.00024,114547592.00000,   0.00000,274640576.00000,   0.00000,   0.00000,   0.00000,-360092992.00000,   0.00000
-110879097.93276,-114522979.63052,18774710.35959,  -0.00028,  -0.00030,   0.00024,117026576.00000,   0.00000,274640576.00000,   0.00000,   0.00000,   0.00000,-357614000.00000,   0.00000
-113272403.10327,-116925463.34434,19118905.73407,  -0.00029,  -0.00031,   0.00025,119496720.00000,   0.00000,274640576.00000,   0.00000,   0.00000,   0.00000,-355143856.00000,   0.00000
-115688654.63207,-119350893.41646,19463101.10854,  -0.00029,  -0.00032,   0.00025,121991056.00000,   0.00000,274640576.00000,   0.00000,   0.00000,   0.00000,-352649520.00000,   0.00000
-118098022.25338,-121760261.03777,19802707.21135,  -0.00030,  -0.00032,   0.00026,124473928.00000,   0.00000,274640576.00000,   0.00000,   0.00000,   0.00000,-350166656.00000,   0.00000
-120523452.32550,-124176512.56657,20142313.31417,  -0.00031,  -0.00033,   0.00026,126969496.00000,   0.00000,274640576.00000,   0.00000,   0.00000,   0.00000,-347671072.00000,   0.00000
-122932819.94681,-126585880.18788,20477330.14532,  -0.00031,  -0.00034,   0.00027,129453576.00000,   0.00000,274640576.00000,   0.00000,   0.00000,   0.00000,-345187008.00000,   0.00000
-125358250.01893,-129002131.71669,20812346.97647,  -0.00032,  -0.00034,   0.00027,131949576.00000,   0.00000,274640576.00000,   0.00000,   0.00000,   0.00000,-342691008.00000,   0.00000
-127783680.09105,-131418383.24549,21147363.80763,  -0.00033,  -0.00035,   0.00027,134446352.00000,   0.00000,274640576.00000,   0.00000,   0.00000,   0.00000,-340194224.00000,   0.00000
-130209110.16317,-133834634.77429,21482380.63878,  -0.00033,  -0.00036,   0.00028,136943152.00000,   0.00000,274640576.00000,   0.00000,   0.00000,   0.00000,-337697424.00000,   0.00000
-132634540.23529,-136250886.30309,21812808.19827,  -0.00034,  -0.00036,   0.00028,139437504.00000,   0.00000,274640576.00000,   0.00000,   0.00000,   0.00000,-335203072.00000,   0.00000
-135069148.85073,-138657959.28857,22143235.75777,  -0.00034,  -0.00037,   0.00029,141930640.00000,   0.00000,274640576.00000,   0.00000,   0.00000,   0.00000,-332709936.00000,   0.00000
-137494578.92285,-141074210.81737,22469074.04560,  -0.00035,  -0.00037,   0.00029,144420704.00000,   0.00000,274640576.00000,   0.00000,   0.00000,   0.00000,-330219872.00000,   0.00000
-139929187.53829,-143481283.80285,22794912.33344,  -0.00036,  -0.00038,   0.00030,146908896.00000,   0.00000,274640576.00000,   0.00000,   0.00000,   0.00000,-327731680.00000,   0.00000
-142370680.06122,-145904419.23914,23120750.62127,  -0.00036,  -0.00039,   0.00030,149406640.00000,   0.00000,274640576.00000,   0.00000,   0.00000,   0.00000,-325233936.00000,   0.00000
-144805288.67666,-148311492.22463,23446588.90911,  -0.00037,  -0.00039,   0.00030,151891504.00000,   0.00000,274640576.00000,   0.00000,   0.00000,   0.00000,-322749072.00000,   0.00000
-147255959.74291,-150725449.11760,23767837.92528,  -0.00038,  -0.00040,   0.00031,154383504.00000,   0.00000,274640576.00000,   0.00000,   0.00000,   0.00000,-320257072.00000,   0.00000
-149697452.26584,-153148584.55389,24089086.94146,  -0.00038,  -0.00040,   0.00031,156874800.00000,   0.00000,274640576.00000,   0.00000,   0.00000,   0.00000,-317765776.00000,   0.00000
-152132060.88128,-155555657.53937,24405746.68597,  -0.00039,  -0.00041,   0.00032,159351968.00000,   0.00000,274640576.00000,   0.00000,   0.00000,   0.00000,-315288608.00000,   0.00000
-154575848.04004,-157953551.98153,24722406.43049,  -0.00040,  -0.00042,   0.00032,161828912.00000,   0.00000,274640576.00000,   0.00000,   0.00000,   0.00000,-312811664.00000,   0.00000
-157026519.10629,-160367508.87450,25039066.17500,  -0.00040,  -0.00042,   0.00033,164317744.00000,   0.00000,274640576.00000,   0.00000,   0.00000,   0.00000,-310322832.00000,   0.00000
-159477190.17253,-162781465.76748,25355725.91952,  -0.00041,  -0.00043,   0.00033,166808304.00000,   0.00000,274640576.00000,   0.00000,   0.00000,   0.00000,-307832272.00000,   0.00000
-161904914.88048,-165172476.30215,25667796.39237,  -0.00041,  -0.00044,   0.00033,169276960.00000,   0.00000,274640576.00000,   0.00000,   0.00000,   0.00000,-305363616.00000,   0.00000
-164355585.94673,-167586433.19512,25979866.86523,  -0.00042,  -0.00044,   0.00034,171770640.00000,   0.00000,274640576.00000,   0.00000,   0.00000,   0.00000,-302869936.00000,   0.00000
-166799373.10549,-169984327.63728,26287348.06643,  -0.00043,  -0.00045,   0.00034,174254336.00000,   0.00000,274640576.00000,   0.00000,   0.00000,   0.00000,-300386240.00000,   0.00000
-169259222.71506,-172389105.98693,26599418.53928,  -0.00043,  -0.00045,   0.00035,176754288.00000,   0.00000,274640576.00000,   0.00000,   0.00000,   0.00000,-297886288.00000,   0.00000
-171703009.87382,-174787000.42910,26902310.46882,  -0.00044,  -0.00046,   0.00035,179241664.00000,   0.00000,274640576.00000,   0.00000,   0.00000,   0.00000,-295398912.00000,   0.00000
-174139913.12509,-177168832.42045,27209791.67001,  -0.00045,  -0.00047,   0.00035,181720912.00000,   0.00000,274640576.00000,   0.00000,   0.00000,   0.00000,-292919664.00000,   0.00000
-176583700.28385,-179566726.86261,27512683.59955,  -0.00045,  -0.00047,   0.00036,184208448.00000,   0.00000,274640576.00000,   0.00000,   0.00000,   0.00000,-290432128.00000,   0.00000
-179036665.98592,-181955442.76146,27815575.52909,  -0.00046,  -0.00048,   0.00036,186692656.00000,   0.00000,274640576.00000,   0.00000,   0.00000,   0.00000,-287947920.00000,   0.00000
-181473569.23719,-184337274.75281,28118467.45862,  -0.00047,  -0.00048,   0.00037,189160800.00000,   0.00000,274640576.00000,   0.00000,   0.00000,   0.00000,-285479776.00000,   0.00000
-183910472.48846,-186719106.74416,28416770.11650,  -0.00047,  -0.00049,   0.00037,191620832.00000,   0.00000,274640576.00000,   0.00000,   0.00000,   0.00000,-283019744.00000,   0.00000
-186363438.19054,-189107822.64301,28715072.77438,  -0.00048,  -0.00050,   0.00037,194086080.00000,   0.00000,274640576.00000,   0.00000,   0.00000,   0.00000,-280554496.00000,   0.00000
-188800341.44181,-191489654.63436,29013375.43225,  -0.00049,  -0.00050,   0.00038,196536592.00000,   0.00000,274640576.00000,   0.00000,   0.00000,   0.00000,-278103984.00000,   0.00000
-191246423.23640,-193862308.08240,29307088.81847,  -0.00049,  -0.00051,   0.00038,198983840.00000,   0.00000,274640576.00000,   0.00000,   0.00000,   0.00000,-275656736.00000,   0.00000
-193676442.58018,-196228077.62294,29600802.20469,  -0.00050,  -0.00052,   0.00038,201420400.00000,   0.00000,274640576.00000,   0.00000,   0.00000,   0.00000,-273220176.00000,   0.00000
-196106461.92396,-198593847.16349,29889926.31924,  -0.00051,  -0.00052,   0.00039,203848480.00000,   0.00000,274640576.00000,   0.00000,   0.00000,   0.00000,-270792096.00000,   0.00000
-198552543.71855,-200966500.61152,30183639.70546,  -0.00051,  -0.00053,   0.00039,206253744.00000,   0.00000,274640576.00000,   0.00000,   0.00000,   0.00000,-268386832.00000,   0.00000
-200982563.06233,-203332270.15207,30472763.82002,  -0.00052,  -0.00053,   0.00040,208657840.00000,   0.00000,274640576.00000,   0.00000,   0.00000,   0.00000,-265982736.00000,   0.00000
-203405698.49862,-205681977.24180,30757298.66292,  -0.00052,  -0.00054,   0.00040,211157856.00000,   0.00000,274640576.00000,   0.00000,   0.00000,   0.00000,-263482720.00000,   0.00000
-205844896.38572,-208038568.23903,31046422.77747,  -0.00053,  -0.00055,   0.00040,213690816.00000,   0.00000,274640576.00000,   0.00000,   0.00000,   0.00000,-260949760.00000,   0.00000
-208268031.82201,-210388275.32876,31330957.62037,  -0.00054,  -0.00055,   0.00041,216162368.00000,   0.00000,274640576.00000,   0.00000,   0.00000,   0.00000,-258478208.00000,   0.00000
-210691167.25830,-212737982.41850,31610903.19161,  -0.00054,  -0.00056,   0.00041,218581936.00000,   0.00000,274640576.00000,   0.00000,   0.00000,   0.00000,-256058640.00000,   0.00000
-213107418.78710,-215071627.05743,31895438.03451,  -0.00055,  -0.00056,   0.00041,220971840.00000,   0.00000,274640576.00000,   0.00000,   0.00000,   0.00000,-253668736.00000,   0.00000
-215523670.31590,-217405271.69636,32175383.60574,  -0.00056,  -0.00057,   0.00042,223361968.00000,   0.00000,274640576.00000,   0.00000,   0.00000,   0.00000,-251278608.00000,   0.00000
-217939921.84470,-219738916.33528,32450739.90532,  -0.00056,  -0.00057,   0.00042,225762032.00000,   0.00000,274640576.00000,   0.00000,   0.00000,   0.00000,-248878544.00000,   0.00000
-220356173.37350,-222072560.97421,32730685.47656,  -0.00057,  -0.00058,   0.00043,228178432.00000,   0.00000,274640576.00000,   0.00000,   0.00000,   0.00000,-246462144.00000,   0.00000
-222749478.54401,-224383259.25484,33006041.77614,  -0.00058,  -0.00059,   0.00043,230583232.00000,   0.00000,274640576.00000,   0.00000,   0.00000,   0.00000,-244057344.00000,   0.00000
-225158846.16532,-226700841.44296,33276808.80406,  -0.00058,  -0.00059,   0.00043,233005776.00000,   0.00000,274640576.00000,   0.00000,   0.00000,   0.00000,-241634800.00000,   0.00000
-227568213.78663,-229018423.63108,33552165.10364,  -0.00059,  -0.00060,   0.00044,235434672.00000,   0.00000,274640576.00000,   0.00000,   0.00000,   0.00000,-239205904.00000,   0.00000
-229954635.04964,-231313059.46090,33822932.13156,  -0.00060,  -0.00060,   0.00044,237840048.00000,   0.00000,274640576.00000,   0.00000,   0.00000,   0.00000,-236800528.00000,   0.00000
-232341056.31266,-233607695.29072,34093699.15947,  -0.00060,  -0.00061,   0.00044,240243568.00000,   0.00000,274640576.00000,   0.00000,   0.00000,   0.00000,-234397008.00000,   0.00000
-234727477.57567,-235902331.12054,34359876.91573,  -0.00061,  -0.00062,   0.00045,242641808.00000,   0.00000,274640576.00000,   0.00000,   0.00000,   0.00000,-231998768.00000,   0.00000
-237113898.83868,-238196966.95036,34626054.67199,  -0.00061,  -0.00062,   0.00045,245035808.00000,   0.00000,274640576.00000,   0.00000,   0.00000,   0.00000,-229604768.00000,   0.00000
-239493436.19421,-240475540.32937,34892232.42825,  -0.00062,  -0.00063,   0.00045,247414336.00000,   0.00000,274640576.00000,   0.00000,   0.00000,   0.00000,-227226240.00000,   0.00000
-241872973.54973,-242754113.70838,35158410.18451,  -0.00063,  -0.00063,   0.00046,249788688.00000,   0.00000,274640576.00000,   0.00000,   0.00000,   0.00000,-224851888.00000,   0.00000
-244236448.45445,-245025803.17991,35419998.66911,  -0.00063,  -0.00064,   0.00046,252146768.00000,   0.00000,274640576.00000,   0.00000,   0.00000,   0.00000,-222493808.00000,   0.00000
-246593039.45167,-247281430.20062,35681587.15371,  -0.00064,  -0.00064,   0.00046,254491184.00000,   0.00000,274640576.00000,   0.00000,   0.00000,   0.00000,-220149392.00000,   0.00000
-248949630.44890,-249537057.22133,35938586.36665,  -0.00065,  -0.00065,   0.00047,256832288.00000,   0.00000,274640576.00000,   0.00000,   0.00000,   0.00000,-217808288.00000,   0.00000
-251306221.44613,-251792684.24205,36195585.57959,  -0.00065,  -0.00066,   0.00047,259173312.00000,   0.00000,274640576.00000,   0.00000,   0.00000,   0.00000,-215467264.00000,   0.00000
-253655928.53586,-254032248.81195,36452584.79253,  -0.00066,  -0.00066,   0.00047,261504160.00000,   0.00000,274640576.00000,   0.00000,   0.00000,   0.00000,-213136416.00000,   0.00000
-256005635.62560,-256271813.38186,36709584.00547,  -0.00067,  -0.00067,   0.00048,263837312.00000,   0.00000,274640576.00000,   0.00000,   0.00000,   0.00000,-210803264.00000,   0.00000
-258339280.26453,-258504494.04427,36961993.94675,  -0.00067,  -0.00067,   0.00048,266160912.00000,   0.00000,274640576.00000,   0.00000,   0.00000,   0.00000,-208479664.00000,   0.00000
-260666040.99596,-260721112.25588,37214403.88803,  -0.00068,  -0.00068,   0.00048,268477888.00000,   0.00000,274640576.00000,   0.00000,   0.00000,   0.00000,-206162688.00000,   0.00000
-262992801.72740,-262937730.46749,37462224.55765,  -0.00068,  -0.00068,   0.00049,270797920.00000,   0.00000,274640576.00000,   0.00000,   0.00000,   0.00000,-203842656.00000,   0.00000
-265303500.00803,-265147464.77160,37710045.22727,  -0.00069,  -0.00069,   0.00049,273111264.00000,   0.00000,274640576.00000,   0.00000,   0.00000,   0.00000,-201529312.00000,   0.00000
-267623376.83198,-267348020.53240,37957865.89689,  -0.00070,  -0.00069,   0.00049,275424832.00000,   0.00000,274640576.00000,   0.00000,   0.00000,   0.00000,-199215744.00000,   0.00000
-269927191.20512,-269541692.38571,38205686.56651,  -0.00070,  -0.00070,   0.00050,277714784.00000,   0.00000,274640576.00000,   0.00000,   0.00000,   0.00000,-196925792.00000,   0.00000
-272208059.21996,-271712417.88072,38448917.96447,  -0.00071,  -0.00071,   0.00050,279946112.00000,   0.00000,274640576.00000,   0.00000,   0.00000,   0.00000,-194694464.00000,   0.00000
-274504989.68561,-273890027.28322,38692149.36244,  -0.00071,  -0.00071,   0.00050,282146880.00000,   0.00000,274640576.00000,   0.00000,   0.00000,   0.00000,-192493696.00000,   0.00000
-276785857.70045,-276060752.77823,38935380.76040,  -0.00072,  -0.00072,   0.00051,284352544.00000,   0.00000,274640576.00000,   0.00000,   0.00000,   0.00000,-190288032.00000,   0.00000
-279059841.80781,-278215415.82243,39174022.88670,  -0.00073,  -0.00072,   0.00051,286606400.00000,   0.00000,274640576.00000,   0.00000,   0.00000,   0.00000,-188034176.00000,   0.00000
-281333825.91516,-280370078.86663,39412665.01300,  -0.00073,  -0.00073,   0.00051,288876128.00000,   0.00000,274640576.00000,   0.00000,   0.00000,   0.00000,-185764448.00000,   0.00000
-283584863.66421,-282501795.55254,39651307.13930,  -0.00074,  -0.00073,   0.00052,291110720.00000,   0.00000,274640576.00000,   0.00000,   0.00000,   0.00000,-183529856.00000,   0.00000
-285835901.41327,-284633512.23844,39885359.99394,  -0.00075,  -0.00074,   0.00052,293333472.00000,   0.00000,274640576.00000,   0.00000,   0.00000,   0.00000,-181307104.00000,   0.00000
-288086939.16232,-286765228.92434,40119412.84858,  -0.00075,  -0.00074,   0.00052,295552928.00000,   0.00000,274640576.00000,   0.00000,   0.00000,   0.00000,-179087648.00000,   0.00000
-290315030.55308,-288873999.25195,40353465.70323,  -0.00076,  -0.00075,   0.00052,297750240.00000,   0.00000,274640576.00000,   0.00000,   0.00000,   0.00000,-176890336.00000,   0.00000
-292543121.94383,-290982769.57955,40582929.28621,  -0.00076,  -0.00075,   0.00053,299947424.00000,   0.00000,274640576.00000,   0.00000,   0.00000,   0.00000,-174693152.00000,   0.00000
-294764329.42710,-293075477.45635,40812392.86919,  -0.00077,  -0.00076,   0.00053,302135328.00000,   0.00000,274640576.00000,   0.00000,   0.00000,   0.00000,-172505248.00000,   0.00000
-296969474.45956,-295161301.42566,41041856.45217,  -0.00078,  -0.00076,   0.00053,304313856.00000,   0.00000,274640576.00000,   0.00000,   0.00000,   0.00000,-170326720.00000,   0.00000
-299174619.49201,-297247125.39496,41266730.76349,  -0.00078,  -0.00077,   0.00054,306491968.00000,   0.00000,274640576.00000,   0.00000,   0.00000,   0.00000,-168148608.00000,   0.00000
-301372880.61698,-299316886.91346,41491605.07482,  -0.00079,  -0.00077,   0.00054,308659744.00000,   0.00000,274640576.00000,   0.00000,   0.00000,   0.00000,-165980832.00000,   0.00000
-303548195.38365,-301363702.07366,41716479.38614,  -0.00079,  -0.00078,   0.00054,310805408.00000,   0.00000,274640576.00000,   0.00000,   0.00000,   0.00000,-163835168.00000,   0.00000
-305723510.15032,-303410517.23386,41941353.69746,  -0.00080,  -0.00078,   0.00055,312950912.00000,   0.00000,274640576.00000,   0.00000,   0.00000,   0.00000,-161689664.00000,   0.00000
-307898824.91699,-305457332.39406,42161638.73712,  -0.00081,  -0.00079,   0.00055,315093664.00000,   0.00000,274640576.00000,   0.00000,   0.00000,   0.00000,-159546912.00000,   0.00000
-310051193.32536,-307481201.19596,42377334.50513,  -0.00081,  -0.00079,   0.00055,317211520.00000,   0.00000,274640576.00000,   0.00000,   0.00000,   0.00000,-157429056.00000,   0.00000
-312187499.28293,-309498186.09038,42597619.54479,  -0.00082,  -0.00080,   0.00055,319318720.00000,   0.00000,274640576.00000,   0.00000,   0.00000,   0.00000,-155321856.00000,   0.00000
-314332983.78381,-311505992.44147,42813315.31279,  -0.00082,  -0.00080,   0.00056,321423168.00000,   0.00000,274640576.00000,   0.00000,   0.00000,   0.00000,-153217408.00000,   0.00000
-316462405.83388,-313506914.88507,43029011.08080,  -0.00083,  -0.00081,   0.00056,323515424.00000,   0.00000,274640576.00000,   0.00000,   0.00000,   0.00000,-151125152.00000,   0.00000
-318568881.52566,-315484890.97038,43240117.57714,  -0.00083,  -0.00081,   0.00056,325582592.00000,   0.00000,274640576.00000,   0.00000,   0.00000,   0.00000,-149057984.00000,   0.00000
-320675357.21743,-317462867.05568,43451224.07348,  -0.00084,  -0.00082,   0.00056,327649376.00000,   0.00000,274640576.00000,   0.00000,   0.00000,   0.00000,-146991200.00000,   0.00000
-322774949.00172,-319424780.69018,43662330.56983,  -0.00085,  -0.00082,   0.00057,329704768.00000,   0.00000,274640576.00000,   0.00000,   0.00000,   0.00000,-144935808.00000,   0.00000
-324858478.33520,-321379810.41719,43873437.06617,  -0.00085,  -0.00083,   0.00057,331749120.00000,   0.00000,274640576.00000,   0.00000,   0.00000,   0.00000,-142891456.00000,   0.00000
-326919061.31037,-323311893.78590,44079954.29085,  -0.00086,  -0.00083,   0.00057,333769984.00000,   0.00000,274640576.00000,   0.00000,   0.00000,   0.00000,-140870592.00000,   0.00000
-328979644.28555,-325243977.15461,44286471.51554,  -0.00086,  -0.00084,   0.00058,335791456.00000,   0.00000,274640576.00000,   0.00000,   0.00000,   0.00000,-138849120.00000,   0.00000
-331040227.26073,-327176060.52331,44488399.46856,  -0.00087,  -0.00084,   0.00058,337812064.00000,   0.00000,274640576.00000,   0.00000,   0.00000,   0.00000,-136828512.00000,   0.00000
-333070979.97012,-329069135.08292,44694916.69325,  -0.00087,  -0.00085,   0.00058,339802304.00000,   0.00000,274640576.00000,   0.00000,   0.00000,   0.00000,-134838272.00000,   0.00000
-335101732.67952,-330962209.64252,44892255.37461,  -0.00088,  -0.00085,   0.00058,341790080.00000,   0.00000,274640576.00000,   0.00000,   0.00000,   0.00000,-132850496.00000,   0.00000
-337116422.93810,-332848400.29463,45094183.32763,  -0.00088,  -0.00086,   0.00059,343769696.00000,   0.00000,274640576.00000,   0.00000,   0.00000,   0.00000,-130870880.00000,   0.00000
-339124229.28919,-334718528.49593,45291522.00900,  -0.00089,  -0.00086,   0.00059,345737536.00000,   0.00000,274640576.00000,   0.00000,   0.00000,   0.00000,-128903040.00000,   0.00000
-341115973.18948,-336581772.78975,45488860.69036,  -0.00090,  -0.00087,   0.00059,347695040.00000,   0.00000,274640576.00000,   0.00000,   0.00000,   0.00000,-126945536.00000,   0.00000
-343100833.18227,-338428954.63275,45686199.37173,  -0.00090,  -0.00087,   0.00059,349642208.00000,   0.00000,274640576.00000,   0.00000,   0.00000,   0.00000,-124998368.00000,   0.00000
-345062746.81677,-340253190.11746,45878948.78143,  -0.00091,  -0.00088,   0.00060,351565952.00000,   0.00000,274640576.00000,   0.00000,   0.00000,   0.00000,-123074624.00000,   0.00000
-347024660.45126,-342077425.60217,46071698.19114,  -0.00091,  -0.00088,   0.00060,353490016.00000,   0.00000,274640576.00000,   0.00000,   0.00000,   0.00000,-121150560.00000,   0.00000
-348970511.63495,-343894777.17939,46264447.60084,  -0.00092,  -0.00088,   0.00060,355402880.00000,   0.00000,274640576.00000,   0.00000,   0.00000,   0.00000,-119237696.00000,   0.00000
-350909478.91115,-345696066.30580,46452607.73889,  -0.00092,  -0.00089,   0.00060,357302912.00000,   0.00000,274640576.00000,   0.00000,   0.00000,   0.00000,-117337664.00000,   0.00000
-352825499.82905,-347474409.07391,46640767.87693,  -0.00093,  -0.00089,   0.00061,359180384.00000,   0.00000,274640576.00000,   0.00000,   0.00000,   0.00000,-115460192.00000,   0.00000
-354725458.29614,-349245867.93453,46824338.74332,  -0.00093,  -0.00090,   0.00061,361044448.00000,   0.00000,274640576.00000,   0.00000,   0.00000,   0.00000,-113596128.00000,   0.00000
-356618532.85574,-351001264.34434,47012498.88137,  -0.00094,  -0.00090,   0.00061,362898784.00000,   0.00000,274640576.00000,   0.00000,   0.00000,   0.00000,-111741792.00000,   0.00000
-358488661.05705,-352733714.39586,47196069.74775,  -0.00094,  -0.00091,   0.00061,364728512.00000,   0.00000,274640576.00000,   0.00000,   0.00000,   0.00000,-109912064.00000,   0.00000
-360358789.25835,-354466164.44737,47375051.34248,  -0.00095,  -0.00091,   0.00062,366556064.00000,   0.00000,274640576.00000,   0.00000,   0.00000,   0.00000,-108084512.00000,   0.00000
-362212855.00885,-356191730.59140,47558622.20886,  -0.00095,  -0.00091,   0.00062,368373696.00000,   0.00000,274640576.00000,   0.00000,   0.00000,   0.00000,-106266880.00000,   0.00000
-364053152.94436,-357885171.83380,47737603.80359,  -0.00096,  -0.00092,   0.00062,370167008.00000,   0.00000,274640576.00000,   0.00000,   0.00000,   0.00000,-104473568.00000,   0.00000
-365877388.42907,-359571729.16872,47911996.12665,  -0.00096,  -0.00092,   0.00062,371947008.00000,   0.00000,274640576.00000,   0.00000,   0.00000,   0.00000,-102693568.00000,   0.00000
-367685561.46297,-361251402.59615,48090977.72138,  -0.00097,  -0.00093,   0.00063,373717216.00000,   0.00000,274640576.00000,   0.00000,   0.00000,   0.00000,-100923360.00000,   0.00000
-369486850.58938,-362915013.57277,48265370.04445,  -0.00097,  -0.00093,   0.00063,375474336.00000,   0.00000,274640576.00000,   0.00000,   0.00000,   0.00000,-99166240.00000,   0.00000
-371265193.35749,-364555678.19109,48435173.09585,  -0.00098,  -0.00093,   0.00063,377207136.00000,   0.00000,274640576.00000,   0.00000,   0.00000,   0.00000,-97433440.00000,   0.00000
-373043536.12560,-366196342.80941,48609565.41892,  -0.00098,  -0.00094,   0.00063,378941440.00000,   0.00000,274640576.00000,   0.00000,   0.00000,   0.00000,-95699136.00000,   0.00000
-374782870.08460,-367807177.16195,48779368.47033,  -0.00099,  -0.00094,   0.00063,380640064.00000,   0.00000,274640576.00000,   0.00000,   0.00000,   0.00000,-94000512.00000,   0.00000
-376538266.49442,-369424895.42197,48949171.52173,  -0.00099,  -0.00095,   0.00064,382349600.00000,   0.00000,274640576.00000,   0.00000,   0.00000,   0.00000,-92290976.00000,   0.00000
-378247770.18763,-370996720.96540,49114385.30148,  -0.00100,  -0.00095,   0.00064,384012224.00000,   0.00000,274640576.00000,   0.00000,   0.00000,   0.00000,-90628352.00000,   0.00000
-379964157.78834,-372584608.95964,49279599.08123,  -0.00100,  -0.00095,   0.00064,385685344.00000,   0.00000,274640576.00000,   0.00000,   0.00000,   0.00000,-88955232.00000,   0.00000
-381650715.12326,-374133488.14476,49444812.86097,  -0.00101,  -0.00096,   0.00064,387324512.00000,   0.00000,274640576.00000,   0.00000,   0.00000,   0.00000,-87316064.00000,   0.00000
-383337272.45817,-375682367.32989,49605437.36906,  -0.00101,  -0.00096,   0.00064,388961408.00000,   0.00000,274640576.00000,   0.00000,   0.00000,   0.00000,-85679168.00000,   0.00000
-385000883.43479,-377208300.15672,49766061.87715,  -0.00102,  -0.00097,   0.00065,390575328.00000,   0.00000,274640576.00000,   0.00000,   0.00000,   0.00000,-84065248.00000,   0.00000
-386648431.96061,-378727349.07606,49926686.38524,  -0.00102,  -0.00097,   0.00065,392177600.00000,   0.00000,274640576.00000,   0.00000,   0.00000,   0.00000,-82462976.00000,   0.00000
-388289096.57893,-380230335.54460,50082721.62167,  -0.00103,  -0.00097,   0.00065,393766912.00000,   0.00000,274640576.00000,   0.00000,   0.00000,   0.00000,-80873664.00000,   0.00000
-389906814.83895,-381710375.65483,50238756.85809,  -0.00103,  -0.00098,   0.00065,395333824.00000,   0.00000,274640576.00000,   0.00000,   0.00000,   0.00000,-79306752.00000,   0.00000
-391508470.64817,-383183531.85758,50394792.09452,  -0.00103,  -0.00098,   0.00066,396890048.00000,   0.00000,274640576.00000,   0.00000,   0.00000,   0.00000,-77750528.00000,   0.00000
-393087180.09908,-384633741.70202,50550827.33095,  -0.00104,  -0.00098,   0.00066,398424768.00000,   0.00000,274640576.00000,   0.00000,   0.00000,   0.00000,-76215808.00000,   0.00000
-394659005.64251,-386067889.09566,50702273.29572,  -0.00104,  -0.00099,   0.00066,399948160.00000,   0.00000,274640576.00000,   0.00000,   0.00000,   0.00000,-74692416.00000,   0.00000
-396214768.73513,-387495152.58181,50849129.98883,  -0.00105,  -0.00099,   0.00066,401460096.00000,   0.00000,274640576.00000,   0.00000,   0.00000,   0.00000,-73180480.00000,   0.00000
-397747585.46945,-388899469.70966,51000575.95359,  -0.00105,  -0.00099,   0.00066,402953472.00000,   0.00000,274640576.00000,   0.00000,   0.00000,   0.00000,-71687104.00000,   0.00000
-399273518.29628,-390287724.38670,51147432.64670,  -0.00106,  -0.00100,   0.00066,404436384.00000,   0.00000,274640576.00000,   0.00000,   0.00000,   0.00000,-70204192.00000,   0.00000
-400783388.67230,-391669095.15625,51294289.33981,  -0.00106,  -0.00100,   0.00067,405910144.00000,   0.00000,274640576.00000,   0.00000,   0.00000,   0.00000,-68730432.00000,   0.00000
-402270312.69002,-393027519.56751,51436556.76126,  -0.00106,  -0.00100,   0.00067,407361856.00000,   0.00000,274640576.00000,   0.00000,   0.00000,   0.00000,-67278720.00000,   0.00000
-403734290.34945,-394362997.62046,51578824.18271,  -0.00107,  -0.00101,   0.00067,408792672.00000,   0.00000,274640576.00000,   0.00000,   0.00000,   0.00000,-65847904.00000,   0.00000
-405198268.00888,-395698475.67342,51721091.60416,  -0.00107,  -0.00101,   0.00067,410224672.00000,   0.00000,274640576.00000,   0.00000,   0.00000,   0.00000,-64415904.00000,   0.00000
-406616352.95171,-396988061.00978,51863359.02561,  -0.00108,  -0.00101,   0.00067,411612224.00000,   0.00000,274640576.00000,   0.00000,   0.00000,   0.00000,-63028352.00000,   0.00000
-408041321.80202,-398293708.79695,52001037.17540,  -0.00108,  -0.00102,   0.00068,413009536.00000,   0.00000,274640576.00000,   0.00000,   0.00000,   0.00000,-61631040.00000,   0.00000
-409452522.83736,-399567231.68250,52138715.32518,  -0.00108,  -0.00102,   0.00068,414385216.00000,   0.00000,274640576.00000,   0.00000,   0.00000,   0.00000,-60255360.00000,   0.00000
-410831598.97109,-400826986.75307,52271804.20331,  -0.00109,  -0.00102,   0.00068,415738112.00000,   0.00000,274640576.00000,   0.00000,   0.00000,   0.00000,-58902464.00000,   0.00000
-412203791.19732,-402070679.37283,52404893.08144,  -0.00109,  -0.00103,   0.00068,417086016.00000,   0.00000,274640576.00000,   0.00000,   0.00000,   0.00000,-57554560.00000,   0.00000
-413553037.06525,-403291425.63429,52537981.95957,  -0.00110,  -0.00103,   0.00068,418425376.00000,   0.00000,274640576.00000,   0.00000,   0.00000,   0.00000,-56215200.00000,   0.00000
-414879336.57489,-404489225.53746,52671070.83770,  -0.00110,  -0.00103,   0.00068,419766624.00000,   0.00000,274640576.00000,   0.00000,   0.00000,   0.00000,-54873952.00000,   0.00000
-416189573.63372,-405680141.53314,52799570.44417,  -0.00110,  -0.00103,   0.00069,421115648.00000,   0.00000,274640576.00000,   0.00000,   0.00000,   0.00000,-53524928.00000,   0.00000
-417492926.78505,-406854995.07801,52928070.05064,  -0.00111,  -0.00104,   0.00069,422429056.00000,   0.00000,274640576.00000,   0.00000,   0.00000,   0.00000,-52211520.00000,   0.00000
-418764155.03478,-408016080.80790,53051980.38545,  -0.00111,  -0.00104,   0.00069,423660480.00000,   0.00000,274640576.00000,   0.00000,   0.00000,   0.00000,-50980096.00000,   0.00000
-420021615.46952,-409145041.63617,53175890.72026,  -0.00111,  -0.00104,   0.00069,424857792.00000,   0.00000,274640576.00000,   0.00000,   0.00000,   0.00000,-49782784.00000,   0.00000
-421263013.45345,-410267118.55695,53299801.05507,  -0.00112,  -0.00105,   0.00069,426057472.00000,   0.00000,274640576.00000,   0.00000,   0.00000,   0.00000,-48583104.00000,   0.00000
-422497527.52989,-411373133.02692,53423711.38988,  -0.00112,  -0.00105,   0.00069,427247968.00000,   0.00000,274640576.00000,   0.00000,   0.00000,   0.00000,-47392608.00000,   0.00000
-423699916.70472,-412465379.68192,53543032.45303,  -0.00112,  -0.00105,   0.00070,428408768.00000,   0.00000,274640576.00000,   0.00000,   0.00000,   0.00000,-46231808.00000,   0.00000
-424895421.97206,-413541563.88610,53662353.51619,  -0.00113,  -0.00105,   0.00070,429554336.00000,   0.00000,274640576.00000,   0.00000,   0.00000,   0.00000,-45086240.00000,   0.00000
-426045034.52280,-414571855.37369,53777085.30768,  -0.00113,  -0.00106,   0.00070,430651776.00000,   0.00000,274640576.00000,   0.00000,   0.00000,   0.00000,-43988800.00000,   0.00000
-427201530.98103,-415618209.31209,53896406.37083,  -0.00113,  -0.00106,   0.00070,431761920.00000,   0.00000,274640576.00000,   0.00000,   0.00000,   0.00000,-42878656.00000,   0.00000
-428328197.17347,-416625554.44138,54006548.89066,  -0.00114,  -0.00106,   0.00070,432837216.00000,   0.00000,274640576.00000,   0.00000,   0.00000,   0.00000,-41803360.00000,   0.00000
-429438800.91510,-417626015.66318,54121280.68215,  -0.00114,  -0.00106,   0.00070,433905824.00000,   0.00000,274640576.00000,   0.00000,   0.00000,   0.00000,-40734752.00000,   0.00000
-430535636.84176,-418594351.98337,54231423.20198,  -0.00114,  -0.00107,   0.00071,434954304.00000,   0.00000,274640576.00000,   0.00000,   0.00000,   0.00000,-39686272.00000,   0.00000
-431607231.77428,-419564982.93938,54341565.72181,  -0.00115,  -0.00107,   0.00071,435994368.00000,   0.00000,274640576.00000,   0.00000,   0.00000,   0.00000,-38646208.00000,   0.00000
-432665058.89183,-420503488.99378,54451708.24164,  -0.00115,  -0.00107,   0.00071,437014496.00000,   0.00000,274640576.00000,   0.00000,   0.00000,   0.00000,-37626080.00000,   0.00000
-433699939.65108,-421419048.68988,54557261.48982,  -0.00115,  -0.00107,   0.00071,438011264.00000,   0.00000,274640576.00000,   0.00000,   0.00000,   0.00000,-36629312.00000,   0.00000
-434702695.50871,-422320840.57100,54662814.73799,  -0.00115,  -0.00107,   0.00071,438984672.00000,   0.00000,274640576.00000,   0.00000,   0.00000,   0.00000,-35655904.00000,   0.00000
-435698567.45885,-423206570.00131,54763778.71450,  -0.00116,  -0.00108,   0.00071,439944512.00000,   0.00000,274640576.00000,   0.00000,   0.00000,   0.00000,-34696064.00000,   0.00000
-436671493.05070,-424069353.07332,54869331.96267,  -0.00116,  -0.00108,   0.00071,440882624.00000,   0.00000,274640576.00000,   0.00000,   0.00000,   0.00000,-33757952.00000,   0.00000
-437644418.64254,-424932136.14533,54970295.93918,  -0.00116,  -0.00108,   0.00071,441818304.00000,   0.00000,274640576.00000,   0.00000,   0.00000,   0.00000,-32822272.00000,   0.00000
-438578335.42528,-425765088.95156,55066670.64404,  -0.00117,  -0.00108,   0.00072,442717984.00000,   0.00000,274640576.00000,   0.00000,   0.00000,   0.00000,-31922592.00000,   0.00000
-439482421.94223,-426559032.94868,55163045.34889,  -0.00117,  -0.00108,   0.00072,443584128.00000,   0.00000,274640576.00000,   0.00000,   0.00000,   0.00000,-31056448.00000,   0.00000
-440393392.36666,-427369039.39660,55259420.05374,  -0.00117,  -0.00109,   0.00072,444461056.00000,   0.00000,274640576.00000,   0.00000,   0.00000,   0.00000,-30179520.00000,   0.00000
-441258470.07451,-428133153.12793,55355794.75859,  -0.00117,  -0.00109,   0.00072,445293536.00000,   0.00000,274640576.00000,   0.00000,   0.00000,   0.00000,-29347040.00000,   0.00000
-442116663.87486,-428881204.40845,55447580.19179,  -0.00118,  -0.00109,   0.00072,446113248.00000,   0.00000,274640576.00000,   0.00000,   0.00000,   0.00000,-28527328.00000,   0.00000
-442942732.77360,-429615487.87400,55539365.62498,  -0.00118,  -0.00109,   0.00072,446910176.00000,   0.00000,274640576.00000,   0.00000,   0.00000,   0.00000,-27730400.00000,   0.00000
-443761917.76484,-430333708.88873,55631151.05817,  -0.00118,  -0.00109,   0.00072,447696128.00000,   0.00000,274640576.00000,   0.00000,   0.00000,   0.00000,-26944448.00000,   0.00000
-444558156.39779,-431028983.54517,55718347.21970,  -0.00118,  -0.00109,   0.00072,448458208.00000,   0.00000,274640576.00000,   0.00000,   0.00000,   0.00000,-26182368.00000,   0.00000
-445331448.67244,-431701311.84330,55805543.38124,  -0.00118,  -0.00110,   0.00073,449197856.00000,   0.00000,274640576.00000,   0.00000,   0.00000,   0.00000,-25442720.00000,   0.00000
-446088678.49628,-432366756.23395,55892739.54277,  -0.00119,  -0.00110,   0.00073,449926144.00000,   0.00000,274640576.00000,   0.00000,   0.00000,   0.00000,-24714432.00000,   0.00000
-446822961.96182,-433009254.26630,55975346.43264,  -0.00119,  -0.00110,   0.00073,450630432.00000,   0.00000,274640576.00000,   0.00000,   0.00000,   0.00000,-24010144.00000,   0.00000
-447527415.16158,-433612743.48954,56057953.32252,  -0.00119,  -0.00110,   0.00073,451301376.00000,   0.00000,274640576.00000,   0.00000,   0.00000,   0.00000,-23339200.00000,   0.00000
-448215805.91052,-434209348.80530,56140560.21239,  -0.00119,  -0.00110,   0.00073,451960960.00000,   0.00000,274640576.00000,   0.00000,   0.00000,   0.00000,-22679616.00000,   0.00000
-448904196.65947,-434805954.12105,56218577.83061,  -0.00119,  -0.00110,   0.00073,452619040.00000,   0.00000,274640576.00000,   0.00000,   0.00000,   0.00000,-22021536.00000,   0.00000
-449546694.69182,-435356666.72021,56296595.44882,  -0.00120,  -0.00110,   0.00073,453232320.00000,   0.00000,274640576.00000,   0.00000,   0.00000,   0.00000,-21408256.00000,   0.00000
-450173130.27336,-435900495.41188,56374613.06703,  -0.00120,  -0.00111,   0.00073,453834144.00000,   0.00000,274640576.00000,   0.00000,   0.00000,   0.00000,-20806432.00000,   0.00000
-450792681.94741,-436428261.65273,56448041.41359,  -0.00120,  -0.00111,   0.00073,454423488.00000,   0.00000,274640576.00000,   0.00000,   0.00000,   0.00000,-20217088.00000,   0.00000
-451373224.81236,-436926197.62781,56521469.76014,  -0.00120,  -0.00111,   0.00073,454979040.00000,   0.00000,274640576.00000,   0.00000,   0.00000,   0.00000,-19661536.00000,   0.00000
-451930821.31900,-437401187.24458,56594898.10670,  -0.00120,  -0.00111,   0.00074,455512256.00000,   0.00000,274640576.00000,   0.00000,   0.00000,   0.00000,-19128320.00000,   0.00000
-452481533.91816,-437860114.41054,56663737.18159,  -0.00120,  -0.00111,   0.00074,456032928.00000,   0.00000,274640576.00000,   0.00000,   0.00000,   0.00000,-18607648.00000,   0.00000
-452993237.70821,-438289211.31072,56732576.25649,  -0.00121,  -0.00111,   0.00074,456519776.00000,   0.00000,274640576.00000,   0.00000,   0.00000,   0.00000,-18120800.00000,   0.00000
-453504941.49826,-438718308.21090,56801415.33138,  -0.00121,  -0.00111,   0.00074,457006688.00000,   0.00000,274640576.00000,   0.00000,   0.00000,   0.00000,-17633888.00000,   0.00000
-453977636.47920,-439117574.84528,56870254.40627,  -0.00121,  -0.00111,   0.00074,457459840.00000,   0.00000,274640576.00000,   0.00000,   0.00000,   0.00000,-17180736.00000,   0.00000
-454443447.55266,-439500779.02886,56934504.20951,  -0.00121,  -0.00111,   0.00074,457900352.00000,   0.00000,274640576.00000,   0.00000,   0.00000,   0.00000,-16740224.00000,   0.00000
-454886312.26781,-439861036.85415,56994164.74108,  -0.00121,  -0.00111,   0.00074,458316800.00000,   0.00000,274640576.00000,   0.00000,   0.00000,   0.00000,-16323776.00000,   0.00000
-455290168.17386,-440191464.41364,57058414.54432,  -0.00121,  -0.00112,   0.00074,458701280.00000,   0.00000,274640576.00000,   0.00000,   0.00000,   0.00000,-15939296.00000,   0.00000
-455694024.07991,-440521891.97313,57118075.07590,  -0.00121,  -0.00112,   0.00074,459084000.00000,   0.00000,274640576.00000,   0.00000,   0.00000,   0.00000,-15556576.00000,   0.00000
-456074933.62766,-440829373.17433,57177735.60747,  -0.00122,  -0.00112,   0.00074,459444320.00000,   0.00000,274640576.00000,   0.00000,   0.00000,   0.00000,-15196256.00000,   0.00000
-456409950.45881,-441090961.65893,57232806.86739,  -0.00122,  -0.00112,   0.00074,459758176.00000,   0.00000,274640576.00000,   0.00000,   0.00000,   0.00000,-14882400.00000,   0.00000
-456744967.28997,-441352550.14353,57287878.12730,  -0.00122,  -0.00112,   0.00074,460072032.00000,   0.00000,274640576.00000,   0.00000,   0.00000,   0.00000,-14568544.00000,   0.00000
-457057037.76282,-441591192.26983,57342949.38722,  -0.00122,  -0.00112,   0.00075,460363584.00000,   0.00000,274640576.00000,   0.00000,   0.00000,   0.00000,-14276992.00000,   0.00000
-457336983.33406,-441816066.58115,57398020.64713,  -0.00122,  -0.00112,   0.00075,460632096.00000,   0.00000,274640576.00000,   0.00000,   0.00000,   0.00000,-14008480.00000,   0.00000
-457603161.09032,-442008815.99086,57448502.63539,  -0.00122,  -0.00112,   0.00075,460877120.00000,   0.00000,274640576.00000,   0.00000,   0.00000,   0.00000,-13763456.00000,   0.00000
-457853276.39577,-442194681.49307,57498984.62365,  -0.00122,  -0.00112,   0.00075,461110688.00000,   0.00000,274640576.00000,   0.00000,   0.00000,   0.00000,-13529888.00000,   0.00000
-458064382.89211,-442350716.72950,57544877.34024,  -0.00122,  -0.00112,   0.00075,461308576.00000,   0.00000,274640576.00000,   0.00000,   0.00000,   0.00000,-13332000.00000,   0.00000
-458261721.57348,-442474627.06431,57595359.32850,  -0.00122,  -0.00112,   0.00075,461486400.00000,   0.00000,274640576.00000,   0.00000,   0.00000,   0.00000,-13154176.00000,   0.00000
-458442997.80403,-442591653.49163,57636662.77343,  -0.00122,  -0.00112,   0.00075,461649312.00000,   0.00000,274640576.00000,   0.00000,   0.00000,   0.00000,-12991264.00000,   0.00000
-458592149.13297,-442694912.10397,57682555.49003,  -0.00122,  -0.00112,   0.00075,461791072.00000,   0.00000,274640576.00000,   0.00000,   0.00000,   0.00000,-12849504.00000,   0.00000
-458727532.64693,-442766045.81470,57723858.93497,  -0.00122,  -0.00112,   0.00075,461909184.00000,   0.00000,274640576.00000,   0.00000,   0.00000,   0.00000,-12731392.00000,   0.00000
-458830791.25927,-442823411.71044,57765162.37990,  -0.00122,  -0.00112,   0.00075,462004288.00000,   0.00000,274640576.00000,   0.00000,   0.00000,   0.00000,-12636288.00000,   0.00000
-458920282.05664,-442848652.70457,57806465.82484,  -0.00122,  -0.00112,   0.00075,462077664.00000,   0.00000,274640576.00000,   0.00000,   0.00000,   0.00000,-12562912.00000,   0.00000
-458993710.40319,-442867009.79121,57843179.99812,  -0.00122,  -0.00112,   0.00075,462137664.00000,   0.00000,274640576.00000,   0.00000,   0.00000,   0.00000,-12502912.00000,   0.00000
-459028129.94064,-442855536.61206,57879894.17140,  -0.00123,  -0.00112,   0.00075,462163936.00000,   0.00000,274640576.00000,   0.00000,   0.00000,   0.00000,-12476640.00000,   0.00000
-459055665.57060,-442828000.98210,57916608.34467,  -0.00123,  -0.00112,   0.00075,462179232.00000,   0.00000,274640576.00000,   0.00000,   0.00000,   0.00000,-12461344.00000,   0.00000
-459044192.39145,-442770635.08636,57948733.24629,  -0.00123,  -0.00112,   0.00075,462158848.00000,   0.00000,274640576.00000,   0.00000,   0.00000,   0.00000,-12481728.00000,   0.00000
-459032719.21230,-442713269.19061,57980858.14791,  -0.00123,  -0.00112,   0.00075,462138592.00000,   0.00000,274640576.00000,   0.00000,   0.00000,   0.00000,-12501984.00000,   0.00000
-458975353.31655,-442610010.57827,58012983.04953,  -0.00123,  -0.00112,   0.00075,462073408.00000,   0.00000,274640576.00000,   0.00000,   0.00000,   0.00000,-12567168.00000,   0.00000
-458917987.42081,-442506751.96593,58040518.67948,  -0.00123,  -0.00112,   0.00075,462006528.00000,   0.00000,274640576.00000,   0.00000,   0.00000,   0.00000,-12634048.00000,   0.00000
-458821612.71595,-442373663.08780,58068054.30944,  -0.00123,  -0.00112,   0.00075,461905920.00000,   0.00000,274640576.00000,   0.00000,   0.00000,   0.00000,-12734656.00000,   0.00000
-458718354.10361,-442224511.75886,58095589.93940,  -0.00122,  -0.00112,   0.00076,461794272.00000,   0.00000,274640576.00000,   0.00000,   0.00000,   0.00000,-12846304.00000,   0.00000
-458576086.68216,-442045530.16414,58123125.56936,  -0.00122,  -0.00112,   0.00076,461648800.00000,   0.00000,274640576.00000,   0.00000,   0.00000,   0.00000,-12991776.00000,   0.00000
-458426935.35322,-441850486.11860,58146071.92765,  -0.00122,  -0.00112,   0.00076,461490592.00000,   0.00000,274640576.00000,   0.00000,   0.00000,   0.00000,-13149984.00000,   0.00000
-458238775.21518,-441625611.80728,58169018.28595,  -0.00122,  -0.00112,   0.00076,461298688.00000,   0.00000,274640576.00000,   0.00000,   0.00000,   0.00000,-13341888.00000,   0.00000
-458034552.62633,-441393853.58847,58187375.37259,  -0.00122,  -0.00112,   0.00076,461093408.00000,   0.00000,274640576.00000,   0.00000,   0.00000,   0.00000,-13547168.00000,   0.00000
-457816562.22249,-441129970.46804,58210321.73089,  -0.00122,  -0.00111,   0.00076,460868160.00000,   0.00000,274640576.00000,   0.00000,   0.00000,   0.00000,-13772416.00000,   0.00000
-457566446.91704,-440852319.53263,58228678.81753,  -0.00122,  -0.00111,   0.00076,460618208.00000,   0.00000,274640576.00000,   0.00000,   0.00000,   0.00000,-14022368.00000,   0.00000
-457293385.25329,-440551722.23892,58242446.63251,  -0.00122,  -0.00111,   0.00076,460344224.00000,   0.00000,274640576.00000,   0.00000,   0.00000,   0.00000,-14296352.00000,   0.00000
-457013439.68206,-440235062.49441,58256214.44749,  -0.00122,  -0.00111,   0.00076,460059200.00000,   0.00000,274640576.00000,   0.00000,   0.00000,   0.00000,-14581376.00000,   0.00000
-456701369.20920,-439904634.93491,58269982.26246,  -0.00122,  -0.00111,   0.00076,459751456.00000,   0.00000,274640576.00000,   0.00000,   0.00000,   0.00000,-14889120.00000,   0.00000
-456359468.47056,-439535198.56631,58283750.07744,  -0.00122,  -0.00111,   0.00076,459410304.00000,   0.00000,274640576.00000,   0.00000,   0.00000,   0.00000,-15230272.00000,   0.00000
-456001505.28110,-439158878.29022,58297517.89242,  -0.00122,  -0.00111,   0.00076,459057760.00000,   0.00000,274640576.00000,   0.00000,   0.00000,   0.00000,-15582816.00000,   0.00000
-455613711.82586,-438743549.20502,58306696.43574,  -0.00122,  -0.00111,   0.00076,458670240.00000,   0.00000,274640576.00000,   0.00000,   0.00000,   0.00000,-15970336.00000,   0.00000
-455225918.37063,-438328220.11983,58311285.70740,  -0.00122,  -0.00111,   0.00076,458281088.00000,   0.00000,274640576.00000,   0.00000,   0.00000,   0.00000,-16359488.00000,   0.00000
-454799116.10628,-437883060.76884,58320464.25072,  -0.00122,  -0.00111,   0.00076,457859808.00000,   0.00000,274640576.00000,   0.00000,   0.00000,   0.00000,-16780768.00000,   0.00000
-454349367.48363,-437414955.05956,58325053.52238,  -0.00121,  -0.00110,   0.00076,457414496.00000,   0.00000,274640576.00000,   0.00000,   0.00000,   0.00000,-17226080.00000,   0.00000
-453876672.50269,-436923902.99198,58329642.79404,  -0.00121,  -0.00110,   0.00076,456946912.00000,   0.00000,274640576.00000,   0.00000,   0.00000,   0.00000,-17693664.00000,   0.00000
-453387915.07094,-436425967.01690,58329642.79404,  -0.00121,  -0.00110,   0.00076,456466176.00000,   0.00000,274640576.00000,   0.00000,   0.00000,   0.00000,-18174400.00000,   0.00000
-452869327.37340,-435889022.23273,58334232.06570,  -0.00121,  -0.00110,   0.00076,455953984.00000,   0.00000,274640576.00000,   0.00000,   0.00000,   0.00000,-18686592.00000,   0.00000
-452334677.22505,-435345193.54106,58334232.06570,  -0.00121,  -0.00110,   0.00076,455428736.00000,   0.00000,274640576.00000,   0.00000,   0.00000,   0.00000,-19211840.00000,   0.00000
-451777080.71840,-434778418.49109,58329642.79404,  -0.00121,  -0.00110,   0.00076,454879488.00000,   0.00000,274640576.00000,   0.00000,   0.00000,   0.00000,-19761088.00000,   0.00000
-451196537.85346,-434188697.08283,58329642.79404,  -0.00121,  -0.00110,   0.00076,454309632.00000,   0.00000,274640576.00000,   0.00000,   0.00000,   0.00000,-20330944.00000,   0.00000
-450593048.63022,-433576029.31627,58325053.52238,  -0.00120,  -0.00109,   0.00076,453715968.00000,   0.00000,274640576.00000,   0.00000,   0.00000,   0.00000,-20924608.00000,   0.00000
-449966613.04868,-432940415.19141,58320464.25072,  -0.00120,  -0.00109,   0.00076,453099968.00000,   0.00000,274640576.00000,   0.00000,   0.00000,   0.00000,-21540608.00000,   0.00000
-449324115.01633,-432297917.15906,58311285.70740,  -0.00120,  -0.00109,   0.00076,452470944.00000,   0.00000,274640576.00000,   0.00000,   0.00000,   0.00000,-22169632.00000,   0.00000
-448651786.71819,-431616410.31760,58302107.16408,  -0.00120,  -0.00109,   0.00076,451808800.00000,   0.00000,274640576.00000,   0.00000,   0.00000,   0.00000,-22831776.00000,   0.00000
-447963395.96924,-430928019.56865,58292928.62076,  -0.00120,  -0.00109,   0.00076,451135392.00000,   0.00000,274640576.00000,   0.00000,   0.00000,   0.00000,-23505184.00000,   0.00000
-447235996.41119,-430209798.55392,58283750.07744,  -0.00120,  -0.00109,   0.00076,450428544.00000,   0.00000,274640576.00000,   0.00000,   0.00000,   0.00000,-24212032.00000,   0.00000
-446501712.94565,-429475515.08838,58269982.26246,  -0.00119,  -0.00108,   0.00076,449709152.00000,   0.00000,274640576.00000,   0.00000,   0.00000,   0.00000,-24931424.00000,   0.00000
-445751367.02930,-428734347.71535,58256214.44749,  -0.00119,  -0.00108,   0.00076,448978560.00000,   0.00000,274640576.00000,   0.00000,   0.00000,   0.00000,-25662016.00000,   0.00000
-444971190.84716,-427954171.53321,58242446.63251,  -0.00119,  -0.00108,   0.00076,448215104.00000,   0.00000,274640576.00000,   0.00000,   0.00000,   0.00000,-26425472.00000,   0.00000
-444168068.30672,-427151048.99277,58224089.54587,  -0.00119,  -0.00108,   0.00076,447427776.00000,   0.00000,274640576.00000,   0.00000,   0.00000,   0.00000,-27212800.00000,   0.00000
-443348883.31547,-426341042.54484,58205732.45923,  -0.00119,  -0.00108,   0.00076,446629408.00000,   0.00000,274640576.00000,   0.00000,   0.00000,   0.00000,-28011168.00000,   0.00000
-442506751.96593,-425508089.73862,58187375.37259,  -0.00118,  -0.00107,   0.00076,445809056.00000,   0.00000,274640576.00000,   0.00000,   0.00000,   0.00000,-28831520.00000,   0.00000
-441641674.25809,-424652190.57409,58169018.28595,  -0.00118,  -0.00107,   0.00076,444966368.00000,   0.00000,274640576.00000,   0.00000,   0.00000,   0.00000,-29674208.00000,   0.00000
-440753650.19195,-423773345.05127,58146071.92765,  -0.00118,  -0.00107,   0.00076,444099392.00000,   0.00000,274640576.00000,   0.00000,   0.00000,   0.00000,-30541184.00000,   0.00000
-439833501.22419,-422880731.71347,58123125.56936,  -0.00118,  -0.00107,   0.00076,443209056.00000,   0.00000,274640576.00000,   0.00000,   0.00000,   0.00000,-31431520.00000,   0.00000
-438899584.44145,-421955993.47406,58100179.21106,  -0.00117,  -0.00106,   0.00076,442295616.00000,   0.00000,274640576.00000,   0.00000,   0.00000,   0.00000,-32344960.00000,   0.00000
-437949605.20791,-421024371.32715,58072643.58110,  -0.00117,  -0.00106,   0.00075,441367360.00000,   0.00000,274640576.00000,   0.00000,   0.00000,   0.00000,-33273216.00000,   0.00000
-436976679.61606,-420069802.82194,58045107.95114,  -0.00117,  -0.00106,   0.00075,440414848.00000,   0.00000,274640576.00000,   0.00000,   0.00000,   0.00000,-34225728.00000,   0.00000
-435980807.66592,-419092287.95844,58017572.32118,  -0.00117,  -0.00106,   0.00075,439438720.00000,   0.00000,274640576.00000,   0.00000,   0.00000,   0.00000,-35201856.00000,   0.00000
-434961989.35748,-418091826.73664,57990036.69123,  -0.00116,  -0.00105,   0.00075,438439936.00000,   0.00000,274640576.00000,   0.00000,   0.00000,   0.00000,-36200640.00000,   0.00000
-433927108.59823,-417084481.60735,57957911.78961,  -0.00116,  -0.00105,   0.00075,437429088.00000,   0.00000,274640576.00000,   0.00000,   0.00000,   0.00000,-37211488.00000,   0.00000
-432862397.57319,-416038127.66895,57925786.88799,  -0.00116,  -0.00105,   0.00075,436387104.00000,   0.00000,274640576.00000,   0.00000,   0.00000,   0.00000,-38253472.00000,   0.00000
-431781624.09735,-414984889.82306,57893661.98637,  -0.00116,  -0.00105,   0.00075,435336192.00000,   0.00000,274640576.00000,   0.00000,   0.00000,   0.00000,-39304384.00000,   0.00000
-430677904.26320,-413908705.61887,57861537.08476,  -0.00115,  -0.00104,   0.00075,434265472.00000,   0.00000,274640576.00000,   0.00000,   0.00000,   0.00000,-40375104.00000,   0.00000
-429551238.07076,-412809575.05639,57824822.91148,  -0.00115,  -0.00104,   0.00075,433172960.00000,   0.00000,274640576.00000,   0.00000,   0.00000,   0.00000,-41467616.00000,   0.00000
-428424571.87832,-411710444.49391,57788108.73820,  -0.00115,  -0.00104,   0.00075,432082400.00000,   0.00000,274640576.00000,   0.00000,   0.00000,   0.00000,-42558176.00000,   0.00000
-427252012.96928,-410565421.21483,57746805.29327,  -0.00114,  -0.00103,   0.00075,430948384.00000,   0.00000,274640576.00000,   0.00000,   0.00000,   0.00000,-43692192.00000,   0.00000
-426063391.60943,-409413514.02826,57710091.11999,  -0.00114,  -0.00103,   0.00075,429812512.00000,   0.00000,274640576.00000,   0.00000,   0.00000,   0.00000,-44828064.00000,   0.00000
-424851823.89129,-408238660.48339,57668787.67505,  -0.00114,  -0.00103,   0.00075,428668096.00000,   0.00000,274640576.00000,   0.00000,   0.00000,   0.00000,-45972480.00000,   0.00000
-423633372.26565,-407047744.48771,57627484.23012,  -0.00113,  -0.00103,   0.00075,427505216.00000,   0.00000,274640576.00000,   0.00000,   0.00000,   0.00000,-47135360.00000,   0.00000
-422375911.83091,-405826998.22625,57581591.51352,  -0.00113,  -0.00102,   0.00075,426241888.00000,   0.00000,274640576.00000,   0.00000,   0.00000,   0.00000,-48398688.00000,   0.00000
-421118451.39617,-404606251.96478,57540288.06858,  -0.00113,  -0.00102,   0.00075,424938240.00000,   0.00000,274640576.00000,   0.00000,   0.00000,   0.00000,-49702336.00000,   0.00000
-419821982.15232,-403355675.43753,57494395.35199,  -0.00112,  -0.00102,   0.00075,423618144.00000,   0.00000,274640576.00000,   0.00000,   0.00000,   0.00000,-51022432.00000,   0.00000
-418518629.00098,-402089036.45947,57448502.63539,  -0.00112,  -0.00101,   0.00075,422321184.00000,   0.00000,274640576.00000,   0.00000,   0.00000,   0.00000,-52319392.00000,   0.00000
-417176267.04054,-400792567.21562,57398020.64713,  -0.00112,  -0.00101,   0.00075,421009312.00000,   0.00000,274640576.00000,   0.00000,   0.00000,   0.00000,-53631264.00000,   0.00000
-415827021.17260,-399480035.52096,57347538.65888,  -0.00111,  -0.00101,   0.00075,419695104.00000,   0.00000,274640576.00000,   0.00000,   0.00000,   0.00000,-54945472.00000,   0.00000
-414461712.85386,-398160619.91882,57301645.94228,  -0.00111,  -0.00100,   0.00074,418373312.00000,   0.00000,274640576.00000,   0.00000,   0.00000,   0.00000,-56267264.00000,   0.00000
-413066574.26933,-396802195.50756,57246574.68236,  -0.00111,  -0.00100,   0.00074,417013440.00000,   0.00000,274640576.00000,   0.00000,   0.00000,   0.00000,-57627136.00000,   0.00000
-411655373.23399,-395436887.18882,57196092.69411,  -0.00110,  -0.00100,   0.00074,415641536.00000,   0.00000,274640576.00000,   0.00000,   0.00000,   0.00000,-58999040.00000,   0.00000
-410228109.74784,-394064694.96259,57141021.43419,  -0.00110,  -0.00099,   0.00074,414253504.00000,   0.00000,274640576.00000,   0.00000,   0.00000,   0.00000,-60387072.00000,   0.00000
-408771015.99591,-392653493.92725,57085950.17428,  -0.00109,  -0.00099,   0.00074,412829632.00000,   0.00000,274640576.00000,   0.00000,   0.00000,   0.00000,-61810944.00000,   0.00000
-407297859.79316,-391235408.98442,57030878.91436,  -0.00109,  -0.00099,   0.00074,411392064.00000,   0.00000,274640576.00000,   0.00000,   0.00000,   0.00000,-63248512.00000,   0.00000
-405817819.68293,-389801261.59078,56971218.38279,  -0.00109,  -0.00098,   0.00074,409940128.00000,   0.00000,274640576.00000,   0.00000,   0.00000,   0.00000,-64700448.00000,   0.00000
-404298770.76359,-388337283.93135,56916147.12287,  -0.00108,  -0.00098,   0.00074,408455520.00000,   0.00000,274640576.00000,   0.00000,   0.00000,   0.00000,-66185056.00000,   0.00000
-402772837.93676,-386857243.82112,56856486.59130,  -0.00108,  -0.00097,   0.00074,406958240.00000,   0.00000,274640576.00000,   0.00000,   0.00000,   0.00000,-67682336.00000,   0.00000
-401214780.20831,-385363435.89591,56792236.78806,  -0.00107,  -0.00097,   0.00074,405436704.00000,   0.00000,274640576.00000,   0.00000,   0.00000,   0.00000,-69203872.00000,   0.00000
-399649838.57237,-383853565.51988,56732576.25649,  -0.00107,  -0.00097,   0.00074,403907680.00000,   0.00000,274640576.00000,   0.00000,   0.00000,   0.00000,-70732896.00000,   0.00000
-398061950.57813,-382320748.78556,56668326.45325,  -0.00107,  -0.00096,   0.00074,402356128.00000,   0.00000,274640576.00000,   0.00000,   0.00000,   0.00000,-72284448.00000,   0.00000
-396451116.22560,-380764985.69295,56604076.65002,  -0.00106,  -0.00096,   0.00074,400784032.00000,   0.00000,274640576.00000,   0.00000,   0.00000,   0.00000,-73856544.00000,   0.00000
-394840281.87307,-379209222.60033,56539826.84678,  -0.00106,  -0.00096,   0.00074,399213952.00000,   0.00000,274640576.00000,   0.00000,   0.00000,   0.00000,-75426624.00000,   0.00000
-393190438.71142,-377623629.24192,56475577.04355,  -0.00105,  -0.00095,   0.00073,397611872.00000,   0.00000,274640576.00000,   0.00000,   0.00000,   0.00000,-77028704.00000,   0.00000
-391517649.19148,-376015089.52522,56406737.96865,  -0.00105,  -0.00095,   0.00073,395987168.00000,   0.00000,274640576.00000,   0.00000,   0.00000,   0.00000,-78653408.00000,   0.00000
-389837975.76406,-374390487.35770,56337898.89376,  -0.00104,  -0.00094,   0.00073,394353184.00000,   0.00000,274640576.00000,   0.00000,   0.00000,   0.00000,-80287392.00000,   0.00000
-388142239.88582,-372759001.28270,56269059.81886,  -0.00104,  -0.00094,   0.00073,392709376.00000,   0.00000,274640576.00000,   0.00000,   0.00000,   0.00000,-81931200.00000,   0.00000
-386423557.64928,-371104568.84940,56200220.74397,  -0.00103,  -0.00093,   0.00073,391044480.00000,   0.00000,274640576.00000,   0.00000,   0.00000,   0.00000,-83596096.00000,   0.00000
-384681929.05445,-369427190.05780,56126792.39741,  -0.00103,  -0.00093,   0.00073,389357184.00000,   0.00000,274640576.00000,   0.00000,   0.00000,   0.00000,-85283392.00000,   0.00000
-382924238.00881,-367742927.35871,56053364.05086,  -0.00103,  -0.00093,   0.00073,387659872.00000,   0.00000,274640576.00000,   0.00000,   0.00000,   0.00000,-86980704.00000,   0.00000
-381152779.14819,-366026539.75801,55979935.70430,  -0.00102,  -0.00092,   0.00073,385942624.00000,   0.00000,274640576.00000,   0.00000,   0.00000,   0.00000,-88697952.00000,   0.00000
-379372141.74424,-364319330.70062,55906507.35775,  -0.00102,  -0.00092,   0.00073,384226496.00000,   0.00000,274640576.00000,   0.00000,   0.00000,   0.00000,-90414080.00000,   0.00000
-377561674.07452,-362573112.83413,55833079.01120,  -0.00101,  -0.00091,   0.00073,382478976.00000,   0.00000,274640576.00000,   0.00000,   0.00000,   0.00000,-92161600.00000,   0.00000
-375728260.04649,-360803948.60934,55755061.39298,  -0.00101,  -0.00091,   0.00072,380708960.00000,   0.00000,274640576.00000,   0.00000,   0.00000,   0.00000,-93931616.00000,   0.00000
-373878783.56765,-359027900.47705,55677043.77477,  -0.00100,  -0.00090,   0.00072,378928896.00000,   0.00000,274640576.00000,   0.00000,   0.00000,   0.00000,-95711680.00000,   0.00000
-372029307.08882,-357251852.34477,55599026.15655,  -0.00100,  -0.00090,   0.00072,377149760.00000,   0.00000,274640576.00000,   0.00000,   0.00000,   0.00000,-97490816.00000,   0.00000
-370133937.89339,-355429911.49590,55516419.26668,  -0.00099,  -0.00090,   0.00072,375324992.00000,   0.00000,274640576.00000,   0.00000,   0.00000,   0.00000,-99315584.00000,   0.00000
-368238568.69795,-353607970.64702,55438401.64847,  -0.00099,  -0.00089,   0.00072,373502464.00000,   0.00000,274640576.00000,   0.00000,   0.00000,   0.00000,-101138112.00000,   0.00000
-366336315.59503,-351769967.34733,55355794.75859,  -0.00098,  -0.00089,   0.00072,371666624.00000,   0.00000,274640576.00000,   0.00000,   0.00000,   0.00000,-102973952.00000,   0.00000
-364401937.59049,-349918196.23267,55273187.86872,  -0.00098,  -0.00088,   0.00072,369807392.00000,   0.00000,274640576.00000,   0.00000,   0.00000,   0.00000,-104833184.00000,   0.00000
-362453791.77098,-348034300.21638,55190580.97885,  -0.00097,  -0.00088,   0.00072,367925440.00000,   0.00000,274640576.00000,   0.00000,   0.00000,   0.00000,-106715136.00000,   0.00000
-360489583.50065,-346143520.29261,55103384.81731,  -0.00097,  -0.00087,   0.00072,366028320.00000,   0.00000,274640576.00000,   0.00000,   0.00000,   0.00000,-108612256.00000,   0.00000
-358509312.77952,-344245856.46135,55020777.92744,  -0.00096,  -0.00087,   0.00072,364120192.00000,   0.00000,274640576.00000,   0.00000,   0.00000,   0.00000,-110520384.00000,   0.00000
-356506095.70008,-342325246.27179,54933581.76591,  -0.00095,  -0.00086,   0.00071,362186048.00000,   0.00000,274640576.00000,   0.00000,   0.00000,   0.00000,-112454528.00000,   0.00000
-354495994.71316,-340388573.63142,54846385.60437,  -0.00095,  -0.00086,   0.00071,360239392.00000,   0.00000,274640576.00000,   0.00000,   0.00000,   0.00000,-114401184.00000,   0.00000
-352462947.36794,-338428954.63275,54759189.44284,  -0.00094,  -0.00085,   0.00071,358269152.00000,   0.00000,274640576.00000,   0.00000,   0.00000,   0.00000,-116371424.00000,   0.00000
-350413837.57191,-336462451.72660,54667404.00965,  -0.00094,  -0.00085,   0.00071,356284480.00000,   0.00000,274640576.00000,   0.00000,   0.00000,   0.00000,-118356096.00000,   0.00000
-348357843.86839,-334479886.36963,54580207.84811,  -0.00093,  -0.00084,   0.00071,354290720.00000,   0.00000,274640576.00000,   0.00000,   0.00000,   0.00000,-120349856.00000,   0.00000
-346262841.35576,-332467490.74688,54488422.41492,  -0.00093,  -0.00084,   0.00071,352261376.00000,   0.00000,274640576.00000,   0.00000,   0.00000,   0.00000,-122379200.00000,   0.00000
-344183901.29394,-330461979.03162,54396636.98173,  -0.00092,  -0.00083,   0.00071,350244032.00000,   0.00000,274640576.00000,   0.00000,   0.00000,   0.00000,-124396544.00000,   0.00000
-342065952.42302,-328426637.05057,54304851.54853,  -0.00092,  -0.00083,   0.00071,348194528.00000,   0.00000,274640576.00000,   0.00000,   0.00000,   0.00000,-126446048.00000,   0.00000
-339948003.55210,-326391295.06952,54208476.84368,  -0.00091,  -0.00082,   0.00070,346144704.00000,   0.00000,274640576.00000,   0.00000,   0.00000,   0.00000,-128495872.00000,   0.00000
-337807108.32287,-324333006.73017,54116691.41049,  -0.00090,  -0.00082,   0.00070,344077056.00000,   0.00000,274640576.00000,   0.00000,   0.00000,   0.00000,-130563520.00000,   0.00000
-335643266.73535,-322251772.03252,54020316.70564,  -0.00090,  -0.00081,   0.00070,341987584.00000,   0.00000,274640576.00000,   0.00000,   0.00000,   0.00000,-132652992.00000,   0.00000
-333479425.14783,-320170537.33487,53923942.00078,  -0.00089,  -0.00081,   0.00070,339900384.00000,   0.00000,274640576.00000,   0.00000,   0.00000,   0.00000,-134740192.00000,   0.00000
-331292637.20201,-318066356.27893,53827567.29593,  -0.00089,  -0.00080,   0.00070,337793664.00000,   0.00000,274640576.00000,   0.00000,   0.00000,   0.00000,-136846912.00000,   0.00000
-329098965.34870,-315946112.77217,53731192.59108,  -0.00088,  -0.00080,   0.00070,335678304.00000,   0.00000,274640576.00000,   0.00000,   0.00000,   0.00000,-138962272.00000,   0.00000
-326873168.59378,-313812101.45044,53630228.61457,  -0.00088,  -0.00079,   0.00070,333539680.00000,   0.00000,274640576.00000,   0.00000,   0.00000,   0.00000,-141100896.00000,   0.00000
-324656550.38217,-311668911.58539,53529264.63806,  -0.00087,  -0.00079,   0.00070,331402624.00000,   0.00000,274640576.00000,   0.00000,   0.00000,   0.00000,-143237952.00000,   0.00000
-322407807.26895,-309511953.90536,53432889.93320,  -0.00086,  -0.00078,   0.00069,329245888.00000,   0.00000,274640576.00000,   0.00000,   0.00000,   0.00000,-145394688.00000,   0.00000
-320152180.24823,-307338933.77452,53331925.95669,  -0.00086,  -0.00077,   0.00069,327076160.00000,   0.00000,274640576.00000,   0.00000,   0.00000,   0.00000,-147564416.00000,   0.00000
-317873606.86922,-305142967.28538,53226372.70852,  -0.00085,  -0.00077,   0.00069,324881600.00000,   0.00000,274640576.00000,   0.00000,   0.00000,   0.00000,-149758976.00000,   0.00000
-315595033.49021,-302947000.79624,53125408.73201,  -0.00085,  -0.00076,   0.00069,322688448.00000,   0.00000,274640576.00000,   0.00000,   0.00000,   0.00000,-151952128.00000,   0.00000
-313293513.75290,-300728087.94880,53024444.75550,  -0.00084,  -0.00076,   0.00069,320472416.00000,   0.00000,274640576.00000,   0.00000,   0.00000,   0.00000,-154168160.00000,   0.00000
-310991994.01559,-298509175.10137,52918891.50732,  -0.00083,  -0.00075,   0.00069,318253120.00000,   0.00000,274640576.00000,   0.00000,   0.00000,   0.00000,-156387456.00000,   0.00000
-308667527.91998,-296267315.89563,52813338.25915,  -0.00083,  -0.00075,   0.00069,316011456.00000,   0.00000,274640576.00000,   0.00000,   0.00000,   0.00000,-158629120.00000,   0.00000
-306326999.37356,-294018572.78241,52707785.01098,  -0.00082,  -0.00074,   0.00069,313758592.00000,   0.00000,274640576.00000,   0.00000,   0.00000,   0.00000,-160881984.00000,   0.00000
-303972703.01217,-291737704.76756,52602231.76281,  -0.00081,  -0.00073,   0.00068,311485472.00000,   0.00000,274640576.00000,   0.00000,   0.00000,   0.00000,-163155104.00000,   0.00000
-301609228.10745,-289466015.29604,52496678.51464,  -0.00081,  -0.00073,   0.00068,309213760.00000,   0.00000,274640576.00000,   0.00000,   0.00000,   0.00000,-165426816.00000,   0.00000
-299238869.29525,-287178263.37371,52386535.99480,  -0.00080,  -0.00072,   0.00068,306931744.00000,   0.00000,274640576.00000,   0.00000,   0.00000,   0.00000,-167708832.00000,   0.00000
-296845564.12475,-284867565.09308,52280982.74663,  -0.00080,  -0.00072,   0.00068,304633792.00000,   0.00000,274640576.00000,   0.00000,   0.00000,   0.00000,-170006784.00000,   0.00000
-294452258.95424,-282556866.81245,52170840.22680,  -0.00079,  -0.00071,   0.00068,302337088.00000,   0.00000,274640576.00000,   0.00000,   0.00000,   0.00000,-172303488.00000,   0.00000
-292036007.42544,-280223222.17352,52060697.70697,  -0.00078,  -0.00071,   0.00068,300020672.00000,   0.00000,274640576.00000,   0.00000,   0.00000,   0.00000,-174619904.00000,   0.00000
-289603693.44583,-277882693.62711,51950555.18714,  -0.00078,  -0.00070,   0.00068,297691328.00000,   0.00000,274640576.00000,   0.00000,   0.00000,   0.00000,-176949248.00000,   0.00000
-287164495.55873,-275526102.62988,51840412.66731,  -0.00077,  -0.00069,   0.00067,295345504.00000,   0.00000,274640576.00000,   0.00000,   0.00000,   0.00000,-179295072.00000,   0.00000
-284718413.76414,-273153449.18185,51730270.14748,  -0.00076,  -0.00069,   0.00067,292998144.00000,   0.00000,274640576.00000,   0.00000,   0.00000,   0.00000,-181642432.00000,   0.00000
-282263153.42624,-270789974.27713,51620127.62764,  -0.00076,  -0.00068,   0.00067,290691552.00000,   0.00000,274640576.00000,   0.00000,   0.00000,   0.00000,-183949024.00000,   0.00000
-279794125.27335,-268394374.47080,51505395.83615,  -0.00075,  -0.00068,   0.00067,288374112.00000,   0.00000,274640576.00000,   0.00000,   0.00000,   0.00000,-186266464.00000,   0.00000
-277309034.66965,-265991890.75698,51390664.04466,  -0.00074,  -0.00067,   0.00067,286013760.00000,   0.00000,274640576.00000,   0.00000,   0.00000,   0.00000,-188626816.00000,   0.00000
-274807881.61515,-263582523.13567,51280521.52483,  -0.00074,  -0.00066,   0.00067,283619168.00000,   0.00000,274640576.00000,   0.00000,   0.00000,   0.00000,-191021408.00000,   0.00000
-272315907.10396,-261163976.97103,51165789.73334,  -0.00073,  -0.00066,   0.00067,281216544.00000,   0.00000,274640576.00000,   0.00000,   0.00000,   0.00000,-193424032.00000,   0.00000
-269784923.78367,-258715600.54062,51051057.94185,  -0.00072,  -0.00065,   0.00066,278783872.00000,   0.00000,274640576.00000,   0.00000,   0.00000,   0.00000,-195856704.00000,   0.00000
-267276886.82168,-256290170.46850,50931736.87870,  -0.00072,  -0.00064,   0.00066,276374752.00000,   0.00000,274640576.00000,   0.00000,   0.00000,   0.00000,-198265824.00000,   0.00000
-264739019.59390,-253825731.58727,50817005.08721,  -0.00071,  -0.00064,   0.00066,273939104.00000,   0.00000,274640576.00000,   0.00000,   0.00000,   0.00000,-200701472.00000,   0.00000
-262185089.91530,-251354408.79855,50702273.29572,  -0.00070,  -0.00063,   0.00066,271494272.00000,   0.00000,274640576.00000,   0.00000,   0.00000,   0.00000,-203146304.00000,   0.00000
-259631160.23671,-248883086.00983,50582952.23257,  -0.00070,  -0.00063,   0.00066,269047360.00000,   0.00000,274640576.00000,   0.00000,   0.00000,   0.00000,-205593216.00000,   0.00000
-257070346.65063,-246395700.77031,50468220.44107,  -0.00069,  -0.00062,   0.00066,266592752.00000,   0.00000,274640576.00000,   0.00000,   0.00000,   0.00000,-208047824.00000,   0.00000
-254493470.61375,-243901431.62329,50348899.37792,  -0.00068,  -0.00061,   0.00065,264124368.00000,   0.00000,274640576.00000,   0.00000,   0.00000,   0.00000,-210516208.00000,   0.00000
-251909710.66937,-241391100.02547,50229578.31477,  -0.00068,  -0.00061,   0.00065,261645920.00000,   0.00000,274640576.00000,   0.00000,   0.00000,   0.00000,-212994656.00000,   0.00000
-249309888.27418,-238873884.52016,50110257.25162,  -0.00067,  -0.00060,   0.00065,259157728.00000,   0.00000,274640576.00000,   0.00000,   0.00000,   0.00000,-215482848.00000,   0.00000
-246719244.42231,-236347490.47152,49990936.18847,  -0.00066,  -0.00059,   0.00065,256672480.00000,   0.00000,274640576.00000,   0.00000,   0.00000,   0.00000,-217968096.00000,   0.00000
-244096475.66883,-233807328.60791,49871615.12532,  -0.00065,  -0.00059,   0.00065,254169312.00000,   0.00000,274640576.00000,   0.00000,   0.00000,   0.00000,-220471264.00000,   0.00000
-241489769.36615,-231274050.65179,49752294.06217,  -0.00065,  -0.00058,   0.00065,251682784.00000,   0.00000,274640576.00000,   0.00000,   0.00000,   0.00000,-222957792.00000,   0.00000
-238860116.70518,-228717826.33737,49628383.72736,  -0.00064,  -0.00057,   0.00065,249179072.00000,   0.00000,274640576.00000,   0.00000,   0.00000,   0.00000,-225461504.00000,   0.00000
-236214401.59340,-226154718.11546,49509062.66421,  -0.00063,  -0.00057,   0.00064,246674512.00000,   0.00000,274640576.00000,   0.00000,   0.00000,   0.00000,-227966064.00000,   0.00000
-233577865.02493,-223582431.35023,49389741.60106,  -0.00063,  -0.00056,   0.00064,244176672.00000,   0.00000,274640576.00000,   0.00000,   0.00000,   0.00000,-230463904.00000,   0.00000
-230925266.00566,-221003260.67751,49265831.26625,  -0.00062,  -0.00056,   0.00064,241667648.00000,   0.00000,274640576.00000,   0.00000,   0.00000,   0.00000,-232972928.00000,   0.00000
-228265783.07890,-218408027.55399,49141920.93144,  -0.00061,  -0.00055,   0.00064,239145552.00000,   0.00000,274640576.00000,   0.00000,   0.00000,   0.00000,-235495024.00000,   0.00000
-225590237.70133,-215805910.52297,49022599.86829,  -0.00061,  -0.00054,   0.00064,236608240.00000,   0.00000,274640576.00000,   0.00000,   0.00000,   0.00000,-238032336.00000,   0.00000
-222914692.32375,-213203793.49195,48898689.53348,  -0.00060,  -0.00054,   0.00064,234060352.00000,   0.00000,274640576.00000,   0.00000,   0.00000,   0.00000,-240580224.00000,   0.00000
-220232263.03869,-210585614.01013,48774779.19867,  -0.00059,  -0.00053,   0.00063,231497984.00000,   0.00000,274640576.00000,   0.00000,   0.00000,   0.00000,-243142592.00000,   0.00000
-217549833.75363,-207967434.52830,48650868.86386,  -0.00058,  -0.00052,   0.00063,228939584.00000,   0.00000,274640576.00000,   0.00000,   0.00000,   0.00000,-245700992.00000,   0.00000
-214844458.11028,-205326308.68818,48526958.52905,  -0.00058,  -0.00052,   0.00063,226373136.00000,   0.00000,274640576.00000,   0.00000,   0.00000,   0.00000,-248267440.00000,   0.00000
-212139082.46692,-202685182.84806,48403048.19424,  -0.00057,  -0.00051,   0.00063,223818544.00000,   0.00000,274640576.00000,   0.00000,   0.00000,   0.00000,-250822032.00000,   0.00000
-209433706.82356,-200044057.00793,48279137.85943,  -0.00056,  -0.00050,   0.00063,221234384.00000,   0.00000,274640576.00000,   0.00000,   0.00000,   0.00000,-253406192.00000,   0.00000
-206728331.18020,-197402931.16781,48150638.25296,  -0.00056,  -0.00050,   0.00063,218546496.00000,   0.00000,274640576.00000,   0.00000,   0.00000,   0.00000,-256094080.00000,   0.00000
-204000009.17854,-194738858.96939,48026727.91815,  -0.00055,  -0.00049,   0.00062,215860368.00000,   0.00000,274640576.00000,   0.00000,   0.00000,   0.00000,-258780208.00000,   0.00000
-201280865.72021,-192065608.22765,47902817.58334,  -0.00054,  -0.00048,   0.00062,213368128.00000,   0.00000,274640576.00000,   0.00000,   0.00000,   0.00000,-261272448.00000,   0.00000
-198552543.71855,-189401536.02922,47774317.97687,  -0.00053,  -0.00047,   0.00062,210841664.00000,   0.00000,274640576.00000,   0.00000,   0.00000,   0.00000,-263798912.00000,   0.00000
-195794391.45110,-186698455.02170,47650407.64206,  -0.00053,  -0.00047,   0.00062,208247344.00000,   0.00000,274640576.00000,   0.00000,   0.00000,   0.00000,-266393232.00000,   0.00000
-193059185.54196,-184018320.37247,47521908.03559,  -0.00052,  -0.00046,   0.00062,205666528.00000,   0.00000,274640576.00000,   0.00000,   0.00000,   0.00000,-268974048.00000,   0.00000
-190317095.72532,-181322123.27243,47397997.70077,  -0.00051,  -0.00045,   0.00062,203078480.00000,   0.00000,274640576.00000,   0.00000,   0.00000,   0.00000,-271562096.00000,   0.00000
-187558943.45788,-178619042.26490,47269498.09430,  -0.00051,  -0.00045,   0.00061,200467968.00000,   0.00000,274640576.00000,   0.00000,   0.00000,   0.00000,-274172608.00000,   0.00000
-184800791.19043,-175915961.25737,47145587.75949,  -0.00050,  -0.00044,   0.00061,197871952.00000,   0.00000,274640576.00000,   0.00000,   0.00000,   0.00000,-276768624.00000,   0.00000
-182035755.01550,-173196817.79903,47017088.15302,  -0.00049,  -0.00043,   0.00061,195277792.00000,   0.00000,274640576.00000,   0.00000,   0.00000,   0.00000,-279362784.00000,   0.00000
-179270718.84057,-170477674.34069,46888588.54655,  -0.00048,  -0.00043,   0.00061,192681280.00000,   0.00000,274640576.00000,   0.00000,   0.00000,   0.00000,-281959296.00000,   0.00000
-176489620.21482,-167751646.97487,46764678.21174,  -0.00048,  -0.00042,   0.00061,190093968.00000,   0.00000,274640576.00000,   0.00000,   0.00000,   0.00000,-284546608.00000,   0.00000
-173724584.03989,-165032503.51653,46636178.60527,  -0.00047,  -0.00041,   0.00061,187523408.00000,   0.00000,274640576.00000,   0.00000,   0.00000,   0.00000,-287117168.00000,   0.00000
-170936601.50666,-162290413.69989,46507678.99880,  -0.00046,  -0.00041,   0.00060,184939664.00000,   0.00000,274640576.00000,   0.00000,   0.00000,   0.00000,-289700912.00000,   0.00000
-168164681.42423,-159555207.79075,46379179.39233,  -0.00045,  -0.00040,   0.00060,182371760.00000,   0.00000,274640576.00000,   0.00000,   0.00000,   0.00000,-292268816.00000,   0.00000
-165369814.98351,-156797055.52330,46250679.78586,  -0.00045,  -0.00039,   0.00060,179785952.00000,   0.00000,274640576.00000,   0.00000,   0.00000,   0.00000,-294854624.00000,   0.00000
-162581832.45028,-154054965.70667,46126769.45105,  -0.00044,  -0.00038,   0.00060,177216096.00000,   0.00000,274640576.00000,   0.00000,   0.00000,   0.00000,-297424480.00000,   0.00000
-159786966.00956,-151296813.43922,45998269.84458,  -0.00043,  -0.00038,   0.00060,174636864.00000,   0.00000,274640576.00000,   0.00000,   0.00000,   0.00000,-300003712.00000,   0.00000
-156985215.66135,-148522598.72097,45869770.23811,  -0.00042,  -0.00037,   0.00060,172054352.00000,   0.00000,274640576.00000,   0.00000,   0.00000,   0.00000,-302586224.00000,   0.00000
-154190349.22063,-145764446.45353,45741270.63164,  -0.00042,  -0.00036,   0.00059,169489408.00000,   0.00000,274640576.00000,   0.00000,   0.00000,   0.00000,-305151168.00000,   0.00000
-151388598.87242,-142990231.73527,45612771.02517,  -0.00041,  -0.00036,   0.00059,166923120.00000,   0.00000,274640576.00000,   0.00000,   0.00000,   0.00000,-307717456.00000,   0.00000
-148586848.52420,-140216017.01702,45484271.41870,  -0.00040,  -0.00035,   0.00059,164365296.00000,   0.00000,274640576.00000,   0.00000,   0.00000,   0.00000,-310275280.00000,   0.00000
-145785098.17599,-137441802.29877,45355771.81223,  -0.00040,  -0.00034,   0.00059,161815536.00000,   0.00000,274640576.00000,   0.00000,   0.00000,   0.00000,-312825040.00000,   0.00000
-142983347.82778,-134667587.58051,45231861.47742,  -0.00039,  -0.00033,   0.00059,159277648.00000,   0.00000,274640576.00000,   0.00000,   0.00000,   0.00000,-315362928.00000,   0.00000
-140174713.57208,-131877310.41145,45103361.87095,  -0.00038,  -0.00033,   0.00059,156734336.00000,   0.00000,274640576.00000,   0.00000,   0.00000,   0.00000,-317906240.00000,   0.00000
-137366079.31638,-129087033.24239,44974862.26448,  -0.00037,  -0.00032,   0.00058,154199440.00000,   0.00000,274640576.00000,   0.00000,   0.00000,   0.00000,-320441136.00000,   0.00000
-134557445.06068,-126296756.07333,44846362.65801,  -0.00037,  -0.00031,   0.00058,151673728.00000,   0.00000,274640576.00000,   0.00000,   0.00000,   0.00000,-322966848.00000,   0.00000
-131748810.80498,-123506478.90427,44717863.05154,  -0.00036,  -0.00031,   0.00058,149158096.00000,   0.00000,274640576.00000,   0.00000,   0.00000,   0.00000,-325482480.00000,   0.00000
-128933292.64179,-120700139.28439,44589363.44507,  -0.00035,  -0.00030,   0.00058,146644496.00000,   0.00000,274640576.00000,   0.00000,   0.00000,   0.00000,-327996080.00000,   0.00000
-126117774.47860,-117893799.66452,44465453.11026,  -0.00034,  -0.00029,   0.00058,144147728.00000,   0.00000,274640576.00000,   0.00000,   0.00000,   0.00000,-330492848.00000,   0.00000
-123309140.22290,-115103522.49546,44336953.50379,  -0.00034,  -0.00028,   0.00058,141670256.00000,   0.00000,274640576.00000,   0.00000,   0.00000,   0.00000,-332970320.00000,   0.00000
-120493622.05971,-112297182.87559,44208453.89732,  -0.00033,  -0.00028,   0.00057,139198640.00000,   0.00000,274640576.00000,   0.00000,   0.00000,   0.00000,-335441936.00000,   0.00000
-117671219.98903,-109474780.80491,44079954.29085,  -0.00032,  -0.00027,   0.00057,136734176.00000,   0.00000,274640576.00000,   0.00000,   0.00000,   0.00000,-337906400.00000,   0.00000
-114855701.82584,-106668441.18504,43956043.95604,  -0.00031,  -0.00026,   0.00057,134299936.00000,   0.00000,274640576.00000,   0.00000,   0.00000,   0.00000,-340340640.00000,   0.00000
-112049362.20597,-103852923.02185,43827544.34957,  -0.00031,  -0.00025,   0.00057,131878608.00000,   0.00000,274640576.00000,   0.00000,   0.00000,   0.00000,-342761968.00000,   0.00000
-109226960.13529,-101030520.95117,43703634.01476,  -0.00030,  -0.00025,   0.00057,129468000.00000,   0.00000,274640576.00000,   0.00000,   0.00000,   0.00000,-345172576.00000,   0.00000
-106420620.51542,-98215002.78798,43575134.40829,  -0.00029,  -0.00024,   0.00057,127077304.00000,   0.00000,274640576.00000,   0.00000,   0.00000,   0.00000,-347563264.00000,   0.00000
-103598218.44474,-95392600.71730,43451224.07348,  -0.00029,  -0.00023,   0.00056,124695904.00000,   0.00000,274640576.00000,   0.00000,   0.00000,   0.00000,-349944672.00000,   0.00000
-100791878.82487,-92577082.55411,43322724.46701,  -0.00028,  -0.00022,   0.00056,122333784.00000,   0.00000,274640576.00000,   0.00000,   0.00000,   0.00000,-352306784.00000,   0.00000
-97985539.20500,-89761564.39092,43198814.13220,  -0.00027,  -0.00022,   0.00056,119992528.00000,   0.00000,274640576.00000,   0.00000,   0.00000,   0.00000,-354648048.00000,   0.00000
-95172315.67764,-86929983.77692,43070314.52573,  -0.00026,  -0.00021,   0.00056,117656216.00000,   0.00000,274640576.00000,   0.00000,   0.00000,   0.00000,-356984352.00000,   0.00000
-92365976.05777,-84114465.61373,42946404.19092,  -0.00026,  -0.00020,   0.00056,115354368.00000,   0.00000,274640576.00000,   0.00000,   0.00000,   0.00000,-359286208.00000,   0.00000
-89568814.98122,-81289768.90723,42822493.85611,  -0.00025,  -0.00020,   0.00056,113075984.00000,   0.00000,274640576.00000,   0.00000,   0.00000,   0.00000,-361564592.00000,   0.00000
-86755591.45386,-78458188.29323,42698583.52130,  -0.00024,  -0.00019,   0.00056,110811376.00000,   0.00000,274640576.00000,   0.00000,   0.00000,   0.00000,-363829200.00000,   0.00000
-83958430.37731,-75633491.58672,42574673.18649,  -0.00023,  -0.00018,   0.00055,108579112.00000,   0.00000,274640576.00000,   0.00000,   0.00000,   0.00000,-366061472.00000,   0.00000
-81161269.30076,-72808794.88021,42450762.85168,  -0.00023,  -0.00017,   0.00055,106371288.00000,   0.00000,274640576.00000,   0.00000,   0.00000,   0.00000,-368269280.00000,   0.00000
-78364108.22420,-69984098.17370,42326852.51687,  -0.00022,  -0.00017,   0.00055,104191064.00000,   0.00000,274640576.00000,   0.00000,   0.00000,   0.00000,-370449504.00000,   0.00000
-75560063.24016,-67143339.01638,42202942.18206,  -0.00021,  -0.00016,   0.00055,102037048.00000,   0.00000,274640576.00000,   0.00000,   0.00000,   0.00000,-372603520.00000,   0.00000
-72778964.61442,-64325526.21736,42079031.84725,  -0.00021,  -0.00015,   0.00055,99942120.00000,   0.00000,274640576.00000,   0.00000,   0.00000,   0.00000,-374698464.00000,   0.00000
-69997865.98868,-61507713.41834,41955121.51244,  -0.00020,  -0.00014,   0.00055,97900600.00000,   0.00000,274640576.00000,   0.00000,   0.00000,   0.00000,-376739968.00000,   0.00000
-67209883.45545,-58673838.16851,41835800.44929,  -0.00019,  -0.00014,   0.00054,95921336.00000,   0.00000,274640576.00000,   0.00000,   0.00000,   0.00000,-378719232.00000,   0.00000
-64421900.92221,-55839962.91868,41711890.11448,  -0.00018,  -0.00013,   0.00054,93999824.00000,   0.00000,274640576.00000,   0.00000,   0.00000,   0.00000,-380640752.00000,   0.00000
-61640802.29647,-53022150.11967,41592569.05133,  -0.00018,  -0.00012,   0.00054,92140408.00000,   0.00000,274640576.00000,   0.00000,   0.00000,   0.00000,-382500160.00000,   0.00000
-58868882.21405,-50195158.77733,41468658.71652,  -0.00017,  -0.00011,   0.00054,90306328.00000,   0.00000,274640576.00000,   0.00000,   0.00000,   0.00000,-384334240.00000,   0.00000
-56096962.13162,-47368167.43499,41349337.65337,  -0.00016,  -0.00011,   0.00054,88499416.00000,   0.00000,274640576.00000,   0.00000,   0.00000,   0.00000,-386141152.00000,   0.00000
-53341104.50001,-44548060.00014,41230016.59022,  -0.00016,  -0.00010,   0.00054,86723888.00000,   0.00000,274640576.00000,   0.00000,   0.00000,   0.00000,-387916688.00000,   0.00000
-50569184.41759,-41721068.65780,41110695.52707,  -0.00015,  -0.00009,   0.00053,84971864.00000,   0.00000,274640576.00000,   0.00000,   0.00000,   0.00000,-389668704.00000,   0.00000
-47813326.78597,-38900961.22295,40991374.46392,  -0.00014,  -0.00008,   0.00053,83262888.00000,   0.00000,274640576.00000,   0.00000,   0.00000,   0.00000,-391377696.00000,   0.00000
-45073531.60517,-36087737.69559,40872053.40076,  -0.00013,  -0.00008,   0.00053,81605400.00000,   0.00000,274640576.00000,   0.00000,   0.00000,   0.00000,-393035168.00000,   0.00000
-42317673.97355,-33267630.26074,40757321.60927,  -0.00013,  -0.00007,   0.00053,80023336.00000,   0.00000,274640576.00000,   0.00000,   0.00000,   0.00000,-394617248.00000,   0.00000
-39577878.79275,-30454406.73338,40638000.54612,  -0.00012,  -0.00006,   0.00053,78580520.00000,   0.00000,274640576.00000,   0.00000,   0.00000,   0.00000,-396060064.00000,   0.00000
-36838083.61194,-27641183.20602,40523268.75463,  -0.00011,  -0.00005,   0.00053,77344848.00000,   0.00000,274640576.00000,   0.00000,   0.00000,   0.00000,-397295728.00000,   0.00000
-34114350.88194,-24834843.58615,40403947.69148,  -0.00011,  -0.00005,   0.00053,76253904.00000,   0.00000,274640576.00000,   0.00000,   0.00000,   0.00000,-398386672.00000,   0.00000
-31390618.15195,-22028503.96628,40289215.89999,  -0.00010,  -0.00004,   0.00052,75181888.00000,   0.00000,274640576.00000,   0.00000,   0.00000,   0.00000,-399458688.00000,   0.00000
-28666885.42195,-19222164.34641,40174484.10850,  -0.00009,  -0.00003,   0.00052,74090856.00000,   0.00000,274640576.00000,   0.00000,   0.00000,   0.00000,-400549728.00000,   0.00000
-25959215.14276,-16422708.63403,40059752.31701,  -0.00009,  -0.00002,   0.00052,73026880.00000,   0.00000,274640576.00000,   0.00000,   0.00000,   0.00000,-401613696.00000,   0.00000
-23251544.86357,-13623252.92164,39945020.52552,  -0.00008,  -0.00002,   0.00052,72022264.00000,   0.00000,274640576.00000,   0.00000,   0.00000,   0.00000,-402618304.00000,   0.00000
-20543874.58438,-10823797.20926,39834878.00569,  -0.00007,  -0.00001,   0.00052,71187368.00000,   0.00000,274640576.00000,   0.00000,   0.00000,   0.00000,-403453216.00000,   0.00000
-17852266.75600,-8031225.40437,39720146.21419,  -0.00007,  -0.00000,   0.00052,70877624.00000,   0.00000,274640576.00000,   0.00000,   0.00000,   0.00000,-403762944.00000,   0.00000
-15176721.37843,-5245537.50697,39610003.69436,  -0.00006,   0.00001,   0.00051,70276768.00000,   0.00000,274640576.00000,   0.00000,   0.00000,   0.00000,-404363808.00000,   0.00000
-12485113.55005,-2452965.70208,39499861.17453,  -0.00005,   0.00001,   0.00051,70199440.00000,   0.00000,274640576.00000,   0.00000,   0.00000,   0.00000,-404441136.00000,   0.00000
-9809568.17248,332722.19532,39389718.65470,  -0.00005,   0.00002,   0.00051,70063544.00000,   0.00000,274640576.00000,   0.00000,   0.00000,   0.00000,-404577024.00000,   0.00000
-7150085.24572,3111526.18524,39279576.13487,  -0.00004,   0.00003,   0.00051,69575688.00000,   0.00000,274640576.00000,   0.00000,   0.00000,   0.00000,-405064896.00000,   0.00000
-4490602.31896,5890330.17515,39169433.61504,  -0.00003,   0.00004,   0.00051,69234424.00000,   0.00000,274640576.00000,   0.00000,   0.00000,   0.00000,-405406144.00000,   0.00000
-1831119.39220,8669134.16506,39063880.36687,  -0.00003,   0.00004,   0.00051,69093064.00000,   0.00000,274640576.00000,   0.00000,   0.00000,   0.00000,-405547520.00000,   0.00000
812301.08376,11441054.24749,38953737.84703,  -0.00002,   0.00005,   0.00051,69186200.00000,   0.00000,274640576.00000,   0.00000,   0.00000,   0.00000,-405454368.00000,   0.00000
3432775.20141,14190027.97161,38848184.59886,  -0.00001,   0.00006,   0.00051,69595288.00000,   0.00000,274640576.00000,   0.00000,   0.00000,   0.00000,-405045280.00000,   0.00000
6076195.67737,16961948.05403,38742631.35069,  -0.00001,   0.00007,   0.00050,70098536.00000,   0.00000,274640576.00000,   0.00000,   0.00000,   0.00000,-404542048.00000,   0.00000
8687491.25170,19720100.32148,38637078.10252,   0.00000,   0.00007,   0.00050,70429192.00000,   0.00000,274640576.00000,   0.00000,   0.00000,   0.00000,-404211392.00000,   0.00000
11291902.91855,22462190.13811,38536114.12601,   0.00001,   0.00008,   0.00050,70845368.00000,   0.00000,274640576.00000,   0.00000,   0.00000,   0.00000,-403795200.00000,   0.00000
13896314.58539,25204279.95475,38430560.87784,   0.00001,   0.00009,   0.00050,71416120.00000,   0.00000,274640576.00000,   0.00000,   0.00000,   0.00000,-403224448.00000,   0.00000
16491547.70892,27955548.31470,38329596.90132,   0.00002,   0.00010,   0.00050,72132640.00000,   0.00000,274640576.00000,   0.00000,   0.00000,   0.00000,-402507936.00000,   0.00000
19079896.92496,30690754.22385,38228632.92481,   0.00003,   0.00010,   0.00050,72941944.00000,   0.00000,274640576.00000,   0.00000,   0.00000,   0.00000,-401698624.00000,   0.00000
21652183.69019,33419076.22551,38127668.94830,   0.00003,   0.00011,   0.00050,73813504.00000,   0.00000,274640576.00000,   0.00000,   0.00000,   0.00000,-400827072.00000,   0.00000
24224470.45542,36147398.22716,38026704.97179,   0.00004,   0.00012,   0.00049,74729016.00000,   0.00000,274640576.00000,   0.00000,   0.00000,   0.00000,-399911552.00000,   0.00000
26780694.76984,38868836.32133,37930330.26693,   0.00005,   0.00012,   0.00049,75684608.00000,   0.00000,274640576.00000,   0.00000,   0.00000,   0.00000,-398955968.00000,   0.00000
29320856.63345,41583390.50801,37829366.29042,   0.00005,   0.00013,   0.00049,76669008.00000,   0.00000,274640576.00000,   0.00000,   0.00000,   0.00000,-397971568.00000,   0.00000
31861018.49706,44297944.69469,37732991.58557,   0.00006,   0.00014,   0.00049,77709728.00000,   0.00000,274640576.00000,   0.00000,   0.00000,   0.00000,-396930848.00000,   0.00000
34394296.45318,46996436.43056,37641206.15238,   0.00006,   0.00015,   0.00049,78812424.00000,   0.00000,274640576.00000,   0.00000,   0.00000,   0.00000,-395828160.00000,   0.00000
36918395.86598,49704106.70974,37544831.44752,   0.00007,   0.00015,   0.00049,79983368.00000,   0.00000,274640576.00000,   0.00000,   0.00000,   0.00000,-394657216.00000,   0.00000
39419548.92049,52388830.63063,37448456.74267,   0.00008,   0.00016,   0.00049,81222408.00000,   0.00000,274640576.00000,   0.00000,   0.00000,   0.00000,-393418176.00000,   0.00000
41920701.97499,55073554.55152,37356671.30948,   0.00008,   0.00017,   0.00049,82550576.00000,   0.00000,274640576.00000,   0.00000,   0.00000,   0.00000,-392090000.00000,   0.00000
44405792.57869,57751394.56493,37264885.87629,   0.00009,   0.00018,   0.00048,83954832.00000,   0.00000,274640576.00000,   0.00000,   0.00000,   0.00000,-390685744.00000,   0.00000
46874820.73158,60422350.67084,37177689.71475,   0.00010,   0.00018,   0.00048,85436584.00000,   0.00000,274640576.00000,   0.00000,   0.00000,   0.00000,-389204000.00000,   0.00000
49343848.88446,63093306.77675,37085904.28156,   0.00010,   0.00019,   0.00048,86983104.00000,   0.00000,274640576.00000,   0.00000,   0.00000,   0.00000,-387657472.00000,   0.00000
51812877.03735,65764262.88266,36998708.12003,   0.00011,   0.00020,   0.00048,88599120.00000,   0.00000,274640576.00000,   0.00000,   0.00000,   0.00000,-386041456.00000,   0.00000
54242896.38113,68405388.72278,36911511.95849,   0.00011,   0.00021,   0.00048,90247960.00000,   0.00000,274640576.00000,   0.00000,   0.00000,   0.00000,-384392608.00000,   0.00000
56672915.72491,71046514.56291,36824315.79696,   0.00012,   0.00021,   0.00048,91943496.00000,   0.00000,274640576.00000,   0.00000,   0.00000,   0.00000,-382697088.00000,   0.00000
59109818.97618,73703702.85384,36737119.63543,   0.00013,   0.00022,   0.00048,93688088.00000,   0.00000,274640576.00000,   0.00000,   0.00000,   0.00000,-380952480.00000,   0.00000
61507713.41834,76331060.87898,36654512.74555,   0.00013,   0.00023,   0.00048,95447384.00000,   0.00000,274640576.00000,   0.00000,   0.00000,   0.00000,-379193184.00000,   0.00000
63914786.40382,78949240.36081,36571905.85568,   0.00014,   0.00023,   0.00048,97232848.00000,   0.00000,274640576.00000,   0.00000,   0.00000,   0.00000,-377407728.00000,   0.00000
66296618.39518,81569714.47846,36489298.96581,   0.00014,   0.00024,   0.00047,99036288.00000,   0.00000,274640576.00000,   0.00000,   0.00000,   0.00000,-375604288.00000,   0.00000
68671566.47904,84174126.14531,36411281.34759,   0.00015,   0.00025,   0.00047,100855016.00000,   0.00000,274640576.00000,   0.00000,   0.00000,   0.00000,-373785568.00000,   0.00000
71037336.01959,86787716.35548,36333263.72938,   0.00015,   0.00026,   0.00047,102686344.00000,   0.00000,274640576.00000,   0.00000,   0.00000,   0.00000,-371954240.00000,   0.00000
73380159.20183,89378360.20734,36255246.11117,   0.00016,   0.00026,   0.00047,104488224.00000,   0.00000,274640576.00000,   0.00000,   0.00000,   0.00000,-370152352.00000,   0.00000
75716098.47659,91952941.60840,36177228.49295,   0.00017,   0.00027,   0.00047,106228224.00000,   0.00000,274640576.00000,   0.00000,   0.00000,   0.00000,-368412352.00000,   0.00000
78042859.20803,94536701.55278,36103800.14640,   0.00017,   0.00028,   0.00047,107987328.00000,   0.00000,274640576.00000,   0.00000,   0.00000,   0.00000,-366653248.00000,   0.00000
80369619.93947,97120461.49716,36025782.52818,   0.00018,   0.00029,   0.00047,109850416.00000,   0.00000,274640576.00000,   0.00000,   0.00000,   0.00000,-364790160.00000,   0.00000
82657371.86180,99674391.17575,35952354.18163,   0.00018,   0.00029,   0.00047,111766184.00000,   0.00000,274640576.00000,   0.00000,   0.00000,   0.00000,-362874400.00000,   0.00000
84945123.78413,102228320.85434,35883515.10673,   0.00019,   0.00030,   0.00047,113725424.00000,   0.00000,274640576.00000,   0.00000,   0.00000,   0.00000,-360915152.00000,   0.00000
87232875.70646,104782250.53293,35814676.03184,   0.00019,   0.00031,   0.00047,115709032.00000,   0.00000,274640576.00000,   0.00000,   0.00000,   0.00000,-358931552.00000,   0.00000
89481618.81969,107306349.94573,35745836.95695,   0.00020,   0.00031,   0.00046,117676656.00000,   0.00000,274640576.00000,   0.00000,   0.00000,   0.00000,-356963920.00000,   0.00000
91730361.93291,109830449.35853,35676997.88205,   0.00020,   0.00032,   0.00046,119648000.00000,   0.00000,274640576.00000,   0.00000,   0.00000,   0.00000,-354992576.00000,   0.00000
93969926.50281,112363727.31466,35612748.07882,   0.00021,   0.00033,   0.00046,121634688.00000,   0.00000,274640576.00000,   0.00000,   0.00000,   0.00000,-353005888.00000,   0.00000
96179660.80693,114857996.46167,35543909.00392,   0.00021,   0.00034,   0.00046,123605648.00000,   0.00000,274640576.00000,   0.00000,   0.00000,   0.00000,-351034928.00000,   0.00000
98396279.01854,117368328.05950,35484248.47235,   0.00022,   0.00034,   0.00046,125617488.00000,   0.00000,274640576.00000,   0.00000,   0.00000,   0.00000,-349023088.00000,   0.00000
100589950.87185,119855713.29902,35419998.66911,   0.00022,   0.00035,   0.00046,127623776.00000,   0.00000,274640576.00000,   0.00000,   0.00000,   0.00000,-347016800.00000,   0.00000
102774444.18184,122352277.08187,35360338.13754,   0.00023,   0.00036,   0.00046,129650792.00000,   0.00000,274640576.00000,   0.00000,   0.00000,   0.00000,-344989792.00000,   0.00000
104929107.22604,124809832.05560,35300677.60596,   0.00023,   0.00036,   0.00046,131657968.00000,   0.00000,274640576.00000,   0.00000,   0.00000,   0.00000,-342982608.00000,   0.00000
107090654.17773,127283449.48015,35245606.34604,   0.00024,   0.00037,   0.00046,133689328.00000,   0.00000,274640576.00000,   0.00000,   0.00000,   0.00000,-340951248.00000,   0.00000
109229254.77112,129734120.54640,35185945.81447,   0.00024,   0.00038,   0.00046,135704864.00000,   0.00000,274640576.00000,   0.00000,   0.00000,   0.00000,-338935712.00000,   0.00000
111351792.91371,132177907.70516,35135463.82621,   0.00025,   0.00038,   0.00046,137725504.00000,   0.00000,274640576.00000,   0.00000,   0.00000,   0.00000,-336915072.00000,   0.00000
113458268.60548,134614810.95643,35080392.56630,   0.00025,   0.00039,   0.00046,139739936.00000,   0.00000,274640576.00000,   0.00000,   0.00000,   0.00000,-334900640.00000,   0.00000
115548681.84645,137044830.30021,35029910.57804,   0.00026,   0.00040,   0.00046,141754832.00000,   0.00000,274640576.00000,   0.00000,   0.00000,   0.00000,-332885744.00000,   0.00000
117632211.17992,139458787.19318,34979428.58979,   0.00026,   0.00041,   0.00045,143764448.00000,   0.00000,274640576.00000,   0.00000,   0.00000,   0.00000,-330876128.00000,   0.00000
119699678.06259,141865860.17866,34928946.60153,   0.00027,   0.00041,   0.00045,145770608.00000,   0.00000,274640576.00000,   0.00000,   0.00000,   0.00000,-328869968.00000,   0.00000
121751082.49445,144266049.25665,34883053.88493,   0.00027,   0.00042,   0.00045,147777136.00000,   0.00000,274640576.00000,   0.00000,   0.00000,   0.00000,-326863440.00000,   0.00000
123779540.56801,146643291.97635,34837161.16834,   0.00028,   0.00043,   0.00045,149768688.00000,   0.00000,274640576.00000,   0.00000,   0.00000,   0.00000,-324871888.00000,   0.00000
125807998.64158,149020534.69604,34795857.72340,   0.00028,   0.00043,   0.00045,151769424.00000,   0.00000,274640576.00000,   0.00000,   0.00000,   0.00000,-322871152.00000,   0.00000
127804331.81352,151384009.60076,34754554.27846,   0.00029,   0.00044,   0.00045,153757328.00000,   0.00000,274640576.00000,   0.00000,   0.00000,   0.00000,-320883248.00000,   0.00000
129800664.98546,153747484.50547,34713250.83353,   0.00029,   0.00045,   0.00045,155750992.00000,   0.00000,274640576.00000,   0.00000,   0.00000,   0.00000,-318889584.00000,   0.00000
131774051.79911,156088013.05189,34676536.66025,   0.00030,   0.00045,   0.00045,157732336.00000,   0.00000,274640576.00000,   0.00000,   0.00000,   0.00000,-316908240.00000,   0.00000
133731376.16195,158421657.69082,34635233.21531,   0.00030,   0.00046,   0.00045,159706768.00000,   0.00000,274640576.00000,   0.00000,   0.00000,   0.00000,-314933808.00000,   0.00000
135672638.07397,160748418.42225,34603108.31369,   0.00030,   0.00047,   0.00045,161682672.00000,   0.00000,274640576.00000,   0.00000,   0.00000,   0.00000,-312957904.00000,   0.00000
137607016.07851,163059116.70288,34566394.14042,   0.00031,   0.00047,   0.00045,163648768.00000,   0.00000,274640576.00000,   0.00000,   0.00000,   0.00000,-310991808.00000,   0.00000
139509269.18143,165356047.16853,34538858.51046,   0.00031,   0.00048,   0.00045,165606208.00000,   0.00000,274640576.00000,   0.00000,   0.00000,   0.00000,-309034368.00000,   0.00000
141411522.28436,167652977.63418,34506733.60884,   0.00032,   0.00049,   0.00045,167565152.00000,   0.00000,274640576.00000,   0.00000,   0.00000,   0.00000,-307075424.00000,   0.00000
143290829.02898,169926961.74154,34479197.97888,   0.00032,   0.00049,   0.00045,169510112.00000,   0.00000,274640576.00000,   0.00000,   0.00000,   0.00000,-305130464.00000,   0.00000
145154073.32279,172194061.94140,34451662.34893,   0.00032,   0.00050,   0.00045,171449968.00000,   0.00000,274640576.00000,   0.00000,   0.00000,   0.00000,-303190608.00000,   0.00000
147001255.16580,174454278.23377,34428715.99063,   0.00033,   0.00051,   0.00045,173387920.00000,   0.00000,274640576.00000,   0.00000,   0.00000,   0.00000,-301252656.00000,   0.00000
148848437.00880,176714494.52615,34405769.63233,   0.00033,   0.00051,   0.00045,175331072.00000,   0.00000,274640576.00000,   0.00000,   0.00000,   0.00000,-299309504.00000,   0.00000
150656610.04270,178944880.55273,34382823.27403,   0.00034,   0.00052,   0.00045,177248784.00000,   0.00000,274640576.00000,   0.00000,   0.00000,   0.00000,-297391792.00000,   0.00000
152457899.16911,181159204.12851,34364466.18739,   0.00034,   0.00053,   0.00045,179162384.00000,   0.00000,274640576.00000,   0.00000,   0.00000,   0.00000,-295478192.00000,   0.00000
154233947.30139,183375822.34012,34346109.10076,   0.00034,   0.00053,   0.00045,181071424.00000,   0.00000,274640576.00000,   0.00000,   0.00000,   0.00000,-293569152.00000,   0.00000
156003111.52619,185576378.10091,34332341.28578,   0.00035,   0.00054,   0.00045,182971808.00000,   0.00000,274640576.00000,   0.00000,   0.00000,   0.00000,-291668768.00000,   0.00000
157756213.30017,187770049.95422,34318573.47080,   0.00035,   0.00055,   0.00045,184859424.00000,   0.00000,274640576.00000,   0.00000,   0.00000,   0.00000,-289781152.00000,   0.00000
159486368.71585,189940775.44923,34304805.65582,   0.00036,   0.00055,   0.00045,186722256.00000,   0.00000,274640576.00000,   0.00000,   0.00000,   0.00000,-287918320.00000,   0.00000
161200461.68073,192104617.03675,34295627.11250,   0.00036,   0.00056,   0.00045,188577712.00000,   0.00000,274640576.00000,   0.00000,   0.00000,   0.00000,-286062864.00000,   0.00000
162898492.19480,194261574.71678,34286448.56918,   0.00036,   0.00057,   0.00045,190428192.00000,   0.00000,274640576.00000,   0.00000,   0.00000,   0.00000,-284212384.00000,   0.00000
164589638.80137,196402469.94601,34281859.29752,   0.00037,   0.00057,   0.00045,192276096.00000,   0.00000,274640576.00000,   0.00000,   0.00000,   0.00000,-282364480.00000,   0.00000
166248660.50633,198529597.36025,34277270.02586,   0.00037,   0.00058,   0.00045,194110432.00000,   0.00000,274640576.00000,   0.00000,   0.00000,   0.00000,-280530144.00000,   0.00000
167907682.21129,200656724.77449,34277270.02586,   0.00037,   0.00059,   0.00045,195950448.00000,   0.00000,274640576.00000,   0.00000,   0.00000,   0.00000,-278690128.00000,   0.00000
169543757.55796,202760905.83044,34277270.02586,   0.00038,   0.00059,   0.00045,197771680.00000,   0.00000,274640576.00000,   0.00000,   0.00000,   0.00000,-276868896.00000,   0.00000
171147708.00300,204851319.07141,34277270.02586,   0.00038,   0.00060,   0.00045,199576864.00000,   0.00000,274640576.00000,   0.00000,   0.00000,   0.00000,-275063712.00000,   0.00000
172744774.54056,206925669.86156,34281859.29752,   0.00038,   0.00060,   0.00045,201375920.00000,   0.00000,274640576.00000,   0.00000,   0.00000,   0.00000,-273264656.00000,   0.00000
174325778.62730,208993136.74423,34286448.56918,   0.00039,   0.00061,   0.00045,203167936.00000,   0.00000,274640576.00000,   0.00000,   0.00000,   0.00000,-271472640.00000,   0.00000
175890720.26324,211053719.71941,34295627.11250,   0.00039,   0.00062,   0.00045,204954096.00000,   0.00000,274640576.00000,   0.00000,   0.00000,   0.00000,-269686480.00000,   0.00000
177439599.44837,213107418.78710,34304805.65582,   0.00039,   0.00062,   0.00045,206731024.00000,   0.00000,274640576.00000,   0.00000,   0.00000,   0.00000,-267909552.00000,   0.00000
178965532.27520,215138171.49649,34318573.47080,   0.00039,   0.00063,   0.00045,208486336.00000,   0.00000,274640576.00000,   0.00000,   0.00000,   0.00000,-266154240.00000,   0.00000
180468518.74373,217145977.84759,34332341.28578,   0.00040,   0.00064,   0.00045,210210176.00000,   0.00000,274640576.00000,   0.00000,   0.00000,   0.00000,-264430400.00000,   0.00000
181978389.11975,219169846.64949,34350698.37241,   0.00040,   0.00064,   0.00045,211943888.00000,   0.00000,274640576.00000,   0.00000,   0.00000,   0.00000,-262696688.00000,   0.00000
183442366.77918,221147822.73479,34369055.45905,   0.00040,   0.00065,   0.00045,213692128.00000,   0.00000,274640576.00000,   0.00000,   0.00000,   0.00000,-260948448.00000,   0.00000
184913228.34610,223141861.27091,34387412.54569,   0.00041,   0.00065,   0.00045,215504976.00000,   0.00000,274640576.00000,   0.00000,   0.00000,   0.00000,-259135600.00000,   0.00000
186345081.10390,225106069.54123,34410358.90399,   0.00041,   0.00066,   0.00045,217250496.00000,   0.00000,274640576.00000,   0.00000,   0.00000,   0.00000,-257390080.00000,   0.00000
187776933.86171,227070277.81156,34437894.53395,   0.00041,   0.00067,   0.00045,218970208.00000,   0.00000,274640576.00000,   0.00000,   0.00000,   0.00000,-255670368.00000,   0.00000
189169777.81041,229004655.81610,34465430.16391,   0.00041,   0.00067,   0.00045,220650192.00000,   0.00000,274640576.00000,   0.00000,   0.00000,   0.00000,-253990384.00000,   0.00000
190562621.75911,230939033.82064,34492965.79386,   0.00042,   0.00068,   0.00045,222326320.00000,   0.00000,274640576.00000,   0.00000,   0.00000,   0.00000,-252314256.00000,   0.00000
191932519.34952,232850465.46688,34525090.69548,   0.00042,   0.00069,   0.00045,223980192.00000,   0.00000,274640576.00000,   0.00000,   0.00000,   0.00000,-250660384.00000,   0.00000
193293238.39660,234771075.65644,34557215.59710,   0.00042,   0.00069,   0.00045,225634496.00000,   0.00000,274640576.00000,   0.00000,   0.00000,   0.00000,-249006080.00000,   0.00000
194624127.17790,236652677.03689,34593929.77038,   0.00042,   0.00070,   0.00045,227255776.00000,   0.00000,274640576.00000,   0.00000,   0.00000,   0.00000,-247384800.00000,   0.00000
195945837.41587,238543456.96066,34635233.21531,   0.00043,   0.00070,   0.00045,228881152.00000,   0.00000,274640576.00000,   0.00000,   0.00000,   0.00000,-245759424.00000,   0.00000
197237717.38806,240395228.07533,34676536.66025,   0.00043,   0.00071,   0.00045,230472352.00000,   0.00000,274640576.00000,   0.00000,   0.00000,   0.00000,-244168224.00000,   0.00000
198520418.81693,242256177.73331,34717840.10519,   0.00043,   0.00072,   0.00045,232066080.00000,   0.00000,274640576.00000,   0.00000,   0.00000,   0.00000,-242574496.00000,   0.00000
199780173.88750,244094181.03300,34763732.82178,   0.00043,   0.00072,   0.00045,233640192.00000,   0.00000,274640576.00000,   0.00000,   0.00000,   0.00000,-241000384.00000,   0.00000
201023866.50727,245925300.42520,34809625.53838,   0.00044,   0.00073,   0.00045,235205040.00000,   0.00000,274640576.00000,   0.00000,   0.00000,   0.00000,-239435536.00000,   0.00000
202244612.76873,247733473.45909,34860107.52663,   0.00044,   0.00073,   0.00045,236750416.00000,   0.00000,274640576.00000,   0.00000,   0.00000,   0.00000,-237890160.00000,   0.00000
203449296.57939,249534762.58550,34915178.78655,   0.00044,   0.00074,   0.00045,238288736.00000,   0.00000,274640576.00000,   0.00000,   0.00000,   0.00000,-236351840.00000,   0.00000
204647096.48255,251319989.26110,34970250.04647,   0.00044,   0.00074,   0.00045,239814976.00000,   0.00000,274640576.00000,   0.00000,   0.00000,   0.00000,-234825600.00000,   0.00000
205812771.48410,253091448.12173,35025321.30638,   0.00044,   0.00075,   0.00046,241322528.00000,   0.00000,274640576.00000,   0.00000,   0.00000,   0.00000,-233318048.00000,   0.00000
206962384.03484,254856023.07486,35084981.83796,   0.00044,   0.00076,   0.00046,242823024.00000,   0.00000,274640576.00000,   0.00000,   0.00000,   0.00000,-231817552.00000,   0.00000
208105112.67809,256604535.57718,35149231.64119,   0.00045,   0.00076,   0.00046,244313648.00000,   0.00000,274640576.00000,   0.00000,   0.00000,   0.00000,-230326928.00000,   0.00000
209215716.41973,258339280.26453,35213481.44443,   0.00045,   0.00077,   0.00046,245785536.00000,   0.00000,274640576.00000,   0.00000,   0.00000,   0.00000,-228855040.00000,   0.00000
210319436.25387,260057962.50106,35277731.24766,   0.00045,   0.00077,   0.00046,247245584.00000,   0.00000,274640576.00000,   0.00000,   0.00000,   0.00000,-227394992.00000,   0.00000
211407093.63720,261769760.83011,35346570.32256,   0.00045,   0.00078,   0.00046,248698608.00000,   0.00000,274640576.00000,   0.00000,   0.00000,   0.00000,-225941968.00000,   0.00000
212462626.11892,263467791.34417,35419998.66911,   0.00045,   0.00078,   0.00046,250135120.00000,   0.00000,274640576.00000,   0.00000,   0.00000,   0.00000,-224505456.00000,   0.00000
213511274.69315,265149759.40743,35493427.01567,   0.00045,   0.00079,   0.00046,251559760.00000,   0.00000,274640576.00000,   0.00000,   0.00000,   0.00000,-223080816.00000,   0.00000
214536976.90908,266808781.11239,35571444.63388,   0.00046,   0.00080,   0.00046,252965072.00000,   0.00000,274640576.00000,   0.00000,   0.00000,   0.00000,-221675504.00000,   0.00000
215553500.58169,268476981.36067,35649462.25209,   0.00046,   0.00080,   0.00046,254374032.00000,   0.00000,274640576.00000,   0.00000,   0.00000,   0.00000,-220266544.00000,   0.00000
216524131.53770,270099288.89236,35732069.14197,   0.00046,   0.00081,   0.00046,255741840.00000,   0.00000,274640576.00000,   0.00000,   0.00000,   0.00000,-218898736.00000,   0.00000
217501646.40121,271737658.87485,35814676.03184,   0.00046,   0.00081,   0.00047,257122976.00000,   0.00000,274640576.00000,   0.00000,   0.00000,   0.00000,-217517600.00000,   0.00000
218456214.90641,273353082.49904,35901872.19337,   0.00046,   0.00082,   0.00047,258485120.00000,   0.00000,274640576.00000,   0.00000,   0.00000,   0.00000,-216155456.00000,   0.00000
219387837.05332,274945559.76494,35993657.62657,   0.00046,   0.00082,   0.00047,259828320.00000,   0.00000,274640576.00000,   0.00000,   0.00000,   0.00000,-214812256.00000,   0.00000
220303396.74942,276531153.12334,36085443.05976,   0.00046,   0.00083,   0.00047,261162896.00000,   0.00000,274640576.00000,   0.00000,   0.00000,   0.00000,-213477680.00000,   0.00000
221202893.99471,278109862.57426,36181817.76461,   0.00046,   0.00083,   0.00047,262491184.00000,   0.00000,274640576.00000,   0.00000,   0.00000,   0.00000,-212149392.00000,   0.00000
222095507.33251,279672509.57437,36278192.46946,   0.00047,   0.00084,   0.00047,263807936.00000,   0.00000,274640576.00000,   0.00000,   0.00000,   0.00000,-210832640.00000,   0.00000
222955995.76869,281221388.75950,36379156.44598,   0.00047,   0.00084,   0.00047,265108992.00000,   0.00000,274640576.00000,   0.00000,   0.00000,   0.00000,-209531584.00000,   0.00000
223793537.84658,282747321.58633,36480120.42249,   0.00047,   0.00085,   0.00047,266389040.00000,   0.00000,274640576.00000,   0.00000,   0.00000,   0.00000,-208251536.00000,   0.00000
224615017.47365,284266370.50567,36585673.67066,   0.00047,   0.00086,   0.00048,267662848.00000,   0.00000,274640576.00000,   0.00000,   0.00000,   0.00000,-206977728.00000,   0.00000
225429613.19324,285769356.97420,36695816.19049,   0.00047,   0.00086,   0.00048,268926816.00000,   0.00000,274640576.00000,   0.00000,   0.00000,   0.00000,-205713760.00000,   0.00000
226212084.01121,287258575.62775,36805958.71032,   0.00047,   0.00087,   0.00048,270173248.00000,   0.00000,274640576.00000,   0.00000,   0.00000,   0.00000,-204467328.00000,   0.00000
226994554.82918,288747794.28131,36916101.23015,   0.00047,   0.00087,   0.00048,271420384.00000,   0.00000,274640576.00000,   0.00000,   0.00000,   0.00000,-203220192.00000,   0.00000
227738016.83804,290207182.66907,37035422.29330,   0.00047,   0.00088,   0.00048,272641024.00000,   0.00000,274640576.00000,   0.00000,   0.00000,   0.00000,-201999552.00000,   0.00000
228481478.84690,291666571.05684,37154743.35646,   0.00047,   0.00088,   0.00048,273862176.00000,   0.00000,274640576.00000,   0.00000,   0.00000,   0.00000,-200778400.00000,   0.00000
229201994.49746,293103013.08631,37274064.41961,   0.00047,   0.00089,   0.00048,275062368.00000,   0.00000,274640576.00000,   0.00000,   0.00000,   0.00000,-199578208.00000,   0.00000
229890385.24641,294525687.30080,37397974.75442,   0.00047,   0.00089,   0.00049,276246304.00000,   0.00000,274640576.00000,   0.00000,   0.00000,   0.00000,-198394272.00000,   0.00000
230571892.08787,295932299.06448,37526474.36089,   0.00047,   0.00090,   0.00049,277420160.00000,   0.00000,274640576.00000,   0.00000,   0.00000,   0.00000,-197220416.00000,   0.00000
231237336.47851,297332026.92067,37654973.96736,   0.00047,   0.00090,   0.00049,278585056.00000,   0.00000,274640576.00000,   0.00000,   0.00000,   0.00000,-196055520.00000,   0.00000
231886718.41835,298724870.86937,37788062.84549,   0.00047,   0.00091,   0.00049,279743104.00000,   0.00000,274640576.00000,   0.00000,   0.00000,   0.00000,-194897472.00000,   0.00000
232513153.99989,300094768.45977,37925740.99528,   0.00047,   0.00091,   0.00049,280881568.00000,   0.00000,274640576.00000,   0.00000,   0.00000,   0.00000,-193759008.00000,   0.00000
233116643.22314,301441719.69188,38063419.14506,   0.00047,   0.00092,   0.00049,281998400.00000,   0.00000,274640576.00000,   0.00000,   0.00000,   0.00000,-192642176.00000,   0.00000
233704069.99557,302781787.01649,38205686.56651,   0.00047,   0.00092,   0.00050,283108256.00000,   0.00000,274640576.00000,   0.00000,   0.00000,   0.00000,-191532320.00000,   0.00000
234291496.76801,304121854.34111,38347953.98796,   0.00047,   0.00093,   0.00050,284218272.00000,   0.00000,274640576.00000,   0.00000,   0.00000,   0.00000,-190422304.00000,   0.00000
234839914.73133,305432091.39993,38494810.68107,   0.00047,   0.00093,   0.00050,285299584.00000,   0.00000,274640576.00000,   0.00000,   0.00000,   0.00000,-189340992.00000,   0.00000
235388332.69466,306742328.45876,38646256.64584,   0.00047,   0.00094,   0.00050,286382656.00000,   0.00000,274640576.00000,   0.00000,   0.00000,   0.00000,-188257920.00000,   0.00000
235897741.84888,308022735.25180,38797702.61061,   0.00047,   0.00094,   0.00050,287435264.00000,   0.00000,274640576.00000,   0.00000,   0.00000,   0.00000,-187205312.00000,   0.00000
236407151.00310,309303142.04484,38953737.84703,   0.00047,   0.00095,   0.00051,288490016.00000,   0.00000,274640576.00000,   0.00000,   0.00000,   0.00000,-186150560.00000,   0.00000
236884435.25570,310569781.02290,39114362.35512,   0.00047,   0.00095,   0.00051,289528672.00000,   0.00000,274640576.00000,   0.00000,   0.00000,   0.00000,-185111904.00000,   0.00000
237354835.60082,311820357.55015,39274986.86321,   0.00047,   0.00096,   0.00051,290554912.00000,   0.00000,274640576.00000,   0.00000,   0.00000,   0.00000,-184085664.00000,   0.00000
237802289.58763,313047987.71911,39440200.64296,   0.00047,   0.00096,   0.00051,291561792.00000,   0.00000,274640576.00000,   0.00000,   0.00000,   0.00000,-183078784.00000,   0.00000
238233681.12364,314268733.98057,39605414.42270,   0.00047,   0.00097,   0.00051,292559904.00000,   0.00000,274640576.00000,   0.00000,   0.00000,   0.00000,-182080672.00000,   0.00000
238649010.20883,315482596.33455,39775217.47411,   0.00047,   0.00097,   0.00052,293551360.00000,   0.00000,274640576.00000,   0.00000,   0.00000,   0.00000,-181089216.00000,   0.00000
239041392.93573,316673512.33023,39949609.79718,   0.00047,   0.00097,   0.00052,294523456.00000,   0.00000,274640576.00000,   0.00000,   0.00000,   0.00000,-180117120.00000,   0.00000
239433775.66263,317864428.32590,40124002.12024,   0.00047,   0.00098,   0.00052,295496256.00000,   0.00000,274640576.00000,   0.00000,   0.00000,   0.00000,-179144320.00000,   0.00000
239794033.48792,319041576.50660,40302983.71497,   0.00047,   0.00098,   0.00052,296453472.00000,   0.00000,274640576.00000,   0.00000,   0.00000,   0.00000,-178187104.00000,   0.00000
240140523.49822,320186599.78568,40486554.58136,   0.00047,   0.00099,   0.00053,297388064.00000,   0.00000,274640576.00000,   0.00000,   0.00000,   0.00000,-177252512.00000,   0.00000
240461772.51439,321333917.70059,40674714.71940,   0.00047,   0.00099,   0.00053,298320064.00000,   0.00000,274640576.00000,   0.00000,   0.00000,   0.00000,-176320512.00000,   0.00000
240776137.62308,322465173.16469,40862874.85745,   0.00047,   0.00100,   0.00053,299240288.00000,   0.00000,274640576.00000,   0.00000,   0.00000,   0.00000,-175400288.00000,   0.00000
241074440.28096,323589544.72131,41051034.99549,   0.00047,   0.00100,   0.00053,300152448.00000,   0.00000,274640576.00000,   0.00000,   0.00000,   0.00000,-174488128.00000,   0.00000
241349796.58053,324690969.91962,41248373.67686,   0.00046,   0.00101,   0.00054,301047936.00000,   0.00000,274640576.00000,   0.00000,   0.00000,   0.00000,-173592640.00000,   0.00000
241602206.52181,325769448.75963,41445712.35822,   0.00046,   0.00101,   0.00054,301922816.00000,   0.00000,274640576.00000,   0.00000,   0.00000,   0.00000,-172717760.00000,   0.00000
241861500.37058,326863990.05046,41647640.31124,   0.00046,   0.00102,   0.00054,302813344.00000,   0.00000,274640576.00000,   0.00000,   0.00000,   0.00000,-171827232.00000,   0.00000
242074901.50276,327912638.62469,41849568.26427,   0.00046,   0.00102,   0.00054,303662048.00000,   0.00000,274640576.00000,   0.00000,   0.00000,   0.00000,-170978528.00000,   0.00000
242295186.54242,328977349.64972,42056085.48895,   0.00046,   0.00102,   0.00055,304526752.00000,   0.00000,274640576.00000,   0.00000,   0.00000,   0.00000,-170113824.00000,   0.00000
242476462.77298,330012230.40897,42267191.98530,   0.00046,   0.00103,   0.00055,305364192.00000,   0.00000,274640576.00000,   0.00000,   0.00000,   0.00000,-169276384.00000,   0.00000
242650855.09604,331031048.71741,42478298.48164,   0.00046,   0.00103,   0.00055,306190336.00000,   0.00000,274640576.00000,   0.00000,   0.00000,   0.00000,-168450240.00000,   0.00000
242809184.96830,332042983.11836,42698583.52130,   0.00046,   0.00104,   0.00056,307012896.00000,   0.00000,274640576.00000,   0.00000,   0.00000,   0.00000,-167627680.00000,   0.00000
242967514.84056,333054917.51932,42914279.28931,   0.00046,   0.00104,   0.00056,307834944.00000,   0.00000,274640576.00000,   0.00000,   0.00000,   0.00000,-166805632.00000,   0.00000
243086835.90371,334037021.65448,43139153.60063,   0.00045,   0.00105,   0.00056,308632256.00000,   0.00000,274640576.00000,   0.00000,   0.00000,   0.00000,-166008320.00000,   0.00000
243190094.51605,335012241.88215,43364027.91195,   0.00045,   0.00105,   0.00056,309422528.00000,   0.00000,274640576.00000,   0.00000,   0.00000,   0.00000,-165218048.00000,   0.00000
243286469.22090,335971399.65902,43593491.49493,   0.00045,   0.00105,   0.00057,310203424.00000,   0.00000,274640576.00000,   0.00000,   0.00000,   0.00000,-164437152.00000,   0.00000
243366781.47495,336923673.52839,43827544.34957,   0.00045,   0.00106,   0.00057,310979168.00000,   0.00000,274640576.00000,   0.00000,   0.00000,   0.00000,-163661408.00000,   0.00000
243431031.27818,337869063.49028,44061597.20422,   0.00045,   0.00106,   0.00057,311747968.00000,   0.00000,274640576.00000,   0.00000,   0.00000,   0.00000,-162892608.00000,   0.00000
243472334.72312,338791507.09387,44300239.33052,   0.00045,   0.00107,   0.00058,312499040.00000,   0.00000,274640576.00000,   0.00000,   0.00000,   0.00000,-162141536.00000,   0.00000
243506754.26057,339697888.24665,44543470.72848,   0.00045,   0.00107,   0.00058,313240768.00000,   0.00000,274640576.00000,   0.00000,   0.00000,   0.00000,-161399808.00000,   0.00000
243509048.89639,340590501.58445,44786702.12644,   0.00044,   0.00107,   0.00058,313967168.00000,   0.00000,274640576.00000,   0.00000,   0.00000,   0.00000,-160673408.00000,   0.00000
243511343.53222,341483114.92225,45034522.79606,   0.00044,   0.00108,   0.00059,314697280.00000,   0.00000,274640576.00000,   0.00000,   0.00000,   0.00000,-159943296.00000,   0.00000
243490691.80976,342352781.90175,45286932.73734,   0.00044,   0.00108,   0.00059,315409728.00000,   0.00000,274640576.00000,   0.00000,   0.00000,   0.00000,-159230848.00000,   0.00000
243470040.08729,343222448.88125,45543931.95028,   0.00044,   0.00109,   0.00059,316125824.00000,   0.00000,274640576.00000,   0.00000,   0.00000,   0.00000,-158514752.00000,   0.00000
243417263.46320,344078348.04577,45800931.16322,   0.00044,   0.00109,   0.00060,316826944.00000,   0.00000,274640576.00000,   0.00000,   0.00000,   0.00000,-157813632.00000,   0.00000
243357602.93163,344918184.75949,46062519.64782,   0.00043,   0.00109,   0.00060,317518784.00000,   0.00000,274640576.00000,   0.00000,   0.00000,   0.00000,-157121792.00000,   0.00000
243274996.04175,345735075.11490,46328697.40408,   0.00043,   0.00110,   0.00060,318193120.00000,   0.00000,274640576.00000,   0.00000,   0.00000,   0.00000,-156447456.00000,   0.00000
243183210.60856,346561144.01364,46594875.16034,   0.00043,   0.00110,   0.00061,318873824.00000,   0.00000,274640576.00000,   0.00000,   0.00000,   0.00000,-155766752.00000,   0.00000
243061594.90958,347348204.10327,46865642.18826,   0.00043,   0.00111,   0.00061,319524096.00000,   0.00000,274640576.00000,   0.00000,   0.00000,   0.00000,-155116480.00000,   0.00000
242946863.11809,348151326.64371,47140998.48783,   0.00043,   0.00111,   0.00061,320191040.00000,   0.00000,274640576.00000,   0.00000,   0.00000,   0.00000,-154449536.00000,   0.00000
242809184.96830,348931502.82584,47420944.05907,   0.00042,   0.00111,   0.00062,320840544.00000,   0.00000,274640576.00000,   0.00000,   0.00000,   0.00000,-153800032.00000,   0.00000
242648560.46021,349688732.64968,47700889.63031,   0.00042,   0.00112,   0.00062,321470752.00000,   0.00000,274640576.00000,   0.00000,   0.00000,   0.00000,-153169824.00000,   0.00000
242471873.50132,350439078.56604,47985424.47321,   0.00042,   0.00112,   0.00062,322096448.00000,   0.00000,274640576.00000,   0.00000,   0.00000,   0.00000,-152544128.00000,   0.00000
242295186.54242,351189424.48239,48274548.58777,   0.00042,   0.00113,   0.00063,322726016.00000,   0.00000,274640576.00000,   0.00000,   0.00000,   0.00000,-151914560.00000,   0.00000
242095553.22523,351916824.04044,48568261.97398,   0.00042,   0.00113,   0.00063,323338304.00000,   0.00000,274640576.00000,   0.00000,   0.00000,   0.00000,-151302272.00000,   0.00000
241879857.45722,352637339.69100,48861975.36020,   0.00041,   0.00113,   0.00064,323944160.00000,   0.00000,274640576.00000,   0.00000,   0.00000,   0.00000,-150696416.00000,   0.00000
241648099.23841,353350971.43408,49160278.01808,   0.00041,   0.00114,   0.00064,324545664.00000,   0.00000,274640576.00000,   0.00000,   0.00000,   0.00000,-150094912.00000,   0.00000
241409457.11211,354048540.72634,49463169.94761,   0.00041,   0.00114,   0.00064,325138240.00000,   0.00000,274640576.00000,   0.00000,   0.00000,   0.00000,-149502336.00000,   0.00000
241147868.62751,354723163.66031,49770651.14881,   0.00041,   0.00114,   0.00065,325713600.00000,   0.00000,274640576.00000,   0.00000,   0.00000,   0.00000,-148926976.00000,   0.00000
240877101.59959,355406965.13760,50078132.35001,   0.00040,   0.00115,   0.00065,326295872.00000,   0.00000,274640576.00000,   0.00000,   0.00000,   0.00000,-148344704.00000,   0.00000
240592566.75669,356058641.71327,50390202.82286,   0.00040,   0.00115,   0.00066,326856000.00000,   0.00000,274640576.00000,   0.00000,   0.00000,   0.00000,-147784576.00000,   0.00000
240298853.37048,356719496.83226,50706862.56738,   0.00040,   0.00115,   0.00066,327425184.00000,   0.00000,274640576.00000,   0.00000,   0.00000,   0.00000,-147215392.00000,   0.00000
239982193.62596,357357405.59295,51023522.31189,   0.00040,   0.00116,   0.00066,327975072.00000,   0.00000,274640576.00000,   0.00000,   0.00000,   0.00000,-146665504.00000,   0.00000
239642587.52315,357972367.99534,51349360.59973,   0.00039,   0.00116,   0.00067,328510400.00000,   0.00000,274640576.00000,   0.00000,   0.00000,   0.00000,-146130176.00000,   0.00000
239309865.32782,358603392.84854,51675198.88756,   0.00039,   0.00116,   0.00067,329060576.00000,   0.00000,274640576.00000,   0.00000,   0.00000,   0.00000,-145580000.00000,   0.00000
238954196.77420,359211471.34344,52005626.44705,   0.00039,   0.00117,   0.00068,329594144.00000,   0.00000,274640576.00000,   0.00000,   0.00000,   0.00000,-145046432.00000,   0.00000
238591644.31309,359803487.38753,52336054.00655,   0.00038,   0.00117,   0.00068,330116672.00000,   0.00000,274640576.00000,   0.00000,   0.00000,   0.00000,-144523904.00000,   0.00000
238213029.40117,360388619.52414,52675660.10936,   0.00038,   0.00118,   0.00068,330637728.00000,   0.00000,274640576.00000,   0.00000,   0.00000,   0.00000,-144002848.00000,   0.00000
237818352.03844,360966867.75325,53015266.21218,   0.00038,   0.00118,   0.00069,331153120.00000,   0.00000,274640576.00000,   0.00000,   0.00000,   0.00000,-143487456.00000,   0.00000
237400728.31741,361522169.62407,53359461.58665,   0.00038,   0.00118,   0.00069,331652192.00000,   0.00000,274640576.00000,   0.00000,   0.00000,   0.00000,-142988384.00000,   0.00000
236983104.59638,362077471.49489,53703656.96112,   0.00037,   0.00119,   0.00070,332153312.00000,   0.00000,274640576.00000,   0.00000,   0.00000,   0.00000,-142487264.00000,   0.00000
236542534.51706,362609827.00740,54057030.87891,   0.00037,   0.00119,   0.00070,332640704.00000,   0.00000,274640576.00000,   0.00000,   0.00000,   0.00000,-141999872.00000,   0.00000
236108848.34522,363158244.97073,54410404.79671,   0.00037,   0.00119,   0.00071,333143136.00000,   0.00000,274640576.00000,   0.00000,   0.00000,   0.00000,-141497440.00000,   0.00000
235645331.90760,363667654.12495,54768367.98616,   0.00036,   0.00120,   0.00071,333617024.00000,   0.00000,274640576.00000,   0.00000,   0.00000,   0.00000,-141023552.00000,   0.00000
235172636.92666,364186241.82249,55130920.44727,   0.00036,   0.00120,   0.00072,334100704.00000,   0.00000,274640576.00000,   0.00000,   0.00000,   0.00000,-140539872.00000,   0.00000
234693058.03822,364688767.06922,55493472.90838,   0.00036,   0.00120,   0.00072,334574240.00000,   0.00000,274640576.00000,   0.00000,   0.00000,   0.00000,-140066336.00000,   0.00000
234190532.79149,365168345.95765,55860614.64115,   0.00035,   0.00120,   0.00073,335032256.00000,   0.00000,274640576.00000,   0.00000,   0.00000,   0.00000,-139608320.00000,   0.00000
233694891.45225,365663987.29690,56232345.64558,   0.00035,   0.00121,   0.00073,335508288.00000,   0.00000,274640576.00000,   0.00000,   0.00000,   0.00000,-139132288.00000,   0.00000
233176303.75471,366136682.27784,56608665.92167,   0.00035,   0.00121,   0.00074,335968928.00000,   0.00000,274640576.00000,   0.00000,   0.00000,   0.00000,-138671648.00000,   0.00000
232634769.69887,366586430.90048,56989575.46943,   0.00034,   0.00121,   0.00074,336414624.00000,   0.00000,274640576.00000,   0.00000,   0.00000,   0.00000,-138225952.00000,   0.00000
232093235.64304,367036179.52313,57370485.01718,   0.00034,   0.00122,   0.00075,336863424.00000,   0.00000,274640576.00000,   0.00000,   0.00000,   0.00000,-137777152.00000,   0.00000
231535639.13639,367479044.23828,57760573.10824,   0.00034,   0.00122,   0.00075,337312640.00000,   0.00000,274640576.00000,   0.00000,   0.00000,   0.00000,-137327936.00000,   0.00000
230961980.17894,367915025.04595,58150661.19931,   0.00033,   0.00122,   0.00076,337757920.00000,   0.00000,274640576.00000,   0.00000,   0.00000,   0.00000,-136882656.00000,   0.00000
230381437.31399,368334943.40281,58540749.29038,   0.00033,   0.00123,   0.00076,338193376.00000,   0.00000,274640576.00000,   0.00000,   0.00000,   0.00000,-136447200.00000,   0.00000
229794010.54156,368738799.30886,58940015.92477,   0.00033,   0.00123,   0.00077,338624320.00000,   0.00000,274640576.00000,   0.00000,   0.00000,   0.00000,-136016256.00000,   0.00000
229197405.22580,369151833.75822,59339282.55916,   0.00032,   0.00123,   0.00077,339064480.00000,   0.00000,274640576.00000,   0.00000,   0.00000,   0.00000,-135576096.00000,   0.00000
228577853.55175,369541921.84929,59747727.73687,   0.00032,   0.00124,   0.00078,339492928.00000,   0.00000,274640576.00000,   0.00000,   0.00000,   0.00000,-135147648.00000,   0.00000
227951417.97021,369915947.48955,60156172.91458,   0.00032,   0.00124,   0.00078,339912032.00000,   0.00000,274640576.00000,   0.00000,   0.00000,   0.00000,-134728544.00000,   0.00000
227315803.84535,370299151.67313,60564618.09229,   0.00031,   0.00124,   0.00079,340340512.00000,   0.00000,274640576.00000,   0.00000,   0.00000,   0.00000,-134300064.00000,   0.00000
226673305.81300,370666293.40591,60982241.81331,   0.00031,   0.00124,   0.00079,340764800.00000,   0.00000,274640576.00000,   0.00000,   0.00000,   0.00000,-133875776.00000,   0.00000
226023923.87316,371017372.68787,61399865.53434,   0.00030,   0.00125,   0.00080,341179840.00000,   0.00000,274640576.00000,   0.00000,   0.00000,   0.00000,-133460736.00000,   0.00000
225349300.93919,371370746.60566,61822078.52703,   0.00030,   0.00125,   0.00080,341599744.00000,   0.00000,274640576.00000,   0.00000,   0.00000,   0.00000,-133040832.00000,   0.00000
224683856.54855,371714941.98013,62248880.79137,   0.00030,   0.00125,   0.00081,342020096.00000,   0.00000,274640576.00000,   0.00000,   0.00000,   0.00000,-132620480.00000,   0.00000
223979403.34879,372029307.08882,62680272.32738,   0.00029,   0.00126,   0.00081,342419424.00000,   0.00000,274640576.00000,   0.00000,   0.00000,   0.00000,-132221152.00000,   0.00000
223297896.50733,372366618.55580,63116253.13505,   0.00029,   0.00126,   0.00082,342844992.00000,   0.00000,274640576.00000,   0.00000,   0.00000,   0.00000,-131795584.00000,   0.00000
222577380.85677,372674099.75700,63552233.94271,   0.00029,   0.00126,   0.00083,343247200.00000,   0.00000,274640576.00000,   0.00000,   0.00000,   0.00000,-131393376.00000,   0.00000
221866043.74953,372972402.41487,63992804.02204,   0.00028,   0.00126,   0.00083,343649440.00000,   0.00000,274640576.00000,   0.00000,   0.00000,   0.00000,-130991136.00000,   0.00000
221145528.09896,373279883.61607,64437963.37302,   0.00028,   0.00127,   0.00084,344063808.00000,   0.00000,274640576.00000,   0.00000,   0.00000,   0.00000,-130576768.00000,   0.00000
220402066.09010,373564418.45897,64887711.99567,   0.00027,   0.00127,   0.00084,344464384.00000,   0.00000,274640576.00000,   0.00000,   0.00000,   0.00000,-130176192.00000,   0.00000
219651720.17375,373832890.85106,65337460.61831,   0.00027,   0.00127,   0.00085,344855232.00000,   0.00000,274640576.00000,   0.00000,   0.00000,   0.00000,-129785344.00000,   0.00000
218892195.71408,374110541.78647,65796387.78428,   0.00027,   0.00128,   0.00086,345260992.00000,   0.00000,274640576.00000,   0.00000,   0.00000,   0.00000,-129379584.00000,   0.00000
218125787.34692,374372130.27107,66255314.95024,   0.00026,   0.00128,   0.00086,345657088.00000,   0.00000,274640576.00000,   0.00000,   0.00000,   0.00000,-128983488.00000,   0.00000
217352495.07227,374617656.30486,66718831.38786,   0.00026,   0.00128,   0.00087,346046240.00000,   0.00000,274640576.00000,   0.00000,   0.00000,   0.00000,-128594336.00000,   0.00000
216570024.25430,374872360.88197,67186937.09715,   0.00025,   0.00128,   0.00087,346447712.00000,   0.00000,274640576.00000,   0.00000,   0.00000,   0.00000,-128192864.00000,   0.00000
215780669.52884,375111003.00827,67655042.80643,   0.00025,   0.00129,   0.00088,346839616.00000,   0.00000,274640576.00000,   0.00000,   0.00000,   0.00000,-127800960.00000,   0.00000
214975252.35258,375342761.22708,68132327.05903,   0.00025,   0.00129,   0.00089,347233760.00000,   0.00000,274640576.00000,   0.00000,   0.00000,   0.00000,-127406816.00000,   0.00000
214162951.26882,375558456.99508,68609611.31164,   0.00024,   0.00129,   0.00089,347618624.00000,   0.00000,274640576.00000,   0.00000,   0.00000,   0.00000,-127021952.00000,   0.00000
213350650.18506,375774152.76309,69091484.83590,   0.00024,   0.00129,   0.00090,348009888.00000,   0.00000,274640576.00000,   0.00000,   0.00000,   0.00000,-126630688.00000,   0.00000
212522286.65050,375982964.62360,69577947.63182,   0.00023,   0.00130,   0.00090,348401344.00000,   0.00000,274640576.00000,   0.00000,   0.00000,   0.00000,-126239232.00000,   0.00000
211677860.66512,376184892.57662,70064410.42774,   0.00023,   0.00130,   0.00091,348790272.00000,   0.00000,274640576.00000,   0.00000,   0.00000,   0.00000,-125850304.00000,   0.00000
210842613.22307,376377641.98633,70560051.76698,   0.00023,   0.00130,   0.00092,349182432.00000,   0.00000,274640576.00000,   0.00000,   0.00000,   0.00000,-125458144.00000,   0.00000
209991303.33020,376563507.48854,71055693.10623,   0.00022,   0.00130,   0.00092,349572512.00000,   0.00000,274640576.00000,   0.00000,   0.00000,   0.00000,-125068064.00000,   0.00000
209123930.98653,376742489.08327,71555923.71713,   0.00022,   0.00131,   0.00093,349963264.00000,   0.00000,274640576.00000,   0.00000,   0.00000,   0.00000,-124677312.00000,   0.00000
208265737.18618,376912292.13468,72060743.59969,   0.00021,   0.00131,   0.00094,350355168.00000,   0.00000,274640576.00000,   0.00000,   0.00000,   0.00000,-124285408.00000,   0.00000
207382302.39170,377084389.82191,72570152.75391,   0.00021,   0.00131,   0.00094,350754816.00000,   0.00000,274640576.00000,   0.00000,   0.00000,   0.00000,-123885760.00000,   0.00000
206501162.23305,377231246.51502,73079561.90813,   0.00020,   0.00131,   0.00095,351139808.00000,   0.00000,274640576.00000,   0.00000,   0.00000,   0.00000,-123500768.00000,   0.00000
205610843.53108,377387281.75145,73598149.60567,   0.00020,   0.00132,   0.00096,351542176.00000,   0.00000,274640576.00000,   0.00000,   0.00000,   0.00000,-123098400.00000,   0.00000
204713640.92162,377527254.53707,74116737.30321,   0.00020,   0.00132,   0.00096,351936608.00000,   0.00000,274640576.00000,   0.00000,   0.00000,   0.00000,-122703968.00000,   0.00000
203807259.76884,377676405.86601,74639914.27241,   0.00019,   0.00132,   0.00097,352345792.00000,   0.00000,274640576.00000,   0.00000,   0.00000,   0.00000,-122294784.00000,   0.00000
202887110.80108,377793432.29333,75167680.51326,   0.00019,   0.00132,   0.00098,352737472.00000,   0.00000,274640576.00000,   0.00000,   0.00000,   0.00000,-121903104.00000,   0.00000
201973845.74081,377926521.17146,75695446.75412,   0.00018,   0.00133,   0.00098,353146848.00000,   0.00000,274640576.00000,   0.00000,   0.00000,   0.00000,-121493728.00000,   0.00000
201053696.77305,378043547.59878,76232391.53830,   0.00018,   0.00133,   0.00099,353554336.00000,   0.00000,274640576.00000,   0.00000,   0.00000,   0.00000,-121086240.00000,   0.00000
200117485.35449,378153690.11861,76769336.32248,   0.00017,   0.00133,   0.00100,353960736.00000,   0.00000,274640576.00000,   0.00000,   0.00000,   0.00000,-120679840.00000,   0.00000
199181273.93592,378263832.63844,77310870.37832,   0.00017,   0.00133,   0.00101,354375008.00000,   0.00000,274640576.00000,   0.00000,   0.00000,   0.00000,-120265568.00000,   0.00000
198238178.60986,378357912.70746,77856993.70581,   0.00016,   0.00133,   0.00101,354784096.00000,   0.00000,274640576.00000,   0.00000,   0.00000,   0.00000,-119856480.00000,   0.00000
197285904.74049,378461171.31981,78407706.30497,   0.00016,   0.00134,   0.00102,355207584.00000,   0.00000,274640576.00000,   0.00000,   0.00000,   0.00000,-119432992.00000,   0.00000
196326746.96362,378548367.48134,78958418.90413,   0.00016,   0.00134,   0.00103,355623040.00000,   0.00000,274640576.00000,   0.00000,   0.00000,   0.00000,-119017536.00000,   0.00000
195367589.18676,378635563.64287,79518310.04660,   0.00015,   0.00134,   0.00103,356048704.00000,   0.00000,274640576.00000,   0.00000,   0.00000,   0.00000,-118591872.00000,   0.00000
194385485.05159,378699813.44611,80078201.18908,   0.00015,   0.00134,   0.00104,356459872.00000,   0.00000,274640576.00000,   0.00000,   0.00000,   0.00000,-118180704.00000,   0.00000
193419443.36724,378770947.15683,80642681.60322,   0.00014,   0.00135,   0.00105,356884064.00000,   0.00000,274640576.00000,   0.00000,   0.00000,   0.00000,-117756512.00000,   0.00000
192437339.23208,378835196.96007,81211751.28901,   0.00014,   0.00135,   0.00106,357309920.00000,   0.00000,274640576.00000,   0.00000,   0.00000,   0.00000,-117330656.00000,   0.00000
191439172.64611,378892562.85581,81780820.97481,   0.00013,   0.00135,   0.00106,357734592.00000,   0.00000,274640576.00000,   0.00000,   0.00000,   0.00000,-116905984.00000,   0.00000
190457068.51094,378956812.65905,82359069.20392,   0.00013,   0.00135,   0.00107,358175744.00000,   0.00000,274640576.00000,   0.00000,   0.00000,   0.00000,-116464832.00000,   0.00000
189452018.01748,378998116.10398,82937317.43304,   0.00012,   0.00136,   0.00108,358603776.00000,   0.00000,274640576.00000,   0.00000,   0.00000,   0.00000,-116036800.00000,   0.00000
188446967.52402,379039419.54892,83520154.93381,   0.00012,   0.00136,   0.00109,359040736.00000,   0.00000,274640576.00000,   0.00000,   0.00000,   0.00000,-115599840.00000,   0.00000
187441917.03056,379080722.99386,84107581.70625,   0.00011,   0.00136,   0.00109,359486816.00000,   0.00000,274640576.00000,   0.00000,   0.00000,   0.00000,-115153760.00000,   0.00000
186436866.53710,379122026.43879,84699597.75034,   0.00011,   0.00136,   0.00110,359942400.00000,   0.00000,274640576.00000,   0.00000,   0.00000,   0.00000,-114698176.00000,   0.00000
185408869.68534,379140383.52543,85291613.79443,   0.00010,   0.00136,   0.00111,360386688.00000,   0.00000,274640576.00000,   0.00000,   0.00000,   0.00000,-114253888.00000,   0.00000
184403819.19188,379181686.97037,85888219.11019,   0.00010,   0.00137,   0.00112,360858720.00000,   0.00000,274640576.00000,   0.00000,   0.00000,   0.00000,-113781856.00000,   0.00000
183375822.34012,379200044.05701,86494002.96926,   0.00009,   0.00137,   0.00112,361325824.00000,   0.00000,274640576.00000,   0.00000,   0.00000,   0.00000,-113314752.00000,   0.00000
182331763.03755,379211517.23616,87099786.82833,   0.00009,   0.00137,   0.00113,361793504.00000,   0.00000,274640576.00000,   0.00000,   0.00000,   0.00000,-112847072.00000,   0.00000
181296882.27830,379213811.87199,87705570.68740,   0.00009,   0.00137,   0.00114,362259328.00000,   0.00000,274640576.00000,   0.00000,   0.00000,   0.00000,-112381248.00000,   0.00000
180268885.42654,379232168.95863,88320533.08980,   0.00008,   0.00137,   0.00115,362749600.00000,   0.00000,274640576.00000,   0.00000,   0.00000,   0.00000,-111890976.00000,   0.00000
179217942.21648,379227579.68697,88935495.49219,   0.00008,   0.00138,   0.00116,363226816.00000,   0.00000,274640576.00000,   0.00000,   0.00000,   0.00000,-111413760.00000,   0.00000
178166999.00642,379222990.41531,89559636.43790,   0.00007,   0.00138,   0.00116,363715840.00000,   0.00000,274640576.00000,   0.00000,   0.00000,   0.00000,-110924736.00000,   0.00000
177116055.79636,379218401.14365,90183777.38361,   0.00007,   0.00138,   0.00117,364209536.00000,   0.00000,274640576.00000,   0.00000,   0.00000,   0.00000,-110431040.00000,   0.00000
176058228.67882,379197749.42118,90812507.60098,   0.00006,   0.00138,   0.00118,364698880.00000,   0.00000,274640576.00000,   0.00000,   0.00000,   0.00000,-109941696.00000,   0.00000
175007285.46876,379193160.14952,91441237.81835,   0.00006,   0.00138,   0.00119,365205888.00000,   0.00000,274640576.00000,   0.00000,   0.00000,   0.00000,-109434688.00000,   0.00000
173933395.90040,379165624.51956,92079146.57904,   0.00005,   0.00139,   0.00120,365707520.00000,   0.00000,274640576.00000,   0.00000,   0.00000,   0.00000,-108933056.00000,   0.00000
172859506.33205,379138088.88960,92717055.33973,   0.00005,   0.00139,   0.00121,366214848.00000,   0.00000,274640576.00000,   0.00000,   0.00000,   0.00000,-108425728.00000,   0.00000
171801679.21450,379117437.16713,93359553.37208,   0.00004,   0.00139,   0.00121,366735968.00000,   0.00000,274640576.00000,   0.00000,   0.00000,   0.00000,-107904608.00000,   0.00000
170727789.64614,379089901.53718,94006640.67609,   0.00004,   0.00139,   0.00122,367261536.00000,   0.00000,274640576.00000,   0.00000,   0.00000,   0.00000,-107379040.00000,   0.00000
169647016.17030,379046303.45641,94658317.25176,   0.00003,   0.00139,   0.00123,367784416.00000,   0.00000,274640576.00000,   0.00000,   0.00000,   0.00000,-106856160.00000,   0.00000
168573126.60194,379018767.82645,95309993.82743,   0.00003,   0.00140,   0.00124,368325696.00000,   0.00000,274640576.00000,   0.00000,   0.00000,   0.00000,-106314880.00000,   0.00000
167492353.12610,378975169.74569,95966259.67476,   0.00002,   0.00140,   0.00125,368864384.00000,   0.00000,274640576.00000,   0.00000,   0.00000,   0.00000,-105776192.00000,   0.00000
166395517.19944,378924687.75743,96627114.79375,   0.00002,   0.00140,   0.00126,369408352.00000,   0.00000,274640576.00000,   0.00000,   0.00000,   0.00000,-105232224.00000,   0.00000
165314743.72360,378881089.67666,97292559.18439,   0.00001,   0.00140,   0.00126,369966784.00000,   0.00000,274640576.00000,   0.00000,   0.00000,   0.00000,-104673792.00000,   0.00000
164233970.24775,378837491.59590,97962592.84670,   0.00001,   0.00140,   0.00127,370535392.00000,   0.00000,274640576.00000,   0.00000,   0.00000,   0.00000,-104105184.00000,   0.00000
163130250.41361,378770947.15683,98637215.78067,   0.00000,   0.00141,   0.00128,371097216.00000,   0.00000,274640576.00000,   0.00000,   0.00000,   0.00000,-103543360.00000,   0.00000
162033414.48695,378720465.16858,99311838.71464,  -0.00000,   0.00141,   0.00129,371677600.00000,   0.00000,274640576.00000,   0.00000,   0.00000,   0.00000,-102962976.00000,   0.00000
160945757.10362,378660804.63700,99991050.92026,  -0.00001,   0.00141,   0.00130,372259936.00000,   0.00000,274640576.00000,   0.00000,   0.00000,   0.00000,-102380640.00000,   0.00000
159842037.26948,378594260.19794,100674852.39755,  -0.00001,   0.00141,   0.00131,372847808.00000,   0.00000,274640576.00000,   0.00000,   0.00000,   0.00000,-101792768.00000,   0.00000
158738317.43533,378527715.75887,101363243.14650,  -0.00002,   0.00141,   0.00132,373445600.00000,   0.00000,274640576.00000,   0.00000,   0.00000,   0.00000,-101194976.00000,   0.00000
157634597.60119,378461171.31981,102051633.89544,  -0.00002,   0.00141,   0.00133,374049408.00000,   0.00000,274640576.00000,   0.00000,   0.00000,   0.00000,-100591168.00000,   0.00000
156530877.76704,378394626.88074,102744613.91605,  -0.00003,   0.00142,   0.00134,374662656.00000,   0.00000,274640576.00000,   0.00000,   0.00000,   0.00000,-99977920.00000,   0.00000
155420274.02541,378312019.99087,103442183.20831,  -0.00003,   0.00142,   0.00134,375273472.00000,   0.00000,274640576.00000,   0.00000,   0.00000,   0.00000,-99367104.00000,   0.00000
154316554.19127,378245475.55180,104144341.77224,  -0.00004,   0.00142,   0.00135,375906112.00000,   0.00000,274640576.00000,   0.00000,   0.00000,   0.00000,-98734464.00000,   0.00000
153205950.44963,378162868.66193,104851089.60782,  -0.00004,   0.00142,   0.00136,376536032.00000,   0.00000,274640576.00000,   0.00000,   0.00000,   0.00000,-98104544.00000,   0.00000
152095346.70800,378080261.77206,105557837.44341,  -0.00005,   0.00142,   0.00137,377172000.00000,   0.00000,274640576.00000,   0.00000,   0.00000,   0.00000,-97468576.00000,   0.00000
150984742.96637,377997654.88218,106273763.82231,  -0.00005,   0.00143,   0.00138,377821152.00000,   0.00000,274640576.00000,   0.00000,   0.00000,   0.00000,-96819424.00000,   0.00000
149874139.22473,377915047.99231,106989690.20122,  -0.00006,   0.00143,   0.00139,378476480.00000,   0.00000,274640576.00000,   0.00000,   0.00000,   0.00000,-96164096.00000,   0.00000
148763535.48310,377832441.10243,107705616.58012,  -0.00006,   0.00143,   0.00140,379137248.00000,   0.00000,274640576.00000,   0.00000,   0.00000,   0.00000,-95503328.00000,   0.00000
147652931.74147,377749834.21256,108430721.50234,  -0.00006,   0.00143,   0.00141,379811776.00000,   0.00000,274640576.00000,   0.00000,   0.00000,   0.00000,-94828800.00000,   0.00000
146535444.09235,377651164.87188,109155826.42457,  -0.00007,   0.00143,   0.00142,380479392.00000,   0.00000,274640576.00000,   0.00000,   0.00000,   0.00000,-94161184.00000,   0.00000
145408777.89990,377561674.07452,109885520.61845,  -0.00007,   0.00143,   0.00143,381165056.00000,   0.00000,274640576.00000,   0.00000,   0.00000,   0.00000,-93475520.00000,   0.00000
144291290.25078,377463004.73383,110619804.08399,  -0.00008,   0.00144,   0.00144,381851584.00000,   0.00000,274640576.00000,   0.00000,   0.00000,   0.00000,-92788992.00000,   0.00000
143180686.50915,377380397.84396,111358676.82120,  -0.00008,   0.00144,   0.00145,382558816.00000,   0.00000,274640576.00000,   0.00000,   0.00000,   0.00000,-92081760.00000,   0.00000
142063198.86002,377281728.50328,112097549.55840,  -0.00009,   0.00144,   0.00146,383259040.00000,   0.00000,274640576.00000,   0.00000,   0.00000,   0.00000,-91381536.00000,   0.00000
140945711.21090,377183059.16260,112841011.56726,  -0.00009,   0.00144,   0.00147,383968064.00000,   0.00000,274640576.00000,   0.00000,   0.00000,   0.00000,-90672512.00000,   0.00000
139828223.56178,377084389.82191,113589062.84778,  -0.00010,   0.00144,   0.00148,384685600.00000,   0.00000,274640576.00000,   0.00000,   0.00000,   0.00000,-89954976.00000,   0.00000
138710735.91266,376985720.48123,114341703.39996,  -0.00010,   0.00144,   0.00149,385411744.00000,   0.00000,274640576.00000,   0.00000,   0.00000,   0.00000,-89228832.00000,   0.00000
137586364.35604,376870988.68974,115098933.22380,  -0.00011,   0.00145,   0.00150,386134400.00000,   0.00000,274640576.00000,   0.00000,   0.00000,   0.00000,-88506176.00000,   0.00000
136468876.70692,376772319.34906,115856163.04764,  -0.00011,   0.00145,   0.00151,386873376.00000,   0.00000,274640576.00000,   0.00000,   0.00000,   0.00000,-87767200.00000,   0.00000
135351389.05780,376673650.00838,116617982.14314,  -0.00012,   0.00145,   0.00152,387620960.00000,   0.00000,274640576.00000,   0.00000,   0.00000,   0.00000,-87019616.00000,   0.00000
134227017.50119,376558918.21688,117384390.51030,  -0.00012,   0.00145,   0.00153,388365344.00000,   0.00000,274640576.00000,   0.00000,   0.00000,   0.00000,-86275232.00000,   0.00000
133109529.85206,376460248.87620,118150798.87746,  -0.00013,   0.00145,   0.00154,389126240.00000,   0.00000,274640576.00000,   0.00000,   0.00000,   0.00000,-85514336.00000,   0.00000
131985158.29545,376345517.08471,118921796.51628,  -0.00013,   0.00146,   0.00155,389884320.00000,   0.00000,274640576.00000,   0.00000,   0.00000,   0.00000,-84756256.00000,   0.00000
130860786.73884,376230785.29322,119697383.42676,  -0.00014,   0.00146,   0.00156,390651456.00000,   0.00000,274640576.00000,   0.00000,   0.00000,   0.00000,-83989120.00000,   0.00000
129759361.54053,376138999.86003,120477559.60890,  -0.00014,   0.00146,   0.00157,391442976.00000,   0.00000,274640576.00000,   0.00000,   0.00000,   0.00000,-83197600.00000,   0.00000
128634989.98391,376024268.06854,121262325.06270,  -0.00015,   0.00146,   0.00158,392229248.00000,   0.00000,274640576.00000,   0.00000,   0.00000,   0.00000,-82411328.00000,   0.00000
127510618.42730,375909536.27705,122047090.51650,  -0.00015,   0.00146,   0.00159,393021440.00000,   0.00000,274640576.00000,   0.00000,   0.00000,   0.00000,-81619136.00000,   0.00000
126402309.32150,375801688.39304,122836445.24196,  -0.00016,   0.00146,   0.00160,393826784.00000,   0.00000,274640576.00000,   0.00000,   0.00000,   0.00000,-80813792.00000,   0.00000
125277937.76489,375686956.60155,123625799.96742,  -0.00016,   0.00147,   0.00161,394635520.00000,   0.00000,274640576.00000,   0.00000,   0.00000,   0.00000,-80005056.00000,   0.00000
124169628.65908,375579108.71755,124424333.23619,  -0.00017,   0.00147,   0.00162,395462208.00000,   0.00000,274640576.00000,   0.00000,   0.00000,   0.00000,-79178368.00000,   0.00000
123054435.64579,375455198.38274,125222866.50497,  -0.00017,   0.00147,   0.00163,396284128.00000,   0.00000,274640576.00000,   0.00000,   0.00000,   0.00000,-78356448.00000,   0.00000
121946126.53999,375347350.49874,126025989.04541,  -0.00018,   0.00147,   0.00164,397128832.00000,   0.00000,274640576.00000,   0.00000,   0.00000,   0.00000,-77511744.00000,   0.00000
120821754.98338,375232618.70725,126833700.85751,  -0.00018,   0.00147,   0.00165,397982144.00000,   0.00000,274640576.00000,   0.00000,   0.00000,   0.00000,-76658432.00000,   0.00000
119713445.87757,375124770.82325,127641412.66960,  -0.00019,   0.00147,   0.00166,398845888.00000,   0.00000,274640576.00000,   0.00000,   0.00000,   0.00000,-75794688.00000,   0.00000
118614315.31509,375007744.39593,128453713.75336,  -0.00019,   0.00147,   0.00167,399712224.00000,   0.00000,274640576.00000,   0.00000,   0.00000,   0.00000,-74928352.00000,   0.00000
117506006.20928,374899896.51192,129270604.10877,  -0.00020,   0.00148,   0.00168,400599296.00000,   0.00000,274640576.00000,   0.00000,   0.00000,   0.00000,-74041280.00000,   0.00000
116390813.19599,374775986.17711,130087494.46419,  -0.00020,   0.00148,   0.00169,401482080.00000,   0.00000,274640576.00000,   0.00000,   0.00000,   0.00000,-73158496.00000,   0.00000
115282504.09019,374668138.29311,130908974.09127,  -0.00021,   0.00148,   0.00170,402388352.00000,   0.00000,274640576.00000,   0.00000,   0.00000,   0.00000,-72252224.00000,   0.00000
114183373.52770,374551111.86579,131735042.99000,  -0.00021,   0.00148,   0.00171,403297440.00000,   0.00000,274640576.00000,   0.00000,   0.00000,   0.00000,-71343136.00000,   0.00000
113091126.87271,374450147.88928,132565701.16040,  -0.00022,   0.00148,   0.00172,404229408.00000,   0.00000,274640576.00000,   0.00000,   0.00000,   0.00000,-70411168.00000,   0.00000
111975933.85942,374326237.55447,133396359.33079,  -0.00022,   0.00148,   0.00173,405154528.00000,   0.00000,274640576.00000,   0.00000,   0.00000,   0.00000,-69486048.00000,   0.00000
110883687.20442,374225273.57796,134231606.77285,  -0.00023,   0.00149,   0.00175,406104640.00000,   0.00000,274640576.00000,   0.00000,   0.00000,   0.00000,-68535936.00000,   0.00000
109784556.64194,374108247.15064,135071443.48656,  -0.00023,   0.00149,   0.00176,407054464.00000,   0.00000,274640576.00000,   0.00000,   0.00000,   0.00000,-67586112.00000,   0.00000
108685426.07945,373991220.72332,135911280.20028,  -0.00023,   0.00149,   0.00177,408010656.00000,   0.00000,274640576.00000,   0.00000,   0.00000,   0.00000,-66629920.00000,   0.00000
107593179.42446,373890256.74680,136760295.45731,  -0.00024,   0.00149,   0.00178,408993408.00000,   0.00000,274640576.00000,   0.00000,   0.00000,   0.00000,-65647168.00000,   0.00000
106510111.31278,373780114.22697,137604721.44268,  -0.00024,   0.00149,   0.00179,409968352.00000,   0.00000,274640576.00000,   0.00000,   0.00000,   0.00000,-64672224.00000,   0.00000
105410980.75030,373663087.79965,138458325.97138,  -0.00025,   0.00149,   0.00180,410955616.00000,   0.00000,274640576.00000,   0.00000,   0.00000,   0.00000,-63684960.00000,   0.00000
104327912.63862,373552945.27982,139311930.50007,  -0.00025,   0.00150,   0.00181,411950816.00000,   0.00000,274640576.00000,   0.00000,   0.00000,   0.00000,-62689760.00000,   0.00000
103235665.98363,373451981.30331,140170124.30042,  -0.00026,   0.00150,   0.00182,412964800.00000,   0.00000,274640576.00000,   0.00000,   0.00000,   0.00000,-61675776.00000,   0.00000
102152597.87195,373341838.78348,141028318.10078,  -0.00026,   0.00150,   0.00183,413975104.00000,   0.00000,274640576.00000,   0.00000,   0.00000,   0.00000,-60665472.00000,   0.00000
101069529.76028,373231696.26364,141891101.17279,  -0.00027,   0.00150,   0.00184,414995008.00000,   0.00000,274640576.00000,   0.00000,   0.00000,   0.00000,-59645568.00000,   0.00000
99986461.64860,373121553.74381,142758473.51646,  -0.00027,   0.00150,   0.00186,416024608.00000,   0.00000,274640576.00000,   0.00000,   0.00000,   0.00000,-58615968.00000,   0.00000
98919455.98774,373018295.13147,143630435.13179,  -0.00028,   0.00150,   0.00187,417066144.00000,   0.00000,274640576.00000,   0.00000,   0.00000,   0.00000,-57574432.00000,   0.00000
97843271.78355,372924215.06245,144502396.74712,  -0.00028,   0.00151,   0.00188,418121664.00000,   0.00000,274640576.00000,   0.00000,   0.00000,   0.00000,-56518912.00000,   0.00000
96776266.12269,372820956.45011,145374358.36246,  -0.00029,   0.00151,   0.00189,419172928.00000,   0.00000,274640576.00000,   0.00000,   0.00000,   0.00000,-55467648.00000,   0.00000
95693198.01101,372710813.93028,146255498.52111,  -0.00029,   0.00151,   0.00190,420237568.00000,   0.00000,274640576.00000,   0.00000,   0.00000,   0.00000,-54403008.00000,   0.00000
94626192.35014,372607555.31793,147136638.67976,  -0.00030,   0.00151,   0.00191,421309216.00000,   0.00000,274640576.00000,   0.00000,   0.00000,   0.00000,-53331360.00000,   0.00000
93559186.68928,372504296.70559,148022368.11007,  -0.00030,   0.00151,   0.00192,422391232.00000,   0.00000,274640576.00000,   0.00000,   0.00000,   0.00000,-52249344.00000,   0.00000
92499064.93590,372417100.54406,148908097.54038,  -0.00031,   0.00151,   0.00194,423489600.00000,   0.00000,274640576.00000,   0.00000,   0.00000,   0.00000,-51150976.00000,   0.00000
91448121.72584,372320725.83921,149798416.24235,  -0.00031,   0.00152,   0.00195,424589344.00000,   0.00000,274640576.00000,   0.00000,   0.00000,   0.00000,-50051232.00000,   0.00000
90381116.06497,372217467.22686,150693324.21598,  -0.00031,   0.00152,   0.00196,425697824.00000,   0.00000,274640576.00000,   0.00000,   0.00000,   0.00000,-48942752.00000,   0.00000
89330172.85492,372121092.52201,151588232.18961,  -0.00032,   0.00152,   0.00197,426813632.00000,   0.00000,274640576.00000,   0.00000,   0.00000,   0.00000,-47826944.00000,   0.00000
88286113.55235,372040780.26797,152487729.43490,  -0.00032,   0.00152,   0.00198,427950944.00000,   0.00000,274640576.00000,   0.00000,   0.00000,   0.00000,-46689632.00000,   0.00000
87235170.34229,371944405.56312,153387226.68019,  -0.00033,   0.00152,   0.00199,429082784.00000,   0.00000,274640576.00000,   0.00000,   0.00000,   0.00000,-45557792.00000,   0.00000
86184227.13223,371848030.85826,154291313.19714,  -0.00033,   0.00152,   0.00201,430225152.00000,   0.00000,274640576.00000,   0.00000,   0.00000,   0.00000,-44415424.00000,   0.00000
85140167.82966,371767718.60422,155199988.98575,  -0.00034,   0.00153,   0.00202,431388256.00000,   0.00000,274640576.00000,   0.00000,   0.00000,   0.00000,-43252320.00000,   0.00000
84105287.07042,371678227.80686,156108664.77436,  -0.00034,   0.00153,   0.00203,432547296.00000,   0.00000,274640576.00000,   0.00000,   0.00000,   0.00000,-42093280.00000,   0.00000
83061227.76785,371597915.55281,157021929.83463,  -0.00035,   0.00153,   0.00204,433725376.00000,   0.00000,274640576.00000,   0.00000,   0.00000,   0.00000,-40915200.00000,   0.00000
82026347.00860,371508424.75545,157939784.16655,  -0.00035,   0.00153,   0.00205,434903808.00000,   0.00000,274640576.00000,   0.00000,   0.00000,   0.00000,-39736768.00000,   0.00000
80991466.24935,371418933.95809,158857638.49848,  -0.00036,   0.00153,   0.00207,436086880.00000,   0.00000,274640576.00000,   0.00000,   0.00000,   0.00000,-38553696.00000,   0.00000
79963469.39759,371345505.61153,159775492.83041,  -0.00036,   0.00153,   0.00208,437284608.00000,   0.00000,274640576.00000,   0.00000,   0.00000,   0.00000,-37355968.00000,   0.00000
78935472.54583,371272077.26498,160702525.70566,  -0.00036,   0.00154,   0.00209,438496736.00000,   0.00000,274640576.00000,   0.00000,   0.00000,   0.00000,-36143840.00000,   0.00000
77916654.23739,371189470.37510,161629558.58091,  -0.00037,   0.00154,   0.00210,439703584.00000,   0.00000,274640576.00000,   0.00000,   0.00000,   0.00000,-34936992.00000,   0.00000
76888657.38563,371116042.02855,162556591.45615,  -0.00037,   0.00154,   0.00211,440923488.00000,   0.00000,274640576.00000,   0.00000,   0.00000,   0.00000,-33717088.00000,   0.00000
75869839.07719,371033435.13868,163488213.60306,  -0.00038,   0.00154,   0.00213,442143200.00000,   0.00000,274640576.00000,   0.00000,   0.00000,   0.00000,-32497376.00000,   0.00000
74857904.67624,370966890.69961,164419835.74997,  -0.00038,   0.00154,   0.00214,443377056.00000,   0.00000,274640576.00000,   0.00000,   0.00000,   0.00000,-31263520.00000,   0.00000
73845970.27529,370900346.26055,165360636.44019,  -0.00039,   0.00154,   0.00215,444625216.00000,   0.00000,274640576.00000,   0.00000,   0.00000,   0.00000,-30015360.00000,   0.00000
72834035.87434,370833801.82148,166296847.85876,  -0.00039,   0.00155,   0.00216,445872096.00000,   0.00000,274640576.00000,   0.00000,   0.00000,   0.00000,-28768480.00000,   0.00000
71838163.92419,370774141.28991,167237648.54899,  -0.00040,   0.00155,   0.00217,447129408.00000,   0.00000,274640576.00000,   0.00000,   0.00000,   0.00000,-27511168.00000,   0.00000
70819345.61575,370691534.40003,168183038.51087,  -0.00040,   0.00155,   0.00219,448384800.00000,   0.00000,274640576.00000,   0.00000,   0.00000,   0.00000,-26255776.00000,   0.00000
69823473.66561,370631873.86846,169133017.74442,  -0.00041,   0.00155,   0.00220,449661152.00000,   0.00000,274640576.00000,   0.00000,   0.00000,   0.00000,-24979424.00000,   0.00000
68827601.71547,370572213.33688,170078407.70630,  -0.00041,   0.00155,   0.00221,450937216.00000,   0.00000,274640576.00000,   0.00000,   0.00000,   0.00000,-23703360.00000,   0.00000
67831729.76533,370512552.80531,171032976.21151,  -0.00041,   0.00155,   0.00222,452228544.00000,   0.00000,274640576.00000,   0.00000,   0.00000,   0.00000,-22412032.00000,   0.00000
66858804.17348,370475838.63203,171987544.71672,  -0.00042,   0.00156,   0.00224,453536448.00000,   0.00000,274640576.00000,   0.00000,   0.00000,   0.00000,-21104128.00000,   0.00000
65862932.22334,370416178.10045,172942113.22192,  -0.00042,   0.00156,   0.00225,454838624.00000,   0.00000,274640576.00000,   0.00000,   0.00000,   0.00000,-19801952.00000,   0.00000
64883122.72401,370363401.47637,173901270.99879,  -0.00043,   0.00156,   0.00226,456152832.00000,   0.00000,274640576.00000,   0.00000,   0.00000,   0.00000,-18487744.00000,   0.00000
63887250.77387,370303740.94479,174860428.77565,  -0.00043,   0.00156,   0.00227,457472160.00000,   0.00000,274640576.00000,   0.00000,   0.00000,   0.00000,-17168416.00000,   0.00000
62914325.18202,370267026.77152,175824175.82418,  -0.00044,   0.00156,   0.00229,458814048.00000,   0.00000,274640576.00000,   0.00000,   0.00000,   0.00000,-15826528.00000,   0.00000
61950578.13350,370221134.05492,176792512.14436,  -0.00044,   0.00156,   0.00230,460158208.00000,   0.00000,274640576.00000,   0.00000,   0.00000,   0.00000,-14482368.00000,   0.00000
60977652.54165,370184419.88164,177760848.46454,  -0.00044,   0.00157,   0.00231,461517984.00000,   0.00000,274640576.00000,   0.00000,   0.00000,   0.00000,-13122592.00000,   0.00000
59997843.04232,370131643.25756,178729184.78473,  -0.00045,   0.00157,   0.00232,462873952.00000,   0.00000,274640576.00000,   0.00000,   0.00000,   0.00000,-11766624.00000,   0.00000
59040979.90128,370101812.99177,179702110.37657,  -0.00045,   0.00157,   0.00234,464251808.00000,   0.00000,274640576.00000,   0.00000,   0.00000,   0.00000,-10388768.00000,   0.00000
58084116.76025,370071982.72598,180675035.96842,  -0.00046,   0.00157,   0.00235,465634944.00000,   0.00000,274640576.00000,   0.00000,   0.00000,   0.00000,-9005632.00000,   0.00000
57120369.71172,370026090.00939,181652550.83192,  -0.00046,   0.00157,   0.00236,467018240.00000,   0.00000,274640576.00000,   0.00000,   0.00000,   0.00000,-7622336.00000,   0.00000
56163506.57069,369996259.74360,182634654.96708,  -0.00047,   0.00157,   0.00237,468420800.00000,   0.00000,274640576.00000,   0.00000,   0.00000,   0.00000,-6219776.00000,   0.00000
55206643.42965,369966429.47781,183612169.83059,  -0.00047,   0.00158,   0.00239,469820736.00000,   0.00000,274640576.00000,   0.00000,   0.00000,   0.00000,-4819840.00000,   0.00000
54249780.28862,369936599.21202,184598863.23741,  -0.00047,   0.00158,   0.00240,471232832.00000,   0.00000,274640576.00000,   0.00000,   0.00000,   0.00000,-3407744.00000,   0.00000
53308979.59839,369913652.85372,185580967.37257,  -0.00048,   0.00158,   0.00241,472639968.00000,   0.00000,274640576.00000,   0.00000,   0.00000,   0.00000,-2000608.00000,   0.00000
52368178.90817,369890706.49543,186567660.77940,  -0.00048,   0.00158,   0.00243,474050304.00000,   0.00000,274640576.00000,   0.00000,   0.00000,   0.00000,-590272.00000,   0.00000
51980566.96221,369887849.40492,186979081.81295,  -0.00048,   0.00158,   0.00243,474640640.00000,   0.00000,274640576.00000,   0.00000,   0.00000,   0.00000,  64.00000,   0.00000
51417276.08391,369280126.81870,187212598.99281,  -0.00049,   0.00158,   0.00244,474640640.00000,   0.00000,274644448.00000,  -0.00000,   0.00000,   0.00000,-128.00000,   2.00000
50447550.47722,368234632.68380,187615094.47014,  -0.00049,   0.00158,   0.00245,476056544.00000,   0.00001,274651040.00000,  -0.00000,   0.00001,   0.00001, 256.00000,   2.00000
49475311.23518,367184904.38849,188019470.27054,  -0.00050,   0.00159,   0.00246,476073888.00000,   0.00002,274657664.00000,  -0.00000,   0.00001,   0.00002, -64.00000,   2.00000
48507917.44727,366148541.74915,188417275.69081,  -0.00050,   0.00159,   0.00248,476089440.00000,   0.00002,274664288.00000,  -0.00001,   0.00002,   0.00003, 192.00000,   2.00000
47547995.48677,365101590.53838,188822864.74864,  -0.00050,   0.00159,   0.00249,476102848.00000,   0.00003,274670912.00000,  -0.00001,   0.00002,   0.00004, 160.00000,   2.00000
46577503.32542,364061286.17564,189221782.03165,  -0.00051,   0.00159,   0.00250,476117760.00000,   0.00003,274677568.00000,  -0.00001,   0.00003,   0.00004,   0.00000,   2.00000
45621891.14777,363023722.91734,189622180.19000,  -0.00051,   0.00159,   0.00252,476134592.00000,   0.00004,274684256.00000,  -0.00001,   0.00003,   0.00005,  96.00000,   2.00000
44665360.31074,361982191.92983,190024084.99412,  -0.00052,   0.00160,   0.00253,476151168.00000,   0.00005,274690944.00000,  -0.00001,   0.00004,   0.00006, -96.00000,   2.00000
43708328.57401,360940836.10600,190425238.00242,  -0.00052,   0.00160,   0.00254,476161760.00000,   0.00005,274697664.00000,  -0.00002,   0.00004,   0.00007, 128.00000,   2.00000
42751064.95235,359899363.43708,190825363.76425,  -0.00053,   0.00160,   0.00256,476172384.00000,   0.00006,274704384.00000,  -0.00002,   0.00004,   0.00007,   0.00000,   2.00000
41809743.48614,358860902.31029,191226703.57210,  -0.00053,   0.00160,   0.00257,476188384.00000,   0.00006,274711136.00000,  -0.00002,   0.00005,   0.00008, -96.00000,   2.00000
40852708.89382,357815919.54460,191626993.69684,  -0.00053,   0.00160,   0.00258,476198368.00000,   0.00007,274717888.00000,  -0.00002,   0.00005,   0.00009,  96.00000,   2.00000
39912336.91083,356777866.33048,192025863.15147,  -0.00054,   0.00160,   0.00259,476208800.00000,   0.00008,274724640.00000,  -0.00002,   0.00006,   0.00010, 256.00000,   2.00000
38963328.32690,355738699.59658,192421643.56587,  -0.00054,   0.00161,   0.00261,476233568.00000,   0.00008,274731488.00000,  -0.00003,   0.00006,   0.00011,   0.00000,   2.00000
38024925.63353,354697366.75296,192819685.63194,  -0.00055,   0.00161,   0.00262,476234112.00000,   0.00009,274738304.00000,  -0.00003,   0.00007,   0.00011, 128.00000,   2.00000
37094642.35067,353665885.78785,193212008.02137,  -0.00055,   0.00161,   0.00263,476253536.00000,   0.00010,274745152.00000,  -0.00003,   0.00007,   0.00012,  64.00000,   2.00000
36165970.45086,352630978.89934,193604606.59572,  -0.00055,   0.00161,   0.00265,476268896.00000,   0.00010,274752064.00000,  -0.00003,   0.00008,   0.00013,   0.00000,   2.00000
35248660.42795,351593995.05953,193998915.75661,  -0.00056,   0.00161,   0.00266,476269344.00000,   0.00011,274758944.00000,  -0.00003,   0.00008,   0.00014,  96.00000,   2.00000
34324115.35186,350556659.94846,194389425.96780,  -0.00056,   0.00161,   0.00267,476293856.00000,   0.00011,274765888.00000,  -0.00003,   0.00009,   0.00015, 192.00000,   2.00000
33402076.01127,349520050.81276,194777463.39304,  -0.00057,   0.00162,   0.00269,476303648.00000,   0.00012,274772864.00000,  -0.00004,   0.00009,   0.00016,  64.00000,   2.00000
32505467.67025,348500677.45387,195159009.37894,  -0.00057,   0.00162,   0.00270,476322688.00000,   0.00013,274779904.00000,  -0.00004,   0.00010,   0.00016,   0.00000,   2.00000
31605014.99758,347472781.96655,195541863.31312,  -0.00057,   0.00162,   0.00271,476322784.00000,   0.00013,274786880.00000,  -0.00004,   0.00010,   0.00017, 192.00000,   2.00000
30691530.20692,346435336.93768,195924264.51618,  -0.00058,   0.00162,   0.00273,476337824.00000,   0.00014,274793952.00000,  -0.00004,   0.00011,   0.00018,  32.00000,   2.00000
29797327.20471,345405859.57760,196303776.84937,  -0.00058,   0.00162,   0.00274,476347520.00000,   0.00015,274801024.00000,  -0.00004,   0.00011,   0.00019, -64.00000,   2.00000
28913251.00014,344387473.72894,196676593.27983,  -0.00059,   0.00163,   0.00275,476366304.00000,   0.00015,274808160.00000,  -0.00005,   0.00012,   0.00020, 160.00000,   2.00000
28032600.94876,343366484.48483,197048612.17906,  -0.00059,   0.00163,   0.00277,476381664.00000,   0.00016,274815328.00000,  -0.00005,   0.00012,   0.00021,  64.00000,   2.00000
27164726.08621,342344056.74164,197421552.97613,  -0.00059,   0.00163,   0.00278,476382080.00000,   0.00017,274822496.00000,  -0.00005,   0.00013,   0.00021,   0.00000,   2.00000
26291282.86218,341326152.94026,197787654.67030,  -0.00060,   0.00163,   0.00279,476400832.00000,   0.00017,274829696.00000,  -0.00005,   0.00013,   0.00022,  96.00000,   2.00000
25421560.48486,340309839.34543,198150754.88394,  -0.00060,   0.00163,   0.00281,476410304.00000,   0.00018,274836928.00000,  -0.00005,   0.00013,   0.00023,  96.00000,   2.00000
24571600.44102,339298210.82198,198513006.61852,  -0.00061,   0.00164,   0.00282,476425632.00000,   0.00019,274844224.00000,  -0.00006,   0.00014,   0.00024, 128.00000,   2.00000
23716261.42061,338291471.38333,198868459.10095,  -0.00061,   0.00164,   0.00283,476444288.00000,   0.00019,274851584.00000,  -0.00006,   0.00014,   0.00025, 192.00000,   2.00000
22873804.74395,337283318.72635,199224768.73614,  -0.00061,   0.00164,   0.00285,476444992.00000,   0.00020,274858912.00000,  -0.00006,   0.00015,   0.00026, 128.00000,   2.00000
22019082.24726,336270027.36859,199578079.94967,  -0.00062,   0.00164,   0.00286,476454688.00000,   0.00021,274866240.00000,  -0.00006,   0.00015,   0.00027,  64.00000,   2.00000
21191126.83746,335271975.86767,199926902.94937,  -0.00062,   0.00164,   0.00288,476478656.00000,   0.00021,274873696.00000,  -0.00007,   0.00016,   0.00028, 160.00000,   2.00000
20359874.61264,334265491.77605,200276575.18791,  -0.00063,   0.00165,   0.00289,476479680.00000,   0.00022,274881120.00000,  -0.00007,   0.00016,   0.00028, 224.00000,   2.00000
19539235.56307,333271185.62504,200619649.91123,  -0.00063,   0.00165,   0.00290,476498176.00000,   0.00023,274888576.00000,  -0.00007,   0.00017,   0.00029, 192.00000,   2.00000
18722150.46654,332278845.15158,200959992.08867,  -0.00063,   0.00165,   0.00292,476507840.00000,   0.00023,274896064.00000,  -0.00007,   0.00017,   0.00030, 256.00000,   2.00000
17908670.47586,331284524.20115,201299595.94400,  -0.00064,   0.00165,   0.00293,476523488.00000,   0.00024,274903616.00000,  -0.00007,   0.00018,   0.00031, -32.00000,   2.00000
17098485.21566,330296064.47343,201634569.15241,  -0.00064,   0.00165,   0.00294,476527552.00000,   0.00025,274911136.00000,  -0.00008,   0.00018,   0.00032,   0.00000,   2.00000
16291769.44546,329305648.17269,201968901.22311,  -0.00065,   0.00166,   0.00296,476543136.00000,   0.00025,274918720.00000,  -0.00008,   0.00019,   0.00033, -64.00000,   2.00000
15495376.44984,328327694.58033,202296965.25867,  -0.00065,   0.00166,   0.00297,476561568.00000,   0.00026,274926336.00000,  -0.00008,   0.00019,   0.00034, 128.00000,   2.00000
14695033.58582,327341223.73438,202626321.82754,  -0.00065,   0.00166,   0.00298,476563104.00000,   0.00027,274933952.00000,  -0.00008,   0.00020,   0.00035,  32.00000,   2.00000
13921026.39974,326370489.38920,202951616.45337,  -0.00066,   0.00166,   0.00300,476587136.00000,   0.00027,274941632.00000,  -0.00009,   0.00020,   0.00036, -64.00000,   2.00000
13126624.11145,325387817.11906,203276151.71462,  -0.00066,   0.00166,   0.00301,476583104.00000,   0.00028,274949280.00000,  -0.00009,   0.00021,   0.00037, 192.00000,   2.00000
12342425.56235,324413835.07526,203596558.67114,  -0.00067,   0.00167,   0.00302,476607520.00000,   0.00029,274956992.00000,  -0.00009,   0.00021,   0.00038,  32.00000,   2.00000
11576985.58543,323448920.38616,203914897.79014,  -0.00067,   0.00167,   0.00304,476617312.00000,   0.00030,274964736.00000,  -0.00009,   0.00022,   0.00039,  64.00000,   2.00000
10798176.47957,322478666.54937,204230772.29620,  -0.00067,   0.00167,   0.00305,476627872.00000,   0.00030,274972480.00000,  -0.00010,   0.00022,   0.00040,   0.00000,   2.00000
10021949.10687,321510307.13098,204544484.37502,  -0.00068,   0.00167,   0.00307,476638016.00000,   0.00031,274980256.00000,  -0.00010,   0.00023,   0.00041, 160.00000,   2.00000
9264202.52530,320550983.52791,204856286.87247,  -0.00068,   0.00167,   0.00308,476647744.00000,   0.00032,274988032.00000,  -0.00010,   0.00023,   0.00042,  96.00000,   2.00000
8500031.47610,319596924.33337,205161965.51136,  -0.00069,   0.00168,   0.00309,476666944.00000,   0.00032,274995840.00000,  -0.00010,   0.00024,   0.00043,   0.00000,   2.00000
7731188.33146,318630436.67958,205471437.98871,  -0.00069,   0.00168,   0.00311,476674848.00000,   0.00033,275003680.00000,  -0.00010,   0.00024,   0.00044, 224.00000,   2.00000
6987572.38220,317687267.39076,205773320.97959,  -0.00069,   0.00168,   0.00312,476687136.00000,   0.00034,275011520.00000,  -0.00011,   0.00025,   0.00045, 192.00000,   2.00000
6230345.56203,316734962.98947,206074917.03479,  -0.00070,   0.00168,   0.00313,476703968.00000,   0.00035,275019424.00000,  -0.00011,   0.00025,   0.00045,  64.00000,   2.00000
5483690.35699,315784522.80075,206376637.34329,  -0.00070,   0.00168,   0.00315,476699520.00000,   0.00035,275027264.00000,  -0.00011,   0.00026,   0.00046, 192.00000,   2.00000
4730585.65579,314835724.30232,206674311.74871,  -0.00071,   0.00169,   0.00316,476724928.00000,   0.00036,275035168.00000,  -0.00011,   0.00026,   0.00047,  64.00000,   2.00000
3979464.37181,313888679.71162,206970085.53618,  -0.00071,   0.00169,   0.00318,476735232.00000,   0.00037,275043104.00000,  -0.00012,   0.00027,   0.00048,  96.00000,   2.00000
3253528.05755,312961713.57214,207260662.06897,  -0.00071,   0.00169,   0.00319,476753152.00000,   0.00037,275051072.00000,  -0.00012,   0.00027,   0.00049,  96.00000,   2.00000
2506173.60457,312018079.43565,207552701.76179,  -0.00072,   0.00169,   0.00320,476756384.00000,   0.00038,275059040.00000,  -0.00012,   0.00028,   0.00050,  32.00000,   2.00000
1760672.48824,311076149.79208,207842889.62680,  -0.00072,   0.00169,   0.00322,476766816.00000,   0.00039,275066976.00000,  -0.00012,   0.00028,   0.00051, 128.00000,   2.00000
1040268.55131,310154291.59841,208127910.38889,  -0.00073,   0.00170,   0.00323,476784736.00000,   0.00040,275074976.00000,  -0.00013,   0.00029,   0.00052,  96.00000,   2.00000
305626.40371,309226805.78140,208410814.40936,  -0.00073,   0.00170,   0.00324,476795744.00000,   0.00040,275083008.00000,  -0.00013,   0.00029,   0.00053,  64.00000,   2.00000
-434556.31222,308289903.00958,208695597.18544,  -0.00073,   0.00170,   0.00326,476798336.00000,   0.00041,275091008.00000,  -0.00013,   0.00030,   0.00054,   0.00000,   2.00000
-1165665.37788,307365839.76828,208974956.77552,  -0.00074,   0.00170,   0.00327,476816800.00000,   0.00042,275099040.00000,  -0.00013,   0.00030,   0.00055,   0.00000,   2.00000
-1895031.55547,306443463.20340,209252567.43351,  -0.00074,   0.00170,   0.00328,476827200.00000,   0.00043,275107072.00000,  -0.00014,   0.00031,   0.00056,  96.00000,   2.00000
-2615343.81450,305534069.17058,209524886.33111,  -0.00075,   0.00171,   0.00330,476845632.00000,   0.00043,275115168.00000,  -0.00014,   0.00031,   0.00057, 160.00000,   2.00000
-3341244.78752,304615050.19308,209799063.14658,  -0.00075,   0.00171,   0.00331,476848192.00000,   0.00044,275123232.00000,  -0.00014,   0.00032,   0.00058, 224.00000,   2.00000
-4065380.05469,303697590.95431,210071430.27482,  -0.00075,   0.00171,   0.00333,476858688.00000,   0.00045,275131296.00000,  -0.00014,   0.00032,   0.00060,  32.00000,   2.00000
-4780419.94761,302793245.01791,210338592.45785,  -0.00076,   0.00171,   0.00334,476876800.00000,   0.00046,275139424.00000,  -0.00015,   0.00033,   0.00061, 160.00000,   2.00000
-5501026.73972,301879258.00857,210607668.22323,  -0.00076,   0.00172,   0.00335,476879168.00000,   0.00046,275147520.00000,  -0.00015,   0.00033,   0.00062, 192.00000,   2.00000
-6228430.93813,300970878.58392,210871038.00669,  -0.00077,   0.00172,   0.00337,476898304.00000,   0.00047,275155648.00000,  -0.00015,   0.00034,   0.00063,   0.00000,   2.00000
-6937999.05534,300071679.34784,211133211.63294,  -0.00077,   0.00172,   0.00338,476907616.00000,   0.00048,275163808.00000,  -0.00015,   0.00034,   0.00064,  96.00000,   2.00000
-7661658.10262,299166782.31177,211393325.87645,  -0.00077,   0.00172,   0.00339,476918752.00000,   0.00049,275171936.00000,  -0.00016,   0.00035,   0.00065, 160.00000,   2.00000
-8367393.21472,298270960.46543,211652171.93505,  -0.00078,   0.00172,   0.00341,476928096.00000,   0.00049,275180128.00000,  -0.00016,   0.00035,   0.00066,   0.00000,   2.00000
-9087527.86239,297373069.81722,211907211.61295,  -0.00078,   0.00173,   0.00342,476932928.00000,   0.00050,275188256.00000,  -0.00016,   0.00036,   0.00067,   0.00000,   2.00000
-9797828.81428,296484812.87148,212158860.95869,  -0.00079,   0.00173,   0.00344,476957088.00000,   0.00051,275196480.00000,  -0.00016,   0.00036,   0.00068,  32.00000,   2.00000
-10513422.98135,295586890.54745,212412516.32859,  -0.00079,   0.00173,   0.00345,476959136.00000,   0.00052,275204672.00000,  -0.00017,   0.00037,   0.00069, -32.00000,   2.00000
-11219873.57939,294705846.34213,212659263.16408,  -0.00079,   0.00173,   0.00346,476971040.00000,   0.00052,275212896.00000,  -0.00017,   0.00037,   0.00070, 192.00000,   2.00000
-11931500.30103,293814986.36800,212907935.39650,  -0.00080,   0.00174,   0.00348,476973440.00000,   0.00053,275221056.00000,  -0.00017,   0.00038,   0.00071,   0.00000,   2.00000
-12633004.84370,292934027.73453,213153306.65218,  -0.00080,   0.00174,   0.00349,476997120.00000,   0.00054,275229312.00000,  -0.00017,   0.00038,   0.00072, 192.00000,   2.00000
-13348522.27944,292050912.99097,213394820.22198,  -0.00081,   0.00174,   0.00350,477002016.00000,   0.00055,275237568.00000,  -0.00018,   0.00039,   0.00073, -32.00000,   2.00000
-14045653.35436,291177247.05416,213635354.60136,  -0.00081,   0.00174,   0.00352,477010976.00000,   0.00055,275245792.00000,  -0.00018,   0.00039,   0.00074,  64.00000,   2.00000
-14756679.68518,290301447.25394,213872061.71195,  -0.00082,   0.00174,   0.00353,477015936.00000,   0.00056,275254048.00000,  -0.00018,   0.00040,   0.00075,   0.00000,   2.00000
-15464637.46606,289424039.78215,214108978.15266,  -0.00082,   0.00175,   0.00355,477031904.00000,   0.00057,275262304.00000,  -0.00018,   0.00040,   0.00076,   0.00000,   2.00000
-16162958.25746,288563849.60507,214339177.16759,  -0.00082,   0.00175,   0.00356,477043360.00000,   0.00058,275270592.00000,  -0.00019,   0.00040,   0.00077,  96.00000,   2.00000
-16865522.77944,287690329.16246,214573038.35894,  -0.00083,   0.00175,   0.00357,477051936.00000,   0.00058,275278880.00000,  -0.00019,   0.00041,   0.00078, 128.00000,   2.00000
-17558321.28969,286834108.25855,214800203.67063,  -0.00083,   0.00175,   0.00359,477063200.00000,   0.00059,275287168.00000,  -0.00019,   0.00041,   0.00079,   0.00000,   2.00000
-18271662.85027,285960641.81246,215028825.53662,  -0.00084,   0.00176,   0.00360,477066880.00000,   0.00060,275295456.00000,  -0.00020,   0.00042,   0.00080, 192.00000,   2.00000
-18958638.88622,285108488.66029,215252943.15448,  -0.00084,   0.00176,   0.00361,477083328.00000,   0.00061,275303776.00000,  -0.00020,   0.00042,   0.00081,  64.00000,   2.00000
-19659091.71068,284254281.28095,215473248.23761,  -0.00084,   0.00176,   0.00363,477088352.00000,   0.00061,275312096.00000,  -0.00020,   0.00043,   0.00083,  96.00000,   2.00000
-20355991.79996,283398801.08277,215693844.05003,  -0.00085,   0.00176,   0.00364,477104416.00000,   0.00062,275320448.00000,  -0.00020,   0.00043,   0.00084,  64.00000,   2.00000
-21050343.29633,282548808.83819,215911147.66904,  -0.00085,   0.00177,   0.00365,477108352.00000,   0.00063,275328768.00000,  -0.00021,   0.00044,   0.00085,   0.00000,   2.00000
-21741628.92172,281701093.19020,216127070.79496,  -0.00086,   0.00177,   0.00367,477118176.00000,   0.00064,275337088.00000,  -0.00021,   0.00044,   0.00086,  64.00000,   2.00000
-22438715.24093,280863225.48402,216335694.02561,  -0.00086,   0.00177,   0.00368,477130944.00000,   0.00065,275345440.00000,  -0.00021,   0.00045,   0.00087,  64.00000,   2.00000
-23139631.48854,280012231.53203,216548018.04447,  -0.00087,   0.00177,   0.00369,477139744.00000,   0.00065,275353824.00000,  -0.00021,   0.00045,   0.00088,  96.00000,   2.00000
-23830410.68091,279178760.18879,216753671.87316,  -0.00087,   0.00177,   0.00371,477151168.00000,   0.00066,275362208.00000,  -0.00022,   0.00046,   0.00089,  32.00000,   2.00000
-24525644.41632,278335554.68794,216961314.66242,  -0.00087,   0.00178,   0.00372,477153824.00000,   0.00067,275370560.00000,  -0.00022,   0.00046,   0.00090,   0.00000,   2.00000
-25210215.70069,277506637.14997,217164108.52649,  -0.00088,   0.00178,   0.00373,477171392.00000,   0.00068,275378944.00000,  -0.00022,   0.00047,   0.00091, 256.00000,   2.00000
-25908207.91591,276675578.99748,217363002.64585,  -0.00088,   0.00178,   0.00375,477176832.00000,   0.00068,275387328.00000,  -0.00022,   0.00047,   0.00092, 128.00000,   2.00000
-26603173.50142,275846784.55004,217560473.54725,  -0.00089,   0.00178,   0.00376,477186880.00000,   0.00069,275395712.00000,  -0.00023,   0.00048,   0.00093, 160.00000,   2.00000
-27295172.24335,275020190.07561,217756472.24749,  -0.00089,   0.00179,   0.00378,477197152.00000,   0.00070,275404128.00000,  -0.00023,   0.00048,   0.00094, 128.00000,   2.00000
-27984297.81911,274195871.63726,217951071.12768,  -0.00089,   0.00179,   0.00379,477207232.00000,   0.00071,275412544.00000,  -0.00023,   0.00049,   0.00096, 160.00000,   2.00000
-28671286.17510,273377042.85604,218142508.90001,  -0.00090,   0.00179,   0.00380,477211264.00000,   0.00071,275420928.00000,  -0.00024,   0.00049,   0.00097, 192.00000,   2.00000
-29363826.18572,272564894.58990,218328460.84868,  -0.00090,   0.00179,   0.00382,477230048.00000,   0.00072,275429376.00000,  -0.00024,   0.00050,   0.00098,   0.00000,   2.00000
-30062115.07779,271746138.89817,218514778.17567,  -0.00091,   0.00180,   0.00383,477226816.00000,   0.00073,275437760.00000,  -0.00024,   0.00050,   0.00099,  96.00000,   2.00000
-30766132.73241,270934006.12289,218695575.67503,  -0.00091,   0.00180,   0.00384,477245760.00000,   0.00074,275446176.00000,  -0.00024,   0.00051,   0.00100, 128.00000,   2.00000
-31459600.39011,270119388.14079,218879003.56366,  -0.00092,   0.00180,   0.00386,477247200.00000,   0.00075,275454592.00000,  -0.00025,   0.00051,   0.00101,  64.00000,   2.00000
-32159104.25428,269311483.24718,219057027.06437,  -0.00092,   0.00180,   0.00387,477265824.00000,   0.00075,275463040.00000,  -0.00025,   0.00052,   0.00102, 128.00000,   2.00000
-32857293.98737,268508904.38263,219232022.42091,  -0.00093,   0.00181,   0.00388,477269824.00000,   0.00076,275471456.00000,  -0.00025,   0.00052,   0.00103,  96.00000,   2.00000
-33553643.48807,267708303.23799,219405650.70310,  -0.00093,   0.00181,   0.00389,477280000.00000,   0.00077,275479904.00000,  -0.00026,   0.00053,   0.00104,   0.00000,   2.00000
-34264938.22771,266905317.39972,219575632.58165,  -0.00093,   0.00181,   0.00391,477285216.00000,   0.00078,275488320.00000,  -0.00026,   0.00053,   0.00105, 160.00000,   2.00000
-34974748.17062,266104176.61903,219744233.26449,  -0.00094,   0.00181,   0.00392,477295328.00000,   0.00078,275496768.00000,  -0.00026,   0.00053,   0.00106, 192.00000,   2.00000
-35683296.27882,265304903.72899,219911527.92725,  -0.00094,   0.00182,   0.00393,477305248.00000,   0.00079,275505184.00000,  -0.00026,   0.00054,   0.00108,  96.00000,   2.00000
-36407395.19407,264502975.16366,220075131.82210,  -0.00095,   0.00182,   0.00395,477310272.00000,   0.00080,275513600.00000,  -0.00027,   0.00054,   0.00109,  96.00000,   2.00000
-37107120.42716,263722949.06874,220234972.17008,  -0.00095,   0.00182,   0.00396,477325504.00000,   0.00081,275522048.00000,  -0.00027,   0.00055,   0.00110, 160.00000,   2.00000
-37830586.71257,262927748.46463,220394516.75210,  -0.00096,   0.00182,   0.00397,477323616.00000,   0.00082,275530432.00000,  -0.00027,   0.00055,   0.00111,  64.00000,   2.00000
-38561884.92358,262138891.10944,220548778.35156,  -0.00096,   0.00183,   0.00399,477341856.00000,   0.00082,275538880.00000,  -0.00027,   0.00056,   0.00112,  96.00000,   2.00000
-39300810.90509,261339140.73814,220705115.43052,  -0.00097,   0.00183,   0.00400,477344480.00000,   0.00083,275547296.00000,  -0.00028,   0.00056,   0.00113, 160.00000,   2.00000
