# sigma_xx, sigma_yy, sigma_xy, epsilon_xx, epsilon_yy, epsilon_xy, vonMises, epsPlastic, hardening, epsilonP__xx, epsilonP__yy, epsilonP__xy, yieldValue, iteration
   0.00000,   0.00000,   0.00000,   0.00000,   0.00000,   0.00000,   0.00000,   0.00000,274640135.82653,   0.00000,   0.00000,   0.00000,-474640135.82653,   0.00000
   0.00000,   0.00000,   0.00000,   0.00000,   0.00000,   0.00000,   0.00000,   0.00000,274640135.82653,   0.00000,   0.00000,   0.00000,-474640135.82653,   0.00000
-1750646.08725,-1552950.54100,109252.80188,  -0.00000,  -0.00000,   0.00000,1671394.28067,   0.00000,274640135.82653,   0.00000,   0.00000,   0.00000,-472968741.54586,   0.00000
-3483083.37419,-3098097.31043,218505.60376,  -0.00001,  -0.00001,   0.00000,3329020.81692,   0.00000,274640135.82653,   0.00000,   0.00000,   0.00000,-471311115.00961,   0.00000
-5215520.66114,-4643244.07986,322555.89126,  -0.00001,  -0.00001,   0.00000,4985635.64931,   0.00000,274640135.82653,   0.00000,   0.00000,   0.00000,-469654500.17722,   0.00000
-6921945.37620,-6162378.27742,431808.69314,  -0.00002,  -0.00001,   0.00001,6617549.71600,   0.00000,274640135.82653,   0.00000,   0.00000,   0.00000,-468022586.11053,   0.00000
-8654382.66314,-7707525.04686,535858.98065,  -0.00002,  -0.00002,   0.00001,8274167.33141,   0.00000,274640135.82653,   0.00000,   0.00000,   0.00000,-466365968.49512,   0.00000
-10360807.37821,-9226659.24441,645111.78252,  -0.00003,  -0.00002,   0.00001,9906080.90018,   0.00000,274640135.82653,   0.00000,   0.00000,   0.00000,-464734054.92635,   0.00000
-12049023.29296,-10737989.67041,749162.07003,  -0.00003,  -0.00003,   0.00001,11523229.93953,   0.00000,274640135.82653,   0.00000,   0.00000,   0.00000,-463116905.88700,   0.00000
-13737239.20771,-12249320.09640,853212.35753,  -0.00004,  -0.00003,   0.00001,13140382.70215,   0.00000,274640135.82653,   0.00000,   0.00000,   0.00000,-461499753.12438,   0.00000
-15417651.35090,-13742441.72208,957262.64504,  -0.00004,  -0.00003,   0.00001,14745560.61316,   0.00000,274640135.82653,   0.00000,   0.00000,   0.00000,-459894575.21337,   0.00000
-17098063.49409,-15235563.34777,1061312.93254,  -0.00005,  -0.00004,   0.00001,16350739.79078,   0.00000,274640135.82653,   0.00000,   0.00000,   0.00000,-458289396.03575,   0.00000
-18760266.83696,-16720881.20188,1165363.22004,  -0.00005,  -0.00004,   0.00002,17942171.02719,   0.00000,274640135.82653,   0.00000,   0.00000,   0.00000,-456697964.79934,   0.00000
-20422470.17984,-18206199.05600,1269413.50755,  -0.00006,  -0.00004,   0.00002,19533603.02052,   0.00000,274640135.82653,   0.00000,   0.00000,   0.00000,-455106532.80601,   0.00000
-22066464.72240,-19683713.13856,1373463.79505,  -0.00006,  -0.00005,   0.00002,21111292.59608,   0.00000,274640135.82653,   0.00000,   0.00000,   0.00000,-453528843.23045,   0.00000
-23702655.49340,-21143018.42080,1477514.08256,  -0.00007,  -0.00005,   0.00002,22677005.25322,   0.00000,274640135.82653,   0.00000,   0.00000,   0.00000,-451963130.57331,   0.00000
-25338846.26440,-22602323.70305,1581564.37006,  -0.00007,  -0.00005,   0.00002,24242718.47026,   0.00000,274640135.82653,   0.00000,   0.00000,   0.00000,-450397417.35627,   0.00000
-26956828.23509,-24053825.21373,1685614.65756,  -0.00008,  -0.00006,   0.00002,25794692.31347,   0.00000,274640135.82653,   0.00000,   0.00000,   0.00000,-448845443.51306,   0.00000
-28567006.43421,-25487117.92409,1789664.94507,  -0.00008,  -0.00006,   0.00002,27334686.33090,   0.00000,274640135.82653,   0.00000,   0.00000,   0.00000,-447305449.49563,   0.00000
-30184988.40490,-26938619.43477,1888512.71820,  -0.00008,  -0.00006,   0.00002,28885641.20170,   0.00000,274640135.82653,   0.00000,   0.00000,   0.00000,-445754494.62483,   0.00000
-31776957.80371,-28364108.37358,1992563.00570,  -0.00009,  -0.00007,   0.00003,30411897.97028,   0.00000,274640135.82653,   0.00000,   0.00000,   0.00000,-444228237.85625,   0.00000
-33368927.20252,-29789597.31238,2096613.29320,  -0.00009,  -0.00007,   0.00003,31938156.93611,   0.00000,274640135.82653,   0.00000,   0.00000,   0.00000,-442701978.89042,   0.00000
-34953092.82976,-31196877.45087,2195461.06633,  -0.00010,  -0.00007,   0.00003,33451407.37537,   0.00000,274640135.82653,   0.00000,   0.00000,   0.00000,-441188728.45116,   0.00000
-36519049.65670,-32596353.81780,2299511.35384,  -0.00010,  -0.00008,   0.00003,34951947.92488,   0.00000,274640135.82653,   0.00000,   0.00000,   0.00000,-439688187.90165,   0.00000
-38085006.48363,-33995830.18473,2403561.64134,  -0.00011,  -0.00008,   0.00003,36452491.01909,   0.00000,274640135.82653,   0.00000,   0.00000,   0.00000,-438187644.80744,   0.00000
-39632754.51025,-35387502.78009,2507611.92885,  -0.00011,  -0.00008,   0.00003,37939303.17525,   0.00000,274640135.82653,   0.00000,   0.00000,   0.00000,-436700832.65127,   0.00000
-41180502.53688,-36779175.37546,2606459.70197,  -0.00012,  -0.00009,   0.00003,39425087.21828,   0.00000,274640135.82653,   0.00000,   0.00000,   0.00000,-435215048.60825,   0.00000
-42720446.79193,-38152639.17051,2710509.98948,  -0.00012,  -0.00009,   0.00004,40899917.49785,   0.00000,274640135.82653,   0.00000,   0.00000,   0.00000,-433740218.32868,   0.00000
-44242182.24668,-39518299.19400,2814560.27698,  -0.00012,  -0.00009,   0.00004,42361021.17246,   0.00000,274640135.82653,   0.00000,   0.00000,   0.00000,-432279114.65407,   0.00000
-45756113.92986,-40865750.41718,2913408.05011,  -0.00013,  -0.00010,   0.00004,43809102.09766,   0.00000,274640135.82653,   0.00000,   0.00000,   0.00000,-430831033.72887,   0.00000
-47277849.38461,-42231410.44067,3017458.33761,  -0.00013,  -0.00010,   0.00004,45270210.65321,   0.00000,274640135.82653,   0.00000,   0.00000,   0.00000,-429369925.17332,   0.00000
-48773572.26748,-43571057.89228,3121508.62512,  -0.00014,  -0.00010,   0.00004,46705607.21149,   0.00000,274640135.82653,   0.00000,   0.00000,   0.00000,-427934528.61504,   0.00000
-50261491.37878,-44892496.54358,3225558.91262,  -0.00014,  -0.00011,   0.00004,48129020.60539,   0.00000,274640135.82653,   0.00000,   0.00000,   0.00000,-426511115.22114,   0.00000
-51739005.46134,-46224340.22363,3324406.68575,  -0.00015,  -0.00011,   0.00004,49549651.49623,   0.00000,274640135.82653,   0.00000,   0.00000,   0.00000,-425090484.33030,   0.00000
-53226924.57265,-47545778.87493,3428456.97326,  -0.00015,  -0.00011,   0.00004,50973070.87095,   0.00000,274640135.82653,   0.00000,   0.00000,   0.00000,-423667064.95558,   0.00000
-54678426.08333,-48851609.98310,3532507.26076,  -0.00015,  -0.00012,   0.00005,52369043.85246,   0.00000,274640135.82653,   0.00000,   0.00000,   0.00000,-422271091.97407,   0.00000
-56148136.39432,-50165244.86284,3636557.54826,  -0.00016,  -0.00012,   0.00005,53778747.23621,   0.00000,274640135.82653,   0.00000,   0.00000,   0.00000,-420861388.59032,   0.00000
-57591834.13344,-51452867.17070,3740607.83577,  -0.00016,  -0.00012,   0.00005,55162744.20383,   0.00000,274640135.82653,   0.00000,   0.00000,   0.00000,-419477391.62270,   0.00000
-59035531.87255,-52740489.47856,3844658.12327,  -0.00017,  -0.00012,   0.00005,56546746.98497,   0.00000,274640135.82653,   0.00000,   0.00000,   0.00000,-418093388.84156,   0.00000
-60461020.81136,-54020308.01486,3948708.41077,  -0.00017,  -0.00013,   0.00005,57917032.40662,   0.00000,274640135.82653,   0.00000,   0.00000,   0.00000,-416723103.41991,   0.00000
-61878705.97860,-55281917.75085,4057961.21265,  -0.00017,  -0.00013,   0.00005,59276405.90463,   0.00000,274640135.82653,   0.00000,   0.00000,   0.00000,-415363729.92190,   0.00000
-63278182.34553,-56535723.71527,4162011.50016,  -0.00018,  -0.00013,   0.00005,60620999.67713,   0.00000,274640135.82653,   0.00000,   0.00000,   0.00000,-414019136.14940,   0.00000
-64695867.51277,-57797333.45126,4266061.78766,  -0.00018,  -0.00014,   0.00006,61979321.14246,   0.00000,274640135.82653,   0.00000,   0.00000,   0.00000,-412660814.68407,   0.00000
-66077135.07938,-59043335.64412,4370112.07517,  -0.00019,  -0.00014,   0.00006,63310208.00817,   0.00000,274640135.82653,   0.00000,   0.00000,   0.00000,-411329927.81836,   0.00000
-67468807.67475,-60278932.80823,4479364.87705,  -0.00019,  -0.00014,   0.00006,64643918.15305,   0.00000,274640135.82653,   0.00000,   0.00000,   0.00000,-409996217.67348,   0.00000
-68842271.46980,-61506726.20077,4588617.67892,  -0.00019,  -0.00015,   0.00006,65963923.49865,   0.00000,274640135.82653,   0.00000,   0.00000,   0.00000,-408676212.32788,   0.00000
-70207931.49329,-62716310.79301,4692667.96643,  -0.00020,  -0.00015,   0.00006,67270872.07933,   0.00000,274640135.82653,   0.00000,   0.00000,   0.00000,-407369263.74720,   0.00000
-71555382.71647,-63918091.61368,4801920.76831,  -0.00020,  -0.00015,   0.00006,68565202.92763,   0.00000,274640135.82653,   0.00000,   0.00000,   0.00000,-406074932.89890,   0.00000
-72902833.93964,-65119872.43435,4911173.57019,  -0.00020,  -0.00015,   0.00006,69859549.19375,   0.00000,274640135.82653,   0.00000,   0.00000,   0.00000,-404780586.63278,   0.00000
-74250285.16282,-66321653.25502,5020426.37207,  -0.00021,  -0.00016,   0.00007,71153910.03632,   0.00000,274640135.82653,   0.00000,   0.00000,   0.00000,-403486225.79021,   0.00000
-75571723.81412,-67497421.50381,5129679.17394,  -0.00021,  -0.00016,   0.00007,72422590.94462,   0.00000,274640135.82653,   0.00000,   0.00000,   0.00000,-402217544.88191,   0.00000
-76893162.46542,-68673189.75261,5238931.97582,  -0.00022,  -0.00016,   0.00007,73691287.90303,   0.00000,274640135.82653,   0.00000,   0.00000,   0.00000,-400948847.92350,   0.00000
-78196392.31641,-69841154.22984,5348184.77770,  -0.00022,  -0.00017,   0.00007,74946284.36900,   0.00000,274640135.82653,   0.00000,   0.00000,   0.00000,-399693851.45752,   0.00000
-79491818.39583,-70990909.90676,5457437.57958,  -0.00022,  -0.00017,   0.00007,76189322.33592,   0.00000,274640135.82653,   0.00000,   0.00000,   0.00000,-398450813.49060,   0.00000
-80787244.47525,-72140665.58368,5571892.89584,  -0.00023,  -0.00017,   0.00007,77433499.75929,   0.00000,274640135.82653,   0.00000,   0.00000,   0.00000,-397206636.06724,   0.00000
-82082670.55468,-73290421.26060,5681145.69772,  -0.00023,  -0.00017,   0.00007,78676574.65925,   0.00000,274640135.82653,   0.00000,   0.00000,   0.00000,-395963561.16728,   0.00000
-83352084.06223,-74414164.36564,5795601.01397,  -0.00023,  -0.00018,   0.00008,79895112.90102,   0.00000,274640135.82653,   0.00000,   0.00000,   0.00000,-394745022.92551,   0.00000
-84603288.76946,-75530103.69912,5910056.33022,  -0.00024,  -0.00018,   0.00008,81099963.98793,   0.00000,274640135.82653,   0.00000,   0.00000,   0.00000,-393540171.83860,   0.00000
-85872702.27701,-76653846.80416,6024511.64648,  -0.00024,  -0.00018,   0.00008,82318554.91301,   0.00000,274640135.82653,   0.00000,   0.00000,   0.00000,-392321580.91352,   0.00000
-87116103.21268,-77751577.33733,6138966.96273,  -0.00024,  -0.00018,   0.00008,83511493.38412,   0.00000,274640135.82653,   0.00000,   0.00000,   0.00000,-391128642.44241,   0.00000
-88341295.34804,-78841504.09893,6253422.27899,  -0.00025,  -0.00019,   0.00008,84690746.26937,   0.00000,274640135.82653,   0.00000,   0.00000,   0.00000,-389949389.55716,   0.00000
-89584696.28371,-79939234.63210,6367877.59524,  -0.00025,  -0.00019,   0.00008,85883738.74806,   0.00000,274640135.82653,   0.00000,   0.00000,   0.00000,-388756397.07847,   0.00000
-90783875.84720,-81003148.82183,6487535.42587,  -0.00026,  -0.00019,   0.00008,87038536.14764,   0.00000,274640135.82653,   0.00000,   0.00000,   0.00000,-387601599.67889,   0.00000
-92001264.21099,-82074866.78312,6607193.25650,  -0.00026,  -0.00019,   0.00009,88207085.19205,   0.00000,274640135.82653,   0.00000,   0.00000,   0.00000,-386433050.63448,   0.00000
-93200443.77448,-83138780.97284,6721648.57276,  -0.00026,  -0.00020,   0.00009,89360785.68633,   0.00000,274640135.82653,   0.00000,   0.00000,   0.00000,-385279350.14020,   0.00000
-94391819.56640,-84184486.36226,6841306.40338,  -0.00027,  -0.00020,   0.00009,90503739.80147,   0.00000,274640135.82653,   0.00000,   0.00000,   0.00000,-384136396.02506,   0.00000
-95564986.55800,-85222387.98011,6960964.23401,  -0.00027,  -0.00020,   0.00009,91633022.30258,   0.00000,274640135.82653,   0.00000,   0.00000,   0.00000,-383007113.52395,   0.00000
-96738153.54961,-86260289.59796,7085824.57902,  -0.00027,  -0.00020,   0.00009,92763535.41799,   0.00000,274640135.82653,   0.00000,   0.00000,   0.00000,-381876600.40854,   0.00000
-97911320.54122,-87298191.21581,7205482.40965,  -0.00028,  -0.00021,   0.00009,93892899.76961,   0.00000,274640135.82653,   0.00000,   0.00000,   0.00000,-380747236.05692,   0.00000
-99058474.96095,-88310080.26179,7330342.75465,  -0.00028,  -0.00021,   0.00010,94997850.70054,   0.00000,274640135.82653,   0.00000,   0.00000,   0.00000,-379642285.12598,   0.00000
-100197825.60912,-89303760.50745,7450000.58528,  -0.00028,  -0.00021,   0.00010,96089701.85283,   0.00000,274640135.82653,   0.00000,   0.00000,   0.00000,-378550433.97370,   0.00000
-101344980.02885,-90315649.55343,7574860.93029,  -0.00029,  -0.00021,   0.00010,97194749.78290,   0.00000,274640135.82653,   0.00000,   0.00000,   0.00000,-377445386.04363,   0.00000
-102466121.87670,-91301526.02753,7699721.27529,  -0.00029,  -0.00022,   0.00010,98274201.17759,   0.00000,274640135.82653,   0.00000,   0.00000,   0.00000,-376365934.64894,   0.00000
-103579459.95300,-92269193.70132,7824581.62030,  -0.00029,  -0.00022,   0.00010,99341771.72349,   0.00000,274640135.82653,   0.00000,   0.00000,   0.00000,-375298364.10304,   0.00000
-104700601.80085,-93255070.17542,7954644.47968,  -0.00029,  -0.00022,   0.00010,100422563.54490,   0.00000,274640135.82653,   0.00000,   0.00000,   0.00000,-374217572.28163,   0.00000
-105795731.07683,-94214934.07764,8079504.82468,  -0.00030,  -0.00022,   0.00011,101476538.58342,   0.00000,274640135.82653,   0.00000,   0.00000,   0.00000,-373163597.24311,   0.00000
-106883056.58125,-95156589.17955,8209567.68406,  -0.00030,  -0.00022,   0.00011,102519891.47359,   0.00000,274640135.82653,   0.00000,   0.00000,   0.00000,-372120244.35294,   0.00000
-107959977.05691,-96108649.31021,8339630.54344,  -0.00030,  -0.00023,   0.00011,103561526.91354,   0.00000,274640135.82653,   0.00000,   0.00000,   0.00000,-371078608.91299,   0.00000
-109047302.56133,-97050304.41212,8469693.40282,  -0.00031,  -0.00023,   0.00011,104605014.18433,   0.00000,274640135.82653,   0.00000,   0.00000,   0.00000,-370035121.64220,   0.00000
-110090406.69355,-97958143.17059,8604958.77658,  -0.00031,  -0.00023,   0.00011,105610508.87779,   0.00000,274640135.82653,   0.00000,   0.00000,   0.00000,-369029626.94874,   0.00000
-111159523.39766,-98891994.50094,8735021.63596,  -0.00031,  -0.00023,   0.00011,106640428.78169,   0.00000,274640135.82653,   0.00000,   0.00000,   0.00000,-367999707.04484,   0.00000
-112202627.52989,-99799833.25941,8870287.00971,  -0.00032,  -0.00024,   0.00012,107646081.20768,   0.00000,274640135.82653,   0.00000,   0.00000,   0.00000,-366994054.61885,   0.00000
-113237927.89055,-100689463.21757,9005552.38347,  -0.00032,  -0.00024,   0.00012,108639910.07918,   0.00000,274640135.82653,   0.00000,   0.00000,   0.00000,-366000225.74735,   0.00000
-114262823.22246,-101589498.20448,9140817.75722,  -0.00032,  -0.00024,   0.00012,109632019.45336,   0.00000,274640135.82653,   0.00000,   0.00000,   0.00000,-365008116.37317,   0.00000
-115279914.78281,-102471324.39108,9276083.13098,  -0.00032,  -0.00024,   0.00012,110612308.02251,   0.00000,274640135.82653,   0.00000,   0.00000,   0.00000,-364027827.80402,   0.00000
-116289202.57160,-103334941.77736,9416551.01911,  -0.00033,  -0.00024,   0.00012,111582100.48697,   0.00000,274640135.82653,   0.00000,   0.00000,   0.00000,-363058035.33956,   0.00000
-117280281.56008,-104190755.39208,9551816.39286,  -0.00033,  -0.00025,   0.00012,112536964.65096,   0.00000,274640135.82653,   0.00000,   0.00000,   0.00000,-362103171.17557,   0.00000
-118271360.54855,-105046569.00680,9692284.28099,  -0.00033,  -0.00025,   0.00013,113493245.93325,   0.00000,274640135.82653,   0.00000,   0.00000,   0.00000,-361146889.89328,   0.00000
-119262439.53703,-105902382.62152,9832752.16912,  -0.00034,  -0.00025,   0.00013,114449625.03508,   0.00000,274640135.82653,   0.00000,   0.00000,   0.00000,-360190510.79145,   0.00000
-120227505.95363,-106732183.66436,9978422.57163,  -0.00034,  -0.00025,   0.00013,115381864.78687,   0.00000,274640135.82653,   0.00000,   0.00000,   0.00000,-359258271.03966,   0.00000
-121192572.37023,-107561984.70721,10118890.45976,  -0.00034,  -0.00025,   0.00013,116312864.15682,   0.00000,274640135.82653,   0.00000,   0.00000,   0.00000,-358327271.66971,   0.00000
-122157638.78683,-108391785.75005,10264560.86226,  -0.00034,  -0.00025,   0.00013,117245328.05204,   0.00000,274640135.82653,   0.00000,   0.00000,   0.00000,-357394807.77449,   0.00000
-123114901.43186,-109203377.99258,10410231.26477,  -0.00035,  -0.00026,   0.00014,118166037.19742,   0.00000,274640135.82653,   0.00000,   0.00000,   0.00000,-356474098.62911,   0.00000
-124053955.27659,-110007166.46355,10555901.66728,  -0.00035,  -0.00026,   0.00014,119073160.55501,   0.00000,274640135.82653,   0.00000,   0.00000,   0.00000,-355566975.27152,   0.00000
-124974800.32100,-110803151.16296,10706774.58416,  -0.00035,  -0.00026,   0.00014,119968089.07945,   0.00000,274640135.82653,   0.00000,   0.00000,   0.00000,-354672046.74708,   0.00000
-125906050.39416,-111588730.83361,10852444.98666,  -0.00036,  -0.00026,   0.00014,120863595.40292,   0.00000,274640135.82653,   0.00000,   0.00000,   0.00000,-353776540.42361,   0.00000
-126819091.66700,-112366506.73270,11003317.90354,  -0.00036,  -0.00026,   0.00014,121746928.27163,   0.00000,274640135.82653,   0.00000,   0.00000,   0.00000,-352893207.55490,   0.00000
-127713924.13954,-113136478.86023,11154190.82042,  -0.00036,  -0.00027,   0.00015,122616693.43126,   0.00000,274640135.82653,   0.00000,   0.00000,   0.00000,-352023442.39527,   0.00000
-128619161.64082,-113896045.95901,11305063.73730,  -0.00036,  -0.00027,   0.00015,123488450.79256,   0.00000,274640135.82653,   0.00000,   0.00000,   0.00000,-351151685.03397,   0.00000
-129506190.34179,-114647809.28623,11461139.16856,  -0.00037,  -0.00027,   0.00015,124348082.54415,   0.00000,274640135.82653,   0.00000,   0.00000,   0.00000,-350292053.28238,   0.00000
-130393219.04276,-115399572.61344,11617214.59982,  -0.00037,  -0.00027,   0.00015,125207867.99418,   0.00000,274640135.82653,   0.00000,   0.00000,   0.00000,-349432267.83235,   0.00000
-131254235.17186,-116125323.36878,11773290.03107,  -0.00037,  -0.00027,   0.00015,126042276.83467,   0.00000,274640135.82653,   0.00000,   0.00000,   0.00000,-348597858.99186,   0.00000
-132115251.30095,-116851074.12412,11929365.46233,  -0.00037,  -0.00027,   0.00016,126876843.46870,   0.00000,274640135.82653,   0.00000,   0.00000,   0.00000,-347763292.35783,   0.00000
-132976267.43005,-117576824.87946,12085440.89358,  -0.00038,  -0.00028,   0.00016,127711564.80285,   0.00000,274640135.82653,   0.00000,   0.00000,   0.00000,-346928571.02368,   0.00000
-133811270.98727,-118276563.06293,12246718.83921,  -0.00038,  -0.00028,   0.00016,128522413.41000,   0.00000,274640135.82653,   0.00000,   0.00000,   0.00000,-346117722.41653,   0.00000
-134646274.54449,-118976301.24639,12407996.78485,  -0.00038,  -0.00028,   0.00016,129333440.91035,   0.00000,274640135.82653,   0.00000,   0.00000,   0.00000,-345306694.91618,   0.00000
-135481278.10171,-119676039.42986,12569274.73048,  -0.00038,  -0.00028,   0.00016,130144643.95945,   0.00000,274640135.82653,   0.00000,   0.00000,   0.00000,-344495491.86708,   0.00000
-136308477.88736,-120357568.81301,12730552.67611,  -0.00039,  -0.00028,   0.00017,130944222.55961,   0.00000,274640135.82653,   0.00000,   0.00000,   0.00000,-343695913.26692,   0.00000
-137117468.87271,-121031294.42460,12897033.13611,  -0.00039,  -0.00028,   0.00017,131731811.44054,   0.00000,274640135.82653,   0.00000,   0.00000,   0.00000,-342908324.38599,   0.00000
-137926459.85805,-121705020.03618,13063513.59612,  -0.00039,  -0.00028,   0.00017,132519597.91995,   0.00000,274640135.82653,   0.00000,   0.00000,   0.00000,-342120537.90658,   0.00000
-138727647.07183,-122360536.84746,13229994.05613,  -0.00039,  -0.00029,   0.00017,133295798.49555,   0.00000,274640135.82653,   0.00000,   0.00000,   0.00000,-341344337.33098,   0.00000
-139518429.25686,-123026458.68748,13396474.51613,  -0.00039,  -0.00029,   0.00017,134070279.90855,   0.00000,274640135.82653,   0.00000,   0.00000,   0.00000,-340569855.91798,   0.00000
-140293603.89876,-123655962.92688,13562954.97614,  -0.00040,  -0.00029,   0.00018,134821411.58862,   0.00000,274640135.82653,   0.00000,   0.00000,   0.00000,-339818724.23791,   0.00000
-141058373.51192,-124295872.19503,13734637.95052,  -0.00040,  -0.00029,   0.00018,135572400.78781,   0.00000,274640135.82653,   0.00000,   0.00000,   0.00000,-339067735.03872,   0.00000
-141833548.15382,-124925376.43443,13906320.92490,  -0.00040,  -0.00029,   0.00018,136325540.34384,   0.00000,274640135.82653,   0.00000,   0.00000,   0.00000,-338314595.48269,   0.00000
-142590513.99541,-125547076.90227,14078003.89928,  -0.00040,  -0.00029,   0.00018,137065209.13576,   0.00000,274640135.82653,   0.00000,   0.00000,   0.00000,-337574926.69077,   0.00000
-143347479.83701,-126168777.37010,14254889.38804,  -0.00041,  -0.00029,   0.00019,137806711.38578,   0.00000,274640135.82653,   0.00000,   0.00000,   0.00000,-336833424.44075,   0.00000
-144078433.10672,-126764465.26606,14431774.87680,  -0.00041,  -0.00030,   0.00019,138523021.15467,   0.00000,274640135.82653,   0.00000,   0.00000,   0.00000,-336117114.67186,   0.00000
-144809386.37644,-127360153.16202,14608660.36555,  -0.00041,  -0.00030,   0.00019,139239578.57233,   0.00000,274640135.82653,   0.00000,   0.00000,   0.00000,-335400557.25420,   0.00000
-145540339.64615,-127955841.05798,14785545.85431,  -0.00041,  -0.00030,   0.00019,139956379.83499,   0.00000,274640135.82653,   0.00000,   0.00000,   0.00000,-334683755.99154,   0.00000
-146263489.14430,-128533320.15363,14962431.34307,  -0.00041,  -0.00030,   0.00019,140661699.92040,   0.00000,274640135.82653,   0.00000,   0.00000,   0.00000,-333978435.90613,   0.00000
-146968429.84214,-129102995.47771,15144519.34620,  -0.00042,  -0.00030,   0.00020,141355253.44673,   0.00000,274640135.82653,   0.00000,   0.00000,   0.00000,-333284882.37980,   0.00000
-147673370.53998,-129672670.80180,15326607.34933,  -0.00042,  -0.00030,   0.00020,142049076.84955,   0.00000,274640135.82653,   0.00000,   0.00000,   0.00000,-332591058.97698,   0.00000
-148370507.46626,-130224137.32557,15508695.35246,  -0.00042,  -0.00030,   0.00020,142731464.58731,   0.00000,274640135.82653,   0.00000,   0.00000,   0.00000,-331908671.23921,   0.00000
-149057239.36378,-130786008.87809,15690783.35560,  -0.00042,  -0.00030,   0.00020,143412138.05384,   0.00000,274640135.82653,   0.00000,   0.00000,   0.00000,-331227997.77269,   0.00000
-149754376.29006,-131337475.40186,15878073.87310,  -0.00043,  -0.00031,   0.00021,144096785.66992,   0.00000,274640135.82653,   0.00000,   0.00000,   0.00000,-330543350.15661,   0.00000
-150425500.64446,-131862929.35376,16065364.39061,  -0.00043,  -0.00031,   0.00021,144756360.88413,   0.00000,274640135.82653,   0.00000,   0.00000,   0.00000,-329883774.94240,   0.00000
-151086219.97011,-132398788.33440,16252654.90812,  -0.00043,  -0.00031,   0.00021,145414232.22606,   0.00000,274640135.82653,   0.00000,   0.00000,   0.00000,-329225903.60047,   0.00000
-151739135.52420,-132916438.51473,16439945.42562,  -0.00043,  -0.00031,   0.00021,146060723.04587,   0.00000,274640135.82653,   0.00000,   0.00000,   0.00000,-328579412.78065,   0.00000
-152402456.10704,-133423683.66632,16632438.45751,  -0.00043,  -0.00031,   0.00022,146711297.87470,   0.00000,274640135.82653,   0.00000,   0.00000,   0.00000,-327928837.95183,   0.00000
-153037162.86081,-133933530.07509,16824931.48939,  -0.00044,  -0.00031,   0.00022,147346500.46439,   0.00000,274640135.82653,   0.00000,   0.00000,   0.00000,-327293635.36213,   0.00000
-153682274.64334,-134432971.45510,17017424.52127,  -0.00044,  -0.00031,   0.00022,147984048.88881,   0.00000,274640135.82653,   0.00000,   0.00000,   0.00000,-326656086.93772,   0.00000
-154309177.62555,-134924609.06356,17209917.55315,  -0.00044,  -0.00031,   0.00022,148608245.90493,   0.00000,274640135.82653,   0.00000,   0.00000,   0.00000,-326031889.92160,   0.00000
-154936080.60776,-135416246.67202,17407613.09941,  -0.00044,  -0.00031,   0.00023,149234585.16145,   0.00000,274640135.82653,   0.00000,   0.00000,   0.00000,-325405550.66508,   0.00000
-155555179.81841,-135889675.48016,17600106.13129,  -0.00044,  -0.00031,   0.00023,149847810.03791,   0.00000,274640135.82653,   0.00000,   0.00000,   0.00000,-324792325.78862,   0.00000
-156156070.22874,-136355300.51674,17797801.67755,  -0.00044,  -0.00032,   0.00023,150449538.37882,   0.00000,274640135.82653,   0.00000,   0.00000,   0.00000,-324190597.44771,   0.00000
-156775169.43939,-136828729.32488,18000699.73818,  -0.00045,  -0.00032,   0.00023,151067148.21734,   0.00000,274640135.82653,   0.00000,   0.00000,   0.00000,-323572987.60919,   0.00000
-157376059.84973,-137294354.36146,18198395.28444,  -0.00045,  -0.00032,   0.00024,151669588.90009,   0.00000,274640135.82653,   0.00000,   0.00000,   0.00000,-322970546.92644,   0.00000
-157950937.68818,-137733966.82617,18401293.34507,  -0.00045,  -0.00032,   0.00024,152248999.71053,   0.00000,274640135.82653,   0.00000,   0.00000,   0.00000,-322391136.11600,   0.00000
-158544024.32696,-138181383.06243,18604191.40571,  -0.00045,  -0.00032,   0.00024,152842459.84225,   0.00000,274640135.82653,   0.00000,   0.00000,   0.00000,-321797675.98427,   0.00000
-159118902.16542,-138620995.52714,18807089.46634,  -0.00045,  -0.00032,   0.00024,153422634.06842,   0.00000,274640135.82653,   0.00000,   0.00000,   0.00000,-321217501.75811,   0.00000
-159693780.00388,-139060607.99184,19015190.04135,  -0.00046,  -0.00032,   0.00025,154005111.22706,   0.00000,274640135.82653,   0.00000,   0.00000,   0.00000,-320635024.59947,   0.00000
-160260854.07077,-139482011.65623,19218088.10198,  -0.00046,  -0.00032,   0.00025,154574484.75901,   0.00000,274640135.82653,   0.00000,   0.00000,   0.00000,-320065651.06752,   0.00000
-160809719.33736,-139895611.54906,19426188.67699,  -0.00046,  -0.00032,   0.00025,155132538.02428,   0.00000,274640135.82653,   0.00000,   0.00000,   0.00000,-319507597.80225,   0.00000
-161358584.60394,-140309211.44189,19634289.25200,  -0.00046,  -0.00032,   0.00026,155691001.08538,   0.00000,274640135.82653,   0.00000,   0.00000,   0.00000,-318949134.74115,   0.00000
-161907449.87052,-140722811.33472,19842389.82700,  -0.00046,  -0.00032,   0.00026,156249869.54826,   0.00000,274640135.82653,   0.00000,   0.00000,   0.00000,-318390266.27827,   0.00000
-162448511.36554,-141118202.42723,20055692.91639,  -0.00046,  -0.00033,   0.00026,156799606.01149,   0.00000,274640135.82653,   0.00000,   0.00000,   0.00000,-317840529.81504,   0.00000
-162971364.06025,-141505789.74819,20268996.00577,  -0.00047,  -0.00033,   0.00026,157336133.97906,   0.00000,274640135.82653,   0.00000,   0.00000,   0.00000,-317304001.84747,   0.00000
-163512425.55527,-141901180.84070,20482299.09515,  -0.00047,  -0.00033,   0.00027,157886750.22054,   0.00000,274640135.82653,   0.00000,   0.00000,   0.00000,-316753385.60599,   0.00000
-164035278.24998,-142288768.16165,20695602.18454,  -0.00047,  -0.00033,   0.00027,158424152.91743,   0.00000,274640135.82653,   0.00000,   0.00000,   0.00000,-316215982.90909,   0.00000
-164550327.17312,-142658146.68229,20908905.27392,  -0.00047,  -0.00033,   0.00027,158950493.03600,   0.00000,274640135.82653,   0.00000,   0.00000,   0.00000,-315689642.79053,   0.00000
-165054971.06752,-143037930.23168,21127410.87768,  -0.00047,  -0.00033,   0.00027,159477189.57361,   0.00000,274640135.82653,   0.00000,   0.00000,   0.00000,-315162946.25292,   0.00000
-165551811.19035,-143399504.98076,21345916.48144,  -0.00047,  -0.00033,   0.00028,159992865.13799,   0.00000,274640135.82653,   0.00000,   0.00000,   0.00000,-314647270.68853,   0.00000
-166059056.34193,-143750674.70108,21564422.08519,  -0.00048,  -0.00033,   0.00028,160511177.74291,   0.00000,274640135.82653,   0.00000,   0.00000,   0.00000,-314128958.08362,   0.00000
-166555896.46476,-144112249.45016,21782927.68895,  -0.00048,  -0.00033,   0.00028,161027792.65129,   0.00000,274640135.82653,   0.00000,   0.00000,   0.00000,-313612343.17524,   0.00000
-167026724.01572,-144447811.62736,22006635.80709,  -0.00048,  -0.00033,   0.00029,161521912.16871,   0.00000,274640135.82653,   0.00000,   0.00000,   0.00000,-313118223.65782,   0.00000
-167515760.36699,-144791177.57612,22230343.92522,  -0.00048,  -0.00033,   0.00029,162030168.30891,   0.00000,274640135.82653,   0.00000,   0.00000,   0.00000,-312609967.51762,   0.00000
-167986587.91794,-145126739.75332,22454052.04335,  -0.00048,  -0.00033,   0.00029,162525296.01395,   0.00000,274640135.82653,   0.00000,   0.00000,   0.00000,-312114839.81258,   0.00000
-168457415.46890,-145462301.93052,22677760.16149,  -0.00048,  -0.00033,   0.00029,163020922.26411,   0.00000,274640135.82653,   0.00000,   0.00000,   0.00000,-311619213.56242,   0.00000
-168928243.01985,-145797864.10772,22901468.27962,  -0.00048,  -0.00033,   0.00030,163517042.52606,   0.00000,274640135.82653,   0.00000,   0.00000,   0.00000,-311123093.30047,   0.00000
-169373057.99893,-146107413.71305,23130378.91213,  -0.00049,  -0.00033,   0.00030,163990831.89858,   0.00000,274640135.82653,   0.00000,   0.00000,   0.00000,-310649303.92795,   0.00000
-169836081.77832,-146424767.08993,23354087.03026,  -0.00049,  -0.00034,   0.00030,164476559.16983,   0.00000,274640135.82653,   0.00000,   0.00000,   0.00000,-310163576.65670,   0.00000
-170280896.75740,-146734316.69526,23582997.66277,  -0.00049,  -0.00034,   0.00031,164951404.36160,   0.00000,274640135.82653,   0.00000,   0.00000,   0.00000,-309688731.46493,   0.00000
-170725711.73648,-147043866.30058,23811908.29528,  -0.00049,  -0.00034,   0.00031,165426779.76643,   0.00000,274640135.82653,   0.00000,   0.00000,   0.00000,-309213356.06010,   0.00000
-171162722.94400,-147335207.10559,24046021.44216,  -0.00049,  -0.00034,   0.00031,165893577.89358,   0.00000,274640135.82653,   0.00000,   0.00000,   0.00000,-308746557.93295,   0.00000
-171581525.35120,-147618744.13904,24274932.07467,  -0.00049,  -0.00034,   0.00032,166345066.51812,   0.00000,274640135.82653,   0.00000,   0.00000,   0.00000,-308295069.30841,   0.00000
-172026340.33028,-147928293.74437,24509045.22156,  -0.00049,  -0.00034,   0.00032,166824334.99469,   0.00000,274640135.82653,   0.00000,   0.00000,   0.00000,-307815800.83184,   0.00000
-172445142.73748,-148211830.77781,24743158.36844,  -0.00050,  -0.00034,   0.00032,167279213.83285,   0.00000,274640135.82653,   0.00000,   0.00000,   0.00000,-307360921.99368,   0.00000
-172856141.37313,-148477159.01095,24977271.51532,  -0.00050,  -0.00034,   0.00032,167723331.25341,   0.00000,274640135.82653,   0.00000,   0.00000,   0.00000,-306916804.57311,   0.00000
-173274943.78033,-148760696.04440,25211384.66221,  -0.00050,  -0.00034,   0.00033,168179342.77322,   0.00000,274640135.82653,   0.00000,   0.00000,   0.00000,-306460793.05331,   0.00000
-173685942.41597,-149026024.27753,25445497.80909,  -0.00050,  -0.00034,   0.00033,168624604.10628,   0.00000,274640135.82653,   0.00000,   0.00000,   0.00000,-306015531.72025,   0.00000
-174086536.02286,-149301757.53942,25684813.47035,  -0.00050,  -0.00034,   0.00033,169070517.73049,   0.00000,274640135.82653,   0.00000,   0.00000,   0.00000,-305569618.09604,   0.00000
-174479325.85819,-149559282.00099,25924129.13161,  -0.00050,  -0.00034,   0.00034,169505730.57838,   0.00000,274640135.82653,   0.00000,   0.00000,   0.00000,-305134405.24815,   0.00000
-174872115.69351,-149816806.46256,26163444.79287,  -0.00050,  -0.00034,   0.00034,169941542.78310,   0.00000,274640135.82653,   0.00000,   0.00000,   0.00000,-304698593.04343,   0.00000
-175264905.52884,-150074330.92414,26402760.45413,  -0.00050,  -0.00034,   0.00034,170377949.74536,   0.00000,274640135.82653,   0.00000,   0.00000,   0.00000,-304262186.08117,   0.00000
-175649891.59261,-150313646.58539,26642076.11539,  -0.00051,  -0.00034,   0.00035,170803693.45507,   0.00000,274640135.82653,   0.00000,   0.00000,   0.00000,-303836442.37146,   0.00000
-176042681.42793,-150571171.04697,26886594.29102,  -0.00051,  -0.00034,   0.00035,171243736.80707,   0.00000,274640135.82653,   0.00000,   0.00000,   0.00000,-303396399.01946,   0.00000
-176409458.69139,-150802682.93666,27125909.95228,  -0.00051,  -0.00034,   0.00035,171657133.85361,   0.00000,274640135.82653,   0.00000,   0.00000,   0.00000,-302983001.97292,   0.00000
-176776235.95484,-151034194.82636,27370428.12791,  -0.00051,  -0.00034,   0.00036,172073618.40517,   0.00000,274640135.82653,   0.00000,   0.00000,   0.00000,-302566517.42136,   0.00000
-177161222.01860,-151273510.48762,27614946.30355,  -0.00051,  -0.00034,   0.00036,172504287.95652,   0.00000,274640135.82653,   0.00000,   0.00000,   0.00000,-302135847.87001,   0.00000
-177509790.48174,-151497218.60575,27859464.47918,  -0.00051,  -0.00034,   0.00036,172908480.74076,   0.00000,274640135.82653,   0.00000,   0.00000,   0.00000,-301731655.08577,   0.00000
-177876567.74519,-151728730.49545,28103982.65482,  -0.00051,  -0.00034,   0.00037,173326849.40566,   0.00000,274640135.82653,   0.00000,   0.00000,   0.00000,-301313286.42087,   0.00000
-178243345.00864,-151960242.38514,28348500.83045,  -0.00051,  -0.00034,   0.00037,173745837.05106,   0.00000,274640135.82653,   0.00000,   0.00000,   0.00000,-300894298.77547,   0.00000
-178584109.70022,-152165741.70296,28598221.52046,  -0.00052,  -0.00034,   0.00037,174143298.74829,   0.00000,274640135.82653,   0.00000,   0.00000,   0.00000,-300496837.07824,   0.00000
-178950886.96367,-152397253.59266,28842739.69610,  -0.00052,  -0.00034,   0.00037,174563541.57145,   0.00000,274640135.82653,   0.00000,   0.00000,   0.00000,-300076594.25508,   0.00000
-179291651.65524,-152602752.91048,29092460.38610,  -0.00052,  -0.00034,   0.00038,174962312.18927,   0.00000,274640135.82653,   0.00000,   0.00000,   0.00000,-299677823.63726,   0.00000
-179632416.34682,-152808252.22830,29342181.07611,  -0.00052,  -0.00034,   0.00038,175361746.50440,   0.00000,274640135.82653,   0.00000,   0.00000,   0.00000,-299278389.32213,   0.00000
-179973181.03840,-153013751.54612,29591901.76612,  -0.00052,  -0.00035,   0.00038,175761839.99188,   0.00000,274640135.82653,   0.00000,   0.00000,   0.00000,-298878295.83465,   0.00000
-180295736.92966,-153211447.09238,29841622.45613,  -0.00052,  -0.00035,   0.00039,176149075.52415,   0.00000,274640135.82653,   0.00000,   0.00000,   0.00000,-298491060.30238,   0.00000
-180636501.62123,-153416946.41020,30091343.14614,  -0.00052,  -0.00035,   0.00039,176550478.53760,   0.00000,274640135.82653,   0.00000,   0.00000,   0.00000,-298089657.28893,   0.00000
-180959057.51250,-153614641.95646,30346266.35053,  -0.00052,  -0.00035,   0.00039,176941700.94953,   0.00000,274640135.82653,   0.00000,   0.00000,   0.00000,-297698434.87700,   0.00000
-181273809.63220,-153794128.70240,30595987.04054,  -0.00052,  -0.00035,   0.00040,177319834.59812,   0.00000,274640135.82653,   0.00000,   0.00000,   0.00000,-297320301.22841,   0.00000
-181614574.32377,-153999628.02022,30850910.24492,  -0.00053,  -0.00035,   0.00040,177725907.33227,   0.00000,274640135.82653,   0.00000,   0.00000,   0.00000,-296914228.49426,   0.00000
-181929326.44347,-154179114.76617,31100630.93493,  -0.00053,  -0.00035,   0.00040,178105374.66019,   0.00000,274640135.82653,   0.00000,   0.00000,   0.00000,-296534761.16634,   0.00000
-182225869.76286,-154350797.74055,31355554.13932,  -0.00053,  -0.00035,   0.00041,178474761.05394,   0.00000,274640135.82653,   0.00000,   0.00000,   0.00000,-296165374.77259,   0.00000
-182548425.65412,-154548493.28681,31610477.34370,  -0.00053,  -0.00035,   0.00041,178869357.86486,   0.00000,274640135.82653,   0.00000,   0.00000,   0.00000,-295770777.96167,   0.00000
-182863177.77382,-154727980.03275,31865400.54808,  -0.00053,  -0.00035,   0.00041,179253593.34616,   0.00000,274640135.82653,   0.00000,   0.00000,   0.00000,-295386542.48037,   0.00000
-183159721.09320,-154899663.00713,32120323.75247,  -0.00053,  -0.00035,   0.00042,179625041.54693,   0.00000,274640135.82653,   0.00000,   0.00000,   0.00000,-295015094.27960,   0.00000
-183474473.21290,-155079149.75308,32375246.95685,  -0.00053,  -0.00035,   0.00042,180010637.31955,   0.00000,274640135.82653,   0.00000,   0.00000,   0.00000,-294629498.50698,   0.00000
-183771016.53229,-155250832.72746,32630170.16124,  -0.00053,  -0.00035,   0.00042,180383447.81694,   0.00000,274640135.82653,   0.00000,   0.00000,   0.00000,-294256688.00959,   0.00000
-184067559.85168,-155422515.70184,32885093.36562,  -0.00053,  -0.00035,   0.00043,180756935.86303,   0.00000,274640135.82653,   0.00000,   0.00000,   0.00000,-293883199.96350,   0.00000
-184356299.39950,-155575989.87591,33145219.08438,  -0.00054,  -0.00035,   0.00043,181122987.57934,   0.00000,274640135.82653,   0.00000,   0.00000,   0.00000,-293517148.24719,   0.00000
-184652842.71889,-155747672.85029,33400142.28877,  -0.00054,  -0.00035,   0.00043,181497845.43768,   0.00000,274640135.82653,   0.00000,   0.00000,   0.00000,-293142290.38885,   0.00000
-184949386.03827,-155919355.82467,33660268.00753,  -0.00054,  -0.00035,   0.00044,181876256.59353,   0.00000,274640135.82653,   0.00000,   0.00000,   0.00000,-292763879.23300,   0.00000
-185219916.78578,-156065026.22718,33915191.21191,  -0.00054,  -0.00035,   0.00044,182228097.17295,   0.00000,274640135.82653,   0.00000,   0.00000,   0.00000,-292412038.65358,   0.00000
-185516460.10517,-156236709.20156,34175316.93067,  -0.00054,  -0.00035,   0.00044,182607891.13416,   0.00000,274640135.82653,   0.00000,   0.00000,   0.00000,-292032244.69237,   0.00000
-185786990.85268,-156382379.60406,34430240.13506,  -0.00054,  -0.00035,   0.00045,182961108.43285,   0.00000,274640135.82653,   0.00000,   0.00000,   0.00000,-291679027.39368,   0.00000
-186083534.17207,-156554062.57844,34690365.85382,  -0.00054,  -0.00035,   0.00045,183342268.43640,   0.00000,274640135.82653,   0.00000,   0.00000,   0.00000,-291297867.39013,   0.00000
-186354064.91958,-156699732.98095,34950491.57258,  -0.00054,  -0.00035,   0.00045,183699815.45726,   0.00000,274640135.82653,   0.00000,   0.00000,   0.00000,-290940320.36927,   0.00000
-186632399.43865,-156863612.18377,35210617.29134,  -0.00054,  -0.00035,   0.00046,184068942.87524,   0.00000,274640135.82653,   0.00000,   0.00000,   0.00000,-290571192.95129,   0.00000
-186902930.18616,-157009282.58627,35465540.49572,  -0.00054,  -0.00035,   0.00046,184424886.70618,   0.00000,274640135.82653,   0.00000,   0.00000,   0.00000,-290215249.12035,   0.00000
-187173460.93367,-157154952.98878,35725666.21448,  -0.00055,  -0.00035,   0.00046,184784514.91513,   0.00000,274640135.82653,   0.00000,   0.00000,   0.00000,-289855620.91140,   0.00000
-187443991.68118,-157300623.39128,35985791.93324,  -0.00055,  -0.00035,   0.00047,185144838.05240,   0.00000,274640135.82653,   0.00000,   0.00000,   0.00000,-289495297.77413,   0.00000
-187722326.20025,-157464502.59410,36245917.65200,  -0.00055,  -0.00035,   0.00047,185516679.16826,   0.00000,274640135.82653,   0.00000,   0.00000,   0.00000,-289123456.65827,   0.00000
-187992856.94776,-157610172.99661,36506043.37076,  -0.00055,  -0.00035,   0.00047,185878368.28825,   0.00000,274640135.82653,   0.00000,   0.00000,   0.00000,-288761767.53828,   0.00000
-188245178.89496,-157748039.62755,36766169.08952,  -0.00055,  -0.00035,   0.00048,186227379.86685,   0.00000,274640135.82653,   0.00000,   0.00000,   0.00000,-288412755.95968,   0.00000
-188515709.64247,-157893710.03006,37026294.80828,  -0.00055,  -0.00035,   0.00048,186590436.99062,   0.00000,274640135.82653,   0.00000,   0.00000,   0.00000,-288049698.83591,   0.00000
-188768031.58967,-158031576.66100,37281218.01267,  -0.00055,  -0.00035,   0.00048,186937708.78668,   0.00000,274640135.82653,   0.00000,   0.00000,   0.00000,-287702427.03985,   0.00000
-189028157.30843,-158187652.09226,37541343.73143,  -0.00055,  -0.00035,   0.00049,187299531.80245,   0.00000,274640135.82653,   0.00000,   0.00000,   0.00000,-287340604.02408,   0.00000
-189298688.05594,-158333322.49476,37801469.45019,  -0.00055,  -0.00035,   0.00049,187664587.40506,   0.00000,274640135.82653,   0.00000,   0.00000,   0.00000,-286975548.42146,   0.00000
-189551010.00313,-158471189.12570,38061595.16895,  -0.00055,  -0.00035,   0.00049,188016978.75820,   0.00000,274640135.82653,   0.00000,   0.00000,   0.00000,-286623157.06833,   0.00000
-189803331.95033,-158609055.75665,38321720.88771,  -0.00055,  -0.00035,   0.00050,188370042.74231,   0.00000,274640135.82653,   0.00000,   0.00000,   0.00000,-286270093.08422,   0.00000
-190055653.89753,-158746922.38759,38581846.60646,  -0.00056,  -0.00035,   0.00050,188723775.58233,   0.00000,274640135.82653,   0.00000,   0.00000,   0.00000,-285916360.24420,   0.00000
-190307975.84473,-158884789.01853,38841972.32522,  -0.00056,  -0.00035,   0.00050,189078173.52431,   0.00000,274640135.82653,   0.00000,   0.00000,   0.00000,-285561962.30222,   0.00000
-190568101.56349,-159040864.44979,39102098.04398,  -0.00056,  -0.00035,   0.00051,189443934.98753,   0.00000,274640135.82653,   0.00000,   0.00000,   0.00000,-285196200.83900,   0.00000
-190820423.51068,-159178731.08073,39357021.24837,  -0.00056,  -0.00035,   0.00051,189796403.92585,   0.00000,274640135.82653,   0.00000,   0.00000,   0.00000,-284843731.90068,   0.00000
-191072745.45788,-159316597.71167,39617146.96713,  -0.00056,  -0.00035,   0.00052,190152748.18656,   0.00000,274640135.82653,   0.00000,   0.00000,   0.00000,-284487387.63997,   0.00000
-191306858.60476,-159446660.57105,39877272.68589,  -0.00056,  -0.00035,   0.00052,190496463.47953,   0.00000,274640135.82653,   0.00000,   0.00000,   0.00000,-284143672.34699,   0.00000
-191559180.55196,-159584527.20200,40132195.89027,  -0.00056,  -0.00035,   0.00052,190850829.59569,   0.00000,274640135.82653,   0.00000,   0.00000,   0.00000,-283789306.23084,   0.00000
-191819306.27072,-159740602.63325,40392321.60903,  -0.00056,  -0.00035,   0.00053,191219752.49001,   0.00000,274640135.82653,   0.00000,   0.00000,   0.00000,-283420383.33652,   0.00000
-192053419.41760,-159870665.49263,40647244.81342,  -0.00056,  -0.00035,   0.00053,191562086.94674,   0.00000,274640135.82653,   0.00000,   0.00000,   0.00000,-283078048.87979,   0.00000
-192305741.36480,-160008532.12358,40907370.53218,  -0.00056,  -0.00035,   0.00053,191921619.44674,   0.00000,274640135.82653,   0.00000,   0.00000,   0.00000,-282718516.37979,   0.00000
-192547658.28325,-160156803.78327,41162293.73656,  -0.00056,  -0.00035,   0.00054,192275812.98437,   0.00000,274640135.82653,   0.00000,   0.00000,   0.00000,-282364322.84215,   0.00000
-192799980.23045,-160294670.41421,41417216.94095,  -0.00056,  -0.00035,   0.00054,192633231.89563,   0.00000,274640135.82653,   0.00000,   0.00000,   0.00000,-282006903.93090,   0.00000
-193041897.14889,-160442942.07390,41677342.65971,  -0.00057,  -0.00035,   0.00054,192991980.31939,   0.00000,274640135.82653,   0.00000,   0.00000,   0.00000,-281648155.50714,   0.00000
-193276010.29578,-160573004.93328,41932265.86409,  -0.00057,  -0.00035,   0.00055,193337376.30355,   0.00000,274640135.82653,   0.00000,   0.00000,   0.00000,-281302759.52298,   0.00000
-193536136.01454,-160729080.36454,42187189.06848,  -0.00057,  -0.00035,   0.00055,193707162.55173,   0.00000,274640135.82653,   0.00000,   0.00000,   0.00000,-280932973.27480,   0.00000
-193778052.93298,-160877352.02423,42442112.27286,  -0.00057,  -0.00035,   0.00055,194064305.93776,   0.00000,274640135.82653,   0.00000,   0.00000,   0.00000,-280575829.88877,   0.00000
-194012166.07987,-161007414.88361,42691832.96287,  -0.00057,  -0.00035,   0.00055,194408046.96104,   0.00000,274640135.82653,   0.00000,   0.00000,   0.00000,-280232088.86549,   0.00000
-194254082.99831,-161155686.54331,42946756.16726,  -0.00057,  -0.00035,   0.00056,194766335.78007,   0.00000,274640135.82653,   0.00000,   0.00000,   0.00000,-279873800.04646,   0.00000
-194495999.91676,-161303958.20300,43201679.37164,  -0.00057,  -0.00035,   0.00056,195125194.62115,   0.00000,274640135.82653,   0.00000,   0.00000,   0.00000,-279514941.20538,   0.00000
-194737916.83521,-161452229.86269,43451400.06165,  -0.00057,  -0.00035,   0.00056,195481150.93544,   0.00000,274640135.82653,   0.00000,   0.00000,   0.00000,-279158984.89109,   0.00000
-194979833.75365,-161600501.52239,43706323.26603,  -0.00057,  -0.00036,   0.00057,195841126.48229,   0.00000,274640135.82653,   0.00000,   0.00000,   0.00000,-278799009.34424,   0.00000
-195221750.67210,-161748773.18208,43956043.95604,  -0.00057,  -0.00036,   0.00057,196198165.87449,   0.00000,274640135.82653,   0.00000,   0.00000,   0.00000,-278441969.95204,   0.00000
-195463667.59055,-161897044.84177,44205764.64605,  -0.00057,  -0.00036,   0.00057,196555735.61570,   0.00000,274640135.82653,   0.00000,   0.00000,   0.00000,-278084400.21083,   0.00000
-195705584.50899,-162045316.50146,44455485.33606,  -0.00057,  -0.00036,   0.00058,196913832.81679,   0.00000,274640135.82653,   0.00000,   0.00000,   0.00000,-277726303.00974,   0.00000
-195955305.19900,-162211796.96147,44705206.02607,  -0.00058,  -0.00036,   0.00058,197282925.93669,   0.00000,274640135.82653,   0.00000,   0.00000,   0.00000,-277357209.88984,   0.00000
-196197222.11745,-162360068.62116,44949724.20171,  -0.00058,  -0.00036,   0.00058,197638509.71010,   0.00000,274640135.82653,   0.00000,   0.00000,   0.00000,-277001626.11643,   0.00000
-196439139.03590,-162508340.28086,45199444.89172,  -0.00058,  -0.00036,   0.00059,197998149.00811,   0.00000,274640135.82653,   0.00000,   0.00000,   0.00000,-276641986.81842,   0.00000
-196688859.72591,-162674820.74086,45443963.06735,  -0.00058,  -0.00036,   0.00059,198365171.29656,   0.00000,274640135.82653,   0.00000,   0.00000,   0.00000,-276274964.52997,   0.00000
-196938580.41591,-162841301.20087,45688481.24298,  -0.00058,  -0.00036,   0.00059,198732662.37919,   0.00000,274640135.82653,   0.00000,   0.00000,   0.00000,-275907473.44734,   0.00000
-197188301.10592,-163007781.66088,45932999.41862,  -0.00058,  -0.00036,   0.00060,199100619.66016,   0.00000,274640135.82653,   0.00000,   0.00000,   0.00000,-275539516.16637,   0.00000
-197412009.22406,-163148249.54901,46177517.59425,  -0.00058,  -0.00036,   0.00060,199445527.31367,   0.00000,274640135.82653,   0.00000,   0.00000,   0.00000,-275194608.51285,   0.00000
-197661729.91407,-163314730.00901,46422035.76989,  -0.00058,  -0.00036,   0.00060,199814425.58427,   0.00000,274640135.82653,   0.00000,   0.00000,   0.00000,-274825710.24226,   0.00000
-197919254.37564,-163499419.26933,46661351.43115,  -0.00058,  -0.00036,   0.00061,200190542.61759,   0.00000,274640135.82653,   0.00000,   0.00000,   0.00000,-274449593.20894,   0.00000
-198168975.06565,-163665899.72934,46900667.09241,  -0.00058,  -0.00036,   0.00061,200556684.08548,   0.00000,274640135.82653,   0.00000,   0.00000,   0.00000,-274083451.74105,   0.00000
-198400486.95535,-163824576.41778,47139982.75366,  -0.00058,  -0.00036,   0.00061,200910187.01920,   0.00000,274640135.82653,   0.00000,   0.00000,   0.00000,-273729948.80733,   0.00000
-198658011.41692,-164009265.67810,47379298.41492,  -0.00058,  -0.00036,   0.00062,201287565.21381,   0.00000,274640135.82653,   0.00000,   0.00000,   0.00000,-273352570.61272,   0.00000
-198907732.10693,-164175746.13811,47618614.07618,  -0.00058,  -0.00036,   0.00062,201654986.05351,   0.00000,274640135.82653,   0.00000,   0.00000,   0.00000,-272985149.77302,   0.00000
-199165256.56850,-164360435.39843,47852727.22307,  -0.00059,  -0.00036,   0.00062,202029488.86382,   0.00000,274640135.82653,   0.00000,   0.00000,   0.00000,-272610646.96271,   0.00000
-199404572.22976,-164537320.88718,48086840.36995,  -0.00059,  -0.00036,   0.00063,202391333.69248,   0.00000,274640135.82653,   0.00000,   0.00000,   0.00000,-272248802.13405,   0.00000
-199662096.69133,-164722010.14750,48320953.51683,  -0.00059,  -0.00036,   0.00063,202766602.80056,   0.00000,274640135.82653,   0.00000,   0.00000,   0.00000,-271873533.02597,   0.00000
-199919621.15290,-164906699.40782,48555066.66372,  -0.00059,  -0.00036,   0.00063,203142248.32976,   0.00000,274640135.82653,   0.00000,   0.00000,   0.00000,-271497887.49677,   0.00000
-200177145.61448,-165091388.66814,48789179.81060,  -0.00059,  -0.00036,   0.00063,203518268.19573,   0.00000,274640135.82653,   0.00000,   0.00000,   0.00000,-271121867.63080,   0.00000
-200424265.04730,-165286482.95721,49018090.44311,  -0.00059,  -0.00036,   0.00064,203888217.34281,   0.00000,274640135.82653,   0.00000,   0.00000,   0.00000,-270751918.48372,   0.00000
-200681789.50887,-165471172.21753,49247001.07562,  -0.00059,  -0.00036,   0.00064,204261204.99891,   0.00000,274640135.82653,   0.00000,   0.00000,   0.00000,-270378930.82762,   0.00000
-200947117.74200,-165674070.27817,49475911.70813,  -0.00059,  -0.00036,   0.00064,204644844.30941,   0.00000,274640135.82653,   0.00000,   0.00000,   0.00000,-269995291.51712,   0.00000
-201212445.97514,-165876968.33880,49699619.82626,  -0.00059,  -0.00036,   0.00065,205025030.52750,   0.00000,274640135.82653,   0.00000,   0.00000,   0.00000,-269615105.29903,   0.00000
-201477774.20827,-166079866.39943,49923327.94440,  -0.00059,  -0.00036,   0.00065,205405525.04580,   0.00000,274640135.82653,   0.00000,   0.00000,   0.00000,-269234610.78073,   0.00000
-201724893.64110,-166274960.68850,50147036.06253,  -0.00059,  -0.00036,   0.00065,205773351.49134,   0.00000,274640135.82653,   0.00000,   0.00000,   0.00000,-268866784.33519,   0.00000
-201990221.87423,-166477858.74913,50370744.18066,  -0.00059,  -0.00036,   0.00065,206154464.34301,   0.00000,274640135.82653,   0.00000,   0.00000,   0.00000,-268485671.48352,   0.00000
-202263353.87893,-166698965.61008,50589249.78442,  -0.00060,  -0.00036,   0.00066,206542330.20529,   0.00000,274640135.82653,   0.00000,   0.00000,   0.00000,-268097805.62124,   0.00000
-202528682.11206,-166901863.67071,50807755.38818,  -0.00060,  -0.00036,   0.00066,206920198.88422,   0.00000,274640135.82653,   0.00000,   0.00000,   0.00000,-267719936.94231,   0.00000
-202801814.11676,-167122970.53166,51026260.99194,  -0.00060,  -0.00036,   0.00066,207308609.12279,   0.00000,274640135.82653,   0.00000,   0.00000,   0.00000,-267331526.70374,   0.00000
-203074946.12146,-167344077.39260,51239564.08132,  -0.00060,  -0.00037,   0.00067,207693435.77036,   0.00000,274640135.82653,   0.00000,   0.00000,   0.00000,-266946700.05616,   0.00000
-203329869.32585,-167557380.48199,51458069.68508,  -0.00060,  -0.00037,   0.00067,208069435.62958,   0.00000,274640135.82653,   0.00000,   0.00000,   0.00000,-266570700.19695,   0.00000
-203610805.10211,-167796696.14325,51666170.26009,  -0.00060,  -0.00037,   0.00067,208461148.04383,   0.00000,274640135.82653,   0.00000,   0.00000,   0.00000,-266178987.78270,   0.00000
-203883937.10680,-168017803.00419,51879473.34947,  -0.00060,  -0.00037,   0.00067,208846714.17346,   0.00000,274640135.82653,   0.00000,   0.00000,   0.00000,-265793421.65307,   0.00000
-204164872.88306,-168257118.66545,52087573.92448,  -0.00060,  -0.00037,   0.00068,209238873.36957,   0.00000,274640135.82653,   0.00000,   0.00000,   0.00000,-265401262.45696,   0.00000
-204445808.65932,-168496434.32671,52295674.49949,  -0.00060,  -0.00037,   0.00068,209631247.67341,   0.00000,274640135.82653,   0.00000,   0.00000,   0.00000,-265008888.15312,   0.00000
-204726744.43559,-168735749.98797,52503775.07449,  -0.00060,  -0.00037,   0.00068,210023835.87936,   0.00000,274640135.82653,   0.00000,   0.00000,   0.00000,-264616299.94717,   0.00000
-205007680.21185,-168975065.64923,52706673.13513,  -0.00060,  -0.00037,   0.00069,210412727.07118,   0.00000,274640135.82653,   0.00000,   0.00000,   0.00000,-264227408.75535,   0.00000
-205296419.75967,-169232590.11080,52909571.19576,  -0.00060,  -0.00037,   0.00069,210812032.00411,   0.00000,274640135.82653,   0.00000,   0.00000,   0.00000,-263828103.82242,   0.00000
-205577355.53593,-169471905.77206,53107266.74202,  -0.00060,  -0.00037,   0.00069,211197384.14888,   0.00000,274640135.82653,   0.00000,   0.00000,   0.00000,-263442751.67765,   0.00000
-205884303.88407,-169737234.00519,53304962.28827,  -0.00061,  -0.00037,   0.00069,211606001.66550,   0.00000,274640135.82653,   0.00000,   0.00000,   0.00000,-263034134.16103,   0.00000
-206173043.43189,-169994758.46677,53502657.83453,  -0.00061,  -0.00037,   0.00070,212001906.14628,   0.00000,274640135.82653,   0.00000,   0.00000,   0.00000,-262638229.68025,   0.00000
-206469586.75128,-170270491.72865,53700353.38079,  -0.00061,  -0.00037,   0.00070,212408183.46588,   0.00000,274640135.82653,   0.00000,   0.00000,   0.00000,-262231952.36065,   0.00000
-206758326.29910,-170528016.19022,53892846.41267,  -0.00061,  -0.00037,   0.00070,212800468.20569,   0.00000,274640135.82653,   0.00000,   0.00000,   0.00000,-261839667.62084,   0.00000
-207054869.61849,-170803749.45211,54080136.93018,  -0.00061,  -0.00037,   0.00070,213199144.97397,   0.00000,274640135.82653,   0.00000,   0.00000,   0.00000,-261440990.85256,   0.00000
-207369621.73819,-171087286.48556,54272629.96206,  -0.00061,  -0.00037,   0.00071,213614767.33387,   0.00000,274640135.82653,   0.00000,   0.00000,   0.00000,-261025368.49266,   0.00000
-207666165.05757,-171363019.74744,54454717.96519,  -0.00061,  -0.00037,   0.00071,214009739.09860,   0.00000,274640135.82653,   0.00000,   0.00000,   0.00000,-260630396.72793,   0.00000
-207962708.37696,-171638753.00933,54642008.48270,  -0.00061,  -0.00038,   0.00071,214408807.99278,   0.00000,274640135.82653,   0.00000,   0.00000,   0.00000,-260231327.83375,   0.00000
-208285264.26822,-171940498.84309,54824096.48583,  -0.00061,  -0.00038,   0.00071,214827044.10808,   0.00000,274640135.82653,   0.00000,   0.00000,   0.00000,-259813091.71845,   0.00000
-208581807.58761,-172216232.10498,55006184.48896,  -0.00061,  -0.00038,   0.00072,215222371.19934,   0.00000,274640135.82653,   0.00000,   0.00000,   0.00000,-259417764.62719,   0.00000
-208904363.47887,-172517977.93874,55183069.97772,  -0.00061,  -0.00038,   0.00072,215636826.76928,   0.00000,274640135.82653,   0.00000,   0.00000,   0.00000,-259003309.05724,   0.00000
-209216514.34138,-172830128.80125,55359955.46648,  -0.00061,  -0.00038,   0.00072,216048744.91974,   0.00000,274640135.82653,   0.00000,   0.00000,   0.00000,-258591390.90679,   0.00000
-209539070.23264,-173131874.63501,55531638.44086,  -0.00062,  -0.00038,   0.00072,216459383.10389,   0.00000,274640135.82653,   0.00000,   0.00000,   0.00000,-258180752.72264,   0.00000
-209869429.89547,-173451829.26909,55703321.41524,  -0.00062,  -0.00038,   0.00072,216880285.43065,   0.00000,274640135.82653,   0.00000,   0.00000,   0.00000,-257759850.39588,   0.00000
-210181580.75798,-173763980.13160,55875004.38962,  -0.00062,  -0.00038,   0.00073,217288467.26152,   0.00000,274640135.82653,   0.00000,   0.00000,   0.00000,-257351668.56501,   0.00000
-210511940.42081,-174083934.76567,56041484.84963,  -0.00062,  -0.00038,   0.00073,217705513.41680,   0.00000,274640135.82653,   0.00000,   0.00000,   0.00000,-256934622.40973,   0.00000
-210842300.08363,-174403889.39975,56202762.79526,  -0.00062,  -0.00038,   0.00073,218118606.71479,   0.00000,274640135.82653,   0.00000,   0.00000,   0.00000,-256521529.11174,   0.00000
-211180463.51802,-174742052.83413,56369243.25527,  -0.00062,  -0.00038,   0.00073,218545968.25905,   0.00000,274640135.82653,   0.00000,   0.00000,   0.00000,-256094167.56748,   0.00000
-211500418.15209,-175072412.49696,56525318.68652,  -0.00062,  -0.00038,   0.00073,218952558.79722,   0.00000,274640135.82653,   0.00000,   0.00000,   0.00000,-255687577.02931,   0.00000
-211838581.58648,-175410575.93135,56686596.63215,  -0.00062,  -0.00039,   0.00074,219376019.45013,   0.00000,274640135.82653,   0.00000,   0.00000,   0.00000,-255264116.37640,   0.00000
-212176745.02087,-175748739.36574,56842672.06341,  -0.00062,  -0.00039,   0.00074,219795503.04335,   0.00000,274640135.82653,   0.00000,   0.00000,   0.00000,-254844632.78318,   0.00000
-212522712.22682,-176105111.60044,56993544.98029,  -0.00062,  -0.00039,   0.00074,220221184.48954,   0.00000,274640135.82653,   0.00000,   0.00000,   0.00000,-254418951.33699,   0.00000
-212886888.23308,-176469287.60670,57144417.89717,  -0.00062,  -0.00039,   0.00074,220659676.04685,   0.00000,274640135.82653,   0.00000,   0.00000,   0.00000,-253980459.77968,   0.00000
-213232855.43903,-176825659.84140,57290088.29968,  -0.00063,  -0.00039,   0.00074,221081403.34798,   0.00000,274640135.82653,   0.00000,   0.00000,   0.00000,-253558732.47855,   0.00000
-213578822.64498,-177182032.07610,57435758.70218,  -0.00063,  -0.00039,   0.00075,221503172.21534,   0.00000,274640135.82653,   0.00000,   0.00000,   0.00000,-253136963.61119,   0.00000
-213932593.62250,-177556613.11112,57576226.59031,  -0.00063,  -0.00039,   0.00075,221931125.17398,   0.00000,274640135.82653,   0.00000,   0.00000,   0.00000,-252709010.65255,   0.00000
-214286364.60001,-177931194.14613,57716694.47844,  -0.00063,  -0.00039,   0.00075,222359118.60276,   0.00000,274640135.82653,   0.00000,   0.00000,   0.00000,-252281017.22377,   0.00000
-214658344.37784,-178313578.95271,57857162.36657,  -0.00063,  -0.00039,   0.00075,222799895.24957,   0.00000,274640135.82653,   0.00000,   0.00000,   0.00000,-251840240.57696,   0.00000
-215012115.35535,-178688159.98772,57992427.74033,  -0.00063,  -0.00039,   0.00075,223223910.07040,   0.00000,274640135.82653,   0.00000,   0.00000,   0.00000,-251416225.75613,   0.00000
-215391898.90474,-179088753.59461,58122490.59971,  -0.00063,  -0.00039,   0.00076,223666843.33887,   0.00000,274640135.82653,   0.00000,   0.00000,   0.00000,-250973292.48766,   0.00000
-215753473.65382,-179481543.42994,58252553.45909,  -0.00063,  -0.00040,   0.00076,224097075.67801,   0.00000,274640135.82653,   0.00000,   0.00000,   0.00000,-250543060.14852,   0.00000
-216133257.20321,-179882137.03683,58377413.80409,  -0.00063,  -0.00040,   0.00076,224536017.67005,   0.00000,274640135.82653,   0.00000,   0.00000,   0.00000,-250104118.15648,   0.00000
-216520844.52416,-180300939.44403,58502274.14910,  -0.00063,  -0.00040,   0.00076,224985202.71961,   0.00000,274640135.82653,   0.00000,   0.00000,   0.00000,-249654933.10692,   0.00000
-216882419.27323,-180693729.27936,58621931.97973,  -0.00063,  -0.00040,   0.00076,225407424.82046,   0.00000,274640135.82653,   0.00000,   0.00000,   0.00000,-249232711.00607,   0.00000
-217270006.59419,-181112531.68656,58741589.81036,  -0.00064,  -0.00040,   0.00076,225852622.44630,   0.00000,274640135.82653,   0.00000,   0.00000,   0.00000,-248787513.38023,   0.00000
-217665397.68670,-181549542.89408,58856045.12661,  -0.00064,  -0.00040,   0.00077,226304022.42364,   0.00000,274640135.82653,   0.00000,   0.00000,   0.00000,-248336113.40289,   0.00000
-218052985.00765,-181968345.30128,58970500.44286,  -0.00064,  -0.00040,   0.00077,226745235.58398,   0.00000,274640135.82653,   0.00000,   0.00000,   0.00000,-247894900.24255,   0.00000
-218448376.10017,-182405356.50880,59079753.24474,  -0.00064,  -0.00040,   0.00077,227192660.34131,   0.00000,274640135.82653,   0.00000,   0.00000,   0.00000,-247447475.48522,   0.00000
-218843767.19268,-182842367.71632,59183803.53225,  -0.00064,  -0.00041,   0.00077,227636071.65684,   0.00000,274640135.82653,   0.00000,   0.00000,   0.00000,-247004064.16969,   0.00000
-219246962.05676,-183297587.72415,59287853.81975,  -0.00064,  -0.00041,   0.00077,228089775.32414,   0.00000,274640135.82653,   0.00000,   0.00000,   0.00000,-246550360.50239,   0.00000
-219642353.14928,-183734598.93166,59386701.59288,  -0.00064,  -0.00041,   0.00077,228529226.69866,   0.00000,274640135.82653,   0.00000,   0.00000,   0.00000,-246110909.12787,   0.00000
-220045548.01335,-184189818.93949,59485549.36601,  -0.00064,  -0.00041,   0.00077,228978983.10668,   0.00000,274640135.82653,   0.00000,   0.00000,   0.00000,-245661152.71985,   0.00000
-220474755.44931,-184671051.51920,59579194.62476,  -0.00064,  -0.00041,   0.00077,229447709.58496,   0.00000,274640135.82653,   0.00000,   0.00000,   0.00000,-245192426.24157,   0.00000
-220877950.31339,-185126271.52703,59672839.88352,  -0.00064,  -0.00041,   0.00078,229893534.92298,   0.00000,274640135.82653,   0.00000,   0.00000,   0.00000,-244746600.90355,   0.00000
-221307157.74934,-185607504.10673,59761282.62789,  -0.00065,  -0.00041,   0.00078,230358345.11692,   0.00000,274640135.82653,   0.00000,   0.00000,   0.00000,-244281790.70961,   0.00000
-221718156.38498,-186080932.91488,59849725.37227,  -0.00065,  -0.00041,   0.00078,230810532.60705,   0.00000,274640135.82653,   0.00000,   0.00000,   0.00000,-243829603.21948,   0.00000
-222155167.59250,-186580374.29490,59927763.08790,  -0.00065,  -0.00042,   0.00078,231277691.54261,   0.00000,274640135.82653,   0.00000,   0.00000,   0.00000,-243362444.28392,   0.00000
-222573969.99970,-187072011.90335,60011003.31790,  -0.00065,  -0.00042,   0.00078,231736296.14607,   0.00000,274640135.82653,   0.00000,   0.00000,   0.00000,-242903839.68046,   0.00000
-223010981.20722,-187571453.28337,60083838.51916,  -0.00065,  -0.00042,   0.00078,232199605.80553,   0.00000,274640135.82653,   0.00000,   0.00000,   0.00000,-242440530.02100,   0.00000
-223447992.41473,-188070894.66339,60156673.72041,  -0.00065,  -0.00042,   0.00078,232663016.11730,   0.00000,274640135.82653,   0.00000,   0.00000,   0.00000,-241977119.70923,   0.00000
-223892807.39381,-188588544.84372,60229508.92166,  -0.00065,  -0.00042,   0.00078,233136850.23268,   0.00000,274640135.82653,   0.00000,   0.00000,   0.00000,-241503285.59385,   0.00000
-224329818.60133,-189087986.22374,60291939.09416,  -0.00065,  -0.00042,   0.00078,233592410.31719,   0.00000,274640135.82653,   0.00000,   0.00000,   0.00000,-241047725.50934,   0.00000
-224782437.35197,-189623845.20439,60359571.78104,  -0.00065,  -0.00042,   0.00078,234072788.72963,   0.00000,274640135.82653,   0.00000,   0.00000,   0.00000,-240567347.09690,   0.00000
-225227252.33105,-190141495.38472,60416799.43917,  -0.00065,  -0.00043,   0.00079,234534913.95426,   0.00000,274640135.82653,   0.00000,   0.00000,   0.00000,-240105221.87227,   0.00000
-225679871.08169,-190677354.36536,60474027.09730,  -0.00066,  -0.00043,   0.00079,235007533.47062,   0.00000,274640135.82653,   0.00000,   0.00000,   0.00000,-239632602.35591,   0.00000
-226132489.83234,-191213213.34601,60526052.24105,  -0.00066,  -0.00043,   0.00079,235476293.69591,   0.00000,274640135.82653,   0.00000,   0.00000,   0.00000,-239163842.13062,   0.00000
-226592912.35454,-191767281.12697,60578077.38480,  -0.00066,  -0.00043,   0.00079,235955592.63172,   0.00000,274640135.82653,   0.00000,   0.00000,   0.00000,-238684543.19481,   0.00000
-227063739.90550,-192310943.87918,60624900.01418,  -0.00066,  -0.00043,   0.00079,236433361.60279,   0.00000,274640135.82653,   0.00000,   0.00000,   0.00000,-238206774.22374,   0.00000
-227531966.19926,-192883220.46045,60666520.12918,  -0.00066,  -0.00043,   0.00079,236915415.22923,   0.00000,274640135.82653,   0.00000,   0.00000,   0.00000,-237724720.59730,   0.00000
-228010597.52178,-193445092.01297,60708140.24418,  -0.00066,  -0.00044,   0.00079,237399958.01249,   0.00000,274640135.82653,   0.00000,   0.00000,   0.00000,-237240177.81403,   0.00000
-228478823.81555,-194017368.59424,60744557.84481,  -0.00066,  -0.00044,   0.00079,237878447.94233,   0.00000,274640135.82653,   0.00000,   0.00000,   0.00000,-236761687.88420,   0.00000
-228965258.90963,-194597448.94708,60775772.93106,  -0.00066,  -0.00044,   0.00079,238365864.52142,   0.00000,274640135.82653,   0.00000,   0.00000,   0.00000,-236274271.30511,   0.00000
-229451694.00371,-195177529.29991,60801785.50293,  -0.00066,  -0.00044,   0.00079,238849543.55514,   0.00000,274640135.82653,   0.00000,   0.00000,   0.00000,-235790592.27138,   0.00000
-229945932.86936,-195775818.45306,60827798.07481,  -0.00066,  -0.00044,   0.00079,239343921.96704,   0.00000,274640135.82653,   0.00000,   0.00000,   0.00000,-235296213.85949,   0.00000
-230421962.93469,-196366303.83464,60853810.64669,  -0.00067,  -0.00044,   0.00079,239825886.65783,   0.00000,274640135.82653,   0.00000,   0.00000,   0.00000,-234814249.16870,   0.00000
-230916201.80033,-196964592.98779,60869418.18981,  -0.00067,  -0.00045,   0.00079,240312891.15473,   0.00000,274640135.82653,   0.00000,   0.00000,   0.00000,-234327244.67180,   0.00000
-231410440.66597,-197562882.14094,60885025.73294,  -0.00067,  -0.00045,   0.00079,240800186.68822,   0.00000,274640135.82653,   0.00000,   0.00000,   0.00000,-233839949.13831,   0.00000
-231912483.30318,-198179380.09440,60895430.76169,  -0.00067,  -0.00045,   0.00079,241294332.49089,   0.00000,274640135.82653,   0.00000,   0.00000,   0.00000,-233345803.33564,   0.00000
-232440538.51226,-198821890.61974,60905835.79044,  -0.00067,  -0.00045,   0.00079,241811999.92927,   0.00000,274640135.82653,   0.00000,   0.00000,   0.00000,-232828135.89726,   0.00000
-232942581.14947,-199438388.57320,60911038.30481,  -0.00067,  -0.00045,   0.00079,242302884.21071,   0.00000,274640135.82653,   0.00000,   0.00000,   0.00000,-232337251.61582,   0.00000
-233452427.55824,-200073095.32697,60911038.30481,  -0.00067,  -0.00046,   0.00079,242800727.70791,   0.00000,274640135.82653,   0.00000,   0.00000,   0.00000,-231839408.11862,   0.00000
-233980482.76732,-200715605.85231,60905835.79044,  -0.00067,  -0.00046,   0.00079,243307724.68712,   0.00000,274640135.82653,   0.00000,   0.00000,   0.00000,-231332411.13941,   0.00000
-234498132.94765,-201368521.40640,60900633.27606,  -0.00067,  -0.00046,   0.00079,243812991.58449,   0.00000,274640135.82653,   0.00000,   0.00000,   0.00000,-230827144.24204,   0.00000
-235026188.15674,-202011031.93173,60890228.24731,  -0.00068,  -0.00046,   0.00079,244316890.59317,   0.00000,274640135.82653,   0.00000,   0.00000,   0.00000,-230323245.23336,   0.00000
-235551642.10863,-202682156.28613,60874620.70419,  -0.00068,  -0.00046,   0.00079,244825807.82096,   0.00000,274640135.82653,   0.00000,   0.00000,   0.00000,-229814328.00556,   0.00000
-236087501.08928,-203342875.61178,60859013.16106,  -0.00068,  -0.00046,   0.00079,245337278.68787,   0.00000,274640135.82653,   0.00000,   0.00000,   0.00000,-229302857.13866,   0.00000
-236631163.84148,-204021803.73775,60838203.10356,  -0.00068,  -0.00047,   0.00079,245855949.90662,   0.00000,274640135.82653,   0.00000,   0.00000,   0.00000,-228784185.91991,   0.00000
-237174826.59369,-204700731.86371,60812190.53168,  -0.00068,  -0.00047,   0.00079,246371254.33722,   0.00000,274640135.82653,   0.00000,   0.00000,   0.00000,-228268881.48931,   0.00000
-237718489.34590,-205379659.98967,60780975.44543,  -0.00068,  -0.00047,   0.00079,246883217.99496,   0.00000,274640135.82653,   0.00000,   0.00000,   0.00000,-227756917.83157,   0.00000
-238269955.86967,-206076796.91595,60749760.35918,  -0.00068,  -0.00047,   0.00079,247406363.98735,   0.00000,274640135.82653,   0.00000,   0.00000,   0.00000,-227233771.83918,   0.00000
-238821422.39344,-206773933.84223,60713342.75856,  -0.00068,  -0.00048,   0.00079,247926231.93862,   0.00000,274640135.82653,   0.00000,   0.00000,   0.00000,-226713903.88791,   0.00000
-239380692.68878,-207489279.56882,60671722.64355,  -0.00068,  -0.00048,   0.00079,248453543.91732,   0.00000,274640135.82653,   0.00000,   0.00000,   0.00000,-226186591.90921,   0.00000
-239939962.98411,-208204625.29541,60624900.01418,  -0.00069,  -0.00048,   0.00079,248977664.15866,   0.00000,274640135.82653,   0.00000,   0.00000,   0.00000,-225662471.66787,   0.00000
-240517442.07976,-208927774.79356,60578077.38480,  -0.00069,  -0.00048,   0.00079,249515112.63034,   0.00000,274640135.82653,   0.00000,   0.00000,   0.00000,-225125023.19619,   0.00000
-241076712.37509,-209643120.52015,60526052.24105,  -0.00069,  -0.00048,   0.00079,250036705.23268,   0.00000,274640135.82653,   0.00000,   0.00000,   0.00000,-224603430.59385,   0.00000
-241643786.44199,-210376675.04705,60468824.58292,  -0.00069,  -0.00049,   0.00079,250565929.11198,   0.00000,274640135.82653,   0.00000,   0.00000,   0.00000,-224074206.71455,   0.00000
-242229069.30920,-211118033.34552,60411596.92479,  -0.00069,  -0.00049,   0.00079,251108551.06789,   0.00000,274640135.82653,   0.00000,   0.00000,   0.00000,-223531584.75864,   0.00000
-242814352.17641,-211859391.64398,60343964.23792,  -0.00069,  -0.00049,   0.00078,251644377.19911,   0.00000,274640135.82653,   0.00000,   0.00000,   0.00000,-222995758.62742,   0.00000
-243389230.01487,-212611154.97120,60276331.55104,  -0.00069,  -0.00049,   0.00078,252179030.92874,   0.00000,274640135.82653,   0.00000,   0.00000,   0.00000,-222461104.89779,   0.00000
-243982316.65364,-213370722.06998,60203496.34979,  -0.00069,  -0.00050,   0.00078,252723437.21520,   0.00000,274640135.82653,   0.00000,   0.00000,   0.00000,-221916698.61133,   0.00000
-244583207.06397,-214148497.96907,60130661.14853,  -0.00070,  -0.00050,   0.00078,253279464.56312,   0.00000,274640135.82653,   0.00000,   0.00000,   0.00000,-221360671.26341,   0.00000
-245176293.70275,-214908065.06785,60047420.91853,  -0.00070,  -0.00050,   0.00078,253818058.50207,   0.00000,274640135.82653,   0.00000,   0.00000,   0.00000,-220822077.32446,   0.00000
-245777184.11308,-215685840.96694,59964180.68853,  -0.00070,  -0.00050,   0.00078,254368348.02151,   0.00000,274640135.82653,   0.00000,   0.00000,   0.00000,-220271787.80502,   0.00000
-246385878.29498,-216481825.66634,59875737.94415,  -0.00070,  -0.00050,   0.00078,254926713.19104,   0.00000,274640135.82653,   0.00000,   0.00000,   0.00000,-219713422.63549,   0.00000
-246994572.47688,-217277810.36575,59782092.68539,  -0.00070,  -0.00051,   0.00078,255482331.38107,   0.00000,274640135.82653,   0.00000,   0.00000,   0.00000,-219157804.44546,   0.00000
-247603266.65878,-218073795.06515,59688447.42664,  -0.00070,  -0.00051,   0.00078,256038875.93882,   0.00000,274640135.82653,   0.00000,   0.00000,   0.00000,-218601259.88771,   0.00000
-248211960.84067,-218869779.76456,59589599.65351,  -0.00070,  -0.00051,   0.00077,256592716.09894,   0.00000,274640135.82653,   0.00000,   0.00000,   0.00000,-218047419.72759,   0.00000
-248846667.59445,-219691777.03584,59480346.85163,  -0.00070,  -0.00051,   0.00077,257163973.45182,   0.00000,274640135.82653,   0.00000,   0.00000,   0.00000,-217476162.37471,   0.00000
-249463165.54791,-220505970.53556,59376296.56413,  -0.00071,  -0.00052,   0.00077,257727123.82676,   0.00000,274640135.82653,   0.00000,   0.00000,   0.00000,-216913011.99977,   0.00000
-250097872.30168,-221327967.80684,59261841.24788,  -0.00071,  -0.00052,   0.00077,258296842.25374,   0.00000,274640135.82653,   0.00000,   0.00000,   0.00000,-216343293.57279,   0.00000
-250722174.02671,-222160370.10687,59147385.93162,  -0.00071,  -0.00052,   0.00077,258865886.91166,   0.00000,274640135.82653,   0.00000,   0.00000,   0.00000,-215774248.91487,   0.00000
-251364684.55204,-223000576.17847,59022525.58662,  -0.00071,  -0.00052,   0.00077,259441646.05884,   0.00000,274640135.82653,   0.00000,   0.00000,   0.00000,-215198489.76769,   0.00000
-252007195.07738,-223840782.25006,58897665.24161,  -0.00071,  -0.00053,   0.00077,260018536.65280,   0.00000,274640135.82653,   0.00000,   0.00000,   0.00000,-214621599.17373,   0.00000
-252639300.57397,-224691393.35041,58767602.38223,  -0.00071,  -0.00053,   0.00076,260591356.81845,   0.00000,274640135.82653,   0.00000,   0.00000,   0.00000,-214048779.00808,   0.00000
-253289614.87087,-225549808.22231,58637539.52285,  -0.00071,  -0.00053,   0.00076,261178107.91797,   0.00000,274640135.82653,   0.00000,   0.00000,   0.00000,-213462027.90856,   0.00000
-253947732.93933,-226426431.89453,58497071.63472,  -0.00071,  -0.00054,   0.00076,261770172.55193,   0.00000,274640135.82653,   0.00000,   0.00000,   0.00000,-212869963.27459,   0.00000
-254598047.23623,-227284846.76644,58356603.74659,  -0.00072,  -0.00054,   0.00076,262352375.01409,   0.00000,274640135.82653,   0.00000,   0.00000,   0.00000,-212287760.81244,   0.00000
-255256165.30469,-228161470.43866,58210933.34409,  -0.00072,  -0.00054,   0.00076,262943497.32729,   0.00000,274640135.82653,   0.00000,   0.00000,   0.00000,-211696638.49924,   0.00000
-255922087.14472,-229056302.91120,58060060.42720,  -0.00072,  -0.00054,   0.00075,263543638.37437,   0.00000,274640135.82653,   0.00000,   0.00000,   0.00000,-211096497.45216,   0.00000
-256580205.21318,-229932926.58342,57909187.51032,  -0.00072,  -0.00055,   0.00075,264133937.50279,   0.00000,274640135.82653,   0.00000,   0.00000,   0.00000,-210506198.32374,   0.00000
-257272139.62508,-230853771.62783,57747909.56469,  -0.00072,  -0.00055,   0.00075,264753918.02979,   0.00000,274640135.82653,   0.00000,   0.00000,   0.00000,-209886217.79674,   0.00000
-257938061.46511,-231748604.10036,57586631.61906,  -0.00072,  -0.00055,   0.00075,265351340.28235,   0.00000,274640135.82653,   0.00000,   0.00000,   0.00000,-209288795.54418,   0.00000
-258611787.07669,-232661645.37321,57420151.15906,  -0.00072,  -0.00055,   0.00075,265958032.45247,   0.00000,274640135.82653,   0.00000,   0.00000,   0.00000,-208682103.37406,   0.00000
-259303721.48860,-233582490.41762,57248468.18467,  -0.00072,  -0.00056,   0.00074,266575602.96498,   0.00000,274640135.82653,   0.00000,   0.00000,   0.00000,-208064532.86155,   0.00000
-259977447.10018,-234495531.69047,57071582.69592,  -0.00073,  -0.00056,   0.00074,267178543.95981,   0.00000,274640135.82653,   0.00000,   0.00000,   0.00000,-207461591.86672,   0.00000
-260677185.28365,-235434585.53519,56889494.69279,  -0.00073,  -0.00056,   0.00074,267803767.21958,   0.00000,274640135.82653,   0.00000,   0.00000,   0.00000,-206836368.60695,   0.00000
-261376923.46711,-236373639.37991,56707406.68965,  -0.00073,  -0.00057,   0.00074,268430566.04155,   0.00000,274640135.82653,   0.00000,   0.00000,   0.00000,-206209569.78498,   0.00000
-262076661.65058,-237312693.22464,56520116.17215,  -0.00073,  -0.00057,   0.00073,269055650.63042,   0.00000,274640135.82653,   0.00000,   0.00000,   0.00000,-205584485.19611,   0.00000
-262765994.80529,-238262152.09811,56327623.14026,  -0.00073,  -0.00057,   0.00073,269677646.67065,   0.00000,274640135.82653,   0.00000,   0.00000,   0.00000,-204962489.15588,   0.00000
-263473536.76032,-239219414.74315,56129927.59401,  -0.00073,  -0.00057,   0.00073,270310847.01517,   0.00000,274640135.82653,   0.00000,   0.00000,   0.00000,-204329288.81136,   0.00000
-264181078.71534,-240176677.38818,55927029.53337,  -0.00073,  -0.00058,   0.00073,270942508.46819,   0.00000,274640135.82653,   0.00000,   0.00000,   0.00000,-203697627.35834,   0.00000
-264896424.44193,-241152148.83353,55724131.47274,  -0.00074,  -0.00058,   0.00072,271587313.91918,   0.00000,274640135.82653,   0.00000,   0.00000,   0.00000,-203052821.90735,   0.00000
-265611770.16852,-242127620.27888,55510828.38336,  -0.00074,  -0.00058,   0.00072,272227491.86742,   0.00000,274640135.82653,   0.00000,   0.00000,   0.00000,-202412643.95911,   0.00000
-266327115.89511,-243103091.72423,55297525.29397,  -0.00074,  -0.00059,   0.00072,272869473.36355,   0.00000,274640135.82653,   0.00000,   0.00000,   0.00000,-201770662.46298,   0.00000
-267050265.39326,-244096771.96989,55079019.69022,  -0.00074,  -0.00059,   0.00072,273521600.29263,   0.00000,274640135.82653,   0.00000,   0.00000,   0.00000,-201118535.53390,   0.00000
-267791623.69173,-245098255.98712,54855311.57208,  -0.00074,  -0.00059,   0.00071,274185274.03125,   0.00000,274640135.82653,   0.00000,   0.00000,   0.00000,-200454861.79528,   0.00000
-268514773.18988,-246091936.23278,54631603.45395,  -0.00074,  -0.00060,   0.00071,274838025.65594,   0.00000,274640135.82653,   0.00000,   0.00000,   0.00000,-199802110.17058,   0.00000
-269245726.45960,-247103825.27876,54397490.30707,  -0.00074,  -0.00060,   0.00071,275498046.43799,   0.00000,274640135.82653,   0.00000,   0.00000,   0.00000,-199142089.38854,   0.00000
-269994888.52963,-248123518.09630,54163377.16018,  -0.00074,  -0.00060,   0.00070,276172867.47761,   0.00000,274640135.82653,   0.00000,   0.00000,   0.00000,-198467268.34891,   0.00000
-270725841.79934,-249135407.14227,53924061.49892,  -0.00075,  -0.00061,   0.00070,276833800.16702,   0.00000,274640135.82653,   0.00000,   0.00000,   0.00000,-197806335.65951,   0.00000
-271482807.64093,-250173308.76012,53679543.32329,  -0.00075,  -0.00061,   0.00070,277518156.37137,   0.00000,274640135.82653,   0.00000,   0.00000,   0.00000,-197121979.45516,   0.00000
-272221564.68221,-251203406.60641,53429822.63328,  -0.00075,  -0.00061,   0.00069,278188758.23561,   0.00000,274640135.82653,   0.00000,   0.00000,   0.00000,-196451377.59092,   0.00000
-272978530.52380,-252241308.22426,53174899.42889,  -0.00075,  -0.00062,   0.00069,278871303.35153,   0.00000,274640135.82653,   0.00000,   0.00000,   0.00000,-195768832.47500,   0.00000
-273735496.36539,-253279209.84212,52919976.22451,  -0.00075,  -0.00062,   0.00069,279555972.09557,   0.00000,274640135.82653,   0.00000,   0.00000,   0.00000,-195084163.73096,   0.00000
-274482057.17823,-254327516.48872,52654647.99137,  -0.00075,  -0.00062,   0.00068,280235760.20656,   0.00000,274640135.82653,   0.00000,   0.00000,   0.00000,-194404375.61997,   0.00000
-275254630.56295,-255401835.70720,52389319.75824,  -0.00075,  -0.00063,   0.00068,280942331.93035,   0.00000,274640135.82653,   0.00000,   0.00000,   0.00000,-193697803.89618,   0.00000
-276019400.17610,-256457946.12536,52118789.01073,  -0.00076,  -0.00063,   0.00068,281636509.43784,   0.00000,274640135.82653,   0.00000,   0.00000,   0.00000,-193003626.38869,   0.00000
-276791973.56082,-257532265.34384,51843055.74884,  -0.00076,  -0.00063,   0.00067,282341827.62893,   0.00000,274640135.82653,   0.00000,   0.00000,   0.00000,-192298308.19759,   0.00000
-277564546.94554,-258606584.56232,51567322.48696,  -0.00076,  -0.00064,   0.00067,283049448.09047,   0.00000,274640135.82653,   0.00000,   0.00000,   0.00000,-191590687.73606,   0.00000
-278344924.10182,-259699112.58111,51281184.19632,  -0.00076,  -0.00064,   0.00067,283765529.31196,   0.00000,274640135.82653,   0.00000,   0.00000,   0.00000,-190874606.51457,   0.00000
-279117497.48653,-260773431.79959,50995045.90569,  -0.00076,  -0.00064,   0.00066,284472171.85794,   0.00000,274640135.82653,   0.00000,   0.00000,   0.00000,-190167963.96859,   0.00000
-279905678.41438,-261884168.61869,50698502.58630,  -0.00076,  -0.00065,   0.00066,285199325.37086,   0.00000,274640135.82653,   0.00000,   0.00000,   0.00000,-189440810.45567,   0.00000
-280704264.37097,-262984500.40905,50401959.26691,  -0.00076,  -0.00065,   0.00066,285929944.66650,   0.00000,274640135.82653,   0.00000,   0.00000,   0.00000,-188710191.16003,   0.00000
-281492445.29881,-264095237.22815,50105415.94753,  -0.00077,  -0.00065,   0.00065,286662057.28977,   0.00000,274640135.82653,   0.00000,   0.00000,   0.00000,-187978078.53676,   0.00000
-282280626.22666,-265205974.04726,49798467.59939,  -0.00077,  -0.00066,   0.00065,287391221.69249,   0.00000,274640135.82653,   0.00000,   0.00000,   0.00000,-187248914.13404,   0.00000
-283068807.15450,-266316710.86636,49486316.73688,  -0.00077,  -0.00066,   0.00064,288120240.58168,   0.00000,274640135.82653,   0.00000,   0.00000,   0.00000,-186519895.24485,   0.00000
-283883000.65422,-267453460.25734,49174165.87437,  -0.00077,  -0.00066,   0.00064,288876645.64513,   0.00000,274640135.82653,   0.00000,   0.00000,   0.00000,-185763490.18140,   0.00000
-284678985.35362,-268582405.87676,48856812.49748,  -0.00077,  -0.00067,   0.00064,289620149.57859,   0.00000,274640135.82653,   0.00000,   0.00000,   0.00000,-185019986.24794,   0.00000
-285493178.85334,-269719155.26774,48534256.60622,  -0.00077,  -0.00067,   0.00063,290376516.00647,   0.00000,274640135.82653,   0.00000,   0.00000,   0.00000,-184263619.82005,   0.00000
-286296967.32431,-270866309.68747,48206498.20058,  -0.00077,  -0.00067,   0.00063,291132113.67907,   0.00000,274640135.82653,   0.00000,   0.00000,   0.00000,-183508022.14746,   0.00000
-287111160.82403,-272003059.07845,47873537.28057,  -0.00078,  -0.00068,   0.00062,291888669.68986,   0.00000,274640135.82653,   0.00000,   0.00000,   0.00000,-182751466.13667,   0.00000
-287922753.06656,-273168422.29850,47535373.84618,  -0.00078,  -0.00068,   0.00062,292656675.60391,   0.00000,274640135.82653,   0.00000,   0.00000,   0.00000,-181983460.22262,   0.00000
-288744750.33784,-274323380.48979,47197210.41179,  -0.00078,  -0.00069,   0.00061,293428256.87315,   0.00000,274640135.82653,   0.00000,   0.00000,   0.00000,-181211878.95338,   0.00000
-289574551.38068,-275496547.48140,46853844.46303,  -0.00078,  -0.00069,   0.00061,294212215.17901,   0.00000,274640135.82653,   0.00000,   0.00000,   0.00000,-180427920.64752,   0.00000
-290404352.42353,-276669714.47300,46505275.99989,  -0.00078,  -0.00069,   0.00060,294996528.17253,   0.00000,274640135.82653,   0.00000,   0.00000,   0.00000,-179643607.65400,   0.00000
-291223748.43762,-277853286.49336,46151505.02238,  -0.00078,  -0.00070,   0.00060,295780542.13961,   0.00000,274640135.82653,   0.00000,   0.00000,   0.00000,-178859593.68692,   0.00000
-292053549.48046,-279026453.48497,45792531.53049,  -0.00078,  -0.00070,   0.00060,296565741.78623,   0.00000,274640135.82653,   0.00000,   0.00000,   0.00000,-178074394.04030,   0.00000
-292891154.29487,-280217829.27689,45428355.52422,  -0.00079,  -0.00070,   0.00059,297363654.62986,   0.00000,274640135.82653,   0.00000,   0.00000,   0.00000,-177276481.19667,   0.00000
-293736562.88084,-281427413.86912,45064179.51796,  -0.00079,  -0.00071,   0.00059,298176755.00722,   0.00000,274640135.82653,   0.00000,   0.00000,   0.00000,-176463380.81931,   0.00000
-294574167.69525,-282618789.66104,44694800.99732,  -0.00079,  -0.00071,   0.00058,298978262.60775,   0.00000,274640135.82653,   0.00000,   0.00000,   0.00000,-175661873.21878,   0.00000
-295419576.28122,-283828374.25328,44320219.96231,  -0.00079,  -0.00072,   0.00058,299792694.56654,   0.00000,274640135.82653,   0.00000,   0.00000,   0.00000,-174847441.25999,   0.00000
-296264984.86719,-285037958.84551,43940436.41292,  -0.00079,  -0.00072,   0.00057,300607881.68926,   0.00000,274640135.82653,   0.00000,   0.00000,   0.00000,-174032254.13727,   0.00000
-297118197.22472,-286265752.23806,43555450.34915,  -0.00079,  -0.00072,   0.00057,301436181.57031,   0.00000,274640135.82653,   0.00000,   0.00000,   0.00000,-173203954.25622,   0.00000
-297963605.81069,-287475336.83029,43170464.28539,  -0.00080,  -0.00073,   0.00056,302255287.28154,   0.00000,274640135.82653,   0.00000,   0.00000,   0.00000,-172384848.54499,   0.00000
-298824621.93978,-288721339.02315,42775073.19287,  -0.00080,  -0.00073,   0.00056,303097743.25323,   0.00000,274640135.82653,   0.00000,   0.00000,   0.00000,-171542392.57330,   0.00000
-299696043.09763,-289956936.18726,42379682.10036,  -0.00080,  -0.00073,   0.00055,303943924.12455,   0.00000,274640135.82653,   0.00000,   0.00000,   0.00000,-170696211.70198,   0.00000
-300549255.45516,-291184729.57981,41979088.49347,  -0.00080,  -0.00074,   0.00055,304778246.65192,   0.00000,274640135.82653,   0.00000,   0.00000,   0.00000,-169861889.17461,   0.00000
-301410271.58426,-292430731.77267,41573292.37220,  -0.00080,  -0.00074,   0.00054,305626036.74164,   0.00000,274640135.82653,   0.00000,   0.00000,   0.00000,-169014099.08489,   0.00000
-302279091.48491,-293694942.76584,41167496.25094,  -0.00080,  -0.00075,   0.00054,306489504.42864,   0.00000,274640135.82653,   0.00000,   0.00000,   0.00000,-168150631.39789,   0.00000
-303158316.41432,-294948748.73026,40751295.10092,  -0.00080,  -0.00075,   0.00053,307352513.00802,   0.00000,274640135.82653,   0.00000,   0.00000,   0.00000,-167287622.81851,   0.00000
-304027136.31498,-296212959.72343,40335093.95091,  -0.00081,  -0.00075,   0.00052,308218426.85341,   0.00000,274640135.82653,   0.00000,   0.00000,   0.00000,-166421708.97312,   0.00000
-304895956.21564,-297477170.71661,39913690.28652,  -0.00081,  -0.00076,   0.00052,309085639.93351,   0.00000,274640135.82653,   0.00000,   0.00000,   0.00000,-165554495.89302,   0.00000
-305782984.91661,-298749185.48134,39487084.10775,  -0.00081,  -0.00076,   0.00051,309967065.09948,   0.00000,274640135.82653,   0.00000,   0.00000,   0.00000,-164673070.72705,   0.00000
-306659608.58883,-300031605.27483,39060477.92898,  -0.00081,  -0.00077,   0.00051,310851520.62345,   0.00000,274640135.82653,   0.00000,   0.00000,   0.00000,-163788615.20308,   0.00000
-307554441.06136,-301321828.83988,38623466.72147,  -0.00081,  -0.00077,   0.00050,311748341.85332,   0.00000,274640135.82653,   0.00000,   0.00000,   0.00000,-162891793.97321,   0.00000
-308431064.73359,-302604248.63336,38186455.51395,  -0.00081,  -0.00078,   0.00050,312635760.17295,   0.00000,274640135.82653,   0.00000,   0.00000,   0.00000,-162004375.65358,   0.00000
-309325897.20612,-303894472.19841,37744241.79206,  -0.00081,  -0.00078,   0.00049,313537579.90350,   0.00000,274640135.82653,   0.00000,   0.00000,   0.00000,-161102555.92303,   0.00000
-310210324.64990,-305195100.79221,37296825.55579,  -0.00082,  -0.00078,   0.00048,314440746.97512,   0.00000,274640135.82653,   0.00000,   0.00000,   0.00000,-160199388.85141,   0.00000
-311112960.89400,-306503533.15757,36844206.80515,  -0.00082,  -0.00079,   0.00048,315358455.21325,   0.00000,274640135.82653,   0.00000,   0.00000,   0.00000,-159281680.61328,   0.00000
-311997388.33778,-307804161.75137,36391588.05451,  -0.00082,  -0.00079,   0.00047,316266850.58431,   0.00000,274640135.82653,   0.00000,   0.00000,   0.00000,-158373285.24221,   0.00000
-312907828.35344,-309130802.91705,35933766.78949,  -0.00082,  -0.00080,   0.00047,317202491.99229,   0.00000,274640135.82653,   0.00000,   0.00000,   0.00000,-157437643.83424,   0.00000
-313800059.56879,-310449640.31116,35470743.01010,  -0.00082,  -0.00080,   0.00046,318127115.72738,   0.00000,274640135.82653,   0.00000,   0.00000,   0.00000,-156513020.09915,   0.00000
-314710499.58445,-311776281.47684,35002516.71633,  -0.00082,  -0.00080,   0.00046,319066462.46118,   0.00000,274640135.82653,   0.00000,   0.00000,   0.00000,-155573673.36535,   0.00000
-315620939.60011,-313102922.64251,34529087.90819,  -0.00083,  -0.00081,   0.00045,320007738.62624,   0.00000,274640135.82653,   0.00000,   0.00000,   0.00000,-154632397.20029,   0.00000
-316520974.58702,-314439968.83694,34055659.10004,  -0.00083,  -0.00081,   0.00044,320952550.57489,   0.00000,274640135.82653,   0.00000,   0.00000,   0.00000,-153687585.25164,   0.00000
-317431414.60268,-315766610.00261,33577027.77752,  -0.00083,  -0.00082,   0.00044,321899462.02952,   0.00000,274640135.82653,   0.00000,   0.00000,   0.00000,-152740673.79701,   0.00000
-318349658.38990,-317111459.96860,33093193.94063,  -0.00083,  -0.00082,   0.00043,322861172.24503,   0.00000,274640135.82653,   0.00000,   0.00000,   0.00000,-151778963.58150,   0.00000
-319275705.94868,-318474518.73490,32604157.58936,  -0.00083,  -0.00083,   0.00042,323837786.51208,   0.00000,274640135.82653,   0.00000,   0.00000,   0.00000,-150802349.31445,   0.00000
-320175740.93559,-319811564.92933,32115121.23809,  -0.00083,  -0.00083,   0.00042,324792519.03576,   0.00000,274640135.82653,   0.00000,   0.00000,   0.00000,-149847616.79077,   0.00000
-321101788.49438,-321174623.69563,31615679.85808,  -0.00083,  -0.00084,   0.00041,325773548.69803,   0.00000,274640135.82653,   0.00000,   0.00000,   0.00000,-148866587.12850,   0.00000
-322027836.05316,-322537682.46193,31116238.47806,  -0.00084,  -0.00084,   0.00040,326758370.60931,   0.00000,274640135.82653,   0.00000,   0.00000,   0.00000,-147881765.21722,   0.00000
-322961687.38351,-323918950.02855,30616797.09804,  -0.00084,  -0.00084,   0.00040,327759808.12497,   0.00000,274640135.82653,   0.00000,   0.00000,   0.00000,-146880327.70156,   0.00000
-323869526.14198,-325274205.02329,30106950.68927,  -0.00084,  -0.00085,   0.00039,328736461.63649,   0.00000,274640135.82653,   0.00000,   0.00000,   0.00000,-145903674.19004,   0.00000
-324803377.47233,-326655472.58990,29597104.28050,  -0.00084,  -0.00085,   0.00038,329742622.00801,   0.00000,274640135.82653,   0.00000,   0.00000,   0.00000,-144897513.81852,   0.00000
-325737228.80268,-328036740.15652,29082055.35735,  -0.00084,  -0.00086,   0.00038,330751212.04304,   0.00000,274640135.82653,   0.00000,   0.00000,   0.00000,-143888923.78349,   0.00000
-326678883.90459,-329436216.52345,28561803.91983,  -0.00084,  -0.00086,   0.00037,331775207.54913,   0.00000,274640135.82653,   0.00000,   0.00000,   0.00000,-142864928.27740,   0.00000
-327612735.23494,-330817484.09006,28041552.48231,  -0.00085,  -0.00087,   0.00036,332790139.93561,   0.00000,274640135.82653,   0.00000,   0.00000,   0.00000,-141849995.89092,   0.00000
-328554390.33685,-332216960.45699,27510896.01604,  -0.00085,  -0.00087,   0.00036,333819267.75009,   0.00000,274640135.82653,   0.00000,   0.00000,   0.00000,-140820868.07644,   0.00000
-329496045.43876,-333616436.82392,26980239.54977,  -0.00085,  -0.00088,   0.00035,334852317.04515,   0.00000,274640135.82653,   0.00000,   0.00000,   0.00000,-139787818.78138,   0.00000
-330427295.51192,-335026318.21960,26449583.08350,  -0.00085,  -0.00088,   0.00034,335889464.85467,   0.00000,274640135.82653,   0.00000,   0.00000,   0.00000,-138750670.97186,   0.00000
-331368950.61383,-336425794.58652,25908521.58848,  -0.00085,  -0.00088,   0.00034,336927868.62358,   0.00000,274640135.82653,   0.00000,   0.00000,   0.00000,-137712267.20295,   0.00000
-332318409.48730,-337843479.75376,25367460.09346,  -0.00085,  -0.00089,   0.00033,337983221.98544,   0.00000,274640135.82653,   0.00000,   0.00000,   0.00000,-136656913.84109,   0.00000
-333267868.36078,-339261164.92101,24821196.08407,  -0.00085,  -0.00089,   0.00032,339041354.67463,   0.00000,274640135.82653,   0.00000,   0.00000,   0.00000,-135598781.15190,   0.00000
-334217327.23425,-340678850.08825,24269729.56030,  -0.00086,  -0.00090,   0.00032,340102315.95524,   0.00000,274640135.82653,   0.00000,   0.00000,   0.00000,-134537819.87129,   0.00000
-335174589.87929,-342114744.05580,23718263.03653,  -0.00086,  -0.00090,   0.00031,341180308.30481,   0.00000,274640135.82653,   0.00000,   0.00000,   0.00000,-133459827.52172,   0.00000
-336124048.75276,-343532429.22304,23161593.99838,  -0.00086,  -0.00091,   0.00030,342248116.72112,   0.00000,274640135.82653,   0.00000,   0.00000,   0.00000,-132392019.10541,   0.00000
-337081311.39780,-344968323.19060,22599722.44586,  -0.00086,  -0.00091,   0.00029,343331941.55321,   0.00000,274640135.82653,   0.00000,   0.00000,   0.00000,-131308194.27332,   0.00000
-338020365.24252,-346396413.38659,22032648.37896,  -0.00086,  -0.00092,   0.00029,344406029.47382,   0.00000,274640135.82653,   0.00000,   0.00000,   0.00000,-130234106.35271,   0.00000
-338985431.65912,-347850516.15446,21465574.31207,  -0.00086,  -0.00092,   0.00028,345509999.47356,   0.00000,274640135.82653,   0.00000,   0.00000,   0.00000,-129130136.35297,   0.00000
-339950498.07572,-349304618.92233,20893297.73079,  -0.00087,  -0.00093,   0.00027,346617034.24646,   0.00000,274640135.82653,   0.00000,   0.00000,   0.00000,-128023101.58007,   0.00000
-340907760.72076,-350740512.88988,20321021.14952,  -0.00087,  -0.00093,   0.00026,347714937.21184,   0.00000,274640135.82653,   0.00000,   0.00000,   0.00000,-126925198.61469,   0.00000
-341872827.13736,-352194615.65775,19738339.53950,  -0.00087,  -0.00094,   0.00026,348828201.86885,   0.00000,274640135.82653,   0.00000,   0.00000,   0.00000,-125811933.95768,   0.00000
-342845697.32552,-353666927.22593,19155657.92948,  -0.00087,  -0.00094,   0.00025,349958713.27120,   0.00000,274640135.82653,   0.00000,   0.00000,   0.00000,-124681422.55532,   0.00000
-343810763.74212,-355121029.99380,18572976.31946,  -0.00087,  -0.00095,   0.00024,351080077.77974,   0.00000,274640135.82653,   0.00000,   0.00000,   0.00000,-123560058.04679,   0.00000
-344783633.93028,-356593341.56198,17979889.68068,  -0.00087,  -0.00095,   0.00023,352217044.77809,   0.00000,274640135.82653,   0.00000,   0.00000,   0.00000,-122423091.04844,   0.00000
-345738295.31813,-358057849.35859,17386803.04191,  -0.00087,  -0.00095,   0.00023,353345418.30102,   0.00000,274640135.82653,   0.00000,   0.00000,   0.00000,-121294717.52551,   0.00000
-346711165.50629,-359530160.92678,16793716.40314,  -0.00088,  -0.00096,   0.00022,354490528.08935,   0.00000,274640135.82653,   0.00000,   0.00000,   0.00000,-120149607.73718,   0.00000
-347684035.69445,-361002472.49496,16190224.73561,  -0.00088,  -0.00096,   0.00021,355638225.47991,   0.00000,274640135.82653,   0.00000,   0.00000,   0.00000,-119001910.34662,   0.00000
-348664709.65418,-362492992.86345,15586733.06809,  -0.00088,  -0.00097,   0.00020,356803271.10066,   0.00000,274640135.82653,   0.00000,   0.00000,   0.00000,-117836864.72587,   0.00000
-349645383.61390,-363983513.23194,14978038.88619,  -0.00088,  -0.00097,   0.00019,357971733.54986,   0.00000,274640135.82653,   0.00000,   0.00000,   0.00000,-116668402.27667,   0.00000
-350626057.57362,-365474033.60044,14369344.70430,  -0.00088,  -0.00098,   0.00019,359144283.17967,   0.00000,274640135.82653,   0.00000,   0.00000,   0.00000,-115495852.64686,   0.00000
-351588522.73304,-366956750.19737,13755448.00802,  -0.00088,  -0.00098,   0.00018,360307647.95367,   0.00000,274640135.82653,   0.00000,   0.00000,   0.00000,-114332487.87285,   0.00000
-352569196.69276,-368447270.56586,13136348.79737,  -0.00089,  -0.00099,   0.00017,361487153.87431,   0.00000,274640135.82653,   0.00000,   0.00000,   0.00000,-113152981.95222,   0.00000
-353557674.42405,-369955999.73467,12517249.58673,  -0.00089,  -0.00099,   0.00016,362684067.18528,   0.00000,274640135.82653,   0.00000,   0.00000,   0.00000,-111956068.64125,   0.00000
-354538348.38377,-371446520.10317,11892947.86170,  -0.00089,  -0.00100,   0.00015,363871197.88147,   0.00000,274640135.82653,   0.00000,   0.00000,   0.00000,-110768937.94506,   0.00000
-355508617.31475,-372947445.50041,11263443.62230,  -0.00089,  -0.00100,   0.00015,365062650.64521,   0.00000,274640135.82653,   0.00000,   0.00000,   0.00000,-109577485.18132,   0.00000
-356504898.81760,-374474383.46953,10633939.38290,  -0.00089,  -0.00101,   0.00014,366284174.60715,   0.00000,274640135.82653,   0.00000,   0.00000,   0.00000,-108355961.21938,   0.00000
-357493376.54889,-375983112.63834,9999232.62913,  -0.00089,  -0.00101,   0.00013,367495981.96798,   0.00000,274640135.82653,   0.00000,   0.00000,   0.00000,-107144153.85855,   0.00000
-358463645.47986,-377484038.03558,9364525.87536,  -0.00089,  -0.00102,   0.00012,368699284.99019,   0.00000,274640135.82653,   0.00000,   0.00000,   0.00000,-105940850.83634,   0.00000
-359459926.98271,-379010976.00470,8724616.60721,  -0.00090,  -0.00102,   0.00011,369932234.44705,   0.00000,274640135.82653,   0.00000,   0.00000,   0.00000,-104707901.37948,   0.00000
-360456208.48556,-380537913.97382,8079504.82468,  -0.00090,  -0.00103,   0.00011,371168915.38215,   0.00000,274640135.82653,   0.00000,   0.00000,   0.00000,-103471220.44438,   0.00000
-361434281.18810,-382057048.17138,7434393.04216,  -0.00090,  -0.00103,   0.00010,372397131.69738,   0.00000,274640135.82653,   0.00000,   0.00000,   0.00000,-102243004.12915,   0.00000
-362430562.69095,-383583986.14050,6784078.74526,  -0.00090,  -0.00104,   0.00009,373641671.16777,   0.00000,274640135.82653,   0.00000,   0.00000,   0.00000,-100998464.65876,   0.00000
-363416439.16505,-385121329.13837,6128561.93398,  -0.00090,  -0.00104,   0.00008,374890920.32866,   0.00000,274640135.82653,   0.00000,   0.00000,   0.00000,-99749215.49787,   0.00000
-364420524.43946,-386666475.90781,5473045.12271,  -0.00090,  -0.00105,   0.00007,376156809.00252,   0.00000,274640135.82653,   0.00000,   0.00000,   0.00000,-98483326.82401,   0.00000
-365398597.14200,-388185610.10536,4812325.79706,  -0.00091,  -0.00105,   0.00006,377400583.94461,   0.00000,274640135.82653,   0.00000,   0.00000,   0.00000,-97239551.88192,   0.00000
-366402682.41641,-389730756.87480,4151606.47141,  -0.00091,  -0.00106,   0.00005,378674400.11958,   0.00000,274640135.82653,   0.00000,   0.00000,   0.00000,-95965735.70695,   0.00000
-367396362.66207,-391286308.67298,3485684.63138,  -0.00091,  -0.00106,   0.00005,379953084.04904,   0.00000,274640135.82653,   0.00000,   0.00000,   0.00000,-94687051.77749,   0.00000
-368400447.93649,-392831455.44242,2819762.79136,  -0.00091,  -0.00107,   0.00004,381234850.79788,   0.00000,274640135.82653,   0.00000,   0.00000,   0.00000,-93405285.02865,   0.00000
-369386324.41059,-394368798.44029,2148638.43696,  -0.00091,  -0.00107,   0.00003,382508058.56625,   0.00000,274640135.82653,   0.00000,   0.00000,   0.00000,-92132077.26028,   0.00000
-370398213.45656,-395932154.01003,1472311.56818,  -0.00091,  -0.00108,   0.00002,383811213.64490,   0.00000,274640135.82653,   0.00000,   0.00000,   0.00000,-90828922.18162,   0.00000
-371391893.70223,-397487705.80822,795984.69941,  -0.00091,  -0.00108,   0.00001,385105964.59658,   0.00000,274640135.82653,   0.00000,   0.00000,   0.00000,-89534171.22995,   0.00000
-372385573.94789,-399043257.60640,114455.31625,  -0.00092,  -0.00109,   0.00000,386404741.05773,   0.00000,274640135.82653,   0.00000,   0.00000,   0.00000,-88235394.76880,   0.00000
-373379254.19355,-400598809.40459,-567074.06690,  -0.00092,  -0.00109,  -0.00001,387707561.94739,   0.00000,274640135.82653,   0.00000,   0.00000,   0.00000,-86932573.87914,   0.00000
-374398947.01109,-402180373.77465,-1253805.96442,  -0.00092,  -0.00110,  -0.00002,389040399.20163,   0.00000,274640135.82653,   0.00000,   0.00000,   0.00000,-85599736.62490,   0.00000
-375392627.25675,-403735925.57283,-1940537.86195,  -0.00092,  -0.00110,  -0.00003,390351289.78874,   0.00000,274640135.82653,   0.00000,   0.00000,   0.00000,-84288846.03778,   0.00000
-376394111.27398,-405309686.17133,-2632472.27385,  -0.00092,  -0.00111,  -0.00003,391679817.35041,   0.00000,274640135.82653,   0.00000,   0.00000,   0.00000,-82960318.47612,   0.00000
-377395595.29120,-406883446.76982,-3324406.68575,  -0.00092,  -0.00112,  -0.00004,393012352.26402,   0.00000,274640135.82653,   0.00000,   0.00000,   0.00000,-81627783.56251,   0.00000
-378397079.30843,-408457207.36832,-4021543.61203,  -0.00093,  -0.00112,  -0.00005,394349012.96782,   0.00000,274640135.82653,   0.00000,   0.00000,   0.00000,-80291122.85870,   0.00000
-379398563.32566,-410030967.96682,-4723883.05268,  -0.00093,  -0.00113,  -0.00006,395689840.14380,   0.00000,274640135.82653,   0.00000,   0.00000,   0.00000,-78950295.68273,   0.00000
-380400047.34288,-411604728.56532,-5426222.49333,  -0.00093,  -0.00113,  -0.00007,397034660.99906,   0.00000,274640135.82653,   0.00000,   0.00000,   0.00000,-77605474.82747,   0.00000
-381401531.36011,-413178489.16381,-6128561.93398,  -0.00093,  -0.00114,  -0.00008,398383435.08927,   0.00000,274640135.82653,   0.00000,   0.00000,   0.00000,-76256700.73726,   0.00000
-382410819.14889,-414770458.56262,-6836103.88901,  -0.00093,  -0.00114,  -0.00009,399749989.40566,   0.00000,274640135.82653,   0.00000,   0.00000,   0.00000,-74890146.42087,   0.00000
-383420106.93768,-416362427.96143,-7548848.35841,  -0.00093,  -0.00115,  -0.00010,401120777.94955,   0.00000,274640135.82653,   0.00000,   0.00000,   0.00000,-73519357.87698,   0.00000
-384429394.72647,-417954397.36024,-8261592.82781,  -0.00093,  -0.00115,  -0.00011,402495519.91323,   0.00000,274640135.82653,   0.00000,   0.00000,   0.00000,-72144615.91330,   0.00000
-385438682.51526,-419546366.75905,-8974337.29722,  -0.00094,  -0.00116,  -0.00012,403874174.92571,   0.00000,274640135.82653,   0.00000,   0.00000,   0.00000,-70765960.90082,   0.00000
-386429761.50373,-421130532.38630,-9692284.28099,  -0.00094,  -0.00116,  -0.00013,405244785.05661,   0.00000,274640135.82653,   0.00000,   0.00000,   0.00000,-69395350.76992,   0.00000
-387439049.29252,-422722501.78511,-10410231.26477,  -0.00094,  -0.00117,  -0.00014,406631583.83349,   0.00000,274640135.82653,   0.00000,   0.00000,   0.00000,-68008551.99304,   0.00000
-388456140.85287,-424332679.98424,-11133380.76292,  -0.00094,  -0.00117,  -0.00014,408036294.79020,   0.00000,274640135.82653,   0.00000,   0.00000,   0.00000,-66603841.03633,   0.00000
-389447219.84135,-425916845.61148,-11861732.77545,  -0.00094,  -0.00118,  -0.00015,409419426.90121,   0.00000,274640135.82653,   0.00000,   0.00000,   0.00000,-65220708.92532,   0.00000
-390464311.40170,-427527023.81061,-12584882.27360,  -0.00094,  -0.00118,  -0.00016,410831872.41797,   0.00000,274640135.82653,   0.00000,   0.00000,   0.00000,-63808263.40856,   0.00000
-391463194.16174,-429129398.23817,-13318436.80051,  -0.00094,  -0.00119,  -0.00017,412236885.96361,   0.00000,274640135.82653,   0.00000,   0.00000,   0.00000,-62403249.86292,   0.00000
-392480285.72209,-430739576.43729,-14046788.81303,  -0.00095,  -0.00119,  -0.00018,413657469.63620,   0.00000,274640135.82653,   0.00000,   0.00000,   0.00000,-60982666.19033,   0.00000
-393479168.48213,-432341950.86485,-14780343.33994,  -0.00095,  -0.00120,  -0.00019,415070166.15087,   0.00000,274640135.82653,   0.00000,   0.00000,   0.00000,-59569969.67566,   0.00000
-394478051.24217,-433944325.29241,-15519100.38121,  -0.00095,  -0.00121,  -0.00020,416487245.91070,   0.00000,274640135.82653,   0.00000,   0.00000,   0.00000,-58152889.91583,   0.00000
-395502946.57408,-435572712.29185,-16257857.42249,  -0.00095,  -0.00121,  -0.00021,417934003.24367,   0.00000,274640135.82653,   0.00000,   0.00000,   0.00000,-56706132.58286,   0.00000
-396501829.33412,-437175086.71941,-16996614.46377,  -0.00095,  -0.00122,  -0.00022,419358665.34456,   0.00000,274640135.82653,   0.00000,   0.00000,   0.00000,-55281470.48197,   0.00000
-397508515.86572,-438795669.94729,-17740574.01942,  -0.00095,  -0.00122,  -0.00023,420801412.21343,   0.00000,274640135.82653,   0.00000,   0.00000,   0.00000,-53838723.61310,   0.00000
-398515202.39732,-440416253.17516,-18484533.57508,  -0.00095,  -0.00123,  -0.00024,422247918.02201,   0.00000,274640135.82653,   0.00000,   0.00000,   0.00000,-52392217.80452,   0.00000
-399521888.92892,-442036836.40303,-19233695.64511,  -0.00096,  -0.00123,  -0.00025,423698852.67621,   0.00000,274640135.82653,   0.00000,   0.00000,   0.00000,-50941283.15032,   0.00000
-400528575.46052,-443657419.63091,-19982857.71513,  -0.00096,  -0.00124,  -0.00026,425153519.66569,   0.00000,274640135.82653,   0.00000,   0.00000,   0.00000,-49486616.16084,   0.00000
-401535261.99212,-445278002.85878,-20732019.78516,  -0.00096,  -0.00124,  -0.00027,426611880.81074,   0.00000,274640135.82653,   0.00000,   0.00000,   0.00000,-48028255.01579,   0.00000
-402541948.52372,-446898586.08666,-21486384.36957,  -0.00096,  -0.00125,  -0.00028,428074681.65209,   0.00000,274640135.82653,   0.00000,   0.00000,   0.00000,-46565454.17444,   0.00000
-403556438.82688,-448537378.11484,-22245951.46834,  -0.00096,  -0.00125,  -0.00029,429555676.20763,   0.00000,274640135.82653,   0.00000,   0.00000,   0.00000,-45084459.61890,   0.00000
-404544916.55817,-450150157.57115,-23000316.05275,  -0.00096,  -0.00126,  -0.00030,431013734.76573,   0.00000,274640135.82653,   0.00000,   0.00000,   0.00000,-43626401.06080,   0.00000
-405559406.86134,-451788949.59934,-23759883.15153,  -0.00096,  -0.00126,  -0.00031,432502052.23779,   0.00000,274640135.82653,   0.00000,   0.00000,   0.00000,-42138083.58874,   0.00000
-406573897.16450,-453427741.62753,-24519450.25031,  -0.00097,  -0.00127,  -0.00032,433993982.74481,   0.00000,274640135.82653,   0.00000,   0.00000,   0.00000,-40646153.08172,   0.00000
-407562374.89579,-455040521.08384,-25284219.86346,  -0.00097,  -0.00128,  -0.00033,435464631.32442,   0.00000,274640135.82653,   0.00000,   0.00000,   0.00000,-39175504.50211,   0.00000
-408576865.19895,-456679313.11203,-26048989.47661,  -0.00097,  -0.00128,  -0.00034,436964640.68161,   0.00000,274640135.82653,   0.00000,   0.00000,   0.00000,-37675495.14492,   0.00000
-409573146.70180,-458310301.36865,-26818961.60414,  -0.00097,  -0.00129,  -0.00035,438457150.29750,   0.00000,274640135.82653,   0.00000,   0.00000,   0.00000,-36182985.52903,   0.00000
-410577231.97621,-459959498.42559,-27583731.21730,  -0.00097,  -0.00129,  -0.00036,439966013.01467,   0.00000,274640135.82653,   0.00000,   0.00000,   0.00000,-34674122.81186,   0.00000
-411591722.27938,-461598290.45378,-28353703.34483,  -0.00097,  -0.00130,  -0.00037,441477620.84818,   0.00000,274640135.82653,   0.00000,   0.00000,   0.00000,-33162514.97835,   0.00000
-412588003.78223,-463229278.71040,-29128877.98673,  -0.00097,  -0.00130,  -0.00038,442981779.22038,   0.00000,274640135.82653,   0.00000,   0.00000,   0.00000,-31658356.60615,   0.00000
-413592089.05664,-464878475.76734,-29898850.11426,  -0.00098,  -0.00131,  -0.00039,444502167.74093,   0.00000,274640135.82653,   0.00000,   0.00000,   0.00000,-30137968.08560,   0.00000
-414588370.55949,-466509464.02396,-30674024.75616,  -0.00098,  -0.00131,  -0.00040,446013324.76850,   0.00000,274640135.82653,   0.00000,   0.00000,   0.00000,-28626811.05803,   0.00000
-415592455.83390,-468158661.08090,-31454401.91244,  -0.00098,  -0.00132,  -0.00041,447542793.27412,   0.00000,274640135.82653,   0.00000,   0.00000,   0.00000,-27097342.55241,   0.00000
-416596541.10832,-469807858.13784,-32229576.55435,  -0.00098,  -0.00133,  -0.00042,449074614.91423,   0.00000,274640135.82653,   0.00000,   0.00000,   0.00000,-25565520.91230,   0.00000
-417582417.58242,-471449251.42321,-33009953.71063,  -0.00098,  -0.00133,  -0.00043,450599073.56395,   0.00000,274640135.82653,   0.00000,   0.00000,   0.00000,-24041062.26258,   0.00000
-418578699.08527,-473080239.67984,-33795533.38128,  -0.00098,  -0.00134,  -0.00044,452126247.24173,   0.00000,274640135.82653,   0.00000,   0.00000,   0.00000,-22513888.58480,   0.00000
-419590588.13124,-474747645.53709,-34575910.53756,  -0.00098,  -0.00134,  -0.00045,453683177.50938,   0.00000,274640135.82653,   0.00000,   0.00000,   0.00000,-20956958.31715,   0.00000
-420576464.60534,-476389038.82246,-35361490.20822,  -0.00098,  -0.00135,  -0.00046,455219030.94518,   0.00000,274640135.82653,   0.00000,   0.00000,   0.00000,-19421104.88135,   0.00000
-421580549.87976,-478038235.87940,-36147069.87887,  -0.00099,  -0.00135,  -0.00047,456770100.41870,   0.00000,274640135.82653,   0.00000,   0.00000,   0.00000,-17870035.40783,   0.00000
-422566426.35386,-479679629.16478,-36937852.06390,  -0.00099,  -0.00136,  -0.00048,458313909.20581,   0.00000,274640135.82653,   0.00000,   0.00000,   0.00000,-16326226.62072,   0.00000
-423578315.39983,-481347035.02203,-37723431.73456,  -0.00099,  -0.00136,  -0.00049,459885380.38257,   0.00000,274640135.82653,   0.00000,   0.00000,   0.00000,-14754755.44396,   0.00000
-424564191.87393,-482988428.30740,-38514213.91959,  -0.00099,  -0.00137,  -0.00050,461435821.29388,   0.00000,274640135.82653,   0.00000,   0.00000,   0.00000,-13204314.53265,   0.00000
-425557872.11960,-484648030.39309,-39304996.10462,  -0.00099,  -0.00138,  -0.00051,463003325.58436,   0.00000,274640135.82653,   0.00000,   0.00000,   0.00000,-11636810.24217,   0.00000
-426543748.59370,-486289423.67846,-40100980.80402,  -0.00099,  -0.00138,  -0.00052,464561648.60323,   0.00000,274640135.82653,   0.00000,   0.00000,   0.00000,-10078487.22330,   0.00000
-427537428.83936,-487949025.76415,-40891762.98905,  -0.00099,  -0.00139,  -0.00053,466135647.38597,   0.00000,274640135.82653,   0.00000,   0.00000,   0.00000,-8504488.44056,   0.00000
-428531109.08502,-489608627.84984,-41687747.68846,  -0.00100,  -0.00139,  -0.00054,467714225.28138,   0.00000,274640135.82653,   0.00000,   0.00000,   0.00000,-6925910.54515,   0.00000
-429506580.53037,-491260426.16396,-42483732.38786,  -0.00100,  -0.00140,  -0.00055,469284269.70753,   0.00000,274640135.82653,   0.00000,   0.00000,   0.00000,-5355866.11900,   0.00000
-430500260.77603,-492920028.24965,-43279717.08727,  -0.00100,  -0.00140,  -0.00056,470869227.92653,   0.00000,274640135.82653,   0.00000,   0.00000,   0.00000,-3770907.90000,   0.00000
-431493941.02170,-494579630.33534,-44080904.30105,  -0.00100,  -0.00141,  -0.00057,472458777.47230,   0.00000,274640135.82653,   0.00000,   0.00000,   0.00000,-2181358.35423,   0.00000
-432469412.46705,-496231428.64947,-44882091.51483,  -0.00100,  -0.00141,  -0.00058,474039782.63391,   0.00000,274640135.82653,   0.00000,   0.00000,   0.00000,-600353.19262,   0.00000
-432843812.76438,-496856735.95234,-45182003.79489,  -0.00100,  -0.00142,  -0.00059,474640136.02213,   0.00000,274640135.82653,   0.00000,   0.00000,   0.00000,  -5.88483,   0.00000
-432581847.74025,-496850233.26382,-45564956.79077,  -0.00100,  -0.00142,  -0.00059,474644407.10418,   0.00000,274644416.81877,  -0.00000,  -0.00000,  -0.00000,  -9.71459,   1.00000
-432146375.74152,-496842552.07321,-46186488.92092,  -0.00100,  -0.00143,  -0.00060,474651323.29013,   0.00001,274651329.00744,  -0.00001,  -0.00001,  -0.00000,  -5.71731,   1.00000
-431715886.14497,-496829839.38357,-46801838.64527,  -0.00100,  -0.00143,  -0.00061,474658190.25993,   0.00002,274658198.12778,  -0.00001,  -0.00001,  -0.00001,  -7.86785,   1.00000
-431284684.12624,-496814341.57204,-47414450.47560,  -0.00101,  -0.00144,  -0.00063,474665084.79238,   0.00002,274665090.10331,  -0.00001,  -0.00002,  -0.00001,  -5.31094,   1.00000
-430847063.56437,-496798200.04326,-48027674.79385,  -0.00101,  -0.00144,  -0.00064,474672066.49841,   0.00003,274672071.65438,  -0.00001,  -0.00002,  -0.00001,  -5.15597,   1.00000
-430413112.71402,-496775528.70344,-48639800.18801,  -0.00101,  -0.00145,  -0.00065,474679009.82911,   0.00004,274679016.58516,  -0.00002,  -0.00003,  -0.00001,  -6.75605,   1.00000
-429974191.53702,-496753900.37270,-49247488.88983,  -0.00101,  -0.00145,  -0.00066,474686034.87321,   0.00004,274686044.61123,  -0.00002,  -0.00003,  -0.00002,  -9.73802,   1.00000
-429534681.94210,-496729587.23476,-49852424.35667,  -0.00101,  -0.00146,  -0.00067,474693093.69752,   0.00005,274693095.80611,  -0.00002,  -0.00004,  -0.00002,  -2.10860,   1.00000
-429086560.39084,-496706876.87105,-50456061.25503,  -0.00101,  -0.00147,  -0.00068,474700110.46141,   0.00005,274700119.88458,  -0.00003,  -0.00004,  -0.00002,  -9.42317,   1.00000
-428648754.12921,-496671726.18767,-51062219.02513,  -0.00101,  -0.00147,  -0.00069,474707164.47567,   0.00006,274707164.81485,  -0.00003,  -0.00005,  -0.00002,  -0.33918,   1.00000
-428199514.69608,-496643735.42018,-51660373.63170,  -0.00101,  -0.00148,  -0.00070,474714230.29608,   0.00007,274714235.57001,  -0.00003,  -0.00005,  -0.00003,  -5.27393,   1.00000
-427748294.19409,-496611360.12982,-52260767.91904,  -0.00101,  -0.00148,  -0.00071,474721336.80030,   0.00007,274721337.19311,  -0.00004,  -0.00006,  -0.00003,  -0.39281,   1.00000
-427296566.87229,-496576364.53319,-52858419.35618,  -0.00102,  -0.00149,  -0.00072,474728452.49615,   0.00008,274728462.43599,  -0.00004,  -0.00006,  -0.00003,  -9.93984,   1.00000
-426844381.01438,-496538808.71599,-53453338.09172,  -0.00102,  -0.00149,  -0.00073,474735601.95975,   0.00009,274735611.17713,  -0.00004,  -0.00007,  -0.00004,  -9.21738,   1.00000
-426387581.58419,-496502506.43338,-54043679.89829,  -0.00102,  -0.00150,  -0.00074,474742839.51006,   0.00009,274742844.11574,  -0.00005,  -0.00007,  -0.00004,  -4.60568,   1.00000
-425934554.12331,-496459892.20187,-54633158.76029,  -0.00102,  -0.00151,  -0.00075,474750031.32658,   0.00010,274750039.88601,  -0.00005,  -0.00008,  -0.00004,  -8.55943,   1.00000
-425481146.08989,-496414818.69359,-55219926.22359,  -0.00102,  -0.00151,  -0.00076,474757256.56299,   0.00011,274757259.10568,  -0.00005,  -0.00008,  -0.00004,  -2.54269,   1.00000
-425019104.75684,-496371426.60758,-55805571.75092,  -0.00102,  -0.00152,  -0.00077,474764445.50162,   0.00011,274764451.28442,  -0.00006,  -0.00009,  -0.00005,  -5.78280,   1.00000
-424559307.03070,-496323350.46730,-56389920.19889,  -0.00102,  -0.00152,  -0.00078,474771781.98376,   0.00012,274771786.95963,  -0.00006,  -0.00009,  -0.00005,  -4.97586,   1.00000
-424096591.47455,-496275093.39098,-56970182.90776,  -0.00102,  -0.00153,  -0.00079,474779019.01976,   0.00013,274779026.26012,  -0.00006,  -0.00010,  -0.00005,  -7.24037,   1.00000
-423640300.41382,-496218412.90724,-57551053.16679,  -0.00102,  -0.00153,  -0.00080,474786342.56876,   0.00013,274786348.18089,  -0.00006,  -0.00010,  -0.00006,  -5.61212,   1.00000
-423171298.96492,-496167264.87002,-58128874.42221,  -0.00103,  -0.00154,  -0.00081,474793697.45407,   0.00014,274793704.49422,  -0.00007,  -0.00011,  -0.00006,  -7.04014,   1.00000
-422703719.94284,-496115760.46808,-58699094.34723,  -0.00103,  -0.00155,  -0.00083,474801070.13124,   0.00015,274801075.89921,  -0.00007,  -0.00011,  -0.00006,  -5.76798,   1.00000
-422229892.17684,-496060137.06262,-59275238.19722,  -0.00103,  -0.00155,  -0.00084,474808366.43333,   0.00015,274808367.38691,  -0.00007,  -0.00012,  -0.00007,  -0.95358,   1.00000
-421760276.44173,-496001988.57086,-59844984.83398,  -0.00103,  -0.00156,  -0.00085,474815789.82222,   0.00016,274815795.04281,  -0.00008,  -0.00012,  -0.00007,  -5.22060,   1.00000
-421294485.90008,-495937746.30626,-60414117.07207,  -0.00103,  -0.00156,  -0.00086,474823178.47531,   0.00017,274823184.67127,  -0.00008,  -0.00013,  -0.00007,  -6.19596,   1.00000
-420816062.38702,-495879086.15860,-60980218.44937,  -0.00103,  -0.00157,  -0.00087,474830604.65967,   0.00017,274830609.02385,  -0.00008,  -0.00013,  -0.00008,  -4.36418,   1.00000
-420346042.85522,-495814220.87750,-61541940.50842,  -0.00103,  -0.00157,  -0.00088,474838101.83665,   0.00018,274838107.89240,  -0.00009,  -0.00014,  -0.00008,  -6.05575,   1.00000
-419867384.58688,-495751119.19768,-62102745.56305,  -0.00103,  -0.00158,  -0.00089,474845574.92035,   0.00019,274845579.60723,  -0.00009,  -0.00014,  -0.00008,  -4.68689,   1.00000
-419388651.22863,-495685823.80304,-62660909.49457,  -0.00103,  -0.00159,  -0.00090,474853068.17669,   0.00019,274853075.03468,  -0.00009,  -0.00015,  -0.00009,  -6.85798,   1.00000
-418909870.70087,-495618372.16993,-63216441.50999,  -0.00104,  -0.00159,  -0.00091,474860587.78537,   0.00020,274860594.10683,  -0.00010,  -0.00015,  -0.00009,  -6.32146,   1.00000
-418431065.22169,-495548794.90800,-63769349.90708,  -0.00104,  -0.00160,  -0.00092,474868133.60907,   0.00021,274868136.78294,  -0.00010,  -0.00016,  -0.00009,  -3.17387,   1.00000
-417943593.09027,-495480972.62747,-64321428.08059,  -0.00104,  -0.00160,  -0.00093,474875648.52734,   0.00021,274875652.24089,  -0.00010,  -0.00016,  -0.00010,  -3.71356,   1.00000
-417464814.66227,-495407189.47675,-64869102.71736,  -0.00104,  -0.00161,  -0.00094,474883233.84918,   0.00022,274883242.20526,  -0.00010,  -0.00017,  -0.00010,  -8.35608,   1.00000
-416977370.24102,-495335197.50417,-65415990.93096,  -0.00104,  -0.00161,  -0.00095,474890800.86368,   0.00023,274890804.77414,  -0.00011,  -0.00017,  -0.00010,  -3.91046,   1.00000
-416498715.56163,-495257341.64822,-65958467.71761,  -0.00104,  -0.00162,  -0.00096,474898437.81904,   0.00024,274898441.79087,  -0.00011,  -0.00018,  -0.00011,  -3.97183,   1.00000
-416011373.03590,-495181285.45677,-66500197.54090,  -0.00104,  -0.00163,  -0.00097,474906043.67203,   0.00024,274906051.34600,  -0.00011,  -0.00018,  -0.00011,  -7.67398,   1.00000
-415524134.61210,-495103238.20120,-67039358.05003,  -0.00104,  -0.00163,  -0.00098,474913681.53437,   0.00025,274913684.34182,  -0.00012,  -0.00019,  -0.00011,  -2.80745,   1.00000
-415038864.22230,-495025507.42146,-67571144.31559,  -0.00104,  -0.00164,  -0.00100,474921326.20455,   0.00026,274921330.52762,  -0.00012,  -0.00019,  -0.00012,  -4.32307,   1.00000
-414539313.51618,-494951179.67818,-68104766.57048,  -0.00104,  -0.00164,  -0.00101,474929013.80767,   0.00026,274929022.32504,  -0.00012,  -0.00020,  -0.00012,  -8.51736,   1.00000
-414052535.53856,-494867269.23391,-68636288.97327,  -0.00104,  -0.00165,  -0.00102,474936721.31733,   0.00027,274936725.36635,  -0.00013,  -0.00020,  -0.00012,  -4.04902,   1.00000
-413557032.19101,-494785156.24000,-69167168.24129,  -0.00105,  -0.00165,  -0.00103,474944397.17808,   0.00028,274944400.76663,  -0.00013,  -0.00021,  -0.00013,  -3.58855,   1.00000
-413068884.71141,-494703755.71466,-69686462.62295,  -0.00105,  -0.00166,  -0.00104,474952197.61363,   0.00028,274952203.16390,  -0.00013,  -0.00021,  -0.00013,  -5.55027,   1.00000
-412573791.48275,-494617885.75109,-70212341.86913,  -0.00105,  -0.00167,  -0.00105,474959923.27360,   0.00029,274959924.81068,  -0.00013,  -0.00022,  -0.00014,  -1.53708,   1.00000
-412078926.02550,-494530158.91646,-70735711.39734,  -0.00105,  -0.00167,  -0.00106,474967667.50951,   0.00030,274967669.73438,  -0.00014,  -0.00023,  -0.00014,  -2.22488,   1.00000
-411582639.02732,-494446965.08002,-71249394.28219,  -0.00105,  -0.00168,  -0.00107,474975485.51013,   0.00031,274975490.53194,  -0.00014,  -0.00023,  -0.00014,  -5.02181,   1.00000
-411081230.26745,-494361631.51943,-71764990.19870,  -0.00105,  -0.00168,  -0.00108,474983214.82909,   0.00031,274983219.50269,  -0.00014,  -0.00024,  -0.00015,  -4.67360,   1.00000
-410583656.47597,-494272439.90630,-72278481.31480,  -0.00105,  -0.00169,  -0.00109,474991089.10336,   0.00032,274991097.36548,  -0.00015,  -0.00024,  -0.00015,  -8.26212,   1.00000
-410082858.05572,-494183552.84617,-72789177.40776,  -0.00105,  -0.00169,  -0.00110,474998867.01193,   0.00033,274998872.11683,  -0.00015,  -0.00025,  -0.00015,  -5.10490,   1.00000
-409578868.80125,-494096894.69701,-73294955.50286,  -0.00105,  -0.00170,  -0.00111,475006731.96917,   0.00033,275006733.67095,  -0.00015,  -0.00025,  -0.00016,  -1.70178,   1.00000
-409078775.46902,-494004528.36344,-73800797.38046,  -0.00105,  -0.00171,  -0.00112,475014551.48840,   0.00034,275014553.96123,  -0.00016,  -0.00026,  -0.00016,  -2.47283,   1.00000
-408575559.76101,-493914449.90627,-74301705.48042,  -0.00105,  -0.00171,  -0.00113,475022451.39323,   0.00035,275022461.14476,  -0.00016,  -0.00026,  -0.00017,  -9.75153,   1.00000
-408072775.71942,-493822707.02617,-74800200.00220,  -0.00106,  -0.00172,  -0.00114,475030381.39646,   0.00036,275030390.95316,  -0.00016,  -0.00027,  -0.00017,  -9.55670,   1.00000
-407575905.88650,-493727864.80772,-75294111.42912,  -0.00106,  -0.00172,  -0.00115,475038263.12633,   0.00036,275038267.28398,  -0.00016,  -0.00027,  -0.00017,  -4.15765,   1.00000
-407064763.41647,-493636309.23440,-75789846.56000,  -0.00106,  -0.00173,  -0.00116,475046189.86195,   0.00037,275046191.01759,  -0.00017,  -0.00028,  -0.00018,  -1.15564,   1.00000
-406556129.43737,-493545677.14993,-76278480.47671,  -0.00106,  -0.00174,  -0.00117,475054124.66935,   0.00038,275054125.49746,  -0.00017,  -0.00028,  -0.00018,  -0.82811,   1.00000
-406051384.93245,-493449418.80207,-76767353.66461,  -0.00106,  -0.00174,  -0.00119,475062012.78251,   0.00039,275062017.65156,  -0.00017,  -0.00029,  -0.00019,  -4.86905,   1.00000
-405543756.64323,-493355623.96936,-77251281.61808,  -0.00106,  -0.00175,  -0.00120,475069993.45760,   0.00039,275069996.66599,  -0.00018,  -0.00029,  -0.00019,  -3.20839,   1.00000
-405036657.63602,-493260271.15379,-77732874.57814,  -0.00106,  -0.00175,  -0.00121,475077990.36100,   0.00040,275077997.84002,  -0.00018,  -0.00030,  -0.00020,  -7.47902,   1.00000
-404520730.62004,-493166733.37848,-78214223.50142,  -0.00106,  -0.00176,  -0.00122,475085966.30778,   0.00041,275085969.95330,  -0.00018,  -0.00030,  -0.00020,  -3.64552,   1.00000
-404016857.99699,-493070970.95757,-78686482.87191,  -0.00106,  -0.00176,  -0.00123,475093998.33217,   0.00041,275094002.98400,  -0.00018,  -0.00031,  -0.00020,  -4.65183,   1.00000
-403505337.27873,-492970323.25414,-79165905.24484,  -0.00106,  -0.00177,  -0.00124,475101948.98396,   0.00042,275101953.94051,  -0.00019,  -0.00031,  -0.00021,  -4.95655,   1.00000
-402993205.06882,-492874918.24915,-79635677.74919,  -0.00106,  -0.00178,  -0.00125,475109975.56272,   0.00043,275109979.50728,  -0.00019,  -0.00032,  -0.00021,  -3.94456,   1.00000
-402481686.86609,-492778042.24595,-80103185.81256,  -0.00106,  -0.00178,  -0.00126,475118017.57097,   0.00044,275118026.76632,  -0.00019,  -0.00032,  -0.00022,  -9.19535,   1.00000
-401961289.67527,-492682967.71845,-80570565.05597,  -0.00106,  -0.00179,  -0.00127,475126037.83884,   0.00044,275126044.47935,  -0.00020,  -0.00033,  -0.00022,  -6.64051,   1.00000
-401453207.70474,-492585925.93421,-81028909.43670,  -0.00106,  -0.00179,  -0.00128,475134112.50077,   0.00045,275134122.20009,  -0.00020,  -0.00033,  -0.00023,  -9.69932,   1.00000
-400934093.26047,-492487970.22282,-81491834.42641,  -0.00106,  -0.00180,  -0.00129,475142175.98984,   0.00046,275142182.85415,  -0.00020,  -0.00034,  -0.00023,  -6.86431,   1.00000
-400417793.66704,-492391337.30403,-81947886.56882,  -0.00107,  -0.00180,  -0.00130,475150243.57826,   0.00047,275150252.08370,  -0.00020,  -0.00035,  -0.00023,  -8.50544,   1.00000
-399902196.47517,-492293326.78805,-82401745.85072,  -0.00107,  -0.00181,  -0.00131,475158338.67338,   0.00047,275158342.47283,  -0.00021,  -0.00035,  -0.00024,  -3.79945,   1.00000
-399387304.15723,-492193947.23288,-82853418.48765,  -0.00107,  -0.00182,  -0.00132,475166448.28111,   0.00048,275166454.00935,  -0.00021,  -0.00036,  -0.00024,  -5.72824,   1.00000
-398865627.57021,-492099138.92232,-83300464.98366,  -0.00107,  -0.00182,  -0.00133,475174517.32131,   0.00049,275174522.21209,  -0.00021,  -0.00036,  -0.00025,  -4.89078,   1.00000
-398352221.79417,-491997071.97444,-83747803.21910,  -0.00107,  -0.00183,  -0.00134,475182668.38617,   0.00050,275182675.74594,  -0.00021,  -0.00037,  -0.00025,  -7.35976,   1.00000
-397832023.78306,-491899613.22125,-84190561.69705,  -0.00107,  -0.00183,  -0.00135,475190784.89089,   0.00050,275190785.58971,  -0.00022,  -0.00037,  -0.00026,  -0.69882,   1.00000
-397312589.76469,-491800837.12714,-84631192.00316,  -0.00107,  -0.00184,  -0.00136,475198915.31514,   0.00051,275198916.18349,  -0.00022,  -0.00038,  -0.00026,  -0.86835,   1.00000
-396796133.18958,-491703614.06860,-85065102.50156,  -0.00107,  -0.00185,  -0.00137,475207047.14405,   0.00052,275207053.82827,  -0.00022,  -0.00038,  -0.00027,  -6.68422,   1.00000
-396268462.89347,-491605297.65618,-85503738.76394,  -0.00107,  -0.00185,  -0.00138,475215167.83759,   0.00053,275215174.35156,  -0.00023,  -0.00039,  -0.00027,  -6.51397,   1.00000
-395753656.05575,-491505568.45616,-85933462.63887,  -0.00107,  -0.00186,  -0.00139,475223352.14080,   0.00053,275223352.81020,  -0.00023,  -0.00039,  -0.00028,  -0.66940,   1.00000
-395229803.58535,-491407596.17609,-86363346.92534,  -0.00107,  -0.00186,  -0.00140,475231499.98826,   0.00054,275231500.35451,  -0.00023,  -0.00040,  -0.00028,  -0.36625,   1.00000
-394709011.64963,-491311276.37561,-86786591.13504,  -0.00107,  -0.00187,  -0.00141,475239648.03375,   0.00055,275239654.20856,  -0.00023,  -0.00040,  -0.00028,  -6.17481,   1.00000
-394189079.27403,-491213754.10801,-87207810.97528,  -0.00107,  -0.00187,  -0.00142,475247821.53158,   0.00056,275247827.92722,  -0.00024,  -0.00041,  -0.00029,  -6.39565,   1.00000
-393660067.21376,-491117959.27731,-87629260.88676,  -0.00107,  -0.00188,  -0.00143,475255964.37619,   0.00056,275255970.40619,  -0.00024,  -0.00041,  -0.00029,  -6.03000,   1.00000
-393141901.77790,-491018047.38712,-88046442.30804,  -0.00107,  -0.00189,  -0.00144,475264175.84926,   0.00057,275264183.87417,  -0.00024,  -0.00042,  -0.00030,  -8.02492,   1.00000
-392614629.13288,-490919867.88630,-88463885.65227,  -0.00107,  -0.00189,  -0.00145,475272362.99263,   0.00058,275272365.93125,  -0.00024,  -0.00042,  -0.00030,  -2.93861,   1.00000
-392090511.07610,-490823466.11950,-88874780.90578,  -0.00107,  -0.00190,  -0.00146,475280548.86950,   0.00059,275280553.40651,  -0.00025,  -0.00043,  -0.00031,  -4.53701,   1.00000
-391554426.78788,-490732974.90801,-89283006.48881,  -0.00107,  -0.00190,  -0.00147,475288774.16396,   0.00059,275288776.26517,  -0.00025,  -0.00043,  -0.00031,  -2.10122,   1.00000
-391034462.66077,-490637240.75003,-89685447.52067,  -0.00107,  -0.00191,  -0.00148,475296982.62465,   0.00060,275296988.06421,  -0.00025,  -0.00044,  -0.00032,  -5.43956,   1.00000
-390505339.04478,-490543210.91022,-90088256.66793,  -0.00107,  -0.00192,  -0.00149,475305165.83388,   0.00061,275305167.83452,  -0.00025,  -0.00045,  -0.00032,  -2.00064,   1.00000
-389977159.66443,-490448043.96662,-90489146.84284,  -0.00108,  -0.00192,  -0.00150,475313360.66913,   0.00062,275313366.76606,  -0.00026,  -0.00045,  -0.00033,  -6.09694,   1.00000
-389449943.33934,-490351770.78641,-90888129.00886,  -0.00108,  -0.00193,  -0.00151,475321579.68628,   0.00062,275321584.71901,  -0.00026,  -0.00046,  -0.00033,  -5.03273,   1.00000
-388923264.33929,-490261697.71650,-91277652.47471,  -0.00108,  -0.00193,  -0.00152,475329872.25679,   0.00063,275329874.12255,  -0.00026,  -0.00046,  -0.00034,  -1.86577,   1.00000
-388390101.53981,-490169007.03650,-91670673.39031,  -0.00108,  -0.00194,  -0.00153,475338061.90771,   0.00064,275338063.74191,  -0.00026,  -0.00047,  -0.00034,  -1.83421,   1.00000
-387857925.44277,-490075213.26737,-92061827.04033,  -0.00108,  -0.00194,  -0.00154,475346262.68967,   0.00065,275346272.15069,  -0.00027,  -0.00047,  -0.00035,  -9.46102,   1.00000
-387329075.66583,-489983427.12241,-92446626.33643,  -0.00108,  -0.00195,  -0.00155,475354478.21056,   0.00065,275354484.04004,  -0.00027,  -0.00048,  -0.00035,  -5.82948,   1.00000
-386801239.70591,-489890590.04566,-92829601.76835,  -0.00108,  -0.00196,  -0.00156,475362710.56615,   0.00066,275362714.26645,  -0.00027,  -0.00048,  -0.00036,  -3.70029,   1.00000
-386274121.88559,-489804104.24995,-93203172.53109,  -0.00108,  -0.00196,  -0.00157,475371014.70646,   0.00067,275371015.21095,  -0.00027,  -0.00049,  -0.00036,  -0.50449,   1.00000
-385740342.27221,-489714927.58635,-93580410.88780,  -0.00108,  -0.00197,  -0.00158,475379215.02733,   0.00068,275379215.35174,  -0.00028,  -0.00049,  -0.00037,  -0.32441,   1.00000
-385207601.66887,-489624705.88125,-93955865.58727,  -0.00108,  -0.00197,  -0.00159,475387425.53543,   0.00068,275387433.57851,  -0.00028,  -0.00050,  -0.00037,  -8.04309,   1.00000
-384675921.89835,-489533474.61768,-94329548.68170,  -0.00108,  -0.00198,  -0.00160,475395664.97227,   0.00069,275395669.72059,  -0.00028,  -0.00050,  -0.00038,  -4.74831,   1.00000
-384145091.28678,-489448686.23185,-94693851.21877,  -0.00108,  -0.00199,  -0.00161,475403968.99586,   0.00070,275403976.23916,  -0.00028,  -0.00051,  -0.00038,  -7.24331,   1.00000
-383609811.63350,-489364294.17462,-95057475.80563,  -0.00108,  -0.00199,  -0.00162,475412164.76405,   0.00071,275412165.61882,  -0.00029,  -0.00051,  -0.00039,  -0.85477,   1.00000
-383073254.38009,-489275730.14345,-95423846.94546,  -0.00108,  -0.00200,  -0.00163,475420386.38570,   0.00071,275420388.23943,  -0.00029,  -0.00052,  -0.00039,  -1.85374,   1.00000
-382537651.56771,-489193675.91509,-95780862.12630,  -0.00108,  -0.00200,  -0.00164,475428678.27351,   0.00072,275428680.92216,  -0.00029,  -0.00052,  -0.00040,  -2.64865,   1.00000
-382008015.62128,-489109488.14269,-96134928.34141,  -0.00108,  -0.00201,  -0.00165,475436897.75280,   0.00073,275436906.60730,  -0.00029,  -0.00053,  -0.00040,  -8.85450,   1.00000
-381468942.04540,-489026820.34116,-96489708.98804,  -0.00108,  -0.00201,  -0.00166,475445089.14558,   0.00074,275445098.50494,  -0.00030,  -0.00053,  -0.00041,  -9.35936,   1.00000
-380928550.36151,-488947522.98347,-96839617.33824,  -0.00108,  -0.00202,  -0.00167,475453366.83833,   0.00074,275453376.00479,  -0.00030,  -0.00054,  -0.00041,  -9.16646,   1.00000
-380394113.19508,-488866125.57074,-97186665.42733,  -0.00108,  -0.00203,  -0.00168,475461583.71321,   0.00075,275461585.73827,  -0.00030,  -0.00054,  -0.00042,  -2.02507,   1.00000
-379860802.27013,-488783780.63598,-97532088.80303,  -0.00108,  -0.00203,  -0.00169,475469809.03517,   0.00076,275469812.20660,  -0.00030,  -0.00055,  -0.00042,  -3.17143,   1.00000
-379315600.06553,-488707258.37850,-97875045.99052,  -0.00108,  -0.00204,  -0.00170,475478070.74524,   0.00077,275478073.39138,  -0.00031,  -0.00055,  -0.00043,  -2.64613,   1.00000
-378776319.13061,-488628642.37011,-98215223.57631,  -0.00108,  -0.00204,  -0.00171,475486258.39901,   0.00077,275486266.18193,  -0.00031,  -0.00056,  -0.00043,  -7.78292,   1.00000
-378238196.44598,-488549096.18146,-98553816.35832,  -0.00108,  -0.00205,  -0.00172,475494466.60483,   0.00078,275494475.39460,  -0.00031,  -0.00056,  -0.00044,  -8.78977,   1.00000
-377701317.46430,-488476283.34531,-98883154.71799,  -0.00108,  -0.00206,  -0.00173,475502748.35849,   0.00079,275502753.36800,  -0.00031,  -0.00057,  -0.00044,  -5.00951,   1.00000
-377157176.63228,-488400476.35302,-99216634.80556,  -0.00108,  -0.00206,  -0.00174,475510923.45638,   0.00080,275510927.86112,  -0.00031,  -0.00057,  -0.00045,  -4.40474,   1.00000
-376625123.03982,-488329136.67372,-99538470.70332,  -0.00108,  -0.00207,  -0.00175,475519220.74240,   0.00081,275519221.43528,  -0.00032,  -0.00058,  -0.00045,  -0.69288,   1.00000
-376074916.65093,-488257047.27572,-99866923.12908,  -0.00108,  -0.00207,  -0.00176,475527355.46525,   0.00081,275527360.62347,  -0.00032,  -0.00058,  -0.00046,  -5.15822,   1.00000
-375539153.31722,-488185084.52225,-100187054.52843,  -0.00108,  -0.00208,  -0.00176,475535547.36305,   0.00082,275535549.43895,  -0.00032,  -0.00059,  -0.00046,  -2.07590,   1.00000
-374991499.43488,-488118872.07346,-100504801.31304,  -0.00108,  -0.00208,  -0.00177,475543768.16684,   0.00083,275543772.65849,  -0.00032,  -0.00060,  -0.00047,  -4.49165,   1.00000
-374458166.99821,-488045124.18585,-100821975.62019,  -0.00108,  -0.00209,  -0.00178,475551986.39272,   0.00084,275551992.51900,  -0.00033,  -0.00060,  -0.00047,  -6.12627,   1.00000
-373904452.89774,-487982650.75407,-101134819.65775,  -0.00108,  -0.00210,  -0.00179,475560171.29439,   0.00084,275560179.46288,  -0.00033,  -0.00061,  -0.00048,  -8.16849,   1.00000
-373365091.05515,-487912664.12038,-101447132.46187,  -0.00108,  -0.00210,  -0.00180,475568359.77134,   0.00085,275568362.66698,  -0.00033,  -0.00061,  -0.00048,  -2.89563,   1.00000
-372816259.89925,-487851733.28104,-101752712.46032,  -0.00108,  -0.00211,  -0.00181,475576557.66708,   0.00086,275576563.23952,  -0.00033,  -0.00062,  -0.00049,  -5.57243,   1.00000
-372270810.46556,-487785473.84406,-102060241.49884,  -0.00108,  -0.00211,  -0.00182,475584703.09831,   0.00087,275584709.28191,  -0.00033,  -0.00062,  -0.00049,  -6.18361,   1.00000
-371726914.63728,-487726139.97291,-102358626.58723,  -0.00108,  -0.00212,  -0.00183,475592912.88771,   0.00087,275592922.79348,  -0.00034,  -0.00063,  -0.00050,  -9.90577,   1.00000
-371175335.70239,-487663596.62391,-102661453.56865,  -0.00108,  -0.00213,  -0.00184,475601026.35057,   0.00088,275601031.06142,  -0.00034,  -0.00063,  -0.00050,  -4.71085,   1.00000
-370636430.03244,-487605918.17849,-102952713.52153,  -0.00108,  -0.00213,  -0.00185,475609253.06165,   0.00089,275609256.80052,  -0.00034,  -0.00064,  -0.00051,  -3.73887,   1.00000
-370089751.37045,-487545001.16904,-103248470.24303,  -0.00108,  -0.00214,  -0.00186,475617371.20545,   0.00090,275617376.92399,  -0.00034,  -0.00064,  -0.00051,  -5.71854,   1.00000
-369533620.17782,-487493115.92445,-103537572.01682,  -0.00108,  -0.00214,  -0.00186,475625509.23341,   0.00090,275625513.91402,  -0.00035,  -0.00065,  -0.00052,  -4.68061,   1.00000
-368991927.37201,-487433861.54668,-103826314.66068,  -0.00108,  -0.00215,  -0.00187,475633643.31971,   0.00091,275633645.37207,  -0.00035,  -0.00065,  -0.00052,  -2.05236,   1.00000
-368440776.02686,-487383648.18036,-104108431.75029,  -0.00108,  -0.00216,  -0.00188,475641790.71967,   0.00092,275641793.43606,  -0.00035,  -0.00066,  -0.00053,  -2.71639,   1.00000
-367881693.29327,-487330070.73477,-104395135.58996,  -0.00108,  -0.00216,  -0.00189,475649828.64770,   0.00093,275649835.52757,  -0.00035,  -0.00066,  -0.00053,  -6.87987,   1.00000
-367335600.44360,-487281556.66063,-104670321.31283,  -0.00107,  -0.00217,  -0.00190,475657990.68767,   0.00093,275657994.19218,  -0.00035,  -0.00067,  -0.00054,  -3.50451,   1.00000
-366781493.36303,-487229660.96866,-104950148.19535,  -0.00107,  -0.00217,  -0.00191,475666043.10070,   0.00094,275666046.47381,  -0.00036,  -0.00067,  -0.00054,  -3.37310,   1.00000
-366229196.73677,-487184824.29477,-105220931.64643,  -0.00107,  -0.00218,  -0.00192,475674157.45591,   0.00095,275674165.12399,  -0.00036,  -0.00068,  -0.00055,  -7.66808,   1.00000
-365680108.36418,-487134655.35341,-105493944.65114,  -0.00107,  -0.00218,  -0.00193,475682223.35516,   0.00096,275682226.96486,  -0.00036,  -0.00068,  -0.00055,  -3.60970,   1.00000
-365121557.17750,-487093475.63851,-105760397.94044,  -0.00107,  -0.00219,  -0.00194,475690301.06441,   0.00096,275690305.07499,  -0.00036,  -0.00069,  -0.00056,  -4.01057,   1.00000
-364566776.26085,-487054894.51700,-106021336.58798,  -0.00107,  -0.00220,  -0.00194,475698374.29381,   0.00097,275698378.59474,  -0.00036,  -0.00069,  -0.00057,  -4.30093,   1.00000
-364012693.89297,-487007471.36625,-106288866.98785,  -0.00107,  -0.00220,  -0.00195,475706408.00857,   0.00098,275706412.94236,  -0.00037,  -0.00070,  -0.00057,  -4.93378,   1.00000
-363451607.60581,-486972510.12863,-106545571.69691,  -0.00107,  -0.00221,  -0.00196,475714443.30691,   0.00099,275714445.26003,  -0.00037,  -0.00070,  -0.00058,  -1.95312,   1.00000
-362891838.98827,-486936654.01524,-106801103.39919,  -0.00107,  -0.00221,  -0.00197,475722483.22242,   0.00099,275722490.76169,  -0.00037,  -0.00071,  -0.00058,  -7.53927,   1.00000
-362335184.57641,-486895436.13181,-107058986.46067,  -0.00107,  -0.00222,  -0.00198,475730473.83338,   0.00100,275730478.53633,  -0.00037,  -0.00071,  -0.00059,  -4.70295,   1.00000
-361780525.60465,-486861377.29618,-107307904.67097,  -0.00107,  -0.00223,  -0.00199,475738524.45362,   0.00101,275738531.80683,  -0.00037,  -0.00072,  -0.00059,  -7.35321,   1.00000
-361218164.49117,-486831747.19738,-107553884.21186,  -0.00107,  -0.00223,  -0.00199,475746525.29065,   0.00102,275746529.89252,  -0.00038,  -0.00072,  -0.00060,  -4.60187,   1.00000
-360658859.85858,-486796729.42683,-107802280.60264,  -0.00107,  -0.00224,  -0.00200,475754464.68380,   0.00102,275754469.76988,  -0.00038,  -0.00073,  -0.00060,  -5.08607,   1.00000
-360101619.68807,-486768898.57934,-108041749.19046,  -0.00107,  -0.00224,  -0.00201,475762469.13593,   0.00103,275762474.76816,  -0.00038,  -0.00073,  -0.00061,  -5.63223,   1.00000
-359534145.09244,-486741904.35960,-108282597.23339,  -0.00107,  -0.00225,  -0.00202,475770439.46971,   0.00104,275770442.84313,  -0.00038,  -0.00074,  -0.00061,  -3.37342,   1.00000
-358970474.41538,-486717572.40915,-108518093.53863,  -0.00107,  -0.00225,  -0.00203,475778403.03614,   0.00104,275778404.82042,  -0.00038,  -0.00074,  -0.00062,  -1.78427,   1.00000
-358398169.91202,-486689501.26802,-108758551.94008,  -0.00107,  -0.00226,  -0.00204,475786254.66826,   0.00105,275786258.75615,  -0.00038,  -0.00074,  -0.00062,  -4.08789,   1.00000
-357839669.79553,-486666982.68050,-108987640.06329,  -0.00107,  -0.00227,  -0.00204,475794226.51776,   0.00106,275794226.79636,  -0.00039,  -0.00075,  -0.00063,  -0.27861,   1.00000
-357273293.83061,-486648786.53701,-109213908.31189,  -0.00106,  -0.00227,  -0.00205,475802129.38158,   0.00107,275802138.95918,  -0.00039,  -0.00075,  -0.00063,  -9.57760,   1.00000
-356708272.37519,-486629715.86374,-109439154.06735,  -0.00106,  -0.00228,  -0.00206,475810058.78319,   0.00107,275810063.02780,  -0.00039,  -0.00076,  -0.00064,  -4.24460,   1.00000
-356135337.10966,-486614933.54079,-109661607.07425,  -0.00106,  -0.00228,  -0.00207,475817930.18160,   0.00108,275817931.10081,  -0.00039,  -0.00076,  -0.00064,  -0.91921,   1.00000
-355563744.74616,-486599231.93361,-109883048.20277,  -0.00106,  -0.00229,  -0.00208,475825805.14971,   0.00109,275825811.14371,  -0.00039,  -0.00077,  -0.00065,  -5.99400,   1.00000
-354995973.40143,-486586242.04152,-110099256.05872,  -0.00106,  -0.00230,  -0.00208,475833683.12058,   0.00110,275833683.95404,  -0.00040,  -0.00077,  -0.00065,  -0.83346,   1.00000
-354421730.27399,-486572966.49000,-110316332.78394,  -0.00106,  -0.00230,  -0.00209,475841425.01262,   0.00110,275841428.91240,  -0.00040,  -0.00078,  -0.00066,  -3.89977,   1.00000
-353847309.41727,-486563301.82068,-110528814.59924,  -0.00106,  -0.00231,  -0.00210,475849247.57762,   0.00111,275849257.18793,  -0.00040,  -0.00078,  -0.00066,  -9.61031,   1.00000
-353274250.81517,-486552739.37700,-110740335.72756,  -0.00106,  -0.00231,  -0.00211,475857096.05927,   0.00112,275857096.95304,  -0.00040,  -0.00079,  -0.00067,  -0.89377,   1.00000
-352695587.20605,-486549985.41985,-110944923.62417,  -0.00106,  -0.00232,  -0.00212,475864855.78139,   0.00112,275864861.15247,  -0.00040,  -0.00079,  -0.00067,  -5.37108,   1.00000
-352127714.43748,-486541215.75055,-111150332.17902,  -0.00106,  -0.00233,  -0.00212,475872697.94308,   0.00113,275872704.55745,  -0.00040,  -0.00080,  -0.00068,  -6.61437,   1.00000
-351542270.18904,-486541708.71972,-111351315.62205,  -0.00106,  -0.00233,  -0.00213,475880417.43789,   0.00114,275880423.39673,  -0.00041,  -0.00080,  -0.00068,  -5.95884,   1.00000
-350970131.32544,-486539835.09451,-111548921.78400,  -0.00106,  -0.00234,  -0.00214,475888201.42102,   0.00115,275888201.99260,  -0.00041,  -0.00081,  -0.00069,  -0.57158,   1.00000
-350389819.27214,-486542087.33697,-111743883.83069,  -0.00105,  -0.00234,  -0.00215,475895913.90365,   0.00115,275895923.79211,  -0.00041,  -0.00081,  -0.00069,  -9.88847,   1.00000
-349810869.07180,-486543414.57184,-111937961.68992,  -0.00105,  -0.00235,  -0.00215,475903651.48141,   0.00116,275903656.52315,  -0.00041,  -0.00082,  -0.00070,  -5.04175,   1.00000
-349222349.59576,-486553353.46354,-112125748.80112,  -0.00105,  -0.00235,  -0.00216,475911399.90150,   0.00117,275911404.50434,  -0.00041,  -0.00082,  -0.00070,  -4.60285,   1.00000
-348638996.46670,-486561457.63450,-112312145.07670,  -0.00105,  -0.00236,  -0.00217,475919066.01736,   0.00118,275919071.72343,  -0.00041,  -0.00083,  -0.00071,  -5.70607,   1.00000
-348056996.03153,-486568610.68487,-112497690.33277,  -0.00105,  -0.00237,  -0.00218,475926745.81569,   0.00118,275926749.67529,  -0.00042,  -0.00083,  -0.00071,  -3.85960,   1.00000
-347466698.53929,-486579797.69369,-112680653.04534,  -0.00105,  -0.00237,  -0.00218,475934364.11869,   0.00119,275934370.57990,  -0.00042,  -0.00084,  -0.00072,  -6.46121,   1.00000
-346877755.08009,-486590009.57933,-112862777.23842,  -0.00105,  -0.00238,  -0.00219,475941996.13235,   0.00120,275942002.20321,  -0.00042,  -0.00084,  -0.00073,  -6.07086,   1.00000
-346292613.51830,-486602942.65904,-113039881.66889,  -0.00105,  -0.00238,  -0.00220,475949616.83547,   0.00120,275949624.77990,  -0.00042,  -0.00085,  -0.00073,  -7.94444,   1.00000
-345697853.49973,-486624379.79005,-113210742.85571,  -0.00105,  -0.00239,  -0.00221,475957252.55546,   0.00121,275957262.53882,  -0.00042,  -0.00085,  -0.00074,  -9.98337,   1.00000
-345105694.92913,-486640295.09801,-113384514.27361,  -0.00104,  -0.00240,  -0.00221,475964835.35706,   0.00122,275964838.23224,  -0.00042,  -0.00085,  -0.00074,  -2.87518,   1.00000
-344517322.79335,-486658920.10070,-113553305.04665,  -0.00104,  -0.00240,  -0.00222,475972395.43143,   0.00122,275972404.58098,  -0.00042,  -0.00086,  -0.00075,  -9.14955,   1.00000
-343920497.46283,-486681482.69382,-113719592.42418,  -0.00104,  -0.00241,  -0.00223,475979908.86328,   0.00123,275979913.47418,  -0.00043,  -0.00086,  -0.00075,  -4.61091,   1.00000
-343323843.56457,-486707541.23353,-113881383.36200,  -0.00104,  -0.00241,  -0.00224,475987496.61594,   0.00124,275987505.33768,  -0.00043,  -0.00087,  -0.00076,  -8.72175,   1.00000
-342719854.52691,-486732953.98985,-114044416.73987,  -0.00104,  -0.00242,  -0.00224,475994965.27840,   0.00125,275994967.07509,  -0.00043,  -0.00087,  -0.00076,  -1.79669,   1.00000
-342130837.06958,-486764429.79696,-114196349.55910,  -0.00104,  -0.00243,  -0.00225,476002538.57016,   0.00125,276002539.37670,  -0.00043,  -0.00088,  -0.00077,  -0.80654,   1.00000
-341519586.84885,-486792614.96766,-114356173.20495,  -0.00104,  -0.00243,  -0.00226,476009945.79302,   0.00126,276009953.79169,  -0.00043,  -0.00088,  -0.00077,  -7.99867,   1.00000
-340924496.24109,-486822389.37963,-114508651.79577,  -0.00103,  -0.00244,  -0.00226,476017402.08594,   0.00127,276017405.72256,  -0.00043,  -0.00089,  -0.00078,  -3.63661,   1.00000
-340317263.16626,-486856731.20159,-114659099.22542,  -0.00103,  -0.00244,  -0.00227,476024887.07444,   0.00127,276024893.11081,  -0.00043,  -0.00089,  -0.00078,  -6.03638,   1.00000
-339713826.20578,-486893764.89497,-114804672.76505,  -0.00103,  -0.00245,  -0.00228,476032369.53681,   0.00128,276032370.29831,  -0.00044,  -0.00090,  -0.00079,  -0.76150,   1.00000
-339102753.21769,-486930022.38605,-114951573.72175,  -0.00103,  -0.00245,  -0.00228,476039710.13830,   0.00129,276039716.96682,  -0.00044,  -0.00090,  -0.00079,  -6.82852,   1.00000
-338494424.39454,-486973474.58189,-115089865.01463,  -0.00103,  -0.00246,  -0.00229,476047125.19435,   0.00129,276047126.31065,  -0.00044,  -0.00091,  -0.00080,  -1.11630,   1.00000
-337888439.66194,-487011331.03671,-115231243.17223,  -0.00103,  -0.00247,  -0.00230,476054465.03809,   0.00130,276054472.25651,  -0.00044,  -0.00091,  -0.00080,  -7.21842,   1.00000
-337272698.72283,-487057384.52057,-115366449.83823,  -0.00103,  -0.00247,  -0.00230,476061827.76452,   0.00131,276061833.75329,  -0.00044,  -0.00091,  -0.00081,  -5.98877,   1.00000
-336658308.90814,-487102328.74573,-115500991.24211,  -0.00102,  -0.00248,  -0.00231,476069203.26711,   0.00131,276069204.93210,  -0.00044,  -0.00092,  -0.00081,  -1.66499,   1.00000
-336038455.64584,-487150170.62195,-115632774.70795,  -0.00102,  -0.00248,  -0.00232,476076419.46059,   0.00132,276076425.00569,  -0.00044,  -0.00092,  -0.00081,  -5.54511,   1.00000
-335416588.57624,-487197600.07927,-115764268.13891,  -0.00102,  -0.00249,  -0.00232,476083742.38911,   0.00133,276083748.41132,  -0.00045,  -0.00093,  -0.00082,  -6.02221,   1.00000
-334800880.91021,-487251465.99409,-115886830.08849,  -0.00102,  -0.00250,  -0.00233,476091034.46284,   0.00133,276091040.63719,  -0.00045,  -0.00093,  -0.00082,  -6.17435,   1.00000
-334173855.87878,-487305096.13937,-116011177.20137,  -0.00102,  -0.00250,  -0.00234,476098287.55937,   0.00134,276098295.67205,  -0.00045,  -0.00094,  -0.00083,  -8.11269,   1.00000
-333550573.30649,-487361363.94028,-116130759.91488,  -0.00102,  -0.00251,  -0.00234,476105536.47309,   0.00135,276105539.76133,  -0.00045,  -0.00094,  -0.00083,  -3.28824,   1.00000
-332931017.22901,-487420268.05169,-116245596.30297,  -0.00101,  -0.00251,  -0.00235,476112770.52789,   0.00135,276112772.73864,  -0.00045,  -0.00095,  -0.00084,  -2.21076,   1.00000
-332300059.78677,-487478858.34463,-116362233.47440,  -0.00101,  -0.00252,  -0.00236,476119965.37850,   0.00136,276119968.62509,  -0.00045,  -0.00095,  -0.00084,  -3.24659,   1.00000
-331672819.75050,-487540065.75080,-116474134.22585,  -0.00101,  -0.00253,  -0.00236,476127145.36730,   0.00137,276127153.39604,  -0.00045,  -0.00095,  -0.00085,  -8.02874,   1.00000
-331036517.90350,-487604713.57628,-116583710.86843,  -0.00101,  -0.00253,  -0.00237,476134278.65615,   0.00137,276134280.62024,  -0.00045,  -0.00096,  -0.00085,  -1.96409,   1.00000
-330401532.43697,-487668141.07746,-116692700.73131,  -0.00101,  -0.00254,  -0.00238,476141414.43259,   0.00138,276141417.24309,  -0.00045,  -0.00096,  -0.00086,  -2.81050,   1.00000
-329770244.71013,-487734174.46974,-116796983.66151,  -0.00101,  -0.00254,  -0.00238,476148534.96652,   0.00139,276148542.54095,  -0.00046,  -0.00097,  -0.00086,  -7.57443,   1.00000
-329129798.65096,-487803579.39772,-116898960.06692,  -0.00100,  -0.00255,  -0.00239,476155608.13566,   0.00139,276155610.34380,  -0.00046,  -0.00097,  -0.00087,  -2.20814,   1.00000
-328490659.94708,-487871741.33578,-117000373.30409,  -0.00100,  -0.00256,  -0.00239,476162683.80191,   0.00140,276162687.42745,  -0.00046,  -0.00098,  -0.00087,  -3.62553,   1.00000
-327855198.24320,-487942496.68390,-117097107.66557,  -0.00100,  -0.00256,  -0.00240,476169743.86720,   0.00141,276169752.99374,  -0.00046,  -0.00098,  -0.00088,  -9.12654,   1.00000
-327209800.89250,-488020991.71293,-117187721.82630,  -0.00100,  -0.00257,  -0.00241,476176833.81633,   0.00141,276176835.12170,  -0.00046,  -0.00099,  -0.00088,  -1.30537,   1.00000
-326568741.26103,-488097598.88947,-117277519.31225,  -0.00100,  -0.00257,  -0.00241,476183829.98241,   0.00142,276183831.57294,  -0.00046,  -0.00099,  -0.00089,  -1.59053,   1.00000
-325915993.30137,-488173595.85004,-117369150.99922,  -0.00099,  -0.00258,  -0.00242,476190786.13372,   0.00143,276190791.55646,  -0.00046,  -0.00099,  -0.00089,  -5.42275,   1.00000
-325266267.40322,-488256560.86089,-117452293.90579,  -0.00099,  -0.00259,  -0.00242,476197804.36176,   0.00143,276197814.08454,  -0.00046,  -0.00100,  -0.00090,  -9.72277,   1.00000
-324605434.26650,-488334429.67261,-117541121.39358,  -0.00099,  -0.00259,  -0.00243,476204724.04549,   0.00144,276204726.09692,  -0.00046,  -0.00100,  -0.00090,  -2.05144,   1.00000
-323949984.55883,-488423069.02940,-117617346.25498,  -0.00099,  -0.00260,  -0.00243,476211677.30927,   0.00145,276211679.96221,  -0.00047,  -0.00101,  -0.00091,  -2.65294,   1.00000
-323296401.25392,-488505965.62133,-117696928.22173,  -0.00099,  -0.00260,  -0.00244,476218564.91889,   0.00145,276218568.51119,  -0.00047,  -0.00101,  -0.00091,  -3.59230,   1.00000
-322645881.60502,-488595799.62789,-117768052.26323,  -0.00098,  -0.00261,  -0.00245,476225514.02972,   0.00146,276225519.46663,  -0.00047,  -0.00102,  -0.00092,  -5.43691,   1.00000
-321970918.60293,-488680987.06714,-117847218.59511,  -0.00098,  -0.00262,  -0.00245,476232310.98798,   0.00147,276232314.96871,  -0.00047,  -0.00102,  -0.00092,  -3.98073,   1.00000
-321312204.87883,-488772519.74361,-117915584.80503,  -0.00098,  -0.00262,  -0.00246,476239213.50236,   0.00147,276239218.15211,  -0.00047,  -0.00102,  -0.00092,  -4.64974,   1.00000
-320643911.16268,-488867046.91718,-117981694.56032,  -0.00098,  -0.00263,  -0.00246,476246056.27672,   0.00148,276246064.53558,  -0.00047,  -0.00103,  -0.00093,  -8.25886,   1.00000
-319979216.21819,-488964044.75385,-118043230.76562,  -0.00097,  -0.00263,  -0.00247,476252891.92109,   0.00149,276252898.91938,  -0.00047,  -0.00103,  -0.00093,  -6.99829,   1.00000
-319302564.22588,-489060113.62289,-118106625.24947,  -0.00097,  -0.00264,  -0.00247,476259696.70037,   0.00149,276259697.60908,  -0.00047,  -0.00104,  -0.00094,  -0.90871,   1.00000
-318629920.99920,-489154254.38144,-118169313.56218,  -0.00097,  -0.00265,  -0.00248,476266406.23575,   0.00150,276266409.79104,  -0.00047,  -0.00104,  -0.00094,  -3.55529,   1.00000
-317960414.64039,-489255218.57073,-118223569.90462,  -0.00097,  -0.00265,  -0.00248,476273177.34493,   0.00150,276273184.61783,  -0.00047,  -0.00105,  -0.00095,  -7.27290,   1.00000
-317278862.96929,-489355168.76383,-118279687.18218,  -0.00097,  -0.00266,  -0.00249,476279917.43214,   0.00151,276279923.99417,  -0.00048,  -0.00105,  -0.00095,  -6.56203,   1.00000
-316587528.75446,-489457924.18461,-118333543.86006,  -0.00096,  -0.00266,  -0.00249,476286606.01629,   0.00152,276286607.21495,  -0.00048,  -0.00105,  -0.00096,  -1.19866,   1.00000
-315912742.19731,-489567029.90673,-118376686.04884,  -0.00096,  -0.00267,  -0.00250,476293390.61844,   0.00152,276293397.51959,  -0.00048,  -0.00106,  -0.00096,  -6.90115,   1.00000
-315215061.12497,-489674904.82675,-118423755.21410,  -0.00096,  -0.00268,  -0.00251,476300009.99139,   0.00153,276300012.66723,  -0.00048,  -0.00106,  -0.00097,  -2.67583,   1.00000
-314532041.11572,-489780930.24428,-118468113.96567,  -0.00096,  -0.00268,  -0.00251,476306677.37271,   0.00154,276306680.91401,  -0.00048,  -0.00107,  -0.00097,  -3.54129,   1.00000
-313839094.65342,-489889665.58532,-118510224.69410,  -0.00095,  -0.00269,  -0.00252,476313292.61732,   0.00154,276313293.17266,  -0.00048,  -0.00107,  -0.00097,  -0.55534,   1.00000
-313135898.74580,-490005342.96443,-118546191.44280,  -0.00095,  -0.00269,  -0.00252,476319915.89099,   0.00155,276319924.82591,  -0.00048,  -0.00108,  -0.00098,  -8.93492,   1.00000
-312449964.23436,-490118779.62849,-118579279.99678,  -0.00095,  -0.00270,  -0.00252,476326505.73186,   0.00155,276326512.91816,  -0.00048,  -0.00108,  -0.00098,  -7.18630,   1.00000
-311738216.51466,-490231187.80790,-118616480.02965,  -0.00095,  -0.00271,  -0.00253,476333018.98153,   0.00156,276333022.92923,  -0.00048,  -0.00108,  -0.00099,  -3.94769,   1.00000
-311043267.13126,-490349954.75345,-118643025.84548,  -0.00094,  -0.00271,  -0.00253,476339629.81841,   0.00157,276339639.67046,  -0.00048,  -0.00109,  -0.00099,  -9.85205,   1.00000
-310336186.51166,-490463091.41547,-118675322.97283,  -0.00094,  -0.00272,  -0.00254,476346138.99238,   0.00157,276346146.80856,  -0.00048,  -0.00109,  -0.00100,  -7.81618,   1.00000
-309621014.85031,-490586879.60662,-118697359.39774,  -0.00094,  -0.00272,  -0.00254,476352643.66543,   0.00158,276352652.94294,  -0.00049,  -0.00110,  -0.00100,  -9.27751,   1.00000
-308907071.19434,-490709027.82694,-118719011.36342,  -0.00093,  -0.00273,  -0.00255,476359161.77545,   0.00158,276359168.29608,  -0.00049,  -0.00110,  -0.00101,  -6.52063,   1.00000
-308196575.53915,-490833438.86641,-118736183.76544,  -0.00093,  -0.00274,  -0.00255,476365671.38103,   0.00159,276365671.62551,  -0.00049,  -0.00110,  -0.00101,  -0.24449,   1.00000
-307475940.11940,-490955973.21341,-118754995.54790,  -0.00093,  -0.00274,  -0.00256,476372038.29355,   0.00160,276372044.67918,  -0.00049,  -0.00111,  -0.00101,  -6.38564,   1.00000
-306756412.45448,-491081102.56151,-118769532.07193,  -0.00093,  -0.00275,  -0.00256,476378498.54372,   0.00160,276378502.41645,  -0.00049,  -0.00111,  -0.00102,  -3.87274,   1.00000
-306040296.65889,-491208460.25926,-118779600.27754,  -0.00092,  -0.00275,  -0.00257,476384941.02617,   0.00161,276384948.16865,  -0.00049,  -0.00112,  -0.00102,  -7.14248,   1.00000
-305313832.10915,-491338119.43791,-118787411.75414,  -0.00092,  -0.00276,  -0.00257,476391338.24704,   0.00161,276391339.27625,  -0.00049,  -0.00112,  -0.00103,  -1.02921,   1.00000
-304574782.76080,-491466102.23294,-118797049.10888,  -0.00092,  -0.00277,  -0.00258,476397694.41809,   0.00162,276397697.36805,  -0.00049,  -0.00112,  -0.00103,  -2.94996,   1.00000
-303855097.70162,-491600129.89979,-118795934.29151,  -0.00092,  -0.00277,  -0.00258,476404056.05799,   0.00163,276404064.77498,  -0.00049,  -0.00113,  -0.00104,  -8.71699,   1.00000
-303108949.70631,-491736646.54576,-118794935.84334,  -0.00091,  -0.00278,  -0.00258,476410428.96605,   0.00163,276410432.64032,  -0.00049,  -0.00113,  -0.00104,  -3.67428,   1.00000
-302377832.55608,-491867201.48522,-118795316.90393,  -0.00091,  -0.00279,  -0.00259,476416772.56642,   0.00164,276416776.38387,  -0.00049,  -0.00114,  -0.00104,  -3.81745,   1.00000
-301638335.68594,-492003785.74007,-118789314.55164,  -0.00091,  -0.00279,  -0.00259,476423038.28748,   0.00164,276423045.03332,  -0.00049,  -0.00114,  -0.00105,  -6.74584,   1.00000
-300886176.77689,-492142695.46799,-118781224.50718,  -0.00090,  -0.00280,  -0.00260,476429352.47122,   0.00165,276429357.12404,  -0.00049,  -0.00114,  -0.00105,  -4.65282,   1.00000
-300137256.97664,-492279516.45267,-118772594.17304,  -0.00090,  -0.00280,  -0.00260,476435576.95687,   0.00166,276435581.74593,  -0.00049,  -0.00115,  -0.00106,  -4.78906,   1.00000
-299391758.07105,-492422579.45060,-118755617.84559,  -0.00090,  -0.00281,  -0.00260,476441864.33155,   0.00166,276441870.60740,  -0.00050,  -0.00115,  -0.00106,  -6.27586,   1.00000
-298633310.16986,-492559543.68096,-118744362.24165,  -0.00089,  -0.00282,  -0.00261,476448047.24285,   0.00167,276448051.48203,  -0.00050,  -0.00116,  -0.00107,  -4.23918,   1.00000
-297878307.31341,-492702700.08174,-118724756.69198,  -0.00089,  -0.00282,  -0.00261,476454293.59106,   0.00167,276454296.85551,  -0.00050,  -0.00116,  -0.00107,  -3.26444,   1.00000
-297112547.58250,-492847716.65865,-118702844.41569,  -0.00089,  -0.00283,  -0.00262,476460484.08768,   0.00168,276460489.42771,  -0.00050,  -0.00117,  -0.00107,  -5.34003,   1.00000
-296350060.80921,-492994732.04752,-118676503.89859,  -0.00088,  -0.00283,  -0.00262,476466665.44482,   0.00168,276466670.55254,  -0.00050,  -0.00117,  -0.00108,  -5.10772,   1.00000
-295588506.48309,-493135741.57509,-118653757.66363,  -0.00088,  -0.00284,  -0.00262,476472779.97930,   0.00169,276472785.20567,  -0.00050,  -0.00117,  -0.00108,  -5.22638,   1.00000
-294816313.46819,-493282634.14946,-118624776.63109,  -0.00088,  -0.00285,  -0.00263,476478919.82218,   0.00170,276478923.67958,  -0.00050,  -0.00118,  -0.00109,  -3.85740,   1.00000
-294047359.35469,-493431493.22053,-118591375.16319,  -0.00087,  -0.00285,  -0.00263,476485050.37478,   0.00170,276485050.78068,  -0.00050,  -0.00118,  -0.00109,  -0.40590,   1.00000
-293265665.30617,-493582192.14503,-118555843.21291,  -0.00087,  -0.00286,  -0.00264,476491222.13032,   0.00171,276491223.42317,  -0.00050,  -0.00118,  -0.00109,  -1.29286,   1.00000
-292488959.00690,-493734632.64752,-118515689.97310,  -0.00087,  -0.00287,  -0.00264,476497278.26840,   0.00171,276497287.35973,  -0.00050,  -0.00119,  -0.00110,  -9.09134,   1.00000
-291699160.37626,-493884772.84032,-118477307.98946,  -0.00086,  -0.00287,  -0.00264,476503318.95266,   0.00172,276503320.80644,  -0.00050,  -0.00119,  -0.00110,  -1.85378,   1.00000
-290910487.90062,-494032883.50960,-118438611.07216,  -0.00086,  -0.00288,  -0.00265,476509358.30974,   0.00172,276509364.50034,  -0.00050,  -0.00120,  -0.00111,  -6.19059,   1.00000
-290127426.82686,-494190826.22250,-118387480.08267,  -0.00086,  -0.00288,  -0.00265,476515445.78036,   0.00173,276515452.37060,  -0.00050,  -0.00120,  -0.00111,  -6.59024,   1.00000
-289330790.86927,-494342308.49698,-118342014.33004,  -0.00085,  -0.00289,  -0.00265,476521427.12018,   0.00174,276521433.77303,  -0.00050,  -0.00120,  -0.00111,  -6.65284,   1.00000
-288523394.82554,-494499226.39260,-118290259.78060,  -0.00085,  -0.00290,  -0.00266,476527434.05183,   0.00174,276527441.04144,  -0.00050,  -0.00121,  -0.00112,  -6.98960,   1.00000
-287733512.46326,-494658365.87224,-118232067.05643,  -0.00085,  -0.00290,  -0.00266,476533471.10291,   0.00175,276533477.28784,  -0.00050,  -0.00121,  -0.00112,  -6.18492,   1.00000
-286929896.29549,-494810973.53509,-118179521.20764,  -0.00084,  -0.00291,  -0.00266,476539401.61879,   0.00175,276539407.42249,  -0.00050,  -0.00122,  -0.00113,  -5.80370,   1.00000
-286115473.66047,-494968879.92992,-118120668.97442,  -0.00084,  -0.00291,  -0.00267,476545357.92051,   0.00176,276545364.06958,  -0.00050,  -0.00122,  -0.00113,  -6.14907,   1.00000
-285304166.77744,-495128526.05375,-118057405.57061,  -0.00084,  -0.00292,  -0.00267,476551305.05478,   0.00176,276551310.17128,  -0.00050,  -0.00122,  -0.00113,  -5.11649,   1.00000
-284495960.64057,-495289910.68129,-117989741.55082,  -0.00083,  -0.00293,  -0.00267,476557242.77605,   0.00177,276557245.64049,  -0.00050,  -0.00123,  -0.00114,  -2.86444,   1.00000
-283674363.82176,-495448573.21897,-117923789.06050,  -0.00083,  -0.00293,  -0.00267,476563148.65845,   0.00178,276563152.55908,  -0.00051,  -0.00123,  -0.00114,  -3.90063,   1.00000
-282855847.37702,-495608936.86099,-117853428.83609,  -0.00083,  -0.00294,  -0.00268,476569045.31630,   0.00178,276569049.07637,  -0.00051,  -0.00124,  -0.00115,  -3.76008,   1.00000
-282026457.55442,-495774313.23158,-117776739.57988,  -0.00082,  -0.00295,  -0.00268,476574968.15502,   0.00179,276574973.31757,  -0.00051,  -0.00124,  -0.00115,  -5.16255,   1.00000
-281199498.01526,-495937401.34457,-117699545.57897,  -0.00082,  -0.00295,  -0.00268,476580805.86595,   0.00179,276580810.39190,  -0.00051,  -0.00124,  -0.00115,  -4.52595,   1.00000
-280373623.85504,-496098244.62320,-117622082.05043,  -0.00081,  -0.00296,  -0.00269,476586652.34806,   0.00180,276586658.28169,  -0.00051,  -0.00125,  -0.00116,  -5.93363,   1.00000
-279536831.93998,-496263955.94704,-117538270.15375,  -0.00081,  -0.00296,  -0.00269,476592525.31279,   0.00180,276592534.59537,  -0.00051,  -0.00125,  -0.00116,  -9.28258,   1.00000
-278688416.72208,-496430552.02983,-117451992.22504,  -0.00081,  -0.00297,  -0.00269,476598356.56340,   0.00181,276598362.67274,  -0.00051,  -0.00126,  -0.00116,  -6.10935,   1.00000
-277855042.19350,-496591645.60665,-117367406.89286,  -0.00080,  -0.00298,  -0.00269,476604153.27393,   0.00181,276604162.99220,  -0.00051,  -0.00126,  -0.00117,  -9.71826,   1.00000
-276996003.60177,-496756722.05094,-117278367.14344,  -0.00080,  -0.00298,  -0.00270,476609951.99767,   0.00182,276609954.49027,  -0.00051,  -0.00126,  -0.00117,  -2.49260,   1.00000
-276154683.94279,-496924050.00938,-117183007.88611,  -0.00080,  -0.00299,  -0.00270,476615766.60771,   0.00182,276615774.32386,  -0.00051,  -0.00127,  -0.00118,  -7.71615,   1.00000
-275301583.23792,-497092119.79738,-117085157.01210,  -0.00079,  -0.00300,  -0.00270,476621539.25341,   0.00183,276621546.59880,  -0.00051,  -0.00127,  -0.00118,  -7.34539,   1.00000
-274434772.84026,-497256975.68315,-116988935.58459,  -0.00079,  -0.00300,  -0.00270,476627288.76161,   0.00184,276627292.74278,  -0.00051,  -0.00127,  -0.00118,  -3.98117,   1.00000
-273587602.14226,-497427996.22840,-116882281.36544,  -0.00078,  -0.00301,  -0.00271,476633043.17133,   0.00184,276633045.98410,  -0.00051,  -0.00128,  -0.00119,  -2.81276,   1.00000
-272709949.35668,-497591001.28446,-116783269.56604,  -0.00078,  -0.00301,  -0.00271,476638752.54575,   0.00185,276638756.99919,  -0.00051,  -0.00128,  -0.00119,  -4.45344,   1.00000
-271852854.57787,-497763963.58661,-116669959.99564,  -0.00078,  -0.00302,  -0.00271,476644544.99839,   0.00185,276644552.53803,  -0.00051,  -0.00129,  -0.00119,  -7.53964,   1.00000
-270981026.15551,-497929778.04872,-116562140.30580,  -0.00077,  -0.00303,  -0.00271,476650244.78428,   0.00186,276650245.10394,  -0.00051,  -0.00129,  -0.00120,  -0.31966,   1.00000
-270097171.57187,-498096025.98534,-116451747.17639,  -0.00077,  -0.00303,  -0.00272,476655886.00686,   0.00186,276655891.85993,  -0.00051,  -0.00129,  -0.00120,  -5.85307,   1.00000
-269217179.77169,-498267370.31849,-116333074.29229,  -0.00076,  -0.00304,  -0.00272,476661597.49009,   0.00187,276661607.31671,  -0.00051,  -0.00130,  -0.00121,  -9.82661,   1.00000
-268340080.34333,-498440033.04480,-116210005.18450,  -0.00076,  -0.00305,  -0.00272,476667308.15290,   0.00187,276667313.85663,  -0.00051,  -0.00130,  -0.00121,  -5.70372,   1.00000
-267449044.35712,-498609116.09422,-116088511.84699,  -0.00076,  -0.00305,  -0.00272,476672988.66329,   0.00188,276672996.00850,  -0.00051,  -0.00131,  -0.00121,  -7.34520,   1.00000
-266559823.86851,-498775752.20849,-115966465.20811,  -0.00075,  -0.00306,  -0.00272,476678588.98001,   0.00188,276678591.89972,  -0.00051,  -0.00131,  -0.00122,  -2.91972,   1.00000
-265672729.77625,-498943529.82632,-115840321.28560,  -0.00075,  -0.00307,  -0.00273,476684272.69609,   0.00189,276684277.63129,  -0.00051,  -0.00131,  -0.00122,  -4.93520,   1.00000
-264776292.22988,-499119024.13741,-115703543.50107,  -0.00074,  -0.00307,  -0.00273,476689973.17596,   0.00189,276689975.80710,  -0.00051,  -0.00132,  -0.00122,  -2.63114,   1.00000
-263879794.40591,-499288163.92932,-115570386.00884,  -0.00074,  -0.00308,  -0.00273,476695606.07933,   0.00190,276695608.59869,  -0.00051,  -0.00132,  -0.00123,  -2.51936,   1.00000
-262969225.36819,-499453524.18005,-115438757.88598,  -0.00073,  -0.00308,  -0.00273,476701217.12908,   0.00190,276701218.13692,  -0.00051,  -0.00132,  -0.00123,  -1.00784,   1.00000
-262063212.39470,-499623881.99203,-115298530.74945,  -0.00073,  -0.00309,  -0.00273,476706791.24848,   0.00191,276706799.02993,  -0.00051,  -0.00133,  -0.00124,  -7.78145,   1.00000
-261144277.67888,-499794011.62102,-115155983.38830,  -0.00073,  -0.00310,  -0.00274,476712432.38879,   0.00192,276712435.03164,  -0.00051,  -0.00133,  -0.00124,  -2.64285,   1.00000
-260242118.14799,-499962815.30931,-115011122.23671,  -0.00072,  -0.00310,  -0.00274,476718018.76296,   0.00192,276718020.50237,  -0.00051,  -0.00134,  -0.00124,  -1.73941,   1.00000
-259313509.41918,-500133874.41174,-114861472.66453,  -0.00072,  -0.00311,  -0.00274,476723601.32079,   0.00193,276723605.91501,  -0.00051,  -0.00134,  -0.00125,  -4.59422,   1.00000
-258401230.49108,-500303419.13773,-114709883.76810,  -0.00071,  -0.00312,  -0.00274,476729231.63825,   0.00193,276729239.22580,  -0.00051,  -0.00134,  -0.00125,  -7.58755,   1.00000
-257461138.96901,-500471424.35004,-114557294.31260,  -0.00071,  -0.00312,  -0.00274,476734792.91556,   0.00194,276734795.41514,  -0.00051,  -0.00135,  -0.00125,  -2.49958,   1.00000
-256539112.73265,-500641732.34191,-114398585.32871,  -0.00070,  -0.00313,  -0.00274,476740373.46093,   0.00194,276740379.00937,  -0.00051,  -0.00135,  -0.00126,  -5.54845,   1.00000
-255602803.95885,-500807881.52846,-114241347.22250,  -0.00070,  -0.00314,  -0.00275,476745933.46448,   0.00195,276745941.22949,  -0.00051,  -0.00136,  -0.00126,  -7.76501,   1.00000
-254669233.15301,-500975012.80933,-114079690.24306,  -0.00069,  -0.00314,  -0.00275,476751493.55921,   0.00195,276751496.24569,  -0.00051,  -0.00136,  -0.00126,  -2.68648,   1.00000
-253722978.29497,-501141678.25616,-113915272.84746,  -0.00069,  -0.00315,  -0.00275,476757003.52393,   0.00196,276757010.13105,  -0.00051,  -0.00136,  -0.00127,  -6.60713,   1.00000
-252780882.72905,-501312799.31129,-113742634.15662,  -0.00068,  -0.00316,  -0.00275,476762588.68328,   0.00196,276762595.35165,  -0.00051,  -0.00137,  -0.00127,  -6.66837,   1.00000
-251838380.58436,-501477476.88918,-113573588.52389,  -0.00068,  -0.00316,  -0.00275,476768113.56651,   0.00197,276768115.79741,  -0.00051,  -0.00137,  -0.00127,  -2.23089,   1.00000
-250884598.12794,-501645075.85057,-113397962.37479,  -0.00068,  -0.00317,  -0.00275,476773671.73280,   0.00197,276773674.13146,  -0.00051,  -0.00137,  -0.00128,  -2.39866,   1.00000
-249933506.20644,-501813497.85304,-113217916.73186,  -0.00067,  -0.00317,  -0.00275,476779222.67998,   0.00198,276779225.95254,  -0.00051,  -0.00138,  -0.00128,  -3.27256,   1.00000
-248966388.39976,-501973893.98994,-113043054.80411,  -0.00067,  -0.00318,  -0.00275,476784670.53896,   0.00198,276784679.99158,  -0.00051,  -0.00138,  -0.00128,  -9.45263,   1.00000
-248019078.44459,-502140174.87842,-112858389.01836,  -0.00066,  -0.00319,  -0.00276,476790229.54707,   0.00199,276790239.19287,  -0.00051,  -0.00139,  -0.00129,  -9.64581,   1.00000
-247043268.67662,-502304039.33868,-112672483.84063,  -0.00066,  -0.00319,  -0.00276,476795720.02183,   0.00199,276795726.08071,  -0.00051,  -0.00139,  -0.00129,  -6.05888,   1.00000
-246085791.87028,-502469954.78483,-112481038.44401,  -0.00065,  -0.00320,  -0.00276,476801329.41926,   0.00200,276801338.41470,  -0.00051,  -0.00139,  -0.00129,  -8.99544,   1.00000
-245115227.58538,-502635241.09348,-112286273.39879,  -0.00065,  -0.00321,  -0.00276,476806806.21362,   0.00200,276806813.43234,  -0.00051,  -0.00140,  -0.00130,  -7.21871,   1.00000
-244128523.67217,-502792014.29699,-112097106.83324,  -0.00064,  -0.00321,  -0.00276,476812287.62255,   0.00201,276812290.32862,  -0.00051,  -0.00140,  -0.00130,  -2.70608,   1.00000
-243163407.81794,-502958353.07238,-111893970.92288,  -0.00064,  -0.00322,  -0.00276,476817850.85083,   0.00201,276817852.45246,  -0.00051,  -0.00141,  -0.00131,  -1.60163,   1.00000
-242166194.05140,-503114661.89107,-111697465.51381,  -0.00063,  -0.00323,  -0.00276,476823276.60897,   0.00202,276823286.12858,  -0.00051,  -0.00141,  -0.00131,  -9.51961,   1.00000
-241189115.84023,-503276768.97479,-111491259.98205,  -0.00063,  -0.00323,  -0.00276,476828816.25872,   0.00202,276828825.07954,  -0.00051,  -0.00141,  -0.00131,  -8.82082,   1.00000
-240198884.82213,-503437667.67170,-111282146.61697,  -0.00062,  -0.00324,  -0.00276,476834323.02568,   0.00203,276834326.80321,  -0.00051,  -0.00142,  -0.00132,  -3.77753,   1.00000
-239209751.07680,-503595388.23434,-111072858.84176,  -0.00062,  -0.00325,  -0.00276,476839839.47653,   0.00203,276839843.28179,  -0.00051,  -0.00142,  -0.00132,  -3.80526,   1.00000
-238207398.53029,-503751787.22986,-110860628.93018,  -0.00061,  -0.00325,  -0.00276,476845323.19319,   0.00204,276845323.24572,  -0.00051,  -0.00143,  -0.00132,  -0.05253,   1.00000
-237221988.61008,-503906873.59509,-110646747.48708,  -0.00061,  -0.00326,  -0.00276,476850843.23758,   0.00205,276850849.45865,  -0.00051,  -0.00143,  -0.00133,  -6.22106,   1.00000
-236208894.93080,-504062346.74493,-110427106.90521,  -0.00060,  -0.00327,  -0.00276,476856287.96101,   0.00205,276856288.68974,  -0.00051,  -0.00143,  -0.00133,  -0.72874,   1.00000
-235214763.23181,-504219844.87196,-110202143.42978,  -0.00060,  -0.00327,  -0.00276,476861848.57474,   0.00206,276861852.88189,  -0.00051,  -0.00144,  -0.00133,  -4.30715,   1.00000
-234203849.76710,-504368784.81949,-109982169.36117,  -0.00059,  -0.00328,  -0.00277,476867314.84881,   0.00206,276867322.49670,  -0.00051,  -0.00144,  -0.00134,  -7.64789,   1.00000
-233198951.76248,-504525163.24694,-109749793.85054,  -0.00059,  -0.00329,  -0.00277,476872838.39216,   0.00207,276872846.90223,  -0.00051,  -0.00144,  -0.00134,  -8.51007,   1.00000
-232179220.99905,-504676188.81788,-109518698.40229,  -0.00058,  -0.00329,  -0.00277,476878346.90428,   0.00207,276878356.16641,  -0.00051,  -0.00145,  -0.00134,  -9.26212,   1.00000
-231158538.08656,-504820588.90049,-109291119.22700,  -0.00058,  -0.00330,  -0.00277,476883794.65818,   0.00208,276883802.09317,  -0.00051,  -0.00145,  -0.00135,  -7.43499,   1.00000
-230143902.45208,-504972308.39553,-109051141.80839,  -0.00057,  -0.00331,  -0.00277,476889300.55825,   0.00208,276889303.41203,  -0.00051,  -0.00146,  -0.00135,  -2.85379,   1.00000
-229116523.93300,-505121808.40527,-108808764.55851,  -0.00057,  -0.00331,  -0.00277,476894864.40455,   0.00209,276894869.30050,  -0.00051,  -0.00146,  -0.00135,  -4.89595,   1.00000
-228088134.58731,-505264646.06724,-108569903.33153,  -0.00056,  -0.00332,  -0.00277,476900367.83256,   0.00209,276900372.02928,  -0.00051,  -0.00146,  -0.00136,  -4.19672,   1.00000
-227062270.90006,-505407763.06140,-108326601.92937,  -0.00056,  -0.00333,  -0.00277,476905866.47102,   0.00210,276905871.15365,  -0.00051,  -0.00147,  -0.00136,  -4.68263,   1.00000
-226041171.81254,-505554395.97590,-108075238.21140,  -0.00055,  -0.00333,  -0.00277,476911440.31877,   0.00210,276911445.63982,  -0.00051,  -0.00147,  -0.00136,  -5.32105,   1.00000
-225004176.61517,-505695750.81708,-107824420.77699,  -0.00055,  -0.00334,  -0.00277,476916903.66983,   0.00211,276916908.43608,  -0.00051,  -0.00148,  -0.00137,  -4.76625,   1.00000
-223954492.83812,-505834592.04774,-107571188.90345,  -0.00054,  -0.00335,  -0.00277,476922427.54850,   0.00211,276922437.36854,  -0.00051,  -0.00148,  -0.00137,  -9.82004,   1.00000
-222923513.30115,-505975902.36445,-107312200.11217,  -0.00054,  -0.00335,  -0.00277,476927987.89125,   0.00212,276927992.20768,  -0.00051,  -0.00148,  -0.00137,  -4.31643,   1.00000
-221878822.23204,-506115000.83661,-107050095.33146,  -0.00053,  -0.00336,  -0.00277,476933511.36059,   0.00212,276933515.32995,  -0.00051,  -0.00149,  -0.00138,  -3.96936,   1.00000
-220835328.69987,-506250602.11466,-106787887.79597,  -0.00052,  -0.00337,  -0.00277,476939047.84649,   0.00213,276939054.74510,  -0.00051,  -0.00149,  -0.00138,  -6.89861,   1.00000
-219794329.90035,-506386316.89225,-106521252.69101,  -0.00052,  -0.00337,  -0.00277,476944588.00220,   0.00213,276944591.35425,  -0.00051,  -0.00150,  -0.00138,  -3.35205,   1.00000
-218738258.82470,-506516081.13327,-106255801.14322,  -0.00051,  -0.00338,  -0.00277,476950109.02214,   0.00214,276950116.13993,  -0.00051,  -0.00150,  -0.00139,  -7.11779,   1.00000
-217687179.38046,-506649070.31824,-105982346.99625,  -0.00051,  -0.00339,  -0.00277,476955716.07032,   0.00214,276955717.65755,  -0.00051,  -0.00150,  -0.00139,  -1.58724,   1.00000
-216636059.33567,-506778910.67618,-105708028.38400,  -0.00050,  -0.00339,  -0.00277,476961237.56738,   0.00215,276961237.69416,  -0.00051,  -0.00151,  -0.00139,  -0.12678,   1.00000
-215573609.19968,-506909348.05080,-105426966.94952,  -0.00050,  -0.00340,  -0.00277,476966798.11997,   0.00215,276966807.16219,  -0.00051,  -0.00151,  -0.00139,  -9.04222,   1.00000
-214512415.84035,-507036190.09631,-105145839.68865,  -0.00049,  -0.00341,  -0.00277,476972388.48019,   0.00216,276972393.38768,  -0.00050,  -0.00152,  -0.00140,  -4.90749,   1.00000
-213452489.94068,-507159443.43652,-104864650.98650,  -0.00049,  -0.00341,  -0.00276,476977992.79403,   0.00216,276977996.37562,  -0.00050,  -0.00152,  -0.00140,  -3.58159,   1.00000
-212396244.60224,-507286168.89857,-104574674.58948,  -0.00048,  -0.00342,  -0.00276,476983576.61527,   0.00217,276983578.84311,  -0.00050,  -0.00153,  -0.00140,  -2.22784,   1.00000
-211324817.33134,-507406600.70717,-104285846.88716,  -0.00048,  -0.00343,  -0.00276,476989143.73085,   0.00218,276989151.27172,  -0.00050,  -0.00153,  -0.00141,  -7.54087,   1.00000
-210257408.20570,-507526512.50429,-103993469.29710,  -0.00047,  -0.00343,  -0.00276,476994815.96203,   0.00218,276994819.95111,  -0.00050,  -0.00153,  -0.00141,  -3.98907,   1.00000
-209189725.55587,-507643185.20239,-103700173.58860,  -0.00046,  -0.00344,  -0.00276,477000402.69866,   0.00219,277000407.89248,  -0.00050,  -0.00154,  -0.00141,  -5.19382,   1.00000
-208110776.22107,-507760018.70494,-103400131.58496,  -0.00046,  -0.00345,  -0.00276,477006039.56682,   0.00219,277006047.47810,  -0.00050,  -0.00154,  -0.00142,  -7.91127,   1.00000
-207031468.88755,-507873548.39187,-103099145.82394,  -0.00045,  -0.00345,  -0.00276,477011598.54040,   0.00220,277011606.75038,  -0.00050,  -0.00155,  -0.00142,  -8.20999,   1.00000
-205956326.64730,-507986465.37682,-102794668.54145,  -0.00045,  -0.00346,  -0.00276,477017256.22682,   0.00220,277017262.64287,  -0.00050,  -0.00155,  -0.00142,  -6.41604,   1.00000
-204882528.96443,-508095700.66698,-102490186.50588,  -0.00044,  -0.00347,  -0.00276,477022928.79122,   0.00221,277022935.75261,  -0.00050,  -0.00155,  -0.00143,  -6.96139,   1.00000
-203794596.57895,-508201802.55603,-102182411.54873,  -0.00044,  -0.00347,  -0.00276,477028577.83692,   0.00221,277028582.34913,  -0.00050,  -0.00156,  -0.00143,  -4.51221,   1.00000
-202728711.05512,-508313611.12565,-101865690.20000,  -0.00043,  -0.00348,  -0.00276,477034328.81309,   0.00222,277034333.07796,  -0.00050,  -0.00156,  -0.00143,  -4.26487,   1.00000
-201645654.82827,-508419131.33083,-101549104.85804,  -0.00043,  -0.00349,  -0.00276,477039973.84108,   0.00222,277039978.35476,  -0.00050,  -0.00157,  -0.00144,  -4.51367,   1.00000
-200550320.88343,-508520927.31769,-101230200.76573,  -0.00042,  -0.00349,  -0.00276,477045689.86439,   0.00223,277045695.57409,  -0.00050,  -0.00157,  -0.00144,  -5.70970,   1.00000
-199471091.73878,-508622368.09260,-100909231.02840,  -0.00041,  -0.00350,  -0.00275,477051348.84792,   0.00223,277051358.08233,  -0.00050,  -0.00158,  -0.00144,  -9.23441,   1.00000
-198379628.07265,-508720031.25443,-100585963.55211,  -0.00041,  -0.00351,  -0.00275,477057087.39260,   0.00224,277057092.77239,  -0.00050,  -0.00158,  -0.00145,  -5.37979,   1.00000
-197290633.01457,-508817305.86735,-100258303.65846,  -0.00040,  -0.00352,  -0.00275,477062824.60434,   0.00224,277062827.40883,  -0.00050,  -0.00158,  -0.00145,  -2.80449,   1.00000
-196203067.99809,-508910808.82623,-99930700.27867,  -0.00040,  -0.00352,  -0.00275,477068577.64633,   0.00225,277068579.73853,  -0.00050,  -0.00159,  -0.00145,  -2.09220,   1.00000
-195117966.14378,-509003922.15152,-99598715.18395,  -0.00039,  -0.00353,  -0.00275,477074329.24774,   0.00226,277074332.03445,  -0.00050,  -0.00159,  -0.00146,  -2.78671,   1.00000
-194021747.67114,-509096394.22236,-99260015.66347,  -0.00038,  -0.00354,  -0.00275,477080137.05038,   0.00226,277080139.94888,  -0.00049,  -0.00160,  -0.00146,  -2.89850,   1.00000
-192923748.48222,-509182057.48019,-98924739.83406,  -0.00038,  -0.00354,  -0.00275,477085884.98605,   0.00227,277085886.36834,  -0.00049,  -0.00160,  -0.00146,  -1.38229,   1.00000
-191831497.64822,-509270219.79485,-98581754.25652,  -0.00037,  -0.00355,  -0.00275,477091708.27614,   0.00227,277091712.74125,  -0.00049,  -0.00161,  -0.00147,  -4.46511,   1.00000
-190740746.72258,-509354577.37253,-98238879.51102,  -0.00037,  -0.00356,  -0.00275,477097555.91364,   0.00228,277097556.94046,  -0.00049,  -0.00161,  -0.00147,  -1.02682,   1.00000
-189652467.80674,-509438439.39277,-97891647.65348,  -0.00036,  -0.00356,  -0.00274,477103394.33985,   0.00228,277103401.65290,  -0.00049,  -0.00162,  -0.00147,  -7.31304,   1.00000
-188549757.84257,-509518421.74608,-97541021.63566,  -0.00036,  -0.00357,  -0.00274,477109223.29142,   0.00229,277109223.90455,  -0.00049,  -0.00162,  -0.00147,  -0.61313,   1.00000
-187448569.18247,-509594537.48762,-97190516.39794,  -0.00035,  -0.00358,  -0.00274,477115060.80149,   0.00229,277115064.39141,  -0.00049,  -0.00162,  -0.00148,  -3.58992,   1.00000
-186349848.34708,-509670086.57004,-96835653.67679,  -0.00034,  -0.00358,  -0.00274,477120897.94197,   0.00230,277120905.86835,  -0.00049,  -0.00163,  -0.00148,  -7.92637,   1.00000
-185256171.61369,-509744745.92168,-96477684.15313,  -0.00034,  -0.00359,  -0.00274,477126844.35560,   0.00230,277126844.85895,  -0.00049,  -0.00163,  -0.00148,  -0.50335,   1.00000
-184161447.22569,-509815879.99387,-96118626.75599,  -0.00033,  -0.00360,  -0.00274,477132697.56772,   0.00231,277132705.40684,  -0.00049,  -0.00164,  -0.00149,  -7.83913,   1.00000
-183054854.51063,-509882572.53449,-95757404.07185,  -0.00033,  -0.00361,  -0.00274,477138636.77680,   0.00232,277138641.40408,  -0.00049,  -0.00164,  -0.00149,  -4.62728,   1.00000
-181967773.11153,-509952213.53686,-95390961.02995,  -0.00032,  -0.00361,  -0.00273,477144598.82762,   0.00232,277144600.64946,  -0.00049,  -0.00165,  -0.00149,  -1.82185,   1.00000
-180866127.49232,-510017611.99339,-95021081.38805,  -0.00031,  -0.00362,  -0.00273,477150529.61078,   0.00233,277150539.41801,  -0.00049,  -0.00165,  -0.00150,  -9.80723,   1.00000
-179766099.80609,-510079153.94064,-94651406.08998,  -0.00031,  -0.00363,  -0.00273,477156494.09017,   0.00233,277156496.37329,  -0.00049,  -0.00166,  -0.00150,  -2.28312,   1.00000
-178671401.35535,-510139737.05427,-94278758.02554,  -0.00030,  -0.00363,  -0.00273,477162542.45494,   0.00234,277162551.09495,  -0.00048,  -0.00166,  -0.00150,  -8.64001,   1.00000
-177575480.99377,-510196771.45518,-93904987.34327,  -0.00030,  -0.00364,  -0.00273,477168523.58958,   0.00234,277168527.73396,  -0.00048,  -0.00167,  -0.00151,  -4.14438,   1.00000
-176468697.68071,-510252257.09608,-93524586.35924,  -0.00029,  -0.00365,  -0.00273,477174559.87865,   0.00235,277174564.64209,  -0.00048,  -0.00167,  -0.00151,  -4.76344,   1.00000
-175380727.40096,-510307637.98203,-93143611.07166,  -0.00028,  -0.00366,  -0.00272,477180633.54389,   0.00236,277180640.71453,  -0.00048,  -0.00168,  -0.00151,  -7.17065,   1.00000
-174278111.30232,-510358507.99171,-92759173.44289,  -0.00028,  -0.00366,  -0.00272,477186695.82480,   0.00236,277186697.84279,  -0.00048,  -0.00168,  -0.00152,  -2.01799,   1.00000
-173177196.19963,-510405488.87838,-92375002.79842,  -0.00027,  -0.00367,  -0.00272,477192766.39311,   0.00237,277192773.39600,  -0.00048,  -0.00168,  -0.00152,  -7.00290,   1.00000
-172095970.34527,-510455628.57999,-91985763.47254,  -0.00027,  -0.00368,  -0.00272,477198865.34261,   0.00237,277198871.13825,  -0.00048,  -0.00169,  -0.00152,  -5.79564,   1.00000
-170999252.61131,-510498036.75480,-91597612.85673,  -0.00026,  -0.00368,  -0.00272,477204961.43971,   0.00238,277204966.76833,  -0.00048,  -0.00169,  -0.00152,  -5.32862,   1.00000
-169891799.44391,-510538592.81553,-91202885.24458,  -0.00025,  -0.00369,  -0.00271,477211124.01554,   0.00238,277211124.24921,  -0.00048,  -0.00170,  -0.00153,  -0.23368,   1.00000
-168800100.35293,-510579440.36995,-90806201.25735,  -0.00025,  -0.00370,  -0.00271,477217221.60399,   0.00239,277217224.45269,  -0.00048,  -0.00170,  -0.00153,  -2.84871,   1.00000
-167714184.12512,-510619309.63001,-90406796.28763,  -0.00024,  -0.00370,  -0.00271,477223419.85241,   0.00240,277223422.32038,  -0.00048,  -0.00171,  -0.00153,  -2.46797,   1.00000
-166612780.88483,-510651286.88921,-90008486.29643,  -0.00024,  -0.00371,  -0.00271,477229617.06172,   0.00240,277229619.00119,  -0.00047,  -0.00171,  -0.00154,  -1.93947,   1.00000
-165531194.67598,-510686535.01409,-89605205.05647,  -0.00023,  -0.00372,  -0.00271,477235832.19345,   0.00241,277235837.37740,  -0.00047,  -0.00172,  -0.00154,  -5.18395,   1.00000
-164438251.31761,-510716698.58924,-89200014.38298,  -0.00022,  -0.00373,  -0.00270,477242130.97477,   0.00241,277242134.29829,  -0.00047,  -0.00172,  -0.00154,  -3.32351,   1.00000
-163360999.21872,-510747345.85721,-88792900.52405,  -0.00022,  -0.00373,  -0.00270,477248371.55175,   0.00242,277248373.05673,  -0.00047,  -0.00173,  -0.00155,  -1.50497,   1.00000
-162273133.90601,-510775827.90830,-88379296.45733,  -0.00021,  -0.00374,  -0.00270,477254672.23680,   0.00243,277254675.15130,  -0.00047,  -0.00173,  -0.00155,  -2.91450,   1.00000
-161182875.12253,-510797625.50519,-87969078.99282,  -0.00021,  -0.00375,  -0.00270,477260914.11969,   0.00243,277260916.00116,  -0.00047,  -0.00174,  -0.00155,  -1.88147,   1.00000
-160098739.86366,-510818443.10110,-87556317.05341,  -0.00020,  -0.00376,  -0.00269,477267247.19640,   0.00244,277267254.54756,  -0.00047,  -0.00174,  -0.00156,  -7.35116,   1.00000
-159017154.37513,-510838415.16466,-87139369.91838,  -0.00019,  -0.00376,  -0.00269,477273590.34189,   0.00244,277273595.82285,  -0.00047,  -0.00175,  -0.00156,  -5.48096,   1.00000
-157955498.37670,-510861848.16227,-86717585.74365,  -0.00019,  -0.00377,  -0.00269,477279947.80706,   0.00245,277279957.76303,  -0.00047,  -0.00175,  -0.00156,  -9.95597,   1.00000
-156882681.46290,-510879995.98079,-86294025.52072,  -0.00018,  -0.00378,  -0.00269,477286390.84182,   0.00246,277286399.14016,  -0.00046,  -0.00176,  -0.00156,  -8.29834,   1.00000
-155789949.14911,-510887127.63095,-85874494.34742,  -0.00018,  -0.00378,  -0.00268,477292753.07572,   0.00246,277292761.58586,  -0.00046,  -0.00176,  -0.00157,  -8.51014,   1.00000
-154721664.03796,-510900612.19985,-85447277.05964,  -0.00017,  -0.00379,  -0.00268,477299222.14687,   0.00247,277299224.00017,  -0.00046,  -0.00177,  -0.00157,  -1.85330,   1.00000
-153655929.43915,-510913191.54386,-85015924.72378,  -0.00016,  -0.00380,  -0.00268,477305682.98090,   0.00247,277305689.41405,  -0.00046,  -0.00177,  -0.00157,  -6.43315,   1.00000
-152592132.73324,-510922014.93936,-84585108.26729,  -0.00016,  -0.00381,  -0.00268,477312168.31711,   0.00248,277312172.62729,  -0.00046,  -0.00178,  -0.00158,  -4.31018,   1.00000
-151530285.75904,-510927103.53688,-84154835.14219,  -0.00015,  -0.00381,  -0.00267,477318668.67246,   0.00249,277318673.59758,  -0.00046,  -0.00178,  -0.00158,  -4.92512,   1.00000
-150470991.29338,-510931307.06121,-83720444.26305,  -0.00015,  -0.00382,  -0.00267,477325169.94453,   0.00249,277325177.58607,  -0.00046,  -0.00179,  -0.00158,  -7.64153,   1.00000
-149418276.83804,-510934627.65693,-83283817.07371,  -0.00014,  -0.00383,  -0.00267,477331777.81277,   0.00250,277331778.55314,  -0.00046,  -0.00179,  -0.00159,  -0.74037,   1.00000
-148363482.37214,-510934221.57106,-82845893.74486,  -0.00013,  -0.00384,  -0.00267,477338294.74471,   0.00250,277338303.26942,  -0.00045,  -0.00180,  -0.00159,  -8.52471,   1.00000
-147297813.62712,-510928279.46773,-82406349.73678,  -0.00013,  -0.00384,  -0.00266,477344900.05042,   0.00251,277344908.85829,  -0.00045,  -0.00181,  -0.00159,  -8.80787,   1.00000
-146252280.59746,-510926084.90168,-81962164.58992,  -0.00012,  -0.00385,  -0.00266,477351524.51010,   0.00252,277351533.82434,  -0.00045,  -0.00181,  -0.00159,  -9.31425,   1.00000
-145208760.87925,-510920228.69213,-81518615.47639,  -0.00011,  -0.00386,  -0.00266,477358172.66906,   0.00252,277358176.20161,  -0.00045,  -0.00182,  -0.00160,  -3.53255,   1.00000
-144167265.20061,-510910732.07239,-81075709.47856,  -0.00011,  -0.00387,  -0.00265,477364834.79621,   0.00253,277364835.95049,  -0.00045,  -0.00182,  -0.00160,  -1.15428,   1.00000
-143133140.48689,-510903140.91926,-80626032.46636,  -0.00010,  -0.00387,  -0.00265,477371569.74019,   0.00254,277371578.23253,  -0.00045,  -0.00183,  -0.00160,  -8.49234,   1.00000
-142096751.11285,-510891830.88507,-80175030.89000,  -0.00010,  -0.00388,  -0.00265,477378243.05021,   0.00254,277378244.38915,  -0.00045,  -0.00183,  -0.00161,  -1.33894,   1.00000
-141067270.63006,-510879698.15424,-79722025.52881,  -0.00009,  -0.00389,  -0.00265,477385002.12460,   0.00255,277385007.16590,  -0.00044,  -0.00184,  -0.00161,  -5.04130,   1.00000
-140039860.13389,-510863975.15446,-79269733.10577,  -0.00008,  -0.00389,  -0.00264,477391784.24942,   0.00256,277391787.05274,  -0.00044,  -0.00184,  -0.00161,  -2.80332,   1.00000
-139015021.38771,-510847333.70021,-78813430.41516,  -0.00008,  -0.00390,  -0.00264,477398567.17555,   0.00256,277398570.26948,  -0.00044,  -0.00185,  -0.00162,  -3.09393,   1.00000
-137992262.07764,-510827115.97818,-78357861.39905,  -0.00007,  -0.00391,  -0.00264,477405363.26749,   0.00257,277405370.58135,  -0.00044,  -0.00185,  -0.00162,  -7.31387,   1.00000
-136994727.32373,-510813784.27464,-77895200.07052,  -0.00007,  -0.00392,  -0.00263,477412263.15592,   0.00257,277412267.79060,  -0.00044,  -0.00186,  -0.00162,  -4.63468,   1.00000
-135976573.01850,-510789109.75984,-77436403.67278,  -0.00006,  -0.00392,  -0.00263,477419082.37953,   0.00258,277419088.21411,  -0.00044,  -0.00187,  -0.00162,  -5.83458,   1.00000
-134965584.89970,-510763724.20536,-76975784.73416,  -0.00005,  -0.00393,  -0.00263,477425994.88804,   0.00259,277426004.73753,  -0.00044,  -0.00187,  -0.00163,  -9.84949,   1.00000
-133974868.43191,-510742508.99969,-76510754.23555,  -0.00005,  -0.00394,  -0.00263,477432929.28526,   0.00259,277432938.50768,  -0.00043,  -0.00188,  -0.00163,  -9.22242,   1.00000
-132968995.52134,-510715277.44236,-76042229.96744,  -0.00004,  -0.00395,  -0.00262,477439852.92320,   0.00260,277439861.77185,  -0.00043,  -0.00188,  -0.00163,  -8.84865,   1.00000
-131982528.16453,-510687151.88244,-75578861.94817,  -0.00004,  -0.00395,  -0.00262,477446820.65341,   0.00261,277446828.48596,  -0.00043,  -0.00189,  -0.00164,  -7.83255,   1.00000
-131004222.43731,-510663490.22420,-75104265.85951,  -0.00003,  -0.00396,  -0.00262,477453856.75614,   0.00261,277453864.39530,  -0.00043,  -0.00189,  -0.00164,  -7.63917,   1.00000
-130022404.98513,-510631073.15524,-74637838.44842,  -0.00002,  -0.00397,  -0.00261,477460845.79028,   0.00262,277460850.46449,  -0.00043,  -0.00190,  -0.00164,  -4.67421,   1.00000
-129048375.98443,-510600588.85779,-74164998.92072,  -0.00002,  -0.00398,  -0.00261,477467914.22260,   0.00263,277467918.87533,  -0.00043,  -0.00191,  -0.00164,  -4.65273,   1.00000
-128076491.14638,-510566724.88814,-73693058.62146,  -0.00001,  -0.00398,  -0.00261,477474998.50208,   0.00263,277475003.39612,  -0.00042,  -0.00191,  -0.00165,  -4.89405,   1.00000
-127107156.72766,-510531970.76756,-73217231.80739,  -0.00001,  -0.00399,  -0.00260,477482087.98339,   0.00264,277482091.22208,  -0.00042,  -0.00192,  -0.00165,  -3.23869,   1.00000
-126157742.88404,-510499190.40603,-72741935.04602,   0.00000,  -0.00400,  -0.00260,477489205.35628,   0.00265,277489207.65936,  -0.00042,  -0.00192,  -0.00165,  -2.30308,   1.00000
