# sigma_xx, sigma_yy, sigma_xy, epsilon_xx, epsilon_yy, epsilon_xy, vonMises, epsPlastic, hardening, epsilonP__xx, epsilonP__yy, epsilonP__xy, yieldValue, iteration
   0.00000,   0.00000,   0.00000,   0.00000,   0.00000,   0.00000,   0.00000,   0.00000,274640135.82653,   0.00000,   0.00000,   0.00000,-474640135.82653,   0.00000
   0.00000,   0.00000,   0.00000,   0.00000,   0.00000,   0.00000,   0.00000,   0.00000,274640135.82653,   0.00000,   0.00000,   0.00000,-474640135.82653,   0.00000
-22152.60561,-4777578.60944,221526.05608,   0.00001,  -0.00002,   0.00000,4781959.18774,   0.00000,274640135.82653,   0.00000,   0.00000,   0.00000,-469858176.63879,   0.00000
-81226.22056,-9592078.22823,450436.31403,   0.00002,  -0.00004,   0.00001,9583533.41898,   0.00000,274640135.82653,   0.00000,   0.00000,   0.00000,-465056602.40755,   0.00000
-118147.22991,-14354888.43394,686730.77385,   0.00003,  -0.00007,   0.00001,14345577.29344,   0.00000,274640135.82653,   0.00000,   0.00000,   0.00000,-460294558.53309,   0.00000
-206757.65234,-19139851.24525,915641.03179,   0.00004,  -0.00009,   0.00001,19103259.91042,   0.00000,274640135.82653,   0.00000,   0.00000,   0.00000,-455536875.91611,   0.00000
-295368.07477,-23924814.05657,1159319.69348,   0.00005,  -0.00011,   0.00002,23863139.15077,   0.00000,274640135.82653,   0.00000,   0.00000,   0.00000,-450776996.67576,   0.00000
-435667.91029,-28731929.47349,1395614.15330,   0.00005,  -0.00013,   0.00002,28618861.17091,   0.00000,274640135.82653,   0.00000,   0.00000,   0.00000,-446021274.65562,   0.00000
-564891.44300,-33513200.18387,1639292.81499,   0.00006,  -0.00015,   0.00002,33355422.52310,   0.00000,274640135.82653,   0.00000,   0.00000,   0.00000,-441284713.30343,   0.00000
-719959.68226,-38305547.19705,1882971.47667,   0.00007,  -0.00017,   0.00002,38090570.79077,   0.00000,274640135.82653,   0.00000,   0.00000,   0.00000,-436549565.03576,   0.00000
-889796.32525,-43083125.80649,2134034.34023,   0.00008,  -0.00019,   0.00003,42805076.42128,   0.00000,274640135.82653,   0.00000,   0.00000,   0.00000,-431835059.40525,   0.00000
-1085477.67479,-47871780.71874,2385097.20379,   0.00009,  -0.00022,   0.00003,47518290.87581,   0.00000,274640135.82653,   0.00000,   0.00000,   0.00000,-427121844.95072,   0.00000
-1295927.42806,-52645667.22725,2636160.06734,   0.00010,  -0.00024,   0.00003,52209853.10528,   0.00000,274640135.82653,   0.00000,   0.00000,   0.00000,-422430282.72125,   0.00000
-1532221.88788,-57430630.03856,2894607.13277,   0.00011,  -0.00026,   0.00004,56901359.85650,   0.00000,274640135.82653,   0.00000,   0.00000,   0.00000,-417738775.97002,   0.00000
-1794361.05424,-62226669.15268,3153054.19820,   0.00011,  -0.00028,   0.00004,61591770.76605,   0.00000,274640135.82653,   0.00000,   0.00000,   0.00000,-413048365.06048,   0.00000
-2045423.91780,-66996863.56026,3411501.26362,   0.00012,  -0.00030,   0.00004,66261916.07090,   0.00000,274640135.82653,   0.00000,   0.00000,   0.00000,-408378219.75563,   0.00000
-2348176.19444,-71789210.57344,3677332.53092,   0.00013,  -0.00032,   0.00005,70930947.36813,   0.00000,274640135.82653,   0.00000,   0.00000,   0.00000,-403709188.45840,   0.00000
-2639852.16828,-76555712.88008,3943163.79821,   0.00014,  -0.00034,   0.00005,75579731.75148,   0.00000,274640135.82653,   0.00000,   0.00000,   0.00000,-399060404.07505,   0.00000
-2957372.84866,-81333291.48952,4208995.06551,   0.00015,  -0.00036,   0.00005,80227578.85619,   0.00000,274640135.82653,   0.00000,   0.00000,   0.00000,-394412556.97034,   0.00000
-3289661.93278,-86096101.69523,4482210.53467,   0.00015,  -0.00039,   0.00006,84855195.29334,   0.00000,274640135.82653,   0.00000,   0.00000,   0.00000,-389784940.53319,   0.00000
-3647795.72344,-90869988.20374,4755426.00384,   0.00016,  -0.00041,   0.00006,89481999.55780,   0.00000,274640135.82653,   0.00000,   0.00000,   0.00000,-385158136.26873,   0.00000
-4031774.22064,-95654951.01505,5028641.47300,   0.00017,  -0.00043,   0.00007,94108062.33618,   0.00000,274640135.82653,   0.00000,   0.00000,   0.00000,-380532073.49035,   0.00000
-4430521.12159,-100425145.42263,5309241.14403,   0.00018,  -0.00045,   0.00007,98714070.66476,   0.00000,274640135.82653,   0.00000,   0.00000,   0.00000,-375926065.16177,   0.00000
-4818191.71973,-105169495.12366,5589840.81507,   0.00018,  -0.00047,   0.00007,103299805.64577,   0.00000,274640135.82653,   0.00000,   0.00000,   0.00000,-371340330.18076,   0.00000
-5257551.73095,-109935997.43030,5870440.48610,   0.00019,  -0.00049,   0.00008,107883999.75028,   0.00000,274640135.82653,   0.00000,   0.00000,   0.00000,-366756136.07625,   0.00000
-5696911.74217,-114702499.73694,6151040.15714,   0.00020,  -0.00051,   0.00008,112468547.23316,   0.00000,274640135.82653,   0.00000,   0.00000,   0.00000,-362171588.59337,   0.00000
-6151040.15714,-119454233.63984,6439024.03004,   0.00020,  -0.00053,   0.00008,117033177.06025,   0.00000,274640135.82653,   0.00000,   0.00000,   0.00000,-357606958.76628,   0.00000
-6631013.27864,-124217043.84554,6727007.90294,   0.00021,  -0.00055,   0.00009,121597357.52734,   0.00000,274640135.82653,   0.00000,   0.00000,   0.00000,-353042778.29918,   0.00000
-7125754.80388,-128965085.64751,7014991.77585,   0.00022,  -0.00057,   0.00009,126140502.80483,   0.00000,274640135.82653,   0.00000,   0.00000,   0.00000,-348499633.02170,   0.00000
-7646341.03567,-133724203.75228,7310359.85062,   0.00023,  -0.00059,   0.00010,130684553.09347,   0.00000,274640135.82653,   0.00000,   0.00000,   0.00000,-343955582.73306,   0.00000
-8155850.96465,-138457477.15051,7605727.92539,   0.00023,  -0.00061,   0.00010,135208334.16282,   0.00000,274640135.82653,   0.00000,   0.00000,   0.00000,-339431801.66371,   0.00000
-8691205.60018,-143201826.85154,7901096.00016,   0.00024,  -0.00063,   0.00010,139731834.96586,   0.00000,274640135.82653,   0.00000,   0.00000,   0.00000,-334908300.86067,   0.00000
-9267173.34598,-147942484.45164,8196464.07493,   0.00025,  -0.00066,   0.00011,144233826.22982,   0.00000,274640135.82653,   0.00000,   0.00000,   0.00000,-330406309.59671,   0.00000
-9832064.78899,-152657297.34519,8499216.35158,   0.00025,  -0.00068,   0.00011,148716823.28680,   0.00000,274640135.82653,   0.00000,   0.00000,   0.00000,-325923312.53973,   0.00000
-10408032.53479,-157397954.94529,8801968.62822,   0.00026,  -0.00070,   0.00011,153220965.54134,   0.00000,274640135.82653,   0.00000,   0.00000,   0.00000,-321419170.28519,   0.00000
-11013537.08808,-162109075.73791,9104720.90486,   0.00027,  -0.00072,   0.00012,157683049.01321,   0.00000,274640135.82653,   0.00000,   0.00000,   0.00000,-316957086.81332,   0.00000
-11655962.65071,-166857117.53988,9407473.18150,   0.00027,  -0.00074,   0.00012,162165904.13513,   0.00000,274640135.82653,   0.00000,   0.00000,   0.00000,-312474231.69140,   0.00000
-12276235.60773,-171553469.92876,9717609.66001,   0.00028,  -0.00076,   0.00013,166609015.36723,   0.00000,274640135.82653,   0.00000,   0.00000,   0.00000,-308031120.45930,   0.00000
-12922353.27129,-176260898.62045,10020361.93665,   0.00028,  -0.00078,   0.00013,171050895.80792,   0.00000,274640135.82653,   0.00000,   0.00000,   0.00000,-303589240.01861,   0.00000
-13594315.64140,-180979403.61494,10330498.41517,   0.00029,  -0.00080,   0.00013,175494206.18858,   0.00000,274640135.82653,   0.00000,   0.00000,   0.00000,-299145929.63795,   0.00000
-14281046.41525,-185683140.20569,10640634.89368,   0.00030,  -0.00082,   0.00014,179916915.91503,   0.00000,274640135.82653,   0.00000,   0.00000,   0.00000,-294723219.91150,   0.00000
-14967777.18909,-190386876.79644,10958155.57406,   0.00030,  -0.00084,   0.00014,184341455.94365,   0.00000,274640135.82653,   0.00000,   0.00000,   0.00000,-290298679.88288,   0.00000
-15669276.36668,-195075844.98345,11268292.05257,   0.00031,  -0.00086,   0.00015,188744105.62372,   0.00000,274640135.82653,   0.00000,   0.00000,   0.00000,-285896030.20281,   0.00000
-16385543.94800,-199750044.76672,11585812.73295,   0.00031,  -0.00088,   0.00015,193127539.38185,   0.00000,274640135.82653,   0.00000,   0.00000,   0.00000,-281512596.44468,   0.00000
-17127656.23587,-204435320.85280,11903333.41333,   0.00032,  -0.00090,   0.00015,197511334.26042,   0.00000,274640135.82653,   0.00000,   0.00000,   0.00000,-277128801.56611,   0.00000
-17884536.92747,-209105828.53514,12220854.09371,   0.00033,  -0.00092,   0.00016,201874691.58027,   0.00000,274640135.82653,   0.00000,   0.00000,   0.00000,-272765444.24626,   0.00000
-18667262.32562,-213787412.52028,12538374.77409,   0.00033,  -0.00094,   0.00016,206238529.98251,   0.00000,274640135.82653,   0.00000,   0.00000,   0.00000,-268401605.84402,   0.00000
-19449987.72376,-218468996.50543,12863279.65634,   0.00034,  -0.00096,   0.00017,210604313.93265,   0.00000,274640135.82653,   0.00000,   0.00000,   0.00000,-264035821.89388,   0.00000
-20236405.22285,-223109967.38029,13180800.33672,   0.00034,  -0.00098,   0.00017,214927491.08516,   0.00000,274640135.82653,   0.00000,   0.00000,   0.00000,-259712644.74137,   0.00000
-21059743.73127,-227787859.26450,13505705.21897,   0.00035,  -0.00100,   0.00018,219273527.61678,   0.00000,274640135.82653,   0.00000,   0.00000,   0.00000,-255366608.20975,   0.00000
-21860929.63409,-232414061.73562,13830610.10122,   0.00035,  -0.00101,   0.00018,223578322.32722,   0.00000,274640135.82653,   0.00000,   0.00000,   0.00000,-251061813.49931,   0.00000
-22713804.95000,-237062416.81235,14155514.98347,   0.00036,  -0.00103,   0.00018,227883857.95644,   0.00000,274640135.82653,   0.00000,   0.00000,   0.00000,-246756277.87009,   0.00000
-23566680.26591,-241710771.88908,14480419.86572,   0.00036,  -0.00105,   0.00019,232190036.10512,   0.00000,274640135.82653,   0.00000,   0.00000,   0.00000,-242450099.72141,   0.00000
-24408479.27901,-246333282.25927,14805324.74797,   0.00037,  -0.00107,   0.00019,236475859.05598,   0.00000,274640135.82653,   0.00000,   0.00000,   0.00000,-238164276.77055,   0.00000
-25290891.40239,-250952100.52852,15137613.83209,   0.00037,  -0.00109,   0.00020,240743069.85566,   0.00000,274640135.82653,   0.00000,   0.00000,   0.00000,-233897065.97087,   0.00000
-26173303.52577,-255570918.79778,15462518.71434,   0.00038,  -0.00111,   0.00020,245009529.56469,   0.00000,274640135.82653,   0.00000,   0.00000,   0.00000,-229630606.26184,   0.00000
-27096328.75944,-260186044.96610,15794807.79846,   0.00038,  -0.00113,   0.00021,249257558.10906,   0.00000,274640135.82653,   0.00000,   0.00000,   0.00000,-225382577.71747,   0.00000
-27982432.98375,-264764250.12507,16127096.88257,   0.00039,  -0.00115,   0.00021,253484963.21467,   0.00000,274640135.82653,   0.00000,   0.00000,   0.00000,-221155172.61186,   0.00000
-28920226.62116,-269364607.88965,16459385.96669,   0.00039,  -0.00117,   0.00021,257713639.81497,   0.00000,274640135.82653,   0.00000,   0.00000,   0.00000,-216926496.01156,   0.00000
-29858020.25856,-273964965.65423,16791675.05081,   0.00040,  -0.00119,   0.00022,261942996.35242,   0.00000,274640135.82653,   0.00000,   0.00000,   0.00000,-212697139.47411,   0.00000
-30810582.29970,-278550555.01507,17123964.13493,   0.00040,  -0.00121,   0.00022,266152379.89546,   0.00000,274640135.82653,   0.00000,   0.00000,   0.00000,-208487755.93107,   0.00000
-31777912.74458,-283121375.97218,17463637.42092,   0.00041,  -0.00123,   0.00023,270343261.03108,   0.00000,274640135.82653,   0.00000,   0.00000,   0.00000,-204296874.79545,   0.00000
-32760011.59320,-287677428.52554,17795926.50504,   0.00041,  -0.00125,   0.00023,274512823.65233,   0.00000,274640135.82653,   0.00000,   0.00000,   0.00000,-200127312.17420,   0.00000
-33742110.44182,-292233481.07891,18128215.58916,   0.00042,  -0.00126,   0.00024,278683081.09489,   0.00000,274640135.82653,   0.00000,   0.00000,   0.00000,-195957054.73164,   0.00000
-34750053.99698,-296800609.93507,18467888.87515,   0.00042,  -0.00128,   0.00024,282856005.50025,   0.00000,274640135.82653,   0.00000,   0.00000,   0.00000,-191784130.32628,   0.00000
-35772765.95588,-301352970.38750,18800177.95927,   0.00042,  -0.00130,   0.00024,287007690.38412,   0.00000,274640135.82653,   0.00000,   0.00000,   0.00000,-187632445.44241,   0.00000
-36784401.61197,-305879486.13339,19139851.24525,   0.00043,  -0.00132,   0.00025,291140447.36769,   0.00000,274640135.82653,   0.00000,   0.00000,   0.00000,-183499688.45884,   0.00000
-37810805.67181,-310391233.47554,19479524.53124,   0.00043,  -0.00134,   0.00025,295253429.88818,   0.00000,274640135.82653,   0.00000,   0.00000,   0.00000,-179386705.93835,   0.00000
-38863054.43818,-314914057.12049,19819197.81723,   0.00044,  -0.00136,   0.00026,299367800.59567,   0.00000,274640135.82653,   0.00000,   0.00000,   0.00000,-175272335.23086,   0.00000
-39904226.90176,-319411036.05890,20158871.10322,   0.00044,  -0.00138,   0.00026,303461772.01667,   0.00000,274640135.82653,   0.00000,   0.00000,   0.00000,-171178363.80986,   0.00000
-40997088.77841,-323930167.60292,20491160.18734,   0.00045,  -0.00139,   0.00027,307556472.65146,   0.00000,274640135.82653,   0.00000,   0.00000,   0.00000,-167083663.17507,   0.00000
-42053029.64572,-328412378.13759,20830833.47333,   0.00045,  -0.00141,   0.00027,311631485.59173,   0.00000,274640135.82653,   0.00000,   0.00000,   0.00000,-163008650.23480,   0.00000
-43149583.62332,-332890896.57133,21170506.75931,   0.00045,  -0.00143,   0.00028,315687666.97041,   0.00000,274640135.82653,   0.00000,   0.00000,   0.00000,-158952468.85612,   0.00000
-44246137.60091,-337369415.00507,21510180.04530,   0.00046,  -0.00145,   0.00028,319744605.66451,   0.00000,274640135.82653,   0.00000,   0.00000,   0.00000,-154895530.16202,   0.00000
-45357459.98224,-341833165.03507,21857237.53316,   0.00046,  -0.00147,   0.00028,323783483.65535,   0.00000,274640135.82653,   0.00000,   0.00000,   0.00000,-150856652.17118,   0.00000
-46494627.07011,-346307991.36787,22196910.81915,   0.00046,  -0.00149,   0.00029,327822547.83850,   0.00000,274640135.82653,   0.00000,   0.00000,   0.00000,-146817587.98803,   0.00000
-47620717.85518,-350756972.99413,22536584.10514,   0.00047,  -0.00150,   0.00029,331841198.30988,   0.00000,274640135.82653,   0.00000,   0.00000,   0.00000,-142798937.51665,   0.00000
-48761577.04399,-355191186.21665,22876257.39112,   0.00047,  -0.00152,   0.00030,335840374.62228,   0.00000,274640135.82653,   0.00000,   0.00000,   0.00000,-138799761.20425,   0.00000
-49917204.63654,-359610631.03543,23215930.67711,   0.00047,  -0.00154,   0.00030,339820120.24771,   0.00000,274640135.82653,   0.00000,   0.00000,   0.00000,-134820015.57882,   0.00000
-51072832.22909,-364030075.85421,23555603.96310,   0.00048,  -0.00156,   0.00031,343800643.92331,   0.00000,274640135.82653,   0.00000,   0.00000,   0.00000,-130839491.90322,   0.00000
-52243228.22537,-368434752.26926,23902661.45096,   0.00048,  -0.00157,   0.00031,347763299.38548,   0.00000,274640135.82653,   0.00000,   0.00000,   0.00000,-126876836.44105,   0.00000
-53413624.22166,-372839428.68430,24242334.73695,   0.00048,  -0.00159,   0.00032,351725208.18938,   0.00000,274640135.82653,   0.00000,   0.00000,   0.00000,-122914927.63715,   0.00000
-54598788.62168,-377229336.69561,24582008.02294,   0.00049,  -0.00161,   0.00032,355667767.33623,   0.00000,274640135.82653,   0.00000,   0.00000,   0.00000,-118972368.49030,   0.00000
-55798721.42545,-381604476.30317,24921681.30892,   0.00049,  -0.00163,   0.00032,359591020.99076,   0.00000,274640135.82653,   0.00000,   0.00000,   0.00000,-115049114.83577,   0.00000
-57013422.63295,-385964847.50700,25261354.59491,   0.00049,  -0.00164,   0.00033,363495013.73053,   0.00000,274640135.82653,   0.00000,   0.00000,   0.00000,-111145122.09600,   0.00000
-58228123.84045,-390325218.71083,25608412.08277,   0.00050,  -0.00166,   0.00033,367401358.05777,   0.00000,274640135.82653,   0.00000,   0.00000,   0.00000,-107238777.76876,   0.00000
-59457593.45169,-394670821.51092,25948085.36876,   0.00050,  -0.00168,   0.00034,371286944.18393,   0.00000,274640135.82653,   0.00000,   0.00000,   0.00000,-103353191.64260,   0.00000
-60687063.06293,-399016424.31101,26287758.65475,   0.00050,  -0.00170,   0.00034,375173333.74470,   0.00000,274640135.82653,   0.00000,   0.00000,   0.00000,-99466802.08183,   0.00000
-61931301.07791,-403347258.70736,26627431.94073,   0.00050,  -0.00171,   0.00035,379040548.01204,   0.00000,274640135.82653,   0.00000,   0.00000,   0.00000,-95599587.81449,   0.00000
-63190307.49663,-407663324.69997,26967105.22672,   0.00051,  -0.00173,   0.00035,382888632.26399,   0.00000,274640135.82653,   0.00000,   0.00000,   0.00000,-91751503.56254,   0.00000
-64438237.61254,-411953545.98604,27306778.51271,   0.00051,  -0.00175,   0.00035,386716214.41793,   0.00000,274640135.82653,   0.00000,   0.00000,   0.00000,-87923921.40860,   0.00000
-65712012.43500,-416254843.57491,27646451.79870,   0.00051,  -0.00177,   0.00036,390546026.49609,   0.00000,274640135.82653,   0.00000,   0.00000,   0.00000,-84094109.33044,   0.00000
-66974710.95465,-420530296.45724,27986125.08469,   0.00052,  -0.00178,   0.00036,394355317.80965,   0.00000,274640135.82653,   0.00000,   0.00000,   0.00000,-80284818.01688,   0.00000
-68252177.87804,-424790980.93584,28325798.37068,   0.00052,  -0.00180,   0.00037,398145551.57344,   0.00000,274640135.82653,   0.00000,   0.00000,   0.00000,-76494584.25309,   0.00000
-69555489.50797,-429062741.71723,28665471.65666,   0.00052,  -0.00182,   0.00037,401938131.08080,   0.00000,274640135.82653,   0.00000,   0.00000,   0.00000,-72702004.74573,   0.00000
-70847724.83510,-433308657.79209,28997760.74078,   0.00052,  -0.00183,   0.00038,405708603.38414,   0.00000,274640135.82653,   0.00000,   0.00000,   0.00000,-68931532.44239,   0.00000
-72154728.56597,-437539805.46320,29337434.02677,   0.00052,  -0.00185,   0.00038,409461689.81362,   0.00000,274640135.82653,   0.00000,   0.00000,   0.00000,-65178446.01291,   0.00000
-73476500.70058,-441756184.73058,29677107.31276,   0.00053,  -0.00187,   0.00039,413195857.16877,   0.00000,274640135.82653,   0.00000,   0.00000,   0.00000,-61444278.65776,   0.00000
-74798272.83518,-445972563.99795,30009396.39688,   0.00053,  -0.00188,   0.00039,416929278.84166,   0.00000,274640135.82653,   0.00000,   0.00000,   0.00000,-57710856.98487,   0.00000
-76108968.66699,-450163098.55879,30349069.68287,   0.00053,  -0.00190,   0.00039,420643720.20060,   0.00000,274640135.82653,   0.00000,   0.00000,   0.00000,-53996415.62593,   0.00000
-77445509.20533,-454364709.42243,30681358.76699,   0.00053,  -0.00192,   0.00040,424359078.02922,   0.00000,274640135.82653,   0.00000,   0.00000,   0.00000,-50281057.79731,   0.00000
-78785741.84461,-458525707.17578,31021032.05297,   0.00054,  -0.00193,   0.00040,428035795.87843,   0.00000,274640135.82653,   0.00000,   0.00000,   0.00000,-46604339.94810,   0.00000
-80151819.19043,-462697781.23194,31353321.13709,   0.00054,  -0.00195,   0.00041,431713532.58192,   0.00000,274640135.82653,   0.00000,   0.00000,   0.00000,-42926603.24461,   0.00000
-81480975.52691,-466832934.27876,31685610.22121,   0.00054,  -0.00197,   0.00041,435368888.06193,   0.00000,274640135.82653,   0.00000,   0.00000,   0.00000,-39271247.76460,   0.00000
-82861821.27647,-470990239.93118,32017899.30533,   0.00054,  -0.00198,   0.00042,439028718.96873,   0.00000,274640135.82653,   0.00000,   0.00000,   0.00000,-35611416.85780,   0.00000
-84231590.72323,-475121700.87706,32350188.38945,   0.00054,  -0.00200,   0.00042,442667978.21231,   0.00000,274640135.82653,   0.00000,   0.00000,   0.00000,-31972157.61422,   0.00000
-85590283.86718,-479227317.11640,32682477.47357,   0.00055,  -0.00201,   0.00042,446286622.08896,   0.00000,274640135.82653,   0.00000,   0.00000,   0.00000,-28353513.73757,   0.00000
-86989590.12141,-483329241.25480,33014766.55769,   0.00055,  -0.00203,   0.00043,449888492.94415,   0.00000,274640135.82653,   0.00000,   0.00000,   0.00000,-24751642.88238,   0.00000
-88351975.36630,-487394244.38385,33339671.43994,   0.00055,  -0.00205,   0.00043,453466181.55197,   0.00000,274640135.82653,   0.00000,   0.00000,   0.00000,-21173954.27456,   0.00000
-89740205.31773,-491470323.81571,33671960.52406,   0.00055,  -0.00206,   0.00044,457048289.19032,   0.00000,274640135.82653,   0.00000,   0.00000,   0.00000,-17591846.63621,   0.00000
-91143203.67290,-495531634.84383,33996865.40631,   0.00055,  -0.00208,   0.00044,460610143.78560,   0.00000,274640135.82653,   0.00000,   0.00000,   0.00000,-14029992.04093,   0.00000
-92546202.02807,-499592945.87195,34329154.49043,   0.00055,  -0.00209,   0.00045,464174486.50099,   0.00000,274640135.82653,   0.00000,   0.00000,   0.00000,-10465649.32554,   0.00000
-93952892.48417,-503613643.78979,34654059.37268,   0.00055,  -0.00211,   0.00045,467697125.47956,   0.00000,274640135.82653,   0.00000,   0.00000,   0.00000,-6943010.34697,   0.00000
-95359582.94028,-507634341.70763,34978964.25492,   0.00056,  -0.00212,   0.00045,471220606.13807,   0.00000,274640135.82653,   0.00000,   0.00000,   0.00000,-3419529.68846,   0.00000
-96746414.12877,-511542684.14792,35295954.24087,   0.00056,  -0.00214,   0.00046,474640157.53436,   0.00000,274640135.82653,   0.00000,   0.00000,   0.00000,  -5.03588,   0.00000
-96772189.65397,-511551721.74378,35297087.01935,   0.00056,  -0.00214,   0.00046,474640594.06165,   0.00000,274640594.09562,   0.00000,  -0.00000,   0.00000,  -0.03397,   1.00000
-97841907.45876,-511926288.72870,35344577.74312,   0.00056,  -0.00215,   0.00046,474659285.07376,   0.00002,274659291.96272,   0.00001,  -0.00002,   0.00000,  -6.88896,   1.00000
-98904158.44455,-512298165.04571,35384317.36084,   0.00056,  -0.00217,   0.00047,474677968.02208,   0.00003,274677973.54286,   0.00001,  -0.00003,   0.00001,  -5.52078,   1.00000
-99949961.26876,-512660540.09554,35432466.89487,   0.00056,  -0.00219,   0.00047,474696536.88738,   0.00005,274696541.35057,   0.00002,  -0.00005,   0.00001,  -4.46320,   1.00000
-101005283.41647,-513025577.64502,35474393.25039,   0.00056,  -0.00220,   0.00048,474714982.33737,   0.00007,274714989.79532,   0.00002,  -0.00006,   0.00001,  -7.45795,   1.00000
-102044543.64366,-513382966.47559,35517528.73320,   0.00056,  -0.00222,   0.00048,474733307.41399,   0.00008,274733315.75883,   0.00003,  -0.00008,   0.00002,  -8.34484,   1.00000
-103093330.05251,-513741355.95942,35561680.80017,   0.00056,  -0.00223,   0.00048,474751522.14267,   0.00010,274751531.89549,   0.00003,  -0.00009,   0.00002,  -9.75282,   1.00000
-104134745.68600,-514095566.41651,35605315.84035,   0.00057,  -0.00225,   0.00049,474769734.87091,   0.00012,274769740.92159,   0.00004,  -0.00011,   0.00003,  -6.05069,   1.00000
-105185762.64284,-514450750.75563,35649962.55968,   0.00057,  -0.00226,   0.00049,474787831.08552,   0.00013,274787840.75464,   0.00004,  -0.00012,   0.00003,  -9.66912,   1.00000
-106246581.16996,-514808597.62724,35688417.19617,   0.00057,  -0.00228,   0.00050,474805817.26884,   0.00015,274805822.76411,   0.00005,  -0.00014,   0.00003,  -5.49526,   1.00000
-107291439.93900,-515157259.28923,35735322.10953,   0.00057,  -0.00229,   0.00050,474823683.56815,   0.00017,274823691.83759,   0.00005,  -0.00016,   0.00004,  -8.26944,   1.00000
-108329244.98722,-515503565.51403,35774498.85017,   0.00057,  -0.00230,   0.00050,474841535.29443,   0.00018,274841545.13388,   0.00006,  -0.00017,   0.00004,  -9.83946,   1.00000
-109376911.35846,-515850878.43118,35814725.84172,   0.00057,  -0.00232,   0.00051,474859290.18345,   0.00020,274859290.33979,   0.00006,  -0.00019,   0.00004,  -0.15634,   1.00000
-110409109.71823,-516190942.60646,35856210.54670,   0.00057,  -0.00233,   0.00051,474876912.28805,   0.00022,274876913.87632,   0.00007,  -0.00020,   0.00005,  -1.58827,   1.00000
-111451342.17459,-516532037.34599,35898730.80299,   0.00057,  -0.00235,   0.00052,474894425.17124,   0.00023,274894430.10705,   0.00007,  -0.00022,   0.00005,  -4.93581,   1.00000
-112486639.41451,-516870869.48203,35933561.05584,   0.00057,  -0.00236,   0.00052,474911923.49430,   0.00025,274911930.74291,   0.00008,  -0.00023,   0.00005,  -7.24861,   1.00000
-113498460.70377,-517197843.55859,35978652.03444,   0.00057,  -0.00238,   0.00052,474929195.82525,   0.00026,274929203.94478,   0.00008,  -0.00024,   0.00006,  -8.11952,   1.00000
-114554191.95446,-517538765.23253,36015578.13588,   0.00057,  -0.00239,   0.00053,474946488.52457,   0.00028,274946491.57775,   0.00009,  -0.00026,   0.00006,  -3.05318,   1.00000
-115569480.55255,-517864675.09776,36054043.45418,   0.00057,  -0.00240,   0.00053,474963637.76601,   0.00030,274963642.86169,   0.00009,  -0.00027,   0.00006,  -5.09568,   1.00000
-116603383.45771,-518196451.25764,36084619.51954,   0.00057,  -0.00242,   0.00054,474980790.04839,   0.00031,274980794.01546,   0.00009,  -0.00029,   0.00007,  -3.96708,   1.00000
-117639506.03784,-518524491.68209,36125269.11449,   0.00057,  -0.00243,   0.00054,474997728.40591,   0.00033,274997733.89782,   0.00010,  -0.00030,   0.00007,  -5.49191,   1.00000
-118668905.57507,-518850427.33075,36158251.32975,   0.00057,  -0.00245,   0.00054,475014652.55386,   0.00034,275014658.59026,   0.00010,  -0.00032,   0.00007,  -6.03640,   1.00000
-119683591.93687,-519169623.34065,36192587.51490,   0.00058,  -0.00246,   0.00055,475031456.64865,   0.00036,275031462.31650,   0.00011,  -0.00033,   0.00008,  -5.66785,   1.00000
-120708954.32272,-519489921.43804,36228019.74828,   0.00058,  -0.00247,   0.00055,475048158.79662,   0.00037,275048161.42111,   0.00011,  -0.00035,   0.00008,  -2.62449,   1.00000
-121719785.46459,-519803588.84537,36264797.51962,   0.00058,  -0.00249,   0.00056,475064735.00935,   0.00039,275064739.88693,   0.00012,  -0.00036,   0.00008,  -4.87758,   1.00000
-122741448.89846,-520118377.98798,36302656.10364,   0.00058,  -0.00250,   0.00056,475081209.48541,   0.00040,275081214.45107,   0.00012,  -0.00037,   0.00009,  -4.96566,   1.00000
-123756626.52370,-520431238.12902,36332877.18658,   0.00058,  -0.00252,   0.00056,475097669.70024,   0.00042,275097674.07313,   0.00012,  -0.00039,   0.00009,  -4.37289,   1.00000
-124757540.01761,-520737646.84548,36364495.19279,   0.00058,  -0.00253,   0.00057,475114009.84426,   0.00043,275114013.18620,   0.00013,  -0.00040,   0.00009,  -3.34194,   1.00000
-125769509.56527,-521045201.43381,36397232.36023,   0.00058,  -0.00254,   0.00057,475130242.77378,   0.00045,275130249.21914,   0.00013,  -0.00042,   0.00010,  -6.44536,   1.00000
-126767390.68877,-521346411.57417,36431357.68682,   0.00058,  -0.00256,   0.00057,475146355.80188,   0.00046,275146365.04681,   0.00014,  -0.00043,   0.00010,  -9.24493,   1.00000
-127776759.13684,-521650585.56845,36459393.71709,   0.00058,  -0.00257,   0.00058,475162366.50675,   0.00048,275162369.42329,   0.00014,  -0.00044,   0.00010,  -2.91654,   1.00000
-128779579.82121,-521951173.82279,36487061.52770,   0.00058,  -0.00258,   0.00058,475178358.25994,   0.00049,275178368.11102,   0.00014,  -0.00046,   0.00011,  -9.85108,   1.00000
-129793661.27746,-522252886.66031,36515875.23566,   0.00058,  -0.00259,   0.00059,475194260.58523,   0.00051,275194264.85050,   0.00015,  -0.00047,   0.00011,  -4.26527,   1.00000
-130793908.39975,-522548394.14286,36546116.51575,   0.00058,  -0.00261,   0.00059,475210037.55703,   0.00052,275210041.81397,   0.00015,  -0.00048,   0.00011,  -4.25694,   1.00000
-131780791.92513,-522839623.88206,36570591.04648,   0.00058,  -0.00262,   0.00059,475225687.56855,   0.00054,275225690.03386,   0.00016,  -0.00050,   0.00012,  -2.46532,   1.00000
-132778937.16780,-523130223.10348,36603429.69204,   0.00058,  -0.00263,   0.00060,475241238.37408,   0.00055,275241246.33471,   0.00016,  -0.00051,   0.00012,  -7.96063,   1.00000
-133763895.22074,-523416658.38881,36630493.07177,   0.00058,  -0.00265,   0.00060,475256673.76910,   0.00056,275256674.14636,   0.00016,  -0.00053,   0.00012,  -0.37726,   1.00000
-134742926.91952,-523701541.74011,36650013.73225,   0.00058,  -0.00266,   0.00060,475272083.26306,   0.00058,275272087.57486,   0.00017,  -0.00054,   0.00013,  -4.31180,   1.00000
-135733413.90192,-523985809.60328,36677932.59420,   0.00058,  -0.00267,   0.00061,475287405.42919,   0.00059,275287409.82007,   0.00017,  -0.00055,   0.00013,  -4.39088,   1.00000
-136710967.17747,-524266055.37251,36700119.66938,   0.00058,  -0.00268,   0.00061,475302600.69286,   0.00061,275302603.83799,   0.00017,  -0.00056,   0.00013,  -3.14513,   1.00000
-137700417.50472,-524547485.85269,36723492.38030,   0.00057,  -0.00270,   0.00061,475317690.36109,   0.00062,275317698.42920,   0.00018,  -0.00058,   0.00014,  -8.06811,   1.00000
-138676785.18921,-524823171.35957,36748364.39508,   0.00057,  -0.00271,   0.00062,475332671.51178,   0.00063,275332673.97907,   0.00018,  -0.00059,   0.00014,  -2.46730,   1.00000
-139640230.85494,-525093196.73471,36774731.56315,   0.00057,  -0.00272,   0.00062,475347522.09571,   0.00065,275347530.69862,   0.00019,  -0.00060,   0.00014,  -8.60291,   1.00000
-140622997.62370,-525368690.21491,36793241.11645,   0.00057,  -0.00273,   0.00062,475362383.68082,   0.00066,275362393.65009,   0.00019,  -0.00062,   0.00015,  -9.96927,   1.00000
-141586149.62878,-525636209.58928,36815120.41126,   0.00057,  -0.00274,   0.00063,475377023.89742,   0.00067,275377024.10146,   0.00019,  -0.00063,   0.00015,  -0.20404,   1.00000
-142543423.40912,-525900593.46499,36836696.77839,   0.00057,  -0.00276,   0.00063,475391646.42141,   0.00069,275391649.67498,   0.00020,  -0.00064,   0.00015,  -3.25357,   1.00000
-143513400.16322,-526168058.01409,36852271.64390,   0.00057,  -0.00277,   0.00063,475406167.41245,   0.00070,275406168.57012,   0.00020,  -0.00065,   0.00015,  -1.15768,   1.00000
-144470845.78646,-526430079.99343,36869417.78750,   0.00057,  -0.00278,   0.00064,475420568.97449,   0.00071,275420569.02843,   0.00020,  -0.00067,   0.00016,  -0.05394,   1.00000
-145447361.22175,-526695595.04022,36885944.43769,   0.00057,  -0.00279,   0.00064,475434978.67385,   0.00073,275434985.97630,   0.00021,  -0.00068,   0.00016,  -7.30245,   1.00000
-146404872.58534,-526953457.03514,36905878.23716,   0.00057,  -0.00280,   0.00064,475449167.00711,   0.00074,275449171.22007,   0.00021,  -0.00069,   0.00016,  -4.21296,   1.00000
-147356658.16862,-527208288.28398,36925526.66753,   0.00057,  -0.00282,   0.00065,475463348.72485,   0.00075,275463351.84528,   0.00021,  -0.00070,   0.00017,  -3.12043,   1.00000
-148296652.39858,-527459752.19309,36939542.16560,   0.00057,  -0.00283,   0.00065,475477403.35079,   0.00077,275477405.46906,   0.00021,  -0.00072,   0.00017,  -2.11827,   1.00000
-149243037.57526,-527710282.53219,36956640.00237,   0.00057,  -0.00284,   0.00065,475491241.50807,   0.00078,275491249.91021,   0.00022,  -0.00073,   0.00017,  -8.40214,   1.00000
-150184232.30957,-527959736.02075,36966282.04895,   0.00057,  -0.00285,   0.00066,475505075.55067,   0.00079,275505080.89671,   0.00022,  -0.00074,   0.00018,  -5.34605,   1.00000
-151144288.03722,-528210729.69457,36982531.92487,   0.00057,  -0.00286,   0.00066,475518936.63677,   0.00081,275518938.72373,   0.00022,  -0.00075,   0.00018,  -2.08697,   1.00000
-152086501.20495,-528456314.94744,36995025.18363,   0.00057,  -0.00287,   0.00066,475532548.14112,   0.00082,275532556.95447,   0.00023,  -0.00076,   0.00018,  -8.81335,   1.00000
-153017387.58695,-528698771.45516,37001944.22656,   0.00056,  -0.00288,   0.00067,475546042.61130,   0.00083,275546048.75332,   0.00023,  -0.00078,   0.00018,  -6.14202,   1.00000
-153942524.30731,-528936555.73087,37015863.26241,   0.00056,  -0.00289,   0.00067,475559538.42827,   0.00084,275559545.16171,   0.00023,  -0.00079,   0.00019,  -6.73344,   1.00000
-154875112.81840,-529175400.63547,37025677.31561,   0.00056,  -0.00290,   0.00067,475572820.58179,   0.00085,275572825.48787,   0.00024,  -0.00080,   0.00019,  -4.90607,   1.00000
-155802379.46965,-529411448.04544,37035279.32809,   0.00056,  -0.00292,   0.00067,475586096.50698,   0.00087,275586101.69800,   0.00024,  -0.00081,   0.00019,  -5.19102,   1.00000
-156718297.48350,-529642701.51844,37046530.20931,   0.00056,  -0.00293,   0.00068,475599253.34571,   0.00088,275599260.86059,   0.00024,  -0.00082,   0.00020,  -7.51488,   1.00000
-157648050.56222,-529877095.93819,37051834.66628,   0.00056,  -0.00294,   0.00068,475612309.33413,   0.00089,275612317.85302,   0.00024,  -0.00083,   0.00020,  -8.51889,   1.00000
-158572555.97124,-530108744.23703,37056955.46875,   0.00056,  -0.00295,   0.00068,475625368.91264,   0.00090,275625370.78554,   0.00025,  -0.00084,   0.00020,  -1.87290,   1.00000
-159479995.59895,-530333720.78552,37065618.30624,   0.00056,  -0.00296,   0.00069,475638187.19997,   0.00092,275638194.25999,   0.00025,  -0.00086,   0.00020,  -7.06002,   1.00000
-160401509.18501,-530561856.24551,37068347.31612,   0.00056,  -0.00297,   0.00069,475650914.12924,   0.00093,275650916.44818,   0.00025,  -0.00087,   0.00021,  -2.31894,   1.00000
-161317508.66454,-530785437.62445,37078104.90878,   0.00056,  -0.00298,   0.00069,475663633.83571,   0.00094,275663643.81381,   0.00025,  -0.00088,   0.00021,  -9.97810,   1.00000
-162223460.95464,-531008206.41561,37075131.90288,   0.00055,  -0.00299,   0.00069,475676227.85001,   0.00095,275676236.97705,   0.00026,  -0.00089,   0.00021,  -9.12704,   1.00000
-163112530.78814,-531222742.07082,37082961.23495,   0.00055,  -0.00300,   0.00070,475688607.77175,   0.00096,275688610.11709,   0.00026,  -0.00090,   0.00022,  -2.34534,   1.00000
-164021723.78996,-531442329.52119,37082988.41110,   0.00055,  -0.00301,   0.00070,475700990.73621,   0.00097,275700995.74875,   0.00026,  -0.00091,   0.00022,  -5.01254,   1.00000
-164920318.00326,-531657490.90836,37084738.14489,   0.00055,  -0.00302,   0.00070,475713264.34069,   0.00098,275713265.31328,   0.00026,  -0.00092,   0.00022,  -0.97259,   1.00000
-165838546.27592,-531875715.56481,37085906.73940,   0.00055,  -0.00303,   0.00071,475725549.24642,   0.00100,275725556.68092,   0.00027,  -0.00093,   0.00022,  -7.43450,   1.00000
-166716617.33101,-532084031.09818,37083894.50583,   0.00055,  -0.00304,   0.00071,475737577.38758,   0.00101,275737585.56744,   0.00027,  -0.00094,   0.00023,  -8.17986,   1.00000
-167608521.63699,-532291787.55945,37090393.59516,   0.00055,  -0.00305,   0.00071,475749530.66435,   0.00102,275749533.18619,   0.00027,  -0.00095,   0.00023,  -2.52184,   1.00000
-168496571.04011,-532500830.48963,37082318.17306,   0.00055,  -0.00306,   0.00071,475761452.69891,   0.00103,275761459.86355,   0.00027,  -0.00096,   0.00023,  -7.16464,   1.00000
-169368604.39914,-532702041.98832,37085092.76569,   0.00054,  -0.00307,   0.00072,475773160.86431,   0.00104,275773167.64458,   0.00028,  -0.00097,   0.00023,  -6.78027,   1.00000
-170260935.69178,-532908167.15270,37080074.83015,   0.00054,  -0.00308,   0.00072,475784881.55017,   0.00105,275784889.53541,   0.00028,  -0.00098,   0.00024,  -7.98523,   1.00000
-171143248.45050,-533110139.59768,37076817.53963,   0.00054,  -0.00309,   0.00072,475796492.79498,   0.00106,275796496.16081,   0.00028,  -0.00099,   0.00024,  -3.36582,   1.00000
-172016119.00452,-533309900.30030,37068115.24953,   0.00054,  -0.00310,   0.00072,475807977.21749,   0.00107,275807978.84771,   0.00028,  -0.00101,   0.00024,  -1.63022,   1.00000
-172903122.57822,-533509013.49229,37067946.14210,   0.00054,  -0.00311,   0.00073,475819378.34850,   0.00108,275819381.97946,   0.00028,  -0.00102,   0.00024,  -3.63096,   1.00000
-173756484.93955,-533700747.70271,37062770.66900,   0.00054,  -0.00311,   0.00073,475830626.52118,   0.00109,275830634.69904,   0.00029,  -0.00103,   0.00025,  -8.17786,   1.00000
-174625108.52162,-533895657.42729,37051711.58570,   0.00054,  -0.00312,   0.00073,475841782.97280,   0.00110,275841790.75103,   0.00029,  -0.00103,   0.00025,  -7.77823,   1.00000
-175488905.64814,-534086420.01672,37047773.56208,   0.00053,  -0.00313,   0.00073,475852951.29831,   0.00111,275852952.64686,   0.00029,  -0.00104,   0.00025,  -1.34854,   1.00000
-176362871.07213,-534278641.08036,37039816.45777,   0.00053,  -0.00314,   0.00073,475863906.51499,   0.00112,275863906.84221,   0.00029,  -0.00105,   0.00025,  -0.32722,   1.00000
-177208713.85013,-534465424.23076,37025028.03420,   0.00053,  -0.00315,   0.00074,475874821.39748,   0.00113,275874822.08499,   0.00029,  -0.00106,   0.00026,  -0.68751,   1.00000
-178069112.01683,-534651572.62835,37018795.25631,   0.00053,  -0.00316,   0.00074,475885653.91151,   0.00114,275885659.29937,   0.00030,  -0.00107,   0.00026,  -5.38787,   1.00000
-178915786.62152,-534834249.52917,37009021.86795,   0.00053,  -0.00317,   0.00074,475896255.29526,   0.00115,275896262.03994,   0.00030,  -0.00108,   0.00026,  -6.74468,   1.00000
-179783032.39849,-535021599.55305,36991488.14468,   0.00053,  -0.00318,   0.00074,475906877.17855,   0.00116,275906881.43089,   0.00030,  -0.00109,   0.00026,  -4.25234,   1.00000
-180616522.25185,-535198427.92500,36983467.76969,   0.00052,  -0.00318,   0.00075,475917363.90060,   0.00117,275917367.48887,   0.00030,  -0.00110,   0.00027,  -3.58828,   1.00000
-181465792.80652,-535378385.99379,36969557.73808,   0.00052,  -0.00319,   0.00075,475927758.67816,   0.00118,275927759.21767,   0.00030,  -0.00111,   0.00027,  -0.53951,   1.00000
-182306194.38457,-535554697.71711,36957465.44457,   0.00052,  -0.00320,   0.00075,475938028.20170,   0.00119,275938037.30059,   0.00031,  -0.00112,   0.00027,  -9.09889,   1.00000
-183143109.72783,-535730833.86493,36938100.30191,   0.00052,  -0.00321,   0.00075,475948299.57153,   0.00120,275948304.25059,   0.00031,  -0.00113,   0.00027,  -4.67906,   1.00000
-183990699.31256,-535906652.66168,36921973.65031,   0.00052,  -0.00322,   0.00075,475958374.67766,   0.00121,275958375.18116,   0.00031,  -0.00114,   0.00027,  -0.50351,   1.00000
-184810259.54654,-536075708.77065,36906285.59039,   0.00052,  -0.00323,   0.00076,475968411.18015,   0.00122,275968415.05122,   0.00031,  -0.00115,   0.00028,  -3.87108,   1.00000
-185640770.99446,-536244519.96339,36893817.10503,   0.00051,  -0.00323,   0.00076,475978251.75145,   0.00123,275978259.56635,   0.00031,  -0.00116,   0.00028,  -7.81490,   1.00000
-186467979.06220,-536413225.95081,36874075.96815,   0.00051,  -0.00324,   0.00076,475988086.44831,   0.00124,275988093.34079,   0.00031,  -0.00116,   0.00028,  -6.89248,   1.00000
-187306283.55554,-536581655.02361,36857564.00423,   0.00051,  -0.00325,   0.00076,475997731.94175,   0.00125,275997732.46540,   0.00032,  -0.00117,   0.00028,  -0.52365,   1.00000
-188117309.85625,-536745433.30195,36834297.18440,   0.00051,  -0.00326,   0.00076,476007323.25760,   0.00126,276007331.60925,   0.00032,  -0.00118,   0.00029,  -8.35164,   1.00000
-188943681.26595,-536908508.87907,36819595.50851,   0.00051,  -0.00326,   0.00077,476016847.67105,   0.00127,276016856.15891,   0.00032,  -0.00119,   0.00029,  -8.48786,   1.00000
-189762930.20223,-537072019.71256,36792304.55116,   0.00050,  -0.00327,   0.00077,476026243.88718,   0.00127,276026250.85560,   0.00032,  -0.00120,   0.00029,  -6.96842,   1.00000
-190573640.99110,-537230365.67089,36774100.23246,   0.00050,  -0.00328,   0.00077,476035539.58326,   0.00128,276035541.56968,   0.00032,  -0.00121,   0.00029,  -1.98643,   1.00000
-191381309.87380,-537388710.50607,36748647.12868,   0.00050,  -0.00329,   0.00077,476044814.92577,   0.00129,276044821.97050,   0.00032,  -0.00121,   0.00029,  -7.04473,   1.00000
-192200685.66916,-537546825.53474,36726428.99968,   0.00050,  -0.00329,   0.00077,476053900.86451,   0.00130,276053909.63822,   0.00032,  -0.00122,   0.00030,  -8.77371,   1.00000
-193012241.37548,-537701727.34785,36706064.79255,   0.00050,  -0.00330,   0.00077,476062877.04928,   0.00131,276062885.20448,   0.00033,  -0.00123,   0.00030,  -8.15520,   1.00000
-193820852.56422,-537856662.85796,36678458.16362,   0.00049,  -0.00331,   0.00078,476071847.09530,   0.00132,276071850.68222,   0.00033,  -0.00124,   0.00030,  -3.58692,   1.00000
-194617598.28439,-538007151.59583,36654607.85621,   0.00049,  -0.00331,   0.00078,476080587.56697,   0.00133,276080593.79399,   0.00033,  -0.00125,   0.00030,  -6.22702,   1.00000
-195411013.47994,-538155866.72678,36630740.41017,   0.00049,  -0.00332,   0.00078,476089331.09601,   0.00133,276089335.45028,   0.00033,  -0.00125,   0.00030,  -4.35427,   1.00000
-196197510.82776,-538303417.39674,36601524.71423,   0.00049,  -0.00333,   0.00078,476097948.64809,   0.00134,276097956.85128,   0.00033,  -0.00126,   0.00031,  -8.20319,   1.00000
-196996357.14033,-538450794.32143,36575537.13288,   0.00049,  -0.00334,   0.00078,476106382.44091,   0.00135,276106387.49262,   0.00033,  -0.00127,   0.00031,  -5.05171,   1.00000
-197791949.52629,-538596404.37725,36549536.79302,   0.00048,  -0.00334,   0.00078,476114813.03908,   0.00136,276114816.97625,   0.00033,  -0.00128,   0.00031,  -3.93717,   1.00000
-198580830.08550,-538740907.34261,36518190.22583,   0.00048,  -0.00335,   0.00079,476123124.19455,   0.00136,276123126.65820,   0.00033,  -0.00128,   0.00031,  -2.46364,   1.00000
-199362562.92773,-538882462.42541,36488729.11479,   0.00048,  -0.00335,   0.00079,476131319.11069,   0.00137,276131325.13118,   0.00034,  -0.00129,   0.00031,  -6.02048,   1.00000
-200141182.02488,-539022336.40852,36459271.25281,   0.00048,  -0.00336,   0.00079,476139517.07862,   0.00138,276139522.45957,   0.00034,  -0.00130,   0.00031,  -5.38095,   1.00000
-200933131.54722,-539163899.74114,36425806.27801,   0.00048,  -0.00337,   0.00079,476147520.66377,   0.00139,276147522.21313,   0.00034,  -0.00131,   0.00032,  -1.54936,   1.00000
-201718122.77078,-539302554.82632,36394226.94290,   0.00047,  -0.00337,   0.00079,476155402.14895,   0.00139,276155411.24335,   0.00034,  -0.00131,   0.00032,  -9.09440,   1.00000
-202476449.11341,-539435752.64273,36363207.36572,   0.00047,  -0.00338,   0.00079,476163266.64775,   0.00140,276163267.15116,   0.00034,  -0.00132,   0.00032,  -0.50341,   1.00000
-203271516.61269,-539572557.86656,36334832.41158,   0.00047,  -0.00339,   0.00079,476170959.47538,   0.00141,276170967.27808,   0.00034,  -0.00133,   0.00032,  -7.80271,   1.00000
-204040524.44114,-539705826.03301,36299789.58954,   0.00047,  -0.00339,   0.00080,476178620.53352,   0.00142,276178625.89375,   0.00034,  -0.00133,   0.00032,  -5.36023,   1.00000
-204799785.90564,-539837088.86261,36261290.78596,   0.00046,  -0.00340,   0.00080,476186054.20997,   0.00142,276186056.06536,   0.00034,  -0.00134,   0.00032,  -1.85539,   1.00000
-205555683.75875,-539964915.80385,36230039.37695,   0.00046,  -0.00340,   0.00080,476193489.25678,   0.00143,276193493.93801,   0.00034,  -0.00135,   0.00033,  -4.68123,   1.00000
-206329253.25830,-540095567.18431,36192882.31919,   0.00046,  -0.00341,   0.00080,476200841.62959,   0.00144,276200846.13143,   0.00035,  -0.00135,   0.00033,  -4.50184,   1.00000
-207096396.16164,-540223514.65322,36157613.75538,   0.00046,  -0.00341,   0.00080,476208083.90704,   0.00144,276208088.35685,   0.00035,  -0.00136,   0.00033,  -4.44981,   1.00000
-207857777.02616,-540350670.00624,36117008.14963,   0.00046,  -0.00342,   0.00080,476215211.64007,   0.00145,276215212.39100,   0.00035,  -0.00137,   0.00033,  -0.75093,   1.00000
-208612919.25361,-540475185.85767,36078298.67714,   0.00045,  -0.00343,   0.00080,476222218.30549,   0.00146,276222226.71607,   0.00035,  -0.00137,   0.00033,  -8.41057,   1.00000
-209361924.26779,-540597128.13266,36041479.48127,   0.00045,  -0.00343,   0.00080,476229125.53569,   0.00146,276229131.34253,   0.00035,  -0.00138,   0.00033,  -5.80684,   1.00000
-210128298.00037,-540719939.53412,36005966.95761,   0.00045,  -0.00344,   0.00080,476235953.08503,   0.00147,276235960.02177,   0.00035,  -0.00139,   0.00034,  -6.93675,   1.00000
-210869187.59499,-540839692.92185,35963822.00574,   0.00045,  -0.00344,   0.00080,476242743.28435,   0.00148,276242746.58798,   0.00035,  -0.00139,   0.00034,  -3.30363,   1.00000
-211624182.89035,-540959253.84125,35924852.44422,   0.00044,  -0.00345,   0.00081,476249340.26073,   0.00148,276249348.54477,   0.00035,  -0.00140,   0.00034,  -8.28404,   1.00000
-212377206.03665,-541079190.61683,35878682.95561,   0.00044,  -0.00345,   0.00081,476255940.73629,   0.00149,276255942.16873,   0.00035,  -0.00140,   0.00034,  -1.43244,   1.00000
-213120533.89755,-541193739.85411,35843490.16707,   0.00044,  -0.00346,   0.00081,476262317.01490,   0.00149,276262326.07454,   0.00035,  -0.00141,   0.00034,  -9.05964,   1.00000
-213862584.30579,-541310569.26596,35793860.93524,   0.00044,  -0.00346,   0.00081,476268686.30184,   0.00150,276268693.59987,   0.00035,  -0.00141,   0.00034,  -7.29802,   1.00000
-214598399.95703,-541423110.60076,35753360.39916,   0.00043,  -0.00347,   0.00081,476274955.31629,   0.00151,276274960.46789,   0.00035,  -0.00142,   0.00034,  -5.15161,   1.00000
-215326076.97244,-541534130.97976,35709363.10052,   0.00043,  -0.00347,   0.00081,476280999.31545,   0.00151,276281001.69466,   0.00036,  -0.00143,   0.00035,  -2.37920,   1.00000
-216074704.33737,-541646894.65003,35664807.12204,   0.00043,  -0.00347,   0.00081,476287076.37611,   0.00152,276287077.73418,   0.00036,  -0.00143,   0.00035,  -1.35807,   1.00000
-216794626.86449,-541754161.41428,35622722.38238,   0.00043,  -0.00348,   0.00081,476293003.74948,   0.00152,276293010.71602,   0.00036,  -0.00144,   0.00035,  -6.96654,   1.00000
-217533051.57317,-541864038.02790,35574690.67136,   0.00042,  -0.00348,   0.00081,476298858.23268,   0.00153,276298862.04306,   0.00036,  -0.00144,   0.00035,  -3.81038,   1.00000
-218269189.05803,-541972504.48992,35526696.65248,   0.00042,  -0.00349,   0.00081,476304707.08726,   0.00153,276304713.80007,   0.00036,  -0.00145,   0.00035,  -6.71282,   1.00000
-218997080.92402,-542077713.53758,35482426.68586,   0.00042,  -0.00349,   0.00081,476310339.88276,   0.00154,276310349.01095,   0.00036,  -0.00145,   0.00035,  -9.12819,   1.00000
-219720442.49954,-542182490.93865,35432796.06663,   0.00042,  -0.00350,   0.00081,476315860.13840,   0.00154,276315868.24418,   0.00036,  -0.00146,   0.00035,  -8.10577,   1.00000
-220441667.75835,-542285933.62855,35383204.98766,   0.00041,  -0.00350,   0.00081,476321383.80520,   0.00155,276321388.00736,   0.00036,  -0.00146,   0.00035,  -4.20216,   1.00000
-221178101.83511,-542389093.64799,35336722.20925,   0.00041,  -0.00350,   0.00082,476326719.02804,   0.00155,276326727.30525,   0.00036,  -0.00147,   0.00036,  -8.27721,   1.00000
-221889338.73953,-542488069.33638,35290871.45028,   0.00041,  -0.00351,   0.00082,476332029.01192,   0.00156,276332031.71724,   0.00036,  -0.00147,   0.00036,  -2.70533,   1.00000
-222616590.08259,-542588610.31541,35240876.14533,   0.00041,  -0.00351,   0.00082,476337147.44119,   0.00156,276337148.24806,   0.00036,  -0.00148,   0.00036,  -0.80687,   1.00000
-223318777.24448,-542685058.79896,35191521.49416,   0.00040,  -0.00351,   0.00082,476342224.78066,   0.00157,276342229.81043,   0.00036,  -0.00148,   0.00036,  -5.02977,   1.00000
-224039904.05147,-542783941.59783,35136186.64186,   0.00040,  -0.00352,   0.00082,476347224.72458,   0.00157,276347232.11387,   0.00036,  -0.00149,   0.00036,  -7.38929,   1.00000
-224756352.86487,-542880658.88722,35082721.58440,   0.00040,  -0.00352,   0.00082,476352120.88945,   0.00158,276352127.36396,   0.00036,  -0.00149,   0.00036,  -6.47451,   1.00000
-225468205.53920,-542975240.89657,35031118.42174,   0.00040,  -0.00352,   0.00082,476356912.92583,   0.00158,276356915.67765,   0.00036,  -0.00149,   0.00036,  -2.75182,   1.00000
-226175540.28821,-543067708.78852,34981368.89872,   0.00039,  -0.00353,   0.00082,476361593.13618,   0.00159,276361597.20718,   0.00036,  -0.00150,   0.00036,  -4.07100,   1.00000
-226901969.87406,-543162489.22836,34925611.96723,   0.00039,  -0.00353,   0.00082,476366193.15787,   0.00159,276366200.67819,   0.00036,  -0.00150,   0.00036,  -7.52032,   1.00000
-227603619.99495,-543253425.16990,34870508.68925,   0.00039,  -0.00353,   0.00082,476370761.88517,   0.00160,276370768.78084,   0.00036,  -0.00151,   0.00037,  -6.89567,   1.00000
-228298441.32619,-543341502.11514,34819074.00115,   0.00039,  -0.00354,   0.00082,476375116.83009,   0.00160,276375122.68923,   0.00036,  -0.00151,   0.00037,  -5.85914,   1.00000
-229015007.60044,-543432660.79854,34759803.66922,   0.00038,  -0.00354,   0.00082,476379499.39000,   0.00160,276379506.88241,   0.00037,  -0.00151,   0.00037,  -7.49241,   1.00000
-229724896.84655,-543520954.20918,34704193.53505,   0.00038,  -0.00354,   0.00082,476383673.00184,   0.00161,276383677.38656,   0.00037,  -0.00152,   0.00037,  -4.38472,   1.00000
-230410267.35646,-543605602.74629,34649235.53339,   0.00038,  -0.00355,   0.00082,476387803.10198,   0.00161,276387812.29519,   0.00037,  -0.00152,   0.00037,  -9.19320,   1.00000
-231115039.52445,-543692481.78603,34588246.79109,   0.00037,  -0.00355,   0.00082,476391863.15066,   0.00162,276391870.54360,   0.00037,  -0.00153,   0.00037,  -7.39294,   1.00000
-231815175.70850,-543775553.25918,34536336.50920,   0.00037,  -0.00355,   0.00082,476395820.93545,   0.00162,276395830.77742,   0.00037,  -0.00153,   0.00037,  -9.84197,   1.00000
-232512649.54545,-543860273.80979,34471763.98882,   0.00037,  -0.00355,   0.00082,476399668.26035,   0.00162,276399669.77196,   0.00037,  -0.00153,   0.00037,  -1.51161,   1.00000
-233228341.66773,-543943476.13902,34415635.08897,   0.00037,  -0.00356,   0.00082,476403439.85547,   0.00163,276403448.61127,   0.00037,  -0.00154,   0.00037,  -8.75580,   1.00000
-233918138.98849,-544024272.17630,34354712.05431,   0.00036,  -0.00356,   0.00082,476407071.60342,   0.00163,276407076.67704,   0.00037,  -0.00154,   0.00037,  -5.07362,   1.00000
-234604236.31365,-544103158.20026,34295609.34584,   0.00036,  -0.00356,   0.00082,476410594.98672,   0.00163,276410599.41288,   0.00037,  -0.00154,   0.00037,  -4.42616,   1.00000
-235311501.67223,-544183043.20078,34235891.09291,   0.00036,  -0.00356,   0.00082,476414154.87277,   0.00164,276414161.91779,   0.00037,  -0.00155,   0.00038,  -7.04502,   1.00000
-235991014.36182,-544259940.14550,34173163.96267,   0.00036,  -0.00356,   0.00082,476417465.42388,   0.00164,276417466.69136,   0.00037,  -0.00155,   0.00038,  -1.26748,   1.00000
-236691724.62264,-544337782.92764,34109819.62031,   0.00035,  -0.00357,   0.00082,476420806.84265,   0.00164,276420811.60341,   0.00037,  -0.00155,   0.00038,  -4.76076,   1.00000
-237364307.52632,-544410962.08814,34050703.05835,   0.00035,  -0.00357,   0.00082,476423897.63707,   0.00164,276423906.60903,   0.00037,  -0.00155,   0.00038,  -8.97196,   1.00000
-238058126.65584,-544485070.45915,33990958.44567,   0.00035,  -0.00357,   0.00082,476427039.03366,   0.00165,276427041.99216,   0.00037,  -0.00156,   0.00038,  -2.95850,   1.00000
-238749225.53923,-544559090.27201,33925754.94026,   0.00034,  -0.00357,   0.00082,476430063.04753,   0.00165,276430065.28901,   0.00037,  -0.00156,   0.00038,  -2.24148,   1.00000
-239437035.72927,-544631261.11984,33862342.50566,   0.00034,  -0.00357,   0.00082,476432980.23929,   0.00165,276432984.18644,   0.00037,  -0.00156,   0.00038,  -3.94716,   1.00000
-240122277.99413,-544703380.82284,33793464.89412,   0.00034,  -0.00358,   0.00082,476435787.53415,   0.00166,276435791.24081,   0.00037,  -0.00157,   0.00038,  -3.70666,   1.00000
-240803731.32908,-544771919.45197,33733622.20585,   0.00034,  -0.00358,   0.00082,476438497.73022,   0.00166,276438501.64329,   0.00037,  -0.00157,   0.00038,  -3.91307,   1.00000
-241484601.94790,-544841112.72429,33666531.57787,   0.00033,  -0.00358,   0.00082,476441200.89152,   0.00166,276441206.92725,   0.00037,  -0.00157,   0.00038,  -6.03572,   1.00000
-242183035.23441,-544909654.10363,33602329.35555,   0.00033,  -0.00358,   0.00082,476443731.56302,   0.00166,276443740.97350,   0.00037,  -0.00157,   0.00038,  -9.41048,   1.00000
-242858525.23592,-544977041.95927,33531526.36101,   0.00033,  -0.00358,   0.00082,476446228.47188,   0.00167,276446230.94260,   0.00037,  -0.00157,   0.00038,  -2.47072,   1.00000
-243531119.61352,-545042670.46935,33462490.56625,   0.00033,  -0.00358,   0.00082,476448614.12404,   0.00167,276448617.18588,   0.00037,  -0.00158,   0.00038,  -3.06184,   1.00000
-244221525.55408,-545107617.62784,33396315.92859,   0.00032,  -0.00358,   0.00082,476450832.85104,   0.00167,276450833.06610,   0.00037,  -0.00158,   0.00038,  -0.21506,   1.00000
-244910817.22344,-545171420.27238,33330134.36815,   0.00032,  -0.00358,   0.00082,476453042.15639,   0.00167,276453051.85516,   0.00037,  -0.00158,   0.00038,  -9.69877,   1.00000
-245575747.26064,-545233592.59566,33259096.10904,   0.00032,  -0.00358,   0.00082,476455111.86898,   0.00167,276455120.29460,   0.00037,  -0.00158,   0.00038,  -8.42562,   1.00000
-246260325.17690,-545295671.89613,33189145.95459,   0.00031,  -0.00359,   0.00082,476457119.05037,   0.00168,276457125.26697,   0.00037,  -0.00158,   0.00038,  -6.21660,   1.00000
-246943865.35378,-545356641.02016,33119188.61821,   0.00031,  -0.00359,   0.00082,476459131.06474,   0.00168,276459133.18705,   0.00037,  -0.00159,   0.00038,  -2.12231,   1.00000
-247623312.36080,-545415252.69048,33052699.88700,   0.00031,  -0.00359,   0.00081,476460926.11892,   0.00168,276460932.38623,   0.00037,  -0.00159,   0.00039,  -6.26731,   1.00000
-248302454.80947,-545474518.95508,32978937.84337,   0.00031,  -0.00359,   0.00081,476462725.53575,   0.00168,276462727.30901,   0.00037,  -0.00159,   0.00039,  -1.77326,   1.00000
-248977713.48011,-545531464.91216,32908628.51777,   0.00030,  -0.00359,   0.00081,476464308.99540,   0.00168,276464313.89395,   0.00037,  -0.00159,   0.00039,  -4.89854,   1.00000
-249652074.87021,-545587336.28261,32838300.85863,   0.00030,  -0.00359,   0.00081,476465897.50258,   0.00168,276465903.65070,   0.00037,  -0.00159,   0.00039,  -6.14812,   1.00000
-250324814.92479,-545643268.03983,32762419.86878,   0.00030,  -0.00359,   0.00081,476467383.25332,   0.00169,276467383.72472,   0.00037,  -0.00159,   0.00039,  -0.47140,   1.00000
-250995331.96432,-545697522.30784,32688241.79278,   0.00029,  -0.00359,   0.00081,476468755.75587,   0.00169,276468761.57254,   0.00037,  -0.00160,   0.00039,  -5.81668,   1.00000
-251685761.83169,-545751447.37141,32615096.36327,   0.00029,  -0.00359,   0.00081,476470072.24665,   0.00169,276470077.96011,   0.00037,  -0.00160,   0.00039,  -5.71346,   1.00000
-252353307.10457,-545802968.84795,32542587.20159,   0.00029,  -0.00359,   0.00081,476471350.80600,   0.00169,276471357.08191,   0.00037,  -0.00160,   0.00039,  -6.27591,   1.00000
-253039564.45015,-545853526.72999,32472808.97371,   0.00028,  -0.00359,   0.00081,476472459.99248,   0.00169,276472469.85875,   0.00037,  -0.00160,   0.00039,  -9.86627,   1.00000
-253703726.59260,-545903484.76123,32396396.99725,   0.00028,  -0.00359,   0.00081,476473532.03806,   0.00169,276473538.08856,   0.00037,  -0.00160,   0.00039,  -6.05050,   1.00000
-254386756.03700,-545952441.98522,32322695.91897,   0.00028,  -0.00359,   0.00081,476474437.82848,   0.00169,276474440.58255,   0.00037,  -0.00160,   0.00039,  -2.75407,   1.00000
-255047802.43855,-546000851.45312,32242355.07293,   0.00028,  -0.00359,   0.00081,476475290.44591,   0.00169,276475298.56030,   0.00037,  -0.00160,   0.00039,  -8.11439,   1.00000
-255728314.57843,-546047093.81872,32170275.04226,   0.00027,  -0.00359,   0.00081,476476102.60240,   0.00169,276476103.47764,   0.00037,  -0.00160,   0.00039,  -0.87524,   1.00000
-256407734.29961,-546093376.84377,32092575.49747,   0.00027,  -0.00359,   0.00081,476476796.05091,   0.00169,276476800.27372,   0.00037,  -0.00160,   0.00039,  -4.22281,   1.00000
-257086504.87089,-546138575.03276,32014830.34933,   0.00027,  -0.00359,   0.00081,476477496.61667,   0.00170,276477500.99377,   0.00037,  -0.00160,   0.00039,  -4.37710,   1.00000
-257763283.04227,-546183280.97989,31933141.46222,   0.00026,  -0.00359,   0.00080,476477982.10353,   0.00170,276477988.95938,   0.00037,  -0.00160,   0.00039,  -6.85585,   1.00000
-258438804.75393,-546225224.06728,31858671.07916,   0.00026,  -0.00359,   0.00080,476478480.04331,   0.00170,276478487.96916,   0.00037,  -0.00160,   0.00039,  -7.92584,   1.00000
-259112543.71783,-546266706.58957,31780233.88212,   0.00026,  -0.00358,   0.00080,476478770.71719,   0.00170,276478774.61372,   0.00037,  -0.00160,   0.00039,  -3.89653,   1.00000
-259785762.63528,-546307118.91859,31701737.04115,   0.00026,  -0.00358,   0.00080,476479065.14563,   0.00170,276479065.45020,   0.00037,  -0.00160,   0.00039,  -0.30457,   1.00000
-260458261.87880,-546347593.60555,31617577.87355,   0.00025,  -0.00358,   0.00080,476479242.25417,   0.00170,276479249.03399,   0.00037,  -0.00160,   0.00039,  -6.77982,   1.00000
-261129600.54817,-546385342.04668,31540630.43132,   0.00025,  -0.00358,   0.00080,476479441.60887,   0.00170,276479443.72277,   0.00037,  -0.00160,   0.00039,  -2.11390,   1.00000
-261797870.81734,-546418570.95509,31459404.21076,   0.00025,  -0.00358,   0.00080,476475858.50480,   0.00170,276479443.72277,   0.00037,  -0.00160,   0.00039,-3585.21797,   0.00000
-262198478.19102,-546444141.63851,31412524.62448,   0.00024,  -0.00358,   0.00080,476479443.05350,   0.00170,276479443.72277,   0.00037,  -0.00160,   0.00039,  -7.01364,   0.00000
-262490672.50414,-546459651.16127,31377966.74964,   0.00024,  -0.00358,   0.00080,476479456.59944,   0.00170,276479457.01192,   0.00037,  -0.00160,   0.00039,  -0.41248,   1.00000
-263136790.16770,-546441190.65659,31289356.32721,   0.00024,  -0.00358,   0.00080,476431774.46438,   0.00170,276479457.01192,   0.00037,  -0.00160,   0.00039,-47682.54754,   0.00000
-263782907.83127,-546422730.15192,31208130.10665,   0.00024,  -0.00358,   0.00079,476386490.13200,   0.00170,276479457.01192,   0.00037,  -0.00160,   0.00039,-92966.87992,   0.00000
-264443793.89857,-546389501.24351,31119519.68421,   0.00023,  -0.00358,   0.00079,476327584.82115,   0.00170,276479457.01192,   0.00037,  -0.00160,   0.00039,-151872.19077,   0.00000
-265104679.96587,-546356272.33510,31030909.26178,   0.00023,  -0.00357,   0.00079,476269687.17713,   0.00170,276479457.01192,   0.00037,  -0.00160,   0.00039,-209769.83478,   0.00000
-265717568.72103,-546260277.71079,30934914.63748,   0.00023,  -0.00357,   0.00079,476157611.80557,   0.00170,276479457.01192,   0.00037,  -0.00160,   0.00039,-321845.20634,   0.00000
-266356302.18272,-546175359.38930,30846304.21505,   0.00023,  -0.00357,   0.00079,476057178.60086,   0.00170,276479457.01192,   0.00037,  -0.00160,   0.00039,-422278.41106,   0.00000
-266972883.03881,-546038751.65472,30750309.59075,   0.00022,  -0.00357,   0.00079,475911802.15067,   0.00170,276479457.01192,   0.00037,  -0.00160,   0.00039,-567654.86124,   0.00000
-267563619.18835,-545891067.61733,30654314.96645,   0.00022,  -0.00357,   0.00079,475758152.17551,   0.00170,276479457.01192,   0.00037,  -0.00160,   0.00039,-721304.83640,   0.00000
-268169123.74164,-545728615.17620,30558320.34215,   0.00022,  -0.00356,   0.00079,475592544.77373,   0.00170,276479457.01192,   0.00037,  -0.00160,   0.00039,-886912.23818,   0.00000
-268774628.29492,-545566162.73508,30454941.51598,   0.00021,  -0.00356,   0.00079,475426552.18800,   0.00170,276479457.01192,   0.00037,  -0.00160,   0.00039,-1052904.82392,   0.00000
-269357980.24260,-545352020.88087,30358946.89167,   0.00021,  -0.00356,   0.00078,475218503.74606,   0.00170,276479457.01192,   0.00037,  -0.00160,   0.00039,-1260953.26586,   0.00000
-269941332.19027,-545137879.02666,30255568.06550,   0.00021,  -0.00356,   0.00078,475010087.13438,   0.00170,276479457.01192,   0.00037,  -0.00160,   0.00039,-1469369.87754,   0.00000
-270513607.83514,-544897892.46591,30152189.23933,   0.00020,  -0.00356,   0.00078,474780469.26219,   0.00170,276479457.01192,   0.00037,  -0.00160,   0.00039,-1698987.74972,   0.00000
-271074807.17721,-544632061.19861,30041426.21129,   0.00020,  -0.00355,   0.00078,474528254.23371,   0.00170,276479457.01192,   0.00037,  -0.00160,   0.00039,-1951202.77820,   0.00000
-271650774.92302,-544351461.52758,29938047.38512,   0.00020,  -0.00355,   0.00078,474265770.29419,   0.00170,276479457.01192,   0.00037,  -0.00160,   0.00039,-2213686.71772,   0.00000
-272200897.96228,-544059785.55374,29827284.35708,   0.00019,  -0.00355,   0.00078,473993478.44851,   0.00170,276479457.01192,   0.00037,  -0.00160,   0.00039,-2485978.56341,   0.00000
-272728868.39594,-543716420.16682,29716521.32904,   0.00019,  -0.00355,   0.00078,473677772.47287,   0.00170,276479457.01192,   0.00037,  -0.00160,   0.00039,-2801684.53905,   0.00000
-273282683.53613,-543384131.08270,29605758.30100,   0.00019,  -0.00354,   0.00077,473372758.27165,   0.00170,276479457.01192,   0.00037,  -0.00160,   0.00039,-3106698.74026,   0.00000
-273799577.66699,-543014920.98923,29487611.07110,   0.00019,  -0.00354,   0.00077,473035637.91101,   0.00170,276479457.01192,   0.00037,  -0.00160,   0.00039,-3443819.10090,   0.00000
-274342316.50438,-542656787.19857,29376848.04306,   0.00018,  -0.00354,   0.00077,472710665.05170,   0.00170,276479457.01192,   0.00037,  -0.00160,   0.00039,-3768791.96022,   0.00000
-274837058.02962,-542235887.69202,29258700.81315,   0.00018,  -0.00354,   0.00077,472331308.46472,   0.00170,276479457.01192,   0.00037,  -0.00160,   0.00039,-4148148.54719,   0.00000
-275357644.26141,-541826064.48827,29140553.58324,   0.00018,  -0.00353,   0.00077,471962798.62351,   0.00170,276479457.01192,   0.00037,  -0.00160,   0.00039,-4516658.38841,   0.00000
-275841309.48385,-541379320.27518,29022406.35333,   0.00017,  -0.00353,   0.00077,471563480.37015,   0.00170,276479457.01192,   0.00037,  -0.00160,   0.00039,-4915976.64176,   0.00000
-276339743.11003,-540917807.65835,28896874.92155,   0.00017,  -0.00353,   0.00076,471151491.97766,   0.00170,276479457.01192,   0.00037,  -0.00160,   0.00039,-5327965.03425,   0.00000
-276838176.73621,-540456295.04152,28771343.48977,   0.00017,  -0.00352,   0.00076,470740712.32723,   0.00170,276479457.01192,   0.00037,  -0.00160,   0.00039,-5738744.68468,   0.00000
-277314457.75678,-539943093.01160,28653196.25986,   0.00016,  -0.00352,   0.00076,470288042.67338,   0.00170,276479457.01192,   0.00037,  -0.00160,   0.00039,-6191414.33854,   0.00000
-277764894.07081,-539418814.67888,28520280.62622,   0.00016,  -0.00352,   0.00076,469824013.12582,   0.00170,276479457.01192,   0.00037,  -0.00160,   0.00039,-6655443.88610,   0.00000
-278230098.78857,-538879767.94242,28394749.19444,   0.00016,  -0.00351,   0.00076,469350195.95739,   0.00170,276479457.01192,   0.00037,  -0.00160,   0.00039,-7129261.05453,   0.00000
-278695303.50634,-538340721.20596,28269217.76266,   0.00015,  -0.00351,   0.00076,468877616.90815,   0.00170,276479457.01192,   0.00037,  -0.00160,   0.00039,-7601840.10377,   0.00000
-279138355.61850,-537749985.05641,28136302.12901,   0.00015,  -0.00351,   0.00075,468360519.18959,   0.00170,276479457.01192,   0.00037,  -0.00160,   0.00039,-8118937.82233,   0.00000
-279581407.73066,-537159248.90687,28003386.49536,   0.00015,  -0.00350,   0.00075,467844688.13437,   0.00170,276479457.01192,   0.00037,  -0.00160,   0.00039,-8634768.87754,   0.00000
-280039228.24655,-536553744.35359,27870470.86172,   0.00014,  -0.00350,   0.00075,467317967.65517,   0.00170,276479457.01192,   0.00037,  -0.00160,   0.00039,-9161489.35674,   0.00000
-280471204.05591,-535937163.49750,27737555.22807,   0.00014,  -0.00350,   0.00075,466782512.40589,   0.00170,276479457.01192,   0.00037,  -0.00160,   0.00039,-9696944.60603,   0.00000
-280881027.25965,-535268893.22833,27597255.39255,   0.00014,  -0.00349,   0.00075,466202625.96623,   0.00170,276479457.01192,   0.00037,  -0.00160,   0.00039,-10276831.04568,   0.00000
-281290850.46340,-534600622.95915,27464339.75890,   0.00013,  -0.00349,   0.00075,465625358.63876,   0.00170,276479457.01192,   0.00037,  -0.00160,   0.00039,-10854098.37316,   0.00000
-281715442.07089,-533917584.28624,27324039.92339,   0.00013,  -0.00348,   0.00074,465036082.79126,   0.00170,276479457.01192,   0.00037,  -0.00160,   0.00039,-11443374.22066,   0.00000
-282114188.97183,-533223469.31053,27183740.08787,   0.00013,  -0.00348,   0.00074,464437987.71526,   0.00170,276479457.01192,   0.00037,  -0.00160,   0.00039,-12041469.29666,   0.00000
-282527704.27651,-532514585.93107,27043440.25235,   0.00012,  -0.00348,   0.00074,463829286.95618,   0.00170,276479457.01192,   0.00037,  -0.00160,   0.00039,-12650170.05573,   0.00000
-282893222.26904,-531742936.83573,26895756.21497,   0.00012,  -0.00347,   0.00074,463166059.17026,   0.00170,276479457.01192,   0.00037,  -0.00160,   0.00039,-13313397.84165,   0.00000
-283295661.27092,-531008208.74973,26755456.37945,   0.00012,  -0.00347,   0.00074,462537988.87735,   0.00170,276479457.01192,   0.00037,  -0.00160,   0.00039,-13941468.13457,   0.00000
-283675947.66719,-530221791.25065,26607772.34206,   0.00012,  -0.00346,   0.00074,461865719.38403,   0.00170,276479457.01192,   0.00037,  -0.00160,   0.00039,-14613737.62789,   0.00000
-284030389.35692,-529424297.44877,26460088.30468,   0.00011,  -0.00346,   0.00073,461184527.37191,   0.00170,276479457.01192,   0.00037,  -0.00160,   0.00039,-15294929.64001,   0.00000
-284399599.45038,-528612035.24314,26312404.26729,   0.00011,  -0.00346,   0.00073,460492988.80505,   0.00170,276479457.01192,   0.00037,  -0.00160,   0.00039,-15986468.20686,   0.00000
-284757733.24104,-527773928.33097,26164720.22991,   0.00011,  -0.00345,   0.00073,459780769.85164,   0.00170,276479457.01192,   0.00037,  -0.00160,   0.00039,-16698687.16028,   0.00000
-285115867.03170,-526935821.41881,26009651.99065,   0.00010,  -0.00345,   0.00073,459068796.50407,   0.00170,276479457.01192,   0.00037,  -0.00160,   0.00039,-17410660.50785,   0.00000
-285462924.51956,-526071869.80010,25861967.95326,   0.00010,  -0.00344,   0.00073,458337433.74164,   0.00170,276479457.01192,   0.00037,  -0.00160,   0.00039,-18142023.27028,   0.00000
-285798905.70462,-525182073.47485,25706899.71401,   0.00010,  -0.00344,   0.00072,457584196.60782,   0.00170,276479457.01192,   0.00037,  -0.00160,   0.00039,-18895260.40410,   0.00000
-286134886.88967,-524292277.14959,25551831.47475,   0.00009,  -0.00343,   0.00072,456832510.04048,   0.00170,276479457.01192,   0.00037,  -0.00160,   0.00039,-19646946.97143,   0.00000
-286459791.77192,-523376636.11780,25396763.23550,   0.00009,  -0.00343,   0.00072,456060237.34143,   0.00170,276479457.01192,   0.00037,  -0.00160,   0.00039,-20419219.67048,   0.00000
-286773620.35136,-522435150.37946,25234310.79437,   0.00009,  -0.00342,   0.00072,455266172.18075,   0.00170,276479457.01192,   0.00037,  -0.00160,   0.00039,-21213284.83116,   0.00000
-287076372.62801,-521467819.93458,25079242.55512,   0.00008,  -0.00342,   0.00072,454452798.40809,   0.00170,276479457.01192,   0.00037,  -0.00160,   0.00039,-22026658.60383,   0.00000
-287404969.61119,-520511565.79251,24916790.11399,   0.00008,  -0.00341,   0.00071,453650565.10586,   0.00170,276479457.01192,   0.00037,  -0.00160,   0.00039,-22828891.90606,   0.00000
-287696645.58503,-519518390.64109,24761721.87474,   0.00008,  -0.00341,   0.00071,452818339.29139,   0.00170,276479457.01192,   0.00037,  -0.00160,   0.00039,-23661117.72052,   0.00000
-288014166.26541,-518536291.79247,24599269.43361,   0.00007,  -0.00340,   0.00071,451997367.56587,   0.00170,276479457.01192,   0.00037,  -0.00160,   0.00039,-24482089.44604,   0.00000
-288283689.63364,-517491427.22796,24429432.79062,   0.00007,  -0.00340,   0.00071,451121842.21957,   0.00170,276479457.01192,   0.00037,  -0.00160,   0.00039,-25357614.79235,   0.00000
-288590134.01121,-516483483.67280,24266980.34949,   0.00007,  -0.00339,   0.00070,450282217.71855,   0.00170,276479457.01192,   0.00037,  -0.00160,   0.00039,-26197239.29336,   0.00000
-288848581.07664,-515412774.40175,24104527.90837,   0.00006,  -0.00339,   0.00070,449389215.54576,   0.00170,276479457.01192,   0.00037,  -0.00160,   0.00039,-27090241.46616,   0.00000
-289132872.84861,-514353141.43350,23934691.26537,   0.00006,  -0.00338,   0.00070,448507724.75035,   0.00170,276479457.01192,   0.00037,  -0.00160,   0.00039,-27971732.26157,   0.00000
-289406088.31777,-513267663.75871,23764854.62238,   0.00006,  -0.00338,   0.00070,447605961.45827,   0.00170,276479457.01192,   0.00037,  -0.00160,   0.00039,-28873495.55365,   0.00000
-289668227.48413,-512156341.37738,23595017.97939,   0.00005,  -0.00337,   0.00070,446683954.31856,   0.00170,276479457.01192,   0.00037,  -0.00160,   0.00039,-29795502.69336,   0.00000
-289930366.65049,-511045018.99605,23425181.33639,   0.00005,  -0.00336,   0.00069,445763812.54680,   0.00170,276479457.01192,   0.00037,  -0.00160,   0.00039,-30715644.46512,   0.00000
-290181429.51405,-509907851.90818,23255344.69340,   0.00005,  -0.00336,   0.00069,444823474.26333,   0.00170,276479457.01192,   0.00037,  -0.00160,   0.00039,-31655982.74858,   0.00000
-290432492.37761,-508770684.82030,23085508.05040,   0.00004,  -0.00335,   0.00069,443885037.33062,   0.00170,276479457.01192,   0.00037,  -0.00160,   0.00039,-32594419.68130,   0.00000
-290672478.93836,-507607673.02589,22908287.20554,   0.00004,  -0.00335,   0.00069,442925307.41473,   0.00170,276479457.01192,   0.00037,  -0.00160,   0.00039,-33554149.59718,   0.00000
-290901389.19631,-506418816.52493,22738450.56255,   0.00004,  -0.00334,   0.00068,441946614.56623,   0.00170,276479457.01192,   0.00037,  -0.00160,   0.00039,-34532842.44568,   0.00000
-291130299.45426,-505229960.02397,22561229.71768,   0.00003,  -0.00334,   0.00068,440968753.39442,   0.00170,276479457.01192,   0.00037,  -0.00160,   0.00039,-35510703.61750,   0.00000
-291373978.11595,-504026335.11927,22384008.87282,   0.00003,  -0.00333,   0.00068,439982175.59082,   0.00170,276479457.01192,   0.00037,  -0.00160,   0.00039,-36497281.42110,   0.00000
-291580735.76829,-502785789.20523,22206788.02796,   0.00003,  -0.00332,   0.00068,438964291.54449,   0.00170,276479457.01192,   0.00037,  -0.00160,   0.00039,-37515165.46743,   0.00000
-291813338.12717,-501556319.59399,22029567.18309,   0.00002,  -0.00332,   0.00068,437959869.90238,   0.00170,276479457.01192,   0.00037,  -0.00160,   0.00039,-38519587.10953,   0.00000
-292009019.47671,-500289928.97340,21844962.13636,   0.00002,  -0.00331,   0.00067,436923009.22082,   0.00170,276479457.01192,   0.00037,  -0.00160,   0.00039,-39556447.79109,   0.00000
-292230545.53279,-499034614.65562,21667741.29150,   0.00002,  -0.00331,   0.00067,435900853.08971,   0.00170,276479457.01192,   0.00037,  -0.00160,   0.00039,-40578603.92220,   0.00000
-292440995.28606,-497753455.63129,21483136.24476,   0.00001,  -0.00330,   0.00067,434857790.28740,   0.00170,276479457.01192,   0.00037,  -0.00160,   0.00039,-41621666.72452,   0.00000
-292614524.02999,-496435375.59762,21305915.39990,   0.00001,  -0.00329,   0.00067,433784470.41012,   0.00170,276479457.01192,   0.00037,  -0.00160,   0.00039,-42694986.60180,   0.00000
-292813897.48046,-495128371.86675,21121310.35317,   0.00001,  -0.00329,   0.00066,432723865.89922,   0.00170,276479457.01192,   0.00037,  -0.00160,   0.00039,-43755591.11270,   0.00000
-293002194.62813,-493795523.42934,20936705.30643,   0.00000,  -0.00328,   0.00066,431643568.05202,   0.00170,276479457.01192,   0.00037,  -0.00160,   0.00039,-44835888.95989,   0.00000
-293190491.77580,-492462674.99193,20744716.05783,  -0.00000,  -0.00327,   0.00066,430564520.83142,   0.00170,276479457.01192,   0.00037,  -0.00160,   0.00039,-45914936.18049,   0.00000
-293367712.62066,-491103981.84798,20560111.01110,  -0.00001,  -0.00327,   0.00066,429466923.61106,   0.00170,276479457.01192,   0.00037,  -0.00160,   0.00039,-47012533.40086,   0.00000
-293559701.86926,-489730520.30029,20375505.96437,  -0.00001,  -0.00326,   0.00065,428361552.04388,   0.00170,276479457.01192,   0.00037,  -0.00160,   0.00039,-48117904.96804,   0.00000
-293725846.41132,-488345982.44979,20183516.71576,  -0.00001,  -0.00325,   0.00065,427245781.05502,   0.00170,276479457.01192,   0.00037,  -0.00160,   0.00039,-49233675.95690,   0.00000
-293880914.65058,-486935599.89275,19991527.46716,  -0.00002,  -0.00325,   0.00065,426110519.08839,   0.00170,276479457.01192,   0.00037,  -0.00160,   0.00039,-50368937.92353,   0.00000
-294061827.59637,-485536293.63852,19806922.42043,  -0.00002,  -0.00324,   0.00065,424990709.95157,   0.00170,276479457.01192,   0.00037,  -0.00160,   0.00039,-51488747.06034,   0.00000
-294205819.53283,-484100066.37494,19614933.17183,  -0.00002,  -0.00323,   0.00064,423838552.46718,   0.00170,276479457.01192,   0.00037,  -0.00160,   0.00039,-52640904.54474,   0.00000
-294375656.17582,-482674915.41416,19422943.92323,  -0.00003,  -0.00323,   0.00064,422700967.85588,   0.00170,276479457.01192,   0.00037,  -0.00160,   0.00039,-53778489.15604,   0.00000
-294508571.80947,-481212843.44404,19223570.47275,  -0.00003,  -0.00322,   0.00064,421531053.76809,   0.00170,276479457.01192,   0.00037,  -0.00160,   0.00039,-54948403.24383,   0.00000
-294656255.84685,-479736003.07017,19031581.22415,  -0.00003,  -0.00321,   0.00064,420355005.37464,   0.00170,276479457.01192,   0.00037,  -0.00160,   0.00039,-56124451.63727,   0.00000
-294803939.88424,-478259162.69631,18839591.97555,  -0.00004,  -0.00321,   0.00063,419181696.76532,   0.00170,276479457.01192,   0.00037,  -0.00160,   0.00039,-57297760.24660,   0.00000
-294951623.92163,-476782322.32245,18640218.52508,  -0.00004,  -0.00320,   0.00063,418010162.97101,   0.00170,276479457.01192,   0.00037,  -0.00160,   0.00039,-58469294.04091,   0.00000
-295088231.65621,-475279637.24205,18440845.07461,  -0.00004,  -0.00319,   0.00063,416819582.84629,   0.00170,276479457.01192,   0.00037,  -0.00160,   0.00039,-59659874.16563,   0.00000
-295213763.08799,-473751107.45510,18248855.82601,  -0.00005,  -0.00318,   0.00063,415610987.28192,   0.00170,276479457.01192,   0.00037,  -0.00160,   0.00039,-60868469.72999,   0.00000
-295339294.51976,-472222577.66815,18049482.37553,  -0.00005,  -0.00318,   0.00062,414404307.70474,   0.00170,276479457.01192,   0.00037,  -0.00160,   0.00039,-62075149.30718,   0.00000
-295479594.35528,-470679279.47746,17850108.92506,  -0.00005,  -0.00317,   0.00062,413191156.00925,   0.00170,276479457.01192,   0.00037,  -0.00160,   0.00039,-63288301.00267,   0.00000
-295594049.48426,-469124904.98397,17650735.47459,  -0.00006,  -0.00316,   0.00062,411968607.51394,   0.00170,276479457.01192,   0.00037,  -0.00160,   0.00039,-64510849.49797,   0.00000
-295723273.01697,-467555762.08675,17443977.82225,  -0.00006,  -0.00316,   0.00062,410738848.50223,   0.00170,276479457.01192,   0.00037,  -0.00160,   0.00039,-65740608.50968,   0.00000
-295826651.84314,-465975542.88671,17244604.37178,  -0.00007,  -0.00315,   0.00061,409500621.43560,   0.00170,276479457.01192,   0.00037,  -0.00160,   0.00039,-66978835.57632,   0.00000
-295944799.07305,-464380555.28294,17037846.71944,  -0.00007,  -0.00314,   0.00061,408255408.73226,   0.00170,276479457.01192,   0.00037,  -0.00160,   0.00039,-68224048.27966,   0.00000
-296062946.30296,-462785567.67917,16838473.26897,  -0.00007,  -0.00313,   0.00061,407014365.46912,   0.00170,276479457.01192,   0.00037,  -0.00160,   0.00039,-69465091.54280,   0.00000
-296181093.53287,-461190580.07540,16631715.61663,  -0.00008,  -0.00313,   0.00061,405775680.48846,   0.00170,276479457.01192,   0.00037,  -0.00160,   0.00039,-70703776.52345,   0.00000
-296288164.45997,-459569747.76509,16424957.96429,  -0.00008,  -0.00312,   0.00060,404518590.65519,   0.00170,276479457.01192,   0.00037,  -0.00160,   0.00039,-71960866.35673,   0.00000
-296384159.08427,-457923070.74823,16218200.31194,  -0.00008,  -0.00311,   0.00060,403243170.17732,   0.00170,276479457.01192,   0.00037,  -0.00160,   0.00039,-73236286.83460,   0.00000
-296480153.70857,-456276393.73137,16011442.65960,  -0.00009,  -0.00310,   0.00060,401971183.74409,   0.00170,276479457.01192,   0.00037,  -0.00160,   0.00039,-74508273.26783,   0.00000
-296565072.03007,-454603872.00798,15804685.00726,  -0.00009,  -0.00309,   0.00059,400680991.00180,   0.00170,276479457.01192,   0.00037,  -0.00160,   0.00039,-75798466.01011,   0.00000
-296675835.05811,-452942426.58738,15597927.35492,  -0.00009,  -0.00309,   0.00059,399407318.76437,   0.00170,276479457.01192,   0.00037,  -0.00160,   0.00039,-77072138.24755,   0.00000
-296760753.37961,-451269904.86398,15391169.70258,  -0.00010,  -0.00308,   0.00059,398124276.01421,   0.00170,276479457.01192,   0.00037,  -0.00160,   0.00039,-78355180.99770,   0.00000
-296860440.10484,-449582614.73684,15177027.84837,  -0.00010,  -0.00307,   0.00059,396835459.63223,   0.00170,276479457.01192,   0.00037,  -0.00160,   0.00039,-79643997.37969,   0.00000
-296923205.82073,-447858403.60036,14970270.19603,  -0.00011,  -0.00306,   0.00058,395516515.26678,   0.00170,276479457.01192,   0.00037,  -0.00160,   0.00039,-80962941.74514,   0.00000
-297022892.54597,-446171113.47322,14756128.34182,  -0.00011,  -0.00306,   0.00058,394235280.60152,   0.00170,276479457.01192,   0.00037,  -0.00160,   0.00039,-82244176.41040,   0.00000
-297100426.66560,-444432133.93300,14541986.48761,  -0.00011,  -0.00305,   0.00058,392914770.26798,   0.00170,276479457.01192,   0.00037,  -0.00160,   0.00039,-83564686.74393,   0.00000
-297189037.08803,-442718999.09932,14327844.63340,  -0.00012,  -0.00304,   0.00058,391619795.56890,   0.00170,276479457.01192,   0.00037,  -0.00160,   0.00039,-84859661.44302,   0.00000
-297255494.90485,-440954174.85255,14113702.77919,  -0.00012,  -0.00303,   0.00057,390285731.11669,   0.00170,276479457.01192,   0.00037,  -0.00160,   0.00039,-86193725.89523,   0.00000
-297358873.73102,-439226271.61514,13899560.92498,  -0.00012,  -0.00302,   0.00057,388990721.48919,   0.00170,276479457.01192,   0.00037,  -0.00160,   0.00039,-87488735.52272,   0.00000
-297425331.54785,-437461447.36837,13685419.07077,  -0.00013,  -0.00302,   0.00057,387664935.01794,   0.00170,276479457.01192,   0.00037,  -0.00160,   0.00039,-88814521.99397,   0.00000
-297480713.06186,-435670778.41506,13471277.21656,  -0.00013,  -0.00301,   0.00056,386321852.75362,   0.00170,276479457.01192,   0.00037,  -0.00160,   0.00039,-90157604.25830,   0.00000
-297573015.58523,-433917030.47110,13249751.16048,  -0.00014,  -0.00300,   0.00056,385017346.86078,   0.00170,276479457.01192,   0.00037,  -0.00160,   0.00039,-91462110.15113,   0.00000
-297643165.50299,-432111593.11405,13035609.30627,  -0.00014,  -0.00299,   0.00056,383675125.30676,   0.00170,276479457.01192,   0.00037,  -0.00160,   0.00039,-92804331.70516,   0.00000
-297724391.72355,-430332000.46355,12814083.25019,  -0.00014,  -0.00298,   0.00056,382358095.45707,   0.00170,276479457.01192,   0.00037,  -0.00160,   0.00039,-94121361.55484,   0.00000
-297794541.64131,-428526563.10650,12599941.39598,  -0.00015,  -0.00297,   0.00055,381024944.65238,   0.00170,276479457.01192,   0.00037,  -0.00160,   0.00039,-95454512.35953,   0.00000
-297853615.25627,-426695281.04292,12378415.33990,  -0.00015,  -0.00297,   0.00055,379674310.97334,   0.00170,276479457.01192,   0.00037,  -0.00160,   0.00039,-96805146.03858,   0.00000
-297923765.17402,-424889843.68587,12156889.28382,  -0.00016,  -0.00296,   0.00055,378349754.82872,   0.00170,276479457.01192,   0.00037,  -0.00160,   0.00039,-98129702.18320,   0.00000
-297982838.78898,-423058561.62228,11935363.22774,  -0.00016,  -0.00295,   0.00054,377008602.41458,   0.00170,276479457.01192,   0.00037,  -0.00160,   0.00039,-99470854.59733,   0.00000
-298056680.80767,-421212511.15495,11713837.17167,  -0.00016,  -0.00294,   0.00054,375665014.98262,   0.00170,276479457.01192,   0.00037,  -0.00160,   0.00039,-100814442.02930,   0.00000
-298104678.11982,-419355384.38482,11492311.11559,  -0.00017,  -0.00293,   0.00054,374312376.62405,   0.00170,276479457.01192,   0.00037,  -0.00160,   0.00039,-102167080.38787,   0.00000
-298178520.13851,-417509333.91749,11270785.05951,  -0.00017,  -0.00292,   0.00054,372978887.11864,   0.00170,276479457.01192,   0.00037,  -0.00160,   0.00039,-103500569.89327,   0.00000
-298241285.85440,-415637438.74362,11041874.80156,  -0.00017,  -0.00291,   0.00053,371628672.05144,   0.00170,276479457.01192,   0.00037,  -0.00160,   0.00039,-104850784.96047,   0.00000
-298304051.57029,-413765543.56975,10820348.74548,  -0.00018,  -0.00291,   0.00053,370284396.13722,   0.00170,276479457.01192,   0.00037,  -0.00160,   0.00039,-106195060.87470,   0.00000
-298366817.28618,-411893648.39588,10591438.48753,  -0.00018,  -0.00290,   0.00053,368944811.62064,   0.00170,276479457.01192,   0.00037,  -0.00160,   0.00039,-107534645.39128,   0.00000
-298418506.69927,-409995908.51547,10369912.43145,  -0.00019,  -0.00289,   0.00052,367590109.52358,   0.00170,276479457.01192,   0.00037,  -0.00160,   0.00039,-108889347.48834,   0.00000
-298470196.11235,-408098168.63506,10141002.17350,  -0.00019,  -0.00288,   0.00052,366240293.46904,   0.00170,276479457.01192,   0.00037,  -0.00160,   0.00039,-110239163.54288,   0.00000
-298547730.23198,-406211505.05745,9912091.91555,  -0.00019,  -0.00287,   0.00052,364910619.10708,   0.00170,276479457.01192,   0.00037,  -0.00160,   0.00039,-111568837.90483,   0.00000
-298614188.04880,-404298996.77330,9683181.65760,  -0.00020,  -0.00286,   0.00052,363565657.71065,   0.00170,276479457.01192,   0.00037,  -0.00160,   0.00039,-112913799.30126,   0.00000
-298665877.46189,-402401256.89288,9454271.39966,  -0.00020,  -0.00285,   0.00051,362232940.48232,   0.00170,276479457.01192,   0.00037,  -0.00160,   0.00039,-114246516.52960,   0.00000
-298721258.97591,-400462903.90219,9225361.14171,  -0.00021,  -0.00284,   0.00051,360878742.79833,   0.00170,276479457.01192,   0.00037,  -0.00160,   0.00039,-115600714.21359,   0.00000
-298787716.79273,-398550395.61804,8996450.88376,  -0.00021,  -0.00284,   0.00051,359551614.10494,   0.00170,276479457.01192,   0.00037,  -0.00160,   0.00039,-116927842.90698,   0.00000
-298868943.01330,-396623118.93015,8767540.62581,  -0.00021,  -0.00283,   0.00050,358224539.28276,   0.00170,276479457.01192,   0.00037,  -0.00160,   0.00039,-118254917.72915,   0.00000
-298924324.52732,-394684765.93945,8531246.16599,  -0.00022,  -0.00282,   0.00050,356888337.83490,   0.00170,276479457.01192,   0.00037,  -0.00160,   0.00039,-119591119.17702,   0.00000
-298968629.73853,-392720568.24222,8302335.90804,  -0.00022,  -0.00281,   0.00050,355538102.70532,   0.00170,276479457.01192,   0.00037,  -0.00160,   0.00039,-120941354.30659,   0.00000
-299038779.65629,-390767446.84778,8073425.65009,  -0.00023,  -0.00280,   0.00049,354209414.64715,   0.00170,276479457.01192,   0.00037,  -0.00160,   0.00039,-122270042.36477,   0.00000
-299108929.57405,-388814325.45335,7837131.19028,  -0.00023,  -0.00279,   0.00049,352886889.26503,   0.00170,276479457.01192,   0.00037,  -0.00160,   0.00039,-123592567.74688,   0.00000
-299179079.49181,-386861204.05892,7600836.73046,  -0.00023,  -0.00278,   0.00049,351571119.47236,   0.00170,276479457.01192,   0.00037,  -0.00160,   0.00039,-124908337.53955,   0.00000
-299249229.40956,-384908082.66449,7364542.27064,  -0.00024,  -0.00277,   0.00048,350262181.40184,   0.00170,276479457.01192,   0.00037,  -0.00160,   0.00039,-126217275.61007,   0.00000
-299308303.02452,-382929116.56351,7135632.01269,  -0.00024,  -0.00276,   0.00048,348939903.48896,   0.00170,276479457.01192,   0.00037,  -0.00160,   0.00039,-127539553.52295,   0.00000
-299367376.63947,-380950150.46254,6899337.55287,  -0.00025,  -0.00275,   0.00048,347624220.58173,   0.00170,276479457.01192,   0.00037,  -0.00160,   0.00039,-128855236.43019,   0.00000
-299441218.65817,-378956415.95782,6663043.09306,  -0.00025,  -0.00275,   0.00048,346310591.87401,   0.00170,276479457.01192,   0.00037,  -0.00160,   0.00039,-130168865.13791,   0.00000
-299526136.97966,-376988526.15965,6419364.43137,  -0.00026,  -0.00274,   0.00047,345024583.73692,   0.00170,276479457.01192,   0.00037,  -0.00160,   0.00039,-131454873.27499,   0.00000
-299574134.29181,-374983715.35213,6183069.97155,  -0.00026,  -0.00273,   0.00047,343710223.70400,   0.00170,276479457.01192,   0.00037,  -0.00160,   0.00039,-132769233.30791,   0.00000
-299647976.31051,-372989980.84742,5946775.51173,  -0.00026,  -0.00272,   0.00047,342419092.62113,   0.00170,276479457.01192,   0.00037,  -0.00160,   0.00039,-134060364.39079,   0.00000
-299710742.02640,-370970401.63616,5710481.05192,  -0.00027,  -0.00271,   0.00046,341115203.72660,   0.00170,276479457.01192,   0.00037,  -0.00160,   0.00039,-135364253.28532,   0.00000
-299810428.75163,-368987743.43425,5466802.39023,  -0.00027,  -0.00270,   0.00046,339855163.58434,   0.00170,276479457.01192,   0.00037,  -0.00160,   0.00039,-136624293.42757,   0.00000
-299873194.46752,-366968164.22300,5230507.93041,  -0.00028,  -0.00269,   0.00046,338567165.09365,   0.00170,276479457.01192,   0.00037,  -0.00160,   0.00039,-137912291.91827,   0.00000
-299961804.88995,-364959661.31454,4986829.26872,  -0.00028,  -0.00268,   0.00045,337302957.97427,   0.00170,276479457.01192,   0.00037,  -0.00160,   0.00039,-139176499.03764,   0.00000
-300050415.31239,-362951158.40609,4743150.60704,  -0.00029,  -0.00267,   0.00045,336047082.61290,   0.00170,276479457.01192,   0.00037,  -0.00160,   0.00039,-140432374.39901,   0.00000
-300139025.73482,-360942655.49764,4499471.94535,  -0.00029,  -0.00266,   0.00045,334799632.76995,   0.00170,276479457.01192,   0.00037,  -0.00160,   0.00039,-141679824.24196,   0.00000
-300216559.85444,-358908307.88264,4255793.28366,  -0.00029,  -0.00265,   0.00044,333540513.44886,   0.00170,276479457.01192,   0.00037,  -0.00160,   0.00039,-142938943.56305,   0.00000
-300294093.97407,-356873960.26765,4012114.62197,  -0.00030,  -0.00264,   0.00044,332290106.71781,   0.00170,276479457.01192,   0.00037,  -0.00160,   0.00039,-144189350.29411,   0.00000
-300371628.09370,-354839612.65265,3768435.96029,  -0.00030,  -0.00263,   0.00044,331048511.30203,   0.00170,276479457.01192,   0.00037,  -0.00160,   0.00039,-145430945.70989,   0.00000
-300475006.91987,-352816341.34046,3524757.29860,  -0.00031,  -0.00262,   0.00044,329832350.80369,   0.00170,276479457.01192,   0.00037,  -0.00160,   0.00039,-146647106.20823,   0.00000
-300578385.74604,-350793070.02827,3281078.63691,  -0.00031,  -0.00261,   0.00043,328625357.61658,   0.00170,276479457.01192,   0.00037,  -0.00160,   0.00039,-147854099.39534,   0.00000
-300670688.26941,-348743954.00954,3030015.77336,  -0.00032,  -0.00261,   0.00043,327407493.11450,   0.00170,276479457.01192,   0.00037,  -0.00160,   0.00039,-149071963.89741,   0.00000
-300774067.09558,-346720682.69735,2786337.11167,  -0.00032,  -0.00260,   0.00043,326219209.10607,   0.00170,276479457.01192,   0.00037,  -0.00160,   0.00039,-150260247.90584,   0.00000
-300866369.61894,-344671566.67861,2535274.24811,  -0.00032,  -0.00259,   0.00042,325020401.07268,   0.00170,276479457.01192,   0.00037,  -0.00160,   0.00039,-151459055.93924,   0.00000
-300984516.84885,-342633526.96268,2291595.58642,  -0.00033,  -0.00258,   0.00042,323848391.75691,   0.00170,276479457.01192,   0.00037,  -0.00160,   0.00039,-152631065.25500,   0.00000
-301076819.37222,-340584410.94395,2040532.72287,  -0.00033,  -0.00257,   0.00042,322669199.47206,   0.00170,276479457.01192,   0.00037,  -0.00160,   0.00039,-153810257.53985,   0.00000
-301194966.60213,-338546371.22802,1789469.85931,  -0.00034,  -0.00256,   0.00041,321517024.44809,   0.00170,276479457.01192,   0.00037,  -0.00160,   0.00039,-154962432.56383,   0.00000
-301302037.52923,-336482486.80555,1538406.99575,  -0.00034,  -0.00255,   0.00041,320355463.45732,   0.00170,276479457.01192,   0.00037,  -0.00160,   0.00039,-156123993.55460,   0.00000
-301446029.46568,-334455523.39242,1287344.13220,  -0.00035,  -0.00254,   0.00041,319241112.66182,   0.00170,276479457.01192,   0.00037,  -0.00160,   0.00039,-157238344.35010,   0.00000
-301553100.39279,-332391638.96995,1036281.26864,  -0.00035,  -0.00253,   0.00040,318100560.16016,   0.00170,276479457.01192,   0.00037,  -0.00160,   0.00039,-158378896.85176,   0.00000
-301697092.32924,-330364675.55682,785218.40509,  -0.00036,  -0.00252,   0.00040,317007479.49493,   0.00170,276479457.01192,   0.00037,  -0.00160,   0.00039,-159471977.51699,   0.00000
-301804163.25635,-328300791.13435,534155.54153,  -0.00036,  -0.00251,   0.00040,315888386.64951,   0.00170,276479457.01192,   0.00037,  -0.00160,   0.00039,-160591070.36240,   0.00000
-301937078.88999,-326247983.01468,283092.67797,  -0.00037,  -0.00250,   0.00039,314797750.10149,   0.00170,276479457.01192,   0.00037,  -0.00160,   0.00039,-161681706.91043,   0.00000
-302069994.52364,-324195174.89501,24645.61255,  -0.00037,  -0.00249,   0.00039,313718281.47848,   0.00170,276479457.01192,   0.00037,  -0.00160,   0.00039,-162761175.53343,   0.00000
-302228754.86383,-322153443.07815,-226417.25101,  -0.00037,  -0.00248,   0.00039,312667844.47934,   0.00170,276479457.01192,   0.00037,  -0.00160,   0.00039,-163811612.53257,   0.00000
-302350594.19468,-320074790.25194,-484864.31644,  -0.00038,  -0.00247,   0.00038,311592129.91586,   0.00170,276479457.01192,   0.00037,  -0.00160,   0.00039,-164887327.09606,   0.00000
-302509354.53487,-318033058.43507,-743311.38186,  -0.00038,  -0.00246,   0.00038,310564998.26309,   0.00170,276479457.01192,   0.00037,  -0.00160,   0.00039,-165914458.74882,   0.00000
-302668114.87506,-315991326.61821,-994374.24542,  -0.00039,  -0.00245,   0.00038,309549630.03689,   0.00170,276479457.01192,   0.00037,  -0.00160,   0.00039,-166929826.97503,   0.00000
-302815798.91244,-313923750.09480,-1252821.31084,  -0.00039,  -0.00244,   0.00037,308527416.03580,   0.00170,276479457.01192,   0.00037,  -0.00160,   0.00039,-167952040.97612,   0.00000
-302974559.25263,-311882018.27794,-1511268.37627,  -0.00040,  -0.00243,   0.00037,307536195.67326,   0.00170,276479457.01192,   0.00037,  -0.00160,   0.00039,-168943261.33865,   0.00000
-303148087.99656,-309825518.05733,-1769715.44170,  -0.00040,  -0.00242,   0.00037,306556678.54750,   0.00170,276479457.01192,   0.00037,  -0.00160,   0.00039,-169922778.46442,   0.00000
-303321616.74049,-307769017.83673,-2035546.70899,  -0.00041,  -0.00241,   0.00036,305589930.79058,   0.00170,276479457.01192,   0.00037,  -0.00160,   0.00039,-170889526.22133,   0.00000
-303480377.08068,-305727286.01987,-2293993.77442,  -0.00041,  -0.00240,   0.00036,304635959.57676,   0.00170,276479457.01192,   0.00037,  -0.00160,   0.00039,-171843497.43515,   0.00000
-303679750.53115,-303681862.10207,-2552440.83984,  -0.00042,  -0.00239,   0.00036,303712984.56137,   0.00170,276479457.01192,   0.00037,  -0.00160,   0.00039,-172766472.45055,   0.00000
-303853279.27508,-301625361.88147,-2818272.10714,  -0.00042,  -0.00238,   0.00035,302784819.48265,   0.00170,276479457.01192,   0.00037,  -0.00160,   0.00039,-173694637.52927,   0.00000
-304026808.01901,-299568861.66086,-3076719.17256,  -0.00043,  -0.00238,   0.00035,301869568.98795,   0.00170,276479457.01192,   0.00037,  -0.00160,   0.00039,-174609888.02396,   0.00000
-304237257.77228,-297549282.44961,-3342550.43986,  -0.00043,  -0.00237,   0.00035,301004692.13756,   0.00170,276479457.01192,   0.00037,  -0.00160,   0.00039,-175474764.87436,   0.00000
-304436631.22276,-295503858.53181,-3608381.70715,  -0.00044,  -0.00236,   0.00034,300135061.07806,   0.00170,276479457.01192,   0.00037,  -0.00160,   0.00039,-176344395.93386,   0.00000
-304636004.67323,-293458434.61401,-3874212.97445,  -0.00044,  -0.00235,   0.00034,299279086.65561,   0.00170,276479457.01192,   0.00037,  -0.00160,   0.00039,-177200370.35631,   0.00000
-304861222.83024,-291424086.99901,-4140044.24175,  -0.00045,  -0.00234,   0.00034,298455825.94921,   0.00170,276479457.01192,   0.00037,  -0.00160,   0.00039,-178023631.06271,   0.00000
-305060596.28071,-289378663.08121,-4405875.50904,  -0.00045,  -0.00233,   0.00033,297627595.75743,   0.00170,276479457.01192,   0.00037,  -0.00160,   0.00039,-178851861.25449,   0.00000
-305285814.43773,-287344315.46622,-4671706.77634,  -0.00046,  -0.00232,   0.00033,296832470.07211,   0.00170,276479457.01192,   0.00037,  -0.00160,   0.00039,-179646986.93980,   0.00000
-305511032.59474,-285309967.85122,-4937538.04363,  -0.00046,  -0.00231,   0.00033,296051623.45505,   0.00170,276479457.01192,   0.00037,  -0.00160,   0.00039,-180427833.55687,   0.00000
-305736250.75175,-283275620.23623,-5203369.31093,  -0.00047,  -0.00230,   0.00032,295285169.18415,   0.00170,276479457.01192,   0.00037,  -0.00160,   0.00039,-181194287.82776,   0.00000
-305972545.21157,-281267117.32778,-5476584.78009,  -0.00047,  -0.00229,   0.00032,294551104.02540,   0.00170,276479457.01192,   0.00037,  -0.00160,   0.00039,-181928352.98651,   0.00000
-306223608.07513,-279243846.01558,-5749800.24925,  -0.00048,  -0.00228,   0.00031,293833534.89549,   0.00170,276479457.01192,   0.00037,  -0.00160,   0.00039,-182645922.11643,   0.00000
-306474670.93869,-277220574.70339,-6015631.51655,  -0.00048,  -0.00227,   0.00031,293130431.76004,   0.00170,276479457.01192,   0.00037,  -0.00160,   0.00039,-183349025.25187,   0.00000
-306725733.80224,-275197303.39120,-6288846.98571,  -0.00049,  -0.00226,   0.00031,292442790.19404,   0.00170,276479457.01192,   0.00037,  -0.00160,   0.00039,-184036666.81787,   0.00000
-306987872.96860,-273199876.78555,-6562062.45488,  -0.00049,  -0.00225,   0.00030,291787353.64428,   0.00170,276479457.01192,   0.00037,  -0.00160,   0.00039,-184692103.36764,   0.00000
-307264780.53870,-271187681.77617,-6835277.92404,  -0.00050,  -0.00224,   0.00030,291149692.86223,   0.00170,276479457.01192,   0.00037,  -0.00160,   0.00039,-185329764.14968,   0.00000
-307515843.40226,-269164410.46398,-7108493.39321,  -0.00050,  -0.00223,   0.00030,290507736.80073,   0.00170,276479457.01192,   0.00037,  -0.00160,   0.00039,-185971720.21118,   0.00000
-307803827.27516,-267178060.16113,-7381708.86237,  -0.00051,  -0.00222,   0.00029,289917835.45056,   0.00170,276479457.01192,   0.00037,  -0.00160,   0.00039,-186561621.56135,   0.00000
-308106579.55180,-265176941.45455,-7662308.53341,  -0.00051,  -0.00221,   0.00029,289347277.76655,   0.00170,276479457.01192,   0.00037,  -0.00160,   0.00039,-187132179.24536,   0.00000
-308394563.42471,-263190591.15170,-7935524.00257,  -0.00052,  -0.00220,   0.00029,288788615.06050,   0.00170,276479457.01192,   0.00037,  -0.00160,   0.00039,-187690841.95141,   0.00000
-308697315.70135,-261189472.44512,-8216123.67360,  -0.00052,  -0.00219,   0.00028,288249888.58416,   0.00170,276479457.01192,   0.00037,  -0.00160,   0.00039,-188229568.42776,   0.00000
-309011144.28079,-259214198.44508,-8489339.14277,  -0.00053,  -0.00218,   0.00028,287742973.02828,   0.00170,276479457.01192,   0.00037,  -0.00160,   0.00039,-188736483.98364,   0.00000
-309324972.86024,-257238924.44504,-8769938.81380,  -0.00053,  -0.00217,   0.00028,287252702.75920,   0.00170,276479457.01192,   0.00037,  -0.00160,   0.00039,-189226754.25272,   0.00000
-309638801.43969,-255263650.44500,-9050538.48484,  -0.00054,  -0.00216,   0.00027,286778528.76601,   0.00170,276479457.01192,   0.00037,  -0.00160,   0.00039,-189700928.24590,   0.00000
-309978474.72567,-253299452.74776,-9331138.15587,  -0.00054,  -0.00215,   0.00027,286340880.70309,   0.00170,276479457.01192,   0.00037,  -0.00160,   0.00039,-190138576.30882,   0.00000
-310292303.30512,-251324178.74772,-9611737.82690,  -0.00055,  -0.00214,   0.00026,285899203.43694,   0.00170,276479457.01192,   0.00037,  -0.00160,   0.00039,-190580253.57498,   0.00000
-310631976.59111,-249359981.05048,-9892337.49794,  -0.00056,  -0.00213,   0.00026,285494336.64695,   0.00170,276479457.01192,   0.00037,  -0.00160,   0.00039,-190985120.36496,   0.00000
-311008570.88644,-247432704.36259,-10180321.37084,  -0.00056,  -0.00212,   0.00026,285142945.56990,   0.00170,276479457.01192,   0.00037,  -0.00160,   0.00039,-191336511.44202,   0.00000
-311348244.17243,-245468506.66536,-10460921.04187,  -0.00057,  -0.00211,   0.00025,284771172.99864,   0.00170,276479457.01192,   0.00037,  -0.00160,   0.00039,-191708284.01328,   0.00000
-311724838.46777,-243541229.97747,-10748904.91478,  -0.00057,  -0.00211,   0.00025,284452934.44140,   0.00170,276479457.01192,   0.00037,  -0.00160,   0.00039,-192026522.57051,   0.00000
-312101432.76310,-241613953.28958,-11036888.78768,  -0.00058,  -0.00210,   0.00025,284151340.84164,   0.00170,276479457.01192,   0.00037,  -0.00160,   0.00039,-192328116.17028,   0.00000
-312466950.75563,-239660831.89514,-11317488.45872,  -0.00058,  -0.00209,   0.00024,283850448.18777,   0.00170,276479457.01192,   0.00037,  -0.00160,   0.00039,-192629008.82414,   0.00000
-312869389.75751,-237744631.51006,-11605472.33162,  -0.00059,  -0.00208,   0.00024,283603258.16981,   0.00170,276479457.01192,   0.00037,  -0.00160,   0.00039,-192876198.84210,   0.00000
-313257060.35565,-235843199.52871,-11893456.20452,  -0.00059,  -0.00207,   0.00023,283366928.44938,   0.00170,276479457.01192,   0.00037,  -0.00160,   0.00039,-193112528.56254,   0.00000
-313659499.35752,-233926999.14362,-12188824.27929,  -0.00060,  -0.00206,   0.00023,283154373.69020,   0.00170,276479457.01192,   0.00037,  -0.00160,   0.00039,-193325083.32171,   0.00000
-314061938.35940,-232010798.75854,-12476808.15220,  -0.00060,  -0.00205,   0.00023,282957881.87153,   0.00170,276479457.01192,   0.00037,  -0.00160,   0.00039,-193521575.14039,   0.00000
-314501298.37063,-230131519.38280,-12772176.22697,  -0.00061,  -0.00204,   0.00022,282814969.02581,   0.00170,276479457.01192,   0.00037,  -0.00160,   0.00039,-193664487.98611,   0.00000
-314914813.67531,-228241163.70426,-13060160.09987,  -0.00062,  -0.00203,   0.00022,282666850.70197,   0.00170,276479457.01192,   0.00037,  -0.00160,   0.00039,-193812606.30995,   0.00000
-315354173.68653,-226361884.32852,-13355528.17464,  -0.00062,  -0.00202,   0.00022,282557786.92189,   0.00170,276479457.01192,   0.00037,  -0.00160,   0.00039,-193921670.09002,   0.00000
-315819378.40430,-224493681.25558,-13650896.24942,  -0.00063,  -0.00201,   0.00021,282486953.21159,   0.00170,276479457.01192,   0.00037,  -0.00160,   0.00039,-193992503.80033,   0.00000
-316258738.41552,-222614401.87984,-13946264.32419,  -0.00063,  -0.00200,   0.00021,282411944.72375,   0.00170,276479457.01192,   0.00037,  -0.00160,   0.00039,-194067512.28816,   0.00000
-316735019.43609,-220772043.51345,-14241632.39896,  -0.00064,  -0.00199,   0.00020,282389097.73798,   0.00170,276479457.01192,   0.00037,  -0.00160,   0.00039,-194090359.27394,   0.00000
-317211300.45666,-218929685.14705,-14537000.47373,  -0.00064,  -0.00198,   0.00020,282383107.12621,   0.00170,276479457.01192,   0.00037,  -0.00160,   0.00039,-194096349.88571,   0.00000
-317687581.47723,-217087326.78066,-14839752.75038,  -0.00065,  -0.00197,   0.00020,282395137.78463,   0.00170,276479457.01192,   0.00037,  -0.00160,   0.00039,-194084319.22729,   0.00000
-318163862.49780,-215244968.41427,-15135120.82515,  -0.00066,  -0.00196,   0.00019,282422883.17425,   0.00170,276479457.01192,   0.00037,  -0.00160,   0.00039,-194056573.83767,   0.00000
-318665988.22492,-213413686.35068,-15437873.10179,  -0.00066,  -0.00195,   0.00019,282490201.75788,   0.00170,276479457.01192,   0.00037,  -0.00160,   0.00039,-193989255.25403,   0.00000
-319179190.25483,-211608248.99363,-15740625.37843,  -0.00067,  -0.00195,   0.00018,282587612.66334,   0.00170,276479457.01192,   0.00037,  -0.00160,   0.00039,-193891844.34858,   0.00000
-319681315.98195,-209776966.93004,-16043377.65507,  -0.00067,  -0.00194,   0.00018,282688720.48805,   0.00170,276479457.01192,   0.00037,  -0.00160,   0.00039,-193790736.52387,   0.00000
-320194518.01186,-207971529.57300,-16346129.93172,  -0.00068,  -0.00193,   0.00018,282819608.04937,   0.00170,276479457.01192,   0.00037,  -0.00160,   0.00039,-193659848.96254,   0.00000
-320744641.05113,-206203013.22530,-16648882.20836,  -0.00069,  -0.00192,   0.00017,283001504.94646,   0.00170,276479457.01192,   0.00037,  -0.00160,   0.00039,-193477952.06545,   0.00000
-321283687.78759,-204408652.17106,-16959018.68687,  -0.00069,  -0.00191,   0.00017,283188567.00093,   0.00170,276479457.01192,   0.00037,  -0.00160,   0.00039,-193290890.01099,   0.00000
-321833810.82685,-202640135.82336,-17261770.96351,  -0.00070,  -0.00190,   0.00016,283403397.13866,   0.00170,276479457.01192,   0.00037,  -0.00160,   0.00039,-193076059.87326,   0.00000
-322409778.57266,-200882695.77846,-17571907.44202,  -0.00070,  -0.00189,   0.00016,283657704.12758,   0.00170,276479457.01192,   0.00037,  -0.00160,   0.00039,-192821752.88433,   0.00000
-322985746.31846,-199125255.73356,-17882043.92053,  -0.00071,  -0.00188,   0.00016,283928411.65727,   0.00170,276479457.01192,   0.00037,  -0.00160,   0.00039,-192551045.35465,   0.00000
-323572790.36707,-197393660.39521,-18192180.39904,  -0.00072,  -0.00187,   0.00015,284227473.37004,   0.00170,276479457.01192,   0.00037,  -0.00160,   0.00039,-192251983.64187,   0.00000
-324148758.11288,-195636220.35031,-18502316.87755,  -0.00072,  -0.00186,   0.00015,284530696.79762,   0.00170,276479457.01192,   0.00037,  -0.00160,   0.00039,-191948760.21430,   0.00000
-324746878.46429,-193930469.71850,-18812453.35607,  -0.00073,  -0.00185,   0.00014,284873608.25666,   0.00170,276479457.01192,   0.00037,  -0.00160,   0.00039,-191605848.75526,   0.00000
-325359767.21945,-192209950.68295,-19129974.03645,  -0.00073,  -0.00184,   0.00014,285243976.57983,   0.00170,276479457.01192,   0.00037,  -0.00160,   0.00039,-191235480.43209,   0.00000
-325972655.97460,-190489431.64740,-19440110.51496,  -0.00074,  -0.00184,   0.00014,285628786.59860,   0.00170,276479457.01192,   0.00037,  -0.00160,   0.00039,-190850670.41331,   0.00000
-326622465.73910,-188805833.62120,-19757631.19534,  -0.00075,  -0.00183,   0.00013,286064228.77206,   0.00170,276479457.01192,   0.00037,  -0.00160,   0.00039,-190415228.23985,   0.00000
-327257507.09986,-187137003.99874,-20075151.87572,  -0.00075,  -0.00182,   0.00013,286504415.27588,   0.00170,276479457.01192,   0.00037,  -0.00160,   0.00039,-189975041.73603,   0.00000
-327907316.86436,-185453405.97253,-20392672.55610,  -0.00076,  -0.00181,   0.00012,286970780.33508,   0.00170,276479457.01192,   0.00037,  -0.00160,   0.00039,-189508676.67683,   0.00000
-328568202.93166,-183795652.65287,-20710193.23648,  -0.00076,  -0.00180,   0.00012,287463449.71963,   0.00170,276479457.01192,   0.00037,  -0.00160,   0.00039,-189016007.29229,   0.00000
-329254933.70551,-182148975.63602,-21035098.11873,  -0.00077,  -0.00179,   0.00012,287994857.34245,   0.00170,276479457.01192,   0.00037,  -0.00160,   0.00039,-188484599.66946,   0.00000
-329915819.77281,-180491222.31636,-21360003.00098,  -0.00078,  -0.00178,   0.00011,288519269.86239,   0.00170,276479457.01192,   0.00037,  -0.00160,   0.00039,-187960187.14953,   0.00000
-330613626.84946,-178870390.00604,-21677523.68136,  -0.00078,  -0.00177,   0.00011,289089507.59663,   0.00170,276479457.01192,   0.00037,  -0.00160,   0.00039,-187389949.41529,   0.00000
-331311433.92611,-177249557.69573,-22002428.56361,  -0.00079,  -0.00177,   0.00010,289676004.21619,   0.00170,276479457.01192,   0.00037,  -0.00160,   0.00039,-186803452.79573,   0.00000
-332035085.70930,-175639801.68822,-22327333.44586,  -0.00080,  -0.00176,   0.00010,290299140.41891,   0.00170,276479457.01192,   0.00037,  -0.00160,   0.00039,-186180316.59301,   0.00000
-332769813.79530,-174055890.38725,-22659622.52998,  -0.00080,  -0.00175,   0.00009,290948502.65523,   0.00170,276479457.01192,   0.00037,  -0.00160,   0.00039,-185530954.35669,   0.00000
-333504541.88130,-172471979.08629,-22984527.41223,  -0.00081,  -0.00174,   0.00009,291610253.85598,   0.00170,276479457.01192,   0.00037,  -0.00160,   0.00039,-184869203.15593,   0.00000
-334239269.96729,-170888067.78532,-23316816.49634,  -0.00082,  -0.00173,   0.00009,292287769.28150,   0.00170,276479457.01192,   0.00037,  -0.00160,   0.00039,-184191687.73042,   0.00000
-335010919.06264,-169341077.49370,-23649105.58046,  -0.00082,  -0.00172,   0.00008,293011001.49306,   0.00170,276479457.01192,   0.00037,  -0.00160,   0.00039,-183468455.51886,   0.00000
-335756723.45144,-167783010.89927,-23981394.66458,  -0.00083,  -0.00171,   0.00008,293725661.06673,   0.00170,276479457.01192,   0.00037,  -0.00160,   0.00039,-182753795.94518,   0.00000
-336539448.84958,-166261865.31420,-24313683.74870,  -0.00084,  -0.00171,   0.00007,294485309.69216,   0.00170,276479457.01192,   0.00037,  -0.00160,   0.00039,-181994147.31975,   0.00000
-337336942.65147,-164725951.32538,-24645972.83282,  -0.00084,  -0.00170,   0.00007,295271019.66272,   0.00170,276479457.01192,   0.00037,  -0.00160,   0.00039,-181208437.34920,   0.00000
-338156589.05896,-163241726.74965,-24985646.11881,  -0.00085,  -0.00169,   0.00006,296090057.41896,   0.00170,276479457.01192,   0.00037,  -0.00160,   0.00039,-180389399.59295,   0.00000
-338939314.45711,-161720581.16457,-25317935.20293,  -0.00085,  -0.00168,   0.00006,296888760.09737,   0.00170,276479457.01192,   0.00037,  -0.00160,   0.00039,-179590696.91454,   0.00000
-339784805.57115,-160247432.89164,-25657608.48892,  -0.00086,  -0.00167,   0.00006,297755351.98739,   0.00170,276479457.01192,   0.00037,  -0.00160,   0.00039,-178724105.02453,   0.00000
-340604451.97864,-158763208.31591,-25997281.77490,  -0.00087,  -0.00166,   0.00005,298612239.26469,   0.00170,276479457.01192,   0.00037,  -0.00160,   0.00039,-177867217.74723,   0.00000
-341461019.39548,-157315904.74953,-26344339.26276,  -0.00087,  -0.00165,   0.00005,299514181.77516,   0.00170,276479457.01192,   0.00037,  -0.00160,   0.00039,-176965275.23676,   0.00000
-342317586.81232,-155868601.18314,-26684012.54875,  -0.00088,  -0.00165,   0.00004,300426192.65983,   0.00170,276479457.01192,   0.00037,  -0.00160,   0.00039,-176053264.35209,   0.00000
-343174154.22916,-154421297.61676,-27031070.03661,  -0.00089,  -0.00164,   0.00004,301352078.68192,   0.00170,276479457.01192,   0.00037,  -0.00160,   0.00039,-175127378.33000,   0.00000
-344067642.65535,-153010915.05972,-27378127.52447,  -0.00090,  -0.00163,   0.00003,302320134.30290,   0.00170,276479457.01192,   0.00037,  -0.00160,   0.00039,-174159322.70902,   0.00000
-344961131.08153,-151600532.50268,-27725185.01232,  -0.00090,  -0.00162,   0.00003,303299637.15666,   0.00170,276479457.01192,   0.00037,  -0.00160,   0.00039,-173179819.85525,   0.00000
-345865695.81052,-150215994.65218,-28072242.50018,  -0.00091,  -0.00161,   0.00002,304298402.02105,   0.00170,276479457.01192,   0.00037,  -0.00160,   0.00039,-172181054.99087,   0.00000
-346770260.53951,-148831456.80169,-28426684.18991,  -0.00092,  -0.00161,   0.00002,305310206.50947,   0.00170,276479457.01192,   0.00037,  -0.00160,   0.00039,-171169250.50244,   0.00000
-347700669.97505,-147457995.25400,-28773741.67777,  -0.00092,  -0.00160,   0.00002,306352994.35920,   0.00170,276479457.01192,   0.00037,  -0.00160,   0.00039,-170126462.65271,   0.00000
-348642155.71338,-146110378.41285,-29128183.36749,  -0.00093,  -0.00159,   0.00001,307416185.84150,   0.00170,276479457.01192,   0.00037,  -0.00160,   0.00039,-169063271.17041,   0.00000
-349583641.45172,-144762761.57170,-29482625.05722,  -0.00094,  -0.00158,   0.00001,308489808.11765,   0.00170,276479457.01192,   0.00037,  -0.00160,   0.00039,-167989648.89427,   0.00000
-350562048.19941,-143452065.73990,-29837066.74695,  -0.00094,  -0.00157,   0.00000,309603208.11448,   0.00170,276479457.01192,   0.00037,  -0.00160,   0.00039,-166876248.89744,   0.00000
-351540454.94709,-142141369.90809,-30198892.63854,  -0.00095,  -0.00157,  -0.00000,310728720.92751,   0.00170,276479457.01192,   0.00037,  -0.00160,   0.00039,-165750736.08441,   0.00000
-352529937.99758,-140856518.78283,-30560718.53014,  -0.00096,  -0.00156,  -0.00001,311871205.44603,   0.00170,276479457.01192,   0.00037,  -0.00160,   0.00039,-164608251.56588,   0.00000
-353519421.04806,-139571667.65757,-30922544.42173,  -0.00096,  -0.00155,  -0.00001,313023238.09327,   0.00170,276479457.01192,   0.00037,  -0.00160,   0.00039,-163456218.91864,   0.00000
-354534748.80509,-138297892.83512,-31284370.31333,  -0.00097,  -0.00154,  -0.00002,314206814.14326,   0.00170,276479457.01192,   0.00037,  -0.00160,   0.00039,-162272642.86865,   0.00000
-355561152.86493,-137049962.71920,-31646196.20493,  -0.00098,  -0.00154,  -0.00002,315406449.15118,   0.00170,276479457.01192,   0.00037,  -0.00160,   0.00039,-161073007.86073,   0.00000
-356598633.22757,-135827877.30983,-32015406.29839,  -0.00099,  -0.00153,  -0.00003,316623942.22915,   0.00170,276479457.01192,   0.00037,  -0.00160,   0.00039,-159855514.78276,   0.00000
-357625037.28740,-134579947.19392,-32377232.18999,  -0.00099,  -0.00152,  -0.00003,317841354.04479,   0.00170,276479457.01192,   0.00037,  -0.00160,   0.00039,-158638102.96713,   0.00000
-358699438.65939,-133394782.79389,-32746442.28345,  -0.00100,  -0.00151,  -0.00004,319104700.85788,   0.00170,276479457.01192,   0.00037,  -0.00160,   0.00039,-157374756.15403,   0.00000
-359773840.03137,-132209618.39387,-33115652.37692,  -0.00101,  -0.00150,  -0.00004,320376304.31287,   0.00170,276479457.01192,   0.00037,  -0.00160,   0.00039,-156103152.69905,   0.00000
-360874086.10990,-131035530.29665,-33492246.67226,  -0.00101,  -0.00150,  -0.00005,321680401.55333,   0.00170,276479457.01192,   0.00037,  -0.00160,   0.00039,-154799055.45858,   0.00000
-361948487.48188,-129850365.89663,-33868840.96759,  -0.00102,  -0.00149,  -0.00005,322970550.89299,   0.00170,276479457.01192,   0.00037,  -0.00160,   0.00039,-153508906.11893,   0.00000
-363070886.16602,-128727967.21249,-34238051.06106,  -0.00103,  -0.00148,  -0.00006,324300344.14910,   0.00170,276479457.01192,   0.00037,  -0.00160,   0.00039,-152179112.86281,   0.00000
-364182208.54735,-127579723.82181,-34614645.35639,  -0.00104,  -0.00148,  -0.00006,325634031.36809,   0.00170,276479457.01192,   0.00037,  -0.00160,   0.00039,-150845425.64383,   0.00000
-365330451.93803,-126468401.44048,-34998623.85359,  -0.00104,  -0.00147,  -0.00007,327005425.69957,   0.00170,276479457.01192,   0.00037,  -0.00160,   0.00039,-149474031.31234,   0.00000
-366489771.63151,-125382923.76569,-35375218.14893,  -0.00105,  -0.00146,  -0.00007,328387407.43582,   0.00170,276479457.01192,   0.00037,  -0.00160,   0.00039,-148092049.57609,   0.00000
-367649091.32499,-124297446.09090,-35759196.64613,  -0.00106,  -0.00145,  -0.00008,329778754.29112,   0.00170,276479457.01192,   0.00037,  -0.00160,   0.00039,-146700702.72079,   0.00000
-368819487.32128,-123237813.12266,-36143175.14334,  -0.00107,  -0.00145,  -0.00008,331182507.21470,   0.00170,276479457.01192,   0.00037,  -0.00160,   0.00039,-145296949.79721,   0.00000
-369989883.31756,-122178180.15441,-36534537.84241,  -0.00107,  -0.00144,  -0.00009,332595321.99052,   0.00170,276479457.01192,   0.00037,  -0.00160,   0.00039,-143884135.02139,   0.00000
-371197200.32319,-121155468.19551,-36918516.33962,  -0.00108,  -0.00143,  -0.00009,334039472.14302,   0.00170,276479457.01192,   0.00037,  -0.00160,   0.00039,-142439984.86890,   0.00000
-372404517.32883,-120132756.23661,-37309879.03869,  -0.00109,  -0.00143,  -0.00010,335492330.41590,   0.00170,276479457.01192,   0.00037,  -0.00160,   0.00039,-140987126.59602,   0.00000
-373637679.04100,-119121120.58052,-37701241.73776,  -0.00110,  -0.00142,  -0.00010,336973245.87383,   0.00170,276479457.01192,   0.00037,  -0.00160,   0.00039,-139506211.13809,   0.00000
-374892993.35878,-118161174.33751,-38092604.43684,  -0.00110,  -0.00141,  -0.00011,338470327.77260,   0.00170,276479457.01192,   0.00037,  -0.00160,   0.00039,-138009129.23931,   0.00000
-376111386.66722,-117164307.08515,-38483967.13591,  -0.00111,  -0.00140,  -0.00011,339946271.06255,   0.00170,276479457.01192,   0.00037,  -0.00160,   0.00039,-136533185.94936,   0.00000
-377392545.69155,-116215437.14494,-38882714.03685,  -0.00112,  -0.00140,  -0.00012,341479015.54000,   0.00170,276479457.01192,   0.00037,  -0.00160,   0.00039,-135000441.47192,   0.00000
-378658936.31213,-115281335.60848,-39281460.93779,  -0.00113,  -0.00139,  -0.00012,343000244.88444,   0.00170,276479457.01192,   0.00037,  -0.00160,   0.00039,-133479212.12748,   0.00000
-379951171.63926,-114358310.37481,-39680207.83874,  -0.00113,  -0.00138,  -0.00013,344548543.24262,   0.00170,276479457.01192,   0.00037,  -0.00160,   0.00039,-131930913.76930,   0.00000
-381254483.26920,-113461129.84769,-40086338.94155,  -0.00114,  -0.00138,  -0.00013,346109214.37772,   0.00170,276479457.01192,   0.00037,  -0.00160,   0.00039,-130370242.63419,   0.00000
-382568871.20193,-112589794.02711,-40492470.04436,  -0.00115,  -0.00137,  -0.00014,347679411.11440,   0.00170,276479457.01192,   0.00037,  -0.00160,   0.00039,-128800045.89751,   0.00000
-383898027.53841,-111703689.80279,-40891216.94530,  -0.00116,  -0.00136,  -0.00014,349269034.62687,   0.00170,276479457.01192,   0.00037,  -0.00160,   0.00039,-127210422.38504,   0.00000
-385249336.48049,-110869274.99156,-41304732.24999,  -0.00116,  -0.00136,  -0.00015,350877436.56150,   0.00170,276479457.01192,   0.00037,  -0.00160,   0.00039,-125602020.45041,   0.00000
-386600645.42258,-110034860.18033,-41710863.35280,  -0.00117,  -0.00135,  -0.00015,352487687.58109,   0.00170,276479457.01192,   0.00037,  -0.00160,   0.00039,-123991769.43082,   0.00000
-387977799.07120,-109211521.67190,-42124378.65748,  -0.00118,  -0.00135,  -0.00016,354126634.21209,   0.00170,276479457.01192,   0.00037,  -0.00160,   0.00039,-122352822.79983,   0.00000
-389351260.61889,-108428796.27375,-42537893.96216,  -0.00119,  -0.00134,  -0.00016,355756569.52266,   0.00170,276479457.01192,   0.00037,  -0.00160,   0.00039,-120722887.48926,   0.00000
-390739490.57032,-107631302.47187,-42951409.26684,  -0.00120,  -0.00133,  -0.00017,357408054.10580,   0.00170,276479457.01192,   0.00037,  -0.00160,   0.00039,-119071402.90612,   0.00000
-392164641.53110,-106870729.67933,-43372308.77339,  -0.00120,  -0.00133,  -0.00017,359091922.82694,   0.00170,276479457.01192,   0.00037,  -0.00160,   0.00039,-117387534.18497,   0.00000
-393575024.08814,-106124925.29053,-43793208.27994,  -0.00121,  -0.00132,  -0.00018,360761991.62423,   0.00170,276479457.01192,   0.00037,  -0.00160,   0.00039,-115717465.38769,   0.00000
-395011251.35172,-105390197.20453,-44214107.78649,  -0.00122,  -0.00131,  -0.00019,362457350.13290,   0.00170,276479457.01192,   0.00037,  -0.00160,   0.00039,-114022106.87902,   0.00000
-396458554.91811,-104681313.82508,-44635007.29304,  -0.00123,  -0.00131,  -0.00019,364160146.71299,   0.00170,276479457.01192,   0.00037,  -0.00160,   0.00039,-112319310.29892,   0.00000
-397942779.49384,-104009351.45497,-45063291.00146,  -0.00124,  -0.00130,  -0.00020,365894426.19104,   0.00170,276479457.01192,   0.00037,  -0.00160,   0.00039,-110585030.82088,   0.00000
-399401159.36303,-103326312.78206,-45484190.50802,  -0.00124,  -0.00130,  -0.00020,367607669.47156,   0.00170,276479457.01192,   0.00037,  -0.00160,   0.00039,-108871787.54036,   0.00000
-400896460.24156,-102680195.11850,-45919858.41831,  -0.00125,  -0.00129,  -0.00021,369354799.25857,   0.00170,276479457.01192,   0.00037,  -0.00160,   0.00039,-107124657.75334,   0.00000
-402391761.12010,-102034077.45493,-46348142.12673,  -0.00126,  -0.00128,  -0.00021,371102224.58759,   0.00170,276479457.01192,   0.00037,  -0.00160,   0.00039,-105377232.42433,   0.00000
-403923983.00798,-101424880.80071,-46783810.03701,  -0.00127,  -0.00128,  -0.00022,372880441.03985,   0.00170,276479457.01192,   0.00037,  -0.00160,   0.00039,-103599015.97206,   0.00000
-405430360.18932,-100804607.84369,-47219477.94730,  -0.00128,  -0.00127,  -0.00022,374640006.87566,   0.00170,276479457.01192,   0.00037,  -0.00160,   0.00039,-101839450.13625,   0.00000
-406973658.38000,-100221255.89602,-47655145.85759,  -0.00128,  -0.00127,  -0.00023,376427265.70915,   0.00170,276479457.01192,   0.00037,  -0.00160,   0.00039,-100052191.30277,   0.00000
-408553877.58004,-99674824.95769,-48098197.96975,  -0.00129,  -0.00126,  -0.00024,378244782.28558,   0.00170,276479457.01192,   0.00037,  -0.00160,   0.00039,-98234674.72633,   0.00000
-410108252.07353,-99117317.71655,-48533865.88004,  -0.00130,  -0.00126,  -0.00024,380040523.60631,   0.00170,276479457.01192,   0.00037,  -0.00160,   0.00039,-96438933.40560,   0.00000
-411699547.57636,-98596731.48477,-48984302.19407,  -0.00131,  -0.00125,  -0.00025,381869072.81632,   0.00170,276479457.01192,   0.00037,  -0.00160,   0.00039,-94610384.19560,   0.00000
-413290843.07920,-98076145.25298,-49427354.30623,  -0.00132,  -0.00125,  -0.00025,383697105.20719,   0.00170,276479457.01192,   0.00037,  -0.00160,   0.00039,-92782351.80473,   0.00000
-414893214.88484,-97581403.72774,-49877790.62026,  -0.00133,  -0.00124,  -0.00026,385533435.38123,   0.00170,276479457.01192,   0.00037,  -0.00160,   0.00039,-90946021.63069,   0.00000
-416532507.69983,-97123583.21184,-50328226.93428,  -0.00133,  -0.00123,  -0.00027,387396414.53379,   0.00170,276479457.01192,   0.00037,  -0.00160,   0.00039,-89083042.47812,   0.00000
-418171800.51481,-96665762.69594,-50778663.24831,  -0.00134,  -0.00123,  -0.00027,389261411.28109,   0.00170,276479457.01192,   0.00037,  -0.00160,   0.00039,-87218045.73083,   0.00000
-419822169.63260,-96233786.88659,-51236483.76421,  -0.00135,  -0.00122,  -0.00028,391134312.55316,   0.00170,276479457.01192,   0.00037,  -0.00160,   0.00039,-85345144.45876,   0.00000
-421472538.75040,-95801811.07723,-51686920.07824,  -0.00136,  -0.00122,  -0.00028,393006193.99228,   0.00170,276479457.01192,   0.00037,  -0.00160,   0.00039,-83473263.01964,   0.00000
-423170905.18034,-95432600.98377,-52152124.79600,  -0.00137,  -0.00121,  -0.00029,394912937.92667,   0.00170,276479457.01192,   0.00037,  -0.00160,   0.00039,-81566519.08525,   0.00000
-424832350.60093,-95026469.88096,-52609945.31190,  -0.00138,  -0.00121,  -0.00029,396794224.45832,   0.00170,276479457.01192,   0.00037,  -0.00160,   0.00039,-79685232.55360,   0.00000
-426567638.04022,-94694180.79684,-53075150.02967,  -0.00138,  -0.00120,  -0.00030,398728453.10230,   0.00170,276479457.01192,   0.00037,  -0.00160,   0.00039,-77751003.90962,   0.00000
-428277080.77297,-94350815.40991,-53540354.74743,  -0.00139,  -0.00120,  -0.00031,400642922.37735,   0.00170,276479457.01192,   0.00037,  -0.00160,   0.00039,-75836534.63456,   0.00000
-429986523.50571,-94007450.02299,-54005559.46520,  -0.00140,  -0.00119,  -0.00031,402558909.72226,   0.00170,276479457.01192,   0.00037,  -0.00160,   0.00039,-73920547.28965,   0.00000
-431732887.24780,-93701005.64541,-54478148.38484,  -0.00141,  -0.00119,  -0.00032,404503355.53527,   0.00170,276479457.01192,   0.00037,  -0.00160,   0.00039,-71976101.47665,   0.00000
-433490327.29270,-93420405.97438,-54950737.30447,  -0.00142,  -0.00118,  -0.00033,406451896.70859,   0.00170,276479457.01192,   0.00037,  -0.00160,   0.00039,-70027560.30332,   0.00000
-435284688.34694,-93176727.31269,-55423326.22411,  -0.00143,  -0.00118,  -0.00033,408425629.68273,   0.00170,276479457.01192,   0.00037,  -0.00160,   0.00039,-68053827.32918,   0.00000
-437053204.69464,-92921972.34820,-55903299.34561,  -0.00144,  -0.00118,  -0.00034,410382367.44624,   0.00170,276479457.01192,   0.00037,  -0.00160,   0.00039,-66097089.56567,   0.00000
-438858642.05169,-92704138.39306,-56383272.46712,  -0.00144,  -0.00117,  -0.00034,412364126.63228,   0.00170,276479457.01192,   0.00037,  -0.00160,   0.00039,-64115330.37963,   0.00000
-440664079.40873,-92486304.43791,-56863245.58862,  -0.00145,  -0.00117,  -0.00035,414347005.88190,   0.00170,276479457.01192,   0.00037,  -0.00160,   0.00039,-62132451.13001,   0.00000
-442506437.77513,-92305391.49211,-57343218.71013,  -0.00146,  -0.00116,  -0.00036,416354700.93472,   0.00170,276479457.01192,   0.00037,  -0.00160,   0.00039,-60124756.07719,   0.00000
-444334027.73778,-92139246.95006,-57830576.03350,  -0.00147,  -0.00116,  -0.00036,418347813.30522,   0.00170,276479457.01192,   0.00037,  -0.00160,   0.00039,-58131643.70670,   0.00000
-446198538.70978,-92010023.41734,-58317933.35688,  -0.00148,  -0.00115,  -0.00037,420365539.04142,   0.00170,276479457.01192,   0.00037,  -0.00160,   0.00039,-56113917.97049,   0.00000
-448063049.68178,-91880799.88463,-58812674.88212,  -0.00149,  -0.00115,  -0.00038,422387237.79778,   0.00170,276479457.01192,   0.00037,  -0.00160,   0.00039,-54092219.21413,   0.00000
-449953405.36033,-91762652.65472,-59307416.40737,  -0.00150,  -0.00114,  -0.00038,424430962.92972,   0.00170,276479457.01192,   0.00037,  -0.00160,   0.00039,-52048494.08220,   0.00000
-451840068.93794,-91685118.53509,-59802157.93261,  -0.00151,  -0.00114,  -0.00039,426459251.11239,   0.00170,276479457.01192,   0.00037,  -0.00160,   0.00039,-50020205.89952,   0.00000
-453752577.22209,-91618660.71827,-60296899.45785,  -0.00151,  -0.00114,  -0.00039,428509422.48408,   0.00170,276479457.01192,   0.00037,  -0.00160,   0.00039,-47970034.52784,   0.00000
-455665085.50624,-91552202.90145,-60799025.18497,  -0.00152,  -0.00113,  -0.00040,430563465.74282,   0.00170,276479457.01192,   0.00037,  -0.00160,   0.00039,-45915991.26909,   0.00000
-457599746.39600,-91537434.49771,-61301150.91208,  -0.00153,  -0.00113,  -0.00041,432622949.36081,   0.00170,276479457.01192,   0.00037,  -0.00160,   0.00039,-43856507.65110,   0.00000
-459560251.99230,-91533742.39677,-61803276.63919,  -0.00154,  -0.00113,  -0.00041,434704171.24379,   0.00170,276479457.01192,   0.00037,  -0.00160,   0.00039,-41775285.76813,   0.00000
-461505989.18486,-91544818.69958,-62312786.56817,  -0.00155,  -0.00112,  -0.00042,436770420.11246,   0.00170,276479457.01192,   0.00037,  -0.00160,   0.00039,-39709036.89946,   0.00000
-463477571.08397,-91566971.30518,-62822296.49716,  -0.00156,  -0.00112,  -0.00043,438858353.56227,   0.00170,276479457.01192,   0.00037,  -0.00160,   0.00039,-37621103.44964,   0.00000
-465460229.28588,-91614968.61733,-63331806.42614,  -0.00157,  -0.00111,  -0.00043,440949153.91524,   0.00170,276479457.01192,   0.00037,  -0.00160,   0.00039,-35530303.09667,   0.00000
-467479808.49714,-91699886.93883,-63848700.55699,  -0.00158,  -0.00111,  -0.00044,443066998.00390,   0.00170,276479457.01192,   0.00037,  -0.00160,   0.00039,-33412459.00801,   0.00000
-469473543.00185,-91773728.95752,-64365594.68784,  -0.00159,  -0.00111,  -0.00045,445164325.34049,   0.00170,276479457.01192,   0.00037,  -0.00160,   0.00039,-31315131.67142,   0.00000
-471504198.51591,-91884491.98556,-64882488.81869,  -0.00159,  -0.00110,  -0.00045,447285431.68966,   0.00170,276479457.01192,   0.00037,  -0.00160,   0.00039,-29194025.32226,   0.00000
-473545930.33277,-92021099.72015,-65406767.15142,  -0.00160,  -0.00110,  -0.00046,449412448.89168,   0.00170,276479457.01192,   0.00037,  -0.00160,   0.00039,-27067008.12024,   0.00000
-475613506.85618,-92168783.75753,-65931045.48414,  -0.00161,  -0.00110,  -0.00047,451560939.86713,   0.00170,276479457.01192,   0.00037,  -0.00160,   0.00039,-24918517.14479,   0.00000
-477677391.27865,-92357080.90520,-66462708.01873,  -0.00162,  -0.00109,  -0.00047,453696490.76310,   0.00170,276479457.01192,   0.00037,  -0.00160,   0.00039,-22782966.24882,   0.00000
-479756044.10487,-92530609.64913,-66986986.35145,  -0.00163,  -0.00109,  -0.00048,455848028.79321,   0.00170,276479457.01192,   0.00037,  -0.00160,   0.00039,-20631428.21870,   0.00000
-481856849.53668,-92755827.80614,-67518648.88604,  -0.00164,  -0.00109,  -0.00049,458007576.26569,   0.00170,276479457.01192,   0.00037,  -0.00160,   0.00039,-18471880.74622,   0.00000
-483957654.96850,-92981045.96316,-68057695.62250,  -0.00165,  -0.00108,  -0.00050,460170780.85261,   0.00170,276479457.01192,   0.00037,  -0.00160,   0.00039,-16308676.15931,   0.00000
-486069536.70313,-93232108.82671,-68589358.15709,  -0.00166,  -0.00108,  -0.00050,462333248.68650,   0.00170,276479457.01192,   0.00037,  -0.00160,   0.00039,-14146208.32541,   0.00000
-488207263.14429,-93494247.99307,-69128404.89355,  -0.00167,  -0.00108,  -0.00051,464520337.93105,   0.00170,276479457.01192,   0.00037,  -0.00160,   0.00039,-11959119.08087,   0.00000
-490341297.48452,-93797000.26972,-69674835.83188,  -0.00168,  -0.00108,  -0.00052,466694408.27011,   0.00170,276479457.01192,   0.00037,  -0.00160,   0.00039,-9785048.74180,   0.00000
-492501176.53130,-94110828.84916,-70221266.77021,  -0.00169,  -0.00107,  -0.00052,468889797.26507,   0.00170,276479457.01192,   0.00037,  -0.00160,   0.00039,-7589659.74685,   0.00000
-494686900.28461,-94435733.73141,-70767697.70854,  -0.00169,  -0.00107,  -0.00053,471106482.48543,   0.00170,276479457.01192,   0.00037,  -0.00160,   0.00039,-5372974.52649,   0.00000
-496868931.93699,-94801251.72394,-71314128.64686,  -0.00170,  -0.00107,  -0.00054,473306804.29955,   0.00170,276479457.01192,   0.00037,  -0.00160,   0.00039,-3172652.71236,   0.00000
-499076808.29592,-95177846.01928,-71867943.78706,  -0.00171,  -0.00106,  -0.00055,475531735.39993,   0.00170,276479457.01192,   0.00037,  -0.00160,   0.00039,-947721.61199,   0.00000
-500014991.01065,-95335003.52987,-72106061.22735,  -0.00172,  -0.00106,  -0.00055,476479459.57575,   0.00170,276479457.01192,   0.00037,  -0.00160,   0.00039,  -5.84488,   0.00000
-499995468.86904,-95415187.73260,-72219122.32841,  -0.00172,  -0.00106,  -0.00055,476486275.04020,   0.00170,276486281.09946,   0.00037,  -0.00160,   0.00039,  -6.05926,   1.00000
-499980596.26394,-95615181.36659,-72419159.94635,  -0.00173,  -0.00106,  -0.00056,476498403.29078,   0.00171,276498409.82254,   0.00036,  -0.00160,   0.00038,  -6.53176,   1.00000
-499968923.88756,-95814570.52927,-72611349.34590,  -0.00174,  -0.00106,  -0.00057,476510517.42876,   0.00173,276510521.77120,   0.00035,  -0.00160,   0.00038,  -4.34244,   1.00000
-499963960.69828,-96046720.25279,-72812396.83241,  -0.00175,  -0.00105,  -0.00057,476522791.89585,   0.00174,276522797.30958,   0.00034,  -0.00159,   0.00037,  -5.41373,   1.00000
-499957362.77728,-96269233.56758,-73008976.76229,  -0.00176,  -0.00105,  -0.00058,476534940.85901,   0.00175,276534942.32104,   0.00033,  -0.00159,   0.00037,  -1.46203,   1.00000
-499969622.31703,-96550218.27331,-73207198.76365,  -0.00177,  -0.00105,  -0.00059,476547241.70451,   0.00176,276547244.34600,   0.00032,  -0.00159,   0.00036,  -2.64149,   1.00000
-499981524.01869,-96829867.94875,-73404354.62671,  -0.00178,  -0.00105,  -0.00060,476559545.67501,   0.00177,276559547.80955,   0.00031,  -0.00158,   0.00036,  -2.13454,   1.00000
-499989641.81967,-97107829.13414,-73607235.80947,  -0.00179,  -0.00105,  -0.00060,476571861.51721,   0.00178,276571871.44505,   0.00030,  -0.00158,   0.00035,  -9.92784,   1.00000
-500015045.71828,-97435455.70323,-73808295.91413,  -0.00180,  -0.00104,  -0.00061,476584214.77422,   0.00179,276584220.31105,   0.00029,  -0.00158,   0.00035,  -5.53682,   1.00000
-500044763.59564,-97770337.03188,-74004814.75746,  -0.00181,  -0.00104,  -0.00062,476596681.85671,   0.00181,276596684.20928,   0.00028,  -0.00157,   0.00034,  -2.35257,   1.00000
-500065748.26745,-98094443.38384,-74210479.78552,  -0.00182,  -0.00104,  -0.00063,476609050.59749,   0.00182,276609054.79675,   0.00027,  -0.00157,   0.00034,  -4.19927,   1.00000
-500108590.58701,-98476755.42894,-74410807.08908,  -0.00183,  -0.00104,  -0.00063,476621555.33561,   0.00183,276621564.72530,   0.00026,  -0.00157,   0.00033,  -9.38969,   1.00000
-500150826.86524,-98857229.55458,-74610014.31838,  -0.00184,  -0.00104,  -0.00064,476634072.48709,   0.00184,276634076.03608,   0.00025,  -0.00156,   0.00033,  -3.54898,   1.00000
-500197702.84332,-99260969.53674,-74814490.25525,  -0.00184,  -0.00104,  -0.00065,476646616.38922,   0.00185,276646620.04792,   0.00024,  -0.00156,   0.00032,  -3.65869,   1.00000
-500252612.67893,-99688231.68785,-75017423.61283,  -0.00185,  -0.00103,  -0.00066,476659168.80983,   0.00187,276659178.03466,   0.00023,  -0.00156,   0.00032,  -9.22483,   1.00000
-500311567.07022,-100122144.07956,-75215702.19170,  -0.00186,  -0.00103,  -0.00066,476671843.77205,   0.00188,276671851.01911,   0.00022,  -0.00155,   0.00031,  -7.24706,   1.00000
-500370153.28998,-100570319.49504,-75422713.31228,  -0.00187,  -0.00103,  -0.00067,476684434.75194,   0.00189,276684443.64780,   0.00021,  -0.00155,   0.00031,  -8.89586,   1.00000
-500441373.84054,-101050454.28381,-75624616.74867,  -0.00188,  -0.00103,  -0.00068,476697160.43681,   0.00190,276697164.08358,   0.00020,  -0.00155,   0.00030,  -3.64677,   1.00000
-500508162.71292,-101527837.57739,-75832089.17252,  -0.00189,  -0.00103,  -0.00069,476709899.77148,   0.00191,276709905.38787,   0.00019,  -0.00154,   0.00030,  -5.61639,   1.00000
-500586217.27864,-102028730.16542,-76031190.59566,  -0.00190,  -0.00103,  -0.00070,476722636.81456,   0.00192,276722642.02000,   0.00018,  -0.00154,   0.00029,  -5.20544,   1.00000
-500664810.59810,-102551789.61728,-76242192.65491,  -0.00191,  -0.00103,  -0.00070,476735425.18066,   0.00194,276735431.88840,   0.00017,  -0.00154,   0.00029,  -6.70773,   1.00000
-500759256.94160,-103106705.56495,-76441218.45682,  -0.00192,  -0.00102,  -0.00071,476748328.28050,   0.00195,276748330.84812,   0.00016,  -0.00153,   0.00028,  -2.56763,   1.00000
-500844243.75443,-103649880.22895,-76649341.86934,  -0.00193,  -0.00102,  -0.00072,476761127.94766,   0.00196,276761137.53721,   0.00015,  -0.00153,   0.00028,  -9.58955,   1.00000
-500937836.26541,-104223906.96441,-76858941.13001,  -0.00194,  -0.00102,  -0.00073,476774087.63292,   0.00197,276774092.38678,   0.00014,  -0.00153,   0.00027,  -4.75387,   1.00000
-501042303.70136,-104820907.39411,-77060088.79010,  -0.00195,  -0.00102,  -0.00074,476787033.86470,   0.00199,276787043.29498,   0.00012,  -0.00152,   0.00027,  -9.43029,   1.00000
-501150375.00238,-105439897.17144,-77266279.64196,  -0.00196,  -0.00102,  -0.00074,476800021.16400,   0.00200,276800029.25596,   0.00011,  -0.00152,   0.00026,  -8.09196,   1.00000
-501253491.69644,-106055333.95034,-77477907.49515,  -0.00197,  -0.00102,  -0.00075,476813033.36951,   0.00201,276813036.96508,   0.00010,  -0.00152,   0.00026,  -3.59556,   1.00000
-501367304.06803,-106693513.36741,-77681041.84033,  -0.00198,  -0.00102,  -0.00076,476826040.61519,   0.00202,276826041.19821,   0.00009,  -0.00151,   0.00025,  -0.58302,   1.00000
-501477142.80974,-107335970.70478,-77892693.46144,  -0.00199,  -0.00102,  -0.00077,476839191.49127,   0.00203,276839200.45041,   0.00008,  -0.00151,   0.00024,  -8.95913,   1.00000
-501601216.07806,-108017998.88026,-78099001.69490,  -0.00200,  -0.00102,  -0.00078,476852252.43638,   0.00205,276852257.27079,   0.00007,  -0.00151,   0.00024,  -4.83440,   1.00000
-501724759.19141,-108704444.15073,-78307038.44525,  -0.00201,  -0.00102,  -0.00078,476865448.43323,   0.00206,276865449.71026,   0.00006,  -0.00150,   0.00023,  -1.27703,   1.00000
-501850317.53589,-109404418.64412,-78516909.93862,  -0.00202,  -0.00102,  -0.00079,476878539.28676,   0.00207,276878545.84639,   0.00005,  -0.00150,   0.00023,  -6.55963,   1.00000
-501975254.12089,-110108626.15930,-78728447.54120,  -0.00203,  -0.00102,  -0.00080,476891775.00136,   0.00208,276891777.86430,   0.00004,  -0.00150,   0.00022,  -2.86295,   1.00000
-502115000.32361,-110859899.84974,-78937616.35849,  -0.00204,  -0.00102,  -0.00081,476905036.79959,   0.00210,276905042.27577,   0.00003,  -0.00149,   0.00022,  -5.47618,   1.00000
-502244709.24870,-111581938.12585,-79145880.88829,  -0.00205,  -0.00102,  -0.00082,476918284.61232,   0.00211,276918294.58529,   0.00002,  -0.00149,   0.00021,  -9.97297,   1.00000
-502385350.66442,-112350405.44741,-79358450.22297,  -0.00206,  -0.00102,  -0.00083,476931595.92734,   0.00212,276931599.94641,   0.00001,  -0.00149,   0.00021,  -4.01908,   1.00000
-502536853.92015,-113148341.52059,-79565349.81330,  -0.00207,  -0.00102,  -0.00083,476945028.10651,   0.00213,276945037.11555,  -0.00000,  -0.00148,   0.00020,  -9.00905,   1.00000
-502681721.75034,-113933958.01115,-79774549.97502,  -0.00208,  -0.00102,  -0.00084,476958361.35060,   0.00215,276958364.01670,  -0.00001,  -0.00148,   0.00019,  -2.66610,   1.00000
-502833562.56052,-114748327.32102,-79984730.44922,  -0.00209,  -0.00102,  -0.00085,476971834.96584,   0.00216,276971843.30708,  -0.00002,  -0.00148,   0.00019,  -8.34124,   1.00000
-502978726.19694,-115550333.39102,-80197197.67465,  -0.00210,  -0.00102,  -0.00086,476985210.04055,   0.00217,276985212.59962,  -0.00003,  -0.00147,   0.00018,  -2.55907,   1.00000
-503130687.95752,-116380873.18939,-80410564.38786,  -0.00211,  -0.00102,  -0.00087,476998726.00624,   0.00218,276998734.96595,  -0.00004,  -0.00147,   0.00018,  -8.95971,   1.00000
-503288473.85539,-117232256.43603,-80621880.15013,  -0.00212,  -0.00102,  -0.00088,477012273.54575,   0.00220,277012277.06955,  -0.00006,  -0.00147,   0.00017,  -3.52380,   1.00000
-503451940.33319,-118104344.64170,-80831130.12449,  -0.00213,  -0.00102,  -0.00089,477025833.43930,   0.00221,277025839.29507,  -0.00007,  -0.00146,   0.00016,  -5.85577,   1.00000
-503617177.70078,-118996440.86274,-81044966.07891,  -0.00214,  -0.00102,  -0.00089,477039434.94197,   0.00222,277039442.36460,  -0.00008,  -0.00146,   0.00016,  -7.42262,   1.00000
-503780019.75649,-119883723.93314,-81257247.05100,  -0.00215,  -0.00102,  -0.00090,477053048.78318,   0.00224,277053049.47098,  -0.00009,  -0.00146,   0.00015,  -0.68780,   1.00000
-503948278.81171,-120791437.61869,-81467397.60663,  -0.00216,  -0.00102,  -0.00091,477066675.27142,   0.00225,277066677.63927,  -0.00010,  -0.00145,   0.00015,  -2.36785,   1.00000
-504110246.50971,-121693643.00638,-81682648.63507,  -0.00217,  -0.00102,  -0.00092,477080324.76068,   0.00226,277080330.53500,  -0.00011,  -0.00145,   0.00014,  -5.77433,   1.00000
-504289745.08086,-122649083.08454,-81891276.05399,  -0.00218,  -0.00102,  -0.00093,477094134.33131,   0.00227,277094135.63445,  -0.00012,  -0.00145,   0.00013,  -1.30314,   1.00000
-504462052.66488,-123591559.49593,-82102164.88627,  -0.00219,  -0.00102,  -0.00094,477107829.32076,   0.00229,277107832.03521,  -0.00013,  -0.00144,   0.00013,  -2.71445,   1.00000
-504627889.60263,-124528258.84171,-82318103.05772,  -0.00220,  -0.00102,  -0.00095,477121548.48931,   0.00230,277121553.66216,  -0.00014,  -0.00144,   0.00012,  -5.17285,   1.00000
-504810824.76986,-125517746.35393,-82527289.04293,  -0.00221,  -0.00102,  -0.00096,477135428.05449,   0.00231,277135429.06777,  -0.00015,  -0.00144,   0.00012,  -1.01328,   1.00000
-504987036.90169,-126501088.28105,-82741472.59981,  -0.00222,  -0.00102,  -0.00097,477149323.48596,   0.00233,277149330.16037,  -0.00017,  -0.00143,   0.00011,  -6.67441,   1.00000
-505163510.89826,-127496538.46501,-82957246.95879,  -0.00223,  -0.00103,  -0.00097,477163133.04173,   0.00234,277163141.57079,  -0.00018,  -0.00143,   0.00010,  -8.52906,   1.00000
-505349052.31497,-128519044.89535,-83166777.87621,  -0.00224,  -0.00103,  -0.00098,477177085.43170,   0.00235,277177089.89458,  -0.00019,  -0.00143,   0.00010,  -4.46288,   1.00000
-505527691.68174,-129535129.15399,-83381254.80018,  -0.00225,  -0.00103,  -0.00099,477191054.88814,   0.00237,277191064.41467,  -0.00020,  -0.00142,   0.00009,  -9.52653,   1.00000
-505710775.47500,-130570557.11627,-83593354.34483,  -0.00226,  -0.00103,  -0.00100,477205058.43460,   0.00238,277205063.32437,  -0.00021,  -0.00142,   0.00008,  -4.88977,   1.00000
-505893748.09317,-131617833.16703,-83807005.94015,  -0.00227,  -0.00103,  -0.00101,477218966.68565,   0.00239,277218974.06432,  -0.00022,  -0.00142,   0.00008,  -7.37867,   1.00000
-506074090.46270,-132665794.55315,-84021587.09419,  -0.00228,  -0.00103,  -0.00102,477233022.81124,   0.00241,277233024.55640,  -0.00023,  -0.00141,   0.00007,  -1.74516,   1.00000
-506258576.71250,-133732798.73647,-84233716.80577,  -0.00229,  -0.00103,  -0.00103,477247094.01472,   0.00242,277247100.60385,  -0.00024,  -0.00141,   0.00007,  -6.58913,   1.00000
-506443111.98268,-134817986.91386,-84449983.28939,  -0.00230,  -0.00103,  -0.00104,477261221.40716,   0.00243,277261223.69776,  -0.00025,  -0.00141,   0.00006,  -2.29060,   1.00000
-506631514.54050,-135921906.66919,-84663724.43659,  -0.00231,  -0.00104,  -0.00105,477275364.44862,   0.00245,277275373.32263,  -0.00027,  -0.00141,   0.00005,  -8.87401,   1.00000
-506816582.58720,-137019423.69827,-84875668.73806,  -0.00232,  -0.00104,  -0.00106,477289526.61917,   0.00246,277289529.14405,  -0.00028,  -0.00140,   0.00005,  -2.52489,   1.00000
-507005680.85305,-138141840.69091,-85087644.32296,  -0.00233,  -0.00104,  -0.00107,477303836.37914,   0.00247,277303846.22980,  -0.00029,  -0.00140,   0.00004,  -9.85067,   1.00000
-507194030.55945,-139275589.35757,-85301065.66695,  -0.00234,  -0.00104,  -0.00108,477318072.47681,   0.00249,277318077.81181,  -0.00030,  -0.00140,   0.00003,  -5.33500,   1.00000
-507385830.81227,-140427608.45252,-85511875.63149,  -0.00235,  -0.00104,  -0.00109,477332335.34209,   0.00250,277332337.34613,  -0.00031,  -0.00139,   0.00003,  -2.00404,   1.00000
-507570002.23551,-141572050.92763,-85727415.96738,  -0.00236,  -0.00105,  -0.00110,477346620.51042,   0.00251,277346625.19551,  -0.00032,  -0.00139,   0.00002,  -4.68509,   1.00000
-507757479.16245,-142734604.97774,-85940286.94934,  -0.00237,  -0.00105,  -0.00110,477360933.31316,   0.00253,277360941.73732,  -0.00033,  -0.00139,   0.00001,  -8.42415,   1.00000
-507941343.04673,-143890242.66507,-86151280.93926,  -0.00238,  -0.00105,  -0.00111,477375257.44653,   0.00254,277375265.25909,  -0.00035,  -0.00138,   0.00001,  -7.81256,   1.00000
-508128525.97512,-145069779.29151,-86362066.42108,  -0.00239,  -0.00105,  -0.00112,477389742.46202,   0.00255,277389752.32857,  -0.00036,  -0.00138,  -0.00000,  -9.86655,   1.00000
-508314465.31989,-146260322.19325,-86574221.73144,  -0.00240,  -0.00105,  -0.00113,477404155.44227,   0.00257,277404156.28757,  -0.00037,  -0.00138,  -0.00001,  -0.84530,   1.00000
-508503268.65048,-147468494.33224,-86783615.45902,  -0.00241,  -0.00106,  -0.00114,477418587.18985,   0.00258,277418590.50586,  -0.00038,  -0.00138,  -0.00001,  -3.31601,   1.00000
-508684116.96001,-148668500.43302,-86997638.41365,  -0.00242,  -0.00106,  -0.00115,477433048.99693,   0.00259,277433054.00076,  -0.00039,  -0.00137,  -0.00002,  -5.00383,   1.00000
-508874208.37097,-149910736.05365,-87207975.15005,  -0.00243,  -0.00106,  -0.00116,477447561.91967,   0.00261,277447571.81943,  -0.00040,  -0.00137,  -0.00003,  -9.89976,   1.00000
-509053874.85221,-151126230.55159,-87419614.23668,  -0.00244,  -0.00106,  -0.00117,477462206.53426,   0.00262,277462208.40117,  -0.00041,  -0.00137,  -0.00004,  -1.86691,   1.00000
-509238318.43021,-152377223.38492,-87631653.03920,  -0.00245,  -0.00107,  -0.00118,477476786.87416,   0.00264,277476787.89594,  -0.00043,  -0.00137,  -0.00004,  -1.02178,   1.00000
-509418709.63524,-153620482.81854,-87841683.20259,  -0.00246,  -0.00107,  -0.00119,477491371.92253,   0.00265,277491375.64706,  -0.00044,  -0.00136,  -0.00005,  -3.72453,   1.00000
-509601399.29861,-154880710.87199,-88048803.20233,  -0.00247,  -0.00107,  -0.00120,477505988.46367,   0.00266,277505995.89044,  -0.00045,  -0.00136,  -0.00006,  -7.42676,   1.00000
-509782064.42273,-156156816.37019,-88259522.82183,  -0.00248,  -0.00107,  -0.00121,477520670.11733,   0.00268,277520671.01643,  -0.00046,  -0.00136,  -0.00006,  -0.89910,   1.00000
-509954348.79251,-157423980.83996,-88474714.73465,  -0.00249,  -0.00108,  -0.00122,477535369.79418,   0.00269,277535376.88424,  -0.00047,  -0.00135,  -0.00007,  -7.09006,   1.00000
-510132871.22945,-158708716.39363,-88680360.49532,  -0.00250,  -0.00108,  -0.00123,477550090.35476,   0.00271,277550094.47460,  -0.00048,  -0.00135,  -0.00008,  -4.11984,   1.00000
-510307062.86560,-159990460.89831,-88886256.38214,  -0.00251,  -0.00108,  -0.00124,477564952.15032,   0.00272,277564955.07673,  -0.00050,  -0.00135,  -0.00009,  -2.92641,   1.00000
-510480772.11167,-161306100.19331,-89098882.74543,  -0.00252,  -0.00109,  -0.00125,477579780.56210,   0.00273,277579785.64891,  -0.00051,  -0.00135,  -0.00009,  -5.08681,   1.00000
-510650299.65008,-162608339.87190,-89307128.90919,  -0.00253,  -0.00109,  -0.00126,477594486.01238,   0.00275,277594491.01281,  -0.00052,  -0.00134,  -0.00010,  -5.00043,   1.00000
-510821247.94475,-163931683.46262,-89514516.58070,  -0.00254,  -0.00109,  -0.00127,477609362.45712,   0.00276,277609366.26543,  -0.00053,  -0.00134,  -0.00011,  -3.80831,   1.00000
-510983537.42149,-165245469.04667,-89726282.12848,  -0.00255,  -0.00109,  -0.00128,477624270.06351,   0.00278,277624273.08987,  -0.00054,  -0.00134,  -0.00012,  -3.02636,   1.00000
-511151557.28915,-166576206.35029,-89928372.27374,  -0.00256,  -0.00110,  -0.00129,477639190.37001,   0.00279,277639193.74628,  -0.00055,  -0.00134,  -0.00012,  -3.37627,   1.00000
-511316583.04022,-167921647.75285,-90133793.10277,  -0.00257,  -0.00110,  -0.00130,477654170.61486,   0.00280,277654173.17499,  -0.00057,  -0.00133,  -0.00013,  -2.56014,   1.00000
-511472814.58106,-169257217.32895,-90343545.03666,  -0.00258,  -0.00110,  -0.00131,477669183.35537,   0.00282,277669184.59368,  -0.00058,  -0.00133,  -0.00014,  -1.23831,   1.00000
-511636115.49932,-170628156.02729,-90546797.09149,  -0.00259,  -0.00111,  -0.00132,477684124.45723,   0.00283,277684126.71317,  -0.00059,  -0.00133,  -0.00015,  -2.25595,   1.00000
-511784603.89705,-171969131.89303,-90757587.98418,  -0.00260,  -0.00111,  -0.00133,477699202.83775,   0.00285,277699207.74681,  -0.00060,  -0.00133,  -0.00015,  -4.90905,   1.00000
-511939956.49872,-173345385.27331,-90961823.38987,  -0.00261,  -0.00112,  -0.00134,477714216.45438,   0.00286,277714220.79212,  -0.00061,  -0.00132,  -0.00016,  -4.33774,   1.00000
-512090297.68918,-174716802.22885,-91165964.85611,  -0.00262,  -0.00112,  -0.00135,477729373.33624,   0.00288,277729378.42771,  -0.00063,  -0.00132,  -0.00017,  -5.09147,   1.00000
-512237430.86952,-176097870.54155,-91371121.36924,  -0.00263,  -0.00112,  -0.00136,477744461.26156,   0.00289,277744463.19685,  -0.00064,  -0.00132,  -0.00018,  -1.93529,   1.00000
-512379918.78939,-177469674.29737,-91574046.36379,  -0.00264,  -0.00113,  -0.00137,477759549.43055,   0.00290,277759558.30910,  -0.00065,  -0.00132,  -0.00018,  -8.87855,   1.00000
-512527840.57470,-178884633.03750,-91774477.78991,  -0.00265,  -0.00113,  -0.00138,477774851.72334,   0.00292,277774856.92697,  -0.00066,  -0.00132,  -0.00019,  -5.20364,   1.00000
-512666993.52172,-180284743.76174,-91977045.86696,  -0.00265,  -0.00113,  -0.00139,477790046.37698,   0.00293,277790054.53501,  -0.00067,  -0.00131,  -0.00020,  -8.15803,   1.00000
-512801431.22913,-181675318.48818,-92177354.35095,  -0.00266,  -0.00114,  -0.00141,477805253.05201,   0.00295,277805262.67777,  -0.00069,  -0.00131,  -0.00021,  -9.62576,   1.00000
-512931835.32698,-183079237.44491,-92380643.58881,  -0.00267,  -0.00114,  -0.00142,477820526.48676,   0.00296,277820534.41627,  -0.00070,  -0.00131,  -0.00022,  -7.92951,   1.00000
-513062487.74974,-184497512.25816,-92580410.49726,  -0.00268,  -0.00115,  -0.00143,477835843.11572,   0.00298,277835847.56422,  -0.00071,  -0.00131,  -0.00022,  -4.44850,   1.00000
-513189341.67516,-185925033.98121,-92781085.61435,  -0.00269,  -0.00115,  -0.00144,477851088.12629,   0.00299,277851091.17337,  -0.00072,  -0.00131,  -0.00023,  -3.04708,   1.00000
-513310798.01971,-187346276.49157,-92981419.21248,  -0.00270,  -0.00115,  -0.00145,477866476.06134,   0.00301,277866480.20874,  -0.00073,  -0.00130,  -0.00024,  -4.14740,   1.00000
-513428350.52828,-188776700.68754,-93182624.68092,  -0.00271,  -0.00116,  -0.00146,477881793.35874,   0.00302,277881800.55483,  -0.00075,  -0.00130,  -0.00025,  -7.19609,   1.00000
-513544963.67126,-190201857.31922,-93377017.00421,  -0.00272,  -0.00116,  -0.00147,477897240.25820,   0.00304,277897243.28482,  -0.00076,  -0.00130,  -0.00026,  -3.02662,   1.00000
-513657708.63737,-191658665.08249,-93577389.64972,  -0.00273,  -0.00117,  -0.00148,477912668.12881,   0.00305,277912673.24894,  -0.00077,  -0.00130,  -0.00026,  -5.12014,   1.00000
-513765482.94611,-193105152.69242,-93775379.10691,  -0.00274,  -0.00117,  -0.00149,477928106.11088,   0.00307,277928114.93753,  -0.00078,  -0.00130,  -0.00027,  -8.82665,   1.00000
-513868374.76783,-194541369.78644,-93971009.86935,  -0.00275,  -0.00118,  -0.00150,477943559.13146,   0.00308,277943568.05400,  -0.00079,  -0.00129,  -0.00028,  -8.92254,   1.00000
-513970907.51616,-195991080.72053,-94162941.62601,  -0.00276,  -0.00118,  -0.00151,477959059.54273,   0.00310,277959065.48243,  -0.00081,  -0.00129,  -0.00029,  -5.93970,   1.00000
-514068404.82686,-197452713.42184,-94357550.73181,  -0.00277,  -0.00119,  -0.00152,477974622.34066,   0.00311,277974630.90123,  -0.00082,  -0.00129,  -0.00030,  -8.56057,   1.00000
-514161436.61307,-198923104.04255,-94552926.84118,  -0.00278,  -0.00119,  -0.00153,477990128.76271,   0.00312,277990130.89786,  -0.00083,  -0.00129,  -0.00030,  -2.13515,   1.00000
-514248769.66519,-200385737.13378,-94747727.91817,  -0.00279,  -0.00120,  -0.00154,478005771.72905,   0.00314,278005776.93321,  -0.00084,  -0.00129,  -0.00031,  -5.20417,   1.00000
-514331919.79401,-201834929.27062,-94938308.78836,  -0.00280,  -0.00120,  -0.00156,478021299.90849,   0.00315,278021300.67545,  -0.00086,  -0.00129,  -0.00032,  -0.76696,   1.00000
-514413908.12167,-203319194.09579,-95130017.69755,  -0.00281,  -0.00121,  -0.00157,478036926.53101,   0.00317,278036928.60714,  -0.00087,  -0.00128,  -0.00033,  -2.07613,   1.00000
-514486288.70182,-204791109.03490,-95325673.95049,  -0.00282,  -0.00121,  -0.00158,478052585.28509,   0.00318,278052592.12076,  -0.00088,  -0.00128,  -0.00034,  -6.83567,   1.00000
-514562315.76814,-206277075.61706,-95511032.31814,  -0.00283,  -0.00122,  -0.00159,478068270.12241,   0.00320,278068279.60315,  -0.00089,  -0.00128,  -0.00035,  -9.48074,   1.00000
-514628748.40830,-207750557.32812,-95700359.27228,  -0.00284,  -0.00122,  -0.00160,478083998.63839,   0.00321,278084002.44840,  -0.00090,  -0.00128,  -0.00036,  -3.81001,   1.00000
-514690299.64329,-209232558.31954,-95890367.04850,  -0.00285,  -0.00123,  -0.00161,478099662.56975,   0.00323,278099662.90483,  -0.00092,  -0.00128,  -0.00036,  -0.33508,   1.00000
-514749879.60830,-210729103.65110,-96078127.25275,  -0.00286,  -0.00123,  -0.00162,478115501.27262,   0.00324,278115505.59153,  -0.00093,  -0.00128,  -0.00037,  -4.31891,   1.00000
-514800619.64753,-212210632.72251,-96268060.13320,  -0.00287,  -0.00124,  -0.00163,478131240.99358,   0.00326,278131250.56008,  -0.00094,  -0.00127,  -0.00038,  -9.56650,   1.00000
-514850107.62340,-213704232.96755,-96453965.58595,  -0.00288,  -0.00124,  -0.00164,478147035.54129,   0.00327,278147044.66363,  -0.00095,  -0.00127,  -0.00039,  -9.12234,   1.00000
-514894638.46606,-215186539.66497,-96637415.12939,  -0.00289,  -0.00125,  -0.00166,478162848.86970,   0.00329,278162851.12184,  -0.00097,  -0.00127,  -0.00040,  -2.25214,   1.00000
-514929316.97022,-216675592.06717,-96827834.29858,  -0.00290,  -0.00125,  -0.00167,478178614.67309,   0.00331,278178621.05498,  -0.00098,  -0.00127,  -0.00041,  -6.38189,   1.00000
-514966363.77749,-218179856.08730,-97009456.09188,  -0.00291,  -0.00126,  -0.00168,478194544.09209,   0.00332,278194551.18584,  -0.00099,  -0.00127,  -0.00042,  -7.09375,   1.00000
-514994609.33706,-219669154.68072,-97193291.81993,  -0.00292,  -0.00126,  -0.00169,478210374.82530,   0.00334,278210384.18016,  -0.00100,  -0.00127,  -0.00043,  -9.35486,   1.00000
-515021307.67525,-221170008.40236,-97373003.85318,  -0.00293,  -0.00127,  -0.00170,478226263.04760,   0.00335,278226267.99473,  -0.00102,  -0.00127,  -0.00043,  -4.94713,   1.00000
-515041625.21856,-222680538.47330,-97554897.69828,  -0.00294,  -0.00128,  -0.00171,478242224.90017,   0.00337,278242226.83773,  -0.00103,  -0.00127,  -0.00044,  -1.93756,   1.00000
-515053151.73866,-224176122.09802,-97738997.01214,  -0.00295,  -0.00128,  -0.00172,478258088.49879,   0.00338,278258089.21214,  -0.00104,  -0.00127,  -0.00045,  -0.71336,   1.00000
-515066759.04538,-225686053.65323,-97914154.13721,  -0.00296,  -0.00129,  -0.00173,478274107.19313,   0.00340,278274113.04948,  -0.00105,  -0.00126,  -0.00046,  -5.85635,   1.00000
-515069925.04534,-227202132.62390,-98096148.13845,  -0.00296,  -0.00129,  -0.00175,478290094.16162,   0.00341,278290103.82093,  -0.00106,  -0.00126,  -0.00047,  -9.65931,   1.00000
-515072889.67276,-228708018.58592,-98269293.85160,  -0.00297,  -0.00130,  -0.00176,478306075.39444,   0.00343,278306083.88353,  -0.00108,  -0.00126,  -0.00048,  -8.48909,   1.00000
-515066253.51065,-230200289.01760,-98446273.44668,  -0.00298,  -0.00130,  -0.00177,478322092.75188,   0.00344,278322100.54319,  -0.00109,  -0.00126,  -0.00049,  -7.79131,   1.00000
-515051948.51658,-231721371.83513,-98628253.80659,  -0.00299,  -0.00131,  -0.00178,478338120.06370,   0.00346,278338126.00025,  -0.00110,  -0.00126,  -0.00050,  -5.93655,   1.00000
-515041338.24828,-233234919.36938,-98796592.88828,  -0.00300,  -0.00132,  -0.00179,478354244.27780,   0.00347,278354249.83504,  -0.00111,  -0.00126,  -0.00051,  -5.55725,   1.00000
-515017253.92479,-234731808.56005,-98973521.59596,  -0.00301,  -0.00132,  -0.00180,478370291.99986,   0.00349,278370301.74748,  -0.00113,  -0.00126,  -0.00052,  -9.74763,   1.00000
-514987240.58690,-236236532.49217,-99150878.36626,  -0.00302,  -0.00133,  -0.00181,478386295.05838,   0.00350,278386299.49252,  -0.00114,  -0.00126,  -0.00053,  -4.43415,   1.00000
-514958912.35284,-237754197.19275,-99319040.87059,  -0.00303,  -0.00134,  -0.00183,478402458.75105,   0.00352,278402460.81006,  -0.00115,  -0.00126,  -0.00053,  -2.05901,   1.00000
-514917100.91714,-239255169.20869,-99495773.65141,  -0.00304,  -0.00134,  -0.00184,478418546.48946,   0.00354,278418550.96449,  -0.00116,  -0.00126,  -0.00054,  -4.47503,   1.00000
-514873051.15216,-240766288.83484,-99668057.98593,  -0.00305,  -0.00135,  -0.00185,478434693.81215,   0.00355,278434696.82191,  -0.00118,  -0.00126,  -0.00055,  -3.00976,   1.00000
-514831450.13712,-242289243.34891,-99829613.70983,  -0.00306,  -0.00136,  -0.00186,478450867.18209,   0.00357,278450874.55227,  -0.00119,  -0.00126,  -0.00056,  -7.37018,   1.00000
-514775433.14201,-243795880.97965,-100001208.50241,  -0.00307,  -0.00136,  -0.00187,478467107.56903,   0.00358,278467113.74642,  -0.00120,  -0.00126,  -0.00057,  -6.17739,   1.00000
-514715692.27594,-245289791.44489,-100168822.27831,  -0.00308,  -0.00137,  -0.00188,478483228.25389,   0.00360,278483234.14887,  -0.00121,  -0.00126,  -0.00058,  -5.89498,   1.00000
-514650897.87738,-246813656.79659,-100336244.59626,  -0.00309,  -0.00137,  -0.00190,478499470.97941,   0.00361,278499479.07635,  -0.00122,  -0.00126,  -0.00059,  -8.09694,   1.00000
-514579299.18714,-248302837.08353,-100503090.13759,  -0.00309,  -0.00138,  -0.00191,478515692.05686,   0.00363,278515693.79046,  -0.00124,  -0.00126,  -0.00060,  -1.73361,   1.00000
-514503348.27923,-249821557.70537,-100668259.99437,  -0.00310,  -0.00139,  -0.00192,478531894.32264,   0.00364,278531902.44145,  -0.00125,  -0.00125,  -0.00061,  -8.11880,   1.00000
-514422768.18731,-251327616.43246,-100830876.00421,  -0.00311,  -0.00140,  -0.00193,478548120.58072,   0.00366,278548124.78909,  -0.00126,  -0.00125,  -0.00062,  -4.20836,   1.00000
-514332785.31436,-252819046.18987,-100997205.05295,  -0.00312,  -0.00140,  -0.00194,478564380.45863,   0.00368,278564384.94717,  -0.00127,  -0.00125,  -0.00063,  -4.48854,   1.00000
-514246935.72430,-254343613.94752,-101150625.82038,  -0.00313,  -0.00141,  -0.00195,478580722.63280,   0.00369,278580724.28545,  -0.00129,  -0.00125,  -0.00064,  -1.65265,   1.00000
-514145837.00846,-255829664.67772,-101314744.03878,  -0.00314,  -0.00142,  -0.00197,478596943.20362,   0.00371,278596948.97294,  -0.00130,  -0.00125,  -0.00065,  -5.76932,   1.00000
-514043819.42157,-257346560.24644,-101472125.67477,  -0.00315,  -0.00142,  -0.00198,478613276.53856,   0.00372,278613278.45392,  -0.00131,  -0.00125,  -0.00066,  -1.91536,   1.00000
-513930750.74313,-258826789.74080,-101635308.08075,  -0.00316,  -0.00143,  -0.00199,478629590.42354,   0.00374,278629600.20125,  -0.00132,  -0.00125,  -0.00067,  -9.77771,   1.00000
-513817467.55055,-260338081.43446,-101790360.29996,  -0.00317,  -0.00144,  -0.00200,478645887.10800,   0.00375,278645896.68174,  -0.00134,  -0.00125,  -0.00068,  -9.57375,   1.00000
-513694851.60717,-261834293.93542,-101949099.43082,  -0.00318,  -0.00144,  -0.00201,478662225.27353,   0.00377,278662231.42704,  -0.00135,  -0.00125,  -0.00069,  -6.15350,   1.00000
-513567934.98578,-263317650.74104,-102105291.63579,  -0.00318,  -0.00145,  -0.00203,478678575.49826,   0.00379,278678579.92950,  -0.00136,  -0.00125,  -0.00070,  -4.43124,   1.00000
-513439577.26810,-264831001.36221,-102254570.39747,  -0.00319,  -0.00146,  -0.00204,478695031.20710,   0.00380,278695036.23789,  -0.00137,  -0.00126,  -0.00071,  -5.03078,   1.00000
-513301456.36270,-266308527.39859,-102408480.73379,  -0.00320,  -0.00147,  -0.00205,478711345.89895,   0.00382,278711352.52050,  -0.00139,  -0.00126,  -0.00072,  -6.62154,   1.00000
-513151438.44463,-267791043.03792,-102568794.83370,  -0.00321,  -0.00147,  -0.00206,478727642.39445,   0.00383,278727648.52543,  -0.00140,  -0.00126,  -0.00073,  -6.13098,   1.00000
-513002614.33627,-269283090.47284,-102719332.76472,  -0.00322,  -0.00148,  -0.00207,478744106.69189,   0.00385,278744112.72906,  -0.00141,  -0.00126,  -0.00074,  -6.03717,   1.00000
-512851567.83901,-270784305.38886,-102863831.02656,  -0.00323,  -0.00149,  -0.00209,478760502.04185,   0.00386,278760508.51648,  -0.00142,  -0.00126,  -0.00075,  -6.47463,   1.00000
-512690323.58063,-272248984.16117,-103014320.05348,  -0.00324,  -0.00150,  -0.00210,478776887.38509,   0.00388,278776894.04136,  -0.00143,  -0.00126,  -0.00076,  -6.65627,   1.00000
-512518014.85065,-273739514.12516,-103168839.32665,  -0.00324,  -0.00150,  -0.00211,478793309.26648,   0.00390,278793310.00323,  -0.00145,  -0.00126,  -0.00077,  -0.73675,   1.00000
-512346602.93826,-275219171.27691,-103314596.16365,  -0.00325,  -0.00151,  -0.00212,478809715.49760,   0.00391,278809715.70798,  -0.00146,  -0.00126,  -0.00078,  -0.21038,   1.00000
-512171217.64088,-276685729.69220,-103457857.23240,  -0.00326,  -0.00152,  -0.00213,478826134.19079,   0.00393,278826135.17267,  -0.00147,  -0.00126,  -0.00079,  -0.98188,   1.00000
-511983559.94888,-278156907.84894,-103607438.02382,  -0.00327,  -0.00153,  -0.00215,478842532.34097,   0.00394,278842537.48568,  -0.00148,  -0.00126,  -0.00080,  -5.14470,   1.00000
-511792786.28382,-279635734.29139,-103752094.78038,  -0.00328,  -0.00153,  -0.00216,478858997.93288,   0.00396,278859004.03132,  -0.00150,  -0.00126,  -0.00081,  -6.09844,   1.00000
-511598134.29903,-281101301.57815,-103894236.00927,  -0.00329,  -0.00154,  -0.00217,478875482.93749,   0.00398,278875484.61703,  -0.00151,  -0.00126,  -0.00082,  -1.67954,   1.00000
-511396016.25053,-282573680.59334,-104036459.47017,  -0.00330,  -0.00155,  -0.00218,478891919.48242,   0.00399,278891924.91515,  -0.00152,  -0.00126,  -0.00083,  -5.43273,   1.00000
-511190108.94834,-284032799.50430,-104176182.75425,  -0.00330,  -0.00156,  -0.00219,478908375.49274,   0.00401,278908379.28575,  -0.00153,  -0.00126,  -0.00084,  -3.79301,   1.00000
-510976012.86483,-285496780.22854,-104317122.79906,  -0.00331,  -0.00157,  -0.00221,478924918.04499,   0.00402,278924923.56092,  -0.00154,  -0.00126,  -0.00085,  -5.51593,   1.00000
-510758869.55901,-286949457.28422,-104454422.72998,  -0.00332,  -0.00157,  -0.00222,478941345.81325,   0.00404,278941352.65910,  -0.00156,  -0.00127,  -0.00086,  -6.84586,   1.00000
-510533502.69187,-288406828.20073,-104592910.68538,  -0.00333,  -0.00158,  -0.00223,478957867.26912,   0.00406,278957872.27197,  -0.00157,  -0.00127,  -0.00087,  -5.00285,   1.00000
-510300126.07077,-289850535.85012,-104733934.26048,  -0.00334,  -0.00159,  -0.00224,478974297.61051,   0.00407,278974301.90503,  -0.00158,  -0.00127,  -0.00088,  -4.29452,   1.00000
-510063523.47182,-291301293.97447,-104869922.99692,  -0.00334,  -0.00160,  -0.00225,478990792.91706,   0.00409,278990798.13310,  -0.00159,  -0.00127,  -0.00089,  -5.21604,   1.00000
-509823431.29115,-292738728.53594,-105003443.69683,  -0.00335,  -0.00161,  -0.00227,479007307.65710,   0.00410,279007308.43284,  -0.00160,  -0.00127,  -0.00090,  -0.77574,   1.00000
-509575583.15865,-294182865.29946,-105136975.88561,  -0.00336,  -0.00162,  -0.00228,479023777.22002,   0.00412,279023781.90012,  -0.00162,  -0.00127,  -0.00091,  -4.68010,   1.00000
-509324336.33705,-295613678.70190,-105268055.95878,  -0.00337,  -0.00162,  -0.00229,479040266.28235,   0.00414,279040269.47913,  -0.00163,  -0.00127,  -0.00092,  -3.19678,   1.00000
-509065259.20325,-297051180.22492,-105399134.12991,  -0.00338,  -0.00163,  -0.00230,479056717.06893,   0.00415,279056721.09114,  -0.00164,  -0.00127,  -0.00093,  -4.02221,   1.00000
-508797838.34585,-298472723.70365,-105533899.21293,  -0.00339,  -0.00164,  -0.00232,479073211.65363,   0.00417,279073211.86864,  -0.00165,  -0.00128,  -0.00094,  -0.21501,   1.00000
-508522526.99776,-299900926.55414,-105668595.02973,  -0.00339,  -0.00165,  -0.00233,479089662.92189,   0.00418,279089667.94783,  -0.00166,  -0.00128,  -0.00095,  -5.02595,   1.00000
-508249064.26414,-301318471.15166,-105794702.57012,  -0.00340,  -0.00166,  -0.00234,479106103.74938,   0.00420,279106113.55071,  -0.00168,  -0.00128,  -0.00096,  -9.80133,   1.00000
-507967245.99964,-302739786.52923,-105921838.44213,  -0.00341,  -0.00167,  -0.00235,479122649.55367,   0.00422,279122652.68622,  -0.00169,  -0.00128,  -0.00098,  -3.13255,   1.00000
-507677361.07398,-304167579.67995,-106048892.80641,  -0.00342,  -0.00168,  -0.00236,479139153.37365,   0.00423,279139158.36905,  -0.00170,  -0.00128,  -0.00099,  -4.99540,   1.00000
-507384688.37569,-305562352.75106,-106176251.43825,  -0.00342,  -0.00168,  -0.00238,479155615.00973,   0.00425,279155623.38619,  -0.00171,  -0.00128,  -0.00100,  -8.37646,   1.00000
-507083620.46549,-306983307.50970,-106300772.75175,  -0.00343,  -0.00169,  -0.00239,479172103.84407,   0.00426,279172111.00144,  -0.00172,  -0.00129,  -0.00101,  -7.15737,   1.00000
-506779537.04966,-308390786.17811,-106422874.66212,  -0.00344,  -0.00170,  -0.00240,479188606.99744,   0.00428,279188613.19377,  -0.00174,  -0.00129,  -0.00102,  -6.19633,   1.00000
-506472548.05288,-309784893.18946,-106542593.41477,  -0.00345,  -0.00171,  -0.00241,479205123.52463,   0.00430,279205129.62237,  -0.00175,  -0.00129,  -0.00103,  -6.09774,   1.00000
-506157360.54373,-311185518.47182,-106662220.39433,  -0.00345,  -0.00172,  -0.00243,479221605.99079,   0.00431,279221614.45403,  -0.00176,  -0.00129,  -0.00104,  -8.46324,   1.00000
-505829414.78161,-312570531.99094,-106790648.92274,  -0.00346,  -0.00173,  -0.00244,479238033.90849,   0.00433,279238037.05734,  -0.00177,  -0.00129,  -0.00105,  -3.14885,   1.00000
-505503187.97690,-313964275.42971,-106907711.05503,  -0.00347,  -0.00174,  -0.00245,479254497.32831,   0.00434,279254506.14342,  -0.00178,  -0.00129,  -0.00106,  -8.81511,   1.00000
-505169179.53296,-315341790.22856,-107028509.36496,  -0.00348,  -0.00175,  -0.00246,479271005.40613,   0.00436,279271014.72620,  -0.00179,  -0.00130,  -0.00107,  -9.32007,   1.00000
-504831917.78676,-316728643.49262,-107143053.21732,  -0.00348,  -0.00176,  -0.00248,479287462.66801,   0.00438,279287468.63227,  -0.00181,  -0.00130,  -0.00108,  -5.96426,   1.00000
-504486951.64870,-318099224.69896,-107261340.95840,  -0.00349,  -0.00177,  -0.00249,479303952.35202,   0.00439,279303962.17895,  -0.00182,  -0.00130,  -0.00109,  -9.82693,   1.00000
-504139521.19580,-319460315.63192,-107376295.68836,  -0.00350,  -0.00177,  -0.00250,479320337.72698,   0.00441,279320344.02378,  -0.00183,  -0.00130,  -0.00110,  -6.29680,   1.00000
-503783676.39211,-320824112.54248,-107492071.06446,  -0.00351,  -0.00178,  -0.00251,479336821.99588,   0.00442,279336823.46759,  -0.00184,  -0.00131,  -0.00111,  -1.47171,   1.00000
-503419329.89353,-322194283.05161,-107607634.96609,  -0.00351,  -0.00179,  -0.00252,479353269.50090,   0.00444,279353275.31738,  -0.00185,  -0.00131,  -0.00113,  -5.81648,   1.00000
-503057664.74016,-323554069.39986,-107714786.57660,  -0.00352,  -0.00180,  -0.00254,479369712.27988,   0.00446,279369716.73009,  -0.00186,  -0.00131,  -0.00114,  -4.45022,   1.00000
-502682309.58657,-324917198.27218,-107827823.51823,  -0.00353,  -0.00181,  -0.00255,479386150.22392,   0.00447,279386156.35989,  -0.00187,  -0.00131,  -0.00115,  -6.13597,   1.00000
-502305765.66900,-326248494.57700,-107941555.85995,  -0.00354,  -0.00182,  -0.00256,479402545.90023,   0.00449,279402551.70165,  -0.00189,  -0.00132,  -0.00116,  -5.80143,   1.00000
-501919499.90278,-327604733.27074,-108052012.17076,  -0.00354,  -0.00183,  -0.00257,479418975.17460,   0.00450,279418980.45275,  -0.00190,  -0.00132,  -0.00117,  -5.27815,   1.00000
-501536103.15801,-328950662.73469,-108154101.09107,  -0.00355,  -0.00184,  -0.00259,479435393.47212,   0.00452,279435398.88002,  -0.00191,  -0.00132,  -0.00118,  -5.40790,   1.00000
-501140116.91442,-330281520.85596,-108265109.81797,  -0.00356,  -0.00185,  -0.00260,479451751.31100,   0.00454,279451757.41154,  -0.00192,  -0.00132,  -0.00119,  -6.10054,   1.00000
-500740799.07642,-331617447.41521,-108370735.27590,  -0.00356,  -0.00186,  -0.00261,479468187.13677,   0.00455,279468190.98488,  -0.00193,  -0.00133,  -0.00120,  -3.84811,   1.00000
-500334023.30605,-332941471.76261,-108479198.01759,  -0.00357,  -0.00187,  -0.00262,479484537.40686,   0.00457,279484540.09289,  -0.00194,  -0.00133,  -0.00121,  -2.68603,   1.00000
-499918422.14422,-334271807.43443,-108587353.17621,  -0.00358,  -0.00188,  -0.00264,479500860.59795,   0.00458,279500865.83759,  -0.00195,  -0.00133,  -0.00122,  -5.23964,   1.00000
-499511502.05387,-335590630.15643,-108682087.13466,  -0.00358,  -0.00189,  -0.00265,479517278.29151,   0.00460,279517280.34702,  -0.00197,  -0.00133,  -0.00124,  -2.05551,   1.00000
-499086504.35573,-336896126.54608,-108790896.09810,  -0.00359,  -0.00190,  -0.00266,479533529.59349,   0.00462,279533537.01880,  -0.00198,  -0.00134,  -0.00125,  -7.42531,   1.00000
-498658217.20869,-338206463.20061,-108894257.48759,  -0.00360,  -0.00191,  -0.00267,479549867.36903,   0.00463,279549870.30740,  -0.00199,  -0.00134,  -0.00126,  -2.93837,   1.00000
-498226593.62748,-339521425.81908,-108992175.31099,  -0.00360,  -0.00192,  -0.00269,479566279.64812,   0.00465,279566280.40432,  -0.00200,  -0.00134,  -0.00127,  -0.75620,   1.00000
-497794265.74520,-340810326.09702,-109090183.00136,  -0.00361,  -0.00193,  -0.00270,479582513.67947,   0.00466,279582519.90948,  -0.00201,  -0.00135,  -0.00128,  -6.23001,   1.00000
-497346161.28718,-342119973.84090,-109190666.03619,  -0.00362,  -0.00194,  -0.00271,479598821.52360,   0.00468,279598825.85152,  -0.00202,  -0.00135,  -0.00129,  -4.32791,   1.00000
-496898126.33258,-343398885.72027,-109292180.04393,  -0.00362,  -0.00195,  -0.00272,479615076.51857,   0.00470,279615084.88639,  -0.00203,  -0.00135,  -0.00130,  -8.36782,   1.00000
-496444347.42873,-344704846.55256,-109384015.58870,  -0.00363,  -0.00196,  -0.00273,479631355.65493,   0.00471,279631361.27608,  -0.00204,  -0.00136,  -0.00131,  -5.62115,   1.00000
-495985708.70755,-345976933.60751,-109483005.76885,  -0.00364,  -0.00197,  -0.00275,479647613.22803,   0.00473,279647615.41069,  -0.00205,  -0.00136,  -0.00132,  -2.18266,   1.00000
-495517919.26651,-347255289.83505,-109581599.25851,  -0.00364,  -0.00198,  -0.00276,479663847.55101,   0.00474,279663850.58411,  -0.00206,  -0.00136,  -0.00133,  -3.03310,   1.00000
-495053832.82917,-348523997.37279,-109671990.39525,  -0.00365,  -0.00199,  -0.00277,479680070.29997,   0.00476,279680075.81735,  -0.00208,  -0.00137,  -0.00135,  -5.51738,   1.00000
-494580483.10578,-349798910.58052,-109762014.84640,  -0.00365,  -0.00200,  -0.00278,479696276.44698,   0.00478,279696282.63416,  -0.00209,  -0.00137,  -0.00136,  -6.18718,   1.00000
-494092696.43749,-351076517.63338,-109857642.90312,  -0.00366,  -0.00201,  -0.00280,479712492.81812,   0.00479,279712497.34760,  -0.00210,  -0.00137,  -0.00137,  -4.52948,   1.00000
-493610724.06429,-352327427.66218,-109948466.81405,  -0.00367,  -0.00202,  -0.00281,479728634.31586,   0.00481,279728638.40914,  -0.00211,  -0.00138,  -0.00138,  -4.09328,   1.00000
-493125539.73379,-353582513.73965,-110033784.33131,  -0.00367,  -0.00203,  -0.00282,479744854.18262,   0.00482,279744859.06119,  -0.00212,  -0.00138,  -0.00139,  -4.87856,   1.00000
-492624725.11083,-354845759.17346,-110123777.97213,  -0.00368,  -0.00204,  -0.00283,479760958.65431,   0.00484,279760966.92479,  -0.00213,  -0.00138,  -0.00140,  -8.27048,   1.00000
-492126083.71603,-356073714.22586,-110215999.20315,  -0.00368,  -0.00205,  -0.00285,479777145.33013,   0.00485,279777147.40751,  -0.00214,  -0.00139,  -0.00141,  -2.07738,   1.00000
-491614627.50910,-357330213.05846,-110303369.61520,  -0.00369,  -0.00206,  -0.00286,479793250.89067,   0.00487,279793256.20183,  -0.00215,  -0.00139,  -0.00142,  -5.31117,   1.00000
-491109407.33842,-358560601.70035,-110386110.45510,  -0.00370,  -0.00207,  -0.00287,479809285.67115,   0.00489,279809290.16074,  -0.00216,  -0.00140,  -0.00144,  -4.48959,   1.00000
-490589535.66200,-359793663.20950,-110474398.00653,  -0.00370,  -0.00208,  -0.00288,479825326.82571,   0.00490,279825334.99417,  -0.00217,  -0.00140,  -0.00145,  -8.16846,   1.00000
-490066479.98122,-361030453.71569,-110557079.32489,  -0.00371,  -0.00209,  -0.00289,479841456.17007,   0.00492,279841461.65707,  -0.00218,  -0.00140,  -0.00146,  -5.48699,   1.00000
-489536062.08254,-362256713.01327,-110642771.75336,  -0.00371,  -0.00210,  -0.00291,479857506.21906,   0.00493,279857509.01877,  -0.00219,  -0.00141,  -0.00147,  -2.79971,   1.00000
-489009898.41938,-363473770.25695,-110720401.75672,  -0.00372,  -0.00211,  -0.00292,479873538.59218,   0.00495,279873546.97773,  -0.00220,  -0.00141,  -0.00148,  -8.38555,   1.00000
-488473997.41820,-364696837.08236,-110797544.20079,  -0.00372,  -0.00212,  -0.00293,479889565.08656,   0.00496,279889572.08962,  -0.00221,  -0.00142,  -0.00149,  -7.00306,   1.00000
-487925653.34237,-365906020.97256,-110883724.30391,  -0.00373,  -0.00213,  -0.00294,479905538.59601,   0.00498,279905544.01053,  -0.00222,  -0.00142,  -0.00150,  -5.41453,   1.00000
-487381723.61356,-367106173.48319,-110961854.61814,  -0.00373,  -0.00214,  -0.00296,479921500.95768,   0.00500,279921506.83533,  -0.00223,  -0.00142,  -0.00151,  -5.87765,   1.00000
-486827949.16026,-368312323.40483,-111039439.94689,  -0.00374,  -0.00215,  -0.00297,479937452.45915,   0.00501,279937458.44162,  -0.00224,  -0.00143,  -0.00152,  -5.98247,   1.00000
-486266794.52906,-369508383.85802,-111120078.71946,  -0.00374,  -0.00217,  -0.00298,479953330.56094,   0.00503,279953332.17827,  -0.00225,  -0.00143,  -0.00154,  -1.61733,   1.00000
-485707579.82754,-370711416.15143,-111189071.71043,  -0.00375,  -0.00218,  -0.00299,479969260.90850,   0.00504,279969264.54305,  -0.00226,  -0.00144,  -0.00155,  -3.63454,   1.00000
-485135890.31936,-371900756.30591,-111267145.81666,  -0.00376,  -0.00219,  -0.00300,479985138.63506,   0.00506,279985144.79309,  -0.00227,  -0.00144,  -0.00156,  -6.15803,   1.00000
-484568819.49959,-373081255.70689,-111337250.72696,  -0.00376,  -0.00220,  -0.00302,480001011.18025,   0.00507,280001016.02464,  -0.00228,  -0.00144,  -0.00157,  -4.84439,   1.00000
-483979630.21793,-374266616.09071,-111417787.47929,  -0.00377,  -0.00221,  -0.00303,480016805.98467,   0.00509,280016810.51327,  -0.00229,  -0.00145,  -0.00158,  -4.52860,   1.00000
-483402187.77334,-375440452.87025,-111485285.96844,  -0.00377,  -0.00222,  -0.00304,480032685.82646,   0.00511,280032689.83753,  -0.00230,  -0.00145,  -0.00159,  -4.01106,   1.00000
-482810214.46872,-376607345.63703,-111560955.43695,  -0.00377,  -0.00223,  -0.00305,480048396.51811,   0.00512,280048399.28480,  -0.00231,  -0.00146,  -0.00160,  -2.76670,   1.00000
-482215222.69817,-377777315.79886,-111630904.98201,  -0.00378,  -0.00224,  -0.00307,480064189.15295,   0.00514,280064194.71211,  -0.00232,  -0.00146,  -0.00161,  -5.55916,   1.00000
-481617798.65168,-378941414.49064,-111697989.65269,  -0.00378,  -0.00225,  -0.00308,480079881.27673,   0.00515,280079888.67832,  -0.00233,  -0.00147,  -0.00163,  -7.40160,   1.00000
-481012345.57609,-380104655.50528,-111765345.03702,  -0.00379,  -0.00226,  -0.00309,480095689.29344,   0.00517,280095694.43826,  -0.00234,  -0.00147,  -0.00164,  -5.14482,   1.00000
-480407292.59160,-381246947.10011,-111833649.36324,  -0.00379,  -0.00227,  -0.00310,480111323.72906,   0.00518,280111329.52593,  -0.00235,  -0.00148,  -0.00165,  -5.79687,   1.00000
-479789010.32778,-382410194.60736,-111897449.03723,  -0.00380,  -0.00229,  -0.00311,480127024.71757,   0.00520,280127029.11182,  -0.00236,  -0.00148,  -0.00166,  -4.39425,   1.00000
-479166089.40578,-383548884.14231,-111968191.10258,  -0.00380,  -0.00230,  -0.00313,480142579.14621,   0.00521,280142583.96390,  -0.00237,  -0.00149,  -0.00167,  -4.81769,   1.00000
-478540241.98740,-384690380.35998,-112033165.21042,  -0.00381,  -0.00231,  -0.00314,480158218.25350,   0.00523,280158226.58175,  -0.00238,  -0.00149,  -0.00168,  -8.32825,   1.00000
-477911864.39003,-385826468.48617,-112095309.57279,  -0.00381,  -0.00232,  -0.00315,480173762.62003,   0.00524,280173769.28932,  -0.00239,  -0.00150,  -0.00169,  -6.66929,   1.00000
-477280564.97173,-386965198.80445,-112151718.73168,  -0.00382,  -0.00233,  -0.00316,480189398.17444,   0.00526,280189399.95778,  -0.00240,  -0.00150,  -0.00170,  -1.78334,   1.00000
-476628990.57958,-388093824.12007,-112222232.52066,  -0.00382,  -0.00234,  -0.00317,480204885.18579,   0.00527,280204891.19551,  -0.00241,  -0.00151,  -0.00171,  -6.00972,   1.00000
-475992253.67080,-389229685.72958,-112270026.09790,  -0.00382,  -0.00235,  -0.00318,480220506.41536,   0.00529,280220511.45222,  -0.00242,  -0.00151,  -0.00173,  -5.03686,   1.00000
-475338157.00130,-390340953.46314,-112335896.46167,  -0.00383,  -0.00236,  -0.00320,480235915.91233,   0.00531,280235921.34058,  -0.00243,  -0.00152,  -0.00174,  -5.42826,   1.00000
-474686203.40165,-391458680.45758,-112390010.37097,  -0.00383,  -0.00238,  -0.00321,480251391.13176,   0.00532,280251395.11348,  -0.00244,  -0.00152,  -0.00175,  -3.98171,   1.00000
-474018506.46102,-392577908.00897,-112449280.48748,  -0.00384,  -0.00239,  -0.00322,480266891.16229,   0.00534,280266893.53333,  -0.00244,  -0.00153,  -0.00176,  -2.37104,   1.00000
-473351239.70131,-393677738.65665,-112509700.91527,  -0.00384,  -0.00240,  -0.00323,480282219.95487,   0.00535,280282222.24609,  -0.00245,  -0.00153,  -0.00177,  -2.29122,   1.00000
-472678067.44865,-394787082.90520,-112563323.34296,  -0.00384,  -0.00241,  -0.00324,480297518.37846,   0.00537,280297525.69918,  -0.00246,  -0.00154,  -0.00178,  -7.32072,   1.00000
-471997121.89140,-395894587.72900,-112617078.41412,  -0.00385,  -0.00242,  -0.00326,480312940.42322,   0.00538,280312945.41495,  -0.00247,  -0.00154,  -0.00179,  -4.99173,   1.00000
-471313360.58535,-396997209.53256,-112668037.10598,  -0.00385,  -0.00243,  -0.00327,480328261.74507,   0.00540,280328268.22445,  -0.00248,  -0.00155,  -0.00180,  -6.47938,   1.00000
-470630050.91676,-398087807.13993,-112717217.54995,  -0.00385,  -0.00245,  -0.00328,480343601.46919,   0.00541,280343609.26196,  -0.00249,  -0.00155,  -0.00181,  -7.79277,   1.00000
-469930668.52417,-399173016.47413,-112774520.55251,  -0.00386,  -0.00246,  -0.00329,480358788.06333,   0.00543,280358789.93952,  -0.00250,  -0.00156,  -0.00182,  -1.87619,   1.00000
-469233465.20441,-400264296.91230,-112820006.74996,  -0.00386,  -0.00247,  -0.00330,480374032.37670,   0.00544,280374037.20271,  -0.00251,  -0.00156,  -0.00184,  -4.82601,   1.00000
-468536825.90471,-401343627.95948,-112863760.65520,  -0.00386,  -0.00248,  -0.00331,480389301.29534,   0.00546,280389302.78068,  -0.00252,  -0.00157,  -0.00185,  -1.48534,   1.00000
-467823829.44245,-402417752.32167,-112915637.38526,  -0.00387,  -0.00249,  -0.00333,480404405.00627,   0.00547,280404409.37155,  -0.00252,  -0.00157,  -0.00186,  -4.36528,   1.00000
-467108157.38020,-403493736.15404,-112961629.82238,  -0.00387,  -0.00250,  -0.00334,480419607.87805,   0.00549,280419608.90950,  -0.00253,  -0.00158,  -0.00187,  -1.03145,   1.00000
-466389441.26783,-404565308.37369,-113004856.79664,  -0.00387,  -0.00252,  -0.00335,480434703.69630,   0.00550,280434713.50071,  -0.00254,  -0.00158,  -0.00188,  -9.80441,   1.00000
-465662763.66435,-405628461.83605,-113051269.79798,  -0.00388,  -0.00253,  -0.00336,480449744.26500,   0.00552,280449748.88378,  -0.00255,  -0.00159,  -0.00189,  -4.61877,   1.00000
-464924695.94385,-406696689.25096,-113096678.21677,  -0.00388,  -0.00254,  -0.00337,480464786.66579,   0.00553,280464790.29710,  -0.00256,  -0.00160,  -0.00190,  -3.63131,   1.00000
-464192269.14472,-407757230.84889,-113134419.56110,  -0.00388,  -0.00255,  -0.00338,480479821.07852,   0.00555,280479825.60135,  -0.00257,  -0.00160,  -0.00191,  -4.52283,   1.00000
-463451777.91201,-408809457.03632,-113175363.74118,  -0.00389,  -0.00256,  -0.00339,480494788.52039,   0.00556,280494792.50454,  -0.00258,  -0.00161,  -0.00192,  -3.98415,   1.00000
-462699759.28605,-409866641.61538,-113215280.58427,  -0.00389,  -0.00258,  -0.00341,480509764.74048,   0.00558,280509766.78157,  -0.00258,  -0.00161,  -0.00193,  -2.04109,   1.00000
-461953457.58664,-410916237.55751,-113247573.74165,  -0.00389,  -0.00259,  -0.00342,480524727.16979,   0.00559,280524735.12928,  -0.00259,  -0.00162,  -0.00195,  -7.95949,   1.00000
-461194165.69349,-411953405.28875,-113289006.92034,  -0.00389,  -0.00260,  -0.00343,480539651.65111,   0.00561,280539661.51028,  -0.00260,  -0.00162,  -0.00196,  -9.85918,   1.00000
-460427241.87271,-412994428.49717,-113326593.00721,  -0.00390,  -0.00261,  -0.00344,480554375.12765,   0.00562,280554383.22539,  -0.00261,  -0.00163,  -0.00197,  -8.09773,   1.00000
-459662155.11594,-414028993.00838,-113359333.33309,  -0.00390,  -0.00262,  -0.00345,480569308.27074,   0.00564,280569313.02556,  -0.00262,  -0.00164,  -0.00198,  -4.75482,   1.00000
-458884378.01424,-415063234.94608,-113394172.47446,  -0.00390,  -0.00264,  -0.00346,480584063.44584,   0.00565,280584064.51764,  -0.00262,  -0.00164,  -0.00199,  -1.07180,   1.00000
-458104105.92666,-416098598.51398,-113423065.87238,  -0.00390,  -0.00265,  -0.00347,480598912.52296,   0.00566,280598912.70603,  -0.00263,  -0.00165,  -0.00200,  -0.18307,   1.00000
-457310875.22048,-417133650.17540,-113454031.93553,  -0.00391,  -0.00266,  -0.00349,480613582.98037,   0.00568,280613583.91291,  -0.00264,  -0.00165,  -0.00201,  -0.93254,   1.00000
-456518702.65404,-418157034.08655,-113483347.38752,  -0.00391,  -0.00267,  -0.00350,480628270.83409,   0.00569,280628275.83649,  -0.00265,  -0.00166,  -0.00202,  -5.00240,   1.00000
-455727678.89586,-419168879.45337,-113511048.48846,  -0.00391,  -0.00268,  -0.00351,480642986.73983,   0.00571,280642988.11075,  -0.00266,  -0.00167,  -0.00203,  -1.37091,   1.00000
-454915037.77080,-420188852.16177,-113542374.50637,  -0.00391,  -0.00270,  -0.00352,480657620.29186,   0.00572,280657627.67953,  -0.00266,  -0.00167,  -0.00204,  -7.38768,   1.00000
-454108363.90973,-421201570.38872,-113566137.24984,  -0.00392,  -0.00271,  -0.00353,480672253.88492,   0.00574,280672262.76411,  -0.00267,  -0.00168,  -0.00205,  -8.87919,   1.00000
-453297920.86814,-422210746.45811,-113587171.49369,  -0.00392,  -0.00272,  -0.00354,480686802.95412,   0.00575,280686808.10247,  -0.00268,  -0.00168,  -0.00206,  -5.14834,   1.00000
-452474152.24756,-423207709.52933,-113617311.19835,  -0.00392,  -0.00273,  -0.00355,480701315.24172,   0.00577,280701315.27766,  -0.00269,  -0.00169,  -0.00207,  -0.03595,   1.00000
-451647643.90505,-424217797.33703,-113634352.25435,  -0.00392,  -0.00275,  -0.00356,480715782.13057,   0.00578,280715786.30005,  -0.00269,  -0.00170,  -0.00209,  -4.16948,   1.00000
-450807710.80461,-425215583.45026,-113660484.15481,  -0.00392,  -0.00276,  -0.00357,480730213.04168,   0.00580,280730220.09705,  -0.00270,  -0.00170,  -0.00210,  -7.05537,   1.00000
-449970213.71562,-426218299.51901,-113674671.72247,  -0.00392,  -0.00277,  -0.00358,480744719.91455,   0.00581,280744728.47958,  -0.00271,  -0.00171,  -0.00211,  -8.56503,   1.00000
-449127612.29913,-427201239.97282,-113696474.67738,  -0.00393,  -0.00278,  -0.00360,480759091.17333,   0.00582,280759095.89479,  -0.00272,  -0.00172,  -0.00212,  -4.72145,   1.00000
-448277300.35289,-428192794.44618,-113711061.29656,  -0.00393,  -0.00280,  -0.00361,480773453.59949,   0.00584,280773454.67439,  -0.00272,  -0.00172,  -0.00213,  -1.07490,   1.00000
-447418133.41644,-429176568.55213,-113728802.52814,  -0.00393,  -0.00281,  -0.00362,480787744.71675,   0.00585,280787752.04686,  -0.00273,  -0.00173,  -0.00214,  -7.33011,   1.00000
-446551113.01397,-430168766.39857,-113739289.62021,  -0.00393,  -0.00282,  -0.00363,480802039.00326,   0.00587,280802042.10267,  -0.00274,  -0.00173,  -0.00215,  -3.09941,   1.00000
-445680871.04679,-431144977.24264,-113754155.56145,  -0.00393,  -0.00283,  -0.00364,480816373.40686,   0.00588,280816380.05035,  -0.00274,  -0.00174,  -0.00216,  -6.64348,   1.00000
-444811007.90574,-432122463.38956,-113760328.07131,  -0.00393,  -0.00285,  -0.00365,480830598.41241,   0.00589,280830606.45844,  -0.00275,  -0.00175,  -0.00217,  -8.04603,   1.00000
-443921562.81042,-433095950.32116,-113774321.49945,  -0.00393,  -0.00286,  -0.00366,480844687.70819,   0.00591,280844690.26450,  -0.00276,  -0.00175,  -0.00218,  -2.55631,   1.00000
-443040598.51477,-434065775.58085,-113777603.24340,  -0.00393,  -0.00287,  -0.00367,480858957.96402,   0.00592,280858959.15649,  -0.00276,  -0.00176,  -0.00219,  -1.19247,   1.00000
-442139853.39365,-435031593.55924,-113788676.46179,  -0.00393,  -0.00288,  -0.00368,480873082.03781,   0.00594,280873086.56727,  -0.00277,  -0.00177,  -0.00220,  -4.52946,   1.00000
-441239169.71833,-435998810.86545,-113791014.06861,  -0.00394,  -0.00290,  -0.00369,480887096.22285,   0.00595,280887104.34201,  -0.00278,  -0.00177,  -0.00221,  -8.11916,   1.00000
-440335488.42533,-436950154.19814,-113797787.40868,  -0.00394,  -0.00291,  -0.00370,480901163.76603,   0.00597,280901170.62626,  -0.00278,  -0.00178,  -0.00222,  -6.86023,   1.00000
-439412567.53285,-437913274.62446,-113801781.27466,  -0.00394,  -0.00292,  -0.00371,480915148.96344,   0.00598,280915152.73099,  -0.00279,  -0.00179,  -0.00223,  -3.76754,   1.00000
-438495869.83714,-438869558.40755,-113798354.96959,  -0.00394,  -0.00293,  -0.00372,480929126.98595,   0.00599,280929133.08253,  -0.00280,  -0.00179,  -0.00224,  -6.09658,   1.00000
-437565237.76275,-439813637.00136,-113803967.94161,  -0.00394,  -0.00295,  -0.00373,480943076.98802,   0.00601,280943081.48452,  -0.00280,  -0.00180,  -0.00225,  -4.49650,   1.00000
-436630644.45824,-440770181.07355,-113796212.94342,  -0.00394,  -0.00296,  -0.00374,480957002.46935,   0.00602,280957003.49985,  -0.00281,  -0.00181,  -0.00226,  -1.03050,   1.00000
-435697772.18035,-441715321.35232,-113787022.50856,  -0.00394,  -0.00297,  -0.00375,480970946.96381,   0.00603,280970949.31664,  -0.00282,  -0.00181,  -0.00227,  -2.35283,   1.00000
-434744092.00435,-442656534.64367,-113785491.25528,  -0.00394,  -0.00299,  -0.00376,480984754.47003,   0.00605,280984758.55479,  -0.00282,  -0.00182,  -0.00228,  -4.08476,   1.00000
-433796727.15934,-443591086.68529,-113776571.85848,  -0.00394,  -0.00300,  -0.00377,480998561.31932,   0.00606,280998566.76287,  -0.00283,  -0.00183,  -0.00229,  -5.44355,   1.00000
-432824618.04863,-444532310.76540,-113770605.72084,  -0.00394,  -0.00301,  -0.00378,481012317.78855,   0.00608,281012321.90636,  -0.00284,  -0.00183,  -0.00230,  -4.11780,   1.00000
-431862491.24062,-445456345.43028,-113761915.26201,  -0.00394,  -0.00302,  -0.00379,481025986.86603,   0.00609,281025994.31412,  -0.00284,  -0.00184,  -0.00231,  -7.44809,   1.00000
-430883313.65854,-446393680.67040,-113746947.36926,  -0.00394,  -0.00304,  -0.00380,481039773.73583,   0.00610,281039777.03823,  -0.00285,  -0.00185,  -0.00232,  -3.30241,   1.00000
-429902459.82541,-447317624.46275,-113733800.08045,  -0.00394,  -0.00305,  -0.00381,481053392.96315,   0.00612,281053397.71826,  -0.00286,  -0.00185,  -0.00233,  -4.75511,   1.00000
-428911751.13782,-448234013.79597,-113723698.43847,  -0.00394,  -0.00306,  -0.00382,481066964.53879,   0.00613,281066964.72450,  -0.00286,  -0.00186,  -0.00234,  -0.18571,   1.00000
-427923772.15087,-449154071.22414,-113701543.90915,  -0.00394,  -0.00308,  -0.00383,481080609.97703,   0.00614,281080614.75189,  -0.00287,  -0.00187,  -0.00235,  -4.77486,   1.00000
-426913925.32517,-450070172.38036,-113686892.93050,  -0.00394,  -0.00309,  -0.00384,481094132.79828,   0.00616,281094133.32376,  -0.00287,  -0.00187,  -0.00236,  -0.52548,   1.00000
-425906825.08388,-450989701.40262,-113660168.38149,  -0.00394,  -0.00310,  -0.00385,481107726.17353,   0.00617,281107735.96740,  -0.00288,  -0.00188,  -0.00237,  -9.79387,   1.00000
-424881198.43847,-451895220.32850,-113645631.51111,  -0.00394,  -0.00312,  -0.00386,481121116.60697,   0.00618,281121125.05694,  -0.00288,  -0.00189,  -0.00238,  -8.44997,   1.00000
-423858353.72770,-452804118.66791,-113618995.13282,  -0.00394,  -0.00313,  -0.00387,481134590.08125,   0.00620,281134599.05491,  -0.00289,  -0.00190,  -0.00239,  -8.97366,   1.00000
-422829679.92006,-453710093.68391,-113589456.46648,  -0.00394,  -0.00314,  -0.00388,481147989.19267,   0.00621,281147996.43015,  -0.00290,  -0.00190,  -0.00240,  -7.23748,   1.00000
-421787131.99228,-454618103.61772,-113558165.50299,  -0.00393,  -0.00316,  -0.00389,481161417.43885,   0.00622,281161427.25459,  -0.00290,  -0.00191,  -0.00241,  -9.81573,   1.00000
-420734273.63594,-455518317.90271,-113529863.42010,  -0.00393,  -0.00317,  -0.00390,481174799.85009,   0.00624,281174808.02876,  -0.00291,  -0.00192,  -0.00242,  -8.17867,   1.00000
-419691448.82634,-456402418.92246,-113499050.83340,  -0.00393,  -0.00318,  -0.00391,481188103.95838,   0.00625,281188105.83566,  -0.00291,  -0.00192,  -0.00243,  -1.87728,   1.00000
-418622814.47361,-457306303.57952,-113460032.67002,  -0.00393,  -0.00320,  -0.00392,481201414.43145,   0.00626,281201421.77907,  -0.00292,  -0.00193,  -0.00244,  -7.34761,   1.00000
-417547218.26308,-458192872.70885,-113428780.13868,  -0.00393,  -0.00321,  -0.00393,481214601.96478,   0.00628,281214604.18739,  -0.00292,  -0.00194,  -0.00245,  -2.22261,   1.00000
-416478059.77625,-459072970.91670,-113390230.74710,  -0.00393,  -0.00322,  -0.00394,481227783.86624,   0.00629,281227788.99548,  -0.00293,  -0.00195,  -0.00246,  -5.12924,   1.00000
-415394765.92616,-459954683.60904,-113349825.55013,  -0.00393,  -0.00324,  -0.00395,481241003.29778,   0.00630,281241010.80087,  -0.00293,  -0.00195,  -0.00247,  -7.50309,   1.00000
-414292168.68208,-460836955.62208,-113310685.68664,  -0.00393,  -0.00325,  -0.00396,481254084.05243,   0.00632,281254084.43148,  -0.00294,  -0.00196,  -0.00248,  -0.37905,   1.00000
-413188275.35622,-461716950.03317,-113265347.78459,  -0.00392,  -0.00326,  -0.00396,481267264.18814,   0.00633,281267272.41485,  -0.00294,  -0.00197,  -0.00249,  -8.22671,   1.00000
-412081312.81827,-462584836.22425,-113221840.85219,  -0.00392,  -0.00328,  -0.00397,481280301.08805,   0.00634,281280302.73932,  -0.00295,  -0.00197,  -0.00250,  -1.65127,   1.00000
-410964208.56495,-463458754.39523,-113170439.65753,  -0.00392,  -0.00329,  -0.00398,481293343.79492,   0.00636,281293347.79632,  -0.00295,  -0.00198,  -0.00251,  -4.00140,   1.00000
-409836161.71608,-464324738.68292,-113121941.53093,  -0.00392,  -0.00330,  -0.00399,481306341.82263,   0.00637,281306347.28871,  -0.00296,  -0.00199,  -0.00252,  -5.46608,   1.00000
-408697861.31893,-465196480.38427,-113065502.06112,  -0.00392,  -0.00332,  -0.00400,481319357.44517,   0.00638,281319363.08294,  -0.00296,  -0.00200,  -0.00253,  -5.63776,   1.00000
