# sigma_xx, sigma_yy, sigma_xy, epsilon_xx, epsilon_yy, epsilon_xy, vonMises, epsPlastic, hardening, epsilonP__xx, epsilonP__yy, epsilonP__xy, yieldValue, iteration
   0.00000,   0.00000,   0.00000,   0.00000,   0.00000,   0.00000,   0.00000,   0.00000,274640135.82653,   0.00000,   0.00000,   0.00000,-474640135.82653,   0.00000
   0.00000,   0.00000,   0.00000,   0.00000,   0.00000,   0.00000,   0.00000,   0.00000,274640135.82653,   0.00000,   0.00000,   0.00000,-474640135.82653,   0.00000
-6544331.17084,-4329935.12512,-721655.85419,  -0.00002,  -0.00001,  -0.00001,5899359.35250,   0.00000,274640135.82653,   0.00000,   0.00000,   0.00000,-468740776.47403,   0.00000
-13039233.85851,-8610441.76707,-1433426.01174,  -0.00004,  -0.00001,  -0.00002,11749548.65552,   0.00000,274640135.82653,   0.00000,   0.00000,   0.00000,-462890587.17101,   0.00000
-19548965.09113,-12925548.34724,-2145196.16929,  -0.00006,  -0.00002,  -0.00003,17616933.40515,   0.00000,274640135.82653,   0.00000,   0.00000,   0.00000,-457023202.42138,   0.00000
-26058696.32376,-17240654.92740,-2856966.32685,  -0.00008,  -0.00003,  -0.00004,23484327.00807,   0.00000,274640135.82653,   0.00000,   0.00000,   0.00000,-451155808.81846,   0.00000
-32548656.16311,-21575532.90083,-3568736.48440,  -0.00011,  -0.00003,  -0.00005,29340614.79144,   0.00000,274640135.82653,   0.00000,   0.00000,   0.00000,-445299521.03509,   0.00000
-39023787.45752,-25875810.93605,-4280506.64195,  -0.00013,  -0.00004,  -0.00006,35179676.57901,   0.00000,274640135.82653,   0.00000,   0.00000,   0.00000,-439460459.24751,   0.00000
-45513747.29688,-30210688.90948,-4982391.10287,  -0.00015,  -0.00005,  -0.00006,41032400.85597,   0.00000,274640135.82653,   0.00000,   0.00000,   0.00000,-433607734.97056,   0.00000
-51969107.19802,-34530738.33797,-5684275.56379,  -0.00017,  -0.00006,  -0.00007,46856817.18670,   0.00000,274640135.82653,   0.00000,   0.00000,   0.00000,-427783318.63983,   0.00000
-58439295.64411,-38885387.70466,-6386160.02471,  -0.00019,  -0.00006,  -0.00008,52698568.32588,   0.00000,274640135.82653,   0.00000,   0.00000,   0.00000,-421941567.50065,   0.00000
-64860055.60704,-43190608.58820,-7078158.78900,  -0.00021,  -0.00007,  -0.00009,58491120.73095,   0.00000,274640135.82653,   0.00000,   0.00000,   0.00000,-416149015.09558,   0.00000
-71295644.11492,-47530429.40995,-7770157.55329,  -0.00023,  -0.00008,  -0.00010,64301042.41008,   0.00000,274640135.82653,   0.00000,   0.00000,   0.00000,-410339093.41645,   0.00000
-77731232.62280,-51870250.23170,-8472042.01421,  -0.00025,  -0.00008,  -0.00011,70114587.53261,   0.00000,274640135.82653,   0.00000,   0.00000,   0.00000,-404525548.29392,   0.00000
-84132221.19246,-56195242.50850,-9154155.08187,  -0.00027,  -0.00009,  -0.00012,75892694.09150,   0.00000,274640135.82653,   0.00000,   0.00000,   0.00000,-398747441.73503,   0.00000
-90533209.76213,-60520234.78530,-9846153.84615,  -0.00029,  -0.00010,  -0.00013,81674414.68610,   0.00000,274640135.82653,   0.00000,   0.00000,   0.00000,-392965721.14043,   0.00000
-96899598.39357,-64830398.51715,-10528266.91381,  -0.00031,  -0.00011,  -0.00014,87424289.37856,   0.00000,274640135.82653,   0.00000,   0.00000,   0.00000,-387215846.44797,   0.00000
-103280815.56997,-69175162.18721,-11210379.98146,  -0.00034,  -0.00011,  -0.00015,93191633.84409,   0.00000,274640135.82653,   0.00000,   0.00000,   0.00000,-381448501.98244,   0.00000
-109627432.80816,-73505097.31233,-11892493.04912,  -0.00036,  -0.00012,  -0.00015,98930745.52993,   0.00000,274640135.82653,   0.00000,   0.00000,   0.00000,-375709390.29660,   0.00000
-115974050.04634,-77835032.43744,-12574606.11677,  -0.00038,  -0.00013,  -0.00016,104669913.38683,   0.00000,274640135.82653,   0.00000,   0.00000,   0.00000,-369970222.43970,   0.00000
-122320667.28452,-82164967.56256,-13246833.48780,  -0.00040,  -0.00014,  -0.00017,110405569.02704,   0.00000,274640135.82653,   0.00000,   0.00000,   0.00000,-364234566.79949,   0.00000
-128647513.12944,-86514674.08094,-13919060.85882,  -0.00042,  -0.00014,  -0.00018,116130506.59314,   0.00000,274640135.82653,   0.00000,   0.00000,   0.00000,-358509629.23339,   0.00000
-134959530.42941,-90829780.66111,-14591288.22984,  -0.00044,  -0.00015,  -0.00019,121837992.58959,   0.00000,274640135.82653,   0.00000,   0.00000,   0.00000,-352802143.23694,   0.00000
-141251776.33611,-95164658.63454,-15263515.60086,  -0.00046,  -0.00016,  -0.00020,127534796.11495,   0.00000,274640135.82653,   0.00000,   0.00000,   0.00000,-347105339.71158,   0.00000
-147544022.24282,-99499536.60797,-15925857.27525,  -0.00048,  -0.00017,  -0.00021,133228124.77930,   0.00000,274640135.82653,   0.00000,   0.00000,   0.00000,-341412011.04723,   0.00000
-153801668.21131,-103819586.03645,-16598084.64628,  -0.00050,  -0.00017,  -0.00022,138896808.11927,   0.00000,274640135.82653,   0.00000,   0.00000,   0.00000,-335743327.70725,   0.00000
-160059314.17980,-108139635.46494,-17250540.62403,  -0.00052,  -0.00018,  -0.00022,144558473.91796,   0.00000,274640135.82653,   0.00000,   0.00000,   0.00000,-330081661.90857,   0.00000
-166331788.69323,-112494284.83163,-17912882.29842,  -0.00054,  -0.00019,  -0.00023,150241360.79180,   0.00000,274640135.82653,   0.00000,   0.00000,   0.00000,-324398775.03473,   0.00000
-172554834.72351,-116799505.71517,-18575223.97281,  -0.00056,  -0.00019,  -0.00024,155878455.70898,   0.00000,274640135.82653,   0.00000,   0.00000,   0.00000,-318761680.11755,   0.00000
-178758109.36052,-121124497.99197,-19227679.95057,  -0.00058,  -0.00020,  -0.00025,161501487.44365,   0.00000,274640135.82653,   0.00000,   0.00000,   0.00000,-313138648.38288,   0.00000
-184961383.99753,-125449490.26877,-19880135.92833,  -0.00060,  -0.00021,  -0.00026,167124612.94096,   0.00000,274640135.82653,   0.00000,   0.00000,   0.00000,-307515522.88557,   0.00000
-191130058.69632,-129759654.00062,-20532591.90609,  -0.00062,  -0.00022,  -0.00027,172719596.01971,   0.00000,274640135.82653,   0.00000,   0.00000,   0.00000,-301920539.80682,   0.00000
-197298733.39512,-134069817.73247,-21175162.18721,  -0.00064,  -0.00023,  -0.00028,178311142.33824,   0.00000,274640135.82653,   0.00000,   0.00000,   0.00000,-296328993.48829,   0.00000
-203467408.09391,-138379981.46432,-21817732.46833,  -0.00066,  -0.00023,  -0.00028,183902772.18158,   0.00000,274640135.82653,   0.00000,   0.00000,   0.00000,-290737363.64495,   0.00000
-209616311.39944,-142709916.58943,-22460302.74946,  -0.00068,  -0.00024,  -0.00029,189484003.49598,   0.00000,274640135.82653,   0.00000,   0.00000,   0.00000,-285156132.33055,   0.00000
-215715786.22181,-146990423.23139,-23102873.03058,  -0.00069,  -0.00025,  -0.00030,195019379.70213,   0.00000,274640135.82653,   0.00000,   0.00000,   0.00000,-279620756.12440,   0.00000
-221830089.58913,-151305529.81155,-23745443.31171,  -0.00071,  -0.00026,  -0.00031,200572607.79941,   0.00000,274640135.82653,   0.00000,   0.00000,   0.00000,-274067528.02712,   0.00000
-227909793.01823,-155605807.84677,-24378127.89620,  -0.00073,  -0.00026,  -0.00032,206094233.51864,   0.00000,274640135.82653,   0.00000,   0.00000,   0.00000,-268545902.30789,   0.00000
-233989496.44733,-159906085.88199,-25010812.48069,  -0.00075,  -0.00027,  -0.00033,211615969.28922,   0.00000,274640135.82653,   0.00000,   0.00000,   0.00000,-263024166.53731,   0.00000
-240069199.87643,-164206363.91721,-25643497.06518,  -0.00077,  -0.00028,  -0.00033,217137806.71544,   0.00000,274640135.82653,   0.00000,   0.00000,   0.00000,-257502329.11109,   0.00000
-246079703.42910,-168476984.86253,-26266295.95304,  -0.00079,  -0.00029,  -0.00034,222599872.65900,   0.00000,274640135.82653,   0.00000,   0.00000,   0.00000,-252040263.16753,   0.00000
-252124806.91999,-172762434.35280,-26898980.53753,  -0.00081,  -0.00029,  -0.00035,228093724.25737,   0.00000,274640135.82653,   0.00000,   0.00000,   0.00000,-246546411.56916,   0.00000
-258115539.07939,-177052826.69138,-27521779.42539,  -0.00083,  -0.00030,  -0.00036,233545700.39908,   0.00000,274640135.82653,   0.00000,   0.00000,   0.00000,-241094435.42745,   0.00000
-264126042.63207,-181323447.63670,-28144578.31325,  -0.00085,  -0.00031,  -0.00037,239008088.28143,   0.00000,274640135.82653,   0.00000,   0.00000,   0.00000,-235632047.54510,   0.00000
-270082174.85326,-185599011.43034,-28757491.50448,  -0.00087,  -0.00032,  -0.00037,244428659.35188,   0.00000,274640135.82653,   0.00000,   0.00000,   0.00000,-230211476.47465,   0.00000
-276038307.07445,-189874575.22397,-29380290.39234,  -0.00089,  -0.00033,  -0.00038,249852855.45361,   0.00000,274640135.82653,   0.00000,   0.00000,   0.00000,-224787280.37292,   0.00000
-281979610.75070,-194115539.07939,-29993203.58357,  -0.00090,  -0.00033,  -0.00039,255255746.31053,   0.00000,274640135.82653,   0.00000,   0.00000,   0.00000,-219384389.51600,   0.00000
-287901143.03367,-198376274.32808,-30606116.77479,  -0.00092,  -0.00034,  -0.00040,260648539.98952,   0.00000,274640135.82653,   0.00000,   0.00000,   0.00000,-213991595.83701,   0.00000
-293802903.92339,-202656780.97003,-31219029.96602,  -0.00094,  -0.00035,  -0.00041,266031295.10313,   0.00000,274640135.82653,   0.00000,   0.00000,   0.00000,-208608840.72340,   0.00000
-299689836.26815,-206902687.67377,-31822057.46061,  -0.00096,  -0.00036,  -0.00041,271392736.74833,   0.00000,274640135.82653,   0.00000,   0.00000,   0.00000,-203247399.07820,   0.00000
-305542168.67470,-211133765.83256,-32425084.95521,  -0.00098,  -0.00036,  -0.00042,276726170.83174,   0.00000,274640135.82653,   0.00000,   0.00000,   0.00000,-197913964.99479,   0.00000
-311394501.08125,-215364843.99135,-33028112.44980,  -0.00100,  -0.00037,  -0.00043,282059730.94705,   0.00000,274640135.82653,   0.00000,   0.00000,   0.00000,-192580404.87948,   0.00000
-317227062.09453,-219615693.54340,-33631139.94439,  -0.00102,  -0.00038,  -0.00044,287383335.01602,   0.00000,274640135.82653,   0.00000,   0.00000,   0.00000,-187256800.81051,   0.00000
-323010194.62465,-223817114.61230,-34224281.74235,  -0.00103,  -0.00039,  -0.00044,292657446.95108,   0.00000,274640135.82653,   0.00000,   0.00000,   0.00000,-181982688.87545,   0.00000
-328808155.69972,-228053135.61940,-34827309.23695,  -0.00105,  -0.00040,  -0.00045,297953233.58205,   0.00000,274640135.82653,   0.00000,   0.00000,   0.00000,-176686902.24448,   0.00000
-334571516.83658,-232274328.08156,-35420451.03491,  -0.00107,  -0.00040,  -0.00046,303217601.97946,   0.00000,274640135.82653,   0.00000,   0.00000,   0.00000,-171422533.84707,   0.00000
-340334877.97343,-236495520.54371,-36003707.13624,  -0.00109,  -0.00041,  -0.00047,308478665.48528,   0.00000,274640135.82653,   0.00000,   0.00000,   0.00000,-166161470.34125,   0.00000
-346048810.62712,-240667284.52271,-36596848.93420,  -0.00111,  -0.00042,  -0.00048,313697117.71990,   0.00000,274640135.82653,   0.00000,   0.00000,   0.00000,-160943018.10662,   0.00000
-351777571.82576,-244873648.43991,-37180105.03553,  -0.00112,  -0.00043,  -0.00048,318930379.42309,   0.00000,274640135.82653,   0.00000,   0.00000,   0.00000,-155709756.40344,   0.00000
-357471733.08619,-249065183.81217,-37763361.13686,  -0.00114,  -0.00044,  -0.00049,324135707.94858,   0.00000,274640135.82653,   0.00000,   0.00000,   0.00000,-150504427.87795,   0.00000
-363146122.95335,-253276490.57770,-38346617.23818,  -0.00116,  -0.00044,  -0.00050,329331293.48381,   0.00000,274640135.82653,   0.00000,   0.00000,   0.00000,-145308842.34272,   0.00000
-368771084.33735,-257438368.86006,-38929873.33951,  -0.00118,  -0.00045,  -0.00051,334480799.27673,   0.00000,274640135.82653,   0.00000,   0.00000,   0.00000,-140159336.54980,   0.00000
-374396045.72135,-261600247.14242,-39503243.74421,  -0.00119,  -0.00046,  -0.00051,339627014.62906,   0.00000,274640135.82653,   0.00000,   0.00000,   0.00000,-135013121.19747,   0.00000
-380021007.10534,-265762125.42478,-40076614.14890,  -0.00121,  -0.00047,  -0.00052,344773385.86700,   0.00000,274640135.82653,   0.00000,   0.00000,   0.00000,-129866749.95953,   0.00000
-385626197.09608,-269943775.10040,-40649984.55360,  -0.00123,  -0.00048,  -0.00053,349910099.75869,   0.00000,274640135.82653,   0.00000,   0.00000,   0.00000,-124730036.06784,   0.00000
-391181958.60365,-274075996.29286,-41223354.95829,  -0.00125,  -0.00048,  -0.00054,355000685.10761,   0.00000,274640135.82653,   0.00000,   0.00000,   0.00000,-119639450.71892,   0.00000
-396703120.17300,-278193388.94038,-41786839.66636,  -0.00126,  -0.00049,  -0.00054,360059941.82758,   0.00000,274640135.82653,   0.00000,   0.00000,   0.00000,-114580193.99895,   0.00000
-402239110.28730,-282345381.52610,-42360210.07105,  -0.00128,  -0.00050,  -0.00055,365141100.73620,   0.00000,274640135.82653,   0.00000,   0.00000,   0.00000,-109499035.09033,   0.00000
-407740500.46339,-286482545.56688,-42923694.77912,  -0.00130,  -0.00051,  -0.00056,370190976.18611,   0.00000,274640135.82653,   0.00000,   0.00000,   0.00000,-104449159.64042,   0.00000
-413227062.09453,-290585109.66945,-43477293.79055,  -0.00131,  -0.00052,  -0.00057,375219275.72795,   0.00000,274640135.82653,   0.00000,   0.00000,   0.00000,-99420860.09858,   0.00000
-418693852.33241,-294707445.16528,-44040778.49861,  -0.00133,  -0.00052,  -0.00057,380241495.89675,   0.00000,274640135.82653,   0.00000,   0.00000,   0.00000,-94398639.92978,   0.00000
-424126042.63207,-298814952.11616,-44594377.51004,  -0.00135,  -0.00053,  -0.00058,385232459.74752,   0.00000,274640135.82653,   0.00000,   0.00000,   0.00000,-89407676.07901,   0.00000
-429543404.38678,-302887859.12882,-45147976.52147,  -0.00136,  -0.00054,  -0.00059,390205239.14237,   0.00000,274640135.82653,   0.00000,   0.00000,   0.00000,-84434896.68416,   0.00000
-434940994.74822,-306980537.53475,-45701575.53290,  -0.00138,  -0.00055,  -0.00059,395168572.88069,   0.00000,274640135.82653,   0.00000,   0.00000,   0.00000,-79471562.94584,   0.00000
-440303985.17145,-311058387.39574,-46255174.54433,  -0.00140,  -0.00056,  -0.00060,400104106.01759,   0.00000,274640135.82653,   0.00000,   0.00000,   0.00000,-74536029.80894,   0.00000
-445666975.59469,-315136237.25672,-46798887.85913,  -0.00141,  -0.00056,  -0.00061,405036412.09662,   0.00000,274640135.82653,   0.00000,   0.00000,   0.00000,-69603723.72991,   0.00000
-450995366.07970,-319199258.57275,-47342601.17393,  -0.00143,  -0.00057,  -0.00062,409940929.99372,   0.00000,274640135.82653,   0.00000,   0.00000,   0.00000,-64699205.83281,   0.00000
-456289156.62651,-323247451.34384,-47886314.48872,  -0.00145,  -0.00058,  -0.00062,414817670.36351,   0.00000,274640135.82653,   0.00000,   0.00000,   0.00000,-59822465.46302,   0.00000
-461582947.17331,-327295644.11492,-48430027.80352,  -0.00146,  -0.00059,  -0.00063,419694615.82131,   0.00000,274640135.82653,   0.00000,   0.00000,   0.00000,-54945520.00522,   0.00000
-466842137.78190,-331329008.34106,-48963855.42169,  -0.00148,  -0.00060,  -0.00064,424540372.90605,   0.00000,274640135.82653,   0.00000,   0.00000,   0.00000,-50099762.92047,   0.00000
-472066728.45227,-335347544.02224,-49497683.03985,  -0.00149,  -0.00061,  -0.00064,429358376.26770,   0.00000,274640135.82653,   0.00000,   0.00000,   0.00000,-45281759.55883,   0.00000
-477291319.12264,-339366079.70343,-50031510.65802,  -0.00151,  -0.00061,  -0.00065,434176590.44696,   0.00000,274640135.82653,   0.00000,   0.00000,   0.00000,-40463545.37957,   0.00000
-482481309.85480,-343369786.83967,-50565338.27618,  -0.00153,  -0.00062,  -0.00066,438967061.01883,   0.00000,274640135.82653,   0.00000,   0.00000,   0.00000,-35673074.80770,   0.00000
-487651529.19370,-347393265.36917,-51099165.89435,  -0.00154,  -0.00063,  -0.00066,443748365.54655,   0.00000,274640135.82653,   0.00000,   0.00000,   0.00000,-30891770.27998,   0.00000
-492806919.98764,-351382143.96046,-51623107.81588,  -0.00156,  -0.00064,  -0.00067,448507920.95554,   0.00000,274640135.82653,   0.00000,   0.00000,   0.00000,-26132214.87099,   0.00000
-497927710.84337,-355356194.00680,-52147049.73741,  -0.00157,  -0.00065,  -0.00068,453239757.76387,   0.00000,274640135.82653,   0.00000,   0.00000,   0.00000,-21400378.06266,   0.00000
-503013901.76089,-359315415.50819,-52670991.65894,  -0.00159,  -0.00065,  -0.00068,457943887.56259,   0.00000,274640135.82653,   0.00000,   0.00000,   0.00000,-16696248.26394,   0.00000
-508100092.67841,-363274637.00958,-53194933.58048,  -0.00160,  -0.00066,  -0.00069,462648238.10089,   0.00000,274640135.82653,   0.00000,   0.00000,   0.00000,-11991897.72564,   0.00000
-513131912.26444,-367238801.35928,-53708989.80538,  -0.00162,  -0.00067,  -0.00070,467312224.28535,   0.00000,274640135.82653,   0.00000,   0.00000,   0.00000,-7327911.54118,   0.00000
-518183503.24374,-371183194.31572,-54223046.03027,  -0.00163,  -0.00068,  -0.00070,471985714.78707,   0.00000,274640135.82653,   0.00000,   0.00000,   0.00000,-2654421.03946,   0.00000
-521047462.49873,-373433448.01607,-54518533.88992,  -0.00164,  -0.00068,  -0.00071,474640136.71953,   0.00000,274640135.82653,   0.00000,   0.00000,   0.00000,   0.89300,   0.00000
-521005809.54769,-373651277.93269,-54473363.70358,  -0.00165,  -0.00069,  -0.00071,474640136.71953,   0.00001,274647117.96752,  -0.00001,  -0.00000,  -0.00000,   0.00000,   2.00000
-520908365.31095,-374159073.07639,-54367646.28992,  -0.00166,  -0.00069,  -0.00072,479265336.55791,   0.00002,274663532.18164,  -0.00002,  -0.00001,  -0.00001,   0.00000,   2.00000
-520801774.65662,-374687071.89466,-54264206.81261,  -0.00168,  -0.00070,  -0.00072,479273000.14644,   0.00004,274679903.48218,  -0.00004,  -0.00001,  -0.00002,   0.00000,   2.00000
-520701212.78570,-375196512.59735,-54158650.65052,  -0.00169,  -0.00071,  -0.00073,479239792.60131,   0.00005,274696087.23915,  -0.00006,  -0.00002,  -0.00003,   0.00000,   2.00000
-520601133.50364,-375699975.60375,-54054146.23713,  -0.00171,  -0.00072,  -0.00074,479256384.36993,   0.00007,274712261.15786,  -0.00007,  -0.00002,  -0.00004,   0.00000,   2.00000
-520497603.61701,-376203312.78362,-53954359.94936,  -0.00172,  -0.00073,  -0.00074,479245103.76396,   0.00008,274728326.53677,  -0.00009,  -0.00003,  -0.00004,   0.00000,   2.00000
-520384800.40694,-376726933.91945,-53856739.16718,  -0.00174,  -0.00074,  -0.00075,479252578.96734,   0.00009,274744350.13015,  -0.00010,  -0.00004,  -0.00005,   0.00000,   2.00000
-520278090.23653,-377232428.69307,-53756879.45588,  -0.00175,  -0.00074,  -0.00076,479218977.49925,   0.00011,274760186.96667,  -0.00012,  -0.00004,  -0.00006,  -0.00000,   2.00000
-520171911.13665,-377732082.07444,-53657990.85417,  -0.00177,  -0.00075,  -0.00076,479235228.74931,   0.00012,274776014.43320,  -0.00014,  -0.00005,  -0.00007,   0.00000,   2.00000
-520056341.23916,-378252073.16766,-53561225.15789,  -0.00178,  -0.00076,  -0.00077,479242586.10718,   0.00014,274791800.90039,  -0.00015,  -0.00005,  -0.00007,   0.00000,   2.00000
-519943262.40605,-378751782.39282,-53471512.98589,  -0.00179,  -0.00077,  -0.00078,479212057.20112,   0.00015,274807413.07477,  -0.00017,  -0.00006,  -0.00008,   0.00000,   2.00000
-519830783.46828,-379245778.09450,-53382653.48586,  -0.00181,  -0.00078,  -0.00078,479228081.31741,   0.00017,274823016.25913,  -0.00018,  -0.00006,  -0.00009,   0.00000,   2.00000
-519718460.58326,-379742574.28768,-53288919.31622,  -0.00182,  -0.00078,  -0.00079,479212970.18598,   0.00018,274838500.58375,  -0.00020,  -0.00007,  -0.00010,   0.00000,   2.00000
-519596610.06948,-380259761.51842,-53197207.59101,  -0.00184,  -0.00079,  -0.00080,479220149.06274,   0.00019,274853944.99928,  -0.00021,  -0.00008,  -0.00010,   0.00000,   2.00000
-519477326.56016,-380757072.80922,-53112449.93560,  -0.00185,  -0.00080,  -0.00080,479189213.64372,   0.00021,274869215.75000,  -0.00023,  -0.00008,  -0.00011,   0.00000,   2.00000
-519358681.46172,-381248784.04177,-53028476.13528,  -0.00186,  -0.00081,  -0.00081,479204906.87269,   0.00022,274884477.95002,  -0.00024,  -0.00009,  -0.00012,  -0.00000,   2.00000
-519240129.83673,-381743514.36705,-52939525.18315,  -0.00188,  -0.00082,  -0.00081,479189529.17846,   0.00024,274899622.24637,  -0.00026,  -0.00009,  -0.00013,   0.00000,   2.00000
-519108327.98923,-382256200.62943,-52861857.10702,  -0.00189,  -0.00082,  -0.00082,479199841.69725,   0.00025,274914739.44864,  -0.00027,  -0.00010,  -0.00013,   0.00000,   2.00000
-518982782.69873,-382751907.77594,-52781599.87323,  -0.00190,  -0.00083,  -0.00083,479165212.46492,   0.00026,274929671.97109,  -0.00029,  -0.00010,  -0.00014,   0.00000,   2.00000
-518857909.60217,-383242117.43129,-52702063.87723,  -0.00192,  -0.00084,  -0.00083,479180580.01721,   0.00028,274944596.36762,  -0.00030,  -0.00011,  -0.00015,   0.00000,   2.00000
-518733060.78742,-383735553.07086,-52617456.49874,  -0.00193,  -0.00085,  -0.00084,479164940.70456,   0.00029,274959403.79392,  -0.00032,  -0.00011,  -0.00016,   0.00000,   2.00000
-518601074.25426,-384227278.95999,-52546538.13649,  -0.00194,  -0.00086,  -0.00085,479155783.51671,   0.00030,274974117.71445,  -0.00033,  -0.00012,  -0.00016,   0.00000,   2.00000
-518473365.13775,-384716084.76210,-52466874.04466,  -0.00196,  -0.00087,  -0.00085,479167654.55038,   0.00032,274988812.24590,  -0.00035,  -0.00013,  -0.00017,   0.00000,   2.00000
-518342066.58154,-385205788.91105,-52391471.39543,  -0.00197,  -0.00087,  -0.00086,479155116.57827,   0.00033,275003402.03015,  -0.00036,  -0.00013,  -0.00018,   0.00000,   2.00000
-518200868.53041,-385715992.74746,-52317787.53737,  -0.00198,  -0.00088,  -0.00086,479161860.20500,   0.00034,275017954.85796,  -0.00038,  -0.00014,  -0.00018,  -0.00000,   2.00000
-518062428.17638,-386207402.07359,-52250765.74003,  -0.00200,  -0.00089,  -0.00087,479129868.65770,   0.00036,275032335.70754,  -0.00039,  -0.00014,  -0.00019,   0.00000,   2.00000
-517923927.15518,-386702315.77527,-52178475.27771,  -0.00201,  -0.00090,  -0.00088,479113811.21029,   0.00037,275046601.04709,  -0.00041,  -0.00015,  -0.00020,   0.00000,   2.00000
-517786154.19046,-387191905.66410,-52106795.16908,  -0.00202,  -0.00091,  -0.00088,479128543.01348,   0.00038,275060859.07390,  -0.00042,  -0.00015,  -0.00020,   0.00000,   2.00000
-517644735.39424,-387682619.91380,-52039247.05497,  -0.00203,  -0.00091,  -0.00089,479115649.19300,   0.00040,275075013.40791,  -0.00043,  -0.00016,  -0.00021,  -0.00000,   2.00000
-517499669.29745,-388174496.90280,-51975779.68721,  -0.00205,  -0.00092,  -0.00089,479102671.75494,   0.00041,275089064.29646,  -0.00045,  -0.00017,  -0.00022,   0.00000,   2.00000
-517361841.32981,-388641842.49068,-51915320.68090,  -0.00206,  -0.00093,  -0.00090,479097657.47079,   0.00042,275103040.31245,  -0.00046,  -0.00017,  -0.00022,   0.00000,   2.00000
-517212908.85869,-389138919.71208,-51850504.55680,  -0.00207,  -0.00094,  -0.00090,479073227.89947,   0.00044,275116873.80972,  -0.00048,  -0.00018,  -0.00023,  -0.00000,   2.00000
-517064745.16199,-389630755.90865,-51786206.19918,  -0.00208,  -0.00095,  -0.00091,479087556.17171,   0.00045,275130700.52957,  -0.00049,  -0.00018,  -0.00024,  -0.00000,   2.00000
-516917358.83410,-390117409.95505,-51722423.06922,  -0.00209,  -0.00095,  -0.00092,479101866.79226,   0.00046,275144520.50860,  -0.00050,  -0.00019,  -0.00024,   0.00000,   2.00000
-516761730.36786,-390612009.44681,-51666139.94798,  -0.00211,  -0.00096,  -0.00092,479061085.96295,   0.00047,275158142.14220,  -0.00052,  -0.00019,  -0.00025,   0.00000,   2.00000
-516613497.37601,-391082374.24414,-51612783.17594,  -0.00212,  -0.00097,  -0.00093,479055531.79157,   0.00049,275171689.13628,  -0.00053,  -0.00020,  -0.00026,   0.00000,   2.00000
-516458385.31959,-391575981.41498,-51551437.04454,  -0.00213,  -0.00098,  -0.00093,479058496.05832,   0.00050,275185191.14192,  -0.00054,  -0.00020,  -0.00026,   0.00000,   2.00000
-516299485.14473,-392071073.55847,-51494043.26523,  -0.00214,  -0.00099,  -0.00094,479045003.32809,   0.00051,275198591.26373,  -0.00056,  -0.00021,  -0.00027,   0.00000,   2.00000
-516143444.50514,-392548744.92600,-51443056.13179,  -0.00215,  -0.00099,  -0.00095,479011667.39425,   0.00052,275211821.37955,  -0.00057,  -0.00021,  -0.00028,  -0.00000,   2.00000
-515981545.01078,-393040449.07418,-51389939.62584,  -0.00216,  -0.00100,  -0.00095,479045168.03912,   0.00053,275225113.94007,  -0.00058,  -0.00022,  -0.00028,  -0.00000,   2.00000
-515815826.81206,-393533780.77841,-51340677.40402,  -0.00218,  -0.00101,  -0.00096,479031513.78522,   0.00055,275238305.23410,  -0.00060,  -0.00023,  -0.00029,   0.00000,   2.00000
-515656457.02000,-394012462.85666,-51288339.12781,  -0.00219,  -0.00102,  -0.00096,478994728.00668,   0.00056,275251315.75396,  -0.00061,  -0.00023,  -0.00030,   0.00000,   2.00000
-515486453.07749,-394511809.56022,-51237328.39315,  -0.00220,  -0.00103,  -0.00097,479000669.88202,   0.00057,275264294.09762,  -0.00062,  -0.00024,  -0.00030,   0.00000,   2.00000
-515319332.42489,-394994137.57580,-51192632.85180,  -0.00221,  -0.00103,  -0.00097,478966869.98664,   0.00058,275277103.14897,  -0.00063,  -0.00024,  -0.00031,   0.00000,   2.00000
-515153055.92685,-395471653.58781,-51148237.12895,  -0.00222,  -0.00104,  -0.00098,478980193.98596,   0.00059,275289906.71825,  -0.00065,  -0.00025,  -0.00031,   0.00000,   2.00000
-514976037.80842,-395969828.17595,-51105072.89752,  -0.00223,  -0.00105,  -0.00098,478986065.18080,   0.00061,275302678.89462,  -0.00066,  -0.00025,  -0.00032,   0.00000,   2.00000
-514805361.34002,-396453755.30389,-51058742.39563,  -0.00224,  -0.00106,  -0.00099,478948836.91376,   0.00062,275315271.08881,  -0.00067,  -0.00026,  -0.00033,   0.00000,   2.00000
-514632097.41675,-396930399.66325,-51022117.42587,  -0.00225,  -0.00107,  -0.00099,478965146.56503,   0.00063,275327869.11886,  -0.00068,  -0.00026,  -0.00033,   0.00000,   2.00000
-514453435.96501,-397418576.21054,-50983181.18486,  -0.00226,  -0.00107,  -0.00100,478920360.60877,   0.00064,275340262.06157,  -0.00070,  -0.00027,  -0.00034,  -0.00000,   2.00000
-514268728.88828,-397920420.11607,-50941960.08995,  -0.00227,  -0.00108,  -0.00101,478953384.22552,   0.00065,275352719.04066,  -0.00071,  -0.00028,  -0.00034,   0.00000,   2.00000
-514090340.39973,-398408337.71683,-50897532.06249,  -0.00228,  -0.00109,  -0.00101,478915820.43404,   0.00066,275364996.61820,  -0.00072,  -0.00028,  -0.00035,   0.00000,   2.00000
-513909385.78216,-398888998.52265,-50862785.78263,  -0.00229,  -0.00110,  -0.00102,478931833.75503,   0.00067,275377280.31961,  -0.00073,  -0.00029,  -0.00036,  -0.00000,   2.00000
-513722812.28945,-399381414.23886,-50825666.52651,  -0.00230,  -0.00111,  -0.00102,478886882.09588,   0.00069,275389360.14669,  -0.00074,  -0.00029,  -0.00036,  -0.00000,   2.00000
-513537104.88246,-399869087.31652,-50788755.53627,  -0.00231,  -0.00111,  -0.00103,478899547.60178,   0.00070,275401435.33298,  -0.00076,  -0.00030,  -0.00037,  -0.00000,   2.00000
-513347259.57898,-400359067.43518,-50755461.79568,  -0.00232,  -0.00112,  -0.00103,478884921.95235,   0.00071,275413412.08011,  -0.00077,  -0.00030,  -0.00037,   0.00000,   2.00000
-513160300.96571,-400833210.39397,-50728278.83434,  -0.00233,  -0.00113,  -0.00104,478849980.18406,   0.00072,275425221.22792,  -0.00078,  -0.00031,  -0.00038,   0.00000,   2.00000
-512967163.88481,-401320999.88641,-50698687.57265,  -0.00234,  -0.00114,  -0.00104,478882617.25245,   0.00073,275437095.54417,  -0.00079,  -0.00031,  -0.00038,  -0.00000,   2.00000
-512768127.97362,-401820801.27009,-50666626.75993,  -0.00235,  -0.00115,  -0.00105,478837453.90081,   0.00074,275448767.53702,  -0.00080,  -0.00032,  -0.00039,   0.00000,   2.00000
-512569966.44188,-402315883.22357,-50634717.93158,  -0.00236,  -0.00115,  -0.00105,478849759.45793,   0.00075,275460435.37742,  -0.00081,  -0.00032,  -0.00039,   0.00000,   2.00000
-512374665.58452,-402795425.77823,-50608894.65899,  -0.00237,  -0.00116,  -0.00106,478814485.48537,   0.00076,275471936.11656,  -0.00083,  -0.00033,  -0.00040,   0.00000,   2.00000
-512167917.44200,-403295577.82126,-50584022.73756,  -0.00238,  -0.00117,  -0.00106,478819773.32241,   0.00077,275483409.39481,  -0.00084,  -0.00033,  -0.00041,   0.00000,   2.00000
-511962066.51614,-403791052.46898,-50559238.65097,  -0.00239,  -0.00118,  -0.00107,478831900.47410,   0.00078,275494878.81746,  -0.00085,  -0.00034,  -0.00041,   0.00000,   2.00000
-511762450.55684,-404273776.23298,-50531062.38400,  -0.00240,  -0.00119,  -0.00107,478793250.96249,   0.00079,275506170.64948,  -0.00086,  -0.00034,  -0.00042,   0.00000,   2.00000
-511549799.59590,-404763914.52626,-50519179.74019,  -0.00241,  -0.00119,  -0.00108,478754015.77731,   0.00080,275517283.78107,  -0.00087,  -0.00035,  -0.00042,   0.00000,   2.00000
-511339488.85465,-405262649.72376,-50491931.83804,  -0.00242,  -0.00120,  -0.00108,478810260.38643,   0.00081,275528545.41430,  -0.00088,  -0.00036,  -0.00043,   0.00000,   2.00000
-511126672.43312,-405753559.13450,-50474092.88158,  -0.00243,  -0.00121,  -0.00109,478747425.56499,   0.00082,275539547.95706,  -0.00089,  -0.00036,  -0.00043,   0.00000,   2.00000
-510909387.39655,-406247277.82580,-50459653.16986,  -0.00243,  -0.00122,  -0.00109,478731986.65542,   0.00083,275550454.54647,  -0.00090,  -0.00037,  -0.00044,   0.00000,   2.00000
-510689058.79253,-406756692.54006,-50433230.95334,  -0.00244,  -0.00123,  -0.00110,478761009.07463,   0.00084,275561417.25214,  -0.00091,  -0.00037,  -0.00044,  -0.00000,   2.00000
-510468149.07009,-407248661.02826,-50422244.22889,  -0.00245,  -0.00123,  -0.00110,478728145.98043,   0.00085,275572224.85887,  -0.00092,  -0.00038,  -0.00045,  -0.00000,   2.00000
-510246049.83349,-407746096.08901,-50405172.98499,  -0.00246,  -0.00124,  -0.00111,478709436.42167,   0.00086,275582926.28416,  -0.00093,  -0.00038,  -0.00045,   0.00000,   2.00000
-510024831.21334,-408239087.24305,-50388115.74081,  -0.00247,  -0.00125,  -0.00111,478720833.88385,   0.00087,275593624.71036,  -0.00094,  -0.00039,  -0.00046,   0.00000,   2.00000
-509793470.54965,-408742410.25120,-50377790.92249,  -0.00248,  -0.00126,  -0.00112,478678181.42008,   0.00088,275604135.94177,  -0.00095,  -0.00039,  -0.00046,   0.00000,   2.00000
-509562996.07452,-409241275.75220,-50367422.88131,  -0.00248,  -0.00126,  -0.00112,478689425.64599,   0.00089,275614644.45620,  -0.00096,  -0.00040,  -0.00047,   0.00000,   2.00000
-509331181.63468,-409745708.90443,-50350946.42344,  -0.00249,  -0.00127,  -0.00113,478670527.56240,   0.00090,275625047.57650,  -0.00097,  -0.00040,  -0.00047,   0.00000,   2.00000
-509091277.68924,-410250553.52965,-50347244.70231,  -0.00250,  -0.00128,  -0.00113,478657843.78413,   0.00091,275635367.02905,  -0.00098,  -0.00041,  -0.00048,  -0.00000,   2.00000
-508863077.16620,-410736341.88055,-50336614.41297,  -0.00251,  -0.00129,  -0.00114,478644954.49157,   0.00092,275645602.58960,  -0.00099,  -0.00041,  -0.00048,   0.00000,   2.00000
-508622588.04014,-411242554.15541,-50326702.52743,  -0.00252,  -0.00130,  -0.00114,478649803.96912,   0.00093,275655814.81572,  -0.00100,  -0.00042,  -0.00049,   0.00000,   2.00000
-508371550.18301,-411759331.68862,-50323428.77862,  -0.00252,  -0.00130,  -0.00115,478606947.68315,   0.00094,275665841.70758,  -0.00101,  -0.00042,  -0.00049,   0.00000,   2.00000
-508134655.07417,-412247070.12010,-50319306.26420,  -0.00253,  -0.00131,  -0.00115,478623777.05966,   0.00095,275675887.00487,  -0.00102,  -0.00043,  -0.00050,  -0.00000,   2.00000
-507879537.81949,-412762692.97747,-50319174.60069,  -0.00254,  -0.00132,  -0.00116,478601722.22058,   0.00096,275685818.48601,  -0.00103,  -0.00043,  -0.00050,   0.00000,   2.00000
-507630375.79943,-413267068.57642,-50315435.27394,  -0.00255,  -0.00133,  -0.00116,478561500.69786,   0.00097,275695575.08711,  -0.00104,  -0.00044,  -0.00051,  -0.00000,   2.00000
-507374478.99126,-413784085.53835,-50308984.94263,  -0.00255,  -0.00133,  -0.00117,478593053.60526,   0.00098,275705400.91473,  -0.00105,  -0.00044,  -0.00051,   0.00000,   2.00000
-507121156.46847,-414287412.24771,-50308399.68301,  -0.00256,  -0.00134,  -0.00117,478555848.63935,   0.00099,275715062.73339,  -0.00106,  -0.00045,  -0.00052,  -0.00000,   2.00000
-506862766.10576,-414794110.11287,-50311026.00188,  -0.00257,  -0.00135,  -0.00118,478539499.38975,   0.00100,275724631.95068,  -0.00107,  -0.00045,  -0.00052,  -0.00000,   2.00000
-506591627.59831,-415320942.19011,-50314212.89484,  -0.00257,  -0.00136,  -0.00118,478544193.96621,   0.00100,275734180.13878,  -0.00108,  -0.00046,  -0.00053,   0.00000,   2.00000
-506329001.79873,-415826619.93154,-50319867.68552,  -0.00258,  -0.00137,  -0.00118,478533516.29484,   0.00101,275743655.51900,  -0.00109,  -0.00046,  -0.00053,   0.00000,   2.00000
-506064523.74680,-416338369.80667,-50319255.12149,  -0.00259,  -0.00137,  -0.00119,478513927.94459,   0.00102,275753028.20115,  -0.00110,  -0.00047,  -0.00053,   0.00000,   2.00000
-505791487.44155,-416850929.71867,-50331270.29112,  -0.00259,  -0.00138,  -0.00119,478500555.26347,   0.00103,275762319.75558,  -0.00110,  -0.00047,  -0.00054,   0.00000,   2.00000
-505516512.70080,-417369585.54503,-50336966.98860,  -0.00260,  -0.00139,  -0.00120,478480866.02565,   0.00104,275771509.12591,  -0.00111,  -0.00048,  -0.00054,   0.00000,   2.00000
-505236214.05734,-417891697.12694,-50345812.75767,  -0.00261,  -0.00140,  -0.00120,478464254.24304,   0.00105,275780607.17825,  -0.00112,  -0.00048,  -0.00055,  -0.00000,   2.00000
-504956733.84188,-418409528.22881,-50354460.69229,  -0.00261,  -0.00140,  -0.00121,478474274.54369,   0.00106,275789704.29908,  -0.00113,  -0.00049,  -0.00055,  -0.00000,   2.00000
-504675171.98192,-418933526.54146,-50356804.87794,  -0.00262,  -0.00141,  -0.00121,478454478.81008,   0.00106,275798699.77931,  -0.00114,  -0.00049,  -0.00056,   0.00000,   2.00000
-504392626.12234,-419442047.78903,-50374403.10877,  -0.00262,  -0.00142,  -0.00122,478419564.71714,   0.00107,275807543.25179,  -0.00115,  -0.00049,  -0.00056,  -0.00000,   2.00000
-504100094.70720,-419973227.09633,-50382975.60237,  -0.00263,  -0.00143,  -0.00122,478420916.96135,   0.00108,275816357.53662,  -0.00116,  -0.00050,  -0.00057,  -0.00000,   2.00000
-503798695.15919,-420505267.31407,-50404094.73978,  -0.00264,  -0.00144,  -0.00122,478407255.06648,   0.00109,275825092.23684,  -0.00116,  -0.00050,  -0.00057,  -0.00000,   2.00000
-503509251.75981,-421019506.33713,-50418174.76113,  -0.00264,  -0.00144,  -0.00123,478392420.32332,   0.00110,275833743.81261,  -0.00117,  -0.00051,  -0.00057,  -0.00000,   2.00000
-503206310.00253,-421553634.15135,-50432661.96500,  -0.00265,  -0.00145,  -0.00123,478396912.42923,   0.00110,275842377.64384,  -0.00118,  -0.00051,  -0.00058,   0.00000,   2.00000
-502905565.52377,-422075283.42373,-50452906.81478,  -0.00265,  -0.00146,  -0.00124,478358528.65240,   0.00111,275850849.55937,  -0.00119,  -0.00052,  -0.00058,   0.00000,   2.00000
-502594492.39611,-422619404.31368,-50464072.16445,  -0.00266,  -0.00147,  -0.00124,478359849.76833,   0.00112,275859293.74115,  -0.00120,  -0.00052,  -0.00059,   0.00000,   2.00000
-502288772.69236,-423140557.73278,-50487139.74643,  -0.00266,  -0.00147,  -0.00125,478350951.32979,   0.00113,275867676.13547,  -0.00120,  -0.00053,  -0.00059,  -0.00000,   2.00000
-501973948.37418,-423676161.66597,-50507109.39514,  -0.00267,  -0.00148,  -0.00125,478304230.49757,   0.00114,275875869.74467,  -0.00121,  -0.00053,  -0.00059,   0.00000,   2.00000
-501651891.93647,-424223442.57704,-50524098.98585,  -0.00267,  -0.00149,  -0.00125,478335113.95196,   0.00114,275884136.19050,  -0.00122,  -0.00054,  -0.00060,   0.00000,   2.00000
-501331857.59635,-424758580.16266,-50546844.96993,  -0.00268,  -0.00150,  -0.00126,478296401.76846,   0.00115,275892241.42563,  -0.00123,  -0.00054,  -0.00060,  -0.00000,   2.00000
-501012545.02492,-425289567.35406,-50569300.51891,  -0.00268,  -0.00150,  -0.00126,478305587.52287,   0.00116,275900347.05268,  -0.00123,  -0.00055,  -0.00061,  -0.00000,   2.00000
-500680434.15884,-425832428.14138,-50598082.94634,  -0.00269,  -0.00151,  -0.00127,478261979.87402,   0.00117,275908275.82536,  -0.00124,  -0.00055,  -0.00061,   0.00000,   2.00000
-500349018.50085,-426371106.55124,-50626535.68626,  -0.00269,  -0.00152,  -0.00127,478271047.94651,   0.00117,275916205.31690,  -0.00125,  -0.00055,  -0.00061,   0.00000,   2.00000
-500014754.44047,-426916393.43838,-50648535.55409,  -0.00270,  -0.00153,  -0.00128,478250598.92497,   0.00118,275924036.45352,  -0.00126,  -0.00056,  -0.00062,   0.00000,   2.00000
-499670964.94046,-427462817.96859,-50682982.81136,  -0.00270,  -0.00153,  -0.00128,478236418.32401,   0.00119,275931790.76378,  -0.00126,  -0.00056,  -0.00062,   0.00000,   2.00000
-499331152.72773,-428007800.65457,-50707633.79300,  -0.00271,  -0.00154,  -0.00128,478242197.34720,   0.00119,275939535.44848,  -0.00127,  -0.00057,  -0.00063,   0.00000,   2.00000
-498978025.58090,-428564784.09320,-50738586.03893,  -0.00271,  -0.00155,  -0.00129,478198556.17160,   0.00120,275947104.95687,  -0.00128,  -0.00057,  -0.00063,   0.00000,   2.00000
-498633630.64912,-429102208.70581,-50771949.89540,  -0.00272,  -0.00156,  -0.00129,478185451.97126,   0.00121,275954602.42815,  -0.00128,  -0.00058,  -0.00063,   0.00000,   2.00000
-498274675.04410,-429659002.41375,-50805503.67412,  -0.00272,  -0.00156,  -0.00130,478189837.69904,   0.00121,275962086.67156,  -0.00129,  -0.00058,  -0.00064,   0.00000,   2.00000
-497916344.61173,-430211586.46476,-50838695.93369,  -0.00272,  -0.00157,  -0.00130,478198585.48226,   0.00122,275969572.37895,  -0.00130,  -0.00059,  -0.00064,   0.00000,   2.00000
-497555729.88375,-430763891.66078,-50871478.58061,  -0.00273,  -0.00158,  -0.00130,478129767.60007,   0.00123,275976800.03859,  -0.00130,  -0.00059,  -0.00064,   0.00000,   2.00000
-497184230.71419,-431324437.68418,-50910560.14155,  -0.00273,  -0.00159,  -0.00131,478163479.18939,   0.00124,275984113.68235,  -0.00131,  -0.00059,  -0.00065,   0.00000,   2.00000
-496817526.93739,-431876687.76492,-50945907.48080,  -0.00274,  -0.00159,  -0.00131,478120715.69993,   0.00124,275991257.29033,  -0.00132,  -0.00060,  -0.00065,   0.00000,   2.00000
-496444062.84219,-432433057.71551,-50984191.71949,  -0.00274,  -0.00160,  -0.00132,478103030.02330,   0.00125,275998315.40958,  -0.00132,  -0.00060,  -0.00065,   0.00000,   2.00000
-496055555.76231,-433008464.77016,-51022591.69547,  -0.00274,  -0.00161,  -0.00132,478107469.71795,   0.00126,276005362.27430,  -0.00133,  -0.00061,  -0.00066,   0.00000,   2.00000
-495675799.26846,-433564734.44598,-51063407.22303,  -0.00275,  -0.00162,  -0.00132,478093745.65613,   0.00126,276012337.36762,  -0.00134,  -0.00061,  -0.00066,   0.00000,   2.00000
-495289103.77778,-434125159.92087,-51107128.30068,  -0.00275,  -0.00162,  -0.00133,478076023.44398,   0.00127,276019227.66014,  -0.00134,  -0.00061,  -0.00066,  -0.00000,   2.00000
-494895395.12181,-434689735.09237,-51153738.26772,  -0.00275,  -0.00163,  -0.00133,478058278.04431,   0.00127,276026033.44754,  -0.00135,  -0.00062,  -0.00067,   0.00000,   2.00000
-494489622.05449,-435275957.55302,-51190958.18892,  -0.00276,  -0.00164,  -0.00134,478059606.61571,   0.00128,276032818.62114,  -0.00135,  -0.00062,  -0.00067,  -0.00000,   2.00000
-494089294.04308,-435840420.37321,-51240054.14191,  -0.00276,  -0.00165,  -0.00134,478048767.71252,   0.00129,276039542.83950,  -0.00136,  -0.00063,  -0.00067,   0.00000,   2.00000
-493677358.20401,-436420196.16185,-51285878.34528,  -0.00276,  -0.00165,  -0.00134,478001870.28928,   0.00129,276046086.07373,  -0.00137,  -0.00063,  -0.00068,   0.00000,   2.00000
-493265835.46152,-436995784.70412,-51331274.58182,  -0.00276,  -0.00166,  -0.00135,478009926.58015,   0.00130,276052632.27721,  -0.00137,  -0.00064,  -0.00068,   0.00000,   2.00000
-492854742.83138,-437567215.26361,-51376246.69926,  -0.00277,  -0.00167,  -0.00135,478017972.04267,   0.00131,276059181.43593,  -0.00138,  -0.00064,  -0.00068,   0.00000,   2.00000
-492436712.53021,-438136814.80738,-51430263.02857,  -0.00277,  -0.00168,  -0.00136,477951852.37659,   0.00131,276065486.54621,  -0.00138,  -0.00064,  -0.00069,   0.00000,   2.00000
-492010716.11722,-438716677.86186,-51480947.20998,  -0.00277,  -0.00168,  -0.00136,477982164.35035,   0.00132,276071869.71912,  -0.00139,  -0.00065,  -0.00069,  -0.00000,   2.00000
-491580433.12931,-439303601.73502,-51525049.32463,  -0.00277,  -0.00169,  -0.00136,477961109.03787,   0.00132,276078159.59200,  -0.00139,  -0.00065,  -0.00069,   0.00000,   2.00000
-491139177.99502,-439891810.83727,-51581456.19415,  -0.00278,  -0.00170,  -0.00137,477946448.70881,   0.00133,276084377.91140,  -0.00140,  -0.00066,  -0.00070,   0.00000,   2.00000
-490701851.26779,-440472964.10264,-51634148.85377,  -0.00278,  -0.00171,  -0.00137,477902758.74535,   0.00133,276090428.39358,  -0.00141,  -0.00066,  -0.00070,   0.00000,   2.00000
-490253132.22085,-441061176.72072,-51692909.72676,  -0.00278,  -0.00171,  -0.00137,477936280.41999,   0.00134,276096568.58911,  -0.00141,  -0.00066,  -0.00070,  -0.00000,   2.00000
-489791618.42523,-441664896.02436,-51748347.83503,  -0.00278,  -0.00172,  -0.00138,477889519.16732,   0.00135,276102531.12686,  -0.00142,  -0.00067,  -0.00071,   0.00000,   2.00000
-489338755.97958,-442250403.36469,-51806224.72933,  -0.00279,  -0.00173,  -0.00138,477874537.91427,   0.00135,276108422.45023,  -0.00142,  -0.00067,  -0.00071,   0.00000,   2.00000
-488877715.55850,-442845651.57693,-51860692.23972,  -0.00279,  -0.00174,  -0.00139,477904857.94603,   0.00136,276114393.39837,  -0.00143,  -0.00067,  -0.00071,  -0.00000,   2.00000
-488408616.76998,-443439758.88441,-51924220.25915,  -0.00279,  -0.00174,  -0.00139,477838612.47129,   0.00136,276120122.85309,  -0.00143,  -0.00068,  -0.00071,   0.00000,   2.00000
-487939706.65516,-444029704.58959,-51987240.14914,  -0.00279,  -0.00175,  -0.00139,477846113.60038,   0.00137,276125856.78578,  -0.00144,  -0.00068,  -0.00072,  -0.00000,   2.00000
-487457324.58989,-444640580.47245,-52040675.73622,  -0.00279,  -0.00176,  -0.00140,477847691.10917,   0.00137,276131575.44030,  -0.00144,  -0.00069,  -0.00072,   0.00000,   2.00000
-486971705.49240,-445239066.99160,-52109320.35000,  -0.00279,  -0.00177,  -0.00140,477810136.68288,   0.00138,276137149.06842,  -0.00145,  -0.00069,  -0.00072,  -0.00000,   2.00000
-486489517.47448,-445836331.10751,-52168009.16747,  -0.00279,  -0.00177,  -0.00140,477814308.59566,   0.00138,276142716.73141,  -0.00145,  -0.00069,  -0.00073,   0.00000,   2.00000
-485986786.01514,-446443443.10895,-52242233.38654,  -0.00280,  -0.00178,  -0.00141,477774095.81179,   0.00139,276148131.22587,  -0.00146,  -0.00070,  -0.00073,   0.00000,   2.00000
-485478901.94425,-447062673.40848,-52303486.38190,  -0.00280,  -0.00179,  -0.00141,477801199.73211,   0.00139,276153616.45652,  -0.00146,  -0.00070,  -0.00073,  -0.00000,   2.00000
-484970763.83042,-447672727.30464,-52370520.74479,  -0.00280,  -0.00179,  -0.00142,477760273.27172,   0.00140,276158946.53455,  -0.00146,  -0.00070,  -0.00073,  -0.00000,   2.00000
-484462655.69418,-448278531.04032,-52437025.66027,  -0.00280,  -0.00180,  -0.00142,477767573.84869,   0.00140,276164282.04532,  -0.00147,  -0.00071,  -0.00074,   0.00000,   2.00000
-483936679.95917,-448897170.85989,-52509606.54367,  -0.00280,  -0.00181,  -0.00142,477724265.59378,   0.00141,276169455.17854,  -0.00147,  -0.00071,  -0.00074,   0.00000,   2.00000
-483413946.81754,-449514520.66960,-52572211.20933,  -0.00280,  -0.00182,  -0.00143,477728234.31459,   0.00141,276174623.28033,  -0.00148,  -0.00071,  -0.00074,  -0.00000,   2.00000
-482887876.15097,-450124555.74476,-52643719.91365,  -0.00280,  -0.00182,  -0.00143,477738729.89519,   0.00142,276179808.08731,  -0.00148,  -0.00072,  -0.00075,   0.00000,   2.00000
-482343471.10496,-450747438.02654,-52721282.23027,  -0.00280,  -0.00183,  -0.00143,477695560.44484,   0.00142,276184831.71526,  -0.00149,  -0.00072,  -0.00075,   0.00000,   2.00000
-481810806.39549,-451356124.71586,-52791901.11628,  -0.00280,  -0.00184,  -0.00144,477676190.70805,   0.00143,276189773.64861,  -0.00149,  -0.00072,  -0.00075,  -0.00000,   2.00000
-481260176.59821,-451982033.62153,-52862223.83047,  -0.00280,  -0.00185,  -0.00144,477681370.24792,   0.00143,276194715.53240,  -0.00149,  -0.00073,  -0.00075,  -0.00000,   2.00000
-480696724.96855,-452609092.32977,-52944712.29017,  -0.00280,  -0.00185,  -0.00144,477666708.81407,   0.00144,276199591.72560,  -0.00150,  -0.00073,  -0.00076,   0.00000,   2.00000
-480126935.55438,-453243416.07182,-53020487.15307,  -0.00280,  -0.00186,  -0.00145,477645481.54642,   0.00144,276204380.71523,  -0.00150,  -0.00073,  -0.00076,   0.00000,   2.00000
-479565486.69491,-453860706.33007,-53098775.29722,  -0.00280,  -0.00187,  -0.00145,477629152.90167,   0.00144,276209099.10529,  -0.00151,  -0.00074,  -0.00076,  -0.00000,   2.00000
-478985644.78934,-454494876.36091,-53176694.07798,  -0.00280,  -0.00188,  -0.00145,477634556.22940,   0.00145,276213819.12392,  -0.00151,  -0.00074,  -0.00076,  -0.00000,   2.00000
-478395867.16338,-455133206.08374,-53257328.06004,  -0.00280,  -0.00188,  -0.00146,477616673.09277,   0.00145,276218463.70765,  -0.00151,  -0.00074,  -0.00077,   0.00000,   2.00000
-477807931.03685,-455766392.07022,-53334374.17192,  -0.00280,  -0.00189,  -0.00146,477571949.68382,   0.00146,276222944.29831,  -0.00152,  -0.00075,  -0.00077,   0.00000,   2.00000
-477207716.10636,-456404411.73902,-53417124.72795,  -0.00280,  -0.00190,  -0.00146,477605708.81564,   0.00146,276227521.31944,  -0.00152,  -0.00075,  -0.00077,   0.00000,   2.00000
-476605873.33192,-457034310.85224,-53505710.38169,  -0.00280,  -0.00190,  -0.00147,477564282.63743,   0.00147,276231945.64689,  -0.00153,  -0.00075,  -0.00077,   0.00000,   2.00000
-475988359.01141,-457683764.99877,-53584421.86542,  -0.00280,  -0.00191,  -0.00147,477566657.36939,   0.00147,276236362.75473,  -0.00153,  -0.00076,  -0.00077,   0.00000,   2.00000
-475378994.13473,-458316563.76104,-53665692.99788,  -0.00280,  -0.00192,  -0.00147,477549937.61270,   0.00147,276240709.53782,  -0.00153,  -0.00076,  -0.00078,   0.00000,   2.00000
-474737044.25371,-458971063.24363,-53759211.86974,  -0.00280,  -0.00193,  -0.00148,477534395.84579,   0.00148,276244990.21201,  -0.00154,  -0.00076,  -0.00078,   0.00000,   2.00000
-474106439.14008,-459612150.68260,-53845848.53057,  -0.00280,  -0.00193,  -0.00148,477514244.28028,   0.00148,276249189.76882,  -0.00154,  -0.00077,  -0.00078,  -0.00000,   2.00000
-473475290.75641,-460248768.15621,-53931866.15062,  -0.00280,  -0.00194,  -0.00148,477521034.52821,   0.00149,276253397.65990,  -0.00154,  -0.00077,  -0.00078,   0.00000,   2.00000
-472814289.05852,-460909977.51282,-54020671.77604,  -0.00280,  -0.00195,  -0.00149,477502476.55702,   0.00149,276257530.02812,  -0.00155,  -0.00077,  -0.00079,   0.00000,   2.00000
-472161235.92287,-461554763.97447,-54112042.42923,  -0.00280,  -0.00195,  -0.00149,477485514.94479,   0.00149,276261592.46684,  -0.00155,  -0.00078,  -0.00079,   0.00000,   2.00000
-471497026.71954,-462203639.89863,-54206076.65422,  -0.00280,  -0.00196,  -0.00149,477467768.71259,   0.00150,276265582.66212,  -0.00155,  -0.00078,  -0.00079,   0.00000,   2.00000
-470824817.18751,-462859793.90784,-54293361.98137,  -0.00279,  -0.00197,  -0.00150,477446677.15490,   0.00150,276269489.79719,  -0.00155,  -0.00078,  -0.00079,  -0.00000,   2.00000
-470148540.21531,-463508083.05508,-54389410.45588,  -0.00279,  -0.00198,  -0.00150,477456802.02794,   0.00150,276273417.48921,  -0.00156,  -0.00078,  -0.00079,  -0.00000,   2.00000
-469455437.79239,-464175051.89343,-54475444.03702,  -0.00279,  -0.00198,  -0.00150,477459832.60349,   0.00151,276277342.18968,  -0.00156,  -0.00079,  -0.00080,   0.00000,   2.00000
-468755984.36390,-464831248.26530,-54576795.33669,  -0.00279,  -0.00199,  -0.00151,477421678.56041,   0.00151,276281127.76470,  -0.00156,  -0.00079,  -0.00080,  -0.00000,   2.00000
-468048023.17908,-465494638.85812,-54671368.23458,  -0.00279,  -0.00200,  -0.00151,477400726.76695,   0.00152,276284831.59074,  -0.00157,  -0.00079,  -0.00080,   0.00000,   2.00000
-467339124.53863,-466153284.48481,-54765270.43355,  -0.00279,  -0.00201,  -0.00151,477407458.23588,   0.00152,276288545.55359,  -0.00157,  -0.00080,  -0.00080,   0.00000,   2.00000
-466614901.52949,-466812514.83926,-54871200.49828,  -0.00279,  -0.00201,  -0.00152,477393390.94521,   0.00152,276292200.88916,  -0.00157,  -0.00080,  -0.00080,   0.00000,   2.00000
-465881798.97218,-467478881.02847,-54970334.19189,  -0.00278,  -0.00202,  -0.00152,477372556.42151,   0.00153,276295775.40604,  -0.00158,  -0.00080,  -0.00081,  -0.00000,   2.00000
-465147648.22876,-468140417.85036,-55068774.74976,  -0.00278,  -0.00203,  -0.00152,477379292.42927,   0.00153,276299360.62444,  -0.00158,  -0.00080,  -0.00081,   0.00000,   2.00000
-464389708.75765,-468814339.22023,-55173130.05570,  -0.00278,  -0.00203,  -0.00153,477337876.70786,   0.00153,276302797.22783,  -0.00158,  -0.00081,  -0.00081,   0.00000,   2.00000
-463653941.39109,-469467303.65097,-55267429.36382,  -0.00278,  -0.00204,  -0.00153,477340823.89441,   0.00154,276306232.49989,  -0.00158,  -0.00081,  -0.00081,   0.00000,   2.00000
-462882104.92919,-470140084.40880,-55373689.04427,  -0.00277,  -0.00205,  -0.00153,477327290.32926,   0.00154,276309611.97941,  -0.00159,  -0.00081,  -0.00081,  -0.00000,   2.00000
-462109028.26820,-470807886.91955,-55479220.15628,  -0.00277,  -0.00206,  -0.00154,477334051.13372,   0.00154,276313003.05018,  -0.00159,  -0.00081,  -0.00082,   0.00000,   2.00000
-461326287.26901,-471482684.55128,-55577943.14056,  -0.00277,  -0.00206,  -0.00154,477313462.03970,   0.00154,276316315.14428,  -0.00159,  -0.00082,  -0.00082,   0.00000,   2.00000
-460527111.97744,-472157637.46023,-55688634.51517,  -0.00277,  -0.00207,  -0.00154,477299840.98042,   0.00155,276319571.65662,  -0.00159,  -0.00082,  -0.00082,   0.00000,   2.00000
-459726475.18542,-472829101.96614,-55795906.06433,  -0.00276,  -0.00208,  -0.00155,477254766.85636,   0.00155,276322668.61987,  -0.00160,  -0.00082,  -0.00082,  -0.00000,   2.00000
-458912562.56784,-473502449.16913,-55908401.83516,  -0.00276,  -0.00208,  -0.00155,477289505.24884,   0.00155,276325870.92103,  -0.00160,  -0.00082,  -0.00082,   0.00000,   2.00000
-458088395.26128,-474182638.10293,-56014056.97038,  -0.00276,  -0.00209,  -0.00155,477269133.24643,   0.00156,276328995.69186,  -0.00160,  -0.00083,  -0.00082,   0.00000,   2.00000
-457271253.35565,-474847524.23042,-56122411.51326,  -0.00276,  -0.00210,  -0.00156,477251199.79939,   0.00156,276332051.28117,  -0.00160,  -0.00083,  -0.00083,   0.00000,   2.00000
-456419478.00935,-475534456.67379,-56233158.42472,  -0.00275,  -0.00211,  -0.00156,477235433.13232,   0.00156,276335045.13012,  -0.00160,  -0.00083,  -0.00083,   0.00000,   2.00000
-455566038.56565,-476216077.31034,-56343127.98665,  -0.00275,  -0.00211,  -0.00156,477242274.69048,   0.00156,276338052.39101,  -0.00161,  -0.00083,  -0.00083,   0.00000,   2.00000
-454719453.10562,-476882527.23568,-56455810.22380,  -0.00275,  -0.00212,  -0.00156,477224256.06788,   0.00157,276340990.63507,  -0.00161,  -0.00084,  -0.00083,  -0.00000,   2.00000
-453837534.90413,-477570575.64834,-56570816.13990,  -0.00274,  -0.00213,  -0.00157,477208978.82984,   0.00157,276343869.21021,  -0.00161,  -0.00084,  -0.00083,   0.00000,   2.00000
-452962265.62768,-478243478.53706,-56688533.31014,  -0.00274,  -0.00213,  -0.00157,477190929.37234,   0.00157,276346679.12408,  -0.00161,  -0.00084,  -0.00083,   0.00000,   2.00000
-452063951.18527,-478929170.50056,-56805225.57477,  -0.00274,  -0.00214,  -0.00157,477199326.63896,   0.00158,276349508.36652,  -0.00161,  -0.00084,  -0.00084,  -0.00000,   2.00000
-451175487.78706,-479603364.02798,-56915279.25277,  -0.00273,  -0.00215,  -0.00158,477177675.20556,   0.00158,276352257.15270,  -0.00162,  -0.00085,  -0.00084,   0.00000,   2.00000
-450260463.33108,-480286548.74457,-57033652.19846,  -0.00273,  -0.00216,  -0.00158,477189823.57420,   0.00158,276355037.99578,  -0.00162,  -0.00085,  -0.00084,  -0.00000,   2.00000
-449342034.62851,-480966754.85665,-57148690.54491,  -0.00273,  -0.00216,  -0.00158,477144955.33626,   0.00158,276357661.46716,  -0.00162,  -0.00085,  -0.00084,   0.00000,   2.00000
-448396684.21965,-481655565.31131,-57271986.71465,  -0.00272,  -0.00217,  -0.00159,477157388.26506,   0.00159,276360318.43525,  -0.00162,  -0.00085,  -0.00084,  -0.00000,   2.00000
-447460863.03771,-482333049.24436,-57388663.45537,  -0.00272,  -0.00218,  -0.00159,477135640.18008,   0.00159,276362895.21425,  -0.00162,  -0.00085,  -0.00084,   0.00000,   2.00000
-446509495.27475,-483013319.37298,-57507802.06540,  -0.00271,  -0.00218,  -0.00159,477119498.46046,   0.00159,276365410.70189,  -0.00162,  -0.00086,  -0.00084,  -0.00000,   2.00000
-445530792.10991,-483701688.07626,-57635120.16254,  -0.00271,  -0.00219,  -0.00160,477132337.67731,   0.00159,276367961.51803,  -0.00163,  -0.00086,  -0.00085,   0.00000,   2.00000
-444561393.81492,-484378872.79014,-57755837.44465,  -0.00271,  -0.00220,  -0.00160,477110519.70689,   0.00160,276370432.25921,  -0.00163,  -0.00086,  -0.00085,   0.00000,   2.00000
-443575960.36040,-485058622.22824,-57878983.15148,  -0.00270,  -0.00221,  -0.00160,477094640.15495,   0.00160,276372842.94297,  -0.00163,  -0.00086,  -0.00085,   0.00000,   2.00000
-442574278.04810,-485740824.66907,-58004540.13744,  -0.00270,  -0.00221,  -0.00160,477078867.10700,   0.00160,276375194.12040,  -0.00163,  -0.00087,  -0.00085,   0.00000,   2.00000
-441561974.84755,-486425848.52537,-58125544.71926,  -0.00269,  -0.00222,  -0.00161,477111346.67009,   0.00160,276377646.72565,  -0.00163,  -0.00087,  -0.00085,   0.00000,   2.00000
-440541319.17448,-487104446.31632,-58252616.96446,  -0.00269,  -0.00223,  -0.00161,477070404.70204,   0.00160,276379955.82811,  -0.00163,  -0.00087,  -0.00085,   0.00000,   2.00000
-439507172.72418,-487788950.11759,-58372721.44116,  -0.00268,  -0.00223,  -0.00161,477051282.97873,   0.00161,276382194.56100,  -0.00164,  -0.00087,  -0.00085,   0.95630,   1.00000
-438467183.61609,-488463708.21927,-58501277.43218,  -0.00268,  -0.00224,  -0.00162,477062015.71165,   0.00161,276384462.75180,  -0.00164,  -0.00087,  -0.00086,   0.99315,   1.00000
-437410143.63426,-489140531.12486,-58632188.52420,  -0.00267,  -0.00225,  -0.00162,477046711.51359,   0.00161,276386673.46007,  -0.00164,  -0.00088,  -0.00086,   0.95474,   1.00000
-436331017.22478,-489831296.88545,-58752355.42331,  -0.00267,  -0.00226,  -0.00162,477053558.77132,   0.00161,276388900.82700,  -0.00164,  -0.00088,  -0.00086,   0.98085,   1.00000
-435253930.51141,-490503770.17109,-58884679.82250,  -0.00267,  -0.00226,  -0.00162,477038870.54109,   0.00161,276391072.89474,  -0.00164,  -0.00088,  -0.00086,   0.94423,   1.00000
-434162516.42093,-491181798.08010,-59009986.53063,  -0.00266,  -0.00227,  -0.00163,477020206.49755,   0.00162,276393176.51739,  -0.00164,  -0.00088,  -0.00086,   0.89658,   1.00000
-433050043.82781,-491857705.75844,-59146936.79869,  -0.00265,  -0.00228,  -0.00163,477009000.06465,   0.00162,276395236.86278,  -0.00164,  -0.00088,  -0.00086,   0.87107,   1.00000
-431937894.72314,-492530981.84340,-59273587.05010,  -0.00265,  -0.00228,  -0.00163,477012674.21490,   0.00162,276397303.84378,  -0.00164,  -0.00088,  -0.00086,   0.88776,   1.00000
-430807626.73971,-493205757.12956,-59402527.13022,  -0.00264,  -0.00229,  -0.00164,476997988.88868,   0.00162,276399315.99027,  -0.00165,  -0.00089,  -0.00086,   0.85209,   1.00000
-429659002.85052,-493881886.17535,-59533735.78688,  -0.00264,  -0.00230,  -0.00164,476983440.63992,   0.00162,276401273.92154,  -0.00165,  -0.00089,  -0.00086,   0.81733,   1.00000
-428491782.81658,-494559219.43771,-59667191.38026,  -0.00263,  -0.00230,  -0.00164,476969033.40473,   0.00163,276403178.26612,  -0.00165,  -0.00089,  -0.00087,   0.78346,   1.00000
-427321348.56830,-495229814.38873,-59799640.29476,  -0.00263,  -0.00231,  -0.00164,476976585.50976,   0.00163,276405102.86045,  -0.00165,  -0.00089,  -0.00087,   0.81084,   1.00000
-426147751.64797,-495893680.62789,-59931083.29453,  -0.00262,  -0.00232,  -0.00165,476984142.58143,   0.00163,276407047.70233,  -0.00165,  -0.00089,  -0.00087,   0.83899,   1.00000
-424939287.17186,-496566244.66481,-60067967.94347,  -0.00262,  -0.00233,  -0.00165,476948358.99864,   0.00163,276408867.14099,  -0.00165,  -0.00090,  -0.00087,   0.74430,   1.00000
-423727426.08528,-497231841.29174,-60203809.02017,  -0.00261,  -0.00233,  -0.00165,476956072.83401,   0.00163,276410707.75012,  -0.00165,  -0.00090,  -0.00087,   0.77211,   1.00000
-422512222.40405,-497890479.51542,-60338607.07294,  -0.00261,  -0.00234,  -0.00166,476963792.60579,   0.00163,276412569.53043,  -0.00165,  -0.00090,  -0.00087,   0.80073,   1.00000
-421277461.69253,-498549746.34441,-60475572.98305,  -0.00260,  -0.00235,  -0.00166,476950065.33131,   0.00164,276414380.23431,  -0.00165,  -0.00090,  -0.00087,   0.76781,   1.00000
-420033627.47412,-499206350.07727,-60609319.53943,  -0.00259,  -0.00235,  -0.00166,476906415.58804,   0.00164,276416039.09619,  -0.00166,  -0.00090,  -0.00087,   0.65327,   1.00000
-418759026.87892,-499866412.19542,-60750562.14256,  -0.00259,  -0.00236,  -0.00166,476922939.82033,   0.00164,276417749.48480,  -0.00166,  -0.00090,  -0.00087,   0.70426,   1.00000
-417483974.13822,-500523113.52384,-60881399.79740,  -0.00258,  -0.00237,  -0.00167,476927134.98516,   0.00164,276419469.67730,  -0.00166,  -0.00090,  -0.00088,   0.72221,   1.00000
-416185338.91790,-501175907.98031,-61023641.64404,  -0.00257,  -0.00238,  -0.00167,476917749.08124,   0.00164,276421153.81184,  -0.00166,  -0.00091,  -0.00088,   0.70203,   1.00000
-414869237.50747,-501832579.57287,-61158647.50393,  -0.00257,  -0.00238,  -0.00167,476900958.12502,   0.00164,276422776.92239,  -0.00166,  -0.00091,  -0.00088,   0.66125,   1.00000
-413553404.43349,-502471016.61631,-61305838.28150,  -0.00256,  -0.00239,  -0.00168,476886400.53306,   0.00165,276424346.70328,  -0.00166,  -0.00091,  -0.00088,   0.62726,   1.00000
-412229717.23915,-503112585.45752,-61438575.35664,  -0.00256,  -0.00240,  -0.00168,476917163.89989,   0.00165,276426016.83557,  -0.00166,  -0.00091,  -0.00088,   0.71991,   1.00000
-410867614.96879,-503760940.71027,-61576519.21229,  -0.00255,  -0.00240,  -0.00168,476883670.02570,   0.00165,276427569.25391,  -0.00166,  -0.00091,  -0.00088,   0.63083,   1.00000
-409508607.12213,-504395049.90426,-61717351.39017,  -0.00254,  -0.00241,  -0.00168,476865377.00589,   0.00165,276429055.76633,  -0.00166,  -0.00091,  -0.00088,   0.58655,   1.00000
-408120918.55668,-505034807.53965,-61856105.73966,  -0.00254,  -0.00242,  -0.00169,476879610.62098,   0.00165,276430587.05788,  -0.00166,  -0.00092,  -0.00088,   0.63126,   1.00000
-406729148.11567,-505666566.87404,-61993664.17428,  -0.00253,  -0.00242,  -0.00169,476888091.56679,   0.00165,276432143.50934,  -0.00166,  -0.00092,  -0.00088,   0.66135,   1.00000
-405322385.36286,-506291135.35524,-62137273.84206,  -0.00252,  -0.00243,  -0.00169,476849294.10122,   0.00165,276433564.11410,  -0.00166,  -0.00092,  -0.00088,   0.55871,   1.00000
-403904567.53415,-506913749.51572,-62275560.37533,  -0.00251,  -0.00244,  -0.00169,476884552.59519,   0.00166,276435101.53606,  -0.00167,  -0.00092,  -0.00088,   0.66356,   1.00000
-402471290.82946,-507529066.10793,-62419890.01106,  -0.00251,  -0.00245,  -0.00170,476845960.18073,   0.00166,276436503.62889,  -0.00167,  -0.00092,  -0.00089,   0.55962,   1.00000
-401008682.29608,-508148867.21438,-62561964.35097,  -0.00250,  -0.00245,  -0.00170,476861183.56692,   0.00166,276437954.45739,  -0.00167,  -0.00092,  -0.00089,   0.60767,   1.00000
-399529941.68321,-508761084.44577,-62710048.43919,  -0.00249,  -0.00246,  -0.00170,476822913.10495,   0.00166,276439271.04165,  -0.00167,  -0.00092,  -0.00089,   0.50748,   1.00000
-398043197.64914,-509374725.94128,-62843406.75444,  -0.00249,  -0.00247,  -0.00170,476854794.27410,   0.00166,276440693.74078,  -0.00167,  -0.00092,  -0.00089,   0.60081,   1.00000
-396555521.06687,-509969930.40743,-62988945.38272,  -0.00248,  -0.00247,  -0.00171,476840621.00758,   0.00166,276442064.58879,  -0.00167,  -0.00093,  -0.00089,   0.56552,   1.00000
-395041178.93413,-510572920.09827,-63122824.09636,  -0.00247,  -0.00248,  -0.00171,476852701.05395,   0.00166,276443473.76401,  -0.00167,  -0.00093,  -0.00089,   0.60580,   1.00000
-393506649.42608,-511163847.33125,-63271962.88034,  -0.00246,  -0.00249,  -0.00171,476818798.03857,   0.00166,276444763.28329,  -0.00167,  -0.00093,  -0.00089,   0.51431,   1.00000
-391951360.04625,-511756524.03345,-63413584.80695,  -0.00246,  -0.00249,  -0.00172,476804215.16865,   0.00167,276445999.75535,  -0.00167,  -0.00093,  -0.00089,   0.47937,   1.00000
-390382015.04588,-512341320.00969,-63558871.13849,  -0.00245,  -0.00250,  -0.00172,476844557.38318,   0.00167,276447372.42892,  -0.00167,  -0.00093,  -0.00089,   0.59890,   1.00000
-388817301.87086,-512916005.88767,-63697793.71398,  -0.00244,  -0.00251,  -0.00172,476822734.39622,   0.00167,276448666.79647,  -0.00167,  -0.00093,  -0.00089,   0.53964,   1.00000
-387208652.46480,-513493935.82117,-63841464.94324,  -0.00243,  -0.00252,  -0.00172,476793078.35493,   0.00167,276449855.94389,  -0.00167,  -0.00093,  -0.00089,   0.46165,   1.00000
-385589067.19413,-514067647.32907,-63979443.36949,  -0.00242,  -0.00252,  -0.00173,476829879.26094,   0.00167,276451169.73226,  -0.00167,  -0.00094,  -0.00089,   0.57105,   1.00000
-383970645.80795,-514626876.75660,-64120312.65430,  -0.00242,  -0.00253,  -0.00173,476812161.21240,   0.00167,276452419.33477,  -0.00167,  -0.00094,  -0.00089,   0.52342,   1.00000
-382327339.13514,-515182646.13137,-64262798.59917,  -0.00241,  -0.00254,  -0.00173,476802518.17547,   0.00167,276453632.82896,  -0.00167,  -0.00094,  -0.00090,   0.50010,   1.00000
-380658867.28782,-515734682.19922,-64406862.40871,  -0.00240,  -0.00254,  -0.00173,476793119.12465,   0.00167,276454811.12251,  -0.00167,  -0.00094,  -0.00090,   0.47770,   1.00000
-378985392.59546,-516277018.82776,-64549467.06529,  -0.00239,  -0.00255,  -0.00174,476802913.99806,   0.00167,276456020.96216,  -0.00167,  -0.00094,  -0.00090,   0.51013,   1.00000
-377286406.06962,-516815263.90773,-64693598.79540,  -0.00238,  -0.00256,  -0.00174,476793878.92569,   0.00168,276457196.81991,  -0.00167,  -0.00094,  -0.00090,   0.48808,   1.00000
-375582379.83035,-517343620.98868,-64836240.60570,  -0.00237,  -0.00256,  -0.00174,476803843.95521,   0.00168,276458404.94861,  -0.00167,  -0.00094,  -0.00090,   0.52177,   1.00000
-373852497.59723,-517867518.89078,-64980357.17539,  -0.00237,  -0.00257,  -0.00174,476795180.95616,   0.00168,276459580.34165,  -0.00168,  -0.00094,  -0.00090,   0.50010,   1.00000
-372096479.52733,-518386664.02515,-65125906.61775,  -0.00236,  -0.00258,  -0.00175,476786779.29943,   0.00168,276460723.96329,  -0.00168,  -0.00094,  -0.00090,   0.47937,   1.00000
-370338208.71193,-518899942.01824,-65260673.93390,  -0.00235,  -0.00258,  -0.00175,476793018.87124,   0.00168,276461887.07949,  -0.00168,  -0.00095,  -0.00090,   0.50194,   1.00000
-368550523.20586,-519403670.07826,-65406056.99653,  -0.00234,  -0.00259,  -0.00175,476789045.26711,   0.00168,276463033.91604,  -0.00168,  -0.00095,  -0.00090,   0.49397,   1.00000
-366760536.37064,-519901358.68211,-65540630.20883,  -0.00233,  -0.00260,  -0.00175,476795451.96436,   0.00168,276464200.92128,  -0.00168,  -0.00095,  -0.00090,   0.51763,   1.00000
-364940821.62424,-520389076.38449,-65685757.37063,  -0.00232,  -0.00261,  -0.00176,476791891.80285,   0.00168,276465353.07990,  -0.00168,  -0.00095,  -0.00090,   0.51058,   1.00000
-363118761.32599,-520870579.10762,-65820046.32022,  -0.00231,  -0.00261,  -0.00176,476798470.56355,   0.00168,276466526.09884,  -0.00168,  -0.00095,  -0.00090,   0.53542,   1.00000
-361269545.07958,-521346163.92917,-65955608.45444,  -0.00231,  -0.00262,  -0.00176,476791226.15363,   0.00169,276467671.24527,  -0.00168,  -0.00095,  -0.00090,   0.51619,   1.00000
-359394660.30563,-521806937.20327,-66106109.45717,  -0.00230,  -0.00263,  -0.00176,476760473.02295,   0.00169,276468705.52551,  -0.00168,  -0.00095,  -0.00090,   0.42594,   1.00000
-357512648.54171,-522265221.15504,-66241215.55789,  -0.00229,  -0.00263,  -0.00177,476795181.56823,   0.00169,276469860.58186,  -0.00168,  -0.00095,  -0.00091,   0.53722,   1.00000
-355602877.98331,-522716845.34734,-66377487.05628,  -0.00228,  -0.00264,  -0.00177,476788643.11057,   0.00169,276470990.23193,  -0.00168,  -0.00096,  -0.00091,   0.51959,   1.00000
-353692033.52691,-523153271.04961,-66516582.61522,  -0.00227,  -0.00265,  -0.00177,476771851.98678,   0.00169,276472058.09748,  -0.00168,  -0.00096,  -0.00091,   0.46938,   1.00000
-351748816.48815,-523586535.80462,-66652246.88213,  -0.00226,  -0.00265,  -0.00177,476793630.81109,   0.00169,276473201.34858,  -0.00168,  -0.00096,  -0.00091,   0.54382,   1.00000
-349804303.98956,-524004503.96881,-66790724.08059,  -0.00225,  -0.00266,  -0.00178,476776980.27307,   0.00169,276474283.11687,  -0.00168,  -0.00096,  -0.00091,   0.49206,   1.00000
-347827326.29157,-524418756.88093,-66925680.84013,  -0.00224,  -0.00267,  -0.00178,476799265.85988,   0.00169,276475442.33075,  -0.00168,  -0.00096,  -0.00091,   0.57096,   1.00000
-345825539.06625,-524821464.56578,-67066208.17817,  -0.00223,  -0.00267,  -0.00178,476765753.87697,   0.00169,276476479.62984,  -0.00168,  -0.00096,  -0.00091,   0.46192,   1.00000
-343814438.17123,-525215906.42912,-67200333.27174,  -0.00222,  -0.00268,  -0.00178,476805623.87221,   0.00170,276477657.68777,  -0.00168,  -0.00096,  -0.00091,   0.60182,   1.00000
-341804338.31914,-525599441.64555,-67328051.97011,  -0.00221,  -0.00269,  -0.00179,476785083.48642,   0.00170,276478759.88196,  -0.00168,  -0.00096,  -0.00091,   0.53199,   1.00000
-339762388.89223,-525970025.53078,-67465889.22845,  -0.00220,  -0.00270,  -0.00179,476784326.65358,   0.00170,276479857.31112,  -0.00168,  -0.00096,  -0.00091,   0.53254,   1.00000
-337687690.99968,-526335361.35635,-67599959.76473,  -0.00219,  -0.00270,  -0.00179,476808003.63261,   0.00170,276481037.90865,  -0.00168,  -0.00097,  -0.00091,   0.62225,   1.00000
-335613506.03103,-526689512.85553,-67727589.50139,  -0.00218,  -0.00271,  -0.00179,476787775.88129,   0.00170,276482143.41926,  -0.00168,  -0.00097,  -0.00091,   0.55071,   1.00000
-333506963.12518,-527029841.70596,-67865206.66139,  -0.00217,  -0.00272,  -0.00180,476787841.20233,   0.00170,276483247.15095,  -0.00168,  -0.00097,  -0.00091,   0.55402,   1.00000
-331397572.97857,-527362273.86080,-67991719.39108,  -0.00216,  -0.00272,  -0.00180,476795987.57618,   0.00170,276484378.32478,  -0.00168,  -0.00097,  -0.00091,   0.58712,   1.00000
-329258212.98839,-527685051.96868,-68118962.11410,  -0.00215,  -0.00273,  -0.00180,476792310.99301,   0.00170,276485494.12223,  -0.00168,  -0.00097,  -0.00091,   0.57631,   1.00000
-327110752.93001,-527990376.95632,-68253432.81487,  -0.00214,  -0.00274,  -0.00180,476809148.56405,   0.00170,276486669.02003,  -0.00168,  -0.00097,  -0.00091,   0.64448,   1.00000
-324935667.26379,-528290237.54928,-68379373.54869,  -0.00213,  -0.00274,  -0.00180,476801736.85251,   0.00170,276487814.84386,  -0.00168,  -0.00097,  -0.00092,   0.61814,   1.00000
-322755154.57025,-528577099.50404,-68503324.49723,  -0.00212,  -0.00275,  -0.00181,476814572.04231,   0.00171,276489005.36050,  -0.00168,  -0.00097,  -0.00092,   0.67276,   1.00000
-320544129.44443,-528853322.58606,-68627856.79424,  -0.00211,  -0.00276,  -0.00181,476811886.23661,   0.00171,276490183.93939,  -0.00168,  -0.00098,  -0.00092,   0.66463,   1.00000
-318304541.66093,-529115426.88276,-68757634.09162,  -0.00210,  -0.00276,  -0.00181,476781019.67399,   0.00171,276491247.54332,  -0.00168,  -0.00098,  -0.00092,   0.54554,   1.00000
-316057328.81706,-529367152.47758,-68880616.86952,  -0.00209,  -0.00277,  -0.00181,476822754.25761,   0.00171,276492462.16853,  -0.00168,  -0.00098,  -0.00092,   0.71689,   1.00000
-313804819.61453,-529605424.51317,-69001530.39457,  -0.00208,  -0.00278,  -0.00182,476836096.75829,   0.00171,276493723.59868,  -0.00168,  -0.00098,  -0.00092,   0.77892,   1.00000
-311523063.69248,-529829058.67831,-69127621.35748,  -0.00207,  -0.00278,  -0.00182,476805825.51500,   0.00171,276494871.45621,  -0.00168,  -0.00098,  -0.00092,   0.64962,   1.00000
-309208307.96542,-530043642.95451,-69249326.36259,  -0.00206,  -0.00279,  -0.00182,476833030.97707,   0.00171,276496117.54539,  -0.00168,  -0.00098,  -0.00092,   0.77096,   1.00000
-306918384.13305,-530244642.11941,-69362032.07402,  -0.00205,  -0.00280,  -0.00182,476828655.70605,   0.00171,276497345.24237,  -0.00168,  -0.00098,  -0.00092,   0.75339,   1.00000
-304568275.01566,-530429978.67116,-69486678.55200,  -0.00204,  -0.00280,  -0.00183,476817210.94925,   0.00171,276498528.45093,  -0.00168,  -0.00098,  -0.00092,   0.70441,   1.00000
-302211660.29732,-530604065.24767,-69604354.94939,  -0.00202,  -0.00281,  -0.00183,476859891.42408,   0.00172,276499867.76090,  -0.00168,  -0.00099,  -0.00092,   0.90831,   1.00000
-299853442.34748,-530765955.67469,-69715479.31123,  -0.00201,  -0.00282,  -0.00183,476840965.18645,   0.00172,276501134.40454,  -0.00168,  -0.00099,  -0.00092,   0.81739,   1.00000
-297463382.91188,-530914683.48065,-69826806.10718,  -0.00200,  -0.00282,  -0.00183,476840746.24837,   0.00172,276502397.99664,  -0.00168,  -0.00099,  -0.00092,   0.81828,   1.00000
-295038922.87270,-531045020.77173,-69947421.00414,  -0.00199,  -0.00283,  -0.00183,476845272.21050,   0.00172,276503676.25409,  -0.00168,  -0.00099,  -0.00092,   0.84223,   1.00000
-292611685.53912,-531165581.33821,-70056618.39626,  -0.00198,  -0.00284,  -0.00184,476855447.30419,   0.00172,276504990.26470,  -0.00168,  -0.00099,  -0.00093,   0.89491,   1.00000
-290179487.82761,-531271607.33058,-70163560.23918,  -0.00197,  -0.00284,  -0.00184,476869980.38790,   0.00172,276506356.33604,  -0.00168,  -0.00099,  -0.00093,   0.97233,   1.00000
-287715065.78375,-531363399.61919,-70270537.47135,  -0.00196,  -0.00285,  -0.00184,476870881.10157,   0.00172,276507723.37304,  -0.00168,  -0.00099,  -0.00093,   0.97865,   1.00000
-285245903.74583,-531437673.55279,-70380050.65047,  -0.00195,  -0.00286,  -0.00184,476856861.38744,   0.00172,276509035.30087,  -0.00168,  -0.00100,  -0.00093,   0.90571,   1.00000
-282744260.26498,-531499942.35973,-70484678.63572,  -0.00194,  -0.00286,  -0.00185,476887060.62279,   0.00173,276510458.62074,  -0.00168,  -0.00100,  -0.00093,   0.00000,   2.00000
-280209806.01355,-531544260.59969,-70594033.91026,  -0.00192,  -0.00287,  -0.00185,476860071.37970,   0.00173,276511777.61215,  -0.00169,  -0.00100,  -0.00093,   0.92385,   1.00000
-277698918.91636,-531576475.45945,-70693962.23195,  -0.00191,  -0.00288,  -0.00185,476917299.36968,   0.00173,276513310.58104,  -0.00169,  -0.00100,  -0.00093,   0.00000,   2.00000
-275126756.80343,-531589971.47924,-70800765.63749,  -0.00190,  -0.00288,  -0.00185,476877682.06710,   0.00173,276514690.77954,  -0.00169,  -0.00100,  -0.00093,  -0.00000,   2.00000
-272578955.14207,-531591473.43884,-70898137.38163,  -0.00189,  -0.00289,  -0.00185,476934948.01224,   0.00173,276516285.84906,  -0.00169,  -0.00100,  -0.00093,  -0.00000,   2.00000
-269971238.53162,-531578240.95770,-70993126.03624,  -0.00188,  -0.00290,  -0.00186,476891771.52702,   0.00173,276517713.87784,  -0.00169,  -0.00100,  -0.00093,   0.00000,   2.00000
-267385492.36513,-531545539.88380,-71092691.92088,  -0.00187,  -0.00290,  -0.00186,476924533.30073,   0.00173,276519264.18043,  -0.00169,  -0.00101,  -0.00093,   0.00000,   2.00000
-264768885.93313,-531501198.75924,-71182799.54401,  -0.00185,  -0.00291,  -0.00186,476923394.60828,   0.00174,276520807.33787,  -0.00169,  -0.00101,  -0.00093,  -0.00000,   2.00000
-262117116.25437,-531435030.83203,-71281649.53204,  -0.00184,  -0.00292,  -0.00186,476931529.32655,   0.00174,276522378.85616,  -0.00169,  -0.00101,  -0.00094,   0.00000,   2.00000
-259463214.92777,-531357922.85735,-71368873.73409,  -0.00183,  -0.00292,  -0.00186,476943295.07469,   0.00174,276523992.63441,  -0.00169,  -0.00101,  -0.00094,   0.00000,   2.00000
-256774345.28428,-531260541.80882,-71460503.33561,  -0.00182,  -0.00293,  -0.00187,476918633.26757,   0.00174,276525508.75245,  -0.00169,  -0.00101,  -0.00094,   0.00000,   2.00000
-254081284.60016,-531145026.37927,-71553844.47787,  -0.00181,  -0.00294,  -0.00187,476968455.76381,   0.00174,276527213.91203,  -0.00169,  -0.00101,  -0.00094,   0.00000,   2.00000
-251384299.80360,-531015659.35629,-71640418.37538,  -0.00179,  -0.00294,  -0.00187,476951556.54470,   0.00174,276528850.74496,  -0.00168,  -0.00102,  -0.00094,  -0.00000,   2.00000
-248656220.41910,-530870928.96194,-71721515.92839,  -0.00178,  -0.00295,  -0.00187,476985559.91467,   0.00174,276530615.99982,  -0.00168,  -0.00102,  -0.00094,   0.00000,   2.00000
-245922101.67616,-530707235.54299,-71804946.85506,  -0.00177,  -0.00296,  -0.00187,476973403.22372,   0.00175,276532330.89645,  -0.00168,  -0.00102,  -0.00094,  -0.00000,   2.00000
-243154537.92914,-530524812.57903,-71887699.99509,  -0.00176,  -0.00296,  -0.00188,476979045.95013,   0.00175,276534064.51869,  -0.00168,  -0.00102,  -0.00094,   0.00000,   2.00000
-240385314.40561,-530330936.53374,-71958732.95162,  -0.00174,  -0.00297,  -0.00188,476991630.13447,   0.00175,276535843.82810,  -0.00168,  -0.00102,  -0.00094,   0.00000,   2.00000
-237610939.60134,-530115908.13533,-72036304.35107,  -0.00173,  -0.00297,  -0.00188,477013177.16364,   0.00175,276537703.73435,  -0.00168,  -0.00103,  -0.00094,  -0.00000,   2.00000
-234803163.56543,-529881507.27991,-72113090.07853,  -0.00172,  -0.00298,  -0.00188,477019644.79460,   0.00175,276539585.38137,  -0.00168,  -0.00103,  -0.00095,   0.00000,   2.00000
-231963667.40302,-529632174.34937,-72179900.12719,  -0.00171,  -0.00299,  -0.00188,477022086.46168,   0.00175,276541473.02359,  -0.00168,  -0.00103,  -0.00095,   0.00000,   2.00000
-229115818.01722,-529358248.72234,-72258056.89267,  -0.00169,  -0.00299,  -0.00189,477015278.03938,   0.00176,276543330.38415,  -0.00168,  -0.00103,  -0.00095,   0.00000,   2.00000
-226270476.18937,-529075594.35880,-72319532.01195,  -0.00168,  -0.00300,  -0.00189,477057442.29835,   0.00176,276545349.77967,  -0.00168,  -0.00103,  -0.00095,   0.00000,   2.00000
-223387757.44998,-528769415.24789,-72384945.09575,  -0.00167,  -0.00301,  -0.00189,477036189.06769,   0.00176,276547281.63038,  -0.00168,  -0.00104,  -0.00095,  -0.00000,   2.00000
-220502310.76048,-528446414.09105,-72447660.75686,  -0.00166,  -0.00301,  -0.00189,477054163.32543,   0.00176,276549280.60344,  -0.00168,  -0.00104,  -0.00095,   0.00000,   2.00000
-217614354.11182,-528106694.45355,-72507690.33247,  -0.00164,  -0.00302,  -0.00189,477072161.93090,   0.00176,276551346.75979,  -0.00168,  -0.00104,  -0.00095,   0.00000,   2.00000
-214691316.16131,-527740955.64558,-72575761.60869,  -0.00163,  -0.00303,  -0.00190,477085192.22078,   0.00177,276553460.44306,  -0.00168,  -0.00104,  -0.00095,   0.00000,   2.00000
-211769238.74606,-527368120.47066,-72622877.26698,  -0.00162,  -0.00303,  -0.00190,477094517.25147,   0.00177,276555606.89644,  -0.00168,  -0.00105,  -0.00095,   0.00000,   2.00000
-208812167.86748,-526968733.95954,-72677955.79062,  -0.00160,  -0.00304,  -0.00190,477108206.11726,   0.00177,276557803.47999,  -0.00168,  -0.00105,  -0.00096,   0.00000,   2.00000
-205848083.68931,-526548999.09885,-72735160.77654,  -0.00159,  -0.00304,  -0.00190,477097926.10105,   0.00177,276559954.69312,  -0.00168,  -0.00105,  -0.00096,   0.00000,   2.00000
-202850466.68944,-526107003.83349,-72791102.52987,  -0.00158,  -0.00305,  -0.00190,477107714.60117,   0.00177,276562140.63342,  -0.00168,  -0.00105,  -0.00096,  -0.00000,   2.00000
-199889782.77690,-525661586.07074,-72828802.30743,  -0.00157,  -0.00306,  -0.00191,477159763.12407,   0.00178,276564530.16540,  -0.00168,  -0.00105,  -0.00096,   0.00000,   2.00000
-196856969.55248,-525179785.31771,-72880645.16996,  -0.00155,  -0.00306,  -0.00191,477137081.66637,   0.00178,276566823.94082,  -0.00168,  -0.00106,  -0.00096,   0.00000,   2.00000
-193856091.42217,-524691372.96027,-72919145.93947,  -0.00154,  -0.00307,  -0.00191,477160192.97276,   0.00178,276569205.68688,  -0.00168,  -0.00106,  -0.00096,   0.00000,   2.00000
-190815916.97898,-524176411.26325,-72961136.22872,  -0.00153,  -0.00308,  -0.00191,477142120.42400,   0.00178,276571509.76822,  -0.00168,  -0.00106,  -0.00096,   0.00000,   2.00000
-187747266.81403,-523636820.11690,-73005920.71971,  -0.00151,  -0.00308,  -0.00191,477186833.59013,   0.00179,276573989.19636,  -0.00168,  -0.00106,  -0.00096,   0.00000,   2.00000
-184704887.94604,-523087459.84239,-73042286.88572,  -0.00150,  -0.00309,  -0.00192,477180922.56017,   0.00179,276576439.45105,  -0.00168,  -0.00107,  -0.00097,   0.00000,   2.00000
-181603633.54420,-522511666.78009,-73073605.60620,  -0.00149,  -0.00309,  -0.00192,477213798.12604,   0.00179,276579017.46734,  -0.00168,  -0.00107,  -0.00097,   0.00000,   2.00000
-178527474.70701,-521921402.30041,-73105647.74156,  -0.00147,  -0.00310,  -0.00192,477212460.76921,   0.00179,276581584.46524,  -0.00168,  -0.00107,  -0.00097,   0.00000,   2.00000
-175419555.84514,-521311883.66104,-73127005.51419,  -0.00146,  -0.00311,  -0.00192,477220275.51108,   0.00179,276584177.59818,  -0.00168,  -0.00108,  -0.00097,   0.00000,   2.00000
-172310157.59853,-520680270.30506,-73154641.88717,  -0.00145,  -0.00311,  -0.00192,477244817.73139,   0.00180,276586864.85340,  -0.00168,  -0.00108,  -0.00097,  -0.00000,   2.00000
-169160499.78295,-520019976.63620,-73185433.14683,  -0.00143,  -0.00312,  -0.00192,477229109.66396,   0.00180,276589482.17234,  -0.00168,  -0.00108,  -0.00097,   0.00000,   2.00000
-166019567.54275,-519351233.15568,-73199416.97430,  -0.00142,  -0.00312,  -0.00193,477273632.97028,   0.00180,276592275.42234,  -0.00168,  -0.00108,  -0.00097,   0.00000,   2.00000
-162870008.57439,-518656215.67557,-73224474.86386,  -0.00140,  -0.00313,  -0.00193,477269821.38540,   0.00181,276595046.77971,  -0.00168,  -0.00109,  -0.00098,   0.00000,   2.00000
-159688888.79679,-517940790.30650,-73238643.45665,  -0.00139,  -0.00314,  -0.00193,477279195.96048,   0.00181,276597850.27632,  -0.00167,  -0.00109,  -0.00098,  -0.00000,   2.00000
-156508307.38803,-517207981.67235,-73249931.03711,  -0.00138,  -0.00314,  -0.00193,477299881.18440,   0.00181,276600732.26838,  -0.00167,  -0.00109,  -0.00098,   0.00000,   2.00000
-153328505.69253,-516457949.94167,-73258357.68957,  -0.00136,  -0.00315,  -0.00193,477320582.99593,   0.00181,276603692.71795,  -0.00167,  -0.00110,  -0.00098,   0.00000,   2.00000
-150107778.51078,-515677583.26385,-73269690.15202,  -0.00135,  -0.00315,  -0.00193,477306779.72437,   0.00182,276606589.42534,  -0.00167,  -0.00110,  -0.00098,   0.00000,   2.00000
-146896910.07951,-514884529.98847,-73273360.63820,  -0.00134,  -0.00316,  -0.00194,477356412.51291,   0.00182,276609684.17244,  -0.00167,  -0.00110,  -0.00098,   0.00000,   2.00000
-143678417.91646,-514069567.01899,-73278917.09769,  -0.00132,  -0.00316,  -0.00194,477348921.23250,   0.00182,276612740.59220,  -0.00167,  -0.00111,  -0.00099,   0.00000,   2.00000
-140461407.66505,-513237538.84303,-73281609.68167,  -0.00131,  -0.00317,  -0.00194,477369978.64325,   0.00182,276615876.88732,  -0.00167,  -0.00111,  -0.00099,   0.00000,   2.00000
-137213398.28959,-512383891.47496,-73273204.39004,  -0.00129,  -0.00318,  -0.00194,477381323.32945,   0.00183,276619052.68237,  -0.00167,  -0.00111,  -0.00099,   0.00000,   2.00000
-133923141.77149,-511493663.65666,-73276586.21635,  -0.00128,  -0.00318,  -0.00194,477373832.52042,   0.00183,276622189.67681,  -0.00167,  -0.00112,  -0.00099,  -0.00000,   2.00000
-130679163.53101,-510605761.90882,-73262406.96584,  -0.00127,  -0.00319,  -0.00194,477424275.39776,   0.00183,276625528.94130,  -0.00167,  -0.00112,  -0.00099,  -0.00000,   2.00000
-127393721.63443,-509685747.92669,-73250862.08287,  -0.00125,  -0.00319,  -0.00195,477412682.01994,   0.00184,276628811.59945,  -0.00167,  -0.00112,  -0.00099,   0.00000,   2.00000
-124110655.62284,-508748642.07753,-73236429.90662,  -0.00124,  -0.00320,  -0.00195,477434448.89791,   0.00184,276632176.98325,  -0.00166,  -0.00113,  -0.00100,   0.00000,   2.00000
-120796319.60204,-507784185.16337,-73219836.31536,  -0.00122,  -0.00320,  -0.00195,477451973.90568,   0.00184,276635607.25329,  -0.00166,  -0.00113,  -0.00100,   0.00000,   2.00000
-117474164.88040,-506797001.02753,-73204995.33767,  -0.00121,  -0.00321,  -0.00195,477445821.71995,   0.00185,276639003.05411,  -0.00166,  -0.00113,  -0.00100,   0.00000,   2.00000
-114154901.20060,-505792762.04119,-73187248.09667,  -0.00119,  -0.00322,  -0.00195,477467952.47704,   0.00185,276642483.07770,  -0.00166,  -0.00114,  -0.00100,   0.00000,   2.00000
-110850426.45985,-504782151.87111,-73152872.00030,  -0.00118,  -0.00322,  -0.00195,477513755.07234,   0.00185,276646146.67005,  -0.00166,  -0.00114,  -0.00100,   0.00000,   2.00000
-107492321.24685,-503727199.55221,-73134612.67242,  -0.00117,  -0.00323,  -0.00195,477480601.34346,   0.00186,276649661.12748,  -0.00166,  -0.00114,  -0.00100,  -0.00000,   2.00000
-104149624.69638,-502665942.63349,-73099706.75166,  -0.00115,  -0.00323,  -0.00196,477526683.57652,   0.00186,276653360.75246,  -0.00166,  -0.00115,  -0.00101,   0.00000,   2.00000
-100810233.16300,-501583439.89338,-73071075.17049,  -0.00114,  -0.00324,  -0.00196,477553743.18276,   0.00186,276657164.88795,  -0.00166,  -0.00115,  -0.00101,   0.00000,   2.00000
-97429357.00184,-500470907.07281,-73035533.59383,  -0.00112,  -0.00324,  -0.00196,477540735.06911,   0.00187,276660903.85079,  -0.00166,  -0.00116,  -0.00101,   0.00000,   2.00000
-94052602.59946,-499341584.25484,-72997101.17160,  -0.00111,  -0.00325,  -0.00196,477563615.39420,   0.00187,276664729.73666,  -0.00165,  -0.00116,  -0.00101,   0.00000,   2.00000
-90667990.28368,-498189084.64360,-72960345.72374,  -0.00109,  -0.00325,  -0.00196,477558560.52107,   0.00187,276668523.79677,  -0.00165,  -0.00116,  -0.00101,   0.00000,   2.00000
-87300223.68327,-497026757.63693,-72916195.61383,  -0.00108,  -0.00326,  -0.00196,477609340.34374,   0.00188,276672523.32428,  -0.00165,  -0.00117,  -0.00102,   0.00000,   2.00000
-83890688.30841,-495833325.80518,-72864975.39169,  -0.00106,  -0.00326,  -0.00196,477597650.28824,   0.00188,276676462.07080,  -0.00165,  -0.00117,  -0.00102,   0.00000,   2.00000
-80520113.19077,-494631680.02910,-72819701.00069,  -0.00105,  -0.00327,  -0.00197,477627460.48915,   0.00189,276680516.92351,  -0.00165,  -0.00118,  -0.00102,   0.00000,   2.00000
-77086146.95663,-493392628.06674,-72763102.34631,  -0.00104,  -0.00328,  -0.00197,477642164.77591,   0.00189,276684623.24469,  -0.00165,  -0.00118,  -0.00102,   0.00000,   2.00000
-73678840.82423,-492143063.83267,-72707834.59930,  -0.00102,  -0.00328,  -0.00197,477639765.12233,   0.00189,276688707.68803,  -0.00165,  -0.00118,  -0.00102,  -0.00000,   2.00000
-70255660.19519,-490867033.41385,-72654691.38208,  -0.00101,  -0.00329,  -0.00197,477693729.70265,   0.00190,276693011.61325,  -0.00164,  -0.00119,  -0.00103,   0.00000,   2.00000
-66859511.08558,-489585496.49456,-72593810.16127,  -0.00099,  -0.00329,  -0.00197,477686560.81149,   0.00190,276697272.37672,  -0.00164,  -0.00119,  -0.00103,  -0.00000,   2.00000
-63386712.29562,-488257607.75643,-72525795.44602,  -0.00098,  -0.00330,  -0.00197,477675648.76834,   0.00190,276701474.02112,  -0.00164,  -0.00120,  -0.00103,  -0.00000,   2.00000
-59968259.00326,-486930764.32782,-72459532.65857,  -0.00096,  -0.00330,  -0.00197,477732539.31395,   0.00191,276705908.04413,  -0.00164,  -0.00120,  -0.00103,   0.00000,   2.00000
-56507590.60742,-485566355.20505,-72395007.41415,  -0.00095,  -0.00331,  -0.00198,477728093.25371,   0.00191,276710309.92227,  -0.00164,  -0.00121,  -0.00103,   0.00000,   2.00000
-53088075.93962,-484204784.88682,-72318437.74277,  -0.00093,  -0.00331,  -0.00198,477748151.82619,   0.00192,276714785.20865,  -0.00163,  -0.00121,  -0.00104,   0.00000,   2.00000
-49640676.54185,-482809125.11302,-72248364.93892,  -0.00092,  -0.00332,  -0.00198,477775980.77758,   0.00192,276719367.29882,  -0.00163,  -0.00122,  -0.00104,  -0.00000,   2.00000
-46151107.37899,-481379376.34981,-72170726.58783,  -0.00090,  -0.00332,  -0.00198,477768190.95354,   0.00193,276723901.98934,  -0.00163,  -0.00122,  -0.00104,   0.00000,   2.00000
-42703199.64473,-479948792.90718,-72090295.04103,  -0.00089,  -0.00333,  -0.00198,477792573.31919,   0.00193,276728528.48083,  -0.00163,  -0.00123,  -0.00104,  -0.00000,   2.00000
-39228056.55929,-478488066.49954,-72007117.19529,  -0.00087,  -0.00333,  -0.00198,477816875.09040,   0.00193,276733246.21702,  -0.00163,  -0.00123,  -0.00104,  -0.00000,   2.00000
-35745218.66032,-477007545.51105,-71916301.25549,  -0.00086,  -0.00334,  -0.00198,477809821.10603,   0.00194,276737918.85421,  -0.00162,  -0.00123,  -0.00105,  -0.00000,   2.00000
-32285527.46153,-475516577.04575,-71827685.95284,  -0.00084,  -0.00334,  -0.00198,477865690.82090,   0.00194,276742819.79929,  -0.00162,  -0.00124,  -0.00105,  -0.00000,   2.00000
-28802600.54358,-473996800.44624,-71735668.31149,  -0.00083,  -0.00334,  -0.00198,477831894.62874,   0.00195,276747558.41372,  -0.00162,  -0.00124,  -0.00105,   0.00000,   2.00000
-25309052.83683,-472451456.06655,-71645764.45463,  -0.00081,  -0.00335,  -0.00199,477888651.76059,   0.00195,276752529.43570,  -0.00162,  -0.00125,  -0.00105,   0.00000,   2.00000
-21842307.94351,-470901972.41118,-71548351.12138,  -0.00080,  -0.00335,  -0.00199,477881095.04411,   0.00196,276757451.73934,  -0.00162,  -0.00125,  -0.00106,  -0.00000,   2.00000
-18349507.50127,-469321944.76056,-71448089.16505,  -0.00078,  -0.00336,  -0.00199,477906956.63946,   0.00196,276762471.30986,  -0.00161,  -0.00126,  -0.00106,   0.00000,   2.00000
-14865430.79088,-467727395.67357,-71345170.67647,  -0.00077,  -0.00336,  -0.00199,477931809.27790,   0.00197,276767583.42337,  -0.00161,  -0.00126,  -0.00106,   0.00000,   2.00000
-11339163.03902,-466096301.34155,-71234291.03312,  -0.00075,  -0.00337,  -0.00199,477927478.62637,   0.00197,276772660.12942,  -0.00161,  -0.00127,  -0.00106,   0.00000,   2.00000
-7873320.18228,-464473246.46740,-71126135.92022,  -0.00074,  -0.00337,  -0.00199,477981649.90534,   0.00198,276777957.65109,  -0.00161,  -0.00127,  -0.00107,   0.00000,   2.00000
-4348588.88379,-462803171.37470,-71014047.40251,  -0.00072,  -0.00338,  -0.00199,477951480.24799,   0.00198,276783105.52996,  -0.00160,  -0.00128,  -0.00107,   0.00000,   2.00000
-884930.04435,-461142129.81116,-70904815.52083,  -0.00071,  -0.00338,  -0.00199,478005135.97078,   0.00199,276788472.02370,  -0.00160,  -0.00128,  -0.00107,   0.00000,   2.00000
2620863.87153,-459443916.41038,-70787505.34048,  -0.00069,  -0.00339,  -0.00199,478001909.02767,   0.00199,276793806.53742,  -0.00160,  -0.00129,  -0.00107,   0.00000,   2.00000
6151059.11459,-457714641.65714,-70667208.32566,  -0.00067,  -0.00339,  -0.00199,478029920.83225,   0.00200,276799246.57200,  -0.00160,  -0.00130,  -0.00108,   0.00000,   2.00000
9654713.10372,-455982003.25312,-70539547.42535,  -0.00066,  -0.00339,  -0.00199,478022235.86446,   0.00200,276804634.46849,  -0.00159,  -0.00130,  -0.00108,   0.00000,   2.00000
13147753.04840,-454231873.19286,-70418554.39180,  -0.00064,  -0.00340,  -0.00200,478051933.51893,   0.00201,276810135.10397,  -0.00159,  -0.00131,  -0.00108,  -0.00000,   2.00000
16665062.63148,-452454672.22528,-70285357.63621,  -0.00063,  -0.00340,  -0.00200,478076167.25542,   0.00201,276815724.02311,  -0.00159,  -0.00131,  -0.00108,   0.00000,   2.00000
20154971.85027,-450666720.14623,-70163282.96847,  -0.00061,  -0.00341,  -0.00200,478076931.87718,   0.00202,276821297.16151,  -0.00158,  -0.00132,  -0.00109,   0.00000,   2.00000
23650737.43663,-448863246.77951,-70025090.60109,  -0.00060,  -0.00341,  -0.00200,478127311.39465,   0.00202,276827073.92340,  -0.00158,  -0.00132,  -0.00109,  -0.00000,   2.00000
27171864.90378,-447023401.19543,-69892177.48644,  -0.00058,  -0.00342,  -0.00200,478101716.17786,   0.00203,276832717.36131,  -0.00158,  -0.00133,  -0.00109,   0.00000,   2.00000
30663502.86457,-445182540.88925,-69752943.08616,  -0.00057,  -0.00342,  -0.00200,478153037.10292,   0.00203,276838568.53855,  -0.00157,  -0.00133,  -0.00109,   0.00000,   2.00000
34196805.56378,-443302331.50750,-69605266.81457,  -0.00055,  -0.00342,  -0.00200,478153201.57419,   0.00204,276844399.95901,  -0.00157,  -0.00134,  -0.00110,  -0.00000,   2.00000
37702651.17151,-441411931.82251,-69468800.77950,  -0.00054,  -0.00343,  -0.00200,478153873.84960,   0.00204,276850213.79287,  -0.00157,  -0.00135,  -0.00110,   0.00000,   2.00000
41178744.27418,-439525364.29855,-69316934.31686,  -0.00052,  -0.00343,  -0.00200,478200642.02721,   0.00205,276856214.77496,  -0.00157,  -0.00135,  -0.00110,  -0.00000,   2.00000
44695669.22921,-437595191.01855,-69165769.84694,  -0.00051,  -0.00343,  -0.00200,478205997.62862,   0.00206,276862218.17211,  -0.00156,  -0.00136,  -0.00110,   0.00000,   2.00000
48219573.14911,-435639974.37796,-69015932.33168,  -0.00049,  -0.00344,  -0.00200,478207092.36089,   0.00206,276868204.92536,  -0.00156,  -0.00136,  -0.00111,   0.00000,   2.00000
51731217.88302,-433672602.28574,-68863703.21195,  -0.00047,  -0.00344,  -0.00200,478233337.22454,   0.00207,276874287.01480,  -0.00156,  -0.00137,  -0.00111,   0.00000,   2.00000
55231205.12158,-431697001.91112,-68699892.25286,  -0.00046,  -0.00345,  -0.00200,478255288.20086,   0.00207,276880444.89978,  -0.00155,  -0.00137,  -0.00111,   0.00000,   2.00000
58718577.75913,-429709744.28940,-68533790.31004,  -0.00044,  -0.00345,  -0.00200,478281492.60667,   0.00208,276886697.22274,  -0.00155,  -0.00138,  -0.00111,  -0.00000,   2.00000
62211998.30230,-427693926.74169,-68378277.01770,  -0.00043,  -0.00345,  -0.00201,478287225.39191,   0.00208,276892952.19428,  -0.00154,  -0.00139,  -0.00112,   0.00000,   2.00000
65693354.94368,-425670382.20417,-68211237.84823,  -0.00041,  -0.00346,  -0.00201,478309233.89983,   0.00209,276899282.43091,  -0.00154,  -0.00139,  -0.00112,   0.00000,   2.00000
69182467.84747,-423625376.43725,-68036284.16951,  -0.00040,  -0.00346,  -0.00201,478306728.03970,   0.00210,276905577.96548,  -0.00154,  -0.00140,  -0.00112,  -0.00000,   2.00000
72657477.99332,-421565754.87141,-67868361.99727,  -0.00038,  -0.00346,  -0.00201,478337257.91330,   0.00210,276911986.66687,  -0.00153,  -0.00140,  -0.00112,  -0.00000,   2.00000
76173318.29715,-419464354.80593,-67691555.60031,  -0.00037,  -0.00347,  -0.00201,478341545.23316,   0.00211,276918390.59201,  -0.00153,  -0.00141,  -0.00113,   0.00000,   2.00000
79641528.39842,-417368806.78849,-67522728.83867,  -0.00035,  -0.00347,  -0.00201,478365806.97411,   0.00211,276924879.13046,  -0.00153,  -0.00142,  -0.00113,   0.00000,   2.00000
83129936.31726,-415245782.33119,-67341489.94912,  -0.00033,  -0.00347,  -0.00201,478394848.06736,   0.00212,276931473.38256,  -0.00152,  -0.00142,  -0.00113,   0.00000,   2.00000
86624897.66739,-413097449.08946,-67161518.03176,  -0.00032,  -0.00348,  -0.00201,478397573.06591,   0.00213,276938054.79027,  -0.00152,  -0.00143,  -0.00114,   0.00000,   2.00000
90074016.51678,-410962802.70287,-66971147.67562,  -0.00030,  -0.00348,  -0.00201,478412941.23298,   0.00213,276944680.01885,  -0.00151,  -0.00143,  -0.00114,   0.00000,   2.00000
93540597.61683,-408793989.08338,-66786932.80011,  -0.00029,  -0.00348,  -0.00201,478450922.50569,   0.00214,276951450.49867,  -0.00151,  -0.00144,  -0.00114,   0.00000,   2.00000
97014713.90389,-406603245.94424,-66594702.27360,  -0.00027,  -0.00349,  -0.00201,478449850.51701,   0.00215,276958190.00898,  -0.00151,  -0.00145,  -0.00114,   0.00000,   2.00000
100495289.72007,-404387040.84934,-66403710.29153,  -0.00026,  -0.00349,  -0.00201,478453122.72880,   0.00215,276964918.11605,  -0.00150,  -0.00145,  -0.00115,   0.00000,   2.00000
103939926.91693,-402176790.01718,-66207345.31666,  -0.00024,  -0.00349,  -0.00201,478503511.36516,   0.00216,276971846.88378,  -0.00150,  -0.00146,  -0.00115,   0.00000,   2.00000
107380015.59198,-399946588.72404,-66016647.22712,  -0.00022,  -0.00350,  -0.00201,478475394.58312,   0.00217,276978621.79243,  -0.00149,  -0.00147,  -0.00115,   0.00000,   2.00000
110817172.85832,-397705057.09176,-65810251.66249,  -0.00021,  -0.00350,  -0.00201,478529510.16709,   0.00217,276985614.00390,  -0.00149,  -0.00147,  -0.00115,   0.00000,   2.00000
114260647.26243,-395438145.64978,-65605119.17149,  -0.00019,  -0.00350,  -0.00201,478533228.85461,   0.00218,276992595.33716,  -0.00148,  -0.00148,  -0.00116,   0.00000,   2.00000
117709201.86353,-393142535.00091,-65410501.40855,  -0.00018,  -0.00350,  -0.00201,478541222.86271,   0.00218,276999585.03903,  -0.00148,  -0.00149,  -0.00116,   0.00000,   2.00000
121144720.21472,-390844313.80147,-65195299.83722,  -0.00016,  -0.00351,  -0.00201,478560146.82019,   0.00219,277006632.31493,  -0.00148,  -0.00149,  -0.00116,  -0.00000,   2.00000
124563372.97471,-388534248.96968,-64987497.14208,  -0.00015,  -0.00351,  -0.00201,478591203.44202,   0.00220,277013791.65754,  -0.00147,  -0.00150,  -0.00117,   0.00000,   2.00000
127988186.69062,-386198699.57163,-64780902.58055,  -0.00013,  -0.00351,  -0.00201,478595506.25874,   0.00221,277020941.63787,  -0.00147,  -0.00151,  -0.00117,   0.00000,   2.00000
131420405.20706,-383840587.18361,-64566167.75401,  -0.00011,  -0.00351,  -0.00201,478596014.08590,   0.00221,277028065.03617,  -0.00146,  -0.00151,  -0.00117,   0.00000,   2.00000
134814440.64856,-381491585.42379,-64346509.28655,  -0.00010,  -0.00352,  -0.00201,478645640.58659,   0.00222,277035384.04365,  -0.00146,  -0.00152,  -0.00117,   0.00000,   2.00000
138236737.64917,-379099439.09526,-64131079.08718,  -0.00008,  -0.00352,  -0.00201,478628017.88589,   0.00223,277042593.46315,  -0.00145,  -0.00152,  -0.00118,   0.00000,   2.00000
141652819.70288,-376697778.81801,-63900145.36306,  -0.00007,  -0.00352,  -0.00201,478683535.25220,   0.00223,277050024.81275,  -0.00145,  -0.00153,  -0.00118,   0.00000,   2.00000
145064640.04293,-374271785.73106,-63684030.14260,  -0.00005,  -0.00352,  -0.00201,478660630.52712,   0.00224,277057321.86606,  -0.00144,  -0.00154,  -0.00118,  -0.00000,   2.00000
148407856.51500,-371881726.02634,-63455215.67842,  -0.00004,  -0.00353,  -0.00201,478695594.92100,   0.00225,277064747.23538,  -0.00144,  -0.00154,  -0.00119,   0.00000,   2.00000
151787920.24771,-369443607.58125,-63226225.49973,  -0.00002,  -0.00353,  -0.00201,478711084.75070,   0.00225,277072212.07295,  -0.00143,  -0.00155,  -0.00119,   0.00000,   2.00000
155175173.40055,-366982581.47201,-62989047.68150,  -0.00000,  -0.00353,  -0.00201,478712733.08940,   0.00226,277079653.35163,  -0.00143,  -0.00156,  -0.00119,  -0.00000,   2.00000
158543944.86591,-364511533.95402,-62759499.63891,   0.00001,  -0.00353,  -0.00201,478744040.04105,   0.00227,277087205.61982,  -0.00142,  -0.00156,  -0.00119,   0.00000,   2.00000
161919817.27851,-362017479.89268,-62521727.72903,   0.00003,  -0.00353,  -0.00201,478746042.83386,   0.00227,277094735.33657,  -0.00142,  -0.00157,  -0.00120,   0.00000,   2.00000
165278355.57313,-359516579.15775,-62282275.87975,   0.00004,  -0.00354,  -0.00201,478773528.79586,   0.00228,277102358.18009,  -0.00141,  -0.00158,  -0.00120,  -0.00000,   2.00000
168619436.60273,-357009112.21835,-62041185.90062,   0.00006,  -0.00354,  -0.00201,478800974.74478,   0.00229,277110073.47919,  -0.00141,  -0.00159,  -0.00120,   0.00000,   2.00000
171936053.79779,-354498876.53118,-61802729.47234,   0.00007,  -0.00354,  -0.00201,478795656.16849,   0.00230,277117731.88034,  -0.00140,  -0.00159,  -0.00121,  -0.00000,   2.00000
175289667.13946,-351942407.24935,-61554516.46939,   0.00009,  -0.00354,  -0.00201,478809805.08354,   0.00230,277125422.02095,  -0.00139,  -0.00160,  -0.00121,   0.00000,   2.00000
178625373.68129,-349379717.61342,-61304707.79931,   0.00010,  -0.00354,  -0.00201,478837471.69269,   0.00231,277133205.10403,  -0.00139,  -0.00161,  -0.00121,  -0.00000,   2.00000
181913538.85684,-346834339.35491,-61054896.57526,   0.00012,  -0.00355,  -0.00201,478852931.20762,   0.00232,277141025.09819,  -0.00138,  -0.00161,  -0.00121,   0.00000,   2.00000
185236569.40814,-344239831.48073,-60804651.27666,   0.00014,  -0.00355,  -0.00201,478871875.89532,   0.00233,277148897.63232,  -0.00138,  -0.00162,  -0.00122,   0.00000,   2.00000
188537025.16048,-341645231.79371,-60547672.27902,   0.00015,  -0.00355,  -0.00201,478862868.87170,   0.00233,277156695.20778,  -0.00137,  -0.00163,  -0.00122,   0.00000,   2.00000
191819306.55236,-339045157.51311,-60289213.91337,   0.00017,  -0.00355,  -0.00201,478890320.18263,   0.00234,277164583.91869,  -0.00137,  -0.00163,  -0.00122,   0.00000,   2.00000
195135746.94878,-336395565.25188,-60030234.77510,   0.00018,  -0.00355,  -0.00201,478910414.09472,   0.00235,277172529.82075,  -0.00136,  -0.00164,  -0.00123,   0.00000,   2.00000
198404626.59272,-333764291.10467,-59771399.79095,   0.00020,  -0.00355,  -0.00201,478925325.98427,   0.00236,277180508.94344,  -0.00136,  -0.00165,  -0.00123,  -0.00000,   2.00000
201656582.85627,-331130630.22567,-59501765.14110,   0.00021,  -0.00355,  -0.00200,478949125.11959,   0.00236,277188561.49115,  -0.00135,  -0.00165,  -0.00123,   0.00000,   2.00000
204935547.98773,-328447147.36046,-59245069.19521,   0.00023,  -0.00355,  -0.00200,478940731.03765,   0.00237,277196540.47301,  -0.00134,  -0.00166,  -0.00123,   0.00000,   2.00000
208175204.44955,-325785327.97326,-58965727.67982,   0.00024,  -0.00356,  -0.00200,478980810.29166,   0.00238,277204666.83613,  -0.00134,  -0.00167,  -0.00124,   0.00000,   2.00000
211413575.62525,-323097061.76551,-58700953.68241,   0.00026,  -0.00356,  -0.00200,478959316.42130,   0.00239,277212659.37912,  -0.00133,  -0.00167,  -0.00124,   0.00000,   2.00000
214637274.72512,-320402582.23826,-58430783.57363,   0.00028,  -0.00356,  -0.00200,479020052.83669,   0.00239,277220893.17209,  -0.00133,  -0.00168,  -0.00124,   0.00000,   2.00000
217891146.77414,-317662283.68910,-58154576.80406,   0.00029,  -0.00356,  -0.00200,479005641.68890,   0.00240,277229024.69445,  -0.00132,  -0.00169,  -0.00125,   0.00000,   2.00000
221097801.72254,-314941752.01184,-57878765.33933,   0.00031,  -0.00356,  -0.00200,479019418.78336,   0.00241,277237182.70783,  -0.00131,  -0.00169,  -0.00125,   0.00000,   2.00000
224285182.58923,-312217455.64940,-57601702.65066,   0.00032,  -0.00356,  -0.00200,479046974.95563,   0.00242,277245429.76744,  -0.00131,  -0.00170,  -0.00125,   0.00000,   2.00000
227478896.71465,-309469265.49715,-57316249.12467,   0.00034,  -0.00356,  -0.00200,479052116.00809,   0.00242,277253663.22471,  -0.00130,  -0.00171,  -0.00125,   0.00000,   2.00000
230653051.41782,-306717611.32752,-57029602.87698,   0.00035,  -0.00356,  -0.00200,479079791.40027,   0.00243,277261985.72273,  -0.00129,  -0.00172,  -0.00126,  -0.00000,   2.00000
233855608.17175,-303916764.67609,-56746177.67888,   0.00037,  -0.00356,  -0.00200,479070372.97766,   0.00244,277270227.70611,  -0.00129,  -0.00172,  -0.00126,   0.99559,   1.00000
237014152.28789,-301135794.77410,-56459378.25410,   0.00038,  -0.00356,  -0.00200,479116732.23788,   0.00245,277278643.63500,  -0.00128,  -0.00173,  -0.00126,   0.95265,   1.00000
240178630.89706,-298330763.39623,-56164146.97053,   0.00040,  -0.00356,  -0.00200,479122732.26060,   0.00246,277287048.65880,  -0.00128,  -0.00174,  -0.00127,   0.87212,   1.00000
243320521.37626,-295523501.98831,-55871701.45165,   0.00041,  -0.00356,  -0.00199,479117150.44283,   0.00246,277295389.92999,  -0.00127,  -0.00174,  -0.00127,   0.78973,   1.00000
246466539.43673,-292689864.97353,-55580236.62729,   0.00043,  -0.00356,  -0.00199,479126862.46265,   0.00247,277303737.34487,  -0.00126,  -0.00175,  -0.00127,   0.72870,   1.00000
249568206.73698,-289877531.37054,-55285622.54741,   0.00045,  -0.00356,  -0.00199,479172480.83288,   0.00248,277312254.39519,  -0.00126,  -0.00176,  -0.00127,   0.70228,   1.00000
252699871.25826,-287016976.44833,-54984575.93968,   0.00046,  -0.00356,  -0.00199,479161308.74172,   0.00249,277320681.37094,  -0.00125,  -0.00176,  -0.00128,   0.63929,   1.00000
255809212.58861,-284152168.07983,-54691947.31683,   0.00048,  -0.00356,  -0.00199,479192655.80317,   0.00250,277329212.34669,  -0.00124,  -0.00177,  -0.00128,   0.61377,   1.00000
258925844.79644,-281264934.75645,-54381317.15674,   0.00049,  -0.00356,  -0.00199,479196412.88953,   0.00250,277337720.99713,  -0.00124,  -0.00178,  -0.00128,   0.57707,   1.00000
261994312.26323,-278398030.17969,-54081013.61368,   0.00051,  -0.00356,  -0.00199,479211492.47132,   0.00251,277346258.90296,  -0.00123,  -0.00179,  -0.00128,   0.55554,   1.00000
265068329.97131,-275506686.05914,-53772189.91385,   0.00052,  -0.00356,  -0.00199,479218702.37245,   0.00252,277354789.96077,  -0.00122,  -0.00179,  -0.00129,   0.53691,   1.00000
268121611.92294,-272613792.43720,-53462434.31036,   0.00054,  -0.00356,  -0.00199,479246504.87699,   0.00253,277363407.89958,  -0.00121,  -0.00180,  -0.00129,   0.53785,   1.00000
271178319.34206,-269694533.88183,-53153638.78989,   0.00055,  -0.00356,  -0.00198,479257490.37940,   0.00254,277372035.58425,  -0.00121,  -0.00181,  -0.00129,   0.53701,   1.00000
274240098.61154,-266750664.51522,-52836279.21769,   0.00057,  -0.00356,  -0.00198,479265513.54985,   0.00254,277380659.36291,  -0.00120,  -0.00181,  -0.00130,   0.54261,   1.00000
277254109.10097,-263828105.75281,-52529402.88975,   0.00058,  -0.00356,  -0.00198,479279733.68677,   0.00255,277389307.36263,  -0.00119,  -0.00182,  -0.00130,   0.55979,   1.00000
280273270.58821,-260880928.15990,-52213946.88237,   0.00060,  -0.00356,  -0.00198,479287824.91137,   0.00256,277397951.44626,  -0.00119,  -0.00183,  -0.00130,   0.58155,   1.00000
283273124.61845,-257934751.94972,-51888160.24149,   0.00061,  -0.00356,  -0.00198,479312441.27466,   0.00257,277406666.74530,  -0.00118,  -0.00183,  -0.00130,   0.62193,   1.00000
286275933.44122,-254962141.76878,-51563328.70633,   0.00063,  -0.00356,  -0.00198,479324249.25082,   0.00258,277415394.49289,  -0.00117,  -0.00184,  -0.00131,   0.66298,   1.00000
289279565.01841,-251961356.72479,-51248923.45951,   0.00064,  -0.00356,  -0.00198,479339571.20910,   0.00259,277424150.49808,  -0.00117,  -0.00185,  -0.00131,   0.71539,   1.00000
292241554.30905,-248987838.21870,-50916583.74987,   0.00066,  -0.00356,  -0.00197,479343453.08132,   0.00259,277432882.46702,  -0.00116,  -0.00185,  -0.00131,   0.76700,   1.00000
295204391.12023,-245986201.92599,-50594702.69489,   0.00067,  -0.00356,  -0.00197,479358804.63882,   0.00260,277441642.57201,  -0.00115,  -0.00186,  -0.00131,   0.83641,   1.00000
298171644.03160,-242959684.44919,-50264177.20441,   0.00069,  -0.00355,  -0.00197,479368202.38454,   0.00261,277450403.47578,  -0.00114,  -0.00187,  -0.00132,   0.90972,   1.00000
301116987.48988,-239933322.25094,-49932945.21368,   0.00070,  -0.00355,  -0.00197,479396310.45637,   0.00262,277459250.12417,  -0.00114,  -0.00187,  -0.00132,   0.00000,   2.00000
304041523.61575,-236904629.19744,-49604512.11509,   0.00072,  -0.00355,  -0.00197,479390758.85826,   0.00263,277468028.97902,  -0.00113,  -0.00188,  -0.00132,   0.00000,   2.00000
306946136.77190,-233877985.19127,-49265885.06432,   0.00073,  -0.00355,  -0.00197,479415548.98664,   0.00264,277476878.14206,  -0.00112,  -0.00189,  -0.00132,   0.00000,   2.00000
309852933.98082,-230824887.80071,-48928169.71788,   0.00075,  -0.00355,  -0.00196,479428620.51550,   0.00264,277485743.89336,  -0.00111,  -0.00190,  -0.00133,   0.00000,   2.00000
312761642.63457,-227745307.44386,-48591332.41858,   0.00076,  -0.00355,  -0.00196,479442039.18530,   0.00265,277494627.59624,  -0.00111,  -0.00190,  -0.00133,  -0.00000,   2.00000
315627660.65647,-224692203.77695,-48246268.02956,   0.00078,  -0.00355,  -0.00196,479448106.34975,   0.00266,277503495.68545,  -0.00110,  -0.00191,  -0.00133,   0.00000,   2.00000
318495588.16328,-221612626.45031,-47902105.72132,   0.00079,  -0.00354,  -0.00196,479461622.00308,   0.00267,277512381.91798,  -0.00109,  -0.00192,  -0.00134,  -0.00000,   2.00000
321365140.35914,-218506555.50999,-47558812.91940,   0.00080,  -0.00354,  -0.00196,479475490.88873,   0.00268,277521287.67067,  -0.00108,  -0.00192,  -0.00134,   0.00000,   2.00000
324190460.58435,-215425868.57883,-47216911.21083,   0.00082,  -0.00354,  -0.00195,479484089.28275,   0.00269,277530188.84261,  -0.00108,  -0.00193,  -0.00134,   0.00000,   2.00000
327040782.21039,-212296195.84418,-46864385.75881,   0.00083,  -0.00354,  -0.00195,479514840.08785,   0.00270,277539185.72774,  -0.00107,  -0.00194,  -0.00134,  -0.00000,   2.00000
329846949.42139,-209192197.88196,-46513321.11331,   0.00085,  -0.00354,  -0.00195,479523313.51213,   0.00270,277548176.76793,  -0.00106,  -0.00194,  -0.00135,   0.00000,   2.00000
332635219.10942,-206086929.68598,-46155487.74525,   0.00086,  -0.00354,  -0.00195,479514883.70528,   0.00271,277557085.31866,  -0.00105,  -0.00195,  -0.00135,   0.00000,   2.00000
335443712.54881,-202930154.72033,-45806192.78510,   0.00088,  -0.00353,  -0.00195,479552325.20410,   0.00272,277566119.36279,  -0.00104,  -0.00196,  -0.00135,  -0.00000,   2.00000
338234085.33692,-199771970.56888,-45450059.09754,   0.00089,  -0.00353,  -0.00194,479544382.47634,   0.00273,277575072.70156,  -0.00104,  -0.00196,  -0.00135,   0.00000,   2.00000
340980979.35544,-196639829.77871,-45095455.01834,   0.00091,  -0.00353,  -0.00194,479552104.91489,   0.00274,277584016.55181,  -0.00103,  -0.00197,  -0.00135,   0.00000,   2.00000
343751014.16796,-193458851.68340,-44730195.08320,   0.00092,  -0.00353,  -0.00194,479584809.96053,   0.00275,277593063.76731,  -0.00102,  -0.00198,  -0.00136,   0.00000,   2.00000
346477649.85275,-190304194.79628,-44366532.53752,   0.00093,  -0.00352,  -0.00194,479592425.79939,   0.00276,277602100.29153,  -0.00101,  -0.00198,  -0.00136,  -0.00000,   2.00000
349204814.58439,-187123223.90716,-44003739.40793,   0.00095,  -0.00352,  -0.00193,479607848.93954,   0.00276,277611161.31106,  -0.00100,  -0.00199,  -0.00136,  -0.00000,   2.00000
351914410.25926,-183940531.78733,-43634100.66675,   0.00096,  -0.00352,  -0.00193,479599956.16617,   0.00277,277620141.29644,  -0.00100,  -0.00200,  -0.00136,   0.00000,   2.00000
354624214.92504,-180731452.02862,-43265312.62419,   0.00098,  -0.00352,  -0.00193,479615792.71671,   0.00278,277629147.64584,  -0.00099,  -0.00200,  -0.00137,   0.00000,   2.00000
357310566.68485,-177525683.77062,-42896278.41462,   0.00099,  -0.00351,  -0.00193,479643965.43950,   0.00279,277638235.73658,  -0.00098,  -0.00201,  -0.00137,   0.00000,   2.00000
359996710.76841,-174293691.28502,-42528085.85849,   0.00101,  -0.00351,  -0.00192,479660285.30871,   0.00280,277647351.52253,  -0.00097,  -0.00201,  -0.00137,   0.00000,   2.00000
362642126.60482,-171089670.22699,-42151969.62084,   0.00102,  -0.00351,  -0.00192,479664464.23563,   0.00281,277656440.05585,  -0.00096,  -0.00202,  -0.00137,   0.00000,   2.00000
365310375.13933,-167829402.90144,-41777721.28664,   0.00103,  -0.00350,  -0.00192,479669490.43893,   0.00282,277665505.12230,  -0.00096,  -0.00203,  -0.00138,   0.00000,   2.00000
367938062.38982,-164597141.69713,-41395564.44118,   0.00105,  -0.00350,  -0.00192,479673548.11346,   0.00282,277674542.41063,  -0.00095,  -0.00203,  -0.00138,   0.00000,   2.00000
370540229.63881,-161368024.76105,-41022934.99690,   0.00106,  -0.00350,  -0.00191,479704116.32026,   0.00283,277683671.20372,  -0.00094,  -0.00204,  -0.00138,  -0.00000,   2.00000
373143563.31969,-158113787.62931,-40641513.90699,   0.00108,  -0.00349,  -0.00191,479718578.78303,   0.00284,277692818.41925,  -0.00093,  -0.00205,  -0.00138,   0.00000,   2.00000
375729790.85024,-154857266.00310,-40253179.36333,   0.00109,  -0.00349,  -0.00191,479711309.55180,   0.00285,277701886.20088,  -0.00092,  -0.00205,  -0.00139,  -0.00000,   2.00000
378314884.50374,-151574635.81010,-39865704.58959,   0.00110,  -0.00349,  -0.00191,479728788.42633,   0.00286,277710985.95857,  -0.00091,  -0.00206,  -0.00139,   0.00000,   2.00000
380875806.73136,-148296779.40286,-39478206.92468,   0.00112,  -0.00348,  -0.00190,479757077.10488,   0.00287,277720165.88294,  -0.00091,  -0.00207,  -0.00139,   0.00000,   2.00000
383440454.88796,-144984687.60628,-39094255.64874,   0.00113,  -0.00348,  -0.00190,479742250.00758,   0.00288,277729232.02030,  -0.00090,  -0.00207,  -0.00139,   0.00000,   2.00000
385960057.83952,-141709512.55166,-38699816.06448,   0.00114,  -0.00348,  -0.00190,479778292.04224,   0.00288,277738412.88538,  -0.00089,  -0.00208,  -0.00139,   0.00000,   2.00000
388483490.98071,-138399764.84121,-38308894.69647,   0.00116,  -0.00347,  -0.00189,479763743.72782,   0.00289,277747481.11077,  -0.00088,  -0.00208,  -0.00140,   0.00000,   2.00000
390982568.83068,-135095375.13030,-37918024.97978,   0.00117,  -0.00347,  -0.00189,479791963.37177,   0.00290,277756628.60051,  -0.00087,  -0.00209,  -0.00140,  -0.00000,   2.00000
393481339.97872,-131765965.64110,-37518340.33199,   0.00118,  -0.00346,  -0.00189,479808244.17197,   0.00291,277765801.33015,  -0.00086,  -0.00210,  -0.00140,   0.00000,   2.00000
395939180.78274,-128464491.49562,-37120598.76481,   0.00120,  -0.00346,  -0.00189,479813469.25317,   0.00292,277774949.67249,  -0.00085,  -0.00210,  -0.00140,   0.00000,   2.00000
398416778.15224,-125105715.99750,-36724442.82954,   0.00121,  -0.00346,  -0.00188,479823089.54916,   0.00293,277784093.17184,  -0.00085,  -0.00211,  -0.00140,  -0.00000,   2.00000
400871243.38076,-121753721.79070,-36318750.40698,   0.00122,  -0.00345,  -0.00188,479849362.25452,   0.00294,277793306.01565,  -0.00084,  -0.00212,  -0.00141,   0.00000,   2.00000
403285126.93180,-118429894.84130,-35915053.32690,   0.00124,  -0.00345,  -0.00188,479854300.00451,   0.00295,277802492.60185,  -0.00083,  -0.00212,  -0.00141,  -0.00000,   2.00000
405704235.55291,-115071036.77822,-35504990.52581,   0.00125,  -0.00344,  -0.00187,479839189.46242,   0.00295,277811563.60838,  -0.00082,  -0.00213,  -0.00141,  -0.00000,   2.00000
408111944.13059,-111696373.37298,-35103091.86100,   0.00126,  -0.00344,  -0.00187,479893469.26900,   0.00296,277820828.37703,  -0.00081,  -0.00213,  -0.00141,   0.00000,   2.00000
410489435.99643,-108340737.38769,-34686188.84621,   0.00128,  -0.00343,  -0.00187,479861586.69439,   0.00297,277829902.49472,  -0.00080,  -0.00214,  -0.00141,   0.00000,   2.00000
412855175.79624,-104969863.59570,-34277555.44808,   0.00129,  -0.00343,  -0.00186,479915910.96314,   0.00298,277839169.96794,  -0.00079,  -0.00214,  -0.00142,   0.00000,   2.00000
415225467.17808,-101563414.99885,-33862425.88867,   0.00130,  -0.00342,  -0.00186,479902194.60045,   0.00299,277848327.36108,  -0.00078,  -0.00215,  -0.00142,   0.00000,   2.00000
417555877.13904,-98185395.73165,-33449346.54663,   0.00132,  -0.00342,  -0.00186,479906584.89534,   0.00300,277857455.58534,  -0.00078,  -0.00216,  -0.00142,   0.00000,   2.00000
419861208.29599,-94814718.98101,-33036633.36303,   0.00133,  -0.00341,  -0.00185,479934819.01277,   0.00301,277866660.35068,  -0.00077,  -0.00216,  -0.00142,   0.00000,   2.00000
422185064.08314,-91386940.73609,-32615644.35958,   0.00134,  -0.00341,  -0.00185,479946171.23774,   0.00302,277875866.17655,  -0.00076,  -0.00217,  -0.00142,  -0.00000,   2.00000
424469359.49610,-87987807.45243,-32196753.96892,   0.00135,  -0.00340,  -0.00184,479950334.52246,   0.00302,277885041.17886,  -0.00075,  -0.00217,  -0.00143,   0.00000,   2.00000
426750654.39092,-84564268.80396,-31769077.75232,   0.00137,  -0.00340,  -0.00184,479969684.66176,   0.00303,277894252.46105,  -0.00074,  -0.00218,  -0.00143,   0.00000,   2.00000
429013396.36825,-81136583.26639,-31344005.20161,   0.00138,  -0.00339,  -0.00184,479966657.87189,   0.00304,277903400.85694,  -0.00073,  -0.00219,  -0.00143,  -0.00000,   2.00000
431250450.88651,-77717119.21318,-30919429.01702,   0.00139,  -0.00339,  -0.00183,479995205.33935,   0.00305,277912625.88795,  -0.00072,  -0.00219,  -0.00143,   0.00000,   2.00000
433469174.08379,-74293437.90359,-30497432.75706,   0.00140,  -0.00338,  -0.00183,479992161.62235,   0.00306,277921787.72122,  -0.00071,  -0.00220,  -0.00143,   0.00000,   2.00000
435684073.88040,-70845615.28122,-30066651.05050,   0.00142,  -0.00337,  -0.00183,480012390.33568,   0.00307,277930988.98906,  -0.00070,  -0.00220,  -0.00143,   0.00000,   2.00000
437882037.38684,-67393871.07030,-29628706.01715,   0.00143,  -0.00337,  -0.00182,480007873.15399,   0.00308,277940120.47148,  -0.00069,  -0.00221,  -0.00144,  -0.00000,   2.00000
440052422.76572,-63950639.62967,-29201112.39295,   0.00144,  -0.00336,  -0.00182,480038331.41864,   0.00309,277949336.11464,  -0.00069,  -0.00221,  -0.00144,   0.00000,   2.00000
442218239.17389,-60483589.89353,-28764763.84338,   0.00145,  -0.00336,  -0.00181,480059331.17309,   0.00309,277958593.64907,  -0.00068,  -0.00222,  -0.00144,   0.00000,   2.00000
444366964.19534,-57012550.65131,-28321237.97160,   0.00147,  -0.00335,  -0.00181,480055276.16315,   0.00310,277967782.82081,  -0.00067,  -0.00222,  -0.00144,   0.00000,   2.00000
446476058.87335,-53570206.51250,-27889694.64256,   0.00148,  -0.00334,  -0.00181,480060131.08045,   0.00311,277976943.01229,  -0.00066,  -0.00223,  -0.00144,   0.00000,   2.00000
448599517.41687,-50070663.36167,-27449717.97193,   0.00149,  -0.00334,  -0.00180,480076415.58261,   0.00312,277986124.09475,  -0.00065,  -0.00223,  -0.00144,  -0.00000,   2.00000
450697850.48630,-46581296.61634,-27000726.00575,   0.00150,  -0.00333,  -0.00180,480103721.42672,   0.00313,277995373.93137,  -0.00064,  -0.00224,  -0.00145,   0.00000,   2.00000
452745693.30641,-43139951.94164,-26565246.44464,   0.00151,  -0.00332,  -0.00179,480082375.79745,   0.00314,278004479.75730,  -0.00063,  -0.00225,  -0.00145,   0.00000,   2.00000
454819468.51643,-39622735.56161,-26110101.75403,   0.00153,  -0.00332,  -0.00179,480124149.61722,   0.00315,278013717.25618,  -0.00062,  -0.00225,  -0.00145,  -0.00000,   2.00000
456854019.26481,-36134574.91441,-25667017.63588,   0.00154,  -0.00331,  -0.00178,480128766.56972,   0.00316,278022923.70731,  -0.00061,  -0.00226,  -0.00145,   0.00000,   2.00000
458871461.38764,-32642022.12940,-25216679.19010,   0.00155,  -0.00330,  -0.00178,480125443.87684,   0.00316,278032064.62540,  -0.00060,  -0.00226,  -0.00145,   0.00000,   2.00000
460880789.66473,-29126248.13606,-24767446.25308,   0.00156,  -0.00330,  -0.00178,480150130.39825,   0.00317,278041261.85413,  -0.00059,  -0.00227,  -0.00145,   0.00000,   2.00000
462864599.55228,-25621669.42878,-24309361.37294,   0.00157,  -0.00329,  -0.00177,480177617.75941,   0.00318,278050527.00955,  -0.00058,  -0.00227,  -0.00146,  -0.00000,   2.00000
464847776.51475,-22078493.53837,-23854007.56427,   0.00158,  -0.00328,  -0.00177,480172691.15907,   0.00319,278059718.93517,  -0.00057,  -0.00228,  -0.00146,   0.00000,   2.00000
466793832.07511,-18564724.60116,-23400965.44920,   0.00160,  -0.00328,  -0.00176,480175315.74230,   0.00320,278068870.72130,  -0.00056,  -0.00228,  -0.00146,   0.00000,   2.00000
468714328.08115,-15062573.76489,-22939146.01547,   0.00161,  -0.00327,  -0.00176,480202758.00260,   0.00321,278078089.72816,  -0.00055,  -0.00229,  -0.00146,   0.00000,   2.00000
470633814.38016,-11521533.46793,-22480002.99638,   0.00162,  -0.00326,  -0.00175,480198569.19565,   0.00322,278087238.71188,  -0.00054,  -0.00229,  -0.00146,   0.00000,   2.00000
472526027.53550,-7992380.17943,-22021914.39617,   0.00163,  -0.00325,  -0.00175,480227711.19460,   0.00323,278096461.64468,  -0.00054,  -0.00230,  -0.00146,   0.00000,   2.00000
474400546.62233,-4458632.14154,-21556530.00888,   0.00164,  -0.00325,  -0.00174,480225714.22462,   0.00324,278105623.81062,  -0.00053,  -0.00230,  -0.00146,   0.00000,   2.00000
476264954.15797,-902896.82905,-21092399.99250,   0.00165,  -0.00324,  -0.00174,480252257.74750,   0.00324,278114848.03445,  -0.00052,  -0.00231,  -0.00146,  -0.00000,   2.00000
478093077.36632,2623245.63240,-20630647.20994,   0.00166,  -0.00323,  -0.00173,480254425.23548,   0.00325,278124029.17974,  -0.00051,  -0.00231,  -0.00147,   0.00000,   2.00000
479903496.04879,6154147.18212,-20161577.23212,   0.00167,  -0.00322,  -0.00173,480252728.20424,   0.00326,278133150.79479,  -0.00050,  -0.00232,  -0.00147,   0.00000,   2.00000
481712780.06665,9723196.27435,-19682861.40914,   0.00169,  -0.00322,  -0.00172,480305863.11799,   0.00327,278142447.62062,  -0.00049,  -0.00232,  -0.00147,  -0.00000,   2.00000
483493129.19203,13280419.01146,-19217614.81934,   0.00170,  -0.00321,  -0.00172,480280049.38863,   0.00328,278151580.90110,  -0.00048,  -0.00232,  -0.00147,   0.00000,   2.00000
485263257.46780,16858724.61877,-18743892.16715,   0.00171,  -0.00320,  -0.00171,480306544.21025,   0.00329,278160774.73952,  -0.00047,  -0.00233,  -0.00147,  -0.00000,   2.00000
486997618.78533,20407340.98404,-18272588.77592,   0.00172,  -0.00319,  -0.00171,480308507.35526,   0.00330,278169924.09119,  -0.00046,  -0.00233,  -0.00147,   0.00000,   2.00000
488721368.43186,23976714.92454,-17792875.52520,   0.00173,  -0.00318,  -0.00170,480335387.09891,   0.00331,278179135.00113,  -0.00045,  -0.00234,  -0.00147,   0.00000,   2.00000
490425446.92048,27550804.41343,-17315658.45952,   0.00174,  -0.00317,  -0.00170,480336153.81954,   0.00331,278188295.89103,  -0.00044,  -0.00234,  -0.00147,  -0.00000,   2.00000
492102552.22838,31110753.15474,-16830056.22544,   0.00175,  -0.00317,  -0.00169,480364579.67528,   0.00332,278197524.27214,  -0.00043,  -0.00235,  -0.00148,   0.00000,   2.00000
493759994.60499,34675423.95668,-16346974.31585,   0.00176,  -0.00316,  -0.00169,480365524.84941,   0.00333,278206703.06989,  -0.00042,  -0.00235,  -0.00148,   0.00000,   2.00000
495412875.21268,38279323.96058,-15866395.32416,   0.00177,  -0.00315,  -0.00168,480366187.34812,   0.00334,278215831.11249,  -0.00041,  -0.00236,  -0.00148,   0.00000,   2.00000
497022351.36965,41833985.67892,-15387305.91568,   0.00178,  -0.00314,  -0.00168,480396177.04748,   0.00335,278225032.53126,  -0.00040,  -0.00236,  -0.00148,   0.00000,   2.00000
498634388.08049,45442651.80479,-14899961.40693,   0.00179,  -0.00313,  -0.00167,480424549.51480,   0.00336,278234299.53716,  -0.00039,  -0.00236,  -0.00148,   0.00000,   2.00000
500205871.36866,49006700.56324,-14406206.21204,   0.00180,  -0.00312,  -0.00167,480397314.76208,   0.00337,278243397.68146,  -0.00038,  -0.00237,  -0.00148,   0.00000,   2.00000
501763649.40343,52590012.37878,-13914088.90877,   0.00181,  -0.00311,  -0.00166,480427124.73572,   0.00338,278252567.52242,  -0.00037,  -0.00237,  -0.00148,   0.00000,   2.00000
503307202.22632,56192167.32843,-13423637.43626,   0.00182,  -0.00310,  -0.00166,480457404.43178,   0.00338,278261810.18654,  -0.00036,  -0.00238,  -0.00148,   0.00000,   2.00000
504830149.27238,59798742.80999,-12935689.06167,   0.00183,  -0.00309,  -0.00165,480459772.00736,   0.00339,278271008.06077,  -0.00035,  -0.00238,  -0.00148,   0.00000,   2.00000
506319423.70265,63375374.91880,-12440427.46425,   0.00184,  -0.00308,  -0.00165,480460533.87403,   0.00340,278280154.68482,  -0.00034,  -0.00239,  -0.00148,  -0.00000,   2.00000
507793860.01346,66970241.13531,-11946918.61965,   0.00185,  -0.00307,  -0.00164,480491373.24783,   0.00341,278289375.59439,  -0.00033,  -0.00239,  -0.00148,   0.00000,   2.00000
509248291.55228,70569543.46410,-11446097.85291,   0.00186,  -0.00306,  -0.00163,480493396.63387,   0.00342,278298550.00523,  -0.00032,  -0.00239,  -0.00148,   0.00000,   2.00000
510673895.38369,74152082.39645,-10947149.61132,   0.00187,  -0.00306,  -0.00163,480523414.60030,   0.00343,278307794.45427,  -0.00031,  -0.00240,  -0.00149,   0.00000,   2.00000
512091671.04613,77773307.17932,-10450700.43643,   0.00188,  -0.00305,  -0.00162,480528141.76185,   0.00344,278317003.09211,  -0.00030,  -0.00240,  -0.00149,  -0.00000,   2.00000
513475998.03115,81364431.70346,-9946979.58783,   0.00189,  -0.00304,  -0.00162,480529079.75633,   0.00345,278326160.41369,  -0.00029,  -0.00240,  -0.00149,   0.00000,   2.00000
514844018.57913,84972471.43511,-9445191.65740,   0.00190,  -0.00303,  -0.00161,480561244.76518,   0.00346,278335395.55691,  -0.00028,  -0.00241,  -0.00149,  -0.00000,   2.00000
516178887.57924,88550399.44132,-8936169.60355,   0.00191,  -0.00302,  -0.00160,480562097.66866,   0.00346,278344578.65329,  -0.00027,  -0.00241,  -0.00149,  -0.00000,   2.00000
517492640.67974,92132614.02383,-8429720.44824,   0.00192,  -0.00301,  -0.00160,480565697.23002,   0.00347,278353721.17413,  -0.00026,  -0.00242,  -0.00149,  -0.00000,   2.00000
518801335.98051,95765198.40013,-7925260.43159,   0.00193,  -0.00299,  -0.00159,480601205.28532,   0.00348,278362954.07157,  -0.00025,  -0.00242,  -0.00149,   0.00000,   2.00000
520064606.26881,99333293.75524,-7423454.46448,   0.00193,  -0.00298,  -0.00159,480599899.63495,   0.00349,278372125.71820,  -0.00024,  -0.00242,  -0.00149,   0.00000,   2.00000
521322528.53865,102951201.84282,-6913861.53065,   0.00194,  -0.00297,  -0.00158,480635684.56695,   0.00350,278381387.91744,  -0.00023,  -0.00243,  -0.00149,   0.00000,   2.00000
522543614.04126,106527517.29191,-6397500.26869,   0.00195,  -0.00296,  -0.00157,480607659.58095,   0.00351,278390479.27836,  -0.00022,  -0.00243,  -0.00149,   0.00000,   2.00000
523750470.84199,110130065.62112,-5882963.92293,   0.00196,  -0.00295,  -0.00157,480670518.14712,   0.00352,278399771.24947,  -0.00021,  -0.00243,  -0.00149,   0.00000,   2.00000
524931506.61800,113725334.92054,-5371419.15280,   0.00197,  -0.00294,  -0.00156,480646408.95978,   0.00353,278408908.22988,  -0.00020,  -0.00244,  -0.00149,   0.00000,   2.00000
526093812.47798,117334999.21016,-4862142.16700,   0.00198,  -0.00293,  -0.00155,480680793.51460,   0.00353,278418128.60200,  -0.00019,  -0.00244,  -0.00149,   0.00000,   2.00000
527226815.31600,120924730.19653,-4345388.88037,   0.00199,  -0.00292,  -0.00155,480711244.95723,   0.00354,278427415.58199,  -0.00018,  -0.00244,  -0.00149,   0.00000,   2.00000
528334413.73653,124507711.87909,-3821721.25358,   0.00200,  -0.00291,  -0.00154,480687243.23798,   0.00355,278436548.30541,  -0.00017,  -0.00245,  -0.00149,   0.00000,   2.00000
529422339.52148,128104190.70236,-3310332.17061,   0.00200,  -0.00290,  -0.00154,480722526.85243,   0.00356,278445766.84614,  -0.00016,  -0.00245,  -0.00149,   0.00000,   2.00000
530490755.63729,131713702.56467,-2781722.30831,   0.00201,  -0.00289,  -0.00153,480757667.06177,   0.00357,278455069.56829,  -0.00014,  -0.00245,  -0.00149,   0.00000,   2.00000
531526266.12833,135292530.96651,-2265722.05555,   0.00202,  -0.00288,  -0.00152,480759459.95391,   0.00358,278464321.75165,  -0.00013,  -0.00245,  -0.00149,   0.00000,   2.00000
532538988.79981,138874482.19975,-1742568.54449,   0.00203,  -0.00286,  -0.00152,480765680.98121,   0.00359,278473541.28814,  -0.00012,  -0.00246,  -0.00149,  -0.00000,   2.00000
533528568.81386,142459451.26237,-1222131.51416,   0.00204,  -0.00285,  -0.00151,480772294.51458,   0.00360,278482729.74564,  -0.00011,  -0.00246,  -0.00149,   0.00000,   2.00000
534488538.65004,146022846.96851,-694524.77596,   0.00204,  -0.00284,  -0.00150,480803177.42229,   0.00361,278491984.04291,  -0.00010,  -0.00246,  -0.00149,   0.00000,   2.00000
535433795.50612,149622320.14509,-169685.06193,   0.00205,  -0.00283,  -0.00150,480815826.04784,   0.00361,278501230.58047,  -0.00009,  -0.00247,  -0.00149,   0.00000,   2.00000
536346809.67274,153191103.07917,352396.18745,   0.00206,  -0.00282,  -0.00149,480817472.59606,   0.00362,278510425.64525,  -0.00008,  -0.00247,  -0.00149,   0.00000,   2.00000
537238244.78822,156770640.25211,881507.40644,   0.00207,  -0.00281,  -0.00148,480854630.09187,   0.00363,278519710.01280,  -0.00007,  -0.00247,  -0.00149,  -0.00000,   2.00000
538097778.82360,160319463.86554,1407818.29596,   0.00208,  -0.00279,  -0.00147,480856205.22886,   0.00364,278528942.19457,  -0.00006,  -0.00247,  -0.00149,   0.00000,   2.00000
538935328.53953,163878358.76317,1941029.15148,   0.00208,  -0.00278,  -0.00147,480893816.28460,   0.00365,278538264.38528,  -0.00005,  -0.00248,  -0.00149,   0.00000,   2.00000
539748877.51642,167439332.15739,2461528.73745,   0.00209,  -0.00277,  -0.00146,480901883.81401,   0.00366,278547559.30907,  -0.00004,  -0.00248,  -0.00149,   0.00000,   2.00000
540537730.95116,171002151.17640,2998873.86547,   0.00210,  -0.00276,  -0.00145,480910655.88653,   0.00367,278556829.68432,  -0.00003,  -0.00248,  -0.00149,   0.00000,   2.00000
541295274.08177,174534239.10591,3523529.57482,   0.00210,  -0.00274,  -0.00145,480912114.38888,   0.00368,278566047.01132,  -0.00002,  -0.00248,  -0.00149,   0.00000,   2.00000
542036475.18808,178107425.49781,4054827.29246,   0.00211,  -0.00273,  -0.00144,480958098.78912,   0.00369,278575385.07871,  -0.00001,  -0.00249,  -0.00149,   0.00000,   2.00000
542739280.16438,181617066.31151,4593173.36625,   0.00212,  -0.00272,  -0.00143,480952853.87783,   0.00370,278584643.39988,   0.00000,  -0.00249,  -0.00149,   0.00000,   2.00000
543423843.52654,185160669.14848,5128467.54515,   0.00213,  -0.00271,  -0.00142,480969526.25791,   0.00370,278593907.34959,   0.00001,  -0.00249,  -0.00149,   0.00000,   2.00000
544078511.68709,188679419.35671,5660506.11275,   0.00213,  -0.00269,  -0.00142,481001211.72893,   0.00371,278603234.93181,   0.00003,  -0.00249,  -0.00149,  -0.00000,   2.00000
544713927.76735,192231322.36686,6189443.06782,   0.00214,  -0.00268,  -0.00141,481018975.22537,   0.00372,278612571.26485,   0.00004,  -0.00249,  -0.00149,   0.00000,   2.00000
545312140.74828,195720005.09875,6725463.93657,   0.00215,  -0.00267,  -0.00140,481013169.56021,   0.00373,278621825.52737,   0.00005,  -0.00250,  -0.00149,   0.00000,   2.00000
545891153.09723,199246771.38422,7267644.35551,   0.00215,  -0.00265,  -0.00139,481061946.13500,   0.00374,278631207.84009,   0.00006,  -0.00250,  -0.00149,  -0.00000,   2.00000
546439761.06727,202742421.66906,7797033.85719,   0.00216,  -0.00264,  -0.00139,481063564.44994,   0.00375,278640536.07625,   0.00007,  -0.00250,  -0.00149,  -0.00000,   2.00000
546961667.65933,206238283.33184,8343013.53170,   0.00217,  -0.00263,  -0.00138,481075173.76811,   0.00376,278649848.67681,   0.00008,  -0.00250,  -0.00149,   0.00000,   2.00000
547459109.57389,209739262.17496,8875393.99490,   0.00217,  -0.00262,  -0.00137,481115627.07833,   0.00377,278659255.52092,   0.00009,  -0.00250,  -0.00149,   0.00000,   2.00000
547925404.51233,213208719.97518,9414651.44909,   0.00218,  -0.00260,  -0.00136,481118300.87149,   0.00378,278668611.91352,   0.00010,  -0.00250,  -0.00149,   0.00000,   2.00000
548365747.62675,216678223.81197,9950726.92742,   0.00218,  -0.00259,  -0.00136,481129596.56473,   0.00379,278677950.76505,   0.00011,  -0.00250,  -0.00149,   0.00000,   2.00000
548779189.77124,220147341.55923,10493432.18564,   0.00219,  -0.00257,  -0.00135,481141831.31225,   0.00379,278687275.52288,   0.00012,  -0.00251,  -0.00149,   0.00000,   2.00000
549166778.90846,223619750.33062,11032122.18150,   0.00220,  -0.00256,  -0.00134,481183811.00668,   0.00380,278696698.30146,   0.00013,  -0.00251,  -0.00148,  -0.00000,   2.00000
549524197.30618,227060674.58106,11567799.49963,   0.00220,  -0.00255,  -0.00133,481186143.75764,   0.00381,278706068.88052,   0.00015,  -0.00251,  -0.00148,   0.00000,   2.00000
549854793.14821,230503840.86271,12109171.00212,   0.00221,  -0.00253,  -0.00132,481229187.17419,   0.00382,278715540.30569,   0.00016,  -0.00251,  -0.00148,  -0.00000,   2.00000
550155099.77529,233912521.35980,12648371.76430,   0.00221,  -0.00252,  -0.00132,481201477.37694,   0.00383,278724846.70752,   0.00017,  -0.00251,  -0.00148,   0.00000,   2.00000
550432030.76311,237353354.56276,13183007.24477,   0.00222,  -0.00251,  -0.00131,481254647.35629,   0.00384,278734291.11755,   0.00018,  -0.00251,  -0.00148,   0.00000,   2.00000
550678638.52960,240764713.73445,13723449.67476,   0.00223,  -0.00249,  -0.00130,481288069.29158,   0.00385,278743798.66492,   0.00019,  -0.00251,  -0.00148,   0.00000,   2.00000
550895438.10240,244142193.39260,14261807.22039,   0.00223,  -0.00248,  -0.00129,481260478.16610,   0.00386,278753142.19738,   0.00020,  -0.00251,  -0.00148,  -0.00000,   2.00000
551086725.37660,247549678.21819,14805125.60813,   0.00224,  -0.00246,  -0.00128,481315824.36174,   0.00387,278762629.87806,   0.00021,  -0.00251,  -0.00148,   0.00000,   2.00000
551248546.02464,250925385.12324,15345320.38809,   0.00224,  -0.00245,  -0.00128,481318561.56043,   0.00388,278772066.07853,   0.00022,  -0.00251,  -0.00148,   0.00000,   2.00000
551383277.80221,254300585.48629,15880879.09172,   0.00225,  -0.00243,  -0.00127,481362582.03801,   0.00389,278781603.03869,   0.00023,  -0.00252,  -0.00147,   0.00000,   2.00000
551487842.61316,257643574.39259,16423119.54336,   0.00225,  -0.00242,  -0.00126,481366275.37227,   0.00389,278791091.74838,   0.00025,  -0.00252,  -0.00147,   0.00000,   2.00000
551566040.67594,261013061.09896,16961275.12824,   0.00226,  -0.00240,  -0.00125,481392653.60347,   0.00390,278800615.26491,   0.00026,  -0.00252,  -0.00147,   0.00000,   2.00000
551613042.42492,264321285.95222,17506568.26017,   0.00226,  -0.00239,  -0.00124,481384594.39543,   0.00391,278810047.78063,   0.00027,  -0.00252,  -0.00147,   0.00000,   2.00000
551634753.65597,267656742.29297,18036618.39244,   0.00227,  -0.00237,  -0.00123,481440470.91320,   0.00392,278819622.45289,   0.00028,  -0.00252,  -0.00147,   0.00000,   2.00000
551625245.79293,270959158.32579,18583092.44795,   0.00227,  -0.00236,  -0.00123,481445726.86707,   0.00393,278829154.22958,   0.00029,  -0.00252,  -0.00147,   0.00000,   2.00000
551589042.65339,274258716.84545,19116006.91675,   0.00228,  -0.00234,  -0.00122,481460074.95702,   0.00394,278838676.21381,   0.00030,  -0.00252,  -0.00147,   0.00000,   2.00000
551523263.68772,277553996.29436,19654950.95560,   0.00228,  -0.00233,  -0.00121,481477082.72106,   0.00395,278848197.92194,   0.00031,  -0.00252,  -0.00146,   0.00000,   2.00000
551429554.17834,280817239.95852,20189274.31802,   0.00229,  -0.00231,  -0.00120,481510048.50144,   0.00396,278857776.83545,   0.00032,  -0.00252,  -0.00146,  -0.00000,   2.00000
551306163.00710,284075766.76072,20729525.05564,   0.00229,  -0.00230,  -0.00119,481527524.27202,   0.00397,278867356.66701,   0.00034,  -0.00252,  -0.00146,  -0.00000,   2.00000
551154658.66348,287329287.30740,21264354.61824,   0.00229,  -0.00228,  -0.00118,481573928.74493,   0.00398,278877040.76631,   0.00035,  -0.00252,  -0.00146,   0.00000,   2.00000
550974932.94343,290551443.33656,21797472.49253,   0.00230,  -0.00227,  -0.00117,481547512.03688,   0.00399,278886568.37417,   0.00036,  -0.00252,  -0.00146,   0.00000,   2.00000
550765589.58775,293767286.24342,22334839.87165,   0.00230,  -0.00225,  -0.00117,481595509.46380,   0.00400,278896205.60994,   0.00037,  -0.00252,  -0.00146,  -0.00000,   2.00000
550529278.29443,296949933.54548,22867319.89639,   0.00231,  -0.00224,  -0.00116,481628563.84722,   0.00401,278905898.52853,   0.00038,  -0.00251,  -0.00145,   0.00000,   2.00000
550260917.40071,300154733.38656,23406360.22581,   0.00231,  -0.00222,  -0.00115,481631841.47026,   0.00401,278915540.91994,   0.00039,  -0.00251,  -0.00145,   0.00000,   2.00000
549965625.84852,303325652.42134,23940386.68401,   0.00231,  -0.00221,  -0.00114,481665223.31455,   0.00402,278925239.57890,   0.00040,  -0.00251,  -0.00145,   0.00000,   2.00000
549643341.95702,306464513.73830,24471112.18858,   0.00232,  -0.00219,  -0.00113,481668759.20625,   0.00403,278934889.11481,   0.00041,  -0.00251,  -0.00145,  -0.00000,   2.00000
549292406.36806,309597702.07566,24997700.09564,   0.00232,  -0.00217,  -0.00112,481686783.13327,   0.00404,278944540.70925,   0.00043,  -0.00251,  -0.00145,  -0.00000,   2.00000
548911526.18977,312721730.77177,25528048.14560,   0.00233,  -0.00216,  -0.00111,481736281.48113,   0.00405,278954304.39303,   0.00044,  -0.00251,  -0.00144,  -0.00000,   2.00000
548499801.99871,315838264.16018,26063839.85588,   0.00233,  -0.00214,  -0.00110,481756731.04942,   0.00406,278964077.76467,   0.00045,  -0.00251,  -0.00144,  -0.00000,   2.00000
548063376.48172,318923459.63392,26586522.03566,   0.00233,  -0.00213,  -0.00109,481759076.30205,   0.00407,278973797.90660,   0.00046,  -0.00251,  -0.00144,  -0.00000,   2.00000
547596955.57093,321998079.11372,27112717.01898,   0.00234,  -0.00211,  -0.00108,481809308.59462,   0.00408,278983631.40463,   0.00047,  -0.00251,  -0.00144,   0.00000,   2.00000
547102533.57600,325039445.61093,27645255.07015,   0.00234,  -0.00209,  -0.00107,481814993.59654,   0.00409,278993423.36418,   0.00048,  -0.00250,  -0.00143,   0.00000,   2.00000
546581143.59044,328074696.03241,28163634.34978,   0.00234,  -0.00208,  -0.00106,481832860.04584,   0.00410,279003216.13146,   0.00049,  -0.00250,  -0.00143,  -0.00000,   2.00000
546028681.38002,331101360.40676,28687299.73377,   0.00234,  -0.00206,  -0.00106,481854531.19919,   0.00411,279013022.81339,   0.00051,  -0.00250,  -0.00143,   0.00000,   2.00000
545449678.34623,334091172.80194,29215227.87726,   0.00235,  -0.00204,  -0.00105,481889761.58812,   0.00412,279022890.08857,   0.00052,  -0.00250,  -0.00143,   0.00000,   2.00000
544843756.32630,337074230.25140,29728884.23252,   0.00235,  -0.00203,  -0.00104,481908291.23323,   0.00413,279032760.26749,   0.00053,  -0.00250,  -0.00142,   0.00000,   2.00000
544206613.51012,340047857.19674,30247683.75335,   0.00235,  -0.00201,  -0.00103,481930822.07911,   0.00414,279042647.05052,   0.00054,  -0.00250,  -0.00142,   0.00000,   2.00000
543542146.98490,342988039.59264,30772758.72965,   0.00236,  -0.00199,  -0.00102,481937166.31861,   0.00415,279052495.51769,   0.00055,  -0.00249,  -0.00142,  -0.00000,   2.00000
542850074.35064,345915402.43409,31290939.33828,   0.00236,  -0.00198,  -0.00101,481987318.61477,   0.00416,279062454.78776,   0.00056,  -0.00249,  -0.00141,   0.00000,   2.00000
542133322.59984,348810637.05874,31805686.11883,   0.00236,  -0.00196,  -0.00100,481991822.66852,   0.00417,279072369.66883,   0.00057,  -0.00249,  -0.00141,   0.00000,   2.00000
541389370.86479,351692386.37095,32313444.06613,   0.00236,  -0.00194,  -0.00099,482042195.74675,   0.00418,279082395.54758,   0.00059,  -0.00249,  -0.00141,   0.00000,   2.00000
540612342.25089,354568196.93023,32828380.61531,   0.00237,  -0.00192,  -0.00098,482037199.96973,   0.00419,279092345.12742,   0.00060,  -0.00248,  -0.00141,   0.00000,   2.00000
539812986.76982,357407004.56035,33337545.52123,   0.00237,  -0.00191,  -0.00097,482070766.70750,   0.00420,279102348.97579,   0.00061,  -0.00248,  -0.00140,   0.00000,   2.00000
538982377.47894,360234758.03193,33851493.92008,   0.00237,  -0.00189,  -0.00096,482095095.68725,   0.00421,279112375.87276,   0.00062,  -0.00248,  -0.00140,   0.00000,   2.00000
538124906.40412,363047237.41095,34358087.80006,   0.00237,  -0.00187,  -0.00095,482146428.06650,   0.00422,279122516.08952,   0.00063,  -0.00248,  -0.00140,   0.00000,   2.00000
537243854.99051,365827545.11330,34861203.74540,   0.00237,  -0.00186,  -0.00094,482151464.73427,   0.00423,279132614.70081,   0.00064,  -0.00247,  -0.00139,   0.00000,   2.00000
536339570.94901,368576062.68153,35360891.62748,   0.00238,  -0.00184,  -0.00093,482156324.58308,   0.00424,279142671.85983,   0.00065,  -0.00247,  -0.00139,   0.00000,   2.00000
535404200.95100,371312798.66436,35865223.24991,   0.00238,  -0.00182,  -0.00092,482181532.86088,   0.00424,279152755.69745,   0.00066,  -0.00247,  -0.00139,  -0.00000,   2.00000
534442790.15170,374033092.48842,36361959.03268,   0.00238,  -0.00180,  -0.00091,482233354.73982,   0.00425,279162954.38722,   0.00068,  -0.00246,  -0.00138,   0.00000,   2.00000
533450186.27098,376740680.40010,36863184.61298,   0.00238,  -0.00178,  -0.00090,482259399.71262,   0.00426,279173182.16384,   0.00069,  -0.00246,  -0.00138,  -0.00000,   2.00000
532434929.98662,379416307.76150,37360894.57115,   0.00238,  -0.00177,  -0.00089,482264827.92376,   0.00427,279183371.30573,   0.00070,  -0.00245,  -0.00137,   0.00000,   2.00000
531400477.34008,382054120.34720,37852539.22478,   0.00238,  -0.00175,  -0.00088,482298276.45920,   0.00428,279193614.78069,   0.00071,  -0.00245,  -0.00137,  -0.00000,   2.00000
530337824.55902,384680719.58284,38338980.52124,   0.00238,  -0.00173,  -0.00087,482322428.93805,   0.00429,279203881.96010,   0.00072,  -0.00245,  -0.00137,   0.00000,   2.00000
529244254.53463,387293915.92006,38829773.37649,   0.00239,  -0.00171,  -0.00086,482349355.77141,   0.00430,279214182.12644,   0.00073,  -0.00244,  -0.00136,   0.00000,   2.00000
528128946.43513,389875566.57851,39317087.72113,   0.00239,  -0.00169,  -0.00085,482354931.47220,   0.00431,279224445.76659,   0.00074,  -0.00244,  -0.00136,  -0.00000,   2.00000
526986487.49154,392436729.71151,39805932.50027,   0.00239,  -0.00168,  -0.00084,482410239.39067,   0.00432,279234835.81502,   0.00075,  -0.00243,  -0.00136,   0.00000,   2.00000
525815970.26183,394985596.36814,40289338.35305,   0.00239,  -0.00166,  -0.00083,482435593.06431,   0.00433,279245254.20885,   0.00077,  -0.00243,  -0.00135,   0.00000,   2.00000
524628378.34244,397496030.27858,40766494.66018,   0.00239,  -0.00164,  -0.00082,482469191.90342,   0.00435,279255728.13215,   0.00078,  -0.00243,  -0.00135,   0.00000,   2.00000
523415951.97864,399982421.33204,41243006.71435,   0.00239,  -0.00162,  -0.00081,482447249.94923,   0.00436,279266077.59431,   0.00079,  -0.00242,  -0.00134,   0.00000,   2.00000
522177374.37723,402447209.76203,41720807.84316,   0.00239,  -0.00160,  -0.00080,482503133.16987,   0.00437,279276555.92468,   0.00080,  -0.00242,  -0.00134,   0.00000,   2.00000
520915777.45353,404891946.59655,42190223.00430,   0.00239,  -0.00158,  -0.00079,482556720.26337,   0.00438,279287155.28815,   0.00081,  -0.00241,  -0.00133,   0.00000,   2.00000
519629458.73494,407313045.21047,42659065.54927,   0.00239,  -0.00157,  -0.00078,482535350.50063,   0.00439,279297633.61194,   0.00082,  -0.00241,  -0.00133,   0.00000,   2.00000
518317753.24631,409711505.00441,43128984.50134,   0.00239,  -0.00155,  -0.00076,482591829.88946,   0.00440,279308243.01547,   0.00083,  -0.00240,  -0.00133,  -0.00000,   2.00000
516986376.88414,412079182.55884,43595449.54979,   0.00239,  -0.00153,  -0.00075,482598011.57615,   0.00441,279318821.52282,   0.00084,  -0.00239,  -0.00132,  -0.00000,   2.00000
515633215.43034,414425977.81155,44053329.85244,   0.00239,  -0.00151,  -0.00074,482652029.78097,   0.00442,279329523.45597,   0.00085,  -0.00239,  -0.00132,   0.00000,   2.00000
514258017.07742,416740005.98687,44517337.04527,   0.00239,  -0.00149,  -0.00073,482661003.06759,   0.00443,279340204.33874,   0.00087,  -0.00238,  -0.00131,   0.00000,   2.00000
512856153.54133,419040556.91358,44975598.82224,   0.00239,  -0.00147,  -0.00072,482688296.37016,   0.00444,279350923.47402,   0.00088,  -0.00238,  -0.00131,   0.00000,   2.00000
511435507.51473,421310833.88593,45430461.65757,   0.00239,  -0.00145,  -0.00071,482694709.37700,   0.00445,279361614.53110,   0.00089,  -0.00237,  -0.00130,   0.00000,   2.00000
509991383.87614,423557084.18892,45886037.44847,   0.00239,  -0.00143,  -0.00070,482751992.54774,   0.00446,279372440.77714,   0.00090,  -0.00237,  -0.00130,   0.00000,   2.00000
508521016.33223,425789314.74270,46335757.11265,   0.00239,  -0.00141,  -0.00069,482780036.65010,   0.00447,279383308.72682,   0.00091,  -0.00236,  -0.00129,   0.00000,   2.00000
507046969.20404,427967636.20620,46781525.50845,   0.00239,  -0.00139,  -0.00068,482791696.46432,   0.00448,279394166.78746,   0.00092,  -0.00235,  -0.00129,   0.00000,   2.00000
505532535.09841,430155921.49395,47222018.69813,   0.00239,  -0.00137,  -0.00067,482815050.10718,   0.00449,279405052.65243,   0.00093,  -0.00235,  -0.00128,   0.00000,   2.00000
504003993.24147,432303614.16596,47665558.62149,   0.00239,  -0.00136,  -0.00066,482851271.93951,   0.00450,279416007.89714,   0.00094,  -0.00234,  -0.00128,   0.00000,   2.00000
502465066.71964,434413639.31140,48102651.20054,   0.00239,  -0.00134,  -0.00064,482884319.38137,   0.00451,279427022.79950,   0.00095,  -0.00233,  -0.00127,   0.00000,   2.00000
500900937.09737,436509513.31004,48533825.79150,   0.00239,  -0.00132,  -0.00063,482913089.58448,   0.00452,279438084.07776,   0.00096,  -0.00233,  -0.00126,   0.00000,   2.00000
499308528.39994,438588226.22381,48968497.85052,   0.00239,  -0.00130,  -0.00062,482945262.55445,   0.00453,279449202.99331,   0.00097,  -0.00232,  -0.00126,   0.00000,   2.00000
497707745.81533,440623319.87794,49402567.48969,   0.00239,  -0.00128,  -0.00061,482930009.19034,   0.00454,279460229.84022,   0.00098,  -0.00231,  -0.00125,   0.00000,   2.00000
496081519.86010,442649915.61818,49824697.96453,   0.00239,  -0.00126,  -0.00060,483007709.51075,   0.00456,279471459.85913,   0.00099,  -0.00230,  -0.00125,   0.00000,   2.00000
494439101.97503,444647651.25701,50243595.75184,   0.00239,  -0.00124,  -0.00059,483014929.04274,   0.00457,279482669.85330,   0.00100,  -0.00230,  -0.00124,   0.00000,   2.00000
492777493.92243,446614046.36351,50668719.49442,   0.00238,  -0.00122,  -0.00058,483025224.74250,   0.00458,279493870.46521,   0.00101,  -0.00229,  -0.00124,   0.00000,   2.00000
491100000.63077,448557258.09723,51084529.47914,   0.00238,  -0.00120,  -0.00057,483080820.48425,   0.00459,279505205.53282,   0.00102,  -0.00228,  -0.00123,   0.00000,   2.00000
489403808.61023,450469402.29924,51506556.50768,   0.00238,  -0.00118,  -0.00056,483091300.78328,   0.00460,279516532.80387,   0.00103,  -0.00227,  -0.00122,   0.00000,   2.00000
487695851.24343,452361185.40422,51909783.98174,   0.00238,  -0.00116,  -0.00054,483143838.03700,   0.00461,279527985.64240,   0.00104,  -0.00227,  -0.00122,   0.00000,   2.00000
485960604.20703,454230765.18327,52322559.69026,   0.00238,  -0.00114,  -0.00053,483129229.95622,   0.00462,279539352.44146,   0.00105,  -0.00226,  -0.00121,   0.00000,   2.00000
484211038.96081,456076819.35725,52725893.39197,   0.00238,  -0.00112,  -0.00052,483185205.21810,   0.00463,279550856.90838,   0.00106,  -0.00225,  -0.00121,   0.00000,   2.00000
482453029.23397,457883698.52852,53132227.11037,   0.00238,  -0.00110,  -0.00051,483221121.85956,   0.00464,279562436.05643,   0.00107,  -0.00224,  -0.00120,   0.00000,   2.00000
480675390.29995,459678827.23782,53522979.47372,   0.00237,  -0.00108,  -0.00050,483248908.99922,   0.00466,279574064.51018,   0.00108,  -0.00223,  -0.00119,  -0.00000,   2.00000
478880265.71612,461443679.77791,53920088.03937,   0.00237,  -0.00106,  -0.00049,483259965.15317,   0.00467,279585690.15012,   0.00109,  -0.00222,  -0.00119,   0.00000,   2.00000
477069390.26950,463181774.44403,54317024.63665,   0.00237,  -0.00104,  -0.00047,483319529.55892,   0.00468,279597466.72330,   0.00110,  -0.00221,  -0.00118,   0.00000,   2.00000
475248080.26991,464896291.20342,54701539.24467,   0.00237,  -0.00102,  -0.00046,483324068.06005,   0.00469,279609220.76531,   0.00111,  -0.00220,  -0.00117,   0.00000,   2.00000
473409873.40010,466581130.60842,55092447.51995,   0.00237,  -0.00100,  -0.00045,483335319.06696,   0.00470,279620974.33446,   0.00112,  -0.00220,  -0.00117,   0.00000,   2.00000
471549642.71085,468251055.90407,55477075.83830,   0.00237,  -0.00098,  -0.00044,483367312.62346,   0.00471,279632793.51621,   0.00113,  -0.00219,  -0.00116,   0.00000,   2.00000
469698184.36293,469877676.91133,55852091.01076,   0.00236,  -0.00095,  -0.00043,483423858.49931,   0.00472,279644756.19600,   0.00114,  -0.00218,  -0.00115,   0.00000,   2.00000
467810813.68163,471494793.31167,56233546.00955,   0.00236,  -0.00093,  -0.00042,483435393.13902,   0.00474,279656720.68900,   0.00115,  -0.00217,  -0.00115,   0.00000,   2.00000
465922051.59487,473077571.10217,56608711.79305,   0.00236,  -0.00091,  -0.00040,483467669.37439,   0.00475,279668753.10308,   0.00116,  -0.00216,  -0.00114,   0.00000,   2.00000
464012247.07596,474645497.55513,56977576.94047,   0.00236,  -0.00089,  -0.00039,483500321.38788,   0.00476,279680855.07222,   0.00117,  -0.00215,  -0.00113,   0.00000,   2.00000
462089977.97138,476188010.70384,57343598.40159,   0.00235,  -0.00087,  -0.00038,483508731.18584,   0.00477,279692950.47585,   0.00118,  -0.00214,  -0.00113,   0.00000,   2.00000
460167528.11894,477696990.47992,57703470.70366,   0.00235,  -0.00085,  -0.00037,483540756.54675,   0.00478,279705114.56874,   0.00119,  -0.00213,  -0.00112,   0.00000,   2.00000
458233715.28936,479179393.72184,58063022.70397,   0.00235,  -0.00083,  -0.00036,483600893.39360,   0.00480,279717436.76546,   0.00120,  -0.00212,  -0.00111,  -0.00000,   2.00000
456275536.39484,480645660.39917,58423186.47413,   0.00235,  -0.00081,  -0.00034,483585929.56873,   0.00481,279729679.72791,   0.00121,  -0.00211,  -0.00110,  -0.00000,   2.00000
454306710.45246,482085176.63583,58782912.49710,   0.00234,  -0.00079,  -0.00033,483646398.28286,   0.00482,279742083.14859,   0.00122,  -0.00210,  -0.00110,   0.00000,   2.00000
452342788.65094,483495760.77088,59127249.74352,   0.00234,  -0.00077,  -0.00032,483674629.34572,   0.00483,279754544.93586,   0.00122,  -0.00208,  -0.00109,   0.00000,   2.00000
450364256.07551,484878926.58869,59478256.71795,   0.00234,  -0.00075,  -0.00031,483686851.12372,   0.00484,279767014.92189,   0.00123,  -0.00207,  -0.00108,   0.00000,   2.00000
448366367.12382,486247651.03384,59822916.30856,   0.00233,  -0.00072,  -0.00030,483720713.62028,   0.00486,279779562.33482,   0.00124,  -0.00206,  -0.00107,   0.00000,   2.00000
446363044.13359,487593571.71734,60157865.43334,   0.00233,  -0.00070,  -0.00028,483777711.37363,   0.00487,279792260.98078,   0.00125,  -0.00205,  -0.00107,  -0.00000,   2.00000
444353662.78159,488903580.40048,60503279.31813,   0.00233,  -0.00068,  -0.00027,483765033.10737,   0.00488,279804889.80687,   0.00126,  -0.00204,  -0.00106,   0.00000,   2.00000
442343064.29971,490195105.72418,60829714.14263,   0.00232,  -0.00066,  -0.00026,483818128.86119,   0.00489,279817658.49880,   0.00127,  -0.00203,  -0.00105,   0.00000,   2.00000
440296263.09892,491476550.38371,61162486.76612,   0.00232,  -0.00064,  -0.00025,483833954.02933,   0.00491,279830448.91242,   0.00128,  -0.00202,  -0.00104,  -0.00000,   2.00000
438276103.74574,492710934.72517,61489874.58355,   0.00232,  -0.00062,  -0.00024,483862256.52571,   0.00492,279843301.08581,   0.00128,  -0.00201,  -0.00104,   0.00000,   2.00000
436234574.84619,493927651.50703,61820191.79995,   0.00231,  -0.00060,  -0.00022,483900644.13672,   0.00493,279856247.74206,   0.00129,  -0.00199,  -0.00103,   0.00000,   2.00000
434178543.01975,495134252.21245,62134922.19877,   0.00231,  -0.00057,  -0.00021,483931771.48687,   0.00494,279869265.92344,   0.00130,  -0.00198,  -0.00102,   0.00000,   2.00000
432109175.56736,496314850.36628,62456521.88958,   0.00231,  -0.00055,  -0.00020,483945017.08274,   0.00496,279882298.97510,   0.00131,  -0.00197,  -0.00101,  -0.00000,   2.00000
430045389.80881,497465975.20901,62772380.12935,   0.00230,  -0.00053,  -0.00019,483976294.74105,   0.00497,279895404.93986,   0.00132,  -0.00196,  -0.00100,   0.00000,   2.00000
427980057.91680,498595739.06046,63078577.05360,   0.00230,  -0.00051,  -0.00017,484033353.58889,   0.00498,279908666.67822,   0.00132,  -0.00194,  -0.00099,   0.00000,   2.00000
425901916.17092,499700336.39752,63391732.07949,   0.00230,  -0.00049,  -0.00016,484046715.84751,   0.00500,279921944.38159,   0.00133,  -0.00193,  -0.00099,   0.00000,   2.00000
423817635.45856,500788054.41075,63693418.28541,   0.00229,  -0.00047,  -0.00015,484052324.47743,   0.00501,279935213.41799,   0.00134,  -0.00192,  -0.00098,  -0.00000,   2.00000
421729667.38220,501850769.40817,63994687.48194,   0.00229,  -0.00044,  -0.00014,484113393.30658,   0.00502,279948652.59275,   0.00135,  -0.00191,  -0.00097,   0.00000,   2.00000
419632510.90610,502892969.16253,64293781.45037,   0.00228,  -0.00042,  -0.00012,484123093.77769,   0.00504,279962096.70695,   0.00135,  -0.00189,  -0.00096,   0.00000,   2.00000
417539702.82944,503903547.94446,64596571.61129,   0.00228,  -0.00040,  -0.00011,484157903.63798,   0.00505,279975627.08775,   0.00136,  -0.00188,  -0.00095,   0.00000,   2.00000
415434110.22253,504905198.33573,64883866.93060,   0.00227,  -0.00038,  -0.00010,484190041.80172,   0.00506,279989235.28460,   0.00137,  -0.00187,  -0.00094,   0.00000,   2.00000
413333549.53567,505875751.88470,65174978.47163,   0.00227,  -0.00036,  -0.00009,484224795.43911,   0.00508,280002930.01446,   0.00138,  -0.00185,  -0.00093,   0.00000,   2.00000
411224199.38959,506826866.94630,65464044.45359,   0.00227,  -0.00034,  -0.00007,484234650.61502,   0.00509,280016630.94288,   0.00138,  -0.00184,  -0.00093,   0.00000,   2.00000
409116936.68481,507758289.22057,65743543.36418,   0.00226,  -0.00031,  -0.00006,484291779.92505,   0.00510,280030491.50503,   0.00139,  -0.00183,  -0.00092,   0.00000,   2.00000
407001098.81924,508670670.87546,66021114.54836,   0.00226,  -0.00029,  -0.00005,484301798.84104,   0.00512,280044358.95461,   0.00140,  -0.00181,  -0.00091,   0.00000,   2.00000
404873405.08581,509559879.83175,66305905.22092,   0.00225,  -0.00027,  -0.00004,484316001.12038,   0.00513,280058247.33966,   0.00140,  -0.00180,  -0.00090,   0.00000,   2.00000
402752166.08895,510434209.73513,66571993.85751,   0.00225,  -0.00025,  -0.00002,484369121.33021,   0.00514,280072283.34807,   0.00141,  -0.00178,  -0.00089,  -0.00000,   2.00000
400637797.45554,511279270.19487,66842155.51378,   0.00224,  -0.00022,  -0.00001,484403572.36188,   0.00516,280086406.22981,   0.00142,  -0.00177,  -0.00088,   0.00000,   2.00000
398515137.68349,512106299.15175,67110509.35276,   0.00224,  -0.00020,   0.00000,484413783.28693,   0.00517,280100537.04980,   0.00142,  -0.00176,  -0.00087,  -0.00000,   2.00000
396384151.03047,512915439.08011,67377074.48788,   0.00223,  -0.00018,   0.00001,484424085.56360,   0.00519,280114676.36840,   0.00143,  -0.00174,  -0.00086,   0.00000,   2.00000
394254601.44833,513701900.93737,67643311.68055,   0.00223,  -0.00016,   0.00003,484485394.74504,   0.00520,280128991.43654,   0.00144,  -0.00173,  -0.00085,   0.00000,   2.00000
392139438.42540,514469255.70299,67895465.03055,   0.00222,  -0.00014,   0.00004,484511271.11171,   0.00521,280143365.80736,   0.00144,  -0.00171,  -0.00084,   0.00000,   2.00000
389987549.54147,515226419.80780,68153841.34491,   0.00222,  -0.00011,   0.00005,484533613.02416,   0.00523,280157788.45673,   0.00145,  -0.00170,  -0.00083,   0.00000,   2.00000
387867014.13987,515954475.57012,68404104.66624,   0.00221,  -0.00009,   0.00007,484583117.23619,   0.00524,280172348.48823,   0.00146,  -0.00168,  -0.00082,   0.00000,   2.00000
385738531.21285,516665806.72233,68652786.35371,   0.00221,  -0.00007,   0.00008,484593731.54753,   0.00526,280186917.88479,   0.00146,  -0.00167,  -0.00081,   0.00000,   2.00000
383602051.46897,517360526.71161,68899900.36033,   0.00220,  -0.00005,   0.00009,484604450.55965,   0.00527,280201497.19036,   0.00147,  -0.00165,  -0.00080,   0.00000,   2.00000
381472351.72031,518038315.49672,69137736.75119,   0.00220,  -0.00002,   0.00010,484661559.81587,   0.00529,280216239.71413,   0.00147,  -0.00164,  -0.00079,   0.00000,   2.00000
379352126.18552,518689870.40940,69380034.14794,   0.00219,   0.00000,   0.00012,484695554.63343,   0.00530,280231068.91496,   0.00148,  -0.00162,  -0.00078,   0.00000,   2.00000
377224068.46644,519325574.85858,69620849.47140,   0.00219,   0.00002,   0.00013,484706420.39706,   0.00532,280245908.22734,   0.00148,  -0.00160,  -0.00078,   0.00000,   2.00000
375112096.80107,519944963.88066,69848015.58126,   0.00218,   0.00005,   0.00014,484731623.87195,   0.00533,280260805.03289,   0.00149,  -0.00159,  -0.00077,   0.00000,   2.00000
372984081.14315,520549094.51261,70078295.20212,   0.00218,   0.00007,   0.00016,484774347.89401,   0.00534,280275817.89293,   0.00149,  -0.00157,  -0.00076,   0.00000,   2.00000
370845181.14005,521133131.32808,70316257.74367,   0.00217,   0.00009,   0.00017,484789875.54176,   0.00536,280290856.42597,   0.00150,  -0.00156,  -0.00075,   0.00000,   2.00000
368722947.29492,521701665.39265,70540636.33504,   0.00217,   0.00011,   0.00018,484815030.96668,   0.00537,280305952.47896,   0.00150,  -0.00154,  -0.00074,   0.00000,   2.00000
366609760.50558,522255040.18878,70755962.08631,   0.00216,   0.00014,   0.00019,484871967.19511,   0.00539,280321212.11371,   0.00151,  -0.00152,  -0.00072,   0.00000,   2.00000
364512126.40944,522779892.35973,70980802.67169,   0.00215,   0.00016,   0.00021,484877864.82184,   0.00540,280336464.35680,   0.00151,  -0.00151,  -0.00071,   0.00000,   2.00000
362380203.18645,523299407.92822,71202709.49933,   0.00215,   0.00018,   0.00022,484898914.17118,   0.00542,280351760.42900,   0.00152,  -0.00149,  -0.00070,   0.00000,   2.00000
360280379.46868,523799924.56176,71412526.08883,   0.00214,   0.00021,   0.00023,484973659.99723,   0.00544,280367280.17361,   0.00152,  -0.00148,  -0.00069,   0.00000,   2.00000
358177069.77928,524282087.37324,71626010.79006,   0.00214,   0.00023,   0.00025,484957302.06501,   0.00545,280382717.14133,   0.00153,  -0.00146,  -0.00068,   0.00000,   2.00000
356061756.37330,524754572.13717,71833572.80969,   0.00213,   0.00025,   0.00026,484996609.13904,   0.00547,280398259.00833,   0.00153,  -0.00144,  -0.00067,   0.00000,   2.00000
353961263.38647,525209071.82838,72037047.95255,   0.00212,   0.00027,   0.00027,485025653.26253,   0.00548,280413870.88189,   0.00154,  -0.00143,  -0.00066,   0.00000,   2.00000
351872747.94635,525641245.84330,72245526.84355,   0.00212,   0.00030,   0.00029,485058969.10407,   0.00550,280429567.07190,   0.00154,  -0.00141,  -0.00065,   0.00000,   2.00000
349775541.09658,526069024.24299,72439096.23684,   0.00211,   0.00032,   0.00030,485094092.00461,   0.00551,280445353.60378,   0.00155,  -0.00139,  -0.00064,   0.00000,   2.00000
347690694.23109,526474936.00830,72637792.85095,   0.00211,   0.00034,   0.00031,485127408.20931,   0.00553,280461224.19464,   0.00155,  -0.00137,  -0.00063,   0.00000,   2.00000
345624758.16732,526860355.66514,72837462.19443,   0.00210,   0.00037,   0.00033,485128055.83667,   0.00554,280477067.62329,   0.00155,  -0.00136,  -0.00062,   0.00000,   2.00000
343543969.06705,527240985.27907,73026425.34148,   0.00209,   0.00039,   0.00034,485195823.62528,   0.00556,280493112.22665,   0.00156,  -0.00134,  -0.00061,   0.00000,   2.00000
341458535.72010,527604974.64337,73219419.13960,   0.00209,   0.00041,   0.00035,485179803.49558,   0.00558,280509072.56950,   0.00156,  -0.00132,  -0.00060,   0.00000,   2.00000
339409463.22243,527953787.99155,73400826.13686,   0.00208,   0.00044,   0.00037,485252936.46585,   0.00559,280525252.22284,   0.00157,  -0.00130,  -0.00059,   0.00000,   2.00000
337352323.12299,528290436.92439,73581492.38791,   0.00207,   0.00046,   0.00038,485264885.78087,   0.00561,280541442.07158,   0.00157,  -0.00129,  -0.00058,   0.00000,   2.00000
335287047.26780,528614931.09234,73761412.36643,   0.00207,   0.00048,   0.00039,485276979.75409,   0.00562,280557642.65546,   0.00157,  -0.00127,  -0.00057,   0.00000,   2.00000
333235006.85261,528919543.93501,73946718.80117,   0.00206,   0.00051,   0.00041,485309903.29450,   0.00564,280573925.18237,   0.00158,  -0.00125,  -0.00056,   0.00000,   2.00000
331201917.57455,529214613.26708,74119437.50330,   0.00205,   0.00053,   0.00042,485333543.86614,   0.00566,280590257.31424,   0.00158,  -0.00123,  -0.00054,   0.00000,   2.00000
329155120.50387,529496760.21211,74295512.66548,   0.00205,   0.00055,   0.00043,485378524.30572,   0.00567,280606712.52251,   0.00158,  -0.00122,  -0.00053,   0.00000,   2.00000
327124739.46541,529764846.16855,74468095.40132,   0.00204,   0.00058,   0.00045,485406744.34495,   0.00569,280623232.71309,   0.00159,  -0.00120,  -0.00052,   0.00000,   2.00000
325110806.43880,530019271.54058,74637260.04022,   0.00203,   0.00060,   0.00046,485434795.39385,   0.00571,280639816.93984,   0.00159,  -0.00118,  -0.00051,   0.00000,   2.00000
323088350.84673,530262610.84197,74805835.28885,   0.00203,   0.00062,   0.00047,485447151.74042,   0.00572,280656411.00164,   0.00159,  -0.00116,  -0.00050,   0.00000,   2.00000
321080431.19075,530496275.84931,74966045.45660,   0.00202,   0.00065,   0.00049,485503427.81465,   0.00574,280673166.40628,   0.00159,  -0.00114,  -0.00049,   0.00000,   2.00000
319089220.28582,530717081.03088,75123032.62195,   0.00201,   0.00067,   0.00050,485531320.06997,   0.00576,280689984.41094,   0.00160,  -0.00112,  -0.00048,   0.00000,   2.00000
317091082.19802,530923783.99187,75284621.41554,   0.00201,   0.00069,   0.00051,485515472.03728,   0.00577,280706713.34209,   0.00160,  -0.00110,  -0.00047,   0.00000,   2.00000
315103627.93279,531119953.55368,75441844.00690,   0.00200,   0.00072,   0.00053,485604610.27243,   0.00579,280723717.58474,   0.00160,  -0.00109,  -0.00045,   0.00000,   2.00000
313111639.59324,531307307.46037,75594727.66067,   0.00199,   0.00074,   0.00054,485584332.59580,   0.00581,280740616.33384,   0.00160,  -0.00107,  -0.00044,   0.00000,   2.00000
311133882.90055,531477670.31930,75753475.26139,   0.00199,   0.00076,   0.00055,485616673.55084,   0.00582,280757592.69923,   0.00161,  -0.00105,  -0.00043,   0.00000,   2.00000
309174374.84701,531644924.69487,75895083.82310,   0.00198,   0.00079,   0.00057,485668005.24115,   0.00584,280774712.34278,   0.00161,  -0.00103,  -0.00042,   0.00000,   2.00000
307229243.40144,531795810.03014,76042732.73331,   0.00197,   0.00081,   0.00058,485700184.79308,   0.00586,280791908.01392,   0.00161,  -0.00101,  -0.00041,   0.00000,   2.00000
305274901.26895,531936877.79885,76190053.69739,   0.00196,   0.00083,   0.00059,485713050.87197,   0.00587,280809112.12563,   0.00161,  -0.00099,  -0.00040,   0.00000,   2.00000
303337638.14225,532067123.80461,76334441.52690,   0.00196,   0.00086,   0.00061,485740473.03135,   0.00589,280826375.28434,   0.00161,  -0.00097,  -0.00039,   0.00000,   2.00000
301419983.90125,532191992.87332,76467035.24731,   0.00195,   0.00088,   0.00062,485763026.39926,   0.00591,280843679.88754,   0.00162,  -0.00095,  -0.00037,   0.00000,   2.00000
299489505.13414,532305529.38039,76603275.53982,   0.00194,   0.00091,   0.00063,485809233.47513,   0.00593,280861109.04337,   0.00162,  -0.00093,  -0.00036,   0.00000,   2.00000
297576801.41007,532405664.45515,76741900.21620,   0.00194,   0.00093,   0.00065,485807970.82836,   0.00594,280878495.40876,   0.00162,  -0.00091,  -0.00035,   0.00000,   2.00000
295680720.42881,532499274.23818,76872630.10733,   0.00193,   0.00095,   0.00066,485863602.74470,   0.00596,280896038.91255,   0.00162,  -0.00089,  -0.00034,   0.00000,   2.00000
293772336.33561,532578591.67390,77012146.88912,   0.00192,   0.00098,   0.00067,485881538.09551,   0.00598,280913606.64103,   0.00162,  -0.00087,  -0.00033,   0.00000,   2.00000
291883484.48525,532656883.53473,77134844.04510,   0.00191,   0.00100,   0.00069,485932506.17485,   0.00600,280931314.62673,   0.00162,  -0.00085,  -0.00031,   0.00000,   2.00000
290011989.60764,532722762.77396,77260189.19596,   0.00191,   0.00102,   0.00070,485930949.13189,   0.00601,280948976.77003,   0.00163,  -0.00083,  -0.00030,   0.00000,   2.00000
288157601.48555,532779796.16939,77383016.25898,   0.00190,   0.00105,   0.00071,485957767.25959,   0.00603,280966693.16293,   0.00163,  -0.00081,  -0.00029,   0.00000,   2.00000
286290594.16840,532826201.30806,77509541.00266,   0.00189,   0.00107,   0.00073,486004464.27882,   0.00605,280984534.25034,   0.00163,  -0.00079,  -0.00028,   0.00000,   2.00000
284443273.86590,532869282.28292,77624643.12548,   0.00188,   0.00110,   0.00074,486026569.50876,   0.00607,281002412.17089,   0.00163,  -0.00077,  -0.00027,   0.00000,   2.00000
282610742.56865,532898917.58442,77746291.37658,   0.00188,   0.00112,   0.00076,486058103.73054,   0.00608,281020360.10311,   0.00163,  -0.00075,  -0.00026,   0.00000,   2.00000
280797728.94914,532925804.19161,77856632.34759,   0.00187,   0.00114,   0.00077,486079941.73325,   0.00610,281038343.00645,   0.00163,  -0.00073,  -0.00024,   0.00000,   2.00000
278971557.40302,532939201.46507,77975994.25670,   0.00186,   0.00117,   0.00078,486098237.22656,   0.00612,281056348.36808,   0.00163,  -0.00071,  -0.00023,   0.00000,   2.00000
277165623.15382,532953374.83038,78078885.35968,   0.00185,   0.00119,   0.00080,486148696.65374,   0.00614,281074490.25236,   0.00163,  -0.00069,  -0.00022,   0.00000,   2.00000
275373655.01097,532951694.27415,78193745.04628,   0.00185,   0.00122,   0.00081,486151361.74899,   0.00616,281092597.74010,   0.00163,  -0.00067,  -0.00021,   0.00000,   2.00000
273599657.20066,532946115.52309,78301122.47652,   0.00184,   0.00124,   0.00082,486206419.37133,   0.00617,281110857.60059,   0.00163,  -0.00065,  -0.00019,   0.00000,   2.00000
271816721.15872,532937829.08261,78399763.83236,   0.00183,   0.00126,   0.00084,486215320.96691,   0.00619,281129104.49586,   0.00163,  -0.00063,  -0.00018,   0.00000,   2.00000
270076920.08542,532918569.10548,78502956.05379,   0.00182,   0.00129,   0.00085,486259037.42787,   0.00621,281147462.41404,   0.00163,  -0.00061,  -0.00017,   0.00000,   2.00000
268325519.41542,532891651.42936,78606366.44060,   0.00181,   0.00131,   0.00086,486272750.89685,   0.00623,281165823.70917,   0.00163,  -0.00059,  -0.00016,   0.00000,   2.00000
266562508.99760,532856989.34947,78709968.65060,   0.00181,   0.00134,   0.00088,486286634.37433,   0.00625,281184189.03649,   0.00163,  -0.00057,  -0.00015,   0.00000,   2.00000
264845136.59400,532817469.07924,78809263.49474,   0.00180,   0.00136,   0.00089,486325089.64869,   0.00627,281202645.87104,   0.00163,  -0.00055,  -0.00013,   0.00000,   2.00000
263119629.35518,532778918.19282,78894679.75564,   0.00179,   0.00138,   0.00090,486362827.02421,   0.00628,281221191.36714,   0.00163,  -0.00053,  -0.00012,   0.00000,   2.00000
261408814.38683,532729161.80105,78987164.31555,   0.00178,   0.00141,   0.00092,486393807.35293,   0.00630,281239800.80258,   0.00163,  -0.00051,  -0.00011,   0.00000,   2.00000
259712949.69339,532670465.52414,79083033.29637,   0.00177,   0.00143,   0.00093,486391086.06206,   0.00632,281258352.37467,   0.00163,  -0.00048,  -0.00010,   0.00000,   2.00000
258035681.22437,532609581.28938,79171751.00611,   0.00177,   0.00146,   0.00095,486445674.89878,   0.00634,281277052.43827,   0.00163,  -0.00046,  -0.00008,   0.00000,   2.00000
256375020.97584,532543435.11752,79258682.95053,   0.00176,   0.00148,   0.00096,486471503.39092,   0.00636,281295796.56121,   0.00163,  -0.00044,  -0.00007,   0.00000,   2.00000
254701706.41402,532470096.65289,79346009.85983,   0.00175,   0.00150,   0.00097,486485605.19669,   0.00638,281314542.36274,   0.00163,  -0.00042,  -0.00006,   0.00000,   2.00000
253076522.99085,532397247.80740,79424187.19478,   0.00174,   0.00153,   0.00099,486551712.33253,   0.00640,281333477.09430,   0.00163,  -0.00040,  -0.00005,   0.00000,   2.00000
251435985.07295,532314068.55698,79508143.97788,   0.00173,   0.00155,   0.00100,486537132.19413,   0.00642,281352308.45391,   0.00163,  -0.00038,  -0.00003,   0.00000,   2.00000
249814331.57656,532229553.01276,79585148.90157,   0.00173,   0.00158,   0.00101,486591518.59086,   0.00644,281371286.12651,   0.00163,  -0.00036,  -0.00002,   0.00000,   2.00000
248176937.91926,532134672.53219,79667931.51431,   0.00172,   0.00160,   0.00103,486577100.43113,   0.00645,281390160.44319,   0.00163,  -0.00034,  -0.00001,   0.00000,   2.00000
246590231.70696,532046603.19289,79732857.39140,   0.00171,   0.00163,   0.00104,486637723.32432,   0.00647,281409203.09601,   0.00163,  -0.00031,   0.00000,   0.00000,   2.00000
245017578.54204,531949094.04394,79805258.42754,   0.00170,   0.00165,   0.00105,486668047.51796,   0.00649,281428303.42280,   0.00162,  -0.00029,   0.00002,   0.00000,   2.00000
243431212.54531,531844785.71093,79878223.79331,   0.00169,   0.00167,   0.00107,486682401.66721,   0.00651,281447403.32335,   0.00162,  -0.00027,   0.00003,   0.00000,   2.00000
241860952.06959,531736541.08026,79949710.48341,   0.00169,   0.00170,   0.00108,486707825.03607,   0.00653,281466542.76210,   0.00162,  -0.00025,   0.00004,   0.00000,   2.00000
240306678.17077,531624530.77943,80019754.37307,   0.00168,   0.00172,   0.00110,486733161.52793,   0.00655,281485721.01777,   0.00162,  -0.00023,   0.00006,   0.00000,   2.00000
238771485.10482,531512336.34955,80083102.23962,   0.00167,   0.00175,   0.00111,486787193.73613,   0.00657,281505042.21884,   0.00162,  -0.00021,   0.00007,   0.00000,   2.00000
237248792.79233,531393255.83440,80150429.18231,   0.00166,   0.00177,   0.00112,486783673.70818,   0.00659,281524295.83286,   0.00162,  -0.00018,   0.00008,   0.00000,   2.00000
235745133.74618,531274341.16922,80211124.43979,   0.00165,   0.00180,   0.00114,486837541.34217,   0.00661,281543691.17104,   0.00162,  -0.00016,   0.00009,   0.00000,   2.00000
234226902.51676,531148831.05365,80272509.51580,   0.00164,   0.00182,   0.00115,486852169.45910,   0.00663,281563084.62241,   0.00161,  -0.00014,   0.00011,   0.00000,   2.00000
232750958.20081,531020237.74691,80336004.51214,   0.00164,   0.00184,   0.00116,486858956.80576,   0.00665,281582446.88058,   0.00161,  -0.00012,   0.00012,   0.00000,   2.00000
231265582.50262,530893945.12182,80386007.74754,   0.00163,   0.00187,   0.00118,486897326.84376,   0.00667,281601893.55560,   0.00161,  -0.00010,   0.00013,   0.00000,   2.00000
229824069.40559,530763191.84573,80441884.19646,   0.00162,   0.00189,   0.00119,486937503.53642,   0.00669,281621430.43573,   0.00161,  -0.00007,   0.00015,   0.00000,   2.00000
228371099.35841,530629574.43827,80493218.29234,   0.00161,   0.00192,   0.00120,486980932.72520,   0.00671,281641069.25939,   0.00161,  -0.00005,   0.00016,   0.00000,   2.00000
226929393.83442,530489809.23355,80548767.68092,   0.00160,   0.00194,   0.00122,486977124.47322,   0.00673,281660636.30604,   0.00160,  -0.00003,   0.00017,   0.00000,   2.00000
225502747.03452,530347596.24898,80603201.54404,   0.00159,   0.00197,   0.00123,487001928.51603,   0.00675,281680236.49236,   0.00160,  -0.00001,   0.00018,   0.00000,   2.00000
224097004.85854,530211935.59909,80642400.94817,   0.00159,   0.00199,   0.00125,487050460.08458,   0.00677,281699956.42760,   0.00160,   0.00002,   0.00020,   0.00000,   2.00000
222700036.56682,530065115.40076,80694858.85221,   0.00158,   0.00202,   0.00126,487051390.23743,   0.00679,281719620.73874,   0.00160,   0.00004,   0.00021,   0.00000,   2.00000
221322080.00915,529919853.38350,80740986.77082,   0.00157,   0.00204,   0.00127,487104751.93099,   0.00681,281739422.04761,   0.00160,   0.00006,   0.00022,   0.00000,   2.00000
219929737.09137,529773536.36178,80779107.47945,   0.00156,   0.00207,   0.00129,487114724.26439,   0.00683,281759200.36038,   0.00159,   0.00008,   0.00024,   0.00000,   2.00000
218581148.18186,529624355.76663,80823446.89679,   0.00155,   0.00209,   0.00130,487153966.91748,   0.00685,281779062.93031,   0.00159,   0.00011,   0.00025,   0.00000,   2.00000
217248639.08350,529478711.58912,80858039.10511,   0.00154,   0.00211,   0.00131,487173471.04207,   0.00687,281798936.44243,   0.00159,   0.00013,   0.00026,   0.00000,   2.00000
215928573.26459,529326093.74425,80900714.91273,   0.00154,   0.00214,   0.00133,487202854.94665,   0.00689,281818857.12048,   0.00159,   0.00015,   0.00027,   0.00000,   2.00000
214593331.53207,529172516.24960,80935422.06409,   0.00153,   0.00216,   0.00134,487212865.61161,   0.00691,281838753.43193,   0.00158,   0.00017,   0.00029,   0.00000,   2.00000
213303308.83129,529022125.02008,80967643.71274,   0.00152,   0.00219,   0.00135,487246578.16363,   0.00693,281858712.27215,   0.00158,   0.00020,   0.00030,   0.00000,   2.00000
211999238.29334,528863966.93294,81004429.88649,   0.00151,   0.00221,   0.00137,487295313.09200,   0.00695,281878789.10586,   0.00158,   0.00022,   0.00031,   0.00000,   2.00000
210736961.10050,528710890.83444,81035196.31455,   0.00150,   0.00224,   0.00138,487295140.87616,   0.00697,281898802.18864,   0.00157,   0.00024,   0.00033,   0.00000,   2.00000
209462133.32864,528555388.80435,81061694.42411,   0.00149,   0.00226,   0.00139,487338906.44912,   0.00699,281918914.25852,   0.00157,   0.00027,   0.00034,   0.00000,   2.00000
208230589.97111,528398500.04195,81094755.39601,   0.00149,   0.00229,   0.00141,487377183.84271,   0.00701,281939104.14172,   0.00157,   0.00029,   0.00035,   0.00000,   2.00000
206982748.54466,528240712.54953,81119955.78249,   0.00148,   0.00231,   0.00142,487387356.13273,   0.00703,281959267.66865,   0.00156,   0.00031,   0.00037,   0.00000,   2.00000
205774357.83881,528083265.21382,81148215.71081,   0.00147,   0.00234,   0.00143,487391664.24214,   0.00705,281979382.64745,   0.00156,   0.00033,   0.00038,   0.00000,   2.00000
204558436.03083,527927399.98588,81166952.69247,   0.00146,   0.00236,   0.00145,487464199.93624,   0.00707,281999702.02941,   0.00156,   0.00036,   0.00039,   0.00000,   2.00000
203381668.41878,527772136.46175,81188872.77842,   0.00145,   0.00239,   0.00146,487468362.35487,   0.00709,282019971.16796,   0.00156,   0.00038,   0.00041,   0.00000,   2.00000
202186245.62598,527610656.16282,81211903.84491,   0.00144,   0.00241,   0.00148,487483571.62271,   0.00711,282040231.38470,   0.00155,   0.00040,   0.00042,   0.00000,   2.00000
201035271.88993,527454010.69600,81232827.86798,   0.00143,   0.00243,   0.00149,487516135.87547,   0.00713,282060546.47081,   0.00155,   0.00043,   0.00043,   0.00000,   2.00000
199872569.71772,527300382.15059,81240749.07266,   0.00143,   0.00246,   0.00150,487555081.54481,   0.00715,282080939.96528,   0.00154,   0.00045,   0.00045,   0.00000,   2.00000
198752584.89978,527146540.51896,81255640.62719,   0.00142,   0.00248,   0.00152,487592486.68783,   0.00717,282101405.34699,   0.00154,   0.00047,   0.00046,   0.00000,   2.00000
197607448.76887,526982439.93316,81276986.36930,   0.00141,   0.00251,   0.00153,487579153.18816,   0.00719,282121754.17158,   0.00154,   0.00050,   0.00047,   0.00000,   2.00000
196513872.22273,526833032.53254,81282215.36784,   0.00140,   0.00253,   0.00154,487634963.21392,   0.00721,282142243.02678,   0.00153,   0.00052,   0.00049,   0.00000,   2.00000
195399116.65795,526672055.32255,81297588.27956,   0.00139,   0.00256,   0.00156,487655345.65279,   0.00723,282162740.00606,   0.00153,   0.00054,   0.00050,   0.00000,   2.00000
194329825.72984,526521976.51440,81302226.07720,   0.00138,   0.00258,   0.00157,487682336.02858,   0.00725,282183268.97267,   0.00153,   0.00057,   0.00051,   0.00000,   2.00000
193270819.60404,526366372.81170,81315499.27005,   0.00138,   0.00261,   0.00158,487710924.78665,   0.00727,282203835.65112,   0.00152,   0.00059,   0.00053,   0.00000,   2.00000
192224979.74410,526215853.16168,81319614.15675,   0.00137,   0.00263,   0.00160,487729483.12512,   0.00730,282224402.30775,   0.00152,   0.00061,   0.00054,   0.00000,   2.00000
191165096.02499,526063112.74306,81319769.92215,   0.00136,   0.00266,   0.00161,487773604.51871,   0.00732,282245064.26194,   0.00151,   0.00064,   0.00055,   0.00000,   2.00000
190142500.55451,525912271.29984,81323552.84299,   0.00135,   0.00268,   0.00162,487776597.33755,   0.00734,282265667.47452,   0.00151,   0.00066,   0.00057,   0.00000,   2.00000
189137582.60387,525765540.67910,81321913.99317,   0.00134,   0.00271,   0.00164,487828684.77885,   0.00736,282286394.81629,   0.00151,   0.00068,   0.00058,   0.00000,   2.00000
188143845.12319,525618771.09121,81320177.95015,   0.00133,   0.00273,   0.00165,487852158.41166,   0.00738,282307139.01484,   0.00150,   0.00071,   0.00059,   0.00000,   2.00000
187154672.59671,525467791.84414,81323593.67758,   0.00133,   0.00276,   0.00166,487846943.13719,   0.00740,282327792.96194,   0.00150,   0.00073,   0.00061,   0.00000,   2.00000
186215012.90565,525327622.62189,81320187.00322,   0.00132,   0.00278,   0.00168,487906681.86940,   0.00742,282348598.56489,   0.00149,   0.00076,   0.00062,   0.00000,   2.00000
185253838.64543,525181033.26448,81318159.04036,   0.00131,   0.00281,   0.00169,487922220.34101,   0.00744,282369390.61962,   0.00149,   0.00078,   0.00063,   0.00000,   2.00000
184311463.01972,525044072.88508,81301979.27776,   0.00130,   0.00283,   0.00170,487969189.39260,   0.00746,282390286.12979,   0.00149,   0.00080,   0.00065,   0.00000,   2.00000
183403625.39742,524904367.61110,81298592.87001,   0.00129,   0.00286,   0.00172,487976538.18254,   0.00749,282411136.42540,   0.00148,   0.00083,   0.00066,   0.00000,   2.00000
182475224.58807,524763395.75897,81287718.61320,   0.00128,   0.00288,   0.00173,487987133.29737,   0.00751,282431953.97097,   0.00148,   0.00085,   0.00067,   0.00000,   2.00000
181594817.92214,524628517.60447,81279146.93750,   0.00128,   0.00291,   0.00174,488051491.26257,   0.00753,282452939.08272,   0.00147,   0.00087,   0.00069,   0.00000,   2.00000
180725704.26313,524499143.58537,81261773.06260,   0.00127,   0.00293,   0.00176,488069678.69636,   0.00755,282473918.44238,   0.00147,   0.00090,   0.00070,   0.00000,   2.00000
179859442.36207,524365668.28680,81249777.65457,   0.00126,   0.00296,   0.00177,488064199.32921,   0.00757,282494803.59848,   0.00146,   0.00092,   0.00071,   0.00000,   2.00000
179009912.19268,524236891.37435,81232665.90357,   0.00125,   0.00298,   0.00178,488115836.93767,   0.00759,282515808.11140,   0.00146,   0.00095,   0.00073,   0.00000,   2.00000
178169977.80045,524108437.54303,81215722.06692,   0.00124,   0.00301,   0.00180,488138918.96876,   0.00761,282536824.65040,   0.00145,   0.00097,   0.00074,   0.00000,   2.00000
177339535.49648,523980335.96443,81198948.02958,   0.00123,   0.00303,   0.00181,488161973.68964,   0.00764,282557852.92710,   0.00145,   0.00099,   0.00075,   0.00000,   2.00000
176525645.23127,523857045.41057,81177144.27940,   0.00123,   0.00306,   0.00182,488213602.39433,   0.00766,282578999.50229,   0.00144,   0.00102,   0.00077,   0.00000,   2.00000
175746122.46080,523736840.07987,81159463.64884,   0.00122,   0.00308,   0.00184,488215280.42692,   0.00768,282600076.67037,   0.00144,   0.00104,   0.00078,   0.00000,   2.00000
174984001.33272,523626724.43066,81127934.08291,   0.00121,   0.00311,   0.00185,488261765.75384,   0.00770,282621251.99834,   0.00144,   0.00107,   0.00079,   0.00000,   2.00000
174189622.69871,523500080.44163,81112132.57349,   0.00120,   0.00313,   0.00186,488253990.79750,   0.00772,282642322.56952,   0.00143,   0.00109,   0.00081,   0.00000,   2.00000
173445261.54679,523390879.46949,81081168.78009,   0.00119,   0.00316,   0.00188,488307572.96147,   0.00774,282663517.65627,   0.00143,   0.00111,   0.00082,   0.00000,   2.00000
172709404.16165,523282092.92241,81050585.10459,   0.00119,   0.00318,   0.00189,488330453.02350,   0.00776,282684721.75886,   0.00142,   0.00114,   0.00083,   0.00000,   2.00000
172013124.54661,523175960.47343,81027964.80820,   0.00118,   0.00321,   0.00190,488365272.06953,   0.00779,282705979.06775,   0.00142,   0.00116,   0.00085,   0.00000,   2.00000
171301125.16309,523072626.01537,80992868.95988,   0.00117,   0.00323,   0.00191,488404695.93521,   0.00781,282727306.72437,   0.00141,   0.00119,   0.00086,   0.00000,   2.00000
170622254.95160,522972650.90164,80962128.41545,   0.00116,   0.00326,   0.00193,488405926.97889,   0.00783,282748561.06847,   0.00141,   0.00121,   0.00088,   0.00000,   2.00000
169919924.39571,522870807.08837,80924173.63202,   0.00115,   0.00328,   0.00194,488416798.43841,   0.00785,282769778.71112,   0.00140,   0.00124,   0.00089,   0.00000,   2.00000
169264517.71579,522776383.43000,80889157.86938,   0.00115,   0.00331,   0.00195,488479914.86270,   0.00787,282791154.84615,   0.00139,   0.00126,   0.00090,   0.00000,   2.00000
168616680.71706,522682447.35812,80854602.08929,   0.00114,   0.00333,   0.00197,488502674.09950,   0.00790,282812537.62384,   0.00139,   0.00129,   0.00092,   0.00000,   2.00000
168010084.93643,522601781.33008,80810407.91882,   0.00113,   0.00336,   0.00198,488527198.38194,   0.00792,282833933.05001,   0.00138,   0.00131,   0.00093,   0.00000,   2.00000
167376751.29693,522508746.26584,80776888.70815,   0.00112,   0.00339,   0.00199,488548073.77033,   0.00794,282855327.78764,   0.00138,   0.00133,   0.00094,   0.00000,   2.00000
166784515.61443,522429075.74074,80733733.73667,   0.00111,   0.00341,   0.00201,488572498.15822,   0.00796,282876734.55753,   0.00137,   0.00136,   0.00096,   0.00000,   2.00000
166206946.28642,522354496.56009,80686016.12104,   0.00111,   0.00344,   0.00202,488623641.73709,   0.00798,282898253.16584,   0.00137,   0.00138,   0.00097,   0.00000,   2.00000
165628278.31796,522275699.22582,80644073.14658,   0.00110,   0.00346,   0.00203,488617761.77591,   0.00801,282919669.62562,   0.00136,   0.00141,   0.00098,   0.00000,   2.00000
165064193.07146,522202037.92105,80597564.21587,   0.00109,   0.00349,   0.00204,488668867.09646,   0.00803,282941197.56562,   0.00136,   0.00143,   0.00100,   0.00000,   2.00000
164539326.33429,522136668.80556,80550494.80111,   0.00108,   0.00351,   0.00206,488698059.90261,   0.00805,282962753.96797,   0.00135,   0.00146,   0.00101,   0.00000,   2.00000
163987956.68242,522063860.09869,80505249.99595,   0.00108,   0.00354,   0.00207,488714082.29603,   0.00807,282984289.71699,   0.00135,   0.00148,   0.00102,   0.00000,   2.00000
163475689.13269,521999428.62998,80459443.83096,   0.00107,   0.00356,   0.00208,488743184.37561,   0.00809,283005853.39108,   0.00134,   0.00151,   0.00104,   0.00000,   2.00000
162978578.30262,521945242.10839,80400278.94617,   0.00106,   0.00359,   0.00210,488789299.32692,   0.00812,283027508.32469,   0.00134,   0.00153,   0.00105,   0.00000,   2.00000
162518863.35295,521894272.54664,80349629.46035,   0.00105,   0.00361,   0.00211,488823264.61181,   0.00814,283049208.21907,   0.00133,   0.00156,   0.00107,   0.00000,   2.00000
162024976.03631,521836075.67491,80297063.31683,   0.00104,   0.00364,   0.00212,488805903.21389,   0.00816,283070761.08078,   0.00132,   0.00158,   0.00108,   0.00000,   2.00000
161577676.96590,521791025.86745,80238963.13850,   0.00104,   0.00367,   0.00214,488863288.11829,   0.00818,283092446.80993,   0.00132,   0.00161,   0.00109,   0.00000,   2.00000
161135671.30676,521746306.05881,80181659.13967,   0.00103,   0.00369,   0.00215,488885769.99636,   0.00820,283114134.09469,   0.00131,   0.00163,   0.00111,   0.00000,   2.00000
160739768.78808,521714730.59167,80118913.09470,   0.00102,   0.00372,   0.00216,488943109.87412,   0.00823,283135952.83747,   0.00131,   0.00166,   0.00112,   0.00000,   2.00000
160307694.67482,521670570.46644,80063251.12145,   0.00101,   0.00374,   0.00217,488930757.02226,   0.00825,283157642.05068,   0.00130,   0.00168,   0.00113,   0.00000,   2.00000
159922797.84815,521644693.88791,79993262.08785,   0.00101,   0.00377,   0.00219,488983108.02438,   0.00827,283179443.83237,   0.00130,   0.00171,   0.00115,   0.00000,   2.00000
159541391.05500,521613948.97874,79933116.84831,   0.00100,   0.00379,   0.00220,489010475.73116,   0.00829,283201264.19791,   0.00129,   0.00173,   0.00116,   0.00000,   2.00000
159165656.27031,521588526.58925,79864916.48658,   0.00099,   0.00382,   0.00221,489028028.42326,   0.00832,283223066.21693,   0.00128,   0.00176,   0.00117,   0.00000,   2.00000
158826097.86710,521566448.29497,79805423.75402,   0.00098,   0.00385,   0.00223,489061600.58818,   0.00834,283244909.51411,   0.00128,   0.00178,   0.00119,   0.00000,   2.00000
158499993.81616,521554404.64203,79732811.56864,   0.00098,   0.00387,   0.00224,489107612.30921,   0.00836,283266840.21624,   0.00127,   0.00181,   0.00120,   0.00000,   2.00000
158169544.51025,521537701.18473,79666249.78172,   0.00097,   0.00390,   0.00225,489101549.25833,   0.00838,283288663.21193,   0.00127,   0.00183,   0.00121,   0.00000,   2.00000
157851381.21450,521525933.49322,79595559.34084,   0.00096,   0.00392,   0.00226,489152423.47186,   0.00841,283310591.76947,   0.00126,   0.00186,   0.00123,   0.00000,   2.00000
157569885.07481,521522550.60798,79524744.01055,   0.00096,   0.00395,   0.00228,489181024.70486,   0.00843,283332541.67472,   0.00126,   0.00188,   0.00124,   0.00000,   2.00000
157268423.37510,521520744.03430,79442070.58575,   0.00095,   0.00397,   0.00229,489220902.14715,   0.00845,283354555.18093,   0.00125,   0.00191,   0.00126,   0.00000,   2.00000
157026851.97234,521525746.03712,79372274.48775,   0.00094,   0.00400,   0.00230,489232018.54987,   0.00847,283376523.80857,   0.00124,   0.00193,   0.00127,   0.00000,   2.00000
