# sigma_xx, sigma_yy, sigma_xy, epsilon_xx, epsilon_yy, epsilon_xy, vonMises, epsPlastic, hardening, epsilonP__xx, epsilonP__yy, epsilonP__xy, yieldValue, iteration
   0.00000,   0.00000,   0.00000,   0.00000,   0.00000,   0.00000,   0.00000,   0.00000,274640135.82653,   0.00000,   0.00000,   0.00000,-474640135.82653,   0.00000
   0.00000,   0.00000,   0.00000,   0.00000,   0.00000,   0.00000,   0.00000,   0.00000,274640135.82653,   0.00000,   0.00000,   0.00000,-474640135.82653,   0.00000
-2742756.02743,-3858914.80782,-605720.31375,  -0.00000,  -0.00001,  -0.00001,3595909.28236,   0.00000,274640135.82653,   0.00000,   0.00000,   0.00000,-471044226.54417,   0.00000
-5475303.28552,-7694009.15386,-1211440.62750,  -0.00001,  -0.00002,  -0.00002,7173036.63110,   0.00000,274640135.82653,   0.00000,   0.00000,   0.00000,-467467099.19543,   0.00000
-8197641.77428,-11505283.03813,-1817160.94125,  -0.00001,  -0.00004,  -0.00002,10731397.91676,   0.00000,274640135.82653,   0.00000,   0.00000,   0.00000,-463908737.90977,   0.00000
-10943800.72482,-15326765.69173,-2429687.10122,  -0.00002,  -0.00005,  -0.00003,14305718.77317,   0.00000,274640135.82653,   0.00000,   0.00000,   0.00000,-460334417.05336,   0.00000
-13693362.59847,-19110816.19111,-3035407.41497,  -0.00003,  -0.00006,  -0.00004,17851645.12336,   0.00000,274640135.82653,   0.00000,   0.00000,   0.00000,-456788490.70317,   0.00000
-16442924.47212,-22894866.69049,-3647933.57494,  -0.00003,  -0.00007,  -0.00005,21401130.35056,   0.00000,274640135.82653,   0.00000,   0.00000,   0.00000,-453239005.47597,   0.00000
-19206098.03821,-26665305.49742,-4253653.88869,  -0.00004,  -0.00008,  -0.00006,24941069.77931,   0.00000,274640135.82653,   0.00000,   0.00000,   0.00000,-449699066.04722,   0.00000
-21959062.83498,-30411923.84258,-4866180.04866,  -0.00004,  -0.00010,  -0.00006,28465897.67781,   0.00000,274640135.82653,   0.00000,   0.00000,   0.00000,-446174238.14872,   0.00000
-24725639.32418,-34144930.49530,-5478706.20863,  -0.00005,  -0.00011,  -0.00007,31984792.44115,   0.00000,274640135.82653,   0.00000,   0.00000,   0.00000,-442655343.38538,   0.00000
-27482007.04405,-37854116.68623,-6091232.36860,  -0.00005,  -0.00012,  -0.00008,35485167.25551,   0.00000,274640135.82653,   0.00000,   0.00000,   0.00000,-439154968.57101,   0.00000
-30251986.45637,-41549691.18473,-6703758.52858,  -0.00006,  -0.00013,  -0.00009,38979737.84345,   0.00000,274640135.82653,   0.00000,   0.00000,   0.00000,-435660397.98308,   0.00000
-33021965.86868,-45245265.68322,-7316284.68855,  -0.00006,  -0.00014,  -0.00010,42474471.65532,   0.00000,274640135.82653,   0.00000,   0.00000,   0.00000,-432165664.17121,   0.00000
-35795348.20411,-48903408.02750,-7928810.84852,  -0.00007,  -0.00015,  -0.00010,45944900.42932,   0.00000,274640135.82653,   0.00000,   0.00000,   0.00000,-428695235.39721,   0.00000
-38592551.00131,-52571759.14110,-8541337.00849,  -0.00007,  -0.00016,  -0.00011,49428330.63917,   0.00000,274640135.82653,   0.00000,   0.00000,   0.00000,-425211805.18736,   0.00000
-41355724.56740,-56206081.02360,-9160669.01468,  -0.00008,  -0.00018,  -0.00012,52884117.30464,   0.00000,274640135.82653,   0.00000,   0.00000,   0.00000,-421756018.52189,   0.00000
-44156330.28772,-59836999.98299,-9773195.17466,  -0.00008,  -0.00019,  -0.00013,56343693.24541,   0.00000,274640135.82653,   0.00000,   0.00000,   0.00000,-418296442.58112,   0.00000
-46946727.23870,-63444098.48059,-10392527.18085,  -0.00009,  -0.00020,  -0.00014,59788543.28197,   0.00000,274640135.82653,   0.00000,   0.00000,   0.00000,-414851592.54455,   0.00000
-49726915.42035,-67027376.51643,-11005053.34082,  -0.00010,  -0.00021,  -0.00014,63211583.06924,   0.00000,274640135.82653,   0.00000,   0.00000,   0.00000,-411428552.75728,   0.00000
-52520715.29444,-70597042.85982,-11617579.50079,  -0.00010,  -0.00022,  -0.00015,66629312.37295,   0.00000,274640135.82653,   0.00000,   0.00000,   0.00000,-408010823.45358,   0.00000
-55328126.86097,-74153097.51076,-12236911.50698,  -0.00011,  -0.00023,  -0.00016,70045396.10755,   0.00000,274640135.82653,   0.00000,   0.00000,   0.00000,-404594739.71897,   0.00000
-58135538.42751,-77709152.16171,-12849437.66696,  -0.00011,  -0.00024,  -0.00017,73458245.97247,   0.00000,274640135.82653,   0.00000,   0.00000,   0.00000,-401181889.85405,   0.00000
-60922532.45538,-81217565.88910,-13468769.67315,  -0.00012,  -0.00025,  -0.00018,76838085.90423,   0.00000,274640135.82653,   0.00000,   0.00000,   0.00000,-397802049.92230,   0.00000
-63733346.94503,-84736188.38582,-14081295.83312,  -0.00012,  -0.00026,  -0.00018,80227731.60697,   0.00000,274640135.82653,   0.00000,   0.00000,   0.00000,-394412404.21956,   0.00000
-66547564.35778,-88217378.72833,-14700627.83931,  -0.00013,  -0.00027,  -0.00019,83597595.17990,   0.00000,274640135.82653,   0.00000,   0.00000,   0.00000,-391042540.64663,   0.00000
-69361781.77054,-91698569.07083,-15313153.99929,  -0.00014,  -0.00028,  -0.00020,86964281.51648,   0.00000,274640135.82653,   0.00000,   0.00000,   0.00000,-387675854.31005,   0.00000
-72189610.87574,-95166147.72089,-15925680.15926,  -0.00014,  -0.00029,  -0.00021,90326132.89362,   0.00000,274640135.82653,   0.00000,   0.00000,   0.00000,-384314002.93291,   0.00000
-75007231.21161,-98609905.90918,-16545012.16545,  -0.00015,  -0.00030,  -0.00022,93673659.84005,   0.00000,274640135.82653,   0.00000,   0.00000,   0.00000,-380966475.98648,   0.00000
-77814642.77815,-102029843.63568,-17157538.32542,  -0.00016,  -0.00031,  -0.00022,96999665.73116,   0.00000,274640135.82653,   0.00000,   0.00000,   0.00000,-377640470.09537,   0.00000
-80635666.03713,-105436169.66975,-17776870.33161,  -0.00016,  -0.00032,  -0.00023,100324633.57778,   0.00000,274640135.82653,   0.00000,   0.00000,   0.00000,-374315502.24875,   0.00000
-83470300.98855,-108828884.01137,-18389396.49159,  -0.00017,  -0.00033,  -0.00024,103641435.47624,   0.00000,274640135.82653,   0.00000,   0.00000,   0.00000,-370998700.35029,   0.00000
-86294727.17064,-112197777.89121,-19001922.65156,  -0.00017,  -0.00034,  -0.00025,106940468.77714,   0.00000,274640135.82653,   0.00000,   0.00000,   0.00000,-367699667.04939,   0.00000
-89142973.81451,-115576880.54038,-19614448.81153,  -0.00018,  -0.00035,  -0.00025,110253335.85387,   0.00000,274640135.82653,   0.00000,   0.00000,   0.00000,-364386799.97266,   0.00000
-91970802.91971,-118908342.26601,-20226974.97150,  -0.00019,  -0.00036,  -0.00026,113530252.74165,   0.00000,274640135.82653,   0.00000,   0.00000,   0.00000,-361109883.08488,   0.00000
-94822452.48669,-122250012.76096,-20839501.13147,  -0.00019,  -0.00037,  -0.00027,116821109.01437,   0.00000,274640135.82653,   0.00000,   0.00000,   0.00000,-357819026.81216,   0.00000
-97653684.51500,-125544042.33236,-21452027.29144,  -0.00020,  -0.00038,  -0.00028,120076137.45695,   0.00000,274640135.82653,   0.00000,   0.00000,   0.00000,-354563998.36958,   0.00000
-100508737.00509,-128848280.67310,-22064553.45141,  -0.00021,  -0.00039,  -0.00029,123345211.69495,   0.00000,274640135.82653,   0.00000,   0.00000,   0.00000,-351294924.13158,   0.00000
-103343371.95651,-132104878.09028,-22677079.61139,  -0.00021,  -0.00040,  -0.00029,126578582.73792,   0.00000,274640135.82653,   0.00000,   0.00000,   0.00000,-348061553.08861,   0.00000
-106201827.36971,-135371684.27679,-23282799.92514,  -0.00022,  -0.00041,  -0.00030,129822444.56700,   0.00000,274640135.82653,   0.00000,   0.00000,   0.00000,-344817691.25953,   0.00000
-109050074.01358,-138614670.00153,-23895326.08511,  -0.00023,  -0.00042,  -0.00031,133052490.33786,   0.00000,274640135.82653,   0.00000,   0.00000,   0.00000,-341587645.48867,   0.00000
-111901723.58056,-141820223.57205,-24501046.39886,  -0.00023,  -0.00043,  -0.00032,136256918.80396,   0.00000,274640135.82653,   0.00000,   0.00000,   0.00000,-338383217.02257,   0.00000
-114753373.14753,-145025777.14257,-25113572.55883,  -0.00024,  -0.00044,  -0.00033,139465731.07431,   0.00000,274640135.82653,   0.00000,   0.00000,   0.00000,-335174404.75222,   0.00000
-117618634.40696,-148217719.02064,-25719292.87258,  -0.00025,  -0.00045,  -0.00033,142667150.25861,   0.00000,274640135.82653,   0.00000,   0.00000,   0.00000,-331972985.56792,   0.00000
-120473686.89704,-151385840.43694,-26325013.18633,  -0.00025,  -0.00045,  -0.00034,145851261.68703,   0.00000,274640135.82653,   0.00000,   0.00000,   0.00000,-328788874.13949,   0.00000
-123342351.07958,-154540350.16079,-26930733.50008,  -0.00026,  -0.00046,  -0.00035,149031803.62835,   0.00000,274640135.82653,   0.00000,   0.00000,   0.00000,-325608332.19817,   0.00000
-126200806.49278,-157671039.42286,-27536453.81383,  -0.00027,  -0.00047,  -0.00036,152195127.26207,   0.00000,274640135.82653,   0.00000,   0.00000,   0.00000,-322445008.56446,   0.00000
-129072873.59842,-160788116.99250,-28135368.28135,  -0.00027,  -0.00048,  -0.00037,155351336.68311,   0.00000,274640135.82653,   0.00000,   0.00000,   0.00000,-319288799.14342,   0.00000
-131934731.93473,-163881374.10035,-28741088.59510,  -0.00028,  -0.00049,  -0.00037,158494112.28048,   0.00000,274640135.82653,   0.00000,   0.00000,   0.00000,-316146023.54605,   0.00000
-134786381.50171,-166950810.74643,-29340003.06263,  -0.00029,  -0.00050,  -0.00038,161616068.25150,   0.00000,274640135.82653,   0.00000,   0.00000,   0.00000,-313024067.57503,   0.00000
-137675463.22291,-170016844.46940,-29938917.53016,  -0.00029,  -0.00051,  -0.00039,164748684.69152,   0.00000,274640135.82653,   0.00000,   0.00000,   0.00000,-309891451.13501,   0.00000
-140530515.71300,-173048848.96126,-30537831.99769,  -0.00030,  -0.00051,  -0.00040,167850420.12062,   0.00000,274640135.82653,   0.00000,   0.00000,   0.00000,-306789715.70591,   0.00000
-143433209.12664,-176101270.99178,-31136746.46521,  -0.00031,  -0.00052,  -0.00040,170980886.75923,   0.00000,274640135.82653,   0.00000,   0.00000,   0.00000,-303659249.06730,   0.00000
-146291664.53984,-179095843.32942,-31728855.08652,  -0.00032,  -0.00053,  -0.00041,174058909.32150,   0.00000,274640135.82653,   0.00000,   0.00000,   0.00000,-300581226.50503,   0.00000
-149163731.64548,-182076803.97461,-32327769.55405,  -0.00032,  -0.00054,  -0.00042,177137742.75997,   0.00000,274640135.82653,   0.00000,   0.00000,   0.00000,-297502393.06656,   0.00000
-152059619.21290,-185067973.38914,-32919878.17535,  -0.00033,  -0.00055,  -0.00043,180227833.98998,   0.00000,274640135.82653,   0.00000,   0.00000,   0.00000,-294412301.83655,   0.00000
-154935089.24166,-188011501.88011,-33511986.79666,  -0.00034,  -0.00055,  -0.00044,183283353.50615,   0.00000,274640135.82653,   0.00000,   0.00000,   0.00000,-291356782.32038,   0.00000
-157824170.96286,-190941418.67864,-34104095.41796,  -0.00035,  -0.00056,  -0.00044,186336231.51317,   0.00000,274640135.82653,   0.00000,   0.00000,   0.00000,-288303904.31336,   0.00000
-160713252.68406,-193871335.47717,-34689398.19305,  -0.00035,  -0.00057,  -0.00045,189386415.62224,   0.00000,274640135.82653,   0.00000,   0.00000,   0.00000,-285253720.20429,   0.00000
-163605737.32837,-196763820.12148,-35281506.81435,  -0.00036,  -0.00058,  -0.00046,192420119.77522,   0.00000,274640135.82653,   0.00000,   0.00000,   0.00000,-282220016.05131,   0.00000
-166498221.97267,-199656304.76579,-35866809.58944,  -0.00037,  -0.00058,  -0.00047,195451176.24110,   0.00000,274640135.82653,   0.00000,   0.00000,   0.00000,-279188959.58543,   0.00000
-169380497.84765,-202524968.94833,-36452112.36452,  -0.00038,  -0.00059,  -0.00047,198465628.05458,   0.00000,274640135.82653,   0.00000,   0.00000,   0.00000,-276174507.77195,   0.00000
-172266176.64574,-205356200.97664,-37037415.13960,  -0.00038,  -0.00060,  -0.00048,201460139.14328,   0.00000,274640135.82653,   0.00000,   0.00000,   0.00000,-273179996.68325,   0.00000
-175175675.90560,-208197641.77428,-37615912.06847,  -0.00039,  -0.00061,  -0.00049,204466337.99191,   0.00000,274640135.82653,   0.00000,   0.00000,   0.00000,-270173797.83462,   0.00000
-178064757.62680,-210991441.64838,-38194408.99733,  -0.00040,  -0.00061,  -0.00050,207438533.24556,   0.00000,274640135.82653,   0.00000,   0.00000,   0.00000,-267201602.58097,   0.00000
-180953839.34800,-213785241.52247,-38772905.92619,  -0.00041,  -0.00062,  -0.00050,210411919.62447,   0.00000,274640135.82653,   0.00000,   0.00000,   0.00000,-264228216.20206,   0.00000
-183856532.76164,-216565429.70412,-39351402.85505,  -0.00041,  -0.00063,  -0.00051,213383316.31271,   0.00000,274640135.82653,   0.00000,   0.00000,   0.00000,-261256819.51382,   0.00000
-186762629.09840,-219308185.73154,-39923093.93769,  -0.00042,  -0.00063,  -0.00052,216331567.03370,   0.00000,274640135.82653,   0.00000,   0.00000,   0.00000,-258308568.79283,   0.00000
-189668725.43515,-222050941.75897,-40494785.02033,  -0.00043,  -0.00064,  -0.00053,219281120.66630,   0.00000,274640135.82653,   0.00000,   0.00000,   0.00000,-255359015.16023,   0.00000
-192564613.00257,-224769877.32462,-41066476.10297,  -0.00044,  -0.00065,  -0.00053,222214468.18390,   0.00000,274640135.82653,   0.00000,   0.00000,   0.00000,-252425667.64263,   0.00000
-195474112.26243,-227475201.19783,-41638167.18561,  -0.00045,  -0.00065,  -0.00054,225146160.54609,   0.00000,274640135.82653,   0.00000,   0.00000,   0.00000,-249493975.28044,   0.00000
-198373402.75296,-230156704.60926,-42203052.42203,  -0.00045,  -0.00066,  -0.00055,228057974.72977,   0.00000,274640135.82653,   0.00000,   0.00000,   0.00000,-246582161.09676,   0.00000
-201276096.16661,-232800775.86647,-42767937.65845,  -0.00046,  -0.00067,  -0.00056,230950917.41712,   0.00000,274640135.82653,   0.00000,   0.00000,   0.00000,-243689218.40941,   0.00000
-204178789.58025,-235444847.12368,-43332822.89487,  -0.00047,  -0.00067,  -0.00056,233845271.22232,   0.00000,274640135.82653,   0.00000,   0.00000,   0.00000,-240794864.60421,   0.00000
-207095094.68634,-238075306.68845,-43890902.28506,  -0.00048,  -0.00068,  -0.00057,236734525.63369,   0.00000,274640135.82653,   0.00000,   0.00000,   0.00000,-237905610.19284,   0.00000
-210001191.02309,-240681945.79143,-44448981.67526,  -0.00049,  -0.00069,  -0.00058,239607887.81468,   0.00000,274640135.82653,   0.00000,   0.00000,   0.00000,-235032248.01185,   0.00000
-212920899.05229,-243274973.20198,-45007061.06546,  -0.00049,  -0.00069,  -0.00059,242480107.36104,   0.00000,274640135.82653,   0.00000,   0.00000,   0.00000,-232160028.46549,   0.00000
-215830398.31215,-245844180.15075,-45565140.45565,  -0.00050,  -0.00070,  -0.00059,245336545.38031,   0.00000,274640135.82653,   0.00000,   0.00000,   0.00000,-229303590.44622,   0.00000
-218729688.80268,-248389566.63774,-46116413.99963,  -0.00051,  -0.00070,  -0.00060,248173431.06435,   0.00000,274640135.82653,   0.00000,   0.00000,   0.00000,-226466704.76218,   0.00000
-221642590.98566,-250921341.43229,-46667687.54360,  -0.00052,  -0.00071,  -0.00061,251009403.52578,   0.00000,274640135.82653,   0.00000,   0.00000,   0.00000,-223630732.30075,   0.00000
-224569104.86108,-253439504.53439,-47212155.24135,  -0.00053,  -0.00072,  -0.00061,253840787.61031,   0.00000,274640135.82653,   0.00000,   0.00000,   0.00000,-220799348.21622,   0.00000
-227485409.96716,-255933847.17472,-47763428.78533,  -0.00054,  -0.00072,  -0.00062,256660408.15942,   0.00000,274640135.82653,   0.00000,   0.00000,   0.00000,-217979727.66711,   0.00000
-230401715.07325,-258428189.81505,-48301090.63686,  -0.00054,  -0.00073,  -0.00063,259474020.88310,   0.00000,274640135.82653,   0.00000,   0.00000,   0.00000,-215166114.94343,   0.00000
-233321423.10244,-260885100.30116,-48845558.33461,  -0.00055,  -0.00073,  -0.00063,262273721.28420,   0.00000,274640135.82653,   0.00000,   0.00000,   0.00000,-212366414.54233,   0.00000
-236230922.36231,-263318190.32549,-49383220.18614,  -0.00056,  -0.00074,  -0.00064,265054195.15437,   0.00000,274640135.82653,   0.00000,   0.00000,   0.00000,-209585940.67216,   0.00000
-239154033.31462,-265737668.65738,-49920882.03767,  -0.00057,  -0.00074,  -0.00065,267834292.65374,   0.00000,274640135.82653,   0.00000,   0.00000,   0.00000,-206805843.17279,   0.00000
-242066935.49759,-268133326.52749,-50451738.04298,  -0.00058,  -0.00075,  -0.00066,270595275.29741,   0.00000,274640135.82653,   0.00000,   0.00000,   0.00000,-204044860.52912,   0.00000
-244979837.68057,-270528984.39760,-50982594.04829,  -0.00059,  -0.00075,  -0.00066,273357970.93053,   0.00000,274640135.82653,   0.00000,   0.00000,   0.00000,-201282164.89600,   0.00000
-247896142.78665,-272887210.11349,-51513450.05360,  -0.00060,  -0.00076,  -0.00067,276103507.50824,   0.00000,274640135.82653,   0.00000,   0.00000,   0.00000,-198536628.31829,   0.00000
-250826059.58518,-275231824.13693,-52037500.21268,  -0.00060,  -0.00076,  -0.00068,278845225.07875,   0.00000,274640135.82653,   0.00000,   0.00000,   0.00000,-195794910.74778,   0.00000
-253755976.38371,-277576438.16038,-52561550.37177,  -0.00061,  -0.00077,  -0.00068,281588785.67551,   0.00000,274640135.82653,   0.00000,   0.00000,   0.00000,-193051350.15102,   0.00000
-256665475.64358,-279873411.26027,-53085600.53086,  -0.00062,  -0.00077,  -0.00069,284300357.80467,   0.00000,274640135.82653,   0.00000,   0.00000,   0.00000,-190339778.02186,   0.00000
-259598795.36522,-282180593.12950,-53602844.84372,  -0.00063,  -0.00078,  -0.00070,287025215.90994,   0.00000,274640135.82653,   0.00000,   0.00000,   0.00000,-187614919.91659,   0.00000
-262511697.54819,-284440134.07517,-54120089.15659,  -0.00064,  -0.00078,  -0.00070,289718261.29255,   0.00000,274640135.82653,   0.00000,   0.00000,   0.00000,-184921874.53398,   0.00000
-265424599.73117,-286699675.02084,-54630527.62323,  -0.00065,  -0.00079,  -0.00071,292409402.99385,   0.00000,274640135.82653,   0.00000,   0.00000,   0.00000,-182230732.83268,   0.00000
-268340904.83726,-288921783.81229,-55140966.08987,  -0.00066,  -0.00079,  -0.00072,295084197.98211,   0.00000,274640135.82653,   0.00000,   0.00000,   0.00000,-179555937.84442,   0.00000
-271281030.40512,-291154101.37308,-55651404.55651,  -0.00067,  -0.00080,  -0.00072,297776359.14256,   0.00000,274640135.82653,   0.00000,   0.00000,   0.00000,-176863776.68397,   0.00000
-274176917.97254,-293328569.24098,-56155037.17693,  -0.00068,  -0.00080,  -0.00073,300417831.38676,   0.00000,274640135.82653,   0.00000,   0.00000,   0.00000,-174222304.43977,   0.00000
-277120446.46351,-295523454.64754,-56658669.79736,  -0.00068,  -0.00080,  -0.00074,303092192.23234,   0.00000,274640135.82653,   0.00000,   0.00000,   0.00000,-171547943.59419,   0.00000
-280029945.72338,-297684310.82300,-57162302.41778,  -0.00069,  -0.00081,  -0.00074,305736462.43561,   0.00000,274640135.82653,   0.00000,   0.00000,   0.00000,-168903673.39092,   0.00000
-282953056.67568,-299831555.30601,-57659129.19198,  -0.00070,  -0.00081,  -0.00075,308377794.78296,   0.00000,274640135.82653,   0.00000,   0.00000,   0.00000,-166262341.04356,   0.00000
-285879570.55110,-301941367.63480,-58149150.11995,  -0.00071,  -0.00082,  -0.00076,310999711.92209,   0.00000,274640135.82653,   0.00000,   0.00000,   0.00000,-163640423.90444,   0.00000
-288806084.42652,-304051179.96359,-58639171.04793,  -0.00072,  -0.00082,  -0.00076,313623820.57498,   0.00000,274640135.82653,   0.00000,   0.00000,   0.00000,-161016315.25155,   0.00000
-291722389.53261,-306137171.83060,-59129191.97591,  -0.00073,  -0.00082,  -0.00077,316233516.99503,   0.00000,274640135.82653,   0.00000,   0.00000,   0.00000,-158406618.83150,   0.00000
-294652306.33114,-308209552.00517,-59612407.05766,  -0.00074,  -0.00083,  -0.00077,318840667.83819,   0.00000,274640135.82653,   0.00000,   0.00000,   0.00000,-155799467.98834,   0.00000
-297572014.36034,-310258111.71797,-60095622.13942,  -0.00075,  -0.00083,  -0.00078,321433538.60897,   0.00000,274640135.82653,   0.00000,   0.00000,   0.00000,-153206597.21755,   0.00000
-300481513.62020,-312282850.96898,-60578837.22117,  -0.00076,  -0.00083,  -0.00079,324012163.13160,   0.00000,274640135.82653,   0.00000,   0.00000,   0.00000,-150627972.69493,   0.00000
-303404624.57251,-314293978.52756,-61048440.61048,  -0.00077,  -0.00084,  -0.00079,326584691.76161,   0.00000,274640135.82653,   0.00000,   0.00000,   0.00000,-148055444.06492,   0.00000
-306317526.75548,-316281285.62435,-61524849.84602,  -0.00078,  -0.00084,  -0.00080,329146926.32321,   0.00000,274640135.82653,   0.00000,   0.00000,   0.00000,-145493209.50332,   0.00000
-309254249.40023,-318278801.49048,-61994453.23533,  -0.00079,  -0.00085,  -0.00081,331723455.74472,   0.00000,274640135.82653,   0.00000,   0.00000,   0.00000,-142916680.08181,   0.00000
-312170554.50632,-320228676.43306,-62464056.62464,  -0.00080,  -0.00085,  -0.00081,334269609.64158,   0.00000,274640135.82653,   0.00000,   0.00000,   0.00000,-140370526.18494,   0.00000
-315076650.84307,-322154730.91385,-62926854.16773,  -0.00081,  -0.00085,  -0.00082,336798010.40597,   0.00000,274640135.82653,   0.00000,   0.00000,   0.00000,-137842125.42056,   0.00000
-317996358.87227,-324067173.70221,-63389651.71082,  -0.00081,  -0.00085,  -0.00082,339328424.82186,   0.00000,274640135.82653,   0.00000,   0.00000,   0.00000,-135311711.00467,   0.00000
-320916066.90147,-325979616.49057,-63845643.40769,  -0.00082,  -0.00086,  -0.00083,341857476.87460,   0.00000,274640135.82653,   0.00000,   0.00000,   0.00000,-132782658.95193,   0.00000
-323839177.85378,-327854627.12470,-64301635.10455,  -0.00083,  -0.00086,  -0.00084,344372469.23618,   0.00000,274640135.82653,   0.00000,   0.00000,   0.00000,-130267666.59035,   0.00000
-326762288.80608,-329729637.75883,-64750820.95520,  -0.00084,  -0.00086,  -0.00084,346886181.22405,   0.00000,274640135.82653,   0.00000,   0.00000,   0.00000,-127753954.60248,   0.00000
-329675190.98906,-331580827.93119,-65200006.80585,  -0.00085,  -0.00087,  -0.00085,349386214.51215,   0.00000,274640135.82653,   0.00000,   0.00000,   0.00000,-125253921.31438,   0.00000
-332567675.63337,-333384377.18000,-65642386.81027,  -0.00086,  -0.00087,  -0.00085,351852672.65021,   0.00000,274640135.82653,   0.00000,   0.00000,   0.00000,-122787463.17632,   0.00000
-335483980.73946,-335198135.19814,-66084766.81469,  -0.00087,  -0.00087,  -0.00086,354337798.79550,   0.00000,274640135.82653,   0.00000,   0.00000,   0.00000,-120302337.03102,   0.00000
-338413897.53799,-336998281.52383,-66520340.97290,  -0.00088,  -0.00087,  -0.00086,356821766.67383,   0.00000,274640135.82653,   0.00000,   0.00000,   0.00000,-117818369.15270,   0.00000
-341309785.10541,-338764398.61841,-66955915.13110,  -0.00089,  -0.00088,  -0.00087,359276170.65331,   0.00000,274640135.82653,   0.00000,   0.00000,   0.00000,-115363965.17322,   0.00000
-344219284.36527,-340516904.02055,-67391489.28930,  -0.00090,  -0.00088,  -0.00088,361733370.20842,   0.00000,274640135.82653,   0.00000,   0.00000,   0.00000,-112906765.61811,   0.00000
-347142395.31758,-342255797.73025,-67820257.60128,  -0.00091,  -0.00088,  -0.00088,364189700.97286,   0.00000,274640135.82653,   0.00000,   0.00000,   0.00000,-110450434.85367,   0.00000
-350055297.50055,-343970870.97817,-68242220.06704,  -0.00092,  -0.00088,  -0.00089,366629032.69780,   0.00000,274640135.82653,   0.00000,   0.00000,   0.00000,-108011103.12872,   0.00000
-352957990.91420,-345662123.76431,-68664182.53280,  -0.00093,  -0.00088,  -0.00089,369055210.37529,   0.00000,274640135.82653,   0.00000,   0.00000,   0.00000,-105584925.45124,   0.00000
-355850475.55850,-347329556.08868,-69086144.99855,  -0.00094,  -0.00089,  -0.00090,371468275.99484,   0.00000,274640135.82653,   0.00000,   0.00000,   0.00000,-103171859.83169,   0.00000
-358766780.66459,-349007197.18238,-69501301.61809,  -0.00095,  -0.00089,  -0.00090,373896684.67568,   0.00000,274640135.82653,   0.00000,   0.00000,   0.00000,-100743451.15085,   0.00000
-361662668.23201,-350637197.35253,-69909652.39140,  -0.00096,  -0.00089,  -0.00091,376292471.19293,   0.00000,274640135.82653,   0.00000,   0.00000,   0.00000,-98347664.63360,   0.00000
-364582376.26121,-352277406.29200,-70318003.16472,  -0.00097,  -0.00089,  -0.00091,378707553.24160,   0.00000,274640135.82653,   0.00000,   0.00000,   0.00000,-95932582.58493,   0.00000
-367457846.28996,-353859765.53860,-70719548.09181,  -0.00098,  -0.00089,  -0.00092,381073770.52289,   0.00000,274640135.82653,   0.00000,   0.00000,   0.00000,-93566365.30364,   0.00000
-370357136.78049,-355452333.55452,-71121093.01890,  -0.00099,  -0.00090,  -0.00092,383459373.71906,   0.00000,274640135.82653,   0.00000,   0.00000,   0.00000,-91180762.10747,   0.00000
-373270038.96347,-357031289.87801,-71522637.94600,  -0.00100,  -0.00090,  -0.00093,385848731.59318,   0.00000,274640135.82653,   0.00000,   0.00000,   0.00000,-88791404.23335,   0.00000
-376172732.37711,-358586425.73971,-71917377.02687,  -0.00101,  -0.00090,  -0.00093,388221639.14479,   0.00000,274640135.82653,   0.00000,   0.00000,   0.00000,-86418496.68174,   0.00000
-379065217.02142,-360117741.13964,-72305310.26151,  -0.00102,  -0.00090,  -0.00094,390578148.66771,   0.00000,274640135.82653,   0.00000,   0.00000,   0.00000,-84061987.15882,   0.00000
-381947492.89640,-361625236.07779,-72693243.49616,  -0.00103,  -0.00090,  -0.00095,392922090.70013,   0.00000,274640135.82653,   0.00000,   0.00000,   0.00000,-81718045.12640,   0.00000
-384843380.46382,-363119119.32350,-73074370.88459,  -0.00104,  -0.00090,  -0.00095,395266396.18633,   0.00000,274640135.82653,   0.00000,   0.00000,   0.00000,-79373739.64020,   0.00000
-387729059.26191,-364589182.10743,-73455498.27302,  -0.00105,  -0.00090,  -0.00095,397598296.26134,   0.00000,274640135.82653,   0.00000,   0.00000,   0.00000,-77041839.56519,   0.00000
-390614738.05999,-366059244.89136,-73829819.81522,  -0.00106,  -0.00090,  -0.00096,399929537.77419,   0.00000,274640135.82653,   0.00000,   0.00000,   0.00000,-74710598.05234,   0.00000
-393503819.78119,-367491875.52107,-74204141.35743,  -0.00107,  -0.00090,  -0.00096,402249725.64822,   0.00000,274640135.82653,   0.00000,   0.00000,   0.00000,-72390410.17831,   0.00000
-396369081.04061,-368914297.38145,-74571657.05341,  -0.00108,  -0.00091,  -0.00097,404552570.48828,   0.00000,274640135.82653,   0.00000,   0.00000,   0.00000,-70087565.33825,   0.00000
-399261565.68492,-370309495.85694,-74939172.74939,  -0.00109,  -0.00091,  -0.00097,406861414.10590,   0.00000,274640135.82653,   0.00000,   0.00000,   0.00000,-67778721.72063,   0.00000
-402130229.86746,-371694485.56310,-75299882.59915,  -0.00110,  -0.00091,  -0.00098,409152954.78544,   0.00000,274640135.82653,   0.00000,   0.00000,   0.00000,-65487181.04109,   0.00000
-405012505.74243,-373065863.57681,-75660592.44891,  -0.00112,  -0.00091,  -0.00098,411449272.58294,   0.00000,274640135.82653,   0.00000,   0.00000,   0.00000,-63190863.24359,   0.00000
-407884572.84808,-374413421.12875,-76014496.45245,  -0.00113,  -0.00091,  -0.00099,413729848.27767,   0.00000,274640135.82653,   0.00000,   0.00000,   0.00000,-60910287.54886,   0.00000
-410756639.95372,-375760978.68069,-76361594.60977,  -0.00114,  -0.00091,  -0.00099,416009967.10485,   0.00000,274640135.82653,   0.00000,   0.00000,   0.00000,-58630168.72168,   0.00000
-413632109.98247,-377071104.07840,-76708692.76709,  -0.00115,  -0.00091,  -0.00100,418279923.23825,   0.00000,274640135.82653,   0.00000,   0.00000,   0.00000,-56360212.58828,   0.00000
-416497371.24190,-378357409.01434,-77055790.92440,  -0.00116,  -0.00091,  -0.00100,420538116.83133,   0.00000,274640135.82653,   0.00000,   0.00000,   0.00000,-54102018.99520,   0.00000
-419362632.50132,-379643713.95028,-77396083.23550,  -0.00117,  -0.00091,  -0.00101,422795980.21531,   0.00000,274640135.82653,   0.00000,   0.00000,   0.00000,-51844155.61122,   0.00000
-422217684.99141,-380906198.42445,-77729569.70037,  -0.00118,  -0.00091,  -0.00101,425038386.78105,   0.00000,274640135.82653,   0.00000,   0.00000,   0.00000,-49601749.04548,   0.00000
-425086349.17394,-382155071.20617,-78063056.16525,  -0.00119,  -0.00091,  -0.00101,427286228.28130,   0.00000,274640135.82653,   0.00000,   0.00000,   0.00000,-47353907.54523,   0.00000
-427944804.58714,-383380123.52611,-78389736.78390,  -0.00120,  -0.00091,  -0.00102,429518795.09771,   0.00000,274640135.82653,   0.00000,   0.00000,   0.00000,-45121340.72882,   0.00000
-430793051.23101,-384581355.38427,-78716417.40255,  -0.00121,  -0.00091,  -0.00102,431739874.77607,   0.00000,274640135.82653,   0.00000,   0.00000,   0.00000,-42900261.05046,   0.00000
-433631089.10554,-385758766.78066,-79036292.17498,  -0.00122,  -0.00091,  -0.00103,433945802.90423,   0.00000,274640135.82653,   0.00000,   0.00000,   0.00000,-40694332.92230,   0.00000
-436482738.67252,-386922566.48461,-79356166.94741,  -0.00123,  -0.00091,  -0.00103,436157581.42952,   0.00000,274640135.82653,   0.00000,   0.00000,   0.00000,-38482554.39700,   0.00000
-439334388.23950,-388086366.18856,-79669235.87362,  -0.00124,  -0.00091,  -0.00104,438369259.26863,   0.00000,274640135.82653,   0.00000,   0.00000,   0.00000,-36270876.55790,   0.00000
-442175829.03714,-389226345.43072,-79975498.95360,  -0.00125,  -0.00091,  -0.00104,440565966.78221,   0.00000,274640135.82653,   0.00000,   0.00000,   0.00000,-34074169.04432,   0.00000
-444996852.29612,-390318683.74934,-80281762.03359,  -0.00126,  -0.00091,  -0.00104,442736684.40971,   0.00000,274640135.82653,   0.00000,   0.00000,   0.00000,-31903451.41682,   0.00000
-447851904.78621,-391445051.29907,-80588025.11357,  -0.00127,  -0.00091,  -0.00105,444943181.02299,   0.00000,274640135.82653,   0.00000,   0.00000,   0.00000,-29696954.80354,   0.00000
-450686539.73763,-392523777.92524,-80887482.34734,  -0.00129,  -0.00091,  -0.00105,447120167.85310,   0.00000,274640135.82653,   0.00000,   0.00000,   0.00000,-27519967.97343,   0.00000
-453510965.91973,-393578684.08963,-81180133.73488,  -0.00130,  -0.00091,  -0.00106,449282505.70427,   0.00000,274640135.82653,   0.00000,   0.00000,   0.00000,-25357630.12226,   0.00000
-456335392.10182,-394633590.25403,-81472785.12242,  -0.00131,  -0.00091,  -0.00106,451448591.36251,   0.00000,274640135.82653,   0.00000,   0.00000,   0.00000,-23191544.46402,   0.00000
-459163221.20702,-395651064.26420,-81758630.66374,  -0.00132,  -0.00090,  -0.00106,453602945.63097,   0.00000,274640135.82653,   0.00000,   0.00000,   0.00000,-21037190.19556,   0.00000
-461967229.85044,-396658329.50504,-82044476.20506,  -0.00133,  -0.00090,  -0.00107,455743667.39447,   0.00000,274640135.82653,   0.00000,   0.00000,   0.00000,-18896468.43206,   0.00000
-464784850.18631,-397651983.05344,-82323515.90016,  -0.00134,  -0.00090,  -0.00107,457887456.72900,   0.00000,274640135.82653,   0.00000,   0.00000,   0.00000,-16752679.09753,   0.00000
-467592261.75285,-398621816.14006,-82595749.74903,  -0.00135,  -0.00090,  -0.00107,460016926.41771,   0.00000,274640135.82653,   0.00000,   0.00000,   0.00000,-14623209.40882,   0.00000
-470423493.78116,-399601857.99602,-82867983.59791,  -0.00136,  -0.00090,  -0.00108,462167842.20883,   0.00000,274640135.82653,   0.00000,   0.00000,   0.00000,-12472293.61770,   0.00000
-473210487.80903,-400524050.15909,-83133411.60056,  -0.00137,  -0.00090,  -0.00108,464272540.37506,   0.00000,274640135.82653,   0.00000,   0.00000,   0.00000,-10367595.45147,   0.00000
-476021302.29867,-401456451.09149,-83398839.60322,  -0.00138,  -0.00090,  -0.00108,466398798.28513,   0.00000,274640135.82653,   0.00000,   0.00000,   0.00000,-8241337.54140,   0.00000
-478821908.01899,-402365031.56211,-83664267.60587,  -0.00139,  -0.00090,  -0.00109,468514647.70305,   0.00000,274640135.82653,   0.00000,   0.00000,   0.00000,-6125488.12348,   0.00000
-481612304.96997,-403249791.57096,-83916083.91608,  -0.00140,  -0.00090,  -0.00109,470612869.05778,   0.00000,274640135.82653,   0.00000,   0.00000,   0.00000,-4027266.76875,   0.00000
-484392493.15162,-404110731.11803,-84167900.22629,  -0.00142,  -0.00089,  -0.00109,472700827.32772,   0.00000,274640135.82653,   0.00000,   0.00000,   0.00000,-1939308.49881,   0.00000
-486969969.00013,-404908896.83367,-84401355.81110,  -0.00143,  -0.00089,  -0.00110,474640136.41109,   0.00000,274640135.82653,   0.00000,   0.00000,   0.00000,   0.58456,   0.00000
-487017596.93909,-404847466.23783,-84388003.08150,  -0.00143,  -0.00089,  -0.00110,474640136.41109,   0.00000,274640680.52809,  -0.00000,  -0.00000,  -0.00000,   0.09856,   1.00000
-487683296.19524,-403982243.43358,-84201287.03537,  -0.00144,  -0.00089,  -0.00110,476722412.69085,   0.00001,274648110.21501,  -0.00001,  -0.00000,  -0.00001,   0.00000,   2.00000
-488345311.53945,-403121188.06306,-84008711.05826,  -0.00145,  -0.00089,  -0.00110,476730248.80202,   0.00001,274655542.46858,  -0.00001,  -0.00001,  -0.00001,  -0.00000,   2.00000
-489004183.00730,-402249020.88873,-83819239.07362,  -0.00146,  -0.00089,  -0.00111,476727574.80163,   0.00002,274662939.88054,  -0.00002,  -0.00001,  -0.00002,  -0.00000,   2.00000
-489663544.09041,-401368574.67201,-83626797.44830,  -0.00147,  -0.00089,  -0.00111,476721342.60837,   0.00003,274670289.92700,  -0.00003,  -0.00001,  -0.00002,  -0.00000,   2.00000
-490315547.24945,-400489386.53322,-83434535.56745,  -0.00148,  -0.00088,  -0.00111,476732784.53188,   0.00003,274677655.94213,  -0.00003,  -0.00002,  -0.00003,  -0.00000,   2.00000
-490968028.70690,-399601789.29494,-83239279.78577,  -0.00149,  -0.00088,  -0.00112,476726628.14779,   0.00004,274684975.07287,  -0.00004,  -0.00002,  -0.00003,  -0.00000,   2.00000
-491622639.69760,-398698755.15970,-83043403.03108,  -0.00150,  -0.00088,  -0.00112,476742054.89328,   0.00005,274692324.70550,  -0.00005,  -0.00002,  -0.00004,   0.00000,   2.00000
-492272221.22658,-397791243.42988,-82848138.43926,  -0.00152,  -0.00088,  -0.00112,476718143.83906,   0.00005,274699564.23161,  -0.00005,  -0.00003,  -0.00004,   0.00000,   2.00000
-492927372.88306,-396871004.30141,-82646153.10626,  -0.00153,  -0.00088,  -0.00112,476730164.83922,   0.00006,274706822.51116,  -0.00006,  -0.00003,  -0.00005,   0.00000,   2.00000
-493574988.17039,-395952032.63247,-82444351.96703,  -0.00154,  -0.00087,  -0.00113,476741740.24659,   0.00007,274714097.94145,  -0.00006,  -0.00003,  -0.00006,   0.00000,   2.00000
-494226822.27740,-395011402.50674,-82242250.19220,  -0.00155,  -0.00087,  -0.00113,476722154.44195,   0.00007,274721279.16762,  -0.00007,  -0.00004,  -0.00006,   0.00000,   2.00000
-494871064.63389,-394072032.15553,-82040308.93702,  -0.00156,  -0.00087,  -0.00113,476733753.02337,   0.00008,274728478.09591,  -0.00008,  -0.00004,  -0.00007,  -0.00000,   2.00000
-495511411.73447,-393136713.16310,-81832473.37038,  -0.00157,  -0.00087,  -0.00113,476741806.93219,   0.00009,274735681.98042,  -0.00008,  -0.00004,  -0.00007,   0.00000,   2.00000
-496157167.89120,-392172623.29907,-81626689.99613,  -0.00158,  -0.00086,  -0.00114,476744157.81731,   0.00009,274742870.58758,  -0.00009,  -0.00005,  -0.00008,   0.00000,   2.00000
-496793945.12251,-391216502.54960,-81418622.57014,  -0.00159,  -0.00086,  -0.00114,476734194.29325,   0.00010,274749999.87629,  -0.00010,  -0.00005,  -0.00008,   0.00000,   2.00000
-497431952.72587,-390244583.08639,-81209825.76567,  -0.00160,  -0.00086,  -0.00114,476750390.99446,   0.00011,274757163.84090,  -0.00010,  -0.00005,  -0.00009,  -0.00000,   2.00000
-498065007.75929,-389267324.40062,-81001431.55428,  -0.00162,  -0.00086,  -0.00114,476726825.82253,   0.00011,274764220.00165,  -0.00011,  -0.00006,  -0.00009,  -0.00000,   2.00000
-498702680.67476,-388276843.01255,-80786175.92420,  -0.00163,  -0.00085,  -0.00115,476739717.00407,   0.00012,274771299.40537,  -0.00012,  -0.00006,  -0.00010,   0.00000,   2.00000
-499332594.25526,-387287664.14369,-80571100.57694,  -0.00164,  -0.00085,  -0.00115,476751472.69937,   0.00013,274778397.95864,  -0.00012,  -0.00006,  -0.00010,   0.00000,   2.00000
-499962244.73931,-386289017.64102,-80352766.72868,  -0.00165,  -0.00085,  -0.00115,476746315.00496,   0.00013,274785455.02126,  -0.00013,  -0.00006,  -0.00011,  -0.00000,   2.00000
-500587961.67250,-385278179.56385,-80137252.94744,  -0.00166,  -0.00084,  -0.00115,476744678.47185,   0.00014,274792483.47524,  -0.00013,  -0.00007,  -0.00011,   0.00000,   2.00000
-501209512.52376,-384271291.62671,-79915808.09808,  -0.00167,  -0.00084,  -0.00116,476753011.11328,   0.00015,274799519.17791,  -0.00014,  -0.00007,  -0.00012,   0.00000,   2.00000
-501834436.23304,-383241042.72481,-79693653.47246,  -0.00168,  -0.00084,  -0.00116,476734724.44287,   0.00015,274806466.69178,  -0.00015,  -0.00007,  -0.00012,   0.00000,   2.00000
-502451504.78164,-382212096.77970,-79471670.26946,  -0.00169,  -0.00083,  -0.00116,476746543.95796,   0.00016,274813434.45149,  -0.00015,  -0.00008,  -0.00013,   0.00000,   2.00000
-503065144.03011,-381180812.18695,-79246295.29881,  -0.00171,  -0.00083,  -0.00116,476776804.53562,   0.00016,274820488.69963,  -0.00016,  -0.00008,  -0.00013,   0.00000,   2.00000
-503681148.10389,-380131992.32605,-79017564.15971,  -0.00172,  -0.00083,  -0.00116,476737055.77650,   0.00017,274827377.63994,  -0.00017,  -0.00008,  -0.00014,   0.00000,   2.00000
-504285702.63788,-379081959.43001,-78795140.46844,  -0.00173,  -0.00082,  -0.00117,476752296.41610,   0.00018,274834299.58892,  -0.00017,  -0.00008,  -0.00014,   0.00000,   2.00000
-504893836.04051,-378018234.41815,-78565721.24619,  -0.00174,  -0.00082,  -0.00117,476766197.16793,   0.00018,274841249.70402,  -0.00018,  -0.00009,  -0.00015,   0.00000,   2.00000
-505497031.25364,-376947926.39828,-78336418.38233,  -0.00175,  -0.00082,  -0.00117,476743180.76485,   0.00019,274848095.10577,  -0.00019,  -0.00009,  -0.00015,  -0.00000,   2.00000
-506099960.97806,-375877902.41139,-78097611.00580,  -0.00176,  -0.00081,  -0.00117,476770302.04868,   0.00020,274855016.62581,  -0.00019,  -0.00009,  -0.00016,   0.00000,   2.00000
-506694437.02658,-374798605.10712,-77865041.29444,  -0.00177,  -0.00081,  -0.00117,476750704.61516,   0.00020,274861845.86485,  -0.00020,  -0.00009,  -0.00016,  -0.00000,   2.00000
-507288511.42902,-373702944.81295,-77631575.56502,  -0.00178,  -0.00081,  -0.00117,476768341.58085,   0.00021,274868717.40836,  -0.00021,  -0.00010,  -0.00017,  -0.00000,   2.00000
-507878114.90739,-372611144.50640,-77392151.85407,  -0.00180,  -0.00080,  -0.00118,476777046.81172,   0.00021,274875598.92320,  -0.00021,  -0.00010,  -0.00017,  -0.00000,   2.00000
-508462844.40736,-371512230.61184,-77152739.35137,  -0.00181,  -0.00080,  -0.00118,476754221.12567,   0.00022,274882376.69580,  -0.00022,  -0.00010,  -0.00017,   0.00000,   2.00000
-509046877.66912,-370396855.77146,-76912415.57724,  -0.00182,  -0.00080,  -0.00118,476772120.46288,   0.00023,274889198.14091,  -0.00022,  -0.00010,  -0.00018,  -0.00000,   2.00000
-509622477.00116,-369271750.24865,-76678185.48398,  -0.00183,  -0.00079,  -0.00118,476752716.32989,   0.00023,274895928.53126,  -0.00023,  -0.00010,  -0.00018,   0.00000,   2.00000
-510200819.69117,-368149470.77858,-76428291.74805,  -0.00184,  -0.00079,  -0.00118,476776921.00525,   0.00024,274902725.64659,  -0.00024,  -0.00011,  -0.00019,  -0.00000,   2.00000
-510770918.16861,-367011619.44241,-76187152.65009,  -0.00185,  -0.00078,  -0.00118,476779671.68265,   0.00025,274909511.90536,  -0.00024,  -0.00011,  -0.00019,  -0.00000,   2.00000
-511339592.80542,-365868430.55909,-75939687.56931,  -0.00186,  -0.00078,  -0.00118,476753840.52723,   0.00025,274916183.96525,  -0.00025,  -0.00011,  -0.00020,   0.00000,   2.00000
-511900303.13817,-364721123.77278,-75695118.15089,  -0.00188,  -0.00078,  -0.00119,476788019.54365,   0.00026,274922959.43077,  -0.00026,  -0.00011,  -0.00020,   0.00000,   2.00000
-512459605.67218,-363568238.08007,-75444173.00228,  -0.00189,  -0.00077,  -0.00119,476762291.50108,   0.00026,274929621.08600,  -0.00026,  -0.00012,  -0.00021,   0.00000,   2.00000
-513017489.99685,-362398694.05061,-75192258.68069,  -0.00190,  -0.00077,  -0.00119,476780845.55590,   0.00027,274936329.82621,  -0.00027,  -0.00012,  -0.00021,   0.00000,   2.00000
-513567218.80109,-361230651.17817,-74940558.72296,  -0.00191,  -0.00076,  -0.00119,476793072.47303,   0.00028,274943062.62071,  -0.00028,  -0.00012,  -0.00022,  -0.00000,   2.00000
-514112039.21110,-360054384.61623,-74688591.52258,  -0.00192,  -0.00076,  -0.00119,476770751.76433,   0.00028,274949694.12781,  -0.00028,  -0.00012,  -0.00022,   0.00000,   2.00000
-514658599.61983,-358863639.35157,-74429426.36282,  -0.00193,  -0.00075,  -0.00119,476786382.82112,   0.00029,274956362.47369,  -0.00029,  -0.00012,  -0.00022,   0.00000,   2.00000
-515196699.15980,-357662175.94311,-74176136.72861,  -0.00194,  -0.00075,  -0.00119,476767411.71327,   0.00029,274962941.97049,  -0.00030,  -0.00013,  -0.00023,   0.00000,   2.00000
-515726648.13519,-356462215.51300,-73923038.28127,  -0.00195,  -0.00074,  -0.00119,476779626.47524,   0.00030,274969546.24274,  -0.00030,  -0.00013,  -0.00023,  -0.00000,   2.00000
-516258511.84015,-355265240.39353,-73654312.27686,  -0.00197,  -0.00074,  -0.00119,476804553.24721,   0.00031,274976221.42178,  -0.00031,  -0.00013,  -0.00024,  -0.00000,   2.00000
-516781478.68001,-354039671.14326,-73399810.14576,  -0.00198,  -0.00073,  -0.00120,476776729.95417,   0.00031,274982775.55447,  -0.00032,  -0.00013,  -0.00024,   0.00000,   2.00000
-517299666.38518,-352817800.11709,-73139277.78024,  -0.00199,  -0.00073,  -0.00120,476785865.66297,   0.00032,274989343.55310,  -0.00032,  -0.00013,  -0.00025,   0.00000,   2.00000
-517815913.51720,-351584039.00889,-72874872.72401,  -0.00200,  -0.00072,  -0.00120,476783006.10648,   0.00032,274995881.73333,  -0.00033,  -0.00014,  -0.00025,   0.00000,   2.00000
-518326933.02440,-350349089.66182,-72607310.77002,  -0.00201,  -0.00072,  -0.00120,476814495.35824,   0.00033,275002515.49314,  -0.00034,  -0.00014,  -0.00025,  -0.00000,   2.00000
-518832906.37027,-349104867.63218,-72339241.43043,  -0.00202,  -0.00072,  -0.00120,476792713.20062,   0.00034,275009050.21661,  -0.00034,  -0.00014,  -0.00026,   0.00000,   2.00000
-519327800.96210,-347864923.53595,-72074775.42447,  -0.00203,  -0.00071,  -0.00120,476785849.01067,   0.00034,275015540.65577,  -0.00035,  -0.00014,  -0.00026,   0.00000,   2.00000
-519826115.92328,-346594273.71278,-71805065.77861,  -0.00204,  -0.00071,  -0.00120,476790636.37998,   0.00035,275022029.67380,  -0.00035,  -0.00014,  -0.00027,   0.00000,   2.00000
-520319467.73259,-345327270.64080,-71529335.37883,  -0.00206,  -0.00070,  -0.00120,476800011.59816,   0.00035,275028534.04358,  -0.00036,  -0.00014,  -0.00027,   0.00000,   2.00000
-520801228.32903,-344059886.93513,-71260110.76985,  -0.00207,  -0.00069,  -0.00120,476815517.46481,   0.00036,275035076.23445,  -0.00037,  -0.00014,  -0.00027,  -0.00000,   2.00000
-521281281.03499,-342784630.92319,-70983964.71527,  -0.00208,  -0.00069,  -0.00120,476790876.52996,   0.00037,275041509.09997,  -0.00037,  -0.00015,  -0.00028,   0.00000,   2.00000
-521758269.24890,-341492404.10678,-70706745.78199,  -0.00209,  -0.00068,  -0.00120,476810992.50780,   0.00037,275047997.11300,  -0.00038,  -0.00015,  -0.00028,   0.00000,   2.00000
-522226755.58494,-340188040.59920,-70435056.58559,  -0.00210,  -0.00068,  -0.00120,476792633.07374,   0.00038,275054399.06733,  -0.00039,  -0.00015,  -0.00029,  -0.00000,   2.00000
-522690277.39499,-338887301.74176,-70157319.57289,  -0.00211,  -0.00067,  -0.00120,476802076.69192,   0.00038,275060817.24447,  -0.00039,  -0.00015,  -0.00029,   0.00000,   2.00000
-523145585.70896,-337588265.32873,-69879835.26772,  -0.00212,  -0.00067,  -0.00120,476814528.39542,   0.00039,275067262.68150,  -0.00040,  -0.00015,  -0.00029,   0.00000,   2.00000
-523598293.56270,-336276454.05327,-69598263.21543,  -0.00213,  -0.00066,  -0.00120,476812598.07454,   0.00040,275073682.48791,  -0.00041,  -0.00015,  -0.00030,  -0.00000,   2.00000
-524045005.63819,-334949870.35842,-69318860.79698,  -0.00214,  -0.00066,  -0.00120,476813776.89318,   0.00040,275080088.27306,  -0.00041,  -0.00015,  -0.00030,  -0.00000,   2.00000
-524488880.69048,-333610341.62981,-69035310.40332,  -0.00216,  -0.00065,  -0.00120,476812093.12660,   0.00041,275086469.59220,  -0.00042,  -0.00016,  -0.00030,  -0.00000,   2.00000
-524927663.11850,-332274431.25422,-68745727.22695,  -0.00217,  -0.00065,  -0.00120,476821746.85431,   0.00041,275092868.28571,  -0.00043,  -0.00016,  -0.00031,   0.00000,   2.00000
-525354669.27661,-330923781.52600,-68467800.97860,  -0.00218,  -0.00064,  -0.00120,476806630.85524,   0.00042,275099193.03592,  -0.00043,  -0.00016,  -0.00031,  -0.00000,   2.00000
-525779884.25843,-329578574.76863,-68177514.83946,  -0.00219,  -0.00063,  -0.00120,476813299.96288,   0.00043,275105524.41587,  -0.00044,  -0.00016,  -0.00032,  -0.00000,   2.00000
-526198842.90251,-328218275.04036,-67889326.44745,  -0.00220,  -0.00063,  -0.00120,476814797.04801,   0.00043,275111843.39394,  -0.00045,  -0.00016,  -0.00032,   0.00000,   2.00000
-526609540.09020,-326859782.04714,-67601405.66978,  -0.00221,  -0.00062,  -0.00120,476827390.71978,   0.00044,275118191.06584,  -0.00045,  -0.00016,  -0.00032,  -0.00000,   2.00000
-527017095.02985,-325487909.90818,-67309238.25586,  -0.00222,  -0.00062,  -0.00120,476826140.42578,   0.00044,275124516.17098,  -0.00046,  -0.00016,  -0.00033,   0.00000,   2.00000
-527418191.14854,-324100803.22718,-67019116.79618,  -0.00223,  -0.00061,  -0.00120,476827910.62342,   0.00045,275130830.05363,  -0.00047,  -0.00016,  -0.00033,   0.00000,   2.00000
-527812037.58569,-322719055.48490,-66726108.15998,  -0.00224,  -0.00060,  -0.00120,476818108.28310,   0.00045,275137089.77593,  -0.00047,  -0.00017,  -0.00033,   0.00000,   2.00000
-528199377.86710,-321321930.83004,-66435106.89738,  -0.00226,  -0.00060,  -0.00120,476819933.96891,   0.00046,275143338.72785,  -0.00048,  -0.00017,  -0.00034,   0.00000,   2.00000
-528581604.33963,-319928390.42633,-66138045.15300,  -0.00227,  -0.00059,  -0.00120,476829737.22448,   0.00047,275149606.55742,  -0.00049,  -0.00017,  -0.00034,   0.00000,   2.00000
-528957210.39230,-318519383.36330,-65842974.38245,  -0.00228,  -0.00059,  -0.00120,476831730.90959,   0.00047,275155864.27087,  -0.00049,  -0.00017,  -0.00034,  -0.00000,   2.00000
-529329203.25857,-317096532.31792,-65543526.66669,  -0.00229,  -0.00058,  -0.00120,476831025.28907,   0.00048,275162101.90442,  -0.00050,  -0.00017,  -0.00035,   0.00000,   2.00000
-529690932.37150,-315677067.62419,-65247465.18653,  -0.00230,  -0.00057,  -0.00120,476824070.92577,   0.00048,275168296.20887,  -0.00050,  -0.00017,  -0.00035,   0.00000,   2.00000
-530046355.58089,-314258129.21101,-64948595.44301,  -0.00231,  -0.00057,  -0.00120,476856476.17440,   0.00049,275174594.11240,  -0.00051,  -0.00017,  -0.00035,   0.00000,   2.00000
-530397532.99711,-312808888.65824,-64650016.25313,  -0.00232,  -0.00056,  -0.00120,476825831.96455,   0.00049,275180760.12578,  -0.00052,  -0.00017,  -0.00036,   0.00000,   2.00000
-530742134.73403,-311380926.06754,-64343747.59532,  -0.00233,  -0.00055,  -0.00120,476846221.38034,   0.00050,275186985.14164,  -0.00052,  -0.00017,  -0.00036,   0.00000,   2.00000
-531079258.94774,-309920613.71394,-64044036.66298,  -0.00234,  -0.00055,  -0.00120,476818520.67008,   0.00051,275193089.30344,  -0.00053,  -0.00017,  -0.00036,  -0.00000,   2.00000
-531409859.27727,-308461078.98362,-63741551.54761,  -0.00235,  -0.00054,  -0.00120,476851100.27677,   0.00051,275199298.60083,  -0.00054,  -0.00017,  -0.00037,  -0.00000,   2.00000
-531733484.40546,-307006271.65872,-63436028.09561,  -0.00236,  -0.00053,  -0.00120,476841370.99455,   0.00052,275205454.19217,  -0.00054,  -0.00017,  -0.00037,   0.00000,   2.00000
-532050004.52449,-305535497.36731,-63132354.37677,  -0.00238,  -0.00053,  -0.00120,476843979.73966,   0.00052,275211602.56962,  -0.00055,  -0.00018,  -0.00037,  -0.00000,   2.00000
-532359624.48176,-304069295.47549,-62825603.72158,  -0.00239,  -0.00052,  -0.00119,476834202.21596,   0.00053,275217697.18993,  -0.00056,  -0.00018,  -0.00038,   0.00000,   2.00000
-532663706.72965,-302586058.08481,-62517681.04577,  -0.00240,  -0.00051,  -0.00119,476856786.38655,   0.00053,275223859.92301,  -0.00056,  -0.00018,  -0.00038,   0.00000,   2.00000
-532961786.66030,-301089078.03944,-62208150.59114,  -0.00241,  -0.00051,  -0.00119,476837123.73535,   0.00054,275229931.69505,  -0.00057,  -0.00018,  -0.00038,   0.00000,   2.00000
-533251595.36074,-299594160.64466,-61898918.14362,  -0.00242,  -0.00050,  -0.00119,476849975.56837,   0.00054,275236035.17060,  -0.00058,  -0.00018,  -0.00039,   0.00000,   2.00000
-533533967.59671,-298083013.92925,-61591451.09823,  -0.00243,  -0.00049,  -0.00119,476852985.33974,   0.00055,275242133.25728,  -0.00058,  -0.00018,  -0.00039,  -0.00000,   2.00000
-533809482.85465,-296576128.33899,-61280819.44744,  -0.00244,  -0.00049,  -0.00119,476843297.72307,   0.00056,275248177.99427,  -0.00059,  -0.00018,  -0.00039,  -0.00000,   2.00000
-534079754.89006,-295072781.81891,-60964100.88470,  -0.00245,  -0.00048,  -0.00119,476853480.72193,   0.00056,275254244.54206,  -0.00060,  -0.00018,  -0.00040,  -0.00000,   2.00000
-534340136.07090,-293533075.29911,-60656930.67153,  -0.00246,  -0.00047,  -0.00119,476849605.62743,   0.00057,275260279.87794,  -0.00060,  -0.00018,  -0.00040,   0.00000,   2.00000
-534597525.32686,-292016939.27451,-60335846.71048,  -0.00247,  -0.00047,  -0.00119,476866953.23924,   0.00057,275266364.27796,  -0.00061,  -0.00018,  -0.00040,   0.00000,   2.00000
-534843334.63533,-290464685.13489,-60027145.29807,  -0.00248,  -0.00046,  -0.00119,476843348.81901,   0.00058,275272342.60044,  -0.00061,  -0.00018,  -0.00041,   0.00000,   2.00000
-535083396.87595,-288934723.53248,-59710957.92347,  -0.00249,  -0.00045,  -0.00118,476863169.81167,   0.00058,275278379.71061,  -0.00062,  -0.00018,  -0.00041,   0.00000,   2.00000
-535318838.93764,-287370678.69919,-59391363.73782,  -0.00250,  -0.00044,  -0.00118,476854661.70618,   0.00059,275284368.02773,  -0.00063,  -0.00018,  -0.00041,   0.00000,   2.00000
-535544375.79889,-285827968.74034,-59073599.36352,  -0.00251,  -0.00044,  -0.00118,476856955.25195,   0.00059,275290348.61274,  -0.00063,  -0.00018,  -0.00041,  -0.00000,   2.00000
-535762205.72634,-284249575.30444,-58758777.05639,  -0.00252,  -0.00043,  -0.00118,476851228.11946,   0.00060,275296291.11441,  -0.00064,  -0.00018,  -0.00042,   0.00000,   2.00000
-535974504.26888,-282693741.94826,-58436536.32990,  -0.00253,  -0.00042,  -0.00118,476870915.75901,   0.00061,275302292.33305,  -0.00065,  -0.00018,  -0.00042,   0.00000,   2.00000
-536177460.72931,-281121138.93221,-58118709.71979,  -0.00254,  -0.00042,  -0.00118,476854559.03993,   0.00061,275308214.71667,  -0.00065,  -0.00018,  -0.00042,   0.00000,   2.00000
-536372301.61276,-279531648.82613,-57802458.38791,  -0.00255,  -0.00041,  -0.00118,476858355.42208,   0.00062,275314135.45718,  -0.00066,  -0.00018,  -0.00043,   0.00000,   2.00000
-536561761.52363,-277945701.07353,-57480074.41277,  -0.00257,  -0.00040,  -0.00118,476868846.60915,   0.00062,275320080.11671,  -0.00067,  -0.00018,  -0.00043,  -0.00000,   2.00000
-536742950.16668,-276342800.72477,-57159254.30522,  -0.00258,  -0.00039,  -0.00117,476872854.84553,   0.00063,275326023.90979,  -0.00067,  -0.00018,  -0.00043,  -0.00000,   2.00000
-536917459.91550,-274743217.09210,-56835040.27149,  -0.00259,  -0.00039,  -0.00117,476863302.25236,   0.00063,275331914.83227,  -0.00068,  -0.00018,  -0.00043,  -0.00000,   2.00000
-537083569.52820,-273126551.49504,-56512354.94719,  -0.00260,  -0.00038,  -0.00117,476867428.79111,   0.00064,275337805.52768,  -0.00068,  -0.00018,  -0.00044,   0.00000,   2.00000
-537240318.43981,-271511862.33605,-56192693.46354,  -0.00261,  -0.00037,  -0.00117,476860286.94378,   0.00064,275343652.69871,  -0.00069,  -0.00018,  -0.00044,  -0.00000,   2.00000
-537391251.11986,-269881142.77708,-55868045.51679,  -0.00262,  -0.00036,  -0.00117,476862117.47122,   0.00065,275349490.97038,  -0.00070,  -0.00018,  -0.00044,   0.00000,   2.00000
-537534050.20110,-268252804.78204,-55543723.93938,  -0.00263,  -0.00036,  -0.00117,476875152.70863,   0.00065,275355363.46390,  -0.00070,  -0.00018,  -0.00044,  -0.00000,   2.00000
-537671445.46113,-266628032.35314,-55213274.35941,  -0.00264,  -0.00035,  -0.00116,476885800.50861,   0.00066,275361260.87583,  -0.00071,  -0.00018,  -0.00045,  -0.00000,   2.00000
-537798986.24006,-264985299.99644,-54886941.77292,  -0.00265,  -0.00034,  -0.00116,476870095.62769,   0.00067,275367081.56959,  -0.00072,  -0.00018,  -0.00045,   0.00000,   2.00000
-537916570.24309,-263324436.82920,-54564658.87915,  -0.00266,  -0.00033,  -0.00116,476854442.18766,   0.00067,275372825.94711,  -0.00072,  -0.00018,  -0.00045,   0.00000,   2.00000
-538029808.96077,-261667899.64028,-54233596.39273,  -0.00267,  -0.00032,  -0.00116,476885376.42942,   0.00068,275378674.22820,  -0.00073,  -0.00018,  -0.00045,   0.00000,   2.00000
-538133844.37837,-260012970.64716,-53905481.53398,  -0.00268,  -0.00032,  -0.00116,476878236.11705,   0.00068,275384478.82302,  -0.00074,  -0.00018,  -0.00046,   0.00000,   2.00000
-538227813.29544,-258339566.37691,-53581336.05653,  -0.00269,  -0.00031,  -0.00116,476862740.37333,   0.00069,275390207.49556,  -0.00074,  -0.00018,  -0.00046,   0.00000,   2.00000
-538316321.62762,-256669670.33216,-53251014.84768,  -0.00270,  -0.00030,  -0.00115,476873463.61360,   0.00069,275395962.05631,  -0.00075,  -0.00018,  -0.00046,   0.00000,   2.00000
-538395735.04173,-254982164.85999,-52922060.58077,  -0.00271,  -0.00029,  -0.00115,476878373.60625,   0.00070,275401719.94202,  -0.00075,  -0.00018,  -0.00046,   0.00000,   2.00000
-538466009.56842,-253296002.12476,-52595968.64933,  -0.00272,  -0.00028,  -0.00115,476871193.28583,   0.00070,275407434.10643,  -0.00076,  -0.00018,  -0.00047,   0.00000,   2.00000
-538529573.35444,-251593119.23966,-52264688.95939,  -0.00273,  -0.00028,  -0.00115,476873983.48259,   0.00071,275413143.48582,  -0.00077,  -0.00018,  -0.00047,   0.00000,   2.00000
-538585092.56899,-249892796.60822,-51933748.32969,  -0.00274,  -0.00027,  -0.00115,476887108.10116,   0.00071,275418888.33678,  -0.00077,  -0.00018,  -0.00047,  -0.00000,   2.00000
-538634034.38770,-248194609.15950,-51599122.88190,  -0.00275,  -0.00026,  -0.00114,476877686.51416,   0.00072,275424580.57855,  -0.00078,  -0.00018,  -0.00047,   0.00000,   2.00000
-538671107.31022,-246477642.41627,-51272317.63569,  -0.00276,  -0.00025,  -0.00114,476885148.31527,   0.00072,275430286.33178,  -0.00079,  -0.00018,  -0.00048,   0.00000,   2.00000
-538701604.76666,-244762656.86639,-50941768.96302,  -0.00277,  -0.00024,  -0.00114,476875738.13708,   0.00073,275435939.54269,  -0.00079,  -0.00018,  -0.00048,  -0.00000,   2.00000
-538724979.09073,-243030649.96535,-50605952.26144,  -0.00277,  -0.00023,  -0.00114,476878958.13372,   0.00073,275441589.79917,  -0.00080,  -0.00018,  -0.00048,   0.00000,   2.00000
-538740362.02615,-241301279.85970,-50270487.64335,  -0.00278,  -0.00023,  -0.00114,476892107.38452,   0.00074,275447275.99673,  -0.00080,  -0.00018,  -0.00048,   0.00000,   2.00000
-538744943.17132,-239552111.17959,-49938663.11001,  -0.00279,  -0.00022,  -0.00113,476877396.72640,   0.00074,275452888.79015,  -0.00081,  -0.00018,  -0.00048,  -0.00000,   2.00000
-538740478.52067,-237803700.88668,-49609546.56804,  -0.00280,  -0.00021,  -0.00113,476870194.26886,   0.00075,275458457.77992,  -0.00082,  -0.00018,  -0.00049,   0.00000,   2.00000
-538730485.92331,-236058799.65058,-49274217.32378,  -0.00281,  -0.00020,  -0.00113,476881134.12111,   0.00075,275464054.36376,  -0.00082,  -0.00018,  -0.00049,  -0.00000,   2.00000
-538710594.65428,-234295754.49703,-48940084.91249,  -0.00282,  -0.00019,  -0.00113,476886909.09771,   0.00076,275469658.20308,  -0.00083,  -0.00018,  -0.00049,   0.00000,   2.00000
-538681713.64689,-232533300.88474,-48608625.35576,  -0.00283,  -0.00018,  -0.00113,476879707.21201,   0.00076,275475218.08636,  -0.00083,  -0.00018,  -0.00049,   0.00000,   2.00000
-538645093.34481,-230753429.80491,-48271768.15937,  -0.00284,  -0.00018,  -0.00112,476883557.62108,   0.00077,275480777.75864,  -0.00084,  -0.00018,  -0.00050,   0.00000,   2.00000
-538600536.02714,-228976309.66305,-47935259.54286,  -0.00285,  -0.00017,  -0.00112,476896759.65868,   0.00078,275486374.14328,  -0.00085,  -0.00018,  -0.00050,   0.00000,   2.00000
-538547035.50213,-227199612.32313,-47601388.29892,  -0.00286,  -0.00016,  -0.00112,476889565.55822,   0.00078,275491926.43830,  -0.00085,  -0.00018,  -0.00050,   0.00000,   2.00000
-538484460.17530,-225402889.05968,-47264338.55348,  -0.00287,  -0.00015,  -0.00112,476873303.86788,   0.00079,275497398.84270,  -0.00086,  -0.00017,  -0.00050,   0.00000,   2.00000
-538413996.45693,-223608916.43710,-46927628.17931,  -0.00288,  -0.00014,  -0.00111,476886449.96720,   0.00079,275502908.09647,  -0.00086,  -0.00017,  -0.00050,  -0.00000,   2.00000
-538333103.05302,-221796525.24330,-46592014.72812,  -0.00289,  -0.00013,  -0.00111,476892786.50521,   0.00080,275508427.14022,  -0.00087,  -0.00017,  -0.00051,   0.00000,   2.00000
-538243218.02920,-219984275.32713,-46258953.74588,  -0.00290,  -0.00012,  -0.00111,476885635.14160,   0.00080,275513902.30227,  -0.00088,  -0.00017,  -0.00051,   0.00000,   2.00000
-538146595.36539,-218172784.91359,-45921846.83628,  -0.00291,  -0.00012,  -0.00111,476876419.00440,   0.00081,275519325.39934,  -0.00088,  -0.00017,  -0.00051,   0.00000,   2.00000
-538039333.42006,-216342714.85240,-45585787.73999,  -0.00291,  -0.00011,  -0.00110,476882922.13987,   0.00081,275524759.20710,  -0.00089,  -0.00017,  -0.00051,   0.00000,   2.00000
-537924233.55664,-214515506.61038,-45250067.66335,  -0.00292,  -0.00010,  -0.00110,476896123.89776,   0.00082,275530230.39027,  -0.00089,  -0.00017,  -0.00051,   0.00000,   2.00000
-537799319.81048,-212667347.10443,-44910931.65050,  -0.00293,  -0.00009,  -0.00110,476880540.06697,   0.00082,275535623.94371,  -0.00090,  -0.00017,  -0.00052,   0.00000,   2.00000
-537665360.50226,-210818929.49533,-44574254.36616,  -0.00294,  -0.00008,  -0.00110,476873384.64081,   0.00083,275540973.67806,  -0.00091,  -0.00017,  -0.00052,  -0.00000,   2.00000
-537524770.26966,-208976596.59785,-44235806.19203,  -0.00295,  -0.00007,  -0.00109,476906957.07445,   0.00083,275546442.68405,  -0.00091,  -0.00017,  -0.00052,   0.00000,   2.00000
-537374087.52436,-207130660.20396,-43901898.05547,  -0.00296,  -0.00006,  -0.00109,476879373.48213,   0.00084,275551785.58424,  -0.00092,  -0.00017,  -0.00052,   0.00000,   2.00000
-537214434.39106,-205266556.82856,-43562356.33288,  -0.00297,  -0.00005,  -0.00109,476884422.42029,   0.00084,275557133.59398,  -0.00092,  -0.00017,  -0.00052,   0.00000,   2.00000
-537043545.58624,-203383645.82231,-43223773.48579,  -0.00298,  -0.00004,  -0.00109,476891555.42619,   0.00085,275562495.11521,  -0.00093,  -0.00017,  -0.00052,  -0.00000,   2.00000
-536867124.17039,-201521975.92671,-42886965.66405,  -0.00299,  -0.00003,  -0.00108,476890484.13757,   0.00085,275567837.00655,  -0.00094,  -0.00016,  -0.00053,   0.00000,   2.00000
-536678194.41524,-199637804.73142,-42553113.89725,  -0.00299,  -0.00003,  -0.00108,476877265.88109,   0.00086,275573110.43158,  -0.00094,  -0.00016,  -0.00053,   0.00000,   2.00000
-536479822.78401,-197735275.95723,-42213553.02953,  -0.00300,  -0.00002,  -0.00108,476882762.68323,   0.00086,275578391.00057,  -0.00095,  -0.00016,  -0.00053,   0.00000,   2.00000
-536273617.90303,-195835752.50198,-41874326.67194,  -0.00301,  -0.00001,  -0.00108,476896074.38833,   0.00086,275583710.20306,  -0.00095,  -0.00016,  -0.00053,   0.00000,   2.00000
-536058360.00226,-193935395.25016,-41537413.43410,  -0.00302,   0.00000,  -0.00107,476888976.40904,   0.00087,275588985.44788,  -0.00096,  -0.00016,  -0.00053,   0.00000,   2.00000
-535834089.85677,-192034103.40155,-41202787.27058,  -0.00303,   0.00001,  -0.00107,476881801.57747,   0.00087,275594216.47118,  -0.00096,  -0.00016,  -0.00053,   0.00000,   2.00000
-535600051.53146,-190114288.06030,-40862400.66728,  -0.00304,   0.00002,  -0.00107,476887632.09974,   0.00088,275599456.06371,  -0.00097,  -0.00016,  -0.00054,  -0.00000,   2.00000
-535356903.35556,-188193388.17787,-40524268.24867,  -0.00304,   0.00003,  -0.00106,476880531.76525,   0.00088,275604651.73155,  -0.00098,  -0.00016,  -0.00054,   0.00000,   2.00000
-535106067.30314,-186275552.43555,-40186470.63727,  -0.00305,   0.00004,  -0.00106,476893748.58971,   0.00089,275609886.00757,  -0.00098,  -0.00016,  -0.00054,  -0.00000,   2.00000
-534841890.86200,-184334282.05038,-39851390.80068,  -0.00306,   0.00005,  -0.00106,476881235.38833,   0.00089,275615054.26511,  -0.00099,  -0.00016,  -0.00054,   0.00000,   2.00000
-534570005.08539,-182396118.73873,-39516632.85484,  -0.00307,   0.00006,  -0.00106,476894504.79542,   0.00090,275620261.51414,  -0.00099,  -0.00015,  -0.00054,   0.00000,   2.00000
-534290877.31118,-180457081.46769,-39177419.21066,  -0.00308,   0.00007,  -0.00105,476885706.56516,   0.00090,275625417.72220,  -0.00100,  -0.00015,  -0.00054,   0.00000,   2.00000
-533998064.68333,-178494226.61612,-38840831.19993,  -0.00309,   0.00008,  -0.00105,476873434.93944,   0.00091,275630508.85701,  -0.00100,  -0.00015,  -0.00054,  -0.00000,   2.00000
-533697530.09006,-176534492.41608,-38504559.66886,  -0.00309,   0.00009,  -0.00105,476886710.86316,   0.00091,275635639.33388,  -0.00101,  -0.00015,  -0.00055,   0.00000,   2.00000
-533391145.59836,-174578378.16584,-38161977.64021,  -0.00310,   0.00010,  -0.00104,476898341.88034,   0.00092,275640802.29875,  -0.00102,  -0.00015,  -0.00055,  -0.00000,   2.00000
-533068982.21585,-172597724.80789,-37828599.13039,  -0.00311,   0.00011,  -0.00104,476888013.94446,   0.00092,275645907.84521,  -0.00102,  -0.00015,  -0.00055,   0.00000,   2.00000
-532739316.12283,-170615761.81194,-37490646.62310,  -0.00312,   0.00011,  -0.00104,476879384.90205,   0.00093,275650963.00425,  -0.00103,  -0.00015,  -0.00055,   0.00000,   2.00000
-532400373.63111,-168631956.65889,-37154757.20729,  -0.00313,   0.00012,  -0.00103,476872325.53571,   0.00093,275655974.27890,  -0.00103,  -0.00015,  -0.00055,   0.00000,   2.00000
-532050343.71092,-166633868.61699,-36817861.28018,  -0.00313,   0.00013,  -0.00103,476901232.29635,   0.00094,275661089.50529,  -0.00104,  -0.00015,  -0.00055,  -0.00000,   2.00000
-531691007.46456,-164629047.98374,-36478051.39865,  -0.00314,   0.00014,  -0.00103,476872419.38225,   0.00094,275666071.08331,  -0.00104,  -0.00014,  -0.00055,  -0.00000,   2.00000
-531322303.60046,-162627077.85810,-36145222.59803,  -0.00315,   0.00015,  -0.00103,476887281.28946,   0.00095,275671099.04909,  -0.00105,  -0.00014,  -0.00056,   0.00000,   2.00000
-530945960.99234,-160623369.61750,-35807722.21431,  -0.00316,   0.00016,  -0.00102,476878711.06064,   0.00095,275676076.68717,  -0.00105,  -0.00014,  -0.00056,   0.00000,   2.00000
-530556577.65529,-158600176.99387,-35470904.32102,  -0.00316,   0.00017,  -0.00102,476887613.32678,   0.00095,275681076.22065,  -0.00106,  -0.00014,  -0.00056,   0.00000,   2.00000
-530157749.48326,-156574742.69081,-35136045.42291,  -0.00317,   0.00018,  -0.00102,476880694.27655,   0.00096,275686032.20912,  -0.00106,  -0.00014,  -0.00056,   0.00000,   2.00000
-529751324.55512,-154552633.71320,-34801505.96981,  -0.00318,   0.00019,  -0.00101,476894010.78993,   0.00096,275691028.38485,  -0.00107,  -0.00014,  -0.00056,   0.00000,   2.00000
-529331353.69323,-152505610.84655,-34462550.49744,  -0.00319,   0.00020,  -0.00101,476881460.27341,   0.00097,275695957.59007,  -0.00108,  -0.00014,  -0.00056,   0.00000,   2.00000
-528901793.69407,-150456103.04147,-34125498.82899,  -0.00319,   0.00021,  -0.00101,476874609.45260,   0.00097,275700843.55124,  -0.00108,  -0.00013,  -0.00056,   0.00000,   2.00000
-528463034.54096,-148409644.80549,-33795439.61685,  -0.00320,   0.00022,  -0.00100,476889419.50408,   0.00098,275705776.20538,  -0.00109,  -0.00013,  -0.00056,   0.00000,   2.00000
-528017858.29255,-146361174.78152,-33453885.99118,  -0.00321,   0.00023,  -0.00100,476879629.86222,   0.00098,275710653.21021,  -0.00109,  -0.00013,  -0.00057,   0.00000,   2.00000
-527555457.92505,-144286685.78689,-33121164.43527,  -0.00322,   0.00024,  -0.00100,476870347.07592,   0.00099,275715476.82383,  -0.00110,  -0.00013,  -0.00057,  -0.00000,   2.00000
-527085408.40442,-142215594.86352,-32788743.24420,  -0.00322,   0.00025,  -0.00099,476883735.32365,   0.00099,275720341.50930,  -0.00110,  -0.00013,  -0.00057,   0.00000,   2.00000
-526607180.36204,-140141930.46984,-32451444.86310,  -0.00323,   0.00026,  -0.00099,476875511.49446,   0.00100,275725157.05033,  -0.00111,  -0.00013,  -0.00057,  -0.00000,   2.00000
-526113521.38309,-138048347.93956,-32121415.25600,  -0.00324,   0.00027,  -0.00099,476886697.37266,   0.00100,275730004.57140,  -0.00111,  -0.00013,  -0.00057,   0.00000,   2.00000
-525617998.57563,-135975182.67519,-31786210.85042,  -0.00324,   0.00028,  -0.00098,476882083.84372,   0.00100,275734817.89459,  -0.00112,  -0.00013,  -0.00057,  -0.00000,   2.00000
-525106220.65996,-133875771.98126,-31453018.56207,  -0.00325,   0.00029,  -0.00098,476871815.69758,   0.00101,275739573.47098,  -0.00112,  -0.00012,  -0.00057,   0.00000,   2.00000
-524586852.39012,-131779849.46790,-31120132.97680,  -0.00326,   0.00030,  -0.00098,476885209.66694,   0.00101,275744370.45017,  -0.00113,  -0.00012,  -0.00057,   0.00000,   2.00000
-524050910.36569,-129657504.98901,-30789200.93043,  -0.00326,   0.00031,  -0.00097,476875226.90989,   0.00102,275749110.78388,  -0.00113,  -0.00012,  -0.00057,  -0.00000,   2.00000
-523506351.85876,-127532079.51687,-30453259.79917,  -0.00327,   0.00032,  -0.00097,476867276.38370,   0.00102,275753803.08171,  -0.00114,  -0.00012,  -0.00058,   0.00000,   2.00000
-522952768.95784,-125409977.42032,-30124325.75891,  -0.00328,   0.00033,  -0.00097,476882037.25009,   0.00103,275758542.81098,  -0.00114,  -0.00012,  -0.00058,   0.00000,   2.00000
-522390555.02819,-123284650.82198,-29790351.98104,  -0.00328,   0.00034,  -0.00096,476874092.98972,   0.00103,275763234.34569,  -0.00115,  -0.00012,  -0.00058,  -0.00000,   2.00000
-521820797.58499,-121162911.21178,-29456692.44876,  -0.00329,   0.00035,  -0.00096,476887511.04451,   0.00104,275767967.67895,  -0.00115,  -0.00011,  -0.00058,   0.00000,   2.00000
-521233825.26668,-119014258.76397,-29124868.49347,  -0.00330,   0.00036,  -0.00096,476878035.66216,   0.00104,275772646.25946,  -0.00116,  -0.00011,  -0.00058,   0.00000,   2.00000
-520636655.45164,-116861956.13201,-28794657.01050,  -0.00330,   0.00037,  -0.00095,476871500.66990,   0.00104,275777282.57854,  -0.00116,  -0.00011,  -0.00058,   0.00000,   2.00000
-520029258.50069,-114705901.03527,-28466034.19282,  -0.00331,   0.00038,  -0.00095,476864936.89818,   0.00105,275781876.57378,  -0.00117,  -0.00011,  -0.00058,   0.00000,   2.00000
-519415571.16930,-112553645.60348,-28130993.38152,  -0.00332,   0.00039,  -0.00095,476877167.03944,   0.00105,275786507.75252,  -0.00117,  -0.00011,  -0.00058,   0.00000,   2.00000
-518785548.60067,-110381485.69782,-27803145.83566,  -0.00332,   0.00040,  -0.00094,476889337.95306,   0.00106,275791175.79431,  -0.00118,  -0.00011,  -0.00058,   0.00000,   2.00000
-518151277.19161,-108221382.80478,-27471217.29747,  -0.00333,   0.00041,  -0.00094,476864166.70612,   0.00106,275795722.31279,  -0.00118,  -0.00011,  -0.00058,  -0.00000,   2.00000
-517501772.65791,-106041467.06647,-27139739.79526,  -0.00334,   0.00042,  -0.00094,476875226.50573,   0.00107,275800301.26935,  -0.00119,  -0.00010,  -0.00058,   0.00000,   2.00000
-516832758.71860,-103833814.76292,-26816631.82260,  -0.00334,   0.00043,  -0.00093,476867724.47704,   0.00107,275804833.80019,  -0.00119,  -0.00010,  -0.00059,  -0.00000,   2.00000
-516165206.13764,-101653601.76838,-26486953.01926,  -0.00335,   0.00044,  -0.00093,476882373.73304,   0.00107,275809414.06084,  -0.00120,  -0.00010,  -0.00059,   0.00000,   2.00000
-515479157.23200,-99445624.47337,-26158884.89957,  -0.00335,   0.00045,  -0.00093,476873887.67713,   0.00108,275813943.52324,  -0.00120,  -0.00010,  -0.00059,  -0.00000,   2.00000
-514791713.92000,-97257031.83535,-25825430.35715,  -0.00336,   0.00046,  -0.00092,476868483.75229,   0.00108,275818435.34295,  -0.00121,  -0.00010,  -0.00059,  -0.00000,   2.00000
-514087461.16021,-95048545.16949,-25499131.56980,  -0.00337,   0.00047,  -0.00092,476881129.05575,   0.00109,275822966.57505,  -0.00121,  -0.00010,  -0.00059,  -0.00000,   2.00000
-513364219.46018,-92812043.36838,-25174364.60696,  -0.00337,   0.00049,  -0.00092,476873046.77644,   0.00109,275827448.67856,  -0.00122,  -0.00009,  -0.00059,  -0.00000,   2.00000
-512639584.12224,-90594763.46481,-24844166.20474,  -0.00338,   0.00050,  -0.00091,476867588.59512,   0.00109,275831892.89206,  -0.00122,  -0.00009,  -0.00059,   0.00000,   2.00000
-511894558.64306,-88349142.20510,-24522187.92268,  -0.00338,   0.00051,  -0.00091,476860726.65849,   0.00110,275836293.32232,  -0.00123,  -0.00009,  -0.00059,   0.00000,   2.00000
-511151548.66817,-86131153.99715,-24193671.58675,  -0.00339,   0.00052,  -0.00091,476874900.24332,   0.00110,275840740.03291,  -0.00123,  -0.00009,  -0.00059,  -0.00000,   2.00000
-510389030.35698,-83884766.83847,-23866606.78627,  -0.00339,   0.00053,  -0.00090,476867169.57582,   0.00111,275845139.05929,  -0.00124,  -0.00009,  -0.00059,   0.00000,   2.00000
-509618939.32594,-81642340.64635,-23539844.35210,  -0.00340,   0.00054,  -0.00090,476880821.20421,   0.00111,275849582.19798,  -0.00124,  -0.00009,  -0.00059,   0.00000,   2.00000
-508828970.39080,-79371401.25800,-23214487.81109,  -0.00341,   0.00055,  -0.00090,476873447.37251,   0.00111,275853979.07240,  -0.00124,  -0.00008,  -0.00059,   0.00000,   2.00000
-508036700.01647,-77119264.04048,-22890375.48997,  -0.00341,   0.00056,  -0.00089,476868750.69762,   0.00112,275858341.22053,  -0.00125,  -0.00008,  -0.00059,   0.00000,   2.00000
-507224253.11935,-74838400.00420,-22567614.63698,  -0.00342,   0.00057,  -0.00089,476861540.76840,   0.00112,275862657.92989,  -0.00125,  -0.00008,  -0.00060,  -0.00000,   2.00000
-506413298.15093,-72585302.88945,-22245092.12057,  -0.00342,   0.00058,  -0.00088,476876323.94975,   0.00113,275867023.94313,  -0.00126,  -0.00008,  -0.00060,  -0.00000,   2.00000
-505581950.45589,-70303345.00370,-21923887.42614,  -0.00343,   0.00059,  -0.00088,476869312.10041,   0.00113,275871345.19171,  -0.00126,  -0.00008,  -0.00060,   0.00000,   2.00000
-504730835.34905,-67992499.39999,-21597218.80554,  -0.00343,   0.00060,  -0.00088,476861634.18717,   0.00113,275875618.92536,  -0.00127,  -0.00007,  -0.00060,  -0.00000,   2.00000
-503880457.87258,-65709505.59848,-21277558.72608,  -0.00344,   0.00061,  -0.00087,476877223.79201,   0.00114,275879945.67996,  -0.00127,  -0.00007,  -0.00060,   0.00000,   2.00000
-503018636.18530,-63421206.07090,-20959116.33366,  -0.00344,   0.00062,  -0.00087,476871371.53028,   0.00114,275884232.58042,  -0.00128,  -0.00007,  -0.00060,   0.00000,   2.00000
-502136620.04582,-61103781.47175,-20635148.26312,  -0.00345,   0.00063,  -0.00087,476864034.27952,   0.00115,275888473.31330,  -0.00128,  -0.00007,  -0.00060,   0.00000,   2.00000
-501246960.02678,-58790574.51421,-20311482.66819,  -0.00345,   0.00064,  -0.00086,476877896.22552,   0.00115,275892759.78824,  -0.00129,  -0.00007,  -0.00060,  -0.00000,   2.00000
-500354441.42723,-56495641.77127,-19995729.84033,  -0.00346,   0.00065,  -0.00086,476873574.39272,   0.00115,275897012.96510,  -0.00129,  -0.00007,  -0.00060,   0.00000,   2.00000
-499441292.57808,-54171358.59683,-19674391.53774,  -0.00346,   0.00066,  -0.00086,476866589.17474,   0.00116,275901221.38225,  -0.00129,  -0.00006,  -0.00060,   0.00000,   2.00000
-498506312.22357,-51817654.24586,-19354202.62404,  -0.00347,   0.00067,  -0.00085,476860749.89964,   0.00116,275905390.14571,  -0.00130,  -0.00006,  -0.00060,   0.00000,   2.00000
-497573631.95554,-49492059.40992,-19034301.50483,  -0.00347,   0.00068,  -0.00085,476874910.12974,   0.00117,275909606.23824,  -0.00130,  -0.00006,  -0.00060,  -0.00000,   2.00000
-496628998.74598,-47160712.37996,-18715517.26964,  -0.00348,   0.00070,  -0.00085,476869371.22715,   0.00117,275913783.76574,  -0.00131,  -0.00006,  -0.00060,   0.00000,   2.00000
-495662134.33865,-44799750.81784,-18397829.77029,  -0.00348,   0.00071,  -0.00084,476863861.63439,   0.00117,275917922.96892,  -0.00131,  -0.00006,  -0.00060,   0.00000,   2.00000
-494697916.05797,-42466981.09559,-18080446.79880,  -0.00348,   0.00072,  -0.00084,476877736.86923,   0.00118,275922108.39122,  -0.00132,  -0.00005,  -0.00060,  -0.00000,   2.00000
-493711229.74512,-40104497.69966,-17764132.65083,  -0.00349,   0.00073,  -0.00083,476872458.57840,   0.00118,275926256.32663,  -0.00132,  -0.00005,  -0.00060,  -0.00000,   2.00000
-492712211.39789,-37736037.98629,-17448868.49827,  -0.00349,   0.00074,  -0.00083,476867191.92266,   0.00119,275930366.89572,  -0.00132,  -0.00005,  -0.00060,  -0.00000,   2.00000
-491701500.77012,-35361505.83270,-17127871.12956,  -0.00350,   0.00075,  -0.00083,476861213.44222,   0.00119,275934437.05537,  -0.00133,  -0.00005,  -0.00060,   0.00000,   2.00000
-490682476.49099,-32991494.46989,-16813954.22954,  -0.00350,   0.00076,  -0.00082,476875916.98188,   0.00119,275938557.38274,  -0.00133,  -0.00005,  -0.00060,  -0.00000,   2.00000
-489650968.64586,-30615330.39898,-16501048.38088,  -0.00351,   0.00077,  -0.00082,476870736.74769,   0.00120,275942640.61859,  -0.00134,  -0.00005,  -0.00061,  -0.00000,   2.00000
-488601835.55103,-28219974.23815,-16181665.93097,  -0.00351,   0.00078,  -0.00082,476884641.21656,   0.00120,275946770.52668,  -0.00134,  -0.00004,  -0.00061,   0.00000,   2.00000
-487545041.03197,-25831292.12080,-15870739.49943,  -0.00351,   0.00079,  -0.00081,476860609.53454,   0.00120,275950780.46719,  -0.00135,  -0.00004,  -0.00061,   0.00000,   2.00000
-486470393.88169,-23423442.25657,-15553321.90329,  -0.00352,   0.00080,  -0.00081,476874715.49904,   0.00121,275954838.25319,  -0.00135,  -0.00004,  -0.00061,   0.00000,   2.00000
-485393264.98901,-21033010.46076,-15243666.65688,  -0.00352,   0.00081,  -0.00081,476869617.85652,   0.00121,275958859.27785,  -0.00135,  -0.00004,  -0.00061,   0.00000,   2.00000
-484298164.31703,-18623506.56418,-14927524.07052,  -0.00353,   0.00082,  -0.00080,476883937.89982,   0.00122,275962929.06070,  -0.00136,  -0.00004,  -0.00061,  -0.00000,   2.00000
-483183984.92572,-16196353.86533,-14619703.01366,  -0.00353,   0.00083,  -0.00080,476860860.70815,   0.00122,275966882.79116,  -0.00136,  -0.00003,  -0.00061,   0.00000,   2.00000
-482062780.57648,-13773931.25852,-14305413.99984,  -0.00353,   0.00085,  -0.00079,476874397.36708,   0.00122,275970882.09953,  -0.00137,  -0.00003,  -0.00061,   0.00000,   2.00000
-480934028.63168,-11356350.68911,-13991456.42305,  -0.00354,   0.00086,  -0.00079,476888579.81729,   0.00123,275974929.66323,  -0.00137,  -0.00003,  -0.00061,   0.00000,   2.00000
-479785819.93008,-8920718.52945,-13685744.53040,  -0.00354,   0.00087,  -0.00079,476865691.10538,   0.00123,275978861.69566,  -0.00137,  -0.00003,  -0.00061,   0.00000,   2.00000
-478630608.44715,-6489914.75439,-13373570.48335,  -0.00354,   0.00088,  -0.00078,476879286.06776,   0.00123,275982839.65996,  -0.00138,  -0.00003,  -0.00061,   0.00000,   2.00000
-477462026.62366,-4052384.45506,-13062270.47795,  -0.00355,   0.00089,  -0.00078,476874728.78060,   0.00124,275986783.13888,  -0.00138,  -0.00002,  -0.00061,   0.00000,   2.00000
-476285425.80937,-1619861.78482,-12758084.73758,  -0.00355,   0.00090,  -0.00078,476889484.79239,   0.00124,275990777.65141,  -0.00139,  -0.00002,  -0.00061,   0.00000,   2.00000
-475089843.92663,831348.14404,-12448472.51205,  -0.00355,   0.00091,  -0.00077,476865778.97559,   0.00125,275994652.70696,  -0.00139,  -0.00002,  -0.00061,   0.00000,   2.00000
-473874810.17578,3301173.27948,-12139144.24224,  -0.00356,   0.00092,  -0.00077,476881833.59039,   0.00125,275998584.86567,  -0.00139,  -0.00002,  -0.00061,   0.00000,   2.00000
-472664190.32135,5742266.02051,-11830207.69810,  -0.00356,   0.00093,  -0.00076,476894347.01188,   0.00125,276002558.17897,  -0.00140,  -0.00002,  -0.00061,   0.00000,   2.00000
-471433602.79136,8202381.73924,-11522560.60145,  -0.00356,   0.00094,  -0.00076,476871464.35959,   0.00126,276006415.38774,  -0.00140,  -0.00001,  -0.00061,  -0.00000,   2.00000
-470183377.61882,10680943.02618,-11215203.98346,  -0.00357,   0.00095,  -0.00076,476887831.18855,   0.00126,276010331.19287,  -0.00141,  -0.00001,  -0.00061,  -0.00000,   2.00000
-468919139.08675,13166495.94039,-10908637.49274,  -0.00357,   0.00096,  -0.00075,476883817.47548,   0.00126,276014214.78167,  -0.00141,  -0.00001,  -0.00061,   0.00000,   2.00000
-467653103.77604,15635582.35032,-10602898.46430,  -0.00357,   0.00098,  -0.00075,476877572.35194,   0.00127,276018056.26446,  -0.00141,  -0.00001,  -0.00061,   0.00000,   2.00000
-466367247.25573,18122931.14252,-10297457.98818,  -0.00358,   0.00099,  -0.00075,476894260.50826,   0.00127,276021957.87409,  -0.00142,  -0.00001,  -0.00061,   0.00000,   2.00000
-465079657.10277,20593916.11231,-9992831.28385,  -0.00358,   0.00100,  -0.00074,476887941.32634,   0.00127,276025816.84903,  -0.00142,  -0.00000,  -0.00061,   0.00000,   2.00000
-463765318.10681,23095586.40668,-9688898.55842,  -0.00358,   0.00101,  -0.00074,476886528.79952,   0.00128,276029655.20308,  -0.00143,  -0.00000,  -0.00061,  -0.00000,   2.00000
-462436537.01940,25604473.07517,-9385697.02602,  -0.00358,   0.00102,  -0.00073,476882811.81981,   0.00128,276033462.68832,  -0.00143,   0.00000,  -0.00061,   0.00000,   2.00000
-461100231.06274,28107899.98998,-9082854.50124,  -0.00359,   0.00103,  -0.00073,476897389.66531,   0.00128,276037321.06390,  -0.00143,   0.00000,  -0.00061,   0.00000,   2.00000
-459762182.10742,30595220.27950,-8780783.61635,  -0.00359,   0.00104,  -0.00073,476890945.14499,   0.00129,276041136.16435,  -0.00144,   0.00000,  -0.00061,   0.00000,   2.00000
-458396739.19352,33113280.78203,-8479364.17321,  -0.00359,   0.00105,  -0.00072,476890160.21154,   0.00129,276044933.43825,  -0.00144,   0.00001,  -0.00061,   0.00000,   2.00000
-457023829.14849,35625744.49723,-8178315.53622,  -0.00359,   0.00106,  -0.00072,476904799.74572,   0.00130,276048781.93516,  -0.00145,   0.00001,  -0.00061,   0.00000,   2.00000
-455636156.49666,38145568.93630,-7877957.90075,  -0.00360,   0.00107,  -0.00072,476901401.64651,   0.00130,276052600.68200,  -0.00145,   0.00001,  -0.00061,   0.00000,   2.00000
-454246712.00038,40649538.34275,-7578330.60263,  -0.00360,   0.00108,  -0.00071,476894853.51425,   0.00130,276056375.60202,  -0.00145,   0.00001,  -0.00061,   0.00000,   2.00000
-452829225.31978,43184268.78708,-7279316.80206,  -0.00360,   0.00109,  -0.00071,476894720.70718,   0.00131,276060135.60742,  -0.00146,   0.00002,  -0.00061,  -0.00000,   2.00000
-451404304.64491,45713225.75057,-6980685.80559,  -0.00360,   0.00111,  -0.00071,476909460.55744,   0.00131,276063947.45500,  -0.00146,   0.00002,  -0.00061,  -0.00000,   2.00000
-449964277.90532,48249667.40140,-6682707.85563,  -0.00361,   0.00112,  -0.00070,476906350.90615,   0.00131,276067730.78996,  -0.00146,   0.00002,  -0.00061,   0.00000,   2.00000
-448522432.39363,50770498.98485,-6385419.94360,  -0.00361,   0.00113,  -0.00070,476899721.08471,   0.00132,276071469.83364,  -0.00147,   0.00002,  -0.00061,   0.00000,   2.00000
-447052126.99213,53322125.16483,-6081921.96909,  -0.00361,   0.00114,  -0.00069,476900005.14167,   0.00132,276075195.82044,  -0.00147,   0.00002,  -0.00061,   0.00000,   2.00000
-445574175.52821,55867736.80271,-5785622.61888,  -0.00361,   0.00115,  -0.00069,476915133.89626,   0.00132,276078975.55433,  -0.00147,   0.00003,  -0.00061,  -0.00000,   2.00000
-444080765.59699,58420935.15666,-5489941.15431,  -0.00361,   0.00116,  -0.00069,476912336.75493,   0.00133,276082728.11632,  -0.00148,   0.00003,  -0.00062,  -0.00000,   2.00000
-442585472.99598,60958760.55941,-5194910.37882,  -0.00361,   0.00117,  -0.00068,476905647.57878,   0.00133,276086436.01030,  -0.00148,   0.00003,  -0.00062,   0.00000,   2.00000
-441069198.87212,63513506.17276,-4900246.80499,  -0.00362,   0.00118,  -0.00068,476924461.66137,   0.00133,276090214.35173,  -0.00149,   0.00003,  -0.00062,   0.00000,   2.00000
-439537230.62291,66075890.33982,-4606179.91589,  -0.00362,   0.00119,  -0.00068,476921907.32610,   0.00134,276093966.48038,  -0.00149,   0.00004,  -0.00062,   0.00000,   2.00000
-438003354.42723,68623064.09343,-4312738.19323,  -0.00362,   0.00120,  -0.00067,476915181.28640,   0.00134,276097673.60411,  -0.00149,   0.00004,  -0.00062,   0.00000,   2.00000
-436439834.41271,71200896.83907,-4013040.64083,  -0.00362,   0.00121,  -0.00067,476916794.45706,   0.00134,276101373.53815,  -0.00150,   0.00004,  -0.00062,   0.00000,   2.00000
-434882890.31382,73749555.22909,-3720609.39025,  -0.00362,   0.00123,  -0.00066,476927613.46509,   0.00135,276105107.85359,  -0.00150,   0.00004,  -0.00062,   0.00000,   2.00000
-433295899.22236,76328763.57426,-3428710.01968,  -0.00362,   0.00124,  -0.00066,476929752.52831,   0.00135,276108837.17730,  -0.00150,   0.00004,  -0.00062,   0.00000,   2.00000
-431706908.43950,78892982.58985,-3137398.46280,  -0.00363,   0.00125,  -0.00066,476923006.47396,   0.00135,276112521.27527,  -0.00151,   0.00005,  -0.00062,   0.00000,   2.00000
-430110791.09268,81450783.39207,-2846527.61930,  -0.00363,   0.00126,  -0.00065,476937994.81318,   0.00136,276116258.66788,  -0.00151,   0.00005,  -0.00062,   0.00000,   2.00000
-428475021.28131,84053350.41466,-2556271.10622,  -0.00363,   0.00127,  -0.00065,476923547.18727,   0.00136,276119915.83165,  -0.00151,   0.00005,  -0.00062,  -0.00000,   2.00000
-426855674.66545,86612357.10921,-2259608.36666,  -0.00363,   0.00128,  -0.00065,476950908.22693,   0.00137,276123682.47782,  -0.00152,   0.00005,  -0.00062,   0.00000,   2.00000
-425210579.27966,89193612.64067,-1970362.19085,  -0.00363,   0.00129,  -0.00064,476932017.94362,   0.00137,276127348.45597,  -0.00152,   0.00006,  -0.00062,   0.00000,   2.00000
-423558389.16435,91768214.58032,-1681574.76362,  -0.00363,   0.00130,  -0.00064,476947175.38539,   0.00137,276131068.57665,  -0.00153,   0.00006,  -0.00062,   0.00000,   2.00000
-421889649.27829,94350662.08385,-1393309.21138,  -0.00363,   0.00131,  -0.00063,476945427.04499,   0.00138,276134765.87121,  -0.00153,   0.00006,  -0.00062,   0.00000,   2.00000
-420204230.24783,96940962.96339,-1105557.04145,  -0.00363,   0.00132,  -0.00063,476943791.34295,   0.00138,276138440.90670,  -0.00153,   0.00006,  -0.00062,   0.00000,   2.00000
-418502002.26041,99539122.75640,-818310.05810,  -0.00363,   0.00133,  -0.00063,476942270.66131,   0.00138,276142094.25962,  -0.00154,   0.00006,  -0.00062,   0.00000,   2.00000
-416807478.05995,102108094.20071,-531547.65504,  -0.00363,   0.00134,  -0.00062,476952108.92180,   0.00139,276145777.60391,  -0.00154,   0.00007,  -0.00062,   0.00000,   2.00000
-415081328.09470,104707250.56917,-238484.93681,  -0.00364,   0.00135,  -0.00062,476956152.39828,   0.00139,276149464.46174,  -0.00154,   0.00007,  -0.00062,  -0.00000,   2.00000
-413348188.92139,107299352.74350,47277.92047,  -0.00364,   0.00137,  -0.00062,476971594.18556,   0.00139,276153206.66602,  -0.00155,   0.00007,  -0.00062,  -0.00000,   2.00000
-411612948.36741,109877147.82123,332549.70406,  -0.00364,   0.00138,  -0.00061,476964665.92680,   0.00140,276156902.10041,  -0.00155,   0.00007,  -0.00062,   0.00000,   2.00000
-409860646.67216,112462870.32115,617337.12762,  -0.00364,   0.00139,  -0.00061,476963434.88881,   0.00140,276160576.86794,  -0.00155,   0.00008,  -0.00062,   0.00000,   2.00000
-408076092.42249,115078530.73556,901635.72840,  -0.00364,   0.00140,  -0.00060,476968310.81130,   0.00140,276164258.87325,  -0.00156,   0.00008,  -0.00062,   0.00000,   2.00000
-406299726.61894,117664909.40090,1185433.63340,  -0.00364,   0.00141,  -0.00060,476977860.39863,   0.00141,276167969.35102,  -0.00156,   0.00008,  -0.00062,   0.00000,   2.00000
-404506049.31949,120259177.50278,1468757.74070,  -0.00364,   0.00142,  -0.00060,476976957.22493,   0.00141,276171660.47936,  -0.00156,   0.00008,  -0.00062,   0.00000,   2.00000
-402694929.56776,122861323.61808,1751614.27973,  -0.00364,   0.00143,  -0.00059,476976183.79444,   0.00141,276175332.89694,  -0.00157,   0.00009,  -0.00062,   0.00000,   2.00000
-400881451.12189,125449520.11192,2040830.58721,  -0.00364,   0.00144,  -0.00059,476969264.84496,   0.00142,276178958.56849,  -0.00157,   0.00009,  -0.00062,  -0.00000,   2.00000
-399046027.14304,128052093.49038,2322679.00549,  -0.00364,   0.00145,  -0.00059,476991063.87475,   0.00142,276182668.85082,  -0.00157,   0.00009,  -0.00062,  -0.00000,   2.00000
-397208303.92111,130640819.17544,2604104.13709,  -0.00364,   0.00146,  -0.00058,476984079.82540,   0.00142,276186331.82959,  -0.00158,   0.00009,  -0.00062,  -0.00000,   2.00000
-395348562.48344,133243624.10417,2884941.81810,  -0.00364,   0.00147,  -0.00058,477006232.81619,   0.00143,276190080.89174,  -0.00158,   0.00010,  -0.00062,   0.00000,   2.00000
-393475260.30497,135848152.76571,3165473.54055,  -0.00364,   0.00148,  -0.00057,476983325.39142,   0.00143,276193709.55691,  -0.00158,   0.00010,  -0.00062,  -0.00000,   2.00000
-391606691.16904,138429457.31337,3445334.56893,  -0.00364,   0.00149,  -0.00057,477014863.01172,   0.00143,276197467.39155,  -0.00159,   0.00010,  -0.00062,   0.00000,   2.00000
-389708838.12940,141034199.68384,3724868.69712,  -0.00364,   0.00150,  -0.00057,476998830.96979,   0.00144,276201136.10990,  -0.00159,   0.00010,  -0.00062,  -0.00000,   2.00000
-387804459.35058,143631108.19264,4003830.80769,  -0.00364,   0.00152,  -0.00056,477014578.13014,   0.00144,276204861.56152,  -0.00159,   0.00011,  -0.00062,   0.00000,   2.00000
-385897551.36687,146214446.73828,4289207.18547,  -0.00364,   0.00153,  -0.00056,477007710.19089,   0.00144,276208539.87673,  -0.00160,   0.00011,  -0.00062,   0.00000,   2.00000
-383956921.00636,148826945.61378,4567276.73861,  -0.00364,   0.00154,  -0.00056,477014760.83197,   0.00145,276212235.01763,  -0.00160,   0.00011,  -0.00062,   0.00000,   2.00000
-382025631.02870,151410213.41829,4844826.80443,  -0.00364,   0.00155,  -0.00055,477023369.15569,   0.00145,276215954.01230,  -0.00160,   0.00011,  -0.00062,   0.00000,   2.00000
-380076111.38699,154001291.21664,5121943.52890,  -0.00364,   0.00156,  -0.00055,477023601.23008,   0.00145,276219658.32395,  -0.00161,   0.00012,  -0.00062,   0.00000,   2.00000
-378108232.59881,156600140.92416,5398630.11682,  -0.00364,   0.00157,  -0.00054,477023984.76615,   0.00146,276223348.67941,  -0.00161,   0.00012,  -0.00062,   0.00000,   2.00000
-376134081.10411,159190796.09964,5674706.06026,  -0.00364,   0.00158,  -0.00054,477039872.37868,   0.00146,276227096.25624,  -0.00161,   0.00012,  -0.00061,   0.00000,   2.00000
-374145101.13249,161784234.87534,5950638.18157,  -0.00364,   0.00159,  -0.00054,477017517.59807,   0.00146,276230725.21906,  -0.00162,   0.00012,  -0.00061,   0.96209,   1.00000
-372162327.66740,164353428.33300,6225756.03483,  -0.00364,   0.00160,  -0.00053,477048569.73224,   0.00147,276234481.27777,  -0.00162,   0.00013,  -0.00061,   0.99201,   1.00000
-370132470.63904,166967157.47817,6500546.47541,  -0.00363,   0.00161,  -0.00053,477041952.94884,   0.00147,276238190.86497,  -0.00162,   0.00013,  -0.00061,   0.92996,   1.00000
-368128373.39376,169530901.20862,6781714.41306,  -0.00363,   0.00162,  -0.00053,477042455.67068,   0.00148,276241886.82874,  -0.00163,   0.00013,  -0.00061,   0.88714,   1.00000
-366102442.42716,172107000.39205,7055322.73331,  -0.00363,   0.00163,  -0.00052,477065989.75605,   0.00148,276245675.06894,  -0.00163,   0.00013,  -0.00061,   0.89467,   1.00000
-364044916.26253,174706877.54730,7328733.61323,  -0.00363,   0.00164,  -0.00052,477052107.93227,   0.00148,276249383.15175,  -0.00163,   0.00014,  -0.00061,   0.82184,   1.00000
-361997565.63152,177277639.77528,7601618.90773,  -0.00363,   0.00165,  -0.00052,477059995.51526,   0.00149,276253111.48451,  -0.00164,   0.00014,  -0.00061,   0.79618,   1.00000
-359931312.92513,179856037.76067,7874086.61340,  -0.00363,   0.00166,  -0.00051,477061149.62564,   0.00149,276256828.97984,  -0.00164,   0.00014,  -0.00061,   0.75771,   1.00000
-357859219.46090,182425730.16319,8145885.97091,  -0.00363,   0.00167,  -0.00051,477077185.71861,   0.00149,276260604.13120,  -0.00164,   0.00014,  -0.00061,   0.74735,   1.00000
-355767858.43061,185002803.84443,8424051.45098,  -0.00363,   0.00168,  -0.00050,477078958.14267,   0.00150,276264371.01829,  -0.00165,   0.00015,  -0.00061,   0.71083,   1.00000
-353673964.00619,187567353.89630,8695153.35816,  -0.00363,   0.00169,  -0.00050,477071557.28312,   0.00150,276268087.40544,  -0.00165,   0.00015,  -0.00061,   0.66044,   1.00000
-351574399.64935,190123066.97846,8965569.44305,  -0.00363,   0.00170,  -0.00050,477087580.90649,   0.00150,276271861.34203,  -0.00165,   0.00015,  -0.00061,   0.64947,   1.00000
-349455674.24029,192686281.30212,9235567.15272,  -0.00362,   0.00171,  -0.00049,477089200.90578,   0.00151,276275626.21402,  -0.00166,   0.00015,  -0.00061,   0.61561,   1.00000
-347317665.32855,195256926.25662,9505146.09425,  -0.00362,   0.00172,  -0.00049,477090996.31200,   0.00151,276279382.84017,  -0.00166,   0.00016,  -0.00061,   0.58301,   1.00000
-345190268.06554,197798445.22765,9780983.28260,  -0.00362,   0.00173,  -0.00049,477098651.74095,   0.00151,276283158.21729,  -0.00166,   0.00016,  -0.00061,   0.55975,   1.00000
-343027336.85864,200367342.66304,10049415.25223,  -0.00362,   0.00174,  -0.00048,477109184.35817,   0.00152,276286965.50662,  -0.00167,   0.00016,  -0.00061,   0.54019,   1.00000
-340875484.22098,202907277.22235,10317314.70073,  -0.00362,   0.00175,  -0.00048,477116356.62511,   0.00152,276290789.03917,  -0.00167,   0.00017,  -0.00061,   0.51664,   1.00000
-338706624.23887,205451530.26136,10585308.21705,  -0.00362,   0.00176,  -0.00047,477095141.48184,   0.00152,276294497.82796,  -0.00167,   0.00017,  -0.00061,   0.46035,   1.00000
-336529776.09171,207989257.27847,10858826.09854,  -0.00361,   0.00177,  -0.00047,477135073.48478,   0.00153,276298374.32070,  -0.00168,   0.00017,  -0.00061,   0.47572,   1.00000
-334335972.79102,210531597.77836,11125662.30956,  -0.00361,   0.00178,  -0.00047,477113652.13422,   0.00153,276302134.77829,  -0.00168,   0.00017,  -0.00061,   0.42287,   1.00000
-332136941.89528,213064532.96006,11391750.05463,  -0.00361,   0.00179,  -0.00046,477129902.64787,   0.00153,276305953.45504,  -0.00168,   0.00018,  -0.00061,   0.41144,   1.00000
-329934557.10218,215585172.90278,11664429.99699,  -0.00361,   0.00180,  -0.00046,477123285.47372,   0.00154,276309724.55578,  -0.00169,   0.00018,  -0.00061,   0.37819,   1.00000
-327710768.54426,218115760.77704,11929314.18442,  -0.00361,   0.00181,  -0.00046,477148692.59740,   0.00154,276313596.03573,  -0.00169,   0.00018,  -0.00061,   0.37509,   1.00000
-325483914.53022,220634315.88542,12194015.43902,  -0.00361,   0.00182,  -0.00045,477141677.52552,   0.00155,276317417.78824,  -0.00169,   0.00019,  -0.00061,   0.34362,   1.00000
-323253607.72139,223140728.20541,12465328.28311,  -0.00360,   0.00183,  -0.00045,477135071.13840,   0.00155,276321191.88497,  -0.00170,   0.00019,  -0.00061,   0.31471,   1.00000
-321002020.34144,225656703.67464,12728805.00979,  -0.00360,   0.00184,  -0.00044,477160732.68505,   0.00155,276325067.46360,  -0.00170,   0.00019,  -0.00061,   0.31120,   1.00000
-318746920.65402,228160542.66555,12998898.43176,  -0.00360,   0.00185,  -0.00044,477154258.01199,   0.00156,276328895.67562,  -0.00170,   0.00019,  -0.00061,   0.28448,   1.00000
-316487420.03004,230654872.16386,13261403.18540,  -0.00360,   0.00186,  -0.00044,477170015.35931,   0.00156,276332779.34751,  -0.00171,   0.00020,  -0.00061,   0.27408,   1.00000
-314224398.31894,233137227.83198,13530539.55599,  -0.00360,   0.00187,  -0.00043,477163450.19979,   0.00156,276336615.12116,  -0.00171,   0.00020,  -0.00061,   0.25012,   1.00000
-311941734.46177,235626873.09521,13792455.66739,  -0.00359,   0.00188,  -0.00043,477165994.55164,   0.00157,276340445.24976,  -0.00171,   0.00020,  -0.00061,   0.23307,   1.00000
-309654101.98255,238106277.86400,14060331.01189,  -0.00359,   0.00189,  -0.00043,477182923.96803,   0.00157,276344336.15994,  -0.00172,   0.00021,  -0.00061,   0.22471,   1.00000
-307346755.42036,240592822.97020,14320976.60120,  -0.00359,   0.00190,  -0.00042,477185743.47126,   0.00157,276348222.37783,  -0.00172,   0.00021,  -0.00061,   0.20933,   1.00000
-305051415.44483,243050643.27852,14587883.30222,  -0.00359,   0.00191,  -0.00042,477192192.55877,   0.00158,276352120.65244,  -0.00172,   0.00021,  -0.00061,   0.19683,   1.00000
-302735939.75128,245515280.84593,14854334.84687,  -0.00358,   0.00192,  -0.00041,477195700.96931,   0.00158,276356017.31503,  -0.00173,   0.00022,  -0.00061,   0.18383,   1.00000
-300417502.45784,247968873.10297,15113893.56457,  -0.00358,   0.00193,  -0.00041,477187949.85237,   0.00159,276359860.32880,  -0.00173,   0.00022,  -0.00061,   0.16732,   1.00000
-298077527.74966,250429984.34100,15379028.20835,  -0.00358,   0.00194,  -0.00041,477215786.99592,   0.00159,276363814.30680,  -0.00173,   0.00022,  -0.00061,   0.16596,   1.00000
-295751033.47088,252861811.99286,15644407.21796,  -0.00358,   0.00195,  -0.00040,477197822.42372,   0.00159,276367667.11874,  -0.00174,   0.00022,  -0.00061,   0.14807,   1.00000
-293403547.37415,255301275.32384,15908548.53165,  -0.00357,   0.00196,  -0.00040,477225117.05066,   0.00160,276371628.28146,  -0.00174,   0.00023,  -0.00061,   0.14746,   1.00000
-291053043.63216,257729902.60889,16165820.89858,  -0.00357,   0.00197,  -0.00039,477217359.86229,   0.00160,276375535.33147,  -0.00174,   0.00023,  -0.00061,   0.13571,   1.00000
-288681719.64135,260164701.91936,16429405.55492,  -0.00357,   0.00198,  -0.00039,477222125.96211,   0.00160,276379446.34240,  -0.00175,   0.00023,  -0.00060,   0.12922,   1.00000
-286323365.49911,262571467.82172,16692483.22887,  -0.00356,   0.00199,  -0.00039,477227273.77240,   0.00161,276383363.02450,  -0.00175,   0.00024,  -0.00060,   0.12390,   1.00000
-283944566.44071,264984752.39225,16955087.82320,  -0.00356,   0.00200,  -0.00038,477231450.22457,   0.00161,276387280.83211,  -0.00175,   0.00024,  -0.00060,   0.11929,   1.00000
-281561983.23810,267387495.31931,17216780.48020,  -0.00356,   0.00201,  -0.00038,477247858.06676,   0.00161,276391256.22761,  -0.00176,   0.00024,  -0.00060,   0.11909,   1.00000
-279175820.94439,269779320.03405,17478408.20072,  -0.00356,   0.00202,  -0.00038,477240754.30092,   0.00162,276395180.30091,  -0.00176,   0.00025,  -0.00060,   0.11345,   1.00000
-276786038.64564,272160569.51718,17739113.97004,  -0.00355,   0.00203,  -0.00037,477257085.29916,   0.00162,276399161.50727,  -0.00176,   0.00025,  -0.00060,   0.11520,   1.00000
-274392201.64217,274530619.71006,18006535.22948,  -0.00355,   0.00204,  -0.00037,477250677.85864,   0.00163,276403094.51884,  -0.00177,   0.00025,  -0.00060,   0.11193,   1.00000
-271978190.82467,276907425.47111,18266692.02480,  -0.00355,   0.00205,  -0.00036,477254502.89505,   0.00163,276407026.79148,  -0.00177,   0.00026,  -0.00060,   0.11245,   1.00000
-269560730.52653,279273482.07603,18525905.34413,  -0.00354,   0.00206,  -0.00036,477270892.78534,   0.00163,276411016.32158,  -0.00177,   0.00026,  -0.00060,   0.11741,   1.00000
-267139527.67774,281628893.36099,18785086.17082,  -0.00354,   0.00206,  -0.00036,477263779.89691,   0.00164,276414954.27019,  -0.00178,   0.00026,  -0.00060,   0.11706,   1.00000
-264714582.50190,283973040.38583,19050074.67998,  -0.00354,   0.00207,  -0.00035,477280914.60371,   0.00164,276418952.81354,  -0.00178,   0.00027,  -0.00060,   0.12453,   1.00000
-262269387.75916,286323728.17349,19307781.61832,  -0.00353,   0.00208,  -0.00035,477285120.86423,   0.00164,276422951.93386,  -0.00178,   0.00027,  -0.00060,   0.12951,   1.00000
-259837495.27036,288646466.16535,19571772.60318,  -0.00353,   0.00209,  -0.00035,477290163.00252,   0.00165,276426955.45514,  -0.00178,   0.00027,  -0.00060,   0.13580,   1.00000
-257402223.25645,290959358.76032,19828989.80667,  -0.00353,   0.00210,  -0.00034,477282103.48341,   0.00165,276430902.84706,  -0.00179,   0.00028,  -0.00060,   0.13890,   1.00000
-254963512.00308,293260879.29162,20091991.06863,  -0.00352,   0.00211,  -0.00034,477299146.01617,   0.00166,276434910.20734,  -0.00179,   0.00028,  -0.00060,   0.15130,   1.00000
-252504027.67184,295568353.20470,20354460.98479,  -0.00352,   0.00212,  -0.00033,477304393.69154,   0.00166,276438922.77573,  -0.00179,   0.00028,  -0.00060,   0.16100,   1.00000
-250041030.86162,297866102.53313,20610175.19762,  -0.00352,   0.00213,  -0.00033,477296392.67667,   0.00166,276442879.36224,  -0.00180,   0.00029,  -0.00060,   0.16663,   1.00000
-247574757.76399,300152266.04096,20871648.01530,  -0.00351,   0.00214,  -0.00033,477313543.94140,   0.00167,276446896.25063,  -0.00180,   0.00029,  -0.00060,   0.18322,   1.00000
-245105801.60689,302427320.69567,21132100.91353,  -0.00351,   0.00215,  -0.00032,477329842.24609,   0.00167,276450969.17390,  -0.00180,   0.00029,  -0.00060,   0.20125,   1.00000
-242649668.06527,304676521.76859,21393143.83526,  -0.00350,   0.00216,  -0.00032,477309865.67353,   0.00167,276454930.52247,  -0.00181,   0.00030,  -0.00060,   0.20349,   1.00000
-240155803.65281,306947233.07556,21653062.20423,  -0.00350,   0.00216,  -0.00031,477328266.92682,   0.00168,276458957.78447,  -0.00181,   0.00030,  -0.00060,   0.22514,   1.00000
-237676232.56951,309191090.74516,21912531.65917,  -0.00350,   0.00217,  -0.00031,477331652.90783,   0.00168,276462981.37313,  -0.00181,   0.00030,  -0.00060,   0.24047,   1.00000
-235211067.64406,311408315.03478,22171566.21010,  -0.00349,   0.00218,  -0.00031,477334756.81452,   0.00169,276466999.97780,  -0.00182,   0.00031,  -0.00059,   0.25649,   1.00000
-232724513.63705,313630637.55955,22436793.24520,  -0.00349,   0.00219,  -0.00030,477341429.40288,   0.00169,276471030.03424,  -0.00182,   0.00031,  -0.00059,   0.27582,   1.00000
-230217460.01542,315859111.58121,22694690.96836,  -0.00349,   0.00220,  -0.00030,477346429.86751,   0.00169,276475063.74283,  -0.00182,   0.00031,  -0.00059,   0.29539,   1.00000
-227724446.04786,318060429.06534,22958909.03441,  -0.00348,   0.00221,  -0.00029,477350371.55614,   0.00170,276479096.17894,  -0.00183,   0.00032,  -0.00059,   0.31516,   1.00000
-225210905.08354,320267846.67445,23215792.26584,  -0.00348,   0.00222,  -0.00029,477355474.88112,   0.00170,276483132.66182,  -0.00183,   0.00032,  -0.00059,   0.33696,   1.00000
-222711508.21114,322448254.14014,23479005.57250,  -0.00347,   0.00222,  -0.00029,477359230.03023,   0.00170,276487166.93483,  -0.00183,   0.00032,  -0.00059,   0.35861,   1.00000
-220227318.22174,324603190.88168,23735063.08694,  -0.00347,   0.00223,  -0.00028,477360711.85485,   0.00171,276491188.51640,  -0.00183,   0.00033,  -0.00059,   0.37908,   1.00000
-217721634.56969,326762938.69948,23997283.75221,  -0.00347,   0.00224,  -0.00028,477367828.60912,   0.00171,276495223.36910,  -0.00184,   0.00033,  -0.00059,   0.40561,   1.00000
-215194881.02670,328927979.90291,24258898.16255,  -0.00346,   0.00225,  -0.00027,477374183.83950,   0.00172,276499267.88224,  -0.00184,   0.00033,  -0.00059,   0.43288,   1.00000
-212682946.85530,331066990.89062,24520109.12587,  -0.00346,   0.00226,  -0.00027,477376554.51946,   0.00172,276503303.64922,  -0.00184,   0.00034,  -0.00059,   0.45705,   1.00000
-210166488.64427,333196772.01750,24781421.87189,  -0.00345,   0.00227,  -0.00027,477369205.77137,   0.00172,276507285.98339,  -0.00185,   0.00034,  -0.00059,   0.47134,   1.00000
-207648375.53995,335315203.38975,25041629.42082,  -0.00345,   0.00227,  -0.00026,477385077.59102,   0.00173,276511321.89123,  -0.00185,   0.00034,  -0.00059,   0.51210,   1.00000
-205128242.05776,337421496.08719,25307457.95750,  -0.00344,   0.00228,  -0.00026,477402047.74690,   0.00173,276515416.10999,  -0.00185,   0.00035,  -0.00059,   0.55678,   1.00000
-202604004.51618,339519435.28808,25566655.64600,  -0.00344,   0.00229,  -0.00025,477393650.40230,   0.00173,276519451.73672,  -0.00186,   0.00035,  -0.00059,   0.57087,   1.00000
-200094835.33238,341591912.34091,25825491.93549,  -0.00343,   0.00230,  -0.00025,477395360.21741,   0.00174,276523475.48193,  -0.00186,   0.00035,  -0.00059,   0.59797,   1.00000
-197564046.10991,343668739.57962,26090430.99706,  -0.00343,   0.00231,  -0.00025,477403133.64376,   0.00174,276527515.21442,  -0.00186,   0.00036,  -0.00059,   0.63460,   1.00000
-195028478.55867,345736654.62679,26355498.59131,  -0.00343,   0.00231,  -0.00024,477395788.02199,   0.00175,276531501.40772,  -0.00186,   0.00036,  -0.00059,   0.64986,   1.00000
-192511653.34195,347776724.52375,26618924.52886,  -0.00342,   0.00232,  -0.00024,477420360.44598,   0.00175,276535580.80470,  -0.00187,   0.00036,  -0.00058,   0.71472,   1.00000
-189970466.61431,349825254.07362,26876260.37281,  -0.00342,   0.00233,  -0.00023,477403010.83852,   0.00175,276539560.53789,  -0.00187,   0.00037,  -0.00058,   0.71389,   1.00000
-187447823.39292,351845162.09601,27138686.14006,  -0.00341,   0.00234,  -0.00023,477428494.52726,   0.00176,276543637.56035,  -0.00187,   0.00037,  -0.00058,   0.78515,   1.00000
-184919818.75352,353855650.02416,27407998.99397,  -0.00341,   0.00235,  -0.00023,477422185.55353,   0.00176,276547665.56039,  -0.00188,   0.00038,  -0.00058,   0.80238,   1.00000
-182387325.21073,355858457.30627,27670744.96100,  -0.00340,   0.00235,  -0.00022,477413516.28649,   0.00176,276551633.94882,  -0.00188,   0.00038,  -0.00058,   0.81463,   1.00000
-179853932.85789,357849841.71522,27932323.92665,  -0.00340,   0.00236,  -0.00022,477429015.59244,   0.00177,276555653.74092,  -0.00188,   0.00038,  -0.00058,   0.87347,   1.00000
-177314982.61907,359831937.28384,28200809.71262,  -0.00339,   0.00237,  -0.00021,477422722.78683,   0.00177,276559624.82462,  -0.00188,   0.00039,  -0.00058,   0.89000,   1.00000
-174796268.43398,361787319.30899,28460895.71278,  -0.00339,   0.00238,  -0.00021,477445153.82298,   0.00178,276563678.94079,  -0.00189,   0.00039,  -0.00058,   0.96726,   1.00000
-172251382.73843,363749688.27152,28728391.88094,  -0.00338,   0.00238,  -0.00021,477430688.71453,   0.00178,276567646.74928,  -0.00189,   0.00039,  -0.00058,   0.96568,   1.00000
-169705847.37937,365700537.32201,28994684.77967,  -0.00338,   0.00239,  -0.00020,477446149.86814,   0.00178,276571665.58882,  -0.00189,   0.00040,  -0.00058,   0.00000,   2.00000
-167175785.31019,367627127.79919,29260689.15611,  -0.00337,   0.00240,  -0.00020,477446589.63719,   0.00179,276575666.46734,  -0.00190,   0.00040,  -0.00058,   0.00000,   2.00000
-164661234.19038,369529693.75937,29526423.81518,  -0.00337,   0.00241,  -0.00019,477446774.51014,   0.00179,276579648.29538,  -0.00190,   0.00040,  -0.00058,  -0.00000,   2.00000
-162125429.25039,371436886.54566,29791439.82022,  -0.00336,   0.00241,  -0.00019,477454175.13170,   0.00179,276583644.10320,  -0.00190,   0.00041,  -0.00058,   0.00000,   2.00000
-159583743.15395,373335131.58212,30063393.25447,  -0.00336,   0.00242,  -0.00019,477447886.31367,   0.00180,276587591.26013,  -0.00190,   0.00041,  -0.00058,  -0.00000,   2.00000
-157079056.55177,375194739.35886,30327899.11224,  -0.00335,   0.00243,  -0.00018,477454044.63347,   0.00180,276591546.84606,  -0.00191,   0.00042,  -0.00058,   0.00000,   2.00000
-154531541.45120,377073739.56014,30598863.86691,  -0.00335,   0.00244,  -0.00018,477455401.88917,   0.00181,276595488.85190,  -0.00191,   0.00042,  -0.00057,  -0.00000,   2.00000
-152020709.79102,378913376.85538,30869109.70122,  -0.00334,   0.00244,  -0.00017,477462521.41056,   0.00181,276599443.62684,  -0.00191,   0.00042,  -0.00057,   0.00000,   2.00000
-149488589.72873,380757459.05234,31138599.20051,  -0.00334,   0.00245,  -0.00017,477470173.46761,   0.00181,276603413.48549,  -0.00191,   0.00043,  -0.00057,  -0.00000,   2.00000
-146950817.37154,382593869.97732,31408341.29648,  -0.00333,   0.00246,  -0.00016,477462532.50523,   0.00182,276607328.61957,  -0.00192,   0.00043,  -0.00057,   0.00000,   2.00000
-144428625.69911,384407053.38092,31677875.07834,  -0.00333,   0.00246,  -0.00016,477461932.41359,   0.00182,276611221.38239,  -0.00192,   0.00043,  -0.00057,  -0.00000,   2.00000
-141921562.43516,386196187.27899,31953922.16076,  -0.00332,   0.00247,  -0.00016,477462455.84097,   0.00182,276615096.99376,  -0.00192,   0.00044,  -0.00057,  -0.00000,   2.00000
-139415063.82091,387975206.22632,32222018.08390,  -0.00332,   0.00248,  -0.00015,477475748.44594,   0.00183,276619013.62799,  -0.00193,   0.00044,  -0.00057,   0.00000,   2.00000
-136886782.86915,389757404.84134,32496029.99237,  -0.00331,   0.00248,  -0.00015,477485027.82399,   0.00183,276622952.75918,  -0.00193,   0.00044,  -0.00057,  -0.00000,   2.00000
-134367993.30590,391520818.65563,32771417.29051,  -0.00331,   0.00249,  -0.00014,477461495.65543,   0.00183,276626765.06859,  -0.00193,   0.00045,  -0.00057,   0.00000,   2.00000
-131871058.79853,393257639.99725,33045079.95805,  -0.00330,   0.00250,  -0.00014,477482704.38838,   0.00184,276630654.55360,  -0.00193,   0.00045,  -0.00057,   0.00000,   2.00000
-129368097.31263,394987440.48274,33319058.43718,  -0.00329,   0.00250,  -0.00013,477474729.10559,   0.00184,276634488.20291,  -0.00194,   0.00045,  -0.00057,   0.00000,   2.00000
-126843286.63776,396720222.56673,33598914.87050,  -0.00329,   0.00251,  -0.00013,477484228.32122,   0.00185,276638345.61009,  -0.00194,   0.00046,  -0.00057,   0.00000,   2.00000
-124334554.28676,398431815.57236,33871932.27120,  -0.00328,   0.00252,  -0.00013,477481344.11411,   0.00185,276642170.43835,  -0.00194,   0.00046,  -0.00057,  -0.00000,   2.00000
-121840997.80312,400120154.33884,34151524.36970,  -0.00328,   0.00252,  -0.00012,477481107.46454,   0.00185,276645974.85965,  -0.00194,   0.00047,  -0.00056,   0.00000,   2.00000
-119347964.62738,401797429.06321,34429829.64383,  -0.00327,   0.00253,  -0.00012,477495406.56362,   0.00186,276649824.84170,  -0.00195,   0.00047,  -0.00056,  -0.00000,   2.00000
-116863654.75465,403457210.52304,34709671.07489,  -0.00327,   0.00254,  -0.00011,477471171.33853,   0.00186,276653545.54736,  -0.00195,   0.00047,  -0.00056,   0.00000,   2.00000
-114364924.26955,405116668.16157,34987021.24252,  -0.00326,   0.00254,  -0.00011,477501586.14067,   0.00186,276657385.09585,  -0.00195,   0.00048,  -0.00056,  -0.00000,   2.00000
-111874252.85731,406757638.16785,35272627.45859,  -0.00325,   0.00255,  -0.00010,477478812.37053,   0.00187,276661102.11323,  -0.00195,   0.00048,  -0.00056,  -0.00000,   2.00000
-109384681.29982,408388829.29926,35550245.20257,  -0.00325,   0.00255,  -0.00010,477491414.31536,   0.00187,276664857.25368,  -0.00196,   0.00048,  -0.00056,   0.00000,   2.00000
-106910264.56406,409997410.08312,35834488.62919,  -0.00324,   0.00256,  -0.00009,477490576.73501,   0.00187,276668589.53841,  -0.00196,   0.00049,  -0.00056,  -0.00000,   2.00000
-104429167.68668,411599591.84016,36119114.92243,  -0.00324,   0.00257,  -0.00009,477482437.82129,   0.00188,276672266.08132,  -0.00196,   0.00049,  -0.00056,   0.00000,   2.00000
-101985872.80154,413165993.75934,36403285.43188,  -0.00323,   0.00257,  -0.00008,477485280.23712,   0.00188,276675936.78137,  -0.00196,   0.00049,  -0.00056,   0.00000,   2.00000
-99498767.36370,414751026.59696,36687000.06282,  -0.00323,   0.00258,  -0.00008,477488124.75822,   0.00188,276679601.61956,  -0.00196,   0.00050,  -0.00056,   0.00000,   2.00000
-97049122.51442,416299225.06633,36976952.51915,  -0.00322,   0.00258,  -0.00008,477492260.94361,   0.00189,276683266.45748,  -0.00197,   0.00050,  -0.00056,   0.00000,   2.00000
-94592946.96181,417842679.96959,37260653.39417,  -0.00321,   0.00259,  -0.00007,477482368.63051,   0.00189,276686868.03594,  -0.00197,   0.00050,  -0.00056,   0.00000,   2.00000
-92137329.41426,419374075.29154,37549708.54070,  -0.00321,   0.00260,  -0.00007,477497584.72525,   0.00189,276690519.78788,  -0.00197,   0.00051,  -0.00055,   0.00000,   2.00000
-89674648.34657,420899415.33921,37839189.08560,  -0.00320,   0.00260,  -0.00006,477489368.09185,   0.00190,276694115.90742,  -0.00197,   0.00051,  -0.00055,   0.00000,   2.00000
-87249543.39227,422388658.34361,38134963.35148,  -0.00320,   0.00261,  -0.00006,477492683.04304,   0.00190,276697708.59894,  -0.00198,   0.00051,  -0.00055,   0.00000,   2.00000
-84794998.14084,423887801.04159,38424923.68656,  -0.00319,   0.00261,  -0.00005,477477757.57009,   0.00190,276701215.81950,  -0.00198,   0.00052,  -0.00055,  -0.00000,   2.00000
-82363805.79518,425360637.10306,38719814.20791,  -0.00318,   0.00262,  -0.00005,477497636.44410,   0.00191,276704794.44405,  -0.00198,   0.00052,  -0.00055,   0.00000,   2.00000
-79939427.34093,426818388.16020,39016580.93123,  -0.00318,   0.00262,  -0.00004,477472246.37024,   0.00191,276708240.75745,  -0.00198,   0.00052,  -0.00055,   0.00000,   2.00000
-77516182.80822,428265676.56596,39312014.08128,  -0.00317,   0.00263,  -0.00004,477485419.91566,   0.00191,276711728.56372,  -0.00198,   0.00053,  -0.00055,   0.00000,   2.00000
-75108191.67021,429693331.64277,39607553.11251,  -0.00317,   0.00263,  -0.00003,477481469.97011,   0.00192,276715180.81276,  -0.00199,   0.00053,  -0.00055,   0.00000,   2.00000
-72701073.44401,431109166.27287,39908406.57019,  -0.00316,   0.00264,  -0.00003,477496205.17592,   0.00192,276718681.43477,  -0.00199,   0.00053,  -0.00055,   0.00000,   2.00000
-70300599.11674,432512023.13835,40204584.90208,  -0.00315,   0.00264,  -0.00002,477468789.80973,   0.00192,276722041.32876,  -0.00199,   0.00054,  -0.00055,   0.00000,   2.00000
-67901017.74497,433903117.86155,40506077.12810,  -0.00315,   0.00265,  -0.00002,477483387.39547,   0.00193,276725449.35131,  -0.00199,   0.00054,  -0.00055,  -0.00000,   2.00000
-65493617.57214,435288863.02223,40808086.71396,  -0.00314,   0.00265,  -0.00001,477474849.00794,   0.00193,276728801.69529,  -0.00199,   0.00054,  -0.00055,   0.00000,   2.00000
-63110179.56040,436649036.48874,41115022.06748,  -0.00313,   0.00266,  -0.00001,477493556.77008,   0.00193,276732220.48357,  -0.00200,   0.00055,  -0.00054,  -0.00000,   2.00000
-60732811.44026,437996892.28741,41417388.20903,  -0.00313,   0.00266,  -0.00001,477465811.97656,   0.00194,276735497.78441,  -0.00200,   0.00055,  -0.00054,   0.00000,   2.00000
-58356470.25766,439333085.86111,41725047.44200,  -0.00312,   0.00267,  -0.00000,477480195.88967,   0.00194,276738822.48413,  -0.00200,   0.00055,  -0.00054,   0.00000,   2.00000
-55985517.79026,440655704.46341,42034833.32311,  -0.00312,   0.00267,   0.00000,477454072.43015,   0.00194,276742013.56448,  -0.00200,   0.00056,  -0.00054,  -0.00000,   2.00000
-53615944.14243,441968274.01760,42343266.22181,  -0.00311,   0.00268,   0.00001,477466552.81883,   0.00195,276745243.89849,  -0.00200,   0.00056,  -0.00054,   0.00000,   2.00000
-51260872.54701,443260871.39075,42658574.02377,  -0.00310,   0.00268,   0.00001,477463291.09165,   0.00195,276748443.10918,  -0.00201,   0.00056,  -0.00054,   0.00000,   2.00000
-48907278.79666,444543496.06705,42972513.75163,  -0.00310,   0.00268,   0.00002,477475669.34859,   0.00195,276751680.99190,  -0.00201,   0.00057,  -0.00054,   0.00000,   2.00000
-46581705.97677,445799864.61902,43288361.21518,  -0.00309,   0.00269,   0.00002,477452729.05628,   0.00195,276754800.17961,  -0.00201,   0.00057,  -0.00054,   0.00000,   2.00000
-44234391.86536,447059652.38433,43603170.32988,  -0.00308,   0.00269,   0.00003,477461472.99476,   0.00196,276757942.20223,  -0.00201,   0.00057,  -0.00054,  -0.00000,   2.00000
-41901729.44751,448301551.67842,43918281.05301,  -0.00308,   0.00270,   0.00003,477455974.65747,   0.00196,276761043.63638,  -0.00201,   0.00058,  -0.00054,   0.00000,   2.00000
-39583352.87564,449524065.69835,44240334.46803,  -0.00307,   0.00270,   0.00004,477452182.74955,   0.00196,276764112.28930,  -0.00201,   0.00058,  -0.00054,   0.00000,   2.00000
-37279500.47165,450729053.85223,44562727.22863,  -0.00306,   0.00271,   0.00004,477446346.34715,   0.00197,276767139.27427,  -0.00202,   0.00058,  -0.00054,   0.00000,   2.00000
-34966762.31138,451929586.88218,44885773.86564,  -0.00306,   0.00271,   0.00005,477437337.89355,   0.00197,276770110.74372,  -0.00202,   0.00058,  -0.00053,   0.00000,   2.00000
-32655589.09655,453120472.55339,45207452.60497,  -0.00305,   0.00271,   0.00005,477449192.98361,   0.00197,276773119.44181,  -0.00202,   0.00059,  -0.00053,  -0.00000,   2.00000
-30371267.83943,454284772.03872,45537881.55289,  -0.00304,   0.00272,   0.00006,477427131.50334,   0.00197,276776014.99277,  -0.00202,   0.00059,  -0.00053,   0.00000,   2.00000
-28088515.17675,455439618.97338,45866946.82276,  -0.00304,   0.00272,   0.00006,477438737.27490,   0.00198,276778946.99494,  -0.00202,   0.00059,  -0.00053,   0.00000,   2.00000
-25796570.54020,456590165.61808,46196698.41967,  -0.00303,   0.00272,   0.00007,477429699.72929,   0.00198,276781823.94125,  -0.00202,   0.00060,  -0.00053,   0.00000,   2.00000
-23542254.77627,457711312.30671,46526627.32856,  -0.00303,   0.00273,   0.00007,477425844.04471,   0.00198,276784669.06298,  -0.00203,   0.00060,  -0.00053,   0.00000,   2.00000
-21278302.16793,458826551.69222,46863876.14642,  -0.00302,   0.00273,   0.00008,477418630.24589,   0.00199,276787467.69698,  -0.00203,   0.00060,  -0.00053,   0.00000,   2.00000
-19028371.26067,459925250.26344,47201599.14836,  -0.00301,   0.00273,   0.00009,477411903.62905,   0.00199,276790222.26067,  -0.00203,   0.00060,  -0.00053,   0.00000,   2.00000
-16756546.73334,461027032.55492,47538192.42240,  -0.00301,   0.00274,   0.00009,477420855.01413,   0.00199,276793002.08532,  -0.00203,   0.00061,  -0.00053,  -0.00000,   2.00000
-14534453.06890,462093049.04330,47876934.27421,  -0.00300,   0.00274,   0.00010,477398124.06214,   0.00199,276795667.49439,  -0.00203,   0.00061,  -0.00053,   0.00000,   2.00000
-12290190.11066,463160310.43037,48221132.20826,  -0.00299,   0.00274,   0.00010,477409036.20834,   0.00200,276798367.20794,  -0.00203,   0.00061,  -0.00053,   0.00000,   2.00000
-10071816.74795,464204506.91985,48567786.03508,  -0.00299,   0.00275,   0.00011,477383717.62995,   0.00200,276800941.67862,  -0.00203,   0.00062,  -0.00053,  -0.00000,   2.00000
-7855048.19652,465239697.00304,48913080.78998,  -0.00298,   0.00275,   0.00011,477394628.54160,   0.00200,276803550.85679,  -0.00204,   0.00062,  -0.00052,   0.00000,   2.00000
-5651707.12870,466257128.20930,49265536.25206,  -0.00297,   0.00275,   0.00012,477389344.32093,   0.00200,276806123.41010,  -0.00204,   0.00062,  -0.00052,   0.00000,   2.00000
-3462112.77149,467260873.49914,49612026.83166,  -0.00297,   0.00276,   0.00012,477379702.20383,   0.00201,276808640.42592,  -0.00204,   0.00062,  -0.00052,   0.00000,   2.00000
-1262148.58528,468258960.31836,49965913.89278,  -0.00296,   0.00276,   0.00013,477372400.07278,   0.00201,276811112.47035,  -0.00204,   0.00063,  -0.00052,  -0.00000,   2.00000
924608.29989,469239538.54977,50327005.60875,  -0.00295,   0.00276,   0.00013,477366870.06178,   0.00201,276813547.57133,  -0.00204,   0.00063,  -0.00052,   0.00000,   2.00000
3097885.37130,470206786.82976,50682196.75635,  -0.00294,   0.00276,   0.00014,477356896.52582,   0.00201,276815926.48766,  -0.00204,   0.00063,  -0.00052,   0.00000,   2.00000
5269697.75819,471163260.30390,51042589.80310,  -0.00294,   0.00277,   0.00014,477369555.77350,   0.00201,276818348.55584,  -0.00204,   0.00063,  -0.00052,  -0.00000,   2.00000
7416779.86143,472098201.59893,51405748.44692,  -0.00293,   0.00277,   0.00015,477343080.26981,   0.00202,276820642.44576,  -0.00204,   0.00064,  -0.00052,  -0.00000,   2.00000
9550963.22221,473016163.63742,51776198.52830,  -0.00292,   0.00277,   0.00016,477337028.34730,   0.00202,276822898.12933,  -0.00205,   0.00064,  -0.00052,   0.00000,   2.00000
11707126.87605,473939088.70287,52138893.41557,  -0.00292,   0.00277,   0.00016,477343742.57772,   0.00202,276825171.52206,  -0.00205,   0.00064,  -0.00052,   0.00000,   2.00000
13850463.29343,474845041.45056,52508891.63029,  -0.00291,   0.00278,   0.00017,477337713.90655,   0.00202,276827406.93848,  -0.00205,   0.00064,  -0.00052,   0.00000,   2.00000
15945964.59904,475718921.02127,52881693.79385,  -0.00290,   0.00278,   0.00017,477311785.92842,   0.00202,276829517.90599,  -0.00205,   0.00064,  -0.00052,  -0.00000,   2.00000
18063779.79048,476593529.50989,53259822.67041,  -0.00290,   0.00278,   0.00018,477322889.51033,   0.00203,276831666.39499,  -0.00205,   0.00065,  -0.00051,   0.00000,   2.00000
20192647.10438,477464744.07189,53638882.38585,  -0.00289,   0.00278,   0.00018,477313338.92417,   0.00203,276833762.28797,  -0.00205,   0.00065,  -0.00051,   0.00000,   2.00000
22285128.03755,478310488.53196,54018679.43604,  -0.00288,   0.00278,   0.00019,477305543.10126,   0.00203,276835813.54250,  -0.00205,   0.00065,  -0.00051,   0.00000,   2.00000
24354165.19936,479136162.75269,54401587.58058,  -0.00288,   0.00279,   0.00019,477277898.66068,   0.00203,276837734.19595,  -0.00205,   0.00065,  -0.00051,   0.00000,   2.00000
26445564.48664,479962332.12251,54789780.45738,  -0.00287,   0.00279,   0.00020,477289109.22934,   0.00203,276839693.67062,  -0.00205,   0.00065,  -0.00051,   0.00000,   2.00000
28500826.69920,480763640.13333,55178812.97940,  -0.00286,   0.00279,   0.00021,477280695.91510,   0.00204,276841606.62795,  -0.00205,   0.00066,  -0.00051,   0.00000,   2.00000
30567626.57202,481561852.57854,55568868.55689,  -0.00285,   0.00279,   0.00021,477270874.30008,   0.00204,276843467.21986,  -0.00205,   0.00066,  -0.00051,   0.00000,   2.00000
32622312.24467,482343937.73385,55966401.04910,  -0.00285,   0.00279,   0.00022,477263983.93310,   0.00204,276845288.45096,  -0.00206,   0.00066,  -0.00051,   0.00000,   2.00000
34675468.31567,483117917.72934,56362593.04769,  -0.00284,   0.00279,   0.00022,477273444.59874,   0.00204,276847141.30449,  -0.00206,   0.00066,  -0.00051,   0.00000,   2.00000
36706073.81316,483872656.95603,56762132.91301,  -0.00283,   0.00279,   0.00023,477245204.63261,   0.00204,276848862.57657,  -0.00206,   0.00066,  -0.00051,   0.00000,   2.00000
38724784.97206,484613930.74246,57162722.77050,  -0.00283,   0.00280,   0.00023,477235561.90717,   0.00204,276850533.39797,  -0.00206,   0.00067,  -0.00051,   0.00000,   2.00000
40731713.81433,485339473.12390,57570881.60842,  -0.00282,   0.00280,   0.00024,477228253.83382,   0.00205,276852164.14178,  -0.00206,   0.00067,  -0.00051,   0.98686,   1.00000
42750732.44678,486062016.37380,57980146.57674,  -0.00281,   0.00280,   0.00025,477218341.03683,   0.00205,276853743.79595,  -0.00206,   0.00067,  -0.00051,   0.93376,   1.00000
44734310.77625,486758653.29273,58397003.97869,  -0.00281,   0.00280,   0.00025,477210990.68296,   0.00205,276855283.72288,  -0.00206,   0.00067,  -0.00051,   0.89460,   1.00000
46740284.59390,487460110.64946,58806067.95716,  -0.00280,   0.00280,   0.00026,477217469.60287,   0.00205,276856843.69783,  -0.00206,   0.00067,  -0.00051,   0.92551,   1.00000
48700871.60738,488130662.92663,59225250.88333,  -0.00279,   0.00280,   0.00026,477190895.31784,   0.00205,276858281.37163,  -0.00206,   0.00067,  -0.00051,   0.79224,   1.00000
50673888.82583,488795854.08966,59652078.41452,  -0.00278,   0.00280,   0.00027,477183385.95171,   0.00205,276859679.43698,  -0.00206,   0.00068,  -0.00050,   0.75502,   1.00000
52635676.24294,489450659.32315,60073656.92097,  -0.00278,   0.00280,   0.00028,477170583.24202,   0.00205,276861015.38018,  -0.00206,   0.00068,  -0.00050,   0.69469,   1.00000
54596064.12017,490095285.96927,60500403.44410,  -0.00277,   0.00280,   0.00028,477181816.31046,   0.00206,276862392.76131,  -0.00206,   0.00068,  -0.00050,   0.74403,   1.00000
56535485.00480,490719510.70931,60937415.58135,  -0.00276,   0.00280,   0.00029,477155022.75606,   0.00206,276863648.20102,  -0.00206,   0.00068,  -0.00050,   0.62268,   1.00000
58463984.49708,491333695.77378,61369276.97347,  -0.00276,   0.00280,   0.00030,477141861.43140,   0.00206,276864840.85356,  -0.00206,   0.00068,  -0.00050,   0.56602,   1.00000
60391111.98527,491937778.14755,61806308.49107,  -0.00275,   0.00280,   0.00030,477152902.75888,   0.00206,276866074.75434,  -0.00206,   0.00068,  -0.00050,   0.61017,   1.00000
62297832.23078,492524421.56896,62247305.63746,  -0.00274,   0.00280,   0.00031,477123154.08347,   0.00206,276867175.08065,  -0.00207,   0.00068,  -0.00050,   0.48860,   1.00000
64193740.94399,493096083.99395,62696123.42339,  -0.00274,   0.00280,   0.00031,477114967.60238,   0.00206,276868234.83211,  -0.00207,   0.00068,  -0.00050,   0.45633,   1.00000
66079027.78659,493655471.89059,63146352.92924,  -0.00273,   0.00280,   0.00032,477104038.13528,   0.00206,276869242.52391,  -0.00207,   0.00069,  -0.00050,   0.41536,   1.00000
67986865.42264,494216811.99080,63595200.55403,  -0.00272,   0.00280,   0.00033,477113058.60815,   0.00206,276870283.63356,  -0.00207,   0.00069,  -0.00050,   0.44635,   1.00000
69851039.27363,494749106.17335,64054752.86945,  -0.00271,   0.00280,   0.00033,477084776.63171,   0.00206,276871198.82149,  -0.00207,   0.00069,  -0.00050,   0.34714,   1.00000
71728770.83634,495281261.13605,64509245.81933,  -0.00271,   0.00280,   0.00034,477071865.79932,   0.00206,276872054.34582,  -0.00207,   0.00069,  -0.00050,   0.30530,   1.00000
73572174.54292,495786722.45961,64978224.87008,  -0.00270,   0.00280,   0.00035,477065107.52931,   0.00207,276872876.77577,  -0.00207,   0.00069,  -0.00050,   0.28389,   1.00000
75414605.04885,496287729.52926,65439569.71598,  -0.00269,   0.00280,   0.00035,477070167.81865,   0.00207,276873716.60924,  -0.00207,   0.00069,  -0.00050,   0.29785,   1.00000
77261495.36885,496778373.31137,65911507.04354,  -0.00269,   0.00280,   0.00036,477043640.98442,   0.00207,276874439.38436,  -0.00207,   0.00069,  -0.00050,   0.22195,   1.00000
79074665.23320,497248228.25927,66385237.85393,  -0.00268,   0.00280,   0.00036,477030913.89121,   0.00207,276875104.44121,  -0.00207,   0.00069,  -0.00050,   0.18902,   1.00000
80901456.05575,497712337.08170,66866791.26406,  -0.00267,   0.00280,   0.00037,477023536.37617,   0.00207,276875734.82762,  -0.00207,   0.00069,  -0.00050,   0.17082,   1.00000
82718423.11103,498164639.07240,67349997.24393,  -0.00266,   0.00280,   0.00038,477012001.67712,   0.00207,276876313.10305,  -0.00207,   0.00069,  -0.00050,   0.14457,   1.00000
84501968.80377,498596539.18793,67835121.72938,  -0.00266,   0.00280,   0.00038,476998836.72999,   0.00207,276876832.66223,  -0.00207,   0.00069,  -0.00050,   0.11735,   1.00000
86299581.51895,499025508.11312,68321744.28202,  -0.00265,   0.00280,   0.00039,476988580.10578,   0.00207,276877306.16187,  -0.00207,   0.00069,  -0.00050,   0.09800,   1.00000
88063725.22034,499431390.86755,68816729.79467,  -0.00264,   0.00279,   0.00040,476978043.70929,   0.00207,276877732.68885,  -0.00207,   0.00069,  -0.00050,   0.07995,   1.00000
89842085.52283,499834284.30474,69313245.14913,  -0.00264,   0.00279,   0.00040,476967801.67522,   0.00207,276878113.75434,  -0.00207,   0.00069,  -0.00050,   0.06415,   1.00000
91610792.70102,500222645.64913,69817909.72646,  -0.00263,   0.00279,   0.00041,476958863.76204,   0.00207,276878455.13396,  -0.00207,   0.00069,  -0.00050,   0.05175,   1.00000
93346572.79035,500591176.65846,70324702.05187,  -0.00262,   0.00279,   0.00042,476945030.91093,   0.00207,276878736.38089,  -0.00207,   0.00069,  -0.00050,   0.03530,   1.00000
95096794.07560,500956634.90836,70833077.44844,  -0.00261,   0.00279,   0.00042,476934795.31426,   0.00207,276878973.02143,  -0.00207,   0.00070,  -0.00050,   0.02512,   1.00000
96837584.03314,501307605.60182,71349672.52023,  -0.00261,   0.00279,   0.00043,476925731.21664,   0.00207,276879170.25301,  -0.00207,   0.00070,  -0.00050,   0.01754,   1.00000
98537634.68170,501634765.89246,71871632.82180,  -0.00260,   0.00279,   0.00044,476892176.42926,   0.00207,276879225.07445,  -0.00207,   0.00070,  -0.00050,   0.00136,   1.00000
100260455.00467,501963056.77342,72392124.03895,  -0.00259,   0.00278,   0.00045,476901204.08636,   0.00207,276879317.64788,  -0.00207,   0.00070,  -0.00050,   0.00390,   1.00000
101974059.53207,502276878.73217,72920905.20329,  -0.00259,   0.00278,   0.00045,476892032.22636,   0.00207,276879371.16080,  -0.00207,   0.00070,  -0.00050,   0.00131,   1.00000
103644894.77955,502545709.65794,73444955.36237,  -0.00258,   0.00278,   0.00046,476854948.29622,   0.00207,276879371.16080,  -0.00207,   0.00070,  -0.00050,-24422.86457,   0.00000
105339550.48881,502824749.35304,73982617.21390,  -0.00257,   0.00278,   0.00047,476845991.21424,   0.00207,276879371.16080,  -0.00207,   0.00070,  -0.00050,-33379.94656,   0.00000
107000176.96695,503069759.81702,74513473.21921,  -0.00256,   0.00278,   0.00047,476819086.09004,   0.00207,276879371.16080,  -0.00207,   0.00070,  -0.00050,-60285.07075,   0.00000
108664206.36821,503277338.12679,75057940.91696,  -0.00256,   0.00277,   0.00048,476769168.22615,   0.00207,276879371.16080,  -0.00207,   0.00070,  -0.00050,-110202.93465,   0.00000
110304415.30769,503474707.66723,75595602.76849,  -0.00255,   0.00277,   0.00049,476720513.00455,   0.00207,276879371.16080,  -0.00207,   0.00070,  -0.00050,-158858.15624,   0.00000
111948027.17028,503634645.05344,76140070.46625,  -0.00254,   0.00277,   0.00049,476645825.06186,   0.00207,276879371.16080,  -0.00207,   0.00070,  -0.00050,-233546.09893,   0.00000
113557609.80176,503760553.20855,76684538.16400,  -0.00254,   0.00277,   0.00050,476556121.10052,   0.00207,276879371.16080,  -0.00207,   0.00070,  -0.00050,-323250.06028,   0.00000
115167192.43324,503886461.36365,77229005.86175,  -0.00253,   0.00276,   0.00051,476473312.09350,   0.00207,276879371.16080,  -0.00207,   0.00070,  -0.00050,-406059.06730,   0.00000
116780177.98783,503974937.36454,77780279.40573,  -0.00252,   0.00276,   0.00052,476364755.38071,   0.00207,276879371.16080,  -0.00207,   0.00070,  -0.00050,-514615.78009,   0.00000
118359134.31131,504029384.13431,78331552.94970,  -0.00251,   0.00276,   0.00052,476241031.13305,   0.00207,276879371.16080,  -0.00207,   0.00070,  -0.00050,-638340.02774,   0.00000
119927881.86546,504060010.44231,78889632.33990,  -0.00251,   0.00276,   0.00053,476108248.05141,   0.00207,276879371.16080,  -0.00207,   0.00070,  -0.00050,-771123.10939,   0.00000
121486420.65028,504066816.28853,79447711.73009,  -0.00250,   0.00275,   0.00054,475963075.35737,   0.00207,276879371.16080,  -0.00207,   0.00070,  -0.00050,-916295.80343,   0.00000
123034750.66576,504049801.67298,80005791.12029,  -0.00249,   0.00275,   0.00054,475805517.62705,   0.00207,276879371.16080,  -0.00207,   0.00070,  -0.00050,-1073853.53375,   0.00000
124572871.91191,504008966.59565,80563870.51048,  -0.00249,   0.00275,   0.00055,475635581.17734,   0.00207,276879371.16080,  -0.00207,   0.00070,  -0.00050,-1243789.98345,   0.00000
126100784.38873,503944311.05654,81128755.74690,  -0.00248,   0.00274,   0.00056,475456757.84908,   0.00207,276879371.16080,  -0.00207,   0.00070,  -0.00050,-1422613.31172,   0.00000
127618488.09621,503855835.05565,81700446.82954,  -0.00247,   0.00274,   0.00057,475269134.46149,   0.00207,276879371.16080,  -0.00207,   0.00070,  -0.00050,-1610236.69930,   0.00000
129115774.26503,503719718.13122,82265332.06596,  -0.00246,   0.00274,   0.00057,475046345.90632,   0.00207,276879371.16080,  -0.00207,   0.00070,  -0.00050,-1833025.25448,   0.00000
130589239.97207,503573392.43745,82837023.14860,  -0.00246,   0.00273,   0.00058,474830877.04070,   0.00207,276879371.16080,  -0.00207,   0.00070,  -0.00050,-2048494.12009,   0.00000
132076317.37156,503413455.05123,83415520.07746,  -0.00245,   0.00273,   0.00059,474610063.15498,   0.00207,276879371.16080,  -0.00207,   0.00070,  -0.00050,-2269308.00582,   0.00000
133542977.23238,503205876.74146,83994017.00632,  -0.00244,   0.00272,   0.00060,474357728.82174,   0.00207,276879371.16080,  -0.00207,   0.00070,  -0.00050,-2521642.33905,   0.00000
134985816.63142,502988089.66236,84572513.93519,  -0.00244,   0.00272,   0.00060,474109123.86796,   0.00207,276879371.16080,  -0.00207,   0.00070,  -0.00050,-2770247.29284,   0.00000
136408238.49180,502722661.65971,85151010.86405,  -0.00243,   0.00272,   0.00061,473828928.30773,   0.00207,276879371.16080,  -0.00207,   0.00070,  -0.00050,-3050442.85306,   0.00000
137854480.81396,502467442.42639,85736313.63913,  -0.00242,   0.00271,   0.00062,473563244.56895,   0.00207,276879371.16080,  -0.00207,   0.00070,  -0.00050,-3316126.59184,   0.00000
139256485.13567,502154373.50018,86321616.41422,  -0.00242,   0.00271,   0.00063,473262500.95444,   0.00207,276879371.16080,  -0.00207,   0.00070,  -0.00050,-3616870.20636,   0.00000
140648280.68805,501817484.11219,86913725.03552,  -0.00241,   0.00270,   0.00063,472953429.69500,   0.00207,276879371.16080,  -0.00207,   0.00070,  -0.00050,-3925941.46579,   0.00000
142040076.24043,501480594.72421,87505833.65683,  -0.00240,   0.00270,   0.00064,472651712.15975,   0.00207,276879371.16080,  -0.00207,   0.00070,  -0.00050,-4227659.00105,   0.00000
143387633.79236,501085855.64334,88097942.27813,  -0.00239,   0.00270,   0.00065,472314805.38280,   0.00207,276879371.16080,  -0.00207,   0.00070,  -0.00050,-4564565.77799,   0.00000
144748803.03675,500677504.87002,88696856.74566,  -0.00239,   0.00269,   0.00066,471973630.10635,   0.00207,276879371.16080,  -0.00207,   0.00070,  -0.00050,-4905741.05445,   0.00000
146099763.51179,500245333.63493,89295771.21319,  -0.00238,   0.00269,   0.00066,471620625.13154,   0.00207,276879371.16080,  -0.00207,   0.00070,  -0.00050,-5258746.02926,   0.00000
147416694.75573,499779133.16873,89894685.68072,  -0.00237,   0.00268,   0.00067,471251779.26972,   0.00207,276879371.16080,  -0.00207,   0.00070,  -0.00050,-5627591.89107,   0.00000
148723417.23034,499289112.24076,90500405.99446,  -0.00237,   0.00268,   0.00068,470874993.95484,   0.00207,276879371.16080,  -0.00207,   0.00070,  -0.00050,-6004377.20595,   0.00000
150043751.39739,498785479.62034,91112932.15444,  -0.00236,   0.00267,   0.00069,470494566.09619,   0.00207,276879371.16080,  -0.00207,   0.00070,  -0.00050,-6384805.06460,   0.00000
151319847.56399,498223997.30703,91718652.46819,  -0.00235,   0.00267,   0.00070,470075102.58032,   0.00207,276879371.16080,  -0.00207,   0.00070,  -0.00050,-6804268.58047,   0.00000
152595943.73060,497662514.99372,92331178.62816,  -0.00235,   0.00266,   0.00070,469667285.82976,   0.00207,276879371.16080,  -0.00207,   0.00070,  -0.00050,-7212085.33104,   0.00000
153838010.66610,497067003.44930,92943704.78813,  -0.00234,   0.00266,   0.00071,469243579.86509,   0.00207,276879371.16080,  -0.00207,   0.00070,  -0.00050,-7635791.29571,   0.00000
155083480.52471,496434059.75067,93563036.79432,  -0.00233,   0.00265,   0.00072,468797467.29005,   0.00207,276879371.16080,  -0.00207,   0.00070,  -0.00050,-8081903.87074,   0.00000
156328950.38332,495801116.05203,94182368.80052,  -0.00233,   0.00265,   0.00073,468359237.24608,   0.00207,276879371.16080,  -0.00207,   0.00070,  -0.00050,-8520133.91472,   0.00000
157530182.24148,495110322.66051,94808506.65293,  -0.00232,   0.00264,   0.00074,467890082.56743,   0.00207,276879371.16080,  -0.00207,   0.00070,  -0.00050,-8989288.59337,   0.00000
158731414.09965,494419529.26898,95427838.65912,  -0.00231,   0.00264,   0.00074,467424687.92175,   0.00207,276879371.16080,  -0.00207,   0.00070,  -0.00050,-9454683.23905,   0.00000
159912228.41915,493681094.95391,96060782.35776,  -0.00231,   0.00263,   0.00075,466937171.37527,   0.00207,276879371.16080,  -0.00207,   0.00070,  -0.00050,-9942199.78553,   0.00000
161093042.73865,492942660.63883,96686920.21018,  -0.00230,   0.00262,   0.00076,466453517.10291,   0.00207,276879371.16080,  -0.00207,   0.00070,  -0.00050,-10425854.05788,   0.00000
162253439.51948,492156585.40020,97319863.90881,  -0.00229,   0.00262,   0.00077,465943829.40332,   0.00207,276879371.16080,  -0.00207,   0.00070,  -0.00050,-10935541.75748,   0.00000
163379807.06921,491336480.93046,97952807.60745,  -0.00228,   0.00261,   0.00078,465418410.62120,   0.00207,276879371.16080,  -0.00207,   0.00070,  -0.00050,-11460960.53960,   0.00000
164519786.31138,490502764.76828,98592557.15231,  -0.00228,   0.00261,   0.00079,464891158.51556,   0.00207,276879371.16080,  -0.00207,   0.00070,  -0.00050,-11988212.64523,   0.00000
165625736.32244,489635019.37498,99232306.69717,  -0.00227,   0.00260,   0.00079,464348283.29044,   0.00207,276879371.16080,  -0.00207,   0.00070,  -0.00050,-12531087.87035,   0.00000
166731686.33350,488767273.98169,99872056.24203,  -0.00226,   0.00259,   0.00080,463813749.66849,   0.00207,276879371.16080,  -0.00207,   0.00070,  -0.00050,-13065621.49231,   0.00000
167817218.80589,487851887.66485,100518611.63311,  -0.00226,   0.00259,   0.00081,463253829.02111,   0.00207,276879371.16080,  -0.00207,   0.00070,  -0.00050,-13625542.13968,   0.00000
168868722.04718,486902472.11689,101165167.02419,  -0.00225,   0.00258,   0.00082,462678330.45053,   0.00207,276879371.16080,  -0.00207,   0.00070,  -0.00050,-14201040.71026,   0.00000
169933836.98090,485939444.87649,101818528.26149,  -0.00224,   0.00258,   0.00083,462101868.33825,   0.00207,276879371.16080,  -0.00207,   0.00070,  -0.00050,-14777502.82255,   0.00000
170964922.68352,484942388.40498,102471889.49880,  -0.00224,   0.00257,   0.00084,461509968.83366,   0.00207,276879371.16080,  -0.00207,   0.00070,  -0.00050,-15369402.32713,   0.00000
171975590.84747,483897691.00992,103125250.73610,  -0.00223,   0.00256,   0.00084,460888750.03525,   0.00207,276879371.16080,  -0.00207,   0.00070,  -0.00050,-15990621.12554,   0.00000
172986259.01143,482852993.61486,103785417.81962,  -0.00222,   0.00256,   0.00085,460280963.20365,   0.00207,276879371.16080,  -0.00207,   0.00070,  -0.00050,-16598407.95715,   0.00000
173962897.94427,481774266.98868,104445584.90315,  -0.00222,   0.00255,   0.00086,459657837.05992,   0.00207,276879371.16080,  -0.00207,   0.00070,  -0.00050,-17221534.10087,   0.00000
174953148.56956,480681928.67007,105105751.98667,  -0.00221,   0.00254,   0.00087,459030022.07384,   0.00207,276879371.16080,  -0.00207,   0.00070,  -0.00050,-17849349.08695,   0.00000
175909369.96374,479555561.12034,105772724.91642,  -0.00220,   0.00253,   0.00088,458391681.89653,   0.00207,276879371.16080,  -0.00207,   0.00070,  -0.00050,-18487689.26426,   0.00000
176845173.81925,478381552.64707,106446503.69239,  -0.00220,   0.00253,   0.00089,457729429.93802,   0.00207,276879371.16080,  -0.00207,   0.00070,  -0.00050,-19149941.22278,   0.00000
177780977.67476,477207544.17379,107113476.62213,  -0.00219,   0.00252,   0.00090,457071748.31160,   0.00207,276879371.16080,  -0.00207,   0.00070,  -0.00050,-19807622.84919,   0.00000
178682752.29916,475999506.46940,107787255.39810,  -0.00219,   0.00251,   0.00091,456403803.11528,   0.00207,276879371.16080,  -0.00207,   0.00070,  -0.00050,-20475568.04552,   0.00000
179587929.84667,474754036.61079,108461034.17407,  -0.00218,   0.00251,   0.00091,455713191.60838,   0.00207,276879371.16080,  -0.00207,   0.00070,  -0.00050,-21166179.55242,   0.00000
180469286.93241,473498357.98285,109141618.79626,  -0.00217,   0.00250,   0.00092,455031456.46199,   0.00207,276879371.16080,  -0.00207,   0.00070,  -0.00050,-21847914.69881,   0.00000
181340435.24882,472218858.89313,109822203.41845,  -0.00217,   0.00249,   0.00093,454340598.93128,   0.00207,276879371.16080,  -0.00207,   0.00070,  -0.00050,-22538772.22952,   0.00000
182167345.56478,470881510.11053,110509593.88686,  -0.00216,   0.00248,   0.00094,453621223.71516,   0.00207,276879371.16080,  -0.00207,   0.00070,  -0.00050,-23258147.44564,   0.00000
183018076.34251,469554370.09725,111190178.50905,  -0.00215,   0.00248,   0.00095,452912521.99818,   0.00207,276879371.16080,  -0.00207,   0.00070,  -0.00050,-23966849.16262,   0.00000
183834777.88914,468193200.85287,111884374.82369,  -0.00215,   0.00247,   0.00096,452199342.97551,   0.00207,276879371.16080,  -0.00207,   0.00070,  -0.00050,-24680028.18529,   0.00000
184631061.89711,466784390.68494,112571765.29210,  -0.00214,   0.00246,   0.00097,451453879.92369,   0.00207,276879371.16080,  -0.00207,   0.00070,  -0.00050,-25425491.23711,   0.00000
185403525.44329,465365371.74767,113265961.60674,  -0.00213,   0.00245,   0.00098,450717816.49220,   0.00207,276879371.16080,  -0.00207,   0.00070,  -0.00050,-26161554.66859,   0.00000
186179391.91259,463908920.65619,113966963.76759,  -0.00213,   0.00244,   0.00099,449965974.68914,   0.00207,276879371.16080,  -0.00207,   0.00070,  -0.00050,-26913396.47166,   0.00000
186931437.92011,462442260.79536,114661160.08223,  -0.00212,   0.00244,   0.00099,449213485.08377,   0.00207,276879371.16080,  -0.00207,   0.00070,  -0.00050,-27665886.07702,   0.00000
187639245.92719,460917751.24166,115362162.24308,  -0.00212,   0.00243,   0.00100,448433591.71292,   0.00207,276879371.16080,  -0.00207,   0.00070,  -0.00050,-28445779.44788,   0.00000
188370874.39604,459403450.45728,116069970.25016,  -0.00211,   0.00242,   0.00101,447675776.57408,   0.00207,276879371.16080,  -0.00207,   0.00070,  -0.00050,-29203594.58671,   0.00000
189068473.63379,457855120.44180,116777778.25724,  -0.00210,   0.00241,   0.00102,446904216.53161,   0.00207,276879371.16080,  -0.00207,   0.00070,  -0.00050,-29975154.62919,   0.00000
189745655.33287,456259149.50276,117485586.26432,  -0.00210,   0.00240,   0.00103,446106739.28812,   0.00207,276879371.16080,  -0.00207,   0.00070,  -0.00050,-30772631.87268,   0.00000
190422837.03195,454663178.56373,118193394.27139,  -0.00209,   0.00239,   0.00104,445320385.56199,   0.00207,276879371.16080,  -0.00207,   0.00070,  -0.00050,-31558985.59881,   0.00000
191079601.19236,453019566.70114,118908008.12469,  -0.00208,   0.00238,   0.00105,444513989.49513,   0.00207,276879371.16080,  -0.00207,   0.00070,  -0.00050,-32365381.66567,   0.00000
191712544.89100,451365746.06921,119629427.82422,  -0.00208,   0.00238,   0.00106,443718222.23377,   0.00207,276879371.16080,  -0.00207,   0.00070,  -0.00050,-33161148.92703,   0.00000
192335279.82030,449688104.97552,120344041.67752,  -0.00207,   0.00237,   0.00107,442910181.88741,   0.00207,276879371.16080,  -0.00207,   0.00070,  -0.00050,-33969189.27339,   0.00000
192913776.74916,447952614.18893,121065461.37704,  -0.00207,   0.00236,   0.00108,442076437.98983,   0.00207,276879371.16080,  -0.00207,   0.00070,  -0.00050,-34802933.17096,   0.00000
193492273.67803,446217123.40234,121793686.92278,  -0.00206,   0.00235,   0.00109,441260152.23686,   0.00207,276879371.16080,  -0.00207,   0.00070,  -0.00050,-35619218.92393,   0.00000
194060561.83755,444457812.15398,122521912.46853,  -0.00205,   0.00234,   0.00110,440437705.93644,   0.00207,276879371.16080,  -0.00207,   0.00070,  -0.00050,-36441665.22436,   0.00000
194618641.22775,442674680.44384,123250138.01427,  -0.00205,   0.00233,   0.00111,439609295.81515,   0.00207,276879371.16080,  -0.00207,   0.00070,  -0.00050,-37270075.34564,   0.00000
195142691.38684,440857519.50259,123978363.56001,  -0.00204,   0.00232,   0.00112,438768507.89781,   0.00207,276879371.16080,  -0.00207,   0.00070,  -0.00050,-38110863.26298,   0.00000
195656532.77659,439016538.09957,124713394.95198,  -0.00204,   0.00231,   0.00113,437927891.90492,   0.00207,276879371.16080,  -0.00207,   0.00070,  -0.00050,-38951479.25587,   0.00000
196160165.39701,437151736.23477,125455232.19017,  -0.00203,   0.00230,   0.00113,437087794.32732,   0.00207,276879371.16080,  -0.00207,   0.00070,  -0.00050,-39791576.83348,   0.00000
196653589.24810,435263113.90819,126190263.58213,  -0.00202,   0.00229,   0.00114,436236755.38020,   0.00207,276879371.16080,  -0.00207,   0.00070,  -0.00050,-40642615.78059,   0.00000
197112983.86808,433340462.35050,126932100.82032,  -0.00202,   0.00228,   0.00115,435379980.94862,   0.00207,276879371.16080,  -0.00207,   0.00070,  -0.00050,-41499390.21217,   0.00000
197538349.25695,431383781.56170,127680743.90473,  -0.00201,   0.00227,   0.00116,434517713.57208,   0.00207,276879371.16080,  -0.00207,   0.00070,  -0.00050,-42361657.58871,   0.00000
197977326.33826,429413489.08046,128429386.98914,  -0.00201,   0.00226,   0.00117,433657876.91888,   0.00207,276879371.16080,  -0.00207,   0.00070,  -0.00050,-43221494.24192,   0.00000
198382274.18846,427409167.36811,129178030.07355,  -0.00200,   0.00225,   0.00118,432787027.06072,   0.00207,276879371.16080,  -0.00207,   0.00070,  -0.00050,-44092344.10008,   0.00000
198787222.03867,425404845.65576,129926673.15796,  -0.00200,   0.00224,   0.00119,431929873.98100,   0.00207,276879371.16080,  -0.00207,   0.00070,  -0.00050,-44949497.17980,   0.00000
199147931.88843,423342674.25052,130682122.08859,  -0.00199,   0.00223,   0.00120,431050521.00728,   0.00207,276879371.16080,  -0.00207,   0.00070,  -0.00050,-45828850.15352,   0.00000
199508641.73819,421280502.84529,131437571.01922,  -0.00198,   0.00222,   0.00121,430185267.66807,   0.00207,276879371.16080,  -0.00207,   0.00070,  -0.00050,-46694103.49273,   0.00000
199848934.04928,419170690.51650,132199825.79607,  -0.00198,   0.00221,   0.00122,429305521.00552,   0.00207,276879371.16080,  -0.00207,   0.00070,  -0.00050,-47573850.15527,   0.00000
200165405.89860,417050669.41837,132962080.57293,  -0.00197,   0.00220,   0.00123,428433283.79959,   0.00207,276879371.16080,  -0.00207,   0.00070,  -0.00050,-48446087.36121,   0.00000
200471668.97859,414906827.85847,133724335.34978,  -0.00197,   0.00219,   0.00124,427558294.51604,   0.00207,276879371.16080,  -0.00207,   0.00070,  -0.00050,-49321076.64476,   0.00000
200767723.28924,412739165.83680,134493395.97286,  -0.00196,   0.00218,   0.00125,426687257.57161,   0.00207,276879371.16080,  -0.00207,   0.00070,  -0.00050,-50192113.58919,   0.00000
201029748.36879,410537474.58401,135262456.59593,  -0.00196,   0.00217,   0.00126,425806915.21927,   0.00207,276879371.16080,  -0.00207,   0.00070,  -0.00050,-51072455.94152,   0.00000
201281564.67900,408311962.86945,136031517.21901,  -0.00195,   0.00216,   0.00127,424924672.81758,   0.00207,276879371.16080,  -0.00207,   0.00070,  -0.00050,-51954698.34322,   0.00000
201499351.75810,406052421.92377,136807383.68830,  -0.00195,   0.00215,   0.00128,424040138.43806,   0.00207,276879371.16080,  -0.00207,   0.00070,  -0.00050,-52839232.72274,   0.00000
201717138.83720,403792880.97810,137583250.15760,  -0.00194,   0.00214,   0.00129,423171362.88662,   0.00207,276879371.16080,  -0.00207,   0.00070,  -0.00050,-53708008.27418,   0.00000
201914508.37763,401485699.10888,138365922.47312,  -0.00193,   0.00213,   0.00130,422291171.15045,   0.00207,276879371.16080,  -0.00207,   0.00070,  -0.00050,-54588200.01035,   0.00000
202088057.45629,399168308.47032,139148594.78864,  -0.00193,   0.00212,   0.00131,421419942.20918,   0.00207,276879371.16080,  -0.00207,   0.00070,  -0.00050,-55459428.95161,   0.00000
202251397.76562,396827097.36998,139931267.10416,  -0.00192,   0.00211,   0.00132,420548233.29911,   0.00207,276879371.16080,  -0.00207,   0.00070,  -0.00050,-56331137.86168,   0.00000
202404529.30561,394462065.80787,140713939.41968,  -0.00192,   0.00210,   0.00133,419676356.64532,   0.00207,276879371.16080,  -0.00207,   0.00070,  -0.00050,-57203014.51547,   0.00000
202523631.61449,392063005.01465,141503417.58142,  -0.00191,   0.00208,   0.00134,418804070.21404,   0.00207,276879371.16080,  -0.00207,   0.00070,  -0.00050,-58075300.94676,   0.00000
202608704.69227,389629914.99032,142299701.58938,  -0.00191,   0.00207,   0.00135,417931765.60795,   0.00207,276879371.16080,  -0.00207,   0.00070,  -0.00050,-58947605.55285,   0.00000
202707389.46248,387183213.27354,143089179.75112,  -0.00190,   0.00206,   0.00136,417060868.53443,   0.00207,276879371.16080,  -0.00207,   0.00070,  -0.00050,-59818502.62637,   0.00000
202782253.77093,384726302.78744,143885463.75908,  -0.00190,   0.00205,   0.00137,416207140.47240,   0.00207,276879371.16080,  -0.00207,   0.00070,  -0.00050,-60672230.68839,   0.00000
202823088.84826,382235363.07022,144681747.76705,  -0.00189,   0.00204,   0.00138,415347258.99808,   0.00207,276879371.16080,  -0.00207,   0.00070,  -0.00050,-61532112.16272,   0.00000
202853715.15626,379720602.89123,145484837.62123,  -0.00189,   0.00203,   0.00140,414496254.41968,   0.00207,276879371.16080,  -0.00207,   0.00070,  -0.00050,-62383116.74112,   0.00000
202874132.69492,377182022.25045,146287927.47542,  -0.00188,   0.00202,   0.00141,413647421.32478,   0.00207,276879371.16080,  -0.00207,   0.00070,  -0.00050,-63231949.83602,   0.00000
202860521.00248,374609412.37857,147097823.17582,  -0.00188,   0.00200,   0.00142,412800740.07403,   0.00207,276879371.16080,  -0.00207,   0.00070,  -0.00050,-64078631.08677,   0.00000
202836700.54070,372012982.04492,147900913.03001,  -0.00187,   0.00199,   0.00143,411949681.73944,   0.00207,276879371.16080,  -0.00207,   0.00070,  -0.00050,-64929689.42136,   0.00000
202789059.61715,369406342.94193,148710808.73042,  -0.00187,   0.00198,   0.00144,411117498.90280,   0.00207,276879371.16080,  -0.00207,   0.00070,  -0.00050,-65761872.25799,   0.00000
202731209.92426,366775883.37716,149527510.27704,  -0.00186,   0.00197,   0.00145,410296237.47399,   0.00207,276879371.16080,  -0.00207,   0.00070,  -0.00050,-66583133.68680,   0.00000
202639331.00027,364111394.58129,150344211.82367,  -0.00186,   0.00196,   0.00146,409471199.00096,   0.00207,276879371.16080,  -0.00207,   0.00070,  -0.00050,-67408172.15984,   0.00000
202537243.30694,361423085.32363,151160913.37030,  -0.00185,   0.00195,   0.00147,408650475.77988,   0.00207,276879371.16080,  -0.00207,   0.00070,  -0.00050,-68228895.38092,   0.00000
202435155.61361,358734776.06598,151977614.91693,  -0.00185,   0.00193,   0.00148,407850080.14956,   0.00207,276879371.16080,  -0.00207,   0.00070,  -0.00050,-69029291.01124,   0.00000
202299038.68917,356012437.57722,152801122.30978,  -0.00184,   0.00192,   0.00149,407054458.04998,   0.00207,276879371.16080,  -0.00207,   0.00070,  -0.00050,-69824913.11082,   0.00000
202152712.99540,353266278.62668,153624629.70263,  -0.00184,   0.00191,   0.00150,406264232.86549,   0.00207,276879371.16080,  -0.00207,   0.00070,  -0.00050,-70615138.29531,   0.00000
201972358.07052,350486090.44503,154454942.94170,  -0.00183,   0.00190,   0.00151,405479739.39432,   0.00207,276879371.16080,  -0.00207,   0.00070,  -0.00050,-71399631.76648,   0.00000
201768182.68386,347695693.49405,155285256.18077,  -0.00183,   0.00188,   0.00152,404708906.46976,   0.00207,276879371.16080,  -0.00207,   0.00070,  -0.00050,-72170464.69104,   0.00000
201567410.22032,344867864.38885,156115569.41985,  -0.00183,   0.00187,   0.00153,403937316.30518,   0.00207,276879371.16080,  -0.00207,   0.00070,  -0.00050,-72942054.85562,   0.00000
201318996.83322,342019617.74498,156945882.65892,  -0.00182,   0.00186,   0.00154,403172098.88262,   0.00207,276879371.16080,  -0.00207,   0.00070,  -0.00050,-73707272.27817,   0.00000
201094403.90789,339181579.87045,157783001.74421,  -0.00182,   0.00185,   0.00156,402445043.08557,   0.00207,276879371.16080,  -0.00207,   0.00070,  -0.00050,-74434328.07523,   0.00000
200801752.52035,336275483.53370,158620120.82951,  -0.00181,   0.00183,   0.00157,401694991.77084,   0.00207,276879371.16080,  -0.00207,   0.00070,  -0.00050,-75184379.38996,   0.00000
200532921.59459,333379595.96628,159464045.76102,  -0.00181,   0.00182,   0.00158,400984000.85562,   0.00207,276879371.16080,  -0.00207,   0.00070,  -0.00050,-75895370.30518,   0.00000
200206240.97593,330439470.39841,160307970.69254,  -0.00180,   0.00181,   0.00159,400265755.07659,   0.00207,276879371.16080,  -0.00207,   0.00070,  -0.00050,-76613616.08420,   0.00000
199903380.81906,327509553.59988,161151895.62406,  -0.00180,   0.00180,   0.00160,399579031.90309,   0.00207,276879371.16080,  -0.00207,   0.00070,  -0.00050,-77300339.25771,   0.00000
199532462.19997,324511578.33913,161995820.55557,  -0.00180,   0.00178,   0.00161,398871296.71330,   0.00207,276879371.16080,  -0.00207,   0.00070,  -0.00050,-78008074.44749,   0.00000
199195572.81198,321547632.30950,162846551.33331,  -0.00179,   0.00177,   0.00162,398218393.73762,   0.00207,276879371.16080,  -0.00207,   0.00070,  -0.00050,-78660977.42318,   0.00000
198790624.96178,318515627.81764,163697282.11105,  -0.00179,   0.00176,   0.00163,397545465.99657,   0.00207,276879371.16080,  -0.00207,   0.00070,  -0.00050,-79333905.16423,   0.00000
198385677.11158,315483623.32578,164554818.73501,  -0.00178,   0.00174,   0.00164,396905815.45931,   0.00207,276879371.16080,  -0.00207,   0.00070,  -0.00050,-79973555.70149,   0.00000
197970520.49204,312427798.37214,165412355.35897,  -0.00178,   0.00173,   0.00165,396277307.24310,   0.00207,276879371.16080,  -0.00207,   0.00070,  -0.00050,-80602063.91769,   0.00000
197521334.64139,309337944.18740,166269891.98293,  -0.00177,   0.00172,   0.00167,395652408.94190,   0.00207,276879371.16080,  -0.00207,   0.00070,  -0.00050,-81226962.21890,   0.00000
197072148.79075,306248090.00265,167127428.60689,  -0.00177,   0.00170,   0.00168,395053271.69591,   0.00207,276879371.16080,  -0.00207,   0.00070,  -0.00050,-81826099.46489,   0.00000
196588933.70899,303124206.58680,167991771.07707,  -0.00177,   0.00169,   0.00169,394467152.46046,   0.00207,276879371.16080,  -0.00207,   0.00070,  -0.00050,-82412218.70033,   0.00000
196095509.85790,299976502.70917,168856113.54725,  -0.00176,   0.00168,   0.00170,393893979.60207,   0.00207,276879371.16080,  -0.00207,   0.00070,  -0.00050,-82985391.55872,   0.00000
195578265.54504,296818590.06220,169727261.86366,  -0.00176,   0.00166,   0.00171,393348317.13563,   0.00207,276879371.16080,  -0.00207,   0.00070,  -0.00050,-83531054.02516,   0.00000
195026992.00107,293626648.18413,170591604.33384,  -0.00176,   0.00165,   0.00172,392799567.93981,   0.00207,276879371.16080,  -0.00207,   0.00070,  -0.00050,-84079803.22098,   0.00000
194475718.45709,290434706.30606,171462752.65024,  -0.00175,   0.00164,   0.00173,392286951.30215,   0.00207,276879371.16080,  -0.00207,   0.00070,  -0.00050,-84592419.85864,   0.00000
193890415.68201,287208735.19688,172340706.81287,  -0.00175,   0.00162,   0.00174,391789851.17813,   0.00207,276879371.16080,  -0.00207,   0.00070,  -0.00050,-85089519.98267,   0.00000
193294904.13759,283958943.62592,173211855.12927,  -0.00174,   0.00161,   0.00176,391298894.85596,   0.00207,276879371.16080,  -0.00207,   0.00070,  -0.00050,-85580476.30484,   0.00000
192675572.13140,280698943.28562,174089809.29190,  -0.00174,   0.00160,   0.00177,390837214.78572,   0.00207,276879371.16080,  -0.00207,   0.00070,  -0.00050,-86042156.37508,   0.00000
192046031.35587,277415122.48355,174974569.30074,  -0.00174,   0.00158,   0.00178,390400633.62779,   0.00207,276879371.16080,  -0.00207,   0.00070,  -0.00050,-86478737.53301,   0.00000
191392670.11857,274121092.91215,175852523.46337,  -0.00173,   0.00157,   0.00179,389975755.49192,   0.00207,276879371.16080,  -0.00207,   0.00070,  -0.00050,-86903615.66887,   0.00000
190729100.11193,270803242.87897,176737283.47222,  -0.00173,   0.00156,   0.00180,389576859.25757,   0.00207,276879371.16080,  -0.00207,   0.00070,  -0.00050,-87302511.90322,   0.00000
190017889.18174,267464975.30713,177628849.32729,  -0.00173,   0.00154,   0.00181,389200726.52454,   0.00207,276879371.16080,  -0.00207,   0.00070,  -0.00050,-87678644.63626,   0.00000
189320289.94400,264113096.04284,178513609.33614,  -0.00172,   0.00153,   0.00182,388840915.95358,   0.00207,276879371.16080,  -0.00207,   0.00070,  -0.00050,-88038455.20721,   0.00000
188588661.47514,260727187.54744,179405175.19120,  -0.00172,   0.00151,   0.00184,388500719.31696,   0.00207,276879371.16080,  -0.00207,   0.00070,  -0.00050,-88378651.84384,   0.00000
187833212.54451,257331070.28271,180296741.04627,  -0.00172,   0.00150,   0.00185,388182970.18885,   0.00207,276879371.16080,  -0.00207,   0.00070,  -0.00050,-88696400.97194,   0.00000
187043734.38277,253900923.78687,181195112.74757,  -0.00171,   0.00149,   0.00186,387885894.78629,   0.00207,276879371.16080,  -0.00207,   0.00070,  -0.00050,-88993476.37451,   0.00000
186254256.22103,250470777.29103,182086678.60264,  -0.00171,   0.00147,   0.00187,387610223.65438,   0.00207,276879371.16080,  -0.00207,   0.00070,  -0.00050,-89269147.50642,   0.00000
185430748.82818,247006601.56409,182985050.30393,  -0.00171,   0.00146,   0.00188,387356154.76958,   0.00207,276879371.16080,  -0.00207,   0.00070,  -0.00050,-89523216.39121,   0.00000
184607241.43533,243542425.83714,183890227.85144,  -0.00171,   0.00144,   0.00189,387143253.93128,   0.00207,276879371.16080,  -0.00207,   0.00070,  -0.00050,-89736117.22952,   0.00000
183759913.58070,240068041.34085,184788599.55273,  -0.00170,   0.00143,   0.00191,386944398.27463,   0.00207,276879371.16080,  -0.00207,   0.00070,  -0.00050,-89934972.88616,   0.00000
182892168.18741,236546015.92102,185693777.10024,  -0.00170,   0.00142,   0.00192,386765672.81207,   0.00207,276879371.16080,  -0.00207,   0.00070,  -0.00050,-90113698.34872,   0.00000
182010811.10167,233037602.19363,186598954.64776,  -0.00170,   0.00140,   0.00193,386622045.45072,   0.00207,276879371.16080,  -0.00207,   0.00070,  -0.00050,-90257325.71007,   0.00000
181095424.78483,229495159.23512,187510938.04149,  -0.00169,   0.00139,   0.00194,386502410.46882,   0.00207,276879371.16080,  -0.00207,   0.00070,  -0.00050,-90376960.69198,   0.00000
180146009.23687,225918687.04551,188422921.43523,  -0.00169,   0.00137,   0.00195,386397567.12952,   0.00207,276879371.16080,  -0.00207,   0.00070,  -0.00050,-90481804.03127,   0.00000
179196593.68892,222342214.85590,189334904.82896,  -0.00169,   0.00136,   0.00197,386325809.02794,   0.00207,276879371.16080,  -0.00207,   0.00070,  -0.00050,-90553562.13286,   0.00000
178247178.14096,218765742.66629,190246888.22270,  -0.00169,   0.00134,   0.00198,386287154.60216,   0.00207,276879371.16080,  -0.00207,   0.00070,  -0.00050,-90592216.55864,   0.00000
177239912.90012,215145032.47624,191165677.46266,  -0.00168,   0.00133,   0.00199,386266790.73709,   0.00207,276879371.16080,  -0.00207,   0.00070,  -0.00050,-90612580.42371,   0.00000
176232647.65928,211524322.28619,192084466.70261,  -0.00168,   0.00131,   0.00200,386280106.53421,   0.00207,276879371.16080,  -0.00207,   0.00070,  -0.00050,-90599264.62658,   0.00000
175215173.64910,207879791.63436,193003255.94257,  -0.00168,   0.00130,   0.00201,386317798.54257,   0.00207,276879371.16080,  -0.00207,   0.00070,  -0.00050,-90561572.61823,   0.00000
174150058.71537,204214843.44386,193922045.18253,  -0.00168,   0.00129,   0.00202,386374426.01755,   0.00207,276879371.16080,  -0.00207,   0.00070,  -0.00050,-90504945.14325,   0.00000
173084943.78165,200549895.25336,194847640.26871,  -0.00167,   0.00127,   0.00204,386475483.90491,   0.00207,276879371.16080,  -0.00207,   0.00070,  -0.00050,-90403887.25588,   0.00000
172009620.07858,196861126.60109,195773235.35489,  -0.00167,   0.00126,   0.00205,386601971.04424,   0.00207,276879371.16080,  -0.00207,   0.00070,  -0.00050,-90277400.11655,   0.00000
170876446.68264,193128119.94838,196705636.28729,  -0.00167,   0.00124,   0.00206,386749926.82089,   0.00207,276879371.16080,  -0.00207,   0.00070,  -0.00050,-90129444.33991,   0.00000
169753482.05602,189418933.75744,197631231.37347,  -0.00167,   0.00123,   0.00207,386930955.60560,   0.00207,276879371.16080,  -0.00207,   0.00070,  -0.00050,-89948415.55520,   0.00000
168620308.66008,185685927.10472,198563632.30587,  -0.00166,   0.00121,   0.00209,387148811.05155,   0.00207,276879371.16080,  -0.00207,   0.00070,  -0.00050,-89730560.10925,   0.00000
167439494.34058,181932502.91334,199496033.23827,  -0.00166,   0.00120,   0.00210,387387061.50674,   0.00207,276879371.16080,  -0.00207,   0.00070,  -0.00050,-89492309.65406,   0.00000
166248471.25174,178155258.26019,200428434.17067,  -0.00166,   0.00118,   0.00211,387652528.14911,   0.00207,276879371.16080,  -0.00207,   0.00070,  -0.00050,-89226843.01168,   0.00000
165033627.70113,174367804.83770,201367640.94929,  -0.00166,   0.00117,   0.00212,387956774.28537,   0.00207,276879371.16080,  -0.00207,   0.00070,  -0.00050,-88922596.87542,   0.00000
163818784.15052,170580351.41521,202306847.72791,  -0.00166,   0.00115,   0.00213,388296492.99665,   0.00207,276879371.16080,  -0.00207,   0.00070,  -0.00050,-88582878.16414,   0.00000
162569911.36880,166758868.76161,203246054.50654,  -0.00166,   0.00114,   0.00215,388657172.70623,   0.00207,276879371.16080,  -0.00207,   0.00070,  -0.00050,-88222198.45457,   0.00000
161297218.12531,162927177.33868,204192067.13138,  -0.00165,   0.00112,   0.00216,389057268.36410,   0.00207,276879371.16080,  -0.00207,   0.00070,  -0.00050,-87822102.79670,   0.00000
160000704.42003,159085277.14641,205131273.91000,  -0.00165,   0.00111,   0.00217,389475433.14206,   0.00207,276879371.16080,  -0.00207,   0.00070,  -0.00050,-87403938.01873,   0.00000
158704190.71476,155243376.95415,206077286.53485,  -0.00165,   0.00109,   0.00218,389940118.23858,   0.00207,276879371.16080,  -0.00207,   0.00070,  -0.00050,-86939252.92221,   0.00000
157373647.77838,151367447.53077,207023299.15969,  -0.00165,   0.00108,   0.00220,390427023.90988,   0.00207,276879371.16080,  -0.00207,   0.00070,  -0.00050,-86452347.25092,   0.00000
156019284.38022,147481309.33806,207976117.63076,  -0.00165,   0.00106,   0.00221,390953989.45975,   0.00207,276879371.16080,  -0.00207,   0.00070,  -0.00050,-85925381.70105,   0.00000
154664920.98206,143595171.14536,208928936.10183,  -0.00165,   0.00105,   0.00222,391517019.01957,   0.00207,276879371.16080,  -0.00207,   0.00070,  -0.00050,-85362352.14122,   0.00000
153252707.89102,139664794.95221,209874948.72667,  -0.00165,   0.00103,   0.00223,392085605.07952,   0.00207,276879371.16080,  -0.00207,   0.00070,  -0.00050,-84793766.08128,   0.00000
151850703.56930,135758239.22083,210834573.04396,  -0.00164,   0.00102,   0.00224,392718223.56711,   0.00207,276879371.16080,  -0.00207,   0.00070,  -0.00050,-84161147.59369,   0.00000
150438490.47826,131827863.02768,211787391.51503,  -0.00164,   0.00100,   0.00226,393370102.81055,   0.00207,276879371.16080,  -0.00207,   0.00070,  -0.00050,-83509268.35025,   0.00000
148978636.46366,127877069.29587,212747015.83232,  -0.00164,   0.00099,   0.00227,394055967.84248,   0.00207,276879371.16080,  -0.00207,   0.00070,  -0.00050,-82823403.31832,   0.00000
147508573.67973,123902455.10227,213706640.14960,  -0.00164,   0.00097,   0.00228,394772728.78701,   0.00207,276879371.16080,  -0.00207,   0.00070,  -0.00050,-82106642.37379,   0.00000
146024899.20335,119941452.60113,214666264.46689,  -0.00164,   0.00096,   0.00229,395524461.96606,   0.00207,276879371.16080,  -0.00207,   0.00070,  -0.00050,-81354909.19473,   0.00000
144507195.49587,115946420.86887,215625888.78418,  -0.00164,   0.00094,   0.00231,396300872.69238,   0.00207,276879371.16080,  -0.00207,   0.00070,  -0.00050,-80578498.46842,   0.00000
142989491.78838,111951389.13661,216592318.94769,  -0.00164,   0.00093,   0.00232,397124582.38604,   0.00207,276879371.16080,  -0.00207,   0.00070,  -0.00050,-79754788.77476,   0.00000
141424147.15734,107935939.86569,217558749.11120,  -0.00164,   0.00091,   0.00233,397971903.80130,   0.00207,276879371.16080,  -0.00207,   0.00070,  -0.00050,-78907467.35949,   0.00000
139858802.52631,103920490.59476,218525179.27471,  -0.00164,   0.00090,   0.00234,398855261.42719,   0.00207,276879371.16080,  -0.00207,   0.00070,  -0.00050,-78024109.73360,   0.00000
138293457.89527,99905041.32384,219491609.43822,  -0.00164,   0.00088,   0.00236,399774416.38260,   0.00207,276879371.16080,  -0.00207,   0.00070,  -0.00050,-77104954.77820,   0.00000
136670263.57134,95845354.05247,220464845.44796,  -0.00164,   0.00087,   0.00237,400724502.96037,   0.00207,276879371.16080,  -0.00207,   0.00070,  -0.00050,-76154868.20042,   0.00000
135057278.01675,91809487.24288,221431275.61147,  -0.00163,   0.00085,   0.00238,401703049.90966,   0.00207,276879371.16080,  -0.00207,   0.00070,  -0.00050,-75176321.25114,   0.00000
133386442.76928,87729382.43285,222404511.62120,  -0.00163,   0.00083,   0.00240,402713021.61219,   0.00207,276879371.16080,  -0.00207,   0.00070,  -0.00050,-74166349.54861,   0.00000
131715607.52180,83649277.62282,223377747.63093,  -0.00163,   0.00082,   0.00241,403758766.96464,   0.00207,276879371.16080,  -0.00207,   0.00070,  -0.00050,-73120604.19615,   0.00000
130044772.27432,79569172.81279,224357789.48688,  -0.00163,   0.00080,   0.00242,404851323.58660,   0.00207,276879371.16080,  -0.00207,   0.00070,  -0.00050,-72028047.57420,   0.00000
128336504.87262,75492470.92587,225331025.49662,  -0.00163,   0.00079,   0.00243,405959536.08785,   0.00207,276879371.16080,  -0.00207,   0.00070,  -0.00050,-70919835.07295,   0.00000
126618028.70159,71391948.57717,226311067.35257,  -0.00163,   0.00077,   0.00245,407111195.30012,   0.00207,276879371.16080,  -0.00207,   0.00070,  -0.00050,-69768175.86067,   0.00000
124851911.60701,67271008.68981,227291109.20853,  -0.00163,   0.00076,   0.00246,408286932.66763,   0.00207,276879371.16080,  -0.00207,   0.00070,  -0.00050,-68592438.49317,   0.00000
123085794.51242,63150068.80244,228271151.06448,  -0.00163,   0.00074,   0.00247,409497646.92041,   0.00207,276879371.16080,  -0.00207,   0.00070,  -0.00050,-67381724.24039,   0.00000
121285648.18673,58995099.68397,229257998.76666,  -0.00163,   0.00073,   0.00248,410746955.35483,   0.00207,276879371.16080,  -0.00207,   0.00070,  -0.00050,-66132415.80597,   0.00000
119495710.63037,54863951.02727,230244846.46883,  -0.00163,   0.00071,   0.00250,412033177.23425,   0.00207,276879371.16080,  -0.00207,   0.00070,  -0.00050,-64846193.92654,   0.00000
117658132.15045,50712384.83191,231224888.32479,  -0.00163,   0.00070,   0.00251,413331954.36923,   0.00207,276879371.16080,  -0.00207,   0.00070,  -0.00050,-63547416.79157,   0.00000
115820553.67054,46560818.63655,232211736.02696,  -0.00163,   0.00068,   0.00252,414676357.82232,   0.00207,276879371.16080,  -0.00207,   0.00070,  -0.00050,-62203013.33848,   0.00000
113959154.72885,42399043.67186,233205389.57536,  -0.00163,   0.00067,   0.00254,416061137.15851,   0.00207,276879371.16080,  -0.00207,   0.00070,  -0.00050,-60818234.00229,   0.00000
112050114.86360,38216851.16850,234192237.27754,  -0.00163,   0.00065,   0.00255,417458459.48334,   0.00207,276879371.16080,  -0.00207,   0.00070,  -0.00050,-59420911.67746,   0.00000
110164895.46014,34044867.43447,235185890.82594,  -0.00164,   0.00064,   0.00256,418905738.39381,   0.00207,276879371.16080,  -0.00207,   0.00070,  -0.00050,-57973632.76698,   0.00000
108232035.13312,29852466.16177,236179544.37433,  -0.00164,   0.00062,   0.00257,420376832.78360,   0.00207,276879371.16080,  -0.00207,   0.00070,  -0.00050,-56502538.37720,   0.00000
106275354.34432,25649856.11975,237173197.92273,  -0.00164,   0.00060,   0.00259,421876517.42027,   0.00207,276879371.16080,  -0.00207,   0.00070,  -0.00050,-55002853.74053,   0.00000
104318673.55552,21447246.07772,238166851.47113,  -0.00164,   0.00059,   0.00260,423409221.88052,   0.00207,276879371.16080,  -0.00207,   0.00070,  -0.00050,-53470149.28028,   0.00000
102314351.84317,17224218.49703,239160505.01953,  -0.00164,   0.00057,   0.00261,424965712.76749,   0.00207,276879371.16080,  -0.00207,   0.00070,  -0.00050,-51913658.39331,   0.00000
100320238.90015,13025011.37812,240160964.41415,  -0.00164,   0.00056,   0.00263,426566519.41550,   0.00207,276879371.16080,  -0.00207,   0.00070,  -0.00050,-50312851.74530,   0.00000
98292096.72602,8791775.02809,241154617.96255,  -0.00164,   0.00054,   0.00264,428183510.75149,   0.00207,276879371.16080,  -0.00207,   0.00070,  -0.00050,-48695860.40931,   0.00000
96250342.85945,4572150.37051,242155077.35717,  -0.00164,   0.00053,   0.00265,429839745.12412,   0.00207,276879371.16080,  -0.00207,   0.00070,  -0.00050,-47039626.03667,   0.00000
94174559.76177,318496.48182,243155536.75179,  -0.00164,   0.00051,   0.00266,431523811.67152,   0.00207,276879371.16080,  -0.00207,   0.00070,  -0.00050,-45355559.48928,   0.00000
92108985.43342,-3911336.94509,244162801.99263,  -0.00164,   0.00050,   0.00268,433250567.98883,   0.00207,276879371.16080,  -0.00207,   0.00070,  -0.00050,-43628803.17196,   0.00000
89995770.18152,-8161587.91067,245163261.38725,  -0.00164,   0.00048,   0.00269,434989003.03319,   0.00207,276879371.16080,  -0.00207,   0.00070,  -0.00050,-41890368.12761,   0.00000
87882554.92962,-12411838.87625,246170526.62809,  -0.00165,   0.00047,   0.00270,436769923.25264,   0.00207,276879371.16080,  -0.00207,   0.00070,  -0.00050,-40109447.90815,   0.00000
85721698.75417,-16682507.38050,247170986.02271,  -0.00165,   0.00045,   0.00272,438562489.91022,   0.00207,276879371.16080,  -0.00207,   0.00070,  -0.00050,-38316881.25058,   0.00000
83571051.34804,-20929355.42297,248178251.26355,  -0.00165,   0.00044,   0.00273,440395935.47088,   0.00207,276879371.16080,  -0.00207,   0.00070,  -0.00050,-36483435.68991,   0.00000
81386374.71081,-25210232.69654,249185516.50439,  -0.00165,   0.00042,   0.00274,442257088.32381,   0.00207,276879371.16080,  -0.00207,   0.00070,  -0.00050,-34622282.83699,   0.00000
79188086.38114,-29477498.27768,250192781.74523,  -0.00165,   0.00041,   0.00276,444143250.22630,   0.00207,276879371.16080,  -0.00207,   0.00070,  -0.00050,-32736120.93449,   0.00000
76965977.58969,-33754972.62815,251206852.83230,  -0.00165,   0.00039,   0.00277,446067027.56427,   0.00207,276879371.16080,  -0.00207,   0.00070,  -0.00050,-30812343.59652,   0.00000
74720048.33646,-38042655.74795,252214118.07314,  -0.00166,   0.00038,   0.00278,448005315.17196,   0.00207,276879371.16080,  -0.00207,   0.00070,  -0.00050,-28874055.98883,   0.00000
72460507.39079,-42316727.17530,253228189.16020,  -0.00166,   0.00036,   0.00280,449978965.51780,   0.00207,276879371.16080,  -0.00207,   0.00070,  -0.00050,-26900405.64300,   0.00000
70177145.98334,-46601007.37199,254242260.24727,  -0.00166,   0.00035,   0.00281,451978088.06477,   0.00207,276879371.16080,  -0.00207,   0.00070,  -0.00050,-24901283.09603,   0.00000
67869964.11411,-50895496.33801,255256331.33433,  -0.00166,   0.00033,   0.00282,454002580.54901,   0.00207,276879371.16080,  -0.00207,   0.00070,  -0.00050,-22876790.61179,   0.00000
65562782.24489,-55189985.30403,256270402.42140,  -0.00166,   0.00032,   0.00284,456055237.17397,   0.00207,276879371.16080,  -0.00207,   0.00070,  -0.00050,-20824133.98682,   0.00000
63207959.45211,-59504891.80872,257284473.50846,  -0.00167,   0.00030,   0.00285,458130071.05132,   0.00207,276879371.16080,  -0.00207,   0.00070,  -0.00050,-18749300.10947,   0.00000
60863345.42866,-63795977.85163,258298544.59552,  -0.00167,   0.00029,   0.00286,460229860.68296,   0.00207,276879371.16080,  -0.00207,   0.00070,  -0.00050,-16649510.47784,   0.00000
58471090.48166,-68107481.43321,259319421.52881,  -0.00167,   0.00027,   0.00288,462362956.24191,   0.00207,276879371.16080,  -0.00207,   0.00070,  -0.00050,-14516414.91889,   0.00000
56089044.30399,-72395164.55301,260340298.46209,  -0.00167,   0.00026,   0.00289,464519998.86291,   0.00207,276879371.16080,  -0.00207,   0.00070,  -0.00050,-12359372.29789,   0.00000
53683177.66455,-76693056.44214,261354369.54916,  -0.00168,   0.00024,   0.00290,466689570.15615,   0.00207,276879371.16080,  -0.00207,   0.00070,  -0.00050,-10189801.00464,   0.00000
51229670.10155,-81011365.86994,262375246.48244,  -0.00168,   0.00023,   0.00291,468892115.46686,   0.00207,276879371.16080,  -0.00207,   0.00070,  -0.00050,-7987255.69393,   0.00000
48776162.53856,-85329675.29774,263396123.41573,  -0.00168,   0.00021,   0.00293,471120871.03141,   0.00207,276879371.16080,  -0.00207,   0.00070,  -0.00050,-5758500.12939,   0.00000
46309043.28312,-89634373.03309,264417000.34902,  -0.00168,   0.00020,   0.00294,473369602.53061,   0.00207,276879371.16080,  -0.00207,   0.00070,  -0.00050,-3509768.63018,   0.00000
43818103.56590,-93949279.53778,265437877.28230,  -0.00169,   0.00018,   0.00295,475641643.12527,   0.00207,276879371.16080,  -0.00207,   0.00070,  -0.00050,-1237728.03552,   0.00000
42468487.05232,-96267099.20241,265991660.14521,  -0.00169,   0.00017,   0.00296,476879371.15985,   0.00207,276879371.16080,  -0.00207,   0.00070,  -0.00050,  -0.00095,   0.00000
41211338.10986,-98043063.26850,265874211.25508,  -0.00169,   0.00017,   0.00297,476879371.15985,   0.00208,276884253.07450,  -0.00207,   0.00069,  -0.00049,   0.28799,   1.00000
38471346.37563,-101887690.06827,265611122.01404,  -0.00169,   0.00015,   0.00298,479198468.05172,   0.00209,276894859.38528,  -0.00207,   0.00069,  -0.00047,   0.00000,   2.00000
35715173.25829,-105719419.53612,265336901.45057,  -0.00170,   0.00014,   0.00299,479243499.00735,   0.00210,276905620.08388,  -0.00207,   0.00069,  -0.00045,   0.00000,   2.00000
32955601.44351,-109519924.03828,265053002.57060,  -0.00170,   0.00012,   0.00301,479261595.67623,   0.00211,276916410.82024,  -0.00206,   0.00069,  -0.00044,   0.00000,   2.00000
30191000.75941,-113284291.75999,264760702.15877,  -0.00170,   0.00011,   0.00302,479302070.05973,   0.00212,276927333.71844,  -0.00206,   0.00068,  -0.00042,   0.00000,   2.00000
27401509.17510,-117060238.69945,264454562.46365,  -0.00171,   0.00009,   0.00303,479340343.79066,   0.00213,276938377.79920,  -0.00206,   0.00068,  -0.00040,   0.00000,   2.00000
24608459.98881,-120802063.70127,264139709.64562,  -0.00171,   0.00008,   0.00305,479369554.48099,   0.00214,276949500.76888,  -0.00206,   0.00068,  -0.00039,   0.00000,   2.00000
21812077.97176,-124509753.62770,263816380.68183,  -0.00171,   0.00007,   0.00306,479398494.69236,   0.00215,276960700.78827,  -0.00206,   0.00067,  -0.00037,  -0.00000,   2.00000
19002113.29884,-128205752.74436,263482012.38842,  -0.00172,   0.00005,   0.00307,479432265.12463,   0.00216,276971999.32757,  -0.00205,   0.00067,  -0.00035,  -0.00000,   2.00000
16189300.10368,-131867410.35142,263139499.89285,  -0.00172,   0.00004,   0.00309,479460964.98185,   0.00217,276983372.50085,  -0.00205,   0.00067,  -0.00033,   0.00000,   2.00000
13362865.39581,-135514111.80359,262786752.43006,  -0.00173,   0.00002,   0.00310,479506015.15841,   0.00218,276994894.37832,  -0.00205,   0.00067,  -0.00031,   0.00000,   2.00000
10534614.90329,-139129237.43726,262425573.73457,  -0.00173,   0.00001,   0.00311,479523271.50297,   0.00219,277006437.07290,  -0.00205,   0.00066,  -0.00030,   0.00000,   2.00000
7693805.85745,-142732023.67548,262053726.71341,  -0.00173,  -0.00001,   0.00313,479557108.22046,   0.00220,277018075.93008,  -0.00205,   0.00066,  -0.00028,  -0.00000,   2.00000
4850702.20690,-146296978.27576,261675044.02833,  -0.00174,  -0.00002,   0.00314,479596550.93633,   0.00221,277029835.79812,  -0.00205,   0.00066,  -0.00026,   0.00000,   2.00000
1995606.43162,-149849244.15744,261285894.46888,  -0.00174,  -0.00003,   0.00316,479630446.22030,   0.00222,277041690.50536,  -0.00204,   0.00065,  -0.00024,   0.00000,   2.00000
-860596.76717,-153369891.34237,260888882.00911,  -0.00175,  -0.00005,   0.00317,479647324.50051,   0.00224,277053561.80662,  -0.00204,   0.00065,  -0.00022,   0.00000,   2.00000
-3728570.78061,-156874272.90833,260482272.31788,  -0.00175,  -0.00006,   0.00318,479692391.61883,   0.00225,277065577.76268,  -0.00204,   0.00064,  -0.00020,   0.00000,   2.00000
-6597481.84760,-160343638.90030,260068803.45929,  -0.00176,  -0.00008,   0.00320,479720225.19641,   0.00226,277077658.93378,  -0.00204,   0.00064,  -0.00019,   0.00000,   2.00000
-9467142.66161,-163778044.02116,259648683.40479,  -0.00176,  -0.00009,   0.00321,479747818.29832,   0.00227,277089803.67170,  -0.00204,   0.00064,  -0.00017,  -0.00000,   2.00000
-12347512.17909,-167202704.86424,259217823.62257,  -0.00176,  -0.00010,   0.00322,479770593.48654,   0.00228,277101989.50236,  -0.00203,   0.00063,  -0.00015,   0.00000,   2.00000
-15251961.43390,-170598926.61548,258781371.79418,  -0.00177,  -0.00012,   0.00324,479809035.69836,   0.00229,277114287.15096,  -0.00203,   0.00063,  -0.00013,   0.00000,   2.00000
-18142864.20145,-173971382.46989,258335052.75833,  -0.00177,  -0.00013,   0.00325,479843068.49650,   0.00230,277126675.76209,  -0.00203,   0.00062,  -0.00011,   0.00000,   2.00000
-21033549.47617,-177304985.53153,257883485.44082,  -0.00178,  -0.00015,   0.00326,479881311.91117,   0.00232,277139173.72363,  -0.00203,   0.00062,  -0.00009,   0.00000,   2.00000
-23924049.25656,-180607251.21519,257425226.99081,  -0.00178,  -0.00016,   0.00328,479897291.83733,   0.00233,277151679.26351,  -0.00203,   0.00062,  -0.00007,   0.00000,   2.00000
-26824124.96670,-183895756.24958,256957456.61272,  -0.00179,  -0.00017,   0.00329,479931166.81557,   0.00234,277164273.20890,  -0.00203,   0.00061,  -0.00005,   0.00000,   2.00000
-29747185.11310,-187159119.03990,256483816.19239,  -0.00179,  -0.00019,   0.00330,479958469.82382,   0.00235,277176925.05830,  -0.00202,   0.00061,  -0.00003,   0.00000,   2.00000
-32645571.20760,-190377376.19512,256004975.10178,  -0.00180,  -0.00020,   0.00332,479984666.70451,   0.00236,277189629.31533,  -0.00202,   0.00060,  -0.00001,   0.00000,   2.00000
-35552845.90172,-193581661.47719,255516903.63974,  -0.00181,  -0.00021,   0.00333,480018508.60320,   0.00238,277202420.01587,  -0.00202,   0.00060,   0.00001,  -0.00000,   2.00000
-38472223.55090,-196735802.48383,255028234.30374,  -0.00181,  -0.00023,   0.00334,480049079.37207,   0.00239,277215281.67749,  -0.00202,   0.00059,   0.00003,  -0.00000,   2.00000
-41376736.70503,-199870136.12054,254530024.20931,  -0.00182,  -0.00024,   0.00336,480071153.64934,   0.00240,277228175.32886,  -0.00202,   0.00059,   0.00005,   0.00000,   2.00000
-44313106.26539,-203000089.16401,254022308.66004,  -0.00182,  -0.00025,   0.00337,480105985.73065,   0.00241,277241158.06939,  -0.00202,   0.00058,   0.00007,   0.00000,   2.00000
-47213569.87888,-206060358.70256,253515563.59767,  -0.00183,  -0.00027,   0.00338,480134096.13411,   0.00243,277254198.95817,  -0.00201,   0.00058,   0.00009,  -0.00000,   2.00000
-50146079.48063,-209120444.60246,252998442.99636,  -0.00183,  -0.00028,   0.00340,480158145.42478,   0.00244,277267279.07714,  -0.00201,   0.00057,   0.00011,   0.00000,   2.00000
-53076350.99173,-212145634.41690,252476819.51904,  -0.00184,  -0.00029,   0.00341,480184044.61039,   0.00245,277280406.32989,  -0.00201,   0.00057,   0.00013,  -0.00000,   2.00000
-55989487.55906,-215142465.47183,251948307.97011,  -0.00185,  -0.00030,   0.00342,480227342.95928,   0.00246,277293658.49492,  -0.00201,   0.00056,   0.00015,  -0.00000,   2.00000
-58914956.71275,-218098189.52491,251418182.11649,  -0.00185,  -0.00032,   0.00344,480235347.74608,   0.00248,277306876.02402,  -0.00201,   0.00056,   0.00017,   0.00000,   2.00000
-61847264.62500,-221039568.59641,250879563.94201,  -0.00186,  -0.00033,   0.00345,480269137.06031,   0.00249,277320174.66948,  -0.00201,   0.00055,   0.00019,   0.00000,   2.00000
-64775776.34873,-223941802.22120,250338107.12461,  -0.00186,  -0.00034,   0.00346,480305259.58301,   0.00250,277333564.21275,  -0.00201,   0.00055,   0.00021,   0.00000,   2.00000
-67702197.97387,-226814060.23504,249791721.86285,  -0.00187,  -0.00036,   0.00348,480319818.61988,   0.00251,277346947.25652,  -0.00201,   0.00054,   0.00023,   0.00000,   2.00000
-70625484.74049,-229651940.07811,249241670.17470,  -0.00188,  -0.00037,   0.00349,480344887.82748,   0.00253,277360370.72769,  -0.00200,   0.00054,   0.00025,   0.00000,   2.00000
-73567918.48651,-232460202.92236,248688198.14747,  -0.00188,  -0.00038,   0.00351,480382478.48943,   0.00254,277373890.16022,  -0.00200,   0.00053,   0.00027,   0.00000,   2.00000
-76493643.63216,-235249418.46010,248126498.82579,  -0.00189,  -0.00039,   0.00352,480403613.69543,   0.00255,277387431.21307,  -0.00200,   0.00053,   0.00029,   0.00000,   2.00000
-79415762.28826,-238004423.77479,247561479.27240,  -0.00190,  -0.00041,   0.00353,480428428.68862,   0.00256,277401010.00391,  -0.00200,   0.00052,   0.00031,  -0.00000,   2.00000
-82323832.70156,-240701038.76364,246999297.73831,  -0.00190,  -0.00042,   0.00355,480454513.01628,   0.00258,277414631.84109,  -0.00200,   0.00052,   0.00033,   0.00000,   2.00000
-85261839.80614,-243397279.25964,246426769.50434,  -0.00191,  -0.00043,   0.00356,480479954.74359,   0.00259,277428293.28568,  -0.00200,   0.00051,   0.00036,   0.00000,   2.00000
-88195726.43437,-246059589.52269,245851208.61776,  -0.00192,  -0.00044,   0.00357,480504527.36076,   0.00260,277441990.03617,  -0.00200,   0.00051,   0.00038,  -0.00000,   2.00000
-91102055.87708,-248679210.23890,245274137.34891,  -0.00193,  -0.00045,   0.00359,480526276.09198,   0.00262,277455709.19215,  -0.00200,   0.00050,   0.00040,  -0.00000,   2.00000
-94027524.28262,-251274195.02904,244692931.22343,  -0.00193,  -0.00047,   0.00360,480553131.21018,   0.00263,277469473.06363,  -0.00200,   0.00049,   0.00042,   0.00000,   2.00000
-96947054.79267,-253830729.12568,244110417.46079,  -0.00194,  -0.00048,   0.00361,480587721.74973,   0.00264,277483315.53624,  -0.00200,   0.00049,   0.00044,   0.00000,   2.00000
-99872262.35934,-256377954.83784,243518982.31597,  -0.00195,  -0.00049,   0.00363,480611013.43669,   0.00266,277497185.74197,  -0.00199,   0.00048,   0.00046,   0.00000,   2.00000
-102784045.25936,-258872816.86533,242930097.55488,  -0.00196,  -0.00050,   0.00364,480625342.95213,   0.00267,277511043.68447,  -0.00199,   0.00048,   0.00048,   0.00000,   2.00000
-105691081.49772,-261334648.24315,242338879.99923,  -0.00196,  -0.00051,   0.00365,480649106.24867,   0.00268,277524931.02741,  -0.00199,   0.00047,   0.00050,   0.00000,   2.00000
-108594974.03833,-263768710.36744,241743984.35211,  -0.00197,  -0.00052,   0.00367,480662410.76619,   0.00269,277538801.15872,  -0.00199,   0.00046,   0.00052,   0.00000,   2.00000
-111500671.04757,-266183570.83461,241143263.06815,  -0.00198,  -0.00054,   0.00368,480706276.68508,   0.00271,277552788.94160,  -0.00199,   0.00046,   0.00055,   0.00000,   2.00000
-114415884.65331,-268555416.12011,240543844.87288,  -0.00199,  -0.00055,   0.00369,480723302.60523,   0.00272,277566775.00985,  -0.00199,   0.00045,   0.00057,   0.00000,   2.00000
-117302757.07723,-270886373.07036,239944263.10944,  -0.00200,  -0.00056,   0.00371,480743197.27878,   0.00273,277580771.92735,  -0.00199,   0.00044,   0.00059,   0.00000,   2.00000
-120209301.17874,-273198553.93155,239339397.15862,  -0.00200,  -0.00057,   0.00372,480759887.63921,   0.00275,277594765.26211,  -0.00199,   0.00044,   0.00061,  -0.00000,   2.00000
-123093663.47762,-275483342.16174,238730917.44237,  -0.00201,  -0.00058,   0.00373,480799924.17539,   0.00276,277608857.55169,  -0.00199,   0.00043,   0.00063,   0.00000,   2.00000
-125989306.28898,-277731103.55842,238122456.73139,  -0.00202,  -0.00059,   0.00375,480806445.21816,   0.00277,277622900.73878,  -0.00199,   0.00043,   0.00065,  -0.00000,   2.00000
-128877256.15226,-279941567.93199,237513921.09654,  -0.00203,  -0.00060,   0.00376,480839719.73705,   0.00279,277637012.38019,  -0.00199,   0.00042,   0.00067,   0.00000,   2.00000
-131761544.96496,-282125590.10731,236902178.16644,  -0.00204,  -0.00061,   0.00377,480852617.00449,   0.00280,277651102.54062,  -0.00199,   0.00041,   0.00069,   0.00000,   2.00000
-134640021.59075,-284277952.84491,236288917.50172,  -0.00205,  -0.00062,   0.00379,480875557.71824,   0.00282,277665215.16773,  -0.00199,   0.00041,   0.00072,  -0.00000,   2.00000
-137504789.25541,-286380903.20608,235679636.54478,  -0.00206,  -0.00064,   0.00380,480887689.23987,   0.00283,277679302.76790,  -0.00199,   0.00040,   0.00074,   0.00000,   2.00000
-140371450.36206,-288470567.18399,235063579.76884,  -0.00206,  -0.00065,   0.00381,480921074.65813,   0.00284,277693458.09530,  -0.00199,   0.00039,   0.00076,   0.00000,   2.00000
-143232052.92537,-290529037.01901,234446235.18695,  -0.00207,  -0.00066,   0.00383,480943774.46279,   0.00286,277707633.92450,  -0.00199,   0.00039,   0.00078,   0.00000,   2.00000
-146101501.89447,-292546386.09773,233830814.87142,  -0.00208,  -0.00067,   0.00384,480960139.49296,   0.00287,277721802.35183,  -0.00199,   0.00038,   0.00080,   0.00000,   2.00000
-148942125.23958,-294525401.40500,233216585.47454,  -0.00209,  -0.00068,   0.00385,480977959.51439,   0.00288,277735969.69724,  -0.00199,   0.00037,   0.00082,   0.00000,   2.00000
-151808934.03826,-296504385.31075,232591521.34352,  -0.00210,  -0.00069,   0.00387,481006279.03521,   0.00290,277750181.25933,  -0.00199,   0.00037,   0.00084,   0.00000,   2.00000
-154659330.41749,-298429610.46492,231972707.62821,  -0.00211,  -0.00070,   0.00388,481027715.42211,   0.00291,277764406.80451,  -0.00199,   0.00036,   0.00087,   0.00000,   2.00000
-157505723.38636,-300330039.34365,231351040.91319,  -0.00212,  -0.00071,   0.00389,481040241.65991,   0.00292,277778607.43758,  -0.00199,   0.00035,   0.00089,   0.00000,   2.00000
-160316017.20172,-302175747.84788,230736589.27114,  -0.00213,  -0.00072,   0.00391,481046151.50211,   0.00294,277792754.71104,  -0.00199,   0.00035,   0.00091,   0.00000,   2.00000
-163149386.59726,-304016082.15992,230113056.46322,  -0.00214,  -0.00073,   0.00392,481084694.53859,   0.00295,277806989.80171,  -0.00199,   0.00034,   0.00093,   0.00000,   2.00000
-165991160.56026,-305816385.22398,229491615.05706,  -0.00215,  -0.00074,   0.00393,481100985.71587,   0.00296,277821215.83122,  -0.00199,   0.00033,   0.00095,   0.00000,   2.00000
-168803888.84475,-307579970.82993,228872021.52750,  -0.00216,  -0.00075,   0.00395,481117760.86125,   0.00298,277835434.90647,  -0.00199,   0.00033,   0.00097,   0.00000,   2.00000
-171609861.99119,-309314126.30378,228251679.61286,  -0.00217,  -0.00075,   0.00396,481139781.27836,   0.00299,277849669.53537,  -0.00199,   0.00032,   0.00099,   0.00000,   2.00000
-174427020.02248,-311014578.94661,227631539.91349,  -0.00218,  -0.00076,   0.00397,481146199.21777,   0.00300,277863852.29709,  -0.00199,   0.00031,   0.00101,   0.00000,   2.00000
-177219118.61825,-312690307.96684,227009802.19565,  -0.00219,  -0.00077,   0.00399,481183715.48451,   0.00302,277878117.09745,  -0.00199,   0.00030,   0.00104,   0.00000,   2.00000
-180022379.93350,-314332635.53736,226388254.46173,  -0.00220,  -0.00078,   0.00400,481190223.32646,   0.00303,277892330.10718,  -0.00199,   0.00030,   0.00106,   0.00000,   2.00000
