# sigma_xx, sigma_yy, sigma_xy, epsilon_xx, epsilon_yy, epsilon_xy, vonMises, epsPlastic, hardening, epsilonP__xx, epsilonP__yy, epsilonP__xy, yieldValue, iteration
   0.00000,   0.00000,   0.00000,   0.00000,   0.00000,   0.00000,   0.00000,   0.00000,274640135.82653,   0.00000,   0.00000,   0.00000,-474640135.82653,   0.00000
   0.00000,   0.00000,   0.00000,   0.00000,   0.00000,   0.00000,   0.00000,   0.00000,274640135.82653,   0.00000,   0.00000,   0.00000,-474640135.82653,   0.00000
-2698424.12031,-278019.45482,-595288.71503,  -0.00001,   0.00000,  -0.00001,2769779.61402,   0.00000,274640135.82653,   0.00000,   0.00000,   0.00000,-471870356.21251,   0.00000
-5383764.97217,-569122.17810,-1190577.43005,  -0.00002,   0.00001,  -0.00002,5522429.64035,   0.00000,274640135.82653,   0.00000,   0.00000,   0.00000,-469117706.18618,   0.00000
-8078918.27536,-883120.62119,-1779324.51085,  -0.00004,   0.00001,  -0.00002,8271163.78452,   0.00000,274640135.82653,   0.00000,   0.00000,   0.00000,-466368972.04201,   0.00000
-10783884.02991,-1220014.78409,-2361529.95741,  -0.00005,   0.00002,  -0.00003,11016104.76152,   0.00000,274640135.82653,   0.00000,   0.00000,   0.00000,-463624031.06501,   0.00000
-13508474.68715,-1602700.38661,-2943735.40398,  -0.00006,   0.00002,  -0.00004,13762057.75619,   0.00000,274640135.82653,   0.00000,   0.00000,   0.00000,-460878078.07034,   0.00000
-16210169.62458,-1975573.53778,-3519399.21631,  -0.00007,   0.00002,  -0.00005,16486558.78098,   0.00000,274640135.82653,   0.00000,   0.00000,   0.00000,-458153577.04555,   0.00000
-18954385.18451,-2404050.57992,-4088521.39441,  -0.00008,   0.00003,  -0.00005,19225735.29924,   0.00000,274640135.82653,   0.00000,   0.00000,   0.00000,-455414400.52729,   0.00000
-21652809.30482,-2812902.71936,-4657643.57252,  -0.00009,   0.00003,  -0.00006,21930122.14444,   0.00000,274640135.82653,   0.00000,   0.00000,   0.00000,-452710013.68209,   0.00000
-24393754.04764,-3277358.74976,-5220224.11639,  -0.00010,   0.00003,  -0.00007,24649573.08189,   0.00000,274640135.82653,   0.00000,   0.00000,   0.00000,-449990562.74464,   0.00000
-27121615.52199,-3754898.04863,-5776263.02603,  -0.00012,   0.00004,  -0.00008,27348455.72087,   0.00000,274640135.82653,   0.00000,   0.00000,   0.00000,-447291680.10565,   0.00000
-29859289.44769,-4255333.06731,-6332301.93567,  -0.00013,   0.00004,  -0.00008,30048593.10342,   0.00000,274640135.82653,   0.00000,   0.00000,   0.00000,-444591542.72311,   0.00000
-32616588.27608,-4801559.52560,-6881799.21108,  -0.00014,   0.00004,  -0.00009,32746966.20551,   0.00000,274640135.82653,   0.00000,   0.00000,   0.00000,-441893169.62102,   0.00000
-35350991.38467,-5337973.53255,-7424754.85226,  -0.00015,   0.00004,  -0.00010,35424071.62934,   0.00000,274640135.82653,   0.00000,   0.00000,   0.00000,-439216064.19719,   0.00000
-38095206.94460,-5897283.25930,-7961168.85920,  -0.00016,   0.00005,  -0.00010,38098623.92046,   0.00000,274640135.82653,   0.00000,   0.00000,   0.00000,-436541511.90607,   0.00000
-40826339.23607,-6469676.25452,-8497582.86615,  -0.00017,   0.00005,  -0.00011,40757088.12518,   0.00000,274640135.82653,   0.00000,   0.00000,   0.00000,-433883047.70135,   0.00000
-43577096.43023,-7087860.68936,-9033996.87310,  -0.00018,   0.00005,  -0.00012,43418567.59736,   0.00000,274640135.82653,   0.00000,   0.00000,   0.00000,-431221568.22917,   0.00000
-46327853.62439,-7706045.12419,-9557327.61158,  -0.00020,   0.00006,  -0.00012,46072509.76003,   0.00000,274640135.82653,   0.00000,   0.00000,   0.00000,-428567626.06650,   0.00000
-49075340.00144,-8360208.54730,-10080658.35007,  -0.00021,   0.00006,  -0.00013,48712021.35594,   0.00000,274640135.82653,   0.00000,   0.00000,   0.00000,-425928114.47058,   0.00000
-51832638.82983,-9037267.69021,-10597447.45432,  -0.00022,   0.00006,  -0.00014,51349653.36606,   0.00000,274640135.82653,   0.00000,   0.00000,   0.00000,-423290482.46047,   0.00000
-54567041.93842,-9704514.38178,-11114236.55858,  -0.00023,   0.00006,  -0.00014,53970100.84179,   0.00000,274640135.82653,   0.00000,   0.00000,   0.00000,-420670034.98474,   0.00000
-57321069.94969,-10417552.51297,-11624484.02860,  -0.00024,   0.00006,  -0.00015,56590379.84526,   0.00000,274640135.82653,   0.00000,   0.00000,   0.00000,-418049755.98127,   0.00000
-60062014.69251,-11143673.91262,-12128189.86439,  -0.00025,   0.00007,  -0.00016,59191169.43503,   0.00000,274640135.82653,   0.00000,   0.00000,   0.00000,-415448966.39150,   0.00000
-62812771.88667,-11892691.03207,-12625354.06595,  -0.00026,   0.00007,  -0.00016,61790502.66042,   0.00000,274640135.82653,   0.00000,   0.00000,   0.00000,-412849633.16611,   0.00000
-65573341.53218,-12664603.87134,-13122518.26751,  -0.00027,   0.00007,  -0.00017,64392517.98876,   0.00000,274640135.82653,   0.00000,   0.00000,   0.00000,-410247617.83777,   0.00000
-68297932.18942,-13439787.52772,-13613140.83484,  -0.00028,   0.00007,  -0.00018,66957288.94676,   0.00000,274640135.82653,   0.00000,   0.00000,   0.00000,-407682846.87977,   0.00000
-71032335.29800,-14237866.90391,-14097221.76794,  -0.00030,   0.00007,  -0.00018,69520900.17209,   0.00000,274640135.82653,   0.00000,   0.00000,   0.00000,-405119235.65444,   0.00000
-73766738.40659,-15035946.28010,-14581302.70104,  -0.00031,   0.00008,  -0.00019,72085378.71942,   0.00000,274640135.82653,   0.00000,   0.00000,   0.00000,-402554757.10711,   0.00000
-76497870.69806,-15870004.64456,-15058841.99991,  -0.00032,   0.00008,  -0.00020,74632873.94046,   0.00000,274640135.82653,   0.00000,   0.00000,   0.00000,-400007261.88607,   0.00000
-79238815.44087,-16726958.72883,-15529839.66454,  -0.00033,   0.00008,  -0.00020,77179559.37428,   0.00000,274640135.82653,   0.00000,   0.00000,   0.00000,-397460576.45225,   0.00000
-81943781.19542,-17587183.63021,-16000837.32918,  -0.00034,   0.00008,  -0.00021,79693239.13051,   0.00000,274640135.82653,   0.00000,   0.00000,   0.00000,-394946896.69602,   0.00000
-84681455.12112,-18480116.70275,-16465293.35959,  -0.00035,   0.00008,  -0.00021,82224436.98702,   0.00000,274640135.82653,   0.00000,   0.00000,   0.00000,-392415698.83951,   0.00000
-87383150.05855,-19376320.59241,-16923207.75576,  -0.00036,   0.00008,  -0.00022,84718815.30203,   0.00000,274640135.82653,   0.00000,   0.00000,   0.00000,-389921320.52450,   0.00000
-90094657.44732,-20295420.20187,-17374580.51770,  -0.00037,   0.00008,  -0.00023,87212789.17328,   0.00000,274640135.82653,   0.00000,   0.00000,   0.00000,-387427346.65325,   0.00000
-92793081.56764,-21227603.07980,-17825953.27965,  -0.00038,   0.00008,  -0.00023,89692174.94434,   0.00000,274640135.82653,   0.00000,   0.00000,   0.00000,-384947960.88218,   0.00000
-95501318.13930,-22182681.67754,-18270784.40736,  -0.00039,   0.00009,  -0.00024,92171375.60687,   0.00000,274640135.82653,   0.00000,   0.00000,   0.00000,-382468760.21966,   0.00000
-98196471.44250,-23150843.54373,-18709073.90084,  -0.00040,   0.00009,  -0.00024,94632265.91556,   0.00000,274640135.82653,   0.00000,   0.00000,   0.00000,-380007869.91097,   0.00000
-100878541.47723,-24132088.67839,-19140821.76009,  -0.00041,   0.00009,  -0.00025,97074925.18068,   0.00000,274640135.82653,   0.00000,   0.00000,   0.00000,-377565210.64585,   0.00000
-103560611.51197,-25113333.81305,-19572569.61934,  -0.00042,   0.00009,  -0.00025,99518762.19923,   0.00000,274640135.82653,   0.00000,   0.00000,   0.00000,-375121373.62730,   0.00000
-106216515.00978,-26120745.48464,-19997775.84436,  -0.00043,   0.00009,  -0.00026,101928994.73077,   0.00000,274640135.82653,   0.00000,   0.00000,   0.00000,-372711141.09576,   0.00000
-108905126.67875,-27160865.32738,-20422982.06938,  -0.00044,   0.00009,  -0.00027,104361757.04195,   0.00000,274640135.82653,   0.00000,   0.00000,   0.00000,-370278378.78458,   0.00000
-111547946.90810,-28181360.26742,-20835105.02594,  -0.00045,   0.00009,  -0.00027,106751418.96645,   0.00000,274640135.82653,   0.00000,   0.00000,   0.00000,-367888716.86008,   0.00000
-114187496.32033,-29237834.19574,-21247227.98249,  -0.00046,   0.00009,  -0.00028,109130079.58644,   0.00000,274640135.82653,   0.00000,   0.00000,   0.00000,-365510056.24009,   0.00000
-116827045.73256,-30294308.12406,-21659350.93905,  -0.00047,   0.00009,  -0.00028,111510051.77997,   0.00000,274640135.82653,   0.00000,   0.00000,   0.00000,-363130084.04656,   0.00000
-119463324.32768,-31386761.04064,-22058390.62715,  -0.00048,   0.00009,  -0.00029,113871706.78193,   0.00000,274640135.82653,   0.00000,   0.00000,   0.00000,-360768429.04460,   0.00000
-122076707.20299,-32469401.50588,-22457430.31524,  -0.00049,   0.00009,  -0.00029,116216330.10931,   0.00000,274640135.82653,   0.00000,   0.00000,   0.00000,-358423805.71721,   0.00000
-124699902.52965,-33574937.69093,-22849928.36911,  -0.00050,   0.00009,  -0.00030,118561833.46160,   0.00000,274640135.82653,   0.00000,   0.00000,   0.00000,-356078302.36493,   0.00000
-127287118.86804,-34683744.69310,-23235884.78874,  -0.00051,   0.00009,  -0.00030,120871410.46529,   0.00000,274640135.82653,   0.00000,   0.00000,   0.00000,-353768725.36124,   0.00000
-129884147.65777,-35815447.41507,-23621841.20837,  -0.00052,   0.00009,  -0.00031,123185848.91155,   0.00000,274640135.82653,   0.00000,   0.00000,   0.00000,-351454286.91498,   0.00000
-132468093.17904,-36960233.40551,-23994714.35954,  -0.00053,   0.00009,  -0.00031,125479248.77360,   0.00000,274640135.82653,   0.00000,   0.00000,   0.00000,-349160887.05293,   0.00000
-135038955.43185,-38118102.66441,-24367587.51071,  -0.00054,   0.00009,  -0.00032,127759220.53335,   0.00000,274640135.82653,   0.00000,   0.00000,   0.00000,-346880915.29318,   0.00000
-137596734.41619,-39289055.19177,-24740460.66188,  -0.00055,   0.00009,  -0.00032,130025830.77398,   0.00000,274640135.82653,   0.00000,   0.00000,   0.00000,-344614305.05255,   0.00000
-140131617.68073,-40450195.26778,-25100250.54459,  -0.00056,   0.00009,  -0.00033,132267928.85975,   0.00000,274640135.82653,   0.00000,   0.00000,   0.00000,-342372206.96678,   0.00000
-142663230.12815,-41647314.33207,-25460040.42730,  -0.00057,   0.00009,  -0.00033,134500545.01219,   0.00000,274640135.82653,   0.00000,   0.00000,   0.00000,-340139590.81434,   0.00000
-145194842.57557,-42844433.39635,-25813288.67578,  -0.00058,   0.00009,  -0.00034,136731030.26802,   0.00000,274640135.82653,   0.00000,   0.00000,   0.00000,-337909105.55851,   0.00000
-147700288.48607,-44067718.99756,-26166536.92425,  -0.00059,   0.00009,  -0.00034,138933751.23230,   0.00000,274640135.82653,   0.00000,   0.00000,   0.00000,-335706384.59423,   0.00000
-150205734.39657,-45291004.59877,-26506701.90427,  -0.00060,   0.00009,  -0.00034,141130736.81302,   0.00000,274640135.82653,   0.00000,   0.00000,   0.00000,-333509399.01351,   0.00000
-152688284.58726,-46504477.74863,-26846866.88429,  -0.00060,   0.00009,  -0.00035,143310685.40871,   0.00000,274640135.82653,   0.00000,   0.00000,   0.00000,-331329450.41782,   0.00000
-155144668.24102,-47744117.43542,-27187031.86430,  -0.00061,   0.00009,  -0.00035,145463148.86629,   0.00000,274640135.82653,   0.00000,   0.00000,   0.00000,-329176986.96024,   0.00000
-157610864.34613,-49006652.84201,-27514113.57585,  -0.00062,   0.00008,  -0.00036,147614142.30068,   0.00000,274640135.82653,   0.00000,   0.00000,   0.00000,-327025993.52585,   0.00000
-160054164.73143,-50259375.79726,-27841195.28741,  -0.00063,   0.00008,  -0.00036,149748170.45743,   0.00000,274640135.82653,   0.00000,   0.00000,   0.00000,-324891965.36910,   0.00000
-162471298.57981,-51538265.28943,-28161735.36473,  -0.00064,   0.00008,  -0.00037,151851495.80886,   0.00000,274640135.82653,   0.00000,   0.00000,   0.00000,-322788640.01767,   0.00000
-164888432.42819,-52817154.78161,-28475733.80782,  -0.00065,   0.00008,  -0.00037,153952951.83359,   0.00000,274640135.82653,   0.00000,   0.00000,   0.00000,-320687183.99294,   0.00000
-167292483.00811,-54109127.54224,-28783190.61668,  -0.00066,   0.00008,  -0.00037,156038259.54132,   0.00000,274640135.82653,   0.00000,   0.00000,   0.00000,-318601876.28521,   0.00000
-169673637.86821,-55391287.85153,-29090647.42554,  -0.00066,   0.00008,  -0.00038,158106591.08406,   0.00000,274640135.82653,   0.00000,   0.00000,   0.00000,-316533544.74247,   0.00000
-172051521.91120,-56709427.14909,-29391562.60017,  -0.00067,   0.00008,  -0.00038,160163460.02776,   0.00000,274640135.82653,   0.00000,   0.00000,   0.00000,-314476675.79877,   0.00000
-174383614.51458,-58007941.54396,-29685936.14057,  -0.00068,   0.00008,  -0.00039,162181059.89904,   0.00000,274640135.82653,   0.00000,   0.00000,   0.00000,-312459075.92749,   0.00000
-176725519.56930,-59329351.65863,-29973768.04673,  -0.00069,   0.00007,  -0.00039,164201556.17548,   0.00000,274640135.82653,   0.00000,   0.00000,   0.00000,-310438579.65105,   0.00000
-179054341.35556,-60663845.04177,-30261599.95290,  -0.00070,   0.00007,  -0.00039,166209890.59199,   0.00000,274640135.82653,   0.00000,   0.00000,   0.00000,-308430245.23453,   0.00000
-181347184.15355,-62001609.24202,-30542890.22484,  -0.00070,   0.00007,  -0.00040,168183792.11402,   0.00000,274640135.82653,   0.00000,   0.00000,   0.00000,-306456343.71251,   0.00000
-183649839.40288,-63362269.16208,-30817638.86254,  -0.00071,   0.00007,  -0.00040,170160955.29069,   0.00000,274640135.82653,   0.00000,   0.00000,   0.00000,-304479180.53584,   0.00000
-185906703.21260,-64703304.17945,-31092387.50025,  -0.00072,   0.00007,  -0.00040,172102445.03071,   0.00000,274640135.82653,   0.00000,   0.00000,   0.00000,-302537690.79582,   0.00000
-188150483.75385,-66057422.46528,-31354052.86949,  -0.00073,   0.00007,  -0.00041,174024945.05449,   0.00000,274640135.82653,   0.00000,   0.00000,   0.00000,-300615190.77204,   0.00000
-190381181.02664,-67424624.01957,-31615718.23873,  -0.00073,   0.00006,  -0.00041,175935656.93574,   0.00000,274640135.82653,   0.00000,   0.00000,   0.00000,-298704478.89079,   0.00000
-192611878.29944,-68791825.57386,-31877383.60797,  -0.00074,   0.00006,  -0.00041,177848336.93196,   0.00000,274640135.82653,   0.00000,   0.00000,   0.00000,-296791798.89457,   0.00000
-194793513.31550,-70175381.21373,-32125965.70875,  -0.00075,   0.00006,  -0.00042,179709824.22108,   0.00000,274640135.82653,   0.00000,   0.00000,   0.00000,-294930311.60545,   0.00000
-196975148.33156,-71558936.85360,-32374547.80953,  -0.00076,   0.00006,  -0.00042,181573380.04312,   0.00000,274640135.82653,   0.00000,   0.00000,   0.00000,-293066755.78341,   0.00000
-199143700.07915,-72955575.76194,-32616588.27608,  -0.00076,   0.00006,  -0.00042,183421949.36716,   0.00000,274640135.82653,   0.00000,   0.00000,   0.00000,-291218186.45937,   0.00000
-201289356.10694,-74342402.21892,-32852087.10840,  -0.00077,   0.00005,  -0.00043,185250215.27024,   0.00000,274640135.82653,   0.00000,   0.00000,   0.00000,-289389920.55629,   0.00000
-203399033.14646,-75732499.49302,-33081044.30649,  -0.00078,   0.00005,  -0.00043,187044720.50008,   0.00000,274640135.82653,   0.00000,   0.00000,   0.00000,-287595415.32645,   0.00000
-205495626.91752,-77135680.03559,-33310001.50458,  -0.00078,   0.00005,  -0.00043,188827936.20346,   0.00000,274640135.82653,   0.00000,   0.00000,   0.00000,-285812199.62307,   0.00000
-207579137.42011,-78551943.84661,-33532417.06843,  -0.00079,   0.00005,  -0.00044,190596512.06452,   0.00000,274640135.82653,   0.00000,   0.00000,   0.00000,-284043623.76201,   0.00000
-209649564.65424,-79981290.92610,-33748290.99806,  -0.00080,   0.00004,  -0.00044,192350579.59530,   0.00000,274640135.82653,   0.00000,   0.00000,   0.00000,-282289556.23123,   0.00000
-211697096.16856,-81400825.55424,-33957623.29345,  -0.00080,   0.00004,  -0.00044,194084510.12582,   0.00000,274640135.82653,   0.00000,   0.00000,   0.00000,-280555625.70071,   0.00000
-213708648.69462,-82823630.99950,-34166955.58885,  -0.00081,   0.00004,  -0.00044,195788550.94353,   0.00000,274640135.82653,   0.00000,   0.00000,   0.00000,-278851584.88300,   0.00000
-215720201.22067,-84246436.44475,-34369746.25001,  -0.00082,   0.00004,  -0.00045,197491385.68102,   0.00000,274640135.82653,   0.00000,   0.00000,   0.00000,-277148750.14551,   0.00000
-217705587.20980,-85695408.42693,-34565995.27694,  -0.00082,   0.00003,  -0.00045,199166966.64736,   0.00000,274640135.82653,   0.00000,   0.00000,   0.00000,-275473169.17917,   0.00000
-219668077.47912,-87134567.95777,-34755702.66964,  -0.00083,   0.00003,  -0.00045,200822535.52697,   0.00000,274640135.82653,   0.00000,   0.00000,   0.00000,-273817600.29955,   0.00000
-221584776.30882,-88554102.58591,-34945410.06234,  -0.00084,   0.00003,  -0.00045,202442451.61817,   0.00000,274640135.82653,   0.00000,   0.00000,   0.00000,-272197684.20836,   0.00000
-223521100.04121,-90019428.65367,-35128575.82081,  -0.00084,   0.00003,  -0.00046,204073487.98561,   0.00000,274640135.82653,   0.00000,   0.00000,   0.00000,-270566647.84092,   0.00000
-225411632.33399,-91465129.81873,-35305199.94505,  -0.00085,   0.00002,  -0.00046,205665605.24218,   0.00000,274640135.82653,   0.00000,   0.00000,   0.00000,-268974530.58435,   0.00000
-227279268.90696,-92901018.53245,-35475282.43506,  -0.00085,   0.00002,  -0.00046,207237730.00596,   0.00000,274640135.82653,   0.00000,   0.00000,   0.00000,-267402405.82057,   0.00000
-229143634.66281,-94372886.23444,-35645364.92507,  -0.00086,   0.00002,  -0.00046,208805835.45305,   0.00000,274640135.82653,   0.00000,   0.00000,   0.00000,-265834300.37348,   0.00000
-230962208.97905,-95825129.03374,-35808905.78084,  -0.00086,   0.00001,  -0.00047,210335082.79206,   0.00000,274640135.82653,   0.00000,   0.00000,   0.00000,-264305053.03447,   0.00000
-232757887.57547,-97267559.38168,-35965905.00239,  -0.00087,   0.00001,  -0.00047,211844423.22914,   0.00000,274640135.82653,   0.00000,   0.00000,   0.00000,-262795712.59739,   0.00000
-234540482.90344,-98723072.99810,-36116362.58970,  -0.00087,   0.00001,  -0.00047,213340340.74270,   0.00000,274640135.82653,   0.00000,   0.00000,   0.00000,-261299795.08382,   0.00000
-236309994.96294,-100191669.88297,-36266820.17702,  -0.00088,   0.00000,  -0.00047,214826297.65745,   0.00000,274640135.82653,   0.00000,   0.00000,   0.00000,-259813838.16908,   0.00000
-238043528.03417,-101663537.58496,-36410736.13010,  -0.00088,   0.00000,  -0.00047,216280082.46414,   0.00000,274640135.82653,   0.00000,   0.00000,   0.00000,-258360053.36239,   0.00000
-239754165.38560,-103125592.83560,-36548110.44895,  -0.00089,  -0.00000,  -0.00048,217714148.39052,   0.00000,274640135.82653,   0.00000,   0.00000,   0.00000,-256925987.43601,   0.00000
-241451719.46856,-104600731.35471,-36678943.13357,  -0.00089,  -0.00001,  -0.00048,219135241.34467,   0.00000,274640135.82653,   0.00000,   0.00000,   0.00000,-255504894.48186,   0.00000
-243103482.11190,-106056244.97112,-36809775.81819,  -0.00090,  -0.00001,  -0.00048,220520897.98355,   0.00000,274640135.82653,   0.00000,   0.00000,   0.00000,-254119237.84298,   0.00000
-244751973.93813,-107547737.57580,-36934066.86859,  -0.00090,  -0.00001,  -0.00048,221900652.15404,   0.00000,274640135.82653,   0.00000,   0.00000,   0.00000,-252739483.67249,   0.00000
-246367757.59320,-109006522.00933,-37051816.28474,  -0.00091,  -0.00002,  -0.00048,223253919.78999,   0.00000,274640135.82653,   0.00000,   0.00000,   0.00000,-251386216.03654,   0.00000
-247970457.97981,-110478389.71132,-37163024.06667,  -0.00091,  -0.00002,  -0.00048,224594560.93965,   0.00000,274640135.82653,   0.00000,   0.00000,   0.00000,-250045574.88687,   0.00000
-249537179.37815,-111953528.23042,-37274231.84860,  -0.00092,  -0.00002,  -0.00048,225906914.01305,   0.00000,274640135.82653,   0.00000,   0.00000,   0.00000,-248733221.81347,   0.00000
-251090817.50803,-113441750.01799,-37372356.36207,  -0.00092,  -0.00003,  -0.00049,227203711.66113,   0.00000,274640135.82653,   0.00000,   0.00000,   0.00000,-247436424.16539,   0.00000
-252598664.19829,-114910346.90286,-37470480.87553,  -0.00093,  -0.00003,  -0.00049,228465278.89595,   0.00000,274640135.82653,   0.00000,   0.00000,   0.00000,-246174856.93058,   0.00000
-254093427.62009,-116392027.05620,-37568605.38900,  -0.00093,  -0.00003,  -0.00049,229717925.18704,   0.00000,274640135.82653,   0.00000,   0.00000,   0.00000,-244922210.63949,   0.00000
-255565295.32208,-117863894.75819,-37653646.63400,  -0.00093,  -0.00004,  -0.00049,230948020.34973,   0.00000,274640135.82653,   0.00000,   0.00000,   0.00000,-243692115.47680,   0.00000
-257001184.03580,-119339033.27729,-37738687.87901,  -0.00094,  -0.00004,  -0.00049,232150309.70019,   0.00000,274640135.82653,   0.00000,   0.00000,   0.00000,-242489826.12634,   0.00000
-258437072.74951,-120814171.79640,-37817187.48978,  -0.00094,  -0.00005,  -0.00049,233352400.41915,   0.00000,274640135.82653,   0.00000,   0.00000,   0.00000,-241287735.40738,   0.00000
-259814086.75515,-122282768.68127,-37895687.10055,  -0.00094,  -0.00005,  -0.00049,234507779.45395,   0.00000,274640135.82653,   0.00000,   0.00000,   0.00000,-240132356.37258,   0.00000
-261191100.76079,-123751365.56615,-37961103.44286,  -0.00095,  -0.00005,  -0.00049,235659865.75369,   0.00000,274640135.82653,   0.00000,   0.00000,   0.00000,-238980270.07284,   0.00000
-262532135.77816,-125223233.26814,-38026519.78517,  -0.00095,  -0.00006,  -0.00049,236784514.29170,   0.00000,274640135.82653,   0.00000,   0.00000,   0.00000,-237855621.53483,   0.00000
-263837191.80726,-126698371.78724,-38085394.49325,  -0.00095,  -0.00006,  -0.00050,237878730.44158,   0.00000,274640135.82653,   0.00000,   0.00000,   0.00000,-236761405.38495,   0.00000
-265142247.83635,-128173510.30634,-38144269.20133,  -0.00096,  -0.00007,  -0.00050,238976156.79179,   0.00000,274640135.82653,   0.00000,   0.00000,   0.00000,-235663979.03474,   0.00000
-266388429.15737,-129642107.19122,-38190060.64095,  -0.00096,  -0.00007,  -0.00050,240021157.51298,   0.00000,274640135.82653,   0.00000,   0.00000,   0.00000,-234618978.31355,   0.00000
-267634610.47839,-131110704.07609,-38235852.08057,  -0.00096,  -0.00007,  -0.00050,241069451.37714,   0.00000,274640135.82653,   0.00000,   0.00000,   0.00000,-233570684.44939,   0.00000
-268844812.81114,-132582571.77808,-38275101.88595,  -0.00096,  -0.00008,  -0.00050,242087763.62342,   0.00000,274640135.82653,   0.00000,   0.00000,   0.00000,-232552372.20311,   0.00000
-270032119.42407,-134044627.02872,-38314351.69134,  -0.00097,  -0.00008,  -0.00050,243090356.57248,   0.00000,274640135.82653,   0.00000,   0.00000,   0.00000,-231549779.25405,   0.00000
-271183447.04874,-135509953.09648,-38340518.22826,  -0.00097,  -0.00009,  -0.00050,244060113.83544,   0.00000,274640135.82653,   0.00000,   0.00000,   0.00000,-230580021.99109,   0.00000
-272311878.95360,-136965466.71289,-38366684.76519,  -0.00097,  -0.00009,  -0.00050,245014249.37826,   0.00000,274640135.82653,   0.00000,   0.00000,   0.00000,-229625886.44827,   0.00000
-273427227.59000,-138434063.59777,-38386309.66788,  -0.00097,  -0.00010,  -0.00050,245957969.67763,   0.00000,274640135.82653,   0.00000,   0.00000,   0.00000,-228682166.14890,   0.00000
-274496784.78678,-139883035.57995,-38405934.57057,  -0.00098,  -0.00010,  -0.00050,246867074.39257,   0.00000,274640135.82653,   0.00000,   0.00000,   0.00000,-227773061.43396,   0.00000
-275530362.99528,-141335278.37924,-38419017.83904,  -0.00098,  -0.00011,  -0.00050,247746935.57364,   0.00000,274640135.82653,   0.00000,   0.00000,   0.00000,-226893200.25289,   0.00000
-276563941.20379,-142787521.17854,-38425559.47327,  -0.00098,  -0.00011,  -0.00050,248627393.96360,   0.00000,274640135.82653,   0.00000,   0.00000,   0.00000,-226012741.86293,   0.00000
-277561540.42403,-144243034.79495,-38425559.47327,  -0.00098,  -0.00012,  -0.00050,249478884.35456,   0.00000,274640135.82653,   0.00000,   0.00000,   0.00000,-225161251.47197,   0.00000
-278513348.20465,-145678923.50867,-38419017.83904,  -0.00098,  -0.00012,  -0.00050,250292972.19201,   0.00000,274640135.82653,   0.00000,   0.00000,   0.00000,-224347163.63452,   0.00000
-279452072.71681,-147127895.49085,-38412476.20481,  -0.00098,  -0.00012,  -0.00050,251100454.42504,   0.00000,274640135.82653,   0.00000,   0.00000,   0.00000,-223539681.40149,   0.00000
-280367901.50916,-148567055.02169,-38399392.93634,  -0.00099,  -0.00013,  -0.00050,251889731.26802,   0.00000,274640135.82653,   0.00000,   0.00000,   0.00000,-222750404.55850,   0.00000
-281247751.31323,-150009485.36964,-38386309.66788,  -0.00099,  -0.00013,  -0.00050,252653595.25149,   0.00000,274640135.82653,   0.00000,   0.00000,   0.00000,-221986540.57504,   0.00000
-282104705.39750,-151442103.26624,-38360143.13096,  -0.00099,  -0.00014,  -0.00050,253396423.15056,   0.00000,274640135.82653,   0.00000,   0.00000,   0.00000,-221243712.67597,   0.00000
-282925680.49350,-152877991.97996,-38333976.59403,  -0.00099,  -0.00014,  -0.00050,254114132.79403,   0.00000,274640135.82653,   0.00000,   0.00000,   0.00000,-220526003.03250,   0.00000
-283723759.86969,-154304068.24233,-38301268.42288,  -0.00099,  -0.00015,  -0.00050,254813948.74345,   0.00000,274640135.82653,   0.00000,   0.00000,   0.00000,-219826187.08308,   0.00000
-284498943.52607,-155720332.05335,-38268560.25172,  -0.00099,  -0.00015,  -0.00050,255498823.55653,   0.00000,274640135.82653,   0.00000,   0.00000,   0.00000,-219141312.27000,   0.00000
-285238148.19418,-157139866.68149,-38229310.44634,  -0.00099,  -0.00016,  -0.00050,256155997.07565,   0.00000,274640135.82653,   0.00000,   0.00000,   0.00000,-218484138.75088,   0.00000
-285964269.59383,-158572484.57810,-38183519.00672,  -0.00099,  -0.00016,  -0.00050,256804740.98186,   0.00000,274640135.82653,   0.00000,   0.00000,   0.00000,-217835394.84467,   0.00000
-286644599.55386,-159985477.57201,-38131185.93287,  -0.00099,  -0.00017,  -0.00050,257416915.44305,   0.00000,274640135.82653,   0.00000,   0.00000,   0.00000,-217223220.38348,   0.00000
-287302033.79408,-161388658.11457,-38072311.22479,  -0.00099,  -0.00017,  -0.00049,258011570.53244,   0.00000,274640135.82653,   0.00000,   0.00000,   0.00000,-216628565.29409,   0.00000
-287923489.04603,-162795109.47425,-38013436.51671,  -0.00099,  -0.00018,  -0.00049,258582117.24933,   0.00000,274640135.82653,   0.00000,   0.00000,   0.00000,-216058018.57720,   0.00000
-288522048.57818,-164191748.38258,-37948020.17440,  -0.00099,  -0.00018,  -0.00049,259135331.15955,   0.00000,274640135.82653,   0.00000,   0.00000,   0.00000,-215504804.66698,   0.00000
-289097712.39051,-165578574.83957,-37882603.83209,  -0.00099,  -0.00019,  -0.00049,259674102.61253,   0.00000,274640135.82653,   0.00000,   0.00000,   0.00000,-214966033.21399,   0.00000
-289637397.21457,-166968672.11367,-37810645.85555,  -0.00099,  -0.00019,  -0.00049,260186322.74833,   0.00000,274640135.82653,   0.00000,   0.00000,   0.00000,-214453813.07820,   0.00000
-290163998.77017,-168371852.65623,-37732146.24477,  -0.00099,  -0.00020,  -0.00049,260691237.83285,   0.00000,274640135.82653,   0.00000,   0.00000,   0.00000,-213948897.99368,   0.00000
-290644808.88616,-169755408.29610,-37647104.99977,  -0.00099,  -0.00021,  -0.00049,261160274.39338,   0.00000,274640135.82653,   0.00000,   0.00000,   0.00000,-213479861.43315,   0.00000
-291102723.28233,-171129151.48462,-37562063.75477,  -0.00099,  -0.00021,  -0.00049,261615263.04981,   0.00000,274640135.82653,   0.00000,   0.00000,   0.00000,-213024872.77672,   0.00000
-291514846.23889,-172483269.77045,-37470480.87553,  -0.00099,  -0.00022,  -0.00049,262034465.04917,   0.00000,274640135.82653,   0.00000,   0.00000,   0.00000,-212605670.77736,   0.00000
-291913885.92698,-173850471.32475,-37372356.36207,  -0.00099,  -0.00022,  -0.00049,262446976.70643,   0.00000,274640135.82653,   0.00000,   0.00000,   0.00000,-212193159.12010,   0.00000
-292299842.34662,-175230756.14750,-37274231.84860,  -0.00099,  -0.00023,  -0.00048,262855851.02751,   0.00000,274640135.82653,   0.00000,   0.00000,   0.00000,-211784284.79902,   0.00000
-292630194.87528,-176568520.34775,-37163024.06667,  -0.00099,  -0.00023,  -0.00048,263216382.25171,   0.00000,274640135.82653,   0.00000,   0.00000,   0.00000,-211423753.57482,   0.00000
-292957276.58684,-177942263.53628,-37058357.91898,  -0.00099,  -0.00024,  -0.00048,263586607.81090,   0.00000,274640135.82653,   0.00000,   0.00000,   0.00000,-211053528.01563,   0.00000
-293228754.40743,-179273486.10230,-36940608.50282,  -0.00098,  -0.00024,  -0.00048,263908639.25272,   0.00000,274640135.82653,   0.00000,   0.00000,   0.00000,-210731496.57381,   0.00000
-293487148.95955,-180617791.93678,-36822859.08666,  -0.00098,  -0.00025,  -0.00048,264227669.66307,   0.00000,274640135.82653,   0.00000,   0.00000,   0.00000,-210412466.16346,   0.00000
-293699752.07206,-181942472.86857,-36698568.03627,  -0.00098,  -0.00026,  -0.00048,264511820.74830,   0.00000,274640135.82653,   0.00000,   0.00000,   0.00000,-210128315.07823,   0.00000
-293899271.91611,-183280237.06882,-36567735.35165,  -0.00098,  -0.00026,  -0.00048,264790666.20243,   0.00000,274640135.82653,   0.00000,   0.00000,   0.00000,-209849469.62410,   0.00000
-294075896.04035,-184608188.81773,-36436902.66702,  -0.00098,  -0.00027,  -0.00047,265056486.61264,   0.00000,274640135.82653,   0.00000,   0.00000,   0.00000,-209583649.21389,   0.00000
-294206728.72497,-185916515.66394,-36299528.34817,  -0.00098,  -0.00027,  -0.00047,265287819.94116,   0.00000,274640135.82653,   0.00000,   0.00000,   0.00000,-209352315.88537,   0.00000
-294301582.42132,-187228113.32727,-36155612.39509,  -0.00097,  -0.00028,  -0.00047,265495654.82847,   0.00000,274640135.82653,   0.00000,   0.00000,   0.00000,-209144480.99806,   0.00000
-294396436.11767,-188539710.99060,-36011696.44201,  -0.00097,  -0.00028,  -0.00047,265709601.02866,   0.00000,274640135.82653,   0.00000,   0.00000,   0.00000,-208930534.79787,   0.00000
-294422602.65460,-189821871.29989,-35861238.85469,  -0.00097,  -0.00029,  -0.00047,265870735.03001,   0.00000,274640135.82653,   0.00000,   0.00000,   0.00000,-208769400.79652,   0.00000
-294458581.64287,-191126927.32899,-35704239.63315,  -0.00097,  -0.00030,  -0.00046,266046561.52944,   0.00000,274640135.82653,   0.00000,   0.00000,   0.00000,-208593574.29709,   0.00000
-294448769.19152,-192412358.45539,-35547240.41160,  -0.00096,  -0.00030,  -0.00046,266191341.22465,   0.00000,274640135.82653,   0.00000,   0.00000,   0.00000,-208448794.60188,   0.00000
-294416061.02036,-193687977.13045,-35383699.55582,  -0.00096,  -0.00031,  -0.00046,266321266.06911,   0.00000,274640135.82653,   0.00000,   0.00000,   0.00000,-208318869.75742,   0.00000
-294347373.86094,-194966866.62262,-35220158.70005,  -0.00096,  -0.00031,  -0.00046,266431696.94272,   0.00000,274640135.82653,   0.00000,   0.00000,   0.00000,-208208438.88381,   0.00000
-294255790.98170,-196235943.66345,-35043534.57581,  -0.00096,  -0.00032,  -0.00046,266525048.04750,   0.00000,274640135.82653,   0.00000,   0.00000,   0.00000,-208115087.77903,   0.00000
-294118416.66285,-197485395.80158,-34866910.45157,  -0.00095,  -0.00033,  -0.00045,266587953.55620,   0.00000,274640135.82653,   0.00000,   0.00000,   0.00000,-208052182.27032,   0.00000
-293967959.07554,-198747931.20817,-34690286.32733,  -0.00095,  -0.00033,  -0.00045,266650755.31719,   0.00000,274640135.82653,   0.00000,   0.00000,   0.00000,-207989380.50934,   0.00000
-293794605.76841,-200000654.16342,-34500578.93463,  -0.00095,  -0.00034,  -0.00045,266696997.62375,   0.00000,274640135.82653,   0.00000,   0.00000,   0.00000,-207943138.20278,   0.00000
-293575461.02167,-201233752.21598,-34310871.54193,  -0.00094,  -0.00034,  -0.00045,266713311.40943,   0.00000,274640135.82653,   0.00000,   0.00000,   0.00000,-207926824.41710,   0.00000
-293343233.00647,-202479933.53700,-34121164.14923,  -0.00094,  -0.00035,  -0.00044,266730236.45971,   0.00000,274640135.82653,   0.00000,   0.00000,   0.00000,-207909899.36682,   0.00000
-293065213.55165,-203706489.95532,-33924915.12230,  -0.00094,  -0.00036,  -0.00044,266715142.16771,   0.00000,274640135.82653,   0.00000,   0.00000,   0.00000,-207924993.65882,   0.00000
-292764298.37702,-204923233.92230,-33722124.46113,  -0.00093,  -0.00036,  -0.00044,266686715.90364,   0.00000,274640135.82653,   0.00000,   0.00000,   0.00000,-207953419.92289,   0.00000
-292440487.48258,-206130165.43793,-33512792.16574,  -0.00093,  -0.00037,  -0.00044,266645081.47201,   0.00000,274640135.82653,   0.00000,   0.00000,   0.00000,-207995054.35451,   0.00000
-292080697.59987,-207340367.77068,-33303459.87034,  -0.00092,  -0.00037,  -0.00043,266586578.95071,   0.00000,274640135.82653,   0.00000,   0.00000,   0.00000,-208053556.87582,   0.00000
-291698011.99736,-208540757.65208,-33087585.94072,  -0.00092,  -0.00038,  -0.00043,266515324.90259,   0.00000,274640135.82653,   0.00000,   0.00000,   0.00000,-208124810.92394,   0.00000
-291292430.67503,-209731335.08213,-32871712.01109,  -0.00092,  -0.00039,  -0.00043,266433877.44566,   0.00000,274640135.82653,   0.00000,   0.00000,   0.00000,-208206258.38087,   0.00000
-290850870.36443,-210925183.32930,-32649296.44724,  -0.00091,  -0.00039,  -0.00042,266334035.14504,   0.00000,274640135.82653,   0.00000,   0.00000,   0.00000,-208306100.68148,   0.00000
-290386414.33403,-212109219.12512,-32420339.24915,  -0.00091,  -0.00040,  -0.00042,266222069.08857,   0.00000,274640135.82653,   0.00000,   0.00000,   0.00000,-208418066.73796,   0.00000
-289876166.86401,-213273630.01825,-32191382.05106,  -0.00090,  -0.00041,  -0.00042,266082217.08551,   0.00000,274640135.82653,   0.00000,   0.00000,   0.00000,-208557918.74102,   0.00000
-289343023.67417,-214428228.46003,-31955883.21875,  -0.00090,  -0.00041,  -0.00042,265930581.05936,   0.00000,274640135.82653,   0.00000,   0.00000,   0.00000,-208709554.76717,   0.00000
-288796797.21588,-215595910.17028,-31713842.75220,  -0.00089,  -0.00042,  -0.00041,265780137.85950,   0.00000,274640135.82653,   0.00000,   0.00000,   0.00000,-208859997.96703,   0.00000
-288204779.31797,-216743966.97783,-31471802.28565,  -0.00089,  -0.00042,  -0.00041,265602556.25460,   0.00000,274640135.82653,   0.00000,   0.00000,   0.00000,-209037579.57193,   0.00000
-287589865.70025,-217882211.33404,-31223220.18487,  -0.00088,  -0.00043,  -0.00041,265413905.83277,   0.00000,274640135.82653,   0.00000,   0.00000,   0.00000,-209226229.99376,   0.00000
-286952056.36272,-219010643.23889,-30974638.08409,  -0.00088,  -0.00044,  -0.00040,265216656.10083,   0.00000,274640135.82653,   0.00000,   0.00000,   0.00000,-209423479.72570,   0.00000
-286278268.03692,-220142345.96087,-30719514.34907,  -0.00087,  -0.00044,  -0.00040,265003764.87446,   0.00000,274640135.82653,   0.00000,   0.00000,   0.00000,-209636370.95206,   0.00000
-285571771.53997,-221241340.51169,-30457848.97983,  -0.00087,  -0.00045,  -0.00040,264767308.40026,   0.00000,274640135.82653,   0.00000,   0.00000,   0.00000,-209872827.42627,   0.00000
-284862004.22590,-222376314.05078,-30196183.61059,  -0.00086,  -0.00046,  -0.00039,264549527.50566,   0.00000,274640135.82653,   0.00000,   0.00000,   0.00000,-210090608.32087,   0.00000
-284119528.74067,-223478579.41871,-29927976.60712,  -0.00086,  -0.00046,  -0.00039,264308540.82707,   0.00000,274640135.82653,   0.00000,   0.00000,   0.00000,-210331594.99946,   0.00000
-283331261.81583,-224561219.88395,-29659769.60364,  -0.00085,  -0.00047,  -0.00039,264042112.95193,   0.00000,274640135.82653,   0.00000,   0.00000,   0.00000,-210598022.87460,   0.00000
-282507015.90271,-225647131.16631,-29385020.96594,  -0.00085,  -0.00048,  -0.00038,263761980.83982,   0.00000,274640135.82653,   0.00000,   0.00000,   0.00000,-210878154.98671,   0.00000
-281682769.98960,-226733042.44866,-29103730.69400,  -0.00084,  -0.00048,  -0.00038,263490693.23765,   0.00000,274640135.82653,   0.00000,   0.00000,   0.00000,-211149442.58888,   0.00000
-280812732.63687,-227799328.82833,-28822440.42207,  -0.00083,  -0.00049,  -0.00037,263194931.98036,   0.00000,274640135.82653,   0.00000,   0.00000,   0.00000,-211445203.84617,   0.00000
-279929612.01567,-228878698.47645,-28541150.15013,  -0.00083,  -0.00050,  -0.00037,262906661.74905,   0.00000,274640135.82653,   0.00000,   0.00000,   0.00000,-211733474.07747,   0.00000
-279023595.67467,-229948255.67323,-28246776.60973,  -0.00082,  -0.00050,  -0.00037,262608109.69930,   0.00000,274640135.82653,   0.00000,   0.00000,   0.00000,-212032026.12723,   0.00000
-278061975.44271,-230975292.24751,-27952403.06933,  -0.00081,  -0.00051,  -0.00036,262272019.64216,   0.00000,274640135.82653,   0.00000,   0.00000,   0.00000,-212368116.18437,   0.00000
-277097084.39362,-232038307.81006,-27658029.52894,  -0.00081,  -0.00052,  -0.00036,261958645.02107,   0.00000,274640135.82653,   0.00000,   0.00000,   0.00000,-212681490.80546,   0.00000
-276099485.17339,-233068615.20145,-27357114.35431,  -0.00080,  -0.00052,  -0.00036,261623805.40601,   0.00000,274640135.82653,   0.00000,   0.00000,   0.00000,-213016330.42052,   0.00000
-275056094.51353,-234079297.69015,-27049657.54545,  -0.00080,  -0.00053,  -0.00035,261264400.99448,   0.00000,274640135.82653,   0.00000,   0.00000,   0.00000,-213375734.83205,   0.00000
-274022516.30502,-235112875.89866,-26742200.73659,  -0.00079,  -0.00054,  -0.00035,260932209.37002,   0.00000,274640135.82653,   0.00000,   0.00000,   0.00000,-213707926.45651,   0.00000
-272943146.65690,-236126829.20447,-26428202.29350,  -0.00078,  -0.00054,  -0.00034,260576266.44294,   0.00000,274640135.82653,   0.00000,   0.00000,   0.00000,-214063869.38359,   0.00000
-271817985.56915,-237121157.60759,-26114203.85041,  -0.00077,  -0.00055,  -0.00034,260199001.14247,   0.00000,274640135.82653,   0.00000,   0.00000,   0.00000,-214441134.68406,   0.00000
-270692824.48141,-238115486.01072,-25793663.77308,  -0.00077,  -0.00056,  -0.00034,259833361.43643,   0.00000,274640135.82653,   0.00000,   0.00000,   0.00000,-214806774.39010,   0.00000
-269531684.40540,-239113085.23095,-25473123.69576,  -0.00076,  -0.00056,  -0.00033,259461912.22194,   0.00000,274640135.82653,   0.00000,   0.00000,   0.00000,-215178223.60459,   0.00000
-268337836.15823,-240077976.28003,-25146041.98421,  -0.00075,  -0.00057,  -0.00033,259070636.36580,   0.00000,274640135.82653,   0.00000,   0.00000,   0.00000,-215569499.46073,   0.00000
-267130904.64260,-241055950.59758,-24812418.63842,  -0.00075,  -0.00058,  -0.00032,258689709.37617,   0.00000,274640135.82653,   0.00000,   0.00000,   0.00000,-215950426.45036,   0.00000
-265901077.40716,-242024112.46378,-24478795.29264,  -0.00074,  -0.00058,  -0.00032,258306438.12045,   0.00000,274640135.82653,   0.00000,   0.00000,   0.00000,-216333697.70608,   0.00000
-264625458.73210,-242972649.42728,-24145171.94686,  -0.00073,  -0.00059,  -0.00031,257904170.09011,   0.00000,274640135.82653,   0.00000,   0.00000,   0.00000,-216735965.73642,   0.00000
-263349840.05704,-243921186.39078,-23805006.96684,  -0.00072,  -0.00060,  -0.00031,257515267.65591,   0.00000,274640135.82653,   0.00000,   0.00000,   0.00000,-217124868.17062,   0.00000
-262038242.39371,-244872994.17140,-23458300.35259,  -0.00071,  -0.00060,  -0.00030,257121781.09836,   0.00000,274640135.82653,   0.00000,   0.00000,   0.00000,-217518354.72817,   0.00000
-260693936.55923,-245792093.78087,-23111593.73835,  -0.00071,  -0.00061,  -0.00030,256711921.64845,   0.00000,274640135.82653,   0.00000,   0.00000,   0.00000,-217928214.17808,   0.00000
-259313651.73648,-246714464.20745,-22758345.48987,  -0.00070,  -0.00062,  -0.00030,256298644.25030,   0.00000,274640135.82653,   0.00000,   0.00000,   0.00000,-218341491.57623,   0.00000
-257933366.91372,-247636834.63403,-22405097.24139,  -0.00069,  -0.00062,  -0.00029,255901907.48251,   0.00000,274640135.82653,   0.00000,   0.00000,   0.00000,-218738228.34402,   0.00000
-256507290.65135,-248539580.15792,-22051848.99292,  -0.00068,  -0.00063,  -0.00029,255488846.85727,   0.00000,274640135.82653,   0.00000,   0.00000,   0.00000,-219151288.96926,   0.00000
-255081214.38898,-249442325.68180,-21692059.11021,  -0.00067,  -0.00064,  -0.00028,255091130.19880,   0.00000,274640135.82653,   0.00000,   0.00000,   0.00000,-219549005.62773,   0.00000
-253619159.13834,-250348342.02280,-21325727.59327,  -0.00067,  -0.00064,  -0.00028,254692352.08826,   0.00000,274640135.82653,   0.00000,   0.00000,   0.00000,-219947783.73827,   0.00000
-252124395.71654,-251221650.19265,-20959396.07633,  -0.00066,  -0.00065,  -0.00027,254279001.38798,   0.00000,274640135.82653,   0.00000,   0.00000,   0.00000,-220361134.43855,   0.00000
-250593653.30647,-252098229.17961,-20586522.92516,  -0.00065,  -0.00066,  -0.00027,253865899.18540,   0.00000,274640135.82653,   0.00000,   0.00000,   0.00000,-220774236.64113,   0.00000
-249062910.89640,-252974808.16658,-20213649.77399,  -0.00064,  -0.00067,  -0.00026,253471339.51837,   0.00000,274640135.82653,   0.00000,   0.00000,   0.00000,-221168796.30816,   0.00000
-247509272.76652,-253841574.70219,-19834234.98858,  -0.00063,  -0.00067,  -0.00026,253077917.31599,   0.00000,274640135.82653,   0.00000,   0.00000,   0.00000,-221562218.51054,   0.00000
-245909843.19703,-254688716.33511,-19454820.20318,  -0.00062,  -0.00068,  -0.00025,252671725.76094,   0.00000,274640135.82653,   0.00000,   0.00000,   0.00000,-221968410.06559,   0.00000
-244310413.62753,-255535857.96804,-19068863.78355,  -0.00061,  -0.00069,  -0.00025,252283464.49077,   0.00000,274640135.82653,   0.00000,   0.00000,   0.00000,-222356671.33576,   0.00000
-242665192.61842,-256363374.69827,-18682907.36392,  -0.00060,  -0.00069,  -0.00024,251883427.35572,   0.00000,274640135.82653,   0.00000,   0.00000,   0.00000,-222756708.47081,   0.00000
-241006888.34085,-257203974.69696,-18296950.94428,  -0.00060,  -0.00070,  -0.00024,251504692.71688,   0.00000,274640135.82653,   0.00000,   0.00000,   0.00000,-223135443.10965,   0.00000
-239338771.61192,-258021678.97584,-17904452.89042,  -0.00059,  -0.00071,  -0.00023,251128156.57112,   0.00000,274640135.82653,   0.00000,   0.00000,   0.00000,-223511979.25541,   0.00000
-237634675.89473,-258842654.07184,-17505413.20233,  -0.00058,  -0.00071,  -0.00023,250757027.85886,   0.00000,274640135.82653,   0.00000,   0.00000,   0.00000,-223883107.96767,   0.00000
-235907684.45773,-259653816.71649,-17106373.51423,  -0.00057,  -0.00072,  -0.00022,250391879.86809,   0.00000,274640135.82653,   0.00000,   0.00000,   0.00000,-224248255.95844,   0.00000
-234157797.30092,-260455166.90980,-16707333.82614,  -0.00056,  -0.00073,  -0.00022,250033127.48178,   0.00000,274640135.82653,   0.00000,   0.00000,   0.00000,-224607008.34475,   0.00000
-232385014.42430,-261246704.65176,-16301752.50381,  -0.00055,  -0.00074,  -0.00021,249679910.67699,   0.00000,274640135.82653,   0.00000,   0.00000,   0.00000,-224960225.14953,   0.00000
-230589335.82788,-262028429.94237,-15896171.18148,  -0.00054,  -0.00074,  -0.00021,249333998.96898,   0.00000,274640135.82653,   0.00000,   0.00000,   0.00000,-225306136.85755,   0.00000
-228770761.51164,-262800342.78163,-15484048.22493,  -0.00053,  -0.00075,  -0.00020,248994606.75561,   0.00000,274640135.82653,   0.00000,   0.00000,   0.00000,-225645529.07092,   0.00000
-226939103.92694,-263585338.88936,-15071925.26837,  -0.00052,  -0.00076,  -0.00020,248681032.54297,   0.00000,274640135.82653,   0.00000,   0.00000,   0.00000,-225959103.28356,   0.00000
-225074738.17109,-264337626.82593,-14653260.67758,  -0.00051,  -0.00076,  -0.00019,248357505.86119,   0.00000,274640135.82653,   0.00000,   0.00000,   0.00000,-226282629.96534,   0.00000
-223197289.14677,-265102998.03097,-14234596.08679,  -0.00050,  -0.00077,  -0.00019,248060940.33431,   0.00000,274640135.82653,   0.00000,   0.00000,   0.00000,-226579195.49222,   0.00000
-221287131.95130,-265835661.06485,-13815931.49601,  -0.00049,  -0.00078,  -0.00018,247756376.99746,   0.00000,274640135.82653,   0.00000,   0.00000,   0.00000,-226883758.82907,   0.00000
-219363891.48737,-266581407.36719,-13390725.27099,  -0.00048,  -0.00079,  -0.00017,247478813.82849,   0.00000,274640135.82653,   0.00000,   0.00000,   0.00000,-227161321.99804,   0.00000
-217417755.30363,-267317341.21818,-12965519.04597,  -0.00047,  -0.00079,  -0.00017,247212093.16745,   0.00000,274640135.82653,   0.00000,   0.00000,   0.00000,-227428042.65908,   0.00000
-215448723.40008,-268043462.61783,-12533771.18672,  -0.00046,  -0.00080,  -0.00016,246955693.78051,   0.00000,274640135.82653,   0.00000,   0.00000,   0.00000,-227684442.04602,   0.00000
-213456795.77672,-268759771.56613,-12102023.32747,  -0.00045,  -0.00081,  -0.00016,246711158.46108,   0.00000,274640135.82653,   0.00000,   0.00000,   0.00000,-227928977.36545,   0.00000
-211441972.43355,-269466268.06309,-11663733.83399,  -0.00044,  -0.00081,  -0.00015,246478043.98713,   0.00000,274640135.82653,   0.00000,   0.00000,   0.00000,-228162091.83940,   0.00000
-209404253.37058,-270162952.10870,-11225444.34051,  -0.00043,  -0.00082,  -0.00015,246257837.53819,   0.00000,274640135.82653,   0.00000,   0.00000,   0.00000,-228382298.28834,   0.00000
-207366534.30760,-270859636.15430,-10787154.84702,  -0.00042,  -0.00083,  -0.00014,246064394.30428,   0.00000,274640135.82653,   0.00000,   0.00000,   0.00000,-228575741.52225,   0.00000
-205292836.25635,-271559591.01703,-10342323.71931,  -0.00040,  -0.00084,  -0.00013,245889024.60004,   0.00000,274640135.82653,   0.00000,   0.00000,   0.00000,-228751111.22649,   0.00000
-203209325.75376,-272236650.15994,-9897492.59160,  -0.00039,  -0.00084,  -0.00013,245722768.00887,   0.00000,274640135.82653,   0.00000,   0.00000,   0.00000,-228917367.81766,   0.00000
-201102919.53136,-272903896.85151,-9452661.46389,  -0.00038,  -0.00085,  -0.00012,245571189.63491,   0.00000,274640135.82653,   0.00000,   0.00000,   0.00000,-229068946.19162,   0.00000
-198960534.32068,-273574414.36020,-9001288.70194,  -0.00037,  -0.00086,  -0.00012,245440038.19061,   0.00000,274640135.82653,   0.00000,   0.00000,   0.00000,-229200097.63591,   0.00000
-196818149.11001,-274244931.86888,-8549915.94000,  -0.00036,  -0.00086,  -0.00011,245337705.55984,   0.00000,274640135.82653,   0.00000,   0.00000,   0.00000,-229302430.26669,   0.00000
-194665951.44799,-274892553.65775,-8092001.54383,  -0.00035,  -0.00087,  -0.00011,245244713.85299,   0.00000,274640135.82653,   0.00000,   0.00000,   0.00000,-229395421.97354,   0.00000
-192477774.79770,-275543446.26375,-7634087.14765,  -0.00034,  -0.00088,  -0.00010,245174902.94232,   0.00000,274640135.82653,   0.00000,   0.00000,   0.00000,-229465232.88421,   0.00000
-190266702.42760,-276184526.41839,-7176172.75148,  -0.00033,  -0.00089,  -0.00009,245122589.63332,   0.00000,274640135.82653,   0.00000,   0.00000,   0.00000,-229517546.19321,   0.00000
-188055630.05750,-276825606.57303,-6711716.72107,  -0.00032,  -0.00089,  -0.00009,245099702.19227,   0.00000,274640135.82653,   0.00000,   0.00000,   0.00000,-229540433.63425,   0.00000
-185811849.51625,-277433978.55652,-6247260.69067,  -0.00030,  -0.00090,  -0.00008,245075947.41737,   0.00000,274640135.82653,   0.00000,   0.00000,   0.00000,-229564188.40916,   0.00000
-183554985.70653,-278055433.80847,-5782804.66026,  -0.00029,  -0.00091,  -0.00008,245090020.92909,   0.00000,274640135.82653,   0.00000,   0.00000,   0.00000,-229550114.89744,   0.00000
-181275226.17700,-278667076.60908,-5311806.99562,  -0.00028,  -0.00091,  -0.00007,245122940.07631,   0.00000,274640135.82653,   0.00000,   0.00000,   0.00000,-229517195.75022,   0.00000
-178972570.92767,-279268906.95834,-4840809.33099,  -0.00027,  -0.00092,  -0.00006,245175711.65311,   0.00000,274640135.82653,   0.00000,   0.00000,   0.00000,-229464424.17342,   0.00000
-176679728.12968,-279893633.02740,-4369811.66635,  -0.00026,  -0.00093,  -0.00006,245279283.50096,   0.00000,274640135.82653,   0.00000,   0.00000,   0.00000,-229360852.32557,   0.00000
-174354177.16054,-280485650.92531,-3892272.36748,  -0.00025,  -0.00094,  -0.00005,245383748.33809,   0.00000,274640135.82653,   0.00000,   0.00000,   0.00000,-229256387.48844,   0.00000
-172005730.47159,-281067856.37188,-3414733.06862,  -0.00023,  -0.00094,  -0.00004,245509287.92819,   0.00000,274640135.82653,   0.00000,   0.00000,   0.00000,-229130847.89834,   0.00000
-169634388.06283,-281640249.36710,-2937193.76975,  -0.00022,  -0.00095,  -0.00004,245656397.52199,   0.00000,274640135.82653,   0.00000,   0.00000,   0.00000,-228983738.30454,   0.00000
-167263045.65407,-282212642.36232,-2453112.83665,  -0.00021,  -0.00096,  -0.00003,245835736.12223,   0.00000,274640135.82653,   0.00000,   0.00000,   0.00000,-228804399.70430,   0.00000
-164878619.97684,-282798118.62600,-1969031.90355,  -0.00020,  -0.00097,  -0.00003,246056909.98767,   0.00000,274640135.82653,   0.00000,   0.00000,   0.00000,-228583225.83886,   0.00000
-162461486.12846,-283350886.71852,-1484950.97045,  -0.00019,  -0.00097,  -0.00002,246281279.36424,   0.00000,274640135.82653,   0.00000,   0.00000,   0.00000,-228358856.46229,   0.00000
-160044352.28009,-283903654.81104,-1000870.03735,  -0.00017,  -0.00098,  -0.00001,246538655.36693,   0.00000,274640135.82653,   0.00000,   0.00000,   0.00000,-228101480.45960,   0.00000
-157614135.16325,-284469506.17203,-510247.47002,  -0.00016,  -0.00099,  -0.00001,246838978.70239,   0.00000,274640135.82653,   0.00000,   0.00000,   0.00000,-227801157.12414,   0.00000
-155151209.87525,-285002649.36186,-19624.90269,  -0.00015,  -0.00099,  -0.00000,247143487.38800,   0.00000,274640135.82653,   0.00000,   0.00000,   0.00000,-227496648.43853,   0.00000
-152665388.86745,-285525980.10035,477539.29887,  -0.00014,  -0.00100,   0.00001,247472333.03519,   0.00000,274640135.82653,   0.00000,   0.00000,   0.00000,-227167802.79134,   0.00000
-150189380.31099,-286072206.55864,968161.86620,  -0.00013,  -0.00101,   0.00001,247854719.35892,   0.00000,274640135.82653,   0.00000,   0.00000,   0.00000,-226785416.46761,   0.00000
-147680663.58338,-286585724.84578,1465326.06776,  -0.00011,  -0.00102,   0.00002,248242276.02186,   0.00000,274640135.82653,   0.00000,   0.00000,   0.00000,-226397859.80467,   0.00000
-145181759.30711,-287122138.85273,1962490.26932,  -0.00010,  -0.00102,   0.00003,248683579.48281,   0.00000,274640135.82653,   0.00000,   0.00000,   0.00000,-225956556.34372,   0.00000
-142650146.85969,-287625844.68852,2466196.10511,  -0.00009,  -0.00103,   0.00003,249130625.00645,   0.00000,274640135.82653,   0.00000,   0.00000,   0.00000,-225509510.82008,   0.00000
-140105451.14380,-288142633.79277,2963360.30667,  -0.00008,  -0.00104,   0.00004,249623127.25560,   0.00000,274640135.82653,   0.00000,   0.00000,   0.00000,-225017008.57093,   0.00000
-137550942.97657,-288636527.17722,3467066.14246,  -0.00006,  -0.00105,   0.00005,250130249.84369,   0.00000,274640135.82653,   0.00000,   0.00000,   0.00000,-224509885.98283,   0.00000
-134983351.54088,-289143503.83013,3970771.97826,  -0.00005,  -0.00105,   0.00005,250683491.41381,   0.00000,274640135.82653,   0.00000,   0.00000,   0.00000,-223956644.41272,   0.00000
-132415760.10519,-289650480.48303,4481019.44828,  -0.00004,  -0.00106,   0.00006,251271336.28049,   0.00000,274640135.82653,   0.00000,   0.00000,   0.00000,-223368799.54604,   0.00000
-129815460.49834,-290124748.96479,4984725.28407,  -0.00002,  -0.00107,   0.00006,251865615.58879,   0.00000,274640135.82653,   0.00000,   0.00000,   0.00000,-222774520.23774,   0.00000
-127202077.62303,-290612100.71500,5494972.75409,  -0.00001,  -0.00107,   0.00007,252507193.59449,   0.00000,274640135.82653,   0.00000,   0.00000,   0.00000,-222132942.23204,   0.00000
-124578882.29638,-291076556.74541,6005220.22412,   0.00000,  -0.00108,   0.00008,253163298.50272,   0.00000,274640135.82653,   0.00000,   0.00000,   0.00000,-221476837.32381,   0.00000
-121965499.42107,-291563908.49562,6515467.69414,   0.00001,  -0.00109,   0.00008,253873417.33877,   0.00000,274640135.82653,   0.00000,   0.00000,   0.00000,-220766718.48776,   0.00000
-119329220.82595,-292041447.79449,7032256.79839,   0.00003,  -0.00110,   0.00009,254611369.86723,   0.00000,274640135.82653,   0.00000,   0.00000,   0.00000,-220028765.95930,   0.00000
-116660234.05967,-292486278.92220,7549045.90265,   0.00004,  -0.00110,   0.00010,255357161.81934,   0.00000,274640135.82653,   0.00000,   0.00000,   0.00000,-219282974.00719,   0.00000
-114001059.74475,-292954005.76972,8065835.00690,   0.00005,  -0.00111,   0.00010,256156977.43437,   0.00000,274640135.82653,   0.00000,   0.00000,   0.00000,-218483158.39216,   0.00000
-111309177.25866,-293389024.44609,8582624.11116,   0.00007,  -0.00112,   0.00011,256964873.06539,   0.00000,274640135.82653,   0.00000,   0.00000,   0.00000,-217675262.76114,   0.00000
-108627107.22393,-293846938.84226,9099413.21541,   0.00008,  -0.00113,   0.00012,257826544.25090,   0.00000,274640135.82653,   0.00000,   0.00000,   0.00000,-216813591.57563,   0.00000
-105945037.18919,-294304853.23844,9616202.31966,   0.00009,  -0.00113,   0.00013,258721806.12497,   0.00000,274640135.82653,   0.00000,   0.00000,   0.00000,-215918329.70155,   0.00000
-103230258.98330,-294730059.46346,10139533.05815,   0.00011,  -0.00114,   0.00013,259626008.60551,   0.00000,274640135.82653,   0.00000,   0.00000,   0.00000,-215014127.22102,   0.00000
-100502397.50895,-295168348.95694,10662863.79663,   0.00012,  -0.00115,   0.00014,260578297.99336,   0.00000,274640135.82653,   0.00000,   0.00000,   0.00000,-214061837.83317,   0.00000
-97764723.58325,-295583742.73061,11186194.53512,   0.00013,  -0.00115,   0.00015,261544298.51311,   0.00000,274640135.82653,   0.00000,   0.00000,   0.00000,-213095837.31342,   0.00000
-95036862.10889,-296022032.22409,11709525.27360,   0.00014,  -0.00116,   0.00015,262563102.14939,   0.00000,274640135.82653,   0.00000,   0.00000,   0.00000,-212077033.67714,   0.00000
-92276292.46338,-296427613.54642,12232856.01209,   0.00016,  -0.00117,   0.00016,263590461.43671,   0.00000,274640135.82653,   0.00000,   0.00000,   0.00000,-211049674.38982,   0.00000
-89525535.26922,-296856090.58855,12762728.38481,   0.00017,  -0.00118,   0.00017,264671156.88031,   0.00000,274640135.82653,   0.00000,   0.00000,   0.00000,-209968978.94622,   0.00000
-86764965.62371,-297261671.91088,13286059.12329,   0.00018,  -0.00118,   0.00017,265763654.78263,   0.00000,274640135.82653,   0.00000,   0.00000,   0.00000,-208876481.04390,   0.00000
-83991312.70974,-297680336.50166,13815931.49601,   0.00020,  -0.00119,   0.00018,266904853.85078,   0.00000,274640135.82653,   0.00000,   0.00000,   0.00000,-207735281.97575,   0.00000
-81207847.34442,-298076105.37264,14345803.86872,   0.00021,  -0.00120,   0.00019,268058513.14263,   0.00000,274640135.82653,   0.00000,   0.00000,   0.00000,-206581622.68390,   0.00000
-78411298.71064,-298484957.51209,14875676.24144,   0.00023,  -0.00121,   0.00019,269259847.90400,   0.00000,274640135.82653,   0.00000,   0.00000,   0.00000,-205380287.92252,   0.00000
-75604937.62552,-298870913.93172,15405548.61415,   0.00024,  -0.00121,   0.00020,270473299.54389,   0.00000,274640135.82653,   0.00000,   0.00000,   0.00000,-204166836.28264,   0.00000
-72808388.99174,-299279766.07116,15935420.98687,   0.00025,  -0.00122,   0.00021,271737327.55697,   0.00000,274640135.82653,   0.00000,   0.00000,   0.00000,-202902808.26956,   0.00000
-70002027.90661,-299665722.49079,16471834.99382,   0.00027,  -0.00123,   0.00021,273013891.44639,   0.00000,274640135.82653,   0.00000,   0.00000,   0.00000,-201626244.38014,   0.00000
-67172771.10168,-300041866.45908,17001707.36653,   0.00028,  -0.00123,   0.00022,274317030.73138,   0.00000,274640135.82653,   0.00000,   0.00000,   0.00000,-200323105.09515,   0.00000
-64353326.74809,-300440906.14717,17538121.37348,   0.00029,  -0.00124,   0.00023,275670952.49996,   0.00000,274640135.82653,   0.00000,   0.00000,   0.00000,-198969183.32657,   0.00000
-61501174.22334,-300807237.66411,18067993.74620,   0.00031,  -0.00125,   0.00023,277032033.39105,   0.00000,274640135.82653,   0.00000,   0.00000,   0.00000,-197608102.43548,   0.00000
-58671917.41841,-301183381.63240,18604407.75314,   0.00032,  -0.00126,   0.00024,278426271.62982,   0.00000,274640135.82653,   0.00000,   0.00000,   0.00000,-196213864.19671,   0.00000
-55819764.89367,-301549713.14934,19140821.76009,   0.00033,  -0.00126,   0.00025,279847734.91032,   0.00000,274640135.82653,   0.00000,   0.00000,   0.00000,-194792400.91620,   0.00000
-52967612.36892,-301916044.66628,19677235.76704,   0.00035,  -0.00127,   0.00026,281298195.49270,   0.00000,274640135.82653,   0.00000,   0.00000,   0.00000,-193341940.33383,   0.00000
-50102376.57572,-302295459.45168,20213649.77399,   0.00036,  -0.00128,   0.00026,282794708.06332,   0.00000,274640135.82653,   0.00000,   0.00000,   0.00000,-191845427.76321,   0.00000
-47250224.05097,-302661790.96862,20750063.78093,   0.00038,  -0.00128,   0.00027,284301954.60285,   0.00000,274640135.82653,   0.00000,   0.00000,   0.00000,-190338181.22368,   0.00000
-44375175.80642,-303018310.03421,21286477.78788,   0.00039,  -0.00129,   0.00028,285835799.14586,   0.00000,274640135.82653,   0.00000,   0.00000,   0.00000,-188804336.68067,   0.00000
-41500127.56187,-303374829.09981,21822891.79483,   0.00040,  -0.00130,   0.00028,287397232.46954,   0.00000,274640135.82653,   0.00000,   0.00000,   0.00000,-187242903.35699,   0.00000
-38625079.31731,-303731348.16540,22359305.80178,   0.00042,  -0.00131,   0.00029,288985807.37539,   0.00000,274640135.82653,   0.00000,   0.00000,   0.00000,-185654328.45114,   0.00000
-35727135.35295,-304078054.77965,22902261.44295,   0.00043,  -0.00131,   0.00030,290602124.07298,   0.00000,274640135.82653,   0.00000,   0.00000,   0.00000,-184038011.75355,   0.00000
-32852087.10840,-304434573.84524,23438675.44990,   0.00044,  -0.00132,   0.00030,292243858.38110,   0.00000,274640135.82653,   0.00000,   0.00000,   0.00000,-182396277.44543,   0.00000
-29944330.69269,-304758384.73968,23975089.45685,   0.00046,  -0.00133,   0.00031,293892777.89552,   0.00000,274640135.82653,   0.00000,   0.00000,   0.00000,-180747357.93101,   0.00000
-27046386.72833,-305105091.35392,24518045.09803,   0.00047,  -0.00134,   0.00032,295587613.26870,   0.00000,274640135.82653,   0.00000,   0.00000,   0.00000,-179052522.55783,   0.00000
-24148442.76397,-305451797.96817,25054459.10497,   0.00049,  -0.00134,   0.00033,297306139.64843,   0.00000,274640135.82653,   0.00000,   0.00000,   0.00000,-177333996.17810,   0.00000
-21250498.79961,-305798504.58241,25590873.11192,   0.00050,  -0.00135,   0.00033,299049522.16884,   0.00000,274640135.82653,   0.00000,   0.00000,   0.00000,-175590613.65769,   0.00000
-18342742.38390,-306122315.47685,26133828.75310,   0.00051,  -0.00136,   0.00034,300800825.25852,   0.00000,274640135.82653,   0.00000,   0.00000,   0.00000,-173839310.56801,   0.00000
-15444798.41954,-306469022.09110,26670242.76005,   0.00053,  -0.00136,   0.00035,302592723.93484,   0.00000,274640135.82653,   0.00000,   0.00000,   0.00000,-172047411.89169,   0.00000
-12523958.73537,-306805916.25400,27213198.40122,   0.00054,  -0.00137,   0.00035,304410856.66842,   0.00000,274640135.82653,   0.00000,   0.00000,   0.00000,-170229279.15811,   0.00000
-9616202.31966,-307129727.14844,27749612.40817,   0.00056,  -0.00138,   0.00036,306231680.29630,   0.00000,274640135.82653,   0.00000,   0.00000,   0.00000,-168408455.53023,   0.00000
-6718258.35530,-307476433.76268,28292568.04935,   0.00057,  -0.00139,   0.00037,308095106.11992,   0.00000,274640135.82653,   0.00000,   0.00000,   0.00000,-166545029.70661,   0.00000
-3787606.21979,-307790432.20577,28828982.05630,   0.00058,  -0.00139,   0.00037,309962639.33269,   0.00000,274640135.82653,   0.00000,   0.00000,   0.00000,-164677496.49384,   0.00000
-879849.80408,-308114243.10021,29365396.06324,   0.00060,  -0.00140,   0.00038,311850999.89951,   0.00000,274640135.82653,   0.00000,   0.00000,   0.00000,-162789135.92702,   0.00000
2040989.88009,-308451137.26311,29908351.70442,   0.00061,  -0.00141,   0.00039,313782319.24900,   0.00000,274640135.82653,   0.00000,   0.00000,   0.00000,-160857816.57753,   0.00000
4971642.01561,-308765135.70620,30444765.71137,   0.00062,  -0.00141,   0.00040,315715611.35188,   0.00000,274640135.82653,   0.00000,   0.00000,   0.00000,-158924524.47465,   0.00000
7879398.43132,-309088946.60064,30981179.71832,   0.00064,  -0.00142,   0.00040,317668061.47539,   0.00000,274640135.82653,   0.00000,   0.00000,   0.00000,-156972074.35114,   0.00000
10810050.56683,-309402945.04373,31517593.72526,   0.00065,  -0.00143,   0.00041,319643202.99223,   0.00000,274640135.82653,   0.00000,   0.00000,   0.00000,-154996932.83430,   0.00000
13717806.98254,-309726755.93817,32060549.36644,   0.00067,  -0.00144,   0.00042,321638383.75529,   0.00000,274640135.82653,   0.00000,   0.00000,   0.00000,-153001752.07124,   0.00000
16648459.11806,-310040754.38126,32596963.37339,   0.00068,  -0.00144,   0.00042,323653869.83018,   0.00000,274640135.82653,   0.00000,   0.00000,   0.00000,-150986265.99635,   0.00000
19556215.53376,-310364565.27570,33133377.38034,   0.00069,  -0.00145,   0.00043,325686394.20036,   0.00000,274640135.82653,   0.00000,   0.00000,   0.00000,-148953741.62617,   0.00000
22486867.66928,-310678563.71879,33669791.38728,   0.00071,  -0.00146,   0.00044,327740722.94752,   0.00000,274640135.82653,   0.00000,   0.00000,   0.00000,-146899412.87901,   0.00000
25394624.08499,-311002374.61323,34206205.39423,   0.00072,  -0.00146,   0.00044,329811075.92490,   0.00000,274640135.82653,   0.00000,   0.00000,   0.00000,-144829059.90163,   0.00000
28312192.95204,-311303289.78786,34736077.76695,   0.00074,  -0.00147,   0.00045,331880675.25162,   0.00000,274640135.82653,   0.00000,   0.00000,   0.00000,-142759460.57491,   0.00000
31242845.08756,-311617288.23095,35272491.77389,   0.00075,  -0.00148,   0.00046,333990578.28657,   0.00000,274640135.82653,   0.00000,   0.00000,   0.00000,-140649557.53996,   0.00000
34150601.50327,-311941099.12538,35808905.78084,   0.00076,  -0.00149,   0.00047,336115043.21433,   0.00000,274640135.82653,   0.00000,   0.00000,   0.00000,-138525092.61220,   0.00000
37068170.37032,-312242014.30001,36338778.15356,   0.00078,  -0.00149,   0.00047,338237912.31123,   0.00000,274640135.82653,   0.00000,   0.00000,   0.00000,-136402223.51530,   0.00000
39953031.06622,-312575637.64580,36875192.16051,   0.00079,  -0.00150,   0.00048,340393092.60484,   0.00000,274640135.82653,   0.00000,   0.00000,   0.00000,-134247043.22169,   0.00000
42870599.93328,-312876552.82043,37405064.53322,   0.00081,  -0.00151,   0.00049,342549628.12139,   0.00000,274640135.82653,   0.00000,   0.00000,   0.00000,-132090507.70514,   0.00000
45788168.80033,-313177467.99505,37934936.90594,   0.00082,  -0.00151,   0.00049,344722618.84749,   0.00000,274640135.82653,   0.00000,   0.00000,   0.00000,-129917516.97904,   0.00000
48682841.94758,-313488195.62103,38464809.27865,   0.00083,  -0.00152,   0.00050,346907752.62626,   0.00000,274640135.82653,   0.00000,   0.00000,   0.00000,-127732383.20027,   0.00000
51567702.64347,-313821818.96681,38994681.65137,   0.00085,  -0.00153,   0.00051,349124888.61489,   0.00000,274640135.82653,   0.00000,   0.00000,   0.00000,-125515247.21164,   0.00000
54462375.79072,-314132546.59279,39524554.02409,   0.00086,  -0.00154,   0.00051,351340836.11030,   0.00000,274640135.82653,   0.00000,   0.00000,   0.00000,-123299299.71623,   0.00000
57357048.93797,-314443274.21877,40054426.39680,   0.00087,  -0.00154,   0.00052,353571793.63433,   0.00000,274640135.82653,   0.00000,   0.00000,   0.00000,-121068342.19219,   0.00000
60251722.08521,-314754001.84474,40577757.13529,   0.00089,  -0.00155,   0.00053,355815240.62111,   0.00000,274640135.82653,   0.00000,   0.00000,   0.00000,-118824895.20542,   0.00000
63123499.51265,-315074541.92206,41107629.50800,   0.00090,  -0.00156,   0.00053,358070750.63860,   0.00000,274640135.82653,   0.00000,   0.00000,   0.00000,-116569385.18793,   0.00000
66027985.11124,-315362373.82823,41630960.24649,   0.00092,  -0.00156,   0.00054,360326621.72165,   0.00000,274640135.82653,   0.00000,   0.00000,   0.00000,-114313514.10488,   0.00000
68899762.53868,-315682913.90555,42154290.98497,   0.00093,  -0.00157,   0.00055,362607652.92632,   0.00000,274640135.82653,   0.00000,   0.00000,   0.00000,-112032482.90021,   0.00000
71748644.24631,-316013266.43422,42677621.72346,   0.00094,  -0.00158,   0.00055,364897128.14987,   0.00000,274640135.82653,   0.00000,   0.00000,   0.00000,-109743007.67666,   0.00000
74630234.12509,-316310910.79173,43200952.46194,   0.00096,  -0.00158,   0.00056,367188763.90901,   0.00000,274640135.82653,   0.00000,   0.00000,   0.00000,-107451371.91752,   0.00000
77479115.83272,-316641263.32040,43717741.56620,   0.00097,  -0.00159,   0.00057,369501706.25929,   0.00000,274640135.82653,   0.00000,   0.00000,   0.00000,-105138429.56724,   0.00000
80337809.99169,-316948720.12926,44241072.30468,   0.00098,  -0.00160,   0.00058,371813714.64310,   0.00000,274640135.82653,   0.00000,   0.00000,   0.00000,-102826421.18343,   0.00000
83196504.15067,-317256176.93812,44757861.40894,   0.00100,  -0.00161,   0.00058,374135728.61122,   0.00000,274640135.82653,   0.00000,   0.00000,   0.00000,-100504407.21531,   0.00000
86032302.58983,-317573446.19833,45274650.51319,   0.00101,  -0.00161,   0.00059,376464351.00059,   0.00000,274640135.82653,   0.00000,   0.00000,   0.00000,-98175784.82594,   0.00000
88858288.57765,-317913611.17834,45791439.61745,   0.00102,  -0.00162,   0.00060,378820124.66733,   0.00000,274640135.82653,   0.00000,   0.00000,   0.00000,-95820011.15920,   0.00000
91694087.01682,-318230880.43855,46301687.08747,   0.00104,  -0.00163,   0.00060,381169421.10084,   0.00000,274640135.82653,   0.00000,   0.00000,   0.00000,-93470714.72569,   0.00000
94539697.90733,-318525253.97895,46818476.19172,   0.00105,  -0.00163,   0.00061,383516990.92548,   0.00000,274640135.82653,   0.00000,   0.00000,   0.00000,-91123144.90105,   0.00000
97352600.62669,-318852335.69050,47328723.66175,   0.00106,  -0.00164,   0.00062,385882714.26663,   0.00000,274640135.82653,   0.00000,   0.00000,   0.00000,-88757421.55990,   0.00000
100142607.62624,-319189229.85340,47838971.13177,   0.00108,  -0.00165,   0.00062,388253074.16318,   0.00000,274640135.82653,   0.00000,   0.00000,   0.00000,-86387061.66335,   0.00000
102955510.34559,-319516311.56496,48349218.60179,   0.00109,  -0.00165,   0.00063,390639752.46475,   0.00000,274640135.82653,   0.00000,   0.00000,   0.00000,-84000383.36178,   0.00000
105755329.79649,-319830310.00805,48852924.43758,   0.00110,  -0.00166,   0.00064,393012978.88535,   0.00000,274640135.82653,   0.00000,   0.00000,   0.00000,-81627156.94118,   0.00000
108522441.07623,-320177016.62229,49356630.27337,   0.00112,  -0.00167,   0.00064,395404937.33194,   0.00000,274640135.82653,   0.00000,   0.00000,   0.00000,-79235198.49458,   0.00000
111322260.52712,-320491015.06538,49860336.10917,   0.00113,  -0.00168,   0.00065,397797787.89352,   0.00000,274640135.82653,   0.00000,   0.00000,   0.00000,-76842347.93301,   0.00000
114089371.80686,-320837721.67963,50364041.94496,   0.00114,  -0.00168,   0.00065,400208711.41610,   0.00000,274640135.82653,   0.00000,   0.00000,   0.00000,-74431424.41043,   0.00000
116843399.81814,-321171345.02541,50861206.14652,   0.00116,  -0.00169,   0.00066,402604957.36574,   0.00000,274640135.82653,   0.00000,   0.00000,   0.00000,-72035178.46079,   0.00000
119597427.82942,-321504968.37120,51364911.98231,   0.00117,  -0.00170,   0.00067,405012616.13832,   0.00000,274640135.82653,   0.00000,   0.00000,   0.00000,-69627519.68821,   0.00000
122351455.84070,-321838591.71698,51862076.18387,   0.00118,  -0.00170,   0.00067,407426561.41360,   0.00000,274640135.82653,   0.00000,   0.00000,   0.00000,-67213574.41293,   0.00000
125082588.13217,-322182027.51411,52352698.75120,   0.00120,  -0.00171,   0.00068,409839834.27393,   0.00000,274640135.82653,   0.00000,   0.00000,   0.00000,-64800301.55260,   0.00000
127813720.42364,-322525463.31124,52849862.95276,   0.00121,  -0.00172,   0.00069,412263902.19398,   0.00000,274640135.82653,   0.00000,   0.00000,   0.00000,-62376233.63255,   0.00000
130521956.99530,-322878711.55972,53340485.52009,   0.00122,  -0.00172,   0.00069,414686661.38158,   0.00000,274640135.82653,   0.00000,   0.00000,   0.00000,-59953474.44495,   0.00000
133240006.01830,-323209064.08839,53824566.45319,   0.00124,  -0.00173,   0.00070,417100261.11066,   0.00000,274640135.82653,   0.00000,   0.00000,   0.00000,-57539874.71587,   0.00000
135925346.87016,-323572124.78821,54315189.02052,   0.00125,  -0.00174,   0.00071,419531515.42654,   0.00000,274640135.82653,   0.00000,   0.00000,   0.00000,-55108620.39999,   0.00000
138620500.17335,-323912289.76823,54799269.95362,   0.00126,  -0.00174,   0.00071,421953289.01850,   0.00000,274640135.82653,   0.00000,   0.00000,   0.00000,-52686846.80803,   0.00000
141282945.30540,-324285162.91940,55283350.88672,   0.00128,  -0.00175,   0.00072,424389499.29954,   0.00000,274640135.82653,   0.00000,   0.00000,   0.00000,-50250636.52699,   0.00000
143955202.88879,-324635140.35076,55767431.81982,   0.00129,  -0.00176,   0.00072,426818476.21520,   0.00000,274640135.82653,   0.00000,   0.00000,   0.00000,-47821659.61133,   0.00000
146604564.75237,-324994930.23347,56244971.11868,   0.00130,  -0.00176,   0.00073,429244491.75932,   0.00000,274640135.82653,   0.00000,   0.00000,   0.00000,-45395644.06721,   0.00000
149253926.61595,-325354720.11618,56722510.41755,   0.00131,  -0.00177,   0.00074,431677226.17337,   0.00000,274640135.82653,   0.00000,   0.00000,   0.00000,-42962909.65316,   0.00000
151880392.75972,-325724322.45023,57193508.08219,   0.00133,  -0.00178,   0.00074,434106459.36900,   0.00000,274640135.82653,   0.00000,   0.00000,   0.00000,-40533676.45753,   0.00000
154506858.90349,-326093924.78429,57671047.38106,   0.00134,  -0.00179,   0.00075,436544630.44855,   0.00000,274640135.82653,   0.00000,   0.00000,   0.00000,-38095505.37798,   0.00000
157110429.32745,-326473339.56969,58142045.04569,   0.00135,  -0.00179,   0.00076,438978800.40304,   0.00000,274640135.82653,   0.00000,   0.00000,   0.00000,-35661335.42349,   0.00000
159700916.48296,-326839671.08663,58606501.07610,   0.00136,  -0.00180,   0.00076,441394737.44278,   0.00000,274640135.82653,   0.00000,   0.00000,   0.00000,-33245398.38375,   0.00000
162281591.18711,-327228898.32338,59070957.10650,   0.00138,  -0.00181,   0.00077,443830403.37376,   0.00000,274640135.82653,   0.00000,   0.00000,   0.00000,-30809732.45277,   0.00000
164872078.34261,-327595229.84032,59535413.13691,   0.00139,  -0.00181,   0.00077,446257929.32136,   0.00000,274640135.82653,   0.00000,   0.00000,   0.00000,-28382206.50517,   0.00000
167429857.32696,-327994269.52841,59999869.16732,   0.00140,  -0.00182,   0.00078,448696985.30243,   0.00000,274640135.82653,   0.00000,   0.00000,   0.00000,-25943150.52410,   0.00000
169974553.04284,-328380225.94805,60457783.56349,   0.00141,  -0.00183,   0.00079,451117096.09553,   0.00000,274640135.82653,   0.00000,   0.00000,   0.00000,-23523039.73100,   0.00000
172519248.75872,-328766182.36768,60915697.95966,   0.00143,  -0.00183,   0.00079,453542451.63378,   0.00000,274640135.82653,   0.00000,   0.00000,   0.00000,-21097684.19275,   0.00000
175041048.75480,-329161951.23866,61367070.72161,   0.00144,  -0.00184,   0.00080,455962239.83381,   0.00000,274640135.82653,   0.00000,   0.00000,   0.00000,-18677895.99272,   0.00000
177539953.03107,-329567532.56098,61818443.48355,   0.00145,  -0.00185,   0.00080,458378836.28745,   0.00000,274640135.82653,   0.00000,   0.00000,   0.00000,-16261299.53908,   0.00000
180038857.30733,-329973113.88331,62269816.24549,   0.00146,  -0.00185,   0.00081,460800193.61738,   0.00000,274640135.82653,   0.00000,   0.00000,   0.00000,-13839942.20915,   0.00000
182514865.86379,-330388507.65698,62714647.37321,   0.00147,  -0.00186,   0.00082,463215325.08810,   0.00000,274640135.82653,   0.00000,   0.00000,   0.00000,-11424810.73843,   0.00000
184977791.15179,-330790818.16219,63159478.50092,   0.00149,  -0.00187,   0.00082,465613211.42152,   0.00000,274640135.82653,   0.00000,   0.00000,   0.00000,-9026924.40500,   0.00000
187430903.98843,-331216024.38721,63597767.99440,   0.00150,  -0.00187,   0.00083,468026223.33450,   0.00000,274640135.82653,   0.00000,   0.00000,   0.00000,-6613912.49203,   0.00000
189870933.55662,-331628147.34377,64036057.48788,   0.00151,  -0.00188,   0.00083,470421720.82708,   0.00000,274640135.82653,   0.00000,   0.00000,   0.00000,-4218414.99945,   0.00000
192301150.67346,-332063166.02014,64474346.98136,   0.00152,  -0.00189,   0.00084,472834677.19237,   0.00000,274640135.82653,   0.00000,   0.00000,   0.00000,-1805458.63415,   0.00000
194114716.82549,-332390202.53935,64801383.50058,   0.00153,  -0.00189,   0.00084,474640135.24422,   0.00000,274640135.82653,   0.00000,   0.00000,   0.00000,  -0.58231,   0.00000
194444688.74589,-332104584.33518,64827173.19159,   0.00153,  -0.00189,   0.00084,474640135.24422,   0.00000,274642867.17454,   0.00000,  -0.00000,   0.00000,   0.25539,   1.00000
195799613.37207,-330932385.21966,64926563.21610,   0.00155,  -0.00190,   0.00085,477027975.27705,   0.00001,274654127.86080,   0.00001,  -0.00001,   0.00001,   0.00000,   2.00000
197146229.49066,-329761017.09021,65031155.66699,   0.00156,  -0.00191,   0.00085,477045544.71008,   0.00002,274665417.92008,   0.00002,  -0.00002,   0.00001,   0.00000,   2.00000
198448904.70795,-328625154.61809,65130998.96815,   0.00157,  -0.00191,   0.00086,477040425.91414,   0.00003,274676630.03433,   0.00003,  -0.00003,   0.00001,   0.00000,   2.00000
199745965.08324,-327493702.60963,65223790.44607,   0.00158,  -0.00192,   0.00087,477052311.05548,   0.00004,274687844.82321,   0.00003,  -0.00004,   0.00002,   0.00000,   2.00000
201051811.88650,-326350720.64412,65317495.08108,   0.00159,  -0.00193,   0.00087,477053798.63342,   0.00005,274699013.18072,   0.00004,  -0.00005,   0.00002,  -0.00000,   2.00000
202297497.39628,-325255718.31274,65410939.56186,   0.00160,  -0.00193,   0.00088,477063789.55304,   0.00006,274710175.39076,   0.00005,  -0.00006,   0.00003,   0.00000,   2.00000
203553529.91707,-324150850.60442,65499180.65413,   0.00162,  -0.00194,   0.00088,477062354.75052,   0.00007,274721277.54558,   0.00006,  -0.00007,   0.00003,  -0.00000,   2.00000
204785481.27668,-323065958.21947,65581677.90477,   0.00163,  -0.00195,   0.00089,477065007.05741,   0.00008,274732339.18756,   0.00006,  -0.00008,   0.00003,   0.00000,   2.00000
205976731.88955,-322013620.26504,65662847.28091,   0.00164,  -0.00195,   0.00089,477083076.64857,   0.00009,274743433.21559,   0.00007,  -0.00009,   0.00004,  -0.00000,   2.00000
207158762.56757,-320965074.80758,65746268.42508,   0.00165,  -0.00196,   0.00090,477075168.15165,   0.00010,274754436.85633,   0.00008,  -0.00009,   0.00004,   0.00000,   2.00000
208336025.62947,-319920863.92040,65822800.20314,   0.00166,  -0.00197,   0.00090,477086245.28237,   0.00011,274765440.11915,   0.00009,  -0.00010,   0.00005,   0.00000,   2.00000
209504274.25025,-318880347.71647,65901623.89968,   0.00167,  -0.00197,   0.00091,477078170.90866,   0.00012,274776352.62063,   0.00010,  -0.00011,   0.00005,   0.00000,   2.00000
210633607.44032,-317874326.77275,65973081.77727,   0.00168,  -0.00198,   0.00091,477092776.49193,   0.00013,274787281.76198,   0.00010,  -0.00012,   0.00006,  -0.00000,   2.00000
211757272.31031,-316870833.77092,66043875.87269,   0.00169,  -0.00198,   0.00092,477106254.44263,   0.00014,274798222.11742,   0.00011,  -0.00013,   0.00006,   0.00000,   2.00000
212855092.24514,-315888304.88021,66112163.29387,   0.00170,  -0.00199,   0.00092,477085979.66182,   0.00015,274809014.37883,   0.00012,  -0.00014,   0.00006,  -0.00000,   2.00000
213931809.86216,-314922931.43518,66178069.92058,   0.00171,  -0.00200,   0.00093,477111852.46150,   0.00016,274819876.92060,   0.00013,  -0.00015,   0.00007,   0.00000,   2.00000
215001643.29074,-313962738.87676,66240263.97223,   0.00173,  -0.00200,   0.00093,477100439.28923,   0.00017,274830633.51537,   0.00013,  -0.00016,   0.00007,   0.00000,   2.00000
216047751.83487,-313020675.46461,66303157.61447,   0.00174,  -0.00201,   0.00094,477104223.09090,   0.00018,274841356.33087,   0.00014,  -0.00017,   0.00008,   0.00000,   2.00000
217071603.98990,-312098468.15182,66360635.78191,   0.00175,  -0.00202,   0.00094,477105101.71096,   0.00019,274852031.80581,   0.00015,  -0.00017,   0.00008,  -0.00000,   2.00000
218090483.66273,-311178651.85260,66417578.45218,   0.00176,  -0.00202,   0.00095,477117880.30016,   0.00020,274862716.27013,   0.00016,  -0.00018,   0.00008,   0.00000,   2.00000
219068984.92791,-310294373.65228,66470462.07952,   0.00177,  -0.00203,   0.00095,477109163.77530,   0.00021,274873308.29354,   0.00017,  -0.00019,   0.00009,   0.00000,   2.00000
220044104.12117,-309414156.74332,66516727.45804,   0.00178,  -0.00204,   0.00096,477118930.97153,   0.00022,274883895.46272,   0.00017,  -0.00020,   0.00009,   0.00000,   2.00000
221011970.22197,-308537010.06015,66565579.72387,   0.00179,  -0.00204,   0.00096,477109538.38914,   0.00023,274894387.46943,   0.00018,  -0.00021,   0.00010,   0.00000,   2.00000
221941241.38379,-307692885.40895,66613556.98470,   0.00180,  -0.00205,   0.00097,477124861.78628,   0.00024,274904901.25218,   0.00019,  -0.00022,   0.00010,   0.00000,   2.00000
222864929.76190,-306853434.22672,66658012.42293,   0.00181,  -0.00206,   0.00097,477112471.19322,   0.00025,274915306.07169,   0.00020,  -0.00022,   0.00010,   0.00000,   2.00000
223767405.55166,-306033664.04041,66697246.95961,   0.00182,  -0.00206,   0.00098,477112304.82009,   0.00026,274925660.05963,   0.00020,  -0.00023,   0.00011,   0.00000,   2.00000
224665686.07727,-305216077.93643,66736095.95637,   0.00183,  -0.00207,   0.00098,477124294.13492,   0.00027,274936020.73686,   0.00021,  -0.00024,   0.00011,   0.00000,   2.00000
225523480.25067,-304432168.38792,66777237.16565,   0.00184,  -0.00207,   0.00099,477117092.26526,   0.00028,274946297.61614,   0.00022,  -0.00025,   0.00012,   0.00000,   2.00000
226380024.91436,-303653803.28986,66805751.05655,   0.00185,  -0.00208,   0.00099,477123334.35728,   0.00029,274956554.44410,   0.00023,  -0.00026,   0.00012,   0.00000,   2.00000
227213204.30279,-302891583.41413,66841423.82218,   0.00186,  -0.00209,   0.00099,477128171.64296,   0.00030,274966784.68316,   0.00023,  -0.00027,   0.00012,   0.00000,   2.00000
228009150.20175,-302166373.50422,66867208.50457,   0.00187,  -0.00209,   0.00100,477114921.13086,   0.00031,274976903.24292,   0.00024,  -0.00027,   0.00013,   0.00000,   2.00000
228817302.87945,-301427867.85616,66894423.32323,   0.00188,  -0.00210,   0.00100,477114107.91829,   0.00032,274986969.26140,   0.00025,  -0.00028,   0.00013,   0.00000,   2.00000
229603823.53379,-300707125.57588,66922711.38591,   0.00189,  -0.00211,   0.00101,477115754.08403,   0.00033,274996994.56654,   0.00026,  -0.00029,   0.00014,  -0.00000,   2.00000
230354448.33532,-300021153.36091,66944255.96020,   0.00190,  -0.00211,   0.00101,477126655.77881,   0.00033,275007022.91803,   0.00026,  -0.00030,   0.00014,   0.00000,   2.00000
231100945.31199,-299339184.57822,66962501.34058,   0.00191,  -0.00212,   0.00101,477113135.12853,   0.00034,275016939.30886,   0.00027,  -0.00031,   0.00014,   0.00000,   2.00000
231844187.62833,-298659079.47529,66980526.69355,   0.00191,  -0.00213,   0.00102,477124169.27925,   0.00035,275026859.89035,   0.00028,  -0.00031,   0.00015,   0.00000,   2.00000
232549721.41246,-298014100.43836,66994958.41915,   0.00192,  -0.00213,   0.00102,477112762.86950,   0.00036,275036678.98782,   0.00028,  -0.00032,   0.00015,   0.00000,   2.00000
233250122.94018,-297371234.50591,67012269.49754,   0.00193,  -0.00214,   0.00103,477101659.64098,   0.00037,275046398.53406,   0.00029,  -0.00033,   0.00016,   0.00000,   2.00000
233933135.06177,-296747286.72571,67021571.70017,   0.00194,  -0.00214,   0.00103,477121638.99534,   0.00038,275056165.29333,   0.00030,  -0.00034,   0.00016,   0.00000,   2.00000
234578923.97966,-296158341.66188,67027362.47975,   0.00195,  -0.00215,   0.00103,477109763.32955,   0.00039,275065829.11107,   0.00031,  -0.00035,   0.00016,  -0.00000,   2.00000
235237818.21762,-295555502.88831,67034704.86592,   0.00196,  -0.00216,   0.00104,477108260.50272,   0.00040,275075439.31295,   0.00031,  -0.00035,   0.00017,  -0.00000,   2.00000
235859734.69639,-294987602.94810,67038565.27538,   0.00197,  -0.00216,   0.00104,477096075.37803,   0.00041,275084945.89571,   0.00032,  -0.00036,   0.00017,  -0.00000,   2.00000
236480497.20272,-294422941.47190,67036187.33475,   0.00198,  -0.00217,   0.00105,477103586.75001,   0.00041,275094442.02865,   0.00033,  -0.00037,   0.00017,  -0.00000,   2.00000
237063178.89509,-293891454.53665,67036519.58799,   0.00199,  -0.00218,   0.00105,477093872.64824,   0.00042,275103846.72773,   0.00033,  -0.00038,   0.00018,  -0.00000,   2.00000
237644916.05333,-293363108.78380,67030640.38364,   0.00199,  -0.00218,   0.00105,477101187.52310,   0.00043,275113240.53543,   0.00034,  -0.00038,   0.00018,   0.00000,   2.00000
238188851.74046,-292867857.03709,67027508.48047,   0.00200,  -0.00219,   0.00106,477091199.87287,   0.00044,275122542.12739,   0.00035,  -0.00039,   0.00019,   0.00000,   2.00000
238732044.85995,-292375648.50950,67018190.55424,   0.00201,  -0.00219,   0.00106,477098324.52798,   0.00045,275131832.41962,   0.00036,  -0.00040,   0.00019,   0.98642,   1.00000
239254933.74367,-291902424.66949,67007187.52541,   0.00202,  -0.00220,   0.00106,477073432.88828,   0.00046,275140960.94712,   0.00036,  -0.00041,   0.00019,   0.93969,   1.00000
239759974.39334,-291446206.70678,66994504.89334,   0.00203,  -0.00221,   0.00107,477094964.28966,   0.00047,275150146.73993,   0.00037,  -0.00041,   0.00020,   0.93934,   1.00000
240244976.41236,-291008846.57676,66980163.67094,   0.00204,  -0.00221,   0.00107,477069851.32086,   0.00047,275159170.26213,   0.00038,  -0.00042,   0.00020,   0.89538,   1.00000
240728138.81689,-290572692.08753,66965824.06708,   0.00204,  -0.00222,   0.00107,477079342.73302,   0.00048,275168194.95901,   0.00038,  -0.00043,   0.00020,   0.88477,   1.00000
241194670.37153,-290156874.85518,66940643.42212,   0.00205,  -0.00222,   0.00108,477073171.45332,   0.00049,275177147.21517,   0.00039,  -0.00043,   0.00021,   0.86056,   1.00000
241622805.39190,-289772220.20988,66924475.20427,   0.00206,  -0.00223,   0.00108,477065027.63949,   0.00050,275186018.11513,   0.00040,  -0.00044,   0.00021,   0.83605,   1.00000
242052201.67166,-289391925.43182,66896068.11079,   0.00207,  -0.00224,   0.00108,477068737.47853,   0.00051,275194863.75622,   0.00040,  -0.00045,   0.00021,   0.82258,   1.00000
242460686.14218,-289028546.53338,66872213.17256,   0.00208,  -0.00224,   0.00109,477045825.57975,   0.00051,275203559.20250,   0.00041,  -0.00046,   0.00022,   0.78698,   1.00000
242853278.93529,-288683624.72179,66840639.68402,   0.00208,  -0.00225,   0.00109,477063855.46339,   0.00052,275212297.50778,   0.00042,  -0.00046,   0.00022,   0.78726,   1.00000
243226603.28425,-288357141.82998,66807505.17902,   0.00209,  -0.00226,   0.00109,477037988.63941,   0.00053,275220872.29020,   0.00042,  -0.00047,   0.00022,   0.75133,   1.00000
243581063.00680,-288047392.73006,66775888.78881,   0.00210,  -0.00226,   0.00109,477036628.67784,   0.00054,275229399.45038,   0.00043,  -0.00048,   0.00023,   0.73676,   1.00000
243935710.28964,-287740123.54198,66738231.47885,   0.00211,  -0.00227,   0.00110,477042650.53613,   0.00055,275237913.88725,   0.00043,  -0.00048,   0.00023,   0.72846,   1.00000
244254070.70619,-287465387.37864,66703538.39844,   0.00211,  -0.00227,   0.00110,477030944.87529,   0.00055,275246332.42604,   0.00044,  -0.00049,   0.00023,   0.70687,   1.00000
244556680.21880,-287210512.31633,66658110.40977,   0.00212,  -0.00228,   0.00110,477023815.34553,   0.00056,275254677.02624,   0.00045,  -0.00050,   0.00024,   0.68970,   1.00000
244856840.06899,-286954699.47898,66618966.16794,   0.00213,  -0.00229,   0.00111,477035098.07705,   0.00057,275263034.48279,   0.00045,  -0.00050,   0.00024,   0.68707,   1.00000
245139704.42697,-286718636.14778,66572155.12732,   0.00213,  -0.00229,   0.00111,477005912.39200,   0.00058,275271214.79544,   0.00046,  -0.00051,   0.00024,   0.65406,   1.00000
245388289.65335,-286514974.94033,66525300.91129,   0.00214,  -0.00230,   0.00111,477015671.25383,   0.00058,275279401.60444,   0.00047,  -0.00052,   0.00025,   0.65148,   1.00000
245635867.98393,-286313419.81414,66475515.29477,   0.00215,  -0.00230,   0.00111,476999278.90256,   0.00059,275287472.16812,   0.00047,  -0.00052,   0.00025,   0.62966,   1.00000
245866600.94042,-286129879.01654,66421184.43884,   0.00215,  -0.00231,   0.00112,476994446.28053,   0.00060,275295481.30143,   0.00048,  -0.00053,   0.00025,   0.61701,   1.00000
246080556.88001,-285964300.68205,66362323.73448,   0.00216,  -0.00232,   0.00112,476989534.17521,   0.00061,275303428.93566,   0.00048,  -0.00053,   0.00026,   0.60479,   1.00000
246258917.97321,-285830882.27435,66306513.65060,   0.00217,  -0.00232,   0.00112,476976977.84626,   0.00061,275311279.51469,   0.00049,  -0.00054,   0.00026,   0.58791,   1.00000
246436724.30109,-285697813.75026,66250892.56078,   0.00217,  -0.00233,   0.00112,476984905.91985,   0.00062,275319129.60145,   0.00050,  -0.00055,   0.00026,   0.58566,   1.00000
246599382.21514,-285584181.29594,66184602.28085,   0.00218,  -0.00233,   0.00112,476977051.24963,   0.00063,275326905.17804,   0.00050,  -0.00055,   0.00026,   0.57271,   1.00000
246742521.13528,-285486612.70133,66122992.65757,   0.00219,  -0.00234,   0.00113,476952606.39576,   0.00064,275334528.81971,   0.00051,  -0.00056,   0.00027,   0.54898,   1.00000
246870780.38621,-285406861.02922,66053838.28360,   0.00219,  -0.00234,   0.00113,476969213.04379,   0.00064,275342193.76215,   0.00051,  -0.00056,   0.00027,   0.55358,   1.00000
246981073.37249,-285344684.00596,65983221.05076,   0.00220,  -0.00235,   0.00113,476941906.14479,   0.00065,275349693.91957,   0.00052,  -0.00057,   0.00027,   0.52896,   1.00000
247091033.44015,-285282652.39941,65912836.30708,   0.00220,  -0.00236,   0.00113,476949458.79222,   0.00066,275357193.52799,   0.00052,  -0.00058,   0.00028,   0.52782,   1.00000
247167226.98765,-285254114.25109,65839377.79298,   0.00221,  -0.00236,   0.00113,476933620.39406,   0.00066,275364582.94463,   0.00053,  -0.00058,   0.00028,   0.51180,   1.00000
247227181.75152,-285243104.42349,65761430.03145,   0.00222,  -0.00237,   0.00114,476928001.46002,   0.00067,275371910.61301,   0.00054,  -0.00059,   0.00028,   0.50287,   1.00000
247286819.82522,-285233598.79374,65680599.36848,   0.00222,  -0.00237,   0.00114,476910679.11616,   0.00068,275379121.99700,   0.00054,  -0.00059,   0.00028,   0.48665,   1.00000
247312969.27896,-285255943.18710,65599846.35486,   0.00223,  -0.00238,   0.00114,476919242.23733,   0.00068,275386338.96354,   0.00055,  -0.00060,   0.00029,   0.48739,   1.00000
247338894.99806,-285279701.38534,65516206.26598,   0.00223,  -0.00239,   0.00114,476901812.04779,   0.00069,275393439.69944,   0.00055,  -0.00061,   0.00029,   0.47181,   1.00000
247315407.86272,-285352692.59485,65427909.00796,   0.00224,  -0.00239,   0.00114,476897224.33845,   0.00070,275400484.93938,   0.00056,  -0.00061,   0.00029,   0.46500,   1.00000
247307832.61314,-285409490.10434,65341473.15555,   0.00224,  -0.00240,   0.00114,476892675.70504,   0.00070,275407475.14651,   0.00056,  -0.00062,   0.00030,   0.45812,   1.00000
247285637.48502,-285485166.25980,65244401.58709,   0.00225,  -0.00240,   0.00115,476883991.38287,   0.00071,275414391.22127,   0.00057,  -0.00062,   0.00030,   0.44899,   1.00000
247227195.98780,-285590789.43942,65156590.50227,   0.00225,  -0.00241,   0.00115,476872988.19244,   0.00072,275421222.66677,   0.00057,  -0.00063,   0.00030,   0.43893,   1.00000
247170128.38496,-285699200.52435,65059714.08589,   0.00226,  -0.00241,   0.00115,476852516.64522,   0.00072,275427925.56537,   0.00058,  -0.00063,   0.00030,   0.42340,   1.00000
247081236.96459,-285840716.01731,64956779.86972,   0.00226,  -0.00242,   0.00115,476857945.48758,   0.00073,275434621.82707,   0.00058,  -0.00064,   0.00031,   0.42374,   1.00000
247008399.88575,-285965870.87686,64855722.12600,   0.00227,  -0.00243,   0.00115,476853068.48309,   0.00073,275441263.23645,   0.00059,  -0.00064,   0.00031,   0.41782,   1.00000
246868869.25294,-286155849.73934,64751402.38939,   0.00227,  -0.00243,   0.00115,476837819.55999,   0.00074,275447801.49783,   0.00059,  -0.00065,   0.00031,   0.40655,   1.00000
246745496.96986,-286329353.95111,64648948.37339,   0.00228,  -0.00244,   0.00115,476832801.63400,   0.00075,275454285.01857,   0.00060,  -0.00065,   0.00031,   0.40122,   1.00000
246607683.70745,-286521409.99983,64535839.53812,   0.00228,  -0.00244,   0.00115,476823753.75143,   0.00075,275460695.20490,   0.00060,  -0.00066,   0.00032,   0.39377,   1.00000
246452659.41956,-286728812.49482,64424423.91045,   0.00229,  -0.00245,   0.00116,476819991.40873,   0.00076,275467057.15469,   0.00061,  -0.00066,   0.00032,   0.38959,   1.00000
246264368.10590,-286968989.53551,64309906.79988,   0.00229,  -0.00245,   0.00116,476803236.01222,   0.00076,275473310.29786,   0.00061,  -0.00067,   0.00032,   0.37836,   1.00000
246076214.96294,-287210060.59139,64192468.41054,   0.00230,  -0.00246,   0.00116,476785007.70400,   0.00077,275479448.28184,   0.00062,  -0.00067,   0.00032,   0.36649,   1.00000
245872491.30957,-287466354.15758,64073759.82355,   0.00230,  -0.00247,   0.00116,476803050.45594,   0.00077,275485641.37813,   0.00062,  -0.00068,   0.00032,   0.37523,   1.00000
245652788.67251,-287740978.78647,63947324.19134,   0.00230,  -0.00247,   0.00116,476771865.36036,   0.00078,275491659.00627,   0.00063,  -0.00068,   0.00033,   0.35646,   1.00000
245415950.51694,-288030741.52492,63822567.94758,   0.00231,  -0.00248,   0.00116,476767835.66902,   0.00079,275497629.06178,   0.00063,  -0.00069,   0.00033,   0.35317,   1.00000
245144485.36858,-288351504.13283,63700843.97200,   0.00231,  -0.00248,   0.00116,476753514.25985,   0.00079,275503503.63459,   0.00063,  -0.00069,   0.00033,   0.34453,   1.00000
244876185.08399,-288674516.24048,63567050.77355,   0.00232,  -0.00249,   0.00116,476754416.69720,   0.00080,275509354.39861,   0.00064,  -0.00070,   0.00033,   0.34432,   1.00000
244590776.14828,-289012538.61999,63434925.92010,   0.00232,  -0.00249,   0.00116,476750314.65660,   0.00080,275515158.06409,   0.00064,  -0.00070,   0.00034,   0.34151,   1.00000
244287984.85107,-289367180.21662,63301188.14251,   0.00232,  -0.00250,   0.00116,476721556.19303,   0.00081,275520799.56352,   0.00065,  -0.00071,   0.00034,   0.32543,   1.00000
243953538.83035,-289754121.02530,63161353.92900,   0.00233,  -0.00251,   0.00116,476726501.50770,   0.00081,275526437.28004,   0.00065,  -0.00071,   0.00034,   0.32804,   1.00000
243636826.36578,-290125775.96198,63017192.03177,   0.00233,  -0.00251,   0.00116,476718118.52891,   0.00082,275532008.92124,   0.00066,  -0.00072,   0.00034,   0.32328,   1.00000
243285410.32886,-290528226.33274,62876019.13710,   0.00233,  -0.00252,   0.00116,476703660.52934,   0.00082,275537486.40657,   0.00066,  -0.00072,   0.00034,   0.31555,   1.00000
242918227.15425,-290947046.11511,62730285.10834,   0.00234,  -0.00252,   0.00116,476696778.85175,   0.00083,275542905.61149,   0.00066,  -0.00072,   0.00035,   0.31209,   1.00000
242517659.25291,-291398091.15247,62581316.55105,   0.00234,  -0.00253,   0.00116,476679715.22958,   0.00083,275548219.22603,   0.00067,  -0.00073,   0.00035,   0.30345,   1.00000
242118931.27236,-291849468.64020,62426443.64371,   0.00234,  -0.00253,   0.00116,476682968.44269,   0.00084,275553522.72148,   0.00067,  -0.00073,   0.00035,   0.30575,   1.00000
241718977.11349,-292299833.52725,62274735.51922,   0.00235,  -0.00254,   0.00116,476666760.61614,   0.00084,275558725.20271,   0.00068,  -0.00074,   0.00035,   0.29759,   1.00000
241269630.45022,-292798024.94371,62118203.48373,   0.00235,  -0.00254,   0.00116,476661554.24883,   0.00085,275563878.56321,   0.00068,  -0.00074,   0.00035,   0.29575,   1.00000
240820362.67182,-293296664.99929,61958608.15408,   0.00235,  -0.00255,   0.00116,476642729.44258,   0.00085,275568919.41462,   0.00068,  -0.00075,   0.00036,   0.28665,   1.00000
240355225.83477,-293811420.25156,61794397.12158,   0.00235,  -0.00255,   0.00116,476635743.54663,   0.00086,275573903.61587,   0.00069,  -0.00075,   0.00036,   0.28401,   1.00000
239874196.15153,-294342242.92690,61625563.83284,   0.00236,  -0.00256,   0.00116,476628765.90044,   0.00086,275578831.47959,   0.00069,  -0.00075,   0.00036,   0.28151,   1.00000
239375955.07195,-294887546.95306,61458302.93589,   0.00236,  -0.00257,   0.00116,476624334.80398,   0.00086,275583715.17305,   0.00070,  -0.00076,   0.00036,   0.28049,   1.00000
238861780.54887,-295448831.37792,61286394.65996,   0.00236,  -0.00257,   0.00116,476617378.14291,   0.00087,275588543.11281,   0.00070,  -0.00076,   0.00036,   0.27823,   1.00000
238329791.35478,-296026409.85739,61112647.09310,   0.00236,  -0.00258,   0.00116,476588386.46638,   0.00087,275593212.66166,   0.00070,  -0.00076,   0.00036,   0.26432,   1.00000
237799568.46019,-296603993.83949,60932947.47095,   0.00237,  -0.00258,   0.00116,476591369.75174,   0.00088,275597873.91035,   0.00071,  -0.00077,   0.00037,   0.26749,   1.00000
237218337.17686,-297227337.19968,60754521.39465,   0.00237,  -0.00259,   0.00116,476588935.52468,   0.00088,275602501.59184,   0.00071,  -0.00077,   0.00037,   0.26813,   1.00000
236638223.53102,-297852498.91662,60566710.23919,   0.00237,  -0.00259,   0.00116,476567462.07613,   0.00089,275607006.97784,   0.00071,  -0.00078,   0.00037,   0.25849,   1.00000
236040740.73447,-298491893.46275,60380408.73371,   0.00237,  -0.00260,   0.00116,476562987.59431,   0.00089,275611470.02219,   0.00072,  -0.00078,   0.00037,   0.25811,   1.00000
235441769.75492,-299130072.13877,60197125.07827,   0.00237,  -0.00260,   0.00115,476546404.26942,   0.00089,275615834.40682,   0.00072,  -0.00078,   0.00037,   0.25117,   1.00000
234811963.70152,-299800902.59444,60001354.38792,   0.00238,  -0.00261,   0.00115,476549053.64374,   0.00090,275620190.37697,   0.00072,  -0.00079,   0.00037,   0.25485,   1.00000
234180599.99269,-300470476.15843,59808581.08531,   0.00238,  -0.00261,   0.00115,476532467.10015,   0.00090,275624448.19528,   0.00073,  -0.00079,   0.00037,   0.24802,   1.00000
233500383.33340,-301188433.25356,59604528.55804,   0.00238,  -0.00262,   0.00115,476525373.01905,   0.00091,275628652.62943,   0.00073,  -0.00079,   0.00038,   0.24669,   1.00000
232818525.83004,-301905053.33282,59403438.83362,   0.00238,  -0.00262,   0.00115,476508789.86510,   0.00091,275632759.66078,   0.00073,  -0.00080,   0.00038,   0.24011,   1.00000
232137065.34422,-302619767.36691,59202559.14262,   0.00238,  -0.00263,   0.00115,476514164.99566,   0.00091,275636872.21770,   0.00074,  -0.00080,   0.00038,   0.24557,   1.00000
231422431.48650,-303367383.58364,58991848.37987,   0.00238,  -0.00264,   0.00115,476495079.23221,   0.00092,275640876.14489,   0.00074,  -0.00080,   0.00038,   0.23766,   1.00000
230706028.24882,-304113684.64434,58784054.08837,   0.00238,  -0.00264,   0.00115,476478404.38077,   0.00092,275644783.21970,   0.00074,  -0.00081,   0.00038,   0.23104,   1.00000
229957231.81823,-304890574.17973,58569901.62898,   0.00238,  -0.00265,   0.00114,476483849.81534,   0.00092,275648697.08651,   0.00074,  -0.00081,   0.00038,   0.23692,   1.00000
229189699.63506,-305683511.33040,58353581.42322,   0.00239,  -0.00265,   0.00114,476455062.82230,   0.00093,275652458.04608,   0.00075,  -0.00081,   0.00038,   0.22365,   1.00000
228423641.32647,-306475839.83029,58131194.09202,   0.00239,  -0.00266,   0.00114,476457982.21387,   0.00093,275656214.70956,   0.00075,  -0.00082,   0.00039,   0.22811,   1.00000
227639744.94941,-307281923.91170,57910158.22866,   0.00239,  -0.00266,   0.00114,476453642.41325,   0.00094,275659933.24127,   0.00075,  -0.00082,   0.00039,   0.22857,   1.00000
226820985.96927,-308119095.13222,57685374.11874,   0.00239,  -0.00267,   0.00114,476437321.18263,   0.00094,275663557.95372,   0.00075,  -0.00082,   0.00039,   0.22230,   1.00000
225985443.40337,-308971378.76822,57455651.13671,   0.00239,  -0.00267,   0.00114,476430705.40235,   0.00094,275667134.54877,   0.00076,  -0.00082,   0.00039,   0.22162,   1.00000
225148926.41102,-309823764.28941,57222469.57257,   0.00239,  -0.00268,   0.00113,476411658.80534,   0.00095,275670605.31163,   0.00076,  -0.00083,   0.00039,   0.21369,   1.00000
224279628.26815,-310706134.99669,56982824.58048,   0.00239,  -0.00268,   0.00113,476417569.47020,   0.00095,275674087.08090,   0.00076,  -0.00083,   0.00039,   0.22035,   1.00000
223408093.50414,-311587074.60317,56745938.32260,   0.00239,  -0.00269,   0.00113,476400931.78604,   0.00095,275677474.70901,   0.00077,  -0.00083,   0.00039,   0.21373,   1.00000
222519531.95429,-312482976.04495,56504043.73086,   0.00239,  -0.00269,   0.00113,476394443.77891,   0.00095,275680815.95052,   0.00077,  -0.00084,   0.00039,   0.21310,   1.00000
221613878.75421,-313393777.67017,56257124.60044,   0.00239,  -0.00270,   0.00113,476388024.74600,   0.00096,275684111.34757,   0.00077,  -0.00084,   0.00040,   0.21253,   1.00000
220672708.62319,-314335265.24183,56006269.14689,   0.00239,  -0.00270,   0.00112,476372250.69204,   0.00096,275687317.52837,   0.00077,  -0.00084,   0.00040,   0.20641,   1.00000
219747427.63113,-315259445.98327,55756988.79863,   0.00239,  -0.00271,   0.00112,476365014.84378,   0.00096,275690474.70789,   0.00077,  -0.00084,   0.00040,   0.20524,   1.00000
218770598.39477,-316228936.76654,55502237.71097,   0.00239,  -0.00271,   0.00112,476362034.38873,   0.00097,275693602.93431,   0.00078,  -0.00085,   0.00040,   0.20686,   1.00000
217792228.61375,-317198409.24582,55243848.43672,   0.00239,  -0.00272,   0.00112,476343187.46856,   0.00097,275696628.44752,   0.00078,  -0.00085,   0.00040,   0.19862,   1.00000
216814890.62669,-318166677.07777,54979258.77712,   0.00239,  -0.00272,   0.00111,476346335.06733,   0.00097,275699654.17786,   0.00078,  -0.00085,   0.00040,   0.20387,   1.00000
215800474.07912,-319163900.09444,54716869.57746,   0.00239,  -0.00273,   0.00111,476333248.26579,   0.00097,275702604.51806,   0.00078,  -0.00085,   0.00040,   0.19906,   1.00000
214785341.02186,-320162591.14911,54444496.28157,   0.00239,  -0.00273,   0.00111,476312172.57716,   0.00098,275705442.64040,   0.00079,  -0.00086,   0.00040,   0.18914,   1.00000
213717086.07555,-321204577.25747,54172796.61743,   0.00239,  -0.00274,   0.00111,476312090.04192,   0.00098,275708266.81304,   0.00079,  -0.00086,   0.00040,   0.19251,   1.00000
212665487.95814,-322230666.56197,53896298.61567,   0.00239,  -0.00274,   0.00110,476302554.05545,   0.00098,275711033.10079,   0.00079,  -0.00086,   0.00040,   0.18973,   1.00000
211579249.61996,-323284020.18781,53619402.14962,   0.00238,  -0.00275,   0.00110,476311883.79330,   0.00099,275713829.58145,   0.00079,  -0.00086,   0.00040,   0.19929,   1.00000
210472235.58847,-324353074.94558,53339720.09660,   0.00238,  -0.00275,   0.00110,476284204.15435,   0.00099,275716483.87291,   0.00079,  -0.00087,   0.00041,   0.18457,   1.00000
209382738.79493,-325407720.32842,53048904.62050,   0.00238,  -0.00276,   0.00110,476272412.33343,   0.00099,275719070.60253,   0.00080,  -0.00087,   0.00041,   0.18010,   1.00000
208238655.16753,-326503682.34545,52764937.91922,   0.00238,  -0.00276,   0.00109,476275164.52609,   0.00099,275721657.75227,   0.00080,  -0.00087,   0.00041,   0.18527,   1.00000
207096213.55688,-327599354.79757,52468361.27008,   0.00238,  -0.00277,   0.00109,476276542.41462,   0.00099,275724238.92245,   0.00080,  -0.00087,   0.00041,   0.18959,   1.00000
205931518.22701,-328709232.12064,52175164.57691,   0.00238,  -0.00277,   0.00109,476251311.24440,   0.00100,275726690.37487,   0.00080,  -0.00087,   0.00041,   0.17585,   1.00000
204749476.85445,-329834503.02770,51870295.67722,   0.00238,  -0.00278,   0.00108,476243842.36357,   0.00100,275729095.34576,   0.00080,  -0.00088,   0.00041,   0.17406,   1.00000
203548068.72981,-330972208.25051,51566343.32539,   0.00238,  -0.00278,   0.00108,476240771.32523,   0.00100,275731474.50600,   0.00080,  -0.00088,   0.00041,   0.17520,   1.00000
202327236.09408,-332122279.51397,51263286.98368,   0.00237,  -0.00279,   0.00108,476237791.53807,   0.00100,275733828.39948,   0.00081,  -0.00088,   0.00041,   0.17640,   1.00000
201104508.54133,-333273595.71844,50949906.00707,   0.00237,  -0.00279,   0.00107,476217407.95069,   0.00101,275736076.24869,   0.00081,  -0.00088,   0.00041,   0.16543,   1.00000
199846491.97487,-334451039.73813,50635967.71916,   0.00237,  -0.00280,   0.00107,476227840.48086,   0.00101,275738361.79013,   0.00081,  -0.00088,   0.00041,   0.17595,   1.00000
198585451.67613,-335628237.41466,50317964.56191,   0.00237,  -0.00280,   0.00107,476209730.33781,   0.00101,275740552.19683,   0.00081,  -0.00089,   0.00041,   0.16622,   1.00000
197285594.69307,-336833249.42962,50001685.21723,   0.00237,  -0.00281,   0.00106,476198424.66438,   0.00101,275742679.54538,   0.00081,  -0.00089,   0.00041,   0.16133,   1.00000
195986842.35720,-338037393.42583,49672652.49055,   0.00237,  -0.00281,   0.00106,476200364.16883,   0.00101,275744805.67431,   0.00081,  -0.00089,   0.00041,   0.16576,   1.00000
194668217.33849,-339253484.31283,49344402.79825,   0.00236,  -0.00281,   0.00106,476197919.19383,   0.00102,275746910.21673,   0.00082,  -0.00089,   0.00041,   0.16707,   1.00000
193326961.15507,-340484931.52923,49012853.23802,   0.00236,  -0.00282,   0.00105,476171539.85786,   0.00102,275748882.12539,   0.00082,  -0.00089,   0.00042,   0.15090,   1.00000
191969264.55293,-341726049.94998,48679780.48358,   0.00236,  -0.00282,   0.00105,476191251.53161,   0.00102,275750936.05627,   0.00082,  -0.00090,   0.00042,   0.16843,   1.00000
190589518.52641,-342983810.13096,48336998.55403,   0.00236,  -0.00283,   0.00104,476163156.97773,   0.00102,275752849.66441,   0.00082,  -0.00090,   0.00042,   0.15042,   1.00000
189208888.56283,-344237577.97756,47994065.05089,   0.00235,  -0.00283,   0.00104,476169458.02328,   0.00102,275754783.29047,   0.00082,  -0.00090,   0.00042,   0.15796,   1.00000
187788638.57953,-345518523.12926,47652645.82540,   0.00235,  -0.00284,   0.00104,476159193.09801,   0.00102,275756659.94734,   0.00082,  -0.00090,   0.00042,   0.15309,   1.00000
186365253.31561,-346800392.25501,47300557.15298,   0.00235,  -0.00284,   0.00103,476139740.15219,   0.00103,275758437.28802,   0.00082,  -0.00090,   0.00042,   0.14124,   1.00000
184905851.55389,-348106861.93009,46947736.23689,   0.00235,  -0.00285,   0.00103,476151752.03218,   0.00103,275760261.75610,   0.00083,  -0.00090,   0.00042,   0.15312,   1.00000
183461787.09965,-349397243.05407,46589736.84760,   0.00234,  -0.00285,   0.00102,476142619.72205,   0.00103,275762035.05012,   0.00083,  -0.00090,   0.00042,   0.14873,   1.00000
181978410.38096,-350715776.38795,46226778.40080,   0.00234,  -0.00286,   0.00102,476131051.48126,   0.00103,275763746.12113,   0.00083,  -0.00091,   0.00042,   0.14243,   1.00000
180474353.26407,-352045408.65454,45864391.14481,   0.00234,  -0.00286,   0.00102,476129692.37402,   0.00103,275765442.60335,   0.00083,  -0.00091,   0.00042,   0.14401,   1.00000
178965809.30615,-353374453.55827,45497535.54255,   0.00233,  -0.00287,   0.00101,476112614.16514,   0.00103,275767051.70910,   0.00083,  -0.00091,   0.00042,   0.13321,   1.00000
177421709.18872,-354728674.90233,45123519.58916,   0.00233,  -0.00287,   0.00101,476123551.62422,   0.00104,275768703.69095,   0.00083,  -0.00091,   0.00042,   0.14440,   1.00000
175872900.77366,-356082189.19773,44744979.12340,   0.00233,  -0.00287,   0.00100,476106732.48345,   0.00104,275770269.73292,   0.00083,  -0.00091,   0.00042,   0.13342,   1.00000
174322859.66978,-357431011.57559,44366201.88295,   0.00232,  -0.00288,   0.00100,476113653.88783,   0.00104,275771860.22912,   0.00083,  -0.00091,   0.00042,   0.14144,   1.00000
172732725.86329,-358807264.37103,43982265.15753,   0.00232,  -0.00288,   0.00099,476103247.37358,   0.00104,275773394.80082,   0.00083,  -0.00091,   0.00042,   0.13537,   1.00000
171121453.49513,-360194024.20256,43598784.33549,   0.00232,  -0.00289,   0.00099,476102662.44063,   0.00104,275774919.19525,   0.00084,  -0.00092,   0.00042,   0.13732,   1.00000
169505746.80090,-361581258.09339,43204287.40659,   0.00231,  -0.00289,   0.00098,476084408.99244,   0.00104,275776351.67966,   0.00084,  -0.00092,   0.00042,   0.12462,   1.00000
167853377.73137,-362991286.98199,42808917.17689,   0.00231,  -0.00290,   0.00098,476098314.35003,   0.00104,275777841.52415,   0.00084,  -0.00092,   0.00042,   0.13856,   1.00000
166194978.84362,-364399067.32790,42415230.37352,   0.00231,  -0.00290,   0.00097,476083886.71544,   0.00105,275779257.35369,   0.00084,  -0.00092,   0.00042,   0.12859,   1.00000
164516470.82210,-365819511.80286,42009155.63194,   0.00230,  -0.00291,   0.00097,476080337.86591,   0.00105,275780649.85475,   0.00084,  -0.00092,   0.00042,   0.12781,   1.00000
162831716.06363,-367237684.36816,41604709.45063,   0.00230,  -0.00291,   0.00096,476066020.34631,   0.00105,275781969.34989,   0.00084,  -0.00092,   0.00042,   0.11789,   1.00000
161110100.14554,-368677951.50646,41199345.65791,   0.00229,  -0.00292,   0.00096,476080640.03127,   0.00105,275783349.96751,   0.00084,  -0.00092,   0.00042,   0.13260,   1.00000
159383323.58366,-370118342.36606,40782774.50228,   0.00229,  -0.00292,   0.00095,476063190.98595,   0.00105,275784643.18697,   0.00084,  -0.00092,   0.00042,   0.11949,   1.00000
157634788.95059,-371568377.19835,40366509.54424,   0.00228,  -0.00292,   0.00095,476063703.83725,   0.00105,275785932.43599,   0.00084,  -0.00093,   0.00042,   0.12197,   1.00000
155885293.42834,-373013976.70618,39943530.94658,   0.00228,  -0.00293,   0.00094,476069916.92383,   0.00105,275787244.05687,   0.00084,  -0.00093,   0.00043,   0.12960,   1.00000
154093667.93760,-374484162.14060,39521435.61324,   0.00228,  -0.00293,   0.00094,476063598.70017,   0.00105,275788520.05943,   0.00084,  -0.00093,   0.00043,   0.12595,   1.00000
152295801.24773,-375953006.57268,39094408.93678,   0.00227,  -0.00294,   0.00093,476048311.18206,   0.00106,275789719.22257,   0.00085,  -0.00093,   0.00043,   0.11419,   1.00000
150476465.71688,-377432229.72015,38661210.56211,   0.00227,  -0.00294,   0.00093,476047818.62715,   0.00106,275790910.21000,   0.00085,  -0.00093,   0.00043,   0.11562,   1.00000
148655449.23421,-378905391.11227,38227673.73559,   0.00226,  -0.00295,   0.00092,476056054.57445,   0.00106,275792133.32364,   0.00085,  -0.00093,   0.00043,   0.12512,   1.00000
146792395.78245,-380403719.91992,37788493.03636,   0.00226,  -0.00295,   0.00092,476049039.82475,   0.00106,275793318.05238,   0.00085,  -0.00093,   0.00043,   0.12048,   1.00000
144907641.21720,-381911910.45839,37343086.20275,   0.00225,  -0.00295,   0.00091,476049215.15347,   0.00106,275794497.73529,   0.00085,  -0.00093,   0.00043,   0.12258,   1.00000
143036121.58165,-383402258.20181,36898499.46246,   0.00225,  -0.00296,   0.00091,476042890.24094,   0.00106,275795642.44042,   0.00085,  -0.00093,   0.00043,   0.11838,   1.00000
141122183.25706,-384917270.30539,36448175.96155,   0.00224,  -0.00296,   0.00090,476036586.42765,   0.00106,275796752.43695,   0.00085,  -0.00094,   0.00043,   0.11418,   1.00000
139206457.22867,-386425665.84101,35997492.37272,   0.00224,  -0.00297,   0.00090,476045364.51660,   0.00106,275797897.35938,   0.00085,  -0.00094,   0.00043,   0.12457,   1.00000
137248574.07595,-387959432.17311,35534588.56928,   0.00223,  -0.00297,   0.00089,476038191.58581,   0.00106,275799003.57599,   0.00085,  -0.00094,   0.00043,   0.11927,   1.00000
135288384.26362,-389485143.47839,35077751.36166,   0.00223,  -0.00297,   0.00088,476048743.90549,   0.00106,275800152.85736,   0.00085,  -0.00094,   0.00043,   0.13199,   1.00000
133321389.13573,-391009988.63638,34609283.95596,   0.00222,  -0.00298,   0.00088,476033366.08691,   0.00107,275801225.68264,   0.00085,  -0.00094,   0.00043,   0.11788,   1.00000
131310906.37918,-392557370.06535,34141372.64132,   0.00222,  -0.00298,   0.00087,476029866.11437,   0.00107,275802277.06781,   0.00085,  -0.00094,   0.00043,   0.11606,   1.00000
129298557.42340,-394097519.88054,33673088.13924,   0.00221,  -0.00299,   0.00087,476039245.59797,   0.00107,275803366.32424,   0.00085,  -0.00094,   0.00043,   0.12766,   1.00000
127264344.55047,-395647253.49844,33191997.52391,   0.00221,  -0.00299,   0.00086,476039745.54983,   0.00107,275804452.43767,   0.00086,  -0.00094,   0.00043,   0.13006,   1.00000
125221977.59118,-397193547.96772,32712044.41080,   0.00220,  -0.00299,   0.00085,476027817.93236,   0.00107,275805478.33910,   0.00086,  -0.00094,   0.00043,   0.11887,   1.00000
123156738.23545,-398746973.64419,32232139.52451,   0.00219,  -0.00300,   0.00085,476031380.54922,   0.00107,275806515.46090,   0.00086,  -0.00094,   0.00043,   0.12443,   1.00000
121090054.00935,-400293819.71802,31745422.53195,   0.00219,  -0.00300,   0.00084,476039809.50418,   0.00107,275807586.06782,   0.00086,  -0.00095,   0.00043,   0.13577,   1.00000
118979750.85801,-401863060.16876,31252688.35484,   0.00218,  -0.00301,   0.00084,476036563.65570,   0.00107,275808636.40881,   0.00086,  -0.00095,   0.00043,   0.13382,   1.00000
116846438.94768,-403438800.99022,30759975.20718,   0.00218,  -0.00301,   0.00083,476040868.12793,   0.00107,275809701.20252,   0.00086,  -0.00095,   0.00043,   0.14083,   1.00000
114726096.22995,-404997228.41950,30261459.04459,   0.00217,  -0.00301,   0.00082,476034179.01554,   0.00107,275810729.98267,   0.00086,  -0.00095,   0.00043,   0.13455,   1.00000
112582693.82578,-406561974.23675,29762955.13426,   0.00217,  -0.00302,   0.00082,476038681.50926,   0.00108,275811774.20386,   0.00086,  -0.00095,   0.00043,   0.14186,   1.00000
110395269.37076,-408148171.66515,29258340.59061,   0.00216,  -0.00302,   0.00081,476036633.88955,   0.00108,275812803.77396,   0.00086,  -0.00095,   0.00043,   0.14114,   1.00000
108220296.20630,-409715913.21367,28754343.93555,   0.00215,  -0.00303,   0.00080,476031409.05672,   0.00108,275813804.22983,   0.00086,  -0.00095,   0.00043,   0.13634,   1.00000
106008203.28609,-411300238.54300,28242906.40309,   0.00215,  -0.00303,   0.00080,476051230.28443,   0.00108,275814890.28658,   0.00086,  -0.00095,   0.00043,   0.16436,   1.00000
103787454.86701,-412881195.97153,27725930.11501,   0.00214,  -0.00303,   0.00079,476039651.87313,   0.00108,275815917.89891,   0.00086,  -0.00095,   0.00043,   0.15050,   1.00000
101564906.73410,-414453301.88196,27208623.39145,   0.00213,  -0.00304,   0.00079,476050551.89497,   0.00108,275816990.10565,   0.00086,  -0.00095,   0.00043,   0.16753,   1.00000
99297941.31129,-416045642.79633,26685122.00338,   0.00213,  -0.00304,   0.00078,476050017.73893,   0.00108,275818054.41582,   0.00086,  -0.00096,   0.00043,   0.16879,   1.00000
97021740.86548,-417633360.95052,26162488.52813,   0.00212,  -0.00305,   0.00077,476040070.23733,   0.00108,275819067.89385,   0.00086,  -0.00096,   0.00043,   0.15647,   1.00000
94743773.63213,-419211813.78669,25639535.75642,   0.00211,  -0.00305,   0.00077,476051343.48040,   0.00108,275820127.63726,   0.00087,  -0.00096,   0.00043,   0.17484,   1.00000
92443033.52234,-420796641.49264,25103585.81595,   0.00211,  -0.00305,   0.00076,476055642.26576,   0.00108,275821201.56813,   0.00087,  -0.00096,   0.00043,   0.18348,   1.00000
90118701.03685,-422384949.43018,24574088.91110,   0.00210,  -0.00306,   0.00075,476063362.27009,   0.00109,275822305.18429,   0.00087,  -0.00096,   0.00043,   0.19798,   1.00000
87785383.43452,-423969985.21112,24032423.86272,   0.00209,  -0.00306,   0.00074,476051979.10814,   0.00109,275823351.29580,   0.00087,  -0.00096,   0.00043,   0.18171,   1.00000
85414874.95967,-425567965.55887,23489893.00398,   0.00209,  -0.00306,   0.00074,476075454.31321,   0.00109,275824498.89300,   0.00087,  -0.00096,   0.00043,   0.22338,   1.00000
83056540.21706,-427146894.50388,22947914.43626,   0.00208,  -0.00307,   0.00073,476071171.87393,   0.00109,275825621.10761,   0.00087,  -0.00096,   0.00043,   0.21812,   1.00000
80666936.81756,-428735096.86506,22400423.22403,   0.00207,  -0.00307,   0.00072,476056724.35334,   0.00109,275826671.85199,   0.00087,  -0.00096,   0.00043,   0.19525,   1.00000
78262137.20292,-430321700.56756,21851902.12646,   0.00207,  -0.00308,   0.00072,476085465.44181,   0.00109,275827847.76870,   0.00087,  -0.00096,   0.00043,   0.24964,   1.00000
75847765.73502,-431903516.07421,21297622.36913,   0.00206,  -0.00308,   0.00071,476076072.21770,   0.00109,275828974.95270,   0.00087,  -0.00097,   0.00043,   0.23411,   1.00000
73410015.88962,-433488237.32539,20743316.39208,   0.00205,  -0.00308,   0.00070,476084283.71910,   0.00109,275830133.56346,   0.00087,  -0.00097,   0.00043,   0.25242,   1.00000
70949088.89699,-435076321.88790,20182488.16194,   0.00204,  -0.00309,   0.00070,476091943.71933,   0.00109,275831320.89977,   0.00087,  -0.00097,   0.00043,   0.27050,   1.00000
68500199.07810,-436645064.98110,19622179.79046,   0.00204,  -0.00309,   0.00069,476088109.58278,   0.00109,275832484.69465,   0.00087,  -0.00097,   0.00043,   0.26507,   1.00000
66027975.21381,-438216167.76094,19061863.05862,   0.00203,  -0.00309,   0.00068,476096876.30052,   0.00110,275833682.13963,   0.00087,  -0.00097,   0.00043,   0.28620,   1.00000
63510670.51639,-439803933.56492,18488686.31290,   0.00202,  -0.00310,   0.00067,476100490.42570,   0.00110,275834889.69106,   0.00087,  -0.00097,   0.00043,   0.29685,   1.00000
61014124.95585,-441366284.89093,17921724.23761,   0.00201,  -0.00310,   0.00067,476118466.84450,   0.00110,275836172.24233,   0.00087,  -0.00097,   0.00043,   0.34139,   1.00000
58472357.41727,-442944012.98330,17348422.34429,   0.00201,  -0.00310,   0.00066,476123536.56731,   0.00110,275837470.98830,   0.00088,  -0.00097,   0.00043,   0.35690,   1.00000
55920542.92603,-444515697.94723,16769254.10095,   0.00200,  -0.00311,   0.00065,476115867.30457,   0.00110,275838728.28496,   0.00088,  -0.00097,   0.00043,   0.34094,   1.00000
53367583.78958,-446074807.28227,16196506.36624,   0.00199,  -0.00311,   0.00064,476130266.92934,   0.00110,275840043.96318,   0.00088,  -0.00098,   0.00043,   0.38043,   1.00000
50804606.93711,-447628334.35369,15611353.79321,   0.00198,  -0.00311,   0.00064,476122153.53395,   0.00110,275841316.13381,   0.00088,  -0.00098,   0.00043,   0.36237,   1.00000
48205510.62064,-449189493.85933,15032214.86390,   0.00197,  -0.00312,   0.00063,476150401.69666,   0.00110,275842708.88055,   0.00088,  -0.00098,   0.00043,   0.44246,   1.00000
45618644.27864,-450731806.07834,14440554.78702,   0.00197,  -0.00312,   0.00062,476146210.52351,   0.00111,275844075.40480,   0.00088,  -0.00098,   0.00043,   0.43380,   1.00000
42986284.24417,-452286463.98694,13855604.27651,   0.00196,  -0.00312,   0.00061,476154570.42574,   0.00111,275845472.30159,   0.00088,  -0.00098,   0.00043,   0.46165,   1.00000
40365995.96096,-453821548.24902,13264638.51384,   0.00195,  -0.00313,   0.00061,476151218.34324,   0.00111,275846846.72735,   0.00088,  -0.00098,   0.00043,   0.45499,   1.00000
37710278.73964,-455363958.34543,12666785.11462,   0.00194,  -0.00313,   0.00060,476179448.09640,   0.00111,275848340.64485,   0.00088,  -0.00098,   0.00044,   0.54723,   1.00000
35066529.75268,-456885658.53715,12075984.85620,   0.00193,  -0.00313,   0.00059,476177398.55314,   0.00111,275849817.41861,   0.00088,  -0.00099,   0.00044,   0.54419,   1.00000
32389943.47653,-458412501.64447,11479318.75666,   0.00192,  -0.00314,   0.00058,476168544.54399,   0.00111,275851246.61314,   0.00088,  -0.00099,   0.00044,   0.51867,   1.00000
29700787.79307,-459933185.06662,10875802.83475,   0.00192,  -0.00314,   0.00058,476200512.12873,   0.00111,275852811.39191,   0.00088,  -0.00099,   0.00044,   0.63258,   1.00000
27001184.57796,-461445683.13771,10272882.56241,   0.00191,  -0.00314,   0.00057,476195566.38988,   0.00112,275854345.65403,   0.00088,  -0.00099,   0.00044,   0.61862,   1.00000
24278934.92389,-462956553.22450,9670170.06375,   0.00190,  -0.00315,   0.00056,476208300.11949,   0.00112,275855928.63032,   0.00089,  -0.00099,   0.00044,   0.66978,   1.00000
21556756.79580,-464453771.74924,9061112.78676,   0.00189,  -0.00315,   0.00055,476223396.54291,   0.00112,275857570.55405,   0.00089,  -0.00099,   0.00044,   0.73271,   1.00000
18824102.28860,-465942407.84785,8452647.44091,   0.00188,  -0.00315,   0.00055,476218966.56451,   0.00112,275859183.86198,   0.00089,  -0.00100,   0.00044,   0.71916,   1.00000
16069029.93518,-467428712.77264,7844454.07493,   0.00187,  -0.00316,   0.00054,476232364.22209,   0.00112,275860848.21531,   0.00089,  -0.00100,   0.00044,   0.77801,   1.00000
13314325.69926,-468900843.18607,7229994.89059,   0.00186,  -0.00316,   0.00053,476247908.82079,   0.00112,275862572.83659,   0.00089,  -0.00100,   0.00044,   0.84894,   1.00000
10514743.21065,-470381549.61073,6622433.99802,   0.00186,  -0.00316,   0.00052,476260085.67511,   0.00112,275864342.30356,   0.00089,  -0.00100,   0.00044,   0.90817,   1.00000
7727435.01121,-471841726.02438,6002372.43929,   0.00185,  -0.00316,   0.00051,476258034.56989,   0.00113,275866093.04303,   0.00089,  -0.00100,   0.00044,   0.90320,   1.00000
4940770.14378,-473286724.68923,5389201.64415,   0.00184,  -0.00317,   0.00051,476274531.20082,   0.00113,275867907.55495,   0.00089,  -0.00100,   0.00044,   0.98538,   1.00000
2120937.72500,-474733946.60365,4770111.33925,   0.00183,  -0.00317,   0.00050,476269222.89527,   0.00113,275869688.61267,   0.00089,  -0.00101,   0.00044,   0.96418,   1.00000
-709351.50471,-476171739.14398,4144728.95010,   0.00182,  -0.00317,   0.00049,476303620.93347,   0.00113,275871612.44763,   0.00089,  -0.00101,   0.00044,   0.00000,   2.00000
-3550037.81052,-477599399.19890,3526505.93673,   0.00181,  -0.00318,   0.00048,476301054.62743,   0.00113,275873514.38228,   0.00089,  -0.00101,   0.00044,  -0.00000,   2.00000
-6389524.49895,-479011516.94168,2902230.83093,   0.00180,  -0.00318,   0.00047,476317788.79327,   0.00113,275875479.92590,   0.00090,  -0.00101,   0.00044,   0.00000,   2.00000
-9239386.47144,-480413474.06229,2278582.09848,   0.00179,  -0.00318,   0.00047,476315304.05252,   0.00114,275877423.69139,   0.00090,  -0.00101,   0.00044,   0.00000,   2.00000
-12110630.24368,-481810510.83512,1655481.60217,   0.00178,  -0.00318,   0.00046,476331118.73820,   0.00114,275879426.56713,   0.00090,  -0.00102,   0.00044,   0.00000,   2.00000
-15003094.59516,-483202305.84562,1026432.03078,   0.00177,  -0.00319,   0.00045,476347236.75740,   0.00114,275881489.45604,   0.00090,  -0.00102,   0.00044,   0.00000,   2.00000
-17893796.86888,-484577639.54637,398013.08974,   0.00176,  -0.00319,   0.00044,476364786.80677,   0.00114,275883618.23952,   0.00090,  -0.00102,   0.00044,   0.00000,   2.00000
-20794726.75058,-485942053.68844,-229741.85154,   0.00175,  -0.00319,   0.00043,476363194.95078,   0.00114,275885728.22103,   0.00090,  -0.00102,   0.00044,  -0.00000,   2.00000
-23693643.29335,-487289793.85598,-863340.82940,   0.00174,  -0.00320,   0.00043,476380895.96027,   0.00115,275887904.28500,   0.00090,  -0.00102,   0.00044,   0.00000,   2.00000
-26636064.84833,-488641772.65029,-1489668.74376,   0.00173,  -0.00320,   0.00042,476397242.75757,   0.00115,275890139.97393,   0.00090,  -0.00103,   0.00044,   0.00000,   2.00000
-29542873.56067,-489961346.61140,-2121836.62286,   0.00173,  -0.00320,   0.00041,476397636.68244,   0.00115,275892364.94283,   0.00090,  -0.00103,   0.00044,   0.00000,   2.00000
-32492951.42689,-491284511.18310,-2753207.10409,   0.00172,  -0.00320,   0.00040,476414586.78640,   0.00115,275894651.69327,   0.00091,  -0.00103,   0.00044,   0.00000,   2.00000
-35440363.28107,-492590126.55139,-3390261.79310,   0.00171,  -0.00321,   0.00039,476433056.19108,   0.00115,275897006.41718,   0.00091,  -0.00103,   0.00044,   0.00000,   2.00000
-38407784.91896,-493888437.55471,-4019884.17189,   0.00170,  -0.00321,   0.00038,476451063.57212,   0.00116,275899426.57595,   0.00091,  -0.00104,   0.00044,   0.00000,   2.00000
-41362199.63878,-495164415.59219,-4655288.59936,   0.00169,  -0.00321,   0.00038,476451296.90669,   0.00116,275901834.15469,   0.00091,  -0.00104,   0.00044,   0.00000,   2.00000
-44359215.93668,-496442364.64687,-5289725.75726,   0.00168,  -0.00321,   0.00037,476469775.21008,   0.00116,275904308.65561,   0.00091,  -0.00104,   0.00044,  -0.00000,   2.00000
-47320252.98782,-497688173.92569,-5923389.30884,   0.00167,  -0.00322,   0.00036,476470053.99079,   0.00116,275906770.42023,   0.00091,  -0.00104,   0.00044,   0.00000,   2.00000
-50323596.36598,-498935341.74313,-6556012.61278,   0.00166,  -0.00322,   0.00035,476489089.12824,   0.00117,275909300.96508,   0.00091,  -0.00105,   0.00044,   0.00000,   2.00000
-53323251.07649,-500163839.81666,-7194076.51149,   0.00165,  -0.00322,   0.00034,476508516.65494,   0.00117,275911901.47563,   0.00091,  -0.00105,   0.00044,   0.00000,   2.00000
-56319020.77318,-501373870.76567,-7830995.88728,   0.00164,  -0.00322,   0.00033,476527735.96182,   0.00117,275914570.52120,   0.00091,  -0.00105,   0.00044,   0.00000,   2.00000
-59347140.34070,-502580437.37875,-8460531.31950,   0.00163,  -0.00323,   0.00033,476528873.87118,   0.00117,275917229.27780,   0.00092,  -0.00106,   0.00044,   0.00000,   2.00000
-62371016.20379,-503767798.84102,-9095382.17488,   0.00161,  -0.00323,   0.00032,476548759.97831,   0.00118,275919958.81417,   0.00092,  -0.00106,   0.00044,   0.00000,   2.00000
-65390437.56398,-504935836.87199,-9735488.97375,   0.00160,  -0.00323,   0.00031,476568758.66037,   0.00118,275922759.07369,   0.00092,  -0.00106,   0.00044,   0.00000,   2.00000
-68419118.06394,-506090634.60512,-10368163.42589,   0.00159,  -0.00323,   0.00030,476569964.32596,   0.00118,275925548.49476,   0.00092,  -0.00106,   0.00043,  -0.00000,   2.00000
-71465851.98764,-507235164.61726,-10999473.89739,   0.00158,  -0.00324,   0.00029,476590645.04718,   0.00118,275928410.90359,   0.00092,  -0.00107,   0.00043,   0.00000,   2.00000
-74507540.72866,-508359842.91510,-11635908.86843,   0.00157,  -0.00324,   0.00028,476611102.78354,   0.00119,275931344.77451,   0.00092,  -0.00107,   0.00043,   0.00000,   2.00000
-77558195.80501,-509470308.07821,-12271376.52265,   0.00156,  -0.00324,   0.00027,476613352.01178,   0.00119,275934271.39086,   0.00092,  -0.00107,   0.00043,   0.00000,   2.00000
-80626299.41019,-510570204.68811,-12898808.63971,   0.00155,  -0.00324,   0.00027,476634271.83575,   0.00119,275937270.73187,   0.00092,  -0.00108,   0.00043,  -0.00000,   2.00000
-83688737.52884,-511649725.54803,-13531229.26267,   0.00154,  -0.00324,   0.00026,476655190.50044,   0.00119,275940342.21794,   0.00092,  -0.00108,   0.00043,   0.00000,   2.00000
-86737098.87897,-512706258.30213,-14162667.54749,   0.00153,  -0.00325,   0.00025,476656551.04554,   0.00120,275943401.73814,   0.00093,  -0.00108,   0.00043,   0.00000,   2.00000
-89824977.26954,-513759236.82728,-14792391.59886,   0.00152,  -0.00325,   0.00024,476680121.20888,   0.00120,275946543.99883,   0.00093,  -0.00109,   0.00043,  -0.00000,   2.00000
-92875904.94990,-514780988.10885,-15421163.48064,   0.00151,  -0.00325,   0.00023,476680043.41189,   0.00120,275949667.68165,   0.00093,  -0.00109,   0.00043,   0.00000,   2.00000
-95973710.95893,-515800727.49989,-16053935.03679,   0.00150,  -0.00325,   0.00022,476724020.20516,   0.00121,275952960.11440,   0.00093,  -0.00109,   0.00043,   0.00000,   2.00000
-99057068.73338,-516797765.42057,-16679125.04918,   0.00149,  -0.00325,   0.00022,476725269.23298,   0.00121,275956238.61489,   0.00093,  -0.00110,   0.00043,   0.00000,   2.00000
-102125957.82360,-517771623.22896,-17303261.36642,   0.00148,  -0.00326,   0.00021,476727001.79298,   0.00121,275959505.30286,   0.00093,  -0.00110,   0.00043,   0.00000,   2.00000
-105240527.74532,-518741999.02245,-17931123.84772,   0.00147,  -0.00326,   0.00020,476772196.53408,   0.00122,275962944.03710,   0.00093,  -0.00110,   0.00043,   0.00000,   2.00000
-108310429.50231,-519679625.25659,-18552258.44978,   0.00145,  -0.00326,   0.00019,476752097.41382,   0.00122,275966277.70403,   0.00093,  -0.00111,   0.00043,   0.00000,   2.00000
-111425255.06026,-520612918.08951,-19176945.20636,   0.00144,  -0.00326,   0.00018,476797977.68207,   0.00122,275969785.22115,   0.00094,  -0.00111,   0.00043,   0.00000,   2.00000
-114502729.74520,-521516350.06921,-19794096.86633,   0.00143,  -0.00326,   0.00017,476796949.34479,   0.00123,275973267.76953,   0.00094,  -0.00111,   0.00043,  -0.00000,   2.00000
-117617211.54248,-522412126.19747,-20415486.17924,   0.00142,  -0.00327,   0.00016,476824309.64987,   0.00123,275976844.72846,   0.00094,  -0.00112,   0.00043,  -0.00000,   2.00000
-120723595.40029,-523287513.86979,-21028287.30457,   0.00141,  -0.00327,   0.00016,476845208.78436,   0.00123,275980488.21023,   0.00094,  -0.00112,   0.00043,   0.00000,   2.00000
-123814659.75327,-524138478.49254,-21646391.20120,   0.00140,  -0.00327,   0.00015,476848441.42740,   0.00124,275984123.66826,   0.00094,  -0.00113,   0.00043,  -0.00000,   2.00000
-126919707.81905,-524975849.05430,-22255694.39853,   0.00139,  -0.00327,   0.00014,476872169.77607,   0.00124,275987836.76541,   0.00094,  -0.00113,   0.00043,   0.00000,   2.00000
-130031600.82283,-525795217.84491,-22870110.00374,   0.00138,  -0.00327,   0.00013,476878642.56887,   0.00124,275991554.79326,   0.00094,  -0.00113,   0.00043,  -0.00000,   2.00000
-133134635.58310,-526594057.84750,-23475783.49698,   0.00136,  -0.00328,   0.00012,476899697.39934,   0.00125,275995338.41497,   0.00094,  -0.00114,   0.00043,   0.00000,   2.00000
-136228249.58655,-527370347.54456,-24085635.72707,   0.00135,  -0.00328,   0.00011,476922666.51757,   0.00125,275999195.03080,   0.00094,  -0.00114,   0.00043,   0.00000,   2.00000
-139328684.78552,-528130387.54929,-24687558.26724,   0.00134,  -0.00328,   0.00010,476927652.19269,   0.00125,276003049.32228,   0.00095,  -0.00115,   0.00042,  -0.00000,   2.00000
-142441420.87615,-528873661.68751,-25293366.14407,   0.00133,  -0.00328,   0.00010,476954359.12315,   0.00126,276006991.21539,   0.00095,  -0.00115,   0.00042,   0.00000,   2.00000
-145544376.79483,-529596203.28593,-25890250.27078,   0.00132,  -0.00328,   0.00009,476975692.77285,   0.00126,276010997.73909,   0.00095,  -0.00116,   0.00042,  -0.00000,   2.00000
-148653483.88163,-530300900.03697,-26485598.72292,   0.00131,  -0.00328,   0.00008,476982303.72219,   0.00126,276015007.50842,   0.00095,  -0.00116,   0.00042,   0.00000,   2.00000
-151751952.29122,-530982458.91602,-27084881.99611,   0.00130,  -0.00328,   0.00007,477005891.24049,   0.00127,276019090.40082,   0.00095,  -0.00116,   0.00042,   0.00000,   2.00000
-154861988.30211,-531648745.91709,-27674868.25883,   0.00128,  -0.00329,   0.00006,477031296.07393,   0.00127,276023253.19724,   0.00095,  -0.00117,   0.00042,   0.00000,   2.00000
-157955755.52847,-532291344.79936,-28263488.00177,   0.00127,  -0.00329,   0.00005,477034434.47560,   0.00128,276027403.81821,   0.00095,  -0.00117,   0.00042,  -0.00000,   2.00000
-161060325.51070,-532917137.97994,-28849176.67012,   0.00126,  -0.00329,   0.00004,477061276.84205,   0.00128,276031639.36518,   0.00095,  -0.00118,   0.00042,  -0.00000,   2.00000
-164148468.05932,-533519263.49456,-29433473.89163,   0.00125,  -0.00329,   0.00004,477064509.52333,   0.00128,276035862.57678,   0.00095,  -0.00118,   0.00042,   0.00000,   2.00000
-167247184.08423,-534105591.57017,-30008290.31975,   0.00124,  -0.00329,   0.00003,477090463.77248,   0.00129,276040166.16312,   0.00096,  -0.00119,   0.00042,   0.00000,   2.00000
-170333778.87682,-534668343.88066,-30586769.19095,   0.00122,  -0.00329,   0.00002,477114619.56302,   0.00129,276044542.10101,   0.00096,  -0.00119,   0.00042,   0.00000,   2.00000
-173425305.50529,-535212193.94691,-31163478.93766,   0.00121,  -0.00329,   0.00001,477122639.58251,   0.00130,276048924.11617,   0.00096,  -0.00120,   0.00042,   0.00000,   2.00000
-176504935.98171,-535735169.32324,-31730882.47252,   0.00120,  -0.00330,   0.00000,477144395.96584,   0.00130,276053367.82614,   0.00096,  -0.00120,   0.00041,  -0.00000,   2.00000
-179593599.62737,-536240324.68377,-32295021.50347,   0.00119,  -0.00330,  -0.00001,477172335.38468,   0.00130,276057897.64533,   0.00096,  -0.00121,   0.00041,   0.00000,   2.00000
-182665219.53756,-536721880.10538,-32857690.41778,   0.00118,  -0.00330,  -0.00001,477175913.25997,   0.00131,276062414.40726,   0.00096,  -0.00121,   0.00041,   0.00000,   2.00000
-185745308.88567,-537185304.40790,-33416984.69725,   0.00116,  -0.00330,  -0.00002,477204194.84466,   0.00131,276067017.70604,   0.00096,  -0.00122,   0.00041,   0.00000,   2.00000
-188808188.80857,-537625166.34098,-33974784.84947,   0.00115,  -0.00330,  -0.00003,477207871.00509,   0.00132,276071607.79267,   0.00096,  -0.00122,   0.00041,   0.00000,   2.00000
-191878966.46123,-538046596.37075,-34529099.58338,   0.00114,  -0.00330,  -0.00004,477236492.89548,   0.00132,276076284.82302,   0.00096,  -0.00123,   0.00041,   0.00000,   2.00000
-194936514.94341,-538447193.37189,-35073891.03301,   0.00113,  -0.00330,  -0.00005,477258498.52341,   0.00133,276081021.51626,   0.00096,  -0.00123,   0.00041,   0.00000,   2.00000
-197976169.52983,-538822826.92859,-35623579.19929,   0.00112,  -0.00330,  -0.00006,477263665.68301,   0.00133,276085750.02342,   0.00097,  -0.00124,   0.00041,   0.00000,   2.00000
-201023342.64203,-539181362.18421,-36163218.32829,   0.00110,  -0.00330,  -0.00007,477291225.55109,   0.00133,276090559.63842,   0.00097,  -0.00124,   0.00040,  -0.00000,   2.00000
-204077126.55653,-539520900.76524,-36699150.93577,   0.00109,  -0.00331,  -0.00007,477320562.08964,   0.00134,276095456.64600,   0.00097,  -0.00125,   0.00040,   0.00000,   2.00000
-207113590.89869,-539838723.17867,-37227129.59540,   0.00108,  -0.00331,  -0.00008,477323045.87316,   0.00134,276100333.59384,   0.00097,  -0.00125,   0.00040,  -0.00000,   2.00000
-210134818.35583,-540132580.08238,-37758237.64374,   0.00107,  -0.00331,  -0.00009,477348138.53550,   0.00135,276105280.24597,   0.00097,  -0.00126,   0.00040,  -0.00000,   2.00000
-213159436.94109,-540407992.42766,-38280851.88049,   0.00105,  -0.00331,  -0.00010,477356624.04202,   0.00135,276110230.21406,   0.00097,  -0.00127,   0.00040,  -0.00000,   2.00000
-216189504.17479,-540663941.25559,-38799565.18934,   0.00104,  -0.00331,  -0.00011,477386568.28985,   0.00136,276115268.06098,   0.00097,  -0.00127,   0.00040,   0.00000,   2.00000
-219201423.48184,-540896638.21725,-39316695.97482,   0.00103,  -0.00331,  -0.00011,477390738.65517,   0.00136,276120291.50683,   0.00097,  -0.00128,   0.00040,   0.00000,   2.00000
-222197777.03532,-541107141.43873,-39830425.82700,   0.00102,  -0.00331,  -0.00012,477414475.98123,   0.00137,276125377.53672,   0.00097,  -0.00128,   0.00039,   0.00000,   2.00000
-225199325.37975,-541299807.44698,-40333730.96970,   0.00100,  -0.00331,  -0.00013,477443159.72475,   0.00137,276130544.90359,   0.00097,  -0.00129,   0.00039,   0.00000,   2.00000
-228182524.07210,-541469491.67060,-40835452.86393,   0.00099,  -0.00331,  -0.00014,477447349.87436,   0.00138,276135697.06157,   0.00097,  -0.00129,   0.00039,  -0.00000,   2.00000
-231149566.25386,-541617211.56975,-41333700.13796,   0.00098,  -0.00331,  -0.00015,477471097.79512,   0.00138,276140910.46585,   0.00097,  -0.00130,   0.00039,   0.00000,   2.00000
-234141064.26870,-541748984.10768,-41820720.99257,   0.00096,  -0.00331,  -0.00016,477507041.95728,   0.00139,276146231.91425,   0.00097,  -0.00131,   0.00039,   0.00000,   2.00000
-237093862.79682,-541855956.12327,-42306838.72392,   0.00095,  -0.00331,  -0.00016,477504406.80731,   0.00139,276151510.60759,   0.00097,  -0.00131,   0.00039,   0.00000,   2.00000
-240049798.41676,-541942931.95276,-42788689.81143,   0.00094,  -0.00331,  -0.00017,477535359.78719,   0.00140,276156877.06067,   0.00097,  -0.00132,   0.00038,  -0.00000,   2.00000
-242987036.00015,-542007295.89858,-43268944.51880,   0.00093,  -0.00332,  -0.00018,477539670.46698,   0.00140,276162227.42873,   0.00097,  -0.00132,   0.00038,  -0.00000,   2.00000
-245927567.87369,-542053505.92238,-43738494.71172,   0.00091,  -0.00332,  -0.00019,477569129.55281,   0.00141,276167658.82729,   0.00098,  -0.00133,   0.00038,   0.00000,   2.00000
-248868848.22529,-542078556.77871,-44205673.13313,   0.00090,  -0.00332,  -0.00020,477581031.31943,   0.00141,276173102.84663,   0.00098,  -0.00134,   0.00038,   0.00000,   2.00000
-251772908.13864,-542080657.78057,-44669990.20796,   0.00089,  -0.00332,  -0.00020,477597509.97958,   0.00142,276178577.04103,   0.00098,  -0.00134,   0.00038,  -0.00000,   2.00000
-254679476.97647,-542064599.11190,-45123498.65262,   0.00087,  -0.00332,  -0.00021,477627231.09175,   0.00142,276184131.82931,   0.00098,  -0.00135,   0.00037,  -0.00000,   2.00000
-257586327.89874,-542027315.40943,-45574586.56799,   0.00086,  -0.00332,  -0.00022,477639478.91543,   0.00143,276189699.59011,   0.00098,  -0.00135,   0.00037,   0.00000,   2.00000
-260474891.72697,-541968608.29106,-46021954.84449,   0.00085,  -0.00332,  -0.00023,477663587.20598,   0.00143,276195325.48338,   0.00098,  -0.00136,   0.00037,  -0.00000,   2.00000
-263345902.57164,-541890823.14994,-46459276.53949,   0.00083,  -0.00332,  -0.00024,477685724.75580,   0.00144,276201001.49768,   0.00098,  -0.00137,   0.00037,   0.00000,   2.00000
-266216733.07058,-541791766.79852,-46894132.64865,   0.00082,  -0.00332,  -0.00024,477698314.14461,   0.00144,276206690.84590,   0.00098,  -0.00137,   0.00037,   0.00000,   2.00000
-269087153.55058,-541671238.97727,-47326486.61526,   0.00081,  -0.00332,  -0.00025,477711159.29674,   0.00145,276212394.30589,   0.00098,  -0.00138,   0.00036,  -0.00000,   2.00000
-271920721.17114,-541531479.77634,-47749701.42158,   0.00080,  -0.00332,  -0.00026,477724999.82625,   0.00145,276218115.60553,   0.00098,  -0.00139,   0.00036,   0.00000,   2.00000
-274753980.80804,-541371286.30178,-48168186.82885,   0.00078,  -0.00332,  -0.00027,477757382.35315,   0.00146,276223924.49609,   0.00098,  -0.00139,   0.00036,   0.00000,   2.00000
-277586368.15082,-541189600.82591,-48584128.77973,   0.00077,  -0.00332,  -0.00027,477770564.84896,   0.00146,276229747.87267,   0.00098,  -0.00140,   0.00036,  -0.00000,   2.00000
-280400214.94299,-540989462.87262,-48989955.89770,   0.00076,  -0.00332,  -0.00028,477792728.51207,   0.00147,276235619.35715,   0.00098,  -0.00140,   0.00035,   0.00000,   2.00000
-283195440.29303,-540771141.48907,-49385690.37122,   0.00074,  -0.00332,  -0.00029,477814767.98603,   0.00147,276241538.08621,   0.00098,  -0.00141,   0.00035,  -0.00000,   2.00000
-285988304.72728,-540529051.33073,-49785147.62050,   0.00073,  -0.00332,  -0.00030,477830293.14162,   0.00148,276247479.25648,   0.00098,  -0.00142,   0.00035,   0.00000,   2.00000
-288763689.51519,-540270326.52001,-50170533.50218,   0.00072,  -0.00332,  -0.00030,477830881.19795,   0.00149,276253386.94297,   0.00098,  -0.00142,   0.00035,  -0.00000,   2.00000
-291535438.70988,-539989721.62225,-50554935.23088,   0.00070,  -0.00332,  -0.00031,477885462.85909,   0.00149,276259462.39215,   0.00098,  -0.00143,   0.00034,   0.00000,   2.00000
-294289076.96634,-539689352.14660,-50933920.12924,   0.00069,  -0.00332,  -0.00032,477868814.85419,   0.00150,276265439.65474,   0.00097,  -0.00144,   0.00034,   0.00000,   2.00000
-297022783.50695,-539372582.67535,-51300432.82995,   0.00067,  -0.00332,  -0.00033,477910066.34052,   0.00150,276271534.14428,   0.00097,  -0.00144,   0.00034,  -0.00000,   2.00000
-299754412.27388,-539034308.03874,-51664345.48728,   0.00066,  -0.00332,  -0.00033,477924138.80630,   0.00151,276277644.34492,   0.00097,  -0.00145,   0.00034,  -0.00000,   2.00000
-302466227.03209,-538675321.40436,-52026815.80713,   0.00065,  -0.00332,  -0.00034,477928900.18381,   0.00151,276283735.82743,   0.00097,  -0.00146,   0.00033,   0.00000,   2.00000
-305175848.51920,-538298300.93761,-52377975.54058,   0.00063,  -0.00332,  -0.00035,477960375.49229,   0.00152,276289907.02286,   0.00097,  -0.00146,   0.00033,   0.00000,   2.00000
-307847139.29800,-537903146.34500,-52726521.87884,   0.00062,  -0.00332,  -0.00036,477974686.09008,   0.00153,276296094.38713,   0.00097,  -0.00147,   0.00033,  -0.00000,   2.00000
-310534293.58871,-537487739.47864,-53064940.87888,   0.00061,  -0.00332,  -0.00036,477996789.59054,   0.00153,276302326.20085,   0.00097,  -0.00148,   0.00033,   0.00000,   2.00000
-313200053.63773,-537053261.23627,-53399509.01089,   0.00059,  -0.00332,  -0.00037,478020892.54513,   0.00154,276308609.48075,   0.00097,  -0.00148,   0.00032,  -0.00000,   2.00000
-315847146.40493,-536601117.45529,-53726479.05485,   0.00058,  -0.00332,  -0.00038,478023517.58283,   0.00154,276314865.49902,   0.00097,  -0.00149,   0.00032,   0.00000,   2.00000
-318472801.69365,-536130386.04792,-54049633.62393,   0.00056,  -0.00332,  -0.00039,478047397.28322,   0.00155,276321171.93062,   0.00097,  -0.00150,   0.00032,  -0.00000,   2.00000
-321096633.07542,-535640684.97527,-54363912.40115,   0.00055,  -0.00332,  -0.00039,478060109.74424,   0.00155,276327487.76872,   0.00097,  -0.00150,   0.00031,   0.00000,   2.00000
-323715236.97715,-535130835.91910,-54673012.73975,   0.00054,  -0.00332,  -0.00040,478094387.75358,   0.00156,276333891.09472,   0.00097,  -0.00151,   0.00031,   0.00000,   2.00000
-326296814.97086,-534607190.69045,-54973458.83153,   0.00052,  -0.00331,  -0.00041,478105684.38177,   0.00157,276340298.25636,   0.00097,  -0.00152,   0.00031,   0.00000,   2.00000
-328891078.31728,-534060150.39211,-55269854.12932,   0.00051,  -0.00331,  -0.00041,478131498.40042,   0.00157,276346761.52066,   0.00096,  -0.00153,   0.00031,   0.00000,   2.00000
-331448343.62522,-533499828.45772,-55557659.02760,   0.00050,  -0.00331,  -0.00042,478142582.92954,   0.00158,276353227.57335,   0.00096,  -0.00153,   0.00030,   0.00000,   2.00000
-334001731.93575,-532918132.51219,-55842820.54022,   0.00048,  -0.00331,  -0.00043,478158082.83162,   0.00159,276359712.27108,   0.00096,  -0.00154,   0.00030,  -0.00000,   2.00000
-336534278.32943,-532321542.64931,-56118009.04259,   0.00047,  -0.00331,  -0.00043,478179600.97607,   0.00159,276366237.13407,   0.00096,  -0.00155,   0.00030,   0.00000,   2.00000
-339064125.75116,-531706153.22980,-56384353.78204,   0.00045,  -0.00331,  -0.00044,478193044.16891,   0.00160,276372772.94857,   0.00096,  -0.00155,   0.00029,   0.00000,   2.00000
-341571427.61521,-531073614.87711,-56646976.29699,   0.00044,  -0.00331,  -0.00045,478216852.16700,   0.00160,276379356.76324,   0.00096,  -0.00156,   0.00029,   0.00000,   2.00000
-344058754.61737,-530422313.58992,-56908490.36809,   0.00042,  -0.00331,  -0.00045,478221719.28746,   0.00161,276385920.84134,   0.00096,  -0.00157,   0.00029,   0.00000,   2.00000
-346540428.40915,-529754257.75264,-57158551.56229,   0.00041,  -0.00331,  -0.00046,478254243.90778,   0.00162,276392563.69719,   0.00095,  -0.00157,   0.00028,   0.00000,   2.00000
-349000871.89237,-529072271.53858,-57398745.05606,   0.00040,  -0.00331,  -0.00047,478275601.23738,   0.00162,276399245.20681,   0.00095,  -0.00158,   0.00028,   0.00000,   2.00000
-351458048.91168,-528371688.59248,-57630142.10409,   0.00038,  -0.00331,  -0.00047,478289531.32444,   0.00163,276405938.79044,   0.00095,  -0.00159,   0.00028,   0.00000,   2.00000
-353890589.57033,-527652263.25482,-57864090.87010,   0.00037,  -0.00331,  -0.00048,478315615.78155,   0.00163,276412687.49864,   0.00095,  -0.00160,   0.00027,  -0.00000,   2.00000
-356306422.52177,-526919967.09737,-58084691.86173,   0.00035,  -0.00331,  -0.00049,478315785.63398,   0.00164,276419399.59496,   0.00095,  -0.00160,   0.00027,   0.00000,   2.00000
-358713959.89005,-526168821.12649,-58300059.88057,   0.00034,  -0.00330,  -0.00049,478350998.36370,   0.00165,276426198.79150,   0.00095,  -0.00161,   0.00026,   0.00000,   2.00000
-361103171.72096,-525402383.94461,-58508336.90564,   0.00032,  -0.00330,  -0.00050,478353593.99145,   0.00165,276432969.96729,   0.00094,  -0.00162,   0.00026,   0.00000,   2.00000
-363483616.06836,-524617265.43769,-58711374.52451,   0.00031,  -0.00330,  -0.00051,478388997.80368,   0.00166,276439828.46518,   0.00094,  -0.00162,   0.00026,   0.00000,   2.00000
-365828102.05897,-523822961.22632,-58906438.81032,   0.00030,  -0.00330,  -0.00051,478398168.19046,   0.00167,276446682.05749,   0.00094,  -0.00163,   0.00025,   0.00000,   2.00000
-368182917.54488,-523007037.22272,-59091059.39274,   0.00028,  -0.00330,  -0.00052,478424711.56386,   0.00167,276453591.43956,   0.00094,  -0.00164,   0.00025,   0.00000,   2.00000
-370503697.88246,-522177128.83080,-59276649.17814,   0.00027,  -0.00330,  -0.00052,478417659.78023,   0.00168,276460439.33412,   0.00093,  -0.00165,   0.00025,  -0.00000,   2.00000
-372816847.48217,-521331746.72469,-59450868.45704,   0.00025,  -0.00330,  -0.00053,478450763.89535,   0.00169,276467366.02225,   0.00093,  -0.00165,   0.00024,   0.00000,   2.00000
-375120219.58785,-520468292.97222,-59619885.41457,   0.00024,  -0.00330,  -0.00054,478486503.04545,   0.00169,276474380.20878,   0.00093,  -0.00166,   0.00024,   0.00000,   2.00000
-377391866.40673,-519594192.22650,-59783856.24208,   0.00022,  -0.00329,  -0.00054,478476738.73204,   0.00170,276481323.71430,   0.00093,  -0.00167,   0.00024,   0.00000,   2.00000
-379655408.85535,-518705062.66464,-59936508.00636,   0.00021,  -0.00329,  -0.00055,478509968.10853,   0.00171,276488345.96636,   0.00092,  -0.00167,   0.00023,  -0.00000,   2.00000
-381914421.20176,-517797947.27354,-60080543.30462,   0.00019,  -0.00329,  -0.00055,478525132.53451,   0.00171,276495384.07152,   0.00092,  -0.00168,   0.00023,   0.00000,   2.00000
-384149641.50483,-516877180.78658,-60221305.97117,   0.00018,  -0.00329,  -0.00056,478548481.08156,   0.00172,276502466.37725,   0.00092,  -0.00169,   0.00022,  -0.00000,   2.00000
-386367055.70884,-515942550.27666,-60355367.17623,   0.00016,  -0.00329,  -0.00057,478551083.65291,   0.00172,276509521.30963,   0.00092,  -0.00169,   0.00022,   0.00000,   2.00000
-388560806.68057,-514994781.31117,-60486228.24586,   0.00015,  -0.00329,  -0.00057,478574218.21506,   0.00173,276516619.88400,   0.00091,  -0.00170,   0.00022,  -0.00000,   2.00000
-390745634.34536,-514032681.71748,-60605850.36197,   0.00014,  -0.00329,  -0.00058,478607733.24768,   0.00174,276523797.55472,   0.00091,  -0.00171,   0.00021,   0.00000,   2.00000
-392925462.78516,-513052892.57212,-60716945.43271,   0.00012,  -0.00328,  -0.00058,478623395.14219,   0.00175,276530992.71970,   0.00091,  -0.00172,   0.00021,  -0.00000,   2.00000
-395070779.98298,-512067497.76646,-60820767.32861,   0.00011,  -0.00328,  -0.00059,478630958.73977,   0.00175,276538177.83464,   0.00090,  -0.00172,   0.00020,   0.00000,   2.00000
-397221514.23724,-511057563.68257,-60920291.56687,   0.00009,  -0.00328,  -0.00059,478662388.13343,   0.00176,276545434.59725,   0.00090,  -0.00173,   0.00020,   0.00000,   2.00000
-399342354.78955,-510038791.25564,-61015316.28195,   0.00008,  -0.00328,  -0.00060,478651892.96315,   0.00177,276552619.80530,   0.00090,  -0.00174,   0.00019,   0.00000,   2.00000
-401449053.50474,-509010131.32658,-61096538.20533,   0.00006,  -0.00328,  -0.00060,478703529.33596,   0.00177,276559945.70421,   0.00089,  -0.00174,   0.00019,   0.00000,   2.00000
-403540901.47782,-507962047.96624,-61180200.96657,   0.00005,  -0.00328,  -0.00061,478690916.58524,   0.00178,276567193.11939,   0.00089,  -0.00175,   0.00019,   0.00000,   2.00000
-405618155.86110,-506904526.53414,-61250097.32404,   0.00003,  -0.00327,  -0.00061,478742620.74378,   0.00179,276574581.15299,   0.00089,  -0.00176,   0.00018,  -0.00000,   2.00000
-407678100.78473,-505834360.61821,-61313689.85732,   0.00002,  -0.00327,  -0.00062,478745366.11256,   0.00179,276581943.09557,   0.00088,  -0.00177,   0.00018,   0.00000,   2.00000
-409720894.68747,-504751637.03276,-61371021.13948,   0.00000,  -0.00327,  -0.00062,478748061.48069,   0.00180,276589279.16796,   0.00088,  -0.00177,   0.00017,   0.00000,   2.00000
-411751254.91553,-503653321.18413,-61423507.46699,  -0.00001,  -0.00327,  -0.00063,478784650.70024,   0.00181,276596704.38750,   0.00088,  -0.00178,   0.00017,   0.00000,   2.00000
-413764517.55442,-502542637.34441,-61469791.40605,  -0.00003,  -0.00327,  -0.00063,478787441.31416,   0.00181,276604104.27449,   0.00087,  -0.00179,   0.00016,   0.00000,   2.00000
-415751161.47249,-501428628.07109,-61504611.61275,  -0.00004,  -0.00326,  -0.00064,478825188.57267,   0.00182,276611597.16039,   0.00087,  -0.00179,   0.00016,   0.00000,   2.00000
-417736917.19640,-500293179.01704,-61533879.31476,  -0.00006,  -0.00326,  -0.00064,478824420.05674,   0.00183,276619052.88535,   0.00086,  -0.00180,   0.00016,   0.00000,   2.00000
-419698721.20826,-499147648.52742,-61560559.52667,  -0.00008,  -0.00326,  -0.00065,478847192.53834,   0.00183,276626551.19175,   0.00086,  -0.00181,   0.00015,   0.00000,   2.00000
-421649553.74995,-497990009.95205,-61576413.17258,  -0.00009,  -0.00326,  -0.00065,478881518.23654,   0.00184,276634130.85821,   0.00086,  -0.00181,   0.00015,  -0.00000,   2.00000
-423573008.88198,-496825567.88775,-61588454.66890,  -0.00011,  -0.00326,  -0.00066,478870138.08928,   0.00185,276641638.26308,   0.00085,  -0.00182,   0.00014,  -0.00000,   2.00000
-425495909.69962,-495644338.48088,-61587582.11031,  -0.00012,  -0.00325,  -0.00066,478918763.77141,   0.00186,276649275.21234,   0.00085,  -0.00183,   0.00014,   0.00000,   2.00000
-427391767.84671,-494456542.44783,-61583015.47036,  -0.00014,  -0.00325,  -0.00067,478907325.58002,   0.00186,276656840.05972,   0.00084,  -0.00183,   0.00013,   0.00000,   2.00000
-429284323.37186,-493249567.00935,-61571715.38760,  -0.00015,  -0.00325,  -0.00067,478958785.95046,   0.00187,276664543.91741,   0.00084,  -0.00184,   0.00013,  -0.00000,   2.00000
-431145017.03434,-492041561.19131,-61554207.50313,  -0.00017,  -0.00325,  -0.00068,478964396.14950,   0.00188,276672233.04458,   0.00083,  -0.00185,   0.00012,   0.00000,   2.00000
-432999393.32853,-490817149.46058,-61528723.34566,  -0.00018,  -0.00324,  -0.00068,478981885.28716,   0.00188,276679947.41278,   0.00083,  -0.00186,   0.00012,  -0.00000,   2.00000
-434835195.80220,-489578920.72011,-61503636.35918,  -0.00020,  -0.00324,  -0.00068,478987426.76902,   0.00189,276687647.33948,   0.00083,  -0.00186,   0.00012,   0.00000,   2.00000
-436651792.10250,-488337686.98010,-61464136.93491,  -0.00021,  -0.00324,  -0.00069,479004820.23322,   0.00190,276695372.63100,   0.00082,  -0.00187,   0.00011,   0.00000,   2.00000
-438454350.41926,-487083294.95204,-61420319.29082,  -0.00023,  -0.00324,  -0.00069,479042022.87344,   0.00191,276703189.41665,   0.00082,  -0.00188,   0.00011,   0.00000,   2.00000
-440250207.55516,-485812694.95542,-61368638.73710,  -0.00025,  -0.00323,  -0.00070,479060023.75605,   0.00191,276711033.54809,   0.00081,  -0.00188,   0.00010,  -0.00000,   2.00000
-442015283.88570,-484542417.92770,-61311123.96270,  -0.00026,  -0.00323,  -0.00070,479065008.70920,   0.00192,276718861.91917,   0.00081,  -0.00189,   0.00010,   0.00000,   2.00000
-443773718.97832,-483256088.64408,-61245829.13617,  -0.00028,  -0.00323,  -0.00070,479083073.46082,   0.00193,276726718.31003,   0.00080,  -0.00190,   0.00009,   0.00000,   2.00000
-445517600.08573,-481957270.63453,-61176376.00979,  -0.00029,  -0.00323,  -0.00071,479120567.44547,   0.00194,276734667.39031,   0.00080,  -0.00190,   0.00009,   0.00000,   2.00000
-447242446.63818,-480656597.81891,-61092848.91476,  -0.00031,  -0.00322,  -0.00071,479137943.12806,   0.00194,276742642.17291,   0.00079,  -0.00191,   0.00008,  -0.00000,   2.00000
-448954657.82584,-479336624.12870,-61012600.96326,  -0.00032,  -0.00322,  -0.00072,479127134.61473,   0.00195,276750549.42226,   0.00078,  -0.00192,   0.00008,   0.00000,   2.00000
-450640317.05148,-478019025.81766,-60922004.42595,  -0.00034,  -0.00322,  -0.00072,479163396.23361,   0.00196,276758545.71747,   0.00078,  -0.00192,   0.00007,   0.00000,   2.00000
-452319031.13657,-476685718.64893,-60823807.47761,  -0.00036,  -0.00322,  -0.00072,479181992.17513,   0.00197,276766572.38576,   0.00077,  -0.00193,   0.00007,   0.00000,   2.00000
-453982763.03854,-475340877.28369,-60721698.24100,  -0.00037,  -0.00321,  -0.00073,479219719.98660,   0.00197,276774692.92144,   0.00077,  -0.00193,   0.00006,   0.00000,   2.00000
-455625015.47555,-473993813.76549,-60610571.28167,  -0.00039,  -0.00321,  -0.00073,479205137.93895,   0.00198,276782734.10024,   0.00076,  -0.00194,   0.00006,   0.00000,   2.00000
-457252305.57359,-472635601.99190,-60495643.49059,  -0.00040,  -0.00321,  -0.00073,479242822.28302,   0.00199,276790869.41727,   0.00076,  -0.00195,   0.00005,   0.00000,   2.00000
-458874644.54794,-471264316.31430,-60367111.74573,  -0.00042,  -0.00320,  -0.00074,479259457.84225,   0.00200,276799029.09391,   0.00075,  -0.00195,   0.00005,   0.00000,   2.00000
-460473721.21298,-469887700.98725,-60237239.72670,  -0.00043,  -0.00320,  -0.00074,479281703.79809,   0.00200,276807231.89847,   0.00074,  -0.00196,   0.00004,   0.00000,   2.00000
-462057602.87955,-468501218.91756,-60102331.66562,  -0.00045,  -0.00320,  -0.00074,479285266.55144,   0.00201,276815416.23753,   0.00074,  -0.00197,   0.00004,   0.00000,   2.00000
-463628478.23176,-467106685.34952,-59957678.64453,  -0.00047,  -0.00319,  -0.00074,479320761.40549,   0.00202,276823687.86644,   0.00073,  -0.00197,   0.00003,  -0.00000,   2.00000
-465176339.93273,-465707483.50347,-59811855.04947,  -0.00048,  -0.00319,  -0.00075,479342901.32835,   0.00203,276832002.68260,   0.00073,  -0.00198,   0.00003,   0.00000,   2.00000
-466711650.21541,-464301037.70224,-59654977.91237,  -0.00050,  -0.00319,  -0.00075,479344094.27669,   0.00204,276840291.63296,   0.00072,  -0.00199,   0.00003,   0.00000,   2.00000
-468231478.58790,-462884769.63469,-59494686.30037,  -0.00052,  -0.00319,  -0.00075,479382147.20424,   0.00204,276848676.72296,   0.00071,  -0.00199,   0.00002,   0.00000,   2.00000
-469738835.07184,-461461332.46369,-59323429.12051,  -0.00053,  -0.00318,  -0.00076,479383498.55101,   0.00205,276857036.77252,   0.00071,  -0.00200,   0.00002,   0.00000,   2.00000
-471230535.03767,-460028427.90475,-59148878.92461,  -0.00055,  -0.00318,  -0.00076,479421690.50760,   0.00206,276865493.66926,   0.00070,  -0.00200,   0.00001,  -0.00000,   2.00000
-472700584.02179,-458591685.63168,-58971969.58052,  -0.00056,  -0.00318,  -0.00076,479409375.44524,   0.00207,276873880.84066,   0.00069,  -0.00201,   0.00001,   0.00000,   2.00000
-474164194.20755,-457142617.20386,-58783328.36879,  -0.00058,  -0.00317,  -0.00076,479461425.92154,   0.00207,276882410.96777,   0.00069,  -0.00202,   0.00000,  -0.00000,   2.00000
-475613117.80413,-455684267.45318,-58590046.98247,  -0.00060,  -0.00317,  -0.00077,479465522.39271,   0.00208,276890925.75791,   0.00068,  -0.00202,  -0.00000,   0.00000,   2.00000
-477041917.73618,-454224975.81365,-58389909.20959,  -0.00061,  -0.00317,  -0.00077,479485143.18728,   0.00209,276899476.70030,   0.00067,  -0.00203,  -0.00001,   0.00000,   2.00000
-478448424.62883,-452762748.48467,-58189148.49713,  -0.00063,  -0.00316,  -0.00077,479507059.24727,   0.00210,276908071.55106,   0.00067,  -0.00203,  -0.00001,  -0.00000,   2.00000
-479849433.03434,-451288178.42779,-57975325.62103,  -0.00065,  -0.00316,  -0.00077,479525259.34255,   0.00211,276916698.13602,   0.00066,  -0.00204,  -0.00002,  -0.00000,   2.00000
-481228236.13333,-449811020.39846,-57761008.17948,  -0.00066,  -0.00315,  -0.00077,479547198.12957,   0.00212,276925368.98549,   0.00065,  -0.00205,  -0.00002,   0.00000,   2.00000
-482595885.46621,-448330381.08757,-57531544.14865,  -0.00068,  -0.00315,  -0.00078,479580946.64503,   0.00212,276934123.07054,   0.00064,  -0.00205,  -0.00003,   0.00000,   2.00000
-483947021.54655,-446838707.92758,-57303908.28914,  -0.00069,  -0.00315,  -0.00078,479587643.15973,   0.00213,276942871.28391,   0.00064,  -0.00206,  -0.00003,   0.00000,   2.00000
-485289986.98762,-445332703.38211,-57069551.49870,  -0.00071,  -0.00314,  -0.00078,479608785.36827,   0.00214,276951661.56266,   0.00063,  -0.00206,  -0.00004,   0.00000,   2.00000
-486613330.31236,-443826955.37781,-56828752.72904,  -0.00073,  -0.00314,  -0.00078,479628424.53368,   0.00215,276960489.06492,   0.00062,  -0.00207,  -0.00004,  -0.00000,   2.00000
-487917260.14362,-442321670.92515,-56581589.28172,  -0.00074,  -0.00314,  -0.00078,479647967.27529,   0.00216,276969353.59943,   0.00061,  -0.00208,  -0.00005,   0.00000,   2.00000
-489212958.77976,-440802271.94733,-56327860.91869,  -0.00076,  -0.00313,  -0.00079,479669408.75891,   0.00216,276978261.60403,   0.00061,  -0.00208,  -0.00005,   0.00000,   2.00000
-490489347.65799,-439283638.68249,-56067892.52046,  -0.00078,  -0.00313,  -0.00079,479689000.92590,   0.00217,276987207.08311,   0.00060,  -0.00209,  -0.00006,   0.00000,   2.00000
-491744292.05268,-437763929.83520,-55807941.95558,  -0.00079,  -0.00313,  -0.00079,479710798.22482,   0.00218,276996197.49437,   0.00059,  -0.00209,  -0.00006,   0.00000,   2.00000
-492993322.84079,-436232380.65396,-55535362.33739,  -0.00081,  -0.00312,  -0.00079,479730243.18041,   0.00219,277005225.16752,   0.00058,  -0.00210,  -0.00007,   0.00000,   2.00000
-494231505.83128,-434684936.27549,-55262596.95164,  -0.00083,  -0.00312,  -0.00079,479754524.11609,   0.00220,277014306.31480,   0.00057,  -0.00210,  -0.00007,   0.00000,   2.00000
-495442608.95284,-433156119.24224,-54977961.78648,  -0.00084,  -0.00311,  -0.00079,479769380.09558,   0.00221,277023409.74875,   0.00056,  -0.00211,  -0.00008,   0.00000,   2.00000
-496648363.34674,-431601618.48659,-54695239.28800,  -0.00086,  -0.00311,  -0.00079,479779112.35274,   0.00222,277032518.86888,   0.00056,  -0.00211,  -0.00008,   0.00000,   2.00000
-497837213.99644,-430055596.49232,-54396130.47845,  -0.00088,  -0.00311,  -0.00079,479828267.21140,   0.00222,277041764.13169,   0.00055,  -0.00212,  -0.00009,   0.00000,   2.00000
-499010384.22379,-428499339.32010,-54099402.74317,  -0.00090,  -0.00310,  -0.00080,479835636.93339,   0.00223,277051007.27142,   0.00054,  -0.00213,  -0.00009,   0.00000,   2.00000
-500165047.28458,-426945144.53231,-53796922.62505,  -0.00091,  -0.00310,  -0.00080,479855202.97740,   0.00224,277060288.86688,   0.00053,  -0.00213,  -0.00010,   0.00000,   2.00000
-501311150.50608,-425377519.47836,-53488352.38388,  -0.00093,  -0.00309,  -0.00080,479877809.29557,   0.00225,277069619.16726,   0.00052,  -0.00214,  -0.00010,  -0.00000,   2.00000
-502438870.11266,-423812237.82382,-53174153.93757,  -0.00095,  -0.00309,  -0.00080,479897438.03788,   0.00226,277078988.38466,   0.00051,  -0.00214,  -0.00011,   0.00000,   2.00000
-503557905.51743,-422233640.26119,-52853965.29263,  -0.00096,  -0.00309,  -0.00080,479920330.29454,   0.00227,277088407.51988,   0.00050,  -0.00215,  -0.00011,   0.00000,   2.00000
-504658685.28872,-420657664.68844,-52528272.68951,  -0.00098,  -0.00308,  -0.00080,479940024.06168,   0.00228,277097866.03527,   0.00050,  -0.00215,  -0.00012,   0.00000,   2.00000
-505739164.21044,-419082673.17216,-52203368.65011,  -0.00100,  -0.00308,  -0.00080,479961783.80405,   0.00229,277107370.93393,   0.00049,  -0.00216,  -0.00012,  -0.00000,   2.00000
-506813226.57174,-417496398.71362,-51866375.33979,  -0.00101,  -0.00307,  -0.00080,479982835.58331,   0.00230,277116919.97395,   0.00048,  -0.00216,  -0.00013,  -0.00000,   2.00000
-507873343.98618,-415908169.31527,-51521825.15882,  -0.00103,  -0.00307,  -0.00080,480020239.35094,   0.00230,277126567.58627,   0.00047,  -0.00217,  -0.00013,  -0.00000,   2.00000
-508909505.73417,-414326428.64971,-51180529.16204,  -0.00105,  -0.00306,  -0.00080,480024323.68345,   0.00231,277136202.96873,   0.00046,  -0.00217,  -0.00014,   0.00000,   2.00000
-509939200.49468,-412733542.37586,-50827295.93765,  -0.00107,  -0.00306,  -0.00080,480045733.32825,   0.00232,277145884.00592,   0.00045,  -0.00218,  -0.00014,   0.00000,   2.00000
-510952824.17321,-411137524.06759,-50472968.31563,  -0.00108,  -0.00306,  -0.00080,480085340.00804,   0.00233,277155671.42481,   0.00044,  -0.00218,  -0.00015,  -0.00000,   2.00000
-511956083.67450,-409535345.61832,-50109027.93537,  -0.00110,  -0.00305,  -0.00080,480089313.21252,   0.00234,277165446.45950,   0.00043,  -0.00219,  -0.00015,  -0.00000,   2.00000
-512939739.40063,-407935244.31705,-49746340.66611,  -0.00112,  -0.00305,  -0.00080,480111110.09115,   0.00235,277175268.77352,   0.00042,  -0.00219,  -0.00015,   0.00000,   2.00000
-513909682.74384,-406334278.87074,-49376508.99338,  -0.00114,  -0.00304,  -0.00080,480148743.64380,   0.00236,277185191.28530,   0.00041,  -0.00220,  -0.00016,   0.00000,   2.00000
-514867309.53186,-404725550.60707,-49003434.54862,  -0.00115,  -0.00304,  -0.00080,480154971.04096,   0.00237,277195109.14466,   0.00040,  -0.00220,  -0.00016,   0.00000,   2.00000
-515811200.59567,-403116289.89970,-48623361.47985,  -0.00117,  -0.00303,  -0.00080,480192765.72694,   0.00238,277205128.02611,   0.00039,  -0.00221,  -0.00017,   0.00000,   2.00000
-516738157.78688,-401511393.04965,-48238540.76662,  -0.00119,  -0.00303,  -0.00080,480212561.15337,   0.00239,277215187.65920,   0.00038,  -0.00221,  -0.00017,   0.00000,   2.00000
-517656152.38100,-399894171.20086,-47848471.70566,  -0.00121,  -0.00302,  -0.00080,480237131.09105,   0.00240,277225304.19981,   0.00037,  -0.00221,  -0.00018,  -0.00000,   2.00000
-518557362.59907,-398281558.94476,-47453775.43691,  -0.00122,  -0.00302,  -0.00080,480257007.94086,   0.00241,277235461.93947,   0.00036,  -0.00222,  -0.00018,  -0.00000,   2.00000
-519446563.51047,-396661283.97849,-47056040.62000,  -0.00124,  -0.00302,  -0.00080,480263645.10728,   0.00242,277245616.62368,   0.00035,  -0.00222,  -0.00019,   0.00000,   2.00000
-520322145.95077,-395041312.69703,-46651682.61951,  -0.00126,  -0.00301,  -0.00080,480301730.13507,   0.00243,277255873.94622,   0.00034,  -0.00223,  -0.00019,   0.00000,   2.00000
-521179246.82492,-393424843.52459,-46249160.59743,  -0.00128,  -0.00301,  -0.00080,480323523.68137,   0.00244,277266179.15047,   0.00033,  -0.00223,  -0.00020,  -0.00000,   2.00000
-522024986.60553,-391810565.83801,-45833880.61085,  -0.00129,  -0.00300,  -0.00080,480359766.99876,   0.00245,277276580.81543,   0.00032,  -0.00224,  -0.00020,   0.00000,   2.00000
-522858993.54541,-390188744.95976,-45415754.95595,  -0.00131,  -0.00300,  -0.00080,480366742.51329,   0.00246,277286980.48118,   0.00031,  -0.00224,  -0.00021,  -0.00000,   2.00000
-523677517.14919,-388566527.38190,-44997630.41346,  -0.00133,  -0.00299,  -0.00080,480406912.40581,   0.00247,277297490.13693,   0.00029,  -0.00225,  -0.00021,   0.00000,   2.00000
-524484421.06735,-386936836.09867,-44576693.63701,  -0.00135,  -0.00299,  -0.00079,480414078.89378,   0.00248,277307998.51708,   0.00028,  -0.00225,  -0.00021,  -0.00000,   2.00000
-525279924.37457,-385309900.55211,-44143281.19996,  -0.00137,  -0.00298,  -0.00079,480450713.89630,   0.00249,277318605.14435,   0.00027,  -0.00225,  -0.00022,   0.00000,   2.00000
-526057664.94496,-383687335.88947,-43712118.63514,  -0.00138,  -0.00298,  -0.00079,480472578.59175,   0.00250,277329260.08056,   0.00026,  -0.00226,  -0.00022,  -0.00000,   2.00000
-526824017.45242,-382057327.11885,-43278259.92971,  -0.00140,  -0.00297,  -0.00079,480479963.01571,   0.00251,277339914.47149,   0.00025,  -0.00226,  -0.00023,   0.00000,   2.00000
-527573071.84598,-380442594.13133,-42837136.62615,  -0.00142,  -0.00297,  -0.00079,480531070.00073,   0.00252,277350716.28986,   0.00024,  -0.00227,  -0.00023,   0.00000,   2.00000
-528314980.09562,-378806968.94578,-42394719.81749,  -0.00144,  -0.00296,  -0.00079,480526123.14235,   0.00253,277361475.67840,   0.00023,  -0.00227,  -0.00024,   0.00000,   2.00000
-529039722.30111,-377187133.80481,-41945229.37082,  -0.00146,  -0.00296,  -0.00079,480577263.52785,   0.00254,277372382.90206,   0.00022,  -0.00227,  -0.00024,   0.00000,   2.00000
-529753350.95730,-375559931.89212,-41493225.14335,  -0.00147,  -0.00295,  -0.00078,480585000.44961,   0.00255,277383290.53974,   0.00020,  -0.00228,  -0.00025,   0.00000,   2.00000
-530453981.23593,-373935267.26308,-41035605.25797,  -0.00149,  -0.00295,  -0.00078,480623812.26410,   0.00256,277394304.28588,   0.00019,  -0.00228,  -0.00025,   0.00000,   2.00000
-531137889.25613,-372315941.25874,-40580658.08509,  -0.00151,  -0.00294,  -0.00078,480645648.58148,   0.00257,277405366.30218,   0.00018,  -0.00228,  -0.00025,   0.00000,   2.00000
-531812789.08303,-370690480.66733,-40116932.90638,  -0.00153,  -0.00294,  -0.00078,480651934.11712,   0.00258,277416423.67735,   0.00017,  -0.00229,  -0.00026,   0.00000,   2.00000
-532473072.49870,-369066844.35259,-39654150.74018,  -0.00155,  -0.00293,  -0.00078,480692511.17944,   0.00259,277427593.44170,   0.00016,  -0.00229,  -0.00026,   0.00000,   2.00000
-533122454.47193,-367447586.53313,-39179707.00349,  -0.00157,  -0.00293,  -0.00078,480729906.35231,   0.00260,277438864.58007,   0.00014,  -0.00229,  -0.00027,   0.00000,   2.00000
-533759278.65398,-365819902.50063,-38709335.45100,  -0.00158,  -0.00292,  -0.00077,480739822.59495,   0.00261,277450143.25263,   0.00013,  -0.00230,  -0.00027,   0.00000,   2.00000
-534381832.01134,-364199282.03785,-38235544.57145,  -0.00160,  -0.00292,  -0.00077,480760101.63926,   0.00262,277461464.91011,   0.00012,  -0.00230,  -0.00027,   0.00000,   2.00000
-534991900.55532,-362582332.30012,-37756652.06838,  -0.00162,  -0.00291,  -0.00077,480799241.96257,   0.00263,277472894.11777,   0.00011,  -0.00231,  -0.00028,   0.00000,   2.00000
-535592973.76853,-360954699.31385,-37273832.89509,  -0.00164,  -0.00291,  -0.00077,480826715.45976,   0.00264,277484390.90908,   0.00009,  -0.00231,  -0.00028,   0.00000,   2.00000
-536175221.83567,-359352451.02754,-36788439.03802,  -0.00166,  -0.00290,  -0.00076,480839884.86054,   0.00265,277495905.91304,   0.00008,  -0.00231,  -0.00029,   0.00000,   2.00000
-536750090.69016,-357736291.81215,-36297552.02373,  -0.00168,  -0.00290,  -0.00076,480886430.43135,   0.00267,277507553.98299,   0.00007,  -0.00231,  -0.00029,   0.00000,   2.00000
-537313187.24879,-356116139.98637,-35806242.48840,  -0.00169,  -0.00289,  -0.00076,480876293.54723,   0.00268,277519140.08430,   0.00006,  -0.00232,  -0.00029,   0.00000,   2.00000
-537860575.95083,-354511127.75489,-35313944.65480,  -0.00171,  -0.00289,  -0.00076,480947737.82883,   0.00269,277530945.14411,   0.00004,  -0.00232,  -0.00030,   0.00000,   2.00000
-538398167.56654,-352903022.41374,-34814865.37879,  -0.00173,  -0.00288,  -0.00075,480936219.91623,   0.00270,277542682.93582,   0.00003,  -0.00232,  -0.00030,   0.00000,   2.00000
-538922198.22612,-351298667.45953,-34317605.09569,  -0.00175,  -0.00287,  -0.00075,480977132.03536,   0.00271,277554534.53718,   0.00002,  -0.00233,  -0.00031,   0.00000,   2.00000
-539434389.50104,-349699232.06190,-33815851.85650,  -0.00177,  -0.00287,  -0.00075,481016685.46163,   0.00272,277566495.09266,   0.00000,  -0.00233,  -0.00031,   0.00000,   2.00000
-539936643.21444,-348092580.63916,-33312166.57121,  -0.00179,  -0.00286,  -0.00075,481025922.14758,   0.00273,277578459.72003,  -0.00001,  -0.00233,  -0.00031,   0.00000,   2.00000
-540427136.44085,-346491134.36657,-32804134.16532,  -0.00181,  -0.00286,  -0.00074,481065634.09545,   0.00274,277590533.93407,  -0.00002,  -0.00234,  -0.00032,   0.00000,   2.00000
-540904903.61000,-344897888.69841,-32293360.44350,  -0.00183,  -0.00285,  -0.00074,481086237.09338,   0.00276,277602651.29337,  -0.00004,  -0.00234,  -0.00032,   0.00000,   2.00000
-541370143.06985,-343312886.22055,-31779893.39327,  -0.00185,  -0.00285,  -0.00074,481106793.97295,   0.00277,277614811.53109,  -0.00005,  -0.00234,  -0.00032,   0.00000,   2.00000
-541824018.51076,-341733470.84452,-31262325.84128,  -0.00186,  -0.00284,  -0.00073,481146545.49709,   0.00278,277627081.25587,  -0.00007,  -0.00234,  -0.00033,   0.00000,   2.00000
-542267844.45252,-340143329.46721,-30747968.49933,  -0.00188,  -0.00284,  -0.00073,481176701.02906,   0.00279,277639427.11384,  -0.00008,  -0.00235,  -0.00033,  -0.00000,   2.00000
-542699496.81835,-338561733.57002,-30231046.37689,  -0.00190,  -0.00283,  -0.00073,481197398.65313,   0.00280,277651816.00152,  -0.00009,  -0.00235,  -0.00033,   0.00000,   2.00000
-543120550.41104,-336989490.22318,-29705207.12639,  -0.00192,  -0.00283,  -0.00072,481216830.84777,   0.00281,277664243.35320,  -0.00011,  -0.00235,  -0.00034,   0.00000,   2.00000
-543531684.77573,-335406697.18469,-29182743.40073,  -0.00194,  -0.00282,  -0.00072,481247241.86682,   0.00283,277676747.60533,  -0.00012,  -0.00235,  -0.00034,   0.00000,   2.00000
-543927261.86765,-333847882.54749,-28663517.55782,  -0.00196,  -0.00281,  -0.00072,481279892.87000,   0.00284,277689336.24928,  -0.00014,  -0.00236,  -0.00034,   0.00000,   2.00000
-544315832.36869,-332280160.95120,-28134891.24026,  -0.00198,  -0.00281,  -0.00071,481308054.36015,   0.00285,277701993.56558,  -0.00015,  -0.00236,  -0.00035,   0.00000,   2.00000
-544693620.88328,-330719022.89470,-27602673.00756,  -0.00200,  -0.00280,  -0.00071,481348229.51105,   0.00286,277714761.47525,  -0.00016,  -0.00236,  -0.00035,  -0.00000,   2.00000
-545058099.27222,-329168339.13913,-27075905.62619,  -0.00202,  -0.00280,  -0.00070,481350799.67925,   0.00287,277727507.89391,  -0.00018,  -0.00236,  -0.00035,   0.00000,   2.00000
-545414972.84208,-327605999.81074,-26545055.45177,  -0.00204,  -0.00279,  -0.00070,481399854.26503,   0.00289,277740396.16663,  -0.00019,  -0.00236,  -0.00036,   0.00000,   2.00000
-545758608.02323,-326069145.84571,-26011365.65698,  -0.00206,  -0.00279,  -0.00070,481431191.51267,   0.00290,277753363.54436,  -0.00021,  -0.00237,  -0.00036,   0.00000,   2.00000
-546093470.36084,-324524932.57038,-25476190.12866,  -0.00208,  -0.00278,  -0.00069,481441656.14927,   0.00291,277766336.58620,  -0.00022,  -0.00237,  -0.00036,   0.00000,   2.00000
-546418116.24301,-322987904.08651,-24937740.72499,  -0.00209,  -0.00277,  -0.00069,481481990.18406,   0.00292,277779420.40436,  -0.00024,  -0.00237,  -0.00036,   0.00000,   2.00000
-546732113.03517,-321460090.50924,-24397258.30139,  -0.00211,  -0.00277,  -0.00069,481502917.45327,   0.00294,277792546.31209,  -0.00025,  -0.00237,  -0.00037,   0.00000,   2.00000
-547036879.12712,-319922422.92757,-23860674.63637,  -0.00213,  -0.00276,  -0.00068,481534131.00615,   0.00295,277805750.69605,  -0.00027,  -0.00237,  -0.00037,   0.00000,   2.00000
-547329430.97706,-318410868.60602,-23321523.37756,  -0.00215,  -0.00276,  -0.00068,481565245.73018,   0.00296,277819032.78021,  -0.00028,  -0.00238,  -0.00037,   0.00000,   2.00000
-547614054.92308,-316890136.04508,-22779916.29737,  -0.00217,  -0.00275,  -0.00067,481595616.87443,   0.00297,277832389.93055,  -0.00030,  -0.00238,  -0.00038,   0.00000,   2.00000
-547886893.37162,-315395732.78157,-22235883.80841,  -0.00219,  -0.00275,  -0.00067,481626645.58874,   0.00299,277845824.04274,  -0.00031,  -0.00238,  -0.00038,   0.00000,   2.00000
-548150915.74511,-313891688.71948,-21695955.88280,  -0.00221,  -0.00274,  -0.00066,481658086.68177,   0.00300,277859336.59186,  -0.00033,  -0.00238,  -0.00038,   0.00000,   2.00000
-548406159.13712,-312397686.73678,-21147748.95101,  -0.00223,  -0.00273,  -0.00066,481678249.63668,   0.00301,277872887.29165,  -0.00035,  -0.00238,  -0.00038,   0.00000,   2.00000
-548652617.61489,-310894169.66358,-20603750.84672,  -0.00225,  -0.00273,  -0.00065,481709915.80095,   0.00303,277886517.07933,  -0.00036,  -0.00238,  -0.00039,   0.00000,   2.00000
-548888050.89530,-309417458.03071,-20057522.96014,  -0.00227,  -0.00272,  -0.00065,481740832.67866,   0.00304,277900222.82927,  -0.00038,  -0.00239,  -0.00039,   0.00000,   2.00000
-549113590.87376,-307948560.09828,-19515119.74647,  -0.00229,  -0.00272,  -0.00064,481782290.50611,   0.00305,277914041.85801,  -0.00039,  -0.00239,  -0.00039,   0.00000,   2.00000
-549332177.92638,-306472482.80275,-18965015.23679,  -0.00231,  -0.00271,  -0.00064,481792926.61642,   0.00307,277927864.19801,  -0.00041,  -0.00239,  -0.00039,   0.00000,   2.00000
-549541030.27951,-305004472.10231,-18418868.62120,  -0.00233,  -0.00271,  -0.00064,481834493.46941,   0.00308,277941800.10537,  -0.00043,  -0.00239,  -0.00040,   0.00000,   2.00000
-549739742.67324,-303563644.98764,-17870697.21631,  -0.00235,  -0.00270,  -0.00063,481865216.54479,   0.00309,277955810.31007,  -0.00044,  -0.00239,  -0.00040,   0.00000,   2.00000
-549930316.64991,-302113561.16541,-17326992.04504,  -0.00237,  -0.00269,  -0.00063,481897190.80366,   0.00311,277969899.27690,  -0.00046,  -0.00239,  -0.00040,   0.00000,   2.00000
-550113033.51630,-300673678.41719,-16775255.27137,  -0.00239,  -0.00269,  -0.00062,481917688.83253,   0.00312,277984025.64637,  -0.00047,  -0.00239,  -0.00040,   0.00000,   2.00000
-550286672.18657,-299242258.50363,-16227721.23799,  -0.00241,  -0.00268,  -0.00062,481959249.45902,   0.00313,277998264.70470,  -0.00049,  -0.00239,  -0.00040,   0.00000,   2.00000
-550453075.46326,-297802131.62051,-15678314.47690,  -0.00243,  -0.00268,  -0.00061,481990863.55351,   0.00315,278012580.68085,  -0.00051,  -0.00239,  -0.00041,   0.00000,   2.00000
-550609333.54009,-296390174.29406,-15134297.43497,  -0.00245,  -0.00267,  -0.00060,482002418.17192,   0.00316,278026901.06331,  -0.00052,  -0.00240,  -0.00041,   0.00000,   2.00000
-550758642.63272,-294986825.76998,-14580966.99003,  -0.00247,  -0.00266,  -0.00060,482062398.50438,   0.00317,278041399.72597,  -0.00054,  -0.00240,  -0.00041,   0.00000,   2.00000
-550900046.82524,-293575215.39477,-14033068.76823,  -0.00249,  -0.00266,  -0.00059,482075161.32748,   0.00319,278055906.60047,  -0.00056,  -0.00240,  -0.00041,   0.00000,   2.00000
-551032870.40905,-292191465.00662,-13483493.89840,  -0.00251,  -0.00265,  -0.00059,482105621.78254,   0.00320,278070485.01811,  -0.00058,  -0.00240,  -0.00041,   0.00000,   2.00000
-551158216.77147,-290798744.09000,-12938714.55538,  -0.00253,  -0.00265,  -0.00058,482138109.99195,   0.00322,278085142.26028,  -0.00059,  -0.00240,  -0.00041,   0.00000,   2.00000
-551275417.48520,-289434019.61059,-12392311.71627,  -0.00255,  -0.00264,  -0.00058,482168469.00229,   0.00323,278099870.11627,  -0.00061,  -0.00240,  -0.00042,   0.00000,   2.00000
-551385916.08787,-288060625.08776,-11844291.19482,  -0.00257,  -0.00263,  -0.00057,482200553.36787,   0.00324,278114674.77466,  -0.00063,  -0.00240,  -0.00042,   0.00000,   2.00000
-551488637.84584,-286715323.93874,-11294758.01092,  -0.00260,  -0.00263,  -0.00057,482230857.11025,   0.00326,278129549.26612,  -0.00064,  -0.00240,  -0.00042,   0.00000,   2.00000
-551584264.10081,-285361117.56110,-10750181.51808,  -0.00262,  -0.00262,  -0.00056,482263552.88237,   0.00327,278144502.21083,  -0.00066,  -0.00240,  -0.00042,   0.00000,   2.00000
-551672967.56481,-284016603.32084,-10203872.76962,  -0.00264,  -0.00262,  -0.00055,482304761.16247,   0.00329,278159564.13156,  -0.00068,  -0.00240,  -0.00042,   0.00000,   2.00000
-551754286.38182,-282681879.25622,-9662833.61299,  -0.00266,  -0.00261,  -0.00055,482326647.79266,   0.00330,278174664.63495,  -0.00070,  -0.00240,  -0.00042,   0.00000,   2.00000
-551828655.86396,-281375461.48079,-9120369.76782,  -0.00268,  -0.00261,  -0.00054,482356765.38444,   0.00332,278189833.10837,  -0.00072,  -0.00240,  -0.00042,   0.00000,   2.00000
-551896753.77424,-280060374.35632,-8576482.39648,  -0.00270,  -0.00260,  -0.00054,482389271.48938,   0.00333,278205078.17670,  -0.00073,  -0.00240,  -0.00043,   0.00000,   2.00000
-551958324.32110,-278755218.92710,-8031435.98702,  -0.00272,  -0.00259,  -0.00053,482410758.99772,   0.00335,278220359.48266,  -0.00075,  -0.00240,  -0.00043,   0.00000,   2.00000
-552013235.03398,-277459804.42144,-7491373.97830,  -0.00274,  -0.00259,  -0.00053,482452359.58696,   0.00336,278235749.96432,  -0.00077,  -0.00240,  -0.00043,   0.00000,   2.00000
-552061995.41618,-276174368.85661,-6949839.03769,  -0.00276,  -0.00258,  -0.00052,482493683.26263,   0.00337,278251248.22671,  -0.00079,  -0.00240,  -0.00043,   0.00000,   2.00000
-552104405.40366,-274917306.32091,-6413551.59428,  -0.00278,  -0.00258,  -0.00051,482523955.11498,   0.00339,278266813.37048,  -0.00081,  -0.00240,  -0.00043,   0.00000,   2.00000
-552140796.85750,-273651386.63364,-5876255.74594,  -0.00280,  -0.00257,  -0.00051,482536999.95120,   0.00340,278282382.51965,  -0.00082,  -0.00240,  -0.00043,   0.00000,   2.00000
-552171405.72126,-272395531.52130,-5337593.64787,  -0.00282,  -0.00256,  -0.00050,482578346.00774,   0.00342,278298058.80278,  -0.00084,  -0.00240,  -0.00043,   0.00000,   2.00000
-552196109.50919,-271149700.59776,-4804112.97087,  -0.00284,  -0.00256,  -0.00049,482619963.12204,   0.00343,278313842.81764,  -0.00086,  -0.00240,  -0.00043,   0.00000,   2.00000
-552215506.54839,-269932484.58244,-4269465.48251,  -0.00287,  -0.00255,  -0.00049,482649817.02241,   0.00345,278329690.90817,  -0.00088,  -0.00240,  -0.00043,   0.00000,   2.00000
-552229037.83676,-268706450.25168,-3740138.57236,  -0.00289,  -0.00255,  -0.00048,482683136.40613,   0.00347,278345615.70435,  -0.00090,  -0.00240,  -0.00043,   0.00000,   2.00000
-552237194.67712,-267490212.45991,-3209730.69946,  -0.00291,  -0.00254,  -0.00047,482704761.17642,   0.00348,278361574.05016,  -0.00092,  -0.00240,  -0.00043,   0.00000,   2.00000
-552240549.82360,-266302614.32540,-2678211.07379,  -0.00293,  -0.00253,  -0.00047,482734492.66000,   0.00350,278377595.16428,  -0.00094,  -0.00240,  -0.00043,   0.00000,   2.00000
-552238287.44728,-265106144.44819,-2152076.69037,  -0.00295,  -0.00253,  -0.00046,482767913.11666,   0.00351,278393692.52459,  -0.00095,  -0.00240,  -0.00043,   0.00000,   2.00000
-552231590.67219,-263938930.78258,-1631248.09057,  -0.00297,  -0.00252,  -0.00046,482817509.87725,   0.00353,278409924.90082,  -0.00097,  -0.00240,  -0.00043,   0.00000,   2.00000
-552220140.80927,-262781296.80374,-1102873.65395,  -0.00299,  -0.00252,  -0.00045,482839061.22064,   0.00354,278426188.80361,  -0.00099,  -0.00240,  -0.00043,   0.00000,   2.00000
-552203974.06210,-261633835.59978,-586433.41866,  -0.00301,  -0.00251,  -0.00044,482880616.11977,   0.00356,278442557.51949,  -0.00101,  -0.00240,  -0.00043,   0.00000,   2.00000
-552182484.83612,-260476755.81995,-62443.95501,  -0.00304,  -0.00250,  -0.00044,482894346.31182,   0.00357,278458928.55010,  -0.00103,  -0.00240,  -0.00043,   0.00000,   2.00000
-552157295.43172,-259349202.60879,449569.45238,  -0.00306,  -0.00250,  -0.00043,482943772.08652,   0.00359,278475432.85473,  -0.00105,  -0.00240,  -0.00043,   0.00000,   2.00000
-552127686.89429,-258231048.44144,969139.39340,  -0.00308,  -0.00249,  -0.00042,482965466.49201,   0.00361,278491967.79845,  -0.00107,  -0.00239,  -0.00043,   0.00000,   2.00000
-552094816.74201,-257142402.32449,1483136.94290,  -0.00310,  -0.00249,  -0.00041,483014746.45807,   0.00362,278508634.55558,  -0.00109,  -0.00239,  -0.00043,   0.00000,   2.00000
-552056969.25079,-256043712.14147,1991713.38272,  -0.00312,  -0.00248,  -0.00041,483028598.89541,   0.00364,278525302.22717,  -0.00111,  -0.00239,  -0.00043,   0.00000,   2.00000
-552015155.69765,-254955314.85682,2501247.38379,  -0.00314,  -0.00248,  -0.00040,483070168.86054,   0.00365,278542072.94911,  -0.00113,  -0.00239,  -0.00043,   0.00000,   2.00000
-551970495.82246,-253895546.49217,3005289.18323,  -0.00317,  -0.00247,  -0.00039,483099451.04613,   0.00367,278558900.65057,  -0.00115,  -0.00239,  -0.00043,   0.00000,   2.00000
-551922156.77739,-252845941.20170,3510243.93730,  -0.00319,  -0.00246,  -0.00039,483140989.86514,   0.00369,278575830.31430,  -0.00117,  -0.00239,  -0.00043,   0.00000,   2.00000
-551870403.11137,-251806582.97693,4009578.52662,  -0.00321,  -0.00246,  -0.00038,483182440.30314,   0.00370,278592861.17444,  -0.00119,  -0.00239,  -0.00043,   0.00000,   2.00000
-551814849.19844,-250774999.59921,4510190.17157,  -0.00323,  -0.00245,  -0.00037,483184320.68400,   0.00372,278609846.40880,  -0.00121,  -0.00239,  -0.00043,   0.00000,   2.00000
-551756273.85116,-249754905.89981,5004937.86485,  -0.00325,  -0.00245,  -0.00037,483245585.84806,   0.00374,278627005.82908,  -0.00123,  -0.00239,  -0.00043,   0.00000,   2.00000
-551694485.26574,-248743801.05589,5494299.41614,  -0.00328,  -0.00244,  -0.00036,483267165.08259,   0.00375,278644191.78343,  -0.00125,  -0.00238,  -0.00043,   0.00000,   2.00000
-551630644.30909,-247761070.46477,5984691.70557,  -0.00330,  -0.00243,  -0.00035,483296346.24694,   0.00377,278661431.96204,  -0.00127,  -0.00238,  -0.00043,   0.00000,   2.00000
-551562392.24401,-246768774.48300,6476005.27517,  -0.00332,  -0.00243,  -0.00034,483330571.36761,   0.00379,278678745.03239,  -0.00129,  -0.00238,  -0.00043,   0.00000,   2.00000
-551492814.83630,-245806361.42652,6961489.24619,  -0.00334,  -0.00242,  -0.00034,483379363.07078,   0.00380,278696184.40468,  -0.00131,  -0.00238,  -0.00043,   0.00000,   2.00000
-551420505.09444,-244852610.86606,7441616.30034,  -0.00336,  -0.00242,  -0.00033,483400885.10992,   0.00382,278713648.32075,  -0.00133,  -0.00238,  -0.00043,   0.00000,   2.00000
-551346697.94585,-243926997.90933,7922770.44331,  -0.00339,  -0.00241,  -0.00032,483429947.71180,   0.00384,278731164.31061,  -0.00135,  -0.00238,  -0.00042,   0.00000,   2.00000
-551269094.04317,-242991646.39113,8398352.58143,  -0.00341,  -0.00241,  -0.00031,483464001.55036,   0.00385,278748750.88630,  -0.00137,  -0.00238,  -0.00042,   0.00000,   2.00000
-551190859.97015,-242086144.38381,8868092.69636,  -0.00343,  -0.00240,  -0.00031,483512562.92263,   0.00387,278766461.34801,  -0.00139,  -0.00237,  -0.00042,   0.00000,   2.00000
-551109934.96837,-241188814.52441,9339044.97896,  -0.00345,  -0.00240,  -0.00030,483534386.51635,   0.00389,278784195.71686,  -0.00141,  -0.00237,  -0.00042,   0.00000,   2.00000
-551026810.42722,-240299743.84613,9804731.00385,  -0.00347,  -0.00239,  -0.00029,483555819.56433,   0.00390,278801952.32922,  -0.00144,  -0.00237,  -0.00042,   0.00000,   2.00000
-550943066.22368,-239440243.47968,10271019.86230,  -0.00350,  -0.00238,  -0.00028,483604606.39143,   0.00392,278819832.55140,  -0.00146,  -0.00237,  -0.00042,   0.00000,   2.00000
-550856377.66070,-238570856.08638,10725283.50569,  -0.00352,  -0.00238,  -0.00028,483638372.51711,   0.00394,278837780.15413,  -0.00148,  -0.00237,  -0.00042,   0.00000,   2.00000
-550768539.03940,-237729099.05155,11187146.55696,  -0.00354,  -0.00237,  -0.00027,483667753.83283,   0.00396,278855778.18791,  -0.00150,  -0.00237,  -0.00041,   0.00000,   2.00000
-550679707.79452,-236897270.11996,11636790.45674,  -0.00356,  -0.00237,  -0.00026,483708563.49815,   0.00397,278873868.94293,  -0.00152,  -0.00236,  -0.00041,   0.00000,   2.00000
-550590484.27888,-236093015.42587,12087581.79229,  -0.00359,  -0.00236,  -0.00025,483737424.83887,   0.00399,278892007.15182,  -0.00154,  -0.00236,  -0.00041,   0.00000,   2.00000
-550499986.74196,-235298307.60046,12532662.53092,  -0.00361,  -0.00236,  -0.00025,483778637.67146,   0.00401,278910238.60262,  -0.00156,  -0.00236,  -0.00041,   0.00000,   2.00000
-550407997.83555,-234511185.82139,12972653.95562,  -0.00363,  -0.00235,  -0.00024,483800000.98456,   0.00403,278928488.76492,  -0.00158,  -0.00236,  -0.00041,   0.00000,   2.00000
-550313978.25337,-233731380.06895,13414062.60961,  -0.00365,  -0.00235,  -0.00023,483821874.25249,   0.00405,278946759.36754,  -0.00161,  -0.00236,  -0.00041,   0.00000,   2.00000
-550221260.39165,-232983092.61122,13848920.82765,  -0.00368,  -0.00234,  -0.00022,483889790.66835,   0.00406,278965221.89763,  -0.00163,  -0.00235,  -0.00040,   0.00000,   2.00000
-550126966.53517,-232239997.89259,14279413.33873,  -0.00370,  -0.00233,  -0.00022,483891287.90963,   0.00408,278983627.40019,  -0.00165,  -0.00235,  -0.00040,   0.00000,   2.00000
-550031550.97438,-231508053.40077,14710041.76871,  -0.00372,  -0.00233,  -0.00021,483952885.86835,   0.00410,279002200.58797,  -0.00167,  -0.00235,  -0.00040,   0.00000,   2.00000
-549936750.89431,-230801184.79748,15136129.97457,  -0.00375,  -0.00232,  -0.00020,483961188.09207,   0.00412,279020741.21049,  -0.00169,  -0.00235,  -0.00040,   0.00000,   2.00000
-549841322.54798,-230103372.53348,15556569.10082,  -0.00377,  -0.00232,  -0.00019,484002295.66554,   0.00413,279039371.95454,  -0.00172,  -0.00234,  -0.00039,   0.00000,   2.00000
-549745352.22124,-229414604.67857,15971385.76363,  -0.00379,  -0.00231,  -0.00018,484043431.55918,   0.00415,279058092.47376,  -0.00174,  -0.00234,  -0.00039,   0.00000,   2.00000
-549650707.65509,-228752760.54477,16381105.08891,  -0.00381,  -0.00231,  -0.00018,484071433.74157,   0.00417,279076852.89827,  -0.00176,  -0.00234,  -0.00039,   0.00000,   2.00000
-549554940.89250,-228099473.41861,16791703.22847,  -0.00384,  -0.00230,  -0.00017,484113207.61010,   0.00419,279095704.52361,  -0.00178,  -0.00234,  -0.00039,   0.00000,   2.00000
-549458449.38100,-227452691.92102,17197482.07328,  -0.00386,  -0.00230,  -0.00016,484134505.74996,   0.00421,279114570.24058,  -0.00180,  -0.00233,  -0.00038,   0.00000,   2.00000
-549363996.27729,-226834848.53599,17597418.25224,  -0.00388,  -0.00229,  -0.00015,484182246.65416,   0.00423,279133548.62381,  -0.00183,  -0.00233,  -0.00038,   0.00000,   2.00000
-549268969.52829,-226223215.39915,17992636.17069,  -0.00391,  -0.00229,  -0.00014,484203505.13841,   0.00424,279152539.94489,  -0.00185,  -0.00233,  -0.00038,   0.00000,   2.00000
-549173873.48962,-225620109.39963,18382347.49382,  -0.00393,  -0.00228,  -0.00014,484244580.02928,   0.00426,279171618.28629,  -0.00187,  -0.00233,  -0.00038,   0.00000,   2.00000
-549079812.25903,-225043051.71588,18773588.25259,  -0.00395,  -0.00228,  -0.00013,484273169.29506,   0.00428,279190736.15554,  -0.00189,  -0.00232,  -0.00037,   0.00000,   2.00000
-548989068.37518,-224494793.37972,19152589.57646,  -0.00398,  -0.00227,  -0.00012,484319992.66269,   0.00430,279209961.33208,  -0.00192,  -0.00232,  -0.00037,   0.00000,   2.00000
-548894711.95603,-223931598.76288,19533798.92946,  -0.00400,  -0.00227,  -0.00011,484335474.85455,   0.00432,279229176.11393,  -0.00194,  -0.00232,  -0.00037,   0.00000,   2.00000
