# sigma_xx, sigma_yy, sigma_xy, epsilon_xx, epsilon_yy, epsilon_xy, vonMises, epsPlastic, hardening, epsilonP__xx, epsilonP__yy, epsilonP__xy, yieldValue, iteration
   0.00000,   0.00000,   0.00000,   0.00000,   0.00000,   0.00000,1181185.37500,   0.00000,274640576.00000,   0.00000,   0.00000,   0.00000,-473459392.00000,   0.00000
   0.00000,   0.00000,   0.00000,   0.00000,   0.00000,   0.00000,1181185.37500,   0.00000,274640576.00000,   0.00000,   0.00000,   0.00000,-473459392.00000,   0.00000
121276.12058,-32537.49577,-70990.89985,   0.00000,  -0.00000,  -0.00000,1174382.25000,   0.00000,274640576.00000,   0.00000,   0.00000,   0.00000,-473466208.00000,   0.00000
251426.10365,-44369.31241,-147897.70803,   0.00000,  -0.00000,  -0.00000,1242503.37500,   0.00000,274640576.00000,   0.00000,   0.00000,   0.00000,-473398080.00000,   0.00000
402281.76584,-47327.26657,-224804.51620,   0.00000,  -0.00000,  -0.00000,1390205.50000,   0.00000,274640576.00000,   0.00000,   0.00000,   0.00000,-473250368.00000,   0.00000
532431.74891,-59159.08321,-301711.32438,   0.00000,  -0.00000,  -0.00000,1548938.75000,   0.00000,274640576.00000,   0.00000,   0.00000,   0.00000,-473091648.00000,   0.00000
703993.09022,-53243.17489,-378618.13255,   0.00000,  -0.00000,  -0.00000,1775267.37500,   0.00000,274640576.00000,   0.00000,   0.00000,   0.00000,-472865312.00000,   0.00000
872596.47737,-14789.77080,-455524.94073,   0.00000,  -0.00000,  -0.00001,1988778.50000,   0.00000,274640576.00000,   0.00000,   0.00000,   0.00000,-472651808.00000,   0.00000
1053031.68117,11831.81664,-532431.74891,   0.00000,  -0.00000,  -0.00001,2193480.50000,   0.00000,274640576.00000,   0.00000,   0.00000,   0.00000,-472447104.00000,   0.00000
1263046.42657,68032.94569,-609338.55708,   0.00001,  -0.00000,  -0.00001,2385458.75000,   0.00000,274640576.00000,   0.00000,   0.00000,   0.00000,-472255104.00000,   0.00000
1473061.17197,124234.07474,-692161.27358,   0.00001,  -0.00000,  -0.00001,2578005.75000,   0.00000,274640576.00000,   0.00000,   0.00000,   0.00000,-472062560.00000,   0.00000
1691949.77985,201140.88292,-774983.99007,   0.00001,  -0.00000,  -0.00001,2775566.25000,   0.00000,274640576.00000,   0.00000,   0.00000,   0.00000,-471865024.00000,   0.00000
1910838.38774,278047.69109,-851890.79825,   0.00001,  -0.00000,  -0.00001,2986963.25000,   0.00000,274640576.00000,   0.00000,   0.00000,   0.00000,-471653600.00000,   0.00000
2150432.67474,363828.36175,-934713.51474,   0.00001,  -0.00000,  -0.00001,3241339.75000,   0.00000,274640576.00000,   0.00000,   0.00000,   0.00000,-471399232.00000,   0.00000
2398900.82423,470314.71153,-1023452.13956,   0.00001,  -0.00000,  -0.00001,3525262.50000,   0.00000,274640576.00000,   0.00000,   0.00000,   0.00000,-471115328.00000,   0.00000
2668074.65285,585674.92380,-1106274.85606,   0.00001,  -0.00000,  -0.00001,3833678.75000,   0.00000,274640576.00000,   0.00000,   0.00000,   0.00000,-470806912.00000,   0.00000
2937248.48146,701035.13606,-1189097.57255,   0.00001,  -0.00000,  -0.00002,4145350.50000,   0.00000,274640576.00000,   0.00000,   0.00000,   0.00000,-470495232.00000,   0.00000
3215296.17256,837101.02745,-1277836.19737,   0.00001,  -0.00000,  -0.00002,4462133.00000,   0.00000,274640576.00000,   0.00000,   0.00000,   0.00000,-470178432.00000,   0.00000
3514049.54277,982040.78131,-1366574.82219,   0.00001,  -0.00000,  -0.00002,4783798.50000,   0.00000,274640576.00000,   0.00000,   0.00000,   0.00000,-469856768.00000,   0.00000
3812802.91299,1126980.53518,-1455313.44701,   0.00002,  -0.00000,  -0.00002,5090893.00000,   0.00000,274640576.00000,   0.00000,   0.00000,   0.00000,-469549696.00000,   0.00000
4120430.14569,1292625.96818,-1544052.07183,   0.00002,  -0.00000,  -0.00002,5387885.50000,   0.00000,274640576.00000,   0.00000,   0.00000,   0.00000,-469252704.00000,   0.00000
4428057.37839,1458271.40117,-1632790.69664,   0.00002,  -0.00000,  -0.00002,5674091.50000,   0.00000,274640576.00000,   0.00000,   0.00000,   0.00000,-468966496.00000,   0.00000
4765264.15270,1653496.37577,-1721529.32146,   0.00002,  -0.00000,  -0.00002,5969287.00000,   0.00000,274640576.00000,   0.00000,   0.00000,   0.00000,-468671296.00000,   0.00000
5123176.60613,1857595.21285,-1816183.85460,   0.00002,  -0.00000,  -0.00002,6279975.50000,   0.00000,274640576.00000,   0.00000,   0.00000,   0.00000,-468360608.00000,   0.00000
5460383.38044,2052820.18745,-1910838.38774,   0.00002,  -0.00000,  -0.00002,6578120.50000,   0.00000,274640576.00000,   0.00000,   0.00000,   0.00000,-468062448.00000,   0.00000
5818295.83387,2256919.02453,-2005492.92088,   0.00002,  -0.00000,  -0.00003,6892540.00000,   0.00000,274640576.00000,   0.00000,   0.00000,   0.00000,-467748032.00000,   0.00000
6205787.82891,2490597.40321,-2100147.45401,   0.00002,  -0.00000,  -0.00003,7229976.50000,   0.00000,274640576.00000,   0.00000,   0.00000,   0.00000,-467410592.00000,   0.00000
6572574.14482,2715401.91942,-2194801.98715,   0.00002,  -0.00000,  -0.00003,7560750.50000,   0.00000,274640576.00000,   0.00000,   0.00000,   0.00000,-467079824.00000,   0.00000
6968940.00234,2969785.97723,-2295372.42861,   0.00003,  -0.00000,  -0.00003,7923238.50000,   0.00000,274640576.00000,   0.00000,   0.00000,   0.00000,-466717344.00000,   0.00000
7377137.67650,3212338.21839,-2390026.96175,   0.00003,   0.00000,  -0.00003,8296419.50000,   0.00000,274640576.00000,   0.00000,   0.00000,   0.00000,-466344160.00000,   0.00000
7773503.53402,3466722.27620,-2490597.40321,   0.00003,   0.00000,  -0.00003,8672096.00000,   0.00000,274640576.00000,   0.00000,   0.00000,   0.00000,-465968480.00000,   0.00000
8199448.93314,3750685.87562,-2591167.84467,   0.00003,   0.00000,  -0.00003,9073951.00000,   0.00000,274640576.00000,   0.00000,   0.00000,   0.00000,-465566624.00000,   0.00000
8637226.14891,4022817.65839,-2691738.28613,   0.00003,   0.00000,  -0.00003,9489748.00000,   0.00000,274640576.00000,   0.00000,   0.00000,   0.00000,-465150832.00000,   0.00000
9063171.54803,4306781.25781,-2798224.63591,   0.00003,   0.00000,  -0.00004,9904857.00000,   0.00000,274640576.00000,   0.00000,   0.00000,   0.00000,-464735712.00000,   0.00000
9518696.48876,4620324.39883,-2898795.07737,   0.00003,   0.00000,  -0.00004,10339046.00000,   0.00000,274640576.00000,   0.00000,   0.00000,   0.00000,-464301536.00000,   0.00000
9965347.56701,4913161.86073,-3005281.42715,   0.00004,   0.00000,  -0.00004,10773415.00000,   0.00000,274640576.00000,   0.00000,   0.00000,   0.00000,-463867168.00000,   0.00000
10441578.18686,5235578.86423,-3111767.77693,   0.00004,   0.00000,  -0.00004,11230793.00000,   0.00000,274640576.00000,   0.00000,   0.00000,   0.00000,-463409776.00000,   0.00000
10917808.80672,5557995.86774,-3218254.12672,   0.00004,   0.00000,  -0.00004,11688179.00000,   0.00000,274640576.00000,   0.00000,   0.00000,   0.00000,-462952400.00000,   0.00000
11394039.42657,5880412.87124,-3330656.38482,   0.00004,   0.00000,  -0.00004,12150078.00000,   0.00000,274640576.00000,   0.00000,   0.00000,   0.00000,-462490496.00000,   0.00000
11879143.90891,6223535.55387,-3437142.73460,   0.00004,   0.00001,  -0.00004,12612852.00000,   0.00000,274640576.00000,   0.00000,   0.00000,   0.00000,-462027728.00000,   0.00000
12384954.07037,6575532.09898,-3549544.99270,   0.00004,   0.00001,  -0.00005,13095196.00000,   0.00000,274640576.00000,   0.00000,   0.00000,   0.00000,-461545376.00000,   0.00000
12890764.23183,6927528.64409,-3661947.25080,   0.00005,   0.00001,  -0.00005,13576056.00000,   0.00000,274640576.00000,   0.00000,   0.00000,   0.00000,-461064512.00000,   0.00000
13405448.25577,7300230.86832,-3774349.50891,   0.00005,   0.00001,  -0.00005,14062746.00000,   0.00000,274640576.00000,   0.00000,   0.00000,   0.00000,-460577824.00000,   0.00000
13931964.09635,7661101.27591,-3886751.76701,   0.00005,   0.00001,  -0.00005,14556100.00000,   0.00000,274640576.00000,   0.00000,   0.00000,   0.00000,-460084480.00000,   0.00000
14467353.79942,8042677.36263,-4005069.93343,   0.00005,   0.00001,  -0.00005,15060521.00000,   0.00000,274640576.00000,   0.00000,   0.00000,   0.00000,-459580048.00000,   0.00000
15011617.36497,8444959.12847,-4117472.19153,   0.00005,   0.00001,  -0.00005,15566455.00000,   0.00000,274640576.00000,   0.00000,   0.00000,   0.00000,-459074128.00000,   0.00000
15547007.06803,8826535.21518,-4235790.35796,   0.00005,   0.00001,  -0.00006,16068956.00000,   0.00000,274640576.00000,   0.00000,   0.00000,   0.00000,-458571616.00000,   0.00000
16111976.31270,9237690.84350,-4360024.43270,   0.00006,   0.00001,  -0.00006,16598644.00000,   0.00000,274640576.00000,   0.00000,   0.00000,   0.00000,-458041936.00000,   0.00000
16676945.55737,9648846.47183,-4478342.59912,   0.00006,   0.00001,  -0.00006,17123088.00000,   0.00000,274640576.00000,   0.00000,   0.00000,   0.00000,-457517488.00000,   0.00000
17241914.80205,10060002.10015,-4596660.76555,   0.00006,   0.00001,  -0.00006,17647584.00000,   0.00000,274640576.00000,   0.00000,   0.00000,   0.00000,-456992992.00000,   0.00000
17836463.58832,10500737.27007,-4720894.84029,   0.00006,   0.00001,  -0.00006,18200382.00000,   0.00000,274640576.00000,   0.00000,   0.00000,   0.00000,-456440192.00000,   0.00000
18422138.51212,10920766.76088,-4845128.91504,   0.00006,   0.00001,  -0.00006,18745648.00000,   0.00000,274640576.00000,   0.00000,   0.00000,   0.00000,-455894928.00000,   0.00000
19016687.29840,11361501.93080,-4969362.98978,   0.00006,   0.00001,  -0.00006,19299782.00000,   0.00000,274640576.00000,   0.00000,   0.00000,   0.00000,-455340800.00000,   0.00000
19611236.08467,11802237.10073,-5093597.06453,   0.00007,   0.00002,  -0.00007,19854948.00000,   0.00000,274640576.00000,   0.00000,   0.00000,   0.00000,-454785632.00000,   0.00000
20235364.41256,12272551.81226,-5223747.04759,   0.00007,   0.00002,  -0.00007,20439582.00000,   0.00000,274640576.00000,   0.00000,   0.00000,   0.00000,-454200992.00000,   0.00000
20850618.87796,12722160.84467,-5353897.03066,   0.00007,   0.00002,  -0.00007,21017124.00000,   0.00000,274640576.00000,   0.00000,   0.00000,   0.00000,-453623456.00000,   0.00000
21474747.20584,13192475.55621,-5484047.01372,   0.00007,   0.00002,  -0.00007,21604442.00000,   0.00000,274640576.00000,   0.00000,   0.00000,   0.00000,-453036128.00000,   0.00000
22119581.21285,13671664.13022,-5614196.99679,   0.00007,   0.00002,  -0.00007,22208578.00000,   0.00000,274640576.00000,   0.00000,   0.00000,   0.00000,-452432000.00000,   0.00000
22743709.54073,14141978.84175,-5744346.97985,   0.00008,   0.00002,  -0.00007,22798818.00000,   0.00000,274640576.00000,   0.00000,   0.00000,   0.00000,-451841760.00000,   0.00000
23397417.41022,14641873.09489,-5880412.87124,   0.00008,   0.00002,  -0.00008,23419284.00000,   0.00000,274640576.00000,   0.00000,   0.00000,   0.00000,-451221296.00000,   0.00000
24042251.41723,15121061.66891,-6016478.76263,   0.00008,   0.00002,  -0.00008,24032270.00000,   0.00000,274640576.00000,   0.00000,   0.00000,   0.00000,-450608304.00000,   0.00000
24716664.96584,15629829.78453,-6152544.65402,   0.00008,   0.00002,  -0.00008,24670956.00000,   0.00000,274640576.00000,   0.00000,   0.00000,   0.00000,-449969616.00000,   0.00000
25391078.51446,16138597.90015,-6288610.54540,   0.00008,   0.00002,  -0.00008,25311032.00000,   0.00000,274640576.00000,   0.00000,   0.00000,   0.00000,-449329536.00000,   0.00000
26044786.38395,16638492.15329,-6424676.43679,   0.00009,   0.00002,  -0.00008,25936698.00000,   0.00000,274640576.00000,   0.00000,   0.00000,   0.00000,-448703872.00000,   0.00000
26748779.47416,17176839.81051,-6566658.23650,   0.00009,   0.00003,  -0.00009,26608326.00000,   0.00000,274640576.00000,   0.00000,   0.00000,   0.00000,-448032256.00000,   0.00000
27423193.02278,17685607.92613,-6708640.03621,   0.00009,   0.00003,  -0.00009,27256136.00000,   0.00000,274640576.00000,   0.00000,   0.00000,   0.00000,-447384448.00000,   0.00000
28127186.11300,18223955.58336,-6850621.83591,   0.00009,   0.00003,  -0.00009,27929752.00000,   0.00000,274640576.00000,   0.00000,   0.00000,   0.00000,-446710816.00000,   0.00000
28810473.52409,18753429.37810,-6992603.63562,   0.00009,   0.00003,  -0.00009,28588668.00000,   0.00000,274640576.00000,   0.00000,   0.00000,   0.00000,-446051904.00000,   0.00000
29514466.61431,19291777.03533,-7134585.43533,   0.00010,   0.00003,  -0.00009,29263940.00000,   0.00000,274640576.00000,   0.00000,   0.00000,   0.00000,-445376640.00000,   0.00000
30239165.38365,19838998.55504,-7282483.14336,   0.00010,   0.00003,  -0.00009,29960020.00000,   0.00000,274640576.00000,   0.00000,   0.00000,   0.00000,-444680560.00000,   0.00000
30943158.47387,20377346.21227,-7430380.85139,   0.00010,   0.00003,  -0.00010,30640918.00000,   0.00000,274640576.00000,   0.00000,   0.00000,   0.00000,-443999664.00000,   0.00000
31676731.10570,20945273.41110,-7578278.55942,   0.00010,   0.00003,  -0.00010,31347610.00000,   0.00000,274640576.00000,   0.00000,   0.00000,   0.00000,-443292960.00000,   0.00000
32410303.73752,21513200.60993,-7726176.26745,   0.00011,   0.00003,  -0.00010,32054916.00000,   0.00000,274640576.00000,   0.00000,   0.00000,   0.00000,-442585664.00000,   0.00000
33135002.50687,22060422.12964,-7879989.88380,   0.00011,   0.00004,  -0.00010,32757172.00000,   0.00000,274640576.00000,   0.00000,   0.00000,   0.00000,-441883408.00000,   0.00000
33868575.13869,22628349.32847,-8033803.50015,   0.00011,   0.00004,  -0.00010,33469492.00000,   0.00000,274640576.00000,   0.00000,   0.00000,   0.00000,-441171088.00000,   0.00000
34631727.31212,23225856.06891,-8187617.11650,   0.00011,   0.00004,  -0.00011,34207508.00000,   0.00000,274640576.00000,   0.00000,   0.00000,   0.00000,-440433072.00000,   0.00000
35386005.62307,23802657.13022,-8341430.73285,   0.00011,   0.00004,  -0.00011,34936148.00000,   0.00000,274640576.00000,   0.00000,   0.00000,   0.00000,-439704432.00000,   0.00000
36140283.93402,24379458.19154,-8495244.34920,   0.00012,   0.00004,  -0.00011,35665048.00000,   0.00000,274640576.00000,   0.00000,   0.00000,   0.00000,-438975520.00000,   0.00000
36903436.10745,24976964.93197,-8654973.87387,   0.00012,   0.00004,  -0.00011,36408044.00000,   0.00000,274640576.00000,   0.00000,   0.00000,   0.00000,-438232528.00000,   0.00000
37657714.41840,25553765.99329,-8808787.49022,   0.00012,   0.00004,  -0.00011,37137280.00000,   0.00000,274640576.00000,   0.00000,   0.00000,   0.00000,-437503296.00000,   0.00000
38441572.27095,26160146.59621,-8968517.01489,   0.00012,   0.00004,  -0.00012,37896368.00000,   0.00000,274640576.00000,   0.00000,   0.00000,   0.00000,-436744208.00000,   0.00000
39225430.12351,26766527.19913,-9128246.53956,   0.00013,   0.00005,  -0.00012,38655548.00000,   0.00000,274640576.00000,   0.00000,   0.00000,   0.00000,-435985024.00000,   0.00000
39988582.29694,27364033.93957,-9293891.97256,   0.00013,   0.00005,  -0.00012,39403152.00000,   0.00000,274640576.00000,   0.00000,   0.00000,   0.00000,-435237424.00000,   0.00000
40793145.82862,27979288.40497,-9453621.49723,   0.00013,   0.00005,  -0.00012,40178148.00000,   0.00000,274640576.00000,   0.00000,   0.00000,   0.00000,-434462432.00000,   0.00000
41577003.68117,28585669.00789,-9619266.93022,   0.00013,   0.00005,  -0.00013,40941596.00000,   0.00000,274640576.00000,   0.00000,   0.00000,   0.00000,-433698976.00000,   0.00000
42369735.39621,29212755.28993,-9784912.36321,   0.00014,   0.00005,  -0.00013,41714948.00000,   0.00000,274640576.00000,   0.00000,   0.00000,   0.00000,-432925632.00000,   0.00000
43174298.92789,29828009.75533,-9950557.79621,   0.00014,   0.00005,  -0.00013,42494088.00000,   0.00000,274640576.00000,   0.00000,   0.00000,   0.00000,-432146496.00000,   0.00000
43987736.32205,30463969.89986,-10122119.13752,   0.00014,   0.00005,  -0.00013,43287304.00000,   0.00000,274640576.00000,   0.00000,   0.00000,   0.00000,-431353280.00000,   0.00000
44792299.85373,31079224.36526,-10287764.57051,   0.00014,   0.00005,  -0.00013,44066296.00000,   0.00000,274640576.00000,   0.00000,   0.00000,   0.00000,-430574272.00000,   0.00000
45605737.24789,31715184.50979,-10459325.91183,   0.00015,   0.00006,  -0.00014,44859432.00000,   0.00000,274640576.00000,   0.00000,   0.00000,   0.00000,-429781152.00000,   0.00000
46419174.64205,32351144.65431,-10630887.25314,   0.00015,   0.00006,  -0.00014,45652512.00000,   0.00000,274640576.00000,   0.00000,   0.00000,   0.00000,-428988064.00000,   0.00000
47232612.03621,32987104.79884,-10802448.59445,   0.00015,   0.00006,  -0.00014,46445564.00000,   0.00000,274640576.00000,   0.00000,   0.00000,   0.00000,-428195008.00000,   0.00000
48066755.10950,33631938.80584,-10974009.93577,   0.00015,   0.00006,  -0.00014,47254240.00000,   0.00000,274640576.00000,   0.00000,   0.00000,   0.00000,-427386336.00000,   0.00000
48900898.18278,34276772.81285,-11151487.18540,   0.00016,   0.00006,  -0.00014,48066952.00000,   0.00000,274640576.00000,   0.00000,   0.00000,   0.00000,-426573632.00000,   0.00000
49735041.25607,34921606.81986,-11328964.43504,   0.00016,   0.00006,  -0.00015,48879672.00000,   0.00000,274640576.00000,   0.00000,   0.00000,   0.00000,-425760896.00000,   0.00000
50569184.32935,35566440.82687,-11506441.68467,   0.00016,   0.00006,  -0.00015,49692352.00000,   0.00000,274640576.00000,   0.00000,   0.00000,   0.00000,-424948224.00000,   0.00000
51403327.40264,36211274.83387,-11683918.93431,   0.00016,   0.00006,  -0.00015,50505064.00000,   0.00000,274640576.00000,   0.00000,   0.00000,   0.00000,-424135520.00000,   0.00000
52237470.47592,36856108.84088,-11861396.18394,   0.00017,   0.00007,  -0.00015,51317712.00000,   0.00000,274640576.00000,   0.00000,   0.00000,   0.00000,-423322864.00000,   0.00000
53101193.09081,37530522.38949,-12044789.34190,   0.00017,   0.00007,  -0.00016,52160256.00000,   0.00000,274640576.00000,   0.00000,   0.00000,   0.00000,-422480320.00000,   0.00000
53935336.16410,38175356.39650,-12222266.59153,   0.00017,   0.00007,  -0.00016,52972980.00000,   0.00000,274640576.00000,   0.00000,   0.00000,   0.00000,-421667600.00000,   0.00000
54790184.91650,38829064.26599,-12405659.74949,   0.00017,   0.00007,  -0.00016,53805348.00000,   0.00000,274640576.00000,   0.00000,   0.00000,   0.00000,-420835232.00000,   0.00000
55653907.53140,39503477.81460,-12589052.90745,   0.00018,   0.00007,  -0.00016,54647980.00000,   0.00000,274640576.00000,   0.00000,   0.00000,   0.00000,-419992592.00000,   0.00000
56508756.28380,40157185.68409,-12778361.97372,   0.00018,   0.00007,  -0.00017,55484596.00000,   0.00000,274640576.00000,   0.00000,   0.00000,   0.00000,-419155984.00000,   0.00000
57372478.89869,40831599.23271,-12961755.13168,   0.00018,   0.00007,  -0.00017,56327248.00000,   0.00000,274640576.00000,   0.00000,   0.00000,   0.00000,-418313328.00000,   0.00000
58236201.51359,41506012.78132,-13151064.19796,   0.00018,   0.00008,  -0.00017,57174200.00000,   0.00000,274640576.00000,   0.00000,   0.00000,   0.00000,-417466368.00000,   0.00000
59091050.26599,42159720.65081,-13334457.35591,   0.00019,   0.00008,  -0.00017,58006744.00000,   0.00000,274640576.00000,   0.00000,   0.00000,   0.00000,-416633824.00000,   0.00000
59975478.56001,42843008.06190,-13523766.42219,   0.00019,   0.00008,  -0.00018,58869252.00000,   0.00000,274640576.00000,   0.00000,   0.00000,   0.00000,-415771328.00000,   0.00000
60839201.17490,43517421.61052,-13718991.39679,   0.00019,   0.00008,  -0.00018,59720400.00000,   0.00000,274640576.00000,   0.00000,   0.00000,   0.00000,-414920176.00000,   0.00000
61714755.60643,44180003.34249,-13908300.46307,   0.00019,   0.00008,  -0.00018,60572704.00000,   0.00000,274640576.00000,   0.00000,   0.00000,   0.00000,-414067872.00000,   0.00000
62599183.90045,44863290.75358,-14097609.52935,   0.00020,   0.00008,  -0.00018,61435264.00000,   0.00000,274640576.00000,   0.00000,   0.00000,   0.00000,-413205312.00000,   0.00000
63462906.51534,45537704.30220,-14292834.50394,   0.00020,   0.00008,  -0.00019,62286584.00000,   0.00000,274640576.00000,   0.00000,   0.00000,   0.00000,-412353984.00000,   0.00000
64338460.94687,46200286.03417,-14488059.47854,   0.00020,   0.00008,  -0.00019,63143000.00000,   0.00000,274640576.00000,   0.00000,   0.00000,   0.00000,-411497568.00000,   0.00000
65222889.24089,46883573.44526,-14683284.45314,   0.00021,   0.00009,  -0.00019,64009892.00000,   0.00000,274640576.00000,   0.00000,   0.00000,   0.00000,-410630688.00000,   0.00000
66107317.53490,47566860.85636,-14878509.42774,   0.00021,   0.00009,  -0.00019,64876744.00000,   0.00000,274640576.00000,   0.00000,   0.00000,   0.00000,-409763840.00000,   0.00000
67012451.50804,48259022.12993,-15073734.40234,   0.00021,   0.00009,  -0.00020,65759152.00000,   0.00000,274640576.00000,   0.00000,   0.00000,   0.00000,-408881424.00000,   0.00000
67888005.93957,48921603.86190,-15274875.28526,   0.00021,   0.00009,  -0.00020,66619776.00000,   0.00000,274640576.00000,   0.00000,   0.00000,   0.00000,-408020800.00000,   0.00000
68772434.23359,49604891.27300,-15470100.25986,   0.00022,   0.00009,  -0.00020,67486648.00000,   0.00000,274640576.00000,   0.00000,   0.00000,   0.00000,-407153920.00000,   0.00000
69677568.20673,50297052.54658,-15671241.14278,   0.00022,   0.00009,  -0.00020,68373272.00000,   0.00000,274640576.00000,   0.00000,   0.00000,   0.00000,-406267296.00000,   0.00000
70553122.63826,50959634.27855,-15872382.02570,   0.00022,   0.00009,  -0.00021,69233992.00000,   0.00000,274640576.00000,   0.00000,   0.00000,   0.00000,-405406592.00000,   0.00000
71458256.61140,51651795.55212,-16073522.90862,   0.00022,   0.00010,  -0.00021,70120640.00000,   0.00000,274640576.00000,   0.00000,   0.00000,   0.00000,-404519936.00000,   0.00000
72342684.90541,52335082.96322,-16274663.79154,   0.00023,   0.00010,  -0.00021,70991824.00000,   0.00000,274640576.00000,   0.00000,   0.00000,   0.00000,-403648752.00000,   0.00000
73238945.01607,53006538.55767,-16481720.58278,   0.00023,   0.00010,  -0.00021,71872232.00000,   0.00000,274640576.00000,   0.00000,   0.00000,   0.00000,-402768352.00000,   0.00000
74144078.98921,53698699.83125,-16682861.46570,   0.00023,   0.00010,  -0.00022,72759016.00000,   0.00000,274640576.00000,   0.00000,   0.00000,   0.00000,-401881568.00000,   0.00000
75028507.28322,54381987.24234,-16889918.25694,   0.00024,   0.00010,  -0.00022,73634512.00000,   0.00000,274640576.00000,   0.00000,   0.00000,   0.00000,-401006064.00000,   0.00000
75924767.39388,55053442.83680,-17096975.04818,   0.00024,   0.00010,  -0.00022,74515104.00000,   0.00000,274640576.00000,   0.00000,   0.00000,   0.00000,-400125472.00000,   0.00000
76829901.36702,55745604.11037,-17304031.83942,   0.00024,   0.00010,  -0.00022,75406264.00000,   0.00000,274640576.00000,   0.00000,   0.00000,   0.00000,-399234304.00000,   0.00000
77726161.47768,56417059.70483,-17511088.63066,   0.00024,   0.00011,  -0.00023,76286968.00000,   0.00000,274640576.00000,   0.00000,   0.00000,   0.00000,-398353600.00000,   0.00000
78622421.58833,57088515.29928,-17718145.42190,   0.00025,   0.00011,  -0.00023,77167800.00000,   0.00000,274640576.00000,   0.00000,   0.00000,   0.00000,-397472768.00000,   0.00000
79527555.56147,57780676.57286,-17931118.12146,   0.00025,   0.00011,  -0.00023,78063376.00000,   0.00000,274640576.00000,   0.00000,   0.00000,   0.00000,-396577200.00000,   0.00000
80423815.67213,58452132.16731,-18138174.91270,   0.00025,   0.00011,  -0.00024,78944400.00000,   0.00000,274640576.00000,   0.00000,   0.00000,   0.00000,-395696176.00000,   0.00000
81320075.78279,59123587.76176,-18351147.61227,   0.00025,   0.00011,  -0.00024,79829592.00000,   0.00000,274640576.00000,   0.00000,   0.00000,   0.00000,-394810976.00000,   0.00000
82225209.75592,59815749.03534,-18558204.40351,   0.00026,   0.00011,  -0.00024,80721456.00000,   0.00000,274640576.00000,   0.00000,   0.00000,   0.00000,-393919120.00000,   0.00000
83121469.86658,60487204.62979,-18771177.10307,   0.00026,   0.00011,  -0.00024,81606976.00000,   0.00000,274640576.00000,   0.00000,   0.00000,   0.00000,-393033600.00000,   0.00000
84038435.65636,61167534.08672,-18984149.80263,   0.00026,   0.00011,  -0.00025,82508088.00000,   0.00000,274640576.00000,   0.00000,   0.00000,   0.00000,-392132480.00000,   0.00000
84934695.76702,61838989.68118,-19197122.50219,   0.00027,   0.00012,  -0.00025,83393872.00000,   0.00000,274640576.00000,   0.00000,   0.00000,   0.00000,-391246704.00000,   0.00000
85830955.87768,62510445.27563,-19416011.11008,   0.00027,   0.00012,  -0.00025,84283728.00000,   0.00000,274640576.00000,   0.00000,   0.00000,   0.00000,-390356848.00000,   0.00000
86727215.98833,63181900.87008,-19628983.80964,   0.00027,   0.00012,  -0.00026,85169728.00000,   0.00000,274640576.00000,   0.00000,   0.00000,   0.00000,-389470848.00000,   0.00000
87623476.09899,63853356.46453,-19841956.50920,   0.00027,   0.00012,  -0.00026,86055808.00000,   0.00000,274640576.00000,   0.00000,   0.00000,   0.00000,-388584768.00000,   0.00000
88531568.02629,64512980.24235,-20060845.11708,   0.00028,   0.00012,  -0.00026,86951064.00000,   0.00000,274640576.00000,   0.00000,   0.00000,   0.00000,-387689504.00000,   0.00000
89427828.13695,65184435.83680,-20273817.81665,   0.00028,   0.00012,  -0.00026,87837344.00000,   0.00000,274640576.00000,   0.00000,   0.00000,   0.00000,-386803232.00000,   0.00000
90315214.38512,65835185.75213,-20492706.42453,   0.00028,   0.00012,  -0.00027,88717176.00000,   0.00000,274640576.00000,   0.00000,   0.00000,   0.00000,-385923392.00000,   0.00000
91211474.49578,66506641.34658,-20711595.03241,   0.00029,   0.00012,  -0.00027,89607704.00000,   0.00000,274640576.00000,   0.00000,   0.00000,   0.00000,-385032864.00000,   0.00000
92098860.74396,67157391.26191,-20930483.64030,   0.00029,   0.00013,  -0.00027,90487768.00000,   0.00000,274640576.00000,   0.00000,   0.00000,   0.00000,-384152800.00000,   0.00000
93015826.53374,67837720.71884,-21149372.24818,   0.00029,   0.00013,  -0.00027,91393960.00000,   0.00000,274640576.00000,   0.00000,   0.00000,   0.00000,-383246624.00000,   0.00000
93903212.78191,68488470.63417,-21368260.85606,   0.00029,   0.00013,  -0.00028,92274048.00000,   0.00000,274640576.00000,   0.00000,   0.00000,   0.00000,-382366528.00000,   0.00000
94790599.03009,69139220.54950,-21587149.46394,   0.00030,   0.00013,  -0.00028,93154224.00000,   0.00000,274640576.00000,   0.00000,   0.00000,   0.00000,-381486352.00000,   0.00000
95677985.27826,69789970.46483,-21806038.07183,   0.00030,   0.00013,  -0.00028,94034440.00000,   0.00000,274640576.00000,   0.00000,   0.00000,   0.00000,-380606144.00000,   0.00000
96565371.52644,70440720.38016,-22030842.58803,   0.00030,   0.00013,  -0.00029,94918752.00000,   0.00000,274640576.00000,   0.00000,   0.00000,   0.00000,-379721824.00000,   0.00000
97443883.91213,71070764.61636,-22249731.19592,   0.00030,   0.00013,  -0.00029,95788440.00000,   0.00000,274640576.00000,   0.00000,   0.00000,   0.00000,-378852128.00000,   0.00000
98331270.16031,71721514.53169,-22468619.80380,   0.00031,   0.00013,  -0.00029,96668704.00000,   0.00000,274640576.00000,   0.00000,   0.00000,   0.00000,-377971872.00000,   0.00000
99218656.40848,72372264.44702,-22693424.32000,   0.00031,   0.00014,  -0.00030,97553000.00000,   0.00000,274640576.00000,   0.00000,   0.00000,   0.00000,-377087584.00000,   0.00000
100097168.79418,73002308.68322,-22912312.92789,   0.00031,   0.00014,  -0.00030,98422664.00000,   0.00000,274640576.00000,   0.00000,   0.00000,   0.00000,-376217920.00000,   0.00000
100975681.17987,73632352.91943,-23137117.44409,   0.00032,   0.00014,  -0.00030,99296440.00000,   0.00000,274640576.00000,   0.00000,   0.00000,   0.00000,-375344128.00000,   0.00000
101863067.42804,74283102.83476,-23361921.96030,   0.00032,   0.00014,  -0.00030,100180752.00000,   0.00000,274640576.00000,   0.00000,   0.00000,   0.00000,-374459824.00000,   0.00000
102741579.81374,74913147.07096,-23580810.56818,   0.00032,   0.00014,  -0.00031,101050400.00000,   0.00000,274640576.00000,   0.00000,   0.00000,   0.00000,-373590176.00000,   0.00000
103620092.19943,75543191.30716,-23805615.08438,   0.00032,   0.00014,  -0.00031,101924192.00000,   0.00000,274640576.00000,   0.00000,   0.00000,   0.00000,-372716384.00000,   0.00000
104489730.72264,76152529.86424,-24030419.60059,   0.00033,   0.00014,  -0.00031,102787304.00000,   0.00000,274640576.00000,   0.00000,   0.00000,   0.00000,-371853280.00000,   0.00000
105347537.42921,76773700.23797,-24255224.11679,   0.00033,   0.00014,  -0.00032,103645584.00000,   0.00000,274640576.00000,   0.00000,   0.00000,   0.00000,-370994992.00000,   0.00000
106226049.81491,77403744.47417,-24480028.63300,   0.00033,   0.00015,  -0.00032,104519328.00000,   0.00000,274640576.00000,   0.00000,   0.00000,   0.00000,-370121248.00000,   0.00000
107095688.33812,78013083.03125,-24704833.14920,   0.00034,   0.00015,  -0.00032,105382520.00000,   0.00000,274640576.00000,   0.00000,   0.00000,   0.00000,-369258048.00000,   0.00000
107944621.18221,78613547.72585,-24929637.66541,   0.00034,   0.00015,  -0.00032,106230304.00000,   0.00000,274640576.00000,   0.00000,   0.00000,   0.00000,-368410272.00000,   0.00000
108823133.56790,79243591.96206,-25154442.18161,   0.00034,   0.00015,  -0.00033,107103952.00000,   0.00000,274640576.00000,   0.00000,   0.00000,   0.00000,-367536624.00000,   0.00000
109663192.54951,79823350.97753,-25379246.69781,   0.00034,   0.00015,  -0.00033,107941288.00000,   0.00000,274640576.00000,   0.00000,   0.00000,   0.00000,-366699296.00000,   0.00000
110512125.39359,80423815.67213,-25604051.21402,   0.00035,   0.00015,  -0.00033,108789144.00000,   0.00000,274640576.00000,   0.00000,   0.00000,   0.00000,-365851424.00000,   0.00000
111361058.23768,81024280.36673,-25828855.73022,   0.00035,   0.00015,  -0.00034,109637000.00000,   0.00000,274640576.00000,   0.00000,   0.00000,   0.00000,-365003584.00000,   0.00000
112230696.76089,81633618.92381,-26053660.24643,   0.00035,   0.00015,  -0.00034,110500336.00000,   0.00000,274640576.00000,   0.00000,   0.00000,   0.00000,-364140240.00000,   0.00000
113070755.74250,82213377.93928,-26278464.76263,   0.00035,   0.00015,  -0.00034,111337784.00000,   0.00000,274640576.00000,   0.00000,   0.00000,   0.00000,-363302784.00000,   0.00000
113910814.72410,82793136.95476,-26503269.27884,   0.00036,   0.00015,  -0.00034,112175296.00000,   0.00000,274640576.00000,   0.00000,   0.00000,   0.00000,-362465280.00000,   0.00000
114730168.02659,83364022.10775,-26728073.79504,   0.00036,   0.00016,  -0.00035,112997432.00000,   0.00000,274640576.00000,   0.00000,   0.00000,   0.00000,-361643136.00000,   0.00000
115570227.00819,83943781.12322,-26952878.31124,   0.00036,   0.00016,  -0.00035,113835032.00000,   0.00000,274640576.00000,   0.00000,   0.00000,   0.00000,-360805536.00000,   0.00000
116410285.98980,84523540.13870,-27177682.82745,   0.00036,   0.00016,  -0.00035,114672704.00000,   0.00000,274640576.00000,   0.00000,   0.00000,   0.00000,-359967872.00000,   0.00000
117241471.10892,85082593.47505,-27402487.34365,   0.00037,   0.00016,  -0.00036,115499992.00000,   0.00000,274640576.00000,   0.00000,   0.00000,   0.00000,-359140576.00000,   0.00000
118060824.41140,85653478.62804,-27627291.85986,   0.00037,   0.00016,  -0.00036,116322344.00000,   0.00000,274640576.00000,   0.00000,   0.00000,   0.00000,-358318240.00000,   0.00000
118871303.85140,86203658.10191,-27852096.37606,   0.00037,   0.00016,  -0.00036,117134384.00000,   0.00000,274640576.00000,   0.00000,   0.00000,   0.00000,-357506192.00000,   0.00000
119702488.97053,86762711.43826,-28076900.89227,   0.00038,   0.00016,  -0.00036,117961880.00000,   0.00000,274640576.00000,   0.00000,   0.00000,   0.00000,-356678688.00000,   0.00000
120512968.41053,87312890.91213,-28301705.40847,   0.00038,   0.00016,  -0.00037,118774008.00000,   0.00000,274640576.00000,   0.00000,   0.00000,   0.00000,-355866560.00000,   0.00000
121323447.85053,87863070.38600,-28526509.92468,   0.00038,   0.00016,  -0.00037,119586224.00000,   0.00000,274640576.00000,   0.00000,   0.00000,   0.00000,-355054352.00000,   0.00000
122125053.42805,88392544.18074,-28751314.44088,   0.00038,   0.00016,  -0.00037,120388024.00000,   0.00000,274640576.00000,   0.00000,   0.00000,   0.00000,-354252544.00000,   0.00000
122914827.18892,88933849.79213,-28976118.95708,   0.00039,   0.00016,  -0.00038,121184864.00000,   0.00000,274640576.00000,   0.00000,   0.00000,   0.00000,-353455712.00000,   0.00000
123716432.76644,89463323.58687,-29200923.47329,   0.00039,   0.00017,  -0.00038,121986824.00000,   0.00000,274640576.00000,   0.00000,   0.00000,   0.00000,-352653760.00000,   0.00000
124497332.66484,89983923.51914,-29425727.98949,   0.00039,   0.00017,  -0.00038,122773376.00000,   0.00000,274640576.00000,   0.00000,   0.00000,   0.00000,-351867200.00000,   0.00000
125290064.37987,90492691.63476,-29644616.59738,   0.00039,   0.00017,  -0.00039,123560648.00000,   0.00000,274640576.00000,   0.00000,   0.00000,   0.00000,-351079936.00000,   0.00000
126070964.27827,91013291.56702,-29869421.11358,   0.00040,   0.00017,  -0.00039,124347344.00000,   0.00000,274640576.00000,   0.00000,   0.00000,   0.00000,-350293232.00000,   0.00000
126842990.31418,91513185.82016,-30094225.62979,   0.00040,   0.00017,  -0.00039,125123616.00000,   0.00000,274640576.00000,   0.00000,   0.00000,   0.00000,-349516960.00000,   0.00000
127623890.21257,92033785.75242,-30313114.23767,   0.00040,   0.00017,  -0.00039,125905928.00000,   0.00000,274640576.00000,   0.00000,   0.00000,   0.00000,-348734656.00000,   0.00000
128395916.24849,92533680.00556,-30532002.84555,   0.00040,   0.00017,  -0.00040,126677920.00000,   0.00000,274640576.00000,   0.00000,   0.00000,   0.00000,-347962656.00000,   0.00000
129138362.74279,93003994.71709,-30756807.36176,   0.00041,   0.00017,  -0.00040,127428384.00000,   0.00000,274640576.00000,   0.00000,   0.00000,   0.00000,-347212192.00000,   0.00000
129910388.77871,93503888.97023,-30975695.96964,   0.00041,   0.00017,  -0.00040,128200408.00000,   0.00000,274640576.00000,   0.00000,   0.00000,   0.00000,-346440160.00000,   0.00000
130661709.13549,93994909.36089,-31194584.57752,   0.00041,   0.00017,  -0.00041,128957040.00000,   0.00000,274640576.00000,   0.00000,   0.00000,   0.00000,-345683536.00000,   0.00000
131404155.62980,94465224.07242,-31413473.18541,   0.00041,   0.00017,  -0.00041,129703288.00000,   0.00000,274640576.00000,   0.00000,   0.00000,   0.00000,-344937280.00000,   0.00000
132146602.12411,94935538.78396,-31632361.79329,   0.00042,   0.00017,  -0.00041,130449504.00000,   0.00000,274640576.00000,   0.00000,   0.00000,   0.00000,-344191072.00000,   0.00000
132889048.61841,95405853.49549,-31851250.40117,   0.00042,   0.00017,  -0.00041,131195752.00000,   0.00000,274640576.00000,   0.00000,   0.00000,   0.00000,-343444832.00000,   0.00000
133622621.25024,95855462.52790,-32070139.00906,   0.00042,   0.00018,  -0.00042,131931664.00000,   0.00000,274640576.00000,   0.00000,   0.00000,   0.00000,-342708912.00000,   0.00000
134335488.20294,96296197.69782,-32289027.61694,   0.00042,   0.00018,  -0.00042,132652200.00000,   0.00000,274640576.00000,   0.00000,   0.00000,   0.00000,-341988384.00000,   0.00000
135077934.69725,96766512.40936,-32502000.31650,   0.00043,   0.00018,  -0.00042,133394120.00000,   0.00000,274640576.00000,   0.00000,   0.00000,   0.00000,-341246464.00000,   0.00000
135790801.64995,97207247.57928,-32720888.92438,   0.00043,   0.00018,  -0.00043,134114696.00000,   0.00000,274640576.00000,   0.00000,   0.00000,   0.00000,-340525888.00000,   0.00000
136494794.74017,97627277.07009,-32933861.62395,   0.00043,   0.00018,  -0.00043,134820672.00000,   0.00000,274640576.00000,   0.00000,   0.00000,   0.00000,-339819904.00000,   0.00000
137207661.69287,98068012.24001,-33152750.23183,   0.00043,   0.00018,  -0.00043,135541328.00000,   0.00000,274640576.00000,   0.00000,   0.00000,   0.00000,-339099248.00000,   0.00000
137890949.10396,98479167.86834,-33365722.93139,   0.00044,   0.00018,  -0.00043,136231888.00000,   0.00000,274640576.00000,   0.00000,   0.00000,   0.00000,-338408688.00000,   0.00000
138594942.19418,98899197.35914,-33578695.63095,   0.00044,   0.00018,  -0.00044,136938080.00000,   0.00000,274640576.00000,   0.00000,   0.00000,   0.00000,-337702496.00000,   0.00000
139278229.60528,99310352.98746,-33785752.42219,   0.00044,   0.00018,  -0.00044,137624512.00000,   0.00000,274640576.00000,   0.00000,   0.00000,   0.00000,-337016064.00000,   0.00000
139961517.01637,99721508.61578,-33998725.12176,   0.00044,   0.00018,  -0.00044,138315424.00000,   0.00000,274640576.00000,   0.00000,   0.00000,   0.00000,-336325152.00000,   0.00000
140635930.56498,100111958.56498,-34211697.82132,   0.00044,   0.00018,  -0.00044,138996192.00000,   0.00000,274640576.00000,   0.00000,   0.00000,   0.00000,-335644384.00000,   0.00000
141289638.43447,100493534.65169,-34418754.61256,   0.00045,   0.00018,  -0.00045,139657280.00000,   0.00000,274640576.00000,   0.00000,   0.00000,   0.00000,-334983296.00000,   0.00000
141943346.30396,100875110.73841,-34625811.40380,   0.00045,   0.00018,  -0.00045,140318544.00000,   0.00000,274640576.00000,   0.00000,   0.00000,   0.00000,-334322032.00000,   0.00000
142617759.85258,101265560.68761,-34832868.19504,   0.00045,   0.00018,  -0.00045,140995248.00000,   0.00000,274640576.00000,   0.00000,   0.00000,   0.00000,-333645328.00000,   0.00000
143262593.85958,101626431.09520,-35039924.98628,   0.00045,   0.00018,  -0.00046,141646512.00000,   0.00000,274640576.00000,   0.00000,   0.00000,   0.00000,-332994064.00000,   0.00000
143895596.04995,101999133.31943,-35246981.77752,   0.00046,   0.00018,  -0.00046,142292768.00000,   0.00000,274640576.00000,   0.00000,   0.00000,   0.00000,-332347808.00000,   0.00000
144540430.05696,102360003.72702,-35448122.66044,   0.00046,   0.00018,  -0.00046,142939888.00000,   0.00000,274640576.00000,   0.00000,   0.00000,   0.00000,-331700688.00000,   0.00000
145164558.38484,102712000.27213,-35655179.45168,   0.00046,   0.00018,  -0.00046,143576320.00000,   0.00000,274640576.00000,   0.00000,   0.00000,   0.00000,-331064256.00000,   0.00000
145779812.85024,103043291.13812,-35856320.33460,   0.00046,   0.00018,  -0.00047,144198256.00000,   0.00000,274640576.00000,   0.00000,   0.00000,   0.00000,-330442320.00000,   0.00000
146395067.31564,103374582.00410,-36057461.21752,   0.00046,   0.00018,  -0.00047,144820464.00000,   0.00000,274640576.00000,   0.00000,   0.00000,   0.00000,-329820112.00000,   0.00000
147019195.64353,103726578.54921,-36258602.10044,   0.00047,   0.00019,  -0.00047,145452992.00000,   0.00000,274640576.00000,   0.00000,   0.00000,   0.00000,-329187584.00000,   0.00000
147604870.56732,104028289.87359,-36453827.07504,   0.00047,   0.00019,  -0.00047,146045536.00000,   0.00000,274640576.00000,   0.00000,   0.00000,   0.00000,-328595040.00000,   0.00000
148199419.35360,104350706.87710,-36654967.95796,   0.00047,   0.00019,  -0.00048,146652880.00000,   0.00000,274640576.00000,   0.00000,   0.00000,   0.00000,-327987696.00000,   0.00000
148785094.27739,104652418.20148,-36850192.93256,   0.00047,   0.00019,  -0.00048,147245824.00000,   0.00000,274640576.00000,   0.00000,   0.00000,   0.00000,-327394752.00000,   0.00000
149370769.20119,104954129.52585,-37045417.90716,   0.00047,   0.00019,  -0.00048,147838912.00000,   0.00000,274640576.00000,   0.00000,   0.00000,   0.00000,-326801664.00000,   0.00000
149935738.44586,105246966.98775,-37240642.88176,   0.00048,   0.00019,  -0.00048,148416832.00000,   0.00000,274640576.00000,   0.00000,   0.00000,   0.00000,-326223744.00000,   0.00000
150500707.69053,105539804.44965,-37429951.94803,   0.00048,   0.00019,  -0.00049,148990480.00000,   0.00000,274640576.00000,   0.00000,   0.00000,   0.00000,-325650096.00000,   0.00000
151056803.07272,105811936.23242,-37619261.01431,   0.00048,   0.00019,  -0.00049,149554272.00000,   0.00000,274640576.00000,   0.00000,   0.00000,   0.00000,-325086304.00000,   0.00000
151612898.45491,106084068.01520,-37808570.08059,   0.00048,   0.00019,  -0.00049,150118160.00000,   0.00000,274640576.00000,   0.00000,   0.00000,   0.00000,-324522416.00000,   0.00000
152148288.15798,106347325.93549,-37997879.14687,   0.00048,   0.00019,  -0.00049,150666832.00000,   0.00000,274640576.00000,   0.00000,   0.00000,   0.00000,-323973744.00000,   0.00000
152683677.86104,106610583.85578,-38187188.21314,   0.00049,   0.00019,  -0.00050,151215760.00000,   0.00000,274640576.00000,   0.00000,   0.00000,   0.00000,-323424816.00000,   0.00000
153210193.70163,106853136.09695,-38370581.37110,   0.00049,   0.00019,  -0.00050,151750208.00000,   0.00000,274640576.00000,   0.00000,   0.00000,   0.00000,-322890368.00000,   0.00000
153745583.40469,107116394.01724,-38553974.52906,   0.00049,   0.00019,  -0.00050,152295008.00000,   0.00000,274640576.00000,   0.00000,   0.00000,   0.00000,-322345568.00000,   0.00000
154242519.70367,107329366.71680,-38737367.68701,   0.00049,   0.00019,  -0.00050,152804416.00000,   0.00000,274640576.00000,   0.00000,   0.00000,   0.00000,-321836160.00000,   0.00000
154748329.86513,107563045.09549,-38914844.93665,   0.00049,   0.00019,  -0.00051,153319568.00000,   0.00000,274640576.00000,   0.00000,   0.00000,   0.00000,-321321008.00000,   0.00000
155245266.16411,107776017.79505,-39092322.18628,   0.00050,   0.00019,  -0.00051,153824832.00000,   0.00000,274640576.00000,   0.00000,   0.00000,   0.00000,-320815744.00000,   0.00000
155730370.64645,108000822.31126,-39269799.43592,   0.00050,   0.00019,  -0.00051,154324864.00000,   0.00000,274640576.00000,   0.00000,   0.00000,   0.00000,-320315712.00000,   0.00000
156197727.40382,108184215.46921,-39447276.68555,   0.00050,   0.00019,  -0.00051,154805184.00000,   0.00000,274640576.00000,   0.00000,   0.00000,   0.00000,-319835392.00000,   0.00000
156673958.02367,108388314.30629,-39618838.02687,   0.00050,   0.00019,  -0.00052,155291088.00000,   0.00000,274640576.00000,   0.00000,   0.00000,   0.00000,-319349488.00000,   0.00000
157141314.78104,108571707.46425,-39790399.36818,   0.00050,   0.00019,  -0.00052,155767184.00000,   0.00000,274640576.00000,   0.00000,   0.00000,   0.00000,-318873392.00000,   0.00000
157587965.85929,108746226.75972,-39961960.70949,   0.00050,   0.00019,  -0.00052,156228080.00000,   0.00000,274640576.00000,   0.00000,   0.00000,   0.00000,-318412496.00000,   0.00000
158034616.93754,108920746.05520,-40133522.05081,   0.00051,   0.00019,  -0.00052,156689104.00000,   0.00000,274640576.00000,   0.00000,   0.00000,   0.00000,-317951472.00000,   0.00000
158481268.01579,109095265.35067,-40299167.48380,   0.00051,   0.00019,  -0.00052,157145872.00000,   0.00000,274640576.00000,   0.00000,   0.00000,   0.00000,-317494704.00000,   0.00000
158898339.55243,109240205.10454,-40464812.91679,   0.00051,   0.00019,  -0.00053,157577392.00000,   0.00000,274640576.00000,   0.00000,   0.00000,   0.00000,-317063184.00000,   0.00000
159315411.08907,109385144.85841,-40624542.44147,   0.00051,   0.00019,  -0.00053,158004576.00000,   0.00000,274640576.00000,   0.00000,   0.00000,   0.00000,-316636000.00000,   0.00000
159732482.62572,109530084.61228,-40784271.96614,   0.00051,   0.00019,  -0.00053,158431984.00000,   0.00000,274640576.00000,   0.00000,   0.00000,   0.00000,-316208592.00000,   0.00000
160149554.16236,109675024.36615,-40944001.49081,   0.00051,   0.00019,  -0.00053,158859536.00000,   0.00000,274640576.00000,   0.00000,   0.00000,   0.00000,-315781040.00000,   0.00000
160537046.15740,109790384.57841,-41103731.01548,   0.00052,   0.00019,  -0.00053,159262080.00000,   0.00000,274640576.00000,   0.00000,   0.00000,   0.00000,-315378496.00000,   0.00000
160924538.15243,109905744.79067,-41257544.63183,   0.00052,   0.00019,  -0.00054,159660288.00000,   0.00000,274640576.00000,   0.00000,   0.00000,   0.00000,-314980288.00000,   0.00000
161291324.46834,110012231.14045,-41411358.24818,   0.00052,   0.00019,  -0.00054,160043280.00000,   0.00000,274640576.00000,   0.00000,   0.00000,   0.00000,-314597296.00000,   0.00000
161669942.60090,110106885.67359,-41565171.86453,   0.00052,   0.00019,  -0.00054,160432112.00000,   0.00000,274640576.00000,   0.00000,   0.00000,   0.00000,-314208464.00000,   0.00000
162007149.37521,110183792.48177,-41713069.57256,   0.00052,   0.00019,  -0.00054,160785776.00000,   0.00000,274640576.00000,   0.00000,   0.00000,   0.00000,-313854800.00000,   0.00000
162365061.82864,110269573.15242,-41855051.37227,   0.00052,   0.00019,  -0.00054,161150352.00000,   0.00000,274640576.00000,   0.00000,   0.00000,   0.00000,-313490224.00000,   0.00000
162702268.60294,110346479.96060,-42002949.08030,   0.00053,   0.00018,  -0.00055,161504416.00000,   0.00000,274640576.00000,   0.00000,   0.00000,   0.00000,-313136160.00000,   0.00000
163039475.37725,110423386.76878,-42144930.88001,   0.00053,   0.00018,  -0.00055,161854112.00000,   0.00000,274640576.00000,   0.00000,   0.00000,   0.00000,-312786464.00000,   0.00000
163367808.28908,110479587.89783,-42286912.67971,   0.00053,   0.00018,  -0.00055,162194336.00000,   0.00000,274640576.00000,   0.00000,   0.00000,   0.00000,-312446240.00000,   0.00000
163675435.52178,110526915.16440,-42422978.57110,   0.00053,   0.00018,  -0.00055,162514656.00000,   0.00000,274640576.00000,   0.00000,   0.00000,   0.00000,-312125920.00000,   0.00000
163974188.89199,110553536.75184,-42559044.46249,   0.00053,   0.00018,  -0.00055,162825792.00000,   0.00000,274640576.00000,   0.00000,   0.00000,   0.00000,-311814784.00000,   0.00000
164281816.12470,110600864.01841,-42689194.44555,   0.00053,   0.00018,  -0.00055,163141888.00000,   0.00000,274640576.00000,   0.00000,   0.00000,   0.00000,-311498688.00000,   0.00000
164559863.81579,110618611.74337,-42825260.33694,   0.00053,   0.00018,  -0.00056,163438080.00000,   0.00000,274640576.00000,   0.00000,   0.00000,   0.00000,-311202496.00000,   0.00000
164837911.50689,110636359.46834,-42949494.41169,   0.00053,   0.00018,  -0.00056,163725104.00000,   0.00000,274640576.00000,   0.00000,   0.00000,   0.00000,-310915472.00000,   0.00000
165086379.65637,110624527.65169,-43079644.39475,   0.00054,   0.00018,  -0.00056,163992096.00000,   0.00000,274640576.00000,   0.00000,   0.00000,   0.00000,-310648480.00000,   0.00000
165343721.66835,110633401.51418,-43203878.46950,   0.00054,   0.00018,  -0.00056,164264240.00000,   0.00000,274640576.00000,   0.00000,   0.00000,   0.00000,-310376336.00000,   0.00000
165592189.81783,110621569.69753,-43322196.63592,   0.00054,   0.00018,  -0.00056,164522336.00000,   0.00000,274640576.00000,   0.00000,   0.00000,   0.00000,-310118240.00000,   0.00000
165831784.10484,110589032.20177,-43440514.80234,   0.00054,   0.00018,  -0.00056,164771392.00000,   0.00000,274640576.00000,   0.00000,   0.00000,   0.00000,-309869184.00000,   0.00000
166059546.57521,110568326.52264,-43558832.96877,   0.00054,   0.00018,  -0.00057,165014624.00000,   0.00000,274640576.00000,   0.00000,   0.00000,   0.00000,-309625952.00000,   0.00000
166257729.50397,110518041.30191,-43671235.22687,   0.00054,   0.00018,  -0.00057,165228624.00000,   0.00000,274640576.00000,   0.00000,   0.00000,   0.00000,-309411952.00000,   0.00000
166476618.11185,110476629.94367,-43783637.48497,   0.00054,   0.00018,  -0.00057,165458288.00000,   0.00000,274640576.00000,   0.00000,   0.00000,   0.00000,-309182288.00000,   0.00000
166674801.04061,110426344.72294,-43890123.83475,   0.00054,   0.00018,  -0.00057,165668112.00000,   0.00000,274640576.00000,   0.00000,   0.00000,   0.00000,-308972464.00000,   0.00000
166843404.42776,110346479.96060,-43996610.18453,   0.00054,   0.00018,  -0.00057,165853456.00000,   0.00000,274640576.00000,   0.00000,   0.00000,   0.00000,-308787120.00000,   0.00000
167041587.35652,110296194.73987,-44103096.53431,   0.00054,   0.00018,  -0.00057,166063920.00000,   0.00000,274640576.00000,   0.00000,   0.00000,   0.00000,-308576656.00000,   0.00000
167210190.74367,110216329.97753,-44203666.97577,   0.00055,   0.00018,  -0.00057,166245072.00000,   0.00000,274640576.00000,   0.00000,   0.00000,   0.00000,-308395504.00000,   0.00000
167349214.58922,110106885.67359,-44298321.50891,   0.00055,   0.00017,  -0.00058,166396992.00000,   0.00000,274640576.00000,   0.00000,   0.00000,   0.00000,-308243584.00000,   0.00000
167497112.29725,110018147.04878,-44392976.04205,   0.00055,   0.00017,  -0.00058,166558656.00000,   0.00000,274640576.00000,   0.00000,   0.00000,   0.00000,-308081920.00000,   0.00000
167636136.14280,109908702.74483,-44487630.57519,   0.00055,   0.00017,  -0.00058,166711264.00000,   0.00000,274640576.00000,   0.00000,   0.00000,   0.00000,-307929312.00000,   0.00000
167754454.30922,109790384.57841,-44576369.20001,   0.00055,   0.00017,  -0.00058,166844016.00000,   0.00000,274640576.00000,   0.00000,   0.00000,   0.00000,-307796560.00000,   0.00000
167863898.61316,109651360.73286,-44665107.82482,   0.00055,   0.00017,  -0.00058,166967808.00000,   0.00000,274640576.00000,   0.00000,   0.00000,   0.00000,-307672768.00000,   0.00000
167982216.77959,109533042.56644,-44747930.54132,   0.00055,   0.00017,  -0.00058,167096384.00000,   0.00000,274640576.00000,   0.00000,   0.00000,   0.00000,-307544192.00000,   0.00000
168070955.40440,109385144.85841,-44824837.34950,   0.00055,   0.00017,  -0.00058,167195984.00000,   0.00000,274640576.00000,   0.00000,   0.00000,   0.00000,-307444592.00000,   0.00000
168159694.02922,109237247.15038,-44907660.06599,   0.00055,   0.00017,  -0.00058,167300640.00000,   0.00000,274640576.00000,   0.00000,   0.00000,   0.00000,-307339936.00000,   0.00000
168218853.11243,109059769.90075,-44978650.96585,   0.00055,   0.00017,  -0.00058,167371472.00000,   0.00000,274640576.00000,   0.00000,   0.00000,   0.00000,-307269104.00000,   0.00000
168278012.19565,108882292.65111,-45049641.86570,   0.00055,   0.00017,  -0.00059,167442672.00000,   0.00000,274640576.00000,   0.00000,   0.00000,   0.00000,-307197904.00000,   0.00000
168337171.27886,108704815.40148,-45120632.76555,   0.00055,   0.00017,  -0.00059,167514304.00000,   0.00000,274640576.00000,   0.00000,   0.00000,   0.00000,-307126272.00000,   0.00000
168375624.68294,108518464.28936,-45185707.75709,   0.00055,   0.00017,  -0.00059,167566016.00000,   0.00000,274640576.00000,   0.00000,   0.00000,   0.00000,-307074560.00000,   0.00000
168414078.08703,108332113.17724,-45250782.74862,   0.00056,   0.00016,  -0.00059,167618080.00000,   0.00000,274640576.00000,   0.00000,   0.00000,   0.00000,-307022496.00000,   0.00000
168422951.94951,108116182.52352,-45309941.83183,   0.00056,   0.00016,  -0.00059,167641216.00000,   0.00000,274640576.00000,   0.00000,   0.00000,   0.00000,-306999360.00000,   0.00000
168431825.81200,107900251.86980,-45363185.00672,   0.00056,   0.00016,  -0.00059,167659888.00000,   0.00000,274640576.00000,   0.00000,   0.00000,   0.00000,-306980688.00000,   0.00000
168419993.99535,107675447.35359,-45416428.18161,   0.00056,   0.00016,  -0.00059,167663568.00000,   0.00000,274640576.00000,   0.00000,   0.00000,   0.00000,-306977008.00000,   0.00000
168399288.31623,107429937.15826,-45469671.35650,   0.00056,   0.00016,  -0.00059,167658608.00000,   0.00000,274640576.00000,   0.00000,   0.00000,   0.00000,-306981968.00000,   0.00000
168378582.63711,107184426.96294,-45516998.62307,   0.00056,   0.00016,  -0.00059,167649312.00000,   0.00000,274640576.00000,   0.00000,   0.00000,   0.00000,-306991264.00000,   0.00000
168337171.27886,106930042.90513,-45558409.98132,   0.00056,   0.00016,  -0.00059,167620064.00000,   0.00000,274640576.00000,   0.00000,   0.00000,   0.00000,-307020512.00000,   0.00000
168295759.92061,106675658.84731,-45599821.33957,   0.00056,   0.00016,  -0.00059,167591280.00000,   0.00000,274640576.00000,   0.00000,   0.00000,   0.00000,-307049296.00000,   0.00000
168254348.56236,106421274.78950,-45635316.78950,   0.00056,   0.00016,  -0.00059,167557984.00000,   0.00000,274640576.00000,   0.00000,   0.00000,   0.00000,-307082592.00000,   0.00000
168183357.66251,106137311.19009,-45670812.23942,   0.00056,   0.00015,  -0.00059,167500896.00000,   0.00000,274640576.00000,   0.00000,   0.00000,   0.00000,-307139680.00000,   0.00000
168091661.08353,105844473.72819,-45700391.78103,   0.00056,   0.00015,  -0.00059,167423920.00000,   0.00000,274640576.00000,   0.00000,   0.00000,   0.00000,-307216656.00000,   0.00000
167991090.64207,105530930.58717,-45729971.32263,   0.00056,   0.00015,  -0.00059,167338512.00000,   0.00000,274640576.00000,   0.00000,   0.00000,   0.00000,-307302064.00000,   0.00000
167899394.06309,105238093.12527,-45753634.95592,   0.00056,   0.00015,  -0.00059,167257584.00000,   0.00000,274640576.00000,   0.00000,   0.00000,   0.00000,-307382992.00000,   0.00000
167778117.94251,104915676.12177,-45771382.68088,   0.00056,   0.00015,  -0.00060,167147984.00000,   0.00000,274640576.00000,   0.00000,   0.00000,   0.00000,-307492592.00000,   0.00000
167656841.82192,104593259.11826,-45789130.40585,   0.00056,   0.00015,  -0.00060,167038816.00000,   0.00000,274640576.00000,   0.00000,   0.00000,   0.00000,-307601760.00000,   0.00000
167505986.15973,104241262.57315,-45800962.22249,   0.00056,   0.00015,  -0.00060,166901152.00000,   0.00000,274640576.00000,   0.00000,   0.00000,   0.00000,-307739424.00000,   0.00000
167364004.36002,103909971.70717,-45812794.03913,   0.00056,   0.00015,  -0.00060,166772640.00000,   0.00000,274640576.00000,   0.00000,   0.00000,   0.00000,-307867936.00000,   0.00000
167213148.69783,103557975.16206,-45818709.94745,   0.00056,   0.00015,  -0.00060,166630848.00000,   0.00000,274640576.00000,   0.00000,   0.00000,   0.00000,-308009728.00000,   0.00000
167041587.35652,103197104.75447,-45818709.94745,   0.00056,   0.00014,  -0.00060,166469424.00000,   0.00000,274640576.00000,   0.00000,   0.00000,   0.00000,-308171152.00000,   0.00000
166849320.33608,102827360.48439,-45818709.94745,   0.00056,   0.00014,  -0.00060,166292912.00000,   0.00000,274640576.00000,   0.00000,   0.00000,   0.00000,-308347664.00000,   0.00000
166648179.45316,102436910.53520,-45812794.03913,   0.00056,   0.00014,  -0.00060,166103456.00000,   0.00000,274640576.00000,   0.00000,   0.00000,   0.00000,-308537120.00000,   0.00000
166447038.57024,102046460.58600,-45806878.13081,   0.00056,   0.00014,  -0.00060,165914416.00000,   0.00000,274640576.00000,   0.00000,   0.00000,   0.00000,-308726160.00000,   0.00000
166225192.00820,101647136.77432,-45795046.31417,   0.00056,   0.00014,  -0.00060,165705520.00000,   0.00000,274640576.00000,   0.00000,   0.00000,   0.00000,-308935056.00000,   0.00000
166003345.44616,101247812.96264,-45777298.58920,   0.00056,   0.00014,  -0.00060,165492128.00000,   0.00000,274640576.00000,   0.00000,   0.00000,   0.00000,-309148448.00000,   0.00000
165751919.34251,100818909.60936,-45753634.95592,   0.00056,   0.00014,  -0.00059,165250496.00000,   0.00000,274640576.00000,   0.00000,   0.00000,   0.00000,-309390080.00000,   0.00000
165500493.23886,100390006.25607,-45729971.32263,   0.00056,   0.00013,  -0.00059,165009200.00000,   0.00000,274640576.00000,   0.00000,   0.00000,   0.00000,-309631376.00000,   0.00000
165228361.45608,99952229.04031,-45706307.68935,   0.00056,   0.00013,  -0.00059,164753056.00000,   0.00000,274640576.00000,   0.00000,   0.00000,   0.00000,-309887520.00000,   0.00000
164956229.67331,99514451.82454,-45676728.14774,   0.00056,   0.00013,  -0.00059,164492336.00000,   0.00000,274640576.00000,   0.00000,   0.00000,   0.00000,-310148240.00000,   0.00000
164684097.89054,99076674.60877,-45641232.69782,   0.00056,   0.00013,  -0.00059,164227200.00000,   0.00000,274640576.00000,   0.00000,   0.00000,   0.00000,-310413376.00000,   0.00000
164382386.56616,98609317.85140,-45599821.33957,   0.00056,   0.00013,  -0.00059,163933888.00000,   0.00000,274640576.00000,   0.00000,   0.00000,   0.00000,-310706688.00000,   0.00000
164059969.56265,98133087.23155,-45558409.98132,   0.00056,   0.00013,  -0.00059,163625408.00000,   0.00000,274640576.00000,   0.00000,   0.00000,   0.00000,-311015168.00000,   0.00000
163737552.55915,97656856.61169,-45511082.71475,   0.00055,   0.00013,  -0.00059,163312464.00000,   0.00000,274640576.00000,   0.00000,   0.00000,   0.00000,-311328112.00000,   0.00000
163406261.69316,97159920.31271,-45457839.53986,   0.00055,   0.00012,  -0.00059,162986912.00000,   0.00000,274640576.00000,   0.00000,   0.00000,   0.00000,-311653664.00000,   0.00000
163054265.14805,96654110.15125,-45404596.36497,   0.00055,   0.00012,  -0.00059,162646320.00000,   0.00000,274640576.00000,   0.00000,   0.00000,   0.00000,-311994256.00000,   0.00000
162681562.92382,96139426.12731,-45345437.28176,   0.00055,   0.00012,  -0.00059,162285824.00000,   0.00000,274640576.00000,   0.00000,   0.00000,   0.00000,-312354752.00000,   0.00000
162308860.69959,95624742.10337,-45286278.19855,   0.00055,   0.00012,  -0.00059,161925760.00000,   0.00000,274640576.00000,   0.00000,   0.00000,   0.00000,-312714816.00000,   0.00000
161936158.47535,95110058.07943,-45215287.29869,   0.00055,   0.00012,  -0.00059,161556384.00000,   0.00000,274640576.00000,   0.00000,   0.00000,   0.00000,-313084192.00000,   0.00000
161533876.70951,94565794.51388,-45144296.39884,   0.00055,   0.00012,  -0.00059,161163728.00000,   0.00000,274640576.00000,   0.00000,   0.00000,   0.00000,-313476848.00000,   0.00000
161131594.94367,94021530.94833,-45073305.49898,   0.00055,   0.00011,  -0.00059,160771600.00000,   0.00000,274640576.00000,   0.00000,   0.00000,   0.00000,-313868976.00000,   0.00000
160708607.49871,93468393.52031,-44990482.78249,   0.00055,   0.00011,  -0.00058,160354704.00000,   0.00000,274640576.00000,   0.00000,   0.00000,   0.00000,-314285872.00000,   0.00000
160285620.05375,92915256.09228,-44907660.06599,   0.00055,   0.00011,  -0.00058,159938288.00000,   0.00000,274640576.00000,   0.00000,   0.00000,   0.00000,-314702288.00000,   0.00000
159833053.06718,92332539.12264,-44824837.34950,   0.00055,   0.00011,  -0.00058,159498912.00000,   0.00000,274640576.00000,   0.00000,   0.00000,   0.00000,-315141664.00000,   0.00000
159389359.94309,91770527.83213,-44730182.81636,   0.00055,   0.00011,  -0.00058,159058272.00000,   0.00000,274640576.00000,   0.00000,   0.00000,   0.00000,-315582304.00000,   0.00000
158916087.27740,91178937.00001,-44635528.28322,   0.00055,   0.00010,  -0.00058,158594816.00000,   0.00000,274640576.00000,   0.00000,   0.00000,   0.00000,-316045760.00000,   0.00000
158422108.93258,90578472.30541,-44534957.84176,   0.00054,   0.00010,  -0.00058,158111392.00000,   0.00000,274640576.00000,   0.00000,   0.00000,   0.00000,-316529184.00000,   0.00000
157939962.40440,89966175.79417,-44428471.49198,   0.00054,   0.00010,  -0.00058,157631552.00000,   0.00000,274640576.00000,   0.00000,   0.00000,   0.00000,-317009024.00000,   0.00000
157425278.38046,89356837.23709,-44321985.14220,   0.00054,   0.00010,  -0.00058,157129120.00000,   0.00000,274640576.00000,   0.00000,   0.00000,   0.00000,-317511456.00000,   0.00000
156922426.17316,88735666.86337,-44209582.88409,   0.00054,   0.00010,  -0.00057,156630304.00000,   0.00000,274640576.00000,   0.00000,   0.00000,   0.00000,-318010272.00000,   0.00000
156378162.60761,88096748.76468,-44091264.71767,   0.00054,   0.00010,  -0.00057,156096160.00000,   0.00000,274640576.00000,   0.00000,   0.00000,   0.00000,-318544416.00000,   0.00000
155825025.17958,87437124.98687,-43972946.55125,   0.00054,   0.00009,  -0.00057,155555232.00000,   0.00000,274640576.00000,   0.00000,   0.00000,   0.00000,-319085344.00000,   0.00000
155280761.61404,86798206.88819,-43842796.56818,   0.00054,   0.00009,  -0.00057,155012912.00000,   0.00000,274640576.00000,   0.00000,   0.00000,   0.00000,-319627664.00000,   0.00000
154706918.50688,86129709.24790,-43712646.58512,   0.00054,   0.00009,  -0.00057,154448288.00000,   0.00000,274640576.00000,   0.00000,   0.00000,   0.00000,-320192288.00000,   0.00000
154133075.39973,85461211.60760,-43576580.69373,   0.00053,   0.00009,  -0.00057,153879584.00000,   0.00000,274640576.00000,   0.00000,   0.00000,   0.00000,-320760992.00000,   0.00000
153538526.61345,84783840.10483,-43440514.80234,   0.00053,   0.00009,  -0.00056,153296320.00000,   0.00000,274640576.00000,   0.00000,   0.00000,   0.00000,-321344256.00000,   0.00000
152943977.82718,84106468.60206,-43298533.00263,   0.00053,   0.00008,  -0.00056,152709104.00000,   0.00000,274640576.00000,   0.00000,   0.00000,   0.00000,-321931472.00000,   0.00000
152319849.49929,83399517.55768,-43150635.29460,   0.00053,   0.00008,  -0.00056,152094736.00000,   0.00000,274640576.00000,   0.00000,   0.00000,   0.00000,-322545840.00000,   0.00000
151704595.03389,82713272.19242,-42996821.67825,   0.00053,   0.00008,  -0.00056,151483680.00000,   0.00000,274640576.00000,   0.00000,   0.00000,   0.00000,-323156896.00000,   0.00000
151059761.02688,81997447.28556,-42837092.15358,   0.00053,   0.00008,  -0.00056,150845664.00000,   0.00000,274640576.00000,   0.00000,   0.00000,   0.00000,-323794912.00000,   0.00000
150394221.34075,81272748.51622,-42677362.62891,   0.00053,   0.00008,  -0.00055,150193088.00000,   0.00000,274640576.00000,   0.00000,   0.00000,   0.00000,-324447488.00000,   0.00000
149740513.47126,80536217.93023,-42511717.19592,   0.00052,   0.00007,  -0.00055,149544576.00000,   0.00000,274640576.00000,   0.00000,   0.00000,   0.00000,-325096000.00000,   0.00000
149054268.10601,79802645.29841,-42340155.85460,   0.00052,   0.00007,  -0.00055,148868288.00000,   0.00000,274640576.00000,   0.00000,   0.00000,   0.00000,-325772288.00000,   0.00000
148359148.87827,79048366.98746,-42162678.60497,   0.00052,   0.00007,  -0.00055,148180528.00000,   0.00000,274640576.00000,   0.00000,   0.00000,   0.00000,-326460048.00000,   0.00000
147664029.65053,78294088.67651,-41985201.35533,   0.00052,   0.00007,  -0.00055,147493712.00000,   0.00000,274640576.00000,   0.00000,   0.00000,   0.00000,-327146864.00000,   0.00000
146948204.74367,77530936.50308,-41801808.19738,   0.00052,   0.00007,  -0.00054,146787136.00000,   0.00000,274640576.00000,   0.00000,   0.00000,   0.00000,-327853440.00000,   0.00000
146211674.15769,76758910.46716,-41612499.13110,   0.00052,   0.00006,  -0.00054,146060800.00000,   0.00000,274640576.00000,   0.00000,   0.00000,   0.00000,-328579776.00000,   0.00000
145466269.70922,75966178.75213,-41417274.15650,   0.00051,   0.00006,  -0.00054,145323280.00000,   0.00000,274640576.00000,   0.00000,   0.00000,   0.00000,-329317296.00000,   0.00000
144729739.12323,75194152.71622,-41216133.27358,   0.00051,   0.00006,  -0.00054,144588528.00000,   0.00000,274640576.00000,   0.00000,   0.00000,   0.00000,-330052048.00000,   0.00000
143963628.99564,74392547.13870,-41014992.39066,   0.00051,   0.00006,  -0.00053,143832160.00000,   0.00000,274640576.00000,   0.00000,   0.00000,   0.00000,-330808416.00000,   0.00000
143176813.18893,73582067.69870,-40807935.59942,   0.00051,   0.00006,  -0.00053,143056048.00000,   0.00000,274640576.00000,   0.00000,   0.00000,   0.00000,-331584528.00000,   0.00000
142389997.38221,72771588.25870,-40594962.89986,   0.00051,   0.00005,  -0.00053,142275680.00000,   0.00000,274640576.00000,   0.00000,   0.00000,   0.00000,-332364896.00000,   0.00000
141573602.03389,71931529.27709,-40376074.29198,   0.00050,   0.00005,  -0.00052,141468768.00000,   0.00000,274640576.00000,   0.00000,   0.00000,   0.00000,-333171808.00000,   0.00000
140766080.54805,71112175.97461,-40151269.77577,   0.00050,   0.00005,  -0.00052,140664736.00000,   0.00000,274640576.00000,   0.00000,   0.00000,   0.00000,-333975840.00000,   0.00000
139949685.19973,70272116.99300,-39926465.25957,   0.00050,   0.00005,  -0.00052,139854896.00000,   0.00000,274640576.00000,   0.00000,   0.00000,   0.00000,-334785680.00000,   0.00000
139091878.49316,69414310.28643,-39695744.83504,   0.00050,   0.00004,  -0.00052,139010000.00000,   0.00000,274640576.00000,   0.00000,   0.00000,   0.00000,-335630576.00000,   0.00000
138254777.46571,68565377.44235,-39459108.50220,   0.00050,   0.00004,  -0.00051,138176720.00000,   0.00000,274640576.00000,   0.00000,   0.00000,   0.00000,-336463856.00000,   0.00000
137376265.08002,67698696.87329,-39216556.26103,   0.00049,   0.00004,  -0.00051,137308480.00000,   0.00000,274640576.00000,   0.00000,   0.00000,   0.00000,-337332096.00000,   0.00000
136518458.37345,66840890.16673,-38968088.11154,   0.00049,   0.00004,  -0.00051,136452144.00000,   0.00000,274640576.00000,   0.00000,   0.00000,   0.00000,-338188432.00000,   0.00000
135610366.44615,65944630.05607,-38719619.96205,   0.00049,   0.00004,  -0.00050,135559536.00000,   0.00000,274640576.00000,   0.00000,   0.00000,   0.00000,-339081040.00000,   0.00000
134702274.51885,65048369.94541,-38459319.99592,   0.00049,   0.00003,  -0.00050,134658240.00000,   0.00000,274640576.00000,   0.00000,   0.00000,   0.00000,-339982336.00000,   0.00000
133803056.45403,64172815.51388,-38199020.02979,   0.00048,   0.00003,  -0.00050,133765016.00000,   0.00000,274640576.00000,   0.00000,   0.00000,   0.00000,-340875552.00000,   0.00000
132874258.84761,63267681.54074,-37932804.15533,   0.00048,   0.00003,  -0.00049,132846384.00000,   0.00000,274640576.00000,   0.00000,   0.00000,   0.00000,-341794192.00000,   0.00000
131936587.37871,62341841.88848,-37666588.28088,   0.00048,   0.00003,  -0.00049,131923384.00000,   0.00000,274640576.00000,   0.00000,   0.00000,   0.00000,-342717184.00000,   0.00000
130987084.09316,61427834.05286,-37388540.58979,   0.00048,   0.00002,  -0.00049,130982792.00000,   0.00000,274640576.00000,   0.00000,   0.00000,   0.00000,-343657792.00000,   0.00000
130016875.12849,60504952.35475,-37104576.99037,   0.00047,   0.00002,  -0.00048,130023528.00000,   0.00000,274640576.00000,   0.00000,   0.00000,   0.00000,-344617056.00000,   0.00000
129037792.30133,59561364.97753,-36820613.39095,   0.00047,   0.00002,  -0.00048,129060128.00000,   0.00000,274640576.00000,   0.00000,   0.00000,   0.00000,-345580448.00000,   0.00000
128038003.79506,58608903.73782,-36530733.88322,   0.00047,   0.00002,  -0.00047,128078304.00000,   0.00000,274640576.00000,   0.00000,   0.00000,   0.00000,-346562272.00000,   0.00000
127038215.28878,57656442.49811,-36234938.46716,   0.00047,   0.00001,  -0.00047,127093688.00000,   0.00000,274640576.00000,   0.00000,   0.00000,   0.00000,-347546880.00000,   0.00000
126038426.78250,56703981.25840,-35933227.14278,   0.00046,   0.00001,  -0.00047,126106288.00000,   0.00000,274640576.00000,   0.00000,   0.00000,   0.00000,-348534288.00000,   0.00000
124997226.91797,55733772.29373,-35625599.91008,   0.00046,   0.00001,  -0.00046,125085064.00000,   0.00000,274640576.00000,   0.00000,   0.00000,   0.00000,-349555520.00000,   0.00000
123976732.73257,54772437.19154,-35317972.67738,   0.00046,   0.00001,  -0.00046,124081648.00000,   0.00000,274640576.00000,   0.00000,   0.00000,   0.00000,-350558928.00000,   0.00000
122905953.32644,53772648.68526,-35004429.53636,   0.00045,   0.00000,  -0.00046,123038768.00000,   0.00000,274640576.00000,   0.00000,   0.00000,   0.00000,-351601808.00000,   0.00000
121835173.92031,52772860.17899,-34679054.57869,   0.00045,   0.00000,  -0.00045,121988264.00000,   0.00000,274640576.00000,   0.00000,   0.00000,   0.00000,-352652320.00000,   0.00000
120773268.37666,51793777.35183,-34353679.62103,   0.00045,   0.00000,  -0.00045,120945864.00000,   0.00000,274640576.00000,   0.00000,   0.00000,   0.00000,-353694720.00000,   0.00000
119681783.29140,50785114.98307,-34022388.75504,   0.00045,  -0.00000,  -0.00044,119879800.00000,   0.00000,274640576.00000,   0.00000,   0.00000,   0.00000,-354760768.00000,   0.00000
118590298.20615,49776452.61431,-33685181.98073,   0.00044,  -0.00000,  -0.00044,118811080.00000,   0.00000,274640576.00000,   0.00000,   0.00000,   0.00000,-355829504.00000,   0.00000
117478107.44177,48758916.38307,-33347975.20643,   0.00044,  -0.00001,  -0.00043,117729328.00000,   0.00000,274640576.00000,   0.00000,   0.00000,   0.00000,-356911248.00000,   0.00000
116336337.13578,47711800.61023,-32998936.61548,   0.00044,  -0.00001,  -0.00043,116619144.00000,   0.00000,274640576.00000,   0.00000,   0.00000,   0.00000,-358021440.00000,   0.00000
115203440.69228,46685390.51650,-32649898.02453,   0.00043,  -0.00001,  -0.00042,115516672.00000,   0.00000,274640576.00000,   0.00000,   0.00000,   0.00000,-359123904.00000,   0.00000
114061670.38629,45638274.74366,-32294943.52526,   0.00043,  -0.00001,  -0.00042,114406528.00000,   0.00000,274640576.00000,   0.00000,   0.00000,   0.00000,-360234048.00000,   0.00000
112887362.58454,44594116.92497,-31934073.11767,   0.00043,  -0.00002,  -0.00042,113267568.00000,   0.00000,274640576.00000,   0.00000,   0.00000,   0.00000,-361373008.00000,   0.00000
111724886.59943,43538127.28964,-31567286.80176,   0.00042,  -0.00002,  -0.00041,112136752.00000,   0.00000,274640576.00000,   0.00000,   0.00000,   0.00000,-362503824.00000,   0.00000
110520999.25607,42464389.92935,-31194584.57752,   0.00042,  -0.00002,  -0.00041,110972296.00000,   0.00000,274640576.00000,   0.00000,   0.00000,   0.00000,-363668288.00000,   0.00000
109337817.59184,41399526.43154,-30815966.44497,   0.00042,  -0.00002,  -0.00040,109821072.00000,   0.00000,274640576.00000,   0.00000,   0.00000,   0.00000,-364819504.00000,   0.00000
108113224.56936,40316915.20877,-30431432.40409,   0.00041,  -0.00003,  -0.00040,108636208.00000,   0.00000,274640576.00000,   0.00000,   0.00000,   0.00000,-366004368.00000,   0.00000
106909337.22600,39243177.84847,-30046898.36322,   0.00041,  -0.00003,  -0.00039,107469984.00000,   0.00000,274640576.00000,   0.00000,   0.00000,   0.00000,-367170592.00000,   0.00000
105664038.52439,38151692.76322,-29656448.41402,   0.00041,  -0.00003,  -0.00039,106270296.00000,   0.00000,274640576.00000,   0.00000,   0.00000,   0.00000,-368370272.00000,   0.00000
104409865.96031,37039501.99884,-29254166.64818,   0.00040,  -0.00004,  -0.00038,105059504.00000,   0.00000,274640576.00000,   0.00000,   0.00000,   0.00000,-369581072.00000,   0.00000
103164567.25870,35948016.91358,-28851884.88234,   0.00040,  -0.00004,  -0.00038,103856640.00000,   0.00000,274640576.00000,   0.00000,   0.00000,   0.00000,-370783936.00000,   0.00000
101889689.01549,34826952.28672,-28443687.20818,   0.00040,  -0.00004,  -0.00037,102632856.00000,   0.00000,274640576.00000,   0.00000,   0.00000,   0.00000,-372007712.00000,   0.00000
100594105.09315,33697013.79738,-28029573.62570,   0.00039,  -0.00004,  -0.00036,101392792.00000,   0.00000,274640576.00000,   0.00000,   0.00000,   0.00000,-373247776.00000,   0.00000
99307395.03330,32587780.98716,-27615460.04322,   0.00039,  -0.00005,  -0.00036,100161520.00000,   0.00000,274640576.00000,   0.00000,   0.00000,   0.00000,-374479056.00000,   0.00000
98011811.11096,31457842.49781,-27189514.64409,   0.00038,  -0.00005,  -0.00035,98921912.00000,   0.00000,274640576.00000,   0.00000,   0.00000,   0.00000,-375718656.00000,   0.00000
96695521.50950,30319030.14599,-26763569.24497,   0.00038,  -0.00005,  -0.00035,97672328.00000,   0.00000,274640576.00000,   0.00000,   0.00000,   0.00000,-376968256.00000,   0.00000
95358526.22892,29171343.93168,-26325792.02920,   0.00038,  -0.00005,  -0.00034,96403832.00000,   0.00000,274640576.00000,   0.00000,   0.00000,   0.00000,-378236736.00000,   0.00000
94021530.94833,28023657.71738,-25888014.81343,   0.00037,  -0.00006,  -0.00034,95142232.00000,   0.00000,274640576.00000,   0.00000,   0.00000,   0.00000,-379498336.00000,   0.00000
92654956.12614,26846391.96146,-25444321.68935,   0.00037,  -0.00006,  -0.00033,93864224.00000,   0.00000,274640576.00000,   0.00000,   0.00000,   0.00000,-380776352.00000,   0.00000
91297255.16644,25689831.88468,-24994712.65694,   0.00037,  -0.00006,  -0.00032,92592288.00000,   0.00000,274640576.00000,   0.00000,   0.00000,   0.00000,-382048288.00000,   0.00000
89918848.52760,24524397.94541,-24539187.71621,   0.00036,  -0.00006,  -0.00032,91307336.00000,   0.00000,274640576.00000,   0.00000,   0.00000,   0.00000,-383333248.00000,   0.00000
88510862.34717,23329384.46453,-24077746.86716,   0.00036,  -0.00007,  -0.00031,90006472.00000,   0.00000,274640576.00000,   0.00000,   0.00000,   0.00000,-384634112.00000,   0.00000
87132455.70833,22163950.52526,-23616306.01811,   0.00035,  -0.00007,  -0.00031,88731144.00000,   0.00000,274640576.00000,   0.00000,   0.00000,   0.00000,-385909440.00000,   0.00000
85703763.84877,20960063.18190,-23143033.35241,   0.00035,  -0.00007,  -0.00030,87419296.00000,   0.00000,274640576.00000,   0.00000,   0.00000,   0.00000,-387221280.00000,   0.00000
84275071.98921,19756175.83854,-22669760.68672,   0.00034,  -0.00007,  -0.00029,86114904.00000,   0.00000,274640576.00000,   0.00000,   0.00000,   0.00000,-388525664.00000,   0.00000
82855253.99213,18572994.17431,-22190572.11270,   0.00034,  -0.00008,  -0.00029,84816072.00000,   0.00000,274640576.00000,   0.00000,   0.00000,   0.00000,-389824512.00000,   0.00000
81405856.45344,17360232.96847,-21699551.72205,   0.00034,  -0.00008,  -0.00028,83499328.00000,   0.00000,274640576.00000,   0.00000,   0.00000,   0.00000,-391141248.00000,   0.00000
79935753.23563,16138597.90015,-21208531.33139,   0.00033,  -0.00008,  -0.00028,82177096.00000,   0.00000,274640576.00000,   0.00000,   0.00000,   0.00000,-392463488.00000,   0.00000
78465650.01782,14916962.83183,-20711595.03241,   0.00033,  -0.00009,  -0.00027,80861472.00000,   0.00000,274640576.00000,   0.00000,   0.00000,   0.00000,-393779104.00000,   0.00000
76995546.80001,13695327.76351,-20214658.73343,   0.00032,  -0.00009,  -0.00026,79557720.00000,   0.00000,274640576.00000,   0.00000,   0.00000,   0.00000,-395082848.00000,   0.00000
75484032.22395,12455944.97022,-19705890.61781,   0.00032,  -0.00009,  -0.00026,78226128.00000,   0.00000,274640576.00000,   0.00000,   0.00000,   0.00000,-396414448.00000,   0.00000
73993223.32702,11225436.03942,-19191206.59387,   0.00031,  -0.00009,  -0.00025,76918520.00000,   0.00000,274640576.00000,   0.00000,   0.00000,   0.00000,-397722048.00000,   0.00000
72481708.75096,9986053.24613,-18676522.56993,   0.00031,  -0.00010,  -0.00024,75606816.00000,   0.00000,274640576.00000,   0.00000,   0.00000,   0.00000,-399033760.00000,   0.00000
70949488.49578,8737796.59037,-18150006.72935,   0.00031,  -0.00010,  -0.00024,74280872.00000,   0.00000,274640576.00000,   0.00000,   0.00000,   0.00000,-400359712.00000,   0.00000
69417268.24059,7489539.93460,-17623490.88876,   0.00030,  -0.00010,  -0.00023,72963880.00000,   0.00000,274640576.00000,   0.00000,   0.00000,   0.00000,-401676704.00000,   0.00000
67855468.44381,6211703.73723,-17091059.13986,   0.00030,  -0.00010,  -0.00022,71634688.00000,   0.00000,274640576.00000,   0.00000,   0.00000,   0.00000,-403005888.00000,   0.00000
66302542.50950,4954573.21898,-16552711.48263,   0.00029,  -0.00011,  -0.00022,70309088.00000,   0.00000,274640576.00000,   0.00000,   0.00000,   0.00000,-404331488.00000,   0.00000
64728910.89607,3688568.83825,-16008447.91708,   0.00029,  -0.00011,  -0.00021,68970928.00000,   0.00000,274640576.00000,   0.00000,   0.00000,   0.00000,-405669648.00000,   0.00000
63146405.42016,2401858.77839,-15458268.44321,   0.00028,  -0.00011,  -0.00020,67638672.00000,   0.00000,274640576.00000,   0.00000,   0.00000,   0.00000,-407001904.00000,   0.00000
61552068.12760,1126980.53518,-14908088.96935,   0.00028,  -0.00011,  -0.00019,66299960.00000,   0.00000,274640576.00000,   0.00000,   0.00000,   0.00000,-408340608.00000,   0.00000
59957730.83505,-147897.70803,-14346077.67883,   0.00027,  -0.00012,  -0.00019,64967708.00000,   0.00000,274640576.00000,   0.00000,   0.00000,   0.00000,-409672864.00000,   0.00000
58333814.00088,-1452355.49285,-13784066.38832,   0.00027,  -0.00012,  -0.00018,63637000.00000,   0.00000,274640576.00000,   0.00000,   0.00000,   0.00000,-411003584.00000,   0.00000
56718771.02921,-2736107.59854,-13216139.18949,   0.00026,  -0.00012,  -0.00017,62322716.00000,   0.00000,274640576.00000,   0.00000,   0.00000,   0.00000,-412317856.00000,   0.00000
55074148.51592,-4049439.24584,-12636380.17402,   0.00026,  -0.00013,  -0.00016,61012504.00000,   0.00000,274640576.00000,   0.00000,   0.00000,   0.00000,-413628064.00000,   0.00000
53417694.18599,-5350939.07650,-12056621.15854,   0.00025,  -0.00013,  -0.00016,59713296.00000,   0.00000,274640576.00000,   0.00000,   0.00000,   0.00000,-414927280.00000,   0.00000
51752365.99358,-6673144.58628,-11470946.23475,   0.00025,  -0.00013,  -0.00015,58447100.00000,   0.00000,274640576.00000,   0.00000,   0.00000,   0.00000,-416193472.00000,   0.00000
50095911.66366,-7974644.41694,-10885271.31095,   0.00024,  -0.00013,  -0.00014,57213860.00000,   0.00000,274640576.00000,   0.00000,   0.00000,   0.00000,-417426720.00000,   0.00000
48409877.79212,-9305723.78920,-10287764.57051,   0.00024,  -0.00014,  -0.00013,55999180.00000,   0.00000,274640576.00000,   0.00000,   0.00000,   0.00000,-418641392.00000,   0.00000
46723843.92059,-10636803.16146,-9690257.83007,   0.00023,  -0.00014,  -0.00013,54821840.00000,   0.00000,274640576.00000,   0.00000,   0.00000,   0.00000,-419818736.00000,   0.00000
45025978.23242,-11956050.71708,-9080919.27299,   0.00023,  -0.00014,  -0.00012,53655512.00000,   0.00000,274640576.00000,   0.00000,   0.00000,   0.00000,-420985056.00000,   0.00000
43319238.68176,-13296003.95183,-8471580.71591,   0.00022,  -0.00014,  -0.00011,52527544.00000,   0.00000,274640576.00000,   0.00000,   0.00000,   0.00000,-422113024.00000,   0.00000
41600667.31446,-14624125.36993,-7856326.25051,   0.00022,  -0.00015,  -0.00010,51410784.00000,   0.00000,274640576.00000,   0.00000,   0.00000,   0.00000,-423229792.00000,   0.00000
39852516.40555,-15981826.32964,-7235155.87679,   0.00021,  -0.00015,  -0.00009,50319100.00000,   0.00000,274640576.00000,   0.00000,   0.00000,   0.00000,-424321472.00000,   0.00000
38133945.03825,-17309947.74774,-6608069.59475,   0.00021,  -0.00015,  -0.00009,49286972.00000,   0.00000,274640576.00000,   0.00000,   0.00000,   0.00000,-425353600.00000,   0.00000
36365088.45022,-18676522.56993,-5975067.40438,   0.00020,  -0.00016,  -0.00008,48313596.00000,   0.00000,274640576.00000,   0.00000,   0.00000,   0.00000,-426326976.00000,   0.00000
34596231.86219,-20043097.39212,-5342065.21402,   0.00020,  -0.00016,  -0.00007,47417140.00000,   0.00000,274640576.00000,   0.00000,   0.00000,   0.00000,-427223440.00000,   0.00000
32836249.13665,-21388966.53519,-4697231.20701,   0.00019,  -0.00016,  -0.00006,46442240.00000,   0.00000,274640576.00000,   0.00000,   0.00000,   0.00000,-428198336.00000,   0.00000
31046686.86949,-22764415.21986,-4052397.20000,   0.00019,  -0.00016,  -0.00005,45425064.00000,   0.00000,274640576.00000,   0.00000,   0.00000,   0.00000,-429215520.00000,   0.00000
29265998.46482,-24119158.22540,-3401647.28467,   0.00018,  -0.00017,  -0.00004,44525320.00000,   0.00000,274640576.00000,   0.00000,   0.00000,   0.00000,-430115264.00000,   0.00000
27455730.51854,-25503480.77256,-2744981.46102,   0.00017,  -0.00017,  -0.00004,43773360.00000,   0.00000,274640576.00000,   0.00000,   0.00000,   0.00000,-430867216.00000,   0.00000
25654336.43475,-26867097.64059,-2082399.72905,   0.00017,  -0.00017,  -0.00003,43160100.00000,   0.00000,274640576.00000,   0.00000,   0.00000,   0.00000,-431480480.00000,   0.00000
23823362.80935,-28260294.05022,-1413902.08876,   0.00016,  -0.00018,  -0.00002,42790576.00000,   0.00000,274640576.00000,   0.00000,   0.00000,   0.00000,-431850000.00000,   0.00000
22001263.04643,-29632784.78073,-745404.44847,   0.00016,  -0.00018,  -0.00001,42995336.00000,   0.00000,274640576.00000,   0.00000,   0.00000,   0.00000,-431645248.00000,   0.00000
20158457.60438,-31014149.37373,-65074.99153,   0.00015,  -0.00018,  -0.00000,43654604.00000,   0.00000,274640576.00000,   0.00000,   0.00000,   0.00000,-430985968.00000,   0.00000
18306778.29986,-32416219.64584,615254.46540,   0.00015,  -0.00018,   0.00001,43942880.00000,   0.00000,274640576.00000,   0.00000,   0.00000,   0.00000,-430697696.00000,   0.00000
16443267.17869,-33806458.10132,1301499.83066,   0.00014,  -0.00019,   0.00002,43474324.00000,   0.00000,274640576.00000,   0.00000,   0.00000,   0.00000,-431166256.00000,   0.00000
14579756.05752,-35196696.55679,1993661.10423,   0.00013,  -0.00019,   0.00003,43403860.00000,   0.00000,274640576.00000,   0.00000,   0.00000,   0.00000,-431236720.00000,   0.00000
12707371.07387,-36607640.69139,2691738.28613,   0.00013,  -0.00019,   0.00003,43752244.00000,   0.00000,274640576.00000,   0.00000,   0.00000,   0.00000,-430888336.00000,   0.00000
10823154.27358,-38006753.00935,3389815.46803,   0.00012,  -0.00019,   0.00004,43987716.00000,   0.00000,274640576.00000,   0.00000,   0.00000,   0.00000,-430652864.00000,   0.00000
8918231.79416,-39414739.18979,4099724.46657,   0.00012,  -0.00020,   0.00005,44341220.00000,   0.00000,274640576.00000,   0.00000,   0.00000,   0.00000,-430299360.00000,   0.00000
7013309.31475,-40822725.37022,4809633.46511,   0.00011,  -0.00020,   0.00006,44795320.00000,   0.00000,274640576.00000,   0.00000,   0.00000,   0.00000,-429845248.00000,   0.00000
5108386.83533,-42230711.55066,5525458.37197,   0.00011,  -0.00020,   0.00007,45349728.00000,   0.00000,274640576.00000,   0.00000,   0.00000,   0.00000,-429290848.00000,   0.00000
3182758.67679,-43647571.59358,6247199.18715,   0.00010,  -0.00020,   0.00008,46000536.00000,   0.00000,274640576.00000,   0.00000,   0.00000,   0.00000,-428640032.00000,   0.00000
1257130.51825,-45064431.63650,6974855.91066,   0.00009,  -0.00021,   0.00009,46740512.00000,   0.00000,274640576.00000,   0.00000,   0.00000,   0.00000,-427900064.00000,   0.00000
-689203.31942,-46490165.54190,7702512.63416,   0.00009,  -0.00021,   0.00010,47561612.00000,   0.00000,274640576.00000,   0.00000,   0.00000,   0.00000,-427078960.00000,   0.00000
-2635537.15708,-47915899.44731,8442001.17431,   0.00008,  -0.00021,   0.00011,48470096.00000,   0.00000,274640576.00000,   0.00000,   0.00000,   0.00000,-426170480.00000,   0.00000
-4602576.67387,-49350507.21519,9181489.71445,   0.00008,  -0.00022,   0.00012,49463040.00000,   0.00000,274640576.00000,   0.00000,   0.00000,   0.00000,-425177536.00000,   0.00000
-6569616.19066,-50785114.98307,9926894.16292,   0.00007,  -0.00022,   0.00013,50538548.00000,   0.00000,274640576.00000,   0.00000,   0.00000,   0.00000,-424102032.00000,   0.00000
-8548487.52409,-52207890.93431,10672298.61139,   0.00006,  -0.00022,   0.00014,51668196.00000,   0.00000,274640576.00000,   0.00000,   0.00000,   0.00000,-422972384.00000,   0.00000
-10536232.72000,-53651372.56468,11429534.87650,   0.00006,  -0.00022,   0.00015,52875364.00000,   0.00000,274640576.00000,   0.00000,   0.00000,   0.00000,-421765216.00000,   0.00000
-12523977.91591,-55094854.19504,12186771.14161,   0.00005,  -0.00023,   0.00016,54121748.00000,   0.00000,274640576.00000,   0.00000,   0.00000,   0.00000,-420518832.00000,   0.00000
-14523554.92847,-56526504.00877,12955839.22336,   0.00004,  -0.00023,   0.00017,55393620.00000,   0.00000,274640576.00000,   0.00000,   0.00000,   0.00000,-419246960.00000,   0.00000
-16532005.80351,-57978859.50161,13724907.30511,   0.00004,  -0.00023,   0.00018,56716736.00000,   0.00000,274640576.00000,   0.00000,   0.00000,   0.00000,-417923840.00000,   0.00000
-18552288.49519,-59419383.17782,14493975.38686,   0.00003,  -0.00023,   0.00019,58073272.00000,   0.00000,274640576.00000,   0.00000,   0.00000,   0.00000,-416567296.00000,   0.00000
-20572571.18686,-60859906.85402,15274875.28526,   0.00003,  -0.00024,   0.00020,59493052.00000,   0.00000,274640576.00000,   0.00000,   0.00000,   0.00000,-415147520.00000,   0.00000
-22592853.87854,-62300430.53023,16055775.18365,   0.00002,  -0.00024,   0.00021,60967696.00000,   0.00000,274640576.00000,   0.00000,   0.00000,   0.00000,-413672880.00000,   0.00000
-24633842.24935,-63749828.06891,16842590.99037,   0.00001,  -0.00024,   0.00022,62505048.00000,   0.00000,274640576.00000,   0.00000,   0.00000,   0.00000,-412135520.00000,   0.00000
-26695536.29927,-65208099.47008,17635322.70540,   0.00001,  -0.00024,   0.00023,64106032.00000,   0.00000,274640576.00000,   0.00000,   0.00000,   0.00000,-410534544.00000,   0.00000
-28736524.67008,-66657497.00877,18433970.32876,  -0.00000,  -0.00025,   0.00024,65759224.00000,   0.00000,274640576.00000,   0.00000,   0.00000,   0.00000,-408881344.00000,   0.00000
-30798218.72000,-68115768.40994,19232617.95212,  -0.00001,  -0.00025,   0.00025,67466800.00000,   0.00000,274640576.00000,   0.00000,   0.00000,   0.00000,-407173776.00000,   0.00000
-32880618.44906,-69582913.67359,20043097.39212,  -0.00001,  -0.00025,   0.00026,69233072.00000,   0.00000,274640576.00000,   0.00000,   0.00000,   0.00000,-405407504.00000,   0.00000
-34954144.31563,-71029353.25811,20853576.83212,  -0.00002,  -0.00026,   0.00027,71018120.00000,   0.00000,274640576.00000,   0.00000,   0.00000,   0.00000,-403622464.00000,   0.00000
-37036544.04468,-72496498.52176,21664056.27212,  -0.00003,  -0.00026,   0.00028,72845464.00000,   0.00000,274640576.00000,   0.00000,   0.00000,   0.00000,-401795104.00000,   0.00000
-39130775.59037,-73951811.96877,22486367.52876,  -0.00003,  -0.00026,   0.00029,74696776.00000,   0.00000,274640576.00000,   0.00000,   0.00000,   0.00000,-399943808.00000,   0.00000
-41233880.99855,-75427831.09490,23308678.78540,  -0.00004,  -0.00026,   0.00030,76583616.00000,   0.00000,274640576.00000,   0.00000,   0.00000,   0.00000,-398056960.00000,   0.00000
-43348818.22336,-76892018.40439,24136905.95037,  -0.00005,  -0.00027,   0.00031,78487864.00000,   0.00000,274640576.00000,   0.00000,   0.00000,   0.00000,-396152704.00000,   0.00000
-45443049.76906,-78347331.85140,24971049.02365,  -0.00005,  -0.00027,   0.00032,80410456.00000,   0.00000,274640576.00000,   0.00000,   0.00000,   0.00000,-394230112.00000,   0.00000
-47578692.67300,-79820393.02337,25805192.09694,  -0.00006,  -0.00027,   0.00034,82369280.00000,   0.00000,274640576.00000,   0.00000,   0.00000,   0.00000,-392271296.00000,   0.00000
-49693629.89782,-81284580.33286,26651166.98687,  -0.00007,  -0.00027,   0.00035,84352592.00000,   0.00000,274640576.00000,   0.00000,   0.00000,   0.00000,-390287984.00000,   0.00000
-51829272.80176,-82757641.50483,27497141.87679,  -0.00007,  -0.00028,   0.00036,86365168.00000,   0.00000,274640576.00000,   0.00000,   0.00000,   0.00000,-388275408.00000,   0.00000
-53976747.52234,-84218870.86016,28343116.76672,  -0.00008,  -0.00028,   0.00037,88392520.00000,   0.00000,274640576.00000,   0.00000,   0.00000,   0.00000,-386248064.00000,   0.00000
-56112390.42629,-85691932.03213,29200923.47329,  -0.00009,  -0.00028,   0.00038,90457784.00000,   0.00000,274640576.00000,   0.00000,   0.00000,   0.00000,-384182784.00000,   0.00000
-58259865.14687,-87153161.38746,30058730.17986,  -0.00010,  -0.00028,   0.00039,92536648.00000,   0.00000,274640576.00000,   0.00000,   0.00000,   0.00000,-382103936.00000,   0.00000
-60436919.40906,-88643970.28439,30922452.79475,  -0.00010,  -0.00029,   0.00040,94662872.00000,   0.00000,274640576.00000,   0.00000,   0.00000,   0.00000,-379977696.00000,   0.00000
-62605099.80877,-90114073.50220,31786175.40964,  -0.00011,  -0.00029,   0.00041,96791512.00000,   0.00000,274640576.00000,   0.00000,   0.00000,   0.00000,-377849056.00000,   0.00000
-64773280.20848,-91584176.72001,32655813.93285,  -0.00012,  -0.00029,   0.00042,98941088.00000,   0.00000,274640576.00000,   0.00000,   0.00000,   0.00000,-375699488.00000,   0.00000
-66941460.60819,-93054279.93782,33531368.36438,  -0.00012,  -0.00029,   0.00044,101109688.00000,   0.00000,274640576.00000,   0.00000,   0.00000,   0.00000,-373530880.00000,   0.00000
-69130346.68702,-94533257.01812,34412838.70424,  -0.00013,  -0.00030,   0.00045,103305520.00000,   0.00000,274640576.00000,   0.00000,   0.00000,   0.00000,-371335056.00000,   0.00000
-71310358.90337,-95991528.41928,35294309.04409,  -0.00014,  -0.00030,   0.00046,105498032.00000,   0.00000,274640576.00000,   0.00000,   0.00000,   0.00000,-369142544.00000,   0.00000
-73519950.66132,-97479379.36206,36181695.29227,  -0.00014,  -0.00030,   0.00047,107729720.00000,   0.00000,274640576.00000,   0.00000,   0.00000,   0.00000,-366910848.00000,   0.00000
-75720668.55680,-98946524.62571,37074997.44876,  -0.00015,  -0.00030,   0.00048,109962976.00000,   0.00000,274640576.00000,   0.00000,   0.00000,   0.00000,-364677600.00000,   0.00000
-77921386.45227,-100413669.88936,37968299.60526,  -0.00016,  -0.00030,   0.00049,112205456.00000,   0.00000,274640576.00000,   0.00000,   0.00000,   0.00000,-362435120.00000,   0.00000
-80122104.34775,-101880815.15301,38867517.67008,  -0.00017,  -0.00031,   0.00051,114463096.00000,   0.00000,274640576.00000,   0.00000,   0.00000,   0.00000,-360177472.00000,   0.00000
-82343527.92235,-103356834.27914,39772651.64322,  -0.00017,  -0.00031,   0.00052,116746064.00000,   0.00000,274640576.00000,   0.00000,   0.00000,   0.00000,-357894512.00000,   0.00000
-84564951.49695,-104832853.40527,40683701.52468,  -0.00018,  -0.00031,   0.00053,119044488.00000,   0.00000,274640576.00000,   0.00000,   0.00000,   0.00000,-355596096.00000,   0.00000
-86786375.07155,-106308872.53140,41594751.40614,  -0.00019,  -0.00031,   0.00054,121351992.00000,   0.00000,274640576.00000,   0.00000,   0.00000,   0.00000,-353288576.00000,   0.00000
-89019630.46279,-107773059.84089,42505801.28760,  -0.00019,  -0.00032,   0.00055,123665424.00000,   0.00000,274640576.00000,   0.00000,   0.00000,   0.00000,-350975152.00000,   0.00000
-91252885.85403,-109237247.15038,43428682.98570,  -0.00020,  -0.00032,   0.00056,125999264.00000,   0.00000,274640576.00000,   0.00000,   0.00000,   0.00000,-348641312.00000,   0.00000
-93495015.10775,-110722140.13899,44351564.68380,  -0.00021,  -0.00032,   0.00058,128353728.00000,   0.00000,274640576.00000,   0.00000,   0.00000,   0.00000,-346286848.00000,   0.00000
-95748976.17812,-112195201.31097,45274446.38190,  -0.00022,  -0.00032,   0.00059,130712752.00000,   0.00000,274640576.00000,   0.00000,   0.00000,   0.00000,-343927824.00000,   0.00000
-98002937.24848,-113668262.48294,46203243.98833,  -0.00022,  -0.00033,   0.00060,133084872.00000,   0.00000,274640576.00000,   0.00000,   0.00000,   0.00000,-341555712.00000,   0.00000
-100248024.45637,-115120617.97578,47137957.50307,  -0.00023,  -0.00033,   0.00061,135456912.00000,   0.00000,274640576.00000,   0.00000,   0.00000,   0.00000,-339183664.00000,   0.00000
-102522691.20585,-116602553.01024,48078586.92614,  -0.00024,  -0.00033,   0.00063,137864944.00000,   0.00000,274640576.00000,   0.00000,   0.00000,   0.00000,-336775632.00000,   0.00000
-104767778.41374,-118054908.50308,49019216.34920,  -0.00025,  -0.00033,   0.00064,140255664.00000,   0.00000,274640576.00000,   0.00000,   0.00000,   0.00000,-334384912.00000,   0.00000
-107033571.30075,-119516137.85841,49965761.68059,  -0.00025,  -0.00034,   0.00065,142669232.00000,   0.00000,274640576.00000,   0.00000,   0.00000,   0.00000,-331971344.00000,   0.00000
-109320069.86688,-120986241.07622,50912307.01198,  -0.00026,  -0.00034,   0.00066,145099344.00000,   0.00000,274640576.00000,   0.00000,   0.00000,   0.00000,-329541232.00000,   0.00000
-111585862.75388,-122447470.43155,51864768.25169,  -0.00027,  -0.00034,   0.00067,147529760.00000,   0.00000,274640576.00000,   0.00000,   0.00000,   0.00000,-327110816.00000,   0.00000
-113872361.32002,-123917573.64936,52817229.49139,  -0.00028,  -0.00034,   0.00069,149976080.00000,   0.00000,274640576.00000,   0.00000,   0.00000,   0.00000,-324664496.00000,   0.00000
-116149986.02367,-125366971.18805,53775606.63942,  -0.00028,  -0.00034,   0.00070,152421024.00000,   0.00000,274640576.00000,   0.00000,   0.00000,   0.00000,-322219552.00000,   0.00000
-118436484.58980,-126837074.40586,54739899.69577,  -0.00029,  -0.00035,   0.00071,154889120.00000,   0.00000,274640576.00000,   0.00000,   0.00000,   0.00000,-319751456.00000,   0.00000
-120734814.97257,-128295345.80703,55704192.75212,  -0.00030,  -0.00035,   0.00072,157361104.00000,   0.00000,274640576.00000,   0.00000,   0.00000,   0.00000,-317279472.00000,   0.00000
-123012439.67622,-129744743.34571,56674401.71680,  -0.00031,  -0.00035,   0.00074,159833216.00000,   0.00000,274640576.00000,   0.00000,   0.00000,   0.00000,-314807360.00000,   0.00000
-125301896.19651,-131182309.06776,57644610.68147,  -0.00031,  -0.00035,   0.00075,162310256.00000,   0.00000,274640576.00000,   0.00000,   0.00000,   0.00000,-312330320.00000,   0.00000
-127620932.25841,-132649454.33141,58620735.55446,  -0.00032,  -0.00035,   0.00076,164823520.00000,   0.00000,274640576.00000,   0.00000,   0.00000,   0.00000,-309817056.00000,   0.00000
-129910388.77871,-134087020.05345,59602776.33578,  -0.00033,  -0.00036,   0.00077,167326864.00000,   0.00000,274640576.00000,   0.00000,   0.00000,   0.00000,-307313712.00000,   0.00000
-132229424.84060,-135554165.31710,60584817.11709,  -0.00034,  -0.00036,   0.00079,169861504.00000,   0.00000,274640576.00000,   0.00000,   0.00000,   0.00000,-304779072.00000,   0.00000
-134539587.04002,-137000604.90163,61566857.89840,  -0.00035,  -0.00036,   0.00080,172391408.00000,   0.00000,274640576.00000,   0.00000,   0.00000,   0.00000,-302249168.00000,   0.00000
-136840875.37695,-138426338.80703,62560730.49636,  -0.00035,  -0.00036,   0.00081,174927072.00000,   0.00000,274640576.00000,   0.00000,   0.00000,   0.00000,-299713504.00000,   0.00000
-139151037.57637,-139872778.39155,63548687.18599,  -0.00036,  -0.00037,   0.00083,177468960.00000,   0.00000,274640576.00000,   0.00000,   0.00000,   0.00000,-297171616.00000,   0.00000
-141452325.91331,-141298512.29695,64542559.78395,  -0.00037,  -0.00037,   0.00084,180003936.00000,   0.00000,274640576.00000,   0.00000,   0.00000,   0.00000,-294636640.00000,   0.00000
-143783193.79185,-142753825.74396,65542348.29023,  -0.00038,  -0.00037,   0.00085,182568384.00000,   0.00000,274640576.00000,   0.00000,   0.00000,   0.00000,-292072192.00000,   0.00000
-146105187.80790,-144188433.51185,66542136.79651,  -0.00038,  -0.00037,   0.00087,185107392.00000,   0.00000,274640576.00000,   0.00000,   0.00000,   0.00000,-289533184.00000,   0.00000
-148418307.96148,-145602335.60061,67547841.21110,  -0.00039,  -0.00037,   0.00088,187593568.00000,   0.00000,274640576.00000,   0.00000,   0.00000,   0.00000,-287047008.00000,   0.00000
-150740301.97754,-147036943.36849,68553545.62570,  -0.00040,  -0.00038,   0.00089,190104976.00000,   0.00000,274640576.00000,   0.00000,   0.00000,   0.00000,-284535600.00000,   0.00000
-153074127.81024,-148459719.31973,69565165.94862,  -0.00041,  -0.00038,   0.00090,192624032.00000,   0.00000,274640576.00000,   0.00000,   0.00000,   0.00000,-282016544.00000,   0.00000
-155396121.82630,-149894327.08761,70576786.27154,  -0.00041,  -0.00038,   0.00092,195184448.00000,   0.00000,274640576.00000,   0.00000,   0.00000,   0.00000,-279456128.00000,   0.00000
-157729947.65900,-151317103.03885,71588406.59446,  -0.00042,  -0.00038,   0.00093,197764304.00000,   0.00000,274640576.00000,   0.00000,   0.00000,   0.00000,-276876272.00000,   0.00000
-160054899.62922,-152719173.31097,72611858.73403,  -0.00043,  -0.00038,   0.00094,200355104.00000,   0.00000,274640576.00000,   0.00000,   0.00000,   0.00000,-274285472.00000,   0.00000
-162388725.46192,-154141949.26221,73629394.96527,  -0.00044,  -0.00038,   0.00096,202958576.00000,   0.00000,274640576.00000,   0.00000,   0.00000,   0.00000,-271682000.00000,   0.00000
-164713677.43214,-155544019.53433,74652847.10483,  -0.00045,  -0.00039,   0.00097,205565072.00000,   0.00000,274640576.00000,   0.00000,   0.00000,   0.00000,-269075504.00000,   0.00000
-167038629.40236,-156946089.80645,75682215.15271,  -0.00045,  -0.00039,   0.00098,208185792.00000,   0.00000,274640576.00000,   0.00000,   0.00000,   0.00000,-266454784.00000,   0.00000
-169384287.05170,-158357033.94104,76705667.29227,  -0.00046,  -0.00039,   0.00100,210820096.00000,   0.00000,274640576.00000,   0.00000,   0.00000,   0.00000,-263820480.00000,   0.00000
-171709239.02192,-159759104.21316,77740951.24848,  -0.00047,  -0.00039,   0.00101,213462176.00000,   0.00000,274640576.00000,   0.00000,   0.00000,   0.00000,-261178400.00000,   0.00000
-174046022.80878,-161149342.66864,78776235.20468,  -0.00048,  -0.00039,   0.00102,216111072.00000,   0.00000,274640576.00000,   0.00000,   0.00000,   0.00000,-258529504.00000,   0.00000
-176391680.45813,-162560286.80324,79811519.16089,  -0.00049,  -0.00040,   0.00104,218775312.00000,   0.00000,274640576.00000,   0.00000,   0.00000,   0.00000,-255865264.00000,   0.00000
-178728464.24499,-163950525.25871,80846803.11709,  -0.00049,  -0.00040,   0.00105,221430704.00000,   0.00000,274640576.00000,   0.00000,   0.00000,   0.00000,-253209872.00000,   0.00000
-181056374.16937,-165320058.03506,81888002.98162,  -0.00050,  -0.00040,   0.00106,224082096.00000,   0.00000,274640576.00000,   0.00000,   0.00000,   0.00000,-250558480.00000,   0.00000
-183393157.95623,-166710296.49054,82935118.75446,  -0.00051,  -0.00040,   0.00108,226750256.00000,   0.00000,274640576.00000,   0.00000,   0.00000,   0.00000,-247890320.00000,   0.00000
-185721067.88061,-168079829.26689,83982234.52731,  -0.00052,  -0.00040,   0.00109,229405712.00000,   0.00000,274640576.00000,   0.00000,   0.00000,   0.00000,-245234864.00000,   0.00000
-188069683.48412,-169458235.90572,85029350.30016,  -0.00053,  -0.00040,   0.00111,232071328.00000,   0.00000,274640576.00000,   0.00000,   0.00000,   0.00000,-242569248.00000,   0.00000
-190397593.40850,-170827768.68207,86076466.07301,  -0.00053,  -0.00041,   0.00112,234722352.00000,   0.00000,274640576.00000,   0.00000,   0.00000,   0.00000,-239918224.00000,   0.00000
-192746209.01200,-172206175.32090,87129497.75417,  -0.00054,  -0.00041,   0.00113,237389984.00000,   0.00000,274640576.00000,   0.00000,   0.00000,   0.00000,-237250592.00000,   0.00000
-195065245.07390,-173555002.41813,88188445.34366,  -0.00055,  -0.00041,   0.00115,240039536.00000,   0.00000,274640576.00000,   0.00000,   0.00000,   0.00000,-234601040.00000,   0.00000
-197413860.67740,-174933409.05696,89241477.02483,  -0.00056,  -0.00041,   0.00116,242704000.00000,   0.00000,274640576.00000,   0.00000,   0.00000,   0.00000,-231936576.00000,   0.00000
-199744728.55594,-176270404.33754,90300424.61432,  -0.00057,  -0.00041,   0.00117,245352672.00000,   0.00000,274640576.00000,   0.00000,   0.00000,   0.00000,-229287904.00000,   0.00000
-202084470.29696,-177628105.29725,91365288.11213,  -0.00057,  -0.00041,   0.00119,248017472.00000,   0.00000,274640576.00000,   0.00000,   0.00000,   0.00000,-226623104.00000,   0.00000
-204424212.03799,-178985806.25696,92424235.70162,  -0.00058,  -0.00042,   0.00120,250674752.00000,   0.00000,274640576.00000,   0.00000,   0.00000,   0.00000,-223965824.00000,   0.00000
-206755079.91653,-180322801.53754,93489099.19943,  -0.00059,  -0.00042,   0.00122,253327408.00000,   0.00000,274640576.00000,   0.00000,   0.00000,   0.00000,-221313168.00000,   0.00000
-209085947.79507,-181659796.81813,94559878.60556,  -0.00060,  -0.00042,   0.00123,255985952.00000,   0.00000,274640576.00000,   0.00000,   0.00000,   0.00000,-218654624.00000,   0.00000
-211407941.81113,-182976086.41959,95630658.01169,  -0.00061,  -0.00042,   0.00124,258633872.00000,   0.00000,274640576.00000,   0.00000,   0.00000,   0.00000,-216006704.00000,   0.00000
-213738809.68967,-184313081.70017,96695521.50950,  -0.00061,  -0.00042,   0.00126,261285536.00000,   0.00000,274640576.00000,   0.00000,   0.00000,   0.00000,-213355040.00000,   0.00000
-216060803.70573,-185629371.30163,97772216.82396,  -0.00062,  -0.00042,   0.00127,263940544.00000,   0.00000,274640576.00000,   0.00000,   0.00000,   0.00000,-210700032.00000,   0.00000
-218382797.72178,-186945660.90309,98842996.23009,  -0.00063,  -0.00042,   0.00128,266590080.00000,   0.00000,274640576.00000,   0.00000,   0.00000,   0.00000,-208050496.00000,   0.00000
-220704791.73784,-188261950.50455,99919691.54454,  -0.00064,  -0.00043,   0.00130,269247648.00000,   0.00000,274640576.00000,   0.00000,   0.00000,   0.00000,-205392928.00000,   0.00000
-223017911.89142,-189557534.42689,100996386.85899,  -0.00065,  -0.00043,   0.00131,271897344.00000,   0.00000,274640576.00000,   0.00000,   0.00000,   0.00000,-202743232.00000,   0.00000
-225339905.90748,-190873824.02835,102078998.08177,  -0.00065,  -0.00043,   0.00133,274566528.00000,   0.00000,274640576.00000,   0.00000,   0.00000,   0.00000,-200074048.00000,   0.00000
-227653026.06106,-192169407.95068,103161609.30454,  -0.00066,  -0.00043,   0.00134,277229376.00000,   0.00000,274640576.00000,   0.00000,   0.00000,   0.00000,-197411200.00000,   0.00000
-229957272.35215,-193444286.19390,104238304.61899,  -0.00067,  -0.00043,   0.00136,279880288.00000,   0.00000,274640576.00000,   0.00000,   0.00000,   0.00000,-194760288.00000,   0.00000
-232270392.50573,-194739870.11623,105326831.75009,  -0.00068,  -0.00043,   0.00137,282560416.00000,   0.00000,274640576.00000,   0.00000,   0.00000,   0.00000,-192080160.00000,   0.00000
-234595344.47595,-196023622.22193,106409442.97286,  -0.00069,  -0.00043,   0.00138,285242592.00000,   0.00000,274640576.00000,   0.00000,   0.00000,   0.00000,-189397984.00000,   0.00000
-236899590.76704,-197298500.46514,107497970.10396,  -0.00069,  -0.00044,   0.00140,287924352.00000,   0.00000,274640576.00000,   0.00000,   0.00000,   0.00000,-186716224.00000,   0.00000
-239203837.05814,-198573378.70835,108586497.23505,  -0.00070,  -0.00044,   0.00141,290606304.00000,   0.00000,274640576.00000,   0.00000,   0.00000,   0.00000,-184034272.00000,   0.00000
-241499209.48675,-199827551.27244,109675024.36615,  -0.00071,  -0.00044,   0.00143,293269984.00000,   0.00000,274640576.00000,   0.00000,   0.00000,   0.00000,-181370592.00000,   0.00000
-243773876.23624,-201072849.97404,110763551.49724,  -0.00072,  -0.00044,   0.00144,295903616.00000,   0.00000,274640576.00000,   0.00000,   0.00000,   0.00000,-178736960.00000,   0.00000
-246069248.66485,-202327022.53813,111857994.53666,  -0.00073,  -0.00044,   0.00145,298535296.00000,   0.00000,274640576.00000,   0.00000,   0.00000,   0.00000,-176105280.00000,   0.00000
-248364621.09347,-203581195.10222,112946521.66775,  -0.00073,  -0.00044,   0.00147,301148128.00000,   0.00000,274640576.00000,   0.00000,   0.00000,   0.00000,-173492448.00000,   0.00000
-250651119.65960,-204814661.98718,114040964.70717,  -0.00074,  -0.00044,   0.00148,303761248.00000,   0.00000,274640576.00000,   0.00000,   0.00000,   0.00000,-170879328.00000,   0.00000
-252937618.22573,-206048128.87215,115135407.74659,  -0.00075,  -0.00044,   0.00150,306387904.00000,   0.00000,274640576.00000,   0.00000,   0.00000,   0.00000,-168252672.00000,   0.00000
-255203411.11274,-207272721.89463,116235766.69432,  -0.00076,  -0.00045,   0.00151,309025056.00000,   0.00000,274640576.00000,   0.00000,   0.00000,   0.00000,-165615520.00000,   0.00000
-257489909.67887,-208506188.77959,117330209.73374,  -0.00076,  -0.00045,   0.00153,311680640.00000,   0.00000,274640576.00000,   0.00000,   0.00000,   0.00000,-162959936.00000,   0.00000
-259746828.70340,-209710076.12295,118430568.68148,  -0.00077,  -0.00045,   0.00154,314329792.00000,   0.00000,274640576.00000,   0.00000,   0.00000,   0.00000,-160310784.00000,   0.00000
-262024453.40705,-210922837.32879,119525011.72089,  -0.00078,  -0.00045,   0.00155,316990400.00000,   0.00000,274640576.00000,   0.00000,   0.00000,   0.00000,-157650176.00000,   0.00000
-264281372.43157,-212126724.67215,120625370.66863,  -0.00079,  -0.00045,   0.00157,319649184.00000,   0.00000,274640576.00000,   0.00000,   0.00000,   0.00000,-154991392.00000,   0.00000
-266538291.45610,-213330612.01551,121725729.61637,  -0.00080,  -0.00045,   0.00158,322310816.00000,   0.00000,274640576.00000,   0.00000,   0.00000,   0.00000,-152329760.00000,   0.00000
-268786336.61814,-214513793.67974,122826088.56411,  -0.00080,  -0.00045,   0.00160,324965152.00000,   0.00000,274640576.00000,   0.00000,   0.00000,   0.00000,-149675424.00000,   0.00000
-271034381.78019,-215696975.34397,123932363.42016,  -0.00081,  -0.00045,   0.00161,327628256.00000,   0.00000,274640576.00000,   0.00000,   0.00000,   0.00000,-147012320.00000,   0.00000
-273282426.94223,-216880157.00821,125032722.36790,  -0.00082,  -0.00045,   0.00163,330286688.00000,   0.00000,274640576.00000,   0.00000,   0.00000,   0.00000,-144353888.00000,   0.00000
-275500892.56267,-218033759.13083,126133081.31564,  -0.00083,  -0.00045,   0.00164,332925056.00000,   0.00000,274640576.00000,   0.00000,   0.00000,   0.00000,-141715520.00000,   0.00000
-277740063.86223,-219196235.11594,127239356.17170,  -0.00084,  -0.00046,   0.00165,335584256.00000,   0.00000,274640576.00000,   0.00000,   0.00000,   0.00000,-139056320.00000,   0.00000
-279958529.48267,-220349837.23857,128345631.02776,  -0.00084,  -0.00046,   0.00167,338232416.00000,   0.00000,274640576.00000,   0.00000,   0.00000,   0.00000,-136408160.00000,   0.00000
-282197700.78223,-221512313.22368,129445989.97549,  -0.00085,  -0.00046,   0.00168,340887200.00000,   0.00000,274640576.00000,   0.00000,   0.00000,   0.00000,-133753376.00000,   0.00000
-284407292.54019,-222645209.66719,130552264.83155,  -0.00086,  -0.00046,   0.00170,343527232.00000,   0.00000,274640576.00000,   0.00000,   0.00000,   0.00000,-131113344.00000,   0.00000
-286616884.29814,-223778106.11069,131658539.68761,  -0.00087,  -0.00046,   0.00171,346167040.00000,   0.00000,274640576.00000,   0.00000,   0.00000,   0.00000,-128473536.00000,   0.00000
-288805770.37698,-224902128.69171,132764814.54367,  -0.00088,  -0.00046,   0.00173,348793504.00000,   0.00000,274640576.00000,   0.00000,   0.00000,   0.00000,-125847072.00000,   0.00000
-291015362.13493,-226035025.13522,133871089.39973,  -0.00088,  -0.00046,   0.00174,351431616.00000,   0.00000,274640576.00000,   0.00000,   0.00000,   0.00000,-123208960.00000,   0.00000
-293195374.35128,-227138342.03711,134977364.25579,  -0.00089,  -0.00046,   0.00175,354047232.00000,   0.00000,274640576.00000,   0.00000,   0.00000,   0.00000,-120593344.00000,   0.00000
-295396092.24676,-228250532.80149,136083639.11184,  -0.00090,  -0.00046,   0.00177,356675008.00000,   0.00000,274640576.00000,   0.00000,   0.00000,   0.00000,-117965568.00000,   0.00000
-297576104.46311,-229353849.70339,137189913.96790,  -0.00091,  -0.00046,   0.00178,359290784.00000,   0.00000,274640576.00000,   0.00000,   0.00000,   0.00000,-115349792.00000,   0.00000
-299726537.13785,-230427587.06368,138296188.82396,  -0.00091,  -0.00046,   0.00180,361886272.00000,   0.00000,274640576.00000,   0.00000,   0.00000,   0.00000,-112754304.00000,   0.00000
-301897675.49172,-231510198.28646,139402463.68002,  -0.00092,  -0.00046,   0.00181,364496192.00000,   0.00000,274640576.00000,   0.00000,   0.00000,   0.00000,-110144384.00000,   0.00000
-304048108.16647,-232583935.64675,140508738.53608,  -0.00093,  -0.00047,   0.00183,367096608.00000,   0.00000,274640576.00000,   0.00000,   0.00000,   0.00000,-107543968.00000,   0.00000
-306219246.52034,-233666546.86952,141615013.39214,  -0.00094,  -0.00047,   0.00184,369712544.00000,   0.00000,274640576.00000,   0.00000,   0.00000,   0.00000,-104928032.00000,   0.00000
-308360805.33260,-234719578.55069,142721288.24820,  -0.00095,  -0.00047,   0.00186,372309728.00000,   0.00000,274640576.00000,   0.00000,   0.00000,   0.00000,-102330848.00000,   0.00000
-310490532.32822,-235784442.04850,143827563.10425,  -0.00095,  -0.00047,   0.00187,374905696.00000,   0.00000,274640576.00000,   0.00000,   0.00000,   0.00000,-99734880.00000,   0.00000
-312623217.27800,-236816768.05055,144927922.05199,  -0.00096,  -0.00047,   0.00188,377490592.00000,   0.00000,274640576.00000,   0.00000,   0.00000,   0.00000,-97149984.00000,   0.00000
-314744070.41114,-237860925.86923,146034196.90805,  -0.00097,  -0.00047,   0.00190,380078912.00000,   0.00000,274640576.00000,   0.00000,   0.00000,   0.00000,-94561664.00000,   0.00000
-316856049.68180,-238884378.00879,147140471.76411,  -0.00098,  -0.00047,   0.00191,382658528.00000,   0.00000,274640576.00000,   0.00000,   0.00000,   0.00000,-91982048.00000,   0.00000
-318968028.95246,-239907830.14836,148246746.62017,  -0.00098,  -0.00047,   0.00193,385238816.00000,   0.00000,274640576.00000,   0.00000,   0.00000,   0.00000,-89401760.00000,   0.00000
-321059302.54399,-240922408.42544,149353021.47623,  -0.00099,  -0.00047,   0.00194,387808352.00000,   0.00000,274640576.00000,   0.00000,   0.00000,   0.00000,-86832224.00000,   0.00000
-323141702.27304,-241916281.02339,150453380.42396,  -0.00100,  -0.00047,   0.00196,390364512.00000,   0.00000,274640576.00000,   0.00000,   0.00000,   0.00000,-84276064.00000,   0.00000
-325224102.00209,-242910153.62135,151559655.28002,  -0.00101,  -0.00047,   0.00197,392928832.00000,   0.00000,274640576.00000,   0.00000,   0.00000,   0.00000,-81711744.00000,   0.00000
-327306501.73114,-243904026.21931,152660014.22776,  -0.00101,  -0.00047,   0.00198,395486624.00000,   0.00000,274640576.00000,   0.00000,   0.00000,   0.00000,-79153952.00000,   0.00000
-329368195.78107,-244889024.95478,153760373.17550,  -0.00102,  -0.00047,   0.00200,398031136.00000,   0.00000,274640576.00000,   0.00000,   0.00000,   0.00000,-76609440.00000,   0.00000
-331421015.96852,-245853318.01113,154866648.03156,  -0.00103,  -0.00047,   0.00201,400574048.00000,   0.00000,274640576.00000,   0.00000,   0.00000,   0.00000,-74066528.00000,   0.00000
-333473836.15596,-246817611.06748,155967006.97929,  -0.00104,  -0.00047,   0.00203,403111200.00000,   0.00000,274640576.00000,   0.00000,   0.00000,   0.00000,-71529376.00000,   0.00000
-335526656.34341,-247781904.12383,157067365.92703,  -0.00104,  -0.00047,   0.00204,405649024.00000,   0.00000,274640576.00000,   0.00000,   0.00000,   0.00000,-68991552.00000,   0.00000
-337558770.85173,-248737323.31770,158161808.96645,  -0.00105,  -0.00047,   0.00206,408167456.00000,   0.00000,274640576.00000,   0.00000,   0.00000,   0.00000,-66473120.00000,   0.00000
-339582011.49757,-249672036.83245,159262167.91418,  -0.00106,  -0.00047,   0.00207,410684448.00000,   0.00000,274640576.00000,   0.00000,   0.00000,   0.00000,-63956128.00000,   0.00000
-341584546.46428,-250597876.48471,160362526.86192,  -0.00107,  -0.00047,   0.00208,413191104.00000,   0.00000,274640576.00000,   0.00000,   0.00000,   0.00000,-61449472.00000,   0.00000
-343578207.56852,-251503010.45785,161456969.90134,  -0.00107,  -0.00047,   0.00210,415684384.00000,   0.00000,274640576.00000,   0.00000,   0.00000,   0.00000,-58956192.00000,   0.00000
-345580742.53523,-252428850.11011,162551412.94075,  -0.00108,  -0.00047,   0.00211,418188000.00000,   0.00000,274640576.00000,   0.00000,   0.00000,   0.00000,-56452576.00000,   0.00000
-347574403.63947,-253333984.08325,163645855.98017,  -0.00109,  -0.00047,   0.00213,420683232.00000,   0.00000,274640576.00000,   0.00000,   0.00000,   0.00000,-53957344.00000,   0.00000
-349547359.06458,-254230244.19391,164740299.01959,  -0.00109,  -0.00048,   0.00214,423165440.00000,   0.00000,274640576.00000,   0.00000,   0.00000,   0.00000,-51475136.00000,   0.00000
-351490734.94808,-255096924.76296,165834742.05900,  -0.00110,  -0.00048,   0.00216,425625664.00000,   0.00000,274640576.00000,   0.00000,   0.00000,   0.00000,-49014912.00000,   0.00000
-353463690.37319,-255993184.87361,166923269.19010,  -0.00111,  -0.00048,   0.00217,428099008.00000,   0.00000,274640576.00000,   0.00000,   0.00000,   0.00000,-46541568.00000,   0.00000
-355407066.25669,-256859865.44267,168011796.32119,  -0.00112,  -0.00048,   0.00218,430550464.00000,   0.00000,274640576.00000,   0.00000,   0.00000,   0.00000,-44090112.00000,   0.00000
-357329736.46107,-257717672.14923,169100323.45229,  -0.00112,  -0.00048,   0.00220,432988960.00000,   0.00000,274640576.00000,   0.00000,   0.00000,   0.00000,-41651616.00000,   0.00000
-359264238.48210,-258563647.03916,170188850.58338,  -0.00113,  -0.00048,   0.00221,435431776.00000,   0.00000,274640576.00000,   0.00000,   0.00000,   0.00000,-39208800.00000,   0.00000
-361178034.82399,-259400748.06661,171277377.71448,  -0.00114,  -0.00048,   0.00223,437862944.00000,   0.00000,274640576.00000,   0.00000,   0.00000,   0.00000,-36777632.00000,   0.00000
-363071125.48677,-260228975.23157,172359988.93725,  -0.00114,  -0.00048,   0.00224,440276256.00000,   0.00000,274640576.00000,   0.00000,   0.00000,   0.00000,-34364320.00000,   0.00000
-364964216.14954,-261057202.39653,173442600.16003,  -0.00115,  -0.00048,   0.00225,442691712.00000,   0.00000,274640576.00000,   0.00000,   0.00000,   0.00000,-31948864.00000,   0.00000
-366848432.94983,-261864723.88237,174525211.38280,  -0.00116,  -0.00048,   0.00227,445101792.00000,   0.00000,274640576.00000,   0.00000,   0.00000,   0.00000,-29538784.00000,   0.00000
-368711944.07100,-262663371.50573,175601906.69725,  -0.00117,  -0.00048,   0.00228,447496000.00000,   0.00000,274640576.00000,   0.00000,   0.00000,   0.00000,-27144576.00000,   0.00000
-370575455.19217,-263462019.12909,176684517.92003,  -0.00117,  -0.00048,   0.00230,449901216.00000,   0.00000,274640576.00000,   0.00000,   0.00000,   0.00000,-24739360.00000,   0.00000
-372418260.63421,-264251792.88997,177761213.23448,  -0.00118,  -0.00048,   0.00231,452291392.00000,   0.00000,274640576.00000,   0.00000,   0.00000,   0.00000,-22349184.00000,   0.00000
-374252192.21378,-265020860.97172,178831992.64061,  -0.00119,  -0.00048,   0.00232,454670816.00000,   0.00000,274640576.00000,   0.00000,   0.00000,   0.00000,-19969760.00000,   0.00000
-376086123.79334,-265789929.05347,179908687.95506,  -0.00119,  -0.00048,   0.00234,457061600.00000,   0.00000,274640576.00000,   0.00000,   0.00000,   0.00000,-17578976.00000,   0.00000
-377899349.69378,-266550123.27274,180979467.36119,  -0.00120,  -0.00048,   0.00235,459436960.00000,   0.00000,274640576.00000,   0.00000,   0.00000,   0.00000,-15203616.00000,   0.00000
-379691869.91509,-267301443.62953,182044330.85900,  -0.00121,  -0.00048,   0.00237,461795904.00000,   0.00000,274640576.00000,   0.00000,   0.00000,   0.00000,-12844672.00000,   0.00000
-381475516.27392,-268032058.30719,183115110.26514,  -0.00121,  -0.00048,   0.00238,464155552.00000,   0.00000,274640576.00000,   0.00000,   0.00000,   0.00000,-10485024.00000,   0.00000
-383259162.63276,-268762672.98486,184179973.76295,  -0.00122,  -0.00048,   0.00239,466508928.00000,   0.00000,274640576.00000,   0.00000,   0.00000,   0.00000,-8131648.00000,   0.00000
-385022103.31247,-269484413.80004,185244837.26076,  -0.00123,  -0.00048,   0.00241,468848384.00000,   0.00000,274640576.00000,   0.00000,   0.00000,   0.00000,-5792192.00000,   0.00000
-386776170.12969,-270185448.93610,186303784.85025,  -0.00123,  -0.00048,   0.00242,471169344.00000,   0.00000,274640576.00000,   0.00000,   0.00000,   0.00000,-3471232.00000,   0.00000
-388518405.13028,-270898315.88880,187362732.43974,  -0.00124,  -0.00047,   0.00244,473480032.00000,   0.00000,274640576.00000,   0.00000,   0.00000,   0.00000,-1160544.00000,   0.00000
-389392437.25532,-271238633.71450,187899445.13402,  -0.00124,  -0.00047,   0.00244,474639936.00000,   0.00000,274640576.00000,   0.00000,   0.00000,   0.00000,-640.00000,   0.00000
-389386227.47209,-271014296.70861,187937349.95021,  -0.00125,  -0.00047,   0.00245,474639936.00000,   0.00000,274645376.00000,  -0.00000,  -0.00000,   0.00001, -96.00000,   2.00000
-389370779.59056,-270579179.35705,188011626.29939,  -0.00125,  -0.00047,   0.00246,476915264.00000,   0.00001,274655040.00000,  -0.00001,  -0.00000,   0.00002,  96.00000,   2.00000
-389354409.21740,-270145752.51150,188085612.98583,  -0.00126,  -0.00047,   0.00248,476925536.00000,   0.00002,274664704.00000,  -0.00001,  -0.00000,   0.00003,  64.00000,   2.00000
-389323390.03269,-269694669.85731,188168191.66638,  -0.00127,  -0.00047,   0.00249,476915424.00000,   0.00003,274674304.00000,  -0.00002,  -0.00001,   0.00004,  32.00000,   2.00000
-389296961.94808,-269248836.92028,188247589.87525,  -0.00127,  -0.00047,   0.00250,476918752.00000,   0.00004,274683872.00000,  -0.00003,  -0.00001,   0.00006, 128.00000,   2.00000
-389258735.39465,-268802075.67886,188332054.61340,  -0.00128,  -0.00047,   0.00252,476916544.00000,   0.00005,274693376.00000,  -0.00003,  -0.00001,   0.00007, 224.00000,   2.00000
-389222277.24201,-268343737.31097,188416673.49895,  -0.00128,  -0.00047,   0.00253,476911680.00000,   0.00006,274702848.00000,  -0.00004,  -0.00001,   0.00008,  32.00000,   2.00000
-389174234.17320,-267884589.80733,188506375.01617,  -0.00129,  -0.00047,   0.00254,476909152.00000,   0.00007,274712256.00000,  -0.00004,  -0.00001,   0.00009,  64.00000,   2.00000
-389130903.97656,-267430685.64163,188592763.35931,  -0.00130,  -0.00047,   0.00256,476912320.00000,   0.00007,274721632.00000,  -0.00005,  -0.00001,   0.00011, 160.00000,   2.00000
-389075917.44344,-266975840.82838,188684104.09483,  -0.00130,  -0.00047,   0.00257,476909760.00000,   0.00008,274730944.00000,  -0.00005,  -0.00002,   0.00012,  96.00000,   2.00000
-389006611.16956,-266503292.94094,188783803.24117,  -0.00131,  -0.00047,   0.00259,476899456.00000,   0.00009,274740192.00000,  -0.00006,  -0.00002,   0.00013, 160.00000,   2.00000
-388942198.29252,-266036019.03999,188880079.18587,  -0.00132,  -0.00047,   0.00260,476902464.00000,   0.00010,274749408.00000,  -0.00006,  -0.00002,   0.00014,  96.00000,   2.00000
-388866350.29992,-265567847.77657,188981228.70875,  -0.00132,  -0.00047,   0.00261,476899648.00000,   0.00011,274758560.00000,  -0.00007,  -0.00002,   0.00016,  32.00000,   2.00000
-388795585.75354,-265104997.06942,189078984.07978,  -0.00133,  -0.00047,   0.00263,476902464.00000,   0.00012,274767680.00000,  -0.00008,  -0.00002,   0.00017,  32.00000,   2.00000
-388713474.43346,-264641221.44492,189181587.61222,  -0.00133,  -0.00047,   0.00264,476899648.00000,   0.00012,274776768.00000,  -0.00008,  -0.00002,   0.00018,   0.00000,   2.00000
-388633618.61357,-264165870.77181,189284157.37524,  -0.00134,  -0.00047,   0.00265,476894496.00000,   0.00013,274785792.00000,  -0.00009,  -0.00002,   0.00019, 128.00000,   2.00000
-388542408.60127,-263689573.88967,189391491.64932,  -0.00134,  -0.00047,   0.00267,476891776.00000,   0.00014,274794784.00000,  -0.00009,  -0.00003,   0.00020,  32.00000,   2.00000
-388445330.80525,-263215711.23263,189500750.74369,  -0.00135,  -0.00047,   0.00268,476881920.00000,   0.00015,274803648.00000,  -0.00010,  -0.00003,   0.00021,  96.00000,   2.00000
-388345126.95177,-262726795.19546,189612645.05523,  -0.00136,  -0.00047,   0.00269,476883744.00000,   0.00016,274812512.00000,  -0.00010,  -0.00003,   0.00023, -32.00000,   2.00000
-388239204.40650,-262240376.96258,189726485.58179,  -0.00136,  -0.00047,   0.00270,476873632.00000,   0.00016,274821312.00000,  -0.00011,  -0.00003,   0.00024,  32.00000,   2.00000
-388133258.56482,-261755927.65087,189839608.52042,  -0.00137,  -0.00047,   0.00272,476883104.00000,   0.00017,274830080.00000,  -0.00011,  -0.00003,   0.00025,  64.00000,   2.00000
-388021461.98021,-261273796.80915,189954558.65204,  -0.00137,  -0.00047,   0.00273,476873024.00000,   0.00018,274838784.00000,  -0.00012,  -0.00003,   0.00026,  64.00000,   2.00000
-387898613.79663,-260790662.65585,190074189.11329,  -0.00138,  -0.00046,   0.00274,476869856.00000,   0.00019,274847456.00000,  -0.00012,  -0.00003,   0.00027,  64.00000,   2.00000
-387778177.73028,-260295768.38284,190193555.88830,  -0.00138,  -0.00046,   0.00276,476864384.00000,   0.00020,274856064.00000,  -0.00013,  -0.00004,   0.00028,  64.00000,   2.00000
-387646678.57871,-259799846.75504,190317549.55879,  -0.00139,  -0.00046,   0.00277,476861184.00000,   0.00020,274864608.00000,  -0.00013,  -0.00004,   0.00030, 128.00000,   2.00000
-387520787.81712,-259309264.71800,190437987.75077,  -0.00140,  -0.00046,   0.00278,476863392.00000,   0.00021,274873120.00000,  -0.00014,  -0.00004,   0.00031, 128.00000,   2.00000
-387377918.25684,-258817783.94119,190565574.79951,  -0.00140,  -0.00046,   0.00279,476840640.00000,   0.00022,274881504.00000,  -0.00014,  -0.00004,   0.00032,  64.00000,   2.00000
-387243471.61989,-258314240.31843,190690290.84936,  -0.00141,  -0.00046,   0.00281,476854528.00000,   0.00023,274889920.00000,  -0.00015,  -0.00004,   0.00033,  64.00000,   2.00000
-387089828.38104,-257823552.59985,190821637.74228,  -0.00141,  -0.00046,   0.00282,476846368.00000,   0.00024,274898272.00000,  -0.00015,  -0.00004,   0.00034,  32.00000,   2.00000
-386944142.26490,-257324256.62931,190949889.59934,  -0.00142,  -0.00046,   0.00283,476833536.00000,   0.00024,274906528.00000,  -0.00016,  -0.00004,   0.00035, -32.00000,   2.00000
-386784373.29590,-256806643.02334,191086033.69756,  -0.00142,  -0.00046,   0.00285,476822464.00000,   0.00025,274914720.00000,  -0.00016,  -0.00004,   0.00036, 160.00000,   2.00000
-386616732.32541,-256304919.00601,191223352.29391,  -0.00143,  -0.00046,   0.00286,476826624.00000,   0.00026,274922880.00000,  -0.00017,  -0.00005,   0.00037,  96.00000,   2.00000
-386451689.36181,-255791193.23471,191360325.76327,  -0.00143,  -0.00046,   0.00287,476820768.00000,   0.00026,274931008.00000,  -0.00017,  -0.00005,   0.00038,  32.00000,   2.00000
-386284262.94184,-255296638.50213,191495779.13981,  -0.00144,  -0.00046,   0.00288,476817632.00000,   0.00027,274939072.00000,  -0.00018,  -0.00005,   0.00039,  32.00000,   2.00000
-386113979.11939,-254786670.93913,191633645.04423,  -0.00144,  -0.00046,   0.00290,476818880.00000,   0.00028,274947104.00000,  -0.00018,  -0.00005,   0.00040,  96.00000,   2.00000
-385923656.16576,-254258216.71577,191781995.39869,  -0.00145,  -0.00045,   0.00291,476788320.00000,   0.00029,274954976.00000,  -0.00019,  -0.00005,   0.00041, 128.00000,   2.00000
-385736824.46821,-253748720.14111,191926056.86550,  -0.00145,  -0.00045,   0.00292,476804544.00000,   0.00029,274962880.00000,  -0.00019,  -0.00005,   0.00043,  64.00000,   2.00000
-385557987.43940,-253230309.24935,192067054.40642,  -0.00146,  -0.00045,   0.00293,476791296.00000,   0.00030,274970688.00000,  -0.00020,  -0.00005,   0.00044,  96.00000,   2.00000
-385356753.30062,-252707112.48440,192217963.49299,  -0.00146,  -0.00045,   0.00294,476775104.00000,   0.00031,274978432.00000,  -0.00020,  -0.00005,   0.00045,   0.00000,   2.00000
-385155993.47426,-252185662.73948,192367980.01865,  -0.00147,  -0.00045,   0.00296,476783520.00000,   0.00032,274986144.00000,  -0.00020,  -0.00005,   0.00046,  32.00000,   2.00000
-384949729.61894,-251665901.56816,192519803.71502,  -0.00147,  -0.00045,   0.00297,476772480.00000,   0.00032,274993792.00000,  -0.00021,  -0.00006,   0.00047, 128.00000,   2.00000
-384737773.33118,-251147650.96735,192673332.31179,  -0.00147,  -0.00045,   0.00298,476761568.00000,   0.00033,275001376.00000,  -0.00021,  -0.00006,   0.00048, -64.00000,   2.00000
-384522988.92599,-250613727.60823,192829242.94599,  -0.00148,  -0.00045,   0.00299,476762304.00000,   0.00034,275008928.00000,  -0.00022,  -0.00006,   0.00049,-128.00000,   2.00000
-384307960.60719,-250084548.83321,192984220.53554,  -0.00148,  -0.00045,   0.00301,476744000.00000,   0.00034,275016352.00000,  -0.00022,  -0.00006,   0.00050, -32.00000,   2.00000
-384081915.13447,-249553593.44301,193143729.90597,  -0.00149,  -0.00045,   0.00302,476739968.00000,   0.00035,275023744.00000,  -0.00023,  -0.00006,   0.00051,  32.00000,   2.00000
-383856403.77282,-249024247.79135,193302402.55359,  -0.00149,  -0.00045,   0.00303,476748000.00000,   0.00036,275031136.00000,  -0.00023,  -0.00006,   0.00052,  64.00000,   2.00000
-383610228.92337,-248475366.70242,193471443.24794,  -0.00150,  -0.00044,   0.00304,476717280.00000,   0.00036,275038368.00000,  -0.00024,  -0.00006,   0.00053, -32.00000,   2.00000
-383373438.48052,-247948689.89807,193633719.01239,  -0.00150,  -0.00044,   0.00305,476725344.00000,   0.00037,275045600.00000,  -0.00024,  -0.00006,   0.00054,  32.00000,   2.00000
-383127477.53971,-247405765.98869,193801020.04490,  -0.00151,  -0.00044,   0.00306,476706656.00000,   0.00038,275052736.00000,  -0.00024,  -0.00006,   0.00055,  96.00000,   2.00000
-382875778.39683,-246864005.86511,193970137.29701,  -0.00151,  -0.00044,   0.00308,476695136.00000,   0.00038,275059776.00000,  -0.00025,  -0.00006,   0.00055,   0.00000,   2.00000
-382624571.41734,-246323683.70811,194138419.36029,  -0.00151,  -0.00044,   0.00309,476702816.00000,   0.00039,275066816.00000,  -0.00025,  -0.00007,   0.00056, 128.00000,   2.00000
-382367653.05502,-245784460.65643,194308586.07288,  -0.00152,  -0.00044,   0.00310,476691232.00000,   0.00040,275073792.00000,  -0.00026,  -0.00007,   0.00057, 128.00000,   2.00000
-382096028.59121,-245225550.16687,194486464.41435,  -0.00152,  -0.00044,   0.00311,476679584.00000,   0.00040,275080704.00000,  -0.00026,  -0.00007,   0.00058,  32.00000,   2.00000
-381827672.23983,-244688396.04156,194660411.09312,  -0.00153,  -0.00044,   0.00312,476667648.00000,   0.00041,275087520.00000,  -0.00026,  -0.00007,   0.00059,  32.00000,   2.00000
-381544593.54239,-244131435.69403,194842096.38386,  -0.00153,  -0.00044,   0.00313,476656064.00000,   0.00041,275094240.00000,  -0.00027,  -0.00007,   0.00060, 128.00000,   2.00000
-381267276.59848,-243578884.39365,195020222.81889,  -0.00153,  -0.00043,   0.00314,476656384.00000,   0.00042,275100960.00000,  -0.00027,  -0.00007,   0.00061, -32.00000,   2.00000
-380967246.71788,-243020509.80419,195208401.87033,  -0.00154,  -0.00043,   0.00316,476639392.00000,   0.00043,275107584.00000,  -0.00028,  -0.00007,   0.00062,   0.00000,   2.00000
-380678323.00288,-242469594.91260,195390335.84370,  -0.00154,  -0.00043,   0.00317,476632352.00000,   0.00043,275114112.00000,  -0.00028,  -0.00007,   0.00063, -96.00000,   2.00000
-380374614.73211,-241898717.78046,195580060.01129,  -0.00154,  -0.00043,   0.00318,476620320.00000,   0.00044,275120608.00000,  -0.00028,  -0.00007,   0.00064,  32.00000,   2.00000
-380080295.61361,-241349756.34703,195763111.77935,  -0.00155,  -0.00043,   0.00319,476627424.00000,   0.00044,275127072.00000,  -0.00029,  -0.00007,   0.00064, -32.00000,   2.00000
-379764786.89224,-240780218.47238,195956706.66282,  -0.00155,  -0.00043,   0.00320,476596032.00000,   0.00045,275133376.00000,  -0.00029,  -0.00007,   0.00065,   0.00000,   2.00000
-379449656.68795,-240211788.45696,196149439.91991,  -0.00155,  -0.00043,   0.00321,476603232.00000,   0.00046,275139712.00000,  -0.00030,  -0.00007,   0.00066, -64.00000,   2.00000
-379122326.28465,-239643448.34856,196346932.79106,  -0.00156,  -0.00043,   0.00322,476571296.00000,   0.00046,275145856.00000,  -0.00030,  -0.00007,   0.00067,  64.00000,   2.00000
-378795453.69638,-239076204.13086,196543615.47046,  -0.00156,  -0.00042,   0.00323,476578400.00000,   0.00047,275152032.00000,  -0.00030,  -0.00008,   0.00068,  96.00000,   2.00000
-378462553.77829,-238509414.47784,196742215.90107,  -0.00156,  -0.00042,   0.00324,476565952.00000,   0.00047,275158112.00000,  -0.00031,  -0.00008,   0.00069,   0.00000,   2.00000
-378131653.26039,-237929072.22124,196940465.11243,  -0.00157,  -0.00042,   0.00325,476558624.00000,   0.00048,275164128.00000,  -0.00031,  -0.00008,   0.00069,  32.00000,   2.00000
-377783062.62093,-237345514.54593,197146169.86587,  -0.00157,  -0.00042,   0.00327,476533728.00000,   0.00048,275170016.00000,  -0.00031,  -0.00008,   0.00070,  96.00000,   2.00000
-377438644.94261,-236780704.87810,197347925.65489,  -0.00157,  -0.00042,   0.00328,476547520.00000,   0.00049,275175968.00000,  -0.00032,  -0.00008,   0.00071,  32.00000,   2.00000
-377072540.07368,-236194711.38740,197560144.13030,  -0.00158,  -0.00042,   0.00329,476515808.00000,   0.00049,275181728.00000,  -0.00032,  -0.00008,   0.00072,  96.00000,   2.00000
-376717568.71634,-235615900.30779,197766291.20080,  -0.00158,  -0.00042,   0.00330,476507840.00000,   0.00050,275187424.00000,  -0.00032,  -0.00008,   0.00073, 128.00000,   2.00000
-376351143.44172,-235034286.60820,197977029.63665,  -0.00158,  -0.00042,   0.00331,476502272.00000,   0.00050,275193088.00000,  -0.00033,  -0.00008,   0.00073,  32.00000,   2.00000
-375973291.27865,-234449862.37042,198192359.92999,  -0.00158,  -0.00041,   0.00332,476496736.00000,   0.00051,275198720.00000,  -0.00033,  -0.00008,   0.00074,  32.00000,   2.00000
-375590778.90799,-233850918.22865,198410110.35661,  -0.00159,  -0.00041,   0.00333,476469472.00000,   0.00052,275204192.00000,  -0.00033,  -0.00008,   0.00075,  32.00000,   2.00000
-375205954.33866,-233269964.70942,198626721.99114,  -0.00159,  -0.00041,   0.00334,476463296.00000,   0.00052,275209600.00000,  -0.00034,  -0.00008,   0.00076, -32.00000,   2.00000
-374805763.25463,-232668294.08288,198850993.86662,  -0.00159,  -0.00041,   0.00335,476450624.00000,   0.00053,275214944.00000,  -0.00034,  -0.00008,   0.00076,  32.00000,   2.00000
-374420603.26929,-232091547.10064,199066167.40462,  -0.00159,  -0.00041,   0.00336,476448960.00000,   0.00053,275220288.00000,  -0.00034,  -0.00008,   0.00077, -32.00000,   2.00000
-374007980.95034,-231490080.35668,199294366.80004,  -0.00160,  -0.00041,   0.00337,476424352.00000,   0.00053,275225472.00000,  -0.00035,  -0.00008,   0.00078,   0.00000,   2.00000
-373601033.48246,-230892561.62828,199519064.97036,  -0.00160,  -0.00041,   0.00338,476423104.00000,   0.00054,275230624.00000,  -0.00035,  -0.00008,   0.00078,  64.00000,   2.00000
-373187899.41680,-230295137.83757,199745770.51188,  -0.00160,  -0.00040,   0.00339,476409728.00000,   0.00054,275235712.00000,  -0.00035,  -0.00008,   0.00079,  96.00000,   2.00000
-372756318.23540,-229693696.28543,199979746.65904,  -0.00160,  -0.00040,   0.00340,476384480.00000,   0.00055,275240672.00000,  -0.00035,  -0.00009,   0.00080,  96.00000,   2.00000
-372330547.09821,-229096241.57354,200210313.36104,  -0.00160,  -0.00040,   0.00341,476382944.00000,   0.00055,275245600.00000,  -0.00036,  -0.00009,   0.00080,  32.00000,   2.00000
-371889035.04878,-228477764.90174,200448395.18898,  -0.00161,  -0.00040,   0.00342,476370240.00000,   0.00056,275250464.00000,  -0.00036,  -0.00009,   0.00081, 128.00000,   2.00000
-371450413.16269,-227880125.71439,200682755.68988,  -0.00161,  -0.00040,   0.00343,476355968.00000,   0.00056,275255232.00000,  -0.00036,  -0.00009,   0.00082,   0.00000,   2.00000
-371005490.73862,-227282419.63240,200919128.89322,  -0.00161,  -0.00040,   0.00344,476342208.00000,   0.00057,275259936.00000,  -0.00037,  -0.00009,   0.00082,   0.00000,   2.00000
-370544599.22318,-226663508.55650,201162922.33130,  -0.00161,  -0.00040,   0.00345,476329440.00000,   0.00057,275264544.00000,  -0.00037,  -0.00009,   0.00083,  64.00000,   2.00000
-370089356.53679,-226048487.09974,201403221.97809,  -0.00161,  -0.00039,   0.00345,476327680.00000,   0.00057,275269152.00000,  -0.00037,  -0.00009,   0.00084, -32.00000,   2.00000
-369624987.31032,-225450234.06056,201645380.42063,  -0.00162,  -0.00039,   0.00346,476301216.00000,   0.00058,275273600.00000,  -0.00037,  -0.00009,   0.00084,  32.00000,   2.00000
-369144415.18054,-224830591.41038,201894868.57285,  -0.00162,  -0.00039,   0.00347,476288320.00000,   0.00058,275277984.00000,  -0.00038,  -0.00009,   0.00085,   0.00000,   2.00000
-368669522.32535,-224214824.93291,202140907.25592,  -0.00162,  -0.00039,   0.00348,476286176.00000,   0.00059,275282368.00000,  -0.00038,  -0.00009,   0.00085,  96.00000,   2.00000
-368175711.70662,-223594556.45200,202394220.13418,  -0.00162,  -0.00039,   0.00349,476260576.00000,   0.00059,275286592.00000,  -0.00038,  -0.00009,   0.00086,  64.00000,   2.00000
-367675316.99529,-222973963.47775,202649492.53354,  -0.00162,  -0.00039,   0.00350,476246592.00000,   0.00059,275290752.00000,  -0.00038,  -0.00009,   0.00087,  96.00000,   2.00000
-367180279.35416,-222357036.62618,202901145.32572,  -0.00162,  -0.00039,   0.00351,476244512.00000,   0.00060,275294880.00000,  -0.00039,  -0.00009,   0.00087,   0.00000,   2.00000
-366666262.13100,-221735487.27045,203160155.49265,  -0.00162,  -0.00038,   0.00352,476218592.00000,   0.00060,275298880.00000,  -0.00039,  -0.00009,   0.00088,   0.00000,   2.00000
-366157810.05114,-221117695.79664,203415709.40897,  -0.00163,  -0.00038,   0.00353,476216224.00000,   0.00061,275302880.00000,  -0.00039,  -0.00009,   0.00088,  64.00000,   2.00000
-365630071.66093,-220495051.13955,203678513.06256,  -0.00163,  -0.00038,   0.00354,476190432.00000,   0.00061,275306720.00000,  -0.00039,  -0.00009,   0.00089, -32.00000,   2.00000
-365103472.63019,-219857910.49246,203940772.42629,  -0.00163,  -0.00038,   0.00354,476181504.00000,   0.00061,275310528.00000,  -0.00039,  -0.00009,   0.00089,  32.00000,   2.00000
-364574207.95000,-219238305.64970,204201969.71283,  -0.00163,  -0.00038,   0.00355,476173696.00000,   0.00062,275314272.00000,  -0.00040,  -0.00009,   0.00090, -32.00000,   2.00000
-364025620.62601,-218613728.53166,204470540.63643,  -0.00163,  -0.00038,   0.00356,476147648.00000,   0.00062,275317888.00000,  -0.00040,  -0.00009,   0.00090,  96.00000,   2.00000
-363477901.37007,-217974447.26023,204738477.19882,  -0.00163,  -0.00038,   0.00357,476138848.00000,   0.00062,275321440.00000,  -0.00040,  -0.00009,   0.00091,  32.00000,   2.00000
-362922128.13183,-217349706.30561,205007809.86479,  -0.00163,  -0.00037,   0.00358,476138272.00000,   0.00063,275324992.00000,  -0.00040,  -0.00009,   0.00091, -96.00000,   2.00000
-362347652.14587,-216704379.05897,205284989.73981,  -0.00163,  -0.00037,   0.00359,476098208.00000,   0.00063,275328384.00000,  -0.00040,  -0.00009,   0.00092,   0.00000,   2.00000
-361782975.95931,-216080876.70851,205555836.86540,  -0.00163,  -0.00037,   0.00359,476101664.00000,   0.00063,275331744.00000,  -0.00041,  -0.00009,   0.00092,  32.00000,   2.00000
-361206485.83978,-215438064.18307,205831480.38798,  -0.00163,  -0.00037,   0.00360,476080992.00000,   0.00064,275335008.00000,  -0.00041,  -0.00009,   0.00093, -32.00000,   2.00000
-360609272.45466,-214805204.22896,206113933.08109,  -0.00163,  -0.00037,   0.00361,476068672.00000,   0.00064,275338208.00000,  -0.00041,  -0.00009,   0.00093,   0.00000,   2.00000
-360018035.00983,-214160260.81520,206393435.47605,  -0.00163,  -0.00037,   0.00362,476051872.00000,   0.00064,275341312.00000,  -0.00041,  -0.00009,   0.00094,   0.00000,   2.00000
-359423899.50354,-213532534.77865,206672017.20250,  -0.00163,  -0.00037,   0.00363,476043296.00000,   0.00064,275344352.00000,  -0.00041,  -0.00009,   0.00094, -64.00000,   2.00000
-358805143.72608,-212880717.86580,206960880.43295,  -0.00163,  -0.00036,   0.00363,476010688.00000,   0.00065,275347264.00000,  -0.00042,  -0.00009,   0.00094,  96.00000,   2.00000
-358186163.54577,-212229341.80807,207248661.99535,  -0.00163,  -0.00036,   0.00364,476015328.00000,   0.00065,275350176.00000,  -0.00042,  -0.00010,   0.00095, 128.00000,   2.00000
-357569469.13698,-211597877.16571,207533202.28771,  -0.00163,  -0.00036,   0.00365,475998944.00000,   0.00065,275353024.00000,  -0.00042,  -0.00010,   0.00095, -64.00000,   2.00000
-356927672.37153,-210941913.30874,207827914.63925,  -0.00163,  -0.00036,   0.00366,475966400.00000,   0.00065,275355712.00000,  -0.00042,  -0.00010,   0.00096, -64.00000,   2.00000
-356295782.55053,-210307696.74355,208116563.46555,  -0.00163,  -0.00036,   0.00366,475968864.00000,   0.00066,275358368.00000,  -0.00042,  -0.00010,   0.00096,  96.00000,   2.00000
-355638525.38236,-209648736.24288,208415348.56800,  -0.00163,  -0.00036,   0.00367,475936512.00000,   0.00066,275360896.00000,  -0.00042,  -0.00010,   0.00096,  96.00000,   2.00000
-354986296.18754,-208992903.76376,208710829.56073,  -0.00163,  -0.00035,   0.00368,475932768.00000,   0.00066,275363392.00000,  -0.00042,  -0.00010,   0.00097, 128.00000,   2.00000
-354318035.79113,-208349180.07328,209010862.59210,  -0.00163,  -0.00035,   0.00369,475912320.00000,   0.00066,275365792.00000,  -0.00043,  -0.00010,   0.00097,  96.00000,   2.00000
-353644684.41095,-207687177.24748,209312704.56691,  -0.00163,  -0.00035,   0.00369,475910208.00000,   0.00067,275368192.00000,  -0.00043,  -0.00010,   0.00097,  96.00000,   2.00000
-352955669.23978,-207021360.19639,209619623.83585,  -0.00163,  -0.00035,   0.00370,475875968.00000,   0.00067,275370400.00000,  -0.00043,  -0.00010,   0.00098, -64.00000,   2.00000
-352276472.69663,-206377119.59161,209920561.85357,  -0.00163,  -0.00035,   0.00371,475877664.00000,   0.00067,275372640.00000,  -0.00043,  -0.00010,   0.00098,   0.00000,   2.00000
-351576669.44782,-205710298.76165,210229448.57290,  -0.00163,  -0.00035,   0.00371,475837376.00000,   0.00067,275374656.00000,  -0.00043,  -0.00010,   0.00098,  32.00000,   2.00000
-350868299.56738,-205057340.16377,210539923.62500,  -0.00163,  -0.00035,   0.00372,475835520.00000,   0.00067,275376672.00000,  -0.00043,  -0.00010,   0.00098,   0.00000,   2.00000
-350146732.44992,-204383642.23361,210855192.91866,  -0.00163,  -0.00034,   0.00373,475814272.00000,   0.00068,275378592.00000,  -0.00043,  -0.00010,   0.00099, -32.00000,   2.00000
-349434997.74949,-203731436.48797,211164577.77457,  -0.00163,  -0.00034,   0.00374,475815680.00000,   0.00068,275380512.00000,  -0.00043,  -0.00010,   0.00099,   0.00000,   2.00000
-348696886.87436,-203053437.62869,211484115.51705,  -0.00163,  -0.00034,   0.00374,475783072.00000,   0.00068,275382272.00000,  -0.00043,  -0.00010,   0.00099,   0.00000,   2.00000
-347960631.25262,-202394584.02099,211800822.19603,  -0.00162,  -0.00034,   0.00375,475765216.00000,   0.00068,275383968.00000,  -0.00044,  -0.00010,   0.00099, -64.00000,   2.00000
-347210699.50129,-201730703.61045,212121890.12260,  -0.00162,  -0.00034,   0.00375,475757376.00000,   0.00068,275385600.00000,  -0.00044,  -0.00010,   0.00100,   0.00000,   2.00000
-346447217.28234,-201045702.18149,212447776.03316,  -0.00162,  -0.00034,   0.00376,475735776.00000,   0.00068,275387136.00000,  -0.00044,  -0.00010,   0.00100, -64.00000,   2.00000
-345685594.13647,-200379743.92650,212770979.74109,  -0.00162,  -0.00034,   0.00377,475717792.00000,   0.00068,275388576.00000,  -0.00044,  -0.00010,   0.00100,  64.00000,   2.00000
-344910000.75090,-199708526.45863,213098438.09778,  -0.00162,  -0.00033,   0.00377,475709856.00000,   0.00069,275389984.00000,  -0.00044,  -0.00010,   0.00100,  96.00000,   2.00000
-344130946.96872,-199037405.95023,213425841.31444,  -0.00162,  -0.00033,   0.00378,475685792.00000,   0.00069,275391296.00000,  -0.00044,  -0.00010,   0.00100, -32.00000,   2.00000
-343329895.85211,-198358580.41681,213760723.15061,  -0.00162,  -0.00033,   0.00379,475658592.00000,   0.00069,275392480.00000,  -0.00044,  -0.00010,   0.00101,-128.00000,   2.00000
-342533350.62844,-197682155.94607,214092468.69812,  -0.00161,  -0.00033,   0.00379,475653696.00000,   0.00069,275393632.00000,  -0.00044,  -0.00010,   0.00101, -32.00000,   2.00000
-341722649.30417,-197000285.52794,214428476.45351,  -0.00161,  -0.00033,   0.00380,475645664.00000,   0.00069,275394720.00000,  -0.00044,  -0.00010,   0.00101,  64.00000,   2.00000
-340894772.80797,-196313079.13739,214769733.16844,  -0.00161,  -0.00033,   0.00380,475610528.00000,   0.00069,275395680.00000,  -0.00044,  -0.00010,   0.00101, -32.00000,   2.00000
-340070630.11339,-195627829.71089,215107390.62016,  -0.00161,  -0.00033,   0.00381,475605344.00000,   0.00069,275396608.00000,  -0.00044,  -0.00010,   0.00101,-992.00000,   1.00000
-339224565.79837,-194934778.74716,215452942.84701,  -0.00161,  -0.00032,   0.00381,475577152.00000,   0.00069,275397408.00000,  -0.00044,  -0.00010,   0.00101,-832.00000,   1.00000
-338369146.80689,-194238647.72686,215800535.27631,  -0.00160,  -0.00032,   0.00382,475561120.00000,   0.00069,275398112.00000,  -0.00044,  -0.00010,   0.00101,-896.00000,   1.00000
-337528441.45504,-193566206.90079,216140268.87126,  -0.00160,  -0.00032,   0.00383,475553344.00000,   0.00069,275398816.00000,  -0.00044,  -0.00010,   0.00102,-672.00000,   1.00000
-336654356.47772,-192863897.54181,216492162.66160,  -0.00160,  -0.00032,   0.00383,475528512.00000,   0.00069,275399392.00000,  -0.00044,  -0.00010,   0.00102,-544.00000,   1.00000
-335775792.78507,-192177153.15028,216843320.74985,  -0.00160,  -0.00032,   0.00384,475518144.00000,   0.00070,275399904.00000,  -0.00044,  -0.00010,   0.00102,-480.00000,   1.00000
-334892971.02379,-191489867.27574,217194641.41515,  -0.00159,  -0.00032,   0.00384,475493568.00000,   0.00070,275400320.00000,  -0.00044,  -0.00010,   0.00102,-384.00000,   1.00000
-333989747.48889,-190777648.01428,217552620.75100,  -0.00159,  -0.00032,   0.00385,475480032.00000,   0.00070,275400672.00000,  -0.00044,  -0.00010,   0.00102,-320.00000,   1.00000
-333087305.31081,-190083642.30032,217908068.41668,  -0.00159,  -0.00031,   0.00385,475460992.00000,   0.00070,275400928.00000,  -0.00044,  -0.00010,   0.00102,-128.00000,   1.00000
-332160941.15862,-189380737.57470,218270663.43152,  -0.00159,  -0.00031,   0.00386,475434112.00000,   0.00070,275401088.00000,  -0.00044,  -0.00010,   0.00102,-256.00000,   1.00000
-331233240.44240,-188677152.27631,218632168.38612,  -0.00158,  -0.00031,   0.00386,475436480.00000,   0.00070,275401248.00000,  -0.00044,  -0.00010,   0.00102, -96.00000,   1.00000
-330300527.34593,-187972636.54763,218993717.44699,  -0.00158,  -0.00031,   0.00387,475412064.00000,   0.00070,275401280.00000,  -0.00044,  -0.00010,   0.00102,-128.00000,   1.00000
-329342150.19790,-187274559.36574,219354587.85458,  -0.00158,  -0.00031,   0.00387,475390272.00000,   0.00070,275401280.00000,  -0.00044,  -0.00010,   0.00102,-11008.00000,   0.00000
-328374899.18739,-186555776.50471,219709542.35385,  -0.00157,  -0.00031,   0.00388,475368256.00000,   0.00070,275401280.00000,  -0.00044,  -0.00010,   0.00102,-33024.00000,   0.00000
-327375110.68111,-185839951.59785,220058580.94480,  -0.00157,  -0.00031,   0.00388,475324512.00000,   0.00070,275401280.00000,  -0.00044,  -0.00010,   0.00102,-76768.00000,   0.00000
-326345742.63323,-185094547.14939,220395787.71910,  -0.00157,  -0.00030,   0.00388,475250816.00000,   0.00070,275401280.00000,  -0.00044,  -0.00010,   0.00102,-150464.00000,   0.00000
-325304542.76870,-184360974.51756,220732994.49341,  -0.00157,  -0.00030,   0.00389,475174528.00000,   0.00070,275401280.00000,  -0.00044,  -0.00010,   0.00102,-226752.00000,   0.00000
-324242637.22505,-183618528.02325,221064285.35939,  -0.00156,  -0.00030,   0.00389,475082240.00000,   0.00070,275401280.00000,  -0.00044,  -0.00010,   0.00102,-319040.00000,   0.00000
-323160026.00228,-182867207.66647,221383744.40874,  -0.00156,  -0.00030,   0.00390,474965408.00000,   0.00070,275401280.00000,  -0.00044,  -0.00010,   0.00102,-435872.00000,   0.00000
-322056709.10038,-182107013.44720,221697287.54976,  -0.00155,  -0.00030,   0.00390,474832544.00000,   0.00070,275401280.00000,  -0.00044,  -0.00010,   0.00102,-568736.00000,   0.00000
-320941560.38184,-181358651.04457,222010830.69078,  -0.00155,  -0.00030,   0.00391,474697344.00000,   0.00070,275401280.00000,  -0.00044,  -0.00010,   0.00102,-703936.00000,   0.00000
-319776126.44257,-180571835.23785,222312542.01516,  -0.00155,  -0.00030,   0.00391,474522464.00000,   0.00070,275401280.00000,  -0.00044,  -0.00010,   0.00102,-878816.00000,   0.00000
-318619566.36578,-179805725.11026,222608337.43122,  -0.00154,  -0.00030,   0.00391,474347520.00000,   0.00070,275401280.00000,  -0.00044,  -0.00010,   0.00102,-1053760.00000,   0.00000
-317421594.93074,-179021867.25771,222898216.93896,  -0.00154,  -0.00029,   0.00392,474146656.00000,   0.00070,275401280.00000,  -0.00044,  -0.00010,   0.00102,-1254624.00000,   0.00000
-316214749.63323,-178217303.72603,223182180.53837,  -0.00154,  -0.00029,   0.00392,473935616.00000,   0.00070,275401280.00000,  -0.00044,  -0.00010,   0.00102,-1465664.00000,   0.00000
-314984240.70242,-177436403.82763,223460228.22947,  -0.00153,  -0.00029,   0.00392,473709888.00000,   0.00070,275401280.00000,  -0.00044,  -0.00010,   0.00102,-1691392.00000,   0.00000
-313724152.23001,-176625924.38763,223732360.01224,  -0.00153,  -0.00029,   0.00393,473464000.00000,   0.00070,275401280.00000,  -0.00044,  -0.00010,   0.00102,-1937280.00000,   0.00000
-312443358.07848,-175806571.08515,223992659.97837,  -0.00152,  -0.00029,   0.00393,473195456.00000,   0.00070,275401280.00000,  -0.00044,  -0.00010,   0.00102,-2205824.00000,   0.00000
-311150732.11031,-174999049.59931,224252959.94450,  -0.00152,  -0.00029,   0.00393,472926464.00000,   0.00070,275401280.00000,  -0.00044,  -0.00010,   0.00102,-2474816.00000,   0.00000
-309837400.46301,-174182654.25099,224501428.09399,  -0.00151,  -0.00029,   0.00394,472635232.00000,   0.00070,275401280.00000,  -0.00044,  -0.00010,   0.00102,-2766048.00000,   0.00000
-308494489.27410,-173336679.36106,224743980.33516,  -0.00151,  -0.00029,   0.00394,472324960.00000,   0.00070,275401280.00000,  -0.00044,  -0.00010,   0.00102,-3076320.00000,   0.00000
-307148620.13104,-172523241.96690,224986532.57633,  -0.00151,  -0.00028,   0.00394,472019008.00000,   0.00070,275401280.00000,  -0.00044,  -0.00010,   0.00102,-3382272.00000,   0.00000
-305752465.76724,-171671351.16865,225217253.00085,  -0.00150,  -0.00028,   0.00395,471674944.00000,   0.00070,275401280.00000,  -0.00044,  -0.00010,   0.00102,-3726336.00000,   0.00000
-304356311.40344,-170819460.37041,225442057.51706,  -0.00150,  -0.00028,   0.00395,471324768.00000,   0.00070,275401280.00000,  -0.00044,  -0.00010,   0.00102,-4076512.00000,   0.00000
-302927619.54388,-169970527.52632,225660946.12494,  -0.00149,  -0.00028,   0.00395,470952448.00000,   0.00070,275401280.00000,  -0.00044,  -0.00010,   0.00102,-4448832.00000,   0.00000
-301478222.00520,-169112720.81975,225873918.82450,  -0.00149,  -0.00028,   0.00396,470562496.00000,   0.00070,275401280.00000,  -0.00044,  -0.00010,   0.00102,-4838784.00000,   0.00000
-300028824.46651,-168254914.11318,226080975.61575,  -0.00148,  -0.00028,   0.00396,470164160.00000,   0.00070,275401280.00000,  -0.00044,  -0.00010,   0.00102,-5237120.00000,   0.00000
-298538015.56957,-167379359.68165,226276200.59034,  -0.00148,  -0.00028,   0.00396,469730304.00000,   0.00070,275401280.00000,  -0.00044,  -0.00010,   0.00102,-5670976.00000,   0.00000
-297026500.99352,-166494931.38763,226471425.56494,  -0.00147,  -0.00028,   0.00396,469288800.00000,   0.00070,275401280.00000,  -0.00044,  -0.00010,   0.00102,-6112480.00000,   0.00000
-295503154.60081,-165622334.91026,226654818.72290,  -0.00147,  -0.00028,   0.00397,468828640.00000,   0.00070,275401280.00000,  -0.00044,  -0.00010,   0.00102,-6572640.00000,   0.00000
-293938396.84987,-164731990.70792,226838211.88086,  -0.00146,  -0.00027,   0.00397,468353504.00000,   0.00070,275401280.00000,  -0.00044,  -0.00010,   0.00102,-7047776.00000,   0.00000
-292373639.09892,-163841646.50559,227009773.22217,  -0.00146,  -0.00027,   0.00397,467866240.00000,   0.00070,275401280.00000,  -0.00044,  -0.00010,   0.00102,-7535040.00000,   0.00000
-290788175.66884,-162942428.44077,227175418.65516,  -0.00145,  -0.00027,   0.00397,467365440.00000,   0.00070,275401280.00000,  -0.00044,  -0.00010,   0.00102,-8035840.00000,   0.00000
-289170174.74300,-162046168.33011,227341064.08815,  -0.00144,  -0.00027,   0.00397,466854976.00000,   0.00070,275401280.00000,  -0.00044,  -0.00010,   0.00102,-8546304.00000,   0.00000
-287522594.27556,-161120328.67785,227494877.70450,  -0.00144,  -0.00027,   0.00398,466317152.00000,   0.00070,275401280.00000,  -0.00044,  -0.00010,   0.00102,-9084128.00000,   0.00000
-285883887.67059,-160215194.70471,227642775.41253,  -0.00143,  -0.00027,   0.00398,465778816.00000,   0.00070,275401280.00000,  -0.00044,  -0.00010,   0.00102,-9622464.00000,   0.00000
-284203769.70738,-159292313.00661,227784757.21224,  -0.00143,  -0.00027,   0.00398,465216256.00000,   0.00070,275401280.00000,  -0.00044,  -0.00010,   0.00102,-10185024.00000,   0.00000
-282511819.92753,-158381263.12515,227920823.10363,  -0.00142,  -0.00027,   0.00398,464642816.00000,   0.00070,275401280.00000,  -0.00044,  -0.00010,   0.00102,-10758464.00000,   0.00000
-280790290.60607,-157440633.70208,228045057.17837,  -0.00142,  -0.00027,   0.00398,464040640.00000,   0.00070,275401280.00000,  -0.00044,  -0.00010,   0.00102,-11360640.00000,   0.00000
-279056929.46797,-156511836.09566,228169291.25312,  -0.00141,  -0.00027,   0.00399,463436512.00000,   0.00070,275401280.00000,  -0.00044,  -0.00010,   0.00102,-11964768.00000,   0.00000
-277302862.65074,-155574164.62675,228287609.41954,  -0.00140,  -0.00027,   0.00399,462817376.00000,   0.00070,275401280.00000,  -0.00044,  -0.00010,   0.00102,-12583904.00000,   0.00000
-275528090.15439,-154627619.29537,228394095.76932,  -0.00140,  -0.00026,   0.00399,462174560.00000,   0.00070,275401280.00000,  -0.00044,  -0.00010,   0.00102,-13226720.00000,   0.00000
-273720780.16227,-153684031.91814,228500582.11910,  -0.00139,  -0.00026,   0.00399,461521952.00000,   0.00070,275401280.00000,  -0.00044,  -0.00010,   0.00102,-13879328.00000,   0.00000
-271913470.17015,-152740444.54091,228595236.65224,  -0.00138,  -0.00026,   0.00399,460856192.00000,   0.00070,275401280.00000,  -0.00044,  -0.00010,   0.00102,-14545088.00000,   0.00000
-270064748.81979,-151779109.43872,228689891.18538,  -0.00138,  -0.00026,   0.00399,460177344.00000,   0.00070,275401280.00000,  -0.00044,  -0.00010,   0.00102,-15223936.00000,   0.00000
-268195321.79030,-150808900.47405,228772713.90188,  -0.00137,  -0.00026,   0.00399,459477376.00000,   0.00070,275401280.00000,  -0.00044,  -0.00010,   0.00102,-15923904.00000,   0.00000
-266325894.76081,-149838691.50938,228849620.71005,  -0.00136,  -0.00026,   0.00399,458774688.00000,   0.00070,275401280.00000,  -0.00044,  -0.00010,   0.00102,-16626592.00000,   0.00000
-264423930.23555,-148871440.49887,228920611.60991,  -0.00136,  -0.00026,   0.00400,458055936.00000,   0.00070,275401280.00000,  -0.00044,  -0.00010,   0.00102,-17345344.00000,   0.00000
-262501260.03117,-147895315.62588,228985686.60144,  -0.00135,  -0.00026,   0.00400,457325728.00000,   0.00070,275401280.00000,  -0.00044,  -0.00010,   0.00102,-18075552.00000,   0.00000
-260566758.01015,-146931022.56953,229044845.68465,  -0.00134,  -0.00026,   0.00400,456588352.00000,   0.00070,275401280.00000,  -0.00044,  -0.00010,   0.00102,-18812928.00000,   0.00000
-258602676.44752,-145937149.97157,229098088.85954,  -0.00134,  -0.00026,   0.00400,455834688.00000,   0.00070,275401280.00000,  -0.00044,  -0.00010,   0.00102,-19566592.00000,   0.00000
-256626763.06825,-144955109.19026,229145416.12611,  -0.00133,  -0.00026,   0.00400,455072960.00000,   0.00070,275401280.00000,  -0.00044,  -0.00010,   0.00102,-20328320.00000,   0.00000
-254630144.00986,-143964194.54646,229186827.48436,  -0.00132,  -0.00026,   0.00400,454298688.00000,   0.00070,275401280.00000,  -0.00044,  -0.00010,   0.00102,-21102592.00000,   0.00000
-252592113.59322,-142955532.17770,229222322.93429,  -0.00132,  -0.00026,   0.00400,453502912.00000,   0.00070,275401280.00000,  -0.00044,  -0.00010,   0.00102,-21898368.00000,   0.00000
-250562957.03906,-141967575.48807,229251902.47589,  -0.00131,  -0.00026,   0.00400,452707040.00000,   0.00070,275401280.00000,  -0.00044,  -0.00010,   0.00102,-22694240.00000,   0.00000
-248513094.80577,-140970744.93595,229275566.10918,  -0.00130,  -0.00026,   0.00400,451897888.00000,   0.00070,275401280.00000,  -0.00044,  -0.00010,   0.00102,-23503392.00000,   0.00000
-246421821.21424,-139956166.65887,229293313.83414,  -0.00129,  -0.00025,   0.00400,451067264.00000,   0.00070,275401280.00000,  -0.00044,  -0.00010,   0.00102,-24334016.00000,   0.00000
-244318715.80606,-138953420.19843,229299229.74246,  -0.00129,  -0.00025,   0.00400,450218624.00000,   0.00070,275401280.00000,  -0.00044,  -0.00010,   0.00102,-25182656.00000,   0.00000
-242206736.53541,-137929968.05887,229305145.65078,  -0.00128,  -0.00025,   0.00400,449370304.00000,   0.00070,275401280.00000,  -0.00044,  -0.00010,   0.00102,-26030976.00000,   0.00000
-240062219.76898,-136909473.87347,229305145.65078,  -0.00127,  -0.00025,   0.00400,448505120.00000,   0.00070,275401280.00000,  -0.00044,  -0.00010,   0.00102,-26896160.00000,   0.00000
-237905871.18592,-135900811.50471,229293313.83414,  -0.00126,  -0.00025,   0.00400,447622880.00000,   0.00070,275401280.00000,  -0.00044,  -0.00010,   0.00102,-27778400.00000,   0.00000
-235719943.06124,-134862569.59434,229281482.01750,  -0.00125,  -0.00025,   0.00400,446733376.00000,   0.00070,275401280.00000,  -0.00044,  -0.00010,   0.00102,-28667904.00000,   0.00000
-233522183.11993,-133836159.50062,229257818.38421,  -0.00125,  -0.00025,   0.00400,445827296.00000,   0.00070,275401280.00000,  -0.00044,  -0.00010,   0.00102,-29573984.00000,   0.00000
-231312591.36197,-132821581.22354,229234154.75093,  -0.00124,  -0.00025,   0.00400,444922976.00000,   0.00070,275401280.00000,  -0.00044,  -0.00010,   0.00102,-30478304.00000,   0.00000
-229073420.06241,-131777423.40485,229198659.30100,  -0.00123,  -0.00025,   0.00400,443994144.00000,   0.00070,275401280.00000,  -0.00044,  -0.00010,   0.00102,-31407136.00000,   0.00000
-226822416.94621,-130745097.40281,229163163.85107,  -0.00122,  -0.00025,   0.00400,443066944.00000,   0.00070,275401280.00000,  -0.00044,  -0.00010,   0.00102,-32334336.00000,   0.00000
-224550708.15088,-129703897.53828,229115836.58451,  -0.00121,  -0.00025,   0.00400,442118976.00000,   0.00070,275401280.00000,  -0.00044,  -0.00010,   0.00102,-33282304.00000,   0.00000
-222267167.53891,-128674529.49040,229068509.31794,  -0.00121,  -0.00025,   0.00400,441172032.00000,   0.00070,275401280.00000,  -0.00044,  -0.00010,   0.00102,-34229248.00000,   0.00000
-219954047.38533,-127615581.90091,229009350.23472,  -0.00120,  -0.00025,   0.00400,440199232.00000,   0.00070,275401280.00000,  -0.00044,  -0.00010,   0.00102,-35202048.00000,   0.00000
-217617263.59847,-126580297.94471,228950191.15151,  -0.00119,  -0.00025,   0.00400,439222752.00000,   0.00070,275401280.00000,  -0.00044,  -0.00010,   0.00102,-36178528.00000,   0.00000
-215271605.94912,-125524308.30938,228879200.25166,  -0.00118,  -0.00025,   0.00399,438227104.00000,   0.00070,275401280.00000,  -0.00044,  -0.00010,   0.00102,-37174176.00000,   0.00000
-212914116.48314,-124480150.49069,228808209.35180,  -0.00117,  -0.00025,   0.00399,437230304.00000,   0.00070,275401280.00000,  -0.00044,  -0.00010,   0.00102,-38170976.00000,   0.00000
-210515215.65890,-123418244.94704,228725386.63531,  -0.00116,  -0.00025,   0.00399,436202592.00000,   0.00070,275401280.00000,  -0.00044,  -0.00010,   0.00102,-39198688.00000,   0.00000
-208116314.83467,-122356339.40339,228642563.91881,  -0.00115,  -0.00025,   0.00399,435176928.00000,   0.00070,275401280.00000,  -0.00044,  -0.00010,   0.00102,-40224352.00000,   0.00000
-205684876.51467,-121297391.81390,228547909.38567,  -0.00114,  -0.00025,   0.00399,434125824.00000,   0.00070,275401280.00000,  -0.00044,  -0.00010,   0.00102,-41275456.00000,   0.00000
-203253438.19467,-120238444.22441,228453254.85253,  -0.00113,  -0.00025,   0.00399,433077856.00000,   0.00070,275401280.00000,  -0.00044,  -0.00010,   0.00102,-42323424.00000,   0.00000
-200780588.51642,-119161748.90996,228352684.41107,  -0.00113,  -0.00025,   0.00399,432010400.00000,   0.00070,275401280.00000,  -0.00044,  -0.00010,   0.00102,-43390880.00000,   0.00000
-198295907.02153,-118096885.41215,228240282.15297,  -0.00112,  -0.00025,   0.00399,430928640.00000,   0.00070,275401280.00000,  -0.00044,  -0.00010,   0.00102,-44472640.00000,   0.00000
-195811225.52664,-117032021.91434,228127879.89487,  -0.00111,  -0.00025,   0.00398,429854528.00000,   0.00070,275401280.00000,  -0.00044,  -0.00010,   0.00102,-45546752.00000,   0.00000
-193285132.67350,-115949410.69157,228009561.72845,  -0.00110,  -0.00025,   0.00398,428765952.00000,   0.00070,275401280.00000,  -0.00044,  -0.00010,   0.00102,-46635328.00000,   0.00000
-190747208.00372,-114878631.28543,227879411.74538,  -0.00109,  -0.00025,   0.00398,427668256.00000,   0.00070,275401280.00000,  -0.00044,  -0.00010,   0.00102,-47733024.00000,   0.00000
-188209283.33394,-113807851.87930,227749261.76232,  -0.00108,  -0.00025,   0.00398,426583264.00000,   0.00070,275401280.00000,  -0.00044,  -0.00010,   0.00102,-48818016.00000,   0.00000
-185629947.30591,-112719324.74821,227613195.87093,  -0.00107,  -0.00025,   0.00398,425489152.00000,   0.00070,275401280.00000,  -0.00044,  -0.00010,   0.00102,-49912128.00000,   0.00000
-183038779.46124,-111642629.43375,227471214.07122,  -0.00106,  -0.00025,   0.00398,424398688.00000,   0.00070,275401280.00000,  -0.00044,  -0.00010,   0.00102,-51002592.00000,   0.00000
-180426905.93744,-110557060.25682,227323316.36319,  -0.00105,  -0.00025,   0.00397,423307904.00000,   0.00070,275401280.00000,  -0.00044,  -0.00010,   0.00102,-52093376.00000,   0.00000
-177815032.41364,-109471491.07989,227169502.74684,  -0.00104,  -0.00025,   0.00397,422223776.00000,   0.00070,275401280.00000,  -0.00044,  -0.00010,   0.00102,-53177504.00000,   0.00000
-175170621.39408,-108388879.85711,227009773.22217,  -0.00103,  -0.00025,   0.00397,421136224.00000,   0.00070,275401280.00000,  -0.00044,  -0.00010,   0.00102,-54265056.00000,   0.00000
-172505504.69540,-107297394.77186,226844127.78918,  -0.00102,  -0.00025,   0.00397,420047360.00000,   0.00070,275401280.00000,  -0.00044,  -0.00010,   0.00102,-55353920.00000,   0.00000
-169828556.18007,-106217741.50324,226672566.44786,  -0.00101,  -0.00025,   0.00397,418960448.00000,   0.00070,275401280.00000,  -0.00044,  -0.00010,   0.00102,-56440832.00000,   0.00000
-167142733.80226,-105117382.55551,226501005.10655,  -0.00100,  -0.00025,   0.00396,417883200.00000,   0.00070,275401280.00000,  -0.00044,  -0.00010,   0.00102,-57518080.00000,   0.00000
-164424373.92868,-104019981.56193,226317611.94859,  -0.00099,  -0.00025,   0.00396,416791648.00000,   0.00070,275401280.00000,  -0.00044,  -0.00010,   0.00102,-58609632.00000,   0.00000
-161694182.23846,-102934412.38499,226128302.88232,  -0.00098,  -0.00025,   0.00396,415700928.00000,   0.00070,275401280.00000,  -0.00044,  -0.00010,   0.00102,-59700352.00000,   0.00000
-158943284.86912,-101839969.34558,225938993.81604,  -0.00097,  -0.00025,   0.00396,414617792.00000,   0.00070,275401280.00000,  -0.00044,  -0.00010,   0.00102,-60783488.00000,   0.00000
-156192387.49977,-100745526.30616,225743768.84144,  -0.00096,  -0.00025,   0.00395,413538464.00000,   0.00070,275401280.00000,  -0.00044,  -0.00010,   0.00102,-61862816.00000,   0.00000
-153408952.63466,-99654041.22091,225536712.05020,  -0.00095,  -0.00025,   0.00395,412443616.00000,   0.00070,275401280.00000,  -0.00044,  -0.00010,   0.00102,-62957664.00000,   0.00000
-150604812.09043,-98553682.27317,225329655.25896,  -0.00094,  -0.00025,   0.00395,411356704.00000,   0.00070,275401280.00000,  -0.00044,  -0.00010,   0.00102,-64044576.00000,   0.00000
-147800671.54619,-97453323.32543,225116682.55940,  -0.00093,  -0.00025,   0.00395,410272736.00000,   0.00070,275401280.00000,  -0.00044,  -0.00010,   0.00102,-65128544.00000,   0.00000
-144963993.50619,-96355922.33185,224897793.95151,  -0.00092,  -0.00025,   0.00394,409185856.00000,   0.00070,275401280.00000,  -0.00044,  -0.00010,   0.00102,-66215424.00000,   0.00000
-142127315.46619,-95258521.33828,224678905.34363,  -0.00091,  -0.00025,   0.00394,408118848.00000,   0.00070,275401280.00000,  -0.00044,  -0.00010,   0.00102,-67282432.00000,   0.00000
-139249226.06795,-94143372.61974,224448184.91910,  -0.00089,  -0.00026,   0.00394,407044928.00000,   0.00070,275401280.00000,  -0.00044,  -0.00010,   0.00102,-68356352.00000,   0.00000
-136380010.53218,-93048929.58032,224211548.58626,  -0.00088,  -0.00026,   0.00393,405980320.00000,   0.00070,275401280.00000,  -0.00044,  -0.00010,   0.00102,-69420960.00000,   0.00000
-133469383.63816,-91936738.81594,223974912.25341,  -0.00087,  -0.00026,   0.00393,404902784.00000,   0.00070,275401280.00000,  -0.00044,  -0.00010,   0.00102,-70498496.00000,   0.00000
-130567630.60663,-90845253.73069,223732360.01224,  -0.00086,  -0.00026,   0.00393,403808928.00000,   0.00070,275401280.00000,  -0.00044,  -0.00010,   0.00102,-71592352.00000,   0.00000
-127615592.35437,-89715315.24134,223483891.86275,  -0.00085,  -0.00026,   0.00392,402705344.00000,   0.00070,275401280.00000,  -0.00044,  -0.00010,   0.00102,-72695936.00000,   0.00000
-124681301.82707,-88626788.11025,223229507.80494,  -0.00084,  -0.00026,   0.00392,401622592.00000,   0.00070,275401280.00000,  -0.00044,  -0.00010,   0.00102,-73778688.00000,   0.00000
-121717431.75816,-87508681.43755,222969207.83881,  -0.00083,  -0.00026,   0.00392,400548992.00000,   0.00070,275401280.00000,  -0.00044,  -0.00010,   0.00102,-74852288.00000,   0.00000
-118741729.87261,-86402406.58149,222702991.96436,  -0.00082,  -0.00026,   0.00391,399483072.00000,   0.00070,275401280.00000,  -0.00044,  -0.00010,   0.00102,-75918208.00000,   0.00000
-115754196.17042,-85307963.54207,222436776.08991,  -0.00080,  -0.00026,   0.00391,398433728.00000,   0.00070,275401280.00000,  -0.00044,  -0.00010,   0.00102,-76967552.00000,   0.00000
-112745956.78911,-84204646.64017,222158728.39881,  -0.00079,  -0.00026,   0.00391,397378752.00000,   0.00070,275401280.00000,  -0.00044,  -0.00010,   0.00102,-78022528.00000,   0.00000
-109717011.72867,-83092455.87579,221880680.70772,  -0.00078,  -0.00026,   0.00390,396341568.00000,   0.00070,275401280.00000,  -0.00044,  -0.00010,   0.00102,-79059712.00000,   0.00000
-106667360.98911,-81971391.24893,221596717.10830,  -0.00077,  -0.00026,   0.00390,395313120.00000,   0.00070,275401280.00000,  -0.00044,  -0.00010,   0.00102,-80088160.00000,   0.00000
-103605878.43290,-80862158.43871,221312753.50888,  -0.00076,  -0.00026,   0.00390,394305472.00000,   0.00070,275401280.00000,  -0.00044,  -0.00010,   0.00102,-81095808.00000,   0.00000
-100544395.87670,-79752925.62849,221016958.09283,  -0.00075,  -0.00027,   0.00389,393300064.00000,   0.00070,275401280.00000,  -0.00044,  -0.00010,   0.00102,-82101216.00000,   0.00000
-97450375.82473,-78646650.77244,220721162.67677,  -0.00073,  -0.00027,   0.00389,392310976.00000,   0.00070,275401280.00000,  -0.00044,  -0.00010,   0.00102,-83090304.00000,   0.00000
-94356355.77276,-77540375.91638,220419451.35239,  -0.00072,  -0.00027,   0.00388,391332128.00000,   0.00070,275401280.00000,  -0.00044,  -0.00010,   0.00102,-84069152.00000,   0.00000
-91229798.22502,-76437059.01448,220111824.11969,  -0.00071,  -0.00027,   0.00388,390356384.00000,   0.00070,275401280.00000,  -0.00044,  -0.00010,   0.00102,-85044896.00000,   0.00000
-88103240.67728,-75333742.11258,219798280.97866,  -0.00070,  -0.00027,   0.00388,389387776.00000,   0.00070,275401280.00000,  -0.00044,  -0.00010,   0.00102,-86013504.00000,   0.00000
-84955977.45042,-74221551.34820,219478821.92932,  -0.00069,  -0.00027,   0.00387,388421856.00000,   0.00070,275401280.00000,  -0.00044,  -0.00010,   0.00102,-86979424.00000,   0.00000
-81788008.54443,-73100486.72134,219159362.87998,  -0.00067,  -0.00027,   0.00387,387467872.00000,   0.00070,275401280.00000,  -0.00044,  -0.00010,   0.00102,-87933408.00000,   0.00000
-78608207.82180,-71991253.91112,218833987.92231,  -0.00066,  -0.00027,   0.00386,386515712.00000,   0.00070,275401280.00000,  -0.00044,  -0.00010,   0.00102,-88885568.00000,   0.00000
-75416575.28253,-70893852.91754,218502697.05633,  -0.00065,  -0.00027,   0.00386,385565600.00000,   0.00070,275401280.00000,  -0.00044,  -0.00010,   0.00102,-89835680.00000,   0.00000
-72204237.06414,-69787578.06149,218171406.19034,  -0.00064,  -0.00028,   0.00386,384627744.00000,   0.00070,275401280.00000,  -0.00044,  -0.00010,   0.00102,-90773536.00000,   0.00000
-68991898.84575,-68681303.20543,217828283.50772,  -0.00062,  -0.00028,   0.00385,383686240.00000,   0.00070,275401280.00000,  -0.00044,  -0.00010,   0.00102,-91715040.00000,   0.00000
-65758854.94823,-67566154.48689,217485160.82509,  -0.00061,  -0.00028,   0.00385,382758912.00000,   0.00070,275401280.00000,  -0.00044,  -0.00010,   0.00102,-92642368.00000,   0.00000
-62493273.55494,-66453963.72251,217142038.14246,  -0.00060,  -0.00028,   0.00384,381844960.00000,   0.00070,275401280.00000,  -0.00044,  -0.00010,   0.00102,-93556320.00000,   0.00000
-59236566.02414,-65362478.63725,216787083.64319,  -0.00059,  -0.00028,   0.00384,380930880.00000,   0.00070,275401280.00000,  -0.00044,  -0.00010,   0.00102,-94470400.00000,   0.00000
-55950278.95173,-64241414.01039,216432129.14392,  -0.00057,  -0.00028,   0.00383,380032736.00000,   0.00070,275401280.00000,  -0.00044,  -0.00010,   0.00102,-95368544.00000,   0.00000
-52661033.92516,-63152886.87929,216071258.73633,  -0.00056,  -0.00028,   0.00383,379143936.00000,   0.00070,275401280.00000,  -0.00044,  -0.00010,   0.00102,-96257344.00000,   0.00000
-49362915.03611,-62043654.06908,215704472.42042,  -0.00055,  -0.00028,   0.00382,378263232.00000,   0.00070,275401280.00000,  -0.00044,  -0.00010,   0.00102,-97138048.00000,   0.00000
-46032258.65129,-60937379.21302,215337686.10450,  -0.00054,  -0.00029,   0.00382,377399136.00000,   0.00070,275401280.00000,  -0.00044,  -0.00010,   0.00102,-98002144.00000,   0.00000
-42701602.26647,-59831104.35696,214964983.88027,  -0.00052,  -0.00029,   0.00381,376543616.00000,   0.00070,275401280.00000,  -0.00044,  -0.00010,   0.00102,-98857664.00000,   0.00000
-39359114.06501,-58736661.31754,214586365.74771,  -0.00051,  -0.00029,   0.00381,375696224.00000,   0.00070,275401280.00000,  -0.00044,  -0.00010,   0.00102,-99705056.00000,   0.00000
-35995920.18443,-57633344.41564,214201831.70684,  -0.00050,  -0.00029,   0.00380,374855488.00000,   0.00070,275401280.00000,  -0.00044,  -0.00010,   0.00102,-100545792.00000,   0.00000
-32620894.48720,-56541859.33039,213817297.66596,  -0.00048,  -0.00029,   0.00380,374033760.00000,   0.00070,275401280.00000,  -0.00044,  -0.00010,   0.00102,-101367520.00000,   0.00000
-29236994.92749,-55429668.56601,213426847.71677,  -0.00047,  -0.00029,   0.00379,373219008.00000,   0.00070,275401280.00000,  -0.00044,  -0.00010,   0.00102,-102182272.00000,   0.00000
-25829431.73450,-54341141.43491,213036397.76757,  -0.00046,  -0.00030,   0.00379,372427040.00000,   0.00070,275401280.00000,  -0.00044,  -0.00010,   0.00102,-102974240.00000,   0.00000
-22412994.67902,-53231908.62469,212634116.00173,  -0.00044,  -0.00030,   0.00378,371635040.00000,   0.00070,275401280.00000,  -0.00044,  -0.00010,   0.00102,-103766240.00000,   0.00000
-18993599.66939,-52155213.31024,212237750.14421,  -0.00043,  -0.00030,   0.00378,370881088.00000,   0.00070,275401280.00000,  -0.00044,  -0.00010,   0.00102,-104520192.00000,   0.00000
-15565330.79727,-51057812.31667,211829552.47005,  -0.00042,  -0.00030,   0.00377,370130336.00000,   0.00070,275401280.00000,  -0.00044,  -0.00010,   0.00102,-105270944.00000,   0.00000
-12104524.42939,-49963369.27725,211421354.79589,  -0.00040,  -0.00030,   0.00377,369407008.00000,   0.00070,275401280.00000,  -0.00044,  -0.00010,   0.00102,-105994272.00000,   0.00000
-8643718.06150,-48868926.23783,211007241.21341,  -0.00039,  -0.00030,   0.00376,368699424.00000,   0.00070,275401280.00000,  -0.00044,  -0.00010,   0.00102,-106701856.00000,   0.00000
-5171079.87698,-47786315.01506,210593127.63093,  -0.00037,  -0.00031,   0.00376,368017280.00000,   0.00070,275401280.00000,  -0.00044,  -0.00010,   0.00102,-107384000.00000,   0.00000
-1677736.01333,-46694829.92980,210173098.14012,  -0.00036,  -0.00031,   0.00375,367345952.00000,   0.00070,275401280.00000,  -0.00044,  -0.00010,   0.00102,-108055328.00000,   0.00000
1836313.52945,-45594470.98207,209747152.74100,  -0.00035,  -0.00031,   0.00375,366683296.00000,   0.00070,275401280.00000,  -0.00044,  -0.00010,   0.00102,-108717984.00000,   0.00000
5341489.20974,-44514817.71345,209321207.34187,  -0.00033,  -0.00031,   0.00374,366041792.00000,   0.00070,275401280.00000,  -0.00044,  -0.00010,   0.00102,-109359488.00000,   0.00000
8867370.56916,-43426290.58236,208889346.03443,  -0.00032,  -0.00031,   0.00373,365410880.00000,   0.00070,275401280.00000,  -0.00044,  -0.00010,   0.00102,-109990400.00000,   0.00000
12405083.74522,-42349595.26790,208451568.81866,  -0.00031,  -0.00032,   0.00373,364796288.00000,   0.00070,275401280.00000,  -0.00044,  -0.00010,   0.00102,-110604992.00000,   0.00000
15942796.92127,-41272899.95345,208013791.60290,  -0.00029,  -0.00032,   0.00372,364209024.00000,   0.00070,275401280.00000,  -0.00044,  -0.00010,   0.00102,-111192256.00000,   0.00000
19521921.45558,-40178456.91404,207570098.47881,  -0.00028,  -0.00032,   0.00372,363643712.00000,   0.00070,275401280.00000,  -0.00044,  -0.00010,   0.00102,-111757568.00000,   0.00000
23092172.12741,-39104719.55374,207126405.35472,  -0.00026,  -0.00032,   0.00371,363112832.00000,   0.00070,275401280.00000,  -0.00044,  -0.00010,   0.00102,-112288448.00000,   0.00000
26683128.47836,-38022108.33097,206676796.32231,  -0.00025,  -0.00032,   0.00371,362605984.00000,   0.00070,275401280.00000,  -0.00044,  -0.00010,   0.00102,-112795296.00000,   0.00000
30274084.82931,-36939497.10820,206227187.28990,  -0.00023,  -0.00033,   0.00370,362131936.00000,   0.00070,275401280.00000,  -0.00044,  -0.00010,   0.00102,-113269344.00000,   0.00000
33876872.99690,-35868717.70206,205771662.34917,  -0.00022,  -0.00033,   0.00369,361684224.00000,   0.00070,275401280.00000,  -0.00044,  -0.00010,   0.00102,-113717056.00000,   0.00000
37491492.98113,-34809770.11258,205310221.50012,  -0.00021,  -0.00033,   0.00369,361271040.00000,   0.00070,275401280.00000,  -0.00044,  -0.00010,   0.00102,-114130240.00000,   0.00000
41135692.50697,-33721242.98148,204848780.65107,  -0.00019,  -0.00033,   0.00368,360902528.00000,   0.00070,275401280.00000,  -0.00044,  -0.00010,   0.00102,-114498752.00000,   0.00000
44771018.17033,-32653421.52951,204381423.89370,  -0.00018,  -0.00033,   0.00368,360544480.00000,   0.00070,275401280.00000,  -0.00044,  -0.00010,   0.00102,-114856800.00000,   0.00000
48418175.65033,-31597431.89418,203914067.13633,  -0.00016,  -0.00034,   0.00367,360213248.00000,   0.00070,275401280.00000,  -0.00044,  -0.00010,   0.00102,-115188032.00000,   0.00000
52094912.67194,-30511862.71725,203440794.47063,  -0.00015,  -0.00034,   0.00366,359910208.00000,   0.00070,275401280.00000,  -0.00044,  -0.00010,   0.00102,-115491072.00000,   0.00000
55753901.96858,-29467704.89856,202967521.80494,  -0.00013,  -0.00034,   0.00366,359647840.00000,   0.00070,275401280.00000,  -0.00044,  -0.00010,   0.00102,-115753440.00000,   0.00000
59442470.80683,-28393967.53827,202488333.23092,  -0.00012,  -0.00034,   0.00365,359412000.00000,   0.00070,275401280.00000,  -0.00044,  -0.00010,   0.00102,-115989280.00000,   0.00000
63142871.46172,-27332061.99462,202009144.65691,  -0.00010,  -0.00035,   0.00365,359214912.00000,   0.00070,275401280.00000,  -0.00044,  -0.00010,   0.00102,-116186368.00000,   0.00000
66834398.25413,-26290862.13009,201524040.17457,  -0.00009,  -0.00035,   0.00364,359040896.00000,   0.00070,275401280.00000,  -0.00044,  -0.00010,   0.00102,-116360384.00000,   0.00000
70555504.58814,-25220082.72396,201038935.69224,  -0.00007,  -0.00035,   0.00363,358896736.00000,   0.00070,275401280.00000,  -0.00044,  -0.00010,   0.00102,-116504544.00000,   0.00000
74288442.73880,-24161135.13447,200547915.30158,  -0.00006,  -0.00035,   0.00363,358771616.00000,   0.00070,275401280.00000,  -0.00044,  -0.00010,   0.00102,-116629664.00000,   0.00000
78012507.02698,-23122893.22411,200050979.00260,  -0.00004,  -0.00036,   0.00362,358660288.00000,   0.00070,275401280.00000,  -0.00044,  -0.00010,   0.00102,-116740992.00000,   0.00000
81757276.99428,-22075777.45126,199559958.61195,  -0.00003,  -0.00036,   0.00361,358584512.00000,   0.00070,275401280.00000,  -0.00044,  -0.00010,   0.00102,-116816768.00000,   0.00000
85502046.96158,-21028661.67841,199057106.40465,  -0.00001,  -0.00036,   0.00361,358512736.00000,   0.00070,275401280.00000,  -0.00044,  -0.00010,   0.00102,-116888544.00000,   0.00000
89288228.28712,-19963798.18060,198560170.10567,   0.00000,  -0.00036,   0.00360,358483808.00000,   0.00070,275401280.00000,  -0.00044,  -0.00010,   0.00102,-116917472.00000,   0.00000
93044830.07107,-18928514.22440,198051401.99005,   0.00002,  -0.00037,   0.00359,358458752.00000,   0.00070,275401280.00000,  -0.00044,  -0.00010,   0.00102,-116942528.00000,   0.00000
96833969.35078,-17896188.22235,197548549.78275,   0.00003,  -0.00037,   0.00359,358479552.00000,   0.00070,275401280.00000,  -0.00044,  -0.00010,   0.00102,-116921728.00000,   0.00000
100631982.49297,-16843156.54119,197039781.66713,   0.00005,  -0.00037,   0.00358,358516000.00000,   0.00070,275401280.00000,  -0.00044,  -0.00010,   0.00102,-116885280.00000,   0.00000
104421121.77267,-15810830.53914,196525097.64319,   0.00006,  -0.00037,   0.00357,358570528.00000,   0.00070,275401280.00000,  -0.00044,  -0.00010,   0.00102,-116830752.00000,   0.00000
108222092.86903,-14790336.35374,196010413.61924,   0.00008,  -0.00038,   0.00357,358657792.00000,   0.00070,275401280.00000,  -0.00044,  -0.00010,   0.00102,-116743488.00000,   0.00000
112052643.50698,-13740262.62673,195495729.59530,   0.00009,  -0.00038,   0.00356,358778048.00000,   0.00070,275401280.00000,  -0.00044,  -0.00010,   0.00102,-116623232.00000,   0.00000
115895025.96158,-12702020.71637,194975129.66304,   0.00011,  -0.00038,   0.00355,358926688.00000,   0.00070,275401280.00000,  -0.00044,  -0.00010,   0.00102,-116474592.00000,   0.00000
119707828.87457,-11693358.34761,194454529.73078,   0.00012,  -0.00039,   0.00355,359107968.00000,   0.00070,275401280.00000,  -0.00044,  -0.00010,   0.00102,-116293312.00000,   0.00000
123562043.14582,-10666948.25389,193928013.89019,   0.00014,  -0.00039,   0.00354,359332832.00000,   0.00070,275401280.00000,  -0.00044,  -0.00010,   0.00102,-116068448.00000,   0.00000
127416257.41706,-9640538.16016,193401498.04961,   0.00015,  -0.00039,   0.00353,359615840.00000,   0.00070,275401280.00000,  -0.00044,  -0.00010,   0.00102,-115785440.00000,   0.00000
131291177.36742,-8605254.20396,192874982.20903,   0.00017,  -0.00039,   0.00353,359989216.00000,   0.00070,275401280.00000,  -0.00044,  -0.00010,   0.00102,-115412064.00000,   0.00000
135157223.45531,-7590675.92688,192342550.46012,   0.00019,  -0.00040,   0.00352,360461312.00000,   0.00070,275401280.00000,  -0.00044,  -0.00010,   0.00102,-114939968.00000,   0.00000
139023269.54319,-6576097.64980,191804202.80289,   0.00020,  -0.00040,   0.00351,360991136.00000,   0.00070,275401280.00000,  -0.00044,  -0.00010,   0.00102,-114410144.00000,   0.00000
142921853.12684,-5564477.32688,191271771.05399,   0.00022,  -0.00040,   0.00351,361531680.00000,   0.00070,275401280.00000,  -0.00044,  -0.00010,   0.00102,-113869600.00000,   0.00000
146799731.03137,-4561730.86644,190733423.39676,   0.00023,  -0.00041,   0.00350,362044928.00000,   0.00070,275401280.00000,  -0.00044,  -0.00010,   0.00102,-113356352.00000,   0.00000
150698314.61502,-3550110.54352,190195075.73954,   0.00025,  -0.00041,   0.00349,362592384.00000,   0.00070,275401280.00000,  -0.00044,  -0.00010,   0.00102,-112808896.00000,   0.00000
154608730.01531,-2550322.03724,189650812.17399,   0.00026,  -0.00041,   0.00348,363183840.00000,   0.00070,275401280.00000,  -0.00044,  -0.00010,   0.00102,-112217440.00000,   0.00000
158539851.09473,-1541659.66848,189106548.60844,   0.00028,  -0.00041,   0.00348,363833344.00000,   0.00070,275401280.00000,  -0.00044,  -0.00010,   0.00102,-111567936.00000,   0.00000
162450266.49502,-541871.16221,188562285.04289,   0.00030,  -0.00042,   0.00347,364526784.00000,   0.00070,275401280.00000,  -0.00044,  -0.00010,   0.00102,-110874496.00000,   0.00000
166372513.71195,446085.52743,188012105.56902,   0.00031,  -0.00042,   0.00346,365267328.00000,   0.00070,275401280.00000,  -0.00044,  -0.00010,   0.00102,-110133952.00000,   0.00000
170324340.47049,1463621.75867,187461926.09516,   0.00033,  -0.00042,   0.00346,366057472.00000,   0.00070,275401280.00000,  -0.00044,  -0.00010,   0.00102,-109343808.00000,   0.00000
174258419.50407,2439746.63166,186905830.71297,   0.00034,  -0.00043,   0.00345,366873984.00000,   0.00070,275401280.00000,  -0.00044,  -0.00010,   0.00102,-108527296.00000,   0.00000
178222078.07925,3445451.04626,186355651.23910,   0.00036,  -0.00043,   0.00344,367730304.00000,   0.00070,275401280.00000,  -0.00044,  -0.00010,   0.00102,-107670976.00000,   0.00000
182176862.79196,4430449.78174,185799555.85691,   0.00038,  -0.00043,   0.00343,368590624.00000,   0.00070,275401280.00000,  -0.00044,  -0.00010,   0.00102,-106810656.00000,   0.00000
186152353.18378,5424322.37969,185243460.47472,   0.00039,  -0.00044,   0.00343,369461504.00000,   0.00070,275401280.00000,  -0.00044,  -0.00010,   0.00102,-105939776.00000,   0.00000
190118969.71312,6397489.29853,184681449.18421,   0.00041,  -0.00044,   0.00342,370319552.00000,   0.00070,275401280.00000,  -0.00044,  -0.00010,   0.00102,-105081728.00000,   0.00000
194085586.24247,7370656.21736,184119437.89370,   0.00042,  -0.00044,   0.00341,371170912.00000,   0.00070,275401280.00000,  -0.00044,  -0.00010,   0.00102,-104230368.00000,   0.00000
198072908.45094,8352696.99867,183557426.60318,   0.00044,  -0.00045,   0.00341,372026624.00000,   0.00070,275401280.00000,  -0.00044,  -0.00010,   0.00102,-103374656.00000,   0.00000
202080936.33853,9343611.64247,182995415.31267,   0.00046,  -0.00045,   0.00340,372894688.00000,   0.00070,275401280.00000,  -0.00044,  -0.00010,   0.00102,-102506592.00000,   0.00000
206059384.68451,10304946.74466,182427488.11384,   0.00047,  -0.00045,   0.00339,373759456.00000,   0.00070,275401280.00000,  -0.00044,  -0.00010,   0.00102,-101641824.00000,   0.00000
210079244.38875,11284029.57181,181859560.91501,   0.00049,  -0.00046,   0.00338,374662560.00000,   0.00070,275401280.00000,  -0.00044,  -0.00010,   0.00102,-100738720.00000,   0.00000
214069524.55138,12233532.85736,181291633.71618,   0.00051,  -0.00046,   0.00338,375578624.00000,   0.00070,275401280.00000,  -0.00044,  -0.00010,   0.00102,-99822656.00000,   0.00000
218089384.25561,13212615.68451,180717790.60902,   0.00052,  -0.00046,   0.00337,376514400.00000,   0.00070,275401280.00000,  -0.00044,  -0.00010,   0.00102,-98886880.00000,   0.00000
222121075.77649,14179866.69502,180149863.41019,   0.00054,  -0.00047,   0.00336,377497472.00000,   0.00070,275401280.00000,  -0.00044,  -0.00010,   0.00102,-97903808.00000,   0.00000
226123187.75576,15117538.16393,179576020.30304,   0.00055,  -0.00047,   0.00335,378514048.00000,   0.00070,275401280.00000,  -0.00044,  -0.00010,   0.00102,-96887232.00000,   0.00000
230154879.27663,16084789.17444,178996261.28756,   0.00057,  -0.00047,   0.00335,379600384.00000,   0.00070,275401280.00000,  -0.00044,  -0.00010,   0.00102,-95800896.00000,   0.00000
234198402.61415,17040208.36831,178422418.18041,   0.00059,  -0.00048,   0.00334,380778976.00000,   0.00070,275401280.00000,  -0.00044,  -0.00010,   0.00102,-94622304.00000,   0.00000
238241925.95167,17995627.56218,177842659.16494,   0.00060,  -0.00048,   0.00333,382029184.00000,   0.00070,275401280.00000,  -0.00044,  -0.00010,   0.00102,-93372096.00000,   0.00000
242276575.42671,18930341.07692,177268816.05778,   0.00062,  -0.00048,   0.00332,383381504.00000,   0.00070,275401280.00000,  -0.00044,  -0.00010,   0.00102,-92019776.00000,   0.00000
246331930.58087,19873928.45415,176689057.04231,   0.00064,  -0.00049,   0.00332,384850048.00000,   0.00070,275401280.00000,  -0.00044,  -0.00010,   0.00102,-90551232.00000,   0.00000
250387285.73503,20817515.83137,176103382.11851,   0.00065,  -0.00049,   0.00331,386435520.00000,   0.00070,275401280.00000,  -0.00044,  -0.00010,   0.00102,-88965760.00000,   0.00000
254442640.88919,21761103.20860,175523623.10304,   0.00067,  -0.00050,   0.00330,388121536.00000,   0.00070,275401280.00000,  -0.00044,  -0.00010,   0.00102,-87279744.00000,   0.00000
258518701.72248,22713564.44831,174937948.17924,   0.00069,  -0.00050,   0.00329,389879424.00000,   0.00070,275401280.00000,  -0.00044,  -0.00010,   0.00102,-85521856.00000,   0.00000
262565183.01416,23636446.14641,174358189.16377,   0.00070,  -0.00050,   0.00329,391645888.00000,   0.00070,275401280.00000,  -0.00044,  -0.00010,   0.00102,-83755392.00000,   0.00000
266653075.66408,24577075.56948,173772514.23997,   0.00072,  -0.00051,   0.00328,393374496.00000,   0.00070,275401280.00000,  -0.00044,  -0.00010,   0.00102,-82026784.00000,   0.00000
270711388.77241,25488125.45094,173186839.31618,   0.00074,  -0.00051,   0.00327,395048864.00000,   0.00070,275401280.00000,  -0.00044,  -0.00010,   0.00102,-80352416.00000,   0.00000
274799281.42233,26428754.87400,172595248.48406,   0.00075,  -0.00051,   0.00326,396711616.00000,   0.00070,275401280.00000,  -0.00044,  -0.00010,   0.00102,-78689664.00000,   0.00000
278878300.20978,27348678.61794,172009573.56026,   0.00077,  -0.00052,   0.00326,398381664.00000,   0.00070,275401280.00000,  -0.00044,  -0.00010,   0.00102,-77019616.00000,   0.00000
282978024.67635,28277476.22437,171417982.72815,   0.00079,  -0.00052,   0.00325,400061184.00000,   0.00070,275401280.00000,  -0.00044,  -0.00010,   0.00102,-75340096.00000,   0.00000
287048169.60131,29176694.28919,170826391.89603,   0.00080,  -0.00053,   0.00324,401737600.00000,   0.00070,275401280.00000,  -0.00044,  -0.00010,   0.00102,-73663680.00000,   0.00000
291147894.06788,30105491.89561,170240716.97223,   0.00082,  -0.00053,   0.00323,403443904.00000,   0.00070,275401280.00000,  -0.00044,  -0.00010,   0.00102,-71957376.00000,   0.00000
295238744.67197,31013583.82291,169649126.14012,   0.00084,  -0.00053,   0.00322,405157600.00000,   0.00070,275401280.00000,  -0.00044,  -0.00010,   0.00102,-70243680.00000,   0.00000
299350300.95518,31930549.61269,169051619.39968,   0.00086,  -0.00054,   0.00322,406898528.00000,   0.00070,275401280.00000,  -0.00044,  -0.00010,   0.00102,-68502752.00000,   0.00000
303441151.55927,32838641.53999,168460028.56756,   0.00087,  -0.00054,   0.00321,408667488.00000,   0.00070,275401280.00000,  -0.00044,  -0.00010,   0.00102,-66733792.00000,   0.00000
307543833.98000,33734901.65065,167868437.73545,   0.00089,  -0.00054,   0.00320,410490112.00000,   0.00070,275401280.00000,  -0.00044,  -0.00010,   0.00102,-64911168.00000,   0.00000
311667222.07986,34640035.62379,167270930.99501,   0.00091,  -0.00055,   0.00319,412370304.00000,   0.00070,275401280.00000,  -0.00044,  -0.00010,   0.00102,-63030976.00000,   0.00000
315769904.50059,35536295.73444,166679340.16289,   0.00092,  -0.00055,   0.00319,414306624.00000,   0.00070,275401280.00000,  -0.00044,  -0.00010,   0.00102,-61094656.00000,   0.00000
319893292.60044,36441429.70758,166081833.42245,   0.00094,  -0.00056,   0.00318,416315264.00000,   0.00070,275401280.00000,  -0.00044,  -0.00010,   0.00102,-59086016.00000,   0.00000
323987101.15869,37316984.13911,165484326.68201,   0.00096,  -0.00056,   0.00317,418380480.00000,   0.00070,275401280.00000,  -0.00044,  -0.00010,   0.00102,-57020800.00000,   0.00000
328110489.25855,38222118.11225,164892735.84990,   0.00097,  -0.00056,   0.00316,420531584.00000,   0.00070,275401280.00000,  -0.00044,  -0.00010,   0.00102,-54869696.00000,   0.00000
332225003.49592,39106546.40627,164295229.10946,   0.00099,  -0.00057,   0.00315,422728640.00000,   0.00070,275401280.00000,  -0.00044,  -0.00010,   0.00102,-52672640.00000,   0.00000
336360223.41242,39999848.56276,163697722.36902,   0.00101,  -0.00057,   0.00315,424969792.00000,   0.00070,275401280.00000,  -0.00044,  -0.00010,   0.00102,-50431488.00000,   0.00000
340465863.78731,40863571.17765,163100215.62858,   0.00102,  -0.00058,   0.00314,427208160.00000,   0.00070,275401280.00000,  -0.00044,  -0.00010,   0.00102,-48193120.00000,   0.00000
344601083.70380,41756873.33415,162502708.88815,   0.00104,  -0.00058,   0.00313,429460416.00000,   0.00070,275401280.00000,  -0.00044,  -0.00010,   0.00102,-45940864.00000,   0.00000
