# sigma_xx, sigma_yy, sigma_xy, epsilon_xx, epsilon_yy, epsilon_xy, vonMises, epsPlastic, hardening, epsilonP__xx, epsilonP__yy, epsilonP__xy, yieldValue, iteration
   0.00000,   0.00000,   0.00000,   0.00000,   0.00000,   0.00000,   0.00000,   0.00000,274640135.82653,   0.00000,   0.00000,   0.00000,-474640135.82653,   0.00000
   0.00000,   0.00000,   0.00000,   0.00000,   0.00000,   0.00000,   0.00000,   0.00000,274640135.82653,   0.00000,   0.00000,   0.00000,-474640135.82653,   0.00000
601866.46741,1283224.73240,77220.60337,   0.00000,   0.00000,   0.00000,1120030.39539,   0.00000,274640135.82653,   0.00000,   0.00000,   0.00000,-473520105.43114,   0.00000
1212817.71168,2557364.68793,149898.81830,   0.00000,   0.00001,   0.00000,2230881.60315,   0.00000,274640135.82653,   0.00000,   0.00000,   0.00000,-472409254.22338,   0.00000
1823768.95595,3831504.64346,218034.64480,   0.00000,   0.00001,   0.00000,3340868.02092,   0.00000,274640135.82653,   0.00000,   0.00000,   0.00000,-471299267.80561,   0.00000
2443804.97710,5096559.82212,286170.47130,   0.00000,   0.00002,   0.00000,4442722.94242,   0.00000,274640135.82653,   0.00000,   0.00000,   0.00000,-470197412.88411,   0.00000
3063840.99824,6361615.00078,354306.29779,   0.00000,   0.00002,   0.00000,5544627.04645,   0.00000,274640135.82653,   0.00000,   0.00000,   0.00000,-469095508.78008,   0.00000
3677063.43673,7610771.81993,417899.73586,   0.00000,   0.00003,   0.00001,6631988.61550,   0.00000,274640135.82653,   0.00000,   0.00000,   0.00000,-468008147.21103,   0.00000
4290285.87522,8859928.63908,481493.17393,   0.00000,   0.00003,   0.00001,7719376.18688,   0.00000,274640135.82653,   0.00000,   0.00000,   0.00000,-466920759.63965,   0.00000
4912593.09057,10100000.68136,540544.22356,   0.00000,   0.00004,   0.00001,8797894.93276,   0.00000,274640135.82653,   0.00000,   0.00000,   0.00000,-465842240.89377,   0.00000
5528086.72328,11324174.36412,599595.27319,   0.00000,   0.00004,   0.00001,9862768.03791,   0.00000,274640135.82653,   0.00000,   0.00000,   0.00000,-464777367.78862,   0.00000
6159478.71550,12555161.62954,654103.93439,   0.00000,   0.00005,   0.00001,10932591.94494,   0.00000,274640135.82653,   0.00000,   0.00000,   0.00000,-463707543.88159,   0.00000
6784057.12508,13770250.53543,708612.59559,   0.00000,   0.00005,   0.00001,11988805.61431,   0.00000,274640135.82653,   0.00000,   0.00000,   0.00000,-462651330.21222,   0.00000
7408635.53465,14985339.44133,763121.25679,   0.00000,   0.00005,   0.00001,13045091.89431,   0.00000,274640135.82653,   0.00000,   0.00000,   0.00000,-461595043.93222,   0.00000
8042298.72109,16191343.57036,813087.52955,   0.00001,   0.00006,   0.00001,14092760.11420,   0.00000,274640135.82653,   0.00000,   0.00000,   0.00000,-460547375.71233,   0.00000
8675961.90753,17397347.69939,858511.41389,   0.00001,   0.00006,   0.00001,15139762.93097,   0.00000,274640135.82653,   0.00000,   0.00000,   0.00000,-459500372.89556,   0.00000
9302811.51132,18587453.46891,908477.68665,   0.00001,   0.00007,   0.00001,16173934.19978,   0.00000,274640135.82653,   0.00000,   0.00000,   0.00000,-458466201.62675,   0.00000
9945559.47463,19784372.82107,953901.57099,   0.00001,   0.00007,   0.00001,17213328.82530,   0.00000,274640135.82653,   0.00000,   0.00000,   0.00000,-457426807.00123,   0.00000
10581493.85528,20965393.81372,994783.06688,   0.00001,   0.00007,   0.00001,18238403.00604,   0.00000,274640135.82653,   0.00000,   0.00000,   0.00000,-456401732.82049,   0.00000
11210614.65329,22130516.44685,1035664.56278,   0.00001,   0.00008,   0.00001,19249902.60767,   0.00000,274640135.82653,   0.00000,   0.00000,   0.00000,-455390233.21886,   0.00000
11855633.81081,23302452.66263,1076546.05868,   0.00001,   0.00008,   0.00001,20267507.53639,   0.00000,274640135.82653,   0.00000,   0.00000,   0.00000,-454372628.29013,   0.00000
12493839.38569,24458490.51890,1112885.16615,   0.00001,   0.00009,   0.00001,21270845.51865,   0.00000,274640135.82653,   0.00000,   0.00000,   0.00000,-453369290.30788,   0.00000
13132044.96056,25614528.37516,1149224.27362,   0.00001,   0.00009,   0.00001,22274327.81826,   0.00000,274640135.82653,   0.00000,   0.00000,   0.00000,-452365808.00827,   0.00000
13779335.31230,26761481.45456,1181020.99265,   0.00001,   0.00009,   0.00002,23269636.36653,   0.00000,274640135.82653,   0.00000,   0.00000,   0.00000,-451370499.46000,   0.00000
14410727.30452,27901620.95131,1212817.71168,   0.00001,   0.00010,   0.00002,24259011.57669,   0.00000,274640135.82653,   0.00000,   0.00000,   0.00000,-450381124.24984,   0.00000
15067102.43313,29039489.25384,1244614.43071,   0.00001,   0.00010,   0.00002,25247093.85067,   0.00000,274640135.82653,   0.00000,   0.00000,   0.00000,-449393041.97586,   0.00000
15700765.61957,30154645.61421,1271868.76131,   0.00001,   0.00011,   0.00002,26214854.95797,   0.00000,274640135.82653,   0.00000,   0.00000,   0.00000,-448425280.86856,   0.00000
16350327.16553,31276615.55723,1299123.09191,   0.00001,   0.00011,   0.00002,27188971.00971,   0.00000,274640135.82653,   0.00000,   0.00000,   0.00000,-447451164.81682,   0.00000
16993075.12883,32382687.14073,1321835.03408,   0.00001,   0.00011,   0.00002,28148949.12611,   0.00000,274640135.82653,   0.00000,   0.00000,   0.00000,-446491186.70042,   0.00000
17651721.45166,33495572.30687,1349089.36468,   0.00001,   0.00012,   0.00002,29116013.60916,   0.00000,274640135.82653,   0.00000,   0.00000,   0.00000,-445524122.21737,   0.00000
18303554.19183,34592559.11351,1371801.30685,   0.00002,   0.00012,   0.00002,30068986.98299,   0.00000,274640135.82653,   0.00000,   0.00000,   0.00000,-444571148.84354,   0.00000
18948573.34935,35673647.56062,1389970.86058,   0.00002,   0.00013,   0.00002,31007884.34888,   0.00000,274640135.82653,   0.00000,   0.00000,   0.00000,-443632251.47765,   0.00000
19609490.86639,36761549.59039,1408140.41431,   0.00002,   0.00013,   0.00002,31953356.12542,   0.00000,274640135.82653,   0.00000,   0.00000,   0.00000,-442686779.70111,   0.00000
20263594.80078,37833553.26064,1426309.96804,   0.00002,   0.00013,   0.00002,32885411.86915,   0.00000,274640135.82653,   0.00000,   0.00000,   0.00000,-441754723.95738,   0.00000
20917698.73517,38905556.93089,1444479.52178,   0.00002,   0.00014,   0.00002,33817707.26617,   0.00000,274640135.82653,   0.00000,   0.00000,   0.00000,-440822428.56036,   0.00000
21564989.08691,39961662.24162,1458106.68708,   0.00002,   0.00014,   0.00002,34735984.49201,   0.00000,274640135.82653,   0.00000,   0.00000,   0.00000,-439904151.33452,   0.00000
22228177.79817,41024581.13501,1471733.85238,   0.00002,   0.00014,   0.00002,35660965.54445,   0.00000,274640135.82653,   0.00000,   0.00000,   0.00000,-438979170.28208,   0.00000
22884552.92677,42071601.66887,1480818.62924,   0.00002,   0.00015,   0.00002,36571998.93327,   0.00000,274640135.82653,   0.00000,   0.00000,   0.00000,-438068136.89326,   0.00000
23534114.47273,43102723.84322,1489903.40611,   0.00002,   0.00015,   0.00002,37469645.66401,   0.00000,274640135.82653,   0.00000,   0.00000,   0.00000,-437170490.16252,   0.00000
24199574.37820,44140659.60022,1498988.18298,   0.00002,   0.00015,   0.00002,38374118.25239,   0.00000,274640135.82653,   0.00000,   0.00000,   0.00000,-436266017.57414,   0.00000
24858220.70103,45162696.99771,1508072.95984,   0.00003,   0.00016,   0.00002,39265237.79709,   0.00000,274640135.82653,   0.00000,   0.00000,   0.00000,-435374898.02944,   0.00000
25510053.44120,46168836.03568,1512615.34828,   0.00003,   0.00016,   0.00002,40142481.09484,   0.00000,274640135.82653,   0.00000,   0.00000,   0.00000,-434497654.73169,   0.00000
26177784.54089,47181788.65629,1517157.73671,   0.00003,   0.00016,   0.00002,41026676.55773,   0.00000,274640135.82653,   0.00000,   0.00000,   0.00000,-433613459.26880,   0.00000
26845515.64058,48194741.27691,1521700.12514,   0.00003,   0.00017,   0.00002,41911201.72253,   0.00000,274640135.82653,   0.00000,   0.00000,   0.00000,-432728934.10400,   0.00000
27506433.15762,49191795.53801,1526242.51358,   0.00003,   0.00017,   0.00002,42782403.22924,   0.00000,274640135.82653,   0.00000,   0.00000,   0.00000,-431857732.59729,   0.00000
28176435.45152,50179765.02225,1526242.51358,   0.00003,   0.00017,   0.00002,43646553.94130,   0.00000,274640135.82653,   0.00000,   0.00000,   0.00000,-430993581.88523,   0.00000
28839624.16278,51151836.14696,1526242.51358,   0.00003,   0.00018,   0.00002,44497446.91522,   0.00000,274640135.82653,   0.00000,   0.00000,   0.00000,-430142688.91131,   0.00000
29502812.87404,52123907.27168,1526242.51358,   0.00003,   0.00018,   0.00002,45348693.94898,   0.00000,274640135.82653,   0.00000,   0.00000,   0.00000,-429291441.87755,   0.00000
30166001.58529,53095978.39640,1521700.12514,   0.00003,   0.00018,   0.00002,46199825.96124,   0.00000,274640135.82653,   0.00000,   0.00000,   0.00000,-428440309.86529,   0.00000
30838275.07342,54058964.74425,1517157.73671,   0.00003,   0.00019,   0.00002,47044563.51749,   0.00000,274640135.82653,   0.00000,   0.00000,   0.00000,-427595572.30904,   0.00000
31503734.97889,55006052.73259,1512615.34828,   0.00004,   0.00019,   0.00002,47876080.27913,   0.00000,274640135.82653,   0.00000,   0.00000,   0.00000,-426764055.54740,   0.00000
32162381.30171,55937242.36141,1508072.95984,   0.00004,   0.00019,   0.00002,48694371.21843,   0.00000,274640135.82653,   0.00000,   0.00000,   0.00000,-425945764.60810,   0.00000
32836925.98405,56875245.57287,1498988.18298,   0.00004,   0.00019,   0.00002,49519591.42172,   0.00000,274640135.82653,   0.00000,   0.00000,   0.00000,-425120544.40481,   0.00000
33495572.30687,57806435.20169,1489903.40611,   0.00004,   0.00020,   0.00002,50338227.23607,   0.00000,274640135.82653,   0.00000,   0.00000,   0.00000,-424301908.59046,   0.00000
34179201.76608,58735353.63630,1480818.62924,   0.00004,   0.00020,   0.00002,51157702.92779,   0.00000,274640135.82653,   0.00000,   0.00000,   0.00000,-423482432.89874,   0.00000
34840119.28312,59641560.12873,1471733.85238,   0.00004,   0.00020,   0.00002,51956987.39084,   0.00000,274640135.82653,   0.00000,   0.00000,   0.00000,-422683148.43569,   0.00000
35516935.15968,60554580.20382,1462649.07551,   0.00004,   0.00021,   0.00002,52763764.03396,   0.00000,274640135.82653,   0.00000,   0.00000,   0.00000,-421876371.79257,   0.00000
36186937.45358,61451701.91939,1449021.91021,   0.00004,   0.00021,   0.00002,53557036.98651,   0.00000,274640135.82653,   0.00000,   0.00000,   0.00000,-421083098.84002,   0.00000
36850126.16484,62332925.27544,1435394.74491,   0.00005,   0.00021,   0.00002,54337190.62811,   0.00000,274640135.82653,   0.00000,   0.00000,   0.00000,-420302945.19842,   0.00000
37529213.23561,63220962.21414,1421767.57961,   0.00005,   0.00021,   0.00002,55124978.06460,   0.00000,274640135.82653,   0.00000,   0.00000,   0.00000,-419515157.76193,   0.00000
38192401.94687,64102185.57019,1408140.41431,   0.00005,   0.00022,   0.00002,55906009.53973,   0.00000,274640135.82653,   0.00000,   0.00000,   0.00000,-418734126.28680,   0.00000
38873760.21186,64965239.37251,1389970.86058,   0.00005,   0.00022,   0.00002,56674548.77848,   0.00000,274640135.82653,   0.00000,   0.00000,   0.00000,-417965587.04805,   0.00000
39539220.11733,65821479.59218,1376343.69528,   0.00005,   0.00022,   0.00002,57436661.62870,   0.00000,274640135.82653,   0.00000,   0.00000,   0.00000,-417203474.19783,   0.00000
40220578.38232,66684533.39450,1358174.14155,   0.00005,   0.00022,   0.00002,58206231.00807,   0.00000,274640135.82653,   0.00000,   0.00000,   0.00000,-416433904.81846,   0.00000
40879224.70514,67524875.25466,1340004.58781,   0.00005,   0.00023,   0.00002,58955424.50712,   0.00000,274640135.82653,   0.00000,   0.00000,   0.00000,-415684711.31941,   0.00000
41562854.16435,68362945.92059,1321835.03408,   0.00006,   0.00023,   0.00002,59706329.75873,   0.00000,274640135.82653,   0.00000,   0.00000,   0.00000,-414933806.06780,   0.00000
42230585.26404,69194203.00388,1299123.09191,   0.00006,   0.00023,   0.00002,60450074.72102,   0.00000,274640135.82653,   0.00000,   0.00000,   0.00000,-414190061.10551,   0.00000
42907401.14059,70016375.31030,1280953.53818,   0.00006,   0.00023,   0.00002,61188558.63872,   0.00000,274640135.82653,   0.00000,   0.00000,   0.00000,-413451577.18781,   0.00000
43584217.01715,70838547.61672,1258241.59601,   0.00006,   0.00024,   0.00002,61927301.60987,   0.00000,274640135.82653,   0.00000,   0.00000,   0.00000,-412712834.21666,   0.00000
44254219.31106,71644821.56363,1235529.65385,   0.00006,   0.00024,   0.00002,62653095.20138,   0.00000,274640135.82653,   0.00000,   0.00000,   0.00000,-411987040.62515,   0.00000
44933306.38183,72442010.73366,1212817.71168,   0.00006,   0.00024,   0.00002,63373501.23461,   0.00000,274640135.82653,   0.00000,   0.00000,   0.00000,-411266634.59192,   0.00000
45596495.09308,73232386.32105,1190105.76951,   0.00006,   0.00024,   0.00002,64086907.26455,   0.00000,274640135.82653,   0.00000,   0.00000,   0.00000,-410553228.56198,   0.00000
46268768.58121,74013677.13157,1167393.82735,   0.00007,   0.00025,   0.00002,64794984.94913,   0.00000,274640135.82653,   0.00000,   0.00000,   0.00000,-409845150.87740,   0.00000
46956940.42885,74801781.52474,1140139.49675,   0.00007,   0.00025,   0.00001,65511050.43350,   0.00000,274640135.82653,   0.00000,   0.00000,   0.00000,-409129085.39303,   0.00000
47622400.33432,75567173.97575,1117427.55458,   0.00007,   0.00025,   0.00001,66206846.45938,   0.00000,274640135.82653,   0.00000,   0.00000,   0.00000,-408433289.36715,   0.00000
48303758.59931,76339380.00940,1090173.22398,   0.00007,   0.00025,   0.00001,66910690.35976,   0.00000,274640135.82653,   0.00000,   0.00000,   0.00000,-407729445.46677,   0.00000
48971489.69900,77079789.32402,1062918.89338,   0.00007,   0.00026,   0.00001,67588297.85114,   0.00000,274640135.82653,   0.00000,   0.00000,   0.00000,-407051837.97539,   0.00000
49661932.74085,77842910.58081,1035664.56278,   0.00007,   0.00026,   0.00001,68287734.65925,   0.00000,274640135.82653,   0.00000,   0.00000,   0.00000,-406352401.16728,   0.00000
50329663.84054,78583319.89543,1008410.23218,   0.00008,   0.00026,   0.00001,68966599.36425,   0.00000,274640135.82653,   0.00000,   0.00000,   0.00000,-405673536.46228,   0.00000
51006479.71710,79314644.43319,981155.90158,   0.00008,   0.00026,   0.00001,69640512.58322,   0.00000,274640135.82653,   0.00000,   0.00000,   0.00000,-404999623.24331,   0.00000
51676482.01101,80030070.61143,953901.57099,   0.00008,   0.00026,   0.00001,70301694.68394,   0.00000,274640135.82653,   0.00000,   0.00000,   0.00000,-404338441.14259,   0.00000
52346484.30491,80745496.78967,922104.85195,   0.00008,   0.00027,   0.00001,70963354.08206,   0.00000,274640135.82653,   0.00000,   0.00000,   0.00000,-403676781.74447,   0.00000
53032384.95833,81467736.55056,894850.52135,   0.00008,   0.00027,   0.00001,71633789.92468,   0.00000,274640135.82653,   0.00000,   0.00000,   0.00000,-403006345.90185,   0.00000
53711472.02911,82174077.95193,863053.80232,   0.00008,   0.00027,   0.00001,72291390.98778,   0.00000,274640135.82653,   0.00000,   0.00000,   0.00000,-402348744.83875,   0.00000
54383745.51723,82864520.99378,835799.47172,   0.00009,   0.00027,   0.00001,72936501.67200,   0.00000,274640135.82653,   0.00000,   0.00000,   0.00000,-401703634.15453,   0.00000
55056019.00535,83554964.03564,804002.75269,   0.00009,   0.00027,   0.00001,73582150.12526,   0.00000,274640135.82653,   0.00000,   0.00000,   0.00000,-401057985.70127,   0.00000
55737377.27034,84236322.30063,772206.03365,   0.00009,   0.00027,   0.00001,74223247.37069,   0.00000,274640135.82653,   0.00000,   0.00000,   0.00000,-400416888.45584,   0.00000
56418735.53533,84917680.56562,740409.31462,   0.00009,   0.00028,   0.00001,74865096.32535,   0.00000,274640135.82653,   0.00000,   0.00000,   0.00000,-399775039.50118,   0.00000
57093280.21767,85583140.47109,708612.59559,   0.00009,   0.00028,   0.00001,75494375.64160,   0.00000,274640135.82653,   0.00000,   0.00000,   0.00000,-399145760.18493,   0.00000
57761011.31736,86232702.01705,676815.87656,   0.00009,   0.00028,   0.00001,76111099.63484,   0.00000,274640135.82653,   0.00000,   0.00000,   0.00000,-398529036.19169,   0.00000
58428742.41705,86882263.56300,645019.15752,   0.00010,   0.00028,   0.00001,76728563.21525,   0.00000,274640135.82653,   0.00000,   0.00000,   0.00000,-397911572.61128,   0.00000
59112371.87626,87538638.69161,613222.43849,   0.00010,   0.00028,   0.00001,77355008.46238,   0.00000,274640135.82653,   0.00000,   0.00000,   0.00000,-397285127.36415,   0.00000
59789187.75281,88179115.46070,581425.71946,   0.00010,   0.00028,   0.00001,77968967.24350,   0.00000,274640135.82653,   0.00000,   0.00000,   0.00000,-396671168.58303,   0.00000
60459190.04672,88803693.87027,549629.00042,   0.00010,   0.00029,   0.00001,78570456.13761,   0.00000,274640135.82653,   0.00000,   0.00000,   0.00000,-396069679.68892,   0.00000
61145090.70014,89435085.86250,517832.28139,   0.00010,   0.00029,   0.00001,79181088.10782,   0.00000,274640135.82653,   0.00000,   0.00000,   0.00000,-395459047.71871,   0.00000
61808279.41140,90043765.91255,481493.17393,   0.00011,   0.00029,   0.00001,79770849.61165,   0.00000,274640135.82653,   0.00000,   0.00000,   0.00000,-394869286.21488,   0.00000
62487366.48217,90659259.54526,449696.45489,   0.00011,   0.00029,   0.00001,80369898.69142,   0.00000,274640135.82653,   0.00000,   0.00000,   0.00000,-394270237.13511,   0.00000
63159639.97029,91258854.81845,417899.73586,   0.00011,   0.00029,   0.00001,80956569.90069,   0.00000,274640135.82653,   0.00000,   0.00000,   0.00000,-393683565.92584,   0.00000
63840998.23528,91849365.31478,381560.62839,   0.00011,   0.00029,   0.00000,81539319.11030,   0.00000,274640135.82653,   0.00000,   0.00000,   0.00000,-393100816.71623,   0.00000
64506458.14075,92433062.22845,349763.90936,   0.00011,   0.00029,   0.00000,82114503.46747,   0.00000,274640135.82653,   0.00000,   0.00000,   0.00000,-392525632.35906,   0.00000
65187816.40574,93023572.72477,317967.19033,   0.00012,   0.00030,   0.00000,82699070.24534,   0.00000,274640135.82653,   0.00000,   0.00000,   0.00000,-391941065.58119,   0.00000
65862361.08808,93598184.86158,281628.08286,   0.00012,   0.00030,   0.00000,83271311.45880,   0.00000,274640135.82653,   0.00000,   0.00000,   0.00000,-391368824.36773,   0.00000
66530092.18777,94156898.63887,249831.36383,   0.00012,   0.00030,   0.00000,83831347.52810,   0.00000,274640135.82653,   0.00000,   0.00000,   0.00000,-390808788.29843,   0.00000
67213721.64698,94722425.99881,213492.25636,   0.00012,   0.00030,   0.00000,84400902.40488,   0.00000,274640135.82653,   0.00000,   0.00000,   0.00000,-390239233.42165,   0.00000
67874639.16402,95265241.41659,181695.53733,   0.00012,   0.00030,   0.00000,84949620.46759,   0.00000,274640135.82653,   0.00000,   0.00000,   0.00000,-389690515.35894,   0.00000
68551455.04057,95814870.41701,145356.42986,   0.00013,   0.00030,   0.00000,85507929.36958,   0.00000,274640135.82653,   0.00000,   0.00000,   0.00000,-389132206.45695,   0.00000
69221457.33448,96348601.05792,113559.71083,   0.00013,   0.00030,   0.00000,86054117.80609,   0.00000,274640135.82653,   0.00000,   0.00000,   0.00000,-388586018.02044,   0.00000
69907357.98790,96889145.28148,81762.99180,   0.00013,   0.00030,   0.00000,86610051.75758,   0.00000,274640135.82653,   0.00000,   0.00000,   0.00000,-388030084.06895,   0.00000
70570546.69916,97406977.56287,45423.88433,   0.00013,   0.00031,   0.00000,87145073.70136,   0.00000,274640135.82653,   0.00000,   0.00000,   0.00000,-387495062.12517,   0.00000
71249633.76993,97931623.42691,13627.16530,   0.00013,   0.00031,   0.00000,87689916.36908,   0.00000,274640135.82653,   0.00000,   0.00000,   0.00000,-386950219.45745,   0.00000
71921907.25806,98440370.93144,-18169.55373,   0.00014,   0.00031,  -0.00000,88222724.59278,   0.00000,274640135.82653,   0.00000,   0.00000,   0.00000,-386417411.23375,   0.00000
72594180.74618,98949118.43596,-54508.66120,   0.00014,   0.00031,  -0.00000,88756531.26745,   0.00000,274640135.82653,   0.00000,   0.00000,   0.00000,-385883604.55908,   0.00000
73275539.01117,99448781.16362,-86305.38023,   0.00014,   0.00031,  -0.00000,89287311.49718,   0.00000,274640135.82653,   0.00000,   0.00000,   0.00000,-385352824.32934,   0.00000
73940998.91664,99941630.30863,-118102.09926,   0.00014,   0.00031,  -0.00000,89810125.57322,   0.00000,274640135.82653,   0.00000,   0.00000,   0.00000,-384830010.25331,   0.00000
74615543.59898,100425394.67677,-154441.20673,   0.00014,   0.00031,  -0.00000,90330035.88988,   0.00000,274640135.82653,   0.00000,   0.00000,   0.00000,-384310099.93665,   0.00000
75290088.28132,100909159.04492,-186237.92576,   0.00015,   0.00031,  -0.00000,90850978.71444,   0.00000,274640135.82653,   0.00000,   0.00000,   0.00000,-383789157.11209,   0.00000
75957819.38101,101377025.05354,-218034.64480,   0.00015,   0.00031,  -0.00000,91360037.17569,   0.00000,274640135.82653,   0.00000,   0.00000,   0.00000,-383280098.65084,   0.00000
76634635.25756,101835806.28530,-249831.36383,   0.00015,   0.00031,  -0.00000,91866403.75640,   0.00000,274640135.82653,   0.00000,   0.00000,   0.00000,-382773732.07013,   0.00000
77302366.35725,102303672.29393,-281628.08286,   0.00015,   0.00031,  -0.00000,92377590.34002,   0.00000,274640135.82653,   0.00000,   0.00000,   0.00000,-382262545.48651,   0.00000
77972368.65116,102746555.16617,-313424.80190,   0.00015,   0.00032,  -0.00000,92873286.25527,   0.00000,274640135.82653,   0.00000,   0.00000,   0.00000,-381766849.57126,   0.00000
78642370.94507,103189438.03841,-345221.52093,   0.00016,   0.00032,  -0.00000,93370113.52896,   0.00000,274640135.82653,   0.00000,   0.00000,   0.00000,-381270022.29757,   0.00000
79312373.23897,103632320.91066,-377018.23996,   0.00016,   0.00032,  -0.00000,93868054.19684,   0.00000,274640135.82653,   0.00000,   0.00000,   0.00000,-380772081.62969,   0.00000
79991460.30975,104066119.00603,-408814.95899,   0.00016,   0.00032,  -0.00001,94363612.73508,   0.00000,274640135.82653,   0.00000,   0.00000,   0.00000,-380276523.09145,   0.00000
80654649.02100,104493103.51876,-436069.28959,   0.00016,   0.00032,  -0.00001,94850919.71899,   0.00000,274640135.82653,   0.00000,   0.00000,   0.00000,-379789216.10754,   0.00000
81326922.50912,104911003.25462,-467866.00863,   0.00017,   0.00032,  -0.00001,95336008.89726,   0.00000,274640135.82653,   0.00000,   0.00000,   0.00000,-379304126.92926,   0.00000
81999195.99725,105328902.99048,-495120.33923,   0.00017,   0.00032,  -0.00001,95822210.48031,   0.00000,274640135.82653,   0.00000,   0.00000,   0.00000,-378817925.34622,   0.00000
82664655.90272,105730904.36683,-526917.05826,   0.00017,   0.00032,  -0.00001,96296903.22505,   0.00000,274640135.82653,   0.00000,   0.00000,   0.00000,-378343232.60148,   0.00000
83346014.16771,106139719.32582,-554171.38886,   0.00017,   0.00032,  -0.00001,96782213.56895,   0.00000,274640135.82653,   0.00000,   0.00000,   0.00000,-377857922.25758,   0.00000
84004660.49053,106525822.34265,-585968.10789,   0.00017,   0.00032,  -0.00001,97246585.26863,   0.00000,274640135.82653,   0.00000,   0.00000,   0.00000,-377393550.55790,   0.00000
84679205.17287,106918738.94212,-613222.43849,   0.00018,   0.00032,  -0.00001,97721639.46259,   0.00000,274640135.82653,   0.00000,   0.00000,   0.00000,-376918496.36394,   0.00000
85346936.27256,107295757.18208,-640476.76909,   0.00018,   0.00032,  -0.00001,98185261.22249,   0.00000,274640135.82653,   0.00000,   0.00000,   0.00000,-376454874.60404,   0.00000
86014667.37225,107672775.42204,-667731.09969,   0.00018,   0.00032,  -0.00001,98650135.33562,   0.00000,274640135.82653,   0.00000,   0.00000,   0.00000,-375990000.49091,   0.00000
86682398.47194,108049793.66201,-694985.43029,   0.00018,   0.00032,  -0.00001,99116244.18063,   0.00000,274640135.82653,   0.00000,   0.00000,   0.00000,-375523891.64590,   0.00000
87359214.34850,108417727.12510,-722239.76089,   0.00019,   0.00032,  -0.00001,99580687.45634,   0.00000,274640135.82653,   0.00000,   0.00000,   0.00000,-375059448.37019,   0.00000
88029216.64240,108769762.22868,-749494.09149,   0.00019,   0.00032,  -0.00001,100033856.36257,   0.00000,274640135.82653,   0.00000,   0.00000,   0.00000,-374606279.46396,   0.00000
88699218.93631,109121797.33226,-772206.03365,   0.00019,   0.00032,  -0.00001,100488252.08506,   0.00000,274640135.82653,   0.00000,   0.00000,   0.00000,-374151883.74147,   0.00000
89369221.23022,109473832.43583,-799460.36425,   0.00019,   0.00032,  -0.00001,100944063.48185,   0.00000,274640135.82653,   0.00000,   0.00000,   0.00000,-373696072.34468,   0.00000
90032409.94147,109809969.17989,-822172.30642,   0.00020,   0.00032,  -0.00001,101388539.35331,   0.00000,274640135.82653,   0.00000,   0.00000,   0.00000,-373251596.47322,   0.00000
90695598.65273,110146105.92396,-844884.24859,   0.00020,   0.00032,  -0.00001,101834329.85653,   0.00000,274640135.82653,   0.00000,   0.00000,   0.00000,-372805805.97000,   0.00000
91367872.14085,110473157.89115,-872138.57919,   0.00020,   0.00032,  -0.00001,102278987.02030,   0.00000,274640135.82653,   0.00000,   0.00000,   0.00000,-372361148.80623,   0.00000
92040145.62897,110800209.85835,-894850.52135,   0.00020,   0.00032,  -0.00001,102724922.64947,   0.00000,274640135.82653,   0.00000,   0.00000,   0.00000,-371915213.17706,   0.00000
92712419.11710,111127261.82554,-917562.46352,   0.00021,   0.00032,  -0.00001,103172232.06030,   0.00000,274640135.82653,   0.00000,   0.00000,   0.00000,-371467903.76623,   0.00000
93377879.02257,111438415.43322,-935732.01725,   0.00021,   0.00032,  -0.00001,103608361.79312,   0.00000,274640135.82653,   0.00000,   0.00000,   0.00000,-371031774.03341,   0.00000
94036525.34539,111733670.68138,-958443.95942,   0.00021,   0.00033,  -0.00001,104033604.91916,   0.00000,274640135.82653,   0.00000,   0.00000,   0.00000,-370606530.90737,   0.00000
94717883.61038,112051637.87171,-981155.90158,   0.00021,   0.00033,  -0.00001,104482730.78259,   0.00000,274640135.82653,   0.00000,   0.00000,   0.00000,-370157405.04394,   0.00000
95369716.35055,112330994.76035,-999325.45532,   0.00021,   0.00033,  -0.00001,104898312.79416,   0.00000,274640135.82653,   0.00000,   0.00000,   0.00000,-369741823.03236,   0.00000
96044261.03289,112633063.59117,-1017495.00905,   0.00022,   0.00033,  -0.00001,105337807.16857,   0.00000,274640135.82653,   0.00000,   0.00000,   0.00000,-369302328.65796,   0.00000
96711992.13258,112919234.06246,-1035664.56278,   0.00022,   0.00033,  -0.00001,105766424.58975,   0.00000,274640135.82653,   0.00000,   0.00000,   0.00000,-368873711.23678,   0.00000
97388808.00914,113196319.75689,-1053834.11652,   0.00022,   0.00033,  -0.00001,106194462.09118,   0.00000,274640135.82653,   0.00000,   0.00000,   0.00000,-368445673.73535,   0.00000
98049725.52618,113466591.86867,-1072003.67025,   0.00022,   0.00033,  -0.00001,106613768.02526,   0.00000,274640135.82653,   0.00000,   0.00000,   0.00000,-368026367.80127,   0.00000
98726541.40274,113743677.56310,-1090173.22398,   0.00023,   0.00033,  -0.00001,107044849.02912,   0.00000,274640135.82653,   0.00000,   0.00000,   0.00000,-367595286.79741,   0.00000
99380645.33712,113998051.31536,-1108342.77772,   0.00023,   0.00032,  -0.00001,107454891.63164,   0.00000,274640135.82653,   0.00000,   0.00000,   0.00000,-367185244.19489,   0.00000
100050647.63103,114259238.65027,-1121969.94302,   0.00023,   0.00032,  -0.00001,107876648.69285,   0.00000,274640135.82653,   0.00000,   0.00000,   0.00000,-366763487.13368,   0.00000
100720649.92494,114520425.98519,-1135597.10832,   0.00023,   0.00032,  -0.00001,108299927.50043,   0.00000,274640135.82653,   0.00000,   0.00000,   0.00000,-366340208.32610,   0.00000
101383838.63619,114765714.96058,-1149224.27362,   0.00024,   0.00032,  -0.00001,108712582.02152,   0.00000,274640135.82653,   0.00000,   0.00000,   0.00000,-365927553.80501,   0.00000
102062925.70697,115017817.51863,-1162851.43892,   0.00024,   0.00032,  -0.00002,109137256.95948,   0.00000,274640135.82653,   0.00000,   0.00000,   0.00000,-365502878.86705,   0.00000
102719300.83557,115247208.13451,-1176478.60421,   0.00024,   0.00032,  -0.00002,109540921.16573,   0.00000,274640135.82653,   0.00000,   0.00000,   0.00000,-365099214.66079,   0.00000
103391574.32370,115483412.33304,-1190105.76951,   0.00025,   0.00032,  -0.00002,109956688.79635,   0.00000,274640135.82653,   0.00000,   0.00000,   0.00000,-364683447.03018,   0.00000
104063847.81182,115719616.53157,-1199190.54638,   0.00025,   0.00032,  -0.00002,110373908.51977,   0.00000,274640135.82653,   0.00000,   0.00000,   0.00000,-364266227.30676,   0.00000
104729307.71729,115939922.37058,-1208275.32325,   0.00025,   0.00032,  -0.00002,110780708.94945,   0.00000,274640135.82653,   0.00000,   0.00000,   0.00000,-363859426.87708,   0.00000
105394767.62276,116160228.20959,-1217360.10011,   0.00025,   0.00032,  -0.00002,111189124.00790,   0.00000,274640135.82653,   0.00000,   0.00000,   0.00000,-363451011.81863,   0.00000
106076125.88775,116387347.63126,-1226444.87698,   0.00026,   0.00032,  -0.00002,111609823.64482,   0.00000,274640135.82653,   0.00000,   0.00000,   0.00000,-363030312.18171,   0.00000
106734772.21058,116591755.11075,-1235529.65385,   0.00026,   0.00032,  -0.00002,112009526.98699,   0.00000,274640135.82653,   0.00000,   0.00000,   0.00000,-362630608.83954,   0.00000
107409316.89292,116802976.17290,-1244614.43071,   0.00026,   0.00032,  -0.00002,112421598.95546,   0.00000,274640135.82653,   0.00000,   0.00000,   0.00000,-362218536.87107,   0.00000
108077047.99261,116998298.87553,-1249156.81915,   0.00026,   0.00032,  -0.00002,112823316.11071,   0.00000,274640135.82653,   0.00000,   0.00000,   0.00000,-361816819.71582,   0.00000
108744779.09229,117193621.57816,-1253699.20758,   0.00027,   0.00032,  -0.00002,113226731.44626,   0.00000,274640135.82653,   0.00000,   0.00000,   0.00000,-361413404.38027,   0.00000
109412510.19198,117388944.28079,-1258241.59601,   0.00027,   0.00032,  -0.00002,113631826.87550,   0.00000,274640135.82653,   0.00000,   0.00000,   0.00000,-361008308.95103,   0.00000
110089326.06854,117575182.20656,-1262783.98445,   0.00027,   0.00032,  -0.00002,114037688.87433,   0.00000,274640135.82653,   0.00000,   0.00000,   0.00000,-360602446.95220,   0.00000
110757057.16823,117770504.90919,-1267326.37288,   0.00027,   0.00032,  -0.00002,114446150.40524,   0.00000,274640135.82653,   0.00000,   0.00000,   0.00000,-360193985.42129,   0.00000
111427059.46214,117940844.47543,-1267326.37288,   0.00028,   0.00032,  -0.00002,114843585.95056,   0.00000,274640135.82653,   0.00000,   0.00000,   0.00000,-359796549.87597,   0.00000
112103875.33869,118127082.40120,-1271868.76131,   0.00028,   0.00032,  -0.00002,115254655.84254,   0.00000,274640135.82653,   0.00000,   0.00000,   0.00000,-359385479.98399,   0.00000
112773877.63260,118297421.96744,-1271868.76131,   0.00028,   0.00032,  -0.00002,115655615.86739,   0.00000,274640135.82653,   0.00000,   0.00000,   0.00000,-358984519.95914,   0.00000
113443879.92650,118467761.53369,-1271868.76131,   0.00029,   0.00032,  -0.00002,116058325.21379,   0.00000,274640135.82653,   0.00000,   0.00000,   0.00000,-358581810.61273,   0.00000
114107068.63776,118622202.74042,-1271868.76131,   0.00029,   0.00032,  -0.00002,116451153.77903,   0.00000,274640135.82653,   0.00000,   0.00000,   0.00000,-358188982.04750,   0.00000
114786155.70853,118783457.52980,-1267326.37288,   0.00029,   0.00032,  -0.00002,116856720.91014,   0.00000,274640135.82653,   0.00000,   0.00000,   0.00000,-357783414.91639,   0.00000
115465242.77931,118944712.31918,-1267326.37288,   0.00029,   0.00032,  -0.00002,117264253.47025,   0.00000,274640135.82653,   0.00000,   0.00000,   0.00000,-357375882.35628,   0.00000
116128431.49056,119099153.52592,-1262783.98445,   0.00030,   0.00032,  -0.00002,117662257.96917,   0.00000,274640135.82653,   0.00000,   0.00000,   0.00000,-356977877.85736,   0.00000
116800704.97868,119244509.95578,-1258241.59601,   0.00030,   0.00031,  -0.00002,118061697.96416,   0.00000,274640135.82653,   0.00000,   0.00000,   0.00000,-356578437.86237,   0.00000
117472978.46681,119389866.38564,-1249156.81915,   0.00030,   0.00031,  -0.00002,118462816.27855,   0.00000,274640135.82653,   0.00000,   0.00000,   0.00000,-356177319.54798,   0.00000
118154336.73180,119526138.03864,-1244614.43071,   0.00030,   0.00031,  -0.00002,118865725.06883,   0.00000,274640135.82653,   0.00000,   0.00000,   0.00000,-355774410.75770,   0.00000
118826610.21992,119671494.46851,-1235529.65385,   0.00031,   0.00031,  -0.00002,119270497.01252,   0.00000,274640135.82653,   0.00000,   0.00000,   0.00000,-355369638.81400,   0.00000
119507968.48491,119807766.12150,-1230987.26541,   0.00031,   0.00031,  -0.00002,119677143.20396,   0.00000,274640135.82653,   0.00000,   0.00000,   0.00000,-354962992.62257,   0.00000
120166614.80773,119921325.83234,-1221902.48855,   0.00031,   0.00031,  -0.00002,120062813.02836,   0.00000,274640135.82653,   0.00000,   0.00000,   0.00000,-354577322.79817,   0.00000
120847973.07272,120057597.48533,-1208275.32325,   0.00032,   0.00031,  -0.00002,120472908.94397,   0.00000,274640135.82653,   0.00000,   0.00000,   0.00000,-354167226.88256,   0.00000
121522517.75506,120177970.77882,-1199190.54638,   0.00032,   0.00031,  -0.00002,120873700.89563,   0.00000,274640135.82653,   0.00000,   0.00000,   0.00000,-353766434.93090,   0.00000
122212960.79692,120305157.65495,-1185563.38108,   0.00032,   0.00031,  -0.00002,121287698.92520,   0.00000,274640135.82653,   0.00000,   0.00000,   0.00000,-353352436.90132,   0.00000
122880691.89661,120409632.58891,-1171936.21578,   0.00032,   0.00031,  -0.00002,121680916.33911,   0.00000,274640135.82653,   0.00000,   0.00000,   0.00000,-352959219.48742,   0.00000
123555236.57895,120530005.88239,-1158309.05048,   0.00033,   0.00031,  -0.00002,122087224.76982,   0.00000,274640135.82653,   0.00000,   0.00000,   0.00000,-352552911.05671,   0.00000
124238866.03815,120641294.39901,-1144681.88518,   0.00033,   0.00031,  -0.00001,122495759.21256,   0.00000,274640135.82653,   0.00000,   0.00000,   0.00000,-352144376.61397,   0.00000
124922495.49736,120752582.91562,-1131054.71988,   0.00033,   0.00031,  -0.00001,122906224.50002,   0.00000,274640135.82653,   0.00000,   0.00000,   0.00000,-351733911.32651,   0.00000
125599311.37391,120847973.07272,-1112885.16615,   0.00034,   0.00030,  -0.00001,123307392.13323,   0.00000,274640135.82653,   0.00000,   0.00000,   0.00000,-351332743.69330,   0.00000
126282940.83312,120959261.58934,-1094715.61242,   0.00034,   0.00030,  -0.00001,123721574.68288,   0.00000,274640135.82653,   0.00000,   0.00000,   0.00000,-350918561.14365,   0.00000
126959756.70968,121054651.74643,-1076546.05868,   0.00034,   0.00030,  -0.00001,124126613.79889,   0.00000,274640135.82653,   0.00000,   0.00000,   0.00000,-350513522.02764,   0.00000
127645657.36310,121140957.12667,-1058376.50495,   0.00034,   0.00030,  -0.00001,124534287.30142,   0.00000,274640135.82653,   0.00000,   0.00000,   0.00000,-350105848.52511,   0.00000
128322473.23965,121236347.28377,-1035664.56278,   0.00035,   0.00030,  -0.00001,124943102.70806,   0.00000,274640135.82653,   0.00000,   0.00000,   0.00000,-349697033.11847,   0.00000
129008373.89308,121322652.66400,-1012952.62062,   0.00035,   0.00030,  -0.00001,125354643.57742,   0.00000,274640135.82653,   0.00000,   0.00000,   0.00000,-349285492.24911,   0.00000
129694274.54650,121408958.04423,-990240.67845,   0.00035,   0.00030,  -0.00001,125768179.34732,   0.00000,274640135.82653,   0.00000,   0.00000,   0.00000,-348871956.47921,   0.00000
130380175.19992,121495263.42446,-967528.73628,   0.00036,   0.00030,  -0.00001,126183690.40437,   0.00000,274640135.82653,   0.00000,   0.00000,   0.00000,-348456445.42216,   0.00000
131066075.85334,121581568.80469,-944816.79412,   0.00036,   0.00030,  -0.00001,126601157.29962,   0.00000,274640135.82653,   0.00000,   0.00000,   0.00000,-348038978.52691,   0.00000
131745162.92412,121651975.82541,-917562.46352,   0.00036,   0.00030,  -0.00001,127009675.07868,   0.00000,274640135.82653,   0.00000,   0.00000,   0.00000,-347630460.74785,   0.00000
132431063.57754,121738281.20564,-890308.13292,   0.00037,   0.00030,  -0.00001,127430936.58422,   0.00000,274640135.82653,   0.00000,   0.00000,   0.00000,-347209199.24231,   0.00000
133126049.00783,121815501.80901,-863053.80232,   0.00037,   0.00029,  -0.00001,127855306.99691,   0.00000,274640135.82653,   0.00000,   0.00000,   0.00000,-346784828.82962,   0.00000
133814220.85547,121876824.05286,-835799.47172,   0.00037,   0.00029,  -0.00001,128270999.74533,   0.00000,274640135.82653,   0.00000,   0.00000,   0.00000,-346369136.08120,   0.00000
134509206.28576,121954044.65622,-804002.75269,   0.00037,   0.00029,  -0.00001,128699312.72104,   0.00000,274640135.82653,   0.00000,   0.00000,   0.00000,-345940823.10549,   0.00000
135197378.13340,122015366.90007,-776748.42209,   0.00038,   0.00029,  -0.00001,129119065.71596,   0.00000,274640135.82653,   0.00000,   0.00000,   0.00000,-345521070.11057,   0.00000
135885549.98104,122076689.14392,-744951.70305,   0.00038,   0.00029,  -0.00001,129540756.29285,   0.00000,274640135.82653,   0.00000,   0.00000,   0.00000,-345099379.53368,   0.00000
136573721.82867,122138011.38777,-713154.98402,   0.00038,   0.00029,  -0.00001,129964450.13160,   0.00000,274640135.82653,   0.00000,   0.00000,   0.00000,-344675685.69493,   0.00000
137277792.03583,122206147.21427,-676815.87656,   0.00039,   0.00029,  -0.00001,130402142.54221,   0.00000,274640135.82653,   0.00000,   0.00000,   0.00000,-344237993.28432,   0.00000
137965963.88347,122267469.45812,-645019.15752,   0.00039,   0.00029,  -0.00001,130829813.69606,   0.00000,274640135.82653,   0.00000,   0.00000,   0.00000,-343810322.13047,   0.00000
138663220.50798,122319706.92510,-608680.05006,   0.00039,   0.00029,  -0.00001,131261062.02629,   0.00000,274640135.82653,   0.00000,   0.00000,   0.00000,-343379073.80024,   0.00000
139360477.13248,122371944.39208,-572340.94259,   0.00040,   0.00029,  -0.00001,131694364.06029,   0.00000,274640135.82653,   0.00000,   0.00000,   0.00000,-342945771.76624,   0.00000
140057733.75699,122424181.85906,-531459.44669,   0.00040,   0.00028,  -0.00001,132129644.54732,   0.00000,274640135.82653,   0.00000,   0.00000,   0.00000,-342510491.27921,   0.00000
140754990.38149,122476419.32605,-495120.33923,   0.00040,   0.00028,  -0.00001,132566997.46346,   0.00000,274640135.82653,   0.00000,   0.00000,   0.00000,-342073138.36307,   0.00000
141452247.00600,122528656.79303,-454238.84333,   0.00040,   0.00028,  -0.00001,133006297.18675,   0.00000,274640135.82653,   0.00000,   0.00000,   0.00000,-341633838.63978,   0.00000
142158588.40737,122571809.48314,-413357.34743,   0.00041,   0.00028,  -0.00001,133449578.17909,   0.00000,274640135.82653,   0.00000,   0.00000,   0.00000,-341190557.64744,   0.00000
142871743.39139,122630860.53278,-372475.85153,   0.00041,   0.00028,  -0.00000,133905169.39827,   0.00000,274640135.82653,   0.00000,   0.00000,   0.00000,-340734966.42825,   0.00000
143562186.43325,122667199.64024,-331594.35563,   0.00041,   0.00028,  -0.00000,134340246.09746,   0.00000,274640135.82653,   0.00000,   0.00000,   0.00000,-340299889.72907,   0.00000
144268527.83462,122710352.33036,-286170.47130,   0.00042,   0.00028,  -0.00000,134789623.08893,   0.00000,274640135.82653,   0.00000,   0.00000,   0.00000,-339850512.73760,   0.00000
144974869.23599,122753505.02047,-240746.58696,   0.00042,   0.00028,  -0.00000,135241030.17561,   0.00000,274640135.82653,   0.00000,   0.00000,   0.00000,-339399105.65092,   0.00000
145674397.05472,122780759.35107,-195322.70263,   0.00042,   0.00027,  -0.00000,135684362.35826,   0.00000,274640135.82653,   0.00000,   0.00000,   0.00000,-338955773.46827,   0.00000
146396636.81560,122830725.62384,-149898.81830,   0.00043,   0.00027,  -0.00000,136152211.54361,   0.00000,274640135.82653,   0.00000,   0.00000,   0.00000,-338487924.28292,   0.00000
147096164.63433,122857979.95444,-104474.93397,   0.00043,   0.00027,  -0.00000,136599633.92202,   0.00000,274640135.82653,   0.00000,   0.00000,   0.00000,-338040501.90451,   0.00000
147818404.39522,122907946.22721,-54508.66120,   0.00043,   0.00027,  -0.00000,137071500.82538,   0.00000,274640135.82653,   0.00000,   0.00000,   0.00000,-337568635.00115,   0.00000
148533830.57345,122942014.14046,-4542.38843,   0.00044,   0.00027,  -0.00000,137535411.54531,   0.00000,274640135.82653,   0.00000,   0.00000,   0.00000,-337104724.28122,   0.00000
149249256.75169,122976082.05370,45423.88433,   0.00044,   0.00027,   0.00000,138001357.75944,   0.00000,274640135.82653,   0.00000,   0.00000,   0.00000,-336638778.06709,   0.00000
149964682.92993,123010149.96695,99932.54553,   0.00044,   0.00027,   0.00000,138469328.53073,   0.00000,274640135.82653,   0.00000,   0.00000,   0.00000,-336170807.29580,   0.00000
150680109.10817,123044217.88020,149898.81830,   0.00045,   0.00027,   0.00000,138939289.14547,   0.00000,274640135.82653,   0.00000,   0.00000,   0.00000,-335700846.68106,   0.00000
151388721.70376,123062387.43394,204407.47950,   0.00045,   0.00026,   0.00000,139401449.36067,   0.00000,274640135.82653,   0.00000,   0.00000,   0.00000,-335238686.46586,   0.00000
152120046.24151,123103268.92984,258916.14070,   0.00045,   0.00026,   0.00000,139887988.90665,   0.00000,274640135.82653,   0.00000,   0.00000,   0.00000,-334752146.91988,   0.00000
152844557.19662,123128252.06622,313424.80190,   0.00046,   0.00026,   0.00000,140366793.30019,   0.00000,274640135.82653,   0.00000,   0.00000,   0.00000,-334273342.52634,   0.00000
153559983.37486,123162319.97947,372475.85153,   0.00046,   0.00026,   0.00000,140844729.97999,   0.00000,274640135.82653,   0.00000,   0.00000,   0.00000,-333795405.84654,   0.00000
154284494.32996,123187303.11585,426984.51273,   0.00046,   0.00026,   0.00001,141327538.07320,   0.00000,274640135.82653,   0.00000,   0.00000,   0.00000,-333312597.75333,   0.00000
155009005.28507,123212286.25223,486035.56236,   0.00047,   0.00026,   0.00001,141812390.02222,   0.00000,274640135.82653,   0.00000,   0.00000,   0.00000,-332827745.80431,   0.00000
155749414.59969,123244082.97127,545086.61199,   0.00047,   0.00026,   0.00001,142311916.99281,   0.00000,274640135.82653,   0.00000,   0.00000,   0.00000,-332328218.83372,   0.00000
156473925.55480,123269066.10765,608680.05006,   0.00047,   0.00026,   0.00001,142800801.25284,   0.00000,274640135.82653,   0.00000,   0.00000,   0.00000,-331839334.57369,   0.00000
157214334.86942,123300862.82668,667731.09969,   0.00047,   0.00025,   0.00001,143304306.69935,   0.00000,274640135.82653,   0.00000,   0.00000,   0.00000,-331335829.12718,   0.00000
157932032.24187,123309947.60355,731324.53776,   0.00048,   0.00025,   0.00001,143787634.62867,   0.00000,274640135.82653,   0.00000,   0.00000,   0.00000,-330852501.19785,   0.00000
158672441.55649,123341744.32258,794917.97582,   0.00048,   0.00025,   0.00001,144295147.41772,   0.00000,274640135.82653,   0.00000,   0.00000,   0.00000,-330344988.40881,   0.00000
159412850.87112,123373541.04162,858511.41389,   0.00048,   0.00025,   0.00001,144804595.50041,   0.00000,274640135.82653,   0.00000,   0.00000,   0.00000,-329835540.32611,   0.00000
160146446.60309,123389439.40113,926647.24039,   0.00049,   0.00025,   0.00001,145306689.01399,   0.00000,274640135.82653,   0.00000,   0.00000,   0.00000,-329333446.81254,   0.00000
160902754.27723,123428049.70281,990240.67845,   0.00049,   0.00025,   0.00001,145832809.63141,   0.00000,274640135.82653,   0.00000,   0.00000,   0.00000,-328807326.19511,   0.00000
161636350.00920,123443948.06233,1058376.50495,   0.00049,   0.00025,   0.00001,146338816.60199,   0.00000,274640135.82653,   0.00000,   0.00000,   0.00000,-328301319.22454,   0.00000
162385844.10069,123466660.00450,1126512.33145,   0.00050,   0.00025,   0.00001,146859619.31019,   0.00000,274640135.82653,   0.00000,   0.00000,   0.00000,-327780516.51634,   0.00000
163119439.83266,123482558.36401,1199190.54638,   0.00050,   0.00024,   0.00002,147369611.16832,   0.00000,274640135.82653,   0.00000,   0.00000,   0.00000,-327270524.65821,   0.00000
163875747.50680,123521168.66570,1267326.37288,   0.00050,   0.00024,   0.00002,147903462.53504,   0.00000,274640135.82653,   0.00000,   0.00000,   0.00000,-326736673.29149,   0.00000
164625241.59828,123543880.60786,1340004.58781,   0.00051,   0.00024,   0.00002,148430139.29378,   0.00000,274640135.82653,   0.00000,   0.00000,   0.00000,-326209996.53275,   0.00000
165374735.68977,123566592.55003,1412682.80274,   0.00051,   0.00024,   0.00002,148958720.57031,   0.00000,274640135.82653,   0.00000,   0.00000,   0.00000,-325681415.25622,   0.00000
166140128.14078,123596118.07484,1485361.01768,   0.00051,   0.00024,   0.00002,149502129.01229,   0.00000,274640135.82653,   0.00000,   0.00000,   0.00000,-325138006.81424,   0.00000
166889622.23227,123618830.01701,1558039.23261,   0.00052,   0.00024,   0.00002,150034475.23826,   0.00000,274640135.82653,   0.00000,   0.00000,   0.00000,-324605660.58827,   0.00000
167655014.68327,123648355.54183,1635259.83597,   0.00052,   0.00024,   0.00002,150581788.86211,   0.00000,274640135.82653,   0.00000,   0.00000,   0.00000,-324058346.96442,   0.00000
168404508.77476,123671067.48399,1707938.05091,   0.00053,   0.00023,   0.00002,151117825.87161,   0.00000,274640135.82653,   0.00000,   0.00000,   0.00000,-323522309.95492,   0.00000
169163087.64311,123684694.64929,1785158.65427,   0.00053,   0.00023,   0.00002,151659913.76970,   0.00000,274640135.82653,   0.00000,   0.00000,   0.00000,-322980222.05683,   0.00000
169928480.09412,123714220.17411,1862379.25764,   0.00053,   0.00023,   0.00002,152212787.20813,   0.00000,274640135.82653,   0.00000,   0.00000,   0.00000,-322427348.61840,   0.00000
170709770.90464,123750559.28158,1944142.24944,   0.00054,   0.00023,   0.00003,152780680.21774,   0.00000,274640135.82653,   0.00000,   0.00000,   0.00000,-321859455.60879,   0.00000
171475163.35564,123780084.80639,2021362.85280,   0.00054,   0.00023,   0.00003,153337172.60834,   0.00000,274640135.82653,   0.00000,   0.00000,   0.00000,-321302963.21819,   0.00000
172240555.80665,123809610.33121,2103125.84460,   0.00054,   0.00023,   0.00003,153895620.44533,   0.00000,274640135.82653,   0.00000,   0.00000,   0.00000,-320744515.38120,   0.00000
173015033.03452,123830051.07916,2184888.83640,   0.00055,   0.00023,   0.00003,154460169.77123,   0.00000,274640135.82653,   0.00000,   0.00000,   0.00000,-320179966.05530,   0.00000
173796323.84504,123866390.18662,2266651.82820,   0.00055,   0.00022,   0.00003,155035269.11337,   0.00000,274640135.82653,   0.00000,   0.00000,   0.00000,-319604866.71316,   0.00000
174577614.65556,123902729.29409,2348414.82000,   0.00055,   0.00022,   0.00003,155612120.64738,   0.00000,274640135.82653,   0.00000,   0.00000,   0.00000,-319028015.17915,   0.00000
175358905.46608,123939068.40156,2434720.20023,   0.00056,   0.00022,   0.00003,156190917.18306,   0.00000,274640135.82653,   0.00000,   0.00000,   0.00000,-318449218.64347,   0.00000
176133382.69395,123959509.14951,2521025.58046,   0.00056,   0.00022,   0.00003,156762838.24347,   0.00000,274640135.82653,   0.00000,   0.00000,   0.00000,-317877297.58306,   0.00000
176930571.86399,124002661.83962,2607330.96069,   0.00056,   0.00022,   0.00003,157358253.85313,   0.00000,274640135.82653,   0.00000,   0.00000,   0.00000,-317281881.97340,   0.00000
177711862.67451,124039000.94709,2693636.34092,   0.00057,   0.00022,   0.00004,157942220.50742,   0.00000,274640135.82653,   0.00000,   0.00000,   0.00000,-316697915.31911,   0.00000
178502238.26190,124066255.27769,2779941.72116,   0.00057,   0.00022,   0.00004,158532535.24503,   0.00000,274640135.82653,   0.00000,   0.00000,   0.00000,-316107600.58150,   0.00000
179299427.43194,124109407.96780,2870789.48982,   0.00057,   0.00022,   0.00004,159133303.65728,   0.00000,274640135.82653,   0.00000,   0.00000,   0.00000,-315506832.16925,   0.00000
180096616.60198,124152560.65792,2957094.87005,   0.00058,   0.00021,   0.00004,159735489.92834,   0.00000,274640135.82653,   0.00000,   0.00000,   0.00000,-314904645.89819,   0.00000
180893805.77201,124195713.34804,3047942.63872,   0.00058,   0.00021,   0.00004,160339573.39223,   0.00000,274640135.82653,   0.00000,   0.00000,   0.00000,-314300562.43430,   0.00000
181684181.35940,124222967.67864,3138790.40738,   0.00058,   0.00021,   0.00004,160936929.51607,   0.00000,274640135.82653,   0.00000,   0.00000,   0.00000,-313703206.31046,   0.00000
182497268.88895,124272933.95140,3229638.17605,   0.00059,   0.00021,   0.00004,161557531.27017,   0.00000,274640135.82653,   0.00000,   0.00000,   0.00000,-313082604.55636,   0.00000
183310356.41851,124322900.22417,3325028.33315,   0.00059,   0.00021,   0.00004,162180031.38365,   0.00000,274640135.82653,   0.00000,   0.00000,   0.00000,-312460104.44288,   0.00000
184107545.58855,124366052.91428,3420418.49025,   0.00060,   0.00021,   0.00004,162790885.77521,   0.00000,274640135.82653,   0.00000,   0.00000,   0.00000,-311849250.05132,   0.00000
184920633.11810,124416019.18705,3511266.25891,   0.00060,   0.00021,   0.00005,163416291.46836,   0.00000,274640135.82653,   0.00000,   0.00000,   0.00000,-311223844.35817,   0.00000
185726907.06500,124450087.10030,3606656.41601,   0.00060,   0.00020,   0.00005,164035369.16655,   0.00000,274640135.82653,   0.00000,   0.00000,   0.00000,-310604766.65998,   0.00000
186555892.95407,124506866.95571,3702046.57311,   0.00061,   0.00020,   0.00005,164677523.71733,   0.00000,274640135.82653,   0.00000,   0.00000,   0.00000,-309962612.10920,   0.00000
187368980.48363,124556833.22848,3801979.11864,   0.00061,   0.00020,   0.00005,165308250.95181,   0.00000,274640135.82653,   0.00000,   0.00000,   0.00000,-309331884.87472,   0.00000
188197966.37270,124613613.08390,3897369.27574,   0.00061,   0.00020,   0.00005,165953508.57910,   0.00000,274640135.82653,   0.00000,   0.00000,   0.00000,-308686627.24743,   0.00000
189011053.90225,124663579.35666,3997301.82127,   0.00062,   0.00020,   0.00005,166587296.22446,   0.00000,274640135.82653,   0.00000,   0.00000,   0.00000,-308052839.60207,   0.00000
189846853.37397,124736257.57159,4097234.36680,   0.00062,   0.00020,   0.00005,167243946.60412,   0.00000,274640135.82653,   0.00000,   0.00000,   0.00000,-307396189.22241,   0.00000
190675839.26304,124793037.42701,4197166.91233,   0.00062,   0.00020,   0.00005,167894042.04323,   0.00000,274640135.82653,   0.00000,   0.00000,   0.00000,-306746093.78329,   0.00000
191520723.51163,124856630.86508,4297099.45787,   0.00063,   0.00019,   0.00006,168558976.97288,   0.00000,274640135.82653,   0.00000,   0.00000,   0.00000,-306081158.85365,   0.00000
192349709.40070,124913410.72049,4397032.00340,   0.00063,   0.00019,   0.00006,169212039.47515,   0.00000,274640135.82653,   0.00000,   0.00000,   0.00000,-305428096.35138,   0.00000
193194593.64929,124977004.15856,4501506.93736,   0.00064,   0.00019,   0.00006,169880286.50778,   0.00000,274640135.82653,   0.00000,   0.00000,   0.00000,-304759849.31875,   0.00000
194030393.12101,125049682.37349,4605981.87133,   0.00064,   0.00019,   0.00006,170544488.89605,   0.00000,274640135.82653,   0.00000,   0.00000,   0.00000,-304095646.93048,   0.00000
194875277.36959,125113275.81155,4710456.80529,   0.00064,   0.00019,   0.00006,171215613.76733,   0.00000,274640135.82653,   0.00000,   0.00000,   0.00000,-303424522.05920,   0.00000
195726975.20083,125192767.60914,4814931.73926,   0.00065,   0.00019,   0.00006,171895976.87179,   0.00000,274640135.82653,   0.00000,   0.00000,   0.00000,-302744158.95474,   0.00000
196571859.44942,125256361.04720,4919406.67322,   0.00065,   0.00019,   0.00006,172569921.47336,   0.00000,274640135.82653,   0.00000,   0.00000,   0.00000,-302070214.35317,   0.00000
197439455.64017,125342666.42743,5023881.60719,   0.00065,   0.00019,   0.00007,173266422.02664,   0.00000,274640135.82653,   0.00000,   0.00000,   0.00000,-301373713.79989,   0.00000
198291153.47141,125422158.22502,5132898.92959,   0.00066,   0.00018,   0.00007,173951242.73139,   0.00000,274640135.82653,   0.00000,   0.00000,   0.00000,-300688893.09514,   0.00000
199158749.66216,125508463.60525,5237373.86355,   0.00066,   0.00018,   0.00007,174650403.87833,   0.00000,274640135.82653,   0.00000,   0.00000,   0.00000,-299989731.94820,   0.00000
200026345.85291,125594768.98548,5346391.18595,   0.00067,   0.00018,   0.00007,175351287.50459,   0.00000,274640135.82653,   0.00000,   0.00000,   0.00000,-299288848.32194,   0.00000
200893942.04367,125681074.36571,5455408.50835,   0.00067,   0.00018,   0.00007,176053475.90983,   0.00000,274640135.82653,   0.00000,   0.00000,   0.00000,-298586659.91670,   0.00000
201761538.23442,125767379.74594,5564425.83075,   0.00067,   0.00018,   0.00007,176756953.54385,   0.00000,274640135.82653,   0.00000,   0.00000,   0.00000,-297883182.28268,   0.00000
202629134.42517,125853685.12618,5677985.54158,   0.00068,   0.00018,   0.00007,177462140.90850,   0.00000,274640135.82653,   0.00000,   0.00000,   0.00000,-297177994.91803,   0.00000
203512628.97544,125946804.08906,5787002.86398,   0.00068,   0.00018,   0.00008,178181622.53153,   0.00000,274640135.82653,   0.00000,   0.00000,   0.00000,-296458513.29500,   0.00000
204402937.10836,126055821.41146,5900562.57481,   0.00068,   0.00017,   0.00008,178910314.37631,   0.00000,274640135.82653,   0.00000,   0.00000,   0.00000,-295729821.45022,   0.00000
205286431.65863,126148940.37434,6009579.89721,   0.00069,   0.00017,   0.00008,179632273.00616,   0.00000,274640135.82653,   0.00000,   0.00000,   0.00000,-295007862.82037,   0.00000
206176739.79155,126257957.69674,6123139.60804,   0.00069,   0.00017,   0.00008,180363367.50612,   0.00000,274640135.82653,   0.00000,   0.00000,   0.00000,-294276768.32040,   0.00000
207060234.34182,126351076.65962,6236699.31887,   0.00070,   0.00017,   0.00008,181088213.12121,   0.00000,274640135.82653,   0.00000,   0.00000,   0.00000,-293551922.70532,   0.00000
207950542.47474,126460093.98202,6354801.41813,   0.00070,   0.00017,   0.00008,181822135.18630,   0.00000,274640135.82653,   0.00000,   0.00000,   0.00000,-292818000.64023,   0.00000
208856748.96717,126575924.88706,6468361.12897,   0.00070,   0.00017,   0.00008,182570231.05592,   0.00000,274640135.82653,   0.00000,   0.00000,   0.00000,-292069904.77061,   0.00000
209747057.10009,126684942.20946,6581920.83980,   0.00071,   0.00017,   0.00009,183305956.75880,   0.00000,274640135.82653,   0.00000,   0.00000,   0.00000,-291334179.06773,   0.00000
210653263.59253,126800773.11451,6700022.93906,   0.00071,   0.00017,   0.00009,184056805.80773,   0.00000,274640135.82653,   0.00000,   0.00000,   0.00000,-290583330.01880,   0.00000
211566283.66762,126932502.37908,6818125.03833,   0.00072,   0.00016,   0.00009,184816057.81772,   0.00000,274640135.82653,   0.00000,   0.00000,   0.00000,-289824078.00881,   0.00000
212488388.51957,127055146.86677,6931684.74916,   0.00072,   0.00016,   0.00009,185582129.93316,   0.00000,274640135.82653,   0.00000,   0.00000,   0.00000,-289058005.89337,   0.00000
213394595.01200,127170977.77182,7049786.84842,   0.00072,   0.00016,   0.00009,186336281.90104,   0.00000,274640135.82653,   0.00000,   0.00000,   0.00000,-288303853.92549,   0.00000
214307615.08709,127302707.03639,7167888.94769,   0.00073,   0.00016,   0.00009,187098715.81577,   0.00000,274640135.82653,   0.00000,   0.00000,   0.00000,-287541420.01076,   0.00000
215236533.52169,127441249.88360,7290533.43539,   0.00073,   0.00016,   0.00009,187876236.69594,   0.00000,274640135.82653,   0.00000,   0.00000,   0.00000,-286763899.13059,   0.00000
216165451.95629,127579792.73082,7408635.53465,   0.00073,   0.00016,   0.00010,188654250.46369,   0.00000,274640135.82653,   0.00000,   0.00000,   0.00000,-285985885.36284,   0.00000
217094370.39090,127718335.57803,7531280.02235,   0.00074,   0.00016,   0.00010,189433808.45267,   0.00000,274640135.82653,   0.00000,   0.00000,   0.00000,-285206327.37386,   0.00000
218023288.82550,127856878.42524,7649382.12161,   0.00074,   0.00016,   0.00010,190213821.36487,   0.00000,274640135.82653,   0.00000,   0.00000,   0.00000,-284426314.46166,   0.00000
218968105.61962,128002234.85511,7772026.60931,   0.00075,   0.00016,   0.00010,191008925.75504,   0.00000,274640135.82653,   0.00000,   0.00000,   0.00000,-283631210.07149,   0.00000
219919735.99638,128163489.64449,7894671.09701,   0.00075,   0.00015,   0.00010,191812061.78646,   0.00000,274640135.82653,   0.00000,   0.00000,   0.00000,-282828074.04007,   0.00000
220848654.43099,128302032.49170,8017315.58471,   0.00075,   0.00015,   0.00010,192595536.07620,   0.00000,274640135.82653,   0.00000,   0.00000,   0.00000,-282044599.75033,   0.00000
221800284.80776,128463287.28109,8139960.07241,   0.00076,   0.00015,   0.00011,193400531.70434,   0.00000,274640135.82653,   0.00000,   0.00000,   0.00000,-281239604.12219,   0.00000
222751915.18452,128624542.07047,8262604.56010,   0.00076,   0.00015,   0.00011,194206429.75358,   0.00000,274640135.82653,   0.00000,   0.00000,   0.00000,-280433706.07295,   0.00000
223719443.92081,128792610.44250,8385249.04780,   0.00077,   0.00015,   0.00011,195026798.43628,   0.00000,274640135.82653,   0.00000,   0.00000,   0.00000,-279613337.39025,   0.00000
224671074.29758,128953865.23188,8512435.92393,   0.00077,   0.00015,   0.00011,195835063.87742,   0.00000,274640135.82653,   0.00000,   0.00000,   0.00000,-278805071.94911,   0.00000
225638603.03386,129121933.60391,8635080.41163,   0.00077,   0.00015,   0.00011,196657199.30482,   0.00000,274640135.82653,   0.00000,   0.00000,   0.00000,-277982936.52171,   0.00000
226612945.35280,129305900.33546,8762267.28776,   0.00078,   0.00015,   0.00011,197487680.42738,   0.00000,274640135.82653,   0.00000,   0.00000,   0.00000,-277152455.39915,   0.00000
227587287.67173,129489867.06700,8884911.77546,   0.00078,   0.00015,   0.00012,198318371.63467,   0.00000,274640135.82653,   0.00000,   0.00000,   0.00000,-276321764.19186,   0.00000
228554816.40802,129657935.43903,9012098.65159,   0.00079,   0.00014,   0.00012,199143647.80686,   0.00000,274640135.82653,   0.00000,   0.00000,   0.00000,-275496488.01967,   0.00000
229545057.08647,129848715.75323,9139285.52772,   0.00079,   0.00014,   0.00012,199990177.17199,   0.00000,274640135.82653,   0.00000,   0.00000,   0.00000,-274649958.65454,   0.00000
230519399.40540,130032682.48478,9266472.40385,   0.00080,   0.00014,   0.00012,200823899.67179,   0.00000,274640135.82653,   0.00000,   0.00000,   0.00000,-273816236.15474,   0.00000
231516453.66650,130239361.15849,9393659.27999,   0.00080,   0.00014,   0.00012,201678771.79834,   0.00000,274640135.82653,   0.00000,   0.00000,   0.00000,-272961364.02819,   0.00000
232506694.34495,130430141.47269,9525388.54455,   0.00080,   0.00014,   0.00012,202528276.45496,   0.00000,274640135.82653,   0.00000,   0.00000,   0.00000,-272111859.37157,   0.00000
233503748.60605,130636820.14640,9652575.42068,   0.00081,   0.00014,   0.00013,203384632.69785,   0.00000,274640135.82653,   0.00000,   0.00000,   0.00000,-271255503.12868,   0.00000
234500802.86716,130843498.82011,9779762.29681,   0.00081,   0.00014,   0.00013,204241703.52137,   0.00000,274640135.82653,   0.00000,   0.00000,   0.00000,-270398432.30516,   0.00000
235513755.48777,131056991.07648,9911491.56138,   0.00082,   0.00014,   0.00013,205113755.70044,   0.00000,274640135.82653,   0.00000,   0.00000,   0.00000,-269526380.12609,   0.00000
236526708.10839,131270483.33284,10038678.43751,   0.00082,   0.00014,   0.00013,205985857.14274,   0.00000,274640135.82653,   0.00000,   0.00000,   0.00000,-268654278.68379,   0.00000
237539660.72901,131483975.58920,10170407.70207,   0.00082,   0.00014,   0.00013,206859321.47649,   0.00000,274640135.82653,   0.00000,   0.00000,   0.00000,-267780814.35004,   0.00000
238559426.93228,131713366.20508,10302136.96664,   0.00083,   0.00013,   0.00013,207740097.07411,   0.00000,274640135.82653,   0.00000,   0.00000,   0.00000,-266900038.75241,   0.00000
239579193.13554,131942756.82096,10433866.23120,   0.00083,   0.00013,   0.00014,208621519.34865,   0.00000,274640135.82653,   0.00000,   0.00000,   0.00000,-266018616.47788,   0.00000
240598959.33881,132172147.43684,10565595.49577,   0.00084,   0.00013,   0.00014,209503580.13801,   0.00000,274640135.82653,   0.00000,   0.00000,   0.00000,-265136555.68852,   0.00000
241634623.90159,132408351.63537,10697324.76033,   0.00084,   0.00013,   0.00014,210399902.74024,   0.00000,274640135.82653,   0.00000,   0.00000,   0.00000,-264240233.08629,   0.00000
242670288.46438,132644555.83390,10829054.02490,   0.00085,   0.00013,   0.00014,211296852.08620,   0.00000,274640135.82653,   0.00000,   0.00000,   0.00000,-263343283.74033,   0.00000
243705953.02716,132880760.03243,10960783.28946,   0.00085,   0.00013,   0.00014,212194420.22813,   0.00000,274640135.82653,   0.00000,   0.00000,   0.00000,-262445715.59840,   0.00000
244748431.17260,133132862.59048,11092512.55403,   0.00085,   0.00013,   0.00014,213099098.80318,   0.00000,274640135.82653,   0.00000,   0.00000,   0.00000,-261541037.02335,   0.00000
245806807.67755,133391778.73117,11224241.81859,   0.00086,   0.00013,   0.00015,214017982.53081,   0.00000,274640135.82653,   0.00000,   0.00000,   0.00000,-260622153.29572,   0.00000
246849285.82298,133643881.28922,11360513.47159,   0.00086,   0.00013,   0.00015,214924507.82896,   0.00000,274640135.82653,   0.00000,   0.00000,   0.00000,-259715627.99757,   0.00000
247907662.32793,133902797.42992,11492242.73615,   0.00087,   0.00013,   0.00015,215844512.64685,   0.00000,274640135.82653,   0.00000,   0.00000,   0.00000,-258795623.17968,   0.00000
248972852.41553,134177611.93013,11628514.38915,   0.00087,   0.00013,   0.00015,216772223.89260,   0.00000,274640135.82653,   0.00000,   0.00000,   0.00000,-257867911.93393,   0.00000
250038042.50313,134452426.43034,11760243.65372,   0.00088,   0.00012,   0.00015,217699715.54816,   0.00000,274640135.82653,   0.00000,   0.00000,   0.00000,-256940420.27837,   0.00000
251119130.95025,134734054.51320,11896515.30671,   0.00088,   0.00012,   0.00015,218642095.50163,   0.00000,274640135.82653,   0.00000,   0.00000,   0.00000,-255998040.32490,   0.00000
252184321.03785,135008869.01342,12028244.57128,   0.00088,   0.00012,   0.00016,219570586.65897,   0.00000,274640135.82653,   0.00000,   0.00000,   0.00000,-255069549.16756,   0.00000
253265409.48496,135290497.09628,12164516.22428,   0.00089,   0.00012,   0.00016,220513966.59745,   0.00000,274640135.82653,   0.00000,   0.00000,   0.00000,-254126169.22908,   0.00000
254346497.93208,135572125.17914,12300787.87727,   0.00089,   0.00012,   0.00016,221457840.29152,   0.00000,274640135.82653,   0.00000,   0.00000,   0.00000,-253182295.53501,   0.00000
255434399.96184,135869651.62152,12437059.53027,   0.00090,   0.00012,   0.00016,222408528.00631,   0.00000,274640135.82653,   0.00000,   0.00000,   0.00000,-252231607.82022,   0.00000
256538200.35113,136173991.64655,12573331.18327,   0.00090,   0.00012,   0.00016,223373318.59434,   0.00000,274640135.82653,   0.00000,   0.00000,   0.00000,-251266817.23219,   0.00000
257626102.38089,136471518.08893,12705060.44783,   0.00091,   0.00012,   0.00017,224324127.70178,   0.00000,274640135.82653,   0.00000,   0.00000,   0.00000,-250316008.12475,   0.00000
258736716.35283,136791756.47347,12841332.10083,   0.00091,   0.00012,   0.00017,225296077.56113,   0.00000,274640135.82653,   0.00000,   0.00000,   0.00000,-249344058.26540,   0.00000
259840516.74211,137096096.49850,12977603.75383,   0.00091,   0.00012,   0.00017,226262166.20551,   0.00000,274640135.82653,   0.00000,   0.00000,   0.00000,-248377969.62102,   0.00000
260951130.71404,137416334.88304,13118417.79526,   0.00092,   0.00012,   0.00017,227235719.91144,   0.00000,274640135.82653,   0.00000,   0.00000,   0.00000,-247404415.91509,   0.00000
262077643.04549,137743386.85024,13254689.44826,   0.00092,   0.00012,   0.00017,228222544.48575,   0.00000,274640135.82653,   0.00000,   0.00000,   0.00000,-246417591.34078,   0.00000
263195070.60007,138079523.59430,13390961.10126,   0.00093,   0.00012,   0.00017,229202320.19119,   0.00000,274640135.82653,   0.00000,   0.00000,   0.00000,-245437815.63534,   0.00000
264321582.93152,138406575.56150,13527232.75425,   0.00093,   0.00011,   0.00018,230189904.86010,   0.00000,274640135.82653,   0.00000,   0.00000,   0.00000,-244450230.96643,   0.00000
265454908.84562,138749525.88821,13663504.40725,   0.00094,   0.00011,   0.00018,231184062.76271,   0.00000,274640135.82653,   0.00000,   0.00000,   0.00000,-243456073.06382,   0.00000
266588234.75972,139092476.21492,13804318.44868,   0.00094,   0.00011,   0.00018,232179378.44026,   0.00000,274640135.82653,   0.00000,   0.00000,   0.00000,-242460757.38627,   0.00000
267737459.03333,139442240.12428,13940590.10168,   0.00095,   0.00011,   0.00018,233187895.06504,   0.00000,274640135.82653,   0.00000,   0.00000,   0.00000,-241452240.76149,   0.00000
268877598.53008,139801088.81051,14076861.75468,   0.00095,   0.00011,   0.00018,234189240.79306,   0.00000,274640135.82653,   0.00000,   0.00000,   0.00000,-240450895.03347,   0.00000
270026822.80370,140150852.71987,14217675.79611,   0.00096,   0.00011,   0.00018,235199243.18229,   0.00000,274640135.82653,   0.00000,   0.00000,   0.00000,-239440892.64424,   0.00000
271182860.65996,140516514.98875,14353947.44911,   0.00096,   0.00011,   0.00019,236214884.83540,   0.00000,274640135.82653,   0.00000,   0.00000,   0.00000,-238425250.99113,   0.00000
272338898.51623,140882177.25762,14490219.10211,   0.00096,   0.00011,   0.00019,237230828.28303,   0.00000,274640135.82653,   0.00000,   0.00000,   0.00000,-237409307.54350,   0.00000
273517648.31466,141270551.46867,14631033.14354,   0.00097,   0.00011,   0.00019,238267675.16925,   0.00000,274640135.82653,   0.00000,   0.00000,   0.00000,-236372460.65728,   0.00000
274673686.17093,141636213.73755,14767304.79654,   0.00097,   0.00011,   0.00019,239284203.12864,   0.00000,274640135.82653,   0.00000,   0.00000,   0.00000,-235355932.69789,   0.00000
275852435.96936,142024587.94859,14908118.83797,   0.00098,   0.00011,   0.00019,240321612.59631,   0.00000,274640135.82653,   0.00000,   0.00000,   0.00000,-234318523.23021,   0.00000
277031185.76779,142412962.15963,15044390.49096,   0.00098,   0.00011,   0.00020,241358444.97124,   0.00000,274640135.82653,   0.00000,   0.00000,   0.00000,-233281690.85529,   0.00000
278232647.50839,142824048.31284,15185204.53240,   0.00099,   0.00011,   0.00020,242416115.66915,   0.00000,274640135.82653,   0.00000,   0.00000,   0.00000,-232224020.15738,   0.00000
279411397.30682,143212422.52389,15321476.18539,   0.00099,   0.00011,   0.00020,243453459.03994,   0.00000,274640135.82653,   0.00000,   0.00000,   0.00000,-231186676.78658,   0.00000
280612859.04742,143623508.67710,15462290.22682,   0.00100,   0.00011,   0.00020,244511620.92702,   0.00000,274640135.82653,   0.00000,   0.00000,   0.00000,-230128514.89951,   0.00000
281814320.78801,144034594.83031,15598561.87982,   0.00100,   0.00011,   0.00020,245569154.81228,   0.00000,274640135.82653,   0.00000,   0.00000,   0.00000,-229070981.01425,   0.00000
283022596.11126,144461579.34303,15739375.92125,   0.00101,   0.00011,   0.00020,246633798.28202,   0.00000,274640135.82653,   0.00000,   0.00000,   0.00000,-228006337.54451,   0.00000
284224057.85186,144872665.49624,15875647.57425,   0.00101,   0.00010,   0.00021,247691776.14186,   0.00000,274640135.82653,   0.00000,   0.00000,   0.00000,-226948359.68466,   0.00000
285448231.53462,145306463.59162,16016461.61568,   0.00102,   0.00010,   0.00021,248770515.36110,   0.00000,274640135.82653,   0.00000,   0.00000,   0.00000,-225869620.46543,   0.00000
286679218.80004,145756160.04651,16157275.65711,   0.00102,   0.00010,   0.00021,249855444.71926,   0.00000,274640135.82653,   0.00000,   0.00000,   0.00000,-224784691.10727,   0.00000
287887494.12329,146183144.55924,16293547.31011,   0.00102,   0.00010,   0.00021,250920028.90848,   0.00000,274640135.82653,   0.00000,   0.00000,   0.00000,-223720106.91805,   0.00000
289134379.74822,146639654.59678,16434361.35154,   0.00103,   0.00010,   0.00021,252019001.21502,   0.00000,274640135.82653,   0.00000,   0.00000,   0.00000,-222621134.61151,   0.00000
290358553.43098,147073452.69216,16570633.00454,   0.00103,   0.00010,   0.00022,253097634.71839,   0.00000,274640135.82653,   0.00000,   0.00000,   0.00000,-221542501.10814,   0.00000
291612252.63856,147545861.08922,16711447.04597,   0.00104,   0.00010,   0.00022,254202917.92362,   0.00000,274640135.82653,   0.00000,   0.00000,   0.00000,-220437217.90291,   0.00000
292859138.26349,148002371.12676,16847718.69897,   0.00104,   0.00010,   0.00022,255301521.20683,   0.00000,274640135.82653,   0.00000,   0.00000,   0.00000,-219338614.61970,   0.00000
294112837.47107,148474779.52382,16988532.74040,   0.00105,   0.00010,   0.00022,256407124.22884,   0.00000,274640135.82653,   0.00000,   0.00000,   0.00000,-218233011.59769,   0.00000
295366536.67865,148947187.92088,17129346.78183,   0.00105,   0.00010,   0.00022,257512881.81056,   0.00000,274640135.82653,   0.00000,   0.00000,   0.00000,-217127254.01597,   0.00000
296636134.24575,149426409.90059,17265618.43483,   0.00106,   0.00010,   0.00022,258631553.11895,   0.00000,274640135.82653,   0.00000,   0.00000,   0.00000,-216008582.70758,   0.00000
297896647.03598,149914716.65717,17406432.47626,   0.00106,   0.00010,   0.00023,259743517.39131,   0.00000,274640135.82653,   0.00000,   0.00000,   0.00000,-214896618.43522,   0.00000
299166244.60307,150393938.63687,17542704.12926,   0.00107,   0.00010,   0.00023,260862470.01066,   0.00000,274640135.82653,   0.00000,   0.00000,   0.00000,-213777665.81587,   0.00000
300442655.75282,150889058.97610,17683518.17069,   0.00107,   0.00010,   0.00023,261988374.46795,   0.00000,274640135.82653,   0.00000,   0.00000,   0.00000,-212651761.35858,   0.00000
301741778.84473,151406891.25749,17819789.82369,   0.00108,   0.00010,   0.00023,263133042.11242,   0.00000,274640135.82653,   0.00000,   0.00000,   0.00000,-211507093.71411,   0.00000
303018189.99448,151902011.59672,17960603.86512,   0.00108,   0.00010,   0.00023,264259194.46199,   0.00000,274640135.82653,   0.00000,   0.00000,   0.00000,-210380941.36454,   0.00000
304317313.08639,152419843.87811,18096875.51812,   0.00109,   0.00010,   0.00024,265404086.65367,   0.00000,274640135.82653,   0.00000,   0.00000,   0.00000,-209236049.17286,   0.00000
305616436.17831,152937676.15950,18233147.17111,   0.00109,   0.00010,   0.00024,266549084.17293,   0.00000,274640135.82653,   0.00000,   0.00000,   0.00000,-208091051.65360,   0.00000
306938271.21239,153478220.38306,18373961.21255,   0.00110,   0.00010,   0.00024,267714650.67416,   0.00000,274640135.82653,   0.00000,   0.00000,   0.00000,-206925485.15236,   0.00000
308237394.30430,153996052.66445,18510232.86554,   0.00110,   0.00010,   0.00024,268859851.29712,   0.00000,274640135.82653,   0.00000,   0.00000,   0.00000,-205780284.52941,   0.00000
309559229.33838,154536596.88801,18646504.51854,   0.00111,   0.00010,   0.00024,270024670.72723,   0.00000,274640135.82653,   0.00000,   0.00000,   0.00000,-204615465.09930,   0.00000
310887877.95511,155093039.47108,18787318.55997,   0.00111,   0.00010,   0.00024,271196363.62064,   0.00000,274640135.82653,   0.00000,   0.00000,   0.00000,-203443772.20589,   0.00000
312209712.98919,155633583.69464,18923590.21297,   0.00112,   0.00010,   0.00025,272361354.75006,   0.00000,274640135.82653,   0.00000,   0.00000,   0.00000,-202278781.07647,   0.00000
313554259.96543,156196839.86037,19059861.86597,   0.00112,   0.00010,   0.00025,273545932.51688,   0.00000,274640135.82653,   0.00000,   0.00000,   0.00000,-201094203.30965,   0.00000
314882908.58216,156753282.44344,19196133.51897,   0.00113,   0.00010,   0.00025,274716913.92158,   0.00000,274640135.82653,   0.00000,   0.00000,   0.00000,-199923221.90495,   0.00000
316234269.14106,157332436.96868,19336947.56040,   0.00113,   0.00010,   0.00025,275908414.34717,   0.00000,274640135.82653,   0.00000,   0.00000,   0.00000,-198731721.47936,   0.00000
317578816.11730,157895693.13441,19473219.21339,   0.00114,   0.00010,   0.00025,277093207.89369,   0.00000,274640135.82653,   0.00000,   0.00000,   0.00000,-197546927.93284,   0.00000
318930176.67620,158474847.65965,19609490.86639,   0.00114,   0.00010,   0.00025,278283884.13408,   0.00000,274640135.82653,   0.00000,   0.00000,   0.00000,-196356251.69245,   0.00000
320297435.59461,159060815.76754,19745762.51939,   0.00115,   0.00010,   0.00026,279488290.23701,   0.00000,274640135.82653,   0.00000,   0.00000,   0.00000,-195151845.58952,   0.00000
321671508.09567,159662682.23495,19882034.17239,   0.00115,   0.00010,   0.00026,280698559.46617,   0.00000,274640135.82653,   0.00000,   0.00000,   0.00000,-193941576.36036,   0.00000
323045580.59673,160264548.70235,20018305.82539,   0.00116,   0.00010,   0.00026,281908879.30958,   0.00000,274640135.82653,   0.00000,   0.00000,   0.00000,-192731256.51695,   0.00000
324419653.09780,160866415.16976,20154577.47838,   0.00116,   0.00010,   0.00026,283119249.11811,   0.00000,274640135.82653,   0.00000,   0.00000,   0.00000,-191520886.70842,   0.00000
325809623.95837,161475095.21982,20286306.74295,   0.00117,   0.00010,   0.00026,284342364.25785,   0.00000,274640135.82653,   0.00000,   0.00000,   0.00000,-190297771.56868,   0.00000
327190510.04209,162092860.04674,20422578.39595,   0.00117,   0.00010,   0.00027,285558618.69654,   0.00000,274640135.82653,   0.00000,   0.00000,   0.00000,-189081517.12999,   0.00000
328587294.48531,162717438.45631,20558850.04894,   0.00118,   0.00010,   0.00027,286788582.32682,   0.00000,274640135.82653,   0.00000,   0.00000,   0.00000,-187851553.49971,   0.00000
329984078.92854,163342016.86589,20695121.70194,   0.00118,   0.00010,   0.00027,288018586.24243,   0.00000,274640135.82653,   0.00000,   0.00000,   0.00000,-186621549.58410,   0.00000
331403575.31394,163989307.21763,20826850.96651,   0.00119,   0.00010,   0.00027,289267096.38489,   0.00000,274640135.82653,   0.00000,   0.00000,   0.00000,-185373039.44164,   0.00000
332807173.33981,164629783.98672,20963122.61950,   0.00119,   0.00010,   0.00027,290502951.57824,   0.00000,274640135.82653,   0.00000,   0.00000,   0.00000,-184137184.24829,   0.00000
334226669.72521,165277074.33846,21094851.88407,   0.00120,   0.00010,   0.00027,291751521.41411,   0.00000,274640135.82653,   0.00000,   0.00000,   0.00000,-182888614.41242,   0.00000
335662064.47012,165931178.27285,21231123.53707,   0.00120,   0.00010,   0.00028,293014773.36181,   0.00000,274640135.82653,   0.00000,   0.00000,   0.00000,-181625362.46472,   0.00000
337088374.43816,166594366.98410,21362852.80163,   0.00121,   0.00010,   0.00028,294269171.63448,   0.00000,274640135.82653,   0.00000,   0.00000,   0.00000,-180370964.19205,   0.00000
338514684.40621,167257555.69536,21494582.06620,   0.00121,   0.00010,   0.00028,295523592.94928,   0.00000,274640135.82653,   0.00000,   0.00000,   0.00000,-179116542.87725,   0.00000
339963706.31642,167943456.34878,21630853.71919,   0.00122,   0.00010,   0.00028,296798463.21825,   0.00000,274640135.82653,   0.00000,   0.00000,   0.00000,-177841672.60828,   0.00000
341405914.64398,168613458.64269,21762582.98376,   0.00122,   0.00010,   0.00028,298066594.86518,   0.00000,274640135.82653,   0.00000,   0.00000,   0.00000,-176573540.96135,   0.00000
342870834.91371,169306172.87876,21894312.24832,   0.00123,   0.00010,   0.00028,299354177.32975,   0.00000,274640135.82653,   0.00000,   0.00000,   0.00000,-175285958.49678,   0.00000
344326670.40657,170007971.89170,22026041.51289,   0.00124,   0.00010,   0.00029,300633875.45342,   0.00000,274640135.82653,   0.00000,   0.00000,   0.00000,-174006260.37311,   0.00000
345791590.67629,170700686.12777,22157770.77745,   0.00124,   0.00010,   0.00029,301921491.54831,   0.00000,274640135.82653,   0.00000,   0.00000,   0.00000,-172718644.27822,   0.00000
347263324.52867,171409298.72336,22289500.04202,   0.00125,   0.00010,   0.00029,303214885.44942,   0.00000,274640135.82653,   0.00000,   0.00000,   0.00000,-171425250.37711,   0.00000
348735058.38105,172117911.31895,22421229.30658,   0.00125,   0.00010,   0.00029,304508293.90913,   0.00000,274640135.82653,   0.00000,   0.00000,   0.00000,-170131841.91740,   0.00000
350229504.17559,172849235.85671,22548416.18271,   0.00126,   0.00010,   0.00029,305820135.00937,   0.00000,274640135.82653,   0.00000,   0.00000,   0.00000,-168820000.81716,   0.00000
351708051.61062,173573746.81181,22680145.44728,   0.00126,   0.00010,   0.00029,307119328.34099,   0.00000,274640135.82653,   0.00000,   0.00000,   0.00000,-167520807.48554,   0.00000
353202497.40516,174305071.34957,22811874.71184,   0.00127,   0.00010,   0.00030,308432197.48265,   0.00000,274640135.82653,   0.00000,   0.00000,   0.00000,-166207938.34388,   0.00000
354696943.19970,175036395.88732,22939061.58797,   0.00127,   0.00010,   0.00030,309744069.30581,   0.00000,274640135.82653,   0.00000,   0.00000,   0.00000,-164896066.52072,   0.00000
356214100.93641,175790432.36724,23070790.85254,   0.00128,   0.00011,   0.00030,311076381.56981,   0.00000,274640135.82653,   0.00000,   0.00000,   0.00000,-163563754.25672,   0.00000
357731258.67312,176544468.84716,23197977.72867,   0.00128,   0.00011,   0.00030,312407692.56215,   0.00000,274640135.82653,   0.00000,   0.00000,   0.00000,-162232443.26437,   0.00000
359255229.99248,177314403.68660,23325164.60480,   0.00129,   0.00011,   0.00030,313744770.57921,   0.00000,274640135.82653,   0.00000,   0.00000,   0.00000,-160895365.24732,   0.00000
360772387.72919,178068440.16652,23452351.48093,   0.00129,   0.00011,   0.00030,315076097.41621,   0.00000,274640135.82653,   0.00000,   0.00000,   0.00000,-159564038.41032,   0.00000
362296359.04855,178838375.00596,23579538.35706,   0.00130,   0.00011,   0.00031,316413191.75911,   0.00000,274640135.82653,   0.00000,   0.00000,   0.00000,-158226944.06742,   0.00000
363843042.31008,179631021.78757,23706725.23319,   0.00131,   0.00011,   0.00031,317769716.03551,   0.00000,274640135.82653,   0.00000,   0.00000,   0.00000,-156870419.79102,   0.00000
365382911.98895,180407770.20965,23833912.10933,   0.00131,   0.00011,   0.00031,319120487.59084,   0.00000,274640135.82653,   0.00000,   0.00000,   0.00000,-155519648.23569,   0.00000
366929595.25048,181200416.99126,23961098.98546,   0.00132,   0.00011,   0.00031,320477028.99964,   0.00000,274640135.82653,   0.00000,   0.00000,   0.00000,-154163106.82689,   0.00000
368483092.09465,182008962.13238,24088285.86159,   0.00132,   0.00011,   0.00031,321839343.22564,   0.00000,274640135.82653,   0.00000,   0.00000,   0.00000,-152800792.60088,   0.00000
370045673.71570,182808422.49663,24210930.34929,   0.00133,   0.00011,   0.00031,323208541.89343,   0.00000,274640135.82653,   0.00000,   0.00000,   0.00000,-151431593.93310,   0.00000
371615068.91939,183623781.22040,24338117.22542,   0.00133,   0.00011,   0.00032,324584534.77394,   0.00000,274640135.82653,   0.00000,   0.00000,   0.00000,-150055601.05259,   0.00000
373184464.12308,184439139.94417,24460761.71312,   0.00134,   0.00011,   0.00032,325959515.26769,   0.00000,274640135.82653,   0.00000,   0.00000,   0.00000,-148680620.55884,   0.00000
374760672.90942,185270397.02746,24583406.20081,   0.00134,   0.00011,   0.00032,327340273.86701,   0.00000,274640135.82653,   0.00000,   0.00000,   0.00000,-147299861.95951,   0.00000
376352780.05528,186108467.69340,24706050.68851,   0.00135,   0.00011,   0.00032,328734702.17815,   0.00000,274640135.82653,   0.00000,   0.00000,   0.00000,-145905433.64838,   0.00000
377928988.84162,186939724.77668,24828695.17621,   0.00136,   0.00011,   0.00032,330115483.52010,   0.00000,274640135.82653,   0.00000,   0.00000,   0.00000,-144524652.30643,   0.00000
379527909.57013,187793693.80214,24951339.66391,   0.00136,   0.00011,   0.00032,331515709.41423,   0.00000,274640135.82653,   0.00000,   0.00000,   0.00000,-143124426.41230,   0.00000
381135915.07551,188638578.05072,25073984.15161,   0.00137,   0.00012,   0.00033,332923828.92975,   0.00000,274640135.82653,   0.00000,   0.00000,   0.00000,-141716306.89678,   0.00000
382741649.38666,189508445.43569,25196628.63930,   0.00137,   0.00012,   0.00033,334329861.62214,   0.00000,274640135.82653,   0.00000,   0.00000,   0.00000,-140310274.20439,   0.00000
384356468.47469,190369228.04380,25314730.73857,   0.00138,   0.00012,   0.00033,335742759.30280,   0.00000,274640135.82653,   0.00000,   0.00000,   0.00000,-138897376.52373,   0.00000
385978101.14536,191245909.01142,25437375.22627,   0.00138,   0.00012,   0.00033,337162482.55188,   0.00000,274640135.82653,   0.00000,   0.00000,   0.00000,-137477653.27465,   0.00000
387615632.17555,192129403.56169,25555477.32553,   0.00139,   0.00012,   0.00033,338594850.90999,   0.00000,274640135.82653,   0.00000,   0.00000,   0.00000,-136045284.91654,   0.00000
389244078.42888,193021982.88882,25678121.81323,   0.00139,   0.00012,   0.00033,340020400.04060,   0.00000,274640135.82653,   0.00000,   0.00000,   0.00000,-134619735.78593,   0.00000
390888423.04172,193921375.79861,25796223.91250,   0.00140,   0.00012,   0.00034,341458597.75982,   0.00000,274640135.82653,   0.00000,   0.00000,   0.00000,-133181538.06671,   0.00000
392532767.65456,194820768.70839,25914326.01176,   0.00141,   0.00012,   0.00034,342896816.75821,   0.00000,274640135.82653,   0.00000,   0.00000,   0.00000,-131743319.06832,   0.00000
394177112.26740,195720161.61818,26032428.11103,   0.00141,   0.00012,   0.00034,344335056.76916,   0.00000,274640135.82653,   0.00000,   0.00000,   0.00000,-130305079.05737,   0.00000
395844168.82241,196642266.47013,26145987.82186,   0.00142,   0.00012,   0.00034,345791744.35566,   0.00000,274640135.82653,   0.00000,   0.00000,   0.00000,-128848391.47087,   0.00000
397495327.01790,197557557.73944,26264089.92112,   0.00142,   0.00012,   0.00034,347235834.64369,   0.00000,274640135.82653,   0.00000,   0.00000,   0.00000,-127404301.18284,   0.00000
399169197.15556,198495560.95090,26382192.02039,   0.00143,   0.00012,   0.00034,348699415.16830,   0.00000,274640135.82653,   0.00000,   0.00000,   0.00000,-125940720.65823,   0.00000
400858965.65273,199440377.74502,26495751.73122,   0.00143,   0.00013,   0.00034,350175649.73368,   0.00000,274640135.82653,   0.00000,   0.00000,   0.00000,-124464486.09285,   0.00000
402532835.79039,200378380.95649,26609311.44205,   0.00144,   0.00013,   0.00035,351638262.83974,   0.00000,274640135.82653,   0.00000,   0.00000,   0.00000,-123001872.98679,   0.00000
404222604.28756,201323197.75061,26722871.15288,   0.00145,   0.00013,   0.00035,353114559.31363,   0.00000,274640135.82653,   0.00000,   0.00000,   0.00000,-121525576.51290,   0.00000
405919186.36738,202283912.90424,26836430.86371,   0.00145,   0.00013,   0.00035,354596711.77863,   0.00000,274640135.82653,   0.00000,   0.00000,   0.00000,-120043424.04790,   0.00000
407615768.44721,203244628.05788,26949990.57454,   0.00146,   0.00013,   0.00035,356078901.71775,   0.00000,274640135.82653,   0.00000,   0.00000,   0.00000,-118561234.10878,   0.00000
409335062.46920,204228055.15368,27063550.28538,   0.00146,   0.00013,   0.00035,357580613.88499,   0.00000,274640135.82653,   0.00000,   0.00000,   0.00000,-117059521.94154,   0.00000
411054356.49119,205211482.24948,27177109.99621,   0.00147,   0.00013,   0.00035,359082370.18822,   0.00000,274640135.82653,   0.00000,   0.00000,   0.00000,-115557765.63831,   0.00000
412773650.51318,206194909.34528,27286127.31861,   0.00148,   0.00013,   0.00035,360583138.79373,   0.00000,274640135.82653,   0.00000,   0.00000,   0.00000,-114056997.03280,   0.00000
414499758.11782,207194234.80060,27395144.64100,   0.00148,   0.00013,   0.00036,362089798.33155,   0.00000,274640135.82653,   0.00000,   0.00000,   0.00000,-112550337.49498,   0.00000
416225865.72246,208193560.25592,27508704.35184,   0.00149,   0.00014,   0.00036,363597540.44607,   0.00000,274640135.82653,   0.00000,   0.00000,   0.00000,-111042595.38046,   0.00000
417967871.68661,209199699.29389,27617721.67423,   0.00149,   0.00014,   0.00036,365117951.52659,   0.00000,274640135.82653,   0.00000,   0.00000,   0.00000,-109522184.29994,   0.00000
419709877.65077,210205838.33185,27722196.60820,   0.00150,   0.00014,   0.00036,366637381.79983,   0.00000,274640135.82653,   0.00000,   0.00000,   0.00000,-108002754.02670,   0.00000
421458697.19757,211227875.72934,27831213.93060,   0.00151,   0.00014,   0.00036,368163758.42614,   0.00000,274640135.82653,   0.00000,   0.00000,   0.00000,-106476377.40039,   0.00000
423230228.68655,212272625.06899,27940231.25300,   0.00151,   0.00014,   0.00036,369709712.80630,   0.00000,274640135.82653,   0.00000,   0.00000,   0.00000,-104930423.02023,   0.00000
424979048.23335,213294662.46647,28044706.18696,   0.00152,   0.00014,   0.00036,371235179.44976,   0.00000,274640135.82653,   0.00000,   0.00000,   0.00000,-103404956.37677,   0.00000
426750579.72232,214339411.80612,28153723.50936,   0.00152,   0.00014,   0.00037,372781261.52404,   0.00000,274640135.82653,   0.00000,   0.00000,   0.00000,-101858874.30249,   0.00000
428544823.15346,215406873.08794,28258198.44332,   0.00153,   0.00014,   0.00037,374345914.13482,   0.00000,274640135.82653,   0.00000,   0.00000,   0.00000,-100294221.69171,   0.00000
430316354.64244,216451622.42759,28362673.37729,   0.00154,   0.00015,   0.00037,375891101.95392,   0.00000,274640135.82653,   0.00000,   0.00000,   0.00000,-98749033.87261,   0.00000
432110598.07357,217519083.70941,28462605.92282,   0.00154,   0.00015,   0.00037,377454870.41360,   0.00000,274640135.82653,   0.00000,   0.00000,   0.00000,-97185265.41293,   0.00000
433911655.08736,218602443.35074,28567080.85679,   0.00155,   0.00015,   0.00037,379025644.23155,   0.00000,274640135.82653,   0.00000,   0.00000,   0.00000,-95614491.59498,   0.00000
435712712.10115,219685802.99207,28671555.79075,   0.00155,   0.00015,   0.00037,380596501.33101,   0.00000,274640135.82653,   0.00000,   0.00000,   0.00000,-94043634.49552,   0.00000
437513769.11494,220769162.63340,28771488.33628,   0.00156,   0.00015,   0.00037,382166414.68106,   0.00000,274640135.82653,   0.00000,   0.00000,   0.00000,-92473721.14546,   0.00000
439330724.48824,221859335.85739,28871420.88181,   0.00157,   0.00015,   0.00038,383750054.67224,   0.00000,274640135.82653,   0.00000,   0.00000,   0.00000,-90890081.15429,   0.00000
441154493.44420,222965407.44089,28971353.42735,   0.00157,   0.00015,   0.00038,385339702.83940,   0.00000,274640135.82653,   0.00000,   0.00000,   0.00000,-89300432.98712,   0.00000
442978262.40015,224071479.02439,29071285.97288,   0.00158,   0.00016,   0.00038,386929442.20352,   0.00000,274640135.82653,   0.00000,   0.00000,   0.00000,-87710693.62300,   0.00000
444824743.29827,225200262.55005,29171218.51841,   0.00158,   0.00016,   0.00038,388538854.54740,   0.00000,274640135.82653,   0.00000,   0.00000,   0.00000,-86101281.27913,   0.00000
446648512.25423,226306334.13355,29271151.06394,   0.00159,   0.00016,   0.00038,390128778.44021,   0.00000,274640135.82653,   0.00000,   0.00000,   0.00000,-84511357.38632,   0.00000
448501806.73500,227451016.01873,29366541.22104,   0.00160,   0.00016,   0.00038,391743315.11113,   0.00000,274640135.82653,   0.00000,   0.00000,   0.00000,-82896820.71540,   0.00000
450348287.63312,228579799.54440,29461931.37814,   0.00160,   0.00016,   0.00038,393352004.98166,   0.00000,274640135.82653,   0.00000,   0.00000,   0.00000,-81288130.84487,   0.00000
452217480.47341,229731295.01223,29557321.53524,   0.00161,   0.00016,   0.00038,394980399.39521,   0.00000,274640135.82653,   0.00000,   0.00000,   0.00000,-79659736.43132,   0.00000
454093486.89635,230898688.83958,29652711.69233,   0.00162,   0.00017,   0.00039,396614874.33868,   0.00000,274640135.82653,   0.00000,   0.00000,   0.00000,-78025261.48785,   0.00000
455946781.37712,232043370.72476,29748101.84943,   0.00162,   0.00017,   0.00039,398229850.73264,   0.00000,274640135.82653,   0.00000,   0.00000,   0.00000,-76410285.09389,   0.00000
457838686.15957,233217578.13476,29838949.61810,   0.00163,   0.00017,   0.00039,399877181.73930,   0.00000,274640135.82653,   0.00000,   0.00000,   0.00000,-74762954.08723,   0.00000
459721506.16516,234400870.32162,29934339.77520,   0.00163,   0.00017,   0.00039,401517999.82186,   0.00000,274640135.82653,   0.00000,   0.00000,   0.00000,-73122136.00467,   0.00000
461613410.94761,235575077.73162,30025187.54386,   0.00164,   0.00017,   0.00039,403165572.57551,   0.00000,274640135.82653,   0.00000,   0.00000,   0.00000,-71474563.25102,   0.00000
463518942.89536,236781081.86065,30116035.31253,   0.00165,   0.00017,   0.00039,404825272.35476,   0.00000,274640135.82653,   0.00000,   0.00000,   0.00000,-69814863.47177,   0.00000
465417661.26047,237971187.63017,30206883.08119,   0.00165,   0.00018,   0.00039,406479100.71431,   0.00000,274640135.82653,   0.00000,   0.00000,   0.00000,-68161035.11222,   0.00000
467323193.20822,239177191.75920,30293188.46142,   0.00166,   0.00018,   0.00039,408138063.37334,   0.00000,274640135.82653,   0.00000,   0.00000,   0.00000,-66502072.45319,   0.00000
469244623.51549,240390009.47088,30384036.23009,   0.00167,   0.00018,   0.00039,409811813.92616,   0.00000,274640135.82653,   0.00000,   0.00000,   0.00000,-64828321.90037,   0.00000
471172867.40541,241618725.54208,30470341.61032,   0.00167,   0.00018,   0.00040,411490725.20856,   0.00000,274640135.82653,   0.00000,   0.00000,   0.00000,-63149410.61797,   0.00000
473101111.29533,242847441.61327,30556646.99055,   0.00168,   0.00018,   0.00040,413169787.04939,   0.00000,274640135.82653,   0.00000,   0.00000,   0.00000,-61470348.77714,   0.00000
475029355.18525,244076157.68447,30642952.37079,   0.00169,   0.00018,   0.00040,414848997.62055,   0.00000,274640135.82653,   0.00000,   0.00000,   0.00000,-59791138.20598,   0.00000
476980311.01734,245327585.69784,30729257.75102,   0.00169,   0.00019,   0.00040,416548046.59370,   0.00000,274640135.82653,   0.00000,   0.00000,   0.00000,-58092089.23283,   0.00000
478915368.48991,246572200.12855,30811020.74282,   0.00170,   0.00019,   0.00040,418232615.85602,   0.00000,274640135.82653,   0.00000,   0.00000,   0.00000,-56407519.97051,   0.00000
480882222.68151,247830441.72456,30897326.12305,   0.00170,   0.00019,   0.00040,419945616.18919,   0.00000,274640135.82653,   0.00000,   0.00000,   0.00000,-54694519.63734,   0.00000
482839992.09625,249097768.09744,30979089.11485,   0.00171,   0.00019,   0.00040,421650214.68799,   0.00000,274640135.82653,   0.00000,   0.00000,   0.00000,-52989921.13854,   0.00000
484797761.51098,250365094.47032,31060852.10665,   0.00172,   0.00019,   0.00040,423354983.83303,   0.00000,274640135.82653,   0.00000,   0.00000,   0.00000,-51285151.99350,   0.00000
486778242.86788,251655132.78537,31142615.09844,   0.00172,   0.00020,   0.00040,425079648.61462,   0.00000,274640135.82653,   0.00000,   0.00000,   0.00000,-49560487.21191,   0.00000
488758724.22479,252945171.10042,31219835.70181,   0.00173,   0.00020,   0.00041,426803497.39282,   0.00000,274640135.82653,   0.00000,   0.00000,   0.00000,-47836638.43371,   0.00000
490739205.58169,254235209.41546,31301598.69361,   0.00174,   0.00020,   0.00041,428528523.13978,   0.00000,274640135.82653,   0.00000,   0.00000,   0.00000,-46111612.68675,   0.00000
492742398.88076,255547959.67268,31378819.29697,   0.00174,   0.00020,   0.00041,430272480.61066,   0.00000,274640135.82653,   0.00000,   0.00000,   0.00000,-44367655.21587,   0.00000
494745592.17982,256860709.92989,31456039.90034,   0.00175,   0.00020,   0.00041,432016629.98511,   0.00000,274640135.82653,   0.00000,   0.00000,   0.00000,-42623505.84142,   0.00000
496755599.06154,258189358.54662,31528718.11527,   0.00176,   0.00021,   0.00041,433766113.00048,   0.00000,274640135.82653,   0.00000,   0.00000,   0.00000,-40874022.82605,   0.00000
498758792.36061,259502108.80383,31605938.71864,   0.00176,   0.00021,   0.00041,435510648.68207,   0.00000,274640135.82653,   0.00000,   0.00000,   0.00000,-39129487.14446,   0.00000
500775612.82498,260846655.78008,31678616.93357,   0.00177,   0.00021,   0.00041,437266683.66426,   0.00000,274640135.82653,   0.00000,   0.00000,   0.00000,-37373452.16227,   0.00000
502801518.06622,262182117.97945,31755837.53694,   0.00178,   0.00021,   0.00041,439031390.99729,   0.00000,274640135.82653,   0.00000,   0.00000,   0.00000,-35608744.82924,   0.00000
504834236.89010,263533478.53835,31828515.75187,   0.00178,   0.00021,   0.00041,440801476.58434,   0.00000,274640135.82653,   0.00000,   0.00000,   0.00000,-33838659.24219,   0.00000
506873769.29663,264900737.45676,31896651.57837,   0.00179,   0.00022,   0.00041,442576967.95889,   0.00000,274640135.82653,   0.00000,   0.00000,   0.00000,-32063167.86764,   0.00000
508929200.06269,266274809.95782,31969329.79330,   0.00180,   0.00022,   0.00042,444367295.38540,   0.00000,274640135.82653,   0.00000,   0.00000,   0.00000,-30272840.44112,   0.00000
510968732.46922,267642068.87624,32037465.61980,   0.00180,   0.00022,   0.00042,446143241.02741,   0.00000,274640135.82653,   0.00000,   0.00000,   0.00000,-28496894.79912,   0.00000
513024163.23527,269016141.37730,32105601.44630,   0.00181,   0.00022,   0.00042,447933035.72141,   0.00000,274640135.82653,   0.00000,   0.00000,   0.00000,-26707100.10512,   0.00000
515086407.58397,270406112.23788,32173737.27280,   0.00182,   0.00023,   0.00042,449729260.75841,   0.00000,274640135.82653,   0.00000,   0.00000,   0.00000,-24910875.06812,   0.00000
517171363.87484,271818795.04062,32241873.09929,   0.00182,   0.00023,   0.00042,451545562.63391,   0.00000,274640135.82653,   0.00000,   0.00000,   0.00000,-23094573.19262,   0.00000
519233608.22354,273208765.90120,32305466.53736,   0.00183,   0.00023,   0.00042,453341290.70878,   0.00000,274640135.82653,   0.00000,   0.00000,   0.00000,-21298845.11775,   0.00000
521325378.09706,274637347.06346,32373602.36386,   0.00184,   0.00023,   0.00042,455164315.21232,   0.00000,274640135.82653,   0.00000,   0.00000,   0.00000,-19475820.61420,   0.00000
523410334.38793,276050029.86620,32437195.80192,   0.00184,   0.00024,   0.00042,456980386.56776,   0.00000,274640135.82653,   0.00000,   0.00000,   0.00000,-17659749.25877,   0.00000
525502104.26144,277478611.02847,32500789.23999,   0.00185,   0.00024,   0.00042,458802954.52640,   0.00000,274640135.82653,   0.00000,   0.00000,   0.00000,-15837181.30013,   0.00000
527609772.49448,278914005.77338,32559840.28962,   0.00186,   0.00024,   0.00042,460638436.42891,   0.00000,274640135.82653,   0.00000,   0.00000,   0.00000,-14001699.39762,   0.00000
529708355.95064,280358485.29515,32623433.72769,   0.00186,   0.00024,   0.00042,462467788.71936,   0.00000,274640135.82653,   0.00000,   0.00000,   0.00000,-12172347.10717,   0.00000
531822837.76633,281809778.39958,32682484.77732,   0.00187,   0.00025,   0.00042,464310069.18475,   0.00000,274640135.82653,   0.00000,   0.00000,   0.00000,-10330066.64178,   0.00000
533960031.52418,283283783.44617,32741535.82695,   0.00188,   0.00025,   0.00043,466172525.78267,   0.00000,274640135.82653,   0.00000,   0.00000,   0.00000,-8467610.04386,   0.00000
536081326.92251,284750974.91012,32796044.48815,   0.00188,   0.00025,   0.00043,468020691.76178,   0.00000,274640135.82653,   0.00000,   0.00000,   0.00000,-6619444.06475,   0.00000
538218520.68036,286224979.95671,32855095.53778,   0.00189,   0.00025,   0.00043,469883710.89973,   0.00000,274640135.82653,   0.00000,   0.00000,   0.00000,-4756424.92680,   0.00000
540346629.66134,287708069.78017,32909604.19898,   0.00190,   0.00026,   0.00043,471738756.00434,   0.00000,274640135.82653,   0.00000,   0.00000,   0.00000,-2901379.82219,   0.00000
542490637.00184,289197973.18628,32964112.86018,   0.00190,   0.00026,   0.00043,473607711.55697,   0.00000,274640135.82653,   0.00000,   0.00000,   0.00000,-1032424.26956,   0.00000
543675013.77483,290018692.73770,32994002.49483,   0.00191,   0.00026,   0.00043,474640135.86412,   0.00000,274640135.82653,   0.00000,   0.00000,   0.00000,   0.03759,   0.00000
543679221.89960,290242638.09149,32951107.67155,   0.00191,   0.00026,   0.00043,474640135.86412,   0.00000,274643361.00101,   0.00000,   0.00000,   0.00000,   0.00000,   2.00000
543688344.23281,290749871.12926,32852599.93964,   0.00192,   0.00026,   0.00043,476518349.10179,   0.00001,274650468.41282,   0.00001,   0.00000,   0.00000,  -0.00000,   2.00000
543695604.91685,291266128.22238,32757353.91753,   0.00193,   0.00027,   0.00043,476546795.93833,   0.00002,274657652.61600,   0.00002,   0.00000,   0.00000,  -0.00000,   2.00000
543703706.59386,291767896.36549,32658534.27957,   0.00193,   0.00027,   0.00043,476547106.80039,   0.00002,274664806.76189,   0.00003,   0.00000,   0.00001,   0.00000,   2.00000
543710166.53246,292292032.85783,32559105.83701,   0.00194,   0.00027,   0.00043,476567451.61031,   0.00003,274672006.67450,   0.00003,   0.00000,   0.00001,  -0.00000,   2.00000
543717469.99666,292801652.80964,32456121.12325,   0.00195,   0.00027,   0.00043,476567776.93111,   0.00004,274679176.48263,   0.00004,   0.00000,   0.00001,   0.00000,   2.00000
543722854.48318,293320128.02739,32356439.21626,   0.00195,   0.00028,   0.00043,476596333.26216,   0.00004,274686423.00068,   0.00005,   0.00000,   0.00001,   0.00000,   2.00000
543728590.55685,293836500.18080,32252706.68137,   0.00196,   0.00028,   0.00043,476603101.73230,   0.00005,274693663.52923,   0.00006,   0.00000,   0.00001,  -0.00000,   2.00000
543733072.11668,294362637.77454,32148893.74324,   0.00197,   0.00028,   0.00043,476617232.75782,   0.00006,274700925.83041,   0.00007,   0.00000,   0.00002,   0.00000,   2.00000
543737876.09943,294886614.48332,32041048.47538,   0.00197,   0.00029,   0.00043,476624042.97514,   0.00006,274708182.17032,   0.00007,   0.00000,   0.00002,   0.00000,   2.00000
543740327.48145,295419772.53968,31937593.97779,   0.00198,   0.00029,   0.00044,476639154.61765,   0.00007,274715463.82974,   0.00008,   0.00000,   0.00002,   0.00000,   2.00000
543743432.45299,295950125.55961,31829064.62330,   0.00199,   0.00029,   0.00044,476659605.18782,   0.00008,274722790.80766,   0.00009,   0.00000,   0.00002,  -0.00000,   2.00000
543745183.70190,296490057.94610,31720483.74272,   0.00199,   0.00029,   0.00044,476673911.14910,   0.00008,274730139.66128,   0.00010,   0.00001,   0.00002,   0.00000,   2.00000
543746177.52506,297027209.75129,31612347.91433,   0.00200,   0.00030,   0.00044,476681761.62533,   0.00009,274737485.99044,   0.00011,   0.00001,   0.00003,   0.00000,   2.00000
543747453.38468,297562088.37903,31500203.43589,   0.00201,   0.00030,   0.00044,476688699.74983,   0.00010,274744826.37771,   0.00011,   0.00001,   0.00003,   0.00000,   2.00000
543747664.25132,298105797.95015,31387000.75803,   0.00202,   0.00030,   0.00044,476716670.86811,   0.00010,274752239.87343,   0.00012,   0.00001,   0.00003,   0.00000,   2.00000
543747105.86013,298646670.25300,31274269.90051,   0.00202,   0.00031,   0.00044,476724599.61632,   0.00011,274759650.80562,   0.00013,   0.00001,   0.00003,  -0.00000,   2.00000
543745437.73932,299185409.39902,31163029.08297,   0.00203,   0.00031,   0.00044,476718929.26163,   0.00012,274767008.12670,   0.00014,   0.00001,   0.00003,   0.00000,   2.00000
543744023.57598,299732626.25124,31045270.84433,   0.00204,   0.00031,   0.00044,476759662.48036,   0.00012,274774486.19803,   0.00015,   0.00001,   0.00004,   0.00000,   2.00000
543740743.42307,300289852.89809,30928531.51875,   0.00204,   0.00032,   0.00044,476760677.12049,   0.00013,274781935.35594,   0.00016,   0.00001,   0.00004,   0.00000,   2.00000
543736664.04078,300844133.00051,30812282.71358,   0.00205,   0.00032,   0.00044,476768676.50093,   0.00014,274789381.94441,   0.00016,   0.00001,   0.00004,   0.00000,   2.00000
543732150.49005,301394723.10681,30695518.77913,   0.00206,   0.00032,   0.00044,476790252.60544,   0.00014,274796876.85505,   0.00017,   0.00001,   0.00004,  -0.00000,   2.00000
543727074.56313,301954999.67805,30574305.87976,   0.00207,   0.00032,   0.00044,476804046.24925,   0.00015,274804390.62732,   0.00018,   0.00001,   0.00004,   0.00000,   2.00000
543721190.08492,302512274.58912,30453610.69527,   0.00207,   0.00033,   0.00044,476812123.33069,   0.00016,274811901.79132,   0.00019,   0.00001,   0.00005,   0.00000,   2.00000
543714508.70538,303066562.97979,30333431.84088,   0.00208,   0.00033,   0.00044,476820192.04478,   0.00016,274819410.34383,   0.00020,   0.00001,   0.00005,   0.00000,   2.00000
543706562.95970,303629130.12300,30212291.87706,   0.00209,   0.00033,   0.00044,476848513.84378,   0.00017,274826991.91650,   0.00021,   0.00001,   0.00005,  -0.00000,   2.00000
543697584.76610,304202034.36774,30087716.63022,   0.00209,   0.00034,   0.00044,476848923.11279,   0.00018,274834541.81783,   0.00021,   0.00001,   0.00005,  -0.00000,   2.00000
543688130.14730,304770966.85084,29962697.32998,   0.00210,   0.00034,   0.00044,476870645.65807,   0.00018,274842139.77048,   0.00022,   0.00001,   0.00005,  -0.00000,   2.00000
543677852.37155,305336792.27494,29838222.07696,   0.00211,   0.00034,   0.00044,476878833.62835,   0.00019,274849735.06592,   0.00023,   0.00002,   0.00005,   0.00000,   2.00000
543667190.34532,305911118.40652,29708374.17933,   0.00212,   0.00035,   0.00044,476906473.36614,   0.00020,274857400.14490,   0.00024,   0.00002,   0.00006,  -0.00000,   2.00000
543655323.76496,306483182.53250,29580067.63336,   0.00212,   0.00035,   0.00044,476901178.09417,   0.00021,274865011.98614,   0.00025,   0.00002,   0.00006,   0.00000,   2.00000
543642050.24503,307063137.58487,29450877.66925,   0.00213,   0.00035,   0.00044,476929734.30148,   0.00021,274872696.80751,   0.00026,   0.00002,   0.00006,   0.00000,   2.00000
543627564.25559,307640815.13210,29323219.47857,   0.00214,   0.00036,   0.00044,476924476.44494,   0.00022,274880328.46129,   0.00026,   0.00002,   0.00006,   0.00000,   2.00000
543613564.75078,308214806.85238,29190706.12163,   0.00214,   0.00036,   0.00044,476945450.74784,   0.00023,274888004.74821,   0.00027,   0.00002,   0.00006,   0.00000,   2.00000
543597154.56150,308796052.68911,29061813.86841,   0.00215,   0.00036,   0.00044,476974957.01137,   0.00023,274895757.08578,   0.00028,   0.00002,   0.00007,   0.00000,   2.00000
543581428.33500,309375981.36680,28925523.40499,   0.00216,   0.00037,   0.00044,476968116.01039,   0.00024,274903450.13090,   0.00029,   0.00002,   0.00007,   0.00000,   2.00000
543562878.56096,309964058.36471,28793828.79811,   0.00217,   0.00037,   0.00044,476984121.50638,   0.00025,274911168.89667,   0.00030,   0.00002,   0.00007,   0.00000,   2.00000
543543734.54193,310560114.08745,28656846.77694,   0.00217,   0.00038,   0.00044,477012086.49511,   0.00025,274918957.52068,   0.00031,   0.00002,   0.00007,   0.00000,   2.00000
543524770.80331,311140928.33154,28520959.92799,   0.00218,   0.00038,   0.00044,477013669.53215,   0.00026,274926717.99607,   0.00031,   0.00002,   0.00007,   0.00000,   2.00000
543502798.05481,311742086.82958,28384742.67660,   0.00219,   0.00038,   0.00044,477035861.48837,   0.00027,274934526.62593,   0.00032,   0.00002,   0.00008,   0.00000,   2.00000
543481962.24514,312328462.93028,28245152.91561,   0.00220,   0.00039,   0.00044,477036635.83717,   0.00028,274942304.00496,   0.00033,   0.00002,   0.00008,   0.00000,   2.00000
543458610.07609,312921689.22634,28109273.23143,   0.00220,   0.00039,   0.00045,477066353.40200,   0.00028,274950157.26841,   0.00034,   0.00003,   0.00008,   0.00000,   2.00000
543433793.00568,313524849.48333,27969999.12429,   0.00221,   0.00039,   0.00045,477067473.17090,   0.00029,274957980.26864,   0.00035,   0.00003,   0.00008,   0.00000,   2.00000
543409379.54063,314123842.05564,27825986.35040,   0.00222,   0.00040,   0.00045,477088739.80140,   0.00030,274965847.57145,   0.00036,   0.00003,   0.00008,   0.00000,   2.00000
543384077.82634,314719347.78060,27682641.07899,   0.00223,   0.00040,   0.00045,477097305.54642,   0.00030,274973712.10003,   0.00037,   0.00003,   0.00009,   0.00000,   2.00000
543356709.76741,315323090.94718,27539495.14737,   0.00223,   0.00040,   0.00045,477112850.55694,   0.00031,274981599.54035,   0.00038,   0.00003,   0.00009,   0.00000,   2.00000
543328452.31225,315923298.37705,27397015.07048,   0.00224,   0.00041,   0.00045,477121449.24353,   0.00032,274989484.19643,   0.00038,   0.00003,   0.00009,   0.00000,   2.00000
543298091.05256,316531655.33595,27254735.25228,   0.00225,   0.00041,   0.00045,477137058.72341,   0.00033,274997391.83532,   0.00039,   0.00003,   0.00009,  -0.00000,   2.00000
543266873.76043,317147296.33214,27107302.05002,   0.00225,   0.00042,   0.00045,477165478.64291,   0.00033,275005369.41131,   0.00040,   0.00003,   0.00009,   0.00000,   2.00000
543236886.79659,317748101.95645,26956558.11995,   0.00226,   0.00042,   0.00044,477166377.82338,   0.00034,275013315.45342,   0.00041,   0.00003,   0.00009,   0.00000,   2.00000
543202167.76532,318369368.18761,26810956.49675,   0.00227,   0.00042,   0.00044,477176428.34865,   0.00035,275021263.60864,   0.00042,   0.00003,   0.00010,   0.00000,   2.00000
543169108.08096,318974506.11321,26661155.90938,   0.00228,   0.00043,   0.00044,477190811.84612,   0.00036,275029229.88046,   0.00043,   0.00004,   0.00010,   0.00000,   2.00000
543133842.27735,319587594.89602,26511611.61761,   0.00228,   0.00043,   0.00044,477206612.04493,   0.00036,275037219.31026,   0.00044,   0.00004,   0.00010,   0.00000,   2.00000
543096745.77711,320207215.28097,26361462.29856,   0.00229,   0.00044,   0.00044,477235988.27839,   0.00037,275045281.50671,   0.00045,   0.00004,   0.00010,   0.00000,   2.00000
543059183.41801,320824875.65789,26208423.62285,   0.00230,   0.00044,   0.00044,477230554.15863,   0.00038,275053288.53400,   0.00045,   0.00004,   0.00010,   0.00000,   2.00000
543019746.35666,321448935.85568,26054814.01325,   0.00231,   0.00044,   0.00044,477259995.17084,   0.00038,275061368.33132,   0.00046,   0.00004,   0.00011,   0.00000,   2.00000
542980364.77543,322059085.85588,25903247.03569,   0.00231,   0.00045,   0.00044,477248189.89566,   0.00039,275069369.69004,   0.00047,   0.00004,   0.00011,   0.00000,   2.00000
542938537.65258,322687509.87630,25746196.72446,   0.00232,   0.00045,   0.00044,477284078.63194,   0.00040,275077467.26700,   0.00048,   0.00004,   0.00011,   0.00000,   2.00000
542895775.68188,323312066.55472,25589911.69859,   0.00233,   0.00046,   0.00044,477292985.90981,   0.00041,275085561.99468,   0.00049,   0.00004,   0.00011,   0.00000,   2.00000
542852096.12201,323932778.42867,25434389.54019,   0.00234,   0.00046,   0.00044,477301881.36754,   0.00041,275093653.86816,   0.00050,   0.00005,   0.00011,   0.00000,   2.00000
542807302.00212,324560048.01952,25273883.00248,   0.00234,   0.00046,   0.00044,477330768.26593,   0.00042,275101815.78286,   0.00051,   0.00005,   0.00011,   0.00000,   2.00000
542758838.03708,325195825.52718,25119024.22961,   0.00235,   0.00047,   0.00044,477334222.65055,   0.00043,275109954.58395,   0.00052,   0.00005,   0.00012,  -0.00000,   2.00000
542712587.81881,325817167.63174,24956417.90171,   0.00236,   0.00047,   0.00044,477334495.91055,   0.00044,275118058.88936,   0.00053,   0.00005,   0.00012,   0.00000,   2.00000
542662005.55393,326455364.96937,24797399.87933,   0.00237,   0.00048,   0.00044,477372173.94052,   0.00044,275126264.93734,   0.00053,   0.00005,   0.00012,   0.00000,   2.00000
542611295.83252,327089977.59891,24634698.39089,   0.00237,   0.00048,   0.00044,477380520.90746,   0.00045,275134465.50041,   0.00054,   0.00005,   0.00012,   0.00000,   2.00000
542559656.77594,327720587.04033,24472809.84911,   0.00238,   0.00049,   0.00044,477389568.55329,   0.00046,275142663.17982,   0.00055,   0.00005,   0.00012,   0.00000,   2.00000
542505522.73751,328358485.63345,24311298.23923,   0.00239,   0.00049,   0.00044,477405935.59805,   0.00047,275150884.52043,   0.00056,   0.00005,   0.00013,  -0.00000,   2.00000
542451254.85452,328992767.17138,24146120.31017,   0.00240,   0.00049,   0.00044,477414321.64972,   0.00047,275159100.44136,   0.00057,   0.00006,   0.00013,   0.00000,   2.00000
542394445.79650,329634243.26826,23981344.44309,   0.00240,   0.00050,   0.00044,477430759.77628,   0.00048,275167340.12008,   0.00058,   0.00006,   0.00013,   0.00000,   2.00000
542337484.00274,330272047.91594,23812922.61759,   0.00241,   0.00050,   0.00044,477439193.00324,   0.00049,275175574.43183,   0.00059,   0.00006,   0.00013,   0.00000,   2.00000
542279291.08683,330903698.69341,23649058.33105,   0.00242,   0.00051,   0.00044,477462447.45492,   0.00050,275183857.13845,   0.00060,   0.00006,   0.00013,   0.00000,   2.00000
542217146.60065,331555699.24353,23481472.15480,   0.00243,   0.00051,   0.00044,477472278.26837,   0.00050,275192139.23347,   0.00061,   0.00006,   0.00013,  -0.00000,   2.00000
542156989.50905,332191081.27811,23309919.31242,   0.00244,   0.00052,   0.00044,477486833.74551,   0.00051,275200437.92256,   0.00062,   0.00006,   0.00014,   0.00000,   2.00000
542093449.38379,332833044.89103,23143308.14712,   0.00244,   0.00052,   0.00044,477504126.50897,   0.00052,275208762.96459,   0.00063,   0.00006,   0.00014,  -0.00000,   2.00000
542028018.74753,333482341.57413,22972656.71214,   0.00245,   0.00053,   0.00044,477520150.09424,   0.00053,275217109.56958,   0.00063,   0.00007,   0.00014,  -0.00000,   2.00000
541962401.70083,334127804.00686,22798406.73325,   0.00246,   0.00053,   0.00044,477528762.76373,   0.00054,275225450.89875,   0.00064,   0.00007,   0.00014,   0.00000,   2.00000
541894084.80682,334780081.38258,22624646.84150,   0.00247,   0.00054,   0.00044,477545523.98748,   0.00054,275233816.30613,   0.00065,   0.00007,   0.00014,   0.00000,   2.00000
541824831.86305,335428061.50924,22451790.52704,   0.00247,   0.00054,   0.00044,477554828.44680,   0.00055,275242178.82621,   0.00066,   0.00007,   0.00014,   0.00000,   2.00000
541754663.06524,336071771.39838,22279834.65349,   0.00248,   0.00054,   0.00043,477564119.19606,   0.00056,275250538.45385,   0.00067,   0.00007,   0.00015,   0.00000,   2.00000
541681171.12564,336731774.23559,22102757.05747,   0.00249,   0.00055,   0.00043,477601300.02472,   0.00057,275258995.40920,   0.00068,   0.00007,   0.00015,  -0.00000,   2.00000
541608068.05420,337378243.66680,21927736.48687,   0.00250,   0.00055,   0.00043,477589729.86019,   0.00057,275267374.01963,   0.00069,   0.00008,   0.00015,   0.00000,   2.00000
541532718.94950,338029493.37280,21752521.19545,   0.00250,   0.00056,   0.00043,477620056.93386,   0.00058,275275825.16523,   0.00070,   0.00008,   0.00015,  -0.00000,   2.00000
541454757.41110,338689559.42908,21574056.17046,   0.00251,   0.00056,   0.00043,477623020.36905,   0.00059,275284250.15981,   0.00071,   0.00008,   0.00015,  -0.00000,   2.00000
541376396.88972,339343296.04564,21395835.61871,   0.00252,   0.00057,   0.00043,477645848.87987,   0.00060,275292720.44080,   0.00072,   0.00008,   0.00015,   0.00000,   2.00000
541295206.31608,340003479.21329,21218170.25994,   0.00253,   0.00057,   0.00043,477662925.54467,   0.00060,275301215.10102,   0.00073,   0.00008,   0.00016,   0.00000,   2.00000
541213246.14228,340661510.16895,21037657.72513,   0.00253,   0.00058,   0.00043,477658393.44036,   0.00061,275309656.62804,   0.00074,   0.00008,   0.00016,   0.00000,   2.00000
541130923.37967,341313136.85969,20857425.80126,   0.00254,   0.00058,   0.00043,477681233.09952,   0.00062,275318143.30341,   0.00075,   0.00009,   0.00016,   0.00000,   2.00000
541046407.82687,341971509.23799,20673288.29531,   0.00255,   0.00059,   0.00043,477697791.00733,   0.00063,275326652.36376,   0.00076,   0.00009,   0.00016,   0.00000,   2.00000
540958315.00559,342635756.59950,20494245.85819,   0.00256,   0.00059,   0.00043,477715599.42795,   0.00064,275335188.11819,   0.00076,   0.00009,   0.00016,  -0.00000,   2.00000
540870648.93350,343296206.17384,20307197.79631,   0.00257,   0.00060,   0.00043,477723982.74533,   0.00064,275343716.78656,   0.00077,   0.00009,   0.00016,   0.00000,   2.00000
540779379.47639,343962442.51814,20125272.62309,   0.00257,   0.00060,   0.00043,477741852.70045,   0.00065,275352272.21107,   0.00078,   0.00009,   0.00016,   0.00000,   2.00000
540688442.97081,344622401.04523,19939198.53691,   0.00258,   0.00061,   0.00043,477764252.30451,   0.00066,275360870.43977,   0.00079,   0.00009,   0.00017,   0.00000,   2.00000
540596035.09756,345279837.88070,19754791.69535,   0.00259,   0.00061,   0.00042,477760490.52505,   0.00067,275369418.07132,   0.00080,   0.00010,   0.00017,   0.00000,   2.00000
540501300.00299,345943734.27786,19566531.42921,   0.00260,   0.00062,   0.00042,477777287.95031,   0.00068,275377988.49176,   0.00081,   0.00010,   0.00017,   0.00000,   2.00000
540404159.66652,346611513.96428,19378302.40873,   0.00260,   0.00062,   0.00042,477808089.75981,   0.00068,275386631.35980,   0.00082,   0.00010,   0.00017,   0.00000,   2.00000
540305524.78581,347276718.87259,19191743.62012,   0.00261,   0.00063,   0.00042,477804421.91989,   0.00069,275395223.80665,   0.00083,   0.00010,   0.00017,   0.00000,   2.00000
540204484.12625,347948191.56592,19001359.74140,   0.00262,   0.00063,   0.00042,477821369.39516,   0.00070,275403839.24895,   0.00084,   0.00010,   0.00017,   0.00000,   2.00000
540103172.02627,348612765.14737,18811417.60766,   0.00263,   0.00064,   0.00042,477844425.87061,   0.00071,275412499.29805,   0.00085,   0.00011,   0.00017,   0.00000,   2.00000
539998179.68239,349285327.64926,18622785.57605,   0.00263,   0.00065,   0.00042,477848676.06612,   0.00071,275421136.97101,   0.00086,   0.00011,   0.00018,   0.00000,   2.00000
539893550.09977,349951274.66033,18430112.12641,   0.00264,   0.00065,   0.00042,477871223.02147,   0.00072,275429817.25633,   0.00087,   0.00011,   0.00018,   0.00000,   2.00000
539785191.81972,350625156.85975,18238763.57670,   0.00265,   0.00066,   0.00042,477875554.41448,   0.00073,275438475.37704,   0.00088,   0.00011,   0.00018,   0.00000,   2.00000
539676615.16012,351291989.08119,18047899.60518,   0.00266,   0.00066,   0.00042,477898657.52859,   0.00074,275447177.91105,   0.00089,   0.00012,   0.00018,   0.00000,   2.00000
539565516.57671,351964801.64463,17853274.23170,   0.00267,   0.00067,   0.00041,477915885.79579,   0.00075,275455903.80351,   0.00090,   0.00012,   0.00018,  -0.00000,   2.00000
539452897.54169,352635033.31345,17660329.54626,   0.00267,   0.00067,   0.00041,477912392.81205,   0.00075,275464579.76331,   0.00091,   0.00012,   0.00018,   0.00000,   2.00000
539338376.50791,353308857.26547,17463070.96478,   0.00268,   0.00068,   0.00041,477942991.16976,   0.00076,275473326.33446,   0.00092,   0.00012,   0.00018,   0.00000,   2.00000
539223006.24301,353977785.32712,17266939.23535,   0.00269,   0.00068,   0.00041,477952866.15597,   0.00077,275482070.10483,   0.00093,   0.00012,   0.00019,   0.00000,   2.00000
539103780.85521,354654497.44114,17072150.45472,   0.00270,   0.00069,   0.00041,477957433.44588,   0.00078,275490792.32224,   0.00093,   0.00013,   0.00019,   0.00000,   2.00000
538984966.78087,355324266.75060,16873429.07161,   0.00270,   0.00069,   0.00041,477980124.34438,   0.00079,275499556.96354,   0.00094,   0.00013,   0.00019,   0.00000,   2.00000
538862956.22528,355999398.41797,16675522.44989,   0.00271,   0.00070,   0.00041,477998080.37772,   0.00080,275508347.10529,   0.00095,   0.00013,   0.00019,   0.00000,   2.00000
538739413.64386,356671953.22270,16479296.04273,   0.00272,   0.00071,   0.00041,477994717.13417,   0.00080,275517087.68541,   0.00096,   0.00013,   0.00019,  -0.00000,   2.00000
538613904.05238,357347707.03051,16278849.52026,   0.00273,   0.00071,   0.00040,478025526.66952,   0.00081,275525898.97475,   0.00097,   0.00014,   0.00019,  -0.00000,   2.00000
538485149.88986,358028642.91483,16079248.61153,   0.00273,   0.00072,   0.00040,478043616.50719,   0.00082,275534735.91550,   0.00098,   0.00014,   0.00019,   0.00000,   2.00000
538355362.31523,358707272.17254,15876832.55531,   0.00274,   0.00072,   0.00040,478039893.53018,   0.00083,275543521.88148,   0.00099,   0.00014,   0.00020,   0.00000,   2.00000
538225513.89848,359378401.79108,15675083.72493,   0.00275,   0.00073,   0.00040,478063146.48972,   0.00084,275552351.74114,   0.00100,   0.00014,   0.00020,   0.00000,   2.00000
538092400.33263,360054635.21675,15474207.14429,   0.00276,   0.00073,   0.00040,478081308.63355,   0.00084,275561207.39854,   0.00101,   0.00014,   0.00020,  -0.00000,   2.00000
537955733.23647,360738687.22944,15270204.22584,   0.00277,   0.00074,   0.00040,478085824.61627,   0.00085,275570040.90042,   0.00102,   0.00015,   0.00020,   0.00000,   2.00000
537819043.99655,361415084.08249,15066909.88517,   0.00277,   0.00075,   0.00040,478109141.66196,   0.00086,275578918.16291,   0.00103,   0.00015,   0.00020,  -0.00000,   2.00000
537682074.45823,362086680.14080,14860320.22930,   0.00278,   0.00075,   0.00039,478118787.95541,   0.00087,275587791.23233,   0.00104,   0.00015,   0.00020,  -0.00000,   2.00000
537540993.24370,362765758.32970,14655135.94271,   0.00279,   0.00076,   0.00039,478123839.92160,   0.00088,275596644.03262,   0.00105,   0.00016,   0.00020,  -0.00000,   2.00000
537397373.52695,363447101.47872,14450404.15404,   0.00280,   0.00076,   0.00039,478155417.73560,   0.00089,275605569.18201,   0.00106,   0.00016,   0.00020,   0.00000,   2.00000
537252191.74344,364125838.70332,14247359.17387,   0.00280,   0.00077,   0.00039,478152327.48146,   0.00089,275614445.49239,   0.00107,   0.00016,   0.00021,   0.00000,   2.00000
537105393.63761,364807296.61318,14035781.22276,   0.00281,   0.00078,   0.00039,478183150.61685,   0.00090,275623391.29939,   0.00108,   0.00016,   0.00021,   0.00000,   2.00000
536956562.44315,365485861.38714,13830426.10538,   0.00282,   0.00078,   0.00039,478180513.93923,   0.00091,275632289.83262,   0.00109,   0.00017,   0.00021,  -0.00000,   2.00000
536804799.21932,366169377.06069,13621521.80915,   0.00283,   0.00079,   0.00039,478198586.87417,   0.00092,275641213.30870,   0.00110,   0.00017,   0.00021,   0.00000,   2.00000
536653159.83104,366844965.78893,13413439.73953,   0.00284,   0.00079,   0.00038,478221991.95866,   0.00093,275650180.19498,   0.00111,   0.00017,   0.00021,   0.00000,   2.00000
536497698.52154,367528095.84003,13202274.76284,   0.00284,   0.00080,   0.00038,478226971.86916,   0.00093,275659126.23145,   0.00112,   0.00017,   0.00021,  -0.00000,   2.00000
536341521.50614,368205931.18537,12992388.74163,   0.00285,   0.00081,   0.00038,478237193.52416,   0.00094,275668069.75842,   0.00113,   0.00018,   0.00021,   0.00000,   2.00000
536181928.43499,368888267.72917,12783511.97300,   0.00286,   0.00081,   0.00038,478255800.26997,   0.00095,275677039.82378,   0.00114,   0.00018,   0.00021,   0.00000,   2.00000
536022058.52269,369565548.22806,12571405.15373,   0.00287,   0.00082,   0.00038,478265686.44782,   0.00096,275686006.12416,   0.00115,   0.00018,   0.00021,   0.00000,   2.00000
535858752.70861,370247245.00080,12360336.60779,   0.00287,   0.00082,   0.00038,478284364.65820,   0.00097,275694999.07856,   0.00116,   0.00018,   0.00021,   0.00000,   2.00000
535692391.51800,370933521.45052,12145806.12687,   0.00288,   0.00083,   0.00037,478302756.34171,   0.00098,275704017.52071,   0.00117,   0.00019,   0.00022,   0.00000,   2.00000
535525353.10309,371614382.46703,11932596.63169,   0.00289,   0.00084,   0.00037,478313092.34813,   0.00098,275713033.53054,   0.00118,   0.00019,   0.00022,   0.00000,   2.00000
535357665.35728,372289870.00557,11720702.16474,   0.00290,   0.00084,   0.00037,478323409.16487,   0.00099,275722047.10410,   0.00119,   0.00019,   0.00022,   0.00000,   2.00000
535186893.34563,372969856.29028,11505371.82747,   0.00290,   0.00085,   0.00037,478341889.35533,   0.00100,275731086.38520,   0.00120,   0.00020,   0.00022,   0.00000,   2.00000
535012038.73856,373657082.08527,11287001.83061,   0.00291,   0.00086,   0.00037,478347290.90332,   0.00101,275740106.09060,   0.00121,   0.00020,   0.00022,  -0.00000,   2.00000
534837150.71693,374335740.14191,11074132.29392,   0.00292,   0.00086,   0.00036,478371130.39700,   0.00102,275749169.92442,   0.00122,   0.00020,   0.00022,   0.00000,   2.00000
534658143.01148,375021592.50120,10858208.84880,   0.00293,   0.00087,   0.00036,478376617.49949,   0.00103,275758214.42507,   0.00123,   0.00021,   0.00022,  -0.00000,   2.00000
534478862.85385,375702177.43321,10639127.06619,   0.00293,   0.00088,   0.00036,478386707.77321,   0.00103,275767255.57101,   0.00124,   0.00021,   0.00022,   0.00000,   2.00000
534299990.65898,376374391.55188,10421077.80185,   0.00294,   0.00088,   0.00036,478410225.53130,   0.00104,275776339.60869,   0.00125,   0.00021,   0.00022,   0.00000,   2.00000
534113653.20000,377062969.61027,10204296.99687,   0.00295,   0.00089,   0.00036,478424745.37843,   0.00105,275785435.28841,   0.00126,   0.00021,   0.00022,   0.00000,   2.00000
533930007.61137,377736790.08216,9984589.27998,   0.00296,   0.00090,   0.00036,478426293.10965,   0.00106,275794498.15551,   0.00126,   0.00022,   0.00023,   0.00000,   2.00000
533738811.63914,378426866.12913,9766163.95214,   0.00297,   0.00090,   0.00035,478440899.73024,   0.00107,275803573.03536,   0.00127,   0.00022,   0.00023,   0.00000,   2.00000
533548100.32066,379108354.21648,9548808.59182,   0.00297,   0.00091,   0.00035,478464478.26485,   0.00108,275812690.68951,   0.00128,   0.00022,   0.00023,  -0.00000,   2.00000
533357154.10318,379784486.95358,9328327.53717,   0.00298,   0.00092,   0.00035,478474698.87312,   0.00108,275821805.21016,   0.00129,   0.00023,   0.00023,   0.00000,   2.00000
533161866.37530,380467590.37466,9104841.03438,   0.00299,   0.00092,   0.00035,478480539.52507,   0.00109,275830901.57493,   0.00130,   0.00023,   0.00023,   0.00000,   2.00000
532967137.49846,381142066.62727,8882489.86939,   0.00300,   0.00093,   0.00034,478504123.12495,   0.00110,275840040.61708,   0.00131,   0.00023,   0.00023,   0.00000,   2.00000
532767737.55024,381823273.47526,8661654.91546,   0.00300,   0.00094,   0.00034,478510309.40184,   0.00111,275849162.64080,   0.00132,   0.00024,   0.00023,   0.00000,   2.00000
532565032.12164,382508250.09883,8437543.13207,   0.00301,   0.00094,   0.00034,478529358.12055,   0.00112,275858311.61601,   0.00133,   0.00024,   0.00023,  -0.00000,   2.00000
532361820.72306,383187553.90246,8214872.09271,   0.00302,   0.00095,   0.00034,478539936.55011,   0.00113,275867458.57002,   0.00134,   0.00024,   0.00023,   0.00000,   2.00000
532158132.84462,383861231.45926,7993634.81774,   0.00303,   0.00096,   0.00034,478550494.38776,   0.00114,275876603.49937,   0.00135,   0.00025,   0.00023,  -0.00000,   2.00000
531949954.46158,384541722.06195,7769396.99141,   0.00303,   0.00096,   0.00033,478556583.42141,   0.00114,275885731.14504,   0.00136,   0.00025,   0.00023,   0.00000,   2.00000
531739592.66921,385222667.59848,7541689.21543,   0.00304,   0.00097,   0.00033,478588806.21171,   0.00115,275894930.54308,   0.00137,   0.00025,   0.00023,   0.00000,   2.00000
531527346.45809,385900891.48076,7320207.19987,   0.00305,   0.00098,   0.00033,478586630.71486,   0.00116,275904084.38486,   0.00138,   0.00026,   0.00023,   0.00000,   2.00000
531311957.96038,386582783.07688,7090988.67083,   0.00306,   0.00098,   0.00033,478605682.22294,   0.00117,275913265.01139,   0.00139,   0.00026,   0.00023,   0.00000,   2.00000
531095908.19284,387258785.52975,6867772.66148,   0.00306,   0.00099,   0.00032,478616528.11318,   0.00118,275922444.48709,   0.00140,   0.00026,   0.00024,   0.00000,   2.00000
530876468.50653,387938215.83823,6641358.06426,   0.00307,   0.00100,   0.00032,478635866.11875,   0.00119,275931651.61565,   0.00141,   0.00027,   0.00024,   0.00000,   2.00000
530656836.65667,388612042.03748,6411918.72189,   0.00308,   0.00101,   0.00032,478646353.28530,   0.00120,275940856.30233,   0.00142,   0.00027,   0.00024,   0.00000,   2.00000
530432314.49332,389292295.91318,6184047.80071,   0.00309,   0.00101,   0.00032,478652969.81830,   0.00120,275950045.40609,   0.00143,   0.00028,   0.00024,  -0.00000,   2.00000
530208691.20443,389963531.22790,5957481.65213,   0.00309,   0.00102,   0.00031,478676629.92308,   0.00121,275959276.79745,   0.00144,   0.00028,   0.00024,   0.00000,   2.00000
529980343.83817,390641289.79942,5727959.24336,   0.00310,   0.00103,   0.00031,478683155.47206,   0.00122,275968492.25236,   0.00145,   0.00028,   0.00024,   0.00000,   2.00000
529748355.11300,391322077.30712,5499830.46604,   0.00311,   0.00103,   0.00031,478702866.29912,   0.00123,275977736.41790,   0.00146,   0.00029,   0.00024,   0.00000,   2.00000
529514868.74148,392000436.73394,5268874.16633,   0.00312,   0.00104,   0.00031,478700503.41456,   0.00124,275986934.60963,   0.00147,   0.00029,   0.00024,  -0.00000,   2.00000
529282386.78410,392669673.64518,5039284.08295,   0.00312,   0.00105,   0.00030,478724169.07798,   0.00125,275996175.01408,   0.00148,   0.00029,   0.00024,   0.00000,   2.00000
529045072.11484,393345321.03246,4806758.23771,   0.00313,   0.00106,   0.00030,478730861.98176,   0.00126,276005400.12666,   0.00149,   0.00030,   0.00024,   0.00000,   2.00000
528807449.60125,394015142.78147,4575779.83465,   0.00314,   0.00106,   0.00030,478741607.11488,   0.00126,276014623.74556,   0.00150,   0.00030,   0.00024,   0.00000,   2.00000
528562819.37052,394696526.04217,4346145.44575,   0.00315,   0.00107,   0.00030,478770517.63224,   0.00127,276023906.99499,   0.00151,   0.00031,   0.00024,   0.00000,   2.00000
528321426.63739,395363434.04848,4113635.71912,   0.00315,   0.00108,   0.00029,478772118.60900,   0.00128,276033157.78054,   0.00152,   0.00031,   0.00024,   0.00000,   2.00000
528074970.59099,396036552.21676,3882721.53550,   0.00316,   0.00109,   0.00029,478779091.64327,   0.00129,276042394.30030,   0.00153,   0.00031,   0.00024,   0.00000,   2.00000
527824976.40384,396712481.01595,3648762.39301,   0.00317,   0.00109,   0.00029,478798905.19900,   0.00130,276051659.77990,   0.00154,   0.00032,   0.00024,   0.00000,   2.00000
527574740.93701,397382497.30241,3416379.34760,   0.00317,   0.00110,   0.00029,478809730.95531,   0.00131,276060923.95131,   0.00155,   0.00032,   0.00024,   0.00000,   2.00000
527320955.32237,398055244.67378,3180981.12782,   0.00318,   0.00111,   0.00028,478829627.37732,   0.00132,276070217.26290,   0.00156,   0.00033,   0.00024,  -0.00000,   2.00000
527065474.45857,398725518.16550,2947272.45698,   0.00319,   0.00112,   0.00028,478827606.87890,   0.00132,276079466.09442,   0.00157,   0.00033,   0.00024,  -0.00000,   2.00000
526809887.67547,399389969.48348,2710631.95154,   0.00320,   0.00112,   0.00028,478838337.73682,   0.00133,276088713.46744,   0.00158,   0.00033,   0.00024,   0.00000,   2.00000
526547153.55546,400065438.13363,2475479.59492,   0.00320,   0.00113,   0.00028,478867613.16495,   0.00134,276098021.43981,   0.00159,   0.00034,   0.00024,   0.00000,   2.00000
526287749.98193,400726513.16490,2241982.45968,   0.00321,   0.00114,   0.00027,478869263.86422,   0.00135,276107297.38025,   0.00160,   0.00034,   0.00024,  -0.00000,   2.00000
526021254.60655,401398535.36044,2005472.03911,   0.00322,   0.00115,   0.00027,478898573.82212,   0.00136,276116633.89775,   0.00161,   0.00035,   0.00024,   0.00000,   2.00000
525756637.31312,402059778.63513,1766170.69396,   0.00323,   0.00115,   0.00027,478887335.18235,   0.00137,276125895.26052,   0.00162,   0.00035,   0.00024,   0.00000,   2.00000
525484762.82079,402731734.54156,1532941.60125,   0.00323,   0.00116,   0.00026,478916837.14620,   0.00138,276135217.86101,   0.00163,   0.00035,   0.00024,   0.00000,   2.00000
525214821.64145,403393008.82412,1292364.62682,   0.00324,   0.00117,   0.00026,478905549.41022,   0.00138,276144465.34435,   0.00164,   0.00036,   0.00024,   0.00000,   2.00000
524939227.61330,404061300.63753,1057859.37444,   0.00325,   0.00118,   0.00026,478947924.81047,   0.00139,276153817.05329,   0.00165,   0.00036,   0.00024,   0.00000,   2.00000
524665566.10654,404718973.31273,815999.13351,   0.00325,   0.00118,   0.00025,478936679.58204,   0.00140,276163093.83843,   0.00166,   0.00037,   0.00024,   0.00000,   2.00000
524384621.91809,405387112.81465,580285.08545,   0.00326,   0.00119,   0.00025,478966337.09728,   0.00141,276172432.26476,   0.00167,   0.00037,   0.00024,  -0.00000,   2.00000
524101969.36495,406052829.79933,341703.89952,   0.00327,   0.00120,   0.00025,478964517.38968,   0.00142,276181727.28580,   0.00168,   0.00038,   0.00024,  -0.00000,   2.00000
523819280.92470,406712539.60560,100259.38018,   0.00328,   0.00121,   0.00025,478975450.54814,   0.00143,276191021.60528,   0.00169,   0.00038,   0.00024,   0.00000,   2.00000
523532929.28796,407374382.21100,-139512.04838,   0.00328,   0.00122,   0.00024,478995812.73542,   0.00144,276200346.58289,   0.00169,   0.00038,   0.00024,   0.00000,   2.00000
523246577.02604,408030213.30972,-377617.29009,   0.00329,   0.00122,   0.00024,479006781.94117,   0.00145,276209670.93286,   0.00170,   0.00039,   0.00024,   0.00000,   2.00000
522954814.63385,408691771.24645,-618581.40458,   0.00330,   0.00123,   0.00024,479014472.57452,   0.00145,276218983.75388,   0.00171,   0.00039,   0.00024,   0.00000,   2.00000
522663047.10182,409347277.31766,-862378.99214,   0.00330,   0.00124,   0.00023,479025473.92214,   0.00146,276228296.15641,   0.00172,   0.00040,   0.00024,  -0.00000,   2.00000
522367624.49481,410004773.67713,-1104451.15455,   0.00331,   0.00125,   0.00023,479045947.91455,   0.00147,276237639.56473,   0.00173,   0.00040,   0.00024,   0.00000,   2.00000
522070452.41104,410659937.48661,-1344870.21909,   0.00332,   0.00126,   0.00023,479044242.11326,   0.00148,276246940.37250,   0.00174,   0.00041,   0.00024,   0.00000,   2.00000
521769587.57501,411316985.07801,-1588083.55278,   0.00332,   0.00127,   0.00022,479064791.11587,   0.00149,276256272.49751,   0.00175,   0.00041,   0.00024,  -0.00000,   2.00000
521463226.02634,411979593.01535,-1829604.63540,   0.00333,   0.00127,   0.00022,479072672.56442,   0.00150,276265593.85227,   0.00176,   0.00042,   0.00024,  -0.00000,   2.00000
521158762.77678,412632299.61002,-2073875.53246,   0.00334,   0.00128,   0.00022,479096453.35275,   0.00151,276274957.17616,   0.00177,   0.00042,   0.00024,   0.00000,   2.00000
520852536.90733,413282709.08148,-2316494.77684,   0.00335,   0.00129,   0.00021,479094827.55021,   0.00151,276284278.33350,   0.00178,   0.00042,   0.00024,   0.00000,   2.00000
520540692.62486,413938603.39274,-2561935.89681,   0.00335,   0.00130,   0.00021,479102850.37270,   0.00152,276293589.38526,   0.00179,   0.00043,   0.00024,   0.00000,   2.00000
520230912.87691,414584635.26962,-2805560.63724,   0.00336,   0.00131,   0.00021,479126542.01919,   0.00153,276302942.20674,   0.00180,   0.00043,   0.00024,   0.00000,   2.00000
519913622.28872,415239968.09352,-3047578.28688,   0.00337,   0.00131,   0.00020,479121933.32383,   0.00154,276312243.19072,   0.00181,   0.00044,   0.00024,  -0.00000,   2.00000
519598373.53077,415885328.21085,-3292295.11575,   0.00337,   0.00132,   0.00020,479145694.37906,   0.00155,276321586.22572,   0.00182,   0.00044,   0.00024,   0.00000,   2.00000
519277413.49526,416536062.63506,-3539811.12560,   0.00338,   0.00133,   0.00020,479153898.06081,   0.00156,276330919.84211,   0.00183,   0.00045,   0.00024,   0.00000,   2.00000
518956656.66445,417180696.65620,-3785570.14808,   0.00339,   0.00134,   0.00019,479164976.21725,   0.00157,276340253.62264,   0.00184,   0.00045,   0.00024,   0.00000,   2.00000
518630260.04426,417830735.46181,-4029611.14062,   0.00339,   0.00135,   0.00019,479173143.93035,   0.00158,276349577.97916,   0.00185,   0.00046,   0.00024,   0.00000,   2.00000
518303974.02947,418474565.11972,-4276425.52841,   0.00340,   0.00136,   0.00018,479184340.19539,   0.00158,276358902.99329,   0.00186,   0.00046,   0.00024,   0.00000,   2.00000
517973942.26471,419119776.59014,-4525881.60656,   0.00341,   0.00137,   0.00018,479205288.19442,   0.00159,276368260.74547,   0.00187,   0.00047,   0.00024,   0.00000,   2.00000
517642238.15589,419762864.13438,-4769192.76253,   0.00341,   0.00137,   0.00018,479203698.80585,   0.00160,276377577.07821,   0.00188,   0.00047,   0.00024,  -0.00000,   2.00000
517310523.71788,420399644.45227,-5019784.94775,   0.00342,   0.00138,   0.00017,479215047.16462,   0.00161,276386894.74545,   0.00189,   0.00048,   0.00024,  -0.00000,   2.00000
516969177.10723,421049206.30726,-5268494.49747,   0.00343,   0.00139,   0.00017,479233172.82777,   0.00162,276396235.92908,   0.00190,   0.00048,   0.00024,   0.00000,   2.00000
516632053.44155,421685151.22696,-5515554.03192,   0.00343,   0.00140,   0.00017,479234501.76348,   0.00163,276405545.55250,   0.00190,   0.00049,   0.00024,   0.00000,   2.00000
516291175.50817,422322320.39884,-5765212.05129,   0.00344,   0.00141,   0.00016,479255570.85388,   0.00164,276414888.49804,   0.00191,   0.00049,   0.00024,  -0.00000,   2.00000
515944523.08495,422964700.00069,-6013113.88658,   0.00345,   0.00142,   0.00016,479264028.13359,   0.00165,276424223.29290,   0.00192,   0.00050,   0.00024,   0.00000,   2.00000
515598048.54618,423600781.02421,-6263738.42810,   0.00345,   0.00143,   0.00015,479275347.92564,   0.00165,276433559.42619,   0.00193,   0.00050,   0.00024,  -0.00000,   2.00000
515249716.30857,424234713.15565,-6512758.73490,   0.00346,   0.00143,   0.00015,479273980.69920,   0.00166,276442855.41882,   0.00194,   0.00051,   0.00024,   0.00000,   2.00000
514897822.52210,424869856.48546,-6759822.73931,   0.00347,   0.00144,   0.00015,479294978.03933,   0.00167,276452184.63004,   0.00195,   0.00051,   0.00024,   0.00000,   2.00000
514545927.02485,425498554.78986,-7014115.53138,   0.00347,   0.00145,   0.00014,479306508.63577,   0.00168,276461516.04731,   0.00196,   0.00052,   0.00023,   0.00000,   2.00000
514188392.67543,426132561.23792,-7262108.63159,   0.00348,   0.00146,   0.00014,479314914.96530,   0.00169,276470839.44883,   0.00197,   0.00052,   0.00023,   0.00000,   2.00000
513828750.70281,426764256.49133,-7513045.33070,   0.00349,   0.00147,   0.00014,479313817.25186,   0.00170,276480123.88795,   0.00198,   0.00053,   0.00023,   0.00000,   2.00000
513467685.04622,427392819.50719,-7766244.13149,   0.00349,   0.00148,   0.00013,479347575.35585,   0.00171,276489483.36666,   0.00199,   0.00053,   0.00023,  -0.00000,   2.00000
513102349.55751,428023288.02200,-8018094.66378,   0.00350,   0.00149,   0.00013,479333901.22537,   0.00171,276498762.83921,   0.00200,   0.00054,   0.00023,   0.00000,   2.00000
512733480.59152,428654739.60914,-8267917.77467,   0.00350,   0.00150,   0.00012,479355041.64369,   0.00172,276508076.20649,   0.00201,   0.00055,   0.00023,  -0.00000,   2.00000
512364871.14756,429279837.43017,-8520429.80069,   0.00351,   0.00150,   0.00012,479366454.37209,   0.00173,276517391.69829,   0.00202,   0.00055,   0.00023,  -0.00000,   2.00000
511994078.50853,429902662.35300,-8775879.40563,   0.00352,   0.00151,   0.00012,479365468.14139,   0.00174,276526668.97482,   0.00203,   0.00056,   0.00023,  -0.00000,   2.00000
511619772.03414,430526414.37847,-9029249.46543,   0.00352,   0.00152,   0.00011,479386665.89021,   0.00175,276535980.45959,   0.00203,   0.00056,   0.00023,   0.00000,   2.00000
511246035.77191,431144061.43866,-9280771.72355,   0.00353,   0.00153,   0.00011,479397840.74414,   0.00176,276545293.46176,   0.00204,   0.00057,   0.00023,   0.00000,   2.00000
510863490.39175,431770493.50966,-9535307.78102,   0.00354,   0.00154,   0.00010,479394637.15709,   0.00177,276554561.20127,   0.00205,   0.00057,   0.00023,   0.00000,   2.00000
510483775.86139,432386457.89519,-9792193.37353,   0.00354,   0.00155,   0.00010,479418440.13354,   0.00178,276563871.77835,   0.00206,   0.00058,   0.00023,   0.00000,   2.00000
510098020.95445,433007313.65343,-10047254.55871,   0.00355,   0.00156,   0.00009,479427414.74231,   0.00178,276573176.83446,   0.00207,   0.00058,   0.00022,   0.00000,   2.00000
509710303.96699,433626131.03980,-10300763.17109,   0.00355,   0.00157,   0.00009,479426292.15974,   0.00179,276582443.65069,   0.00208,   0.00059,   0.00022,  -0.00000,   2.00000
509322910.49235,434238583.67396,-10556921.99574,   0.00356,   0.00158,   0.00009,479437757.69177,   0.00180,276591713.34040,   0.00209,   0.00059,   0.00022,  -0.00000,   2.00000
508929422.48473,434855880.98960,-10811264.51064,   0.00357,   0.00159,   0.00008,479446792.65419,   0.00181,276600978.01695,   0.00210,   0.00060,   0.00022,   0.00000,   2.00000
508536275.32195,435466787.40334,-11068246.09297,   0.00357,   0.00160,   0.00008,479458289.12016,   0.00182,276610245.76893,   0.00211,   0.00061,   0.00022,  -0.00000,   2.00000
508137000.46377,436082481.79284,-11323402.17024,   0.00358,   0.00160,   0.00007,479467398.28875,   0.00183,276619508.85799,   0.00212,   0.00061,   0.00022,   0.00000,   2.00000
507738084.39131,436691759.59567,-11581186.17881,   0.00358,   0.00161,   0.00007,479478926.17219,   0.00184,276628775.22603,   0.00213,   0.00062,   0.00022,   0.00000,   2.00000
507337153.56871,437299107.06298,-11837437.42236,   0.00359,   0.00162,   0.00006,479477859.68975,   0.00185,276638004.11633,   0.00213,   0.00062,   0.00022,   0.00000,   2.00000
506932442.93864,437906736.54793,-12096001.84147,   0.00360,   0.00163,   0.00006,479499621.27487,   0.00185,276647269.64697,   0.00214,   0.00063,   0.00022,   0.00000,   2.00000
506525700.61729,438512439.64723,-12353038.34681,   0.00360,   0.00164,   0.00005,479498596.85894,   0.00186,276656497.97174,   0.00215,   0.00063,   0.00022,   0.00000,   2.00000
506115182.10865,439118338.08459,-12612362.62906,   0.00361,   0.00165,   0.00005,479520424.33088,   0.00187,276665763.22343,   0.00216,   0.00064,   0.00021,   0.00000,   2.00000
505702614.93904,439722314.15653,-12870163.87667,   0.00361,   0.00166,   0.00005,479519442.71232,   0.00188,276674991.54245,   0.00217,   0.00065,   0.00021,   0.00000,   2.00000
505290458.58093,440319889.94909,-13130565.21601,   0.00362,   0.00167,   0.00004,479531002.81194,   0.00189,276684223.70758,   0.00218,   0.00065,   0.00021,   0.00000,   2.00000
504872042.34399,440922117.91360,-13389108.80213,   0.00362,   0.00168,   0.00004,479540349.49951,   0.00190,276693452.57081,   0.00219,   0.00066,   0.00021,  -0.00000,   2.00000
504451133.71754,441522111.99732,-13650654.81804,   0.00363,   0.00169,   0.00003,479539775.51879,   0.00191,276702646.16841,   0.00220,   0.00066,   0.00021,   0.00000,   2.00000
504026864.49491,442122467.89621,-13909916.60799,   0.00364,   0.00170,   0.00003,479561339.43872,   0.00191,276711876.16301,   0.00220,   0.00067,   0.00021,  -0.00000,   2.00000
503600497.98303,442720944.80527,-14167688.76890,   0.00364,   0.00171,   0.00002,479560419.64802,   0.00192,276721069.89489,   0.00221,   0.00067,   0.00021,   0.00000,   2.00000
503174586.02740,443312993.25444,-14428054.34385,   0.00365,   0.00172,   0.00002,479572016.32684,   0.00193,276730267.97879,   0.00222,   0.00068,   0.00021,   0.00000,   2.00000
502741889.29526,443909202.91026,-14691053.49257,   0.00365,   0.00173,   0.00001,479581929.67531,   0.00194,276739465.00379,   0.00223,   0.00069,   0.00020,   0.00000,   2.00000
502310105.16650,444499336.00821,-14952107.78941,   0.00366,   0.00174,   0.00001,479593150.34893,   0.00195,276748665.26235,   0.00224,   0.00069,   0.00020,   0.00000,   2.00000
501875725.27335,445087290.54569,-15216181.20950,   0.00366,   0.00174,   0.00000,479592692.45353,   0.00196,276757831.17133,   0.00225,   0.00070,   0.00020,   0.00000,   2.00000
501434939.44141,445679720.90428,-15478366.51559,   0.00367,   0.00175,  -0.00000,479602272.97693,   0.00197,276766995.23562,   0.00226,   0.00070,   0.00020,   0.00000,   2.00000
500995113.49602,446266092.93258,-15738612.92167,   0.00367,   0.00176,  -0.00001,479613477.02725,   0.00197,276776162.76416,   0.00227,   0.00071,   0.00020,  -0.00000,   2.00000
500552635.66643,446850299.30739,-16001904.86618,   0.00368,   0.00177,  -0.00001,479613064.68633,   0.00198,276785296.41245,   0.00227,   0.00072,   0.00020,   0.00000,   2.00000
500103214.53686,447438499.79233,-16267805.48075,   0.00369,   0.00178,  -0.00002,479623183.46135,   0.00199,276794430.25092,   0.00228,   0.00072,   0.00020,  -0.00000,   2.00000
499654789.06151,448020648.32218,-16531740.09451,   0.00369,   0.00179,  -0.00002,479634389.54056,   0.00200,276803567.84966,   0.00229,   0.00073,   0.00019,   0.00000,   2.00000
499207388.78820,448596809.01981,-16793721.15537,   0.00370,   0.00180,  -0.00003,479645572.12611,   0.00201,276812709.18960,   0.00230,   0.00073,   0.00019,   0.00000,   2.00000
498749719.47693,449181188.30345,-17058820.46557,   0.00370,   0.00181,  -0.00003,479643803.83069,   0.00202,276821812.64114,   0.00231,   0.00074,   0.00019,  -0.00000,   2.00000
498293093.65341,449759532.79435,-17321959.34576,   0.00371,   0.00182,  -0.00004,479654996.71328,   0.00203,276830920.08866,   0.00232,   0.00075,   0.00019,   0.00000,   2.00000
497837017.56580,450331442.99852,-17587638.60239,   0.00371,   0.00183,  -0.00004,479666669.35985,   0.00203,276840033.14348,   0.00232,   0.00075,   0.00019,   0.00000,   2.00000
497373861.40095,450907211.41110,-17855896.29686,   0.00372,   0.00184,  -0.00005,479677014.02222,   0.00204,276849147.56351,   0.00233,   0.00076,   0.00019,   0.00000,   2.00000
496908420.18659,451481274.47661,-18122702.46448,   0.00372,   0.00185,  -0.00005,479676282.22042,   0.00205,276858227.82584,   0.00234,   0.00077,   0.00018,  -0.00000,   2.00000
496436383.43239,452059568.78272,-18387591.62981,   0.00373,   0.00186,  -0.00006,479686187.70517,   0.00206,276867308.25124,   0.00235,   0.00077,   0.00018,   0.00000,   2.00000
495969220.84587,452625465.22923,-18655497.80063,   0.00373,   0.00187,  -0.00006,479687252.55012,   0.00207,276876360.56976,   0.00236,   0.00078,   0.00018,   0.00000,   2.00000
495495426.10549,453195619.25122,-18921481.10238,   0.00374,   0.00188,  -0.00007,479697177.04004,   0.00208,276885413.35551,   0.00237,   0.00078,   0.00018,   0.00000,   2.00000
495022222.67097,453759314.33462,-19189979.11160,   0.00374,   0.00189,  -0.00007,479708891.45344,   0.00209,276894472.43479,   0.00237,   0.00079,   0.00018,   0.00000,   2.00000
494542360.87138,454327206.49409,-19456543.18521,   0.00375,   0.00190,  -0.00008,479718900.71927,   0.00209,276903532.34950,   0.00238,   0.00080,   0.00018,  -0.00000,   2.00000
494059558.59301,454892923.95289,-19726193.32740,   0.00375,   0.00191,  -0.00008,479718797.83669,   0.00210,276912560.74238,   0.00239,   0.00080,   0.00017,   0.00000,   2.00000
493577952.38337,455452697.94530,-19993846.55257,   0.00376,   0.00192,  -0.00009,479729972.80792,   0.00211,276921593.95984,   0.00240,   0.00081,   0.00017,  -0.00000,   2.00000
493089746.63635,456014679.09287,-20265191.32396,   0.00376,   0.00193,  -0.00009,479718045.18705,   0.00212,276930557.99341,   0.00241,   0.00082,   0.00017,  -0.00000,   2.00000
492602070.07251,456572104.86907,-20533380.57795,   0.00377,   0.00194,  -0.00010,479751771.38157,   0.00213,276939599.46969,   0.00241,   0.00082,   0.00017,  -0.00000,   2.00000
492107701.39067,457131725.65444,-20805279.02060,   0.00377,   0.00195,  -0.00010,479739943.30122,   0.00214,276948572.20526,   0.00242,   0.00083,   0.00017,  -0.00000,   2.00000
491614577.34047,457685430.54184,-21075168.22364,   0.00378,   0.00196,  -0.00011,479751097.20256,   0.00215,276957550.14484,   0.00243,   0.00084,   0.00016,  -0.00000,   2.00000
491118369.56076,458237034.06257,-21348165.37726,   0.00378,   0.00197,  -0.00012,479751067.11608,   0.00215,276966497.52392,   0.00244,   0.00084,   0.00016,   0.00000,   2.00000
490615342.51406,458792676.52747,-21619197.45311,   0.00378,   0.00198,  -0.00012,479761273.63456,   0.00216,276975447.27534,   0.00245,   0.00085,   0.00016,  -0.00000,   2.00000
490113609.91855,459342418.10281,-21888225.42107,   0.00379,   0.00199,  -0.00013,479772423.58523,   0.00217,276984402.47779,   0.00245,   0.00085,   0.00016,  -0.00000,   2.00000
489608085.94872,459889456.05917,-22164861.36828,   0.00379,   0.00200,  -0.00013,479773090.91236,   0.00218,276993329.64945,   0.00246,   0.00086,   0.00016,   0.00000,   2.00000
489096339.25530,460441061.66132,-22435026.53088,   0.00380,   0.00201,  -0.00014,479782761.57797,   0.00219,277002257.73227,   0.00247,   0.00087,   0.00015,   0.00000,   2.00000
488589613.37060,460980729.97714,-22708283.88380,   0.00380,   0.00202,  -0.00014,479783650.46179,   0.00220,277011158.72053,   0.00248,   0.00087,   0.00015,  -0.00000,   2.00000
488075318.36052,461523765.18252,-22984044.18049,   0.00381,   0.00203,  -0.00015,479794626.75549,   0.00220,277020065.04888,   0.00249,   0.00088,   0.00015,   0.00000,   2.00000
487558441.27071,462065314.16321,-23258444.03661,   0.00381,   0.00204,  -0.00015,479794090.02924,   0.00221,277028939.92441,   0.00249,   0.00089,   0.00015,   0.00000,   2.00000
487034620.90196,462610747.78326,-23530862.87898,   0.00382,   0.00205,  -0.00016,479804491.90338,   0.00222,277037818.49388,   0.00250,   0.00089,   0.00015,   0.00000,   2.00000
486515847.28271,463144350.38533,-23806390.72632,   0.00382,   0.00206,  -0.00017,479805338.99597,   0.00223,277046670.28226,   0.00251,   0.00090,   0.00014,   0.00000,   2.00000
485989398.52898,463681197.53698,-24084399.80968,   0.00382,   0.00207,  -0.00017,479816456.24569,   0.00224,277055528.29233,   0.00252,   0.00091,   0.00014,   0.00000,   2.00000
485460294.03879,464216584.87081,-24361063.73689,   0.00383,   0.00208,  -0.00018,479815969.87310,   0.00225,277064355.45685,   0.00252,   0.00091,   0.00014,   0.00000,   2.00000
484932610.62020,464746191.83171,-24635692.55982,   0.00383,   0.00209,  -0.00018,479827060.89623,   0.00225,277073188.96366,   0.00253,   0.00092,   0.00014,  -0.00000,   2.00000
484397399.49308,465278081.83667,-24914203.15578,   0.00384,   0.00210,  -0.00019,479815690.22128,   0.00226,277081957.05468,   0.00254,   0.00093,   0.00013,  -0.00000,   2.00000
483859275.09863,465809395.10142,-25189981.70584,   0.00384,   0.00211,  -0.00019,479837786.62139,   0.00227,277090766.99391,   0.00255,   0.00093,   0.00013,   0.00000,   2.00000
483317699.20725,466338581.90888,-25468927.12859,   0.00384,   0.00212,  -0.00020,479838064.85691,   0.00228,277099548.97405,   0.00255,   0.00094,   0.00013,   0.00000,   2.00000
482777594.83628,466862008.70817,-25745823.81656,   0.00385,   0.00213,  -0.00021,479849150.14149,   0.00229,277108337.69527,   0.00256,   0.00095,   0.00013,   0.00000,   2.00000
482233988.60792,467383362.83370,-26025894.41654,   0.00385,   0.00214,  -0.00021,479849444.12242,   0.00230,277117098.72389,   0.00257,   0.00095,   0.00013,   0.00000,   2.00000
481683303.75799,467907707.44562,-26305417.83827,   0.00386,   0.00215,  -0.00022,479837503.72665,   0.00230,277125793.11219,   0.00258,   0.00096,   0.00012,   0.00000,   2.00000
481133329.46823,468426296.08814,-26585867.01212,   0.00386,   0.00216,  -0.00022,479871885.35821,   0.00231,277134569.19306,   0.00258,   0.00097,   0.00012,  -0.00000,   2.00000
480580530.14833,468942858.89276,-26866532.19221,   0.00386,   0.00217,  -0.00023,479848909.79793,   0.00232,277143243.46501,   0.00259,   0.00097,   0.00012,   0.00000,   2.00000
480024135.75052,469458000.55407,-27148858.69726,   0.00387,   0.00218,  -0.00024,479871825.80803,   0.00233,277151962.99063,   0.00260,   0.00098,   0.00012,   0.00000,   2.00000
479460456.03316,469976141.97184,-27430679.69002,   0.00387,   0.00219,  -0.00024,479860013.04599,   0.00234,277160616.70313,   0.00261,   0.00099,   0.00011,  -0.00000,   2.00000
478898315.71581,470488581.91970,-27710447.23833,   0.00387,   0.00220,  -0.00025,479871036.53647,   0.00235,277169277.85203,   0.00261,   0.00099,   0.00011,  -0.00000,   2.00000
478331673.70445,470998159.96674,-27997881.44095,   0.00388,   0.00221,  -0.00026,479872237.96182,   0.00235,277177915.13008,   0.00262,   0.00100,   0.00011,  -0.00000,   2.00000
477763057.12543,471507748.10333,-28277981.25027,   0.00388,   0.00222,  -0.00026,479893650.12713,   0.00236,277186593.22524,   0.00263,   0.00101,   0.00011,   0.00000,   2.00000
477195025.57141,472010385.86418,-28562091.45533,   0.00388,   0.00223,  -0.00027,479882916.15855,   0.00237,277195209.37058,   0.00263,   0.00102,   0.00010,   0.00000,   2.00000
476615096.96163,472520923.41216,-28844961.61049,   0.00389,   0.00224,  -0.00027,479882415.21496,   0.00238,277203796.52353,   0.00264,   0.00102,   0.00010,   0.00000,   2.00000
476040272.35108,473020191.54295,-29131044.48299,   0.00389,   0.00225,  -0.00028,479883003.29353,   0.00239,277212358.34350,   0.00265,   0.00103,   0.00010,   0.00000,   2.00000
475461898.81359,473517847.33090,-29418684.23926,   0.00389,   0.00226,  -0.00029,479906045.75541,   0.00239,277220966.74114,   0.00265,   0.00104,   0.00010,   0.00000,   2.00000
474875799.38112,474018573.59122,-29705903.95780,   0.00390,   0.00227,  -0.00029,479894442.54768,   0.00240,277229510.90805,   0.00266,   0.00104,   0.00009,  -0.00000,   2.00000
474291325.62541,474513698.72180,-29991045.22780,   0.00390,   0.00228,  -0.00030,479905416.70620,   0.00241,277238063.26145,   0.00267,   0.00105,   0.00009,   0.00000,   2.00000
473698161.04865,475011061.68498,-30280266.97538,   0.00390,   0.00229,  -0.00031,479894698.31747,   0.00242,277246554.52954,   0.00268,   0.00106,   0.00009,  -0.00000,   2.00000
473102320.11582,475507487.81424,-30566543.55383,   0.00391,   0.00230,  -0.00031,479916965.62514,   0.00243,277255090.39035,   0.00268,   0.00106,   0.00009,  -0.00000,   2.00000
472506787.81579,475997139.20593,-30856922.86542,   0.00391,   0.00231,  -0.00032,479906269.16129,   0.00243,277263565.41715,   0.00269,   0.00107,   0.00008,   0.00000,   2.00000
471912915.22746,476481271.69084,-31145212.96398,   0.00391,   0.00232,  -0.00032,479917192.63116,   0.00244,277272048.96935,   0.00270,   0.00108,   0.00008,   0.00000,   2.00000
471306663.21729,476973111.93491,-31432290.57137,   0.00392,   0.00234,  -0.00033,479917056.53551,   0.00245,277280505.72296,   0.00270,   0.00108,   0.00008,   0.00000,   2.00000
470705520.03273,477453953.15030,-31722639.00750,   0.00392,   0.00235,  -0.00034,479917530.00031,   0.00246,277288937.78888,   0.00271,   0.00109,   0.00008,   0.00000,   2.00000
470090988.22386,477941541.09309,-32016217.08594,   0.00392,   0.00236,  -0.00034,479918381.78833,   0.00247,277297346.54146,   0.00272,   0.00110,   0.00007,   0.00000,   2.00000
469482436.06812,478419082.02613,-32308606.45213,   0.00393,   0.00237,  -0.00035,479917918.24756,   0.00247,277305727.89850,   0.00272,   0.00110,   0.00007,   0.00000,   2.00000
468866282.50489,478899935.10123,-32598884.78064,   0.00393,   0.00238,  -0.00036,479929060.63395,   0.00248,277314119.12282,   0.00273,   0.00111,   0.00007,   0.00000,   2.00000
468250950.79182,479374368.66954,-32891519.32512,   0.00393,   0.00239,  -0.00036,479940898.94617,   0.00249,277322522.48408,   0.00273,   0.00112,   0.00006,   0.00000,   2.00000
467631456.49572,479847504.73963,-33184832.89279,   0.00393,   0.00240,  -0.00037,479918160.52892,   0.00250,277330827.38735,   0.00274,   0.00113,   0.00006,   0.00000,   2.00000
467003365.58829,480322929.18232,-33480466.43317,   0.00394,   0.00241,  -0.00038,479930312.31986,   0.00251,277339145.85905,   0.00275,   0.00113,   0.00006,  -0.00000,   2.00000
466377010.47380,480792878.41168,-33773995.09469,   0.00394,   0.00242,  -0.00038,479941191.00967,   0.00251,277347473.83128,   0.00275,   0.00114,   0.00006,   0.00000,   2.00000
465746288.78167,481260699.95151,-34070798.40361,   0.00394,   0.00243,  -0.00039,479941980.24658,   0.00252,277355779.06255,   0.00276,   0.00115,   0.00005,  -0.00000,   2.00000
465112098.18991,481727358.23326,-34366433.50408,   0.00394,   0.00244,  -0.00040,479941815.12824,   0.00253,277364058.62301,   0.00277,   0.00115,   0.00005,  -0.00000,   2.00000
464473464.52224,482191867.55096,-34665346.95654,   0.00395,   0.00245,  -0.00040,479942639.37751,   0.00254,277372315.84015,   0.00277,   0.00116,   0.00005,  -0.00000,   2.00000
463835535.85663,482650960.54316,-34964100.55654,   0.00395,   0.00246,  -0.00041,479930967.10926,   0.00254,277380510.81351,   0.00278,   0.00117,   0.00004,   0.00000,   2.00000
463189794.18598,483113180.47362,-35260703.40191,   0.00395,   0.00247,  -0.00042,479942297.11825,   0.00255,277388717.46876,   0.00279,   0.00117,   0.00004,  -0.00000,   2.00000
462544871.56452,483568995.29721,-35559636.54914,   0.00395,   0.00248,  -0.00042,479954119.00131,   0.00256,277396937.41747,   0.00279,   0.00118,   0.00004,   0.00000,   2.00000
461896343.64146,484023693.44144,-35857433.36184,   0.00396,   0.00249,  -0.00043,479953991.99236,   0.00257,277405132.38496,   0.00280,   0.00119,   0.00004,   0.00000,   2.00000
461237758.08220,484480451.11277,-36159513.79612,   0.00396,   0.00250,  -0.00044,479943983.37076,   0.00258,277413270.86617,   0.00280,   0.00120,   0.00003,   0.00000,   2.00000
460585168.10318,484927703.62999,-36460524.92112,   0.00396,   0.00251,  -0.00044,479943186.78642,   0.00258,277421382.59901,   0.00281,   0.00120,   0.00003,  -0.00000,   2.00000
459923668.72986,485376935.38546,-36763785.33989,   0.00396,   0.00252,  -0.00045,479955677.63623,   0.00259,277429510.35764,   0.00282,   0.00121,   0.00003,  -0.00000,   2.00000
459258433.76633,485825032.55979,-37065920.52349,   0.00396,   0.00253,  -0.00046,479955598.82343,   0.00260,277437613.83253,   0.00282,   0.00122,   0.00002,  -0.00000,   2.00000
458592611.68648,486266871.17672,-37372443.06164,   0.00397,   0.00254,  -0.00047,479944958.29470,   0.00261,277445659.28393,   0.00283,   0.00122,   0.00002,   0.00000,   2.00000
457919802.40533,486712735.23085,-37672346.48346,   0.00397,   0.00255,  -0.00047,479955412.03615,   0.00261,277453714.60957,   0.00283,   0.00123,   0.00002,   0.00000,   2.00000
457250965.70093,487147104.79149,-37980081.49418,   0.00397,   0.00256,  -0.00048,479956657.38898,   0.00262,277461750.30861,   0.00284,   0.00124,   0.00001,   0.00000,   2.00000
456568400.68089,487588561.29834,-38286623.28985,   0.00397,   0.00257,  -0.00049,479957453.37052,   0.00263,277469765.06982,   0.00284,   0.00124,   0.00001,   0.00000,   2.00000
455891824.38654,488020757.36269,-38592154.91549,   0.00397,   0.00258,  -0.00049,479956516.44664,   0.00264,277477753.41876,   0.00285,   0.00125,   0.00001,   0.00000,   2.00000
455210282.41866,488450777.12914,-38901019.08444,   0.00397,   0.00259,  -0.00050,479957545.94428,   0.00264,277485721.82903,   0.00286,   0.00126,   0.00000,   0.00000,   2.00000
454514830.62765,488887765.13594,-39208700.54787,   0.00398,   0.00260,  -0.00051,479958472.66487,   0.00265,277493670.10397,   0.00286,   0.00127,   0.00000,   0.00000,   2.00000
453825355.32195,489315572.23168,-39515404.49124,   0.00398,   0.00261,  -0.00052,479957477.00475,   0.00266,277501592.14941,   0.00287,   0.00127,  -0.00000,  -0.00000,   2.00000
453130798.18651,489741150.95332,-39825457.07984,   0.00398,   0.00262,  -0.00052,479958570.56262,   0.00267,277509494.83840,   0.00287,   0.00128,  -0.00001,   0.00000,   2.00000
452435218.81823,490160648.73012,-40140014.00437,   0.00398,   0.00263,  -0.00053,479947954.71414,   0.00267,277517340.62665,   0.00288,   0.00129,  -0.00001,   0.00000,   2.00000
451732484.74594,490584081.56614,-40447916.51032,   0.00398,   0.00264,  -0.00054,479958509.37468,   0.00268,277525197.83592,   0.00288,   0.00129,  -0.00001,   0.00000,   2.00000
451029476.81706,490999954.25063,-40762505.07370,   0.00398,   0.00265,  -0.00054,479971465.46106,   0.00269,277533074.25641,   0.00289,   0.00130,  -0.00001,   0.00000,   2.00000
450321434.95053,491416275.50039,-41073906.70625,   0.00398,   0.00266,  -0.00055,479947941.73100,   0.00270,277540852.38599,   0.00289,   0.00131,  -0.00002,   0.00000,   2.00000
449604024.92933,491834055.37994,-41387465.25137,   0.00399,   0.00268,  -0.00056,479960893.57294,   0.00270,277548650.09525,   0.00290,   0.00131,  -0.00002,   0.00000,   2.00000
448891455.23358,492241712.82126,-41704500.56232,   0.00399,   0.00269,  -0.00057,479960912.78945,   0.00271,277556425.70212,   0.00290,   0.00132,  -0.00002,  -0.00000,   2.00000
448168460.11286,492652369.24050,-42021585.96387,   0.00399,   0.00270,  -0.00057,479950391.04815,   0.00272,277564145.35170,   0.00291,   0.00133,  -0.00003,  -0.00000,   2.00000
447447325.08717,493057880.90429,-42336529.68420,   0.00399,   0.00271,  -0.00058,479960966.49933,   0.00273,277571877.27380,   0.00292,   0.00133,  -0.00003,   0.00000,   2.00000
446721851.95183,493462330.16561,-42650455.67047,   0.00399,   0.00272,  -0.00059,479961013.49009,   0.00273,277579587.51437,   0.00292,   0.00134,  -0.00003,   0.00000,   2.00000
445987524.23673,493863584.29594,-42974530.17709,   0.00399,   0.00273,  -0.00060,479941177.85836,   0.00274,277587212.06649,   0.00293,   0.00135,  -0.00004,   0.00000,   2.00000
445252160.61089,494264594.70950,-43290781.95984,   0.00399,   0.00274,  -0.00060,479962340.23600,   0.00275,277594883.56998,   0.00293,   0.00136,  -0.00004,   0.00000,   2.00000
444515216.13313,494659652.16195,-43611699.23274,   0.00399,   0.00275,  -0.00061,479951805.56305,   0.00276,277602499.56178,   0.00294,   0.00136,  -0.00004,   0.00000,   2.00000
443773767.11839,495053639.72481,-43931607.57871,   0.00399,   0.00276,  -0.00062,479951879.43082,   0.00276,277610094.52715,   0.00294,   0.00137,  -0.00005,  -0.00000,   2.00000
443026642.91876,495445243.76180,-44254899.88187,   0.00400,   0.00277,  -0.00063,479953228.81978,   0.00277,277617672.72460,   0.00295,   0.00138,  -0.00005,   0.00000,   2.00000
442274942.84733,495835743.13101,-44577185.16920,   0.00400,   0.00278,  -0.00063,479953350.03314,   0.00278,277625230.27452,   0.00295,   0.00138,  -0.00005,   0.00000,   2.00000
441521421.23662,496220322.33222,-44904178.62724,   0.00400,   0.00279,  -0.00064,479942837.83846,   0.00278,277632732.87982,   0.00296,   0.00139,  -0.00006,   0.00000,   2.00000
440769762.10165,496599886.22471,-45229012.13272,   0.00400,   0.00280,  -0.00065,479953292.61409,   0.00279,277640248.60357,   0.00296,   0.00140,  -0.00006,   0.00000,   2.00000
440006843.21400,496982320.95300,-45554027.02529,   0.00400,   0.00281,  -0.00066,479943080.74320,   0.00280,277647710.52936,   0.00296,   0.00140,  -0.00006,  -0.00000,   2.00000
439238017.87947,497362284.39166,-45882438.05409,   0.00400,   0.00282,  -0.00066,479944527.90636,   0.00281,277655156.66340,   0.00297,   0.00141,  -0.00007,   0.00000,   2.00000
438471068.22039,497737218.68504,-46208687.64451,   0.00400,   0.00283,  -0.00067,479954985.42701,   0.00281,277662616.29131,   0.00297,   0.00142,  -0.00007,   0.00000,   2.00000
437696505.98172,498111558.40153,-46536531.40308,   0.00400,   0.00284,  -0.00068,479932917.88495,   0.00282,277669983.90671,   0.00298,   0.00142,  -0.00007,   0.00000,   2.00000
436922621.27974,498479529.47811,-46866596.84256,   0.00400,   0.00285,  -0.00069,479944640.52222,   0.00283,277677369.48658,   0.00298,   0.00143,  -0.00008,  -0.00000,   2.00000
436137074.00714,498850257.20406,-47196892.46731,   0.00400,   0.00286,  -0.00070,479934595.83277,   0.00283,277684702.35825,   0.00299,   0.00144,  -0.00008,  -0.00000,   2.00000
435356027.51366,499211270.65036,-47530807.32457,   0.00400,   0.00287,  -0.00070,479934331.04682,   0.00284,277692014.47293,   0.00299,   0.00145,  -0.00008,   0.00000,   2.00000
434566177.13426,499574486.06775,-47862340.06041,   0.00400,   0.00288,  -0.00071,479946531.78169,   0.00285,277699346.47521,   0.00300,   0.00145,  -0.00009,   0.00000,   2.00000
433773922.17708,499931851.75754,-48198712.17204,   0.00400,   0.00289,  -0.00072,479936113.36880,   0.00285,277706624.79143,   0.00300,   0.00146,  -0.00009,   0.00000,   2.00000
432974666.94570,500290070.01101,-48532435.76676,   0.00400,   0.00290,  -0.00073,479912772.68305,   0.00286,277713807.51813,   0.00301,   0.00147,  -0.00010,   0.00000,   2.00000
432171038.77605,500643682.77311,-48871262.68026,   0.00400,   0.00291,  -0.00073,479937911.71598,   0.00287,277721052.87977,   0.00301,   0.00147,  -0.00010,  -0.00000,   2.00000
431367249.54543,500994374.08603,-49206251.77315,   0.00400,   0.00292,  -0.00074,479924722.52014,   0.00287,277728235.82002,   0.00301,   0.00148,  -0.00010,   0.00000,   2.00000
430557037.64295,501342448.20156,-49544671.49530,   0.00400,   0.00293,  -0.00075,479926361.62306,   0.00288,277735404.91679,   0.00302,   0.00149,  -0.00011,   0.00000,   2.00000
429745313.37408,501686184.17385,-49883653.14209,   0.00400,   0.00294,  -0.00076,479914534.16517,   0.00289,277742516.29624,   0.00302,   0.00149,  -0.00011,  -0.00000,   2.00000
428927052.19954,502027274.26793,-50226064.07859,   0.00400,   0.00295,  -0.00077,479916197.08219,   0.00290,277749614.21276,   0.00303,   0.00150,  -0.00011,   0.00000,   2.00000
428110629.83059,502363490.32403,-50566301.37556,   0.00400,   0.00296,  -0.00077,479926469.77183,   0.00290,277756726.84158,   0.00303,   0.00151,  -0.00012,   0.00000,   2.00000
427280389.80275,502700719.76892,-50911219.89502,   0.00400,   0.00297,  -0.00078,479918228.70055,   0.00291,277763793.73367,   0.00303,   0.00151,  -0.00012,   0.00000,   2.00000
426449648.73695,503035157.44246,-51252413.40957,   0.00400,   0.00298,  -0.00079,479904969.41185,   0.00292,277770798.58262,   0.00304,   0.00152,  -0.00012,   0.00000,   2.00000
425612175.87064,503366849.29882,-51597054.47870,   0.00400,   0.00299,  -0.00080,479906722.03619,   0.00292,277777790.73936,   0.00304,   0.00153,  -0.00013,   0.00000,   2.00000
424775264.99985,503692122.42659,-51943856.63592,   0.00400,   0.00300,  -0.00081,479918439.45526,   0.00293,277784802.91324,   0.00305,   0.00153,  -0.00013,  -0.00000,   2.00000
423929046.00982,504016760.61550,-52292595.20882,   0.00400,   0.00301,  -0.00081,479896745.83825,   0.00294,277791725.62160,   0.00305,   0.00154,  -0.00013,  -0.00000,   2.00000
423084633.08529,504336553.59569,-52639157.47042,   0.00400,   0.00302,  -0.00082,479906947.34651,   0.00294,277798663.67932,   0.00305,   0.00155,  -0.00014,  -0.00000,   2.00000
422229411.63363,504654118.59253,-52992039.16713,   0.00400,   0.00303,  -0.00083,479886779.91384,   0.00295,277805517.48001,   0.00306,   0.00155,  -0.00014,  -0.00000,   2.00000
421375972.63611,504966853.93745,-53342735.72946,   0.00399,   0.00303,  -0.00084,479896950.41241,   0.00296,277812386.85171,   0.00306,   0.00156,  -0.00015,   0.00000,   2.00000
420509249.78615,505281885.77980,-53693849.61472,   0.00399,   0.00304,  -0.00085,479887523.52481,   0.00296,277819207.43358,   0.00307,   0.00157,  -0.00015,  -0.00000,   2.00000
419647834.88844,505589134.23476,-54044417.72167,   0.00399,   0.00305,  -0.00085,479885477.51402,   0.00297,277826003.60245,   0.00307,   0.00157,  -0.00015,   0.00000,   2.00000
418779280.42803,505893496.51394,-54398445.68058,   0.00399,   0.00306,  -0.00086,479887386.65091,   0.00297,277832788.49926,   0.00307,   0.00158,  -0.00016,   0.00000,   2.00000
417907013.74031,506192016.44990,-54757566.31676,   0.00399,   0.00307,  -0.00087,479877118.49652,   0.00298,277839522.10339,   0.00308,   0.00159,  -0.00016,   0.00000,   2.00000
417022393.14415,506494362.90786,-55112819.54447,   0.00399,   0.00308,  -0.00088,479866253.05677,   0.00299,277846202.60255,   0.00308,   0.00159,  -0.00016,   0.00000,   2.00000
416138207.20646,506790227.76561,-55470210.31342,   0.00399,   0.00309,  -0.00089,479877932.15313,   0.00299,277852904.50120,   0.00308,   0.00160,  -0.00017,  -0.00000,   2.00000
415250090.53166,507080208.26378,-55832732.08134,   0.00399,   0.00310,  -0.00090,479867715.98151,   0.00300,277859555.54539,   0.00309,   0.00160,  -0.00017,   0.00000,   2.00000
414357205.41986,507370529.50769,-56190089.17167,   0.00399,   0.00311,  -0.00090,479866568.81690,   0.00301,277866185.80983,   0.00309,   0.00161,  -0.00017,   0.00000,   2.00000
413456861.21273,507657774.31537,-56550911.56190,   0.00399,   0.00312,  -0.00091,479868641.54533,   0.00301,277872806.05145,   0.00309,   0.00162,  -0.00018,  -0.00000,   2.00000
412555719.29658,507936282.34011,-56918622.84946,   0.00398,   0.00313,  -0.00092,479846186.41013,   0.00302,277879335.19393,   0.00310,   0.00162,  -0.00018,   0.00000,   2.00000
411654282.19843,508214584.49815,-57278113.78153,   0.00398,   0.00314,  -0.00093,479866865.78215,   0.00303,277885916.21817,   0.00310,   0.00163,  -0.00018,  -0.00000,   2.00000
410740550.16789,508490317.14064,-57644170.17167,   0.00398,   0.00315,  -0.00094,479847166.35464,   0.00303,277892415.32479,   0.00310,   0.00164,  -0.00019,   0.00000,   2.00000
409819118.35074,508762847.10941,-58013678.71230,   0.00398,   0.00316,  -0.00095,479849340.54708,   0.00304,277898905.27795,   0.00311,   0.00164,  -0.00019,   0.00000,   2.00000
408895921.80952,509032908.68186,-58379825.34758,   0.00398,   0.00317,  -0.00095,479835918.75542,   0.00304,277905334.33888,   0.00311,   0.00165,  -0.00020,   0.00000,   2.00000
407976300.64902,509293738.36144,-58749857.99294,   0.00398,   0.00318,  -0.00096,479835229.39420,   0.00305,277911744.93581,   0.00311,   0.00166,  -0.00020,   0.00000,   2.00000
407040626.39866,509554582.14239,-59124720.32801,   0.00398,   0.00319,  -0.00097,479827996.70602,   0.00306,277918115.45847,   0.00312,   0.00166,  -0.00020,   0.00000,   2.00000
406107978.48415,509812479.12126,-59493099.49694,   0.00397,   0.00320,  -0.00098,479836290.27206,   0.00306,277924497.61189,   0.00312,   0.00167,  -0.00021,  -0.00000,   2.00000
405162288.77108,510067573.08439,-59868145.85312,   0.00397,   0.00321,  -0.00099,479816827.20096,   0.00307,277930799.04868,   0.00312,   0.00167,  -0.00021,   0.00000,   2.00000
404218234.55794,510317926.84431,-60240995.33353,   0.00397,   0.00321,  -0.00100,479826779.44420,   0.00307,277937117.94739,   0.00313,   0.00168,  -0.00021,   0.00000,   2.00000
403269241.46582,510562244.95468,-60619149.74995,   0.00397,   0.00322,  -0.00101,479816736.65094,   0.00308,277943387.64214,   0.00313,   0.00169,  -0.00022,   0.00000,   2.00000
402308192.21884,510805477.78845,-60999736.46699,   0.00397,   0.00323,  -0.00101,479795663.47539,   0.00309,277949571.46927,   0.00313,   0.00169,  -0.00022,   0.00000,   2.00000
401345636.64756,511046602.32073,-61376257.05637,   0.00396,   0.00324,  -0.00102,479817964.09371,   0.00309,277955814.51151,   0.00313,   0.00170,  -0.00022,   0.00000,   2.00000
400380970.42504,511278995.20885,-61759992.60442,   0.00396,   0.00325,  -0.00103,479795596.82567,   0.00310,277961967.33642,   0.00314,   0.00171,  -0.00023,   0.00000,   2.00000
399410754.24104,511511645.41872,-62138672.53293,   0.00396,   0.00326,  -0.00104,479794470.57017,   0.00310,277968101.21081,   0.00314,   0.00171,  -0.00023,  -0.00000,   2.00000
398432149.47747,511740740.95135,-62520829.88601,   0.00396,   0.00327,  -0.00105,479796910.29903,   0.00311,277974228.17882,   0.00314,   0.00172,  -0.00024,  -0.00000,   2.00000
397451089.03111,511961078.58064,-62910274.61895,   0.00396,   0.00328,  -0.00106,479774556.52019,   0.00312,277980265.16578,   0.00315,   0.00172,  -0.00024,   0.00000,   2.00000
396470001.86925,512181221.98270,-63291336.99915,   0.00395,   0.00329,  -0.00107,479795015.96688,   0.00312,277986355.99193,   0.00315,   0.00173,  -0.00024,   0.00000,   2.00000
395474620.64521,512398138.88743,-63679235.64781,   0.00395,   0.00330,  -0.00107,479775985.26916,   0.00313,277992368.00604,   0.00315,   0.00174,  -0.00025,  -0.00000,   2.00000
394473517.00924,512608788.58631,-64072540.92803,   0.00395,   0.00330,  -0.00108,479766113.00301,   0.00313,277998332.19060,   0.00315,   0.00174,  -0.00025,  -0.00000,   2.00000
393478231.59611,512814172.17550,-64461354.65456,   0.00395,   0.00331,  -0.00109,479761643.42458,   0.00314,278004266.77040,   0.00316,   0.00175,  -0.00025,   0.00000,   2.00000
392462479.81989,513021210.70953,-64853100.64545,   0.00394,   0.00332,  -0.00110,479767636.48341,   0.00314,278010207.14936,   0.00316,   0.00175,  -0.00026,   0.00000,   2.00000
391453916.89549,513218515.26805,-65246607.53392,   0.00394,   0.00333,  -0.00111,479752538.53119,   0.00315,278016082.18328,   0.00316,   0.00176,  -0.00026,   0.00000,   2.00000
390437904.26326,513413999.16850,-65639354.68326,   0.00394,   0.00334,  -0.00112,479753301.26290,   0.00316,278021945.54499,   0.00316,   0.00176,  -0.00026,   0.00000,   2.00000
389415745.92196,513603132.56984,-66037582.43135,   0.00394,   0.00335,  -0.00113,479743494.19495,   0.00316,278027761.59978,   0.00317,   0.00177,  -0.00027,   0.00000,   2.00000
388386019.41364,513790366.59277,-66435043.53380,   0.00393,   0.00336,  -0.00114,479744318.50125,   0.00317,278033566.40876,   0.00317,   0.00178,  -0.00027,  -0.00000,   2.00000
387351416.21466,513973203.95255,-66833783.38720,   0.00393,   0.00337,  -0.00114,479732676.46322,   0.00317,278039317.82112,   0.00317,   0.00178,  -0.00028,  -0.00000,   2.00000
386311834.82525,514151634.55349,-67233824.58118,   0.00393,   0.00337,  -0.00115,479721017.93076,   0.00318,278045015.89365,   0.00317,   0.00179,  -0.00028,  -0.00000,   2.00000
385263041.35204,514326014.83444,-67637330.01197,   0.00393,   0.00338,  -0.00116,479723797.54825,   0.00318,278050709.73606,   0.00318,   0.00179,  -0.00028,  -0.00000,   2.00000
384209093.92584,514495922.80715,-68042154.06676,   0.00392,   0.00339,  -0.00117,479712193.14954,   0.00319,278056350.54914,   0.00318,   0.00180,  -0.00029,   0.00000,   2.00000
383156512.84384,514661132.85895,-68444761.54875,   0.00392,   0.00340,  -0.00118,479721900.20265,   0.00319,278062010.82936,   0.00318,   0.00181,  -0.00029,  -0.00000,   2.00000
382087883.22339,514822381.12443,-68854398.63214,   0.00392,   0.00341,  -0.00119,479703497.80106,   0.00320,278067595.01757,   0.00318,   0.00181,  -0.00029,   0.00000,   2.00000
381023150.20311,514976504.24934,-69263919.74725,   0.00391,   0.00342,  -0.00120,479700669.79423,   0.00320,278073156.24929,   0.00318,   0.00182,  -0.00030,  -0.00000,   2.00000
379952908.06677,515126120.83348,-69674826.97986,   0.00391,   0.00342,  -0.00121,479689069.68432,   0.00321,278078664.68347,   0.00319,   0.00182,  -0.00030,   0.00000,   2.00000
378865126.86570,515276094.83920,-70086479.15583,   0.00391,   0.00343,  -0.00122,479681349.50004,   0.00321,278084133.71180,   0.00319,   0.00183,  -0.00030,   0.00000,   2.00000
377777144.63559,515419165.00095,-70500089.40659,   0.00390,   0.00344,  -0.00122,479693039.27504,   0.00322,278089629.70743,   0.00319,   0.00183,  -0.00031,   0.00000,   2.00000
376696842.69357,515554963.51305,-70911623.07724,   0.00390,   0.00345,  -0.00123,479675565.44101,   0.00323,278095052.86107,   0.00319,   0.00184,  -0.00031,   0.00000,   2.00000
375597218.41615,515688809.85011,-71328110.59351,   0.00390,   0.00346,  -0.00124,479669980.06417,   0.00323,278100444.07118,   0.00319,   0.00184,  -0.00032,   0.00000,   2.00000
374490131.25542,515815785.40746,-71750226.20324,   0.00389,   0.00347,  -0.00125,479660520.93510,   0.00324,278105790.15842,   0.00320,   0.00185,  -0.00032,   0.00000,   2.00000
373385747.46067,515940225.65408,-72165932.25057,   0.00389,   0.00347,  -0.00126,479668104.87965,   0.00324,278111149.61550,   0.00320,   0.00185,  -0.00032,  -0.00000,   2.00000
372264054.66037,516060093.39221,-72588800.25073,   0.00389,   0.00348,  -0.00127,479650180.10322,   0.00325,278116434.91422,   0.00320,   0.00186,  -0.00033,   0.00000,   2.00000
371145835.04163,516172867.56411,-73011660.17411,   0.00388,   0.00349,  -0.00128,479647213.86558,   0.00325,278121697.56698,   0.00320,   0.00187,  -0.00033,   0.00000,   2.00000
370021272.51527,516280884.63981,-73436041.21536,   0.00388,   0.00350,  -0.00129,479635742.43162,   0.00326,278126908.35876,   0.00320,   0.00187,  -0.00033,   0.00000,   2.00000
368888031.41329,516386425.26075,-73859703.42914,   0.00388,   0.00351,  -0.00130,479636884.18772,   0.00326,278132110.84646,   0.00321,   0.00188,  -0.00034,  -0.00000,   2.00000
367746758.28812,516484854.76846,-74289065.30415,   0.00387,   0.00351,  -0.00131,479627579.84513,   0.00327,278137269.05764,   0.00321,   0.00188,  -0.00034,   0.00000,   2.00000
366608765.44994,516576224.73815,-74718467.76823,   0.00387,   0.00352,  -0.00131,479624538.31274,   0.00327,278142404.66026,   0.00321,   0.00189,  -0.00034,   0.00000,   2.00000
365454086.22841,516664872.34331,-75150965.56102,   0.00387,   0.00353,  -0.00132,479604795.43539,   0.00328,278147460.01656,   0.00321,   0.00189,  -0.00035,   0.00000,   2.00000
364300459.59860,516748743.09799,-75581224.42428,   0.00386,   0.00354,  -0.00133,479614331.61651,   0.00328,278152536.54658,   0.00321,   0.00190,  -0.00035,   0.00000,   2.00000
363138411.35711,516825341.89079,-76017223.71494,   0.00386,   0.00355,  -0.00134,479605130.26792,   0.00328,278157569.34734,   0.00321,   0.00190,  -0.00035,   0.00000,   2.00000
361969340.77314,516896932.84518,-76454833.00338,   0.00385,   0.00355,  -0.00135,479593798.25209,   0.00329,278162551.10955,   0.00322,   0.00191,  -0.00036,   0.00000,   2.00000
360791139.16052,516965754.05126,-76891718.55128,   0.00385,   0.00356,  -0.00136,479595119.87169,   0.00329,278167525.86589,   0.00322,   0.00191,  -0.00036,   0.00000,   2.00000
359605727.89891,517029467.13404,-77330244.76489,   0.00385,   0.00357,  -0.00137,479583849.36768,   0.00330,278172449.87022,   0.00322,   0.00192,  -0.00036,  -0.00000,   2.00000
358425161.93449,517083820.54935,-77771278.52529,   0.00384,   0.00358,  -0.00138,479568062.31487,   0.00330,278177307.44772,   0.00322,   0.00192,  -0.00037,   0.00000,   2.00000
357221549.88904,517137112.53192,-78214856.21303,   0.00384,   0.00358,  -0.00139,479576169.88986,   0.00331,278182182.03574,   0.00322,   0.00193,  -0.00037,   0.00000,   2.00000
356024141.20472,517183396.74443,-78656870.65524,   0.00383,   0.00359,  -0.00140,479558169.91460,   0.00331,278186982.48825,   0.00322,   0.00193,  -0.00037,   0.00000,   2.00000
354815742.12623,517224308.89486,-79102282.43252,   0.00383,   0.00360,  -0.00141,479561820.19596,   0.00332,278191784.56368,   0.00322,   0.00194,  -0.00038,   0.00000,   2.00000
353611840.18766,517255860.55030,-79550297.93348,   0.00383,   0.00361,  -0.00142,479545974.80103,   0.00332,278196520.06409,   0.00323,   0.00194,  -0.00038,  -0.00000,   2.00000
352386340.47646,517283719.87892,-80003235.95127,   0.00382,   0.00361,  -0.00142,479541701.20347,   0.00333,278201229.67011,   0.00323,   0.00195,  -0.00038,   0.00000,   2.00000
351163226.69657,517309148.11835,-80449812.97086,   0.00382,   0.00362,  -0.00143,479548909.72514,   0.00333,278205953.62158,   0.00323,   0.00195,  -0.00039,   0.00000,   2.00000
349932262.34094,517324446.35951,-80904701.86833,   0.00381,   0.00363,  -0.00144,479527402.64194,   0.00334,278210591.16521,   0.00323,   0.00196,  -0.00039,  -0.00000,   2.00000
348691500.65637,517336539.89304,-81358868.09804,   0.00381,   0.00363,  -0.00145,479528958.86487,   0.00334,278215223.46470,   0.00323,   0.00196,  -0.00039,  -0.00000,   2.00000
347444113.86350,517340838.13728,-81817305.23524,   0.00380,   0.00364,  -0.00146,479505205.71597,   0.00334,278219761.51017,   0.00323,   0.00197,  -0.00040,   0.00000,   2.00000
346197467.40633,517340237.45200,-82273476.10740,   0.00380,   0.00365,  -0.00147,479514615.32014,   0.00335,278224322.20096,   0.00323,   0.00197,  -0.00040,   0.00000,   2.00000
344928562.74985,517335334.79037,-82734541.48097,   0.00380,   0.00366,  -0.00148,479510818.78535,   0.00335,278228859.01688,   0.00323,   0.00197,  -0.00040,  -0.00000,   2.00000
343664941.32288,517323461.22795,-83194332.25620,   0.00379,   0.00366,  -0.00149,479492571.53619,   0.00336,278233320.92415,   0.00324,   0.00198,  -0.00041,   0.00000,   2.00000
342391097.88114,517303330.57138,-83660013.22316,   0.00379,   0.00367,  -0.00150,479483928.01950,   0.00336,278237742.00087,   0.00324,   0.00198,  -0.00041,   0.00000,   2.00000
341117923.34510,517278251.01467,-84123410.96060,   0.00378,   0.00368,  -0.00151,479493338.17732,   0.00337,278242186.17485,   0.00324,   0.00199,  -0.00041,   0.00000,   2.00000
339835909.22109,517247385.59791,-84588661.57458,   0.00378,   0.00368,  -0.00152,479482393.83879,   0.00337,278246581.30303,   0.00324,   0.00199,  -0.00042,  -0.00000,   2.00000
338533956.52218,517212009.43475,-85057332.41938,   0.00377,   0.00369,  -0.00153,479463861.57280,   0.00337,278250900.57653,   0.00324,   0.00200,  -0.00042,  -0.00000,   2.00000
337243377.72378,517165408.46466,-85528791.17978,   0.00377,   0.00370,  -0.00154,479470606.67385,   0.00338,278255233.84535,   0.00324,   0.00200,  -0.00042,   0.00000,   2.00000
335934110.82470,517116752.65803,-85999664.29858,   0.00376,   0.00370,  -0.00155,479449734.69078,   0.00338,278259482.89275,   0.00324,   0.00201,  -0.00043,   0.00000,   2.00000
334625076.83188,517058162.37401,-86474903.82079,   0.00376,   0.00371,  -0.00156,479448870.96149,   0.00339,278263719.07538,   0.00324,   0.00201,  -0.00043,  -0.00000,   2.00000
333305441.50431,516995766.18587,-86949404.18992,   0.00375,   0.00372,  -0.00156,479450763.80434,   0.00339,278267952.25376,   0.00324,   0.00201,  -0.00043,   0.00000,   2.00000
331977452.36148,516924911.36770,-87428477.80349,   0.00375,   0.00372,  -0.00157,479427307.29130,   0.00339,278272091.93513,   0.00324,   0.00202,  -0.00044,   0.00000,   2.00000
330638694.52915,516850100.97695,-87906808.19224,   0.00374,   0.00373,  -0.00158,479429265.18438,   0.00340,278276229.10321,   0.00325,   0.00202,  -0.00044,   0.00000,   2.00000
329301490.68724,516767894.13376,-88385515.42508,   0.00374,   0.00374,  -0.00159,479425958.12651,   0.00340,278280344.89157,   0.00325,   0.00203,  -0.00044,   0.00000,   2.00000
327952898.55641,516676658.98316,-88870172.37976,   0.00373,   0.00374,  -0.00160,479417799.34953,   0.00341,278284421.96669,   0.00325,   0.00203,  -0.00045,   0.00000,   2.00000
326607293.49228,516580716.77708,-89351231.72617,   0.00373,   0.00375,  -0.00161,479411934.56086,   0.00341,278288468.56720,   0.00325,   0.00204,  -0.00045,   0.00000,   2.00000
325238651.69575,516476575.11975,-89839820.50548,   0.00372,   0.00376,  -0.00162,479396560.96367,   0.00341,278292450.62543,   0.00325,   0.00204,  -0.00045,   0.00000,   2.00000
323871280.13270,516364923.20213,-90328817.88336,   0.00372,   0.00376,  -0.00163,479393247.11634,   0.00342,278296411.58580,   0.00325,   0.00204,  -0.00046,   0.00000,   2.00000
322505137.41451,516245797.53769,-90818244.83121,   0.00371,   0.00377,  -0.00164,479389888.23453,   0.00342,278300351.28796,   0.00325,   0.00205,  -0.00046,  -0.00000,   2.00000
321116221.98441,516123205.44054,-91308472.45218,   0.00371,   0.00377,  -0.00165,479384882.96855,   0.00343,278304263.86439,   0.00325,   0.00205,  -0.00046,   0.00000,   2.00000
319729190.45533,515990699.72650,-91801922.47741,   0.00370,   0.00378,  -0.00166,479368860.12155,   0.00343,278308109.52677,   0.00325,   0.00206,  -0.00047,   0.00000,   2.00000
318329234.66340,515850946.94312,-92298557.02297,   0.00369,   0.00379,  -0.00167,479373728.40322,   0.00343,278311963.94014,   0.00325,   0.00206,  -0.00047,  -0.00000,   2.00000
316932505.19176,515704030.12188,-92794503.34982,   0.00369,   0.00379,  -0.00168,479355064.22919,   0.00344,278315741.83052,   0.00325,   0.00206,  -0.00047,  -0.00000,   2.00000
315522723.02512,515549748.63221,-93293622.86265,   0.00368,   0.00380,  -0.00169,479359998.55441,   0.00344,278319528.88952,   0.00325,   0.00207,  -0.00047,  -0.00000,   2.00000
314103555.50831,515391270.59479,-93790842.24623,   0.00368,   0.00380,  -0.00170,479347012.04742,   0.00344,278323260.02849,   0.00325,   0.00207,  -0.00048,  -0.00000,   2.00000
312683615.91819,515222279.28402,-94292496.01109,   0.00367,   0.00381,  -0.00171,479346336.19141,   0.00345,278326980.06506,   0.00325,   0.00207,  -0.00048,   0.00000,   2.00000
311252519.82015,515046142.25150,-94796210.37969,   0.00367,   0.00382,  -0.00172,479336067.85980,   0.00345,278330654.09836,   0.00326,   0.00208,  -0.00048,   0.00000,   2.00000
309810138.47472,514862755.47072,-95301990.86932,   0.00366,   0.00382,  -0.00173,479325850.17228,   0.00345,278334282.37556,   0.00326,   0.00208,  -0.00049,   0.00000,   2.00000
308356342.60461,514672013.08397,-95809842.49104,   0.00366,   0.00383,  -0.00173,479315684.77674,   0.00346,278337865.14905,   0.00326,   0.00209,  -0.00049,   0.00000,   2.00000
306903029.90489,514473427.54691,-96318218.31181,   0.00365,   0.00383,  -0.00174,479312364.55528,   0.00346,278341427.46918,   0.00326,   0.00209,  -0.00049,   0.00000,   2.00000
