# sigma_xx, sigma_yy, sigma_xy, epsilon_xx, epsilon_yy, epsilon_xy, vonMises, epsPlastic, hardening, epsilonP__xx, epsilonP__yy, epsilonP__xy, yieldValue, iteration
   0.00000,   0.00000,   0.00000,   0.00000,   0.00000,   0.00000,1181185.37500,   0.00000,274640576.00000,   0.00000,   0.00000,   0.00000,-473459392.00000,   0.00000
   0.00000,   0.00000,   0.00000,   0.00000,   0.00000,   0.00000,1181185.37500,   0.00000,274640576.00000,   0.00000,   0.00000,   0.00000,-473459392.00000,   0.00000
-1211475.36386,-1031997.53218,106564.96256,  -0.00000,  -0.00000,   0.00000,480612.53125,   0.00000,274640576.00000,   0.00000,   0.00000,   0.00000,-474159968.00000,   0.00000
-2431363.75109,-2083625.45220,213129.92512,  -0.00001,  -0.00000,   0.00000,2095240.50000,   0.00000,274640576.00000,   0.00000,   0.00000,   0.00000,-472545344.00000,   0.00000
-3623208.72711,-3107209.96102,314086.20545,  -0.00001,  -0.00001,   0.00000,3027483.00000,   0.00000,274640576.00000,   0.00000,   0.00000,   0.00000,-471613088.00000,   0.00000
-4803836.33865,-4142011.83432,415042.48577,  -0.00001,  -0.00001,   0.00001,4133480.25000,   0.00000,274640576.00000,   0.00000,   0.00000,   0.00000,-470507104.00000,   0.00000
-5956420.53899,-5148770.29642,510390.08385,  -0.00002,  -0.00001,   0.00001,5271123.50000,   0.00000,274640576.00000,   0.00000,   0.00000,   0.00000,-469369440.00000,   0.00000
-7089374.35150,-6147115.73516,605737.68193,  -0.00002,  -0.00001,   0.00001,6387406.50000,   0.00000,274640576.00000,   0.00000,   0.00000,   0.00000,-468253168.00000,   0.00000
-8230741.18736,-7165091.56174,695476.59777,  -0.00002,  -0.00002,   0.00001,7509206.50000,   0.00000,274640576.00000,   0.00000,   0.00000,   0.00000,-467131376.00000,   0.00000
-9344064.61202,-8155023.97712,785215.51362,  -0.00003,  -0.00002,   0.00001,8596163.00000,   0.00000,274640576.00000,   0.00000,   0.00000,   0.00000,-466044416.00000,   0.00000
-10437757.64884,-9136543.36914,874954.42946,  -0.00003,  -0.00002,   0.00001,9658670.00000,   0.00000,274640576.00000,   0.00000,   0.00000,   0.00000,-464981904.00000,   0.00000
-11539863.70902,-10137693.14899,959084.66306,  -0.00003,  -0.00002,   0.00001,10722807.00000,   0.00000,274640576.00000,   0.00000,   0.00000,   0.00000,-463917776.00000,   0.00000
-12594295.97016,-11102386.49429,1043214.89666,  -0.00004,  -0.00003,   0.00001,11737832.00000,   0.00000,274640576.00000,   0.00000,   0.00000,   0.00000,-462902752.00000,   0.00000
-13648728.23130,-12067079.83959,1121736.44802,  -0.00004,  -0.00003,   0.00001,12746656.00000,   0.00000,274640576.00000,   0.00000,   0.00000,   0.00000,-461893920.00000,   0.00000
-14711573.51580,-13051403.57273,1200257.99938,  -0.00004,  -0.00003,   0.00002,13765923.00000,   0.00000,274640576.00000,   0.00000,   0.00000,   0.00000,-460874656.00000,   0.00000
-15726745.00126,-13999270.87131,1278779.55074,  -0.00004,  -0.00003,   0.00002,14743263.00000,   0.00000,274640576.00000,   0.00000,   0.00000,   0.00000,-459897312.00000,   0.00000
-16741916.48672,-14947138.16989,1351692.41987,  -0.00005,  -0.00004,   0.00002,15720481.00000,   0.00000,274640576.00000,   0.00000,   0.00000,   0.00000,-458920096.00000,   0.00000
-17737457.58434,-15886592.44511,1424605.28899,  -0.00005,  -0.00004,   0.00002,16685489.00000,   0.00000,274640576.00000,   0.00000,   0.00000,   0.00000,-457955088.00000,   0.00000
-18741411.70532,-16845677.10816,1491909.47587,  -0.00005,  -0.00004,   0.00002,17664810.00000,   0.00000,274640576.00000,   0.00000,   0.00000,   0.00000,-456975760.00000,   0.00000
-19697692.02726,-17768305.33666,1564822.34499,  -0.00005,  -0.00004,   0.00002,18606506.00000,   0.00000,274640576.00000,   0.00000,   0.00000,   0.00000,-456034064.00000,   0.00000
-20653972.34920,-18690933.56516,1626517.84963,  -0.00006,  -0.00004,   0.00002,19548320.00000,   0.00000,274640576.00000,   0.00000,   0.00000,   0.00000,-455092256.00000,   0.00000
-21610252.67113,-19613561.79366,1693822.03651,  -0.00006,  -0.00005,   0.00002,20494050.00000,   0.00000,274640576.00000,   0.00000,   0.00000,   0.00000,-454146528.00000,   0.00000
-22535685.24075,-20538994.36327,1755517.54115,  -0.00006,  -0.00005,   0.00002,21424306.00000,   0.00000,274640576.00000,   0.00000,   0.00000,   0.00000,-453216272.00000,   0.00000
-23452704.78701,-21444796.54505,1817213.04579,  -0.00006,  -0.00005,   0.00002,22343196.00000,   0.00000,274640576.00000,   0.00000,   0.00000,   0.00000,-452297376.00000,   0.00000
-24369724.33327,-22350598.72683,1873299.86820,  -0.00007,  -0.00005,   0.00002,23261960.00000,   0.00000,274640576.00000,   0.00000,   0.00000,   0.00000,-451378624.00000,   0.00000
-25247483.10384,-23239574.86189,1929386.69060,  -0.00007,  -0.00006,   0.00003,24152180.00000,   0.00000,274640576.00000,   0.00000,   0.00000,   0.00000,-450488400.00000,   0.00000
-26125241.87442,-24128550.99694,1985473.51300,  -0.00007,  -0.00006,   0.00003,25042780.00000,   0.00000,274640576.00000,   0.00000,   0.00000,   0.00000,-449597792.00000,   0.00000
-27003000.64500,-25017527.13200,2035951.65316,  -0.00007,  -0.00006,   0.00003,25932248.00000,   0.00000,274640576.00000,   0.00000,   0.00000,   0.00000,-448708320.00000,   0.00000
-27841498.63989,-25889677.22034,2092038.47556,  -0.00008,  -0.00006,   0.00003,26793746.00000,   0.00000,274640576.00000,   0.00000,   0.00000,   0.00000,-447846832.00000,   0.00000
-28679996.63479,-26761827.30867,2136907.93348,  -0.00008,  -0.00007,   0.00003,27652484.00000,   0.00000,274640576.00000,   0.00000,   0.00000,   0.00000,-446988096.00000,   0.00000
-29518494.62969,-27633977.39701,2187386.07364,  -0.00008,  -0.00007,   0.00003,28512182.00000,   0.00000,274640576.00000,   0.00000,   0.00000,   0.00000,-446128400.00000,   0.00000
-30317731.84890,-28489301.43863,2232255.53156,  -0.00008,  -0.00007,   0.00003,29341298.00000,   0.00000,274640576.00000,   0.00000,   0.00000,   0.00000,-445299280.00000,   0.00000
-31116969.06812,-29344625.48024,2277124.98948,  -0.00008,  -0.00007,   0.00003,30170154.00000,   0.00000,274640576.00000,   0.00000,   0.00000,   0.00000,-444470416.00000,   0.00000
-31916206.28733,-30199949.52186,2321994.44740,  -0.00009,  -0.00008,   0.00003,30998710.00000,   0.00000,274640576.00000,   0.00000,   0.00000,   0.00000,-443641872.00000,   0.00000
-32695813.11871,-31046860.54012,2361255.22309,  -0.00009,  -0.00008,   0.00003,31811442.00000,   0.00000,274640576.00000,   0.00000,   0.00000,   0.00000,-442829136.00000,   0.00000
-33455789.56224,-31885358.53501,2406124.68101,  -0.00009,  -0.00008,   0.00003,32610936.00000,   0.00000,274640576.00000,   0.00000,   0.00000,   0.00000,-442029632.00000,   0.00000
-34215766.00578,-32723856.52991,2439776.77445,  -0.00009,  -0.00008,   0.00003,33407962.00000,   0.00000,274640576.00000,   0.00000,   0.00000,   0.00000,-441232608.00000,   0.00000
-34947699.03811,-33534311.11360,2479037.55013,  -0.00009,  -0.00008,   0.00003,34178484.00000,   0.00000,274640576.00000,   0.00000,   0.00000,   0.00000,-440462096.00000,   0.00000
-35668414.70596,-34355983.06178,2512689.64357,  -0.00010,  -0.00009,   0.00003,34947184.00000,   0.00000,274640576.00000,   0.00000,   0.00000,   0.00000,-439693392.00000,   0.00000
-36389130.37382,-35177655.00996,2546341.73701,  -0.00010,  -0.00009,   0.00003,35716236.00000,   0.00000,274640576.00000,   0.00000,   0.00000,   0.00000,-438924336.00000,   0.00000
-37090215.65383,-35990913.93477,2579993.83045,  -0.00010,  -0.00009,   0.00003,36471416.00000,   0.00000,274640576.00000,   0.00000,   0.00000,   0.00000,-438169152.00000,   0.00000
-37782887.91049,-36784542.47175,2613645.92389,  -0.00010,  -0.00009,   0.00003,37213388.00000,   0.00000,274640576.00000,   0.00000,   0.00000,   0.00000,-437427184.00000,   0.00000
-38464342.80266,-37589388.37320,2641689.33509,  -0.00010,  -0.00010,   0.00003,37954136.00000,   0.00000,274640576.00000,   0.00000,   0.00000,   0.00000,-436686432.00000,   0.00000
-39117754.28363,-38366190.86346,2675341.42853,  -0.00010,  -0.00010,   0.00003,38668784.00000,   0.00000,274640576.00000,   0.00000,   0.00000,   0.00000,-435971792.00000,   0.00000
-39779578.78796,-39162623.74155,2703384.83973,  -0.00010,  -0.00010,   0.00004,39396488.00000,   0.00000,274640576.00000,   0.00000,   0.00000,   0.00000,-435244096.00000,   0.00000
-40421772.90446,-39950643.59629,2725819.56869,  -0.00011,  -0.00010,   0.00004,40109648.00000,   0.00000,274640576.00000,   0.00000,   0.00000,   0.00000,-434530928.00000,   0.00000
-41055553.99759,-40719033.06318,2753862.97989,  -0.00011,  -0.00011,   0.00004,40810792.00000,   0.00000,274640576.00000,   0.00000,   0.00000,   0.00000,-433829792.00000,   0.00000
-41669704.70288,-41479009.50672,2776297.70885,  -0.00011,  -0.00011,   0.00004,41497348.00000,   0.00000,274640576.00000,   0.00000,   0.00000,   0.00000,-433143232.00000,   0.00000
-42292268.43153,-42258616.33809,2798732.43781,  -0.00011,  -0.00011,   0.00004,42198500.00000,   0.00000,274640576.00000,   0.00000,   0.00000,   0.00000,-432442080.00000,   0.00000
-42886788.74898,-43010179.75827,2821167.16677,  -0.00011,  -0.00011,   0.00004,42872420.00000,   0.00000,274640576.00000,   0.00000,   0.00000,   0.00000,-431768160.00000,   0.00000
-43470091.70195,-43772960.54292,2843601.89573,  -0.00011,  -0.00011,   0.00004,43547056.00000,   0.00000,274640576.00000,   0.00000,   0.00000,   0.00000,-431093520.00000,   0.00000
-44044981.63157,-44516110.93973,2860427.94245,  -0.00011,  -0.00012,   0.00004,44207232.00000,   0.00000,274640576.00000,   0.00000,   0.00000,   0.00000,-430433344.00000,   0.00000
-44619871.56118,-45259261.33655,2882862.67142,  -0.00011,  -0.00012,   0.00004,44869192.00000,   0.00000,274640576.00000,   0.00000,   0.00000,   0.00000,-429771392.00000,   0.00000
-45155500.71511,-45985585.68664,2899688.71814,  -0.00012,  -0.00012,   0.00004,45503036.00000,   0.00000,274640576.00000,   0.00000,   0.00000,   0.00000,-429137536.00000,   0.00000
-45710760.25688,-46720323.06010,2916514.76486,  -0.00012,  -0.00012,   0.00004,46151244.00000,   0.00000,274640576.00000,   0.00000,   0.00000,   0.00000,-428489328.00000,   0.00000
-46246389.41081,-47446647.41019,2933340.81158,  -0.00012,  -0.00013,   0.00004,46786324.00000,   0.00000,274640576.00000,   0.00000,   0.00000,   0.00000,-427854256.00000,   0.00000
-46762388.17690,-48164558.73692,2950166.85830,  -0.00012,  -0.00013,   0.00004,47408232.00000,   0.00000,274640576.00000,   0.00000,   0.00000,   0.00000,-427232352.00000,   0.00000
-47278386.94299,-48882470.06366,2961384.22278,  -0.00012,  -0.00013,   0.00004,48029760.00000,   0.00000,274640576.00000,   0.00000,   0.00000,   0.00000,-426610816.00000,   0.00000
-47774755.32124,-49591968.36703,2978210.26950,  -0.00012,  -0.00013,   0.00004,48639304.00000,   0.00000,274640576.00000,   0.00000,   0.00000,   0.00000,-426001280.00000,   0.00000
-48271123.69949,-50301466.67041,2989427.63398,  -0.00012,  -0.00013,   0.00004,49248364.00000,   0.00000,274640576.00000,   0.00000,   0.00000,   0.00000,-425392208.00000,   0.00000
-48747861.68990,-51002551.95042,3000644.99846,  -0.00012,  -0.00014,   0.00004,49844452.00000,   0.00000,274640576.00000,   0.00000,   0.00000,   0.00000,-424796128.00000,   0.00000
-49224599.68031,-51703637.23043,3011862.36294,  -0.00012,  -0.00014,   0.00004,50441144.00000,   0.00000,274640576.00000,   0.00000,   0.00000,   0.00000,-424199424.00000,   0.00000
-49681707.28287,-52396309.48709,3023079.72742,  -0.00012,  -0.00014,   0.00004,51024908.00000,   0.00000,274640576.00000,   0.00000,   0.00000,   0.00000,-423615664.00000,   0.00000
-50130401.86208,-53069351.35590,3034297.09190,  -0.00012,  -0.00014,   0.00004,51594916.00000,   0.00000,274640576.00000,   0.00000,   0.00000,   0.00000,-423045664.00000,   0.00000
-50587509.46465,-53762023.61255,3045514.45638,  -0.00013,  -0.00015,   0.00004,52179884.00000,   0.00000,274640576.00000,   0.00000,   0.00000,   0.00000,-422460688.00000,   0.00000
-51024986.67938,-54446282.84585,3051123.13862,  -0.00013,  -0.00015,   0.00004,52751008.00000,   0.00000,274640576.00000,   0.00000,   0.00000,   0.00000,-421889568.00000,   0.00000
-51434420.48291,-55102498.66794,3062340.50310,  -0.00013,  -0.00015,   0.00004,53295904.00000,   0.00000,274640576.00000,   0.00000,   0.00000,   0.00000,-421344672.00000,   0.00000
-51852267.30980,-55778344.87787,3067949.18534,  -0.00013,  -0.00015,   0.00004,53854884.00000,   0.00000,274640576.00000,   0.00000,   0.00000,   0.00000,-420785696.00000,   0.00000
-52261701.11332,-56434560.69996,3073557.86758,  -0.00013,  -0.00015,   0.00004,54399980.00000,   0.00000,274640576.00000,   0.00000,   0.00000,   0.00000,-420240592.00000,   0.00000
-52659917.55237,-57101993.88654,3079166.54982,  -0.00013,  -0.00016,   0.00004,54946988.00000,   0.00000,274640576.00000,   0.00000,   0.00000,   0.00000,-419693584.00000,   0.00000
-53030090.58022,-57741383.66191,3090383.91430,  -0.00013,  -0.00016,   0.00004,55467752.00000,   0.00000,274640576.00000,   0.00000,   0.00000,   0.00000,-419172832.00000,   0.00000
-53419893.99591,-58389186.46064,3095992.59654,  -0.00013,  -0.00016,   0.00004,56001408.00000,   0.00000,274640576.00000,   0.00000,   0.00000,   0.00000,-418639168.00000,   0.00000
-53778849.65927,-59039793.60049,3101601.27878,  -0.00013,  -0.00016,   0.00004,56523992.00000,   0.00000,274640576.00000,   0.00000,   0.00000,   0.00000,-418116576.00000,   0.00000
-54149022.68712,-59679183.37587,3101601.27878,  -0.00013,  -0.00017,   0.00004,57044828.00000,   0.00000,274640576.00000,   0.00000,   0.00000,   0.00000,-417595744.00000,   0.00000
-54499565.32713,-60310160.12788,3107209.96102,  -0.00013,  -0.00017,   0.00004,57554104.00000,   0.00000,274640576.00000,   0.00000,   0.00000,   0.00000,-417086464.00000,   0.00000
-54830477.57929,-60932723.85653,3112818.64326,  -0.00013,  -0.00017,   0.00004,58051032.00000,   0.00000,274640576.00000,   0.00000,   0.00000,   0.00000,-416589536.00000,   0.00000
-55161389.83146,-61555287.58518,3118427.32550,  -0.00013,  -0.00017,   0.00004,58548656.00000,   0.00000,274640576.00000,   0.00000,   0.00000,   0.00000,-416091920.00000,   0.00000
-55492302.08363,-62177851.31383,3118427.32550,  -0.00013,  -0.00017,   0.00004,59046076.00000,   0.00000,274640576.00000,   0.00000,   0.00000,   0.00000,-415594496.00000,   0.00000
-55803583.94795,-62792002.01913,3124036.00774,  -0.00013,  -0.00018,   0.00004,59532152.00000,   0.00000,274640576.00000,   0.00000,   0.00000,   0.00000,-415108416.00000,   0.00000
-56106452.78892,-63386522.33658,3129644.68998,  -0.00013,  -0.00018,   0.00004,60004076.00000,   0.00000,274640576.00000,   0.00000,   0.00000,   0.00000,-414636496.00000,   0.00000
-56398104.26540,-63992260.01851,3129644.68998,  -0.00013,  -0.00018,   0.00004,60477856.00000,   0.00000,274640576.00000,   0.00000,   0.00000,   0.00000,-414162720.00000,   0.00000
-56689755.74189,-64597997.70044,3135253.37222,  -0.00013,  -0.00018,   0.00004,60953348.00000,   0.00000,274640576.00000,   0.00000,   0.00000,   0.00000,-413687232.00000,   0.00000
-56981407.21837,-65203735.38237,3135253.37222,  -0.00013,  -0.00019,   0.00004,61428732.00000,   0.00000,274640576.00000,   0.00000,   0.00000,   0.00000,-413211840.00000,   0.00000
-57245015.28366,-65781429.65310,3140862.05446,  -0.00013,  -0.00019,   0.00004,61877988.00000,   0.00000,274640576.00000,   0.00000,   0.00000,   0.00000,-412762592.00000,   0.00000
-57517036.37230,-66378754.31167,3140862.05446,  -0.00013,  -0.00019,   0.00004,62342168.00000,   0.00000,274640576.00000,   0.00000,   0.00000,   0.00000,-412298400.00000,   0.00000
-57780644.43759,-66956448.58241,3146470.73670,  -0.00013,  -0.00019,   0.00004,62792968.00000,   0.00000,274640576.00000,   0.00000,   0.00000,   0.00000,-411847616.00000,   0.00000
-58024622.11503,-67525729.82978,3146470.73670,  -0.00013,  -0.00019,   0.00004,63231040.00000,   0.00000,274640576.00000,   0.00000,   0.00000,   0.00000,-411409536.00000,   0.00000
-58277012.81584,-68114641.46499,3152079.41894,  -0.00013,  -0.00020,   0.00004,63685864.00000,   0.00000,274640576.00000,   0.00000,   0.00000,   0.00000,-410954720.00000,   0.00000
-58501360.10544,-68675509.68900,3152079.41894,  -0.00013,  -0.00020,   0.00004,64113052.00000,   0.00000,274640576.00000,   0.00000,   0.00000,   0.00000,-410527520.00000,   0.00000
-58725707.39505,-69236377.91301,3157688.10118,  -0.00013,  -0.00020,   0.00004,64541832.00000,   0.00000,274640576.00000,   0.00000,   0.00000,   0.00000,-410098752.00000,   0.00000
-58950054.68465,-69797246.13702,3157688.10118,  -0.00013,  -0.00020,   0.00004,64970720.00000,   0.00000,274640576.00000,   0.00000,   0.00000,   0.00000,-409669856.00000,   0.00000
-59154771.58642,-70349701.33767,3157688.10118,  -0.00013,  -0.00020,   0.00004,65388012.00000,   0.00000,274640576.00000,   0.00000,   0.00000,   0.00000,-409252560.00000,   0.00000
-59359488.48818,-70902156.53832,3163296.78342,  -0.00013,  -0.00021,   0.00004,65806944.00000,   0.00000,274640576.00000,   0.00000,   0.00000,   0.00000,-408833632.00000,   0.00000
-59564205.38994,-71454611.73897,3168905.46566,  -0.00013,  -0.00021,   0.00004,66226784.00000,   0.00000,274640576.00000,   0.00000,   0.00000,   0.00000,-408413792.00000,   0.00000
-59749291.90387,-71998653.91626,3168905.46566,  -0.00013,  -0.00021,   0.00004,66634432.00000,   0.00000,274640576.00000,   0.00000,   0.00000,   0.00000,-408006144.00000,   0.00000
-59934378.41779,-72542696.09355,3174514.14790,  -0.00013,  -0.00021,   0.00004,67043752.00000,   0.00000,274640576.00000,   0.00000,   0.00000,   0.00000,-407596832.00000,   0.00000
-60111051.90835,-73067107.88300,3174514.14790,  -0.00013,  -0.00022,   0.00004,67437776.00000,   0.00000,274640576.00000,   0.00000,   0.00000,   0.00000,-407202800.00000,   0.00000
-60276508.03444,-73602737.03693,3180122.83014,  -0.00013,  -0.00022,   0.00004,67836776.00000,   0.00000,274640576.00000,   0.00000,   0.00000,   0.00000,-406803808.00000,   0.00000
-60441964.16052,-74138366.19086,3185731.51238,  -0.00013,  -0.00022,   0.00004,68236736.00000,   0.00000,274640576.00000,   0.00000,   0.00000,   0.00000,-406403840.00000,   0.00000
-60599007.26324,-74654364.95695,3191340.19462,  -0.00013,  -0.00022,   0.00004,68622112.00000,   0.00000,274640576.00000,   0.00000,   0.00000,   0.00000,-406018464.00000,   0.00000
-60756050.36597,-75170363.72304,3196948.87686,  -0.00013,  -0.00022,   0.00004,69008440.00000,   0.00000,274640576.00000,   0.00000,   0.00000,   0.00000,-405632128.00000,   0.00000
-60901876.10421,-75697579.85361,3202557.55910,  -0.00013,  -0.00023,   0.00004,69399136.00000,   0.00000,274640576.00000,   0.00000,   0.00000,   0.00000,-405241440.00000,   0.00000
-61039288.81909,-76205165.59634,3208166.24134,  -0.00013,  -0.00023,   0.00004,69775264.00000,   0.00000,274640576.00000,   0.00000,   0.00000,   0.00000,-404865312.00000,   0.00000
-61157071.14613,-76704338.31571,3213774.92358,  -0.00013,  -0.00023,   0.00004,70140416.00000,   0.00000,274640576.00000,   0.00000,   0.00000,   0.00000,-404500160.00000,   0.00000
-61294483.86102,-77211924.05844,3219383.60582,  -0.00013,  -0.00023,   0.00004,70518472.00000,   0.00000,274640576.00000,   0.00000,   0.00000,   0.00000,-404122112.00000,   0.00000
-61412266.18806,-77711096.77781,3224992.28806,  -0.00013,  -0.00023,   0.00004,70885592.00000,   0.00000,274640576.00000,   0.00000,   0.00000,   0.00000,-403754976.00000,   0.00000
-61510418.12726,-78201856.47382,3230600.97030,  -0.00013,  -0.00024,   0.00004,71242000.00000,   0.00000,274640576.00000,   0.00000,   0.00000,   0.00000,-403398576.00000,   0.00000
-61628200.45430,-78701029.19319,3241818.33478,  -0.00013,  -0.00024,   0.00004,71611824.00000,   0.00000,274640576.00000,   0.00000,   0.00000,   0.00000,-403028752.00000,   0.00000
-61726352.39351,-79191788.88920,3247427.01702,  -0.00013,  -0.00024,   0.00004,71970208.00000,   0.00000,274640576.00000,   0.00000,   0.00000,   0.00000,-402670368.00000,   0.00000
-61816091.30935,-79662918.19737,3258644.38150,  -0.00013,  -0.00024,   0.00004,72314632.00000,   0.00000,274640576.00000,   0.00000,   0.00000,   0.00000,-402325952.00000,   0.00000
-61894612.86071,-80145264.87002,3269861.74598,  -0.00013,  -0.00024,   0.00004,72664200.00000,   0.00000,274640576.00000,   0.00000,   0.00000,   0.00000,-401976384.00000,   0.00000
-61984351.77655,-80616394.17819,3275470.42822,  -0.00012,  -0.00025,   0.00004,73009856.00000,   0.00000,274640576.00000,   0.00000,   0.00000,   0.00000,-401630720.00000,   0.00000
-62062873.32791,-81098740.85084,3286687.79270,  -0.00012,  -0.00025,   0.00004,73361488.00000,   0.00000,274640576.00000,   0.00000,   0.00000,   0.00000,-401279088.00000,   0.00000
-62132981.85591,-81561457.13565,3297905.15718,  -0.00012,  -0.00025,   0.00004,73698408.00000,   0.00000,274640576.00000,   0.00000,   0.00000,   0.00000,-400942176.00000,   0.00000
-62203090.38391,-82024173.42045,3309122.52166,  -0.00012,  -0.00025,   0.00004,74036320.00000,   0.00000,274640576.00000,   0.00000,   0.00000,   0.00000,-400604256.00000,   0.00000
-62253568.52408,-82478476.68190,3325948.56838,  -0.00012,  -0.00025,   0.00004,74364472.00000,   0.00000,274640576.00000,   0.00000,   0.00000,   0.00000,-400276096.00000,   0.00000
-62312459.68760,-82952410.33119,3337165.93286,  -0.00012,  -0.00026,   0.00004,74708992.00000,   0.00000,274640576.00000,   0.00000,   0.00000,   0.00000,-399931584.00000,   0.00000
-62354524.80440,-83387083.20480,3348383.29734,  -0.00012,  -0.00026,   0.00004,75022728.00000,   0.00000,274640576.00000,   0.00000,   0.00000,   0.00000,-399617856.00000,   0.00000
-62405002.94456,-83841386.46625,3365209.34406,  -0.00012,  -0.00026,   0.00004,75354144.00000,   0.00000,274640576.00000,   0.00000,   0.00000,   0.00000,-399286432.00000,   0.00000
-62435850.69688,-84287276.70434,3382035.39078,  -0.00012,  -0.00026,   0.00004,75675488.00000,   0.00000,274640576.00000,   0.00000,   0.00000,   0.00000,-398965088.00000,   0.00000
-62466698.44920,-84733166.94243,3398861.43751,  -0.00012,  -0.00026,   0.00004,75997896.00000,   0.00000,274640576.00000,   0.00000,   0.00000,   0.00000,-398642688.00000,   0.00000
-62508763.56600,-85167839.81604,3415687.48423,  -0.00012,  -0.00027,   0.00004,76316376.00000,   0.00000,274640576.00000,   0.00000,   0.00000,   0.00000,-398324192.00000,   0.00000
-62519980.93048,-85605317.03076,3432513.53095,  -0.00012,  -0.00027,   0.00004,76629896.00000,   0.00000,274640576.00000,   0.00000,   0.00000,   0.00000,-398010688.00000,   0.00000
-62542415.65944,-86031576.88101,3449339.57767,  -0.00012,  -0.00027,   0.00004,76939480.00000,   0.00000,274640576.00000,   0.00000,   0.00000,   0.00000,-397701088.00000,   0.00000
-62553633.02392,-86469054.09574,3471774.30663,  -0.00012,  -0.00027,   0.00005,77255960.00000,   0.00000,274640576.00000,   0.00000,   0.00000,   0.00000,-397384608.00000,   0.00000
-62576067.75288,-86895313.94599,3488600.35335,  -0.00012,  -0.00027,   0.00005,77567624.00000,   0.00000,274640576.00000,   0.00000,   0.00000,   0.00000,-397072960.00000,   0.00000
-62578872.09400,-87313160.77288,3511035.08231,  -0.00011,  -0.00028,   0.00005,77870216.00000,   0.00000,274640576.00000,   0.00000,   0.00000,   0.00000,-396770368.00000,   0.00000
-62562046.04728,-87722594.57640,3533469.81127,  -0.00011,  -0.00028,   0.00005,78163240.00000,   0.00000,274640576.00000,   0.00000,   0.00000,   0.00000,-396477344.00000,   0.00000
-62564850.38840,-88140441.40329,3555904.54023,  -0.00011,  -0.00028,   0.00005,78467976.00000,   0.00000,274640576.00000,   0.00000,   0.00000,   0.00000,-396172608.00000,   0.00000
-62567654.72952,-88558288.23018,3578339.26919,  -0.00011,  -0.00028,   0.00005,78773856.00000,   0.00000,274640576.00000,   0.00000,   0.00000,   0.00000,-395866720.00000,   0.00000
-62550828.68280,-88967722.03371,3606382.68039,  -0.00011,  -0.00028,   0.00005,79070888.00000,   0.00000,274640576.00000,   0.00000,   0.00000,   0.00000,-395569696.00000,   0.00000
-62525589.61272,-89357525.44940,3628817.40935,  -0.00011,  -0.00028,   0.00005,79352152.00000,   0.00000,274640576.00000,   0.00000,   0.00000,   0.00000,-395288416.00000,   0.00000
-62508763.56600,-89766959.25292,3656860.82055,  -0.00011,  -0.00029,   0.00005,79651416.00000,   0.00000,274640576.00000,   0.00000,   0.00000,   0.00000,-394989152.00000,   0.00000
-62483524.49592,-90156762.66861,3684904.23175,  -0.00011,  -0.00029,   0.00005,79935568.00000,   0.00000,274640576.00000,   0.00000,   0.00000,   0.00000,-394705008.00000,   0.00000
-62438655.03800,-90538153.06094,3712947.64295,  -0.00011,  -0.00029,   0.00005,80210400.00000,   0.00000,274640576.00000,   0.00000,   0.00000,   0.00000,-394430176.00000,   0.00000
-62421828.99128,-90947586.86447,3740991.05415,  -0.00011,  -0.00029,   0.00005,80513008.00000,   0.00000,274640576.00000,   0.00000,   0.00000,   0.00000,-394127568.00000,   0.00000
-62376959.53336,-91328977.25679,3774643.14759,  -0.00011,  -0.00029,   0.00005,80790832.00000,   0.00000,274640576.00000,   0.00000,   0.00000,   0.00000,-393849744.00000,   0.00000
-62332090.07544,-91710367.64912,3808295.24103,  -0.00010,  -0.00030,   0.00005,81069872.00000,   0.00000,274640576.00000,   0.00000,   0.00000,   0.00000,-393570704.00000,   0.00000
-62287220.61752,-92091758.04145,3836338.65223,  -0.00010,  -0.00030,   0.00005,81349208.00000,   0.00000,274640576.00000,   0.00000,   0.00000,   0.00000,-393291360.00000,   0.00000
-62233938.13623,-92453518.04594,3869990.74567,  -0.00010,  -0.00030,   0.00005,81614072.00000,   0.00000,274640576.00000,   0.00000,   0.00000,   0.00000,-393026496.00000,   0.00000
-62189068.67831,-92834908.43826,3909251.52136,  -0.00010,  -0.00030,   0.00005,81897136.00000,   0.00000,274640576.00000,   0.00000,   0.00000,   0.00000,-392743440.00000,   0.00000
-62124568.83255,-93207885.80723,3942903.61480,  -0.00010,  -0.00030,   0.00005,82170568.00000,   0.00000,274640576.00000,   0.00000,   0.00000,   0.00000,-392470016.00000,   0.00000
-62051655.96343,-93561232.78836,3982164.39048,  -0.00010,  -0.00030,   0.00005,82429520.00000,   0.00000,274640576.00000,   0.00000,   0.00000,   0.00000,-392211056.00000,   0.00000
-61998373.48215,-93922992.79284,4021425.16616,  -0.00010,  -0.00031,   0.00005,82699600.00000,   0.00000,274640576.00000,   0.00000,   0.00000,   0.00000,-391940976.00000,   0.00000
-61925460.61303,-94276339.77397,4060685.94184,  -0.00010,  -0.00031,   0.00005,82960808.00000,   0.00000,274640576.00000,   0.00000,   0.00000,   0.00000,-391679776.00000,   0.00000
-61860960.76727,-94649317.14294,4099946.71752,  -0.00010,  -0.00031,   0.00005,83239576.00000,   0.00000,274640576.00000,   0.00000,   0.00000,   0.00000,-391400992.00000,   0.00000
-61779634.87479,-94983033.73622,4139207.49320,  -0.00010,  -0.00031,   0.00005,83486576.00000,   0.00000,274640576.00000,   0.00000,   0.00000,   0.00000,-391154000.00000,   0.00000
-61706722.00566,-95336380.71735,4184076.95112,  -0.00009,  -0.00031,   0.00005,83751992.00000,   0.00000,274640576.00000,   0.00000,   0.00000,   0.00000,-390888576.00000,   0.00000
-61614178.74870,-95681314.67512,4228946.40904,  -0.00009,  -0.00032,   0.00005,84008768.00000,   0.00000,274640576.00000,   0.00000,   0.00000,   0.00000,-390631808.00000,   0.00000
-61541265.87958,-96034661.65624,4273815.86696,  -0.00009,  -0.00032,   0.00006,84276464.00000,   0.00000,274640576.00000,   0.00000,   0.00000,   0.00000,-390364112.00000,   0.00000
-61440309.59926,-96359965.22617,4318685.32488,  -0.00009,  -0.00032,   0.00006,84519048.00000,   0.00000,274640576.00000,   0.00000,   0.00000,   0.00000,-390121536.00000,   0.00000
-61358983.70678,-96693681.81946,4369163.46504,  -0.00009,  -0.00032,   0.00006,84773296.00000,   0.00000,274640576.00000,   0.00000,   0.00000,   0.00000,-389867280.00000,   0.00000
-61266440.44982,-97038615.77722,4419641.60520,  -0.00009,  -0.00032,   0.00006,85035616.00000,   0.00000,274640576.00000,   0.00000,   0.00000,   0.00000,-389604960.00000,   0.00000
-61165484.16949,-97363919.34715,4470119.74537,  -0.00009,  -0.00032,   0.00006,85282480.00000,   0.00000,274640576.00000,   0.00000,   0.00000,   0.00000,-389358096.00000,   0.00000
-61064527.88917,-97689222.91708,4520597.88553,  -0.00009,  -0.00033,   0.00006,85530568.00000,   0.00000,274640576.00000,   0.00000,   0.00000,   0.00000,-389110016.00000,   0.00000
-60955158.58549,-97994896.09916,4576684.70793,  -0.00009,  -0.00033,   0.00006,85764008.00000,   0.00000,274640576.00000,   0.00000,   0.00000,   0.00000,-388876576.00000,   0.00000
-60854202.30517,-98320199.66909,4627162.84809,  -0.00009,  -0.00033,   0.00006,86014320.00000,   0.00000,274640576.00000,   0.00000,   0.00000,   0.00000,-388626256.00000,   0.00000
-60733615.63701,-98637090.21565,4683249.67049,  -0.00008,  -0.00033,   0.00006,86257400.00000,   0.00000,274640576.00000,   0.00000,   0.00000,   0.00000,-388383168.00000,   0.00000
-60624246.33332,-98942763.39774,4739336.49289,  -0.00008,  -0.00033,   0.00006,86494296.00000,   0.00000,274640576.00000,   0.00000,   0.00000,   0.00000,-388146272.00000,   0.00000
-60514877.02964,-99248436.57983,4801031.99753,  -0.00008,  -0.00033,   0.00006,86733152.00000,   0.00000,274640576.00000,   0.00000,   0.00000,   0.00000,-387907424.00000,   0.00000
-60394290.36148,-99565327.12639,4857118.81993,  -0.00008,  -0.00034,   0.00006,86979680.00000,   0.00000,274640576.00000,   0.00000,   0.00000,   0.00000,-387660896.00000,   0.00000
-60284921.05780,-99871000.30848,4918814.32457,  -0.00008,  -0.00034,   0.00006,87220736.00000,   0.00000,274640576.00000,   0.00000,   0.00000,   0.00000,-387419840.00000,   0.00000
-60155921.36628,-100168260.46720,4980509.82922,  -0.00008,  -0.00034,   0.00006,87453896.00000,   0.00000,274640576.00000,   0.00000,   0.00000,   0.00000,-387186688.00000,   0.00000
-60018508.65139,-100445890.23809,5047814.01610,  -0.00008,  -0.00034,   0.00007,87672520.00000,   0.00000,274640576.00000,   0.00000,   0.00000,   0.00000,-386968064.00000,   0.00000
-59909139.34771,-100751563.42017,5109509.52074,  -0.00008,  -0.00034,   0.00007,87916880.00000,   0.00000,274640576.00000,   0.00000,   0.00000,   0.00000,-386723696.00000,   0.00000
-59771726.63283,-101029193.19106,5176813.70762,  -0.00007,  -0.00034,   0.00007,88137744.00000,   0.00000,274640576.00000,   0.00000,   0.00000,   0.00000,-386502832.00000,   0.00000
-59642726.94131,-101326453.34979,5244117.89450,  -0.00007,  -0.00034,   0.00007,88376384.00000,   0.00000,274640576.00000,   0.00000,   0.00000,   0.00000,-386264192.00000,   0.00000
-59505314.22642,-101604083.12067,5311422.08138,  -0.00007,  -0.00035,   0.00007,88599488.00000,   0.00000,274640576.00000,   0.00000,   0.00000,   0.00000,-386041088.00000,   0.00000
-59367901.51154,-101881712.89156,5384334.95050,  -0.00007,  -0.00035,   0.00007,88824696.00000,   0.00000,274640576.00000,   0.00000,   0.00000,   0.00000,-385815872.00000,   0.00000
-59230488.79666,-102159342.66244,5457247.81962,  -0.00007,  -0.00035,   0.00007,89051104.00000,   0.00000,274640576.00000,   0.00000,   0.00000,   0.00000,-385589472.00000,   0.00000
-59084663.05841,-102417342.04549,5530160.68875,  -0.00007,  -0.00035,   0.00007,89261792.00000,   0.00000,274640576.00000,   0.00000,   0.00000,   0.00000,-385378784.00000,   0.00000
-58947250.34353,-102694971.81637,5603073.55787,  -0.00007,  -0.00035,   0.00007,89490288.00000,   0.00000,274640576.00000,   0.00000,   0.00000,   0.00000,-385150288.00000,   0.00000
-58801424.60529,-102952971.19942,5681595.10923,  -0.00007,  -0.00035,   0.00007,89704248.00000,   0.00000,274640576.00000,   0.00000,   0.00000,   0.00000,-384936320.00000,   0.00000
-58644381.50257,-103222187.94694,5760116.66059,  -0.00007,  -0.00036,   0.00007,89927648.00000,   0.00000,274640576.00000,   0.00000,   0.00000,   0.00000,-384712928.00000,   0.00000
-58498555.76432,-103480187.32999,5838638.21195,  -0.00006,  -0.00036,   0.00008,90143856.00000,   0.00000,274640576.00000,   0.00000,   0.00000,   0.00000,-384496720.00000,   0.00000
-58352730.02608,-103738186.71303,5917159.76331,  -0.00006,  -0.00036,   0.00008,90361072.00000,   0.00000,274640576.00000,   0.00000,   0.00000,   0.00000,-384279504.00000,   0.00000
-58198491.26448,-103976555.70824,6001289.99692,  -0.00006,  -0.00036,   0.00008,90563616.00000,   0.00000,274640576.00000,   0.00000,   0.00000,   0.00000,-384076960.00000,   0.00000
-58033035.13839,-104226142.06792,6085420.23052,  -0.00006,  -0.00036,   0.00008,90775896.00000,   0.00000,274640576.00000,   0.00000,   0.00000,   0.00000,-383864672.00000,   0.00000
-57887209.40015,-104484141.45097,6169550.46412,  -0.00006,  -0.00036,   0.00008,90997496.00000,   0.00000,274640576.00000,   0.00000,   0.00000,   0.00000,-383643072.00000,   0.00000
-57713340.25071,-104714097.42281,6253680.69772,  -0.00006,  -0.00036,   0.00008,91195216.00000,   0.00000,274640576.00000,   0.00000,   0.00000,   0.00000,-383445360.00000,   0.00000
-57559101.48911,-104952466.41802,6343419.61356,  -0.00006,  -0.00037,   0.00008,91403224.00000,   0.00000,274640576.00000,   0.00000,   0.00000,   0.00000,-383237344.00000,   0.00000
-57404862.72750,-105190835.41322,6433158.52940,  -0.00006,  -0.00037,   0.00008,91612408.00000,   0.00000,274640576.00000,   0.00000,   0.00000,   0.00000,-383028160.00000,   0.00000
-57230993.57806,-105420791.38506,6522897.44525,  -0.00005,  -0.00037,   0.00008,91814512.00000,   0.00000,274640576.00000,   0.00000,   0.00000,   0.00000,-382826064.00000,   0.00000
-57068341.79310,-105639529.99243,6612636.36109,  -0.00005,  -0.00037,   0.00009,92008888.00000,   0.00000,274640576.00000,   0.00000,   0.00000,   0.00000,-382631680.00000,   0.00000
-56894472.64365,-105869485.96427,6707983.95917,  -0.00005,  -0.00037,   0.00009,92214432.00000,   0.00000,274640576.00000,   0.00000,   0.00000,   0.00000,-382426144.00000,   0.00000
-56731820.85869,-106088224.57164,6803331.55725,  -0.00005,  -0.00037,   0.00009,92412128.00000,   0.00000,274640576.00000,   0.00000,   0.00000,   0.00000,-382228448.00000,   0.00000
-56549538.68589,-106298550.15564,6898679.15533,  -0.00005,  -0.00037,   0.00009,92603008.00000,   0.00000,274640576.00000,   0.00000,   0.00000,   0.00000,-382037568.00000,   0.00000
-56386886.90092,-106517288.76301,6994026.75341,  -0.00005,  -0.00037,   0.00009,92802728.00000,   0.00000,274640576.00000,   0.00000,   0.00000,   0.00000,-381837856.00000,   0.00000
-56204604.72812,-106727614.34701,7094983.03374,  -0.00005,  -0.00038,   0.00009,92997104.00000,   0.00000,274640576.00000,   0.00000,   0.00000,   0.00000,-381643472.00000,   0.00000
-56033539.91980,-106926722.56653,7195939.31406,  -0.00005,  -0.00038,   0.00009,93183312.00000,   0.00000,274640576.00000,   0.00000,   0.00000,   0.00000,-381457264.00000,   0.00000
-55851257.74699,-107137048.15054,7296895.59438,  -0.00005,  -0.00038,   0.00009,93379760.00000,   0.00000,274640576.00000,   0.00000,   0.00000,   0.00000,-381260816.00000,   0.00000
-55680192.93867,-107336156.37006,7403460.55694,  -0.00004,  -0.00038,   0.00010,93569368.00000,   0.00000,274640576.00000,   0.00000,   0.00000,   0.00000,-381071200.00000,   0.00000
-55489497.74251,-107526851.56622,7510025.51950,  -0.00004,  -0.00038,   0.00010,93752424.00000,   0.00000,274640576.00000,   0.00000,   0.00000,   0.00000,-380888160.00000,   0.00000
-55318432.93418,-107725959.78575,7616590.48207,  -0.00004,  -0.00038,   0.00010,93943992.00000,   0.00000,274640576.00000,   0.00000,   0.00000,   0.00000,-380696576.00000,   0.00000
-55138955.10250,-107905437.61743,7723155.44463,  -0.00004,  -0.00038,   0.00010,94119760.00000,   0.00000,274640576.00000,   0.00000,   0.00000,   0.00000,-380520816.00000,   0.00000
-54948259.90634,-108096132.81360,7835329.08943,  -0.00004,  -0.00038,   0.00010,94307368.00000,   0.00000,274640576.00000,   0.00000,   0.00000,   0.00000,-380333216.00000,   0.00000
-54768782.07465,-108275610.64528,7941894.05199,  -0.00004,  -0.00039,   0.00010,94485144.00000,   0.00000,274640576.00000,   0.00000,   0.00000,   0.00000,-380155424.00000,   0.00000
-54569673.85513,-108446675.45360,8054067.69679,  -0.00004,  -0.00039,   0.00010,94657968.00000,   0.00000,274640576.00000,   0.00000,   0.00000,   0.00000,-379982608.00000,   0.00000
-54390196.02344,-108626153.28529,8171850.02384,  -0.00004,  -0.00039,   0.00011,94840592.00000,   0.00000,274640576.00000,   0.00000,   0.00000,   0.00000,-379799984.00000,   0.00000
-54210718.19176,-108805631.11697,8284023.66864,  -0.00003,  -0.00039,   0.00011,95022808.00000,   0.00000,274640576.00000,   0.00000,   0.00000,   0.00000,-379617760.00000,   0.00000
-54003196.94888,-108957065.53745,8401805.99568,  -0.00003,  -0.00039,   0.00011,95183376.00000,   0.00000,274640576.00000,   0.00000,   0.00000,   0.00000,-379457200.00000,   0.00000
-53815306.09383,-109116912.98130,8519588.32272,  -0.00003,  -0.00039,   0.00011,95352272.00000,   0.00000,274640576.00000,   0.00000,   0.00000,   0.00000,-379288304.00000,   0.00000
-53627415.23879,-109276760.42514,8642979.33201,  -0.00003,  -0.00039,   0.00011,95523616.00000,   0.00000,274640576.00000,   0.00000,   0.00000,   0.00000,-379116960.00000,   0.00000
-53419893.99591,-109428194.84562,8760761.65905,  -0.00003,  -0.00039,   0.00011,95687336.00000,   0.00000,274640576.00000,   0.00000,   0.00000,   0.00000,-378953248.00000,   0.00000
-53232003.14086,-109588042.28946,8884152.66833,  -0.00003,  -0.00039,   0.00012,95860816.00000,   0.00000,274640576.00000,   0.00000,   0.00000,   0.00000,-378779760.00000,   0.00000
-53035699.26246,-109728259.34547,9007543.67761,  -0.00003,  -0.00040,   0.00012,96018504.00000,   0.00000,274640576.00000,   0.00000,   0.00000,   0.00000,-378622080.00000,   0.00000
-52847808.40741,-109888106.78931,9136543.36914,  -0.00003,  -0.00040,   0.00012,96195488.00000,   0.00000,274640576.00000,   0.00000,   0.00000,   0.00000,-378445088.00000,   0.00000
-52651504.52901,-110028323.84531,9265543.06066,  -0.00003,  -0.00040,   0.00012,96356872.00000,   0.00000,274640576.00000,   0.00000,   0.00000,   0.00000,-378283712.00000,   0.00000
-52446787.62725,-110148910.51347,9388934.06994,  -0.00002,  -0.00040,   0.00012,96500872.00000,   0.00000,274640576.00000,   0.00000,   0.00000,   0.00000,-378139712.00000,   0.00000
-52250483.74884,-110289127.56948,9523542.44370,  -0.00002,  -0.00040,   0.00012,96665944.00000,   0.00000,274640576.00000,   0.00000,   0.00000,   0.00000,-377974624.00000,   0.00000
-52045766.84708,-110409714.23764,9652542.13523,  -0.00002,  -0.00040,   0.00013,96813712.00000,   0.00000,274640576.00000,   0.00000,   0.00000,   0.00000,-377826864.00000,   0.00000
-51841049.94532,-110530300.90580,9787150.50899,  -0.00002,  -0.00040,   0.00013,96964224.00000,   0.00000,274640576.00000,   0.00000,   0.00000,   0.00000,-377676352.00000,   0.00000
-51636333.04355,-110650887.57396,9921758.88275,  -0.00002,  -0.00040,   0.00013,97115864.00000,   0.00000,274640576.00000,   0.00000,   0.00000,   0.00000,-377524704.00000,   0.00000
-51431616.14179,-110771474.24213,10056367.25651,  -0.00002,  -0.00040,   0.00013,97268680.00000,   0.00000,274640576.00000,   0.00000,   0.00000,   0.00000,-377371904.00000,   0.00000
-51226899.24002,-110892060.91029,10190975.63028,  -0.00002,  -0.00040,   0.00013,97422600.00000,   0.00000,274640576.00000,   0.00000,   0.00000,   0.00000,-377217984.00000,   0.00000
-51013769.31490,-110993017.19061,10331192.68628,  -0.00002,  -0.00041,   0.00013,97562672.00000,   0.00000,274640576.00000,   0.00000,   0.00000,   0.00000,-377077904.00000,   0.00000
-50820269.77762,-111102386.49429,10471409.74228,  -0.00001,  -0.00041,   0.00014,97710472.00000,   0.00000,274640576.00000,   0.00000,   0.00000,   0.00000,-376930112.00000,   0.00000
-50607139.85249,-111203342.77462,10611626.79828,  -0.00001,  -0.00041,   0.00014,97852872.00000,   0.00000,274640576.00000,   0.00000,   0.00000,   0.00000,-376787712.00000,   0.00000
-50385596.90401,-111284668.66710,10751843.85429,  -0.00001,  -0.00041,   0.00014,97979792.00000,   0.00000,274640576.00000,   0.00000,   0.00000,   0.00000,-376660784.00000,   0.00000
-50183684.34336,-111374407.58294,10897669.59253,  -0.00001,  -0.00041,   0.00014,98116136.00000,   0.00000,274640576.00000,   0.00000,   0.00000,   0.00000,-376524448.00000,   0.00000
-49962141.39488,-111455733.47542,11043495.33077,  -0.00001,  -0.00041,   0.00014,98247360.00000,   0.00000,274640576.00000,   0.00000,   0.00000,   0.00000,-376393216.00000,   0.00000
-49760228.83424,-111545472.39126,11189321.06901,  -0.00001,  -0.00041,   0.00015,98386120.00000,   0.00000,274640576.00000,   0.00000,   0.00000,   0.00000,-376254464.00000,   0.00000
-49558316.27359,-111635211.30710,11340755.48950,  -0.00001,  -0.00041,   0.00015,98528000.00000,   0.00000,274640576.00000,   0.00000,   0.00000,   0.00000,-376112576.00000,   0.00000
-49328360.30175,-111696906.81174,11486581.22774,  -0.00001,  -0.00041,   0.00015,98646288.00000,   0.00000,274640576.00000,   0.00000,   0.00000,   0.00000,-375994288.00000,   0.00000
-49118034.71774,-111767015.33975,11638015.64822,  -0.00001,  -0.00041,   0.00015,98774008.00000,   0.00000,274640576.00000,   0.00000,   0.00000,   0.00000,-375866560.00000,   0.00000
-48907709.13374,-111837123.86775,11789450.06871,  -0.00000,  -0.00041,   0.00015,98902904.00000,   0.00000,274640576.00000,   0.00000,   0.00000,   0.00000,-375737664.00000,   0.00000
-48697383.54973,-111907232.39575,11940884.48919,  -0.00000,  -0.00041,   0.00016,99033128.00000,   0.00000,274640576.00000,   0.00000,   0.00000,   0.00000,-375607456.00000,   0.00000
-48478644.94237,-111957710.53591,12097927.59191,  -0.00000,  -0.00041,   0.00016,99149952.00000,   0.00000,274640576.00000,   0.00000,   0.00000,   0.00000,-375490624.00000,   0.00000
-48259906.33501,-112008188.67607,12254970.69464,  -0.00000,  -0.00042,   0.00016,99268152.00000,   0.00000,274640576.00000,   0.00000,   0.00000,   0.00000,-375372416.00000,   0.00000
-48041167.72764,-112058666.81623,12412013.79736,  -0.00000,  -0.00042,   0.00016,99387592.00000,   0.00000,274640576.00000,   0.00000,   0.00000,   0.00000,-375252992.00000,   0.00000
-47814016.09692,-112089514.56855,12569056.90008,   0.00000,  -0.00042,   0.00016,99491768.00000,   0.00000,274640576.00000,   0.00000,   0.00000,   0.00000,-375148800.00000,   0.00000
-47614907.87739,-112148405.73207,12726100.00280,   0.00000,  -0.00042,   0.00017,99619704.00000,   0.00000,274640576.00000,   0.00000,   0.00000,   0.00000,-375020864.00000,   0.00000
-47387756.24667,-112179253.48439,12888751.78777,   0.00000,  -0.00042,   0.00017,99728600.00000,   0.00000,274640576.00000,   0.00000,   0.00000,   0.00000,-374911968.00000,   0.00000
-47171821.98043,-112198883.87223,13051403.57273,   0.00000,  -0.00042,   0.00017,99828016.00000,   0.00000,274640576.00000,   0.00000,   0.00000,   0.00000,-374812560.00000,   0.00000
-46944670.34970,-112229731.62455,13214055.35769,   0.00001,  -0.00042,   0.00017,99939584.00000,   0.00000,274640576.00000,   0.00000,   0.00000,   0.00000,-374700992.00000,   0.00000
-46728736.08346,-112249362.01240,13376707.14266,   0.00001,  -0.00042,   0.00017,100041592.00000,   0.00000,274640576.00000,   0.00000,   0.00000,   0.00000,-374598976.00000,   0.00000
-46493171.42937,-112260579.37688,13544967.60986,   0.00001,  -0.00042,   0.00018,100141568.00000,   0.00000,274640576.00000,   0.00000,   0.00000,   0.00000,-374499008.00000,   0.00000
-46277237.16313,-112280209.76472,13713228.07706,   0.00001,  -0.00042,   0.00018,100248448.00000,   0.00000,274640576.00000,   0.00000,   0.00000,   0.00000,-374392128.00000,   0.00000
-46052889.87352,-112280209.76472,13881488.54427,   0.00001,  -0.00042,   0.00018,100340104.00000,   0.00000,274640576.00000,   0.00000,   0.00000,   0.00000,-374300480.00000,   0.00000
-45828542.58392,-112280209.76472,14049749.01147,   0.00001,  -0.00042,   0.00018,100433096.00000,   0.00000,274640576.00000,   0.00000,   0.00000,   0.00000,-374207488.00000,   0.00000
-45604195.29432,-112280209.76472,14218009.47867,   0.00001,  -0.00042,   0.00018,100527488.00000,   0.00000,274640576.00000,   0.00000,   0.00000,   0.00000,-374113088.00000,   0.00000
-45379848.00471,-112280209.76472,14391878.62812,   0.00001,  -0.00042,   0.00019,100625448.00000,   0.00000,274640576.00000,   0.00000,   0.00000,   0.00000,-374015136.00000,   0.00000
-45147087.69175,-112260579.37688,14565747.77756,   0.00001,  -0.00042,   0.00019,100708416.00000,   0.00000,274640576.00000,   0.00000,   0.00000,   0.00000,-373932160.00000,   0.00000
-44914327.37878,-112240948.98904,14739616.92700,   0.00001,  -0.00042,   0.00019,100792696.00000,   0.00000,274640576.00000,   0.00000,   0.00000,   0.00000,-373847872.00000,   0.00000
-44692784.43030,-112210101.23671,14913486.07645,   0.00002,  -0.00042,   0.00019,100867008.00000,   0.00000,274640576.00000,   0.00000,   0.00000,   0.00000,-373773568.00000,   0.00000
-44460024.11733,-112190470.84887,15087355.22589,   0.00002,  -0.00042,   0.00020,100953968.00000,   0.00000,274640576.00000,   0.00000,   0.00000,   0.00000,-373686608.00000,   0.00000
-44238481.16885,-112159623.09655,15266833.05757,   0.00002,  -0.00042,   0.00020,101033432.00000,   0.00000,274640576.00000,   0.00000,   0.00000,   0.00000,-373607136.00000,   0.00000
-43997307.83252,-112120362.32087,15440702.20702,   0.00002,  -0.00042,   0.00020,101106680.00000,   0.00000,274640576.00000,   0.00000,   0.00000,   0.00000,-373533888.00000,   0.00000
-43767351.86068,-112069884.18071,15620180.03870,   0.00002,  -0.00042,   0.00020,101172488.00000,   0.00000,274640576.00000,   0.00000,   0.00000,   0.00000,-373468096.00000,   0.00000
-43537395.88884,-112019406.04055,15799657.87038,   0.00002,  -0.00042,   0.00021,101239608.00000,   0.00000,274640576.00000,   0.00000,   0.00000,   0.00000,-373400960.00000,   0.00000
-43307439.91699,-111968927.90039,15984744.38431,   0.00002,  -0.00043,   0.00021,101310704.00000,   0.00000,274640576.00000,   0.00000,   0.00000,   0.00000,-373329872.00000,   0.00000
-43077483.94515,-111918449.76023,16164222.21599,   0.00002,  -0.00043,   0.00021,101380520.00000,   0.00000,274640576.00000,   0.00000,   0.00000,   0.00000,-373260064.00000,   0.00000
-42839114.94994,-111848341.23223,16349308.72991,   0.00002,  -0.00043,   0.00021,101438072.00000,   0.00000,274640576.00000,   0.00000,   0.00000,   0.00000,-373202496.00000,   0.00000
-42600745.95474,-111778232.70423,16528786.56160,   0.00002,  -0.00043,   0.00021,101494224.00000,   0.00000,274640576.00000,   0.00000,   0.00000,   0.00000,-373146352.00000,   0.00000
-42382007.34737,-111716537.19959,16713873.07552,   0.00003,  -0.00043,   0.00022,101559320.00000,   0.00000,274640576.00000,   0.00000,   0.00000,   0.00000,-373081248.00000,   0.00000
-42135225.32881,-111626798.28374,16904568.27168,   0.00003,  -0.00043,   0.00022,101607520.00000,   0.00000,274640576.00000,   0.00000,   0.00000,   0.00000,-373033056.00000,   0.00000
-41888443.31024,-111537059.36790,17089654.78561,   0.00003,  -0.00043,   0.00022,101654240.00000,   0.00000,274640576.00000,   0.00000,   0.00000,   0.00000,-372986336.00000,   0.00000
-41661291.67952,-111455733.47542,17274741.29953,   0.00003,  -0.00043,   0.00022,101707200.00000,   0.00000,274640576.00000,   0.00000,   0.00000,   0.00000,-372933376.00000,   0.00000
-41425727.02544,-111354777.19510,17465436.49570,   0.00003,  -0.00043,   0.00023,101748048.00000,   0.00000,274640576.00000,   0.00000,   0.00000,   0.00000,-372892528.00000,   0.00000
-41190162.37135,-111253820.91478,17656131.69186,   0.00003,  -0.00043,   0.00023,101790352.00000,   0.00000,274640576.00000,   0.00000,   0.00000,   0.00000,-372850224.00000,   0.00000
-40934967.32943,-111144451.61109,17846826.88802,   0.00003,  -0.00043,   0.00023,101829432.00000,   0.00000,274640576.00000,   0.00000,   0.00000,   0.00000,-372811136.00000,   0.00000
-40690989.65198,-111023864.94293,18037522.08419,   0.00003,  -0.00043,   0.00023,101858440.00000,   0.00000,274640576.00000,   0.00000,   0.00000,   0.00000,-372782144.00000,   0.00000
-40466642.36238,-110911691.29813,18228217.28035,   0.00003,  -0.00043,   0.00024,101893352.00000,   0.00000,274640576.00000,   0.00000,   0.00000,   0.00000,-372747232.00000,   0.00000
-40222664.68493,-110791104.62997,18418912.47651,   0.00003,  -0.00043,   0.00024,101925216.00000,   0.00000,274640576.00000,   0.00000,   0.00000,   0.00000,-372715360.00000,   0.00000
-39970273.98413,-110650887.57396,18609607.67268,   0.00003,  -0.00043,   0.00024,101942344.00000,   0.00000,274640576.00000,   0.00000,   0.00000,   0.00000,-372698240.00000,   0.00000
-39737513.67116,-110519083.54132,18805911.55108,   0.00003,  -0.00043,   0.00024,101968464.00000,   0.00000,274640576.00000,   0.00000,   0.00000,   0.00000,-372672112.00000,   0.00000
-39485122.97036,-110378866.48532,19002215.42948,   0.00004,  -0.00043,   0.00025,101991696.00000,   0.00000,274640576.00000,   0.00000,   0.00000,   0.00000,-372648880.00000,   0.00000
-39243949.63403,-110227432.06484,19198519.30789,   0.00004,  -0.00043,   0.00025,102004712.00000,   0.00000,274640576.00000,   0.00000,   0.00000,   0.00000,-372635872.00000,   0.00000
-39002776.29771,-110075997.64435,19394823.18629,   0.00004,  -0.00042,   0.00025,102019160.00000,   0.00000,274640576.00000,   0.00000,   0.00000,   0.00000,-372621408.00000,   0.00000
-38741972.57354,-109916150.20051,19591127.06470,   0.00004,  -0.00042,   0.00025,102030952.00000,   0.00000,274640576.00000,   0.00000,   0.00000,   0.00000,-372609632.00000,   0.00000
-38492386.21386,-109745085.39219,19787430.94310,   0.00004,  -0.00042,   0.00026,102032464.00000,   0.00000,274640576.00000,   0.00000,   0.00000,   0.00000,-372608112.00000,   0.00000
-38262430.24201,-109582433.60722,19983734.82150,   0.00004,  -0.00042,   0.00026,102039776.00000,   0.00000,274640576.00000,   0.00000,   0.00000,   0.00000,-372600800.00000,   0.00000
-38012843.88233,-109411368.79890,20185647.38215,   0.00004,  -0.00042,   0.00026,102047720.00000,   0.00000,274640576.00000,   0.00000,   0.00000,   0.00000,-372592864.00000,   0.00000
-37754844.49928,-109220673.60274,20381951.26055,   0.00004,  -0.00042,   0.00026,102037936.00000,   0.00000,274640576.00000,   0.00000,   0.00000,   0.00000,-372602640.00000,   0.00000
-37496845.11624,-109029978.40657,20583863.82120,   0.00004,  -0.00042,   0.00027,102033144.00000,   0.00000,274640576.00000,   0.00000,   0.00000,   0.00000,-372607424.00000,   0.00000
-37250063.09768,-108828065.84593,20785776.38184,   0.00004,  -0.00042,   0.00027,102018152.00000,   0.00000,274640576.00000,   0.00000,   0.00000,   0.00000,-372622432.00000,   0.00000
-37011694.10247,-108645783.67313,20982080.26024,   0.00004,  -0.00042,   0.00027,102017360.00000,   0.00000,274640576.00000,   0.00000,   0.00000,   0.00000,-372623216.00000,   0.00000
-36736868.67271,-108415827.70128,21183992.82089,   0.00004,  -0.00042,   0.00028,101985648.00000,   0.00000,274640576.00000,   0.00000,   0.00000,   0.00000,-372654928.00000,   0.00000
-36490086.65414,-108213915.14064,21385905.38153,   0.00004,  -0.00042,   0.00028,101975624.00000,   0.00000,274640576.00000,   0.00000,   0.00000,   0.00000,-372664960.00000,   0.00000
-36234891.61222,-107992372.19215,21587817.94217,   0.00005,  -0.00042,   0.00028,101951376.00000,   0.00000,274640576.00000,   0.00000,   0.00000,   0.00000,-372689200.00000,   0.00000
-35971283.54693,-107751198.85583,21795339.18506,   0.00005,  -0.00042,   0.00028,101916672.00000,   0.00000,274640576.00000,   0.00000,   0.00000,   0.00000,-372723904.00000,   0.00000
-35735718.89285,-107538068.93070,21997251.74570,   0.00005,  -0.00042,   0.00029,101899920.00000,   0.00000,274640576.00000,   0.00000,   0.00000,   0.00000,-372740656.00000,   0.00000
-35472110.82756,-107296895.59438,22199164.30635,   0.00005,  -0.00042,   0.00029,101865056.00000,   0.00000,274640576.00000,   0.00000,   0.00000,   0.00000,-372775520.00000,   0.00000
-35200089.73892,-107036091.87022,22401076.86699,   0.00005,  -0.00042,   0.00029,101816328.00000,   0.00000,274640576.00000,   0.00000,   0.00000,   0.00000,-372824256.00000,   0.00000
-34947699.03811,-106783701.16941,22608598.10987,   0.00005,  -0.00042,   0.00029,101776928.00000,   0.00000,274640576.00000,   0.00000,   0.00000,   0.00000,-372863648.00000,   0.00000
-34695308.33731,-106531310.46861,22810510.67052,   0.00005,  -0.00042,   0.00030,101735608.00000,   0.00000,274640576.00000,   0.00000,   0.00000,   0.00000,-372904960.00000,   0.00000
-34414874.22530,-106250876.35660,23018031.91340,   0.00005,  -0.00042,   0.00030,101680520.00000,   0.00000,274640576.00000,   0.00000,   0.00000,   0.00000,-372960064.00000,   0.00000
-34154070.50114,-105978855.26795,23225553.15629,   0.00005,  -0.00042,   0.00030,101631064.00000,   0.00000,274640576.00000,   0.00000,   0.00000,   0.00000,-373009504.00000,   0.00000
-33893266.77697,-105706834.17931,23427465.71693,   0.00005,  -0.00041,   0.00030,101579712.00000,   0.00000,274640576.00000,   0.00000,   0.00000,   0.00000,-373060864.00000,   0.00000
-33643680.41729,-105423595.72618,23634986.95981,   0.00005,  -0.00041,   0.00031,101522320.00000,   0.00000,274640576.00000,   0.00000,   0.00000,   0.00000,-373118256.00000,   0.00000
-33374463.66976,-105131944.24970,23842508.20270,   0.00005,  -0.00041,   0.00031,101463208.00000,   0.00000,274640576.00000,   0.00000,   0.00000,   0.00000,-373177376.00000,   0.00000
-33096833.89888,-104820662.38537,24044420.76334,   0.00005,  -0.00041,   0.00031,101386720.00000,   0.00000,274640576.00000,   0.00000,   0.00000,   0.00000,-373253856.00000,   0.00000
-32838834.51583,-104517793.54441,24251942.00623,   0.00005,  -0.00041,   0.00032,101319856.00000,   0.00000,274640576.00000,   0.00000,   0.00000,   0.00000,-373320720.00000,   0.00000
-32561204.74495,-104206511.68008,24459463.24911,   0.00006,  -0.00041,   0.00032,101251560.00000,   0.00000,274640576.00000,   0.00000,   0.00000,   0.00000,-373389024.00000,   0.00000
-32294792.33854,-103884012.45127,24666984.49199,   0.00006,  -0.00041,   0.00032,101173632.00000,   0.00000,274640576.00000,   0.00000,   0.00000,   0.00000,-373466944.00000,   0.00000
-32019966.90877,-103541882.83463,24874505.73488,   0.00006,  -0.00041,   0.00032,101082624.00000,   0.00000,274640576.00000,   0.00000,   0.00000,   0.00000,-373557952.00000,   0.00000
-31753554.50237,-103219383.60582,25082026.97776,   0.00006,  -0.00041,   0.00033,101009288.00000,   0.00000,274640576.00000,   0.00000,   0.00000,   0.00000,-373631296.00000,   0.00000
-31478729.07260,-102877253.98918,25289548.22065,   0.00006,  -0.00041,   0.00033,100923072.00000,   0.00000,274640576.00000,   0.00000,   0.00000,   0.00000,-373717504.00000,   0.00000
-31195490.61948,-102515493.98469,25491460.78129,   0.00006,  -0.00041,   0.00033,100819952.00000,   0.00000,274640576.00000,   0.00000,   0.00000,   0.00000,-373820624.00000,   0.00000
-30931882.55419,-102162147.00356,25698982.02417,   0.00006,  -0.00040,   0.00033,100727104.00000,   0.00000,274640576.00000,   0.00000,   0.00000,   0.00000,-373913472.00000,   0.00000
-30648644.10107,-101800386.99907,25906503.26706,   0.00006,  -0.00040,   0.00034,100633584.00000,   0.00000,274640576.00000,   0.00000,   0.00000,   0.00000,-374006992.00000,   0.00000
-30376623.01242,-101427409.63011,26114024.50994,   0.00006,  -0.00040,   0.00034,100531144.00000,   0.00000,274640576.00000,   0.00000,   0.00000,   0.00000,-374109440.00000,   0.00000
-30084971.53594,-101046019.23778,26321545.75283,   0.00006,  -0.00040,   0.00034,100428624.00000,   0.00000,274640576.00000,   0.00000,   0.00000,   0.00000,-374211952.00000,   0.00000
-29804537.42393,-100653411.48097,26529066.99571,   0.00006,  -0.00040,   0.00034,100317360.00000,   0.00000,274640576.00000,   0.00000,   0.00000,   0.00000,-374323216.00000,   0.00000
-29524103.31193,-100260803.72417,26736588.23859,   0.00006,  -0.00040,   0.00035,100209352.00000,   0.00000,274640576.00000,   0.00000,   0.00000,   0.00000,-374431232.00000,   0.00000
-29235256.17656,-99848565.57952,26944109.48148,   0.00006,  -0.00040,   0.00035,100089880.00000,   0.00000,274640576.00000,   0.00000,   0.00000,   0.00000,-374550688.00000,   0.00000
-28946409.04120,-99436327.43487,27146022.04212,   0.00006,  -0.00040,   0.00035,99969360.00000,   0.00000,274640576.00000,   0.00000,   0.00000,   0.00000,-374671216.00000,   0.00000
-28677192.29367,-99032502.31358,27353543.28501,   0.00006,  -0.00039,   0.00036,99859680.00000,   0.00000,274640576.00000,   0.00000,   0.00000,   0.00000,-374780896.00000,   0.00000
-28379932.13494,-98600633.78109,27561064.52789,   0.00006,  -0.00039,   0.00036,99735992.00000,   0.00000,274640576.00000,   0.00000,   0.00000,   0.00000,-374904576.00000,   0.00000
-28102302.36406,-98177178.27197,27762977.08853,   0.00006,  -0.00039,   0.00036,99613664.00000,   0.00000,274640576.00000,   0.00000,   0.00000,   0.00000,-375026912.00000,   0.00000
-27796629.18197,-97725679.35164,27970498.33142,   0.00006,  -0.00039,   0.00036,99482288.00000,   0.00000,274640576.00000,   0.00000,   0.00000,   0.00000,-375158288.00000,   0.00000
-27510586.38773,-97282593.45467,28178019.57430,   0.00006,  -0.00039,   0.00037,99356744.00000,   0.00000,274640576.00000,   0.00000,   0.00000,   0.00000,-375283840.00000,   0.00000
-27216130.57012,-96819877.16986,28379932.13494,   0.00006,  -0.00039,   0.00037,99214952.00000,   0.00000,274640576.00000,   0.00000,   0.00000,   0.00000,-375425632.00000,   0.00000
-26921674.75252,-96357160.88505,28587453.37783,   0.00007,  -0.00039,   0.00037,99080944.00000,   0.00000,274640576.00000,   0.00000,   0.00000,   0.00000,-375559632.00000,   0.00000
-26627218.93491,-95894444.60024,28789365.93847,   0.00007,  -0.00038,   0.00037,98944768.00000,   0.00000,274640576.00000,   0.00000,   0.00000,   0.00000,-375695808.00000,   0.00000
-26343980.48179,-95420510.95095,28991278.49912,   0.00007,  -0.00038,   0.00038,98799184.00000,   0.00000,274640576.00000,   0.00000,   0.00000,   0.00000,-375841392.00000,   0.00000
-26032698.61746,-94918533.89046,29198799.74200,   0.00007,  -0.00038,   0.00038,98644392.00000,   0.00000,274640576.00000,   0.00000,   0.00000,   0.00000,-375996192.00000,   0.00000
-25721416.75313,-94416556.82997,29400712.30264,   0.00007,  -0.00038,   0.00038,98487040.00000,   0.00000,274640576.00000,   0.00000,   0.00000,   0.00000,-376153536.00000,   0.00000
-25429765.27665,-93922992.79284,29602624.86329,   0.00007,  -0.00038,   0.00038,98334200.00000,   0.00000,274640576.00000,   0.00000,   0.00000,   0.00000,-376306368.00000,   0.00000
-25129700.77680,-93409798.36787,29804537.42393,   0.00007,  -0.00038,   0.00039,98169264.00000,   0.00000,274640576.00000,   0.00000,   0.00000,   0.00000,-376471312.00000,   0.00000
-24829636.27696,-92896603.94290,30006449.98458,   0.00007,  -0.00037,   0.00039,98006600.00000,   0.00000,274640576.00000,   0.00000,   0.00000,   0.00000,-376633984.00000,   0.00000
-24521158.75375,-92363779.13009,30202753.86298,   0.00007,  -0.00037,   0.00039,97826608.00000,   0.00000,274640576.00000,   0.00000,   0.00000,   0.00000,-376813968.00000,   0.00000
-24212681.23054,-91830954.31728,30404666.42362,   0.00007,  -0.00037,   0.00040,97654056.00000,   0.00000,274640576.00000,   0.00000,   0.00000,   0.00000,-376986528.00000,   0.00000
-23895790.68398,-91278499.11663,30606578.98427,   0.00007,  -0.00037,   0.00040,97469656.00000,   0.00000,274640576.00000,   0.00000,   0.00000,   0.00000,-377170912.00000,   0.00000
-23598530.52525,-90734456.93934,30802882.86267,   0.00007,  -0.00037,   0.00040,97284616.00000,   0.00000,274640576.00000,   0.00000,   0.00000,   0.00000,-377355968.00000,   0.00000
-23273226.95533,-90162371.35085,31004795.42332,   0.00007,  -0.00036,   0.00040,97090952.00000,   0.00000,274640576.00000,   0.00000,   0.00000,   0.00000,-377549632.00000,   0.00000
-22967553.77324,-89598698.78572,31201099.30172,   0.00007,  -0.00036,   0.00041,96896616.00000,   0.00000,274640576.00000,   0.00000,   0.00000,   0.00000,-377743968.00000,   0.00000
-22653467.56779,-89015395.83275,31397403.18012,   0.00007,  -0.00036,   0.00041,96691056.00000,   0.00000,274640576.00000,   0.00000,   0.00000,   0.00000,-377949520.00000,   0.00000
-22339381.36235,-88432092.87978,31593707.05853,   0.00007,  -0.00036,   0.00041,96488096.00000,   0.00000,274640576.00000,   0.00000,   0.00000,   0.00000,-378152480.00000,   0.00000
-22016882.13354,-87829159.53897,31790010.93693,   0.00007,  -0.00036,   0.00041,96274136.00000,   0.00000,274640576.00000,   0.00000,   0.00000,   0.00000,-378366432.00000,   0.00000
-21694382.90474,-87226226.19815,31980706.13309,   0.00007,  -0.00035,   0.00042,96057512.00000,   0.00000,274640576.00000,   0.00000,   0.00000,   0.00000,-378583072.00000,   0.00000
-21363470.65257,-86603662.46950,32177010.01150,   0.00007,  -0.00035,   0.00042,95835840.00000,   0.00000,274640576.00000,   0.00000,   0.00000,   0.00000,-378804736.00000,   0.00000
-21032558.40040,-85981098.74085,32367705.20766,   0.00007,  -0.00035,   0.00042,95611712.00000,   0.00000,274640576.00000,   0.00000,   0.00000,   0.00000,-379028864.00000,   0.00000
-20721276.53608,-85366948.03556,32564009.08607,   0.00007,  -0.00035,   0.00042,95398600.00000,   0.00000,274640576.00000,   0.00000,   0.00000,   0.00000,-379241984.00000,   0.00000
-20393168.62503,-84713536.55459,32754704.28223,   0.00007,  -0.00035,   0.00043,95156240.00000,   0.00000,274640576.00000,   0.00000,   0.00000,   0.00000,-379484336.00000,   0.00000
-20053843.34951,-84071342.43809,32945399.47839,   0.00007,  -0.00034,   0.00043,94928856.00000,   0.00000,274640576.00000,   0.00000,   0.00000,   0.00000,-379711712.00000,   0.00000
-19725735.43846,-83417930.95712,33130485.99232,   0.00007,  -0.00034,   0.00043,94688000.00000,   0.00000,274640576.00000,   0.00000,   0.00000,   0.00000,-379952576.00000,   0.00000
-19389214.50405,-82744889.08831,33321181.18848,   0.00007,  -0.00034,   0.00043,94443552.00000,   0.00000,274640576.00000,   0.00000,   0.00000,   0.00000,-380197024.00000,   0.00000
-19052693.56965,-82071847.21950,33506267.70240,   0.00007,  -0.00034,   0.00044,94197336.00000,   0.00000,274640576.00000,   0.00000,   0.00000,   0.00000,-380443232.00000,   0.00000
-18727389.99972,-81387587.98620,33691354.21633,   0.00007,  -0.00033,   0.00044,93944144.00000,   0.00000,274640576.00000,   0.00000,   0.00000,   0.00000,-380696432.00000,   0.00000
-18382456.04195,-80694915.72955,33882049.41249,   0.00007,  -0.00033,   0.00044,93699656.00000,   0.00000,274640576.00000,   0.00000,   0.00000,   0.00000,-380940928.00000,   0.00000
-18048739.44867,-79991026.10842,34061527.24417,   0.00007,  -0.00033,   0.00044,93436760.00000,   0.00000,274640576.00000,   0.00000,   0.00000,   0.00000,-381203808.00000,   0.00000
-17695392.46754,-79278723.46392,34246613.75810,   0.00007,  -0.00033,   0.00045,93183384.00000,   0.00000,274640576.00000,   0.00000,   0.00000,   0.00000,-381457184.00000,   0.00000
-17353262.85089,-78555203.45495,34426091.58978,   0.00007,  -0.00032,   0.00045,92918136.00000,   0.00000,274640576.00000,   0.00000,   0.00000,   0.00000,-381722432.00000,   0.00000
-17011133.23425,-77831683.44597,34611178.10370,   0.00007,  -0.00032,   0.00045,92665032.00000,   0.00000,274640576.00000,   0.00000,   0.00000,   0.00000,-381975552.00000,   0.00000
-16660590.59424,-77088533.04916,34790655.93539,   0.00007,  -0.00032,   0.00045,92399632.00000,   0.00000,274640576.00000,   0.00000,   0.00000,   0.00000,-382240944.00000,   0.00000
-16310047.95423,-76345382.65235,34964525.08483,   0.00007,  -0.00032,   0.00045,92134608.00000,   0.00000,274640576.00000,   0.00000,   0.00000,   0.00000,-382505968.00000,   0.00000
-15951092.29087,-75582601.86769,35144002.91651,   0.00007,  -0.00031,   0.00046,91871200.00000,   0.00000,274640576.00000,   0.00000,   0.00000,   0.00000,-382769376.00000,   0.00000
-15611767.01534,-74828234.10640,35317872.06596,   0.00007,  -0.00031,   0.00046,91610792.00000,   0.00000,274640576.00000,   0.00000,   0.00000,   0.00000,-383029792.00000,   0.00000
-15244398.32861,-74045822.93390,35491741.21540,   0.00008,  -0.00031,   0.00046,91346016.00000,   0.00000,274640576.00000,   0.00000,   0.00000,   0.00000,-383294560.00000,   0.00000
-14896660.02973,-73271824.78477,35665610.36484,   0.00008,  -0.00030,   0.00046,91092008.00000,   0.00000,274640576.00000,   0.00000,   0.00000,   0.00000,-383548576.00000,   0.00000
-14540508.70748,-72478196.24779,35839479.51429,   0.00008,  -0.00030,   0.00047,90836712.00000,   0.00000,274640576.00000,   0.00000,   0.00000,   0.00000,-383803872.00000,   0.00000
-14175944.36187,-71664937.32298,36007739.98149,   0.00008,  -0.00030,   0.00047,90574256.00000,   0.00000,274640576.00000,   0.00000,   0.00000,   0.00000,-384066320.00000,   0.00000
-13811380.01627,-70851678.39816,36176000.44869,   0.00008,  -0.00030,   0.00047,90323472.00000,   0.00000,274640576.00000,   0.00000,   0.00000,   0.00000,-384317104.00000,   0.00000
-13446815.67066,-70038419.47334,36344260.91590,   0.00008,  -0.00029,   0.00047,90084416.00000,   0.00000,274640576.00000,   0.00000,   0.00000,   0.00000,-384556160.00000,   0.00000
-13073838.30169,-69205530.16069,36512521.38310,   0.00008,  -0.00029,   0.00047,89846272.00000,   0.00000,274640576.00000,   0.00000,   0.00000,   0.00000,-384794304.00000,   0.00000
-12692447.90936,-68353010.46019,36675173.16806,   0.00008,  -0.00029,   0.00048,89601552.00000,   0.00000,274640576.00000,   0.00000,   0.00000,   0.00000,-385039024.00000,   0.00000
-12330687.90488,-67508903.78306,36837824.95303,   0.00008,  -0.00028,   0.00048,89367056.00000,   0.00000,274640576.00000,   0.00000,   0.00000,   0.00000,-385273520.00000,   0.00000
-11960514.87703,-66645166.71808,37000476.73799,   0.00008,  -0.00028,   0.00048,89130616.00000,   0.00000,274640576.00000,   0.00000,   0.00000,   0.00000,-385509952.00000,   0.00000
-11570711.46134,-65773016.62974,37157519.84071,   0.00008,  -0.00028,   0.00048,88892944.00000,   0.00000,274640576.00000,   0.00000,   0.00000,   0.00000,-385747632.00000,   0.00000
-11192125.41013,-64889649.17693,37320171.62568,   0.00008,  -0.00027,   0.00049,88657128.00000,   0.00000,274640576.00000,   0.00000,   0.00000,   0.00000,-385983456.00000,   0.00000
-10813539.35893,-64006281.72411,37471606.04616,   0.00008,  -0.00027,   0.00049,88408784.00000,   0.00000,274640576.00000,   0.00000,   0.00000,   0.00000,-386231792.00000,   0.00000
-10446170.67220,-63111696.90681,37628649.14888,   0.00008,  -0.00027,   0.00049,88158704.00000,   0.00000,274640576.00000,   0.00000,   0.00000,   0.00000,-386481872.00000,   0.00000
-10050758.57427,-62189068.67831,37780083.56937,   0.00008,  -0.00026,   0.00049,87890320.00000,   0.00000,274640576.00000,   0.00000,   0.00000,   0.00000,-386750256.00000,   0.00000
-9655346.47635,-61266440.44982,37931517.98985,   0.00008,  -0.00026,   0.00049,87620656.00000,   0.00000,274640576.00000,   0.00000,   0.00000,   0.00000,-387019920.00000,   0.00000
-9279564.76626,-60352225.24468,38082952.41033,   0.00008,  -0.00026,   0.00050,87349840.00000,   0.00000,274640576.00000,   0.00000,   0.00000,   0.00000,-387290736.00000,   0.00000
-8867326.62161,-59390336.24050,38228778.14857,   0.00008,  -0.00025,   0.00050,87049840.00000,   0.00000,274640576.00000,   0.00000,   0.00000,   0.00000,-387590736.00000,   0.00000
-8483131.88816,-58456490.64752,38380212.56906,   0.00008,  -0.00025,   0.00050,86767448.00000,   0.00000,274640576.00000,   0.00000,   0.00000,   0.00000,-387873120.00000,   0.00000
-8082111.10800,-57483384.27886,38520429.62506,   0.00008,  -0.00025,   0.00050,86450024.00000,   0.00000,274640576.00000,   0.00000,   0.00000,   0.00000,-388190560.00000,   0.00000
-7689503.35119,-56529908.29805,38666255.36330,   0.00008,  -0.00024,   0.00050,86151776.00000,   0.00000,274640576.00000,   0.00000,   0.00000,   0.00000,-388488800.00000,   0.00000
-7280069.54766,-55537171.54155,38806472.41931,   0.00008,  -0.00024,   0.00050,85828144.00000,   0.00000,274640576.00000,   0.00000,   0.00000,   0.00000,-388812432.00000,   0.00000
-6890266.13197,-54552847.80841,38946689.47531,   0.00008,  -0.00023,   0.00051,85508456.00000,   0.00000,274640576.00000,   0.00000,   0.00000,   0.00000,-389132128.00000,   0.00000
-6480832.32844,-53560111.05191,39081297.84907,   0.00007,  -0.00023,   0.00051,85185104.00000,   0.00000,274640576.00000,   0.00000,   0.00000,   0.00000,-389455472.00000,   0.00000
-6082615.88940,-52556156.93093,39215906.22283,   0.00007,  -0.00023,   0.00051,84857856.00000,   0.00000,274640576.00000,   0.00000,   0.00000,   0.00000,-389782720.00000,   0.00000
-5656356.03915,-51524159.39875,39350514.59660,   0.00007,  -0.00022,   0.00051,84527056.00000,   0.00000,274640576.00000,   0.00000,   0.00000,   0.00000,-390113520.00000,   0.00000
-5249726.57674,-50500574.88993,39479514.28812,   0.00007,  -0.00022,   0.00051,84196504.00000,   0.00000,274640576.00000,   0.00000,   0.00000,   0.00000,-390444064.00000,   0.00000
-4834684.09097,-49457359.99327,39608513.97964,   0.00007,  -0.00022,   0.00051,83865256.00000,   0.00000,274640576.00000,   0.00000,   0.00000,   0.00000,-390775328.00000,   0.00000
-4411228.58184,-48394514.70877,39737513.67116,   0.00007,  -0.00021,   0.00052,83535136.00000,   0.00000,274640576.00000,   0.00000,   0.00000,   0.00000,-391105440.00000,   0.00000
-3987773.07272,-47331669.42427,39860904.68045,   0.00007,  -0.00021,   0.00052,83208928.00000,   0.00000,274640576.00000,   0.00000,   0.00000,   0.00000,-391431648.00000,   0.00000
-3583947.95143,-46277237.16313,39984295.68973,   0.00007,  -0.00020,   0.00052,82896192.00000,   0.00000,274640576.00000,   0.00000,   0.00000,   0.00000,-391744384.00000,   0.00000
-3152079.41894,-45194761.49079,40102078.01677,   0.00007,  -0.00020,   0.00052,82581416.00000,   0.00000,274640576.00000,   0.00000,   0.00000,   0.00000,-392059168.00000,   0.00000
-2731428.25093,-44101068.45397,40219860.34381,   0.00007,  -0.00020,   0.00052,82274664.00000,   0.00000,274640576.00000,   0.00000,   0.00000,   0.00000,-392365920.00000,   0.00000
-2310777.08292,-43007375.41715,40337642.67085,   0.00007,  -0.00019,   0.00052,81985600.00000,   0.00000,274640576.00000,   0.00000,   0.00000,   0.00000,-392654976.00000,   0.00000
-1862082.50372,-41885638.96912,40449816.31566,   0.00007,  -0.00019,   0.00053,81699880.00000,   0.00000,274640576.00000,   0.00000,   0.00000,   0.00000,-392940704.00000,   0.00000
-1433018.31235,-40772315.54446,40561989.96046,   0.00007,  -0.00018,   0.00053,81437008.00000,   0.00000,274640576.00000,   0.00000,   0.00000,   0.00000,-393203568.00000,   0.00000
-987128.07426,-39619731.34412,40674163.60526,   0.00007,  -0.00018,   0.00053,81188424.00000,   0.00000,274640576.00000,   0.00000,   0.00000,   0.00000,-393452160.00000,   0.00000
-569281.24737,-38495190.55498,40780728.56782,   0.00007,  -0.00017,   0.00053,80998200.00000,   0.00000,274640576.00000,   0.00000,   0.00000,   0.00000,-393642368.00000,   0.00000
-123391.00928,-37342606.35464,40881684.84814,   0.00007,  -0.00017,   0.00053,80987352.00000,   0.00000,274640576.00000,   0.00000,   0.00000,   0.00000,-393653216.00000,   0.00000
311281.86433,-36178804.78981,40988249.81071,   0.00007,  -0.00017,   0.00053,80907584.00000,   0.00000,274640576.00000,   0.00000,   0.00000,   0.00000,-393732992.00000,   0.00000
773998.14913,-34986959.81379,41083597.40879,   0.00007,  -0.00016,   0.00053,80668352.00000,   0.00000,274640576.00000,   0.00000,   0.00000,   0.00000,-393972224.00000,   0.00000
1217084.04610,-33803527.86113,41184553.68911,   0.00007,  -0.00016,   0.00054,80399440.00000,   0.00000,274640576.00000,   0.00000,   0.00000,   0.00000,-394241136.00000,   0.00000
1660169.94307,-32620095.90847,41279901.28719,   0.00007,  -0.00015,   0.00054,80125672.00000,   0.00000,274640576.00000,   0.00000,   0.00000,   0.00000,-394514912.00000,   0.00000
2111668.86340,-31417033.56796,41369640.20303,   0.00007,  -0.00015,   0.00054,79851496.00000,   0.00000,274640576.00000,   0.00000,   0.00000,   0.00000,-394789088.00000,   0.00000
2571580.80709,-30194340.83962,41464987.80112,   0.00007,  -0.00014,   0.00054,79601568.00000,   0.00000,274640576.00000,   0.00000,   0.00000,   0.00000,-395039008.00000,   0.00000
3031492.75078,-28971648.11128,41549118.03472,   0.00007,  -0.00014,   0.00054,79365096.00000,   0.00000,274640576.00000,   0.00000,   0.00000,   0.00000,-395275488.00000,   0.00000
3480187.32999,-27737738.01845,41633248.26832,   0.00007,  -0.00013,   0.00054,79166536.00000,   0.00000,274640576.00000,   0.00000,   0.00000,   0.00000,-395474048.00000,   0.00000
3956925.32040,-26475784.51443,41717378.50192,   0.00007,  -0.00013,   0.00054,79025088.00000,   0.00000,274640576.00000,   0.00000,   0.00000,   0.00000,-395615488.00000,   0.00000
4414032.92296,-25222244.03376,41801508.73552,   0.00007,  -0.00012,   0.00054,78928688.00000,   0.00000,274640576.00000,   0.00000,   0.00000,   0.00000,-395711888.00000,   0.00000
4879553.54889,-23949073.16526,41874421.60464,   0.00007,  -0.00012,   0.00054,78803632.00000,   0.00000,274640576.00000,   0.00000,   0.00000,   0.00000,-395836944.00000,   0.00000
5345074.17482,-22675902.29676,41952943.15601,   0.00007,  -0.00011,   0.00055,78635520.00000,   0.00000,274640576.00000,   0.00000,   0.00000,   0.00000,-396005056.00000,   0.00000
5819007.82411,-21383101.04041,42025856.02513,   0.00007,  -0.00011,   0.00055,78418168.00000,   0.00000,274640576.00000,   0.00000,   0.00000,   0.00000,-396222400.00000,   0.00000
6292941.47340,-20090299.78407,42093160.21201,   0.00007,  -0.00010,   0.00055,78192912.00000,   0.00000,274640576.00000,   0.00000,   0.00000,   0.00000,-396447664.00000,   0.00000
6783701.16941,-18758237.75204,42160464.39889,   0.00007,  -0.00010,   0.00055,77977824.00000,   0.00000,274640576.00000,   0.00000,   0.00000,   0.00000,-396662752.00000,   0.00000
7246417.45422,-17454219.13122,42227768.58577,   0.00007,  -0.00009,   0.00055,77788968.00000,   0.00000,274640576.00000,   0.00000,   0.00000,   0.00000,-396851616.00000,   0.00000
7725959.78575,-16110939.73471,42289464.09041,   0.00007,  -0.00009,   0.00055,77604048.00000,   0.00000,274640576.00000,   0.00000,   0.00000,   0.00000,-397036528.00000,   0.00000
8225132.50512,-14759247.31484,42345550.91281,   0.00007,  -0.00008,   0.00055,77432240.00000,   0.00000,274640576.00000,   0.00000,   0.00000,   0.00000,-397208336.00000,   0.00000
8704674.83665,-13415967.91834,42401637.73521,   0.00007,  -0.00008,   0.00055,77279496.00000,   0.00000,274640576.00000,   0.00000,   0.00000,   0.00000,-397361088.00000,   0.00000
9192630.19154,-12053058.13399,42457724.55762,   0.00007,  -0.00007,   0.00055,77144096.00000,   0.00000,274640576.00000,   0.00000,   0.00000,   0.00000,-397496480.00000,   0.00000
9688998.56979,-10670517.96180,42508202.69778,   0.00006,  -0.00007,   0.00055,77017880.00000,   0.00000,274640576.00000,   0.00000,   0.00000,   0.00000,-397622688.00000,   0.00000
10165736.56020,-9296390.81298,42553072.15570,   0.00006,  -0.00006,   0.00055,76902512.00000,   0.00000,274640576.00000,   0.00000,   0.00000,   0.00000,-397738064.00000,   0.00000
10670517.96180,-7894220.25295,42597941.61362,   0.00006,  -0.00006,   0.00055,76809984.00000,   0.00000,274640576.00000,   0.00000,   0.00000,   0.00000,-397830592.00000,   0.00000
11164081.99893,-6480832.32844,42642811.07154,   0.00006,  -0.00005,   0.00055,76737696.00000,   0.00000,274640576.00000,   0.00000,   0.00000,   0.00000,-397902880.00000,   0.00000
11677276.42390,-5059031.38058,42682071.84722,   0.00006,  -0.00005,   0.00055,76683760.00000,   0.00000,274640576.00000,   0.00000,   0.00000,   0.00000,-397956816.00000,   0.00000
12179253.48439,-3626013.06823,42715723.94066,   0.00006,  -0.00004,   0.00056,76643136.00000,   0.00000,274640576.00000,   0.00000,   0.00000,   0.00000,-397997440.00000,   0.00000
12681230.54488,-2192994.75588,42749376.03410,   0.00006,  -0.00003,   0.00056,76630216.00000,   0.00000,274640576.00000,   0.00000,   0.00000,   0.00000,-398010368.00000,   0.00000
13191620.62873,-740346.05569,42783028.12754,   0.00006,  -0.00003,   0.00056,76646280.00000,   0.00000,274640576.00000,   0.00000,   0.00000,   0.00000,-397994304.00000,   0.00000
13690793.34810,723520.00897,42811071.53874,   0.00006,  -0.00002,   0.00056,76681312.00000,   0.00000,274640576.00000,   0.00000,   0.00000,   0.00000,-397959264.00000,   0.00000
14209596.45531,2195799.09700,42833506.26770,   0.00006,  -0.00002,   0.00056,76746360.00000,   0.00000,274640576.00000,   0.00000,   0.00000,   0.00000,-397894208.00000,   0.00000
14736812.58588,3687708.57287,42855940.99666,   0.00006,  -0.00001,   0.00056,76852984.00000,   0.00000,274640576.00000,   0.00000,   0.00000,   0.00000,-397787584.00000,   0.00000
15244398.32861,5171205.02538,42872767.04338,   0.00006,  -0.00001,   0.00056,76990720.00000,   0.00000,274640576.00000,   0.00000,   0.00000,   0.00000,-397649856.00000,   0.00000
15760397.09470,6674331.86573,42889593.09010,   0.00006,  -0.00000,   0.00056,77175888.00000,   0.00000,274640576.00000,   0.00000,   0.00000,   0.00000,-397464688.00000,   0.00000
16284808.88415,8197089.09392,42900810.45458,   0.00006,   0.00001,   0.00056,77390016.00000,   0.00000,274640576.00000,   0.00000,   0.00000,   0.00000,-397250560.00000,   0.00000
16809220.67360,9719846.32211,42906419.13682,   0.00006,   0.00001,   0.00056,77605792.00000,   0.00000,274640576.00000,   0.00000,   0.00000,   0.00000,-397034784.00000,   0.00000
17342045.48641,11262233.93814,42917636.50130,   0.00006,   0.00002,   0.00056,77819736.00000,   0.00000,274640576.00000,   0.00000,   0.00000,   0.00000,-396820832.00000,   0.00000
17855239.91138,12796208.53081,42917636.50130,   0.00006,   0.00002,   0.00056,77995360.00000,   0.00000,274640576.00000,   0.00000,   0.00000,   0.00000,-396645216.00000,   0.00000
18396477.74755,14358226.53468,42917636.50130,   0.00006,   0.00003,   0.00056,78185832.00000,   0.00000,274640576.00000,   0.00000,   0.00000,   0.00000,-396454752.00000,   0.00000
18926498.21924,15931461.90303,42912027.81906,   0.00006,   0.00004,   0.00056,78393920.00000,   0.00000,274640576.00000,   0.00000,   0.00000,   0.00000,-396246656.00000,   0.00000
19456518.69093,17504697.27138,42906419.13682,   0.00005,   0.00004,   0.00056,78633680.00000,   0.00000,274640576.00000,   0.00000,   0.00000,   0.00000,-396006896.00000,   0.00000
19994952.18598,19097563.02757,42895201.77234,   0.00005,   0.00005,   0.00056,78888400.00000,   0.00000,274640576.00000,   0.00000,   0.00000,   0.00000,-395752176.00000,   0.00000
20533385.68103,20690428.78376,42883984.40786,   0.00005,   0.00005,   0.00056,79146432.00000,   0.00000,274640576.00000,   0.00000,   0.00000,   0.00000,-395494144.00000,   0.00000
21080232.19944,22302924.92779,42867158.36114,   0.00005,   0.00006,   0.00056,79384824.00000,   0.00000,274640576.00000,   0.00000,   0.00000,   0.00000,-395255744.00000,   0.00000
21635491.74122,23935051.45966,42850332.31442,   0.00005,   0.00007,   0.00056,79604520.00000,   0.00000,274640576.00000,   0.00000,   0.00000,   0.00000,-395036064.00000,   0.00000
22171120.89515,25558764.96817,42827897.58546,   0.00005,   0.00007,   0.00056,79798088.00000,   0.00000,274640576.00000,   0.00000,   0.00000,   0.00000,-394842496.00000,   0.00000
22715163.07244,27202108.86452,42799854.17426,   0.00005,   0.00008,   0.00056,80001280.00000,   0.00000,274640576.00000,   0.00000,   0.00000,   0.00000,-394639296.00000,   0.00000
23287248.66093,28873496.17207,42771810.76306,   0.00005,   0.00009,   0.00056,80258408.00000,   0.00000,274640576.00000,   0.00000,   0.00000,   0.00000,-394382176.00000,   0.00000
23839703.86158,30536470.45627,42738158.66962,   0.00005,   0.00009,   0.00056,80562952.00000,   0.00000,274640576.00000,   0.00000,   0.00000,   0.00000,-394077632.00000,   0.00000
24380941.69775,32210662.10494,42698897.89394,   0.00005,   0.00010,   0.00056,80921576.00000,   0.00000,274640576.00000,   0.00000,   0.00000,   0.00000,-393719008.00000,   0.00000
24941809.92176,33893266.77697,42659637.11826,   0.00005,   0.00011,   0.00055,81340216.00000,   0.00000,274640576.00000,   0.00000,   0.00000,   0.00000,-393300352.00000,   0.00000
25511091.16913,35595501.83684,42620376.34258,   0.00005,   0.00011,   0.00055,81809960.00000,   0.00000,274640576.00000,   0.00000,   0.00000,   0.00000,-392830624.00000,   0.00000
26069155.05202,37308954.26120,42569898.20242,   0.00005,   0.00012,   0.00055,82298584.00000,   0.00000,274640576.00000,   0.00000,   0.00000,   0.00000,-392341984.00000,   0.00000
26627218.93491,39022406.68555,42519420.06226,   0.00005,   0.00013,   0.00055,82810032.00000,   0.00000,274640576.00000,   0.00000,   0.00000,   0.00000,-391830544.00000,   0.00000
27213326.22900,40763902.52110,42468941.92210,   0.00004,   0.00013,   0.00055,83344016.00000,   0.00000,274640576.00000,   0.00000,   0.00000,   0.00000,-391296560.00000,   0.00000
27779803.13525,42496985.33330,42412855.09969,   0.00004,   0.00014,   0.00055,83870032.00000,   0.00000,274640576.00000,   0.00000,   0.00000,   0.00000,-390770544.00000,   0.00000
28335062.67702,44241285.50997,42351159.59505,   0.00004,   0.00015,   0.00055,84392200.00000,   0.00000,274640576.00000,   0.00000,   0.00000,   0.00000,-390248384.00000,   0.00000
28909952.60664,45993998.71000,42289464.09041,   0.00004,   0.00015,   0.00055,84922160.00000,   0.00000,274640576.00000,   0.00000,   0.00000,   0.00000,-389718416.00000,   0.00000
29501668.58297,47785972.68572,42222159.90353,   0.00004,   0.00016,   0.00055,85467200.00000,   0.00000,274640576.00000,   0.00000,   0.00000,   0.00000,-389173376.00000,   0.00000
30065341.14810,49549903.25023,42149247.03441,   0.00004,   0.00017,   0.00055,86007912.00000,   0.00000,274640576.00000,   0.00000,   0.00000,   0.00000,-388632672.00000,   0.00000
30645839.75995,51353094.59043,42076334.16529,   0.00004,   0.00017,   0.00055,86585952.00000,   0.00000,274640576.00000,   0.00000,   0.00000,   0.00000,-388054624.00000,   0.00000
31226338.37180,53156285.93062,41997812.61393,   0.00004,   0.00018,   0.00055,87183920.00000,   0.00000,274640576.00000,   0.00000,   0.00000,   0.00000,-387456656.00000,   0.00000
31806836.98365,54959477.27082,41919291.06256,   0.00004,   0.00019,   0.00054,87814272.00000,   0.00000,274640576.00000,   0.00000,   0.00000,   0.00000,-386826304.00000,   0.00000
32395748.61886,56782298.99885,41835160.82896,   0.00004,   0.00020,   0.00054,88480336.00000,   0.00000,274640576.00000,   0.00000,   0.00000,   0.00000,-386160240.00000,   0.00000
32973442.88959,58616338.09137,41745421.91312,   0.00004,   0.00020,   0.00054,89180152.00000,   0.00000,274640576.00000,   0.00000,   0.00000,   0.00000,-385460416.00000,   0.00000
33579180.57152,60478420.59508,41650074.31504,   0.00003,   0.00021,   0.00054,89924664.00000,   0.00000,274640576.00000,   0.00000,   0.00000,   0.00000,-384715904.00000,   0.00000
34165287.86562,62332090.07544,41554726.71696,   0.00003,   0.00022,   0.00054,90703112.00000,   0.00000,274640576.00000,   0.00000,   0.00000,   0.00000,-383937472.00000,   0.00000
34751395.15971,64185759.55579,41459379.11888,   0.00003,   0.00022,   0.00054,91518696.00000,   0.00000,274640576.00000,   0.00000,   0.00000,   0.00000,-383121888.00000,   0.00000
35345915.47716,66059059.42399,41352814.15631,   0.00003,   0.00023,   0.00054,92364392.00000,   0.00000,274640576.00000,   0.00000,   0.00000,   0.00000,-382276192.00000,   0.00000
35948848.81797,67951989.68002,41246249.19375,   0.00003,   0.00024,   0.00054,93254088.00000,   0.00000,274640576.00000,   0.00000,   0.00000,   0.00000,-381386496.00000,   0.00000
36551782.15878,69844919.93606,41139684.23119,   0.00003,   0.00025,   0.00053,94174280.00000,   0.00000,274640576.00000,   0.00000,   0.00000,   0.00000,-380466304.00000,   0.00000
37143498.13511,71749067.55658,41027510.58639,   0.00003,   0.00025,   0.00053,95120856.00000,   0.00000,274640576.00000,   0.00000,   0.00000,   0.00000,-379519712.00000,   0.00000
37743627.13480,73672845.56493,40909728.25935,   0.00003,   0.00026,   0.00053,96096264.00000,   0.00000,274640576.00000,   0.00000,   0.00000,   0.00000,-378544320.00000,   0.00000
38363386.52234,75605036.59665,40786337.25006,   0.00003,   0.00027,   0.00053,97091272.00000,   0.00000,274640576.00000,   0.00000,   0.00000,   0.00000,-377549312.00000,   0.00000
38971928.54539,77548444.99285,40662946.24078,   0.00003,   0.00028,   0.00053,98112464.00000,   0.00000,274640576.00000,   0.00000,   0.00000,   0.00000,-376528112.00000,   0.00000
39560840.18060,79483440.36569,40533946.54926,   0.00003,   0.00028,   0.00053,99138832.00000,   0.00000,274640576.00000,   0.00000,   0.00000,   0.00000,-375501744.00000,   0.00000
40177795.22701,81446479.14972,40399338.17550,   0.00002,   0.00029,   0.00053,100191424.00000,   0.00000,274640576.00000,   0.00000,   0.00000,   0.00000,-374449152.00000,   0.00000
40794750.27342,83409517.93376,40264729.80173,   0.00002,   0.00030,   0.00052,101258952.00000,   0.00000,274640576.00000,   0.00000,   0.00000,   0.00000,-373381632.00000,   0.00000
41400487.95535,85383774.08228,40124512.74573,   0.00002,   0.00031,   0.00052,102341552.00000,   0.00000,274640576.00000,   0.00000,   0.00000,   0.00000,-372299024.00000,   0.00000
42014638.66065,87377660.61864,39984295.68973,   0.00002,   0.00032,   0.00052,103451576.00000,   0.00000,274640576.00000,   0.00000,   0.00000,   0.00000,-371188992.00000,   0.00000
42628789.36594,89371547.15500,39838469.95148,   0.00002,   0.00032,   0.00052,104570056.00000,   0.00000,274640576.00000,   0.00000,   0.00000,   0.00000,-370070528.00000,   0.00000
43251353.09459,91385064.07919,39687035.53100,   0.00002,   0.00033,   0.00052,105710568.00000,   0.00000,274640576.00000,   0.00000,   0.00000,   0.00000,-368930016.00000,   0.00000
43854286.43540,93390167.98003,39529992.42828,   0.00002,   0.00034,   0.00051,106855640.00000,   0.00000,274640576.00000,   0.00000,   0.00000,   0.00000,-367784928.00000,   0.00000
44485263.18741,95423315.29207,39372949.32556,   0.00002,   0.00035,   0.00051,108035760.00000,   0.00000,274640576.00000,   0.00000,   0.00000,   0.00000,-366604816.00000,   0.00000
45096609.55159,97448049.58075,39210297.54059,   0.00002,   0.00036,   0.00051,109221624.00000,   0.00000,274640576.00000,   0.00000,   0.00000,   0.00000,-365418944.00000,   0.00000
45724781.96248,99512044.64511,39047645.75563,   0.00001,   0.00036,   0.00051,110451408.00000,   0.00000,274640576.00000,   0.00000,   0.00000,   0.00000,-364189168.00000,   0.00000
46344541.35001,101556409.32163,38873776.60619,   0.00001,   0.00037,   0.00051,111673280.00000,   0.00000,274640576.00000,   0.00000,   0.00000,   0.00000,-362967296.00000,   0.00000
46972713.76090,103620404.38599,38699907.45674,   0.00001,   0.00038,   0.00050,112926048.00000,   0.00000,274640576.00000,   0.00000,   0.00000,   0.00000,-361714528.00000,   0.00000
47609299.19515,105704029.83819,38526038.30730,   0.00001,   0.00039,   0.00050,114209456.00000,   0.00000,274640576.00000,   0.00000,   0.00000,   0.00000,-360431120.00000,   0.00000
48226254.24157,107779242.26703,38346560.47562,   0.00001,   0.00040,   0.00050,115498736.00000,   0.00000,274640576.00000,   0.00000,   0.00000,   0.00000,-359141840.00000,   0.00000
48871252.69918,109882498.10707,38161473.96169,   0.00001,   0.00040,   0.00050,116817672.00000,   0.00000,274640576.00000,   0.00000,   0.00000,   0.00000,-357822912.00000,   0.00000
49505033.79231,111996971.31159,37970778.76553,   0.00001,   0.00041,   0.00049,118155936.00000,   0.00000,274640576.00000,   0.00000,   0.00000,   0.00000,-356484640.00000,   0.00000
50138814.88544,114111444.51611,37780083.56937,   0.00001,   0.00042,   0.00049,119509504.00000,   0.00000,274640576.00000,   0.00000,   0.00000,   0.00000,-355131072.00000,   0.00000
50752965.59073,116217504.69727,37583779.69096,   0.00000,   0.00043,   0.00049,120867480.00000,   0.00000,274640576.00000,   0.00000,   0.00000,   0.00000,-353773088.00000,   0.00000
51403572.73059,118371238.67747,37381867.13032,   0.00000,   0.00044,   0.00049,122268024.00000,   0.00000,274640576.00000,   0.00000,   0.00000,   0.00000,-352372544.00000,   0.00000
52026136.45924,120496929.24647,37179954.56967,   0.00000,   0.00045,   0.00048,123662696.00000,   0.00000,274640576.00000,   0.00000,   0.00000,   0.00000,-350977888.00000,   0.00000
52676743.59909,122650663.22667,36972433.32679,   0.00000,   0.00046,   0.00048,125084040.00000,   0.00000,274640576.00000,   0.00000,   0.00000,   0.00000,-349556544.00000,   0.00000
53316133.37446,124815614.57136,36759303.40167,  -0.00000,   0.00046,   0.00048,126520392.00000,   0.00000,274640576.00000,   0.00000,   0.00000,   0.00000,-348120192.00000,   0.00000
53944305.78536,126991783.28052,36540564.79430,  -0.00000,   0.00047,   0.00048,127965848.00000,   0.00000,274640576.00000,   0.00000,   0.00000,   0.00000,-346674720.00000,   0.00000
54592108.58409,129176365.01304,36321826.18694,  -0.00000,   0.00048,   0.00047,129402480.00000,   0.00000,274640576.00000,   0.00000,   0.00000,   0.00000,-345238096.00000,   0.00000
55239911.38282,131360946.74556,36103087.57957,  -0.00000,   0.00049,   0.00047,130797976.00000,   0.00000,274640576.00000,   0.00000,   0.00000,   0.00000,-343842592.00000,   0.00000
55876496.81707,133556745.84256,35873131.60773,  -0.00001,   0.00050,   0.00047,132180104.00000,   0.00000,274640576.00000,   0.00000,   0.00000,   0.00000,-342460480.00000,   0.00000
56513082.25133,135752544.93957,35643175.63588,  -0.00001,   0.00051,   0.00046,133639336.00000,   0.00000,274640576.00000,   0.00000,   0.00000,   0.00000,-341001248.00000,   0.00000
57158080.70894,137967974.42441,35407610.98180,  -0.00001,   0.00052,   0.00046,135197440.00000,   0.00000,274640576.00000,   0.00000,   0.00000,   0.00000,-339443136.00000,   0.00000
57811492.18991,140203034.29709,35172046.32772,  -0.00001,   0.00053,   0.00046,136800032.00000,   0.00000,274640576.00000,   0.00000,   0.00000,   0.00000,-337840544.00000,   0.00000
58445273.28304,142429681.14641,34925264.30915,  -0.00001,   0.00053,   0.00045,138381600.00000,   0.00000,274640576.00000,   0.00000,   0.00000,   0.00000,-336258976.00000,   0.00000
59107097.78737,144684371.40694,34678482.29059,  -0.00001,   0.00054,   0.00045,139977360.00000,   0.00000,274640576.00000,   0.00000,   0.00000,   0.00000,-334663216.00000,   0.00000
59749291.90387,146930648.64410,34431700.27202,  -0.00001,   0.00055,   0.00045,141574304.00000,   0.00000,274640576.00000,   0.00000,   0.00000,   0.00000,-333066272.00000,   0.00000
60399899.04372,149196556.26910,34179309.57122,  -0.00002,   0.00056,   0.00044,143195584.00000,   0.00000,274640576.00000,   0.00000,   0.00000,   0.00000,-331444992.00000,   0.00000
61050506.18357,151462463.89411,33921310.18817,  -0.00002,   0.00057,   0.00044,144827968.00000,   0.00000,274640576.00000,   0.00000,   0.00000,   0.00000,-329812608.00000,   0.00000
61689895.95894,153739588.88359,33657702.12289,  -0.00002,   0.00058,   0.00044,146481472.00000,   0.00000,274640576.00000,   0.00000,   0.00000,   0.00000,-328159104.00000,   0.00000
62348916.12216,156025126.89644,33394094.05760,  -0.00002,   0.00059,   0.00043,148153936.00000,   0.00000,274640576.00000,   0.00000,   0.00000,   0.00000,-326486640.00000,   0.00000
62996718.92089,158321882.27376,33124877.31008,  -0.00002,   0.00060,   0.00043,149846000.00000,   0.00000,274640576.00000,   0.00000,   0.00000,   0.00000,-324794576.00000,   0.00000
63644521.71962,160618637.65108,32850051.88031,  -0.00002,   0.00061,   0.00043,151546688.00000,   0.00000,274640576.00000,   0.00000,   0.00000,   0.00000,-323093888.00000,   0.00000
64300737.54171,162935023.41625,32569617.76831,  -0.00003,   0.00062,   0.00042,153271248.00000,   0.00000,274640576.00000,   0.00000,   0.00000,   0.00000,-321369328.00000,   0.00000
64956953.36381,165251409.18141,32289183.65630,  -0.00003,   0.00063,   0.00042,155007104.00000,   0.00000,274640576.00000,   0.00000,   0.00000,   0.00000,-319633472.00000,   0.00000
65601951.82142,167579012.31106,32003140.86205,  -0.00003,   0.00063,   0.00042,156761072.00000,   0.00000,274640576.00000,   0.00000,   0.00000,   0.00000,-317879504.00000,   0.00000
66266580.66687,169915028.46406,31717098.06781,  -0.00003,   0.00064,   0.00041,158530592.00000,   0.00000,274640576.00000,   0.00000,   0.00000,   0.00000,-316109984.00000,   0.00000
66919992.14784,172262261.98155,31425446.59132,  -0.00003,   0.00065,   0.00041,160317872.00000,   0.00000,274640576.00000,   0.00000,   0.00000,   0.00000,-314322704.00000,   0.00000
67581816.65218,174629125.88687,31128186.43260,  -0.00003,   0.00066,   0.00040,162127792.00000,   0.00000,274640576.00000,   0.00000,   0.00000,   0.00000,-312512784.00000,   0.00000
68215597.74531,176967946.38100,30830926.27387,  -0.00003,   0.00067,   0.00040,163925968.00000,   0.00000,274640576.00000,   0.00000,   0.00000,   0.00000,-310714608.00000,   0.00000
68885835.27300,179354440.67416,30522448.75067,  -0.00004,   0.00068,   0.00040,165764272.00000,   0.00000,274640576.00000,   0.00000,   0.00000,   0.00000,-308876304.00000,   0.00000
69536442.41286,181732521.94397,30213971.22746,  -0.00004,   0.00069,   0.00039,167606432.00000,   0.00000,274640576.00000,   0.00000,   0.00000,   0.00000,-307034144.00000,   0.00000
70187049.55271,184110603.21377,29905493.70425,  -0.00004,   0.00070,   0.00039,169456880.00000,   0.00000,274640576.00000,   0.00000,   0.00000,   0.00000,-305183696.00000,   0.00000
70846069.71592,186508314.87142,29591407.49881,  -0.00004,   0.00071,   0.00038,171328896.00000,   0.00000,274640576.00000,   0.00000,   0.00000,   0.00000,-303311680.00000,   0.00000
71505089.87913,188906026.52907,29271712.61112,  -0.00004,   0.00072,   0.00038,173205696.00000,   0.00000,274640576.00000,   0.00000,   0.00000,   0.00000,-301434880.00000,   0.00000
72152892.67787,191314955.55119,28946409.04120,  -0.00004,   0.00073,   0.00038,175098624.00000,   0.00000,274640576.00000,   0.00000,   0.00000,   0.00000,-299541952.00000,   0.00000
72820325.86444,193732297.59668,28621105.47127,  -0.00005,   0.00074,   0.00037,177003888.00000,   0.00000,274640576.00000,   0.00000,   0.00000,   0.00000,-297636688.00000,   0.00000
73476541.68653,196160857.00665,28290193.21910,  -0.00005,   0.00075,   0.00037,178924992.00000,   0.00000,274640576.00000,   0.00000,   0.00000,   0.00000,-295715584.00000,   0.00000
74132757.50862,198589416.41661,27953672.28470,  -0.00005,   0.00076,   0.00036,180850640.00000,   0.00000,274640576.00000,   0.00000,   0.00000,   0.00000,-293789936.00000,   0.00000
74769342.94288,201009562.80322,27617151.35029,  -0.00005,   0.00077,   0.00036,182778384.00000,   0.00000,274640576.00000,   0.00000,   0.00000,   0.00000,-291862192.00000,   0.00000
75433971.78833,203457752.60103,27275021.73364,  -0.00005,   0.00078,   0.00035,184731520.00000,   0.00000,274640576.00000,   0.00000,   0.00000,   0.00000,-289909056.00000,   0.00000
76087383.26930,205917159.76331,26927283.43476,  -0.00006,   0.00079,   0.00035,186700640.00000,   0.00000,274640576.00000,   0.00000,   0.00000,   0.00000,-287939936.00000,   0.00000
76740794.75027,208376566.92560,26579545.13587,  -0.00006,   0.00080,   0.00035,188676384.00000,   0.00000,274640576.00000,   0.00000,   0.00000,   0.00000,-285964192.00000,   0.00000
77394206.23125,210835974.08789,26226198.15474,  -0.00006,   0.00081,   0.00034,190656192.00000,   0.00000,274640576.00000,   0.00000,   0.00000,   0.00000,-283984384.00000,   0.00000
78056030.73558,213315011.63802,25867242.49138,  -0.00006,   0.00082,   0.00034,192656416.00000,   0.00000,274640576.00000,   0.00000,   0.00000,   0.00000,-281984160.00000,   0.00000
78706637.87543,215805266.55262,25508286.82801,  -0.00006,   0.00083,   0.00033,194674544.00000,   0.00000,274640576.00000,   0.00000,   0.00000,   0.00000,-279966032.00000,   0.00000
79348831.99192,218275891.07939,25143722.48240,  -0.00006,   0.00084,   0.00033,196679760.00000,   0.00000,274640576.00000,   0.00000,   0.00000,   0.00000,-277960816.00000,   0.00000
80027482.54298,220794189.40520,24773549.45456,  -0.00007,   0.00085,   0.00032,198725728.00000,   0.00000,274640576.00000,   0.00000,   0.00000,   0.00000,-275914848.00000,   0.00000
80658459.29499,223276031.29645,24403376.42671,  -0.00007,   0.00086,   0.00032,200751024.00000,   0.00000,274640576.00000,   0.00000,   0.00000,   0.00000,-273889552.00000,   0.00000
81317479.45820,225785916.59890,24027594.71662,  -0.00007,   0.00087,   0.00031,202800416.00000,   0.00000,274640576.00000,   0.00000,   0.00000,   0.00000,-271840160.00000,   0.00000
81965282.25693,228307019.26582,23646204.32429,  -0.00007,   0.00088,   0.00031,204864528.00000,   0.00000,274640576.00000,   0.00000,   0.00000,   0.00000,-269776048.00000,   0.00000
82632715.44351,230836534.95611,23264813.93197,  -0.00007,   0.00089,   0.00030,206938224.00000,   0.00000,274640576.00000,   0.00000,   0.00000,   0.00000,-267702352.00000,   0.00000
83280518.24224,233357637.62304,22877814.85740,  -0.00008,   0.00090,   0.00030,209010976.00000,   0.00000,274640576.00000,   0.00000,   0.00000,   0.00000,-265629600.00000,   0.00000
83917103.67649,235889957.65445,22490815.78283,  -0.00008,   0.00091,   0.00029,211101376.00000,   0.00000,274640576.00000,   0.00000,   0.00000,   0.00000,-263539200.00000,   0.00000
84573319.49858,238430690.70922,22092599.34378,  -0.00008,   0.00092,   0.00029,213199248.00000,   0.00000,274640576.00000,   0.00000,   0.00000,   0.00000,-261441328.00000,   0.00000
85218317.95620,240982641.12847,21699991.58698,  -0.00008,   0.00093,   0.00028,215317472.00000,   0.00000,274640576.00000,   0.00000,   0.00000,   0.00000,-259323104.00000,   0.00000
85863316.41381,243534591.54772,21296166.46569,  -0.00008,   0.00094,   0.00028,217439152.00000,   0.00000,274640576.00000,   0.00000,   0.00000,   0.00000,-257201424.00000,   0.00000
86508314.87142,246086541.96696,20892341.34440,  -0.00009,   0.00095,   0.00027,219567648.00000,   0.00000,274640576.00000,   0.00000,   0.00000,   0.00000,-255072928.00000,   0.00000
87161726.35239,248658122.77405,20482907.54087,  -0.00009,   0.00096,   0.00027,221718960.00000,   0.00000,274640576.00000,   0.00000,   0.00000,   0.00000,-252921616.00000,   0.00000
87795507.44553,251221290.55778,20073473.73735,  -0.00009,   0.00097,   0.00026,223874064.00000,   0.00000,274640576.00000,   0.00000,   0.00000,   0.00000,-250766512.00000,   0.00000
88457331.94986,253812501.75271,19658431.25158,  -0.00009,   0.00098,   0.00026,226058112.00000,   0.00000,274640576.00000,   0.00000,   0.00000,   0.00000,-248582464.00000,   0.00000
89099526.06635,256395299.92428,19237780.08357,  -0.00009,   0.00099,   0.00025,228246800.00000,   0.00000,274640576.00000,   0.00000,   0.00000,   0.00000,-246393776.00000,   0.00000
89750133.20620,258997728.48369,18817128.91556,  -0.00010,   0.00100,   0.00024,230463728.00000,   0.00000,274640576.00000,   0.00000,   0.00000,   0.00000,-244176848.00000,   0.00000
90372696.93486,261572113.63190,18390869.06531,  -0.00010,   0.00101,   0.00024,232669680.00000,   0.00000,274640576.00000,   0.00000,   0.00000,   0.00000,-241970896.00000,   0.00000
91003673.68687,264166129.16795,17959000.53282,  -0.00010,   0.00102,   0.00023,234903168.00000,   0.00000,274640576.00000,   0.00000,   0.00000,   0.00000,-239737408.00000,   0.00000
91662693.85008,266788188.11520,17527132.00034,  -0.00010,   0.00104,   0.00023,237169440.00000,   0.00000,274640576.00000,   0.00000,   0.00000,   0.00000,-237471136.00000,   0.00000
92302083.62545,269401834.03909,17089654.78561,  -0.00011,   0.00105,   0.00022,239440336.00000,   0.00000,274640576.00000,   0.00000,   0.00000,   0.00000,-235200240.00000,   0.00000
92921843.01298,272007066.93962,16652177.57088,  -0.00011,   0.00106,   0.00022,241715968.00000,   0.00000,274640576.00000,   0.00000,   0.00000,   0.00000,-232924608.00000,   0.00000
93569645.81172,274640343.25135,16209091.67391,  -0.00011,   0.00107,   0.00021,244019216.00000,   0.00000,274640576.00000,   0.00000,   0.00000,   0.00000,-230621360.00000,   0.00000
94197818.22261,277265206.53972,15760397.09470,  -0.00011,   0.00108,   0.00020,246323152.00000,   0.00000,274640576.00000,   0.00000,   0.00000,   0.00000,-228317424.00000,   0.00000
94825990.63350,279890069.82809,15311702.51549,  -0.00011,   0.00109,   0.00020,248632256.00000,   0.00000,274640576.00000,   0.00000,   0.00000,   0.00000,-226008320.00000,   0.00000
95462576.06775,282534563.50430,14857399.25405,  -0.00012,   0.00110,   0.00019,250960624.00000,   0.00000,274640576.00000,   0.00000,   0.00000,   0.00000,-223679952.00000,   0.00000
96079531.11416,285170644.15716,14397487.31036,  -0.00012,   0.00111,   0.00019,253286720.00000,   0.00000,274640576.00000,   0.00000,   0.00000,   0.00000,-221353856.00000,   0.00000
96716116.54842,287815137.83337,13937575.36667,  -0.00012,   0.00112,   0.00018,255618096.00000,   0.00000,274640576.00000,   0.00000,   0.00000,   0.00000,-219022480.00000,   0.00000
97341484.61819,290470848.87406,13477663.42298,  -0.00012,   0.00113,   0.00018,257963888.00000,   0.00000,274640576.00000,   0.00000,   0.00000,   0.00000,-216676688.00000,   0.00000
97966852.68796,293126559.91475,13006534.11481,  -0.00013,   0.00114,   0.00017,260309408.00000,   0.00000,274640576.00000,   0.00000,   0.00000,   0.00000,-214331168.00000,   0.00000
98592220.75773,295782270.95544,12541013.48888,  -0.00013,   0.00115,   0.00016,262660368.00000,   0.00000,274640576.00000,   0.00000,   0.00000,   0.00000,-211980208.00000,   0.00000
99206371.46302,298449199.36061,12064275.49847,  -0.00013,   0.00116,   0.00016,265032384.00000,   0.00000,274640576.00000,   0.00000,   0.00000,   0.00000,-209608192.00000,   0.00000
99820522.16832,301116127.76578,11587537.50806,  -0.00013,   0.00118,   0.00015,267417424.00000,   0.00000,274640576.00000,   0.00000,   0.00000,   0.00000,-207223152.00000,   0.00000
100434672.87361,303783056.17095,11110799.51765,  -0.00014,   0.00119,   0.00014,269816512.00000,   0.00000,274640576.00000,   0.00000,   0.00000,   0.00000,-204824064.00000,   0.00000
101057236.60226,306469614.96396,10628452.84500,  -0.00014,   0.00120,   0.00014,272242304.00000,   0.00000,274640576.00000,   0.00000,   0.00000,   0.00000,-202398272.00000,   0.00000
101679800.33091,309156173.75698,10140497.49011,  -0.00014,   0.00121,   0.00013,274670656.00000,   0.00000,274640576.00000,   0.00000,   0.00000,   0.00000,-199969920.00000,   0.00000
102282733.67172,311834319.52663,9652542.13523,  -0.00014,   0.00122,   0.00013,277093312.00000,   0.00000,274640576.00000,   0.00000,   0.00000,   0.00000,-197547264.00000,   0.00000
102894080.03590,314532095.68412,9158978.09810,  -0.00015,   0.00123,   0.00012,279525568.00000,   0.00000,274640576.00000,   0.00000,   0.00000,   0.00000,-195115008.00000,   0.00000
103505426.40007,317229871.84161,8659805.37873,  -0.00015,   0.00124,   0.00011,281948800.00000,   0.00000,274640576.00000,   0.00000,   0.00000,   0.00000,-192691776.00000,   0.00000
104116772.76424,319927647.99910,8166241.34160,  -0.00015,   0.00125,   0.00011,284364352.00000,   0.00000,274640576.00000,   0.00000,   0.00000,   0.00000,-190276224.00000,   0.00000
104708488.74057,322617011.13323,7661459.93999,  -0.00015,   0.00126,   0.00010,286768448.00000,   0.00000,274640576.00000,   0.00000,   0.00000,   0.00000,-187872128.00000,   0.00000
105308617.74026,325326004.65521,7156678.53838,  -0.00016,   0.00127,   0.00009,289182176.00000,   0.00000,274640576.00000,   0.00000,   0.00000,   0.00000,-185458400.00000,   0.00000
105908746.73995,328034998.17718,6646288.45453,  -0.00016,   0.00129,   0.00009,291589088.00000,   0.00000,274640576.00000,   0.00000,   0.00000,   0.00000,-183051488.00000,   0.00000
106508875.73964,330743991.69915,6135898.37068,  -0.00016,   0.00130,   0.00008,293989696.00000,   0.00000,274640576.00000,   0.00000,   0.00000,   0.00000,-180650880.00000,   0.00000
107097787.37486,333464202.58560,5625508.28683,  -0.00016,   0.00131,   0.00007,296398400.00000,   0.00000,274640576.00000,   0.00000,   0.00000,   0.00000,-178242176.00000,   0.00000
107686699.01007,336184413.47205,5109509.52074,  -0.00017,   0.00132,   0.00007,298800928.00000,   0.00000,274640576.00000,   0.00000,   0.00000,   0.00000,-175839648.00000,   0.00000
108275610.64528,338904624.35851,4587902.07241,  -0.00017,   0.00133,   0.00006,301199488.00000,   0.00000,274640576.00000,   0.00000,   0.00000,   0.00000,-173441088.00000,   0.00000
108864522.28049,341624835.24496,4066294.62408,  -0.00017,   0.00134,   0.00005,303599296.00000,   0.00000,274640576.00000,   0.00000,   0.00000,   0.00000,-171041280.00000,   0.00000
109453433.91570,344345046.13141,3539078.49351,  -0.00017,   0.00135,   0.00005,306009600.00000,   0.00000,274640576.00000,   0.00000,   0.00000,   0.00000,-168630976.00000,   0.00000
110031128.18643,347076474.38234,3011862.36294,  -0.00018,   0.00136,   0.00004,308447104.00000,   0.00000,274640576.00000,   0.00000,   0.00000,   0.00000,-166193472.00000,   0.00000
110608822.45716,349807902.63328,2479037.55013,  -0.00018,   0.00138,   0.00003,310879168.00000,   0.00000,274640576.00000,   0.00000,   0.00000,   0.00000,-163761408.00000,   0.00000
111194929.75125,352558961.27205,1946212.73732,  -0.00018,   0.00139,   0.00003,313290048.00000,   0.00000,274640576.00000,   0.00000,   0.00000,   0.00000,-161350528.00000,   0.00000
111772624.02199,355290389.52298,1407779.24227,  -0.00018,   0.00140,   0.00002,315639328.00000,   0.00000,274640576.00000,   0.00000,   0.00000,   0.00000,-159001248.00000,   0.00000
112339100.92824,358033035.13839,869345.74722,  -0.00019,   0.00141,   0.00001,317978880.00000,   0.00000,274640576.00000,   0.00000,   0.00000,   0.00000,-156661696.00000,   0.00000
112905577.83449,360775680.75381,325303.56993,  -0.00019,   0.00142,   0.00000,320331072.00000,   0.00000,274640576.00000,   0.00000,   0.00000,   0.00000,-154309504.00000,   0.00000
113472054.74074,363518326.36922,-218738.60736,  -0.00019,   0.00143,  -0.00000,322723712.00000,   0.00000,274640576.00000,   0.00000,   0.00000,   0.00000,-151916864.00000,   0.00000
114038531.64699,366260971.98463,-768389.46689,  -0.00020,   0.00144,  -0.00001,325158944.00000,   0.00000,274640576.00000,   0.00000,   0.00000,   0.00000,-149481632.00000,   0.00000
114593791.18876,369014834.96452,-1318040.32643,  -0.00020,   0.00146,  -0.00002,327627424.00000,   0.00000,274640576.00000,   0.00000,   0.00000,   0.00000,-147013152.00000,   0.00000
115149050.73053,371768697.94442,-1867691.18596,  -0.00020,   0.00147,  -0.00002,330094752.00000,   0.00000,274640576.00000,   0.00000,   0.00000,   0.00000,-144545824.00000,   0.00000
115704310.27230,374522560.92431,-2422950.72773,  -0.00020,   0.00148,  -0.00003,332555712.00000,   0.00000,274640576.00000,   0.00000,   0.00000,   0.00000,-142084864.00000,   0.00000
116259569.81407,377276423.90420,-2983818.95174,  -0.00021,   0.00149,  -0.00004,335012928.00000,   0.00000,274640576.00000,   0.00000,   0.00000,   0.00000,-139627648.00000,   0.00000
116814829.35584,380030286.88410,-3544687.17575,  -0.00021,   0.00150,  -0.00005,337471008.00000,   0.00000,274640576.00000,   0.00000,   0.00000,   0.00000,-137169568.00000,   0.00000
117358871.53313,382795367.22847,-4105555.39976,  -0.00021,   0.00151,  -0.00005,339947008.00000,   0.00000,274640576.00000,   0.00000,   0.00000,   0.00000,-134693568.00000,   0.00000
117894500.68706,385540817.18500,-4672032.30601,  -0.00022,   0.00152,  -0.00006,342413664.00000,   0.00000,274640576.00000,   0.00000,   0.00000,   0.00000,-132226912.00000,   0.00000
118438542.86435,388305897.52938,-5244117.89450,  -0.00022,   0.00154,  -0.00007,344905408.00000,   0.00000,274640576.00000,   0.00000,   0.00000,   0.00000,-129735168.00000,   0.00000
118962954.65380,391062564.85039,-5810594.80075,  -0.00022,   0.00155,  -0.00008,347401888.00000,   0.00000,274640576.00000,   0.00000,   0.00000,   0.00000,-127238688.00000,   0.00000
119506996.83109,393827645.19476,-6382680.38924,  -0.00022,   0.00156,  -0.00008,349911104.00000,   0.00000,274640576.00000,   0.00000,   0.00000,   0.00000,-124729472.00000,   0.00000
120039821.64390,396603942.90361,-6960374.65997,  -0.00023,   0.00157,  -0.00009,352442912.00000,   0.00000,274640576.00000,   0.00000,   0.00000,   0.00000,-122197664.00000,   0.00000
120564233.43335,399360610.22463,-7538068.93070,  -0.00023,   0.00158,  -0.00010,354967040.00000,   0.00000,274640576.00000,   0.00000,   0.00000,   0.00000,-119673536.00000,   0.00000
121077427.85832,402128494.91012,-8115763.20144,  -0.00023,   0.00159,  -0.00011,357512800.00000,   0.00000,274640576.00000,   0.00000,   0.00000,   0.00000,-117127776.00000,   0.00000
121610252.67113,404904792.61897,-8699066.15441,  -0.00024,   0.00161,  -0.00011,360070720.00000,   0.00000,274640576.00000,   0.00000,   0.00000,   0.00000,-114569856.00000,   0.00000
122123447.09610,407672677.30447,-9282369.10738,  -0.00024,   0.00162,  -0.00012,362632864.00000,   0.00000,274640576.00000,   0.00000,   0.00000,   0.00000,-112007712.00000,   0.00000
122636641.52107,410440561.98996,-9871280.74259,  -0.00024,   0.00163,  -0.00013,365202752.00000,   0.00000,274640576.00000,   0.00000,   0.00000,   0.00000,-109437824.00000,   0.00000
123149835.94604,413208446.67545,-10460192.37780,  -0.00025,   0.00164,  -0.00014,367778720.00000,   0.00000,274640576.00000,   0.00000,   0.00000,   0.00000,-106861856.00000,   0.00000
123643399.98317,415967918.33759,-11049104.01301,  -0.00025,   0.00165,  -0.00014,370356832.00000,   0.00000,274640576.00000,   0.00000,   0.00000,   0.00000,-104283744.00000,   0.00000
124145377.04366,418747020.38756,-11643624.33046,  -0.00025,   0.00166,  -0.00015,372956960.00000,   0.00000,274640576.00000,   0.00000,   0.00000,   0.00000,-101683616.00000,   0.00000
124638941.08079,421506492.04969,-12238144.64791,  -0.00025,   0.00167,  -0.00016,375544224.00000,   0.00000,274640576.00000,   0.00000,   0.00000,   0.00000,-99096352.00000,   0.00000
125140918.14128,424285594.09967,-12838273.64761,  -0.00026,   0.00169,  -0.00017,378151936.00000,   0.00000,274640576.00000,   0.00000,   0.00000,   0.00000,-96488640.00000,   0.00000
125634482.17841,427045065.76180,-13438402.64730,  -0.00026,   0.00170,  -0.00017,380745216.00000,   0.00000,274640576.00000,   0.00000,   0.00000,   0.00000,-93895360.00000,   0.00000
126116828.85106,429815754.78841,-14038531.64699,  -0.00026,   0.00171,  -0.00018,383353472.00000,   0.00000,274640576.00000,   0.00000,   0.00000,   0.00000,-91287104.00000,   0.00000
126599175.52371,432586443.81503,-14638660.64668,  -0.00027,   0.00172,  -0.00019,385962944.00000,   0.00000,274640576.00000,   0.00000,   0.00000,   0.00000,-88677632.00000,   0.00000
127081522.19636,435357132.84164,-15244398.32861,  -0.00027,   0.00173,  -0.00020,388574176.00000,   0.00000,274640576.00000,   0.00000,   0.00000,   0.00000,-86066400.00000,   0.00000
127544238.48117,438119408.84489,-15850136.01054,  -0.00027,   0.00174,  -0.00021,391182528.00000,   0.00000,274640576.00000,   0.00000,   0.00000,   0.00000,-83458048.00000,   0.00000
128034998.17718,440909728.25935,-16461482.37472,  -0.00028,   0.00176,  -0.00021,393812768.00000,   0.00000,274640576.00000,   0.00000,   0.00000,   0.00000,-80827808.00000,   0.00000
128497714.46199,443672004.26260,-17072828.73889,  -0.00028,   0.00177,  -0.00022,396424000.00000,   0.00000,274640576.00000,   0.00000,   0.00000,   0.00000,-78216576.00000,   0.00000
128960430.74680,446434280.26585,-17684175.10306,  -0.00028,   0.00178,  -0.00023,399037120.00000,   0.00000,274640576.00000,   0.00000,   0.00000,   0.00000,-75603456.00000,   0.00000
129423147.03160,449196556.26910,-18295521.46723,  -0.00029,   0.00179,  -0.00024,401652256.00000,   0.00000,274640576.00000,   0.00000,   0.00000,   0.00000,-72988320.00000,   0.00000
129874645.95193,451970049.63684,-18912476.51364,  -0.00029,   0.00180,  -0.00025,404284320.00000,   0.00000,274640576.00000,   0.00000,   0.00000,   0.00000,-70356256.00000,   0.00000
130317731.84890,454723912.61673,-19529431.56005,  -0.00029,   0.00181,  -0.00025,406901440.00000,   0.00000,274640576.00000,   0.00000,   0.00000,   0.00000,-67739136.00000,   0.00000
130769230.76923,457497405.98446,-20151995.28871,  -0.00030,   0.00183,  -0.00026,409537824.00000,   0.00000,274640576.00000,   0.00000,   0.00000,   0.00000,-65102752.00000,   0.00000
131212316.66620,460251268.96436,-20768950.33512,  -0.00030,   0.00184,  -0.00027,412156768.00000,   0.00000,274640576.00000,   0.00000,   0.00000,   0.00000,-62483808.00000,   0.00000
131663815.58653,463024762.33209,-21391514.06377,  -0.00030,   0.00185,  -0.00028,414793984.00000,   0.00000,274640576.00000,   0.00000,   0.00000,   0.00000,-59846592.00000,   0.00000
132087271.09566,465770212.28862,-22014077.79242,  -0.00031,   0.00186,  -0.00029,417413344.00000,   0.00000,274640576.00000,   0.00000,   0.00000,   0.00000,-57227232.00000,   0.00000
132519139.62814,468535292.63300,-22642250.20331,  -0.00031,   0.00187,  -0.00029,420054272.00000,   0.00000,274640576.00000,   0.00000,   0.00000,   0.00000,-54586304.00000,   0.00000
132951008.16063,471300372.97737,-23270422.61421,  -0.00031,   0.00189,  -0.00030,422700192.00000,   0.00000,274640576.00000,   0.00000,   0.00000,   0.00000,-51940384.00000,   0.00000
133374463.66976,474045822.93390,-23898595.02510,  -0.00032,   0.00190,  -0.00031,425334848.00000,   0.00000,274640576.00000,   0.00000,   0.00000,   0.00000,-49305728.00000,   0.00000
133786701.81441,476802490.25491,-24526767.43599,  -0.00032,   0.00191,  -0.00032,427988224.00000,   0.00000,274640576.00000,   0.00000,   0.00000,   0.00000,-46652352.00000,   0.00000
134198939.95906,479559157.57593,-25154939.84688,  -0.00032,   0.00192,  -0.00033,430646496.00000,   0.00000,274640576.00000,   0.00000,   0.00000,   0.00000,-43994080.00000,   0.00000
134602765.08034,482296194.50910,-25788720.94002,  -0.00033,   0.00193,  -0.00034,433293280.00000,   0.00000,274640576.00000,   0.00000,   0.00000,   0.00000,-41347296.00000,   0.00000
135015003.22499,485052861.83011,-26422502.03315,  -0.00033,   0.00194,  -0.00034,435960096.00000,   0.00000,274640576.00000,   0.00000,   0.00000,   0.00000,-38680480.00000,   0.00000
135427241.36964,487809529.15113,-27056283.12628,  -0.00034,   0.00196,  -0.00035,438628736.00000,   0.00000,274640576.00000,   0.00000,   0.00000,   0.00000,-36011840.00000,   0.00000
135811436.10309,490538153.06094,-27690064.21941,  -0.00034,   0.00197,  -0.00036,441277792.00000,   0.00000,274640576.00000,   0.00000,   0.00000,   0.00000,-33362784.00000,   0.00000
136204043.85990,493286407.35859,-28329453.99478,  -0.00034,   0.00198,  -0.00037,443944128.00000,   0.00000,274640576.00000,   0.00000,   0.00000,   0.00000,-30696448.00000,   0.00000
136588238.59334,496015031.26840,-28963235.08792,  -0.00035,   0.00199,  -0.00038,446591744.00000,   0.00000,274640576.00000,   0.00000,   0.00000,   0.00000,-28048832.00000,   0.00000
136980846.35015,498763285.56606,-29602624.86329,  -0.00035,   0.00200,  -0.00038,449256192.00000,   0.00000,274640576.00000,   0.00000,   0.00000,   0.00000,-25384384.00000,   0.00000
137345410.69576,501483496.45251,-30242014.63866,  -0.00035,   0.00201,  -0.00039,451900416.00000,   0.00000,274640576.00000,   0.00000,   0.00000,   0.00000,-22740160.00000,   0.00000
137718388.06472,504223337.72680,-30887013.09627,  -0.00036,   0.00203,  -0.00040,454562944.00000,   0.00000,274640576.00000,   0.00000,   0.00000,   0.00000,-20077632.00000,   0.00000
138082952.41033,506943548.61325,-31526402.87165,  -0.00036,   0.00204,  -0.00041,457208832.00000,   0.00000,274640576.00000,   0.00000,   0.00000,   0.00000,-17431744.00000,   0.00000
138447516.75594,509663759.49971,-32171401.32926,  -0.00036,   0.00205,  -0.00042,459857696.00000,   0.00000,274640576.00000,   0.00000,   0.00000,   0.00000,-14782880.00000,   0.00000
138812081.10155,512383970.38616,-32816399.78687,  -0.00037,   0.00206,  -0.00043,462509088.00000,   0.00000,274640576.00000,   0.00000,   0.00000,   0.00000,-12131488.00000,   0.00000
139165428.08267,515115398.63709,-33455789.56224,  -0.00037,   0.00207,  -0.00043,465175744.00000,   0.00000,274640576.00000,   0.00000,   0.00000,   0.00000,-9464832.00000,   0.00000
139510362.04044,517827196.50018,-34106396.70209,  -0.00037,   0.00208,  -0.00044,467830048.00000,   0.00000,274640576.00000,   0.00000,   0.00000,   0.00000,-6810528.00000,   0.00000
139855295.99821,520538994.36327,-34751395.15971,  -0.00038,   0.00210,  -0.00045,470483648.00000,   0.00000,274640576.00000,   0.00000,   0.00000,   0.00000,-4156928.00000,   0.00000
140200229.95597,523250792.22637,-35396393.61732,  -0.00038,   0.00211,  -0.00046,473134656.00000,   0.00000,274640576.00000,   0.00000,   0.00000,   0.00000,-1505920.00000,   0.00000
140392809.31883,524791427.12920,-35765504.06279,  -0.00038,   0.00211,  -0.00046,474640160.00000,   0.00000,274640576.00000,   0.00000,   0.00000,   0.00000,-416.00000,   0.00000
140321970.83849,524734271.23336,-35946446.59729,  -0.00039,   0.00212,  -0.00047,474640160.00000,   0.00000,274645376.00000,  -0.00000,   0.00001,  -0.00000,  32.00000,   2.00000
140145549.96320,524595786.81745,-36369959.18722,  -0.00039,   0.00213,  -0.00048,477287136.00000,   0.00001,274656640.00000,  -0.00000,   0.00002,  -0.00000,  32.00000,   2.00000
139968013.76056,524456774.67501,-36791149.18331,  -0.00039,   0.00214,  -0.00049,477301088.00000,   0.00002,274667904.00000,  -0.00001,   0.00003,  -0.00001,  64.00000,   2.00000
139783836.70397,524316407.54738,-37206110.67545,  -0.00040,   0.00215,  -0.00049,477297504.00000,   0.00004,274679104.00000,  -0.00001,   0.00004,  -0.00001, -64.00000,   2.00000
139602933.60123,524175848.75019,-37622979.07159,  -0.00040,   0.00217,  -0.00050,477329312.00000,   0.00005,274690400.00000,  -0.00001,   0.00005,  -0.00001,  32.00000,   2.00000
139395585.54918,524027343.63880,-38039574.98346,  -0.00041,   0.00218,  -0.00051,477324000.00000,   0.00006,274701568.00000,  -0.00002,   0.00006,  -0.00002, 160.00000,   2.00000
139205233.80872,523882993.84836,-38453877.35134,  -0.00041,   0.00219,  -0.00052,477341120.00000,   0.00007,274712800.00000,  -0.00002,   0.00008,  -0.00002,  32.00000,   2.00000
138993842.71253,523732465.99748,-38866472.86736,  -0.00041,   0.00220,  -0.00053,477351968.00000,   0.00008,274723968.00000,  -0.00002,   0.00009,  -0.00002,   0.00000,   2.00000
138780722.04810,523580920.58560,-39277068.36178,  -0.00042,   0.00221,  -0.00054,477365632.00000,   0.00009,274735168.00000,  -0.00003,   0.00010,  -0.00003, -32.00000,   2.00000
138566272.25313,523428541.53924,-39685636.67872,  -0.00042,   0.00222,  -0.00054,477379200.00000,   0.00010,274746368.00000,  -0.00003,   0.00011,  -0.00003, 224.00000,   2.00000
138326363.96463,523266445.41124,-40099378.38399,  -0.00042,   0.00224,  -0.00055,477374240.00000,   0.00011,274757472.00000,  -0.00003,   0.00012,  -0.00003, -64.00000,   2.00000
138091741.21271,523107251.48108,-40503965.69116,  -0.00043,   0.00225,  -0.00056,477402112.00000,   0.00012,274768672.00000,  -0.00004,   0.00014,  -0.00004,   0.00000,   2.00000
137871231.57180,522950812.75026,-40907607.07826,  -0.00043,   0.00226,  -0.00057,477401280.00000,   0.00013,274779776.00000,  -0.00004,   0.00015,  -0.00004,  64.00000,   2.00000
137632565.71368,522788523.89945,-41309221.81187,  -0.00044,   0.00227,  -0.00058,477410656.00000,   0.00014,274790912.00000,  -0.00004,   0.00016,  -0.00004,   0.00000,   2.00000
137376196.63645,522619276.11372,-41714201.64902,  -0.00044,   0.00228,  -0.00059,477421184.00000,   0.00015,274802016.00000,  -0.00005,   0.00017,  -0.00004,  32.00000,   2.00000
137141117.86747,522456646.31712,-42111005.44196,  -0.00044,   0.00229,  -0.00060,477434720.00000,   0.00016,274813152.00000,  -0.00005,   0.00018,  -0.00005,  64.00000,   2.00000
136889482.52182,522288728.09399,-42505621.56766,  -0.00045,   0.00230,  -0.00060,477443456.00000,   0.00017,274824288.00000,  -0.00005,   0.00019,  -0.00005,  64.00000,   2.00000
136654118.06703,522122738.26279,-42904516.17871,  -0.00045,   0.00232,  -0.00061,477443200.00000,   0.00018,274835360.00000,  -0.00006,   0.00021,  -0.00005,  96.00000,   2.00000
136403030.59567,521953198.30314,-43295715.90271,  -0.00046,   0.00233,  -0.00062,477450208.00000,   0.00019,274846432.00000,  -0.00006,   0.00022,  -0.00006,  96.00000,   2.00000
136136251.10819,521778694.78463,-43684677.72155,  -0.00046,   0.00234,  -0.00063,477458880.00000,   0.00020,274857504.00000,  -0.00006,   0.00023,  -0.00006,  64.00000,   2.00000
135891793.50223,521609984.55599,-44070861.19078,  -0.00046,   0.00235,  -0.00064,477473440.00000,   0.00021,274868576.00000,  -0.00007,   0.00024,  -0.00006,  64.00000,   2.00000
135650511.29885,521441582.54441,-44454562.17561,  -0.00047,   0.00236,  -0.00065,477485056.00000,   0.00022,274879680.00000,  -0.00007,   0.00025,  -0.00007,  96.00000,   2.00000
135387866.88215,521264596.26046,-44843196.67030,  -0.00047,   0.00237,  -0.00065,477478880.00000,   0.00023,274890720.00000,  -0.00007,   0.00027,  -0.00007, 160.00000,   2.00000
135133995.94349,521091757.26062,-45222268.68717,  -0.00048,   0.00238,  -0.00066,477505472.00000,   0.00024,274901824.00000,  -0.00008,   0.00028,  -0.00008, 224.00000,   2.00000
134877735.38824,520917176.79224,-45600663.60822,  -0.00048,   0.00240,  -0.00067,477500832.00000,   0.00025,274912864.00000,  -0.00008,   0.00029,  -0.00008, 128.00000,   2.00000
134618899.92570,520740896.80789,-45978448.01658,  -0.00048,   0.00241,  -0.00068,477496192.00000,   0.00026,274923872.00000,  -0.00008,   0.00030,  -0.00008,   0.00000,   2.00000
134349408.68348,520563560.34221,-46347104.94665,  -0.00049,   0.00242,  -0.00069,477519872.00000,   0.00027,274934912.00000,  -0.00008,   0.00031,  -0.00009, 160.00000,   2.00000
134095689.24276,520388096.04498,-46720406.29085,  -0.00049,   0.00243,  -0.00070,477519872.00000,   0.00028,274945920.00000,  -0.00009,   0.00032,  -0.00009,  64.00000,   2.00000
133825155.71284,520207523.11938,-47091803.45123,  -0.00050,   0.00244,  -0.00071,477529088.00000,   0.00029,274956896.00000,  -0.00009,   0.00033,  -0.00009, 160.00000,   2.00000
133557006.42979,520028990.11864,-47455641.83858,  -0.00050,   0.00245,  -0.00071,477539360.00000,   0.00030,274967904.00000,  -0.00009,   0.00035,  -0.00010,  32.00000,   2.00000
133290465.30032,519848925.40446,-47822787.08523,  -0.00051,   0.00246,  -0.00072,477553120.00000,   0.00031,274978912.00000,  -0.00010,   0.00036,  -0.00010,  96.00000,   2.00000
133020393.47993,519668661.73621,-48184257.38612,  -0.00051,   0.00247,  -0.00073,477547072.00000,   0.00032,274989856.00000,  -0.00010,   0.00037,  -0.00010,  64.00000,   2.00000
132751898.47653,519488677.64209,-48543722.23893,  -0.00051,   0.00249,  -0.00074,477559136.00000,   0.00033,275000800.00000,  -0.00010,   0.00038,  -0.00011,  96.00000,   2.00000
132465433.13714,519301461.66859,-48906881.06700,  -0.00052,   0.00250,  -0.00075,477570432.00000,   0.00034,275011744.00000,  -0.00011,   0.00039,  -0.00011,  32.00000,   2.00000
132175013.96035,519113968.10978,-49264497.10915,  -0.00052,   0.00251,  -0.00076,477564544.00000,   0.00035,275022624.00000,  -0.00011,   0.00040,  -0.00012,  64.00000,   2.00000
131910848.55703,518936264.58324,-49612653.70669,  -0.00053,   0.00252,  -0.00076,477593952.00000,   0.00036,275033568.00000,  -0.00011,   0.00042,  -0.00012,  32.00000,   2.00000
131622752.42715,518749170.08950,-49966488.18361,  -0.00053,   0.00253,  -0.00077,477588896.00000,   0.00037,275044448.00000,  -0.00012,   0.00043,  -0.00012, 256.00000,   2.00000
131311203.57659,518555960.84288,-50315193.05832,  -0.00053,   0.00254,  -0.00078,477580384.00000,   0.00038,275055264.00000,  -0.00012,   0.00044,  -0.00013, 192.00000,   2.00000
131025186.18505,518368795.22592,-50665237.98315,  -0.00054,   0.00255,  -0.00079,477613280.00000,   0.00039,275066176.00000,  -0.00012,   0.00045,  -0.00013, -32.00000,   2.00000
130734741.00504,518181292.77399,-51009932.83507,  -0.00054,   0.00256,  -0.00080,477607296.00000,   0.00040,275076992.00000,  -0.00013,   0.00046,  -0.00013,  96.00000,   2.00000
130420400.41397,517986022.33403,-51355013.01150,  -0.00055,   0.00258,  -0.00081,477600320.00000,   0.00041,275087712.00000,  -0.00013,   0.00047,  -0.00014,   0.00000,   2.00000
130112985.74453,517795094.05986,-51690997.59534,  -0.00055,   0.00259,  -0.00081,477626944.00000,   0.00042,275098528.00000,  -0.00013,   0.00048,  -0.00014,  96.00000,   2.00000
129800464.62138,517599794.77170,-52032460.06388,  -0.00056,   0.00260,  -0.00082,477624448.00000,   0.00043,275109280.00000,  -0.00014,   0.00050,  -0.00015,   0.00000,   2.00000
129489194.51140,517406638.24561,-52366761.67234,  -0.00056,   0.00261,  -0.00083,477634656.00000,   0.00044,275120032.00000,  -0.00014,   0.00051,  -0.00015,  64.00000,   2.00000
129173140.71402,517211144.29445,-52701214.38729,  -0.00056,   0.00262,  -0.00084,477630112.00000,   0.00045,275130720.00000,  -0.00014,   0.00052,  -0.00015,   0.00000,   2.00000
128863770.61157,517018107.67248,-53031941.96561,  -0.00057,   0.00263,  -0.00085,477658400.00000,   0.00046,275141472.00000,  -0.00015,   0.00053,  -0.00016, -64.00000,   2.00000
128543929.04374,516820404.72002,-53364804.91170,  -0.00057,   0.00264,  -0.00086,477637568.00000,   0.00047,275152096.00000,  -0.00015,   0.00054,  -0.00016, -32.00000,   2.00000
128211998.48433,516621546.51720,-53688877.70717,  -0.00058,   0.00265,  -0.00086,477661184.00000,   0.00048,275162752.00000,  -0.00015,   0.00055,  -0.00017,   0.00000,   2.00000
127875416.61303,516420357.70884,-54013160.71318,  -0.00058,   0.00266,  -0.00087,477656672.00000,   0.00049,275173376.00000,  -0.00016,   0.00056,  -0.00017, 128.00000,   2.00000
127559143.72145,516224925.53509,-54335367.51130,  -0.00059,   0.00267,  -0.00088,477670848.00000,   0.00050,275183968.00000,  -0.00016,   0.00057,  -0.00017, 128.00000,   2.00000
127219103.18239,516021575.36419,-54658125.83518,  -0.00059,   0.00268,  -0.00089,477663520.00000,   0.00051,275194528.00000,  -0.00016,   0.00058,  -0.00018, 128.00000,   2.00000
126880587.69908,515820212.23156,-54973747.69412,  -0.00060,   0.00270,  -0.00090,477673184.00000,   0.00052,275205056.00000,  -0.00017,   0.00060,  -0.00018,  32.00000,   2.00000
126524226.47572,515613511.44807,-55287957.13125,  -0.00060,   0.00271,  -0.00090,477681952.00000,   0.00053,275215584.00000,  -0.00017,   0.00061,  -0.00019, -32.00000,   2.00000
126188437.89591,515412764.19147,-55600109.31237,  -0.00060,   0.00272,  -0.00091,477695936.00000,   0.00054,275226144.00000,  -0.00017,   0.00062,  -0.00019, 160.00000,   2.00000
125842730.18021,515209173.72735,-55909224.01937,  -0.00061,   0.00273,  -0.00092,477672832.00000,   0.00054,275236544.00000,  -0.00018,   0.00063,  -0.00019, 160.00000,   2.00000
125485112.85672,515002604.56269,-56214885.95745,  -0.00061,   0.00274,  -0.00093,477697920.00000,   0.00055,275247008.00000,  -0.00018,   0.00064,  -0.00020, -96.00000,   2.00000
125142418.91681,514799691.16766,-56520577.92206,  -0.00062,   0.00275,  -0.00094,477695296.00000,   0.00056,275257440.00000,  -0.00018,   0.00065,  -0.00020, 160.00000,   2.00000
124782355.57654,514593115.34998,-56819494.20403,  -0.00062,   0.00276,  -0.00094,477702208.00000,   0.00057,275267840.00000,  -0.00019,   0.00066,  -0.00021, -64.00000,   2.00000
124423626.78418,514384791.56583,-57122037.37370,  -0.00063,   0.00277,  -0.00095,477715200.00000,   0.00058,275278240.00000,  -0.00019,   0.00067,  -0.00021,   0.00000,   2.00000
124061337.45224,514178446.66998,-57414278.94510,  -0.00063,   0.00278,  -0.00096,477706144.00000,   0.00059,275288576.00000,  -0.00019,   0.00068,  -0.00021, -96.00000,   2.00000
123694596.61324,513967801.77622,-57712258.64825,  -0.00063,   0.00279,  -0.00097,477702816.00000,   0.00060,275298848.00000,  -0.00020,   0.00069,  -0.00022,  32.00000,   2.00000
123335774.05622,513762035.47694,-58001097.42831,  -0.00064,   0.00280,  -0.00098,477728064.00000,   0.00061,275309184.00000,  -0.00020,   0.00070,  -0.00022,  32.00000,   2.00000
122967280.71821,513553786.49420,-58287186.72941,  -0.00064,   0.00281,  -0.00098,477704512.00000,   0.00062,275319392.00000,  -0.00020,   0.00072,  -0.00023,  96.00000,   2.00000
122606167.18836,513346178.25976,-58574806.40866,  -0.00065,   0.00282,  -0.00099,477733664.00000,   0.00063,275329664.00000,  -0.00021,   0.00073,  -0.00023, 160.00000,   2.00000
122222075.12262,513132581.93817,-58857875.40430,  -0.00065,   0.00283,  -0.00100,477723968.00000,   0.00064,275339872.00000,  -0.00021,   0.00074,  -0.00023,  64.00000,   2.00000
121853497.69894,512924982.50432,-59135842.93607,  -0.00066,   0.00284,  -0.00101,477718880.00000,   0.00065,275350016.00000,  -0.00021,   0.00075,  -0.00024, 288.00000,   2.00000
121467549.69516,512711584.99729,-59412473.67462,  -0.00066,   0.00285,  -0.00102,477727488.00000,   0.00066,275360128.00000,  -0.00021,   0.00076,  -0.00024,  96.00000,   2.00000
121102782.74342,512504704.15354,-59687217.00515,  -0.00067,   0.00286,  -0.00102,477740416.00000,   0.00067,275370304.00000,  -0.00022,   0.00077,  -0.00025, 128.00000,   2.00000
120714704.50926,512289460.09180,-59962815.82341,  -0.00067,   0.00287,  -0.00103,477732736.00000,   0.00068,275380352.00000,  -0.00022,   0.00078,  -0.00025, 160.00000,   2.00000
120328914.81304,512076885.39992,-60231528.19560,  -0.00068,   0.00288,  -0.00104,477741152.00000,   0.00069,275390432.00000,  -0.00022,   0.00079,  -0.00026,  64.00000,   2.00000
119945416.57662,511867042.31495,-60493399.41270,  -0.00068,   0.00290,  -0.00105,477749792.00000,   0.00070,275400512.00000,  -0.00023,   0.00080,  -0.00026, 160.00000,   2.00000
119551810.63562,511651942.32719,-60758096.08341,  -0.00068,   0.00291,  -0.00105,477728256.00000,   0.00070,275410432.00000,  -0.00023,   0.00081,  -0.00026,   0.00000,   2.00000
119166264.58287,511440268.00952,-61019113.03845,  -0.00069,   0.00292,  -0.00106,477754816.00000,   0.00071,275420448.00000,  -0.00023,   0.00082,  -0.00027, 160.00000,   2.00000
118776932.23683,511228451.93539,-61275539.77834,  -0.00069,   0.00293,  -0.00107,477747200.00000,   0.00072,275430400.00000,  -0.00024,   0.00083,  -0.00027,  64.00000,   2.00000
118383492.76889,511014240.27049,-61532707.82750,  -0.00070,   0.00294,  -0.00108,477741664.00000,   0.00073,275440256.00000,  -0.00024,   0.00084,  -0.00028,  96.00000,   2.00000
117992312.71787,510802620.41123,-61783123.47872,  -0.00070,   0.00295,  -0.00108,477750016.00000,   0.00074,275450144.00000,  -0.00024,   0.00085,  -0.00028,  32.00000,   2.00000
117603084.97231,510591466.66913,-62032129.33106,  -0.00071,   0.00296,  -0.00109,477760448.00000,   0.00075,275460000.00000,  -0.00025,   0.00086,  -0.00028,-128.00000,   2.00000
117210006.39662,510380369.72475,-62276716.61724,  -0.00071,   0.00297,  -0.00110,477752608.00000,   0.00076,275469824.00000,  -0.00025,   0.00087,  -0.00029, -32.00000,   2.00000
116799638.26457,510163803.22097,-62520265.78738,  -0.00072,   0.00298,  -0.00111,477760736.00000,   0.00077,275479616.00000,  -0.00025,   0.00088,  -0.00029,  96.00000,   2.00000
116404618.13448,509952915.88365,-62759096.24583,  -0.00072,   0.00299,  -0.00111,477755360.00000,   0.00078,275489344.00000,  -0.00026,   0.00089,  -0.00030,  96.00000,   2.00000
115992257.08891,509736409.24510,-62996923.36369,  -0.00073,   0.00300,  -0.00112,477763584.00000,   0.00079,275499072.00000,  -0.00026,   0.00090,  -0.00030,  64.00000,   2.00000
115595231.05115,509525916.57297,-63230149.74998,  -0.00073,   0.00301,  -0.00113,477757760.00000,   0.00080,275508736.00000,  -0.00026,   0.00091,  -0.00031,  64.00000,   2.00000
115193889.95271,509313024.80290,-63464404.69800,  -0.00073,   0.00302,  -0.00113,477752064.00000,   0.00080,275518336.00000,  -0.00027,   0.00092,  -0.00031,  96.00000,   2.00000
114775433.11846,509096624.88893,-63692433.90181,  -0.00074,   0.00302,  -0.00114,477757984.00000,   0.00081,275527936.00000,  -0.00027,   0.00093,  -0.00031, -32.00000,   2.00000
114359199.04688,508883120.07182,-63914007.84749,  -0.00074,   0.00303,  -0.00115,477766112.00000,   0.00082,275537504.00000,  -0.00027,   0.00094,  -0.00032,  96.00000,   2.00000
113957550.21991,508670759.52668,-64141644.68731,  -0.00075,   0.00304,  -0.00116,477764672.00000,   0.00083,275547040.00000,  -0.00027,   0.00095,  -0.00032,  96.00000,   2.00000
113539040.84440,508457445.30679,-64357907.47668,  -0.00075,   0.00305,  -0.00116,477768256.00000,   0.00084,275556544.00000,  -0.00028,   0.00096,  -0.00033, -96.00000,   2.00000
113135386.26945,508247825.82423,-64575072.46860,  -0.00076,   0.00306,  -0.00117,477764608.00000,   0.00085,275566016.00000,  -0.00028,   0.00097,  -0.00033,   0.00000,   2.00000
112707906.22763,508029270.67070,-64793736.75059,  -0.00076,   0.00307,  -0.00118,477756672.00000,   0.00086,275575392.00000,  -0.00028,   0.00098,  -0.00033, -32.00000,   2.00000
112282550.52157,507813568.11766,-65006066.78119,  -0.00077,   0.00308,  -0.00118,477764384.00000,   0.00087,275584768.00000,  -0.00029,   0.00099,  -0.00034,   0.00000,   2.00000
111878587.39424,507607048.60130,-65211820.17063,  -0.00077,   0.00309,  -0.00119,477774336.00000,   0.00087,275594144.00000,  -0.00029,   0.00100,  -0.00034,  96.00000,   2.00000
111450963.62262,507393788.70381,-65413921.62223,  -0.00078,   0.00310,  -0.00120,477764224.00000,   0.00088,275603456.00000,  -0.00029,   0.00101,  -0.00035,   0.00000,   2.00000
111018481.54726,507175703.93303,-65622665.06073,  -0.00078,   0.00311,  -0.00120,477760576.00000,   0.00089,275612704.00000,  -0.00030,   0.00102,  -0.00035,  32.00000,   2.00000
110607593.45688,506968826.89372,-65819596.18102,  -0.00078,   0.00312,  -0.00121,477768064.00000,   0.00090,275621920.00000,  -0.00030,   0.00103,  -0.00036,  32.00000,   2.00000
110172694.83725,506753111.07654,-66018275.47606,  -0.00079,   0.00313,  -0.00122,477759872.00000,   0.00091,275631072.00000,  -0.00030,   0.00104,  -0.00036,   0.00000,   2.00000
109739798.04201,506540202.25294,-66210799.53386,  -0.00079,   0.00314,  -0.00122,477767648.00000,   0.00092,275640256.00000,  -0.00031,   0.00105,  -0.00036,  32.00000,   2.00000
109321478.83787,506330786.44047,-66404496.01995,  -0.00080,   0.00315,  -0.00123,477763584.00000,   0.00093,275649344.00000,  -0.00031,   0.00106,  -0.00037, 160.00000,   2.00000
108885751.72564,506117891.85020,-66592390.96782,  -0.00080,   0.00316,  -0.00124,477768992.00000,   0.00093,275658432.00000,  -0.00031,   0.00107,  -0.00037,   0.00000,   2.00000
108445535.22371,505904606.14386,-66776580.35772,  -0.00081,   0.00317,  -0.00124,477760704.00000,   0.00094,275667424.00000,  -0.00031,   0.00108,  -0.00038,   0.00000,   2.00000
108019823.10132,505694763.38569,-66962028.46809,  -0.00081,   0.00318,  -0.00125,477756416.00000,   0.00095,275676384.00000,  -0.00032,   0.00109,  -0.00038,  32.00000,   2.00000
107576662.99750,505481472.10360,-67141759.58918,  -0.00082,   0.00319,  -0.00126,477761664.00000,   0.00096,275685312.00000,  -0.00032,   0.00110,  -0.00038,   0.00000,   2.00000
107154731.45960,505277294.42188,-67315192.40004,  -0.00082,   0.00319,  -0.00126,477771136.00000,   0.00097,275694240.00000,  -0.00032,   0.00110,  -0.00039, -64.00000,   2.00000
106702032.25571,505060619.53166,-67492955.96157,  -0.00083,   0.00320,  -0.00127,477746784.00000,   0.00097,275703040.00000,  -0.00033,   0.00111,  -0.00039, -32.00000,   2.00000
106277087.75006,504856572.57092,-67662105.28480,  -0.00083,   0.00321,  -0.00128,477771936.00000,   0.00098,275711904.00000,  -0.00033,   0.00112,  -0.00040,  64.00000,   2.00000
105821281.40526,504639773.84085,-67835609.18017,  -0.00083,   0.00322,  -0.00128,477747808.00000,   0.00099,275720640.00000,  -0.00033,   0.00113,  -0.00040, -32.00000,   2.00000
105386977.68732,504434679.64969,-67997676.01715,  -0.00084,   0.00323,  -0.00129,477754432.00000,   0.00100,275729344.00000,  -0.00034,   0.00114,  -0.00040, -64.00000,   2.00000
104934881.17910,504223690.33740,-68159417.32008,  -0.00084,   0.00324,  -0.00129,477762048.00000,   0.00101,275738048.00000,  -0.00034,   0.00115,  -0.00041, 224.00000,   2.00000
104497116.22143,504015916.34420,-68322590.27724,  -0.00085,   0.00325,  -0.00130,477757536.00000,   0.00102,275746688.00000,  -0.00034,   0.00116,  -0.00041,  96.00000,   2.00000
104054850.86395,503810094.40569,-68477084.97079,  -0.00085,   0.00326,  -0.00131,477746080.00000,   0.00102,275755264.00000,  -0.00034,   0.00117,  -0.00042,  32.00000,   2.00000
103588176.38777,503594851.28265,-68633685.80221,  -0.00086,   0.00327,  -0.00131,477737472.00000,   0.00103,275763744.00000,  -0.00035,   0.00118,  -0.00042,   0.00000,   2.00000
103142736.10013,503389101.80339,-68784215.53098,  -0.00086,   0.00327,  -0.00132,477746304.00000,   0.00104,275772224.00000,  -0.00035,   0.00118,  -0.00042, 160.00000,   2.00000
102698787.32387,503183488.52391,-68934144.32377,  -0.00087,   0.00328,  -0.00132,477755680.00000,   0.00105,275780736.00000,  -0.00035,   0.00119,  -0.00043,  64.00000,   2.00000
102250272.31775,502979787.51496,-69075485.75940,  -0.00087,   0.00329,  -0.00133,477744064.00000,   0.00105,275789152.00000,  -0.00036,   0.00120,  -0.00043,-160.00000,   2.00000
101796646.04360,502773095.29292,-69218728.69630,  -0.00088,   0.00330,  -0.00134,477737248.00000,   0.00106,275797472.00000,  -0.00036,   0.00121,  -0.00044,  96.00000,   2.00000
101338135.93753,502565577.47663,-69358609.28755,  -0.00088,   0.00331,  -0.00134,477727904.00000,   0.00107,275805760.00000,  -0.00036,   0.00122,  -0.00044, -96.00000,   2.00000
100881177.82509,502358611.12976,-69498007.69930,  -0.00088,   0.00332,  -0.00135,477736640.00000,   0.00108,275814016.00000,  -0.00036,   0.00123,  -0.00044,   0.00000,   2.00000
100445657.39115,502163609.22276,-69626203.42062,  -0.00089,   0.00333,  -0.00135,477742720.00000,   0.00109,275822272.00000,  -0.00037,   0.00124,  -0.00045,  96.00000,   2.00000
99978817.58885,501955084.05079,-69758999.88397,  -0.00089,   0.00333,  -0.00136,477718080.00000,   0.00109,275830400.00000,  -0.00037,   0.00124,  -0.00045, -96.00000,   2.00000
99513826.63924,501749764.80457,-69886159.11975,  -0.00090,   0.00334,  -0.00136,477724256.00000,   0.00110,275838496.00000,  -0.00037,   0.00125,  -0.00046,  32.00000,   2.00000
99069736.72670,501551218.46405,-70012557.08881,  -0.00090,   0.00335,  -0.00137,477734944.00000,   0.00111,275846624.00000,  -0.00038,   0.00126,  -0.00046,  32.00000,   2.00000
98614199.20488,501350964.22359,-70132929.97183,  -0.00091,   0.00336,  -0.00137,477707040.00000,   0.00112,275854592.00000,  -0.00038,   0.00127,  -0.00046, -64.00000,   2.00000
98147510.98656,501147875.90124,-70250693.73846,  -0.00091,   0.00337,  -0.00138,477729792.00000,   0.00112,275862624.00000,  -0.00038,   0.00128,  -0.00047, -96.00000,   2.00000
97688532.19770,500947329.10683,-70367438.40063,  -0.00092,   0.00337,  -0.00139,477705824.00000,   0.00113,275870528.00000,  -0.00038,   0.00129,  -0.00047,   0.00000,   2.00000
97231329.00643,500749691.93448,-70478560.88420,  -0.00092,   0.00338,  -0.00139,477712000.00000,   0.00114,275878400.00000,  -0.00039,   0.00129,  -0.00047,  64.00000,   2.00000
96769106.69529,500551221.12836,-70586490.11633,  -0.00092,   0.00339,  -0.00140,477702208.00000,   0.00114,275886208.00000,  -0.00039,   0.00130,  -0.00048, 224.00000,   2.00000
96308384.06158,500352859.38277,-70693986.71345,  -0.00093,   0.00340,  -0.00140,477710784.00000,   0.00115,275894048.00000,  -0.00039,   0.00131,  -0.00048, -96.00000,   2.00000
95835863.99738,500150471.46668,-70800808.47715,  -0.00093,   0.00341,  -0.00141,477684832.00000,   0.00116,275901696.00000,  -0.00039,   0.00132,  -0.00049,  64.00000,   2.00000
95391336.14612,499961098.76980,-70899305.45103,  -0.00094,   0.00341,  -0.00141,477708096.00000,   0.00117,275909440.00000,  -0.00040,   0.00133,  -0.00049, 160.00000,   2.00000
94915479.45423,499760677.30123,-70997384.18264,  -0.00094,   0.00342,  -0.00142,477680608.00000,   0.00117,275917024.00000,  -0.00040,   0.00133,  -0.00049, 192.00000,   2.00000
94460818.05623,499569755.55740,-71089622.20851,  -0.00095,   0.00343,  -0.00142,477687872.00000,   0.00118,275924608.00000,  -0.00040,   0.00134,  -0.00050, 128.00000,   2.00000
94001046.33403,499378102.91085,-71178765.42924,  -0.00095,   0.00344,  -0.00143,477677632.00000,   0.00119,275932128.00000,  -0.00041,   0.00135,  -0.00050,  64.00000,   2.00000
93542780.30145,499186795.39588,-71267568.17084,  -0.00096,   0.00345,  -0.00143,477685728.00000,   0.00119,275939648.00000,  -0.00041,   0.00136,  -0.00050,  96.00000,   2.00000
93079609.60081,498997105.32311,-71348064.11995,  -0.00096,   0.00345,  -0.00143,477672928.00000,   0.00120,275947072.00000,  -0.00041,   0.00136,  -0.00051,  96.00000,   2.00000
92611039.79288,498803893.69119,-71430667.95697,  -0.00096,   0.00346,  -0.00144,477664928.00000,   0.00121,275954432.00000,  -0.00041,   0.00137,  -0.00051, -32.00000,   2.00000
92144241.64825,498613687.31750,-71507769.74303,  -0.00097,   0.00347,  -0.00144,477670240.00000,   0.00121,275961792.00000,  -0.00042,   0.00138,  -0.00051, -96.00000,   2.00000
91684790.88077,498425872.09373,-71584049.30065,  -0.00097,   0.00348,  -0.00145,477645440.00000,   0.00122,275969024.00000,  -0.00042,   0.00139,  -0.00052,  64.00000,   2.00000
91214531.49000,498237508.66202,-71652565.12794,  -0.00098,   0.00348,  -0.00145,477665024.00000,   0.00123,275976288.00000,  -0.00042,   0.00139,  -0.00052,-128.00000,   2.00000
90751595.32230,498051783.05964,-71720338.33432,  -0.00098,   0.00349,  -0.00146,477640000.00000,   0.00123,275983424.00000,  -0.00042,   0.00140,  -0.00052,  64.00000,   2.00000
90290333.88327,497868544.74941,-71782578.16850,  -0.00099,   0.00350,  -0.00146,477645408.00000,   0.00124,275990560.00000,  -0.00043,   0.00141,  -0.00053, -32.00000,   2.00000
89823579.30094,497681934.32119,-71847021.21091,  -0.00099,   0.00351,  -0.00147,477637024.00000,   0.00125,275997600.00000,  -0.00043,   0.00142,  -0.00053,  96.00000,   2.00000
89371221.17538,497504017.43441,-71903057.80509,  -0.00099,   0.00351,  -0.00147,477625216.00000,   0.00125,276004576.00000,  -0.00043,   0.00142,  -0.00053, 256.00000,   2.00000
88900818.83120,497319138.37699,-71959022.11592,  -0.00100,   0.00352,  -0.00147,477631328.00000,   0.00126,276011584.00000,  -0.00043,   0.00143,  -0.00054,   0.00000,   2.00000
88444562.64292,497140449.60071,-72011810.14300,  -0.00100,   0.00353,  -0.00148,477621696.00000,   0.00127,276018464.00000,  -0.00044,   0.00144,  -0.00054,   0.00000,   2.00000
87983133.26725,496963229.59630,-72056424.22588,  -0.00101,   0.00353,  -0.00148,477608288.00000,   0.00127,276025312.00000,  -0.00044,   0.00144,  -0.00054, 128.00000,   2.00000
87523144.19674,496786438.96943,-72100848.54065,  -0.00101,   0.00354,  -0.00148,477615392.00000,   0.00128,276032128.00000,  -0.00044,   0.00145,  -0.00055,  96.00000,   2.00000
87057711.79161,496608355.87806,-72142286.69953,  -0.00102,   0.00355,  -0.00149,477604480.00000,   0.00129,276038880.00000,  -0.00044,   0.00146,  -0.00055, -64.00000,   2.00000
86586862.31088,496429449.28001,-72180826.04069,  -0.00102,   0.00356,  -0.00149,477593216.00000,   0.00129,276045536.00000,  -0.00045,   0.00147,  -0.00055,  32.00000,   2.00000
86137104.87236,496260338.46111,-72213757.21057,  -0.00102,   0.00356,  -0.00150,477599264.00000,   0.00130,276052224.00000,  -0.00045,   0.00147,  -0.00056,  64.00000,   2.00000
85681612.45297,496087648.17760,-72248981.52166,  -0.00103,   0.00357,  -0.00150,477590528.00000,   0.00130,276058816.00000,  -0.00045,   0.00148,  -0.00056,  96.00000,   2.00000
85220783.38362,495916376.39967,-72276101.79740,  -0.00103,   0.00358,  -0.00150,477576736.00000,   0.00131,276065344.00000,  -0.00045,   0.00149,  -0.00056,  32.00000,   2.00000
84754402.81503,495744091.30507,-72300356.12256,  -0.00104,   0.00358,  -0.00151,477565280.00000,   0.00132,276071776.00000,  -0.00046,   0.00149,  -0.00057,  32.00000,   2.00000
84309049.48918,495581582.10239,-72319051.62711,  -0.00104,   0.00359,  -0.00151,477571008.00000,   0.00132,276078240.00000,  -0.00046,   0.00150,  -0.00057, -32.00000,   2.00000
83838360.01602,495408154.87959,-72340265.55639,  -0.00104,   0.00360,  -0.00151,477560800.00000,   0.00133,276084608.00000,  -0.00046,   0.00151,  -0.00057, -64.00000,   2.00000
83381756.84341,495243596.77419,-72353288.55784,  -0.00105,   0.00360,  -0.00152,477547872.00000,   0.00133,276090880.00000,  -0.00046,   0.00151,  -0.00058,  64.00000,   2.00000
82946100.70915,495088612.49363,-72360763.48310,  -0.00105,   0.00361,  -0.00152,477553440.00000,   0.00134,276097184.00000,  -0.00046,   0.00152,  -0.00058,-128.00000,   2.00000
82477825.70469,494918993.40959,-72373315.45511,  -0.00106,   0.00362,  -0.00152,477527264.00000,   0.00135,276103328.00000,  -0.00047,   0.00152,  -0.00058,  32.00000,   2.00000
82037912.68726,494765605.67862,-72372684.89331,  -0.00106,   0.00362,  -0.00153,477545664.00000,   0.00135,276109504.00000,  -0.00047,   0.00153,  -0.00059,   0.00000,   2.00000
81565316.45130,494597573.28479,-72377166.48434,  -0.00107,   0.00363,  -0.00153,477519488.00000,   0.00136,276115584.00000,  -0.00047,   0.00154,  -0.00059, 160.00000,   2.00000
81133340.17521,494448955.63537,-72370769.61742,  -0.00107,   0.00363,  -0.00153,477523456.00000,   0.00136,276121632.00000,  -0.00047,   0.00154,  -0.00059,   0.00000,   2.00000
80675991.39270,494291977.78569,-72361819.07380,  -0.00107,   0.00364,  -0.00153,477510272.00000,   0.00137,276127616.00000,  -0.00048,   0.00155,  -0.00059, -32.00000,   2.00000
80232096.79549,494138412.99374,-72355117.53022,  -0.00108,   0.00365,  -0.00154,477502176.00000,   0.00137,276133504.00000,  -0.00048,   0.00156,  -0.00060, 160.00000,   2.00000
79782458.66761,493986059.76146,-72340463.13456,  -0.00108,   0.00365,  -0.00154,477487520.00000,   0.00138,276139328.00000,  -0.00048,   0.00156,  -0.00060, -96.00000,   2.00000
79333989.93370,493833850.59832,-72325785.46439,  -0.00108,   0.00366,  -0.00154,477493792.00000,   0.00138,276145152.00000,  -0.00048,   0.00157,  -0.00060,  64.00000,   2.00000
78879731.77368,493682793.90184,-72303175.74419,  -0.00109,   0.00367,  -0.00154,477479200.00000,   0.00139,276150912.00000,  -0.00049,   0.00157,  -0.00061, -96.00000,   2.00000
78438823.93638,493535206.52540,-72282877.81425,  -0.00109,   0.00367,  -0.00155,477470656.00000,   0.00140,276156576.00000,  -0.00049,   0.00158,  -0.00061, -32.00000,   2.00000
77999370.57115,493392759.31730,-72252194.17415,  -0.00110,   0.00368,  -0.00155,477471616.00000,   0.00140,276162240.00000,  -0.00049,   0.00158,  -0.00061,   0.00000,   2.00000
77553681.99708,493246465.82649,-72224024.51098,  -0.00110,   0.00368,  -0.00155,477462048.00000,   0.00141,276167840.00000,  -0.00049,   0.00159,  -0.00061,  96.00000,   2.00000
77121575.70317,493108456.72059,-72187776.26142,  -0.00110,   0.00369,  -0.00155,477448288.00000,   0.00141,276173344.00000,  -0.00049,   0.00160,  -0.00062, -64.00000,   2.00000
76683161.28529,492966586.93493,-72154060.82179,  -0.00111,   0.00369,  -0.00156,477438400.00000,   0.00142,276178784.00000,  -0.00050,   0.00160,  -0.00062,  32.00000,   2.00000
76246119.02102,492829709.52494,-72109982.25968,  -0.00111,   0.00370,  -0.00156,477439104.00000,   0.00142,276184224.00000,  -0.00050,   0.00161,  -0.00062,-160.00000,   2.00000
75795507.30287,492687531.07748,-72065758.37499,  -0.00112,   0.00371,  -0.00156,477410944.00000,   0.00143,276189504.00000,  -0.00050,   0.00161,  -0.00062,  32.00000,   2.00000
75365448.36556,492552493.43114,-72021389.53796,  -0.00112,   0.00371,  -0.00156,477417600.00000,   0.00143,276194784.00000,  -0.00050,   0.00162,  -0.00063, -96.00000,   2.00000
74936724.73276,492422854.31677,-71966759.29884,  -0.00112,   0.00372,  -0.00156,477418176.00000,   0.00144,276200064.00000,  -0.00050,   0.00162,  -0.00063,  32.00000,   2.00000
74494269.71874,492287426.73687,-71911938.40411,  -0.00113,   0.00372,  -0.00157,477390048.00000,   0.00144,276205184.00000,  -0.00051,   0.00163,  -0.00063, -32.00000,   2.00000
74072491.54021,492161925.33333,-71851861.50862,  -0.00113,   0.00373,  -0.00157,477393952.00000,   0.00145,276210304.00000,  -0.00051,   0.00163,  -0.00063,   0.00000,   2.00000
73644213.80609,492032480.29897,-71794379.68651,  -0.00113,   0.00373,  -0.00157,477383680.00000,   0.00145,276215360.00000,  -0.00051,   0.00164,  -0.00064,  64.00000,   2.00000
73217177.06536,491907877.02200,-71726584.26543,  -0.00114,   0.00374,  -0.00157,477384288.00000,   0.00145,276220384.00000,  -0.00051,   0.00164,  -0.00064,  64.00000,   2.00000
72795798.02187,491785100.04675,-71658507.06766,  -0.00114,   0.00374,  -0.00157,477356576.00000,   0.00146,276225280.00000,  -0.00051,   0.00165,  -0.00064,   0.00000,   2.00000
72375476.30367,491664843.74483,-71585369.47371,  -0.00114,   0.00375,  -0.00157,477359360.00000,   0.00146,276230176.00000,  -0.00052,   0.00165,  -0.00064,  64.00000,   2.00000
71948683.28425,491542756.35390,-71509601.34438,  -0.00115,   0.00375,  -0.00158,477346464.00000,   0.00147,276234976.00000,  -0.00052,   0.00166,  -0.00065, -96.00000,   2.00000
71542484.18931,491430788.39559,-71428667.16433,  -0.00115,   0.00376,  -0.00158,477349888.00000,   0.00147,276239808.00000,  -0.00052,   0.00166,  -0.00065,  96.00000,   2.00000
71122212.00916,491312977.98867,-71347590.14723,  -0.00116,   0.00376,  -0.00158,477321312.00000,   0.00148,276244448.00000,  -0.00052,   0.00167,  -0.00065,  96.00000,   2.00000
70703074.61796,491199976.35861,-71256251.64819,  -0.00116,   0.00377,  -0.00158,477321472.00000,   0.00148,276249088.00000,  -0.00052,   0.00167,  -0.00065,  32.00000,   2.00000
70304354.95725,491094622.08041,-71164989.27521,  -0.00116,   0.00377,  -0.00158,477327200.00000,   0.00149,276253728.00000,  -0.00052,   0.00168,  -0.00065,  64.00000,   2.00000
69891423.57470,490983018.09505,-71073529.60516,  -0.00117,   0.00378,  -0.00158,477298496.00000,   0.00149,276258240.00000,  -0.00053,   0.00168,  -0.00066, -32.00000,   2.00000
69479588.06332,490876381.60246,-70971853.94786,  -0.00117,   0.00378,  -0.00158,477298208.00000,   0.00149,276262720.00000,  -0.00053,   0.00169,  -0.00066,-224.00000,   2.00000
69072938.98187,490769168.99490,-70875157.35441,  -0.00117,   0.00379,  -0.00158,477272384.00000,   0.00150,276267072.00000,  -0.00053,   0.00169,  -0.00066,   0.00000,   2.00000
68674939.84411,490670749.64145,-70765768.07316,  -0.00118,   0.00379,  -0.00158,477288128.00000,   0.00150,276271488.00000,  -0.00053,   0.00170,  -0.00066, -32.00000,   2.00000
68282027.47734,490571436.64921,-70661314.71027,  -0.00118,   0.00380,  -0.00158,477262400.00000,   0.00151,276275776.00000,  -0.00053,   0.00170,  -0.00066, -32.00000,   2.00000
67890115.61452,490476951.17863,-70546644.99026,  -0.00118,   0.00380,  -0.00158,477261920.00000,   0.00151,276280000.00000,  -0.00053,   0.00170,  -0.00067, -32.00000,   2.00000
67483775.10317,490376426.31598,-70431820.77704,  -0.00119,   0.00381,  -0.00158,477232864.00000,   0.00151,276284128.00000,  -0.00054,   0.00171,  -0.00067, -96.00000,   2.00000
67097863.02250,490285762.99228,-70311860.43722,  -0.00119,   0.00381,  -0.00158,477235808.00000,   0.00152,276288224.00000,  -0.00054,   0.00171,  -0.00067,  96.00000,   2.00000
66712674.32894,490194926.15064,-70192115.34015,  -0.00119,   0.00382,  -0.00159,477240256.00000,   0.00152,276292352.00000,  -0.00054,   0.00172,  -0.00067, -64.00000,   2.00000
66313058.21767,490100467.76988,-70066978.23838,  -0.00120,   0.00382,  -0.00159,477208448.00000,   0.00153,276296288.00000,  -0.00054,   0.00172,  -0.00067,  64.00000,   2.00000
65933835.72655,490015880.37955,-69936719.11340,  -0.00120,   0.00383,  -0.00159,477211200.00000,   0.00153,276300224.00000,  -0.00054,   0.00172,  -0.00068,   0.00000,   2.00000
65547801.43870,489931777.19782,-69798653.39356,  -0.00120,   0.00383,  -0.00159,477194976.00000,   0.00153,276304096.00000,  -0.00054,   0.00173,  -0.00068, 128.00000,   2.00000
65182016.28642,489855128.33340,-69660709.70469,  -0.00120,   0.00383,  -0.00159,477199840.00000,   0.00154,276307968.00000,  -0.00055,   0.00173,  -0.00068, 128.00000,   2.00000
64801511.21110,489772260.65384,-69522557.05836,  -0.00121,   0.00384,  -0.00159,477170496.00000,   0.00154,276311680.00000,  -0.00055,   0.00174,  -0.00068,  64.00000,   2.00000
64441429.82017,489701732.17146,-69374080.71506,  -0.00121,   0.00384,  -0.00159,477170304.00000,   0.00154,276315392.00000,  -0.00055,   0.00174,  -0.00068,  64.00000,   2.00000
64074198.65268,489626577.37570,-69228199.74970,  -0.00121,   0.00385,  -0.00158,477158912.00000,   0.00155,276319040.00000,  -0.00055,   0.00174,  -0.00068, -32.00000,   2.00000
63700010.76084,489551812.29140,-69074477.03073,  -0.00122,   0.00385,  -0.00158,477142336.00000,   0.00155,276322592.00000,  -0.00055,   0.00175,  -0.00069,   0.00000,   2.00000
63346022.80229,489484780.28359,-68920928.59334,  -0.00122,   0.00385,  -0.00158,477146880.00000,   0.00155,276326144.00000,  -0.00055,   0.00175,  -0.00069, -96.00000,   2.00000
62984997.01064,489417769.14621,-68759479.29538,  -0.00122,   0.00386,  -0.00158,477130656.00000,   0.00156,276329632.00000,  -0.00055,   0.00175,  -0.00069,   0.00000,   2.00000
62636409.14405,489356431.37993,-68595307.03403,  -0.00123,   0.00386,  -0.00158,477117056.00000,   0.00156,276333024.00000,  -0.00056,   0.00176,  -0.00069, -32.00000,   2.00000
62280646.37627,489293101.30240,-68428516.13506,  -0.00123,   0.00387,  -0.00158,477102752.00000,   0.00156,276336352.00000,  -0.00056,   0.00176,  -0.00069, -32.00000,   2.00000
61925513.97690,489231562.69843,-68256681.16923,  -0.00123,   0.00387,  -0.00158,477104192.00000,   0.00157,276339648.00000,  -0.00056,   0.00177,  -0.00069,-160.00000,   2.00000
61574911.36390,489171713.07210,-68084487.98157,  -0.00123,   0.00387,  -0.00158,477074560.00000,   0.00157,276342848.00000,  -0.00056,   0.00177,  -0.00070,   0.00000,   2.00000
61244482.21225,489121513.56806,-67907164.49175,  -0.00124,   0.00388,  -0.00158,477076640.00000,   0.00157,276346016.00000,  -0.00056,   0.00177,  -0.00070, -64.00000,   2.00000
60914624.24476,489073461.71303,-67724856.27596,  -0.00124,   0.00388,  -0.00158,477077760.00000,   0.00158,276349152.00000,  -0.00056,   0.00177,  -0.00070,   0.00000,   2.00000
60569564.92171,489018776.82931,-67542169.04669,  -0.00124,   0.00388,  -0.00158,477047904.00000,   0.00158,276352192.00000,  -0.00056,   0.00178,  -0.00070,  32.00000,   2.00000
60244726.90747,488976309.98724,-67349139.90015,  -0.00124,   0.00389,  -0.00158,477047136.00000,   0.00158,276355168.00000,  -0.00057,   0.00178,  -0.00070,   0.00000,   2.00000
59912439.78215,488929293.36366,-67158672.01817,  -0.00125,   0.00389,  -0.00158,477034944.00000,   0.00158,276358112.00000,  -0.00057,   0.00178,  -0.00070,  32.00000,   2.00000
59592418.53990,488890133.32587,-66960150.38677,  -0.00125,   0.00390,  -0.00157,477018560.00000,   0.00159,276360960.00000,  -0.00057,   0.00179,  -0.00070,  96.00000,   2.00000
59272884.08318,488852773.27108,-66756588.13542,  -0.00125,   0.00390,  -0.00157,477019392.00000,   0.00159,276363808.00000,  -0.00057,   0.00179,  -0.00071,  32.00000,   2.00000
58965422.39090,488818841.29185,-66555506.40926,  -0.00125,   0.00390,  -0.00157,477007488.00000,   0.00159,276366592.00000,  -0.00057,   0.00179,  -0.00071,  96.00000,   2.00000
58650538.46757,488784831.44573,-66346415.38966,  -0.00126,   0.00390,  -0.00157,476990496.00000,   0.00159,276369280.00000,  -0.00057,   0.00180,  -0.00071,  64.00000,   2.00000
58347737.53496,488756343.93589,-66134494.07431,  -0.00126,   0.00391,  -0.00157,476976320.00000,   0.00160,276371904.00000,  -0.00057,   0.00180,  -0.00071,  64.00000,   2.00000
58037386.64819,488725211.10926,-65919764.18506,  -0.00126,   0.00391,  -0.00157,476961472.00000,   0.00160,276374464.00000,  -0.00057,   0.00180,  -0.00071,-160.00000,   2.00000
57747053.99098,488704196.16778,-65699967.86264,  -0.00126,   0.00391,  -0.00157,476962464.00000,   0.00160,276376992.00000,  -0.00057,   0.00180,  -0.00071, -64.00000,   2.00000
57449118.89565,488680584.15654,-65477356.75017,  -0.00127,   0.00392,  -0.00156,476947648.00000,   0.00160,276379456.00000,  -0.00058,   0.00181,  -0.00071,-160.00000,   2.00000
57163225.09612,488664857.23794,-65246622.19104,  -0.00127,   0.00392,  -0.00156,476930880.00000,   0.00161,276381856.00000,  -0.00058,   0.00181,  -0.00071,  96.00000,   2.00000
56877628.98210,488648616.94432,-65016096.78725,  -0.00127,   0.00392,  -0.00156,476933888.00000,   0.00161,276384224.00000,  -0.00058,   0.00181,  -0.00071, 128.00000,   2.00000
56603963.86278,488637793.35057,-64782671.31340,  -0.00127,   0.00393,  -0.00156,476919200.00000,   0.00161,276386560.00000,  -0.00058,   0.00181,  -0.00072, -64.00000,   2.00000
56322652.68764,488626580.76730,-64541106.26271,  -0.00128,   0.00393,  -0.00156,476901856.00000,   0.00161,276388768.00000,  -0.00058,   0.00182,  -0.00072,  32.00000,   2.00000
56053225.26447,488620803.71881,-64296620.87498,  -0.00128,   0.00393,  -0.00155,476887008.00000,   0.00161,276390912.00000,  -0.00058,   0.00182,  -0.00072,-192.00000,   2.00000
55776009.00751,488610472.40753,-64054572.70106,  -0.00128,   0.00393,  -0.00155,476873952.00000,   0.00162,276393024.00000,  -0.00058,   0.00182,  -0.00072,  32.00000,   2.00000
55518736.09152,488612012.04835,-63802079.29281,  -0.00128,   0.00394,  -0.00155,476872544.00000,   0.00162,276395072.00000,  -0.00058,   0.00182,  -0.00072, 224.00000,   2.00000
55273270.17001,488618969.96236,-63546630.83016,  -0.00128,   0.00394,  -0.00155,476857696.00000,   0.00162,276397088.00000,  -0.00058,   0.00182,  -0.00072, 128.00000,   2.00000
55019937.09126,488621105.89605,-63293551.25510,  -0.00129,   0.00394,  -0.00154,476844608.00000,   0.00162,276399008.00000,  -0.00058,   0.00183,  -0.00072, 128.00000,   2.00000
54766897.35738,488627034.77738,-63030057.94333,  -0.00129,   0.00394,  -0.00154,476842688.00000,   0.00162,276400928.00000,  -0.00058,   0.00183,  -0.00072,  32.00000,   2.00000
54525615.42479,488638212.63983,-62763546.03469,  -0.00129,   0.00395,  -0.00154,476827488.00000,   0.00163,276402784.00000,  -0.00058,   0.00183,  -0.00072,-160.00000,   2.00000
54296069.51066,488654949.29604,-62494043.07652,  -0.00129,   0.00395,  -0.00154,476812512.00000,   0.00163,276404544.00000,  -0.00059,   0.00183,  -0.00072,  32.00000,   2.00000
54058626.73824,488668956.18113,-62221546.64999,  -0.00129,   0.00395,  -0.00153,476796896.00000,   0.00163,276406240.00000,  -0.00059,   0.00183,  -0.00072, -32.00000,   2.00000
53841027.29768,488694711.15926,-61938552.63521,  -0.00130,   0.00395,  -0.00153,476795200.00000,   0.00163,276407936.00000,  -0.00059,   0.00183,  -0.00072, -64.00000,   2.00000
53615454.30695,488715559.17838,-61657846.20801,  -0.00130,   0.00396,  -0.00153,476781920.00000,   0.00163,276409536.00000,  -0.00059,   0.00184,  -0.00072, -32.00000,   2.00000
53401548.94316,488741765.43373,-61374058.54061,  -0.00130,   0.00396,  -0.00152,476766464.00000,   0.00163,276411072.00000,  -0.00059,   0.00184,  -0.00073, -96.00000,   2.00000
53179684.58539,488765326.04103,-61087224.58997,  -0.00130,   0.00396,  -0.00152,476750912.00000,   0.00163,276412544.00000,  -0.00059,   0.00184,  -0.00073,  96.00000,   2.00000
52977622.09161,488800341.70696,-60789821.30510,  -0.00130,   0.00396,  -0.00152,476749152.00000,   0.00164,276414016.00000,  -0.00059,   0.00184,  -0.00073,  32.00000,   2.00000
52767530.68756,488830442.20093,-60494642.72530,  -0.00130,   0.00396,  -0.00151,476735552.00000,   0.00164,276415392.00000,  -0.00059,   0.00184,  -0.00073,-192.00000,   2.00000
52588695.14119,488876253.81597,-60190974.68652,  -0.00130,   0.00397,  -0.00151,476718048.00000,   0.00164,276416704.00000,  -0.00059,   0.00184,  -0.00073,  32.00000,   2.00000
52390327.87594,488913135.22928,-59887447.13285,  -0.00131,   0.00397,  -0.00151,476720032.00000,   0.00164,276418016.00000,  -0.00059,   0.00185,  -0.00073,  64.00000,   2.00000
52223152.13228,488963240.27328,-59580668.76551,  -0.00131,   0.00397,  -0.00150,476704736.00000,   0.00164,276419232.00000,  -0.00059,   0.00185,  -0.00073, -96.00000,   2.00000
52047949.73361,489012545.14310,-59265384.62434,  -0.00131,   0.00397,  -0.00150,476686656.00000,   0.00164,276420384.00000,  -0.00059,   0.00185,  -0.00073, -96.00000,   2.00000
51864688.59409,489059227.55907,-58946935.01267,  -0.00131,   0.00397,  -0.00150,476670688.00000,   0.00164,276421472.00000,  -0.00059,   0.00185,  -0.00073, 192.00000,   2.00000
51692939.21036,489108962.33574,-58630542.56781,  -0.00131,   0.00397,  -0.00149,476657184.00000,   0.00164,276422496.00000,  -0.00059,   0.00185,  -0.00073, 160.00000,   2.00000
51540905.98628,489168942.07155,-58303349.39894,  -0.00131,   0.00398,  -0.00149,476655136.00000,   0.00164,276423488.00000,  -0.00059,   0.00185,  -0.00073,-992.00000,   1.00000
51388953.23122,489230344.18348,-57976516.06746,  -0.00131,   0.00398,  -0.00148,476655776.00000,   0.00165,276424512.00000,  -0.00059,   0.00185,  -0.00073,  64.00000,   2.00000
51240326.99627,489292830.69666,-57642767.95808,  -0.00132,   0.00398,  -0.00148,476623200.00000,   0.00165,276425376.00000,  -0.00059,   0.00185,  -0.00073,-832.00000,   1.00000
51091780.66433,489357275.40786,-57303816.30671,  -0.00132,   0.00398,  -0.00148,476622048.00000,   0.00165,276426208.00000,  -0.00059,   0.00185,  -0.00073,-864.00000,   1.00000
50974317.92579,489433279.01097,-56966850.50552,  -0.00132,   0.00398,  -0.00147,476608256.00000,   0.00165,276427008.00000,  -0.00060,   0.00185,  -0.00073,-800.00000,   1.00000
50829115.85271,489499799.38412,-56621164.31022,  -0.00132,   0.00398,  -0.00147,476590176.00000,   0.00165,276427712.00000,  -0.00060,   0.00185,  -0.00073,-736.00000,   1.00000
50723212.19505,489584028.57565,-56270111.65038,  -0.00132,   0.00398,  -0.00146,476589952.00000,   0.00165,276428416.00000,  -0.00060,   0.00186,  -0.00073,-608.00000,   1.00000
50609120.50909,489663125.67700,-55921003.12119,  -0.00132,   0.00399,  -0.00146,476575904.00000,   0.00165,276429056.00000,  -0.00060,   0.00186,  -0.00073,-608.00000,   1.00000
50486890.86434,489741035.91612,-55563090.93656,  -0.00132,   0.00399,  -0.00145,476557792.00000,   0.00165,276429632.00000,  -0.00060,   0.00186,  -0.00073,-704.00000,   1.00000
50395737.16552,489832412.71823,-55201686.54844,  -0.00132,   0.00399,  -0.00145,476541824.00000,   0.00165,276430112.00000,  -0.00060,   0.00186,  -0.00073,-480.00000,   1.00000
50304589.38982,489922848.81036,-54840257.48505,  -0.00132,   0.00399,  -0.00145,476543232.00000,   0.00165,276430592.00000,  -0.00060,   0.00186,  -0.00073,-352.00000,   1.00000
50205279.36595,490011954.47611,-54469936.26382,  -0.00132,   0.00399,  -0.00144,476525120.00000,   0.00165,276431008.00000,  -0.00060,   0.00186,  -0.00073,-384.00000,   1.00000
50125598.84148,490108249.34856,-54099544.53929,  -0.00132,   0.00399,  -0.00144,476526752.00000,   0.00165,276431424.00000,  -0.00060,   0.00186,  -0.00073,-512.00000,   1.00000
50049148.89971,490207597.23212,-53722093.57644,  -0.00133,   0.00399,  -0.00143,476492768.00000,   0.00165,276431680.00000,  -0.00060,   0.00186,  -0.00073,-288.00000,   1.00000
49992319.84454,490314045.02344,-53344536.92614,  -0.00133,   0.00399,  -0.00143,476494336.00000,   0.00165,276431968.00000,  -0.00060,   0.00186,  -0.00073,-224.00000,   1.00000
49927305.13448,490419253.92912,-52957997.13529,  -0.00133,   0.00399,  -0.00142,476475968.00000,   0.00165,276432160.00000,  -0.00060,   0.00186,  -0.00073, -96.00000,   1.00000
49881909.90121,490531597.24746,-52571344.07052,  -0.00133,   0.00399,  -0.00142,476477440.00000,   0.00165,276432352.00000,  -0.00060,   0.00186,  -0.00073,-320.00000,   1.00000
49828320.06611,490642560.15766,-52175645.37817,  -0.00133,   0.00400,  -0.00141,476459136.00000,   0.00165,276432448.00000,  -0.00060,   0.00186,  -0.00073,-160.00000,   1.00000
49786117.13477,490756774.52066,-51781647.91455,  -0.00133,   0.00400,  -0.00141,476444576.00000,   0.00165,276432512.00000,  -0.00060,   0.00186,  -0.00073, -32.00000,   1.00000
49763552.22204,490879997.93077,-51382120.89211,  -0.00133,   0.00400,  -0.00140,476444032.00000,   0.00165,276432576.00000,  -0.00060,   0.00186,  -0.00073,  32.00000,   1.00000
49752334.85756,491003388.94005,-50978295.77082,  -0.00133,   0.00400,  -0.00140,476427808.00000,   0.00165,276432576.00000,  -0.00060,   0.00186,  -0.00073,-4768.00000,   0.00000
49732704.46972,491107149.56149,-50568861.96730,  -0.00133,   0.00400,  -0.00139,476406624.00000,   0.00165,276432576.00000,  -0.00060,   0.00186,  -0.00073,-25952.00000,   0.00000
49724291.44636,491199692.81846,-50153819.48153,  -0.00133,   0.00400,  -0.00139,476368768.00000,   0.00165,276432576.00000,  -0.00060,   0.00186,  -0.00073,-63808.00000,   0.00000
49715878.42300,491292236.07542,-49733168.31352,  -0.00133,   0.00400,  -0.00138,476330368.00000,   0.00165,276432576.00000,  -0.00060,   0.00186,  -0.00073,-102208.00000,   0.00000
49718682.76412,491373561.96790,-49306908.46327,  -0.00133,   0.00400,  -0.00137,476275840.00000,   0.00165,276432576.00000,  -0.00060,   0.00186,  -0.00073,-156736.00000,   0.00000
49741117.49308,491463300.88374,-48875039.93078,  -0.00133,   0.00400,  -0.00137,476220896.00000,   0.00165,276432576.00000,  -0.00060,   0.00186,  -0.00073,-211680.00000,   0.00000
49766356.56316,491522192.04726,-48437562.71605,  -0.00133,   0.00400,  -0.00136,476133664.00000,   0.00165,276432576.00000,  -0.00060,   0.00186,  -0.00073,-298912.00000,   0.00000
49800008.65660,491600713.59862,-48000085.50133,  -0.00133,   0.00400,  -0.00136,476063680.00000,   0.00165,276432576.00000,  -0.00060,   0.00186,  -0.00073,-368896.00000,   0.00000
49836465.09116,491648387.39767,-47551390.92212,  -0.00133,   0.00400,  -0.00135,475959904.00000,   0.00165,276432576.00000,  -0.00060,   0.00186,  -0.00073,-472672.00000,   0.00000
49892551.91356,491704474.22007,-47102696.34291,  -0.00133,   0.00400,  -0.00135,475857536.00000,   0.00165,276432576.00000,  -0.00060,   0.00186,  -0.00073,-575040.00000,   0.00000
49940225.71260,491740930.65463,-46648393.08146,  -0.00133,   0.00400,  -0.00134,475739104.00000,   0.00165,276432576.00000,  -0.00060,   0.00186,  -0.00073,-693472.00000,   0.00000
49999116.87613,491766169.72471,-46188481.13777,  -0.00133,   0.00400,  -0.00133,475604608.00000,   0.00165,276432576.00000,  -0.00060,   0.00186,  -0.00073,-827968.00000,   0.00000
50077638.42749,491799821.81815,-45722960.51184,  -0.00133,   0.00400,  -0.00133,475469984.00000,   0.00165,276432576.00000,  -0.00060,   0.00186,  -0.00073,-962592.00000,   0.00000
50147746.95549,491813843.52375,-45251831.20367,  -0.00133,   0.00400,  -0.00132,475319232.00000,   0.00165,276432576.00000,  -0.00060,   0.00186,  -0.00073,-1113344.00000,   0.00000
50237485.87133,491836278.25271,-44780701.89550,  -0.00133,   0.00400,  -0.00132,475170176.00000,   0.00165,276432576.00000,  -0.00060,   0.00186,  -0.00073,-1262400.00000,   0.00000
50338442.15165,491847495.61719,-44298355.22286,  -0.00133,   0.00400,  -0.00131,475003616.00000,   0.00165,276432576.00000,  -0.00060,   0.00186,  -0.00073,-1428960.00000,   0.00000
50450615.79645,491847495.61719,-43816008.55021,  -0.00133,   0.00400,  -0.00130,474822880.00000,   0.00165,276432576.00000,  -0.00060,   0.00186,  -0.00073,-1609696.00000,   0.00000
50554376.41790,491827865.22935,-43328053.19532,  -0.00133,   0.00400,  -0.00130,474626304.00000,   0.00165,276432576.00000,  -0.00060,   0.00186,  -0.00073,-1806272.00000,   0.00000
50677767.42718,491816647.86487,-42834489.15819,  -0.00133,   0.00400,  -0.00129,474429856.00000,   0.00165,276432576.00000,  -0.00060,   0.00186,  -0.00073,-2002720.00000,   0.00000
50820788.82430,491813843.52375,-42335316.43882,  -0.00133,   0.00400,  -0.00128,474233504.00000,   0.00165,276432576.00000,  -0.00060,   0.00186,  -0.00073,-2199072.00000,   0.00000
50966614.56254,491780191.43031,-41830535.03721,  -0.00132,   0.00400,  -0.00128,474005984.00000,   0.00165,276432576.00000,  -0.00060,   0.00186,  -0.00073,-2426592.00000,   0.00000
51112440.30079,491746539.33687,-41325753.63560,  -0.00132,   0.00400,  -0.00127,473779936.00000,   0.00165,276432576.00000,  -0.00060,   0.00186,  -0.00073,-2652640.00000,   0.00000
51269483.40351,491701669.87895,-40815363.55175,  -0.00132,   0.00400,  -0.00126,473538528.00000,   0.00165,276432576.00000,  -0.00060,   0.00186,  -0.00073,-2894048.00000,   0.00000
51446156.89407,491665213.44439,-40299364.78566,  -0.00132,   0.00400,  -0.00126,473297376.00000,   0.00165,276432576.00000,  -0.00060,   0.00186,  -0.00073,-3135200.00000,   0.00000
51614417.36128,491609126.62198,-39777757.33733,  -0.00132,   0.00400,  -0.00125,473040768.00000,   0.00165,276432576.00000,  -0.00060,   0.00186,  -0.00073,-3391808.00000,   0.00000
51802308.21632,491561452.82294,-39256149.88900,  -0.00132,   0.00400,  -0.00124,472785920.00000,   0.00165,276432576.00000,  -0.00060,   0.00186,  -0.00073,-3646656.00000,   0.00000
51993003.41248,491482931.27158,-38723325.07619,  -0.00132,   0.00399,  -0.00124,472498592.00000,   0.00165,276432576.00000,  -0.00060,   0.00186,  -0.00073,-3933984.00000,   0.00000
52211742.01985,491432453.13142,-38190500.26338,  -0.00132,   0.00399,  -0.00123,472229248.00000,   0.00165,276432576.00000,  -0.00060,   0.00186,  -0.00073,-4203328.00000,   0.00000
52413654.58049,491342714.21558,-37652066.76833,  -0.00132,   0.00399,  -0.00122,471928576.00000,   0.00165,276432576.00000,  -0.00060,   0.00186,  -0.00073,-4504000.00000,   0.00000
52654827.91682,491269801.34646,-37113633.27328,  -0.00132,   0.00399,  -0.00122,471630112.00000,   0.00165,276432576.00000,  -0.00060,   0.00186,  -0.00073,-4802464.00000,   0.00000
52896001.25314,491196888.47734,-36569591.09599,  -0.00131,   0.00399,  -0.00121,471332224.00000,   0.00165,276432576.00000,  -0.00060,   0.00186,  -0.00073,-5100352.00000,   0.00000
53120348.54275,491084714.83253,-36019940.23646,  -0.00131,   0.00399,  -0.00120,471003168.00000,   0.00165,276432576.00000,  -0.00060,   0.00186,  -0.00073,-5429408.00000,   0.00000
53383956.60803,490989367.23445,-35464680.69469,  -0.00131,   0.00399,  -0.00119,470675136.00000,   0.00165,276432576.00000,  -0.00060,   0.00186,  -0.00073,-5757440.00000,   0.00000
53647564.67332,490894019.63637,-34909421.15291,  -0.00131,   0.00399,  -0.00119,470348960.00000,   0.00165,276432576.00000,  -0.00060,   0.00186,  -0.00073,-6083616.00000,   0.00000
53922390.10308,490787454.67381,-34342944.24666,  -0.00131,   0.00399,  -0.00118,470006816.00000,   0.00165,276432576.00000,  -0.00060,   0.00186,  -0.00073,-6425760.00000,   0.00000
54208432.89733,490669672.34677,-33782076.02265,  -0.00131,   0.00399,  -0.00117,469652224.00000,   0.00165,276432576.00000,  -0.00060,   0.00186,  -0.00073,-6780352.00000,   0.00000
54494475.69157,490551890.01972,-33209990.43416,  -0.00131,   0.00399,  -0.00117,469297248.00000,   0.00165,276432576.00000,  -0.00060,   0.00186,  -0.00073,-7135328.00000,   0.00000
54811366.23814,490431303.35156,-32637904.84567,  -0.00130,   0.00398,  -0.00116,468928896.00000,   0.00165,276432576.00000,  -0.00060,   0.00186,  -0.00073,-7503680.00000,   0.00000
55119843.76134,490291086.29556,-32060210.57494,  -0.00130,   0.00398,  -0.00115,468545632.00000,   0.00165,276432576.00000,  -0.00060,   0.00186,  -0.00073,-7886944.00000,   0.00000
55447951.67239,490159282.26292,-31482516.30421,  -0.00130,   0.00398,  -0.00114,468164704.00000,   0.00165,276432576.00000,  -0.00060,   0.00186,  -0.00073,-8267872.00000,   0.00000
55776059.58344,490027478.23027,-30893604.66900,  -0.00130,   0.00398,  -0.00114,467783808.00000,   0.00165,276432576.00000,  -0.00060,   0.00186,  -0.00073,-8648768.00000,   0.00000
56126602.22344,489873239.46867,-30310301.71603,  -0.00130,   0.00398,  -0.00113,467374944.00000,   0.00165,276432576.00000,  -0.00060,   0.00186,  -0.00073,-9057632.00000,   0.00000
56477144.86345,489719000.70707,-29715781.39858,  -0.00130,   0.00398,  -0.00112,466966080.00000,   0.00165,276432576.00000,  -0.00060,   0.00186,  -0.00073,-9466496.00000,   0.00000
56847317.89130,489573174.96883,-29121261.08112,  -0.00129,   0.00398,  -0.00111,466559840.00000,   0.00165,276432576.00000,  -0.00060,   0.00186,  -0.00073,-9872736.00000,   0.00000
57228708.28362,489416131.86610,-28526740.76367,  -0.00129,   0.00398,  -0.00110,466140416.00000,   0.00165,276432576.00000,  -0.00060,   0.00186,  -0.00073,-10292160.00000,   0.00000
57601685.65259,489239458.37554,-27921003.08174,  -0.00129,   0.00397,  -0.00110,465705152.00000,   0.00165,276432576.00000,  -0.00060,   0.00186,  -0.00073,-10727424.00000,   0.00000
57994293.40940,489071197.90834,-27315265.39981,  -0.00129,   0.00397,  -0.00109,465272864.00000,   0.00165,276432576.00000,  -0.00060,   0.00186,  -0.00073,-11159712.00000,   0.00000
58417748.91853,488900133.10001,-26709527.71788,  -0.00129,   0.00397,  -0.00108,464827808.00000,   0.00165,276432576.00000,  -0.00060,   0.00186,  -0.00073,-11604768.00000,   0.00000
58821574.03981,488720655.26833,-26098181.35371,  -0.00128,   0.00397,  -0.00107,464383904.00000,   0.00165,276432576.00000,  -0.00060,   0.00186,  -0.00073,-12048672.00000,   0.00000
59256246.91342,488538373.09553,-25481226.30729,  -0.00128,   0.00397,  -0.00106,463926400.00000,   0.00165,276432576.00000,  -0.00060,   0.00186,  -0.00073,-12506176.00000,   0.00000
59710550.17487,488364503.94608,-24864271.26088,  -0.00128,   0.00397,  -0.00106,463472064.00000,   0.00165,276432576.00000,  -0.00060,   0.00186,  -0.00073,-12960512.00000,   0.00000
60156440.41296,488171004.40880,-24241707.53223,  -0.00128,   0.00396,  -0.00105,463003488.00000,   0.00165,276432576.00000,  -0.00060,   0.00186,  -0.00073,-13429088.00000,   0.00000
60613548.01553,487966287.50703,-23619143.80358,  -0.00127,   0.00396,  -0.00104,462521952.00000,   0.00165,276432576.00000,  -0.00060,   0.00186,  -0.00073,-13910624.00000,   0.00000
61090286.00594,487769983.62863,-22990971.39269,  -0.00127,   0.00396,  -0.00103,462042880.00000,   0.00165,276432576.00000,  -0.00060,   0.00186,  -0.00073,-14389696.00000,   0.00000
61578241.36083,487562462.38575,-22362798.98179,  -0.00127,   0.00396,  -0.00102,461551168.00000,   0.00165,276432576.00000,  -0.00060,   0.00186,  -0.00073,-14881408.00000,   0.00000
62066196.71572,487354941.14286,-21729017.88866,  -0.00127,   0.00396,  -0.00102,461061568.00000,   0.00165,276432576.00000,  -0.00060,   0.00186,  -0.00073,-15371008.00000,   0.00000
62565369.43509,487136202.53550,-21095236.79553,  -0.00126,   0.00395,  -0.00101,460559392.00000,   0.00165,276432576.00000,  -0.00060,   0.00186,  -0.00073,-15873184.00000,   0.00000
63084172.54230,486925876.95149,-20455847.02016,  -0.00126,   0.00395,  -0.00100,460060000.00000,   0.00165,276432576.00000,  -0.00060,   0.00186,  -0.00073,-16372576.00000,   0.00000
63614193.01399,486704334.00301,-19816457.24479,  -0.00126,   0.00395,  -0.00099,459548256.00000,   0.00165,276432576.00000,  -0.00060,   0.00186,  -0.00073,-16884320.00000,   0.00000
64163843.87352,486491204.07789,-19171458.78717,  -0.00125,   0.00395,  -0.00098,459039456.00000,   0.00165,276432576.00000,  -0.00060,   0.00186,  -0.00073,-17393120.00000,   0.00000
64724712.09753,486266856.78828,-18526460.32956,  -0.00125,   0.00395,  -0.00097,458518464.00000,   0.00165,276432576.00000,  -0.00060,   0.00186,  -0.00073,-17914112.00000,   0.00000
65277167.29818,486022879.11084,-17875853.18971,  -0.00125,   0.00394,  -0.00097,457983968.00000,   0.00165,276432576.00000,  -0.00060,   0.00186,  -0.00073,-18448608.00000,   0.00000
65849252.88667,485787314.45675,-17225246.04986,  -0.00125,   0.00394,  -0.00096,457453664.00000,   0.00165,276432576.00000,  -0.00060,   0.00186,  -0.00073,-18978912.00000,   0.00000
66440968.86300,485560162.82603,-16574638.91000,  -0.00124,   0.00394,  -0.00095,456927232.00000,   0.00165,276432576.00000,  -0.00060,   0.00186,  -0.00073,-19505344.00000,   0.00000
67043902.20381,485321793.83082,-15918423.08791,  -0.00124,   0.00394,  -0.00094,456388384.00000,   0.00165,276432576.00000,  -0.00060,   0.00186,  -0.00073,-20044192.00000,   0.00000
67638422.52126,485063794.44778,-15262207.26582,  -0.00124,   0.00394,  -0.00093,455836896.00000,   0.00165,276432576.00000,  -0.00060,   0.00186,  -0.00073,-20595680.00000,   0.00000
68272203.61440,484822621.11145,-14600382.76148,  -0.00123,   0.00393,  -0.00092,455289856.00000,   0.00165,276432576.00000,  -0.00060,   0.00186,  -0.00073,-21142720.00000,   0.00000
68897571.68417,484561817.38729,-13938558.25715,  -0.00123,   0.00393,  -0.00091,454730496.00000,   0.00165,276432576.00000,  -0.00060,   0.00186,  -0.00073,-21702080.00000,   0.00000
69542570.14178,484309426.68648,-13271125.07058,  -0.00123,   0.00393,  -0.00091,454175168.00000,   0.00165,276432576.00000,  -0.00060,   0.00186,  -0.00073,-22257408.00000,   0.00000
70207198.98723,484065449.00904,-12603691.88401,  -0.00122,   0.00393,  -0.00090,453624576.00000,   0.00165,276432576.00000,  -0.00060,   0.00186,  -0.00073,-22808000.00000,   0.00000
70874632.17381,483790623.57927,-11936258.69743,  -0.00122,   0.00392,  -0.00089,453046272.00000,   0.00165,276432576.00000,  -0.00060,   0.00186,  -0.00073,-23386304.00000,   0.00000
71550478.38374,483535428.53735,-11263216.82862,  -0.00121,   0.00392,  -0.00088,452487616.00000,   0.00165,276432576.00000,  -0.00060,   0.00186,  -0.00073,-23944960.00000,   0.00000
72229128.93479,483249385.74310,-10590174.95981,  -0.00121,   0.00392,  -0.00087,451901472.00000,   0.00165,276432576.00000,  -0.00060,   0.00186,  -0.00073,-24531104.00000,   0.00000
72935822.89705,482991386.36006,-9917133.09100,  -0.00121,   0.00392,  -0.00086,451336736.00000,   0.00165,276432576.00000,  -0.00060,   0.00186,  -0.00073,-25095840.00000,   0.00000
73653734.22378,482722169.61253,-9244091.22218,  -0.00120,   0.00391,  -0.00085,450760544.00000,   0.00165,276432576.00000,  -0.00060,   0.00186,  -0.00073,-25672032.00000,   0.00000
74382862.91499,482441735.50053,-8565440.67113,  -0.00120,   0.00391,  -0.00084,450173280.00000,   0.00165,276432576.00000,  -0.00060,   0.00186,  -0.00073,-26259296.00000,   0.00000
75131621.99405,482169714.41188,-7886790.12008,  -0.00120,   0.00391,  -0.00084,449591136.00000,   0.00165,276432576.00000,  -0.00060,   0.00186,  -0.00073,-26841440.00000,   0.00000
75871968.04974,481878062.93540,-7202530.88678,  -0.00119,   0.00390,  -0.00083,448996864.00000,   0.00165,276432576.00000,  -0.00060,   0.00186,  -0.00073,-27435712.00000,   0.00000
76651574.88112,481603237.50563,-6523880.33573,  -0.00119,   0.00390,  -0.00082,448409280.00000,   0.00165,276432576.00000,  -0.00060,   0.00186,  -0.00073,-28023296.00000,   0.00000
77422768.68913,481308781.68803,-5839621.10244,  -0.00118,   0.00390,  -0.00081,447809568.00000,   0.00165,276432576.00000,  -0.00060,   0.00186,  -0.00073,-28623008.00000,   0.00000
78213592.88499,481022738.89378,-5149753.18690,  -0.00118,   0.00390,  -0.00080,447215328.00000,   0.00165,276432576.00000,  -0.00060,   0.00186,  -0.00073,-29217248.00000,   0.00000
79004417.08084,480736696.09954,-4465493.95361,  -0.00118,   0.00389,  -0.00079,446625696.00000,   0.00165,276432576.00000,  -0.00060,   0.00186,  -0.00073,-29806880.00000,   0.00000
79826089.02902,480447848.96417,-3775626.03808,  -0.00117,   0.00389,  -0.00078,446026528.00000,   0.00165,276432576.00000,  -0.00060,   0.00186,  -0.00073,-30406048.00000,   0.00000
80639347.95383,480139371.44096,-3085758.12254,  -0.00117,   0.00389,  -0.00077,445415584.00000,   0.00165,276432576.00000,  -0.00060,   0.00186,  -0.00073,-31016992.00000,   0.00000
81491867.65433,479847719.96448,-2395890.20701,  -0.00116,   0.00388,  -0.00076,444811744.00000,   0.00165,276432576.00000,  -0.00060,   0.00186,  -0.00073,-31620832.00000,   0.00000
82335974.33147,479536438.10015,-1706022.29148,  -0.00116,   0.00388,  -0.00076,444196160.00000,   0.00165,276432576.00000,  -0.00060,   0.00186,  -0.00073,-32236416.00000,   0.00000
83199711.39644,479233569.25919,-1016154.37594,  -0.00115,   0.00388,  -0.00075,443586528.00000,   0.00165,276432576.00000,  -0.00060,   0.00186,  -0.00073,-32846048.00000,   0.00000
84063448.46142,478930700.41822,-320677.77817,  -0.00115,   0.00388,  -0.00074,442981440.00000,   0.00165,276432576.00000,  -0.00060,   0.00186,  -0.00073,-33451136.00000,   0.00000
84958033.27872,478625027.23613,374798.81960,  -0.00114,   0.00387,  -0.00073,442367584.00000,   0.00165,276432576.00000,  -0.00060,   0.00186,  -0.00073,-34064992.00000,   0.00000
85852618.09601,478319354.05405,1064666.73514,  -0.00114,   0.00387,  -0.00072,441758240.00000,   0.00165,276432576.00000,  -0.00060,   0.00186,  -0.00073,-34674336.00000,   0.00000
86758420.27779,478002463.50748,1760143.33291,  -0.00113,   0.00387,  -0.00071,441138976.00000,   0.00165,276432576.00000,  -0.00060,   0.00186,  -0.00073,-35293600.00000,   0.00000
87703483.23525,477702399.00764,2461228.61292,  -0.00113,   0.00386,  -0.00070,440527392.00000,   0.00165,276432576.00000,  -0.00060,   0.00186,  -0.00073,-35905184.00000,   0.00000
88620502.78151,477374291.09659,3156705.21070,  -0.00113,   0.00386,  -0.00069,439902752.00000,   0.00165,276432576.00000,  -0.00060,   0.00186,  -0.00073,-36529824.00000,   0.00000
89576783.10345,477063009.23226,3852181.80847,  -0.00112,   0.00386,  -0.00068,439286272.00000,   0.00165,276432576.00000,  -0.00060,   0.00186,  -0.00073,-37146304.00000,   0.00000
90544280.78986,476740510.00346,4547658.40624,  -0.00112,   0.00385,  -0.00067,438660032.00000,   0.00165,276432576.00000,  -0.00060,   0.00186,  -0.00073,-37772544.00000,   0.00000
91511778.47628,476418010.77465,5248743.68626,  -0.00111,   0.00385,  -0.00067,438039104.00000,   0.00165,276432576.00000,  -0.00060,   0.00186,  -0.00073,-38393472.00000,   0.00000
92498906.55054,476103924.56921,5944220.28403,  -0.00111,   0.00385,  -0.00066,437425024.00000,   0.00165,276432576.00000,  -0.00060,   0.00186,  -0.00073,-39007552.00000,   0.00000
93497251.98928,475778620.99928,6645305.56404,  -0.00110,   0.00384,  -0.00065,436801600.00000,   0.00165,276432576.00000,  -0.00060,   0.00186,  -0.00073,-39630976.00000,   0.00000
