# sigma_xx, sigma_yy, sigma_xy, epsilon_xx, epsilon_yy, epsilon_xy, vonMises, epsPlastic, hardening, epsilonP__xx, epsilonP__yy, epsilonP__xy, yieldValue, iteration
   0.00000,   0.00000,   0.00000,   0.00000,   0.00000,   0.00000,   0.00000,   0.00000,274640135.82653,   0.00000,   0.00000,   0.00000,-474640135.82653,   0.00000
   0.00000,   0.00000,   0.00000,   0.00000,   0.00000,   0.00000,   0.00000,   0.00000,274640135.82653,   0.00000,   0.00000,   0.00000,-474640135.82653,   0.00000
1007095.06730,3230408.76778,484286.15258,  -0.00000,   0.00001,   0.00001,2983295.45618,   0.00000,274640135.82653,   0.00000,   0.00000,   0.00000,-471656840.37035,   0.00000
1994928.75353,6452562.65796,979578.80863,  -0.00000,   0.00003,   0.00001,5968385.60527,   0.00000,274640135.82653,   0.00000,   0.00000,   0.00000,-468671750.22126,   0.00000
2974507.56216,9655455.16707,1469368.21294,  -0.00001,   0.00004,   0.00002,8934898.66455,   0.00000,274640135.82653,   0.00000,   0.00000,   0.00000,-465705237.16198,   0.00000
3954086.37078,12858347.67618,1970164.12072,  -0.00001,   0.00005,   0.00003,11906868.88648,   0.00000,274640135.82653,   0.00000,   0.00000,   0.00000,-462733266.94005,   0.00000
4925410.30181,16041978.80423,2470960.02851,  -0.00001,   0.00006,   0.00003,14862986.01628,   0.00000,274640135.82653,   0.00000,   0.00000,   0.00000,-459777149.81025,   0.00000
5869217.97417,19198093.67360,2977259.18802,  -0.00001,   0.00008,   0.00004,17802498.15862,   0.00000,274640135.82653,   0.00000,   0.00000,   0.00000,-456837637.66791,   0.00000
6821280.52413,22373469.92404,3489061.59927,  -0.00001,   0.00009,   0.00005,20760707.17272,   0.00000,274640135.82653,   0.00000,   0.00000,   0.00000,-453879428.65381,   0.00000
7745826.81542,25521329.91581,4000864.01052,  -0.00001,   0.00010,   0.00005,23699642.41484,   0.00000,274640135.82653,   0.00000,   0.00000,   0.00000,-450940493.41169,   0.00000
8662118.22911,28649928.52652,4518169.67351,  -0.00002,   0.00011,   0.00006,26625611.73444,   0.00000,274640135.82653,   0.00000,   0.00000,   0.00000,-448014524.09209,   0.00000
9578409.64280,31778527.13722,5040978.58822,  -0.00002,   0.00013,   0.00007,29554481.26617,   0.00000,274640135.82653,   0.00000,   0.00000,   0.00000,-445085654.56036,   0.00000
10486446.17889,34887864.36686,5563787.50294,  -0.00002,   0.00014,   0.00007,32467616.41540,   0.00000,274640135.82653,   0.00000,   0.00000,   0.00000,-442172519.41113,   0.00000
11375221.33391,37988946.71889,6092099.66939,  -0.00002,   0.00015,   0.00008,35380278.28017,   0.00000,274640135.82653,   0.00000,   0.00000,   0.00000,-439259857.54636,   0.00000
12255741.61132,41070767.68986,6625915.08758,  -0.00002,   0.00016,   0.00009,38280108.36891,   0.00000,274640135.82653,   0.00000,   0.00000,   0.00000,-436360027.45762,   0.00000
13136261.88874,44152588.66082,7159730.50576,  -0.00003,   0.00018,   0.00009,41180064.55668,   0.00000,274640135.82653,   0.00000,   0.00000,   0.00000,-433460071.26985,   0.00000
13997520.78509,47226154.75419,7699049.17568,  -0.00003,   0.00019,   0.00010,44079669.60916,   0.00000,274640135.82653,   0.00000,   0.00000,   0.00000,-430560466.21737,   0.00000
14850524.80384,50280459.46649,8243871.09733,  -0.00003,   0.00020,   0.00011,46966538.22312,   0.00000,274640135.82653,   0.00000,   0.00000,   0.00000,-427673597.60341,   0.00000
15695273.94499,53315502.79772,8788693.01899,  -0.00003,   0.00021,   0.00011,49837801.07311,   0.00000,274640135.82653,   0.00000,   0.00000,   0.00000,-424802334.75342,   0.00000
16520761.70507,56342291.25134,9339018.19237,  -0.00003,   0.00022,   0.00012,52708856.61327,   0.00000,274640135.82653,   0.00000,   0.00000,   0.00000,-421931279.21326,   0.00000
17337994.58755,59349818.32390,9894846.61750,  -0.00004,   0.00024,   0.00013,55567293.71921,   0.00000,274640135.82653,   0.00000,   0.00000,   0.00000,-419072842.10732,   0.00000
18155227.47003,62357345.39646,10450675.04262,  -0.00004,   0.00025,   0.00014,58425926.14432,   0.00000,274640135.82653,   0.00000,   0.00000,   0.00000,-416214209.68221,   0.00000
18953198.97144,65356617.59142,11012006.71947,  -0.00004,   0.00026,   0.00014,61284476.93258,   0.00000,274640135.82653,   0.00000,   0.00000,   0.00000,-413355658.89395,   0.00000
19734660.71765,68317367.02424,11573338.39632,  -0.00004,   0.00027,   0.00015,64111823.37390,   0.00000,274640135.82653,   0.00000,   0.00000,   0.00000,-410528312.45263,   0.00000
20524377.34146,71297377.83813,12145676.57665,  -0.00005,   0.00028,   0.00016,66961065.13605,   0.00000,274640135.82653,   0.00000,   0.00000,   0.00000,-407679070.69048,   0.00000
21286577.70660,74249872.39335,12718014.75697,  -0.00005,   0.00030,   0.00017,69791689.76717,   0.00000,274640135.82653,   0.00000,   0.00000,   0.00000,-404848446.05936,   0.00000
22040523.19414,77183105.56750,13290352.93729,  -0.00005,   0.00031,   0.00017,72606892.66766,   0.00000,274640135.82653,   0.00000,   0.00000,   0.00000,-402033243.15887,   0.00000
22775207.30061,80108083.86405,13868194.36935,  -0.00005,   0.00032,   0.00018,75422260.61777,   0.00000,274640135.82653,   0.00000,   0.00000,   0.00000,-399217875.20876,   0.00000
23520897.91055,83022055.65714,14451539.05314,  -0.00005,   0.00033,   0.00019,78228396.45316,   0.00000,274640135.82653,   0.00000,   0.00000,   0.00000,-396411739.37337,   0.00000
24228065.75835,85919517.69502,15034883.73693,  -0.00006,   0.00034,   0.00020,81028650.20253,   0.00000,274640135.82653,   0.00000,   0.00000,   0.00000,-393611485.62400,   0.00000
24946240.10962,88805973.22943,15623731.67245,  -0.00006,   0.00036,   0.00020,83819709.01645,   0.00000,274640135.82653,   0.00000,   0.00000,   0.00000,-390820426.81008,   0.00000
25645153.07983,91684173.88625,16218082.85971,  -0.00006,   0.00037,   0.00021,86611116.94415,   0.00000,274640135.82653,   0.00000,   0.00000,   0.00000,-388029018.88237,   0.00000
26316549.79136,94534858.28439,16812434.04697,  -0.00006,   0.00038,   0.00022,89384242.09256,   0.00000,274640135.82653,   0.00000,   0.00000,   0.00000,-385255893.73397,   0.00000
27007207.88396,97393797.56013,17412288.48596,  -0.00007,   0.00039,   0.00023,92163821.07157,   0.00000,274640135.82653,   0.00000,   0.00000,   0.00000,-382476314.75496,   0.00000
27670349.71789,100225220.57721,18017646.17668,  -0.00007,   0.00040,   0.00023,94928304.05407,   0.00000,274640135.82653,   0.00000,   0.00000,   0.00000,-379711831.77246,   0.00000
28305975.29315,103029127.33561,18623003.86741,  -0.00007,   0.00041,   0.00024,97674654.86571,   0.00000,274640135.82653,   0.00000,   0.00000,   0.00000,-376965480.96082,   0.00000
28941600.86841,105833034.09402,19233864.80987,  -0.00007,   0.00043,   0.00025,100424571.70187,   0.00000,274640135.82653,   0.00000,   0.00000,   0.00000,-374215564.12466,   0.00000
29577226.44367,108636940.85243,19844725.75233,  -0.00008,   0.00044,   0.00026,103174886.78302,   0.00000,274640135.82653,   0.00000,   0.00000,   0.00000,-371465249.04351,   0.00000
30177080.88267,111394069.97109,20461089.94652,  -0.00008,   0.00045,   0.00027,105894833.59143,   0.00000,274640135.82653,   0.00000,   0.00000,   0.00000,-368745302.23510,   0.00000
30785190.19926,114170460.47083,21077454.14072,  -0.00008,   0.00046,   0.00027,108630750.05797,   0.00000,274640135.82653,   0.00000,   0.00000,   0.00000,-366009385.76856,   0.00000
31385044.63825,116927589.58950,21699321.58664,  -0.00009,   0.00047,   0.00028,111354776.67082,   0.00000,274640135.82653,   0.00000,   0.00000,   0.00000,-363285359.15571,   0.00000
31957382.81857,119657202.44950,22326692.28430,  -0.00009,   0.00048,   0.00029,114064161.56729,   0.00000,274640135.82653,   0.00000,   0.00000,   0.00000,-360575974.25924,   0.00000
32529720.99890,122386815.30950,22954062.98196,  -0.00009,   0.00049,   0.00030,116774026.97537,   0.00000,274640135.82653,   0.00000,   0.00000,   0.00000,-357866108.85116,   0.00000
33074542.92055,125088911.91083,23586936.93136,  -0.00009,   0.00050,   0.00031,119469382.97309,   0.00000,274640135.82653,   0.00000,   0.00000,   0.00000,-355170752.85344,   0.00000
33611109.96460,127771747.13109,24225314.13249,  -0.00010,   0.00052,   0.00031,122153073.51534,   0.00000,274640135.82653,   0.00000,   0.00000,   0.00000,-352487062.31119,   0.00000
34147677.00865,130454582.35135,24863691.33362,  -0.00010,   0.00053,   0.00032,124837295.70653,   0.00000,274640135.82653,   0.00000,   0.00000,   0.00000,-349802840.12000,   0.00000
34664982.67164,133129162.69401,25502068.53475,  -0.00010,   0.00054,   0.00033,127519337.21600,   0.00000,274640135.82653,   0.00000,   0.00000,   0.00000,-347120798.61053,   0.00000
35154772.07595,135776226.77800,26151452.23934,  -0.00010,   0.00055,   0.00034,130190455.92803,   0.00000,274640135.82653,   0.00000,   0.00000,   0.00000,-344449679.89850,   0.00000
35655567.98373,138412284.35852,26795332.69220,  -0.00011,   0.00056,   0.00035,132846079.87109,   0.00000,274640135.82653,   0.00000,   0.00000,   0.00000,-341794055.95544,   0.00000
36137102.51045,141040087.06144,27450219.64853,  -0.00011,   0.00057,   0.00036,135506309.55120,   0.00000,274640135.82653,   0.00000,   0.00000,   0.00000,-339133826.27533,   0.00000
36591120.77849,143640373.50570,28105106.60487,  -0.00011,   0.00058,   0.00037,138149179.57368,   0.00000,274640135.82653,   0.00000,   0.00000,   0.00000,-336490956.25285,   0.00000
37036884.16893,146221398.56888,28759993.56120,  -0.00012,   0.00059,   0.00037,140777323.72611,   0.00000,274640135.82653,   0.00000,   0.00000,   0.00000,-333862812.10042,   0.00000
37482647.55938,148802423.63206,29420383.76926,  -0.00012,   0.00060,   0.00038,143409477.68278,   0.00000,274640135.82653,   0.00000,   0.00000,   0.00000,-331230658.14375,   0.00000
37909149.56875,151375193.81765,30080773.97732,  -0.00012,   0.00061,   0.00039,146039744.41962,   0.00000,274640135.82653,   0.00000,   0.00000,   0.00000,-328600391.40691,   0.00000
38327396.70053,153928702.62216,30746667.43712,  -0.00013,   0.00063,   0.00040,148658740.25852,   0.00000,274640135.82653,   0.00000,   0.00000,   0.00000,-325981395.56800,   0.00000
38718127.57363,156454695.16801,31418064.14865,  -0.00013,   0.00064,   0.00041,151264062.02552,   0.00000,274640135.82653,   0.00000,   0.00000,   0.00000,-323376073.80101,   0.00000
39108858.44673,158980687.71385,32089460.86019,  -0.00013,   0.00065,   0.00042,153870104.82320,   0.00000,274640135.82653,   0.00000,   0.00000,   0.00000,-320770031.00333,   0.00000
39491334.44224,161487418.87863,32766360.82345,  -0.00014,   0.00066,   0.00043,156465016.82421,   0.00000,274640135.82653,   0.00000,   0.00000,   0.00000,-318175119.00232,   0.00000
39846294.17907,163966633.78474,33443260.78672,  -0.00014,   0.00067,   0.00043,159043002.06331,   0.00000,274640135.82653,   0.00000,   0.00000,   0.00000,-315597133.76322,   0.00000
40201253.91591,166445848.69085,34125664.00172,  -0.00014,   0.00068,   0.00044,161625221.93962,   0.00000,274640135.82653,   0.00000,   0.00000,   0.00000,-313014913.88691,   0.00000
40528697.39407,168897547.33828,34808067.21672,  -0.00014,   0.00069,   0.00045,164190632.65840,   0.00000,274640135.82653,   0.00000,   0.00000,   0.00000,-310449503.16813,   0.00000
40856140.87224,171349245.98572,35495973.68345,  -0.00015,   0.00070,   0.00046,166760342.58094,   0.00000,274640135.82653,   0.00000,   0.00000,   0.00000,-307879793.24559,   0.00000
41156068.09173,173773428.37449,36183880.15018,  -0.00015,   0.00071,   0.00047,169313362.87266,   0.00000,274640135.82653,   0.00000,   0.00000,   0.00000,-305326772.95387,   0.00000
41455995.31123,176197610.76326,36877289.86865,  -0.00015,   0.00072,   0.00048,171870747.32032,   0.00000,274640135.82653,   0.00000,   0.00000,   0.00000,-302769388.50621,   0.00000
41747667.65312,178602531.77096,37570699.58712,  -0.00016,   0.00073,   0.00049,174413776.32942,   0.00000,274640135.82653,   0.00000,   0.00000,   0.00000,-300226359.49711,   0.00000
42011823.73635,180979936.51999,38269612.55732,  -0.00016,   0.00074,   0.00050,176943842.21951,   0.00000,274640135.82653,   0.00000,   0.00000,   0.00000,-297696293.60702,   0.00000
42256718.43851,183349086.39142,38968525.52752,  -0.00017,   0.00075,   0.00051,179472630.11258,   0.00000,274640135.82653,   0.00000,   0.00000,   0.00000,-295167505.71395,   0.00000
42512619.64413,185707229.75938,39672941.74946,  -0.00017,   0.00076,   0.00052,181992923.24470,   0.00000,274640135.82653,   0.00000,   0.00000,   0.00000,-292647212.58183,   0.00000
42721743.21002,188029601.99108,40377357.97139,  -0.00017,   0.00077,   0.00052,184494767.69256,   0.00000,274640135.82653,   0.00000,   0.00000,   0.00000,-290145368.13397,   0.00000
42950128.15697,190360229.10037,41087277.44506,  -0.00018,   0.00078,   0.00053,187003281.25339,   0.00000,274640135.82653,   0.00000,   0.00000,   0.00000,-287636854.57314,   0.00000
43150996.84526,192663339.95099,41797196.91873,  -0.00018,   0.00079,   0.00054,189495574.95144,   0.00000,274640135.82653,   0.00000,   0.00000,   0.00000,-285144560.87509,   0.00000
43332604.15248,194958195.92402,42512619.64413,  -0.00018,   0.00080,   0.00055,191990455.22459,   0.00000,274640135.82653,   0.00000,   0.00000,   0.00000,-282649680.60194,   0.00000
43505956.58210,197233790.51597,43228042.36954,  -0.00019,   0.00081,   0.00056,194471289.89652,   0.00000,274640135.82653,   0.00000,   0.00000,   0.00000,-280168845.93000,   0.00000
43671054.13411,199490123.72686,43948968.34667,  -0.00019,   0.00082,   0.00057,196941772.86055,   0.00000,274640135.82653,   0.00000,   0.00000,   0.00000,-277698362.96598,   0.00000
43816890.30506,201738202.06014,44669894.32381,  -0.00019,   0.00083,   0.00058,199411333.06098,   0.00000,274640135.82653,   0.00000,   0.00000,   0.00000,-275228802.76555,   0.00000
43954471.59841,203967019.01236,45396323.55268,  -0.00020,   0.00084,   0.00059,201870642.86417,   0.00000,274640135.82653,   0.00000,   0.00000,   0.00000,-272769492.96236,   0.00000
44072791.51068,206187581.08697,46122752.78155,  -0.00020,   0.00085,   0.00060,204329127.25587,   0.00000,274640135.82653,   0.00000,   0.00000,   0.00000,-270311008.57065,   0.00000
44182856.54536,208388881.78052,46849182.01042,  -0.00021,   0.00086,   0.00061,206773722.60039,   0.00000,274640135.82653,   0.00000,   0.00000,   0.00000,-267866413.22614,   0.00000
44265405.32137,210562666.21540,47581114.49102,  -0.00021,   0.00087,   0.00062,209206376.85084,   0.00000,274640135.82653,   0.00000,   0.00000,   0.00000,-265433758.97569,   0.00000
44347954.09738,212736450.65028,48318550.22336,  -0.00021,   0.00088,   0.00063,211643943.94049,   0.00000,274640135.82653,   0.00000,   0.00000,   0.00000,-262996191.88604,   0.00000
44422247.99578,214890973.70409,49055985.95570,  -0.00022,   0.00089,   0.00064,214067736.58076,   0.00000,274640135.82653,   0.00000,   0.00000,   0.00000,-260572399.24577,   0.00000
44469025.63552,217017980.49923,49793421.68804,  -0.00022,   0.00090,   0.00065,216476036.76378,   0.00000,274640135.82653,   0.00000,   0.00000,   0.00000,-258164099.06275,   0.00000
44496541.89419,219136732.41677,50536360.67211,  -0.00022,   0.00091,   0.00066,218887629.13935,   0.00000,274640135.82653,   0.00000,   0.00000,   0.00000,-255752506.68718,   0.00000
44515803.27526,221236222.95324,51279299.65618,  -0.00023,   0.00092,   0.00067,221285595.16877,   0.00000,274640135.82653,   0.00000,   0.00000,   0.00000,-253354540.65776,   0.00000
44535064.65633,223335713.48971,52022238.64026,  -0.00023,   0.00093,   0.00068,223684783.57501,   0.00000,274640135.82653,   0.00000,   0.00000,   0.00000,-250955352.25152,   0.00000
44526809.77873,225407687.76751,52770680.87606,  -0.00024,   0.00094,   0.00069,226072580.24415,   0.00000,274640135.82653,   0.00000,   0.00000,   0.00000,-248567555.58238,   0.00000
44510300.02353,227460400.66424,53524626.36360,  -0.00024,   0.00095,   0.00070,228450709.96514,   0.00000,274640135.82653,   0.00000,   0.00000,   0.00000,-246189425.86139,   0.00000
44474528.88726,229504858.68337,54273068.59941,  -0.00025,   0.00096,   0.00071,230824698.28276,   0.00000,274640135.82653,   0.00000,   0.00000,   0.00000,-243815437.54377,   0.00000
44430502.87339,231530055.32144,55032517.33868,  -0.00025,   0.00097,   0.00072,233192995.62464,   0.00000,274640135.82653,   0.00000,   0.00000,   0.00000,-241447140.20189,   0.00000
44378221.98191,233535990.57843,55786462.82622,  -0.00025,   0.00098,   0.00073,235543969.89746,   0.00000,274640135.82653,   0.00000,   0.00000,   0.00000,-239096165.92907,   0.00000
44306679.70937,235533670.95783,56545911.56550,  -0.00026,   0.00099,   0.00074,237898712.57776,   0.00000,274640135.82653,   0.00000,   0.00000,   0.00000,-236741423.24877,   0.00000
44207621.17816,237503835.07855,57310863.55650,  -0.00026,   0.00099,   0.00075,240242608.88218,   0.00000,274640135.82653,   0.00000,   0.00000,   0.00000,-234397526.94435,   0.00000
44100307.76935,239454737.81821,58070312.29578,  -0.00027,   0.00100,   0.00075,242569298.31434,   0.00000,274640135.82653,   0.00000,   0.00000,   0.00000,-232070837.51219,   0.00000
43992994.36054,241405640.55786,58840767.53852,  -0.00027,   0.00101,   0.00076,244905323.82098,   0.00000,274640135.82653,   0.00000,   0.00000,   0.00000,-229734812.00555,   0.00000
43858164.69306,243329027.03885,59605719.52953,  -0.00027,   0.00102,   0.00077,247222804.10460,   0.00000,274640135.82653,   0.00000,   0.00000,   0.00000,-227417331.72193,   0.00000
43723335.02558,245252413.51984,60376174.77227,  -0.00028,   0.00103,   0.00078,249545727.99649,   0.00000,274640135.82653,   0.00000,   0.00000,   0.00000,-225094407.83004,   0.00000
43552734.22183,247129022.36109,61146630.01501,  -0.00028,   0.00104,   0.00079,251839593.40923,   0.00000,274640135.82653,   0.00000,   0.00000,   0.00000,-222800542.41730,   0.00000
43390388.29568,249024892.58341,61922588.50949,  -0.00029,   0.00105,   0.00080,254153609.14472,   0.00000,274640135.82653,   0.00000,   0.00000,   0.00000,-220486526.68181,   0.00000
43211532.61433,250882240.04359,62698547.00396,  -0.00029,   0.00106,   0.00082,256439958.29705,   0.00000,274640135.82653,   0.00000,   0.00000,   0.00000,-218200177.52948,   0.00000
43013415.55191,252731332.62617,63480008.75017,  -0.00030,   0.00107,   0.00083,258730703.83695,   0.00000,274640135.82653,   0.00000,   0.00000,   0.00000,-215909431.98957,   0.00000
42787782.23083,254552908.95008,64255967.24465,  -0.00030,   0.00107,   0.00084,261003278.34806,   0.00000,274640135.82653,   0.00000,   0.00000,   0.00000,-213636857.47847,   0.00000
42562148.90974,256374485.27399,65037428.99085,  -0.00031,   0.00108,   0.00085,263281533.17247,   0.00000,274640135.82653,   0.00000,   0.00000,   0.00000,-211358602.65405,   0.00000
42328260.71105,258176800.21683,65824393.98880,  -0.00031,   0.00109,   0.00086,265550973.35140,   0.00000,274640135.82653,   0.00000,   0.00000,   0.00000,-209089162.47513,   0.00000
42066856.25369,259951598.90100,66611358.98674,  -0.00032,   0.00110,   0.00087,267806510.48948,   0.00000,274640135.82653,   0.00000,   0.00000,   0.00000,-206833625.33705,   0.00000
41805451.79633,261726397.58517,67398323.98468,  -0.00032,   0.00111,   0.00088,270063723.81823,   0.00000,274640135.82653,   0.00000,   0.00000,   0.00000,-204576412.00830,   0.00000
41508276.20270,263454418.62961,68185288.98263,  -0.00032,   0.00112,   0.00089,272292728.17029,   0.00000,274640135.82653,   0.00000,   0.00000,   0.00000,-202347407.65624,   0.00000
41219355.48667,265201701.05511,68977757.23230,  -0.00033,   0.00113,   0.00090,274542031.92990,   0.00000,274640135.82653,   0.00000,   0.00000,   0.00000,-200098103.89663,   0.00000
40913925.01544,266910460.71848,69770225.48198,  -0.00033,   0.00113,   0.00091,276764235.07539,   0.00000,274640135.82653,   0.00000,   0.00000,   0.00000,-197875900.75114,   0.00000
40589233.16315,268610965.50424,70562693.73166,  -0.00034,   0.00114,   0.00092,278987284.24225,   0.00000,274640135.82653,   0.00000,   0.00000,   0.00000,-195652851.58428,   0.00000
40245279.92978,270303215.41241,71360665.23307,  -0.00034,   0.00115,   0.00093,281215426.09935,   0.00000,274640135.82653,   0.00000,   0.00000,   0.00000,-193424709.72718,   0.00000
39884816.94121,271956942.55843,72158636.73448,  -0.00035,   0.00116,   0.00094,283416708.97191,   0.00000,274640135.82653,   0.00000,   0.00000,   0.00000,-191223426.85462,   0.00000
39524353.95264,273610669.70446,72956608.23589,  -0.00035,   0.00117,   0.00095,285619831.65168,   0.00000,274640135.82653,   0.00000,   0.00000,   0.00000,-189020304.17485,   0.00000
39136374.70540,275236880.59182,73760082.98904,  -0.00036,   0.00118,   0.00096,287813953.96863,   0.00000,274640135.82653,   0.00000,   0.00000,   0.00000,-186826181.85790,   0.00000
38748395.45817,276863091.47918,74563557.74218,  -0.00036,   0.00118,   0.00097,290009967.84093,   0.00000,274640135.82653,   0.00000,   0.00000,   0.00000,-184630167.98560,   0.00000
38332899.95226,278461786.10787,75367032.49533,  -0.00037,   0.00119,   0.00098,292192913.18440,   0.00000,274640135.82653,   0.00000,   0.00000,   0.00000,-182447222.64213,   0.00000
37909149.56875,280041219.35549,76176010.50020,  -0.00037,   0.00120,   0.00099,294367826.73443,   0.00000,274640135.82653,   0.00000,   0.00000,   0.00000,-180272309.09210,   0.00000
37485399.18524,281620652.60311,76979485.25335,  -0.00038,   0.00121,   0.00100,296540398.58450,   0.00000,274640135.82653,   0.00000,   0.00000,   0.00000,-178099737.24203,   0.00000
37034132.54307,283172569.59206,77788463.25823,  -0.00038,   0.00122,   0.00101,298704395.20701,   0.00000,274640135.82653,   0.00000,   0.00000,   0.00000,-175935740.61952,   0.00000
36574611.02329,284705225.19994,78602944.51484,  -0.00039,   0.00122,   0.00102,300860521.20356,   0.00000,274640135.82653,   0.00000,   0.00000,   0.00000,-173779614.62297,   0.00000
36095828.12244,286229625.93022,79411922.51972,  -0.00039,   0.00123,   0.00103,303013815.69444,   0.00000,274640135.82653,   0.00000,   0.00000,   0.00000,-171626320.13209,   0.00000
35600535.46639,287715503.89837,80226403.77633,  -0.00040,   0.00124,   0.00104,305145229.18910,   0.00000,274640135.82653,   0.00000,   0.00000,   0.00000,-169494906.63743,   0.00000
35094236.30688,289212388.36998,81040885.03294,  -0.00040,   0.00125,   0.00105,307292366.07678,   0.00000,274640135.82653,   0.00000,   0.00000,   0.00000,-167347769.74975,   0.00000
34571427.39216,290670750.07945,81855366.28956,  -0.00041,   0.00126,   0.00106,309413426.96056,   0.00000,274640135.82653,   0.00000,   0.00000,   0.00000,-165226708.86597,   0.00000
34048618.47744,292129111.78893,82675350.79790,  -0.00041,   0.00126,   0.00107,311540967.75548,   0.00000,274640135.82653,   0.00000,   0.00000,   0.00000,-163099168.07104,   0.00000
33498293.30406,293559957.23973,83495335.30625,  -0.00042,   0.00127,   0.00109,313656244.40244,   0.00000,274640135.82653,   0.00000,   0.00000,   0.00000,-160983891.42409,   0.00000
32928706.74960,294982547.81294,84315319.81460,  -0.00043,   0.00128,   0.00110,315773382.18340,   0.00000,274640135.82653,   0.00000,   0.00000,   0.00000,-158866753.64313,   0.00000
32370126.69861,296394131.88268,85135304.32294,  -0.00043,   0.00129,   0.00111,317878988.04684,   0.00000,274640135.82653,   0.00000,   0.00000,   0.00000,-156761147.77969,   0.00000
31784030.38896,297778199.69374,85960792.08302,  -0.00044,   0.00129,   0.00112,319976972.26363,   0.00000,274640135.82653,   0.00000,   0.00000,   0.00000,-154663163.56290,   0.00000
31170417.82063,299134751.24614,86780776.59137,  -0.00044,   0.00130,   0.00113,322058610.70090,   0.00000,274640135.82653,   0.00000,   0.00000,   0.00000,-152581525.12563,   0.00000
30556805.25230,300491302.79854,87606264.35145,  -0.00045,   0.00131,   0.00114,324146972.60041,   0.00000,274640135.82653,   0.00000,   0.00000,   0.00000,-150493163.22612,   0.00000
29934937.80638,301828592.96987,88431752.11153,  -0.00045,   0.00131,   0.00115,326223702.72782,   0.00000,274640135.82653,   0.00000,   0.00000,   0.00000,-148416433.09871,   0.00000
29293808.97938,303157628.26360,89262743.12334,  -0.00046,   0.00132,   0.00116,328307089.62136,   0.00000,274640135.82653,   0.00000,   0.00000,   0.00000,-146333046.20517,   0.00000
28636170.39718,304448140.79519,90088230.88342,  -0.00046,   0.00133,   0.00117,330360620.96270,   0.00000,274640135.82653,   0.00000,   0.00000,   0.00000,-144279514.86382,   0.00000
27959270.43392,305730398.44918,90919221.89524,  -0.00047,   0.00134,   0.00118,332420987.87395,   0.00000,274640135.82653,   0.00000,   0.00000,   0.00000,-142219147.95258,   0.00000
27282370.47065,307012656.10317,91750212.90705,  -0.00047,   0.00134,   0.00119,334483737.16596,   0.00000,274640135.82653,   0.00000,   0.00000,   0.00000,-140156398.66057,   0.00000
26588960.75218,308256390.99503,92581203.91887,  -0.00048,   0.00135,   0.00120,336521316.26181,   0.00000,274640135.82653,   0.00000,   0.00000,   0.00000,-138118819.56471,   0.00000
25876289.65265,309491871.00928,93412194.93068,  -0.00049,   0.00136,   0.00121,338561388.48507,   0.00000,274640135.82653,   0.00000,   0.00000,   0.00000,-136078747.34146,   0.00000
25163618.55311,310727351.02354,94248689.19423,  -0.00049,   0.00136,   0.00123,340608449.81020,   0.00000,274640135.82653,   0.00000,   0.00000,   0.00000,-134031686.01633,   0.00000
24415176.31731,311916053.39805,95085183.45778,  -0.00050,   0.00137,   0.00124,342630728.48433,   0.00000,274640135.82653,   0.00000,   0.00000,   0.00000,-132009407.34219,   0.00000
23666734.08150,313104755.77257,95916174.46959,  -0.00050,   0.00138,   0.00125,344650943.66562,   0.00000,274640135.82653,   0.00000,   0.00000,   0.00000,-129989192.16091,   0.00000
22918291.84569,314293458.14708,96752668.73314,  -0.00051,   0.00139,   0.00126,346678227.54987,   0.00000,274640135.82653,   0.00000,   0.00000,   0.00000,-127961908.27666,   0.00000
22134078.47362,315435382.88186,97594666.24842,  -0.00051,   0.00139,   0.00127,348685651.16170,   0.00000,274640135.82653,   0.00000,   0.00000,   0.00000,-125954484.66483,   0.00000
21349865.10154,316577307.61664,98431160.51197,  -0.00052,   0.00140,   0.00128,350691040.24059,   0.00000,274640135.82653,   0.00000,   0.00000,   0.00000,-123949095.58594,   0.00000
20538135.47080,317691716.09275,99267654.77552,  -0.00053,   0.00141,   0.00129,352685763.58198,   0.00000,274640135.82653,   0.00000,   0.00000,   0.00000,-121954372.24455,   0.00000
19726405.84005,318806124.56885,100109652.29080,  -0.00053,   0.00141,   0.00130,354687756.48138,   0.00000,274640135.82653,   0.00000,   0.00000,   0.00000,-119952379.34515,   0.00000
18906421.33170,319901271.66389,100951649.80608,  -0.00054,   0.00142,   0.00131,356678840.06320,   0.00000,274640135.82653,   0.00000,   0.00000,   0.00000,-117961295.76333,   0.00000
18058920.56469,320968902.50026,101788144.06963,  -0.00054,   0.00143,   0.00132,358654831.12544,   0.00000,274640135.82653,   0.00000,   0.00000,   0.00000,-115985304.70109,   0.00000
17203164.92007,322017271.95557,102630141.58491,  -0.00055,   0.00143,   0.00133,360624727.34080,   0.00000,274640135.82653,   0.00000,   0.00000,   0.00000,-114015408.48573,   0.00000
16347409.27546,323065641.41087,103477642.35192,  -0.00056,   0.00144,   0.00135,362602023.69456,   0.00000,274640135.82653,   0.00000,   0.00000,   0.00000,-112038112.13197,   0.00000
15464137.37217,324086494.60750,104319639.86721,  -0.00056,   0.00144,   0.00136,364564451.42751,   0.00000,274640135.82653,   0.00000,   0.00000,   0.00000,-110075684.39902,   0.00000
14572610.59128,325088086.42307,105161637.38249,  -0.00057,   0.00145,   0.00137,366516238.04853,   0.00000,274640135.82653,   0.00000,   0.00000,   0.00000,-108123897.77800,   0.00000
13661822.42933,326081423.36103,106009138.14950,  -0.00057,   0.00146,   0.00138,368476167.02222,   0.00000,274640135.82653,   0.00000,   0.00000,   0.00000,-106163968.80431,   0.00000
12742779.38977,327055498.91792,106851135.66479,  -0.00058,   0.00146,   0.00139,370420811.11443,   0.00000,274640135.82653,   0.00000,   0.00000,   0.00000,-104219324.71210,   0.00000
11815481.47262,328010313.09375,107698636.43180,  -0.00059,   0.00147,   0.00140,372359718.80550,   0.00000,274640135.82653,   0.00000,   0.00000,   0.00000,-102280417.02103,   0.00000
10888183.55546,328965127.26958,108540633.94708,  -0.00059,   0.00148,   0.00141,374296650.35166,   0.00000,274640135.82653,   0.00000,   0.00000,   0.00000,-100343485.47487,   0.00000
9933369.37963,329892425.18673,109388134.71410,  -0.00060,   0.00148,   0.00142,376228697.41234,   0.00000,274640135.82653,   0.00000,   0.00000,   0.00000,-98411438.41419,   0.00000
8951038.94514,330792206.84522,110235635.48111,  -0.00060,   0.00149,   0.00143,378151235.97746,   0.00000,274640135.82653,   0.00000,   0.00000,   0.00000,-96488899.84906,   0.00000
7979715.01411,331680982.00024,111083136.24813,  -0.00061,   0.00149,   0.00144,380062651.98852,   0.00000,274640135.82653,   0.00000,   0.00000,   0.00000,-94577483.83801,   0.00000
6989129.70201,332561502.27766,111930637.01515,  -0.00062,   0.00150,   0.00146,381977862.92624,   0.00000,274640135.82653,   0.00000,   0.00000,   0.00000,-92662272.90029,   0.00000
5971028.13125,333414506.29641,112778137.78216,  -0.00062,   0.00151,   0.00147,383883815.59294,   0.00000,274640135.82653,   0.00000,   0.00000,   0.00000,-90756320.23359,   0.00000
4963933.06395,334256503.81169,113631141.80091,  -0.00063,   0.00151,   0.00148,385783531.55844,   0.00000,274640135.82653,   0.00000,   0.00000,   0.00000,-88856604.26809,   0.00000
3937576.61558,335090246.44937,114478642.56793,  -0.00064,   0.00152,   0.00149,387682361.04982,   0.00000,274640135.82653,   0.00000,   0.00000,   0.00000,-86957774.77671,   0.00000
2883703.90855,335896472.82838,115326143.33494,  -0.00064,   0.00152,   0.00150,389572186.17960,   0.00000,274640135.82653,   0.00000,   0.00000,   0.00000,-85067949.64693,   0.00000
1829831.20151,336702699.20739,116173644.10196,  -0.00065,   0.00153,   0.00151,391465060.48805,   0.00000,274640135.82653,   0.00000,   0.00000,   0.00000,-83175075.33848,   0.00000
759448.73927,337470402.82427,117026648.12071,  -0.00065,   0.00153,   0.00152,393339887.60854,   0.00000,274640135.82653,   0.00000,   0.00000,   0.00000,-81300248.21799,   0.00000
-310933.72296,338238106.44114,117874148.88772,  -0.00066,   0.00154,   0.00153,395212889.32722,   0.00000,274640135.82653,   0.00000,   0.00000,   0.00000,-79427246.49931,   0.00000
-1408832.44387,338978293.79935,118727152.90647,  -0.00067,   0.00155,   0.00154,397082161.02700,   0.00000,274640135.82653,   0.00000,   0.00000,   0.00000,-77557974.79952,   0.00000
-2506731.16478,339718481.15755,119574653.67349,  -0.00067,   0.00155,   0.00155,398949628.96148,   0.00000,274640135.82653,   0.00000,   0.00000,   0.00000,-75690506.86505,   0.00000
-3612884.76328,340439407.13469,120427657.69224,  -0.00068,   0.00156,   0.00157,400812267.05917,   0.00000,274640135.82653,   0.00000,   0.00000,   0.00000,-73827868.76736,   0.00000
-4746554.62046,341132816.85316,121275158.45925,  -0.00069,   0.00156,   0.00158,402661552.97087,   0.00000,274640135.82653,   0.00000,   0.00000,   0.00000,-71978582.85566,   0.00000
-5888479.35524,341806965.19056,122128162.47800,  -0.00069,   0.00157,   0.00159,404506196.62826,   0.00000,274640135.82653,   0.00000,   0.00000,   0.00000,-70133939.19827,   0.00000
-7030404.09002,342481113.52796,122975663.24502,  -0.00070,   0.00157,   0.00160,406349063.70998,   0.00000,274640135.82653,   0.00000,   0.00000,   0.00000,-68291072.11655,   0.00000
-8180583.70240,343136000.48429,123828667.26377,  -0.00071,   0.00158,   0.00161,408187341.86681,   0.00000,274640135.82653,   0.00000,   0.00000,   0.00000,-66452793.95972,   0.00000
-9358279.57344,343763371.18195,124681671.28252,  -0.00071,   0.00158,   0.00162,410017589.81657,   0.00000,274640135.82653,   0.00000,   0.00000,   0.00000,-64622546.00996,   0.00000
-10535975.44449,344390741.87961,125529172.04953,  -0.00072,   0.00159,   0.00163,411846089.42787,   0.00000,274640135.82653,   0.00000,   0.00000,   0.00000,-62794046.39866,   0.00000
-11741187.57421,344990596.31860,126382176.06828,  -0.00073,   0.00159,   0.00164,413671765.55803,   0.00000,274640135.82653,   0.00000,   0.00000,   0.00000,-60968370.26850,   0.00000
-12954654.58153,345571189.37652,127229676.83530,  -0.00073,   0.00160,   0.00165,415483089.18291,   0.00000,274640135.82653,   0.00000,   0.00000,   0.00000,-59157046.64362,   0.00000
-14168121.58884,346151782.43445,128082680.85405,  -0.00074,   0.00160,   0.00167,417302806.24255,   0.00000,274640135.82653,   0.00000,   0.00000,   0.00000,-57337329.58398,   0.00000
-15389843.47376,346713114.11130,128930181.62107,  -0.00075,   0.00161,   0.00168,419108179.98925,   0.00000,274640135.82653,   0.00000,   0.00000,   0.00000,-55531955.83728,   0.00000
-16639081.61735,347246929.52949,129783185.63981,  -0.00075,   0.00161,   0.00169,420911136.62030,   0.00000,274640135.82653,   0.00000,   0.00000,   0.00000,-53728999.20623,   0.00000
-17877313.25747,347769738.44420,130630686.40683,  -0.00076,   0.00162,   0.00170,422698126.98408,   0.00000,274640135.82653,   0.00000,   0.00000,   0.00000,-51942008.84245,   0.00000
-19154067.65973,348276037.60372,131483690.42558,  -0.00077,   0.00162,   0.00171,424497187.28064,   0.00000,274640135.82653,   0.00000,   0.00000,   0.00000,-50142948.54589,   0.00000
-20419815.55852,348771330.25977,132331191.19260,  -0.00077,   0.00163,   0.00172,426280293.23670,   0.00000,274640135.82653,   0.00000,   0.00000,   0.00000,-48359842.58983,   0.00000
-21713079.71598,349239106.65715,133178691.95961,  -0.00078,   0.00163,   0.00173,428056257.97135,   0.00000,274640135.82653,   0.00000,   0.00000,   0.00000,-46583877.85518,   0.00000
-23006343.87344,349706883.05452,134026192.72663,  -0.00079,   0.00164,   0.00174,429835705.50965,   0.00000,274640135.82653,   0.00000,   0.00000,   0.00000,-44804430.31688,   0.00000
-24307862.90850,350155398.07084,134879196.74538,  -0.00079,   0.00164,   0.00175,431611396.46021,   0.00000,274640135.82653,   0.00000,   0.00000,   0.00000,-43028739.36632,   0.00000
-25617636.82116,350584651.70608,135726697.51239,  -0.00080,   0.00165,   0.00176,433373073.53308,   0.00000,274640135.82653,   0.00000,   0.00000,   0.00000,-41267062.29345,   0.00000
-26946672.11489,351005650.46372,136574198.27941,  -0.00081,   0.00165,   0.00178,435140274.94135,   0.00000,274640135.82653,   0.00000,   0.00000,   0.00000,-39499860.88518,   0.00000
-28283962.28622,351407387.84029,137421699.04642,  -0.00081,   0.00165,   0.00179,436898727.58173,   0.00000,274640135.82653,   0.00000,   0.00000,   0.00000,-37741408.24480,   0.00000
-29629507.33515,351789863.83579,138269199.81344,  -0.00082,   0.00166,   0.00180,438648482.50579,   0.00000,274640135.82653,   0.00000,   0.00000,   0.00000,-35991653.32074,   0.00000
-30994313.76515,352164084.95370,139111197.32872,  -0.00083,   0.00166,   0.00181,440398739.81383,   0.00000,274640135.82653,   0.00000,   0.00000,   0.00000,-34241396.01270,   0.00000
-32356368.56928,352508038.18706,139958698.09574,  -0.00083,   0.00167,   0.00182,442131250.98624,   0.00000,274640135.82653,   0.00000,   0.00000,   0.00000,-32508884.84029,   0.00000
-33737684.75448,352843736.54283,140806198.86275,  -0.00084,   0.00167,   0.00183,443869599.60748,   0.00000,274640135.82653,   0.00000,   0.00000,   0.00000,-30770536.21905,   0.00000
-35119000.93968,353179434.89860,141648196.37803,  -0.00085,   0.00168,   0.00184,445606329.60027,   0.00000,274640135.82653,   0.00000,   0.00000,   0.00000,-29033806.22626,   0.00000
-36527833.38355,353487616.99569,142495697.14505,  -0.00086,   0.00168,   0.00185,447342135.14079,   0.00000,274640135.82653,   0.00000,   0.00000,   0.00000,-27298000.68574,   0.00000
-37925659.32395,353784792.58932,143337694.66033,  -0.00086,   0.00168,   0.00186,449061956.47369,   0.00000,274640135.82653,   0.00000,   0.00000,   0.00000,-25578179.35284,   0.00000
-39351001.52302,354054451.92428,144179692.17561,  -0.00087,   0.00169,   0.00187,450775780.66345,   0.00000,274640135.82653,   0.00000,   0.00000,   0.00000,-23864355.16308,   0.00000
-40776343.72210,354324111.25924,145021689.69090,  -0.00088,   0.00169,   0.00189,452493314.00490,   0.00000,274640135.82653,   0.00000,   0.00000,   0.00000,-22146821.82163,   0.00000
-42218195.67637,354555247.83206,145863687.20618,  -0.00088,   0.00170,   0.00190,454190629.99871,   0.00000,274640135.82653,   0.00000,   0.00000,   0.00000,-20449505.82782,   0.00000
-43671054.13411,354797390.90835,146705684.72146,  -0.00089,   0.00170,   0.00191,455906130.05128,   0.00000,274640135.82653,   0.00000,   0.00000,   0.00000,-18734005.77525,   0.00000
-45121160.96599,355009266.10011,147547682.23674,  -0.00090,   0.00170,   0.00192,457599042.85769,   0.00000,274640135.82653,   0.00000,   0.00000,   0.00000,-17041092.96884,   0.00000
-46590529.17893,355212886.41426,148384176.50029,  -0.00090,   0.00171,   0.00193,459292956.55403,   0.00000,274640135.82653,   0.00000,   0.00000,   0.00000,-15347179.27250,   0.00000
-48068152.26947,355397245.34734,149226174.01557,  -0.00091,   0.00171,   0.00194,460984155.04501,   0.00000,274640135.82653,   0.00000,   0.00000,   0.00000,-13655980.78152,   0.00000
-49565036.74108,355573349.40283,150062668.27912,  -0.00092,   0.00171,   0.00195,462676473.39490,   0.00000,274640135.82653,   0.00000,   0.00000,   0.00000,-11963662.43163,   0.00000
-51050914.70923,355738446.95484,150899162.54267,  -0.00093,   0.00172,   0.00196,464358141.32737,   0.00000,274640135.82653,   0.00000,   0.00000,   0.00000,-10281994.49915,   0.00000
-52545047.55497,355884283.12579,151735656.80622,  -0.00093,   0.00172,   0.00197,466031855.36899,   0.00000,274640135.82653,   0.00000,   0.00000,   0.00000,-8608280.45754,   0.00000
-54066696.65939,356002603.03807,152572151.06976,  -0.00094,   0.00173,   0.00198,467700470.01485,   0.00000,274640135.82653,   0.00000,   0.00000,   0.00000,-6939665.81167,   0.00000
-55588345.76380,356120922.95035,153408645.33331,  -0.00095,   0.00173,   0.00199,469372971.45815,   0.00000,274640135.82653,   0.00000,   0.00000,   0.00000,-5267164.36837,   0.00000
-57118249.74582,356219981.48156,154239636.34513,  -0.00095,   0.00173,   0.00201,471032300.15264,   0.00000,274640135.82653,   0.00000,   0.00000,   0.00000,-3607835.67388,   0.00000
-58675669.98650,356291523.75410,155070627.35694,  -0.00096,   0.00174,   0.00202,472686816.42372,   0.00000,274640135.82653,   0.00000,   0.00000,   0.00000,-1953319.40281,   0.00000
-60213828.84612,356371320.90424,155901618.36875,  -0.00097,   0.00174,   0.00203,474342333.23616,   0.00000,274640135.82653,   0.00000,   0.00000,   0.00000,-297802.59037,   0.00000
-60496546.73171,356380761.39603,156051672.50135,  -0.00097,   0.00174,   0.00203,474640135.38380,   0.00000,274640135.82653,   0.00000,   0.00000,   0.00000,  -0.44273,   0.00000
-61531277.14850,355469402.99645,156281968.76682,  -0.00098,   0.00174,   0.00204,474640135.38380,   0.00001,274646439.12355,  -0.00000,   0.00000,   0.00001,   0.00000,   2.00000
-62781416.04562,354357593.60954,156565869.91366,  -0.00098,   0.00175,   0.00205,476286522.99868,   0.00001,274654081.12458,  -0.00001,   0.00001,   0.00001,   0.00000,   2.00000
-64056288.92743,353225134.47551,156850498.74444,  -0.00099,   0.00175,   0.00206,476289470.60015,   0.00002,274661702.60085,  -0.00001,   0.00002,   0.00002,   0.00000,   2.00000
-65327833.80584,352097383.62596,157129361.07096,  -0.00100,   0.00175,   0.00207,476295429.80155,   0.00003,274669317.65041,  -0.00001,   0.00002,   0.00003,   0.00000,   2.00000
-66605445.69528,350959250.70184,157409952.66531,  -0.00100,   0.00175,   0.00208,476295424.22436,   0.00003,274676898.48740,  -0.00002,   0.00003,   0.00003,   0.00000,   2.00000
-67897279.97748,349811593.60724,157687390.86736,  -0.00101,   0.00176,   0.00209,476309990.59200,   0.00004,274684513.20489,  -0.00002,   0.00003,   0.00004,   0.00000,   2.00000
-69176558.03442,348663911.00795,157967593.68456,  -0.00102,   0.00176,   0.00210,476306929.26590,   0.00005,274692079.41430,  -0.00002,   0.00004,   0.00005,   0.00000,   2.00000
-70481583.31169,347499022.84534,158244753.48360,  -0.00103,   0.00176,   0.00211,476304791.48876,   0.00005,274699601.65271,  -0.00003,   0.00005,   0.00006,   0.00000,   2.00000
-71772993.76458,346330240.07777,158528310.92411,  -0.00103,   0.00177,   0.00212,476307214.37804,   0.00006,274707101.35956,  -0.00003,   0.00005,   0.00006,   0.00000,   2.00000
-73079645.21280,345155626.63403,158804984.61390,  -0.00104,   0.00177,   0.00213,476316438.97511,   0.00007,274714610.36484,  -0.00004,   0.00006,   0.00007,  -0.00000,   2.00000
-74393490.60818,343974095.83600,159079677.65991,  -0.00105,   0.00177,   0.00214,476311185.69529,   0.00007,274722061.05493,  -0.00004,   0.00006,   0.00008,   0.00000,   2.00000
-75701708.99212,342789687.58128,159355858.40934,  -0.00106,   0.00178,   0.00216,476328156.41962,   0.00008,274729557.38958,  -0.00004,   0.00007,   0.00008,   0.00000,   2.00000
-77027740.13507,341586584.69176,159633805.49482,  -0.00106,   0.00178,   0.00217,476311850.17270,   0.00009,274736943.83441,  -0.00005,   0.00007,   0.00009,   0.00000,   2.00000
-78349260.89430,340384345.36643,159909586.09681,  -0.00107,   0.00178,   0.00218,476323308.21156,   0.00009,274744350.47678,  -0.00005,   0.00008,   0.00010,   0.00000,   2.00000
-79684721.77001,339172398.82551,160182017.65658,  -0.00108,   0.00178,   0.00219,476338286.32923,   0.00010,274751793.65927,  -0.00005,   0.00008,   0.00010,   0.00000,   2.00000
-81018407.56488,337948310.10068,160460963.32634,  -0.00109,   0.00179,   0.00220,476324253.19980,   0.00011,274759137.71376,  -0.00006,   0.00009,   0.00011,   0.00000,   2.00000
-82348773.29273,336728824.24797,160734128.00624,  -0.00109,   0.00179,   0.00221,476330149.27745,   0.00012,274766476.14290,  -0.00006,   0.00010,   0.00012,   0.00000,   2.00000
-83693006.71038,335499575.53131,161003889.84232,  -0.00110,   0.00179,   0.00222,476345227.63270,   0.00012,274773851.86345,  -0.00006,   0.00010,   0.00013,  -0.00000,   2.00000
-85053980.99127,334247269.96054,161278908.26101,  -0.00111,   0.00179,   0.00223,476334956.27437,   0.00013,274781146.27030,  -0.00007,   0.00011,   0.00013,   0.00000,   2.00000
-86393212.84548,333010220.19146,161549399.20674,  -0.00111,   0.00180,   0.00224,476337186.92309,   0.00014,274788418.10077,  -0.00007,   0.00011,   0.00014,  -0.00000,   2.00000
-87755659.88993,331747571.91549,161823696.08843,  -0.00112,   0.00180,   0.00225,476347169.73446,   0.00014,274795703.70005,  -0.00008,   0.00012,   0.00015,  -0.00000,   2.00000
-89114740.86684,330489498.20317,162092198.32264,  -0.00113,   0.00180,   0.00226,476353117.48905,   0.00015,274802984.11566,  -0.00008,   0.00012,   0.00015,   0.00000,   2.00000
-90481227.93344,329223829.47937,162358631.35356,  -0.00114,   0.00180,   0.00227,476348252.44999,   0.00016,274810208.80627,  -0.00008,   0.00013,   0.00016,  -0.00000,   2.00000
-91852481.70480,327943127.58910,162630080.49277,  -0.00114,   0.00180,   0.00228,476354700.90650,   0.00016,274817430.91276,  -0.00009,   0.00013,   0.00017,   0.00000,   2.00000
-93220387.79146,326666979.14488,162895741.53011,  -0.00115,   0.00181,   0.00229,476360613.30214,   0.00017,274824647.91133,  -0.00009,   0.00014,   0.00017,   0.00000,   2.00000
-94595768.37108,325383065.00217,163159316.95336,  -0.00116,   0.00181,   0.00230,476355824.10335,   0.00017,274831809.75878,  -0.00009,   0.00014,   0.00018,   0.00000,   2.00000
-95975888.88677,324083992.61122,163427856.19437,  -0.00117,   0.00181,   0.00231,476362405.65780,   0.00018,274838969.88362,  -0.00010,   0.00015,   0.00019,   0.00000,   2.00000
-97363504.85513,322777022.66108,163694262.60044,  -0.00117,   0.00181,   0.00232,476357718.23488,   0.00019,274846075.55873,  -0.00010,   0.00015,   0.00019,   0.00000,   2.00000
-98746385.49379,321470914.73981,163958405.13463,  -0.00118,   0.00181,   0.00233,476369269.77094,   0.00019,274853202.98652,  -0.00010,   0.00016,   0.00020,   0.00000,   2.00000
-100136815.17705,320156803.83303,164220419.39351,  -0.00119,   0.00182,   0.00234,476364614.59742,   0.00020,274860276.21273,  -0.00011,   0.00016,   0.00021,   0.00000,   2.00000
-101521056.57728,318839941.62713,164483681.65022,  -0.00120,   0.00182,   0.00235,476381860.45951,   0.00021,274867397.96076,  -0.00011,   0.00017,   0.00022,   0.00000,   2.00000
-102914344.92712,317518600.80116,164741302.04517,  -0.00120,   0.00182,   0.00236,476371555.78645,   0.00021,274874439.03494,  -0.00012,   0.00017,   0.00022,   0.00000,   2.00000
-104330423.90941,316170955.03037,165002302.15874,  -0.00121,   0.00182,   0.00237,476382661.07387,   0.00022,274881500.03675,  -0.00012,   0.00018,   0.00023,   0.00000,   2.00000
-105725022.41598,314838703.48409,165258992.27851,  -0.00122,   0.00182,   0.00238,476384308.72444,   0.00023,274888536.54979,  -0.00012,   0.00018,   0.00024,  -0.00000,   2.00000
-107136707.98982,313481800.48464,165520605.89385,  -0.00123,   0.00182,   0.00239,476375235.17870,   0.00023,274895498.48260,  -0.00013,   0.00019,   0.00024,   0.00000,   2.00000
-108532614.45812,312138591.89068,165776322.67982,  -0.00123,   0.00183,   0.00240,476397079.78328,   0.00024,274902530.92978,  -0.00013,   0.00019,   0.00025,   0.00000,   2.00000
-109947179.90459,310774129.79571,166033446.78538,  -0.00124,   0.00183,   0.00241,476382413.57317,   0.00025,274909462.56302,  -0.00013,   0.00020,   0.00026,   0.00000,   2.00000
-111376469.68736,309403131.20094,166283245.15470,  -0.00125,   0.00183,   0.00242,476392644.33705,   0.00025,274916410.45334,  -0.00014,   0.00020,   0.00026,   0.00000,   2.00000
-112792275.11879,308027469.77746,166539324.59861,  -0.00125,   0.00183,   0.00243,476395424.77971,   0.00026,274923339.59551,  -0.00014,   0.00021,   0.00027,   0.00000,   2.00000
-114204798.04305,306656256.43366,166789632.44335,  -0.00126,   0.00183,   0.00244,476401216.57636,   0.00026,274930264.15714,  -0.00014,   0.00021,   0.00028,   0.00000,   2.00000
-115623480.29448,305272883.57268,167041186.35385,  -0.00127,   0.00183,   0.00245,476402696.83489,   0.00027,274937163.94266,  -0.00015,   0.00022,   0.00028,   0.00000,   2.00000
-117049930.38054,303880820.14402,167290512.54520,  -0.00128,   0.00183,   0.00246,476398432.54659,   0.00028,274944012.13011,  -0.00015,   0.00022,   0.00029,  -0.00000,   2.00000
-118482525.18835,302476469.78270,167541037.19400,  -0.00128,   0.00184,   0.00247,476400011.72912,   0.00028,274950836.32861,  -0.00016,   0.00023,   0.00030,   0.00000,   2.00000
-119910190.92194,301073010.84281,167789220.16410,  -0.00129,   0.00184,   0.00248,476411603.45922,   0.00029,274957683.55331,  -0.00016,   0.00023,   0.00030,  -0.00000,   2.00000
-121334597.97238,299673973.77557,168031648.66827,  -0.00130,   0.00184,   0.00249,476417350.11715,   0.00030,274964526.27216,  -0.00016,   0.00024,   0.00031,   0.00000,   2.00000
-122776253.40836,298249213.98226,168278748.88279,  -0.00131,   0.00184,   0.00250,476409173.99691,   0.00030,274971299.23126,  -0.00017,   0.00024,   0.00032,   0.00000,   2.00000
-124196831.61096,296839924.39738,168521780.82164,  -0.00131,   0.00184,   0.00251,476410108.45797,   0.00031,274978045.42750,  -0.00017,   0.00025,   0.00032,   0.00000,   2.00000
-125641419.54952,295407023.96407,168764251.73681,  -0.00132,   0.00184,   0.00252,476416650.16630,   0.00031,274984791.27476,  -0.00017,   0.00025,   0.00033,  -0.00000,   2.00000
-127081013.14537,293975039.94299,169004367.38091,  -0.00133,   0.00184,   0.00253,476428248.22145,   0.00032,274991560.46019,  -0.00018,   0.00026,   0.00034,   0.00000,   2.00000
-128510763.15650,292545046.21248,169243942.60196,  -0.00134,   0.00184,   0.00254,476419324.62455,   0.00033,274998256.60660,  -0.00018,   0.00026,   0.00034,  -0.00000,   2.00000
-129966208.99271,291094700.00924,169479463.33139,  -0.00134,   0.00184,   0.00255,476420248.07140,   0.00033,275004926.23211,  -0.00018,   0.00027,   0.00035,   0.00000,   2.00000
-131397147.27731,289652995.55915,169717802.04308,  -0.00135,   0.00185,   0.00256,476432699.76509,   0.00034,275011623.49652,  -0.00019,   0.00027,   0.00036,   0.00000,   2.00000
-132853753.80285,288190826.95977,169952027.36720,  -0.00136,   0.00185,   0.00257,476433807.17393,   0.00035,275018295.05303,  -0.00019,   0.00028,   0.00036,   0.00000,   2.00000
-134300659.22210,286730441.73827,170185731.06763,  -0.00136,   0.00185,   0.00258,476424872.27843,   0.00035,275024893.88292,  -0.00019,   0.00028,   0.00037,  -0.00000,   2.00000
-135742562.93451,285270989.24779,170417081.93591,  -0.00137,   0.00185,   0.00259,476436372.58220,   0.00036,275031516.17177,  -0.00020,   0.00028,   0.00038,   0.00000,   2.00000
-137190658.18463,283798670.81770,170649469.55949,  -0.00138,   0.00185,   0.00260,476438431.42265,   0.00036,275038117.49714,  -0.00020,   0.00029,   0.00038,   0.00000,   2.00000
-138635591.95316,282330684.89776,170876130.75664,  -0.00139,   0.00185,   0.00261,476444028.35586,   0.00037,275044714.53271,  -0.00021,   0.00029,   0.00039,   0.00000,   2.00000
-140097929.84215,280835816.00444,171107164.75941,  -0.00139,   0.00185,   0.00262,476436813.52969,   0.00038,275051247.17308,  -0.00021,   0.00030,   0.00040,   0.00000,   2.00000
-141557086.45220,279345234.61602,171332448.86821,  -0.00140,   0.00185,   0.00263,476442432.16874,   0.00038,275057775.91741,  -0.00021,   0.00030,   0.00040,   0.00000,   2.00000
-142993682.70240,277866849.74912,171557287.47397,  -0.00141,   0.00185,   0.00264,476448597.59655,   0.00039,275064303.31600,  -0.00022,   0.00031,   0.00041,   0.00000,   2.00000
-144453973.36550,276364147.55228,171781166.61557,  -0.00142,   0.00185,   0.00265,476456193.16605,   0.00039,275070836.08078,  -0.00022,   0.00031,   0.00042,   0.00000,   2.00000
-145904932.81283,274862869.68116,172004595.08664,  -0.00142,   0.00185,   0.00266,476447158.17173,   0.00040,275077296.10539,  -0.00022,   0.00032,   0.00042,   0.00000,   2.00000
-147352814.43099,273365873.29447,172222325.12255,  -0.00143,   0.00185,   0.00267,476452628.22191,   0.00041,275083751.78905,  -0.00023,   0.00032,   0.00043,  -0.00000,   2.00000
-148806916.51212,271855651.25623,172440997.00138,  -0.00144,   0.00185,   0.00268,476454947.26396,   0.00041,275090188.34545,  -0.00023,   0.00032,   0.00043,   0.00000,   2.00000
-150267210.49016,270332153.16220,172660571.77323,  -0.00144,   0.00185,   0.00269,476457353.77064,   0.00042,275096606.25863,  -0.00023,   0.00033,   0.00044,  -0.00000,   2.00000
-151724415.92186,268812916.93700,172874438.20938,  -0.00145,   0.00185,   0.00270,476462842.75493,   0.00042,275103020.06212,  -0.00024,   0.00033,   0.00045,   0.00000,   2.00000
-153172563.21865,267294860.63698,173087924.90183,  -0.00146,   0.00185,   0.00270,476453667.79614,   0.00043,275109360.91106,  -0.00024,   0.00034,   0.00045,   0.00000,   2.00000
-154642150.29144,265748856.03072,173303530.87111,  -0.00147,   0.00185,   0.00271,476467816.30457,   0.00043,275115738.63603,  -0.00024,   0.00034,   0.00046,  -0.00000,   2.00000
-156093489.54459,264221618.50716,173512203.77584,  -0.00147,   0.00185,   0.00272,476461561.37756,   0.00044,275122057.23702,  -0.00025,   0.00035,   0.00047,   0.96287,   1.00000
-157551060.91861,262680883.22441,173721733.99430,  -0.00148,   0.00185,   0.00273,476464083.13201,   0.00045,275128358.18734,  -0.00025,   0.00035,   0.00047,   0.92116,   1.00000
-159003515.67885,261141174.76130,173928885.83427,  -0.00149,   0.00185,   0.00274,476475473.05574,   0.00045,275134683.18351,  -0.00026,   0.00035,   0.00048,   0.89265,   1.00000
-160464308.91412,259591092.10901,174133569.88281,  -0.00150,   0.00185,   0.00275,476472077.16687,   0.00046,275140962.67318,  -0.00026,   0.00036,   0.00049,   0.84560,   1.00000
-161914168.93023,258038713.87144,174341198.46373,  -0.00150,   0.00185,   0.00276,476468877.62615,   0.00046,275147197.77059,  -0.00026,   0.00036,   0.00049,   0.80100,   1.00000
-163361099.10665,256490540.52283,174543173.80628,  -0.00151,   0.00185,   0.00277,476474142.48101,   0.00047,275153428.40636,  -0.00027,   0.00037,   0.00050,   0.76826,   1.00000
-164814275.66842,254928670.57834,174745939.21105,  -0.00152,   0.00185,   0.00278,476476831.30292,   0.00047,275159642.48933,  -0.00027,   0.00037,   0.00051,   0.73354,   1.00000
-166275869.09751,253356186.24238,174946189.56370,  -0.00152,   0.00185,   0.00279,476473536.44719,   0.00048,275165811.98512,  -0.00027,   0.00037,   0.00051,   0.69364,   1.00000
-167734526.29036,251787869.42035,175140788.20821,  -0.00153,   0.00185,   0.00279,476478793.21536,   0.00049,275171977.23685,  -0.00028,   0.00038,   0.00052,   0.66436,   1.00000
-169197142.08807,250202614.48983,175339377.18273,  -0.00154,   0.00185,   0.00280,476487725.07836,   0.00049,275178155.50344,  -0.00028,   0.00038,   0.00052,   0.63953,   1.00000
-170642134.84520,248635982.00510,175531315.80970,  -0.00154,   0.00185,   0.00281,476480763.13456,   0.00050,275184272.06644,  -0.00028,   0.00039,   0.00053,   0.60102,   1.00000
-172093388.35654,247055439.18414,175723987.46188,  -0.00155,   0.00185,   0.00282,476483590.34566,   0.00050,275190373.16791,  -0.00029,   0.00039,   0.00054,   0.57311,   1.00000
-173550863.05845,245460941.14619,175917349.52716,  -0.00156,   0.00185,   0.00283,476486515.58628,   0.00051,275196459.32443,  -0.00029,   0.00039,   0.00054,   0.54637,   1.00000
-174988622.29105,243881950.61407,176107388.91389,  -0.00157,   0.00185,   0.00284,476485414.73422,   0.00051,275202511.67715,  -0.00029,   0.00040,   0.00055,   0.51787,   1.00000
-176434989.34204,242291963.21750,176294883.21090,  -0.00157,   0.00185,   0.00285,476482204.94609,   0.00052,275208520.46867,  -0.00030,   0.00040,   0.00055,   0.48912,   1.00000
-177904387.13425,240676514.23383,176480689.03787,  -0.00158,   0.00185,   0.00286,476491541.11929,   0.00053,275214544.80063,  -0.00030,   0.00041,   0.00056,   0.47086,   1.00000
-179337400.71180,239087915.80495,176665586.71426,  -0.00159,   0.00185,   0.00286,476483915.73051,   0.00053,275220504.93153,  -0.00030,   0.00041,   0.00057,   0.44188,   1.00000
-180782061.54338,237489060.98359,176845766.10677,  -0.00159,   0.00185,   0.00287,476501413.01278,   0.00054,275226519.10537,  -0.00031,   0.00041,   0.00057,   0.43139,   1.00000
-182230028.22958,235875056.59467,177028728.39709,  -0.00160,   0.00185,   0.00288,476483861.92999,   0.00054,275232422.49323,  -0.00031,   0.00042,   0.00058,   0.39862,   1.00000
-183661469.43601,234277531.88552,177206350.98325,  -0.00161,   0.00185,   0.00289,476502974.93514,   0.00055,275238387.73682,  -0.00031,   0.00042,   0.00059,   0.39075,   1.00000
-185112991.06166,232653288.84451,177384329.55306,  -0.00161,   0.00184,   0.00290,476491986.38646,   0.00055,275244273.20496,  -0.00032,   0.00042,   0.00059,   0.36523,   1.00000
-186545189.35326,231044482.38205,177559175.71868,  -0.00162,   0.00184,   0.00291,476490344.10378,   0.00056,275250123.13614,  -0.00032,   0.00043,   0.00060,   0.34696,   1.00000
-188000232.49034,229409928.18508,177732134.77984,  -0.00163,   0.00184,   0.00291,476500125.99527,   0.00056,275255991.31586,  -0.00032,   0.00043,   0.00060,   0.33589,   1.00000
-189433526.51485,227787904.58902,177905192.33582,  -0.00163,   0.00184,   0.00292,476504585.37373,   0.00057,275261852.64734,  -0.00033,   0.00044,   0.00061,   0.32297,   1.00000
-190861574.57045,226168613.47432,178074912.32221,  -0.00164,   0.00184,   0.00293,476488763.75931,   0.00057,275267611.94519,  -0.00033,   0.00044,   0.00062,   0.30103,   1.00000
-192282021.24349,224547597.67000,178245488.72540,  -0.00165,   0.00184,   0.00294,476505856.57597,   0.00058,275273424.17731,  -0.00034,   0.00044,   0.00062,   0.29651,   1.00000
-193730253.89368,222906425.34327,178407690.66190,  -0.00165,   0.00184,   0.00295,476503557.46716,   0.00058,275279198.05293,  -0.00034,   0.00045,   0.00063,   0.28343,   1.00000
-195151873.33493,221273445.75146,178575487.24419,  -0.00166,   0.00184,   0.00295,476493269.58278,   0.00059,275284896.24351,  -0.00034,   0.00045,   0.00063,   0.26808,   1.00000
-196584769.04682,219630258.67659,178738372.39625,  -0.00167,   0.00184,   0.00296,476511030.14480,   0.00059,275290650.73150,  -0.00035,   0.00045,   0.00064,   0.26613,   1.00000
-198012723.76612,217989450.55740,178897970.87108,  -0.00167,   0.00184,   0.00297,476495129.66081,   0.00060,275296303.25918,  -0.00035,   0.00046,   0.00065,   0.25066,   1.00000
-199416665.76280,216358393.11756,179061012.55022,  -0.00168,   0.00183,   0.00298,476505218.10520,   0.00061,275301976.25634,  -0.00035,   0.00046,   0.00065,   0.24723,   1.00000
-200848445.75239,214706831.59414,179215579.32991,  -0.00169,   0.00183,   0.00299,476503137.98486,   0.00061,275307612.50825,  -0.00036,   0.00046,   0.00066,   0.23965,   1.00000
-202270214.73366,213051879.01533,179373215.25413,  -0.00169,   0.00183,   0.00299,476499578.22930,   0.00062,275313205.23312,  -0.00036,   0.00047,   0.00066,   0.23252,   1.00000
-203686864.47824,211398121.22094,179528510.21840,  -0.00170,   0.00183,   0.00300,476510393.11876,   0.00062,275318822.06373,  -0.00036,   0.00047,   0.00067,   0.23192,   1.00000
-205098952.73648,209746375.86341,179680587.57131,  -0.00171,   0.00183,   0.00301,476494316.84604,   0.00063,275324336.71156,  -0.00037,   0.00047,   0.00067,   0.22188,   1.00000
-206503280.62655,208093107.72224,179833499.38813,  -0.00171,   0.00183,   0.00302,476511247.98992,   0.00063,275329904.49139,  -0.00037,   0.00048,   0.00068,   0.22531,   1.00000
-207919306.62520,206430357.49932,179980516.42184,  -0.00172,   0.00183,   0.00303,476502295.71237,   0.00064,275335403.71819,  -0.00037,   0.00048,   0.00069,   0.21978,   1.00000
-209314170.66102,204780172.13640,180127946.95607,  -0.00173,   0.00182,   0.00303,476505748.13852,   0.00064,275340892.88969,  -0.00038,   0.00048,   0.00069,   0.21977,   1.00000
-210718099.42646,203117685.62663,180272628.43139,  -0.00173,   0.00182,   0.00304,476503006.47076,   0.00065,275346342.98851,  -0.00038,   0.00049,   0.00070,   0.21826,   1.00000
-212128300.23783,201440178.94680,180417658.45608,  -0.00174,   0.00182,   0.00305,476506600.44788,   0.00065,275351783.89769,  -0.00038,   0.00049,   0.00070,   0.21995,   1.00000
-213520212.04161,199777879.16899,180560014.38187,  -0.00175,   0.00182,   0.00306,476503640.19571,   0.00066,275357184.91322,  -0.00039,   0.00049,   0.00071,   0.21990,   1.00000
-214909893.25063,198119439.48636,180696966.05513,  -0.00175,   0.00182,   0.00306,476507899.32187,   0.00066,275362580.06127,  -0.00039,   0.00050,   0.00071,   0.22336,   1.00000
-216301324.87957,196440838.23519,180839671.25521,  -0.00176,   0.00182,   0.00307,476497180.59299,   0.00067,275367899.13728,  -0.00039,   0.00050,   0.00072,   0.22174,   1.00000
-217695072.36314,194771145.08978,180971538.53142,  -0.00177,   0.00181,   0.00308,476515735.44451,   0.00067,275373279.71781,  -0.00039,   0.00050,   0.00073,   0.23242,   1.00000
-219077612.58888,193095020.48324,181108857.04321,  -0.00177,   0.00181,   0.00309,476491340.73082,   0.00068,275378520.17790,  -0.00040,   0.00051,   0.00073,   0.22645,   1.00000
-220470933.68403,191408812.31221,181241027.98414,  -0.00178,   0.00181,   0.00309,476509305.97146,   0.00068,275383819.71159,  -0.00040,   0.00051,   0.00074,   0.23851,   1.00000
-221846320.43177,189737709.45277,181370683.62036,  -0.00178,   0.00181,   0.00310,476505903.11152,   0.00069,275389077.87951,  -0.00040,   0.00051,   0.00074,   0.24230,   1.00000
-223212310.12773,188062600.95269,181503506.50432,  -0.00179,   0.00181,   0.00311,476501976.68386,   0.00069,275394292.41710,  -0.00041,   0.00052,   0.00075,   0.24639,   1.00000
-224590460.88682,186377147.52276,181630377.74359,  -0.00180,   0.00180,   0.00311,476493089.84014,   0.00070,275399440.28392,  -0.00041,   0.00052,   0.00075,   0.24880,   1.00000
-225960683.99477,184690454.22673,181758078.42991,  -0.00180,   0.00180,   0.00312,476509706.26376,   0.00070,275404641.25971,  -0.00041,   0.00052,   0.00076,   0.26353,   1.00000
-227316205.86816,183021259.36936,181880283.61104,  -0.00181,   0.00180,   0.00313,476499652.02917,   0.00070,275409770.14645,  -0.00042,   0.00052,   0.00076,   0.26618,   1.00000
-228689346.28852,181319880.04455,182005174.01970,  -0.00181,   0.00180,   0.00314,476496939.49786,   0.00071,275414861.66509,  -0.00042,   0.00053,   0.00077,   0.27295,   1.00000
-230033679.37555,179650220.43235,182125253.14388,  -0.00182,   0.00180,   0.00314,476499452.10338,   0.00071,275419940.45742,  -0.00042,   0.00053,   0.00078,   0.28265,   1.00000
-231398632.07552,177950646.95832,182244881.29776,  -0.00183,   0.00179,   0.00315,476490531.04778,   0.00072,275424953.03387,  -0.00043,   0.00053,   0.00078,   0.28697,   1.00000
-232747376.36575,176269175.54472,182359855.99307,  -0.00183,   0.00179,   0.00316,476506995.44337,   0.00072,275430018.54899,  -0.00043,   0.00054,   0.00079,   0.30550,   1.00000
-234101272.76656,174568857.73808,182477339.54846,  -0.00184,   0.00179,   0.00316,476490344.57187,   0.00073,275434981.71662,  -0.00043,   0.00054,   0.00079,   0.30599,   1.00000
-235437903.79913,172883386.10608,182592557.48757,  -0.00184,   0.00179,   0.00317,476486112.95744,   0.00073,275439901.15964,  -0.00044,   0.00054,   0.00080,   0.31361,   1.00000
-236769684.88390,171199180.61155,182705574.01301,  -0.00185,   0.00179,   0.00318,476496068.42418,   0.00074,275444843.46776,  -0.00044,   0.00054,   0.00080,   0.33027,   1.00000
-238110892.17000,169501606.83535,182815658.43798,  -0.00186,   0.00178,   0.00318,476493593.02675,   0.00074,275449750.34673,  -0.00044,   0.00055,   0.00081,   0.33984,   1.00000
-239435029.48853,167818821.28104,182923567.35374,  -0.00186,   0.00178,   0.00319,476489127.71345,   0.00075,275454612.65366,  -0.00045,   0.00055,   0.00081,   0.34819,   1.00000
-240768646.56852,166122547.78569,183028537.11892,  -0.00187,   0.00178,   0.00320,476486633.42978,   0.00075,275459439.81288,  -0.00045,   0.00055,   0.00082,   0.35820,   1.00000
-242093373.30754,164421617.32618,183136720.22824,  -0.00187,   0.00178,   0.00320,476482400.35263,   0.00075,275464223.85440,  -0.00045,   0.00056,   0.00082,   0.36717,   1.00000
-243416409.87864,162724218.88859,183239648.32486,  -0.00188,   0.00177,   0.00321,476485882.58332,   0.00076,275469001.05546,  -0.00045,   0.00056,   0.00083,   0.38199,   1.00000
-244719492.66439,161039254.48179,183343559.93432,  -0.00188,   0.00177,   0.00322,476487438.30395,   0.00076,275473762.43251,  -0.00046,   0.00056,   0.00083,   0.39565,   1.00000
-246035313.51072,159342826.14480,183441445.64737,  -0.00189,   0.00177,   0.00322,476478616.69556,   0.00077,275478459.53957,  -0.00046,   0.00056,   0.00084,   0.40150,   1.00000
-247342411.97482,157641550.12584,183542568.48004,  -0.00190,   0.00177,   0.00323,476474257.86599,   0.00077,275483113.54368,  -0.00046,   0.00057,   0.00084,   0.41087,   1.00000
-248647950.37006,155943731.32409,183638477.23269,  -0.00190,   0.00176,   0.00323,476477548.92681,   0.00078,275487760.39396,  -0.00047,   0.00057,   0.00085,   0.42680,   1.00000
-249959814.03260,154229884.80969,183734397.80646,  -0.00191,   0.00176,   0.00324,476481550.12229,   0.00078,275492403.42475,  -0.00047,   0.00057,   0.00085,   0.44395,   1.00000
-251243468.25131,152543797.87824,183828550.76617,  -0.00191,   0.00176,   0.00325,476461620.26358,   0.00078,275496930.86476,  -0.00047,   0.00057,   0.00086,   0.43931,   1.00000
-252534109.31459,150845766.89000,183920364.21583,  -0.00192,   0.00175,   0.00325,476485897.89073,   0.00079,275501549.74383,  -0.00048,   0.00058,   0.00086,   0.47577,   1.00000
-253807888.55783,149157982.60750,184012645.10549,  -0.00192,   0.00175,   0.00326,476460189.06121,   0.00079,275506026.17753,  -0.00048,   0.00058,   0.00087,   0.46465,   1.00000
-255106200.30796,147445062.26567,184098592.65488,  -0.00193,   0.00175,   0.00326,476466262.41721,   0.00080,275510509.24501,  -0.00048,   0.00058,   0.00087,   0.48467,   1.00000
-256370178.31988,145755471.31437,184189007.79985,  -0.00193,   0.00175,   0.00327,476458606.09752,   0.00080,275514934.82127,  -0.00048,   0.00058,   0.00088,   0.49063,   1.00000
-257632878.01735,144069204.96277,184274302.26693,  -0.00194,   0.00174,   0.00328,476461495.48877,   0.00081,275519352.40063,  -0.00049,   0.00059,   0.00088,   0.50757,   1.00000
-258905318.12637,142368710.41517,184356534.47898,  -0.00194,   0.00174,   0.00328,476459069.18729,   0.00081,275523737.20169,  -0.00049,   0.00059,   0.00089,   0.51912,   1.00000
-260169414.99057,140662894.68671,184442038.86686,  -0.00195,   0.00174,   0.00329,476454450.82433,   0.00081,275528079.15146,  -0.00049,   0.00059,   0.00089,   0.52817,   1.00000
-261432248.46904,138960348.49069,184522411.74561,  -0.00196,   0.00173,   0.00329,476457311.71915,   0.00082,275532413.33935,  -0.00049,   0.00059,   0.00090,   0.54580,   1.00000
-262679237.80199,137272019.23457,184601059.77889,  -0.00196,   0.00173,   0.00330,476451382.07602,   0.00082,275536698.80423,  -0.00050,   0.00059,   0.00090,   0.55295,   1.00000
-263921458.08689,135580190.82702,184680005.21862,  -0.00197,   0.00173,   0.00331,476440194.80231,   0.00083,275540911.26894,  -0.00050,   0.00060,   0.00090,   0.55339,   1.00000
-265173498.68094,133873847.77281,184755827.09037,  -0.00197,   0.00172,   0.00331,476437781.05162,   0.00083,275545091.98460,  -0.00050,   0.00060,   0.00091,   0.56449,   1.00000
-266406476.14976,132179647.64669,184832995.77559,  -0.00198,   0.00172,   0.00332,476437995.59470,   0.00083,275549253.35500,  -0.00051,   0.00060,   0.00091,   0.57874,   1.00000
-267638401.10887,130488604.27450,184905103.45681,  -0.00198,   0.00172,   0.00332,476440545.92696,   0.00084,275553406.34955,  -0.00051,   0.00060,   0.00092,   0.59618,   1.00000
-268865751.03498,128793790.32674,184977522.86177,  -0.00199,   0.00172,   0.00333,476429257.96009,   0.00084,275557486.53297,  -0.00051,   0.00060,   0.00092,   0.59494,   1.00000
-270088628.88397,127100206.13657,185047898.74073,  -0.00199,   0.00171,   0.00333,476438134.35208,   0.00084,275561588.18061,  -0.00051,   0.00061,   0.00093,   0.62126,   1.00000
-271310512.80658,125404580.46145,185115589.23037,  -0.00200,   0.00171,   0.00334,476420390.47474,   0.00085,275565587.21325,  -0.00052,   0.00061,   0.00093,   0.61001,   1.00000
-272513648.12391,123720990.47999,185184756.36444,  -0.00200,   0.00171,   0.00334,476420145.55895,   0.00085,275569565.61677,  -0.00052,   0.00061,   0.00094,   0.62315,   1.00000
-273726737.39232,122022528.68438,185250743.81045,  -0.00200,   0.00170,   0.00335,476417719.95171,   0.00086,275573513.32870,  -0.00052,   0.00061,   0.00094,   0.63322,   1.00000
-274924705.20882,120337869.81224,185315248.35315,  -0.00201,   0.00170,   0.00335,476410919.91658,   0.00086,275577410.14479,  -0.00052,   0.00062,   0.00094,   0.63632,   1.00000
-276129093.84133,118636447.25702,185379540.47523,  -0.00201,   0.00170,   0.00336,476414936.69633,   0.00086,275581306.63166,  -0.00053,   0.00062,   0.00095,   0.65603,   1.00000
-277307891.01591,116961270.75314,185442964.90357,  -0.00202,   0.00169,   0.00336,476392412.45259,   0.00087,275585079.34227,  -0.00053,   0.00062,   0.00095,   0.63359,   1.00000
-278507291.25388,115258499.34541,185502589.31362,  -0.00202,   0.00169,   0.00337,476405528.82197,   0.00087,275588894.62513,  -0.00053,   0.00062,   0.00096,   0.66762,   1.00000
-279681101.69990,113587416.86252,185559085.90929,  -0.00203,   0.00168,   0.00337,476402871.98646,   0.00087,275592678.93050,  -0.00053,   0.00062,   0.00096,   0.67610,   1.00000
-280858008.00643,111892079.51487,185620663.01867,  -0.00203,   0.00168,   0.00338,476393237.51504,   0.00088,275596399.96769,  -0.00054,   0.00062,   0.00096,   0.67282,   1.00000
-282023854.08317,110211971.29873,185677910.94978,  -0.00204,   0.00168,   0.00338,476379483.45323,   0.00088,275600038.91471,  -0.00054,   0.00063,   0.00097,   0.66190,   1.00000
-283185486.65117,108533006.01679,185733207.64621,  -0.00204,   0.00167,   0.00339,476387743.16165,   0.00088,275603698.45535,  -0.00054,   0.00063,   0.00097,   0.68831,   1.00000
-284343255.89957,106849346.55265,185788885.13549,  -0.00205,   0.00167,   0.00339,476375980.58469,   0.00089,275607285.47500,  -0.00054,   0.00063,   0.00098,   0.67975,   1.00000
-285500489.23642,105168461.65503,185839636.83001,  -0.00205,   0.00167,   0.00340,476377740.41898,   0.00089,275610863.12896,  -0.00055,   0.00063,   0.00098,   0.69482,   1.00000
-286643344.68863,103500939.48756,185889159.93676,  -0.00205,   0.00166,   0.00340,476370051.64474,   0.00089,275614387.59724,  -0.00055,   0.00063,   0.00098,   0.69248,   1.00000
-287782527.50908,101828494.55964,185939096.55626,  -0.00206,   0.00166,   0.00341,476358122.62756,   0.00090,275617839.46401,  -0.00055,   0.00064,   0.00099,   0.68193,   1.00000
-288928159.73586,100138902.45222,185988695.73552,  -0.00206,   0.00166,   0.00341,476362095.38892,   0.00090,275621292.87270,  -0.00055,   0.00064,   0.00099,   0.70064,   1.00000
-290059590.23987,98462527.12044,186037105.30245,  -0.00207,   0.00165,   0.00341,476354207.50869,   0.00090,275624692.79125,  -0.00056,   0.00064,   0.00100,   0.69674,   1.00000
-291176946.15214,96799311.43938,186084374.51925,  -0.00207,   0.00165,   0.00342,476346154.29873,   0.00091,275628038.72630,  -0.00056,   0.00064,   0.00100,   0.69193,   1.00000
-292304523.44252,95120376.16445,186128317.25118,  -0.00208,   0.00164,   0.00342,476343638.65878,   0.00091,275631356.61528,  -0.00056,   0.00064,   0.00100,   0.69763,   1.00000
-293418142.87148,93454499.48319,186171155.06914,  -0.00208,   0.00164,   0.00343,476335443.34028,   0.00091,275634620.27319,  -0.00056,   0.00064,   0.00101,   0.69176,   1.00000
-294517929.70921,91801622.80490,186212935.88799,  -0.00208,   0.00164,   0.00343,476327084.79363,   0.00091,275637829.22166,  -0.00056,   0.00064,   0.00101,   0.68501,   1.00000
-295624213.11158,90131399.89209,186254334.39351,  -0.00209,   0.00163,   0.00344,476330971.17756,   0.00092,275641040.45680,  -0.00057,   0.00065,   0.00101,   0.70260,   1.00000
-296716768.58585,88474094.84179,186294702.76265,  -0.00209,   0.00163,   0.00344,476322507.53144,   0.00092,275644196.76304,  -0.00057,   0.00065,   0.00102,   0.69488,   1.00000
-297806105.02707,86811207.11729,186335510.23479,  -0.00209,   0.00162,   0.00344,476310258.07571,   0.00092,275647280.88602,  -0.00057,   0.00065,   0.00102,   0.67904,   1.00000
-298881896.75640,85161106.15922,186375340.39074,  -0.00210,   0.00162,   0.00345,476301553.43230,   0.00093,275650309.60748,  -0.00057,   0.00065,   0.00102,   0.66993,   1.00000
-299968029.19742,83494905.20466,186411778.43223,  -0.00210,   0.00162,   0.00345,476298948.54983,   0.00093,275653311.42794,  -0.00057,   0.00065,   0.00103,   0.67320,   1.00000
-301030409.16075,81859890.68063,186445904.62329,  -0.00211,   0.00161,   0.00345,476293586.05589,   0.00093,275656273.73346,  -0.00058,   0.00065,   0.00103,   0.67020,   1.00000
-302109609.05341,80188810.13379,186480942.82824,  -0.00211,   0.00161,   0.00346,476293970.98092,   0.00093,275659223.29026,  -0.00058,   0.00065,   0.00103,   0.67937,   1.00000
-303165201.99072,78548871.80410,186513731.00735,  -0.00211,   0.00160,   0.00346,476288411.23284,   0.00094,275662132.68110,  -0.00058,   0.00066,   0.00104,   0.67539,   1.00000
-304221789.54057,76904219.02893,186544043.55412,  -0.00212,   0.00160,   0.00347,476269433.06128,   0.00094,275664940.07578,  -0.00058,   0.00066,   0.00104,   0.64245,   1.00000
-305271606.35208,75252138.25264,186577765.42401,  -0.00212,   0.00160,   0.00347,476263346.90064,   0.00094,275667705.57636,  -0.00058,   0.00066,   0.00104,   0.63675,   1.00000
-306311388.73201,73620857.80180,186605463.46591,  -0.00212,   0.00159,   0.00347,476267208.53985,   0.00094,275670475.35972,  -0.00059,   0.00066,   0.00105,   0.65208,   1.00000
-307331313.87059,71992248.45281,186640528.14519,  -0.00213,   0.00159,   0.00348,476251060.94799,   0.00095,275673156.98252,  -0.00059,   0.00066,   0.00105,   0.62378,   1.00000
-308378801.89830,70338206.61682,186665239.07848,  -0.00213,   0.00158,   0.00348,476251876.36230,   0.00095,275675829.20897,  -0.00059,   0.00066,   0.00105,   0.63226,   1.00000
-309400300.04835,68706548.18285,186693132.29736,  -0.00213,   0.00158,   0.00348,476232332.57462,   0.00095,275678398.11176,  -0.00059,   0.00066,   0.00106,   0.59609,   1.00000
-310418188.04736,67075744.29412,186719274.89211,  -0.00214,   0.00157,   0.00349,476239124.60125,   0.00095,275680985.75703,  -0.00059,   0.00066,   0.00106,   0.61686,   1.00000
-311433493.23735,65438381.95100,186745895.14376,  -0.00214,   0.00157,   0.00349,476226364.48111,   0.00096,275683501.83552,  -0.00060,   0.00067,   0.00106,   0.59473,   1.00000
-312436184.91611,63813086.94450,186771818.09135,  -0.00214,   0.00157,   0.00349,476216518.18671,   0.00096,275685960.15840,  -0.00060,   0.00067,   0.00106,   0.57874,   1.00000
-313426376.76456,62199792.98418,186797085.12705,  -0.00215,   0.00156,   0.00349,476206520.31888,   0.00096,275688360.32704,  -0.00060,   0.00067,   0.00107,   0.56217,   1.00000
-314417110.20424,60588424.57483,186817714.48737,  -0.00215,   0.00156,   0.00350,476206549.52799,   0.00096,275690748.85635,  -0.00060,   0.00067,   0.00107,   0.56721,   1.00000
-315405487.24823,58970183.07330,186838852.29770,  -0.00215,   0.00155,   0.00350,476193562.54911,   0.00097,275693065.82065,  -0.00060,   0.00067,   0.00107,   0.54369,   1.00000
-316387484.67052,57343893.13761,186863413.28188,  -0.00215,   0.00155,   0.00350,476187042.77715,   0.00097,275695341.37852,  -0.00060,   0.00067,   0.00107,   0.53414,   1.00000
-317364181.15933,55739303.24418,186879322.99901,  -0.00216,   0.00154,   0.00351,476183207.19953,   0.00097,275697588.10708,  -0.00060,   0.00067,   0.00108,   0.53013,   1.00000
-318321790.37308,54136471.14820,186902747.13764,  -0.00216,   0.00154,   0.00351,476166305.11743,   0.00097,275699745.99983,  -0.00061,   0.00067,   0.00108,   0.49776,   1.00000
-319294086.97441,52517580.16407,186919668.76627,  -0.00216,   0.00153,   0.00351,476156937.33113,   0.00097,275701850.18396,  -0.00061,   0.00067,   0.00108,   0.48175,   1.00000
-320240393.70479,50928093.14465,186937978.12935,  -0.00217,   0.00153,   0.00351,476155381.85708,   0.00098,275703936.89092,  -0.00061,   0.00067,   0.00108,   0.48199,   1.00000
-321184651.49310,49331262.96002,186956817.71905,  -0.00217,   0.00153,   0.00352,476142094.93172,   0.00098,275705952.24497,  -0.00061,   0.00068,   0.00109,   0.45734,   1.00000
-322129731.17534,47736073.47658,186971080.20342,  -0.00217,   0.00152,   0.00352,476141630.16850,   0.00098,275707955.57197,  -0.00061,   0.00068,   0.00109,   0.45960,   1.00000
-323072799.32378,46133395.30852,186985854.09820,  -0.00217,   0.00152,   0.00352,476128330.83212,   0.00098,275709887.93066,  -0.00061,   0.00068,   0.00109,   0.43486,   1.00000
-324004121.38037,44542045.55775,187000185.91771,  -0.00218,   0.00151,   0.00352,476117373.40935,   0.00098,275711760.45391,  -0.00061,   0.00068,   0.00109,   0.41514,   1.00000
-324919651.94833,42961038.80126,187017035.98458,  -0.00218,   0.00151,   0.00353,476112762.60908,   0.00098,275713602.61046,  -0.00062,   0.00068,   0.00109,   0.40834,   1.00000
-325837496.93544,41373200.88097,187031488.02693,  -0.00218,   0.00150,   0.00353,476092799.68112,   0.00099,275715344.04876,  -0.00062,   0.00068,   0.00110,   0.37084,   1.00000
-326742492.03584,39804872.53046,187043439.69016,  -0.00218,   0.00150,   0.00353,476100709.30364,   0.00099,275717113.25971,  -0.00062,   0.00068,   0.00110,   0.38884,   1.00000
-327649918.22748,38229537.76552,187053012.31135,  -0.00218,   0.00149,   0.00353,476080654.00877,   0.00099,275718781.74506,  -0.00062,   0.00068,   0.00110,   0.35130,   1.00000
-328538991.06235,36655004.73692,187070223.76202,  -0.00219,   0.00149,   0.00353,476062983.66926,   0.00099,275720360.97398,  -0.00062,   0.00068,   0.00110,   0.31961,   1.00000
-329441587.16521,35072200.49969,187078716.96561,  -0.00219,   0.00148,   0.00354,476072536.02536,   0.00099,275721976.26473,  -0.00062,   0.00068,   0.00110,   0.33958,   1.00000
-330320545.73291,33509858.81859,187091121.47825,  -0.00219,   0.00148,   0.00354,476050374.88700,   0.00099,275723482.02151,  -0.00062,   0.00068,   0.00111,   0.29956,   1.00000
-331192611.49649,31959100.22226,187100355.97957,  -0.00219,   0.00147,   0.00354,476032089.49543,   0.00100,275724896.58238,  -0.00062,   0.00068,   0.00111,   0.26832,   1.00000
-332057485.02306,30408004.23686,187110967.26062,  -0.00219,   0.00147,   0.00354,476043766.23114,   0.00100,275726357.71438,  -0.00062,   0.00068,   0.00111,   0.29051,   1.00000
-332925100.77270,28849325.38473,187119205.89420,  -0.00220,   0.00146,   0.00354,476023450.18454,   0.00100,275727718.61719,  -0.00063,   0.00068,   0.00111,   0.25573,   1.00000
-333781771.83288,27301251.35478,187127237.46147,  -0.00220,   0.00146,   0.00354,476011424.80799,   0.00100,275729017.78096,  -0.00063,   0.00068,   0.00111,   0.23642,   1.00000
-334637020.75142,25744653.96113,187135806.90562,  -0.00220,   0.00145,   0.00355,475997475.45311,   0.00100,275730246.71685,  -0.00063,   0.00068,   0.00111,   0.21459,   1.00000
-335472056.08861,24217576.46749,187143504.82225,  -0.00220,   0.00145,   0.00355,475987002.75862,   0.00100,275731421.70717,  -0.00063,   0.00069,   0.00111,   0.19891,   1.00000
-336313654.25259,22671763.20543,187150390.05269,  -0.00220,   0.00144,   0.00355,475990134.46423,   0.00100,275732605.26419,  -0.00063,   0.00069,   0.00112,   0.20465,   1.00000
-337148865.36522,21136963.20288,187154231.09423,  -0.00221,   0.00144,   0.00355,475971281.94620,   0.00100,275733696.80224,  -0.00063,   0.00069,   0.00112,   0.17647,   1.00000
-337966414.93451,19602007.93518,187165832.89373,  -0.00221,   0.00143,   0.00355,475952845.29984,   0.00100,275734698.70420,  -0.00063,   0.00069,   0.00112,   0.15070,   1.00000
-338780535.05694,18087665.88044,187169494.71175,  -0.00221,   0.00143,   0.00355,475946100.11886,   0.00101,275735664.87307,  -0.00063,   0.00069,   0.00112,   0.14201,   1.00000
-339589180.56592,16563724.99580,187176630.91381,  -0.00221,   0.00142,   0.00355,475938298.08948,   0.00101,275736590.66403,  -0.00063,   0.00069,   0.00112,   0.13212,   1.00000
-340399432.78487,15040610.59526,187179381.74155,  -0.00221,   0.00142,   0.00355,475936364.84655,   0.00101,275737503.09013,  -0.00063,   0.00069,   0.00112,   0.13002,   1.00000
-341196585.69576,13517578.94507,187187018.56220,  -0.00221,   0.00141,   0.00356,475911211.42957,   0.00101,275738296.20268,  -0.00063,   0.00069,   0.00112,   0.09952,   1.00000
-341986229.59597,12014416.82887,187189727.20907,  -0.00221,   0.00141,   0.00356,475910514.05355,   0.00101,275739082.25069,  -0.00063,   0.00069,   0.00112,   0.09900,   1.00000
-342762953.86710,10511116.37715,187197365.69823,  -0.00221,   0.00140,   0.00356,475885149.77834,   0.00101,275739748.72147,  -0.00063,   0.00069,   0.00112,   0.07207,   1.00000
-343541458.09602,9008454.93607,187200664.39579,  -0.00222,   0.00140,   0.00356,475882862.82957,   0.00101,275740401.49968,  -0.00063,   0.00069,   0.00112,   0.07000,   1.00000
-344309910.43879,7515503.80586,187204015.68799,  -0.00222,   0.00139,   0.00356,475869584.74167,   0.00101,275740990.54039,  -0.00064,   0.00069,   0.00113,   0.05770,   1.00000
-345077455.01350,6013018.74259,187207924.49634,  -0.00222,   0.00139,   0.00356,475854988.91468,   0.00101,275741510.16814,  -0.00064,   0.00069,   0.00113,   0.04546,   1.00000
-345835056.80388,4520089.22833,187211907.72661,  -0.00222,   0.00138,   0.00356,475841539.85216,   0.00101,275741965.97152,  -0.00064,   0.00069,   0.00113,   0.03540,   1.00000
-346573798.62040,3055824.58018,187215554.03836,  -0.00222,   0.00138,   0.00356,475829063.34509,   0.00101,275742362.71596,  -0.00064,   0.00069,   0.00113,   0.02713,   1.00000
-347332496.40369,1553620.71985,187215785.14094,  -0.00222,   0.00137,   0.00356,475824221.43167,   0.00101,275742735.47077,  -0.00064,   0.00069,   0.00113,   0.02424,   1.00000
-348056317.06531,88506.45974,187223053.97046,  -0.00222,   0.00137,   0.00356,475807003.08118,   0.00101,275743028.02519,  -0.00064,   0.00069,   0.00113,   0.01510,   1.00000
-348786631.24821,-1375859.95301,187223164.31859,  -0.00222,   0.00136,   0.00356,475797676.04252,   0.00101,275743276.70699,  -0.00064,   0.00069,   0.00113,   0.01104,   1.00000
-349504609.65465,-2841336.87064,187228294.83027,  -0.00222,   0.00136,   0.00356,475771659.38806,   0.00101,275743405.82238,  -0.00064,   0.00069,   0.00113,   0.00301,   1.00000
-350220226.84996,-4306919.05904,187232065.41168,  -0.00222,   0.00135,   0.00356,475775170.59745,   0.00101,275743550.27481,  -0.00064,   0.00069,   0.00113,   0.00381,   1.00000
-350930827.44650,-5763094.14556,187233153.86702,  -0.00222,   0.00135,   0.00356,475754555.17794,   0.00101,275743600.30356,  -0.00064,   0.00069,   0.00113,   0.00046,   1.00000
-351627546.50090,-7210604.09894,187237380.30137,  -0.00222,   0.00134,   0.00356,475746782.07056,   0.00101,275743614.76318,  -0.00064,   0.00069,   0.00113,   0.00004,   1.00000
-352315452.96763,-8668965.80841,187237380.30137,  -0.00222,   0.00134,   0.00356,475731676.99743,   0.00101,275743614.76318,  -0.00064,   0.00069,   0.00113,-11937.76575,   0.00000
-352984098.05330,-10119072.64028,187226373.79791,  -0.00222,   0.00133,   0.00356,475698899.00763,   0.00101,275743614.76318,  -0.00064,   0.00069,   0.00113,-44715.75555,   0.00000
-353644488.26136,-11549918.09109,187215367.29444,  -0.00222,   0.00133,   0.00356,475670096.88054,   0.00101,275743614.76318,  -0.00064,   0.00069,   0.00113,-73517.88265,   0.00000
-354274610.58489,-12983515.16776,187198857.53924,  -0.00222,   0.00132,   0.00356,475614947.60267,   0.00101,275743614.76318,  -0.00064,   0.00069,   0.00113,-128667.16052,   0.00000
-354885471.52735,-14408857.36684,187171341.28057,  -0.00222,   0.00132,   0.00356,475538801.69898,   0.00101,275743614.76318,  -0.00064,   0.00069,   0.00113,-204813.06420,   0.00000
-355504587.34741,-15853460.94698,187143825.02190,  -0.00222,   0.00131,   0.00356,475465350.46052,   0.00101,275743614.76318,  -0.00064,   0.00069,   0.00113,-278264.30266,   0.00000
-356076925.52773,-17262293.39085,187110805.51149,  -0.00222,   0.00131,   0.00356,475366616.33491,   0.00101,275743614.76318,  -0.00064,   0.00069,   0.00113,-376998.42827,   0.00000
-356657518.58565,-18690387.21578,187072282.74936,  -0.00222,   0.00130,   0.00356,475264101.24407,   0.00101,275743614.76318,  -0.00064,   0.00069,   0.00113,-479513.51912,   0.00000
-357210595.38491,-20090964.78205,187028256.73549,  -0.00222,   0.00129,   0.00356,475147405.84581,   0.00101,275743614.76318,  -0.00064,   0.00069,   0.00113,-596208.91737,   0.00000
-357752665.68069,-21502548.85179,186973224.21815,  -0.00222,   0.00129,   0.00356,475009152.50308,   0.00101,275743614.76318,  -0.00064,   0.00069,   0.00113,-734462.26010,   0.00000
-358256213.21434,-22897623.16633,186918191.70081,  -0.00222,   0.00128,   0.00356,474851377.64597,   0.00101,275743614.76318,  -0.00064,   0.00069,   0.00113,-892237.11722,   0.00000
-358768015.62559,-24311958.86193,186857655.93174,  -0.00222,   0.00128,   0.00356,474689959.74601,   0.00101,275743614.76318,  -0.00064,   0.00069,   0.00113,-1053655.01717,   0.00000
-359252301.77817,-25698778.29887,186791616.91093,  -0.00222,   0.00127,   0.00356,474514091.17835,   0.00101,275743614.76318,  -0.00064,   0.00069,   0.00113,-1229523.58484,   0.00000
-359717326.54968,-27077342.85820,186720074.63839,  -0.00222,   0.00127,   0.00356,474323420.20207,   0.00101,275743614.76318,  -0.00064,   0.00069,   0.00113,-1420194.56111,   0.00000
-360171344.81773,-28466913.92100,186643029.11412,  -0.00222,   0.00126,   0.00355,474117767.11798,   0.00101,275743614.76318,  -0.00064,   0.00069,   0.00113,-1625847.64521,   0.00000
-360617108.20817,-29837223.60273,186560480.33811,  -0.00222,   0.00126,   0.00355,473908834.92938,   0.00101,275743614.76318,  -0.00064,   0.00069,   0.00113,-1834779.83381,   0.00000
-361032603.71408,-31210284.91033,186472428.31037,  -0.00222,   0.00125,   0.00355,473673507.77176,   0.00101,275743614.76318,  -0.00064,   0.00069,   0.00113,-2070106.99142,   0.00000
-361428837.83892,-32575091.34033,186384376.28262,  -0.00222,   0.00125,   0.00355,473429795.38531,   0.00101,275743614.76318,  -0.00064,   0.00069,   0.00113,-2313819.37787,   0.00000
-361805810.58269,-33931642.89273,186285317.75141,  -0.00222,   0.00124,   0.00355,473164658.68535,   0.00101,275743614.76318,  -0.00064,   0.00069,   0.00113,-2578956.07783,   0.00000
-362182783.32646,-35288194.44513,186180755.96847,  -0.00222,   0.00124,   0.00355,472896046.08367,   0.00101,275743614.76318,  -0.00064,   0.00069,   0.00113,-2847568.67952,   0.00000
-362521233.30809,-36628236.24233,186070690.93379,  -0.00222,   0.00123,   0.00355,472600957.45429,   0.00101,275743614.76318,  -0.00064,   0.00069,   0.00113,-3142657.30889,   0.00000
-362840421.90865,-37960023.16192,185955122.64738,  -0.00221,   0.00122,   0.00355,472290829.07249,   0.00101,275743614.76318,  -0.00064,   0.00069,   0.00113,-3452785.69070,   0.00000
-363167865.38682,-39311071.46259,185834051.10924,  -0.00221,   0.00122,   0.00354,471977355.95580,   0.00101,275743614.76318,  -0.00064,   0.00069,   0.00113,-3766258.80738,   0.00000
-363448531.22525,-40626348.62698,185712979.57109,  -0.00221,   0.00121,   0.00354,471643594.95126,   0.00101,275743614.76318,  -0.00064,   0.00069,   0.00113,-4100019.81193,   0.00000
-363729197.06367,-41941625.79138,185580901.52948,  -0.00221,   0.00121,   0.00354,471299743.19476,   0.00101,275743614.76318,  -0.00064,   0.00069,   0.00113,-4443871.56842,   0.00000
-363979595.01756,-43259654.58164,185443320.23613,  -0.00221,   0.00120,   0.00354,470929492.39674,   0.00101,275743614.76318,  -0.00064,   0.00069,   0.00113,-4814122.36644,   0.00000
-364229992.97146,-44577683.37190,185300235.69105,  -0.00221,   0.00120,   0.00354,470555693.17036,   0.00101,275743614.76318,  -0.00064,   0.00069,   0.00113,-5187921.59282,   0.00000
-364433613.28561,-45859941.02589,185157151.14597,  -0.00221,   0.00119,   0.00354,470161249.50026,   0.00101,275743614.76318,  -0.00064,   0.00069,   0.00113,-5582365.26292,   0.00000
-364645488.47736,-47161460.06095,185003060.09742,  -0.00220,   0.00119,   0.00353,469757084.75442,   0.00101,275743614.76318,  -0.00064,   0.00069,   0.00113,-5986530.00876,   0.00000
-364838102.28805,-48454724.21841,184843465.79714,  -0.00220,   0.00118,   0.00353,469337716.46138,   0.00101,275743614.76318,  -0.00064,   0.00069,   0.00113,-6405898.30180,   0.00000
-364992193.33660,-49731478.62067,184678368.24512,  -0.00220,   0.00118,   0.00353,468891478.69829,   0.00101,275743614.76318,  -0.00064,   0.00069,   0.00113,-6852136.06489,   0.00000
-365146284.38514,-51008233.02293,184513270.69311,  -0.00220,   0.00117,   0.00353,468448100.92542,   0.00101,275743614.76318,  -0.00064,   0.00069,   0.00113,-7295513.83777,   0.00000
-365281114.05262,-52276732.54758,184337166.63762,  -0.00220,   0.00116,   0.00352,467982925.92500,   0.00101,275743614.76318,  -0.00064,   0.00069,   0.00113,-7760688.83818,   0.00000
-365369166.08037,-53509460.93597,184155559.33041,  -0.00220,   0.00116,   0.00352,467490099.26331,   0.00101,275743614.76318,  -0.00064,   0.00069,   0.00113,-8253515.49987,   0.00000
-365465472.98571,-54761450.70542,183973952.02319,  -0.00219,   0.00115,   0.00352,467000700.22826,   0.00101,275743614.76318,  -0.00064,   0.00069,   0.00113,-8742914.53493,   0.00000
-365542518.50998,-56005185.59728,183781338.21250,  -0.00219,   0.00115,   0.00352,466489418.83508,   0.00101,275743614.76318,  -0.00064,   0.00069,   0.00113,-9254195.92810,   0.00000
-365589296.14972,-57251672.11500,183588724.40182,  -0.00219,   0.00114,   0.00352,465958311.53630,   0.00101,275743614.76318,  -0.00064,   0.00069,   0.00113,-9785303.22689,   0.00000
-365627818.91186,-58478897.25165,183385104.08767,  -0.00219,   0.00114,   0.00351,465416223.32623,   0.00101,275743614.76318,  -0.00064,   0.00069,   0.00113,-10327391.43695,   0.00000
-365647080.29293,-59697867.51070,183175980.52178,  -0.00218,   0.00113,   0.00351,464858678.82337,   0.00101,275743614.76318,  -0.00064,   0.00069,   0.00113,-10884935.93981,   0.00000
-365627818.91186,-60900328.01455,182966856.95589,  -0.00218,   0.00113,   0.00351,464280421.77600,   0.00101,275743614.76318,  -0.00064,   0.00069,   0.00113,-11463192.98719,   0.00000
-365608557.53079,-62102788.51840,182746726.88654,  -0.00218,   0.00112,   0.00350,463691881.87403,   0.00101,275743614.76318,  -0.00064,   0.00069,   0.00113,-12051732.88915,   0.00000
-365570034.76865,-63296994.14465,182526596.81718,  -0.00218,   0.00111,   0.00350,463094322.00717,   0.00101,275743614.76318,  -0.00064,   0.00069,   0.00113,-12649292.75602,   0.00000
-365512250.62545,-64482944.89330,182295460.24436,  -0.00217,   0.00111,   0.00350,462474706.01276,   0.00101,275743614.76318,  -0.00064,   0.00069,   0.00113,-13268908.75042,   0.00000
-365415943.72010,-65652385.88675,182058820.41980,  -0.00217,   0.00110,   0.00350,461827739.99528,   0.00101,275743614.76318,  -0.00064,   0.00069,   0.00113,-13915874.76791,   0.00000
-365319636.81476,-66821826.88020,181822180.59525,  -0.00217,   0.00110,   0.00349,461183460.38441,   0.00101,275743614.76318,  -0.00064,   0.00069,   0.00113,-14560154.37878,   0.00000
-365204068.52835,-67983012.99604,181574534.26722,  -0.00217,   0.00109,   0.00349,460517060.78254,   0.00101,275743614.76318,  -0.00064,   0.00069,   0.00113,-15226553.98065,   0.00000
-365049977.47980,-69127689.35669,181326887.93920,  -0.00216,   0.00109,   0.00349,459829732.53157,   0.00101,275743614.76318,  -0.00064,   0.00069,   0.00113,-15913882.23162,   0.00000
-364895886.43125,-70272365.71733,181068235.10771,  -0.00216,   0.00108,   0.00348,459132043.57023,   0.00101,275743614.76318,  -0.00064,   0.00069,   0.00113,-16611571.19296,   0.00000
-364722534.00164,-71408787.20038,180809582.27622,  -0.00216,   0.00108,   0.00348,458425198.92453,   0.00101,275743614.76318,  -0.00064,   0.00069,   0.00113,-17318415.83865,   0.00000
-364510658.80988,-72528698.92822,180539922.94126,  -0.00215,   0.00107,   0.00348,457684323.58143,   0.00101,275743614.76318,  -0.00064,   0.00069,   0.00113,-18059291.18175,   0.00000
-364298783.61813,-73648610.65606,180270263.60630,  -0.00215,   0.00107,   0.00347,456946086.69087,   0.00101,275743614.76318,  -0.00064,   0.00069,   0.00113,-18797528.07232,   0.00000
-364048385.66424,-74752012.62870,179989597.76787,  -0.00215,   0.00106,   0.00347,456173768.30334,   0.00101,275743614.76318,  -0.00064,   0.00069,   0.00113,-19569846.45985,   0.00000
-363797987.71035,-75855414.60134,179703428.67771,  -0.00214,   0.00105,   0.00346,455397561.95341,   0.00101,275743614.76318,  -0.00064,   0.00069,   0.00113,-20346052.80977,   0.00000
-363520073.49779,-76931300.31531,179417259.58755,  -0.00214,   0.00105,   0.00346,454610664.16534,   0.00101,275743614.76318,  -0.00064,   0.00069,   0.00113,-21132950.59784,   0.00000
-363211891.40069,-78009937.65515,179120083.99392,  -0.00214,   0.00104,   0.00346,453791036.59505,   0.00101,275743614.76318,  -0.00064,   0.00069,   0.00113,-21952578.16813,   0.00000
-362903709.30359,-79088574.99499,178822908.40029,  -0.00213,   0.00104,   0.00345,452974022.87332,   0.00101,275743614.76318,  -0.00064,   0.00069,   0.00113,-22769591.88986,   0.00000
-362548749.56676,-80131441.19856,178514726.30319,  -0.00213,   0.00103,   0.00345,452121236.38994,   0.00101,275743614.76318,  -0.00064,   0.00069,   0.00113,-23622378.37324,   0.00000
-362202044.70753,-81193568.78319,178206544.20610,  -0.00213,   0.00103,   0.00345,451272597.62291,   0.00101,275743614.76318,  -0.00064,   0.00069,   0.00113,-24471017.14028,   0.00000
-361808562.20855,-82219925.23156,177887355.60553,  -0.00212,   0.00102,   0.00344,450388069.01667,   0.00101,275743614.76318,  -0.00064,   0.00069,   0.00113,-25355545.74651,   0.00000
-361395818.32851,-83238026.80233,177568167.00497,  -0.00212,   0.00102,   0.00344,449494153.02039,   0.00101,275743614.76318,  -0.00064,   0.00069,   0.00113,-26249461.74280,   0.00000
-360991329.32607,-84275389.75416,177237971.90093,  -0.00212,   0.00101,   0.00343,448591453.59744,   0.00101,275743614.76318,  -0.00064,   0.00069,   0.00113,-27152161.16574,   0.00000
-360540062.68390,-85276981.56972,176907776.79690,  -0.00211,   0.00100,   0.00343,447665742.02051,   0.00101,275743614.76318,  -0.00064,   0.00069,   0.00113,-28077872.74267,   0.00000
-360088796.04172,-86278573.38529,176566575.18940,  -0.00211,   0.00100,   0.00342,446729506.60105,   0.00101,275743614.76318,  -0.00064,   0.00069,   0.00113,-29014108.16214,   0.00000
-359599006.63741,-87263655.44565,176225373.58190,  -0.00210,   0.00099,   0.00342,445771930.70536,   0.00101,275743614.76318,  -0.00064,   0.00069,   0.00113,-29971684.05782,   0.00000
-359081700.97442,-88221221.24734,175873165.47094,  -0.00210,   0.00099,   0.00341,444789991.64080,   0.00101,275743614.76318,  -0.00064,   0.00069,   0.00113,-30953623.12239,   0.00000
-358553388.80797,-89189793.55250,175520957.35997,  -0.00209,   0.00098,   0.00341,443800482.86585,   0.00101,275743614.76318,  -0.00064,   0.00069,   0.00113,-31943131.89733,   0.00000
-358025076.64152,-90158365.85766,175157742.74553,  -0.00209,   0.00098,   0.00341,442800446.16436,   0.00101,275743614.76318,  -0.00064,   0.00069,   0.00113,-32943168.59882,   0.00000
-357449986.83533,-91091167.02656,174794528.13110,  -0.00209,   0.00097,   0.00340,441777023.55159,   0.00101,275743614.76318,  -0.00064,   0.00069,   0.00113,-33966591.21160,   0.00000
-356863890.52567,-92034974.69891,174425810.26493,  -0.00208,   0.00097,   0.00340,440739609.80742,   0.00101,275743614.76318,  -0.00064,   0.00069,   0.00113,-35004004.95577,   0.00000
-356250277.95735,-92951266.11260,174046085.89529,  -0.00208,   0.00096,   0.00339,439677613.79667,   0.00101,275743614.76318,  -0.00064,   0.00069,   0.00113,-36066000.96651,   0.00000
-355617404.00795,-93859302.64869,173666361.52565,  -0.00207,   0.00096,   0.00339,438606110.93988,   0.00101,275743614.76318,  -0.00064,   0.00069,   0.00113,-37137503.82330,   0.00000
-354965268.67749,-94759084.30718,173275630.65255,  -0.00207,   0.00095,   0.00338,437512028.10826,   0.00101,275743614.76318,  -0.00064,   0.00069,   0.00113,-38231586.65492,   0.00000
-354293871.96596,-95650611.08807,172884899.77944,  -0.00206,   0.00095,   0.00338,436408441.10889,   0.00101,275743614.76318,  -0.00064,   0.00069,   0.00113,-39335173.65429,   0.00000
-353594958.99576,-96514621.61028,172483162.40287,  -0.00206,   0.00094,   0.00337,435280033.40205,   0.00101,275743614.76318,  -0.00064,   0.00069,   0.00113,-40463581.36113,   0.00000
-352885039.52209,-97389638.63597,172081425.02630,  -0.00205,   0.00093,   0.00337,434144327.23496,   0.00101,275743614.76318,  -0.00064,   0.00069,   0.00113,-41599287.52822,   0.00000
-352147603.78975,-98237139.40298,171674184.39799,  -0.00205,   0.00093,   0.00336,432990270.02367,   0.00101,275743614.76318,  -0.00064,   0.00069,   0.00113,-42753344.73951,   0.00000
-351371645.29527,-99068130.41480,171255937.26622,  -0.00204,   0.00092,   0.00335,431801555.98146,   0.00101,275743614.76318,  -0.00064,   0.00069,   0.00113,-43942058.78172,   0.00000
-350595686.80080,-99899121.42661,170837690.13445,  -0.00204,   0.00092,   0.00335,430615278.51342,   0.00101,275743614.76318,  -0.00064,   0.00069,   0.00113,-45128336.24976,   0.00000
-349800466.92525,-100721857.56082,170408436.49920,  -0.00203,   0.00091,   0.00334,429406348.50638,   0.00101,275743614.76318,  -0.00064,   0.00069,   0.00113,-46337266.25680,   0.00000
-348985985.66864,-101536338.81744,169979182.86396,  -0.00203,   0.00091,   0.00334,428187873.28867,   0.00101,275743614.76318,  -0.00064,   0.00069,   0.00113,-47555741.47451,   0.00000
-348124726.77229,-102315048.93778,169544425.97699,  -0.00202,   0.00090,   0.00333,426938793.40353,   0.00101,275743614.76318,  -0.00064,   0.00069,   0.00113,-48804821.35965,   0.00000
-347271722.75354,-103113020.43919,169098662.58654,  -0.00202,   0.00090,   0.00333,425681549.08069,   0.00101,275743614.76318,  -0.00064,   0.00069,   0.00113,-50062065.68249,   0.00000
-346371941.09505,-103875220.80433,168652899.19610,  -0.00201,   0.00089,   0.00332,424400191.37034,   0.00101,275743614.76318,  -0.00064,   0.00069,   0.00113,-51343423.39285,   0.00000
-345472159.43657,-104637421.16947,168201632.55392,  -0.00200,   0.00089,   0.00332,423114706.18130,   0.00101,275743614.76318,  -0.00064,   0.00069,   0.00113,-52628908.58189,   0.00000
-344525600.13834,-105363850.39834,167744862.66001,  -0.00200,   0.00088,   0.00331,421798415.33196,   0.00101,275743614.76318,  -0.00064,   0.00069,   0.00113,-53945199.43123,   0.00000
-343587295.71772,-106109541.00828,167277086.26263,  -0.00199,   0.00088,   0.00330,420474071.72413,   0.00101,275743614.76318,  -0.00064,   0.00069,   0.00113,-55269543.03906,   0.00000
-342602213.65735,-106819460.48195,166809309.86525,  -0.00199,   0.00087,   0.00330,419125432.16911,   0.00101,275743614.76318,  -0.00064,   0.00069,   0.00113,-56618182.59408,   0.00000
-341617131.59699,-107529379.95562,166336030.21614,  -0.00198,   0.00087,   0.00329,417772639.90782,   0.00101,275743614.76318,  -0.00064,   0.00069,   0.00113,-57970974.85536,   0.00000
-340593526.77449,-108222789.67409,165857247.31530,  -0.00198,   0.00086,   0.00328,416391667.22459,   0.00101,275743614.76318,  -0.00064,   0.00069,   0.00113,-59351947.53859,   0.00000
-339550660.57092,-108907944.51495,165367457.91098,  -0.00197,   0.00086,   0.00328,414987970.16175,   0.00101,275743614.76318,  -0.00064,   0.00069,   0.00113,-60755644.60143,   0.00000
-338499539.48975,-109573837.97475,164877668.50667,  -0.00196,   0.00085,   0.00327,413583857.54922,   0.00101,275743614.76318,  -0.00064,   0.00069,   0.00113,-62159757.21396,   0.00000
-337409895.64645,-110223221.67935,164382375.85062,  -0.00196,   0.00085,   0.00327,412151534.05484,   0.00101,275743614.76318,  -0.00064,   0.00069,   0.00113,-63592080.70834,   0.00000
-336300990.42207,-110864350.50634,163881579.94284,  -0.00195,   0.00084,   0.00326,410703038.98067,   0.00101,275743614.76318,  -0.00064,   0.00069,   0.00113,-65040575.78251,   0.00000
-335172823.81663,-111497224.45574,163375280.78332,  -0.00194,   0.00084,   0.00325,409238390.71022,   0.00101,275743614.76318,  -0.00064,   0.00069,   0.00113,-66505224.05297,   0.00000
-334025395.83012,-112121843.52753,162863478.37207,  -0.00194,   0.00083,   0.00325,407757608.69951,   0.00101,275743614.76318,  -0.00064,   0.00069,   0.00113,-67986006.06367,   0.00000
-332850451.58494,-112718946.34066,162346172.70909,  -0.00193,   0.00083,   0.00324,406257641.37139,   0.00101,275743614.76318,  -0.00064,   0.00069,   0.00113,-69485973.39179,   0.00000
-331656245.95869,-113307794.27618,161823363.79437,  -0.00193,   0.00082,   0.00323,404741506.70375,   0.00101,275743614.76318,  -0.00064,   0.00069,   0.00113,-71002108.05943,   0.00000
-330434524.07377,-113869125.95304,161295051.62792,  -0.00192,   0.00082,   0.00323,403206080.24079,   0.00101,275743614.76318,  -0.00064,   0.00069,   0.00113,-72537534.52240,   0.00000
-329201795.68538,-114441464.13336,160761236.20973,  -0.00191,   0.00081,   0.00322,401657641.16340,   0.00101,275743614.76318,  -0.00064,   0.00069,   0.00113,-74085973.59978,   0.00000
-327941551.03833,-114986286.05501,160221917.53981,  -0.00190,   0.00081,   0.00321,400089882.97823,   0.00101,275743614.76318,  -0.00064,   0.00069,   0.00113,-75653731.78495,   0.00000
-326642783.62914,-115514598.22146,159677095.61816,  -0.00190,   0.00080,   0.00320,398493971.32397,   0.00101,275743614.76318,  -0.00064,   0.00069,   0.00113,-77249643.43921,   0.00000
-325344016.21994,-116042910.38791,159126770.44477,  -0.00189,   0.00080,   0.00320,396893948.85601,   0.00101,275743614.76318,  -0.00064,   0.00069,   0.00113,-78849665.90717,   0.00000
-324017732.55208,-116543706.29570,158570942.01965,  -0.00188,   0.00079,   0.00319,395274499.54074,   0.00101,275743614.76318,  -0.00064,   0.00069,   0.00113,-80469115.22244,   0.00000
-322672187.50315,-117036247.32588,158015113.59453,  -0.00188,   0.00079,   0.00318,393645538.78746,   0.00101,275743614.76318,  -0.00064,   0.00069,   0.00113,-82098075.97572,   0.00000
-321288119.69208,-117512278.60086,157448278.66594,  -0.00187,   0.00078,   0.00318,391981853.92878,   0.00101,275743614.76318,  -0.00064,   0.00069,   0.00113,-83761760.83440,   0.00000
-319895797.00341,-117969048.49477,156875940.48562,  -0.00186,   0.00078,   0.00317,390310641.23719,   0.00101,275743614.76318,  -0.00064,   0.00069,   0.00113,-85432973.52599,   0.00000
-318484212.93368,-118417563.51108,156298099.05357,  -0.00186,   0.00077,   0.00316,388623308.65095,   0.00101,275743614.76318,  -0.00064,   0.00069,   0.00113,-87120306.11224,   0.00000
-317034106.10180,-118849568.77219,155720257.62151,  -0.00185,   0.00077,   0.00315,386914555.85692,   0.00101,275743614.76318,  -0.00064,   0.00069,   0.00113,-88829058.90627,   0.00000
-315583999.26993,-119281574.03330,155131409.68599,  -0.00184,   0.00076,   0.00315,385195094.90634,   0.00101,275743614.76318,  -0.00064,   0.00069,   0.00113,-90548519.85684,   0.00000
-314087114.79831,-119677808.15813,154542561.75046,  -0.00183,   0.00076,   0.00314,383450708.89917,   0.00101,275743614.76318,  -0.00064,   0.00069,   0.00113,-92292905.86401,   0.00000
-312590230.32670,-120074042.28297,153942707.31147,  -0.00183,   0.00075,   0.00313,381695594.15264,   0.00101,275743614.76318,  -0.00064,   0.00069,   0.00113,-94048020.61054,   0.00000
-311046568.21535,-120434505.27154,153342852.87248,  -0.00182,   0.00075,   0.00312,379915503.34296,   0.00101,275743614.76318,  -0.00064,   0.00069,   0.00113,-95828111.42022,   0.00000
-309491899.60054,-120805974.76358,152731991.93002,  -0.00181,   0.00074,   0.00311,378116427.73223,   0.00101,275743614.76318,  -0.00064,   0.00069,   0.00113,-97627187.03095,   0.00000
-307928976.10812,-121158182.87454,152121130.98756,  -0.00180,   0.00074,   0.00311,376316302.97342,   0.00101,275743614.76318,  -0.00064,   0.00069,   0.00113,-99427311.78977,   0.00000
-306319274.97596,-121474619.84924,151504766.79337,  -0.00179,   0.00073,   0.00310,374484508.48126,   0.00101,275743614.76318,  -0.00064,   0.00069,   0.00113,-101259106.28192,   0.00000
-304690312.46273,-121782801.94634,150877396.09571,  -0.00179,   0.00073,   0.00309,372630062.31219,   0.00101,275743614.76318,  -0.00064,   0.00069,   0.00113,-103113552.45100,   0.00000
-303061349.94951,-122090984.04344,150250025.39804,  -0.00178,   0.00073,   0.00308,370778292.47865,   0.00101,275743614.76318,  -0.00064,   0.00069,   0.00113,-104965322.28453,   0.00000
-301393864.67415,-122382656.38533,149617151.44865,  -0.00177,   0.00072,   0.00307,368898726.60787,   0.00101,275743614.76318,  -0.00064,   0.00069,   0.00113,-106844888.15531,   0.00000
-299698863.14012,-122646812.46856,148978774.24752,  -0.00176,   0.00072,   0.00307,366999406.59417,   0.00101,275743614.76318,  -0.00064,   0.00069,   0.00113,-108744208.16902,   0.00000
-297984600.22502,-122902713.67418,148334893.79466,  -0.00175,   0.00071,   0.00306,365084243.90843,   0.00101,275743614.76318,  -0.00064,   0.00069,   0.00113,-110659370.85476,   0.00000
-296270337.30992,-123158614.87981,147685510.09006,  -0.00174,   0.00071,   0.00305,363165172.45940,   0.00101,275743614.76318,  -0.00064,   0.00069,   0.00113,-112578442.30378,   0.00000
-294509296.75508,-123378744.94916,147030623.13373,  -0.00174,   0.00070,   0.00304,361214431.58902,   0.00101,275743614.76318,  -0.00064,   0.00069,   0.00113,-114529183.17416,   0.00000
-292720739.94157,-123571358.75985,146370232.92567,  -0.00173,   0.00070,   0.00303,359243855.87797,   0.00101,275743614.76318,  -0.00064,   0.00069,   0.00113,-116499758.88521,   0.00000
-290921176.62460,-123774979.07400,145704339.46587,  -0.00172,   0.00069,   0.00302,357261637.35010,   0.00101,275743614.76318,  -0.00064,   0.00069,   0.00113,-118481977.41309,   0.00000
-289094097.04895,-123951083.12948,145038446.00607,  -0.00171,   0.00069,   0.00301,355266370.43426,   0.00101,275743614.76318,  -0.00064,   0.00069,   0.00113,-120477244.32892,   0.00000
-287239501.21464,-124099670.92630,144361546.04281,  -0.00170,   0.00069,   0.00301,353244532.48690,   0.00101,275743614.76318,  -0.00064,   0.00069,   0.00113,-122499082.27629,   0.00000
-285373898.87686,-124259265.22658,143679142.82781,  -0.00169,   0.00068,   0.00300,351211281.73330,   0.00101,275743614.76318,  -0.00064,   0.00069,   0.00113,-124532333.02989,   0.00000
-283480780.28041,-124391343.26819,142996739.61281,  -0.00168,   0.00068,   0.00299,349165013.47978,   0.00101,275743614.76318,  -0.00064,   0.00069,   0.00113,-126578601.28340,   0.00000
-281560145.42529,-124495905.05114,142303329.89434,  -0.00168,   0.00067,   0.00298,347092169.07388,   0.00101,275743614.76318,  -0.00064,   0.00069,   0.00113,-128651445.68930,   0.00000
-279639510.57017,-124600466.83408,141609920.17587,  -0.00167,   0.00067,   0.00297,345022357.42274,   0.00101,275743614.76318,  -0.00064,   0.00069,   0.00113,-130721257.34044,   0.00000
-277680352.95291,-124688518.86182,140911007.20567,  -0.00166,   0.00066,   0.00296,342925340.38830,   0.00101,275743614.76318,  -0.00064,   0.00069,   0.00113,-132818274.37488,   0.00000
-275693679.07698,-124749054.63089,140206590.98374,  -0.00165,   0.00066,   0.00295,340808553.21951,   0.00101,275743614.76318,  -0.00064,   0.00069,   0.00113,-134935061.54367,   0.00000
-273687743.81999,-124801335.52237,139496671.51007,  -0.00164,   0.00066,   0.00294,338676427.59390,   0.00101,275743614.76318,  -0.00064,   0.00069,   0.00113,-137067187.16928,   0.00000
-271654292.30432,-124826100.15517,138781248.78466,  -0.00163,   0.00065,   0.00293,336524544.35188,   0.00101,275743614.76318,  -0.00064,   0.00069,   0.00113,-139219070.41130,   0.00000
-269601579.40759,-124842609.91037,138060322.80753,  -0.00162,   0.00065,   0.00292,334357416.93621,   0.00101,275743614.76318,  -0.00064,   0.00069,   0.00113,-141386197.82697,   0.00000
-267529605.12979,-124850864.78797,137333893.57866,  -0.00161,   0.00064,   0.00291,332175135.25065,   0.00101,275743614.76318,  -0.00064,   0.00069,   0.00113,-143568479.51253,   0.00000
-265430114.59332,-124831603.40690,136601961.09805,  -0.00160,   0.00064,   0.00290,329973173.86797,   0.00101,275743614.76318,  -0.00064,   0.00069,   0.00113,-145770440.89522,   0.00000
-263303107.79818,-124784825.76716,135870028.61745,  -0.00159,   0.00064,   0.00289,327758357.50884,   0.00101,275743614.76318,  -0.00064,   0.00069,   0.00113,-147985257.25435,   0.00000
-261165094.49957,-124749054.63089,135127089.63337,  -0.00158,   0.00063,   0.00289,325526382.39200,   0.00101,275743614.76318,  -0.00064,   0.00069,   0.00113,-150217232.37119,   0.00000
-258999564.94229,-124685767.23595,134384150.64930,  -0.00157,   0.00063,   0.00288,323281696.91480,   0.00101,275743614.76318,  -0.00064,   0.00069,   0.00113,-152461917.84839,   0.00000
-256806519.12635,-124594963.58235,133630205.16176,  -0.00156,   0.00062,   0.00287,321010575.39020,   0.00101,275743614.76318,  -0.00064,   0.00069,   0.00113,-154733039.37299,   0.00000
-254594211.92933,-124495905.05114,132876259.67422,  -0.00155,   0.00062,   0.00286,318731560.16079,   0.00101,275743614.76318,  -0.00064,   0.00069,   0.00113,-157012054.60239,   0.00000
-252354388.47365,-124369330.26126,132116810.93495,  -0.00154,   0.00062,   0.00285,316433052.32458,   0.00101,275743614.76318,  -0.00064,   0.00069,   0.00113,-159310562.43861,   0.00000
-250114565.01796,-124242755.47138,131351858.94394,  -0.00153,   0.00061,   0.00284,314131449.75309,   0.00101,275743614.76318,  -0.00064,   0.00069,   0.00113,-161612165.01010,   0.00000
-247836218.80014,-124099670.92630,130581403.70120,  -0.00152,   0.00061,   0.00283,311803841.30761,   0.00101,275743614.76318,  -0.00064,   0.00069,   0.00113,-163939773.45558,   0.00000
-245530356.32365,-123929070.12255,129805445.20672,  -0.00151,   0.00060,   0.00282,309456915.20430,   0.00101,275743614.76318,  -0.00064,   0.00069,   0.00113,-166286699.55889,   0.00000
-243205232.46609,-123750214.44120,129029486.71225,  -0.00150,   0.00060,   0.00281,307102631.58415,   0.00101,275743614.76318,  -0.00064,   0.00069,   0.00113,-168640983.17904,   0.00000
-240871853.73093,-123552097.37878,128242521.71431,  -0.00149,   0.00060,   0.00280,304733623.16199,   0.00101,275743614.76318,  -0.00064,   0.00069,   0.00113,-171009991.60120,   0.00000
-238491697.35603,-123318209.18009,127455556.71636,  -0.00148,   0.00059,   0.00279,302340963.50729,   0.00101,275743614.76318,  -0.00064,   0.00069,   0.00113,-173402651.25590,   0.00000
-236100534.47767,-123095327.48487,126663088.46669,  -0.00147,   0.00059,   0.00278,299939432.81623,   0.00101,275743614.76318,  -0.00064,   0.00069,   0.00113,-175804181.94695,   0.00000
-233692861.84410,-122833923.02751,125859613.71354,  -0.00146,   0.00059,   0.00276,297518137.95421,   0.00101,275743614.76318,  -0.00064,   0.00069,   0.00113,-178225476.80897,   0.00000
-231254921.32600,-122575270.19602,125056138.96040,  -0.00145,   0.00058,   0.00275,295083911.30401,   0.00101,275743614.76318,  -0.00064,   0.00069,   0.00113,-180659703.45917,   0.00000
-228781209.67162,-122269839.72479,124247160.95552,  -0.00144,   0.00058,   0.00274,292625673.48588,   0.00101,275743614.76318,  -0.00064,   0.00069,   0.00113,-183117941.27731,   0.00000
-226315752.89485,-121983670.63462,123438182.95064,  -0.00143,   0.00058,   0.00273,290177471.00658,   0.00101,275743614.76318,  -0.00064,   0.00069,   0.00113,-185566143.75661,   0.00000
-223795263.60074,-121642469.02712,122618198.44229,  -0.00142,   0.00057,   0.00272,287687103.68709,   0.00101,275743614.76318,  -0.00064,   0.00069,   0.00113,-188056511.07609,   0.00000
-221283029.18423,-121320528.80069,121798213.93395,  -0.00141,   0.00057,   0.00271,285207100.80690,   0.00101,275743614.76318,  -0.00064,   0.00069,   0.00113,-190536513.95629,   0.00000
-218735023.63145,-120951810.93452,120967222.92213,  -0.00140,   0.00057,   0.00270,282696234.45111,   0.00101,275743614.76318,  -0.00064,   0.00069,   0.00113,-193047380.31207,   0.00000
-216156750.19413,-120585844.69422,120136231.91032,  -0.00139,   0.00056,   0.00269,280173847.70784,   0.00101,275743614.76318,  -0.00064,   0.00069,   0.00113,-195569767.05534,   0.00000
-213561967.00161,-120181355.69178,119299737.64677,  -0.00137,   0.00056,   0.00268,277638951.68873,   0.00101,275743614.76318,  -0.00064,   0.00069,   0.00113,-198104663.07445,   0.00000
-210956177.30562,-119787873.19281,118457740.13149,  -0.00136,   0.00056,   0.00267,275097001.22377,   0.00101,275743614.76318,  -0.00064,   0.00069,   0.00113,-200646613.53942,   0.00000
-208314616.47337,-119347613.05410,117610239.36447,  -0.00135,   0.00055,   0.00266,272531622.28976,   0.00101,275743614.76318,  -0.00064,   0.00069,   0.00113,-203211992.47343,   0.00000
-205653794.26004,-118899098.03779,116762738.59746,  -0.00134,   0.00055,   0.00265,269961181.16595,   0.00101,275743614.76318,  -0.00064,   0.00069,   0.00113,-205782433.59723,   0.00000
-202973710.66565,-118442328.14388,115904231.32697,  -0.00133,   0.00055,   0.00264,267371662.65850,   0.00101,275743614.76318,  -0.00064,   0.00069,   0.00113,-208371952.10468,   0.00000
-200266110.81258,-117958041.99130,115045724.05649,  -0.00132,   0.00054,   0.00262,264771925.19752,   0.00101,275743614.76318,  -0.00064,   0.00069,   0.00113,-210971689.56566,   0.00000
-197539249.57845,-117465500.96112,114181713.53427,  -0.00131,   0.00054,   0.00261,262160720.25709,   0.00101,275743614.76318,  -0.00064,   0.00069,   0.00113,-213582894.50609,   0.00000
-194804133.46672,-116953698.54987,113312199.76032,  -0.00130,   0.00054,   0.00260,259543287.26062,   0.00101,275743614.76318,  -0.00064,   0.00069,   0.00113,-216200327.50257,   0.00000
-192022239.71525,-116406125.00235,112437182.73464,  -0.00128,   0.00053,   0.00259,256898271.35990,   0.00101,275743614.76318,  -0.00064,   0.00069,   0.00113,-218845343.40328,   0.00000
-189240345.96378,-115858551.45483,111562165.70895,  -0.00127,   0.00053,   0.00258,254260399.15516,   0.00101,275743614.76318,  -0.00064,   0.00069,   0.00113,-221483215.60802,   0.00000
-186419929.45017,-115294468.15211,110676142.17980,  -0.00126,   0.00053,   0.00257,251594203.44512,   0.00101,275743614.76318,  -0.00064,   0.00069,   0.00113,-224149411.31807,   0.00000
-183591258.05896,-114711123.46832,109790118.65065,  -0.00125,   0.00053,   0.00256,248929795.06700,   0.00101,275743614.76318,  -0.00064,   0.00069,   0.00113,-226813819.69618,   0.00000
-180735070.40909,-114100262.52586,108898591.86976,  -0.00124,   0.00052,   0.00254,246249520.88601,   0.00101,275743614.76318,  -0.00064,   0.00069,   0.00113,-229494093.87717,   0.00000
-177840359.99707,-113472891.82820,108001561.83714,  -0.00122,   0.00052,   0.00253,243549261.89354,   0.00101,275743614.76318,  -0.00064,   0.00069,   0.00113,-232194352.86964,   0.00000
-174937394.70746,-112826259.74947,107104531.80452,  -0.00121,   0.00052,   0.00252,240851546.01979,   0.00101,275743614.76318,  -0.00064,   0.00069,   0.00113,-234892068.74339,   0.00000
-172015168.03677,-112171372.79314,106196495.26843,  -0.00120,   0.00051,   0.00251,238137658.06983,   0.00101,275743614.76318,  -0.00064,   0.00069,   0.00113,-237605956.69336,   0.00000
-169084686.48849,-111497224.45574,105288458.73234,  -0.00119,   0.00051,   0.00250,235426777.68577,   0.00101,275743614.76318,  -0.00064,   0.00069,   0.00113,-240316837.07742,   0.00000
-166107427.30046,-110787304.98207,104374918.94452,  -0.00118,   0.00051,   0.00249,232691386.29410,   0.00101,275743614.76318,  -0.00064,   0.00069,   0.00113,-243052228.46908,   0.00000
-163110906.73137,-110069130.63080,103455875.90496,  -0.00116,   0.00051,   0.00247,229948386.57842,   0.00101,275743614.76318,  -0.00064,   0.00069,   0.00113,-245795228.18477,   0.00000
-160114386.16228,-109350956.27953,102531329.61367,  -0.00115,   0.00050,   0.00246,227208291.46723,   0.00101,275743614.76318,  -0.00064,   0.00069,   0.00113,-248535323.29595,   0.00000
-157090349.33452,-108605265.66959,101606783.32238,  -0.00114,   0.00050,   0.00245,224462597.58135,   0.00101,275743614.76318,  -0.00064,   0.00069,   0.00113,-251281017.18184,   0.00000
-154019534.86702,-107823803.92338,100676733.77936,  -0.00113,   0.00050,   0.00244,221694456.08479,   0.00101,275743614.76318,  -0.00064,   0.00069,   0.00113,-254049158.67840,   0.00000
-150940465.52192,-107023080.79610,99741180.98460,  -0.00112,   0.00050,   0.00243,218924096.14001,   0.00101,275743614.76318,  -0.00064,   0.00069,   0.00113,-256819518.62318,   0.00000
-147869651.05443,-106241619.04989,98800124.93811,  -0.00110,   0.00049,   0.00241,216164747.93151,   0.00101,275743614.76318,  -0.00064,   0.00069,   0.00113,-259578866.83167,   0.00000
-144743804.06959,-105405124.78635,97853565.63989,  -0.00109,   0.00049,   0.00240,213378141.67124,   0.00101,275743614.76318,  -0.00064,   0.00069,   0.00113,-262365473.09194,   0.00000
-141598695.70368,-104560375.64520,96907006.34166,  -0.00108,   0.00049,   0.00239,210595236.41505,   0.00101,275743614.76318,  -0.00064,   0.00069,   0.00113,-265148378.34814,   0.00000
-138445332.46018,-103696365.12298,95954943.79170,  -0.00106,   0.00049,   0.00238,207811987.59833,   0.00101,275743614.76318,  -0.00064,   0.00069,   0.00113,-267931627.16485,   0.00000
-135253446.45453,-102815844.84556,94997377.99001,  -0.00105,   0.00049,   0.00236,205016830.62268,   0.00101,275743614.76318,  -0.00064,   0.00069,   0.00113,-270726784.14051,   0.00000
-132053305.57129,-101916063.18707,94034308.93658,  -0.00104,   0.00048,   0.00235,202222551.12804,   0.00101,275743614.76318,  -0.00064,   0.00069,   0.00113,-273521063.63515,   0.00000
-128833903.30698,-101008026.65099,93071239.88315,  -0.00103,   0.00048,   0.00234,199434963.91209,   0.00101,275743614.76318,  -0.00064,   0.00069,   0.00113,-276308650.85109,   0.00000
-125606246.16506,-100080728.73383,92102667.57799,  -0.00101,   0.00048,   0.00233,196649487.19689,   0.00101,275743614.76318,  -0.00064,   0.00069,   0.00113,-279094127.56630,   0.00000
-122331811.38341,-99117659.68040,91128592.02110,  -0.00100,   0.00048,   0.00231,193848911.62790,   0.00101,275743614.76318,  -0.00064,   0.00069,   0.00113,-281894703.13528,   0.00000
-119057376.60176,-98154590.62698,90149013.21247,  -0.00099,   0.00048,   0.00230,191058860.75375,   0.00101,275743614.76318,  -0.00064,   0.00069,   0.00113,-284684754.00943,   0.00000
-115736164.18037,-97155750.43728,89169434.40384,  -0.00097,   0.00047,   0.00229,188263723.94660,   0.00101,275743614.76318,  -0.00064,   0.00069,   0.00113,-287479890.81658,   0.00000
-112406696.88138,-96137648.86651,88184352.34348,  -0.00096,   0.00047,   0.00227,185474088.41413,   0.00101,275743614.76318,  -0.00064,   0.00069,   0.00113,-290269526.34905,   0.00000
-109057968.20132,-95111292.41815,87193767.03138,  -0.00095,   0.00047,   0.00226,182689389.66698,   0.00101,275743614.76318,  -0.00064,   0.00069,   0.00113,-293054225.09620,   0.00000
-105700984.64366,-94065674.58871,86197678.46755,  -0.00093,   0.00047,   0.00225,179912017.90002,   0.00101,275743614.76318,  -0.00064,   0.00069,   0.00113,-295831596.86316,   0.00000
-102305478.32386,-93003547.00407,85201589.90372,  -0.00092,   0.00047,   0.00224,177141838.80358,   0.00101,275743614.76318,  -0.00064,   0.00069,   0.00113,-298601775.95961,   0.00000
-98901717.12647,-91922158.03837,84199998.08816,  -0.00091,   0.00046,   0.00222,174381457.01641,   0.00101,275743614.76318,  -0.00064,   0.00069,   0.00113,-301362157.74677,   0.00000
-95470439.67040,-90813252.81399,83192903.02086,  -0.00089,   0.00046,   0.00221,171624147.20132,   0.00101,275743614.76318,  -0.00064,   0.00069,   0.00113,-304119467.56186,   0.00000
-92019900.83326,-89696092.71202,82185807.95356,  -0.00088,   0.00046,   0.00220,168886786.71706,   0.00101,275743614.76318,  -0.00064,   0.00069,   0.00113,-306856828.04612,   0.00000
-88541845.73746,-88551416.35138,81167706.38280,  -0.00087,   0.00046,   0.00218,166147812.55360,   0.00101,275743614.76318,  -0.00064,   0.00069,   0.00113,-309595802.20959,   0.00000
-85063790.64165,-87406739.99073,80149604.81203,  -0.00085,   0.00046,   0.00217,163439638.69719,   0.00101,275743614.76318,  -0.00064,   0.00069,   0.00113,-312303976.06599,   0.00000
-81558219.28718,-86234547.37142,79131503.24127,  -0.00084,   0.00046,   0.00216,160749459.04938,   0.00101,275743614.76318,  -0.00064,   0.00069,   0.00113,-314994155.71381,   0.00000
-78025131.67404,-85034838.49343,78102395.16703,  -0.00083,   0.00046,   0.00214,158063097.69363,   0.00101,275743614.76318,  -0.00064,   0.00069,   0.00113,-317680517.06955,   0.00000
-74472782.67982,-83826874.73785,77073287.09280,  -0.00081,   0.00045,   0.00213,155406545.59309,   0.00101,275743614.76318,  -0.00064,   0.00069,   0.00113,-320337069.17009,   0.00000
-70912178.80801,-82599649.60120,76044179.01857,  -0.00080,   0.00045,   0.00212,152781116.57978,   0.00101,275743614.76318,  -0.00064,   0.00069,   0.00113,-322962498.18341,   0.00000
-67324058.67753,-81344908.20587,75004064.44086,  -0.00078,   0.00045,   0.00210,150166183.41895,   0.00101,275743614.76318,  -0.00064,   0.00069,   0.00113,-325577431.34423,   0.00000
-63716677.16598,-80081911.93295,73963949.86316,  -0.00077,   0.00045,   0.00209,147588522.17068,   0.00101,275743614.76318,  -0.00064,   0.00069,   0.00113,-328155092.59250,   0.00000
-60081779.39576,-78791399.40136,72918332.03373,  -0.00076,   0.00045,   0.00208,145035260.53210,   0.00101,275743614.76318,  -0.00064,   0.00069,   0.00113,-330708354.23109,   0.00000
-56419365.36687,-77473370.61110,71872714.20429,  -0.00074,   0.00045,   0.00206,142517825.83526,   0.00101,275743614.76318,  -0.00064,   0.00069,   0.00113,-333225788.92792,   0.00000
-52756951.33798,-76155341.82084,70821593.12312,  -0.00073,   0.00045,   0.00205,140043930.59769,   0.00101,275743614.76318,  -0.00064,   0.00069,   0.00113,-335699684.16550,   0.00000
-49067021.05042,-74809796.77191,69764968.79022,  -0.00071,   0.00045,   0.00204,137603913.40995,   0.00101,275743614.76318,  -0.00064,   0.00069,   0.00113,-338139701.35323,   0.00000
-45377090.76286,-73464251.72298,68702841.20559,  -0.00070,   0.00044,   0.00202,135213622.82780,   0.00101,275743614.76318,  -0.00064,   0.00069,   0.00113,-340529991.93539,   0.00000
-41651389.33903,-72071929.03431,67640713.62095,  -0.00069,   0.00044,   0.00201,132864982.70586,   0.00101,275743614.76318,  -0.00064,   0.00069,   0.00113,-342878632.05732,   0.00000
-37914681.41174,-70690612.84911,66573082.78458,  -0.00067,   0.00044,   0.00199,130577179.47976,   0.00101,275743614.76318,  -0.00064,   0.00069,   0.00113,-345166435.28343,   0.00000
-34142202.34817,-69262519.02417,65505451.94821,  -0.00066,   0.00044,   0.00198,128339800.09298,   0.00101,275743614.76318,  -0.00064,   0.00069,   0.00113,-347403814.67020,   0.00000
-30350461.90354,-67826170.32163,64432317.86010,  -0.00064,   0.00044,   0.00197,126164793.32335,   0.00101,275743614.76318,  -0.00064,   0.00069,   0.00113,-349578821.43984,   0.00000
-26550466.58130,-66370560.23802,63353680.52027,  -0.00063,   0.00044,   0.00195,124051907.30820,   0.00101,275743614.76318,  -0.00064,   0.00069,   0.00113,-351691707.45498,   0.00000
-22731209.87800,-64906695.27681,62269539.92869,  -0.00061,   0.00044,   0.00194,122010926.11010,   0.00101,275743614.76318,  -0.00064,   0.00069,   0.00113,-353732688.65309,   0.00000
-18903698.29709,-63423568.93453,61185399.33712,  -0.00060,   0.00044,   0.00192,120049648.76986,   0.00101,275743614.76318,  -0.00064,   0.00069,   0.00113,-355693965.99332,   0.00000
-15048670.45752,-61912926.33359,60101258.74555,  -0.00058,   0.00044,   0.00191,118171272.36630,   0.00101,275743614.76318,  -0.00064,   0.00069,   0.00113,-357572342.39688,   0.00000
-11166126.35927,-60374767.47397,59006111.65051,  -0.00057,   0.00044,   0.00190,116364970.15519,   0.00101,275743614.76318,  -0.00064,   0.00069,   0.00113,-359378644.60799,   0.00000
-7264320.87996,-58828353.73675,57910964.55547,  -0.00056,   0.00044,   0.00188,114661401.39591,   0.00101,275743614.76318,  -0.00064,   0.00069,   0.00113,-361082213.36727,   0.00000
-3362515.40065,-57281939.99954,56815817.46043,  -0.00054,   0.00044,   0.00187,113066472.02240,   0.00101,275743614.76318,  -0.00064,   0.00069,   0.00113,-362677142.74078,   0.00000
555799.83387,-55697003.50018,55709663.86192,  -0.00053,   0.00044,   0.00185,111553222.45669,   0.00101,275743614.76318,  -0.00064,   0.00069,   0.00113,-364190392.30649,   0.00000
4512637.83052,-54095557.24563,54609013.51515,  -0.00051,   0.00043,   0.00184,110169142.42785,   0.00101,275743614.76318,  -0.00064,   0.00069,   0.00113,-365574472.33534,   0.00000
8477730.70477,-52474849.61000,53497356.66491,  -0.00050,   0.00043,   0.00182,108886412.89738,   0.00101,275743614.76318,  -0.00064,   0.00069,   0.00113,-366857201.86580,   0.00000
12462084.96009,-50845887.09678,52385699.81467,  -0.00048,   0.00043,   0.00181,107735965.19407,   0.00101,275743614.76318,  -0.00064,   0.00069,   0.00113,-368007649.56911,   0.00000
16454694.09301,-49197663.20248,51274042.96442,  -0.00047,   0.00043,   0.00180,106713550.99574,   0.00101,275743614.76318,  -0.00064,   0.00069,   0.00113,-369030063.76744,   0.00000
20474819.48460,-47521923.04952,50151379.61072,  -0.00045,   0.00043,   0.00178,105811326.56680,   0.00101,275743614.76318,  -0.00064,   0.00069,   0.00113,-369932288.19638,   0.00000
24514206.25726,-45837928.01896,49028716.25701,  -0.00044,   0.00043,   0.00177,105058019.34544,   0.00101,275743614.76318,  -0.00064,   0.00069,   0.00113,-370685595.41774,   0.00000
28561847.90752,-44134671.60732,47906052.90330,  -0.00042,   0.00043,   0.00175,104447048.23975,   0.00101,275743614.76318,  -0.00064,   0.00069,   0.00113,-371296566.52344,   0.00000
32637005.81645,-42403898.93702,46777886.29785,  -0.00041,   0.00043,   0.00174,103979387.52203,   0.00101,275743614.76318,  -0.00064,   0.00069,   0.00113,-371764227.24115,   0.00000
36712163.72538,-40673126.26672,45644216.44068,  -0.00039,   0.00043,   0.00172,103660349.79627,   0.00101,275743614.76318,  -0.00064,   0.00069,   0.00113,-372083264.96691,   0.00000
40823092.77058,-38895575.95668,44510546.58350,  -0.00038,   0.00043,   0.00171,103492969.37226,   0.00101,275743614.76318,  -0.00064,   0.00069,   0.00113,-372250645.39092,   0.00000
44945028.31925,-37129032.15011,43376876.72632,  -0.00036,   0.00043,   0.00169,103499015.95700,   0.00101,275743614.76318,  -0.00064,   0.00069,   0.00113,-372244598.80619,   0.00000
49083473.62312,-35323965.58140,42232200.36568,  -0.00034,   0.00043,   0.00168,103641058.96490,   0.00101,275743614.76318,  -0.00064,   0.00069,   0.00113,-372102555.79828,   0.00000
53241180.30806,-33510644.13509,41087524.00503,  -0.00033,   0.00043,   0.00166,103953290.87707,   0.00101,275743614.76318,  -0.00064,   0.00069,   0.00113,-371790323.88612,   0.00000
57407141.87059,-31678061.30771,39942847.64439,  -0.00031,   0.00043,   0.00165,104421835.35771,   0.00101,275743614.76318,  -0.00064,   0.00069,   0.00113,-371321779.40548,   0.00000
61592364.81420,-29837223.60273,38792668.03201,  -0.00030,   0.00043,   0.00163,105053499.49446,   0.00101,275743614.76318,  -0.00064,   0.00069,   0.00113,-370690115.26872,   0.00000
65805104.01648,-27968869.63909,37636985.16790,  -0.00028,   0.00043,   0.00162,105842768.84567,   0.00101,275743614.76318,  -0.00064,   0.00069,   0.00113,-369900845.91752,   0.00000
70026098.09635,-26081254.29437,36481302.30379,  -0.00027,   0.00043,   0.00160,106784413.49374,   0.00101,275743614.76318,  -0.00064,   0.00069,   0.00113,-368959201.26944,   0.00000
74255347.05383,-24174377.56858,35325619.43967,  -0.00025,   0.00044,   0.00159,107875076.17364,   0.00101,275743614.76318,  -0.00064,   0.00069,   0.00113,-367868538.58954,   0.00000
78503857.39238,-22259245.96520,34164433.32383,  -0.00024,   0.00044,   0.00157,109120996.33137,   0.00101,275743614.76318,  -0.00064,   0.00069,   0.00113,-366622618.43181,   0.00000
82779883.98959,-20316598.10314,32997743.95625,  -0.00022,   0.00044,   0.00156,110515303.48537,   0.00101,275743614.76318,  -0.00064,   0.00069,   0.00113,-365228311.27782,   0.00000
87055910.58681,-18373950.24109,31831054.58867,  -0.00021,   0.00044,   0.00154,112051518.03325,   0.00101,275743614.76318,  -0.00064,   0.00069,   0.00113,-363692096.72994,   0.00000
91359453.44269,-16403786.12036,30658861.96935,  -0.00019,   0.00044,   0.00153,113728502.66554,   0.00101,275743614.76318,  -0.00064,   0.00069,   0.00113,-362015112.09765,   0.00000
95671251.17618,-14414360.61857,29486669.35004,  -0.00017,   0.00044,   0.00151,115534380.23816,   0.00101,275743614.76318,  -0.00064,   0.00069,   0.00113,-360209234.52502,   0.00000
100010565.16834,-12397418.85811,28308973.47899,  -0.00016,   0.00044,   0.00150,117472873.22852,   0.00101,275743614.76318,  -0.00064,   0.00069,   0.00113,-358270741.53466,   0.00000
104349879.16049,-10380477.09764,27131277.60794,  -0.00014,   0.00044,   0.00148,119533140.97048,   0.00101,275743614.76318,  -0.00064,   0.00069,   0.00113,-356210473.79270,   0.00000
108716709.41131,-8336019.07851,25948078.48516,  -0.00013,   0.00044,   0.00147,121716823.05386,   0.00101,275743614.76318,  -0.00064,   0.00069,   0.00113,-354026791.70933,   0.00000
113091794.53974,-6272299.67831,24764879.36238,  -0.00011,   0.00044,   0.00145,124009431.54246,   0.00101,275743614.76318,  -0.00064,   0.00069,   0.00113,-351734183.22072,   0.00000
117486141.04923,-4200325.40051,23576176.98787,  -0.00009,   0.00044,   0.00143,126418449.83489,   0.00101,275743614.76318,  -0.00064,   0.00069,   0.00113,-349325164.92829,   0.00000
121888742.43633,-2109089.74164,22387474.61335,  -0.00008,   0.00044,   0.00142,128926277.95462,   0.00101,275743614.76318,  -0.00064,   0.00069,   0.00113,-346817336.80856,   0.00000
126310605.20449,-9599.20517,21193268.98710,  -0.00006,   0.00044,   0.00140,131541041.16877,   0.00101,275743614.76318,  -0.00064,   0.00069,   0.00113,-344202573.59442,   0.00000
130748977.72786,2128414.09344,19999063.36085,  -0.00005,   0.00044,   0.00139,134243901.02522,   0.00101,275743614.76318,  -0.00064,   0.00069,   0.00113,-341499713.73797,   0.00000
135187350.25122,4266427.39205,18799354.48287,  -0.00003,   0.00045,   0.00137,137030296.80835,   0.00101,275743614.76318,  -0.00064,   0.00069,   0.00113,-338713317.95483,   0.00000
139644984.15565,6412695.56826,17599645.60488,  -0.00001,   0.00045,   0.00136,139912780.22222,   0.00101,275743614.76318,  -0.00064,   0.00069,   0.00113,-335830834.54096,   0.00000
144138389.19636,8605741.38420,16394433.47517,   0.00000,   0.00045,   0.00134,142884039.24459,   0.00101,275743614.76318,  -0.00064,   0.00069,   0.00113,-332859575.51860,   0.00000
148631794.23706,10798787.20015,15189221.34545,   0.00002,   0.00045,   0.00133,145928469.74194,   0.00101,275743614.76318,  -0.00064,   0.00069,   0.00113,-329815145.02125,   0.00000
153125199.27776,12991833.01609,13984009.21573,   0.00003,   0.00045,   0.00131,149041587.82245,   0.00101,275743614.76318,  -0.00064,   0.00069,   0.00113,-326702026.94073,   0.00000
157654375.45474,15231656.47178,12773293.83428,   0.00005,   0.00045,   0.00129,152233502.47836,   0.00101,275743614.76318,  -0.00064,   0.00069,   0.00113,-323510112.28482,   0.00000
162183551.63171,17471479.92746,11557075.20110,   0.00007,   0.00045,   0.00128,155485910.37597,   0.00101,275743614.76318,  -0.00064,   0.00069,   0.00113,-320257704.38721,   0.00000
166712727.80869,19711303.38315,10346359.81965,   0.00008,   0.00045,   0.00126,158797624.11119,   0.00101,275743614.76318,  -0.00064,   0.00069,   0.00113,-316945990.65199,   0.00000
171277675.12193,21997904.47857,9124637.93473,   0.00010,   0.00046,   0.00125,162178842.36946,   0.00101,275743614.76318,  -0.00064,   0.00069,   0.00113,-313564772.39373,   0.00000
175861883.81624,24292760.45159,7908419.30154,   0.00012,   0.00046,   0.00123,165629100.88867,   0.00101,275743614.76318,  -0.00064,   0.00069,   0.00113,-310114513.87452,   0.00000
180426831.12949,26579361.54702,6681194.16489,   0.00013,   0.00046,   0.00122,169111173.31717,   0.00101,275743614.76318,  -0.00064,   0.00069,   0.00113,-306632441.44602,   0.00000
185046810.96007,28920995.15978,5459472.27997,   0.00015,   0.00046,   0.00120,172674334.50325,   0.00101,275743614.76318,  -0.00064,   0.00069,   0.00113,-303069280.25993,   0.00000
189647529.40958,31254373.89494,4232247.14332,   0.00016,   0.00046,   0.00118,176265261.05263,   0.00101,275743614.76318,  -0.00064,   0.00069,   0.00113,-299478353.71056,   0.00000
194267509.24016,33596007.50770,3005022.00667,   0.00018,   0.00046,   0.00117,179913964.54884,   0.00101,275743614.76318,  -0.00064,   0.00069,   0.00113,-295829650.21434,   0.00000
198903998.82595,35976163.88260,1772293.61828,   0.00020,   0.00047,   0.00115,183604753.02127,   0.00101,275743614.76318,  -0.00064,   0.00069,   0.00113,-292138861.74191,   0.00000
203559749.79280,38364575.13509,534061.97816,   0.00021,   0.00047,   0.00114,187349365.39040,   0.00101,275743614.76318,  -0.00064,   0.00069,   0.00113,-288394249.37278,   0.00000
208215500.75965,40752986.38759,-698666.41023,   0.00023,   0.00047,   0.00112,191129698.35223,   0.00101,275743614.76318,  -0.00064,   0.00069,   0.00113,-284613916.41095,   0.00000
212887761.48171,43179920.40223,-1936898.05035,   0.00025,   0.00047,   0.00110,194947384.28976,   0.00101,275743614.76318,  -0.00064,   0.00069,   0.00113,-280796230.47343,   0.00000
217560022.20376,45606854.41687,-3180632.94220,   0.00026,   0.00047,   0.00109,198797558.96204,   0.00101,275743614.76318,  -0.00064,   0.00069,   0.00113,-276946055.80115,   0.00000
222251544.30688,48042043.30910,-4418864.58232,   0.00028,   0.00048,   0.00107,202694222.03801,   0.00101,275743614.76318,  -0.00064,   0.00069,   0.00113,-273049392.72518,   0.00000
226978837.54628,50524009.84108,-5662599.47418,   0.00030,   0.00048,   0.00105,206640708.33403,   0.00101,275743614.76318,  -0.00064,   0.00069,   0.00113,-269102906.42915,   0.00000
231686869.40460,52997721.49545,-6911837.61776,   0.00031,   0.00048,   0.00104,210599164.90129,   0.00101,275743614.76318,  -0.00064,   0.00069,   0.00113,-265144449.86190,   0.00000
236414162.64399,55479688.02742,-8161075.76135,   0.00033,   0.00048,   0.00102,214600273.91938,   0.00101,275743614.76318,  -0.00064,   0.00069,   0.00113,-261143340.84380,   0.00000
241157965.63859,58000177.32154,-9410313.90494,   0.00035,   0.00048,   0.00101,218631292.85192,   0.00101,275743614.76318,  -0.00064,   0.00069,   0.00113,-257112321.91126,   0.00000
245901768.63318,60520666.61565,-10665055.30026,   0.00036,   0.00049,   0.00099,222687049.82229,   0.00101,275743614.76318,  -0.00064,   0.00069,   0.00113,-253056564.94089,   0.00000
250664833.00885,63049410.78736,-11919796.69558,   0.00038,   0.00049,   0.00097,226781968.73089,   0.00101,275743614.76318,  -0.00064,   0.00069,   0.00113,-248961646.03229,   0.00000
255436152.26211,65597416.34014,-13174538.09091,   0.00040,   0.00049,   0.00096,230901283.33649,   0.00101,275743614.76318,  -0.00064,   0.00069,   0.00113,-244842331.42669,   0.00000
260215726.39297,68164683.27399,-14434782.73796,   0.00041,   0.00049,   0.00094,235045133.09927,   0.00101,275743614.76318,  -0.00064,   0.00069,   0.00113,-240698481.66391,   0.00000
265022816.78251,70759466.46651,-15695027.38502,   0.00043,   0.00050,   0.00092,239228184.05620,   0.00101,275743614.76318,  -0.00064,   0.00069,   0.00113,-236515430.70698,   0.00000
269829907.17204,73354249.65903,-16955272.03207,   0.00045,   0.00050,   0.00091,243430273.63166,   0.00101,275743614.76318,  -0.00064,   0.00069,   0.00113,-232313341.13152,   0.00000
274645252.43918,75968294.23262,-18215516.67913,   0.00046,   0.00050,   0.00089,247653548.75867,   0.00101,275743614.76318,  -0.00064,   0.00069,   0.00113,-228090066.00451,   0.00000
279460597.70631,78582338.80620,-19481264.57792,   0.00048,   0.00050,   0.00088,251895417.34487,   0.00101,275743614.76318,  -0.00064,   0.00069,   0.00113,-223848197.41832,   0.00000
284284197.85105,81215644.76086,-20752515.72844,   0.00050,   0.00051,   0.00086,256158471.27338,   0.00101,275743614.76318,  -0.00064,   0.00069,   0.00113,-219585143.48980,   0.00000
289135314.25445,83876466.97418,-22018263.62723,   0.00052,   0.00051,   0.00084,260455859.64503,   0.00101,275743614.76318,  -0.00064,   0.00069,   0.00113,-215287755.11815,   0.00000
293986430.65786,86537289.18751,-23289514.77776,   0.00053,   0.00051,   0.00083,264769974.80752,   0.00101,275743614.76318,  -0.00064,   0.00069,   0.00113,-210973639.95566,   0.00000
298845801.93886,89217372.78190,-24560765.92828,   0.00055,   0.00051,   0.00081,269102228.33647,   0.00101,275743614.76318,  -0.00064,   0.00069,   0.00113,-206641386.42672,   0.00000
303713428.09747,91916717.75737,-25837520.33054,   0.00057,   0.00052,   0.00079,273453689.55445,   0.00101,275743614.76318,  -0.00064,   0.00069,   0.00113,-202289925.20874,   0.00000
308600315.63714,94624317.61043,-27114274.73279,   0.00058,   0.00052,   0.00078,277835155.61554,   0.00101,275743614.76318,  -0.00064,   0.00069,   0.00113,-197908459.14764,   0.00000
313476196.67335,97342923.96696,-28391029.13505,   0.00060,   0.00052,   0.00076,282216995.86496,   0.00101,275743614.76318,  -0.00064,   0.00069,   0.00113,-193526618.89822,   0.00000
318379593.96823,100089046.58216,-29667783.53731,   0.00062,   0.00052,   0.00074,286631479.83021,   0.00101,275743614.76318,  -0.00064,   0.00069,   0.00113,-189112134.93298,   0.00000
323282991.26310,102835169.19736,-30950041.19130,   0.00063,   0.00053,   0.00073,291059819.46660,   0.00101,275743614.76318,  -0.00064,   0.00069,   0.00113,-184683795.29658,   0.00000
328194643.43558,105600553.19363,-32232298.84529,   0.00065,   0.00053,   0.00071,295503685.55939,   0.00101,275743614.76318,  -0.00064,   0.00069,   0.00113,-180239929.20379,   0.00000
333125556.98913,108374192.06750,-33514556.49928,   0.00067,   0.00053,   0.00069,299975108.33717,   0.00101,275743614.76318,  -0.00064,   0.00069,   0.00113,-175768506.42601,   0.00000
338045464.03921,111158837.44484,-34796814.15328,   0.00068,   0.00054,   0.00068,304444965.36997,   0.00101,275743614.76318,  -0.00064,   0.00069,   0.00113,-171298649.39321,   0.00000
342992887.34795,113970999.08084,-36084575.05900,   0.00070,   0.00054,   0.00066,308947498.81763,   0.00101,275743614.76318,  -0.00064,   0.00069,   0.00113,-166796115.94556,   0.00000
347921049.27563,116774905.83925,-37372335.96473,   0.00072,   0.00054,   0.00064,313443873.57316,   0.00101,275743614.76318,  -0.00064,   0.00069,   0.00113,-162299741.19002,   0.00000
352876727.46198,119606328.85632,-38660096.87045,   0.00074,   0.00055,   0.00063,317970404.35597,   0.00101,275743614.76318,  -0.00064,   0.00069,   0.00113,-157773210.40721,   0.00000
357832405.64833,122437751.87340,-39947857.77618,   0.00075,   0.00055,   0.00061,322506329.15273,   0.00101,275743614.76318,  -0.00064,   0.00069,   0.00113,-153237285.61046,   0.00000
362796338.71228,125288436.27154,-41241121.93363,   0.00077,   0.00055,   0.00059,327057609.75574,   0.00101,275743614.76318,  -0.00064,   0.00069,   0.00113,-148686005.00745,   0.00000
367787788.03490,128166636.92836,-42534386.09109,   0.00079,   0.00056,   0.00058,331638269.73649,   0.00101,275743614.76318,  -0.00064,   0.00069,   0.00113,-144105345.02669,   0.00000
372759975.97645,131036582.70757,-43827650.24855,   0.00080,   0.00056,   0.00056,336211214.94450,   0.00101,275743614.76318,  -0.00064,   0.00069,   0.00113,-139532399.81868,   0.00000
377740418.79560,133925789.86785,-45120914.40601,   0.00082,   0.00056,   0.00054,340796783.99582,   0.00101,275743614.76318,  -0.00064,   0.00069,   0.00113,-134946830.76737,   0.00000
382740122.99582,136823251.90573,-46419681.81520,   0.00084,   0.00057,   0.00053,345408767.01279,   0.00101,275743614.76318,  -0.00064,   0.00069,   0.00113,-130334847.75039,   0.00000
387728820.69257,139731720.44708,-47712945.97266,   0.00085,   0.00057,   0.00051,350014503.34612,   0.00101,275743614.76318,  -0.00064,   0.00069,   0.00113,-125729111.41706,   0.00000
392745034.64799,142667705.24710,-49011713.38186,   0.00087,   0.00057,   0.00049,354650740.40044,   0.00101,275743614.76318,  -0.00064,   0.00069,   0.00113,-121092874.36275,   0.00000
397761248.60341,145603690.04712,-50315984.04278,   0.00089,   0.00058,   0.00047,359296583.12049,   0.00101,275743614.76318,  -0.00064,   0.00069,   0.00113,-116447031.64270,   0.00000
402766456.05536,148550681.35060,-51614751.45198,   0.00091,   0.00058,   0.00046,363935625.19116,   0.00101,275743614.76318,  -0.00064,   0.00069,   0.00113,-111807989.57202,   0.00000
407790924.88838,151505927.53169,-52913518.86117,   0.00092,   0.00058,   0.00044,368597698.87935,   0.00101,275743614.76318,  -0.00064,   0.00069,   0.00113,-107145915.88383,   0.00000
412823648.59901,154480435.09385,-54217789.52210,   0.00094,   0.00059,   0.00042,373273490.77957,   0.00101,275743614.76318,  -0.00064,   0.00069,   0.00113,-102470123.98362,   0.00000
417856372.30963,157454942.65600,-55522060.18302,   0.00096,   0.00059,   0.00041,377955755.62096,   0.00101,275743614.76318,  -0.00064,   0.00069,   0.00113,-97787859.14222,   0.00000
422878089.51678,160440456.72163,-56826330.84395,   0.00097,   0.00060,   0.00039,382632931.87901,   0.00101,275743614.76318,  -0.00064,   0.00069,   0.00113,-93110682.88418,   0.00000
427927322.98261,163453487.04592,-58130601.50488,   0.00099,   0.00060,   0.00037,387337221.98203,   0.00101,275743614.76318,  -0.00064,   0.00069,   0.00113,-88406392.78115,   0.00000
432976556.44843,166466517.37021,-59440375.41754,   0.00101,   0.00060,   0.00036,392049965.02197,   0.00101,275743614.76318,  -0.00064,   0.00069,   0.00113,-83693649.74122,   0.00000
438034044.79186,169498809.07557,-60744646.07846,   0.00103,   0.00061,   0.00034,396770913.53774,   0.00101,275743614.76318,  -0.00064,   0.00069,   0.00113,-78972701.22545,   0.00000
443091533.13528,172531100.78094,-62054419.99112,   0.00104,   0.00061,   0.00032,401500025.69815,   0.00101,275743614.76318,  -0.00064,   0.00069,   0.00113,-74243589.06503,   0.00000
448138014.97524,175574398.98976,-63364193.90379,   0.00106,   0.00061,   0.00030,406223522.96494,   0.00101,275743614.76318,  -0.00064,   0.00069,   0.00113,-69520091.79824,   0.00000
453212013.07387,178645213.45726,-64668464.56471,   0.00108,   0.00062,   0.00029,410970942.03380,   0.00101,275743614.76318,  -0.00064,   0.00069,   0.00113,-64772672.72938,   0.00000
458286011.17249,181716027.92476,-65983741.72911,   0.00109,   0.00062,   0.00027,415728795.91763,   0.00101,275743614.76318,  -0.00064,   0.00069,   0.00113,-60014818.84556,   0.00000
463360009.27112,184786842.39226,-67293515.64177,   0.00111,   0.00063,   0.00025,420489112.88078,   0.00101,275743614.76318,  -0.00064,   0.00069,   0.00113,-55254501.88241,   0.00000
468423000.86628,187868663.36323,-68603289.55443,   0.00113,   0.00063,   0.00024,425243428.36331,   0.00101,275743614.76318,  -0.00064,   0.00069,   0.00113,-50500186.39987,   0.00000
473513508.72011,190978000.59286,-69918566.71882,   0.00115,   0.00064,   0.00022,430026504.32019,   0.00101,275743614.76318,  -0.00064,   0.00069,   0.00113,-45717110.44300,   0.00000
478584755.19287,194079082.94490,-71228340.63148,   0.00116,   0.00064,   0.00020,434795581.24233,   0.00101,275743614.76318,  -0.00064,   0.00069,   0.00113,-40948033.52086,   0.00000
483683517.92429,197207681.55560,-72543617.79588,   0.00118,   0.00064,   0.00019,439593265.92703,   0.00101,275743614.76318,  -0.00064,   0.00069,   0.00113,-36150348.83615,   0.00000
488763019.27466,200328025.28870,-73858894.96027,   0.00120,   0.00065,   0.00017,444379438.47051,   0.00101,275743614.76318,  -0.00064,   0.00069,   0.00113,-31364176.29267,   0.00000
493842520.62502,203448369.02181,-75174172.12467,   0.00121,   0.00065,   0.00015,449169998.02303,   0.00101,275743614.76318,  -0.00064,   0.00069,   0.00113,-26573616.74015,   0.00000
498938531.73058,206607235.51705,-76489449.28906,   0.00123,   0.00066,   0.00013,453975555.55041,   0.00101,275743614.76318,  -0.00064,   0.00069,   0.00113,-21768059.21277,   0.00000
504026287.95854,209746840.63122,-77804726.45346,   0.00125,   0.00066,   0.00012,458779948.32942,   0.00101,275743614.76318,  -0.00064,   0.00069,   0.00113,-16963666.43376,   0.00000
509130553.94170,212924968.50753,-79120003.61785,   0.00126,   0.00067,   0.00010,463599267.60525,   0.00101,275743614.76318,  -0.00064,   0.00069,   0.00113,-12144347.15793,   0.00000
514226565.04726,216083835.00277,-80435280.78224,   0.00128,   0.00067,   0.00008,468417163.32523,   0.00101,275743614.76318,  -0.00064,   0.00069,   0.00113,-7326451.43796,   0.00000
519339085.90803,219281224.26015,-81750557.94664,   0.00130,   0.00067,   0.00007,473249925.59378,   0.00101,275743614.76318,  -0.00064,   0.00069,   0.00113,-2493689.16941,   0.00000
521972727.08404,220930273.48921,-82433511.89828,   0.00131,   0.00068,   0.00006,475743615.68668,   0.00101,275743614.76318,  -0.00064,   0.00069,   0.00113,   0.92349,   0.00000
521934871.17197,221604554.35861,-82622457.34075,   0.00132,   0.00068,   0.00005,475743615.68668,   0.00102,275752934.93427,  -0.00063,   0.00069,   0.00112,  -0.00000,   2.00000
521859341.33925,222990480.59093,-83000009.48487,   0.00133,   0.00068,   0.00003,480593611.08623,   0.00104,275772283.73936,  -0.00061,   0.00069,   0.00111,   0.00000,   2.00000
521776594.19732,224373591.40251,-83379076.60144,   0.00135,   0.00069,   0.00001,480609725.75250,   0.00106,275791598.98627,  -0.00059,   0.00069,   0.00110,   0.00000,   2.00000
521692785.10333,225741330.94332,-83747885.00307,   0.00137,   0.00069,  -0.00000,480630352.65890,   0.00107,275810898.99207,  -0.00057,   0.00068,   0.00109,   0.00000,   2.00000
521604006.87084,227108581.56216,-84115209.43811,   0.00138,   0.00070,  -0.00002,480662370.57120,   0.00109,275830229.22232,  -0.00055,   0.00068,   0.00107,   0.00000,   2.00000
521514397.58318,228460612.53000,-84472418.78479,   0.00140,   0.00070,  -0.00004,480682867.24358,   0.00111,275849543.71642,  -0.00053,   0.00068,   0.00106,   0.00000,   2.00000
521417716.47985,229810135.32092,-84831364.83006,   0.00142,   0.00071,  -0.00005,480698976.71495,   0.00113,275868825.14945,  -0.00051,   0.00068,   0.00105,   0.00000,   2.00000
521319502.92409,231145510.47997,-85182035.60432,   0.00143,   0.00071,  -0.00007,480738166.17066,   0.00115,275888165.52484,  -0.00049,   0.00068,   0.00104,   0.00000,   2.00000
521220571.32630,232480808.94900,-85524791.75689,   0.00145,   0.00072,  -0.00009,480748398.32473,   0.00116,275907449.46436,  -0.00047,   0.00068,   0.00102,   0.00000,   2.00000
521114938.24233,233798913.68197,-85867451.97391,   0.00147,   0.00072,  -0.00011,480774523.36520,   0.00118,275926740.53802,  -0.00045,   0.00067,   0.00101,   0.00000,   2.00000
521005915.18602,235101167.15732,-86205175.29512,   0.00148,   0.00073,  -0.00012,480797610.10977,   0.00120,275946026.81864,  -0.00043,   0.00067,   0.00100,   0.00000,   2.00000
520893210.17538,236402573.17827,-86540008.80401,   0.00150,   0.00073,  -0.00014,480810723.12888,   0.00122,275965268.84528,  -0.00041,   0.00067,   0.00099,   0.00000,   2.00000
520784498.88615,237707932.37579,-86860753.84861,   0.00152,   0.00074,  -0.00016,480852561.23018,   0.00124,275984580.24218,  -0.00039,   0.00067,   0.00097,   0.00000,   2.00000
520667141.68685,238994547.31422,-87184848.18879,   0.00154,   0.00074,  -0.00017,480862682.79989,   0.00125,276003835.60488,  -0.00037,   0.00067,   0.00096,   0.00000,   2.00000
520546757.02294,240265615.24471,-87504233.81216,   0.00155,   0.00075,  -0.00019,480885538.18580,   0.00127,276023085.66016,  -0.00035,   0.00067,   0.00095,   0.00000,   2.00000
520422831.20588,241536171.51773,-87820947.58059,   0.00157,   0.00075,  -0.00021,480898619.40944,   0.00129,276042291.89617,  -0.00033,   0.00067,   0.00093,   0.00000,   2.00000
520303169.39538,242810727.11072,-88123718.37386,   0.00159,   0.00076,  -0.00023,480940319.65277,   0.00131,276061567.05212,  -0.00031,   0.00067,   0.00092,   0.00000,   2.00000
520173568.23089,244050503.33939,-88431374.00400,   0.00160,   0.00076,  -0.00024,480944052.87232,   0.00133,276080761.88855,  -0.00029,   0.00067,   0.00091,   0.00000,   2.00000
520040568.25276,245290138.60523,-88736512.18873,   0.00162,   0.00077,  -0.00026,480957059.81937,   0.00134,276099913.30059,  -0.00027,   0.00067,   0.00089,   0.00000,   2.00000
519912073.39756,246533932.95648,-89027810.72274,   0.00164,   0.00077,  -0.00028,480998606.46268,   0.00136,276119133.37266,  -0.00025,   0.00066,   0.00088,   0.00000,   2.00000
519775413.83239,247759828.56999,-89322883.08526,   0.00165,   0.00078,  -0.00029,481008422.77013,   0.00138,276138297.53512,  -0.00023,   0.00066,   0.00087,   0.00000,   2.00000
519641022.51468,248988462.13639,-89607490.52798,   0.00167,   0.00078,  -0.00031,481034135.80880,   0.00140,276157468.25436,  -0.00021,   0.00066,   0.00085,   0.00000,   2.00000
519499596.04339,250184516.82801,-89894022.94287,   0.00169,   0.00079,  -0.00033,481053213.89223,   0.00141,276176619.96764,  -0.00019,   0.00066,   0.00084,   0.00000,   2.00000
519359550.52881,251398518.62802,-90172146.61528,   0.00170,   0.00079,  -0.00035,481069516.10237,   0.00143,276195741.61390,  -0.00017,   0.00066,   0.00083,   0.00000,   2.00000
519212679.21055,252580149.22275,-90452299.71489,   0.00172,   0.00080,  -0.00036,481088416.84647,   0.00145,276214843.96454,  -0.00015,   0.00066,   0.00081,   0.00000,   2.00000
519069576.50642,253781115.03243,-90720777.35869,   0.00174,   0.00080,  -0.00038,481120511.98205,   0.00147,276233978.23984,  -0.00013,   0.00066,   0.00080,   0.00000,   2.00000
518920757.58373,254950038.87551,-90989982.01133,   0.00175,   0.00081,  -0.00040,481120372.48616,   0.00149,276253019.02863,  -0.00011,   0.00066,   0.00079,   0.00000,   2.00000
518771199.74778,256120835.56742,-91253796.42858,   0.00177,   0.00082,  -0.00041,481148990.28209,   0.00150,276272078.79496,  -0.00009,   0.00066,   0.00077,   0.00000,   2.00000
518619765.77302,257277338.29086,-91513687.37436,   0.00179,   0.00082,  -0.00043,481170990.75051,   0.00152,276291131.82584,  -0.00007,   0.00066,   0.00076,   0.00000,   2.00000
518465188.73638,258434646.22434,-91771639.43928,   0.00180,   0.00083,  -0.00045,481183889.26662,   0.00154,276310142.74939,  -0.00005,   0.00066,   0.00074,   0.00000,   2.00000
518308868.11053,259577813.96077,-92025747.92582,   0.00182,   0.00083,  -0.00047,481205779.53635,   0.00156,276329146.87848,  -0.00003,   0.00066,   0.00073,   0.00000,   2.00000
518150908.00696,260707007.67170,-92276070.97268,   0.00183,   0.00084,  -0.00048,481227594.14967,   0.00157,276348144.10384,  -0.00001,   0.00066,   0.00072,   0.00000,   2.00000
517989885.34531,261837331.51004,-92524579.61951,   0.00185,   0.00084,  -0.00050,481240445.15338,   0.00159,276367099.68851,   0.00000,   0.00066,   0.00070,   0.00000,   2.00000
517830734.44366,262955306.62312,-92764633.77482,   0.00187,   0.00085,  -0.00052,481258935.30073,   0.00161,276386035.79381,   0.00002,   0.00066,   0.00069,   0.00000,   2.00000
517665125.94729,264073073.86043,-93007741.32620,   0.00188,   0.00085,  -0.00053,481274965.83029,   0.00163,276404943.04811,   0.00004,   0.00066,   0.00068,   0.00000,   2.00000
517504063.94629,265179552.99190,-93239063.68843,   0.00190,   0.00086,  -0.00055,481309008.55595,   0.00164,276423891.26661,   0.00006,   0.00066,   0.00066,   0.00000,   2.00000
517336564.87712,266270758.67472,-93473736.79787,   0.00192,   0.00087,  -0.00057,481299227.55462,   0.00166,276442711.22238,   0.00008,   0.00066,   0.00065,   0.00000,   2.00000
517165222.71821,267362890.22761,-93708106.03325,   0.00193,   0.00087,  -0.00058,481330854.76077,   0.00168,276461563.40035,   0.00010,   0.00066,   0.00063,   0.00000,   2.00000
516996116.83561,268443176.93141,-93934238.73980,   0.00195,   0.00088,  -0.00060,481349032.31117,   0.00170,276480395.84274,   0.00012,   0.00066,   0.00062,   0.00000,   2.00000
516829320.95589,269511790.72268,-94152250.77253,   0.00196,   0.00088,  -0.00062,481367100.88110,   0.00172,276499208.31630,   0.00014,   0.00066,   0.00061,   0.00000,   2.00000
516656113.37479,270580730.03677,-94373574.93443,   0.00198,   0.00089,  -0.00064,481383073.27976,   0.00173,276517992.90014,   0.00016,   0.00066,   0.00059,   0.00000,   2.00000
516479262.28000,271635891.90365,-94595022.87651,   0.00200,   0.00089,  -0.00065,481388697.92325,   0.00175,276536710.16559,   0.00018,   0.00067,   0.00058,   0.00000,   2.00000
516304937.59786,272679738.96230,-94808444.42457,   0.00201,   0.00090,  -0.00067,481406542.73901,   0.00177,276555407.50470,   0.00020,   0.00067,   0.00056,   0.00000,   2.00000
516129745.49540,273710842.90696,-95018661.86323,   0.00203,   0.00091,  -0.00069,481427579.62787,   0.00179,276574097.41605,   0.00021,   0.00067,   0.00055,   0.00000,   2.00000
515951660.33289,274744303.75055,-95227584.38865,   0.00205,   0.00091,  -0.00070,481440185.70881,   0.00180,276592747.57599,   0.00023,   0.00067,   0.00053,   0.00000,   2.00000
515773334.30318,275780645.91222,-95431738.06669,   0.00206,   0.00092,  -0.00072,481468390.87491,   0.00182,276611417.87712,   0.00025,   0.00067,   0.00052,   0.00000,   2.00000
515591039.38493,276788304.07246,-95637919.34426,   0.00208,   0.00092,  -0.00074,481466499.15208,   0.00184,276629993.42103,   0.00027,   0.00067,   0.00051,   0.00000,   2.00000
515408602.23344,277799114.36142,-95839372.17832,   0.00209,   0.00093,  -0.00075,481494603.12369,   0.00186,276648589.36130,   0.00029,   0.00067,   0.00049,   0.00000,   2.00000
515226315.01272,278798757.11281,-96036595.82623,   0.00211,   0.00094,  -0.00077,481496522.70376,   0.00187,276667105.64665,   0.00031,   0.00067,   0.00048,   0.00000,   2.00000
515043882.81032,279801597.48929,-96229184.22397,   0.00213,   0.00094,  -0.00079,481524577.77801,   0.00189,276685642.40987,   0.00033,   0.00067,   0.00046,   0.00000,   2.00000
514858139.64692,280791793.28553,-96422362.44138,   0.00214,   0.00095,  -0.00081,481529734.56633,   0.00191,276704112.37413,   0.00035,   0.00067,   0.00045,   0.00000,   2.00000
514671926.11416,281769923.65354,-96612630.83028,   0.00216,   0.00095,  -0.00082,481550325.08957,   0.00192,276722574.86490,   0.00036,   0.00067,   0.00043,   0.00000,   2.00000
514486029.81914,282737485.64466,-96798875.31235,   0.00217,   0.00096,  -0.00084,481551985.50201,   0.00194,276740957.94527,   0.00038,   0.00068,   0.00042,   0.00000,   2.00000
514296262.88673,283691594.78112,-96986999.80127,   0.00219,   0.00097,  -0.00086,481575753.09238,   0.00196,276759346.37064,   0.00040,   0.00068,   0.00040,   0.00000,   2.00000
514107191.67028,284650741.76246,-97169446.75833,   0.00220,   0.00097,  -0.00087,481584805.62204,   0.00198,276777684.05057,   0.00042,   0.00068,   0.00039,   0.00000,   2.00000
513918069.73215,285613416.28219,-97347412.27130,   0.00222,   0.00098,  -0.00089,481612706.58636,   0.00199,276796042.76882,   0.00044,   0.00068,   0.00038,   0.00000,   2.00000
513725612.51698,286548997.13052,-97527960.59909,   0.00224,   0.00098,  -0.00091,481609980.25439,   0.00201,276814306.56106,   0.00046,   0.00068,   0.00036,   0.00000,   2.00000
513536718.16802,287490095.44486,-97699389.94540,   0.00225,   0.00099,  -0.00092,481634403.94283,   0.00203,276832578.74459,   0.00047,   0.00068,   0.00035,   0.00000,   2.00000
513344761.47898,288419606.96418,-97871772.32490,   0.00227,   0.00100,  -0.00094,481639118.97570,   0.00204,276850784.76442,   0.00049,   0.00068,   0.00033,   0.00000,   2.00000
513152696.89974,289337862.28921,-98041560.36804,   0.00228,   0.00100,  -0.00096,481659199.84726,   0.00206,276868983.28456,   0.00051,   0.00069,   0.00032,   0.00000,   2.00000
512954745.63284,290244773.61588,-98215918.58795,   0.00230,   0.00101,  -0.00097,481648348.04281,   0.00208,276887057.54027,   0.00053,   0.00069,   0.00030,   0.00000,   2.00000
512763369.16165,291157606.95820,-98377672.69371,   0.00231,   0.00101,  -0.00099,481688015.08590,   0.00210,276905198.96159,   0.00055,   0.00069,   0.00029,   0.00000,   2.00000
512565465.11927,292057547.10590,-98545197.43726,   0.00233,   0.00102,  -0.00101,481695942.65751,   0.00211,276923287.53623,   0.00057,   0.00069,   0.00027,   0.00000,   2.00000
512368235.27389,292948382.81434,-98709141.44565,   0.00234,   0.00103,  -0.00102,481696981.07852,   0.00213,276941297.64270,   0.00058,   0.00069,   0.00026,   0.00000,   2.00000
512171700.09745,293830299.21396,-98869569.38628,   0.00236,   0.00103,  -0.00104,481697905.87094,   0.00215,276959229.36894,   0.00060,   0.00069,   0.00025,   0.00000,   2.00000
511971684.65722,294714671.76693,-99030414.59647,   0.00237,   0.00104,  -0.00106,481728838.82382,   0.00216,276977196.19828,   0.00062,   0.00070,   0.00023,   0.00000,   2.00000
511775411.13875,295590223.51825,-99184210.18421,   0.00239,   0.00105,  -0.00107,481745093.21641,   0.00218,276995142.70667,   0.00064,   0.00070,   0.00022,   0.00000,   2.00000
511576291.42042,296455317.75309,-99339283.42183,   0.00240,   0.00105,  -0.00109,481749334.35801,   0.00220,277013023.96460,   0.00065,   0.00070,   0.00020,   0.00000,   2.00000
511377952.78353,297311981.36808,-99491000.54617,   0.00242,   0.00106,  -0.00111,481750050.79346,   0.00221,277030827.15596,   0.00067,   0.00070,   0.00019,   0.00000,   2.00000
511173229.02665,298156659.52943,-99648691.13446,   0.00243,   0.00106,  -0.00112,481757564.69791,   0.00223,277048578.47210,   0.00069,   0.00070,   0.00017,   0.00000,   2.00000
510972280.23287,299007827.21327,-99797547.89260,   0.00245,   0.00107,  -0.00114,481781466.94496,   0.00225,277066339.53640,   0.00071,   0.00071,   0.00016,   0.00000,   2.00000
510775245.81440,299850694.81891,-99939550.23774,   0.00246,   0.00108,  -0.00116,481797363.25869,   0.00226,277084080.29566,   0.00073,   0.00071,   0.00014,   0.00000,   2.00000
510568717.91622,300682002.54983,-100091267.85771,   0.00248,   0.00108,  -0.00117,481789463.32581,   0.00228,277101711.93754,   0.00074,   0.00071,   0.00013,   0.00000,   2.00000
510366218.55306,301505307.01254,-100236129.74910,   0.00249,   0.00109,  -0.00119,481805183.83400,   0.00230,277119323.54961,   0.00076,   0.00071,   0.00011,   0.00000,   2.00000
510167762.31810,302320731.07384,-100374227.04698,   0.00251,   0.00110,  -0.00121,481820828.31219,   0.00231,277136914.98059,   0.00078,   0.00072,   0.00010,   0.00000,   2.00000
509959525.08685,303139662.41158,-100520204.31638,   0.00252,   0.00110,  -0.00122,481820897.76720,   0.00233,277154428.14966,   0.00079,   0.00072,   0.00008,   0.00000,   2.00000
509755391.37344,303950798.60497,-100659415.53921,   0.00254,   0.00111,  -0.00124,481836443.01094,   0.00235,277171921.34055,   0.00081,   0.00072,   0.00007,   0.00000,   2.00000
509551754.22873,304752321.06279,-100796565.79307,   0.00255,   0.00112,  -0.00125,481855405.95997,   0.00236,277189407.52593,   0.00083,   0.00072,   0.00006,   0.00000,   2.00000
509345854.89504,305546975.49832,-100934339.67183,   0.00257,   0.00112,  -0.00127,481840288.23101,   0.00238,277206759.65886,   0.00085,   0.00073,   0.00004,   0.00000,   2.00000
509140516.49761,306332266.06442,-101070094.07858,   0.00258,   0.00113,  -0.00129,481859066.21183,   0.00240,277224104.96417,   0.00086,   0.00073,   0.00003,   0.00000,   2.00000
508935775.15078,307108305.70193,-101203860.73151,   0.00260,   0.00114,  -0.00130,481877803.98490,   0.00241,277241443.42530,   0.00088,   0.00073,   0.00001,   0.00000,   2.00000
508728350.78688,307892387.67748,-101336364.11435,   0.00261,   0.00114,  -0.00132,481870791.60647,   0.00243,277258679.07963,   0.00090,   0.00073,  -0.00000,   0.00000,   2.00000
508521990.50681,308652899.84247,-101468915.77596,   0.00263,   0.00115,  -0.00134,481881107.82676,   0.00245,277275877.25846,   0.00091,   0.00074,  -0.00002,   0.00000,   2.00000
508315846.22674,309418842.10177,-101597546.02832,   0.00264,   0.00115,  -0.00135,481907961.90324,   0.00246,277293099.56072,   0.00093,   0.00074,  -0.00003,   0.00000,   2.00000
508107406.10206,310178743.38036,-101726994.41003,   0.00265,   0.00116,  -0.00137,481892558.09418,   0.00248,277310188.90118,   0.00095,   0.00074,  -0.00005,   0.00000,   2.00000
507899667.43513,310929776.03550,-101854563.49087,   0.00267,   0.00117,  -0.00138,481910969.29910,   0.00249,277327271.66362,   0.00096,   0.00074,  -0.00006,   0.00000,   2.00000
507689319.98613,311672562.61187,-101983940.00928,   0.00268,   0.00117,  -0.00140,481914146.65032,   0.00251,277344291.47286,   0.00098,   0.00075,  -0.00007,   0.00000,   2.00000
507479480.70233,312423486.17017,-102108486.69869,   0.00270,   0.00118,  -0.00142,481922155.22493,   0.00253,277361266.43400,   0.00100,   0.00075,  -0.00009,   0.00000,   2.00000
507270963.02707,313151482.91396,-102233266.84682,   0.00271,   0.00119,  -0.00143,481931968.56545,   0.00254,277378203.75571,   0.00101,   0.00075,  -0.00010,   0.00000,   2.00000
507062922.22180,313887826.89857,-102353280.30224,   0.00273,   0.00119,  -0.00145,481939899.22071,   0.00256,277395096.51447,   0.00103,   0.00075,  -0.00012,   0.00000,   2.00000
506852872.71176,314602103.06144,-102477281.68195,   0.00274,   0.00120,  -0.00146,481934371.88175,   0.00257,277411895.44434,   0.00105,   0.00076,  -0.00013,   0.00000,   2.00000
506639616.62397,315322877.17335,-102601124.60744,   0.00275,   0.00121,  -0.00148,481945742.29240,   0.00259,277428663.47762,   0.00106,   0.00076,  -0.00015,   0.00000,   2.00000
506430881.16657,316037406.48258,-102718619.04365,   0.00277,   0.00121,  -0.00150,481960177.29925,   0.00261,277445412.10857,   0.00108,   0.00076,  -0.00016,   0.00000,   2.00000
506219539.59790,316744370.77257,-102838103.23534,   0.00278,   0.00122,  -0.00151,481962977.39562,   0.00262,277462098.57457,   0.00110,   0.00077,  -0.00018,   0.00000,   2.00000
506009280.45857,317445978.05898,-102954987.58766,   0.00280,   0.00123,  -0.00153,481962151.96593,   0.00264,277478709.85150,   0.00111,   0.00077,  -0.00019,   0.00000,   2.00000
505796422.76054,318140255.71729,-103073893.12373,   0.00281,   0.00123,  -0.00154,481964805.03864,   0.00265,277495259.28363,   0.00113,   0.00077,  -0.00020,   0.00000,   2.00000
505584492.79446,318826607.41065,-103191125.93201,   0.00282,   0.00124,  -0.00156,481982502.36698,   0.00267,277511802.74782,   0.00114,   0.00077,  -0.00022,   0.00000,   2.00000
505372912.03219,319521919.88600,-103303704.16481,   0.00284,   0.00125,  -0.00158,481990157.09433,   0.00268,277528303.11421,   0.00116,   0.00078,  -0.00023,   0.00000,   2.00000
505163160.82846,320198252.77947,-103415922.10031,   0.00285,   0.00125,  -0.00159,481980446.64120,   0.00270,277544696.86823,   0.00118,   0.00078,  -0.00025,   0.00000,   2.00000
504947126.62950,320865574.69298,-103534827.63858,   0.00286,   0.00126,  -0.00161,481986432.72059,   0.00272,277561042.52897,   0.00119,   0.00078,  -0.00026,   0.00000,   2.00000
504735095.57043,321544268.90619,-103644508.22781,   0.00288,   0.00127,  -0.00162,481990353.05006,   0.00273,277577332.51043,   0.00121,   0.00079,  -0.00028,   0.00000,   2.00000
504520336.87365,322213161.87951,-103757210.75230,   0.00289,   0.00127,  -0.00164,482011329.76905,   0.00275,277593629.96192,   0.00122,   0.00079,  -0.00029,   0.00000,   2.00000
504311198.82947,322865797.27101,-103865068.73107,   0.00290,   0.00128,  -0.00165,481997702.38991,   0.00276,277609807.83168,   0.00124,   0.00079,  -0.00030,   0.00000,   2.00000
504094894.34422,323523601.01115,-103977529.56626,   0.00292,   0.00129,  -0.00167,482012250.13145,   0.00278,277625970.20017,   0.00125,   0.00080,  -0.00032,   0.00000,   2.00000
503879682.20366,324177038.11111,-104087579.98751,   0.00293,   0.00129,  -0.00169,482010841.23936,   0.00279,277642058.61500,   0.00127,   0.00080,  -0.00033,   0.00000,   2.00000
503666442.29805,324812469.07095,-104197440.20584,   0.00294,   0.00130,  -0.00170,482000516.09073,   0.00281,277658040.95240,   0.00129,   0.00080,  -0.00035,   0.00000,   2.00000
503453357.51053,325454555.85640,-104303620.84164,   0.00296,   0.00131,  -0.00172,482026348.10319,   0.00282,277674050.17998,   0.00130,   0.00081,  -0.00036,   0.00000,   2.00000
503237638.85384,326090400.15794,-104412049.02687,   0.00297,   0.00131,  -0.00173,482028361.48139,   0.00284,277689999.00766,   0.00132,   0.00081,  -0.00038,   0.00000,   2.00000
503019291.27333,326723225.10384,-104521866.71118,   0.00298,   0.00132,  -0.00175,482011709.67860,   0.00285,277705819.45741,   0.00133,   0.00081,  -0.00039,   0.00000,   2.00000
502805741.67824,327351254.72033,-104625650.40799,   0.00300,   0.00133,  -0.00176,482024918.14759,   0.00287,277721621.43083,   0.00135,   0.00082,  -0.00040,   0.00000,   2.00000
502593272.63025,327972357.22688,-104728022.74271,   0.00301,   0.00133,  -0.00178,482041695.20502,   0.00288,277737418.13890,   0.00136,   0.00082,  -0.00042,   0.00000,   2.00000
502374384.93787,328588566.55870,-104836436.24035,   0.00302,   0.00134,  -0.00179,482028512.52330,   0.00290,277753100.23378,   0.00138,   0.00082,  -0.00043,   0.00000,   2.00000
502160341.88308,329200230.79437,-104938857.41551,   0.00303,   0.00135,  -0.00181,482041534.68299,   0.00291,277768764.00464,   0.00139,   0.00083,  -0.00045,   0.00000,   2.00000
501939836.62450,329807210.12799,-105047341.76778,   0.00305,   0.00135,  -0.00182,482028240.35909,   0.00293,277784313.58851,   0.00141,   0.00083,  -0.00046,   0.00000,   2.00000
501724202.65079,330409800.70841,-105149851.43342,   0.00306,   0.00136,  -0.00184,482041108.39174,   0.00294,277799845.00910,   0.00142,   0.00083,  -0.00047,   0.00000,   2.00000
501509599.28413,331009114.23797,-105250179.45924,   0.00307,   0.00137,  -0.00186,482038992.86885,   0.00296,277815303.72149,   0.00144,   0.00084,  -0.00049,   0.00000,   2.00000
501292291.54948,331602982.08751,-105352899.62927,   0.00308,   0.00137,  -0.00187,482040442.85297,   0.00297,277830703.18038,   0.00145,   0.00084,  -0.00050,   0.00000,   2.00000
501072288.80107,332191491.26559,-105457995.98103,   0.00310,   0.00138,  -0.00189,482041842.18775,   0.00299,277846043.58926,   0.00146,   0.00084,  -0.00051,   0.00000,   2.00000
500857193.33660,332775910.20909,-105557186.69112,   0.00311,   0.00139,  -0.00190,482054442.61055,   0.00300,277861366.00648,   0.00148,   0.00085,  -0.00053,   0.00000,   2.00000
500639204.52297,333358506.06757,-105658000.32178,   0.00312,   0.00139,  -0.00192,482037203.29560,   0.00302,277876561.95963,   0.00149,   0.00085,  -0.00054,   0.00000,   2.00000
500422391.96530,333934859.12570,-105757503.07632,   0.00313,   0.00140,  -0.00193,482053288.44913,   0.00303,277891753.35646,   0.00151,   0.00086,  -0.00056,   0.00000,   2.00000
500203785.37510,334496232.92429,-105860947.91893,   0.00315,   0.00141,  -0.00195,482026792.57513,   0.00305,277906785.60213,   0.00152,   0.00086,  -0.00057,   0.00000,   2.00000
499985235.30202,335064976.98758,-105960776.65625,   0.00316,   0.00141,  -0.00196,482051838.46998,   0.00306,277921846.67777,   0.00154,   0.00086,  -0.00058,   0.00000,   2.00000
499767658.65604,335631126.65054,-106058530.60978,   0.00317,   0.00142,  -0.00198,482049234.55584,   0.00307,277936836.01742,   0.00155,   0.00087,  -0.00060,   0.00000,   2.00000
499547304.30137,336192445.37501,-106158767.79389,   0.00318,   0.00143,  -0.00199,482050226.23626,   0.00309,277951767.11356,   0.00157,   0.00087,  -0.00061,   0.00000,   2.00000
499327909.37462,336751326.73773,-106256945.03316,   0.00319,   0.00143,  -0.00201,482047495.21641,   0.00310,277966626.74743,   0.00158,   0.00087,  -0.00062,   0.00000,   2.00000
499109450.93999,337307841.68041,-106353092.20851,   0.00321,   0.00144,  -0.00202,482044688.97978,   0.00312,277981414.99936,   0.00159,   0.00088,  -0.00064,   0.00000,   2.00000
498893424.82599,337845302.81405,-106450358.73679,   0.00322,   0.00145,  -0.00203,482051058.33302,   0.00313,277996165.68694,   0.00161,   0.00088,  -0.00065,   0.00000,   2.00000
498669308.09506,338392788.09948,-106551554.47916,   0.00323,   0.00145,  -0.00205,482046243.24675,   0.00314,278010838.42691,   0.00162,   0.00088,  -0.00066,   0.00000,   2.00000
498450178.70689,338936895.20020,-106646970.80847,   0.00324,   0.00146,  -0.00206,482058066.51934,   0.00316,278025493.82418,   0.00163,   0.00089,  -0.00068,   0.00000,   2.00000
498229130.49062,339467037.28320,-106746528.60784,   0.00325,   0.00147,  -0.00208,482030946.23510,   0.00317,278039991.17742,   0.00165,   0.00089,  -0.00069,   0.00000,   2.00000
498008054.88077,340004827.72289,-106842500.59802,   0.00326,   0.00147,  -0.00209,482055561.01337,   0.00319,278054518.33317,   0.00166,   0.00090,  -0.00070,   0.00000,   2.00000
497785034.45207,340528861.98540,-106942642.47628,   0.00328,   0.00148,  -0.00211,482028302.15682,   0.00320,278068887.72814,   0.00168,   0.00090,  -0.00072,   0.00000,   2.00000
497565716.45779,341062967.84120,-107034677.14428,   0.00329,   0.00149,  -0.00212,482049117.70867,   0.00321,278083273.71894,   0.00169,   0.00090,  -0.00073,   0.00000,   2.00000
497344795.24471,341579830.06699,-107131710.75513,   0.00330,   0.00149,  -0.00214,482040160.70728,   0.00323,278097568.88021,   0.00170,   0.00091,  -0.00074,   0.00000,   2.00000
497123392.98160,342108146.21792,-107224422.66913,   0.00331,   0.00150,  -0.00215,482046156.55519,   0.00324,278111827.49843,   0.00172,   0.00091,  -0.00076,   0.00000,   2.00000
496900390.31332,342619379.60596,-107322153.38132,   0.00332,   0.00151,  -0.00217,482037052.63415,   0.00325,278125995.46479,   0.00173,   0.00092,  -0.00077,   0.00000,   2.00000
496678214.88643,343129156.63165,-107417966.55105,   0.00333,   0.00151,  -0.00218,482033539.13435,   0.00327,278140093.37861,   0.00174,   0.00092,  -0.00078,   0.00000,   2.00000
496456841.43123,343637532.57974,-107511888.56492,   0.00334,   0.00152,  -0.00219,482029954.71085,   0.00328,278154121.31235,   0.00176,   0.00092,  -0.00080,   0.00000,   2.00000
496232493.19081,344142150.79947,-107608449.55578,   0.00335,   0.00152,  -0.00221,482030019.49547,   0.00330,278168092.82864,   0.00177,   0.00093,  -0.00081,   0.00000,   2.00000
496008925.89332,344645487.56497,-107703128.10815,   0.00337,   0.00153,  -0.00222,482026318.30249,   0.00331,278181994.61764,   0.00178,   0.00093,  -0.00082,   0.00000,   2.00000
495782359.62161,345145171.32684,-107800450.96441,   0.00338,   0.00154,  -0.00224,482026273.26504,   0.00332,278195840.25184,   0.00179,   0.00093,  -0.00084,   0.00000,   2.00000
495565995.83473,345631836.24241,-107890075.11634,   0.00339,   0.00154,  -0.00225,482023909.23088,   0.00333,278209621.67039,   0.00181,   0.00094,  -0.00085,   0.00000,   2.00000
495337107.30194,346126927.68196,-107988233.75095,   0.00340,   0.00155,  -0.00226,482022281.53268,   0.00335,278223341.86598,   0.00182,   0.00094,  -0.00086,   0.00000,   2.00000
495112713.95139,346623408.00011,-108080029.21955,   0.00341,   0.00156,  -0.00228,482014614.88792,   0.00336,278236979.31486,   0.00183,   0.00095,  -0.00087,   0.00000,   2.00000
494891014.08005,347102166.71995,-108173210.03010,   0.00342,   0.00156,  -0.00229,482019437.04141,   0.00337,278250579.49373,   0.00184,   0.00095,  -0.00089,   0.00000,   2.00000
494665653.90796,347581559.92632,-108268368.31643,   0.00343,   0.00157,  -0.00231,482000691.76370,   0.00339,278264057.88373,   0.00186,   0.00095,  -0.00090,   0.00000,   2.00000
494440101.16549,348069053.32910,-108359971.41987,   0.00344,   0.00158,  -0.00232,482024468.84680,   0.00340,278277567.74041,   0.00187,   0.00096,  -0.00091,   0.00000,   2.00000
494212292.84593,348544401.04247,-108456048.73383,   0.00345,   0.00158,  -0.00233,481996087.68692,   0.00341,278290921.74234,   0.00188,   0.00096,  -0.00092,   0.00000,   2.00000
493989528.41373,349017608.28274,-108546554.24756,   0.00346,   0.00159,  -0.00235,482006406.13300,   0.00343,278304259.51187,   0.00189,   0.00097,  -0.00094,   0.00000,   2.00000
493759193.27660,349489201.68182,-108643582.61899,   0.00347,   0.00160,  -0.00236,481991203.62960,   0.00344,278317489.63311,   0.00191,   0.00097,  -0.00095,   0.00000,   2.00000
493535416.90971,349946028.93761,-108737539.45022,   0.00348,   0.00160,  -0.00238,481991748.01941,   0.00345,278330669.18491,   0.00192,   0.00097,  -0.00096,   0.00000,   2.00000
493306273.44140,350416660.23626,-108831026.07743,   0.00349,   0.00161,  -0.00239,481982302.24520,   0.00346,278343762.46173,   0.00193,   0.00098,  -0.00097,   0.00000,   2.00000
493078393.73333,350882788.71378,-108923470.23060,   0.00350,   0.00162,  -0.00240,481996105.10310,   0.00348,278356853.23382,   0.00194,   0.00098,  -0.00099,   0.00000,   2.00000
492848127.02644,351337371.55059,-109020480.47407,   0.00351,   0.00162,  -0.00242,481967274.21201,   0.00349,278369788.89436,   0.00195,   0.00099,  -0.00100,   0.00000,   2.00000
492622913.69522,351790159.68978,-109111957.62288,   0.00352,   0.00163,  -0.00243,481977129.50068,   0.00350,278382708.68138,   0.00197,   0.00099,  -0.00101,   0.00000,   2.00000
492393701.33013,352244276.32956,-109205521.82723,   0.00353,   0.00164,  -0.00244,481957818.16039,   0.00351,278395508.25120,   0.00198,   0.00099,  -0.00102,   0.00000,   2.00000
492165747.33177,352694127.78686,-109298071.33333,   0.00354,   0.00164,  -0.00246,481971300.72665,   0.00353,278408305.56313,   0.00199,   0.00100,  -0.00104,   0.00000,   2.00000
491938283.01369,353143849.77777,-109388928.32103,   0.00355,   0.00165,  -0.00247,481966445.27500,   0.00354,278421035.00104,   0.00200,   0.00100,  -0.00105,   0.00000,   2.00000
491702938.03888,353592511.52257,-109486374.60302,   0.00356,   0.00165,  -0.00248,481950771.27415,   0.00355,278433658.27234,   0.00201,   0.00100,  -0.00106,   0.00000,   2.00000
491476430.23414,354042078.63232,-109573838.74009,   0.00357,   0.00166,  -0.00250,481956518.74547,   0.00356,278446252.32916,   0.00202,   0.00101,  -0.00107,   0.00000,   2.00000
491248152.39400,354476567.04981,-109666703.21292,   0.00358,   0.00167,  -0.00251,481945464.04805,   0.00357,278458757.43738,   0.00204,   0.00101,  -0.00108,   0.00000,   2.00000
491015676.02412,354912805.65644,-109761700.10950,   0.00359,   0.00167,  -0.00252,481925807.92898,   0.00359,278471143.28256,   0.00205,   0.00102,  -0.00110,   0.00000,   2.00000
490782836.28956,355357513.30364,-109853133.65128,   0.00360,   0.00168,  -0.00254,481948680.99535,   0.00360,278483562.20546,   0.00206,   0.00102,  -0.00111,   0.00000,   2.00000
490547354.34688,355791488.01995,-109949291.22716,   0.00361,   0.00169,  -0.00255,481919159.86296,   0.00361,278495827.13009,   0.00207,   0.00102,  -0.00112,   0.00000,   2.00000
490316916.42920,356224083.98995,-110039988.65310,   0.00362,   0.00169,  -0.00256,481928295.04524,   0.00362,278508076.67131,   0.00208,   0.00103,  -0.00113,  -0.00000,   2.00000
490088459.36576,356644558.99772,-110131660.29342,   0.00363,   0.00170,  -0.00257,481913053.08985,   0.00363,278520224.02691,   0.00209,   0.00103,  -0.00114,   0.00000,   2.00000
489853963.92604,357079511.65041,-110222927.46147,   0.00364,   0.00171,  -0.00259,481902970.01847,   0.00364,278532287.94968,   0.00210,   0.00104,  -0.00115,   0.00000,   2.00000
489622355.74939,357498184.37613,-110315851.94620,   0.00364,   0.00171,  -0.00260,481905807.42545,   0.00366,278544315.02557,   0.00211,   0.00104,  -0.00117,  -0.00000,   2.00000
489384629.58418,357931381.43292,-110408363.39246,   0.00365,   0.00172,  -0.00261,481895668.73640,   0.00367,278556259.06431,   0.00212,   0.00104,  -0.00118,   0.00000,   2.00000
489149810.87030,358348375.48787,-110502540.26549,   0.00366,   0.00172,  -0.00263,481898365.68027,   0.00368,278568166.31391,   0.00214,   0.00105,  -0.00119,   0.00000,   2.00000
488914271.66123,358770233.84245,-110594458.43184,   0.00367,   0.00173,  -0.00264,481874419.09008,   0.00369,278579941.97425,   0.00215,   0.00105,  -0.00120,   0.00000,   2.00000
488681641.31006,359176075.59338,-110688077.19053,   0.00368,   0.00174,  -0.00265,481876896.46704,   0.00370,278591680.85988,   0.00216,   0.00106,  -0.00121,   0.00000,   2.00000
488442715.17582,359596639.30919,-110781292.75987,   0.00369,   0.00174,  -0.00266,481866568.10542,   0.00371,278603337.44674,   0.00217,   0.00106,  -0.00122,  -0.00000,   2.00000
488210511.07407,360003885.15218,-110871764.61696,   0.00370,   0.00175,  -0.00268,481865079.22615,   0.00372,278614943.62056,   0.00218,   0.00106,  -0.00123,   0.00000,   2.00000
487968110.35012,360423246.13302,-110966310.27509,   0.00371,   0.00176,  -0.00269,481858505.12996,   0.00374,278626481.48441,   0.00219,   0.00107,  -0.00125,   0.00000,   2.00000
487736248.62229,360832010.68706,-111053673.72724,   0.00371,   0.00176,  -0.00270,481853038.46965,   0.00375,278637955.27123,   0.00220,   0.00107,  -0.00126,  -0.00000,   2.00000
487495816.48169,361240700.12543,-111147788.08902,   0.00372,   0.00177,  -0.00271,481836379.14164,   0.00376,278649325.55206,   0.00221,   0.00108,  -0.00127,   0.00000,   2.00000
487257235.67018,361638071.12601,-111243012.23559,   0.00373,   0.00177,  -0.00272,481820159.73774,   0.00377,278660594.43459,   0.00222,   0.00108,  -0.00128,   0.00000,   2.00000
487018106.87306,362044221.95585,-111334664.09777,   0.00374,   0.00178,  -0.00274,481842093.23853,   0.00378,278671897.84012,   0.00223,   0.00108,  -0.00129,   0.00000,   2.00000
486779676.12920,362443567.37592,-111426833.83918,   0.00375,   0.00179,  -0.00275,481807588.74662,   0.00379,278683035.19191,   0.00224,   0.00109,  -0.00130,   0.00000,   2.00000
486537477.82019,362841292.48817,-111521937.41502,   0.00375,   0.00179,  -0.00276,481805011.52328,   0.00380,278694120.64105,   0.00225,   0.00109,  -0.00131,  -0.00000,   2.00000
486300272.73741,363238337.17867,-111611704.71526,   0.00376,   0.00180,  -0.00277,481812877.32359,   0.00381,278705191.43881,   0.00226,   0.00110,  -0.00132,   0.00000,   2.00000
486058080.97076,363638262.30014,-111703805.34728,   0.00377,   0.00181,  -0.00279,481792066.60808,   0.00382,278716145.88573,   0.00227,   0.00110,  -0.00133,   0.00000,   2.00000
485815864.77717,364039306.94345,-111794414.35650,   0.00378,   0.00181,  -0.00280,481785485.41173,   0.00383,278727034.95560,   0.00228,   0.00110,  -0.00134,   0.00000,   2.00000
485571581.21766,364426737.19043,-111890684.77545,   0.00379,   0.00182,  -0.00281,481772587.84274,   0.00384,278737836.67942,   0.00229,   0.00111,  -0.00135,   0.00000,   2.00000
485329256.62464,364830189.75360,-111978312.82924,   0.00379,   0.00182,  -0.00282,481772123.84690,   0.00385,278748595.33620,   0.00230,   0.00111,  -0.00136,  -0.00000,   2.00000
485089871.14155,365218293.88421,-112067827.31167,   0.00380,   0.00183,  -0.00283,481773372.96442,   0.00386,278759317.30679,   0.00231,   0.00111,  -0.00138,  -0.00000,   2.00000
484845302.83189,365609530.86928,-112159717.51863,   0.00381,   0.00184,  -0.00284,481752281.94788,   0.00387,278769923.58505,   0.00232,   0.00112,  -0.00139,   0.00000,   2.00000
484602419.01605,365990112.62736,-112252878.24532,   0.00382,   0.00184,  -0.00286,481735204.84679,   0.00388,278780428.97041,   0.00232,   0.00112,  -0.00140,   0.00000,   2.00000
484353744.18680,366381403.62564,-112346289.95185,   0.00382,   0.00185,  -0.00287,481742246.66811,   0.00389,278790919.27668,   0.00233,   0.00113,  -0.00141,  -0.00000,   2.00000
484110545.54866,366764846.07210,-112436555.74371,   0.00383,   0.00185,  -0.00288,481721171.87104,   0.00390,278801295.01517,   0.00234,   0.00113,  -0.00142,   0.00000,   2.00000
483863322.93624,367147046.41243,-112529830.40016,   0.00384,   0.00186,  -0.00289,481717921.08651,   0.00391,278811619.82412,   0.00235,   0.00113,  -0.00143,   0.00000,   2.00000
483615883.47040,367530763.57247,-112621671.70517,   0.00385,   0.00187,  -0.00290,481710753.01116,   0.00392,278821880.03721,   0.00236,   0.00114,  -0.00144,   0.00000,   2.00000
483363025.37830,367917855.13795,-112715916.78688,   0.00385,   0.00187,  -0.00291,481689309.16191,   0.00393,278832025.42574,   0.00237,   0.00114,  -0.00145,   0.00000,   2.00000
483116950.96972,368292748.19220,-112807667.12018,   0.00386,   0.00188,  -0.00292,481685959.55966,   0.00394,278842120.53417,   0.00238,   0.00114,  -0.00146,  -0.00000,   2.00000
482868718.15363,368681174.09462,-112895255.67246,   0.00387,   0.00188,  -0.00294,481688825.16429,   0.00395,278852187.44485,   0.00239,   0.00115,  -0.00147,   0.00000,   2.00000
482618208.67125,369056565.36707,-112988657.62881,   0.00387,   0.00189,  -0.00295,481675057.68759,   0.00396,278862167.60571,   0.00240,   0.00115,  -0.00148,  -0.00000,   2.00000
482371187.03257,369436429.56047,-113076243.68179,   0.00388,   0.00190,  -0.00296,481663672.60371,   0.00397,278872069.72321,   0.00241,   0.00116,  -0.00149,   0.00000,   2.00000
482121848.62114,369803414.20259,-113169671.38466,   0.00389,   0.00190,  -0.00297,481649718.19034,   0.00398,278881885.18249,   0.00241,   0.00116,  -0.00150,   0.00000,   2.00000
481864961.53224,370185907.32809,-113262758.46297,   0.00389,   0.00191,  -0.00298,481638213.66754,   0.00399,278891622.92348,   0.00242,   0.00116,  -0.00151,  -0.00000,   2.00000
481614859.45306,370556465.59536,-113353426.83128,   0.00390,   0.00191,  -0.00299,481634365.82616,   0.00400,278901310.36214,   0.00243,   0.00117,  -0.00152,  -0.00000,   2.00000
481364319.98196,370928881.04079,-113442743.00768,   0.00391,   0.00192,  -0.00300,481626604.55542,   0.00401,278910933.87113,   0.00244,   0.00117,  -0.00153,   0.00000,   2.00000
481107980.43147,371305062.86842,-113534549.36571,   0.00391,   0.00193,  -0.00301,481604653.03386,   0.00402,278920443.62816,   0.00245,   0.00117,  -0.00154,   0.00000,   2.00000
480856506.97991,371681207.98870,-113621174.19695,   0.00392,   0.00193,  -0.00302,481610878.30575,   0.00403,278929939.52250,   0.00246,   0.00118,  -0.00155,   0.00000,   2.00000
480595317.63610,372058345.83663,-113714722.30792,   0.00393,   0.00194,  -0.00303,481592759.75767,   0.00404,278939335.77502,   0.00246,   0.00118,  -0.00155,   0.00000,   2.00000
480344740.06484,372426591.37699,-113801501.68296,   0.00393,   0.00194,  -0.00304,481584570.55342,   0.00405,278948667.81349,   0.00247,   0.00119,  -0.00156,   0.00000,   2.00000
480084357.18965,372795950.95954,-113895220.58952,   0.00394,   0.00195,  -0.00305,481566311.93555,   0.00406,278957900.45693,   0.00248,   0.00119,  -0.00157,   0.00000,   2.00000
479832649.52368,373168229.02250,-113979368.71495,   0.00394,   0.00195,  -0.00306,481568317.48932,   0.00406,278967105.47673,   0.00249,   0.00119,  -0.00158,  -0.00000,   2.00000
479571042.43548,373541641.76525,-114070479.19301,   0.00395,   0.00196,  -0.00307,481549976.38180,   0.00407,278976211.32043,   0.00250,   0.00120,  -0.00159,   0.00000,   2.00000
479316208.57204,373903534.78923,-114159288.35009,   0.00396,   0.00197,  -0.00309,481545355.28128,   0.00408,278985266.79920,   0.00250,   0.00120,  -0.00160,   0.00000,   2.00000
479055232.47452,374269529.77172,-114250649.35525,   0.00396,   0.00197,  -0.00310,481522957.67848,   0.00409,278994209.48288,   0.00251,   0.00120,  -0.00161,   0.00000,   2.00000
478799069.26210,374635730.11283,-114336880.35121,   0.00397,   0.00198,  -0.00311,481528587.87756,   0.00410,279003138.54756,   0.00252,   0.00121,  -0.00162,  -0.00000,   2.00000
478536670.29065,375006061.31041,-114425687.87841,   0.00397,   0.00198,  -0.00312,481506103.58117,   0.00411,279011955.02143,   0.00253,   0.00121,  -0.00163,   0.00000,   2.00000
478269699.33393,375375704.07714,-114517616.08789,   0.00398,   0.00199,  -0.00313,481501528.52491,   0.00412,279020722.48443,   0.00253,   0.00121,  -0.00164,   0.00000,   2.00000
478007775.72325,375738867.78950,-114606738.23308,   0.00398,   0.00199,  -0.00314,481478527.22527,   0.00413,279029376.26003,   0.00254,   0.00122,  -0.00165,   0.00000,   2.00000
477748651.79581,376113861.24257,-114687889.25966,   0.00399,   0.00200,  -0.00315,481494358.94943,   0.00413,279038053.40459,   0.00255,   0.00122,  -0.00165,   0.00000,   2.00000
477481253.64931,376478666.16725,-114778935.94639,   0.00399,   0.00201,  -0.00316,481465145.02345,   0.00414,279046595.41926,   0.00256,   0.00122,  -0.00166,   0.00000,   2.00000
477216850.97861,376848661.83147,-114864334.74408,   0.00400,   0.00201,  -0.00317,481452416.60800,   0.00415,279055060.79781,   0.00256,   0.00123,  -0.00167,   0.00000,   2.00000
