# sigma_xx, sigma_yy, sigma_xy, epsilon_xx, epsilon_yy, epsilon_xy, vonMises, epsPlastic, hardening, epsilonP__xx, epsilonP__yy, epsilonP__xy, yieldValue, iteration
   0.00000,   0.00000,   0.00000,   0.00000,   0.00000,   0.00000,   0.00000,   0.00000,274640135.82653,   0.00000,   0.00000,   0.00000,-474640135.82653,   0.00000
   0.00000,   0.00000,   0.00000,   0.00000,   0.00000,   0.00000,   0.00000,   0.00000,274640135.82653,   0.00000,   0.00000,   0.00000,-474640135.82653,   0.00000
410199.95263,1733425.60627,-95272.24706,  -0.00000,   0.00001,  -0.00000,1577722.29344,   0.00000,274640135.82653,   0.00000,   0.00000,   0.00000,-473062413.53309,   0.00000
820399.90526,3466851.21254,-185251.59151,  -0.00000,   0.00001,  -0.00000,3154498.91181,   0.00000,274640135.82653,   0.00000,   0.00000,   0.00000,-471485636.91472,   0.00000
1230599.85789,5200276.81881,-280523.83857,  -0.00000,   0.00002,  -0.00000,4732216.81248,   0.00000,274640135.82653,   0.00000,   0.00000,   0.00000,-469907919.01405,   0.00000
1643446.26182,6904591.46070,-370503.18302,  -0.00001,   0.00003,  -0.00000,6280031.18265,   0.00000,274640135.82653,   0.00000,   0.00000,   0.00000,-468360104.64388,   0.00000
2064232.01968,8627431.26174,-465775.43008,  -0.00001,   0.00004,  -0.00001,7844453.09775,   0.00000,274640135.82653,   0.00000,   0.00000,   0.00000,-466795682.72878,   0.00000
2469139.06969,10313220.74447,-555754.77453,  -0.00001,   0.00004,  -0.00001,9376618.99105,   0.00000,274640135.82653,   0.00000,   0.00000,   0.00000,-465263516.83547,   0.00000
2874046.11971,11999010.22721,-645734.11898,  -0.00001,   0.00005,  -0.00001,10908785.28546,   0.00000,274640135.82653,   0.00000,   0.00000,   0.00000,-463731350.54107,   0.00000
3297478.32887,13692739.06387,-741006.36604,  -0.00001,   0.00006,  -0.00001,12444284.92836,   0.00000,274640135.82653,   0.00000,   0.00000,   0.00000,-462195850.89817,   0.00000
3694446.02496,15360003.38746,-830985.71049,  -0.00001,   0.00006,  -0.00001,13960785.93020,   0.00000,274640135.82653,   0.00000,   0.00000,   0.00000,-460679349.89633,   0.00000
4128464.03936,17043146.41889,-920965.05493,  -0.00001,   0.00007,  -0.00001,15482104.76548,   0.00000,274640135.82653,   0.00000,   0.00000,   0.00000,-459158031.06105,   0.00000
4528078.18676,18681299.77810,-1016237.30200,  -0.00002,   0.00008,  -0.00001,16970629.98833,   0.00000,274640135.82653,   0.00000,   0.00000,   0.00000,-457669505.83820,   0.00000
4954156.84723,20345917.65037,-1106216.64644,  -0.00002,   0.00008,  -0.00001,18476317.64364,   0.00000,274640135.82653,   0.00000,   0.00000,   0.00000,-456163818.18289,   0.00000
5353770.99463,21984071.00958,-1196195.99089,  -0.00002,   0.00009,  -0.00002,19963897.78696,   0.00000,274640135.82653,   0.00000,   0.00000,   0.00000,-454676238.03957,   0.00000
5782496.10641,23619577.91748,-1286175.33534,  -0.00002,   0.00010,  -0.00002,21440717.00894,   0.00000,274640135.82653,   0.00000,   0.00000,   0.00000,-453199418.81759,   0.00000
6192696.05904,25247145.47146,-1376154.67979,  -0.00002,   0.00010,  -0.00002,22915089.91433,   0.00000,274640135.82653,   0.00000,   0.00000,   0.00000,-451725045.91220,   0.00000
6613481.81689,26864127.22021,-1471426.92685,  -0.00002,   0.00011,  -0.00002,24377230.10827,   0.00000,274640135.82653,   0.00000,   0.00000,   0.00000,-450262905.71826,   0.00000
7034267.57475,28481108.96896,-1561406.27130,  -0.00002,   0.00012,  -0.00002,25838434.85456,   0.00000,274640135.82653,   0.00000,   0.00000,   0.00000,-448801700.97197,   0.00000
7447113.97869,30079565.55855,-1651385.61574,  -0.00002,   0.00012,  -0.00002,27283970.40415,   0.00000,274640135.82653,   0.00000,   0.00000,   0.00000,-447356165.42238,   0.00000
7870546.18785,31667436.34292,-1741364.96019,  -0.00003,   0.00013,  -0.00002,28716355.22162,   0.00000,274640135.82653,   0.00000,   0.00000,   0.00000,-445923780.60491,   0.00000
8275453.23787,33247367.77337,-1831344.30464,  -0.00003,   0.00014,  -0.00002,30146227.27217,   0.00000,274640135.82653,   0.00000,   0.00000,   0.00000,-444493908.55436,   0.00000
8709471.25226,34824652.75251,-1916030.74647,  -0.00003,   0.00014,  -0.00002,31564545.58952,   0.00000,274640135.82653,   0.00000,   0.00000,   0.00000,-443075590.23701,   0.00000
9124964.10750,36393998.37773,-2006010.09092,  -0.00003,   0.00015,  -0.00003,32981303.61903,   0.00000,274640135.82653,   0.00000,   0.00000,   0.00000,-441658832.20750,   0.00000
9551042.76798,37952758.19771,-2095989.43537,  -0.00003,   0.00015,  -0.00003,34384958.50223,   0.00000,274640135.82653,   0.00000,   0.00000,   0.00000,-440255177.32430,   0.00000
9977121.42845,39511518.01770,-2185968.77981,  -0.00003,   0.00016,  -0.00003,35788645.87401,   0.00000,274640135.82653,   0.00000,   0.00000,   0.00000,-438851489.95252,   0.00000
10395260.73500,41051752.67854,-2270655.22165,  -0.00003,   0.00017,  -0.00003,37175688.24398,   0.00000,274640135.82653,   0.00000,   0.00000,   0.00000,-437464447.58255,   0.00000
10831925.20070,42599926.69330,-2360634.56609,  -0.00003,   0.00017,  -0.00003,38566344.45984,   0.00000,274640135.82653,   0.00000,   0.00000,   0.00000,-436073791.36669,   0.00000
11260650.31248,44129575.54891,-2450613.91054,  -0.00003,   0.00018,  -0.00003,39941338.11614,   0.00000,274640135.82653,   0.00000,   0.00000,   0.00000,-434698797.71039,   0.00000
11681436.07034,45640699.24536,-2535300.35237,  -0.00004,   0.00018,  -0.00003,41299681.71138,   0.00000,274640135.82653,   0.00000,   0.00000,   0.00000,-433340454.11515,   0.00000
12102221.82820,47151822.94182,-2625279.69682,  -0.00004,   0.00019,  -0.00003,42659027.64398,   0.00000,274640135.82653,   0.00000,   0.00000,   0.00000,-431981108.18255,   0.00000
12533593.39128,48652360.83305,-2709966.13866,  -0.00004,   0.00020,  -0.00004,44004386.36247,   0.00000,274640135.82653,   0.00000,   0.00000,   0.00000,-430635749.46406,   0.00000
12964964.95437,50152898.72428,-2794652.58049,  -0.00004,   0.00020,  -0.00004,45349787.66800,   0.00000,274640135.82653,   0.00000,   0.00000,   0.00000,-429290348.15853,   0.00000
13406922.32268,51642850.81028,-2884631.92494,  -0.00004,   0.00021,  -0.00004,46683200.62582,   0.00000,274640135.82653,   0.00000,   0.00000,   0.00000,-427956935.20071,   0.00000
13848879.69100,53132802.89628,-2969318.36677,  -0.00004,   0.00021,  -0.00004,48015695.05947,   0.00000,274640135.82653,   0.00000,   0.00000,   0.00000,-426624440.76706,   0.00000
14282897.70539,54604229.82312,-3054004.80860,  -0.00004,   0.00022,  -0.00004,49332517.55898,   0.00000,274640135.82653,   0.00000,   0.00000,   0.00000,-425307618.26755,   0.00000
14708976.36587,56057131.59082,-3138691.25044,  -0.00004,   0.00023,  -0.00004,50633655.92678,   0.00000,274640135.82653,   0.00000,   0.00000,   0.00000,-424006479.89975,   0.00000
15153580.18549,57517972.71244,-3223377.69227,  -0.00004,   0.00023,  -0.00004,51937611.19866,   0.00000,274640135.82653,   0.00000,   0.00000,   0.00000,-422702524.62787,   0.00000
15590244.65119,58960288.67491,-3308064.13410,  -0.00004,   0.00024,  -0.00004,53225895.09545,   0.00000,274640135.82653,   0.00000,   0.00000,   0.00000,-421414240.73108,   0.00000
16045434.27604,60410543.99130,-3392750.57593,  -0.00004,   0.00024,  -0.00004,54517049.10072,   0.00000,274640135.82653,   0.00000,   0.00000,   0.00000,-420123086.72581,   0.00000
16492684.54697,61842274.14854,-3477437.01777,  -0.00005,   0.00025,  -0.00005,55792545.20872,   0.00000,274640135.82653,   0.00000,   0.00000,   0.00000,-418847590.61781,   0.00000
16939934.81790,63274004.30578,-3562123.45960,  -0.00005,   0.00025,  -0.00005,57068114.34189,   0.00000,274640135.82653,   0.00000,   0.00000,   0.00000,-417572021.48464,   0.00000
17379245.73491,64687209.30386,-3646809.90143,  -0.00005,   0.00026,  -0.00005,58328003.48726,   0.00000,274640135.82653,   0.00000,   0.00000,   0.00000,-416312132.33926,   0.00000
17829142.45715,66089828.49672,-3726203.44065,  -0.00005,   0.00027,  -0.00005,59574093.03120,   0.00000,274640135.82653,   0.00000,   0.00000,   0.00000,-415066042.79533,   0.00000
18279039.17939,67492447.68958,-3810889.88248,  -0.00005,   0.00027,  -0.00005,60821257.12209,   0.00000,274640135.82653,   0.00000,   0.00000,   0.00000,-413818878.70444,   0.00000
18739521.70686,68884481.07721,-3895576.32432,  -0.00005,   0.00028,  -0.00005,62055666.32760,   0.00000,274640135.82653,   0.00000,   0.00000,   0.00000,-412584469.49893,   0.00000
19200004.23432,70276514.46484,-3974969.86354,  -0.00005,   0.00028,  -0.00005,63289180.97807,   0.00000,274640135.82653,   0.00000,   0.00000,   0.00000,-411350954.84846,   0.00000
19652547.40787,71650022.69332,-4054363.40275,  -0.00005,   0.00029,  -0.00005,64507026.68409,   0.00000,274640135.82653,   0.00000,   0.00000,   0.00000,-410133109.14244,   0.00000
20123615.74056,73031470.27572,-4139049.84459,  -0.00005,   0.00029,  -0.00005,65728939.72337,   0.00000,274640135.82653,   0.00000,   0.00000,   0.00000,-408911196.10316,   0.00000
20586744.71934,74394392.69897,-4218443.38381,  -0.00005,   0.00030,  -0.00005,66934200.12140,   0.00000,274640135.82653,   0.00000,   0.00000,   0.00000,-407705935.70513,   0.00000
21041934.34419,75738789.96307,-4297836.92302,  -0.00005,   0.00030,  -0.00006,68123790.75591,   0.00000,274640135.82653,   0.00000,   0.00000,   0.00000,-406516345.07062,   0.00000
21515649.12819,77091126.58109,-4377230.46224,  -0.00005,   0.00031,  -0.00006,69316518.69570,   0.00000,274640135.82653,   0.00000,   0.00000,   0.00000,-405323617.13082,   0.00000
21981424.55827,78424938.03996,-4456624.00146,  -0.00005,   0.00031,  -0.00006,70493592.37293,   0.00000,274640135.82653,   0.00000,   0.00000,   0.00000,-404146543.45360,   0.00000
22447199.98836,79758749.49883,-4536017.54068,  -0.00005,   0.00032,  -0.00006,71670779.77461,   0.00000,274640135.82653,   0.00000,   0.00000,   0.00000,-402969356.05192,   0.00000
22923561.22367,81081975.15247,-4615411.07990,  -0.00005,   0.00032,  -0.00006,72835395.17684,   0.00000,274640135.82653,   0.00000,   0.00000,   0.00000,-401804740.64969,   0.00000
23399922.45898,82405200.80611,-4694804.61912,  -0.00005,   0.00033,  -0.00006,74000146.98051,   0.00000,274640135.82653,   0.00000,   0.00000,   0.00000,-400639988.84602,   0.00000
23886869.49952,83717840.65452,-4774198.15833,  -0.00005,   0.00033,  -0.00006,75152386.17643,   0.00000,274640135.82653,   0.00000,   0.00000,   0.00000,-399487749.65010,   0.00000
24365877.18613,85011955.34378,-4853591.69755,  -0.00005,   0.00034,  -0.00006,76288988.17171,   0.00000,274640135.82653,   0.00000,   0.00000,   0.00000,-398351147.65482,   0.00000
24844884.87275,86306070.03304,-4927692.33416,  -0.00006,   0.00034,  -0.00006,77424725.44555,   0.00000,274640135.82653,   0.00000,   0.00000,   0.00000,-397215410.38098,   0.00000
25342417.71852,87608124.07622,-5007085.87338,  -0.00006,   0.00035,  -0.00007,78564830.49641,   0.00000,274640135.82653,   0.00000,   0.00000,   0.00000,-396075305.33012,   0.00000
25824071.85645,88873127.80110,-5086479.41259,  -0.00006,   0.00035,  -0.00007,79673498.18101,   0.00000,274640135.82653,   0.00000,   0.00000,   0.00000,-394966637.64552,   0.00000
26324251.15352,90146070.87991,-5160580.04920,  -0.00006,   0.00036,  -0.00007,80784573.04997,   0.00000,274640135.82653,   0.00000,   0.00000,   0.00000,-393855562.77656,   0.00000
26824430.45060,91419013.95871,-5234680.68580,  -0.00006,   0.00036,  -0.00007,81895841.44528,   0.00000,274640135.82653,   0.00000,   0.00000,   0.00000,-392744294.38125,   0.00000
27316670.39375,92673431.87836,-5314074.22502,  -0.00006,   0.00037,  -0.00007,82992493.75240,   0.00000,274640135.82653,   0.00000,   0.00000,   0.00000,-391647642.07413,   0.00000
27827435.49606,93935789.15193,-5388174.86162,  -0.00006,   0.00037,  -0.00007,84091639.42691,   0.00000,274640135.82653,   0.00000,   0.00000,   0.00000,-390548496.39962,   0.00000
28330261.24444,95179621.26635,-5462275.49823,  -0.00006,   0.00038,  -0.00007,85175171.45165,   0.00000,274640135.82653,   0.00000,   0.00000,   0.00000,-389464964.37488,   0.00000
28825147.63890,96404928.22162,-5536376.13483,  -0.00006,   0.00038,  -0.00007,86243071.69178,   0.00000,274640135.82653,   0.00000,   0.00000,   0.00000,-388397064.13475,   0.00000
29338559.19251,97638174.53082,-5610476.77144,  -0.00006,   0.00039,  -0.00007,87314564.46143,   0.00000,274640135.82653,   0.00000,   0.00000,   0.00000,-387325571.36509,   0.00000
29844031.39221,98852895.68086,-5684577.40804,  -0.00006,   0.00039,  -0.00007,88370444.90803,   0.00000,274640135.82653,   0.00000,   0.00000,   0.00000,-386269690.91850,   0.00000
30368028.75105,100075556.18482,-5758678.04464,  -0.00006,   0.00040,  -0.00007,89429994.22394,   0.00000,274640135.82653,   0.00000,   0.00000,   0.00000,-385210141.60259,   0.00000
30884086.75597,101279691.52964,-5832778.68125,  -0.00006,   0.00040,  -0.00008,90473951.34901,   0.00000,274640135.82653,   0.00000,   0.00000,   0.00000,-384166184.47752,   0.00000
31410730.56612,102473241.06922,-5901586.41524,  -0.00006,   0.00041,  -0.00008,91504786.38364,   0.00000,274640135.82653,   0.00000,   0.00000,   0.00000,-383135349.44289,   0.00000
31937374.37626,103666790.60880,-5975687.05184,  -0.00006,   0.00041,  -0.00008,92536915.67339,   0.00000,274640135.82653,   0.00000,   0.00000,   0.00000,-382103220.15314,   0.00000
32464018.18641,104860340.14839,-6044494.78583,  -0.00006,   0.00041,  -0.00008,93568280.81610,   0.00000,274640135.82653,   0.00000,   0.00000,   0.00000,-381071855.01043,   0.00000
33001247.80179,106043303.88274,-6118595.42243,  -0.00006,   0.00042,  -0.00008,94588661.77041,   0.00000,274640135.82653,   0.00000,   0.00000,   0.00000,-380051474.05611,   0.00000
33530538.06325,107207742.45794,-6187403.15642,  -0.00006,   0.00042,  -0.00008,95592445.36070,   0.00000,274640135.82653,   0.00000,   0.00000,   0.00000,-379047690.46583,   0.00000
34078353.48385,108380120.38707,-6261503.79303,  -0.00006,   0.00043,  -0.00008,96601179.63753,   0.00000,274640135.82653,   0.00000,   0.00000,   0.00000,-378038956.18899,   0.00000
34618229.55054,109533973.15704,-6330311.52702,  -0.00006,   0.00043,  -0.00008,97593336.85522,   0.00000,274640135.82653,   0.00000,   0.00000,   0.00000,-377046798.97131,   0.00000
35176630.77638,110695765.28094,-6399119.26100,  -0.00006,   0.00044,  -0.00008,98589502.08853,   0.00000,274640135.82653,   0.00000,   0.00000,   0.00000,-376050633.73800,   0.00000
35727092.64829,111839032.24569,-6467926.99499,  -0.00006,   0.00044,  -0.00008,99570141.38210,   0.00000,274640135.82653,   0.00000,   0.00000,   0.00000,-375069994.44443,   0.00000
36277554.52020,112982299.21043,-6536734.72898,  -0.00006,   0.00044,  -0.00008,100551111.77987,   0.00000,274640135.82653,   0.00000,   0.00000,   0.00000,-374089024.04666,   0.00000
36838602.19735,114114980.36995,-6605542.46297,  -0.00005,   0.00045,  -0.00009,101520316.01493,   0.00000,274640135.82653,   0.00000,   0.00000,   0.00000,-373119819.81160,   0.00000
37410235.67972,115237075.72423,-6674350.19696,  -0.00005,   0.00045,  -0.00009,102477822.20976,   0.00000,274640135.82653,   0.00000,   0.00000,   0.00000,-372162313.61677,   0.00000
37963344.00294,116351231.72460,-6743157.93095,  -0.00005,   0.00046,  -0.00009,103431877.64532,   0.00000,274640135.82653,   0.00000,   0.00000,   0.00000,-371208258.18121,   0.00000
38534977.48532,117473327.07889,-6811965.66494,  -0.00005,   0.00046,  -0.00009,104390151.25637,   0.00000,274640135.82653,   0.00000,   0.00000,   0.00000,-370249984.57016,   0.00000
39109257.41900,118566311.46879,-6875480.49632,  -0.00005,   0.00046,  -0.00009,105319896.17775,   0.00000,274640135.82653,   0.00000,   0.00000,   0.00000,-369320239.64878,   0.00000
39691476.70660,119677821.01785,-6944288.23030,  -0.00005,   0.00047,  -0.00009,106266994.58713,   0.00000,274640135.82653,   0.00000,   0.00000,   0.00000,-368373141.23940,   0.00000
40284281.79943,120778744.76168,-7013095.96429,  -0.00005,   0.00047,  -0.00009,107202584.39961,   0.00000,274640135.82653,   0.00000,   0.00000,   0.00000,-367437551.42692,   0.00000
40869147.53834,121861143.34636,-7076610.79567,  -0.00005,   0.00047,  -0.00009,108121689.27944,   0.00000,274640135.82653,   0.00000,   0.00000,   0.00000,-366518446.54709,   0.00000
41454013.27725,122943541.93104,-7140125.62704,  -0.00005,   0.00048,  -0.00009,109041233.85989,   0.00000,274640135.82653,   0.00000,   0.00000,   0.00000,-365598901.96664,   0.00000
42049464.82138,124015354.71048,-7208933.36103,  -0.00005,   0.00048,  -0.00009,109950409.55419,   0.00000,274640135.82653,   0.00000,   0.00000,   0.00000,-364689726.27234,   0.00000
42663441.52467,125095106.84386,-7272448.19241,  -0.00005,   0.00049,  -0.00009,110863126.11181,   0.00000,274640135.82653,   0.00000,   0.00000,   0.00000,-363777009.71472,   0.00000
43269478.87404,126156333.81808,-7335963.02378,  -0.00005,   0.00049,  -0.00010,111760451.87784,   0.00000,274640135.82653,   0.00000,   0.00000,   0.00000,-362879683.94869,   0.00000
43875516.22341,127217560.79229,-7399477.85516,  -0.00005,   0.00049,  -0.00010,112658285.81580,   0.00000,274640135.82653,   0.00000,   0.00000,   0.00000,-361981850.01073,   0.00000
44492139.37800,128268201.96129,-7462992.68653,  -0.00005,   0.00050,  -0.00010,113544899.31698,   0.00000,274640135.82653,   0.00000,   0.00000,   0.00000,-361095236.50955,   0.00000
45108762.53260,129318843.13028,-7526507.51791,  -0.00005,   0.00050,  -0.00010,114432056.72482,   0.00000,274640135.82653,   0.00000,   0.00000,   0.00000,-360208079.10171,   0.00000
45735971.49243,130358898.49404,-7590022.34928,  -0.00005,   0.00050,  -0.00010,115308091.46550,   0.00000,274640135.82653,   0.00000,   0.00000,   0.00000,-359332044.36103,   0.00000
46355241.09833,131380428.69865,-7653537.18066,  -0.00005,   0.00051,  -0.00010,116168773.20745,   0.00000,274640135.82653,   0.00000,   0.00000,   0.00000,-358471362.61908,   0.00000
47000975.21731,132428423.41633,-7717052.01203,  -0.00004,   0.00051,  -0.00010,117050299.56444,   0.00000,274640135.82653,   0.00000,   0.00000,   0.00000,-357589836.26209,   0.00000
47630830.62844,133439367.81571,-7780566.84341,  -0.00004,   0.00051,  -0.00010,117900571.00383,   0.00000,274640135.82653,   0.00000,   0.00000,   0.00000,-356739564.82270,   0.00000
48279211.19872,134458251.56901,-7838788.77217,  -0.00004,   0.00052,  -0.00010,118754811.07012,   0.00000,274640135.82653,   0.00000,   0.00000,   0.00000,-355885324.75641,   0.00000
48927591.76901,135477135.32232,-7902303.60354,  -0.00004,   0.00052,  -0.00010,119610754.81368,   0.00000,274640135.82653,   0.00000,   0.00000,   0.00000,-355029381.01285,   0.00000
49586558.14452,136485433.27039,-7960525.53230,  -0.00004,   0.00052,  -0.00010,120454834.98447,   0.00000,274640135.82653,   0.00000,   0.00000,   0.00000,-354185300.84206,   0.00000
50245524.52003,137493731.21847,-8024040.36368,  -0.00004,   0.00053,  -0.00010,121300659.05284,   0.00000,274640135.82653,   0.00000,   0.00000,   0.00000,-353339476.77369,   0.00000
50896551.54162,138483504.00739,-8082262.29244,  -0.00004,   0.00053,  -0.00011,122130159.80055,   0.00000,274640135.82653,   0.00000,   0.00000,   0.00000,-352509976.02598,   0.00000
51558164.36844,139462690.99108,-8140484.22120,  -0.00004,   0.00053,  -0.00011,122948967.44666,   0.00000,274640135.82653,   0.00000,   0.00000,   0.00000,-351691168.37987,   0.00000
52246241.70834,140468342.48785,-8203999.05257,  -0.00004,   0.00054,  -0.00011,123790140.32347,   0.00000,274640135.82653,   0.00000,   0.00000,   0.00000,-350849995.50306,   0.00000
52918440.34039,141436943.66631,-8262220.98133,  -0.00004,   0.00054,  -0.00011,124599120.31402,   0.00000,274640135.82653,   0.00000,   0.00000,   0.00000,-350041015.51251,   0.00000
53609164.13159,142413484.19870,-8320442.91009,  -0.00003,   0.00054,  -0.00011,125413573.51659,   0.00000,274640135.82653,   0.00000,   0.00000,   0.00000,-349226562.30994,   0.00000
54299887.92279,143390024.73109,-8378664.83885,  -0.00003,   0.00055,  -0.00011,126228843.06731,   0.00000,274640135.82653,   0.00000,   0.00000,   0.00000,-348411292.75922,   0.00000
55001197.51922,144355979.45824,-8436886.76761,  -0.00003,   0.00055,  -0.00011,127033743.42915,   0.00000,274640135.82653,   0.00000,   0.00000,   0.00000,-347606392.39738,   0.00000
55702507.11565,145321934.18540,-8495108.69637,  -0.00003,   0.00055,  -0.00011,127839502.48895,   0.00000,274640135.82653,   0.00000,   0.00000,   0.00000,-346800633.33758,   0.00000
56395877.35815,146269363.75341,-8553330.62513,  -0.00003,   0.00056,  -0.00011,128630132.74765,   0.00000,274640135.82653,   0.00000,   0.00000,   0.00000,-346010003.07888,   0.00000
57126297.91896,147232672.02926,-8611552.55389,  -0.00003,   0.00056,  -0.00011,129431420.65673,   0.00000,274640135.82653,   0.00000,   0.00000,   0.00000,-345208715.16980,   0.00000
57830253.96670,148169515.79204,-8669774.48265,  -0.00003,   0.00056,  -0.00011,130212741.02124,   0.00000,274640135.82653,   0.00000,   0.00000,   0.00000,-344427394.80529,   0.00000
58571260.33274,149122238.26266,-8722703.50880,  -0.00002,   0.00056,  -0.00011,131003869.07361,   0.00000,274640135.82653,   0.00000,   0.00000,   0.00000,-343636266.75292,   0.00000
59293741.53963,150067021.37936,-8780925.43756,  -0.00002,   0.00057,  -0.00011,131792023.53242,   0.00000,274640135.82653,   0.00000,   0.00000,   0.00000,-342848112.29411,   0.00000
60026808.55174,151001218.69083,-8839147.36632,  -0.00002,   0.00057,  -0.00011,132570193.19620,   0.00000,274640135.82653,   0.00000,   0.00000,   0.00000,-342069942.63033,   0.00000
60770461.36909,151924830.19707,-8892076.39246,  -0.00002,   0.00057,  -0.00012,133337421.78635,   0.00000,274640135.82653,   0.00000,   0.00000,   0.00000,-341302714.04018,   0.00000
61532639.34559,152856381.05723,-8950298.32122,  -0.00002,   0.00058,  -0.00012,134111915.53176,   0.00000,274640135.82653,   0.00000,   0.00000,   0.00000,-340528220.29477,   0.00000
62276292.16293,153779992.56347,-9003227.34737,  -0.00002,   0.00058,  -0.00012,134881241.24834,   0.00000,274640135.82653,   0.00000,   0.00000,   0.00000,-339758894.57819,   0.00000
63049055.94466,154700957.61841,-9061449.27613,  -0.00001,   0.00058,  -0.00012,135647152.57218,   0.00000,274640135.82653,   0.00000,   0.00000,   0.00000,-338992983.25435,   0.00000
63803294.56723,155613983.31942,-9114378.30228,  -0.00001,   0.00058,  -0.00012,136407855.56987,   0.00000,274640135.82653,   0.00000,   0.00000,   0.00000,-338232280.25666,   0.00000
64586644.15419,156524362.56912,-9167307.32842,  -0.00001,   0.00059,  -0.00012,137164302.73587,   0.00000,274640135.82653,   0.00000,   0.00000,   0.00000,-337475833.09066,   0.00000
65369993.74114,157434741.81883,-9225529.25718,  -0.00001,   0.00059,  -0.00012,137923011.48165,   0.00000,274640135.82653,   0.00000,   0.00000,   0.00000,-336717124.34488,   0.00000
66145403.97418,158326595.90938,-9278458.28333,  -0.00001,   0.00059,  -0.00012,138665850.72477,   0.00000,274640135.82653,   0.00000,   0.00000,   0.00000,-335974285.10176,   0.00000
66939339.36636,159226389.35386,-9331387.30947,  -0.00001,   0.00059,  -0.00012,139415326.54551,   0.00000,274640135.82653,   0.00000,   0.00000,   0.00000,-335224809.28102,   0.00000
67751799.91770,160134122.15225,-9384316.33562,  -0.00000,   0.00060,  -0.00012,140171554.33527,   0.00000,274640135.82653,   0.00000,   0.00000,   0.00000,-334468581.49126,   0.00000
68556321.11511,161023329.79150,-9437245.36176,  -0.00000,   0.00060,  -0.00012,140913092.35775,   0.00000,274640135.82653,   0.00000,   0.00000,   0.00000,-333727043.46878,   0.00000
69360842.31252,161912537.43075,-9490174.38791,  -0.00000,   0.00060,  -0.00012,141655908.72304,   0.00000,274640135.82653,   0.00000,   0.00000,   0.00000,-332984227.10349,   0.00000
70194474.47432,162799098.61868,-9543103.41405,   0.00000,   0.00060,  -0.00012,142395316.12263,   0.00000,274640135.82653,   0.00000,   0.00000,   0.00000,-332244819.70390,   0.00000
71009581.47696,163677720.45270,-9596032.44020,   0.00000,   0.00061,  -0.00012,143130436.74724,   0.00000,274640135.82653,   0.00000,   0.00000,   0.00000,-331509699.07929,   0.00000
71853799.44398,164553695.83541,-9648961.46635,   0.00001,   0.00061,  -0.00013,143862387.09768,   0.00000,274640135.82653,   0.00000,   0.00000,   0.00000,-330777748.72885,   0.00000
72687431.60577,165440257.02335,-9701890.49249,   0.00001,   0.00061,  -0.00013,144605995.82159,   0.00000,274640135.82653,   0.00000,   0.00000,   0.00000,-330034140.00494,   0.00000
73542235.37803,166305646.60083,-9754819.51864,   0.00001,   0.00061,  -0.00013,145330688.36357,   0.00000,274640135.82653,   0.00000,   0.00000,   0.00000,-329309447.46296,   0.00000
74404978.50420,167189561.33746,-9807748.54478,   0.00001,   0.00062,  -0.00013,146072893.86993,   0.00000,274640135.82653,   0.00000,   0.00000,   0.00000,-328567241.95660,   0.00000
75251842.92253,168036425.75579,-9855384.66831,   0.00001,   0.00062,  -0.00013,146783566.34400,   0.00000,274640135.82653,   0.00000,   0.00000,   0.00000,-327856569.48253,   0.00000
76125171.85393,168909754.68720,-9908313.69446,   0.00002,   0.00062,  -0.00013,147518768.14736,   0.00000,274640135.82653,   0.00000,   0.00000,   0.00000,-327121367.67917,   0.00000
77009086.59056,169772497.81337,-9961242.72060,   0.00002,   0.00062,  -0.00013,148245588.52159,   0.00000,274640135.82653,   0.00000,   0.00000,   0.00000,-326394547.30493,   0.00000
77893001.32720,170635240.93954,-10014171.74675,   0.00002,   0.00062,  -0.00013,148974041.24412,   0.00000,274640135.82653,   0.00000,   0.00000,   0.00000,-325666094.58241,   0.00000
78768976.70991,171479458.90657,-10061807.87028,   0.00002,   0.00063,  -0.00013,149687056.71110,   0.00000,274640135.82653,   0.00000,   0.00000,   0.00000,-324953079.11543,   0.00000
79682002.41092,172339555.58143,-10114736.89643,   0.00003,   0.00063,  -0.00013,150415114.76688,   0.00000,274640135.82653,   0.00000,   0.00000,   0.00000,-324225021.05965,   0.00000
80576502.95278,173191712.90238,-10162373.01996,   0.00003,   0.00063,  -0.00013,151137623.23218,   0.00000,274640135.82653,   0.00000,   0.00000,   0.00000,-323502512.59435,   0.00000
81500114.45902,174041223.77201,-10215302.04610,   0.00003,   0.00063,  -0.00013,151859453.96506,   0.00000,274640135.82653,   0.00000,   0.00000,   0.00000,-322780681.86147,   0.00000
82423725.96526,174890734.64165,-10262938.16963,   0.00003,   0.00064,  -0.00013,152582034.91613,   0.00000,274640135.82653,   0.00000,   0.00000,   0.00000,-322058100.91040,   0.00000
83347337.47150,175740245.51129,-10315867.19578,   0.00004,   0.00064,  -0.00013,153307476.51046,   0.00000,274640135.82653,   0.00000,   0.00000,   0.00000,-321332659.31607,   0.00000
84281534.78297,176579170.57570,-10363503.31931,   0.00004,   0.00064,  -0.00013,154024100.98065,   0.00000,274640135.82653,   0.00000,   0.00000,   0.00000,-320616034.84588,   0.00000
85234257.25359,177426034.99403,-10416432.34546,   0.00004,   0.00064,  -0.00014,154750141.78194,   0.00000,274640135.82653,   0.00000,   0.00000,   0.00000,-319889994.04459,   0.00000
86179040.37029,178254374.25320,-10464068.46899,   0.00004,   0.00064,  -0.00014,155461082.62639,   0.00000,274640135.82653,   0.00000,   0.00000,   0.00000,-319179053.20014,   0.00000
87150288.00006,179109178.02546,-10516997.49513,   0.00005,   0.00065,  -0.00014,156197553.15629,   0.00000,274640135.82653,   0.00000,   0.00000,   0.00000,-318442582.67024,   0.00000
88105656.92199,179926931.47941,-10564633.61866,   0.00005,   0.00065,  -0.00014,156903031.86296,   0.00000,274640135.82653,   0.00000,   0.00000,   0.00000,-317737103.96357,   0.00000
89087490.35699,180771149.44643,-10612269.74220,   0.00005,   0.00065,  -0.00014,157633125.27639,   0.00000,274640135.82653,   0.00000,   0.00000,   0.00000,-317007010.55014,   0.00000
90079909.59722,181604781.60822,-10665198.76834,   0.00006,   0.00065,  -0.00014,158357140.35252,   0.00000,274640135.82653,   0.00000,   0.00000,   0.00000,-316282995.47401,   0.00000
91072328.83745,182438413.77002,-10712834.89187,   0.00006,   0.00065,  -0.00014,159082202.59228,   0.00000,274640135.82653,   0.00000,   0.00000,   0.00000,-315557933.23425,   0.00000
92064748.07768,183272045.93181,-10760471.01540,   0.00006,   0.00065,  -0.00014,159809352.44742,   0.00000,274640135.82653,   0.00000,   0.00000,   0.00000,-314830783.37911,   0.00000
93086278.28229,184103031.64230,-10813400.04155,   0.00006,   0.00066,  -0.00014,160537547.91213,   0.00000,274640135.82653,   0.00000,   0.00000,   0.00000,-314102587.91440,   0.00000
94107808.48690,184934017.35278,-10861036.16508,   0.00007,   0.00066,  -0.00014,161266926.62922,   0.00000,274640135.82653,   0.00000,   0.00000,   0.00000,-313373209.19731,   0.00000
95129338.69152,185765003.06327,-10908672.28861,   0.00007,   0.00066,  -0.00014,161998527.59468,   0.00000,274640135.82653,   0.00000,   0.00000,   0.00000,-312641608.23184,   0.00000
96161454.70135,186585402.96852,-10956308.41214,   0.00007,   0.00066,  -0.00014,162723496.39121,   0.00000,274640135.82653,   0.00000,   0.00000,   0.00000,-311916639.43532,   0.00000
97212095.87035,187413742.22770,-11009237.43829,   0.00008,   0.00066,  -0.00014,163458953.89778,   0.00000,274640135.82653,   0.00000,   0.00000,   0.00000,-311181181.92875,   0.00000
98262737.03934,188242081.48688,-11056873.56182,   0.00008,   0.00066,  -0.00014,164195700.12330,   0.00000,274640135.82653,   0.00000,   0.00000,   0.00000,-310444435.70323,   0.00000
99323964.01356,189059834.94083,-11104509.68535,   0.00008,   0.00067,  -0.00014,164926132.49332,   0.00000,274640135.82653,   0.00000,   0.00000,   0.00000,-309714003.33321,   0.00000
100385190.98777,189877588.39478,-11152145.80888,   0.00009,   0.00067,  -0.00014,165658981.75888,   0.00000,274640135.82653,   0.00000,   0.00000,   0.00000,-308981154.06765,   0.00000
101464943.12115,190703281.20265,-11205074.83503,   0.00009,   0.00067,  -0.00015,166402643.21809,   0.00000,274640135.82653,   0.00000,   0.00000,   0.00000,-308237492.60844,   0.00000
102563220.41367,191536913.36445,-11252710.95856,   0.00009,   0.00067,  -0.00015,167155111.23445,   0.00000,274640135.82653,   0.00000,   0.00000,   0.00000,-307485024.59208,   0.00000
103653558.35227,192352020.36709,-11300347.08209,   0.00010,   0.00067,  -0.00015,167894258.57848,   0.00000,274640135.82653,   0.00000,   0.00000,   0.00000,-306745877.24805,   0.00000
104743896.29087,193167127.36973,-11347983.20562,   0.00010,   0.00067,  -0.00015,168635925.94388,   0.00000,274640135.82653,   0.00000,   0.00000,   0.00000,-306004209.88264,   0.00000
105871284.54777,193998113.08022,-11395619.32915,   0.00010,   0.00068,  -0.00015,169395241.25110,   0.00000,274640135.82653,   0.00000,   0.00000,   0.00000,-305244894.57543,   0.00000
106998672.80467,194829098.79070,-11448548.35530,   0.00011,   0.00068,  -0.00015,170158298.36230,   0.00000,274640135.82653,   0.00000,   0.00000,   0.00000,-304481837.46423,   0.00000
108118121.70765,195641559.34204,-11496184.47883,   0.00011,   0.00068,  -0.00015,170907100.00486,   0.00000,274640135.82653,   0.00000,   0.00000,   0.00000,-303733035.82167,   0.00000
109256095.76978,196461959.24730,-11543820.60236,   0.00011,   0.00068,  -0.00015,171666271.12452,   0.00000,274640135.82653,   0.00000,   0.00000,   0.00000,-302973864.70200,   0.00000
110412594.99106,197290298.50648,-11591456.72589,   0.00012,   0.00068,  -0.00015,172435944.04838,   0.00000,274640135.82653,   0.00000,   0.00000,   0.00000,-302204191.77814,   0.00000
111569094.21234,198118637.76565,-11644385.75204,   0.00012,   0.00068,  -0.00015,173209455.89087,   0.00000,274640135.82653,   0.00000,   0.00000,   0.00000,-301430679.93566,   0.00000
112736179.23885,198936391.21960,-11692021.87557,   0.00013,   0.00069,  -0.00015,173976766.63798,   0.00000,274640135.82653,   0.00000,   0.00000,   0.00000,-300663369.18855,   0.00000
113929728.77844,199780609.18663,-11739657.99910,   0.00013,   0.00069,  -0.00015,174770658.28248,   0.00000,274640135.82653,   0.00000,   0.00000,   0.00000,-299869477.54405,   0.00000
115107399.61018,200587776.83535,-11792587.02524,   0.00013,   0.00069,  -0.00015,175536969.33098,   0.00000,274640135.82653,   0.00000,   0.00000,   0.00000,-299103166.49555,   0.00000
116311534.95499,201421408.99714,-11840223.14877,   0.00014,   0.00069,  -0.00015,176328944.20759,   0.00000,274640135.82653,   0.00000,   0.00000,   0.00000,-298311191.61894,   0.00000
117515670.29980,202255041.15893,-11887859.27231,   0.00014,   0.00069,  -0.00015,177123858.64457,   0.00000,274640135.82653,   0.00000,   0.00000,   0.00000,-297516277.18196,   0.00000
118730391.44985,203078087.51550,-11940788.29845,   0.00014,   0.00069,  -0.00016,177915209.95337,   0.00000,274640135.82653,   0.00000,   0.00000,   0.00000,-296724925.87316,   0.00000
119963637.75904,203909073.22598,-11988424.42198,   0.00015,   0.00069,  -0.00016,178716751.57176,   0.00000,274640135.82653,   0.00000,   0.00000,   0.00000,-295923384.25477,   0.00000
121196884.06823,204740058.93647,-12036060.54551,   0.00015,   0.00070,  -0.00016,179521362.27891,   0.00000,274640135.82653,   0.00000,   0.00000,   0.00000,-295118773.54761,   0.00000
122448655.53657,205578984.00088,-12088989.57166,   0.00016,   0.00070,  -0.00016,180338439.37069,   0.00000,274640135.82653,   0.00000,   0.00000,   0.00000,-294301696.45584,   0.00000
123700427.00492,206417909.06529,-12136625.69519,   0.00016,   0.00070,  -0.00016,181157551.26696,   0.00000,274640135.82653,   0.00000,   0.00000,   0.00000,-293482584.55957,   0.00000
124962784.27849,207246248.32447,-12189554.72134,   0.00016,   0.00070,  -0.00016,181973603.60837,   0.00000,274640135.82653,   0.00000,   0.00000,   0.00000,-292666532.21816,   0.00000
126243666.71122,208082526.93757,-12237190.84487,   0.00017,   0.00070,  -0.00016,182800291.96258,   0.00000,274640135.82653,   0.00000,   0.00000,   0.00000,-291839843.86395,   0.00000
127524549.14394,208918805.55067,-12290119.87101,   0.00017,   0.00070,  -0.00016,183631268.03700,   0.00000,274640135.82653,   0.00000,   0.00000,   0.00000,-291008867.78953,   0.00000
128823956.73581,209763023.51769,-12337755.99454,   0.00018,   0.00070,  -0.00016,184473022.05710,   0.00000,274640135.82653,   0.00000,   0.00000,   0.00000,-290167113.76943,   0.00000
130141889.48684,210615180.83863,-12390685.02069,   0.00018,   0.00070,  -0.00016,185327805.34984,   0.00000,274640135.82653,   0.00000,   0.00000,   0.00000,-289312330.47669,   0.00000
131451882.88394,211448813.00043,-12443614.04683,   0.00019,   0.00071,  -0.00016,186170309.18539,   0.00000,274640135.82653,   0.00000,   0.00000,   0.00000,-288469826.64114,   0.00000
132788340.79412,212308909.67529,-12491250.17037,   0.00019,   0.00071,  -0.00016,187039468.34621,   0.00000,274640135.82653,   0.00000,   0.00000,   0.00000,-287600667.48032,   0.00000
134116859.35038,213150481.19101,-12544179.19651,   0.00019,   0.00071,  -0.00016,187897460.82039,   0.00000,274640135.82653,   0.00000,   0.00000,   0.00000,-286742675.00614,   0.00000
135463903.06578,213999992.06065,-12597108.22266,   0.00020,   0.00071,  -0.00016,188767721.98104,   0.00000,274640135.82653,   0.00000,   0.00000,   0.00000,-285872413.84549,   0.00000
136810946.78119,214849502.93028,-12644744.34619,   0.00020,   0.00071,  -0.00016,189640314.37418,   0.00000,274640135.82653,   0.00000,   0.00000,   0.00000,-284999821.45235,   0.00000
138195040.81490,215714892.50776,-12697673.37233,   0.00021,   0.00071,  -0.00017,190535425.86140,   0.00000,274640135.82653,   0.00000,   0.00000,   0.00000,-284104709.96512,   0.00000
139560609.68945,216572342.73132,-12750602.39848,   0.00021,   0.00071,  -0.00017,191424943.00415,   0.00000,274640135.82653,   0.00000,   0.00000,   0.00000,-283215192.82238,   0.00000
140963228.88231,217445671.66273,-12803531.42462,   0.00022,   0.00071,  -0.00017,192336162.19667,   0.00000,274640135.82653,   0.00000,   0.00000,   0.00000,-282303973.62986,   0.00000
142357908.72125,218300475.43498,-12856460.45077,   0.00022,   0.00072,  -0.00017,193235447.88887,   0.00000,274640135.82653,   0.00000,   0.00000,   0.00000,-281404687.93766,   0.00000
143771113.71934,219163218.56115,-12909389.47692,   0.00023,   0.00072,  -0.00017,194147537.97391,   0.00000,274640135.82653,   0.00000,   0.00000,   0.00000,-280492597.85262,   0.00000
145192258.07135,220044486.84648,-12962318.50306,   0.00023,   0.00072,  -0.00017,195078643.56951,   0.00000,274640135.82653,   0.00000,   0.00000,   0.00000,-279561492.25702,   0.00000
146623988.22858,220915169.32657,-13015247.52921,   0.00024,   0.00072,  -0.00017,196007226.34772,   0.00000,274640135.82653,   0.00000,   0.00000,   0.00000,-278632909.47880,   0.00000
148055718.38582,221785851.80667,-13068176.55535,   0.00024,   0.00072,  -0.00017,196939401.61062,   0.00000,274640135.82653,   0.00000,   0.00000,   0.00000,-277700734.21591,   0.00000
149524498.86136,222672412.99461,-13126398.48411,   0.00025,   0.00072,  -0.00017,197895187.70502,   0.00000,274640135.82653,   0.00000,   0.00000,   0.00000,-276744948.12151,   0.00000
150974754.17775,223551034.82862,-13179327.51026,   0.00025,   0.00072,  -0.00017,198844067.20698,   0.00000,274640135.82653,   0.00000,   0.00000,   0.00000,-275796068.61955,   0.00000
152462059.81245,224445535.37048,-13232256.53640,   0.00026,   0.00072,  -0.00017,199815733.19146,   0.00000,274640135.82653,   0.00000,   0.00000,   0.00000,-274824402.63507,   0.00000
153949365.44714,225340035.91234,-13290478.46516,   0.00026,   0.00073,  -0.00017,200792165.73739,   0.00000,274640135.82653,   0.00000,   0.00000,   0.00000,-273847970.08914,   0.00000
155455196.24098,226242475.80813,-13343407.49131,   0.00027,   0.00073,  -0.00017,201780938.13280,   0.00000,274640135.82653,   0.00000,   0.00000,   0.00000,-272859197.69373,   0.00000
156953087.68090,227126390.54476,-13401629.42007,   0.00027,   0.00073,  -0.00017,202759196.43257,   0.00000,274640135.82653,   0.00000,   0.00000,   0.00000,-271880939.39396,   0.00000
158477443.63390,228036769.79446,-13454558.44622,   0.00028,   0.00073,  -0.00017,203765207.08015,   0.00000,274640135.82653,   0.00000,   0.00000,   0.00000,-270874928.74638,   0.00000
159993860.23297,228928623.88502,-13512780.37498,   0.00028,   0.00073,  -0.00018,204760742.31487,   0.00000,274640135.82653,   0.00000,   0.00000,   0.00000,-269879393.51166,   0.00000
161536741.34511,229846942.48864,-13571002.30374,   0.00029,   0.00073,  -0.00018,205785145.20880,   0.00000,274640135.82653,   0.00000,   0.00000,   0.00000,-268854990.61773,   0.00000
163098147.61641,230773200.44619,-13629224.23250,   0.00029,   0.00073,  -0.00018,206823261.62049,   0.00000,274640135.82653,   0.00000,   0.00000,   0.00000,-267816874.20604,   0.00000
164670139.69293,231688872.59851,-13687446.16126,   0.00030,   0.00073,  -0.00018,207860020.50326,   0.00000,274640135.82653,   0.00000,   0.00000,   0.00000,-266780115.32327,   0.00000
166242131.76946,232604544.75083,-13745668.09002,   0.00030,   0.00073,  -0.00018,208900635.25292,   0.00000,274640135.82653,   0.00000,   0.00000,   0.00000,-265739500.57361,   0.00000
167822063.19990,233538742.06230,-13803890.01878,   0.00031,   0.00074,  -0.00018,209960180.86690,   0.00000,274640135.82653,   0.00000,   0.00000,   0.00000,-264679954.95963,   0.00000
169431105.59473,234470292.92246,-13862111.94754,   0.00031,   0.00074,  -0.00018,211028745.17507,   0.00000,274640135.82653,   0.00000,   0.00000,   0.00000,-263611390.65146,   0.00000
171048087.34348,235420368.94178,-13920333.87630,   0.00032,   0.00074,  -0.00018,212116292.52144,   0.00000,274640135.82653,   0.00000,   0.00000,   0.00000,-262523843.30509,   0.00000
172657129.73831,236351919.80194,-13978555.80506,   0.00032,   0.00074,  -0.00018,213192566.54390,   0.00000,274640135.82653,   0.00000,   0.00000,   0.00000,-261447569.28263,   0.00000
174284697.29228,237291410.01602,-14042070.63643,   0.00033,   0.00074,  -0.00018,214284032.66746,   0.00000,274640135.82653,   0.00000,   0.00000,   0.00000,-260356103.15907,   0.00000
175938729.35933,238257364.74318,-14100292.56519,   0.00034,   0.00074,  -0.00018,215403725.78207,   0.00000,274640135.82653,   0.00000,   0.00000,   0.00000,-259236410.04446,   0.00000
177584822.07246,239204794.31119,-14163807.39657,   0.00034,   0.00074,  -0.00018,216513283.96945,   0.00000,274640135.82653,   0.00000,   0.00000,   0.00000,-258126851.85708,   0.00000
179275904.45781,240186627.74619,-14222029.32533,   0.00035,   0.00074,  -0.00018,217661639.92255,   0.00000,274640135.82653,   0.00000,   0.00000,   0.00000,-256978495.90398,   0.00000
180940522.33009,241141996.66812,-14285544.15670,   0.00035,   0.00074,  -0.00019,218789411.67452,   0.00000,274640135.82653,   0.00000,   0.00000,   0.00000,-255850724.15201,   0.00000
182623665.36153,242105304.94397,-14349058.98808,   0.00036,   0.00075,  -0.00019,219931603.27994,   0.00000,274640135.82653,   0.00000,   0.00000,   0.00000,-254708532.54659,   0.00000
184333272.90603,243095077.73289,-14412573.81945,   0.00036,   0.00075,  -0.00019,221103206.36450,   0.00000,274640135.82653,   0.00000,   0.00000,   0.00000,-253536929.46203,   0.00000
186053466.25576,244074264.71658,-14476088.65083,   0.00037,   0.00075,  -0.00019,222274486.74164,   0.00000,274640135.82653,   0.00000,   0.00000,   0.00000,-252365649.08489,   0.00000
187781598.95942,245071976.85943,-14539603.48220,   0.00038,   0.00075,  -0.00019,223464528.01954,   0.00000,274640135.82653,   0.00000,   0.00000,   0.00000,-251175607.80699,   0.00000
189528256.82222,246077628.35620,-14603118.31358,   0.00038,   0.00075,  -0.00019,224669198.06601,   0.00000,274640135.82653,   0.00000,   0.00000,   0.00000,-249970937.76052,   0.00000
191266975.33110,247064754.69381,-14671926.04756,   0.00039,   0.00075,  -0.00019,225863934.18351,   0.00000,274640135.82653,   0.00000,   0.00000,   0.00000,-248776201.64302,   0.00000
193032158.35306,248078345.54450,-14735440.87894,   0.00039,   0.00075,  -0.00019,227087165.77367,   0.00000,274640135.82653,   0.00000,   0.00000,   0.00000,-247552970.05286,   0.00000
194815866.53417,249099875.74911,-14804248.61293,   0.00040,   0.00075,  -0.00019,228326212.10681,   0.00000,274640135.82653,   0.00000,   0.00000,   0.00000,-246313923.71972,   0.00000
196599574.71527,250121405.95372,-14867763.44430,   0.00041,   0.00075,  -0.00019,229568071.87915,   0.00000,274640135.82653,   0.00000,   0.00000,   0.00000,-245072063.94738,   0.00000
198393868.70161,251132350.35310,-14936571.17829,   0.00041,   0.00076,  -0.00019,230811112.09229,   0.00000,274640135.82653,   0.00000,   0.00000,   0.00000,-243829023.73424,   0.00000
200214627.20102,252169759.26556,-15005378.91228,   0.00042,   0.00076,  -0.00020,232083808.74044,   0.00000,274640135.82653,   0.00000,   0.00000,   0.00000,-242556327.08608,   0.00000
202043325.05435,253225693.33716,-15074186.64627,   0.00043,   0.00076,  -0.00020,233374996.95385,   0.00000,274640135.82653,   0.00000,   0.00000,   0.00000,-241265138.87268,   0.00000
203882608.71291,254271041.60354,-15142994.38026,   0.00043,   0.00076,  -0.00020,234666504.40115,   0.00000,274640135.82653,   0.00000,   0.00000,   0.00000,-239973631.42538,   0.00000
205721892.37147,255316389.86991,-15211802.11425,   0.00044,   0.00076,  -0.00020,235961822.82374,   0.00000,274640135.82653,   0.00000,   0.00000,   0.00000,-238678313.00279,   0.00000
207579701.18918,256369677.49021,-15285902.75085,   0.00044,   0.00076,  -0.00020,237273216.57441,   0.00000,274640135.82653,   0.00000,   0.00000,   0.00000,-237366919.25212,   0.00000
209463974.51997,257449429.62358,-15354710.48484,   0.00045,   0.00076,  -0.00020,238613256.27587,   0.00000,274640135.82653,   0.00000,   0.00000,   0.00000,-236026879.55066,   0.00000
211340308.49683,258510656.59780,-15428811.12145,   0.00046,   0.00076,  -0.00020,239943552.30539,   0.00000,274640135.82653,   0.00000,   0.00000,   0.00000,-234696583.52114,   0.00000
213243106.98676,259598348.08509,-15497618.85544,   0.00046,   0.00077,  -0.00020,241302497.42211,   0.00000,274640135.82653,   0.00000,   0.00000,   0.00000,-233337638.40442,   0.00000
215145905.47670,260686039.57239,-15571719.49204,   0.00047,   0.00077,  -0.00020,242666176.43628,   0.00000,274640135.82653,   0.00000,   0.00000,   0.00000,-231973959.39025,   0.00000
217067229.12578,261781670.41360,-15645820.12864,   0.00048,   0.00077,  -0.00020,244045033.04672,   0.00000,274640135.82653,   0.00000,   0.00000,   0.00000,-230595102.77981,   0.00000
219007077.93402,262885240.60874,-15719920.76525,   0.00048,   0.00077,  -0.00020,245439135.55912,   0.00000,274640135.82653,   0.00000,   0.00000,   0.00000,-229201000.26741,   0.00000
220946926.74226,263988810.80387,-15799314.30447,   0.00049,   0.00077,  -0.00021,246837953.36720,   0.00000,274640135.82653,   0.00000,   0.00000,   0.00000,-227802182.45933,   0.00000
222905300.70965,265100320.35293,-15873414.94107,   0.00050,   0.00077,  -0.00021,248251046.75482,   0.00000,274640135.82653,   0.00000,   0.00000,   0.00000,-226389089.07171,   0.00000
224890139.19011,266238294.41506,-15952808.48029,   0.00050,   0.00077,  -0.00021,249694840.40419,   0.00000,274640135.82653,   0.00000,   0.00000,   0.00000,-224945295.42234,   0.00000
226867038.31665,267357743.31804,-16026909.11689,   0.00051,   0.00077,  -0.00021,251126944.06738,   0.00000,274640135.82653,   0.00000,   0.00000,   0.00000,-223513191.75915,   0.00000
228870401.95626,268503656.73409,-16106302.65611,   0.00052,   0.00078,  -0.00021,252589733.92340,   0.00000,274640135.82653,   0.00000,   0.00000,   0.00000,-222050401.90313,   0.00000
230873765.59587,269649570.15015,-16185696.19533,   0.00052,   0.00078,  -0.00021,254056105.91892,   0.00000,274640135.82653,   0.00000,   0.00000,   0.00000,-220584029.90761,   0.00000
232895654.39463,270803422.92012,-16265089.73455,   0.00053,   0.00078,  -0.00021,255537861.65672,   0.00000,274640135.82653,   0.00000,   0.00000,   0.00000,-219102274.16981,   0.00000
234936068.35254,271965215.04402,-16349776.17638,   0.00054,   0.00078,  -0.00021,257036070.61821,   0.00000,274640135.82653,   0.00000,   0.00000,   0.00000,-217604065.20832,   0.00000
236984421.66438,273145532.32706,-16429169.71560,   0.00055,   0.00078,  -0.00021,258550990.68797,   0.00000,274640135.82653,   0.00000,   0.00000,   0.00000,-216089145.13856,   0.00000
239051300.13537,274333788.96403,-16513856.15743,   0.00055,   0.00078,  -0.00021,260082343.26156,   0.00000,274640135.82653,   0.00000,   0.00000,   0.00000,-214557792.56497,   0.00000
241110239.25243,275503520.44185,-16593249.69665,   0.00056,   0.00078,  -0.00022,261602036.16578,   0.00000,274640135.82653,   0.00000,   0.00000,   0.00000,-213038099.66075,   0.00000
243195642.88257,276699716.43274,-16677936.13848,   0.00057,   0.00078,  -0.00022,263152330.46519,   0.00000,274640135.82653,   0.00000,   0.00000,   0.00000,-211487805.36134,   0.00000
245307511.02578,277922376.93671,-16762622.58032,   0.00057,   0.00079,  -0.00022,264732190.27993,   0.00000,274640135.82653,   0.00000,   0.00000,   0.00000,-209907945.54660,   0.00000
247411439.81507,279126512.28152,-16847309.02215,   0.00058,   0.00079,  -0.00022,266301396.12767,   0.00000,274640135.82653,   0.00000,   0.00000,   0.00000,-208338739.69886,   0.00000
249541833.11743,280357112.13940,-16937288.36660,   0.00059,   0.00079,  -0.00022,267901146.55152,   0.00000,274640135.82653,   0.00000,   0.00000,   0.00000,-206738989.27501,   0.00000
251664287.06587,281569186.83814,-17021974.80843,   0.00060,   0.00079,  -0.00022,269489247.60528,   0.00000,274640135.82653,   0.00000,   0.00000,   0.00000,-205150888.22125,   0.00000
253821144.88130,282826251.20910,-17111954.15288,   0.00060,   0.00079,  -0.00022,271121810.26663,   0.00000,274640135.82653,   0.00000,   0.00000,   0.00000,-203518325.55990,   0.00000
255988588.50196,284072729.77483,-17201933.49733,   0.00061,   0.00079,  -0.00022,272755963.57574,   0.00000,274640135.82653,   0.00000,   0.00000,   0.00000,-201884172.25079,   0.00000
258156032.12263,285319208.34056,-17291912.84177,   0.00062,   0.00079,  -0.00022,274393410.27983,   0.00000,274640135.82653,   0.00000,   0.00000,   0.00000,-200246725.54670,   0.00000
260349940.25636,286592151.41936,-17381892.18622,   0.00063,   0.00080,  -0.00023,276060308.03905,   0.00000,274640135.82653,   0.00000,   0.00000,   0.00000,-198579827.78748,   0.00000
262543848.39010,287865094.49816,-17477164.43328,   0.00063,   0.00080,  -0.00023,277731397.32676,   0.00000,274640135.82653,   0.00000,   0.00000,   0.00000,-196908738.49977,   0.00000
264756281.68298,289145976.93088,-17567143.77773,   0.00064,   0.00080,  -0.00023,279417044.16807,   0.00000,274640135.82653,   0.00000,   0.00000,   0.00000,-195223091.65846,   0.00000
266995179.48894,290453323.87668,-17662416.02479,   0.00065,   0.00080,  -0.00023,281133072.93741,   0.00000,274640135.82653,   0.00000,   0.00000,   0.00000,-193507062.88912,   0.00000
269226137.94098,291742145.66333,-17757688.27185,   0.00066,   0.00080,  -0.00023,282838449.00152,   0.00000,274640135.82653,   0.00000,   0.00000,   0.00000,-191801686.82501,   0.00000
271483560.90609,293057431.96304,-17852960.51892,   0.00066,   0.00080,  -0.00023,284573174.57830,   0.00000,274640135.82653,   0.00000,   0.00000,   0.00000,-190066961.24822,   0.00000
273740983.87120,294372718.26276,-17948232.76598,   0.00067,   0.00081,  -0.00023,286310955.36909,   0.00000,274640135.82653,   0.00000,   0.00000,   0.00000,-188329180.45744,   0.00000
276024871.34939,295714469.07555,-18048797.91565,   0.00068,   0.00081,  -0.00023,288078992.39610,   0.00000,274640135.82653,   0.00000,   0.00000,   0.00000,-186561143.43043,   0.00000
278308758.82757,297056219.88835,-18144070.16272,   0.00069,   0.00081,  -0.00024,289848989.99577,   0.00000,274640135.82653,   0.00000,   0.00000,   0.00000,-184791145.83076,   0.00000
280629696.62405,298413849.40898,-18244635.31239,   0.00069,   0.00081,  -0.00024,291648185.78449,   0.00000,274640135.82653,   0.00000,   0.00000,   0.00000,-182991950.04204,   0.00000
282932109.26139,299763539.57569,-18345200.46207,   0.00070,   0.00081,  -0.00024,293437670.92556,   0.00000,274640135.82653,   0.00000,   0.00000,   0.00000,-181202464.90097,   0.00000
285260986.41180,301139694.25548,-18451058.51436,   0.00071,   0.00081,  -0.00024,295257284.88007,   0.00000,274640135.82653,   0.00000,   0.00000,   0.00000,-179382850.94646,   0.00000
287600449.36743,302505263.13004,-18551623.66404,   0.00072,   0.00082,  -0.00024,297077921.27189,   0.00000,274640135.82653,   0.00000,   0.00000,   0.00000,-177562214.55464,   0.00000
289974316.19006,303915821.67682,-18657481.71633,   0.00073,   0.00082,  -0.00024,298942223.54378,   0.00000,274640135.82653,   0.00000,   0.00000,   0.00000,-175697912.28275,   0.00000
292340243.65877,305307855.06445,-18763339.76862,   0.00073,   0.00082,  -0.00024,300795811.87886,   0.00000,274640135.82653,   0.00000,   0.00000,   0.00000,-173844323.94767,   0.00000
294714110.48140,306718413.61123,-18869197.82091,   0.00074,   0.00082,  -0.00025,302665636.64966,   0.00000,274640135.82653,   0.00000,   0.00000,   0.00000,-171974499.17686,   0.00000
297106502.46318,308136911.51193,-18975055.87320,   0.00075,   0.00082,  -0.00025,304550994.44768,   0.00000,274640135.82653,   0.00000,   0.00000,   0.00000,-170089141.37884,   0.00000
299517419.60412,309563348.76656,-19086206.82811,   0.00076,   0.00082,  -0.00025,306452909.91041,   0.00000,274640135.82653,   0.00000,   0.00000,   0.00000,-168187225.91611,   0.00000
301936276.09897,311008311.18033,-19192064.88040,   0.00077,   0.00083,  -0.00025,308369906.43910,   0.00000,274640135.82653,   0.00000,   0.00000,   0.00000,-166270229.38743,   0.00000
304373657.75298,312461212.94803,-19303215.83531,   0.00078,   0.00083,  -0.00025,310303421.29069,   0.00000,274640135.82653,   0.00000,   0.00000,   0.00000,-164336714.53584,   0.00000
306811039.40698,313914114.71572,-19414366.79021,   0.00078,   0.00083,  -0.00025,312239527.30699,   0.00000,274640135.82653,   0.00000,   0.00000,   0.00000,-162400608.51954,   0.00000
309274885.57406,315393480.99649,-19530810.64773,   0.00079,   0.00083,  -0.00025,314205470.43235,   0.00000,274640135.82653,   0.00000,   0.00000,   0.00000,-160434665.39418,   0.00000
311757256.90029,316880786.63119,-19641961.60264,   0.00080,   0.00083,  -0.00026,316185950.55481,   0.00000,274640135.82653,   0.00000,   0.00000,   0.00000,-158454185.27172,   0.00000
314239628.22652,318368092.26588,-19758405.46016,   0.00081,   0.00084,  -0.00026,318169921.46827,   0.00000,274640135.82653,   0.00000,   0.00000,   0.00000,-156470214.35826,   0.00000
316729938.90667,319873923.05972,-19874849.31768,   0.00082,   0.00084,  -0.00026,320169582.64504,   0.00000,274640135.82653,   0.00000,   0.00000,   0.00000,-154470553.18149,   0.00000
319257299.90512,321395632.56141,-19991293.17520,   0.00083,   0.00084,  -0.00026,322197811.48831,   0.00000,274640135.82653,   0.00000,   0.00000,   0.00000,-152442324.33822,   0.00000
321766135.74443,322909402.70917,-20113029.93533,   0.00083,   0.00084,  -0.00026,324216316.19054,   0.00000,274640135.82653,   0.00000,   0.00000,   0.00000,-150423819.63599,   0.00000
324301436.09680,324449637.37001,-20229473.79285,   0.00084,   0.00084,  -0.00026,326262471.23076,   0.00000,274640135.82653,   0.00000,   0.00000,   0.00000,-148377664.59576,   0.00000
326855261.60833,325997811.38477,-20351210.55299,   0.00085,   0.00085,  -0.00026,328325068.27489,   0.00000,274640135.82653,   0.00000,   0.00000,   0.00000,-146315067.55164,   0.00000
329427612.27900,327553924.75345,-20478240.21574,   0.00086,   0.00085,  -0.00027,330404135.86408,   0.00000,274640135.82653,   0.00000,   0.00000,   0.00000,-144235999.96245,   0.00000
331989377.14445,329120623.92736,-20599976.97587,   0.00087,   0.00085,  -0.00027,332484372.32790,   0.00000,274640135.82653,   0.00000,   0.00000,   0.00000,-142155763.49863,   0.00000
334588192.32820,330703201.80911,-20727006.63862,   0.00088,   0.00085,  -0.00027,334594240.91635,   0.00000,274640135.82653,   0.00000,   0.00000,   0.00000,-140045894.91018,   0.00000
337194946.86587,332304304.85002,-20854036.30137,   0.00089,   0.00085,  -0.00027,336719353.89387,   0.00000,274640135.82653,   0.00000,   0.00000,   0.00000,-137920781.93266,   0.00000
339801701.40355,333905407.89092,-20981065.96412,   0.00089,   0.00086,  -0.00027,338846583.83012,   0.00000,274640135.82653,   0.00000,   0.00000,   0.00000,-135793551.99641,   0.00000
342426981.10037,335514450.28575,-21108095.62687,   0.00090,   0.00086,  -0.00027,340989205.85869,   0.00000,274640135.82653,   0.00000,   0.00000,   0.00000,-133650929.96784,   0.00000
345078725.31026,337149957.19365,-21240418.19224,   0.00091,   0.00086,  -0.00028,343161199.62138,   0.00000,274640135.82653,   0.00000,   0.00000,   0.00000,-131478936.20515,   0.00000
347730469.52016,338785464.10155,-21372740.75760,   0.00092,   0.00086,  -0.00028,345335233.88593,   0.00000,274640135.82653,   0.00000,   0.00000,   0.00000,-129304901.94060,   0.00000
350382213.73005,340420971.00945,-21505063.32296,   0.00093,   0.00087,  -0.00028,347511270.35614,   0.00000,274640135.82653,   0.00000,   0.00000,   0.00000,-127128865.47039,   0.00000
353060422.45302,342082942.43042,-21637385.88833,   0.00094,   0.00087,  -0.00028,349715573.91736,   0.00000,274640135.82653,   0.00000,   0.00000,   0.00000,-124924561.90917,   0.00000
355757156.33514,343752853.20532,-21775001.35631,   0.00095,   0.00087,  -0.00028,351936205.70247,   0.00000,274640135.82653,   0.00000,   0.00000,   0.00000,-122703930.12406,   0.00000
358461829.57118,345441289.13936,-21912616.82428,   0.00096,   0.00087,  -0.00028,354171624.09731,   0.00000,274640135.82653,   0.00000,   0.00000,   0.00000,-120468511.72922,   0.00000
361185027.96637,347137664.42733,-22050232.29226,   0.00097,   0.00088,  -0.00029,356422352.95951,   0.00000,274640135.82653,   0.00000,   0.00000,   0.00000,-118217782.86702,   0.00000
363908226.36157,348834039.71529,-22187847.76024,   0.00098,   0.00088,  -0.00029,358674935.77761,   0.00000,274640135.82653,   0.00000,   0.00000,   0.00000,-115965200.04892,   0.00000
366639364.11068,350548940.16241,-22330756.13084,   0.00098,   0.00088,  -0.00029,360943112.22377,   0.00000,274640135.82653,   0.00000,   0.00000,   0.00000,-113697023.60276,   0.00000
369407552.17810,352279719.31737,-22473664.50143,   0.00099,   0.00088,  -0.00029,363240069.70858,   0.00000,274640135.82653,   0.00000,   0.00000,   0.00000,-111400066.11795,   0.00000
372165154.44028,354021084.27756,-22616572.87202,   0.00100,   0.00089,  -0.00029,365538023.86725,   0.00000,274640135.82653,   0.00000,   0.00000,   0.00000,-109102111.95928,   0.00000
374941281.86162,355770388.59168,-22759481.24261,   0.00101,   0.00089,  -0.00030,367851207.22248,   0.00000,274640135.82653,   0.00000,   0.00000,   0.00000,-106788928.60405,   0.00000
377743873.79603,357546157.41886,-22907682.51582,   0.00102,   0.00089,  -0.00030,370193333.36228,   0.00000,274640135.82653,   0.00000,   0.00000,   0.00000,-104446802.46425,   0.00000
380546465.73044,359321926.24605,-23055883.78903,   0.00103,   0.00089,  -0.00030,372537100.83774,   0.00000,274640135.82653,   0.00000,   0.00000,   0.00000,-102103034.98878,   0.00000
383367582.82400,361105634.42716,-23209377.96485,   0.00104,   0.00090,  -0.00030,374897071.52422,   0.00000,274640135.82653,   0.00000,   0.00000,   0.00000,-99743064.30231,   0.00000
386196639.27149,362907867.76741,-23357579.23806,   0.00105,   0.00090,  -0.00030,377270321.25349,   0.00000,274640135.82653,   0.00000,   0.00000,   0.00000,-97369814.57304,   0.00000
389044220.87812,364718040.46159,-23511073.41388,   0.00106,   0.00090,  -0.00031,379659743.27607,   0.00000,274640135.82653,   0.00000,   0.00000,   0.00000,-94980392.55046,   0.00000
391899741.83868,366546738.31492,-23664567.58970,   0.00107,   0.00090,  -0.00031,382063322.21600,   0.00000,274640135.82653,   0.00000,   0.00000,   0.00000,-92576813.61053,   0.00000
394755262.79923,368375436.16826,-23823354.66814,   0.00108,   0.00091,  -0.00031,384469366.85436,   0.00000,274640135.82653,   0.00000,   0.00000,   0.00000,-90170768.97217,   0.00000
397637248.27286,370230598.53466,-23976848.84396,   0.00109,   0.00091,  -0.00031,386902143.59585,   0.00000,274640135.82653,   0.00000,   0.00000,   0.00000,-87737992.23067,   0.00000
400537758.90564,372093700.25499,-24135635.92240,   0.00110,   0.00091,  -0.00031,389351034.46594,   0.00000,274640135.82653,   0.00000,   0.00000,   0.00000,-85289101.36059,   0.00000
403438269.53842,373956801.97531,-24299715.90345,   0.00111,   0.00091,  -0.00032,391802336.10799,   0.00000,274640135.82653,   0.00000,   0.00000,   0.00000,-82837799.71854,   0.00000
406346719.52512,375838428.85479,-24458502.98189,   0.00112,   0.00092,  -0.00032,394266564.06623,   0.00000,274640135.82653,   0.00000,   0.00000,   0.00000,-80373571.76030,   0.00000
409281634.02490,377746520.24734,-24622582.96294,   0.00113,   0.00092,  -0.00032,396759361.86852,   0.00000,274640135.82653,   0.00000,   0.00000,   0.00000,-77880773.95801,   0.00000
412216548.52467,379654611.63989,-24786662.94399,   0.00114,   0.00092,  -0.00032,399253465.05078,   0.00000,274640135.82653,   0.00000,   0.00000,   0.00000,-75386670.77575,   0.00000
415169988.18359,381570642.38636,-24956035.82766,   0.00114,   0.00093,  -0.00032,401763619.93273,   0.00000,274640135.82653,   0.00000,   0.00000,   0.00000,-72876515.89380,   0.00000
418131367.19644,383505198.29198,-25125408.71132,   0.00115,   0.00093,  -0.00033,404287500.36391,   0.00000,274640135.82653,   0.00000,   0.00000,   0.00000,-70352635.46262,   0.00000
421111271.36844,385447693.55152,-25294781.59499,   0.00116,   0.00093,  -0.00033,406826421.20201,   0.00000,274640135.82653,   0.00000,   0.00000,   0.00000,-67813714.62452,   0.00000
424099114.89436,387408713.97022,-25464154.47866,   0.00117,   0.00094,  -0.00033,409378978.09615,   0.00000,274640135.82653,   0.00000,   0.00000,   0.00000,-65261157.73038,   0.00000
427105483.57943,389377673.74284,-25638820.26494,   0.00118,   0.00094,  -0.00033,411947538.63540,   0.00000,274640135.82653,   0.00000,   0.00000,   0.00000,-62692597.19113,   0.00000
430119791.61842,391365158.67460,-25813486.05122,   0.00119,   0.00094,  -0.00034,414529649.43028,   0.00000,274640135.82653,   0.00000,   0.00000,   0.00000,-60110486.39625,   0.00000
433134099.65742,393352643.60637,-25988151.83750,   0.00120,   0.00095,  -0.00034,417112885.78710,   0.00000,274640135.82653,   0.00000,   0.00000,   0.00000,-57527250.03943,   0.00000
436174872.20948,395366593.05121,-26168110.52639,   0.00121,   0.00095,  -0.00034,419724432.06637,   0.00000,274640135.82653,   0.00000,   0.00000,   0.00000,-54915703.76016,   0.00000
439234169.92070,397388481.84998,-26348069.21529,   0.00122,   0.00095,  -0.00034,422350948.65012,   0.00000,274640135.82653,   0.00000,   0.00000,   0.00000,-52289187.17641,   0.00000
442282881.82669,399420956.45397,-26528027.90418,   0.00123,   0.00095,  -0.00034,424976946.57775,   0.00000,274640135.82653,   0.00000,   0.00000,   0.00000,-49663189.24878,   0.00000
445368644.05098,401469309.76580,-26713279.49569,   0.00124,   0.00096,  -0.00035,427632776.54245,   0.00000,274640135.82653,   0.00000,   0.00000,   0.00000,-47007359.28408,   0.00000
448443820.47004,403528248.88287,-26898531.08720,   0.00125,   0.00096,  -0.00035,430287986.22732,   0.00000,274640135.82653,   0.00000,   0.00000,   0.00000,-44352149.59921,   0.00000
451537522.04825,405595127.35385,-27083782.67871,   0.00126,   0.00096,  -0.00035,432958099.86998,   0.00000,274640135.82653,   0.00000,   0.00000,   0.00000,-41682035.95655,   0.00000
454657688.13953,407688470.33791,-27274327.17284,   0.00127,   0.00097,  -0.00035,435656368.70596,   0.00000,274640135.82653,   0.00000,   0.00000,   0.00000,-38983767.12057,   0.00000
457777854.23082,409781813.32197,-27459578.76435,   0.00128,   0.00097,  -0.00036,438354587.68674,   0.00000,274640135.82653,   0.00000,   0.00000,   0.00000,-36285548.13979,   0.00000
460905959.67602,411893681.46518,-27655416.16108,   0.00129,   0.00098,  -0.00036,441067933.63919,   0.00000,274640135.82653,   0.00000,   0.00000,   0.00000,-33572202.18734,   0.00000
464034065.12123,414005549.60839,-27845960.65521,   0.00130,   0.00098,  -0.00036,443781165.78600,   0.00000,274640135.82653,   0.00000,   0.00000,   0.00000,-30858970.04053,   0.00000
467188635.07951,416143882.26467,-28041798.05195,   0.00131,   0.00098,  -0.00036,446522436.67682,   0.00000,274640135.82653,   0.00000,   0.00000,   0.00000,-28117699.14971,   0.00000
470361730.19694,418290154.27488,-28237635.44869,   0.00132,   0.00099,  -0.00037,449278557.10603,   0.00000,274640135.82653,   0.00000,   0.00000,   0.00000,-25361578.72049,   0.00000
473542764.66829,420454951.44423,-28438765.74804,   0.00133,   0.00099,  -0.00037,452048676.83702,   0.00000,274640135.82653,   0.00000,   0.00000,   0.00000,-22591458.98951,   0.00000
476723799.13964,422619748.61359,-28639896.04739,   0.00134,   0.00099,  -0.00037,454819603.10727,   0.00000,274640135.82653,   0.00000,   0.00000,   0.00000,-19820532.71926,   0.00000
479912772.96491,424803070.94210,-28841026.34675,   0.00136,   0.00100,  -0.00037,457603445.57168,   0.00000,274640135.82653,   0.00000,   0.00000,   0.00000,-17036690.25485,   0.00000
483120271.94934,426994332.62453,-29047449.54871,   0.00137,   0.00100,  -0.00038,460403086.58754,   0.00000,274640135.82653,   0.00000,   0.00000,   0.00000,-14237049.23899,   0.00000
486354235.44683,429212058.82003,-29253872.75068,   0.00138,   0.00100,  -0.00038,463229638.81250,   0.00000,274640135.82653,   0.00000,   0.00000,   0.00000,-11410497.01402,   0.00000
489569673.78518,431421845.66161,-29460295.95265,   0.00139,   0.00101,  -0.00038,466042862.05530,   0.00000,274640135.82653,   0.00000,   0.00000,   0.00000,-8597273.77123,   0.00000
492830101.79575,433666036.37018,-29672012.05723,   0.00140,   0.00101,  -0.00039,468898014.90935,   0.00000,274640135.82653,   0.00000,   0.00000,   0.00000,-5742120.91718,   0.00000
496072004.64717,435902287.72483,-29883728.16181,   0.00141,   0.00102,  -0.00039,471739788.61551,   0.00000,274640135.82653,   0.00000,   0.00000,   0.00000,-2900347.21102,   0.00000
499340372.01166,438165003.59256,-30095444.26640,   0.00142,   0.00102,  -0.00039,474608374.23542,   0.00000,274640135.82653,   0.00000,   0.00000,   0.00000,-31761.59111,   0.00000
499376479.07537,438190144.37521,-30097835.84897,   0.00142,   0.00102,  -0.00039,474640135.45636,   0.00000,274640135.82653,   0.00000,   0.00000,   0.00000,  -0.37017,   0.00000
499604162.25103,437875419.28265,-30097097.81882,   0.00143,   0.00102,  -0.00039,474640135.45636,   0.00001,274649687.26507,   0.00001,   0.00001,  -0.00000,  -0.00000,   2.00000
499832304.94503,437559109.39217,-30096327.73772,   0.00144,   0.00103,  -0.00040,477532511.08931,   0.00002,274659347.22856,   0.00002,   0.00001,  -0.00001,   0.00000,   2.00000
500061957.87353,437239977.82336,-30094477.46021,   0.00145,   0.00103,  -0.00040,477556822.07205,   0.00003,274669056.57433,   0.00003,   0.00002,  -0.00001,   0.00000,   2.00000
500283739.32577,436929558.22099,-30096891.95730,   0.00146,   0.00104,  -0.00040,477580084.62060,   0.00004,274678811.60705,   0.00004,   0.00002,  -0.00001,   0.00000,   2.00000
500502328.61284,436624020.54038,-30097303.43049,   0.00147,   0.00104,  -0.00041,477616477.05043,   0.00004,274688656.14455,   0.00004,   0.00003,  -0.00001,   0.00000,   2.00000
500717880.33799,436319492.35812,-30102867.31197,   0.00148,   0.00104,  -0.00041,477627830.88721,   0.00005,274698506.00072,   0.00005,   0.00004,  -0.00002,  -0.00000,   2.00000
500932540.85667,436017766.92790,-30103189.13993,   0.00149,   0.00105,  -0.00041,477637168.72271,   0.00006,274708354.37060,   0.00006,   0.00004,  -0.00002,   0.00000,   2.00000
501133722.09333,435731638.10211,-30112046.67449,   0.00150,   0.00105,  -0.00041,477673444.81092,   0.00007,274718291.50677,   0.00007,   0.00005,  -0.00002,   0.00000,   2.00000
501342348.54559,435435775.62189,-30115476.39757,   0.00151,   0.00106,  -0.00042,477685022.37087,   0.00008,274728234.36315,   0.00008,   0.00005,  -0.00003,   0.00000,   2.00000
501538625.10273,435156472.26444,-30122243.98450,   0.00152,   0.00106,  -0.00042,477720328.14985,   0.00009,274738262.37991,   0.00009,   0.00006,  -0.00003,   0.00000,   2.00000
501740231.31932,434865607.03851,-30133953.76919,   0.00153,   0.00107,  -0.00042,477734027.85414,   0.00010,274748302.94622,   0.00010,   0.00007,  -0.00003,   0.00000,   2.00000
501928248.06781,434597844.40899,-30139652.22583,   0.00154,   0.00107,  -0.00043,477753181.30265,   0.00011,274758374.14836,   0.00011,   0.00007,  -0.00003,   0.00000,   2.00000
502121645.42242,434318446.46457,-30150300.15874,   0.00156,   0.00107,  -0.00043,477766924.53310,   0.00012,274768457.84446,   0.00012,   0.00008,  -0.00004,   0.00000,   2.00000
502306289.24913,434051018.36806,-30163171.54295,   0.00157,   0.00108,  -0.00043,477816441.07873,   0.00013,274778673.84383,   0.00013,   0.00008,  -0.00004,   0.00000,   2.00000
502485870.28027,433790066.18133,-30176998.11251,   0.00158,   0.00108,  -0.00044,477812851.53367,   0.00014,274788843.66643,   0.00014,   0.00009,  -0.00004,   0.00000,   2.00000
502667244.72068,433526206.58511,-30189638.31061,   0.00159,   0.00109,  -0.00044,477837597.52707,   0.00014,274799062.46410,   0.00015,   0.00010,  -0.00005,   0.00000,   2.00000
502841259.73743,433271138.45043,-30206451.06174,   0.00160,   0.00109,  -0.00044,477861087.56849,   0.00015,274809325.83450,   0.00016,   0.00010,  -0.00005,   0.00000,   2.00000
503012428.78693,433021071.93202,-30221159.07693,   0.00161,   0.00110,  -0.00045,477897794.27118,   0.00016,274819677.88908,   0.00017,   0.00011,  -0.00005,   0.00000,   2.00000
503182070.63016,432772742.26531,-30235742.58035,   0.00162,   0.00110,  -0.00045,477908493.44323,   0.00017,274830031.14198,   0.00017,   0.00011,  -0.00006,  -0.00000,   2.00000
503344477.40509,432533190.50225,-30254485.19331,   0.00163,   0.00111,  -0.00045,477932056.10035,   0.00018,274840428.68050,   0.00018,   0.00012,  -0.00006,  -0.00000,   2.00000
503505445.23741,432295324.83324,-30273073.47385,   0.00164,   0.00111,  -0.00046,477942775.63846,   0.00019,274850827.29722,   0.00019,   0.00013,  -0.00006,   0.00000,   2.00000
503659271.86076,432066214.69309,-30295790.97769,   0.00165,   0.00112,  -0.00046,477966344.47502,   0.00020,274861270.03101,   0.00020,   0.00013,  -0.00006,   0.00000,   2.00000
503815060.85308,431834102.61075,-30317249.30315,   0.00166,   0.00112,  -0.00046,477991325.97342,   0.00021,274871761.47954,   0.00021,   0.00014,  -0.00007,  -0.00000,   2.00000
503964833.21775,431611648.28553,-30337638.68621,   0.00167,   0.00113,  -0.00047,478013945.41475,   0.00022,274882293.49604,   0.00022,   0.00014,  -0.00007,   0.00000,   2.00000
504107581.87322,431397922.74641,-30362142.95887,   0.00169,   0.00113,  -0.00047,478037593.21545,   0.00023,274892869.35721,   0.00023,   0.00015,  -0.00007,   0.00000,   2.00000
504252370.38333,431181138.58795,-30385370.88704,   0.00170,   0.00113,  -0.00047,478062689.61643,   0.00024,274903493.78108,   0.00024,   0.00016,  -0.00008,   0.00000,   2.00000
504395885.95441,430965946.14593,-30408409.69840,   0.00171,   0.00114,  -0.00048,478073586.42380,   0.00025,274914118.99826,   0.00025,   0.00016,  -0.00008,   0.00000,   2.00000
504532443.25480,430759493.00193,-30435541.30913,   0.00172,   0.00114,  -0.00048,478097293.25955,   0.00026,274924787.91154,   0.00026,   0.00017,  -0.00008,  -0.00000,   2.00000
504662113.22098,430561743.28754,-30466733.13248,   0.00173,   0.00115,  -0.00048,478121021.04413,   0.00027,274935500.40734,   0.00027,   0.00017,  -0.00009,   0.00000,   2.00000
504790659.00948,430365479.69257,-30497673.61114,   0.00174,   0.00115,  -0.00049,478131969.29691,   0.00028,274946213.49409,   0.00028,   0.00018,  -0.00009,   0.00000,   2.00000
504916726.61529,430174173.88044,-30526385.39226,   0.00175,   0.00116,  -0.00049,478168965.52103,   0.00029,274957014.42848,   0.00029,   0.00019,  -0.00009,   0.00000,   2.00000
505041703.87934,429984326.66596,-30554864.52470,   0.00176,   0.00116,  -0.00049,478179989.55981,   0.00030,274967815.84999,   0.00030,   0.00019,  -0.00010,   0.00000,   2.00000
505159916.39087,429803141.86869,-30587390.18209,   0.00177,   0.00117,  -0.00050,478203796.47845,   0.00031,274978660.56463,   0.00031,   0.00020,  -0.00010,   0.00000,   2.00000
505276029.57642,429622461.78752,-30624825.20086,   0.00179,   0.00118,  -0.00050,478215871.94114,   0.00032,274989509.13024,   0.00032,   0.00021,  -0.00010,   0.00000,   2.00000
505386552.03231,429451303.70086,-30661060.91408,   0.00180,   0.00118,  -0.00050,478238676.61460,   0.00033,275000397.42241,   0.00033,   0.00021,  -0.00011,  -0.00000,   2.00000
505494751.05843,429285035.45878,-30695014.80435,   0.00181,   0.00119,  -0.00051,478275793.30405,   0.00034,275011373.21715,   0.00034,   0.00022,  -0.00011,   0.00000,   2.00000
505602032.35434,429120082.85282,-30728692.51994,   0.00182,   0.00119,  -0.00051,478286950.08717,   0.00035,275022349.20681,   0.00035,   0.00022,  -0.00011,   0.00000,   2.00000
505707313.93572,428955541.46222,-30767267.66811,   0.00183,   0.00120,  -0.00052,478299134.44204,   0.00036,275033328.86000,   0.00037,   0.00023,  -0.00012,   0.00000,   2.00000
505806029.76686,428799574.02623,-30809800.98452,   0.00184,   0.00120,  -0.00052,478323052.44317,   0.00037,275044351.44498,   0.00038,   0.00024,  -0.00012,   0.00000,   2.00000
505899338.71182,428653030.77556,-30851087.92985,   0.00185,   0.00121,  -0.00052,478345965.48712,   0.00038,275055413.37335,   0.00039,   0.00024,  -0.00012,   0.00000,   2.00000
505995047.39490,428503108.32416,-30890938.85687,   0.00186,   0.00121,  -0.00053,478371491.43563,   0.00039,275066523.27507,   0.00040,   0.00025,  -0.00013,   0.00000,   2.00000
506084286.67553,428361698.20953,-30934731.75820,   0.00187,   0.00122,  -0.00053,478395506.79173,   0.00040,275077675.88280,   0.00041,   0.00026,  -0.00013,  -0.00000,   2.00000
506169622.39849,428226009.21769,-30979267.75670,   0.00189,   0.00122,  -0.00054,478392490.80075,   0.00041,275088780.45564,   0.00042,   0.00026,  -0.00013,  -0.00000,   2.00000
506251751.98442,428094186.02319,-31026601.39702,   0.00190,   0.00123,  -0.00054,478430795.00762,   0.00042,275099975.57179,   0.00043,   0.00027,  -0.00014,  -0.00000,   2.00000
506328647.57890,427971674.78612,-31072641.10020,   0.00191,   0.00123,  -0.00054,478453825.13801,   0.00043,275111209.67264,   0.00044,   0.00027,  -0.00014,   0.00000,   2.00000
506408072.31239,427845643.54688,-31117193.17130,   0.00192,   0.00124,  -0.00055,478479506.06981,   0.00044,275122491.51345,   0.00045,   0.00028,  -0.00014,   0.00000,   2.00000
506482599.49197,427724320.07339,-31167654.24848,   0.00193,   0.00125,  -0.00055,478477632.27834,   0.00045,275133728.63620,   0.00046,   0.00029,  -0.00015,  -0.00000,   2.00000
506555113.38237,427607711.44121,-31215679.77066,   0.00194,   0.00125,  -0.00056,478515008.22480,   0.00046,275145052.60622,   0.00047,   0.00029,  -0.00015,   0.00000,   2.00000
506618249.14876,427503981.28788,-31268679.01327,   0.00195,   0.00126,  -0.00056,478524848.26544,   0.00047,275156370.83497,   0.00048,   0.00030,  -0.00015,   0.00000,   2.00000
506684025.18317,427396606.48407,-31320122.77529,   0.00196,   0.00126,  -0.00056,478550603.98767,   0.00048,275167736.65614,   0.00049,   0.00031,  -0.00016,   0.00000,   2.00000
506743623.33423,427297510.43087,-31375393.63940,   0.00198,   0.00127,  -0.00057,478574803.70658,   0.00049,275179144.65070,   0.00050,   0.00031,  -0.00016,   0.00000,   2.00000
506802759.07958,427199281.10424,-31430202.18678,   0.00199,   0.00128,  -0.00057,478586314.36303,   0.00050,275190552.17325,   0.00051,   0.00032,  -0.00016,   0.00000,   2.00000
506856897.66411,427110182.17211,-31483639.01457,   0.00200,   0.00128,  -0.00058,478609491.71515,   0.00051,275201998.21241,   0.00052,   0.00033,  -0.00017,   0.00000,   2.00000
506909507.55358,427020964.67994,-31541793.52535,   0.00201,   0.00129,  -0.00058,478622083.94393,   0.00052,275213447.22116,   0.00054,   0.00033,  -0.00017,  -0.00000,   2.00000
506957184.45665,426940819.94401,-31598543.79774,   0.00202,   0.00129,  -0.00058,478645290.15882,   0.00053,275224934.64534,   0.00055,   0.00034,  -0.00017,   0.00000,   2.00000
507003387.00374,426860484.84678,-31659981.39366,   0.00203,   0.00130,  -0.00059,478657921.75612,   0.00055,275236424.97924,   0.00056,   0.00035,  -0.00018,   0.00000,   2.00000
507047831.50005,426784640.56803,-31718852.14455,   0.00204,   0.00130,  -0.00059,478695500.49253,   0.00056,275248001.65834,   0.00057,   0.00035,  -0.00018,   0.00000,   2.00000
507087714.50888,426713094.76818,-31783519.90315,   0.00205,   0.00131,  -0.00060,478693880.15446,   0.00057,275259533.18978,   0.00058,   0.00036,  -0.00018,   0.00000,   2.00000
507125896.41326,426645983.82890,-31845583.77062,   0.00207,   0.00132,  -0.00060,478731492.39178,   0.00058,275271150.97280,   0.00059,   0.00036,  -0.00019,  -0.00000,   2.00000
507155047.55954,426591397.57141,-31912495.34242,   0.00208,   0.00132,  -0.00061,478741560.73307,   0.00059,275282762.46900,   0.00060,   0.00037,  -0.00019,   0.00000,   2.00000
507187119.73150,426532816.46298,-31977697.77044,   0.00209,   0.00133,  -0.00061,478767591.65328,   0.00060,275294421.12510,   0.00061,   0.00038,  -0.00020,  -0.00000,   2.00000
507218980.96238,426474791.97182,-32042342.94761,   0.00210,   0.00134,  -0.00062,478779325.34211,   0.00061,275306078.93288,   0.00062,   0.00038,  -0.00020,   0.00000,   2.00000
507237351.55496,426437532.27585,-32110883.41646,   0.00211,   0.00134,  -0.00062,478801071.46492,   0.00062,275317769.25771,   0.00063,   0.00039,  -0.00020,  -0.00000,   2.00000
507263255.78575,426387826.00947,-32178620.59486,   0.00212,   0.00135,  -0.00062,478815531.22920,   0.00063,275329467.69650,   0.00065,   0.00040,  -0.00021,  -0.00000,   2.00000
507283342.95135,426345993.42455,-32250004.71815,   0.00213,   0.00135,  -0.00063,478840020.14873,   0.00064,275341207.72315,   0.00066,   0.00040,  -0.00021,   0.00000,   2.00000
507298810.77518,426312900.01289,-32319839.18367,   0.00215,   0.00136,  -0.00063,478863469.41027,   0.00065,275352985.63407,   0.00067,   0.00041,  -0.00021,   0.00000,   2.00000
507313066.51551,426279219.71677,-32394229.97501,   0.00216,   0.00137,  -0.00064,478876394.49430,   0.00066,275364766.13268,   0.00068,   0.00042,  -0.00022,   0.00000,   2.00000
507319654.16597,426258716.67855,-32468195.15125,   0.00217,   0.00137,  -0.00064,478885532.22647,   0.00067,275376536.44881,   0.00069,   0.00042,  -0.00022,   0.00000,   2.00000
507328203.33637,426233009.93512,-32545520.52858,   0.00218,   0.00138,  -0.00065,478912801.37390,   0.00068,275388357.28828,   0.00070,   0.00043,  -0.00023,  -0.00000,   2.00000
507332238.62594,426215911.49922,-32621231.36060,   0.00219,   0.00139,  -0.00065,478936325.49072,   0.00070,275400215.87276,   0.00071,   0.00044,  -0.00023,   0.00000,   2.00000
507336311.03915,426199020.54290,-32696282.46686,   0.00220,   0.00139,  -0.00066,478948247.02830,   0.00071,275412073.28092,   0.00072,   0.00044,  -0.00023,   0.00000,   2.00000
507339256.90703,426181392.01988,-32775837.12494,   0.00221,   0.00140,  -0.00066,478961262.72314,   0.00072,275423933.20670,   0.00074,   0.00045,  -0.00024,  -0.00000,   2.00000
507333236.72674,426180637.99565,-32852799.55535,   0.00222,   0.00141,  -0.00067,478996455.77576,   0.00073,275435869.59892,   0.00075,   0.00046,  -0.00024,   0.00000,   2.00000
507327570.11193,426175163.45166,-32936366.87427,   0.00224,   0.00141,  -0.00067,478983573.60393,   0.00074,275447721.63863,   0.00076,   0.00046,  -0.00024,   0.00000,   2.00000
507314949.35068,426181010.24497,-33021277.36049,   0.00225,   0.00142,  -0.00068,479034209.00284,   0.00075,275459701.73824,   0.00077,   0.00047,  -0.00025,   0.00000,   2.00000
507308182.43901,426179476.10896,-33101239.39411,   0.00226,   0.00143,  -0.00068,479033517.68734,   0.00076,275471638.01504,   0.00078,   0.00048,  -0.00025,   0.00000,   2.00000
507290188.59025,426192768.71382,-33188891.46051,   0.00227,   0.00143,  -0.00069,479071000.65832,   0.00077,275483658.05397,   0.00079,   0.00048,  -0.00026,   0.00000,   2.00000
507274983.08922,426203108.07088,-33272757.79933,   0.00228,   0.00144,  -0.00069,479056002.60750,   0.00078,275495586.30227,   0.00080,   0.00049,  -0.00026,  -0.00000,   2.00000
507257410.16969,426216289.71497,-33358890.07581,   0.00229,   0.00145,  -0.00070,479095086.96793,   0.00079,275507603.66031,   0.00082,   0.00050,  -0.00026,  -0.00000,   2.00000
507231253.20474,426241264.51499,-33449636.50865,   0.00230,   0.00145,  -0.00070,479105582.57047,   0.00081,275519614.29909,   0.00083,   0.00050,  -0.00027,   0.00000,   2.00000
507208505.73271,426261571.11188,-33538384.86409,   0.00232,   0.00146,  -0.00071,479132007.16645,   0.00082,275531671.43453,   0.00084,   0.00051,  -0.00027,   0.00000,   2.00000
507178399.82772,426294563.14936,-33626568.63164,   0.00233,   0.00147,  -0.00071,479141430.71937,   0.00083,275543718.05647,   0.00085,   0.00052,  -0.00028,  -0.00000,   2.00000
507150550.55837,426321846.76322,-33717920.00143,   0.00234,   0.00147,  -0.00072,479169012.41764,   0.00084,275555814.85868,   0.00086,   0.00052,  -0.00028,  -0.00000,   2.00000
507114180.65762,426360771.92022,-33813831.84825,   0.00235,   0.00148,  -0.00072,479179614.21702,   0.00085,275567904.94352,   0.00087,   0.00053,  -0.00028,  -0.00000,   2.00000
507078181.63943,426399383.93783,-33908885.90406,   0.00236,   0.00149,  -0.00073,479191786.45345,   0.00086,275579993.57385,   0.00088,   0.00054,  -0.00029,   0.00000,   2.00000
507042551.41162,426437686.65409,-34003089.98452,   0.00237,   0.00150,  -0.00073,479203955.99673,   0.00087,275592080.74486,   0.00090,   0.00054,  -0.00029,   0.00000,   2.00000
506997089.85996,426491345.94267,-34099630.80717,   0.00238,   0.00150,  -0.00074,479240540.76210,   0.00088,275604247.78446,   0.00091,   0.00055,  -0.00030,   0.00000,   2.00000
506956571.36428,426536232.94420,-34196289.54599,   0.00239,   0.00151,  -0.00074,479241152.78922,   0.00089,275616374.51182,   0.00092,   0.00056,  -0.00030,   0.00000,   2.00000
506910749.85033,426588079.37676,-34296237.48247,   0.00241,   0.00152,  -0.00075,479266152.10621,   0.00091,275628542.35470,   0.00093,   0.00056,  -0.00030,  -0.00000,   2.00000
506862222.48923,426643971.47028,-34396506.23331,   0.00242,   0.00152,  -0.00075,479264085.50569,   0.00092,275640660.90986,   0.00094,   0.00057,  -0.00031,   0.00000,   2.00000
506811605.08726,426702218.05249,-34498798.25228,   0.00243,   0.00153,  -0.00076,479303417.74051,   0.00093,275652868.33900,   0.00095,   0.00058,  -0.00031,  -0.00000,   2.00000
506753817.65593,426772753.48479,-34600392.83838,   0.00244,   0.00154,  -0.00077,479313047.33118,   0.00094,275665065.22932,   0.00097,   0.00059,  -0.00032,  -0.00000,   2.00000
506696574.37876,426842667.75689,-34701067.26582,   0.00245,   0.00155,  -0.00077,479325343.14333,   0.00095,275677260.50552,   0.00098,   0.00059,  -0.00032,  -0.00000,   2.00000
506638639.92681,426910965.16268,-34805974.80547,   0.00246,   0.00155,  -0.00078,479338799.21237,   0.00096,275689458.08125,   0.00099,   0.00060,  -0.00032,   0.00000,   2.00000
506575518.27628,426985949.81989,-34914066.32653,   0.00247,   0.00156,  -0.00078,479363920.95523,   0.00097,275701696.77660,   0.00100,   0.00061,  -0.00033,   0.00000,   2.00000
506512978.81844,427060260.13482,-35021174.12273,   0.00248,   0.00157,  -0.00079,479376271.96938,   0.00099,275713933.90659,   0.00101,   0.00061,  -0.00033,  -0.00000,   2.00000
506451018.23414,427133903.84243,-35127307.31342,   0.00250,   0.00158,  -0.00079,479388619.60711,   0.00100,275726169.46729,   0.00102,   0.00062,  -0.00034,   0.00000,   2.00000
506376203.79841,427226929.93629,-35236828.24405,   0.00251,   0.00158,  -0.00080,479411155.22420,   0.00101,275738437.26211,   0.00104,   0.00063,  -0.00034,  -0.00000,   2.00000
506306557.16161,427310821.63437,-35346370.61879,   0.00252,   0.00159,  -0.00080,479411884.25625,   0.00102,275750664.65413,   0.00105,   0.00063,  -0.00034,   0.00000,   2.00000
506235001.30583,427396717.75435,-35457772.99312,   0.00253,   0.00160,  -0.00081,479451381.69056,   0.00103,275762980.82209,   0.00106,   0.00064,  -0.00035,   0.00000,   2.00000
506157668.76821,427490798.29143,-35570674.85311,   0.00254,   0.00161,  -0.00082,479435227.35361,   0.00104,275775200.19666,   0.00107,   0.00065,  -0.00035,   0.00000,   2.00000
506078486.52846,427586761.61058,-35685389.32840,   0.00255,   0.00161,  -0.00082,479474735.87767,   0.00105,275787508.33815,   0.00108,   0.00065,  -0.00036,  -0.00000,   2.00000
506000009.38243,427681831.78626,-35799050.28995,   0.00256,   0.00162,  -0.00083,479487180.33955,   0.00106,275799814.88386,   0.00109,   0.00066,  -0.00036,   0.00000,   2.00000
505913235.77562,427787726.55705,-35917037.29888,   0.00257,   0.00163,  -0.00083,479498209.85350,   0.00108,275812115.08664,   0.00111,   0.00067,  -0.00037,   0.00000,   2.00000
505827220.46558,427892624.74431,-36033939.68702,   0.00258,   0.00164,  -0.00084,479510659.54614,   0.00109,275824413.69740,   0.00112,   0.00068,  -0.00037,   0.00000,   2.00000
505736186.54596,428003738.55481,-36153856.37137,   0.00260,   0.00164,  -0.00084,479535996.48070,   0.00110,275836753.54725,   0.00113,   0.00068,  -0.00037,   0.00000,   2.00000
505647186.16130,428110047.91532,-36275001.34738,   0.00261,   0.00165,  -0.00085,479522529.78013,   0.00111,275849005.53788,   0.00114,   0.00069,  -0.00038,   0.00000,   2.00000
505553221.61818,428227330.62673,-36391638.08459,   0.00262,   0.00166,  -0.00086,479572592.69335,   0.00112,275861381.04322,   0.00115,   0.00070,  -0.00038,  -0.00000,   2.00000
505460018.02463,428338706.79123,-36514678.81957,   0.00263,   0.00167,  -0.00086,479560380.59990,   0.00113,275873672.74266,   0.00116,   0.00070,  -0.00039,   0.00000,   2.00000
505357326.46384,428464405.40195,-36639594.96958,   0.00264,   0.00167,  -0.00087,479597455.77565,   0.00114,275886044.62296,   0.00118,   0.00071,  -0.00039,   0.00000,   2.00000
505261305.60656,428581739.44051,-36759286.23696,   0.00265,   0.00168,  -0.00087,479597079.30797,   0.00116,275898371.99786,   0.00119,   0.00072,  -0.00040,  -0.00000,   2.00000
505155720.79907,428708522.13438,-36888368.89145,   0.00266,   0.00169,  -0.00088,479609480.38818,   0.00117,275910697.47757,   0.00120,   0.00072,  -0.00040,   0.00000,   2.00000
505051024.10926,428834075.99857,-37016257.33467,   0.00267,   0.00170,  -0.00089,479621997.57848,   0.00118,275923021.46096,   0.00121,   0.00073,  -0.00041,  -0.00000,   2.00000
504942709.78685,428966609.18924,-37141884.04543,   0.00268,   0.00171,  -0.00089,479646222.44576,   0.00119,275935382.76266,   0.00122,   0.00074,  -0.00041,   0.00000,   2.00000
504830679.41639,429101272.37470,-37272789.72745,   0.00269,   0.00171,  -0.00090,479645772.29686,   0.00120,275947699.35829,   0.00123,   0.00075,  -0.00041,   0.00000,   2.00000
504722910.26910,429230127.50495,-37401163.18008,   0.00271,   0.00172,  -0.00091,479672536.12421,   0.00121,275960061.77054,   0.00125,   0.00075,  -0.00042,   0.00000,   2.00000
504608210.89046,429370397.65404,-37528577.63520,   0.00272,   0.00173,  -0.00091,479682578.29421,   0.00122,275972414.25118,   0.00126,   0.00076,  -0.00042,   0.00000,   2.00000
504488475.43855,429511613.16952,-37666390.65798,   0.00273,   0.00174,  -0.00092,479683416.04264,   0.00124,275984726.37507,   0.00127,   0.00077,  -0.00043,   0.00000,   2.00000
504369899.40963,429656190.62995,-37795367.17624,   0.00274,   0.00175,  -0.00092,479720657.03567,   0.00125,275997118.97062,   0.00128,   0.00077,  -0.00043,   0.00000,   2.00000
504247615.55286,429802746.34748,-37929602.28777,   0.00275,   0.00175,  -0.00093,479720303.34441,   0.00126,276009467.07384,   0.00129,   0.00078,  -0.00044,   0.00000,   2.00000
504125000.62486,429946751.32197,-38067712.74136,   0.00276,   0.00176,  -0.00094,479734149.76541,   0.00127,276021817.99636,   0.00130,   0.00079,  -0.00044,   0.00000,   2.00000
504001347.77517,430094937.46776,-38200759.46200,   0.00277,   0.00177,  -0.00094,479731241.84140,   0.00128,276034116.11981,   0.00132,   0.00080,  -0.00045,  -0.00000,   2.00000
503871507.68097,430247565.05247,-38341701.14936,   0.00278,   0.00178,  -0.00095,479758080.12987,   0.00129,276046460.28334,   0.00133,   0.00080,  -0.00045,  -0.00000,   2.00000
503738210.26364,430406786.03906,-38480207.87851,   0.00279,   0.00179,  -0.00096,479782432.23397,   0.00130,276058842.01280,   0.00134,   0.00081,  -0.00046,   0.00000,   2.00000
503607090.64732,430560809.96297,-38619903.76571,   0.00280,   0.00179,  -0.00096,479769104.19588,   0.00132,276071136.35952,   0.00135,   0.00082,  -0.00046,   0.00000,   2.00000
503471158.73402,430720275.18217,-38762291.93285,   0.00281,   0.00180,  -0.00097,479794710.94731,   0.00133,276083472.64050,   0.00136,   0.00082,  -0.00047,   0.00000,   2.00000
503331807.74187,430886232.44281,-38902216.80172,   0.00282,   0.00181,  -0.00098,479819083.79321,   0.00134,276095846.55109,   0.00137,   0.00083,  -0.00047,   0.00000,   2.00000
503196724.87229,431041305.56094,-39047089.51893,   0.00283,   0.00182,  -0.00098,479821252.65369,   0.00135,276108184.53230,   0.00139,   0.00084,  -0.00047,   0.00000,   2.00000
503054757.31175,431207399.59755,-39190843.21470,   0.00284,   0.00183,  -0.00099,479831457.73015,   0.00136,276120513.25450,   0.00140,   0.00085,  -0.00048,   0.00000,   2.00000
502905939.34086,431384392.56389,-39333486.93354,   0.00286,   0.00184,  -0.00100,479841676.21482,   0.00137,276132832.72187,   0.00141,   0.00085,  -0.00048,  -0.00000,   2.00000
502761433.72003,431550396.26862,-39481067.23688,   0.00287,   0.00184,  -0.00100,479843813.03306,   0.00139,276145116.34149,   0.00142,   0.00086,  -0.00049,   0.00000,   2.00000
502612166.79562,431721614.95354,-39631229.63227,   0.00288,   0.00185,  -0.00101,479869508.02193,   0.00140,276157442.20927,   0.00143,   0.00087,  -0.00049,   0.00000,   2.00000
502465466.85886,431892252.24976,-39774874.56569,   0.00289,   0.00186,  -0.00102,479880809.98762,   0.00141,276169762.50053,   0.00144,   0.00088,  -0.00050,  -0.00000,   2.00000
502309110.59619,432071375.96794,-39927634.05973,   0.00290,   0.00187,  -0.00102,479893738.62910,   0.00142,276182082.63968,   0.00145,   0.00088,  -0.00050,  -0.00000,   2.00000
502150447.40616,432253180.27060,-40080368.42300,   0.00291,   0.00188,  -0.00103,479892234.26926,   0.00143,276194354.87772,   0.00147,   0.00089,  -0.00051,   0.00000,   2.00000
501993013.31505,432433129.08561,-40231677.74367,   0.00292,   0.00189,  -0.00104,479904835.68357,   0.00144,276206626.05970,   0.00148,   0.00090,  -0.00051,   0.00000,   2.00000
501836803.56326,432611244.46230,-40381575.57766,   0.00293,   0.00189,  -0.00104,479917430.48751,   0.00145,276218896.17877,   0.00149,   0.00090,  -0.00052,   0.00000,   2.00000
501674462.09068,432793165.75221,-40539104.31378,   0.00294,   0.00190,  -0.00105,479944557.20798,   0.00147,276231213.32628,   0.00150,   0.00091,  -0.00052,   0.00000,   2.00000
501511221.76985,432978917.64560,-40691472.89238,   0.00295,   0.00191,  -0.00106,479941735.10390,   0.00148,276243478.27142,   0.00151,   0.00092,  -0.00053,  -0.00000,   2.00000
501344232.31956,433166092.22229,-40848953.86842,   0.00296,   0.00192,  -0.00106,479941582.25586,   0.00149,276255700.07676,   0.00152,   0.00093,  -0.00053,  -0.00000,   2.00000
501173993.16865,433359300.68577,-41003764.36119,   0.00297,   0.00193,  -0.00107,479966008.62049,   0.00150,276267960.07434,   0.00153,   0.00093,  -0.00054,   0.00000,   2.00000
501003625.14739,433549317.74375,-41162232.04158,   0.00298,   0.00194,  -0.00108,479980001.51620,   0.00151,276280223.70977,   0.00155,   0.00094,  -0.00054,   0.00000,   2.00000
500829495.66604,433740682.78139,-41325764.56197,   0.00299,   0.00194,  -0.00108,479979908.28337,   0.00152,276292444.48281,   0.00156,   0.00095,  -0.00055,  -0.00000,   2.00000
500654486.27745,433935801.36741,-41484117.57269,   0.00300,   0.00195,  -0.00109,479977031.51824,   0.00153,276304613.30904,   0.00157,   0.00096,  -0.00055,   0.00000,   2.00000
500483001.70296,434123171.06274,-41644647.66513,   0.00301,   0.00196,  -0.00110,480005054.64297,   0.00155,276316832.49949,   0.00158,   0.00096,  -0.00056,   0.00000,   2.00000
500299509.55857,434324326.62931,-41810467.22009,   0.00302,   0.00197,  -0.00111,480002753.83407,   0.00156,276329001.71209,   0.00159,   0.00097,  -0.00056,   0.00000,   2.00000
500117383.24730,434523391.47974,-41974743.31362,   0.00303,   0.00198,  -0.00111,480015332.44278,   0.00157,276341170.26699,   0.00160,   0.00098,  -0.00057,  -0.00000,   2.00000
499932087.64349,434728270.64339,-42136249.06515,   0.00304,   0.00199,  -0.00112,480039795.93910,   0.00158,276353377.34461,   0.00161,   0.00098,  -0.00057,   0.00000,   2.00000
499747538.98505,434926435.03662,-42304062.77100,   0.00305,   0.00200,  -0.00113,480027859.46788,   0.00159,276365502.78855,   0.00162,   0.00099,  -0.00058,   0.00000,   2.00000
499559826.20705,435130396.39643,-42469066.74604,   0.00306,   0.00201,  -0.00113,480052304.13715,   0.00160,276377666.89651,   0.00164,   0.00100,  -0.00058,   0.00000,   2.00000
499368297.53495,435335507.30421,-42639111.51481,   0.00307,   0.00201,  -0.00114,480052259.42427,   0.00161,276389788.78233,   0.00165,   0.00101,  -0.00059,  -0.00000,   2.00000
499178178.10835,435538474.94814,-42807576.39303,   0.00308,   0.00202,  -0.00115,480064817.18111,   0.00162,276401910.18609,   0.00166,   0.00101,  -0.00059,  -0.00000,   2.00000
498979676.10288,435750411.46096,-42979792.92073,   0.00309,   0.00203,  -0.00116,480076690.88699,   0.00164,276414028.84274,   0.00167,   0.00102,  -0.00060,   0.00000,   2.00000
498787159.30503,435952311.29380,-43151682.61413,   0.00310,   0.00204,  -0.00116,480077336.17885,   0.00165,276426107.81168,   0.00168,   0.00103,  -0.00060,   0.00000,   2.00000
498587725.35816,436164430.38647,-43322203.16429,   0.00311,   0.00205,  -0.00117,480087771.35755,   0.00166,276438179.45739,   0.00169,   0.00104,  -0.00061,   0.00000,   2.00000
498384432.37991,436377578.34577,-43497740.74916,   0.00312,   0.00206,  -0.00118,480087736.50145,   0.00167,276450209.34535,   0.00170,   0.00104,  -0.00061,   0.00000,   2.00000
498178066.41346,436596264.19620,-43670362.13371,   0.00313,   0.00207,  -0.00119,480112193.64718,   0.00168,276462278.30921,   0.00171,   0.00105,  -0.00062,   0.00000,   2.00000
497976216.96845,436803593.10885,-43847765.82395,   0.00314,   0.00207,  -0.00119,480114246.12221,   0.00169,276474312.49511,   0.00172,   0.00106,  -0.00062,   0.00000,   2.00000
497763580.88739,437025556.73325,-44025274.47277,   0.00315,   0.00208,  -0.00120,480110733.53801,   0.00170,276486293.62680,   0.00174,   0.00107,  -0.00063,  -0.00000,   2.00000
497556325.70425,437240650.07171,-44199613.91190,   0.00316,   0.00209,  -0.00121,480137204.27048,   0.00171,276498320.70545,   0.00175,   0.00107,  -0.00063,   0.00000,   2.00000
497341266.53081,437461237.05217,-44380493.65117,   0.00317,   0.00210,  -0.00122,480123238.66812,   0.00173,276510260.40809,   0.00176,   0.00108,  -0.00064,   0.00000,   2.00000
497127725.29201,437679496.38927,-44559708.30630,   0.00318,   0.00211,  -0.00122,480135694.46560,   0.00174,276522200.09109,   0.00177,   0.00109,  -0.00064,   0.00000,   2.00000
496914156.15390,437894131.96618,-44742354.08436,   0.00319,   0.00212,  -0.00123,480149634.77662,   0.00175,276534144.70830,   0.00178,   0.00110,  -0.00065,   0.00000,   2.00000
496693626.99927,438118723.09017,-44923535.41645,   0.00320,   0.00213,  -0.00124,480160137.78767,   0.00176,276546082.87011,   0.00179,   0.00110,  -0.00066,   0.00000,   2.00000
496475245.04661,438337794.75151,-45105945.20489,   0.00321,   0.00214,  -0.00125,480146651.99877,   0.00177,276557935.68856,   0.00180,   0.00111,  -0.00066,   0.00000,   2.00000
496252290.81348,438560881.10484,-45290415.46568,   0.00321,   0.00215,  -0.00125,480172555.79012,   0.00178,276569833.14388,   0.00181,   0.00112,  -0.00067,   0.00000,   2.00000
496026915.95968,438786137.87097,-45474758.50593,   0.00322,   0.00215,  -0.00126,480171063.97060,   0.00179,276581684.91216,   0.00182,   0.00113,  -0.00067,   0.00000,   2.00000
495799111.05014,439013547.19333,-45658986.05968,   0.00323,   0.00216,  -0.00127,480169540.62426,   0.00180,276593491.06335,   0.00183,   0.00113,  -0.00068,   0.00000,   2.00000
495566763.14864,439244819.61667,-45845237.13927,   0.00324,   0.00217,  -0.00128,480195467.76321,   0.00181,276605342.09714,   0.00184,   0.00114,  -0.00068,   0.00000,   2.00000
495338984.78568,439464649.57479,-46036223.14832,   0.00325,   0.00218,  -0.00129,480197383.33990,   0.00183,276617158.97575,   0.00185,   0.00115,  -0.00069,   0.00000,   2.00000
495101725.51983,439700189.44700,-46222195.16385,   0.00326,   0.00219,  -0.00129,480192475.32809,   0.00184,276628919.26857,   0.00187,   0.00115,  -0.00069,   0.00000,   2.00000
494867447.77862,439922882.41682,-46417994.10222,   0.00327,   0.00220,  -0.00130,480195859.36152,   0.00185,276640650.63027,   0.00188,   0.00116,  -0.00070,   0.00000,   2.00000
494627729.94142,440156699.28433,-46607156.00807,   0.00328,   0.00221,  -0.00131,480204811.37401,   0.00186,276652371.37755,   0.00189,   0.00117,  -0.00070,   0.00000,   2.00000
494388036.28013,440386639.26896,-46799663.37804,   0.00329,   0.00222,  -0.00132,480218690.25993,   0.00187,276664097.81757,   0.00190,   0.00118,  -0.00071,   0.00000,   2.00000
494145851.20040,440618665.79131,-46992032.24035,   0.00330,   0.00223,  -0.00132,480217152.37941,   0.00188,276675779.24863,   0.00191,   0.00118,  -0.00071,   0.00000,   2.00000
493899550.11334,440851353.83549,-47189337.98375,   0.00331,   0.00223,  -0.00133,480217158.58480,   0.00189,276687420.97162,   0.00192,   0.00119,  -0.00072,   0.00000,   2.00000
493654890.67321,441081555.02148,-47384859.27085,   0.00331,   0.00224,  -0.00134,480229430.57257,   0.00190,276699063.46458,   0.00193,   0.00120,  -0.00072,  -0.00000,   2.00000
493407699.53512,441313838.46469,-47580242.19165,   0.00332,   0.00225,  -0.00135,480227852.48906,   0.00191,276710661.21092,   0.00194,   0.00121,  -0.00073,  -0.00000,   2.00000
493151791.32069,441554256.19794,-47779125.48225,   0.00333,   0.00226,  -0.00136,480239949.45959,   0.00192,276722259.32463,   0.00195,   0.00121,  -0.00074,   0.00000,   2.00000
492897906.03074,441789152.51907,-47979292.74769,   0.00334,   0.00227,  -0.00137,480226267.66950,   0.00194,276733773.15538,   0.00196,   0.00122,  -0.00074,   0.00000,   2.00000
492641138.79956,442029011.71044,-48176219.63750,   0.00335,   0.00228,  -0.00137,480250563.36628,   0.00195,276745327.75440,   0.00197,   0.00123,  -0.00075,  -0.00000,   2.00000
492384713.21593,442261942.64199,-48379533.32027,   0.00336,   0.00229,  -0.00138,480238450.28766,   0.00196,276756803.47213,   0.00198,   0.00124,  -0.00075,   0.00000,   2.00000
492125412.43283,442499823.58965,-48579569.85492,   0.00337,   0.00230,  -0.00139,480262735.09448,   0.00197,276768320.12563,   0.00199,   0.00124,  -0.00076,   0.00000,   2.00000
491859246.03032,442744232.57573,-48781138.53223,   0.00338,   0.00231,  -0.00140,480247346.62066,   0.00198,276779747.25770,   0.00200,   0.00125,  -0.00076,   0.00000,   2.00000
491593126.57319,442984561.08983,-48985957.89641,   0.00338,   0.00232,  -0.00141,480261102.34167,   0.00199,276791180.98098,   0.00201,   0.00126,  -0.00077,   0.00000,   2.00000
491328940.55228,443219444.34392,-49192105.60538,   0.00339,   0.00232,  -0.00141,480247301.54541,   0.00200,276802530.83301,   0.00202,   0.00127,  -0.00077,   0.00000,   2.00000
491060223.22877,443457720.66678,-49399985.80950,   0.00340,   0.00233,  -0.00142,480273164.93116,   0.00201,276813927.38389,   0.00203,   0.00127,  -0.00078,  -0.00000,   2.00000
490788866.29252,443697967.46486,-49607703.09459,   0.00341,   0.00234,  -0.00143,480271522.34144,   0.00202,276825280.16008,   0.00204,   0.00128,  -0.00079,   0.00000,   2.00000
490510478.77814,443944702.70891,-49816963.75025,   0.00342,   0.00235,  -0.00144,480256111.24842,   0.00203,276836544.12133,   0.00205,   0.00129,  -0.00079,   0.00000,   2.00000
490238227.36216,444184258.15413,-50022678.57986,   0.00343,   0.00236,  -0.00145,480281852.00519,   0.00204,276847854.70460,   0.00206,   0.00130,  -0.00080,   0.00000,   2.00000
489957170.78984,444428803.28610,-50235024.10551,   0.00343,   0.00237,  -0.00146,480268107.46410,   0.00205,276859082.18652,   0.00207,   0.00130,  -0.00080,   0.00000,   2.00000
489677859.13905,444670718.21215,-50445501.22586,   0.00344,   0.00238,  -0.00146,480280092.17625,   0.00206,276870311.33438,   0.00208,   0.00131,  -0.00081,   0.00000,   2.00000
489394121.60790,444913040.14280,-50660880.95418,   0.00345,   0.00239,  -0.00147,480280052.85489,   0.00207,276881502.74261,   0.00209,   0.00132,  -0.00081,   0.00000,   2.00000
489109376.53955,445158812.79993,-50871058.48613,   0.00346,   0.00240,  -0.00148,480276624.13434,   0.00208,276892645.37963,   0.00210,   0.00132,  -0.00082,  -0.00000,   2.00000
488820165.29509,445404943.89100,-51086160.82047,   0.00347,   0.00241,  -0.00149,480276547.16463,   0.00209,276903750.48613,   0.00211,   0.00133,  -0.00082,   0.00000,   2.00000
488526454.17908,445654142.35408,-51302865.08782,   0.00347,   0.00241,  -0.00150,480302391.74459,   0.00211,276914903.28394,   0.00212,   0.00134,  -0.00083,   0.00000,   2.00000
488229991.94511,445902451.44134,-51522713.56389,   0.00348,   0.00242,  -0.00151,480274768.37090,   0.00212,276925928.21063,   0.00213,   0.00135,  -0.00084,   0.00000,   2.00000
487935306.03907,446148082.06138,-51740655.24510,   0.00349,   0.00243,  -0.00151,480286610.42847,   0.00213,276936955.22857,   0.00214,   0.00135,  -0.00084,   0.00000,   2.00000
487637814.81057,446395592.82883,-51958460.12258,   0.00350,   0.00244,  -0.00152,480284798.91112,   0.00214,276947939.54586,   0.00215,   0.00136,  -0.00085,   0.00000,   2.00000
487340350.50412,446638862.65637,-52179407.09908,   0.00350,   0.00245,  -0.00153,480298335.58063,   0.00215,276958931.73771,   0.00216,   0.00137,  -0.00085,  -0.00000,   2.00000
487037182.88192,446890136.38248,-52396950.33592,   0.00351,   0.00246,  -0.00154,480281152.19206,   0.00216,276969830.95117,   0.00217,   0.00138,  -0.00086,   0.00000,   2.00000
486732275.03513,447135527.08014,-52622667.32082,   0.00352,   0.00247,  -0.00155,480296388.74823,   0.00217,276980743.99417,   0.00218,   0.00138,  -0.00086,   0.00000,   2.00000
486426269.06144,447384378.86327,-52843200.77375,   0.00353,   0.00248,  -0.00156,480292788.46929,   0.00218,276991608.98397,   0.00219,   0.00139,  -0.00087,   0.00000,   2.00000
486120118.29665,447626312.55887,-53070261.25374,   0.00353,   0.00249,  -0.00157,480280363.09931,   0.00219,277002397.25038,   0.00220,   0.00140,  -0.00088,  -0.00000,   2.00000
485806513.62863,447877284.48822,-53295556.46559,   0.00354,   0.00250,  -0.00157,480290740.04317,   0.00220,277013183.83332,   0.00220,   0.00141,  -0.00088,   0.00000,   2.00000
485489989.79456,448130062.55200,-53520727.01668,   0.00355,   0.00250,  -0.00158,480288831.57241,   0.00221,277023928.45616,   0.00221,   0.00141,  -0.00089,   0.00000,   2.00000
485173486.32085,448378481.89508,-53748996.45470,   0.00356,   0.00251,  -0.00159,480302251.93778,   0.00222,277034681.61407,   0.00222,   0.00142,  -0.00089,   0.00000,   2.00000
484853765.05396,448626140.17223,-53980589.24100,   0.00356,   0.00252,  -0.00160,480274452.92423,   0.00223,277045308.13448,   0.00223,   0.00143,  -0.00090,   0.00000,   2.00000
484531329.82078,448878197.97012,-54208578.93042,   0.00357,   0.00253,  -0.00161,480298334.23039,   0.00224,277055977.94153,   0.00224,   0.00143,  -0.00090,   0.00000,   2.00000
484204088.13415,449130381.51499,-54441469.25171,   0.00358,   0.00254,  -0.00162,480298196.67977,   0.00225,277066612.17661,   0.00225,   0.00144,  -0.00091,   0.00000,   2.00000
483880169.55557,449378949.72358,-54670889.83755,   0.00358,   0.00255,  -0.00163,480282057.73840,   0.00226,277077158.48040,   0.00226,   0.00145,  -0.00092,  -0.00000,   2.00000
483551366.70831,449627670.76112,-54905228.88635,   0.00359,   0.00256,  -0.00163,480281837.18841,   0.00227,277087669.43856,   0.00227,   0.00146,  -0.00092,   0.00000,   2.00000
483214987.08461,449885218.91207,-55137765.19704,   0.00360,   0.00257,  -0.00164,480292172.91968,   0.00228,277098179.77577,   0.00228,   0.00146,  -0.00093,  -0.00000,   2.00000
482878207.51338,450135784.70883,-55376899.30747,   0.00361,   0.00258,  -0.00165,480279613.11885,   0.00229,277108614.51002,   0.00229,   0.00147,  -0.00093,   0.00000,   2.00000
482543255.08981,450383625.37363,-55614050.58666,   0.00361,   0.00259,  -0.00166,480291019.70673,   0.00230,277119052.52084,   0.00229,   0.00148,  -0.00094,   0.00000,   2.00000
482200212.83152,450637761.69981,-55852951.74887,   0.00362,   0.00259,  -0.00167,480275494.97926,   0.00231,277129405.48681,   0.00230,   0.00148,  -0.00094,  -0.00000,   2.00000
481859007.84651,450889142.11652,-56089883.44886,   0.00363,   0.00260,  -0.00168,480286838.64097,   0.00232,277139761.83953,   0.00231,   0.00149,  -0.00095,   0.00000,   2.00000
481509628.33371,451146777.34530,-56328603.08715,   0.00363,   0.00261,  -0.00169,480271297.12081,   0.00233,277150033.40761,   0.00232,   0.00150,  -0.00096,   0.00000,   2.00000
481164711.98695,451392962.03407,-56572093.77830,   0.00364,   0.00262,  -0.00170,480272029.67436,   0.00234,277160273.96327,   0.00233,   0.00151,  -0.00096,   0.00000,   2.00000
480812075.02369,451647866.21703,-56813734.99862,   0.00365,   0.00263,  -0.00171,480282297.64985,   0.00235,277170514.87349,   0.00234,   0.00151,  -0.00097,   0.00000,   2.00000
480460695.63118,451897579.03878,-57057045.88891,   0.00365,   0.00264,  -0.00171,480267709.62915,   0.00236,277180674.65604,   0.00235,   0.00152,  -0.00097,   0.00000,   2.00000
480106042.18380,452149058.41121,-57300279.87147,   0.00366,   0.00265,  -0.00172,480265497.88526,   0.00237,277190794.20358,   0.00236,   0.00153,  -0.00098,   0.00000,   2.00000
479746197.65318,452400517.52064,-57548430.36188,   0.00366,   0.00266,  -0.00173,480265185.00157,   0.00237,277200879.95530,   0.00236,   0.00153,  -0.00098,   0.00000,   2.00000
479383039.58142,452653703.10448,-57796488.30451,   0.00367,   0.00267,  -0.00174,480262961.80771,   0.00238,277210925.77759,   0.00237,   0.00154,  -0.00099,   0.00000,   2.00000
479016547.65368,452908596.56462,-58044466.51088,   0.00368,   0.00267,  -0.00175,480260721.04535,   0.00239,277220931.76717,   0.00238,   0.00155,  -0.00100,   0.00000,   2.00000
478646701.23024,453165179.34211,-58292377.61608,   0.00368,   0.00268,  -0.00176,480258463.06328,   0.00240,277230898.02176,   0.00239,   0.00155,  -0.00100,   0.00000,   2.00000
478277941.85224,453416620.75996,-58542042.20195,   0.00369,   0.00269,  -0.00177,480243686.59603,   0.00241,277240783.65187,   0.00240,   0.00156,  -0.00101,  -0.00000,   2.00000
477904622.03249,453670315.66828,-58792880.17136,   0.00369,   0.00270,  -0.00178,480269124.53548,   0.00242,277250720.91961,   0.00240,   0.00157,  -0.00101,  -0.00000,   2.00000
477528995.73460,453925181.58641,-59042456.53198,   0.00370,   0.00271,  -0.00179,480239069.88272,   0.00243,277260527.55695,   0.00241,   0.00158,  -0.00102,   0.00000,   2.00000
477147959.29189,454179904.25243,-59296977.32373,   0.00371,   0.00272,  -0.00179,480238664.74435,   0.00244,277270301.37745,   0.00242,   0.00158,  -0.00102,   0.00000,   2.00000
476766814.62524,454430006.65085,-59554459.53550,   0.00371,   0.00273,  -0.00180,480251557.47267,   0.00245,277280086.20016,   0.00243,   0.00159,  -0.00103,   0.00000,   2.00000
476383199.34175,454681351.62008,-59810727.70421,   0.00372,   0.00274,  -0.00181,480221411.53715,   0.00246,277289740.72974,   0.00244,   0.00160,  -0.00104,   0.00000,   2.00000
475991581.84691,454941116.09627,-60065106.98672,   0.00372,   0.00275,  -0.00182,480231507.01499,   0.00247,277299397.48355,   0.00244,   0.00160,  -0.00104,  -0.00000,   2.00000
475604283.61116,455189479.16901,-60324329.79478,   0.00373,   0.00275,  -0.00183,480231780.51608,   0.00248,277309024.30553,   0.00245,   0.00161,  -0.00105,  -0.00000,   2.00000
475207942.19000,455443973.80950,-60585499.54527,   0.00373,   0.00276,  -0.00184,480216108.56530,   0.00249,277318568.97510,   0.00246,   0.00162,  -0.00105,   0.00000,   2.00000
474807969.12758,455700101.86030,-60846640.02959,   0.00374,   0.00277,  -0.00185,480213634.21636,   0.00250,277328075.11784,   0.00247,   0.00162,  -0.00106,   0.00000,   2.00000
474409830.09873,455953423.45153,-61105771.90395,   0.00374,   0.00278,  -0.00186,480224348.06869,   0.00250,277337586.17863,   0.00248,   0.00163,  -0.00106,   0.00000,   2.00000
474004921.58777,456204251.63230,-61373761.60397,   0.00375,   0.00279,  -0.00187,480198122.19754,   0.00251,277346980.94164,   0.00248,   0.00164,  -0.00107,   0.00000,   2.00000
473598281.62869,456458631.61478,-61636773.05742,   0.00376,   0.00280,  -0.00188,480193524.99614,   0.00252,277356330.79361,   0.00249,   0.00164,  -0.00107,  -0.00000,   2.00000
473191451.40896,456708305.24920,-61902731.49582,   0.00376,   0.00281,  -0.00189,480206164.43111,   0.00253,277365692.56562,   0.00250,   0.00165,  -0.00108,  -0.00000,   2.00000
472775246.06823,456964025.84438,-62170707.29203,   0.00377,   0.00281,  -0.00189,480190462.05220,   0.00254,277374973.14318,   0.00251,   0.00166,  -0.00109,   0.00000,   2.00000
472361652.88759,457216676.64153,-62435695.00339,   0.00377,   0.00282,  -0.00190,480173171.58375,   0.00255,277384167.56668,   0.00251,   0.00166,  -0.00109,   0.00000,   2.00000
471935760.75799,457473625.15283,-62708644.03244,   0.00378,   0.00283,  -0.00191,480187309.95187,   0.00256,277393379.49812,   0.00252,   0.00167,  -0.00110,   0.00000,   2.00000
471518113.89896,457723122.09992,-62976578.55196,   0.00378,   0.00284,  -0.00192,480183095.33652,   0.00257,277402548.54532,   0.00253,   0.00168,  -0.00110,   0.00000,   2.00000
471095233.89875,457972086.33278,-63248576.47464,   0.00378,   0.00285,  -0.00193,480154688.77079,   0.00257,277411595.38734,   0.00253,   0.00168,  -0.00111,  -0.00000,   2.00000
470664018.19904,458229204.34407,-63518633.67341,   0.00379,   0.00286,  -0.00194,480164614.17724,   0.00258,277420646.43200,   0.00254,   0.00169,  -0.00111,   0.00000,   2.00000
470231161.92553,458479357.35853,-63795667.44391,   0.00379,   0.00287,  -0.00195,480151372.40615,   0.00259,277429625.59313,   0.00255,   0.00170,  -0.00112,   0.00000,   2.00000
469794291.95424,458731087.85339,-64072731.62330,   0.00380,   0.00287,  -0.00196,480148640.45859,   0.00260,277438567.68539,   0.00256,   0.00170,  -0.00113,   0.00000,   2.00000
469355446.53565,458986383.55029,-64344919.64333,   0.00380,   0.00288,  -0.00197,480143756.91507,   0.00261,277447465.72157,   0.00256,   0.00171,  -0.00113,  -0.00000,   2.00000
468914816.35682,459234730.42326,-64624137.87343,   0.00381,   0.00289,  -0.00198,480130431.14597,   0.00262,277456292.16969,   0.00257,   0.00172,  -0.00114,   0.00000,   2.00000
468459836.13275,459495450.16375,-64903466.63940,   0.00381,   0.00290,  -0.00199,480127316.20699,   0.00262,277465080.86843,   0.00258,   0.00172,  -0.00114,   0.00000,   2.00000
468010981.30670,459746833.67592,-65182817.82507,   0.00382,   0.00291,  -0.00200,480124812.46881,   0.00263,277473833.98070,   0.00258,   0.00173,  -0.00115,   0.00000,   2.00000
467560192.20672,459991276.46749,-65469216.40150,   0.00382,   0.00292,  -0.00200,480111433.91935,   0.00264,277482515.92357,   0.00259,   0.00174,  -0.00115,   0.00000,   2.00000
467096968.44735,460250078.06090,-65750806.32929,   0.00382,   0.00293,  -0.00201,480106147.81256,   0.00265,277491153.52719,   0.00260,   0.00174,  -0.00116,   0.00000,   2.00000
466639828.22380,460499604.64870,-66032461.38613,   0.00383,   0.00293,  -0.00202,480103494.25335,   0.00266,277499755.62934,   0.00260,   0.00175,  -0.00116,   0.00000,   2.00000
466174569.15444,460746511.36110,-66323332.06757,   0.00383,   0.00294,  -0.00203,480077106.48441,   0.00267,277508244.28927,   0.00261,   0.00176,  -0.00117,   0.00000,   2.00000
465708832.74034,460999075.07256,-66605171.80204,   0.00384,   0.00295,  -0.00204,480097609.79457,   0.00267,277516774.25619,   0.00262,   0.00176,  -0.00118,   0.00000,   2.00000
465234831.85619,461248966.88549,-66896276.55964,   0.00384,   0.00296,  -0.00205,480071241.94264,   0.00268,277525191.08944,   0.00262,   0.00177,  -0.00118,   0.00000,   2.00000
464758549.04306,461502431.08930,-67182594.48754,   0.00384,   0.00297,  -0.00206,480066037.56112,   0.00269,277533564.85515,   0.00263,   0.00177,  -0.00119,   0.00000,   2.00000
464279974.54819,461748899.84237,-67476075.19665,   0.00385,   0.00298,  -0.00207,480052494.95757,   0.00270,277541868.29792,   0.00264,   0.00178,  -0.00119,   0.00000,   2.00000
463796901.64693,461996842.39677,-67769679.53750,   0.00385,   0.00298,  -0.00208,480049459.82081,   0.00271,277550136.30135,   0.00264,   0.00179,  -0.00120,   0.00000,   2.00000
463311448.83084,462248376.64296,-68058537.01488,   0.00385,   0.00299,  -0.00209,480044155.51210,   0.00271,277558361.46637,   0.00265,   0.00179,  -0.00120,   0.00000,   2.00000
462813032.42740,462503447.68997,-68354611.62217,   0.00386,   0.00300,  -0.00210,480030535.23933,   0.00272,277566516.58830,   0.00265,   0.00180,  -0.00121,   0.00000,   2.00000
462320550.57720,462749359.28986,-68650834.40810,   0.00386,   0.00301,  -0.00211,480027466.49957,   0.00273,277574636.71957,   0.00266,   0.00180,  -0.00121,  -0.00000,   2.00000
461817104.37332,463000948.75459,-68949394.38835,   0.00386,   0.00302,  -0.00212,480011568.66049,   0.00274,277582679.67235,   0.00267,   0.00181,  -0.00122,   0.00000,   2.00000
461319550.06911,463243434.51672,-69248130.77341,   0.00387,   0.00302,  -0.00213,480008387.55516,   0.00274,277590687.68343,   0.00267,   0.00182,  -0.00122,  -0.00000,   2.00000
460810876.42872,463491589.15015,-69549236.89889,   0.00387,   0.00303,  -0.00213,479992460.01182,   0.00275,277598618.81497,   0.00268,   0.00182,  -0.00123,   0.00000,   2.00000
460297419.92279,463741108.62729,-69850527.98760,   0.00387,   0.00304,  -0.00214,479989282.27402,   0.00276,277606515.43463,   0.00268,   0.00183,  -0.00124,   0.00000,   2.00000
459779147.39154,463991966.36565,-70152014.04173,   0.00388,   0.00305,  -0.00215,479986103.93168,   0.00277,277614377.67111,   0.00269,   0.00183,  -0.00124,   0.00000,   2.00000
459260226.02351,464237970.06748,-70455938.26138,   0.00388,   0.00306,  -0.00216,479970050.87342,   0.00277,277622163.12325,   0.00270,   0.00184,  -0.00125,  -0.00000,   2.00000
458736394.99113,464485316.87250,-70760076.43306,   0.00388,   0.00307,  -0.00217,479966814.16219,   0.00278,277629914.41244,   0.00270,   0.00185,  -0.00125,   0.00000,   2.00000
458205256.54718,464732026.41271,-71068911.03359,   0.00389,   0.00307,  -0.00218,479938011.06006,   0.00279,277637547.16260,   0.00271,   0.00185,  -0.00126,  -0.00000,   2.00000
457675680.28508,464975857.58632,-71375745.30009,   0.00389,   0.00308,  -0.00219,479947369.52090,   0.00280,277645187.95547,   0.00271,   0.00186,  -0.00126,   0.00000,   2.00000
457138614.52249,465219064.08851,-71687329.69127,   0.00389,   0.00309,  -0.00220,479918527.51604,   0.00280,277652710.43600,   0.00272,   0.00186,  -0.00127,   0.00000,   2.00000
456592280.74841,465469656.83126,-71996867.58264,   0.00389,   0.00310,  -0.00221,479928092.14877,   0.00281,277660242.07905,   0.00272,   0.00187,  -0.00127,   0.00000,   2.00000
456049109.99655,465709307.59161,-72311257.14776,   0.00390,   0.00311,  -0.00222,479898945.58269,   0.00282,277667654.74827,   0.00273,   0.00188,  -0.00128,  -0.00000,   2.00000
455496593.10807,465956313.08555,-72623596.25005,   0.00390,   0.00311,  -0.00223,479908475.24152,   0.00282,277675076.89490,   0.00273,   0.00188,  -0.00128,  -0.00000,   2.00000
454942976.32361,466198480.68216,-72938527.77706,   0.00390,   0.00312,  -0.00224,479892186.74525,   0.00283,277682422.99702,   0.00274,   0.00189,  -0.00129,   0.00000,   2.00000
454377286.00385,466445996.14741,-73256000.01533,   0.00390,   0.00313,  -0.00225,479876236.28074,   0.00284,277689694.44200,   0.00274,   0.00189,  -0.00129,  -0.00000,   2.00000
453812621.82077,466690989.94769,-73571273.71326,   0.00390,   0.00314,  -0.00226,479857429.26345,   0.00285,277696881.96730,   0.00275,   0.00190,  -0.00130,   0.00000,   2.00000
453247145.96702,466930725.68868,-73889410.57424,   0.00391,   0.00314,  -0.00226,479868921.85434,   0.00285,277704086.35653,   0.00275,   0.00190,  -0.00130,   0.00000,   2.00000
452673431.27995,467169754.47384,-74212501.64039,   0.00391,   0.00315,  -0.00227,479840003.11590,   0.00286,277711173.54862,   0.00276,   0.00191,  -0.00131,   0.00000,   2.00000
452094209.66790,467409953.16414,-74535897.98198,   0.00391,   0.00316,  -0.00228,479836506.47321,   0.00287,277718228.27838,   0.00276,   0.00191,  -0.00131,   0.00000,   2.00000
451504764.00750,467657736.68481,-74857093.02886,   0.00391,   0.00317,  -0.00229,479818066.42663,   0.00287,277725201.02530,   0.00277,   0.00192,  -0.00132,  -0.00000,   2.00000
450918472.44462,467894196.18604,-75183539.66614,   0.00391,   0.00317,  -0.00230,479816487.26168,   0.00288,277732148.08787,   0.00277,   0.00193,  -0.00132,   0.00000,   2.00000
450319488.97765,468135819.02555,-75512622.68723,   0.00391,   0.00318,  -0.00231,479800531.96259,   0.00289,277739021.81778,   0.00278,   0.00193,  -0.00133,   0.00000,   2.00000
449721123.66931,468374995.48212,-75839665.81785,   0.00392,   0.00319,  -0.00232,479781460.27705,   0.00289,277745812.05336,   0.00278,   0.00194,  -0.00133,   0.00000,   2.00000
449116983.90083,468615244.63787,-76167077.64483,   0.00392,   0.00320,  -0.00233,479777853.59924,   0.00290,277752570.48428,   0.00279,   0.00194,  -0.00134,   0.00000,   2.00000
448508706.44989,468848203.12845,-76502105.78738,   0.00392,   0.00321,  -0.00234,479763759.97276,   0.00290,277759262.39200,   0.00279,   0.00195,  -0.00134,   0.00000,   2.00000
447896866.64085,469084667.13381,-76832704.40310,   0.00392,   0.00321,  -0.00235,479757591.19053,   0.00291,277765914.31988,   0.00280,   0.00195,  -0.00135,   0.00000,   2.00000
447271873.03677,469326128.16903,-77166031.55040,   0.00392,   0.00322,  -0.00236,479741631.30513,   0.00292,277772493.82568,   0.00280,   0.00196,  -0.00135,   0.00000,   2.00000
446644847.99778,469562685.94386,-77502236.15399,   0.00392,   0.00323,  -0.00237,479724941.69648,   0.00292,277778998.71337,   0.00281,   0.00196,  -0.00136,  -0.00000,   2.00000
446011762.24811,469800195.57480,-77838840.22602,   0.00392,   0.00324,  -0.00238,479721272.97937,   0.00293,277785472.60895,   0.00281,   0.00197,  -0.00136,   0.00000,   2.00000
445376504.86273,470032811.50545,-78178361.83738,   0.00392,   0.00324,  -0.00238,479704532.21326,   0.00294,277791872.04795,   0.00281,   0.00197,  -0.00137,   0.00000,   2.00000
444735072.31689,470266357.82458,-78518298.66235,   0.00393,   0.00325,  -0.00239,479700830.98803,   0.00294,277798240.75595,   0.00282,   0.00198,  -0.00137,   0.00000,   2.00000
444086265.58335,470501455.87770,-78858797.20646,   0.00393,   0.00326,  -0.00240,479669194.61631,   0.00295,277804485.60168,   0.00282,   0.00198,  -0.00138,   0.00000,   2.00000
443436241.29757,470730980.98404,-79202131.12911,   0.00393,   0.00326,  -0.00241,479680270.26367,   0.00295,277810749.57624,   0.00283,   0.00199,  -0.00138,   0.00000,   2.00000
442778630.32312,470962057.98209,-79546086.60726,   0.00393,   0.00327,  -0.00242,479648606.16650,   0.00296,277816889.87066,   0.00283,   0.00199,  -0.00139,   0.00000,   2.00000
442107048.09137,471197837.34053,-79892889.87007,   0.00393,   0.00328,  -0.00243,479632655.33905,   0.00297,277822959.37740,   0.00284,   0.00200,  -0.00139,   0.00000,   2.00000
441438006.65355,471422207.02023,-80245095.52007,   0.00393,   0.00329,  -0.00244,479630558.25946,   0.00297,277829004.66164,   0.00284,   0.00200,  -0.00140,   0.00000,   2.00000
440767191.90733,471652561.01924,-80588271.26553,   0.00393,   0.00329,  -0.00245,479621417.87895,   0.00298,277835002.16940,   0.00284,   0.00201,  -0.00140,   0.00000,   2.00000
440079723.87453,471884909.80580,-80939095.94844,   0.00393,   0.00330,  -0.00246,479608182.23642,   0.00298,277840938.40825,   0.00285,   0.00201,  -0.00141,   0.00000,   2.00000
439389383.08902,472112253.06935,-81293024.61400,   0.00393,   0.00331,  -0.00247,479591246.67456,   0.00299,277846801.17935,   0.00285,   0.00202,  -0.00141,   0.00000,   2.00000
438696078.50630,472334610.81522,-81650078.43458,   0.00393,   0.00331,  -0.00248,479574262.79491,   0.00299,277852590.54279,   0.00285,   0.00202,  -0.00141,   0.00000,   2.00000
437990573.57445,472564073.15353,-82005324.51644,   0.00393,   0.00332,  -0.00249,479555653.93722,   0.00300,277858301.24785,   0.00286,   0.00203,  -0.00142,   0.00000,   2.00000
437289751.44151,472784742.74996,-82361328.71943,   0.00393,   0.00333,  -0.00249,479550616.41040,   0.00300,277863979.03143,   0.00286,   0.00203,  -0.00142,   0.00000,   2.00000
436574109.11311,473009814.44614,-82720299.38842,   0.00393,   0.00334,  -0.00250,479534728.03139,   0.00301,277869587.60673,   0.00287,   0.00203,  -0.00143,   0.00000,   2.00000
435851435.14275,473235450.19943,-83079803.06335,   0.00393,   0.00334,  -0.00251,479530856.14727,   0.00301,277875167.53096,   0.00287,   0.00204,  -0.00143,   0.00000,   2.00000
435125382.43094,473456010.26781,-83442544.25417,   0.00393,   0.00335,  -0.00252,479513792.31462,   0.00302,277880674.58017,   0.00287,   0.00204,  -0.00144,   0.00000,   2.00000
434390296.82864,473677908.60100,-83806288.50090,   0.00393,   0.00336,  -0.00253,479481980.13491,   0.00303,277886059.36355,   0.00288,   0.00205,  -0.00144,   0.00000,   2.00000
433653537.15212,473893890.24992,-84172847.86207,   0.00393,   0.00336,  -0.00254,479492728.53648,   0.00303,277891465.40896,   0.00288,   0.00205,  -0.00145,  -0.00000,   2.00000
432903846.35014,474116739.40073,-84537729.29968,   0.00393,   0.00337,  -0.00255,479474153.65297,   0.00304,277896793.96770,   0.00288,   0.00206,  -0.00145,  -0.00000,   2.00000
432150411.17399,474334435.74152,-84905940.32724,   0.00393,   0.00338,  -0.00256,479457011.70082,   0.00304,277902050.08658,   0.00289,   0.00206,  -0.00145,   0.00000,   2.00000
431384956.13864,474550608.31852,-85279968.72684,   0.00393,   0.00338,  -0.00257,479428005.23543,   0.00305,277907194.00457,   0.00289,   0.00207,  -0.00146,   0.00000,   2.00000
430622609.68356,474766280.05266,-85647430.83574,   0.00393,   0.00339,  -0.00258,479433011.97016,   0.00305,277912340.67136,   0.00289,   0.00207,  -0.00146,   0.00000,   2.00000
429847984.52498,474980380.93976,-86020782.36574,   0.00392,   0.00340,  -0.00258,479403998.52701,   0.00306,277917375.32595,   0.00290,   0.00207,  -0.00147,   0.00000,   2.00000
429063165.22402,475191963.76083,-86399419.67569,   0.00392,   0.00340,  -0.00259,479402889.09409,   0.00306,277922392.52370,   0.00290,   0.00208,  -0.00147,   0.00000,   2.00000
428279075.91876,475403925.02403,-86772147.12240,   0.00392,   0.00341,  -0.00260,479379912.55452,   0.00306,277927318.37522,   0.00290,   0.00208,  -0.00147,   0.00000,   2.00000
427484645.35493,475613299.21703,-87150184.17375,   0.00392,   0.00342,  -0.00261,479378794.56925,   0.00307,277932227.06678,   0.00290,   0.00209,  -0.00148,   0.00000,   2.00000
426677352.34915,475820906.88119,-87534194.78216,   0.00392,   0.00342,  -0.00262,479349862.35869,   0.00307,277937024.57643,   0.00291,   0.00209,  -0.00148,  -0.00000,   2.00000
425864513.48279,476031479.04693,-87914185.36446,   0.00392,   0.00343,  -0.00263,479342980.17284,   0.00308,277941785.81247,   0.00291,   0.00209,  -0.00149,   0.00000,   2.00000
425047037.19092,476236701.65199,-88297702.46053,   0.00392,   0.00344,  -0.00264,479325692.03941,   0.00308,277946475.62862,   0.00291,   0.00210,  -0.00149,  -0.00000,   2.00000
424224814.18035,476436573.93244,-88684766.54675,   0.00392,   0.00344,  -0.00265,479308370.77759,   0.00309,277951094.10271,   0.00292,   0.00210,  -0.00149,   0.00000,   2.00000
423388194.04510,476642810.12101,-89070381.29821,   0.00391,   0.00345,  -0.00266,479289826.58308,   0.00309,277955637.26033,   0.00292,   0.00210,  -0.00150,  -0.00000,   2.00000
422551879.48965,476845593.19742,-89454155.77924,   0.00391,   0.00345,  -0.00266,479297378.41749,   0.00310,277960193.88505,   0.00292,   0.00211,  -0.00150,   0.00000,   2.00000
421701817.28500,477046338.22672,-89844075.32293,   0.00391,   0.00346,  -0.00267,479268525.13809,   0.00310,277964640.29207,   0.00292,   0.00211,  -0.00151,   0.00000,   2.00000
420846578.88975,477241600.47862,-90237624.85204,   0.00391,   0.00347,  -0.00268,479251179.04048,   0.00310,277969015.88086,   0.00293,   0.00212,  -0.00151,   0.00000,   2.00000
419973891.00324,477440053.04656,-90634402.93744,   0.00391,   0.00347,  -0.00269,479235714.32525,   0.00311,277973327.25397,   0.00293,   0.00212,  -0.00151,   0.00000,   2.00000
419107188.22742,477632566.31649,-91027690.53638,   0.00391,   0.00348,  -0.00270,479226804.02824,   0.00311,277977596.84778,   0.00293,   0.00212,  -0.00152,  -0.00000,   2.00000
418222785.95109,477828163.52678,-91424243.35338,   0.00390,   0.00349,  -0.00271,479211378.77047,   0.00312,277981802.59317,   0.00293,   0.00213,  -0.00152,   0.00000,   2.00000
417335302.20459,478021123.32552,-91819911.00580,   0.00390,   0.00349,  -0.00272,479190974.02005,   0.00312,277985927.63773,   0.00293,   0.00213,  -0.00152,   0.00000,   2.00000
416430508.20247,478208687.40258,-92226471.43589,   0.00390,   0.00350,  -0.00273,479165267.75692,   0.00312,277989954.12845,   0.00294,   0.00213,  -0.00153,  -0.00000,   2.00000
415528207.43562,478395619.68365,-92626604.54048,   0.00390,   0.00350,  -0.00273,479169554.11265,   0.00313,277993984.71221,   0.00294,   0.00214,  -0.00153,   0.00000,   2.00000
414610830.81294,478580055.44261,-93033081.31022,   0.00389,   0.00351,  -0.00274,479140853.66068,   0.00313,277997906.63925,   0.00294,   0.00214,  -0.00153,   0.00000,   2.00000
413686721.62789,478767034.69219,-93435723.08175,   0.00389,   0.00352,  -0.00275,479133780.64445,   0.00314,278001794.13606,   0.00294,   0.00214,  -0.00154,  -0.00000,   2.00000
412756397.37275,478948211.58945,-93842190.98148,   0.00389,   0.00352,  -0.00276,479116381.05418,   0.00314,278005611.93117,   0.00295,   0.00215,  -0.00154,   0.00000,   2.00000
411816614.95042,479128804.14062,-94249419.76424,   0.00389,   0.00353,  -0.00277,479112411.75481,   0.00314,278009406.22303,   0.00295,   0.00215,  -0.00154,   0.00000,   2.00000
410861066.77905,479306615.49299,-94663080.34148,   0.00388,   0.00353,  -0.00278,479083851.98132,   0.00315,278013092.74294,   0.00295,   0.00215,  -0.00155,   0.00000,   2.00000
409901474.28359,479481575.28399,-95076056.79660,   0.00388,   0.00354,  -0.00279,479063322.84779,   0.00315,278016699.27308,   0.00295,   0.00216,  -0.00155,   0.00000,   2.00000
408932099.65124,479655771.44453,-95489810.00892,   0.00388,   0.00354,  -0.00279,479059372.13724,   0.00315,278020282.96422,   0.00295,   0.00216,  -0.00155,  -0.00000,   2.00000
407955880.04664,479823944.25340,-95907478.10280,   0.00388,   0.00355,  -0.00280,479041993.81849,   0.00316,278023797.69870,   0.00296,   0.00216,  -0.00156,   0.00000,   2.00000
406972284.83513,479994402.28570,-96321391.19291,   0.00387,   0.00356,  -0.00281,479034890.36096,   0.00316,278027278.97816,   0.00296,   0.00216,  -0.00156,   0.00000,   2.00000
405972027.30128,480161730.68291,-96741859.84293,   0.00387,   0.00356,  -0.00282,479006475.99610,   0.00316,278030653.47663,   0.00296,   0.00217,  -0.00156,  -0.00000,   2.00000
404967097.79953,480326056.14398,-97161779.56580,   0.00387,   0.00357,  -0.00283,478985880.48392,   0.00317,278033948.35729,   0.00296,   0.00217,  -0.00157,   0.00000,   2.00000
403949276.06535,480486134.11653,-97587019.45697,   0.00386,   0.00357,  -0.00284,478985219.01882,   0.00317,278037232.62487,   0.00296,   0.00217,  -0.00157,   0.00000,   2.00000
402926543.88980,480643143.91659,-98011749.48966,   0.00386,   0.00358,  -0.00285,478964637.91868,   0.00317,278040437.46993,   0.00296,   0.00218,  -0.00157,  -0.00000,   2.00000
401886124.06100,480805059.96971,-98435386.96389,   0.00386,   0.00358,  -0.00285,478946618.14813,   0.00318,278043571.91087,   0.00297,   0.00218,  -0.00157,   0.00000,   2.00000
400845155.89161,480954508.77011,-98864961.72396,   0.00385,   0.00359,  -0.00286,478943447.68182,   0.00318,278046687.50382,   0.00297,   0.00218,  -0.00158,   0.00000,   2.00000
399791595.80839,481106859.56847,-99292229.18672,   0.00385,   0.00359,  -0.00287,478908687.99473,   0.00318,278049674.81656,   0.00297,   0.00218,  -0.00158,   0.00000,   2.00000
398724589.40474,481254569.60126,-99724805.76057,   0.00385,   0.00360,  -0.00288,478908176.03851,   0.00318,278052652.90197,   0.00297,   0.00219,  -0.00158,   0.00000,   2.00000
397641966.39763,481401734.62928,-100159612.46570,   0.00384,   0.00360,  -0.00289,478876798.38747,   0.00319,278055514.62908,   0.00297,   0.00219,  -0.00159,  -0.00000,   2.00000
396558327.78023,481544634.83340,-100592611.06836,   0.00384,   0.00361,  -0.00290,478883818.07418,   0.00319,278058393.64272,   0.00297,   0.00219,  -0.00159,   0.00000,   2.00000
395458710.77381,481686864.24543,-101027898.16703,   0.00383,   0.00361,  -0.00290,478852498.84396,   0.00319,278061156.55473,   0.00297,   0.00219,  -0.00159,   0.00000,   2.00000
394350429.84826,481822344.60269,-101467338.78997,   0.00383,   0.00362,  -0.00291,478835237.99691,   0.00320,278063852.53303,   0.00297,   0.00220,  -0.00159,   0.00000,   2.00000
393230737.15323,481956079.00346,-101907598.20844,   0.00383,   0.00362,  -0.00292,478831567.12881,   0.00320,278066529.07968,   0.00298,   0.00220,  -0.00160,   0.00000,   2.00000
392104733.20220,482086301.84991,-102347588.96051,   0.00382,   0.00363,  -0.00293,478810975.43000,   0.00320,278069127.17900,   0.00298,   0.00220,  -0.00160,   0.00000,   2.00000
390956750.88822,482217187.13407,-102791032.51597,   0.00382,   0.00363,  -0.00294,478796781.70949,   0.00320,278071669.33972,   0.00298,   0.00220,  -0.00160,   0.00000,   2.00000
389812419.85621,482333487.82506,-103239440.37994,   0.00381,   0.00364,  -0.00294,478776586.43397,   0.00321,278074134.66403,   0.00298,   0.00220,  -0.00160,   0.00000,   2.00000
388645914.78833,482458681.16257,-103683470.18225,   0.00381,   0.00364,  -0.00295,478772665.23822,   0.00321,278076580.25664,   0.00298,   0.00221,  -0.00160,   0.00000,   2.00000
387472293.33120,482571687.83069,-104135157.34574,   0.00380,   0.00365,  -0.00296,478741964.19327,   0.00321,278078912.31564,   0.00298,   0.00221,  -0.00161,   0.00000,   2.00000
386278567.84360,482688315.92853,-104585884.24958,   0.00380,   0.00365,  -0.00297,478724566.80137,   0.00321,278081177.69926,   0.00298,   0.00221,  -0.00161,   0.00000,   2.00000
385085572.24658,482795231.14048,-105038240.05847,   0.00379,   0.00366,  -0.00298,478717899.47084,   0.00321,278083414.19313,   0.00298,   0.00221,  -0.00161,   0.00000,   2.00000
383872145.54173,482905585.68952,-105489652.83271,   0.00379,   0.00366,  -0.00298,478700607.66281,   0.00322,278085584.49772,   0.00298,   0.00221,  -0.00161,   0.00000,   2.00000
382656649.17764,483002684.83049,-105947109.20687,   0.00378,   0.00367,  -0.00299,478697437.55048,   0.00322,278087738.43319,   0.00299,   0.00222,  -0.00161,   0.00000,   2.00000
381425264.34731,483101533.05957,-106402742.76739,   0.00378,   0.00367,  -0.00300,478663113.12521,   0.00322,278089766.23471,   0.00299,   0.00222,  -0.00162,   0.00000,   2.00000
380167588.72041,483196443.27105,-106866199.04885,   0.00377,   0.00368,  -0.00301,478653083.74771,   0.00322,278091753.83403,   0.00299,   0.00222,  -0.00162,  -0.00000,   2.00000
378915384.79892,483288439.54733,-107322589.99021,   0.00377,   0.00368,  -0.00302,478639317.81461,   0.00322,278093688.06133,   0.00299,   0.00222,  -0.00162,   0.00000,   2.00000
377647571.04264,483374098.97845,-107784147.91990,   0.00376,   0.00369,  -0.00302,478639631.87706,   0.00323,278095618.80648,   0.00299,   0.00222,  -0.00162,   0.00000,   2.00000
376360326.30394,483457548.06476,-108248331.35428,   0.00376,   0.00369,  -0.00303,478609106.93884,   0.00323,278097436.90549,   0.00299,   0.00223,  -0.00162,   0.00000,   2.00000
375064489.29605,483536566.09034,-108712522.67539,   0.00375,   0.00370,  -0.00304,478588718.06923,   0.00323,278099178.43482,   0.00299,   0.00223,  -0.00163,  -0.00000,   2.00000
373757255.51313,483607516.64981,-109181089.22726,   0.00375,   0.00370,  -0.00305,478571928.56735,   0.00323,278100856.27920,   0.00299,   0.00223,  -0.00163,   0.00000,   2.00000
372436470.92091,483675249.23671,-109650429.80480,   0.00374,   0.00370,  -0.00305,478568866.68318,   0.00323,278102519.30713,   0.00299,   0.00223,  -0.00163,   0.00000,   2.00000
371106606.32753,483738347.91075,-110119829.34879,   0.00374,   0.00371,  -0.00306,478548544.56231,   0.00323,278104106.13498,   0.00299,   0.00223,  -0.00163,   0.00000,   2.00000
369751563.96025,483799946.06639,-110592624.92574,   0.00373,   0.00371,  -0.00307,478535661.34709,   0.00324,278105643.37483,   0.00299,   0.00223,  -0.00163,  -0.00000,   2.00000
368398502.22587,483854830.07762,-111062863.76805,   0.00373,   0.00372,  -0.00308,478525322.24576,   0.00324,278107140.14898,   0.00299,   0.00223,  -0.00163,   0.00000,   2.00000
367021712.58318,483903026.91922,-111540152.44218,   0.00372,   0.00372,  -0.00308,478498908.83421,   0.00324,278108539.12685,   0.00299,   0.00223,  -0.00163,   0.98247,   1.00000
365630680.62565,483947453.28209,-112018162.03891,   0.00371,   0.00373,  -0.00309,478496146.07639,   0.00324,278109924.99150,   0.00299,   0.00224,  -0.00164,   0.96920,   1.00000
364229657.03208,483986782.10751,-112496290.01381,   0.00371,   0.00373,  -0.00310,478476025.88361,   0.00324,278111235.62293,   0.00299,   0.00224,  -0.00164,   0.87129,   1.00000
362818457.83877,484020951.34812,-112974563.75055,   0.00370,   0.00373,  -0.00311,478455892.52148,   0.00324,278112471.05938,   0.00299,   0.00224,  -0.00164,   0.77810,   1.00000
361392638.32687,484051073.37067,-113453542.78583,   0.00370,   0.00374,  -0.00311,478453252.05982,   0.00324,278113694.17413,   0.00300,   0.00224,  -0.00164,   0.76645,   1.00000
359941840.13856,484073712.76782,-113939572.26279,   0.00369,   0.00374,  -0.00312,478427364.30110,   0.00324,278114821.45553,   0.00300,   0.00224,  -0.00164,   0.65427,   1.00000
358492157.83067,484089292.24270,-114423144.04252,   0.00368,   0.00374,  -0.00313,478416977.55223,   0.00325,278115908.77546,   0.00300,   0.00224,  -0.00164,   0.61163,   1.00000
357018104.27729,484105777.98318,-114905760.99001,   0.00368,   0.00375,  -0.00314,478401175.85171,   0.00325,278116936.67358,   0.00300,   0.00224,  -0.00164,   0.54920,   1.00000
355530301.64552,484112801.96777,-115392808.69003,   0.00367,   0.00375,  -0.00314,478385095.22865,   0.00325,278117904.21174,   0.00300,   0.00224,  -0.00164,   0.48886,   1.00000
354028551.28224,484110243.56145,-115884286.59141,   0.00366,   0.00376,  -0.00315,478369075.19484,   0.00325,278118811.67600,   0.00300,   0.00224,  -0.00165,   0.43201,   1.00000
352513906.75967,484106702.67258,-116372153.46541,   0.00366,   0.00376,  -0.00316,478363015.04176,   0.00325,278119695.15702,   0.00300,   0.00224,  -0.00165,   0.41132,   1.00000
350984967.35891,484093354.17950,-116864449.06829,   0.00365,   0.00376,  -0.00317,478347131.29518,   0.00325,278120519.09727,   0.00300,   0.00225,  -0.00165,   0.35932,   1.00000
349444132.77095,484073923.04436,-117356971.27690,   0.00364,   0.00377,  -0.00317,478327417.06710,   0.00325,278121269.65849,   0.00300,   0.00225,  -0.00165,   0.29945,   1.00000
347887393.22300,484049353.41096,-117850061.11411,   0.00364,   0.00377,  -0.00318,478325397.26318,   0.00325,278122011.19042,   0.00300,   0.00225,  -0.00165,   0.29352,   1.00000
346305955.32672,484019651.51903,-118345983.12172,   0.00363,   0.00377,  -0.00319,478296595.94528,   0.00325,278122646.28603,   0.00300,   0.00225,  -0.00165,   0.21619,   1.00000
344721878.26163,483978455.99524,-118843723.48277,   0.00362,   0.00378,  -0.00319,478290176.23154,   0.00325,278123256.56990,   0.00300,   0.00225,  -0.00165,   0.20043,   1.00000
343111492.64919,483936713.49914,-119340392.94279,   0.00362,   0.00378,  -0.00320,478275326.47042,   0.00325,278123811.31679,   0.00300,   0.00225,  -0.00165,   0.16627,   1.00000
341485596.47461,483884330.45887,-119841458.99617,   0.00361,   0.00378,  -0.00321,478259915.90945,   0.00325,278124308.52924,   0.00300,   0.00225,  -0.00165,   0.13408,   1.00000
339859267.98617,483824151.98877,-120340188.44004,   0.00360,   0.00379,  -0.00322,478249598.13210,   0.00325,278124766.88288,   0.00300,   0.00225,  -0.00165,   0.11436,   1.00000
338205998.75738,483762943.78151,-120837805.03034,   0.00359,   0.00379,  -0.00322,478235059.49081,   0.00325,278125170.95061,   0.00300,   0.00225,  -0.00165,   0.08920,   1.00000
336534077.87150,483686733.51933,-121343936.27067,   0.00359,   0.00379,  -0.00323,478223891.50761,   0.00325,278125533.14796,   0.00300,   0.00225,  -0.00165,   0.07193,   1.00000
334850973.74482,483607288.89066,-121846182.85312,   0.00358,   0.00380,  -0.00324,478200737.46049,   0.00325,278125809.46688,   0.00300,   0.00225,  -0.00165,   0.04201,   1.00000
333150619.32644,483521457.65978,-122348800.31318,   0.00357,   0.00380,  -0.00324,478199472.90493,   0.00325,278126080.52008,   0.00300,   0.00225,  -0.00165,   0.04055,   1.00000
331433590.62978,483424158.20042,-122855766.07950,   0.00356,   0.00380,  -0.00325,478184556.40296,   0.00325,278126296.00592,   0.00300,   0.00225,  -0.00165,   0.02571,   1.00000
329689086.20193,483319884.76608,-123365513.37537,   0.00356,   0.00381,  -0.00326,478156941.75545,   0.00326,278126409.10488,   0.00300,   0.00225,  -0.00165,   0.00711,   1.00000
327939995.82015,483208102.33410,-123872986.66144,   0.00355,   0.00381,  -0.00326,478164701.78222,   0.00326,278126550.63564,   0.00300,   0.00225,  -0.00165,   0.01116,   1.00000
326176162.71396,483088448.68202,-124380686.05986,   0.00354,   0.00381,  -0.00327,478145959.19904,   0.00326,278126622.47742,   0.00300,   0.00225,  -0.00165,   0.00288,   1.00000
324397360.93716,482960794.16879,-124888616.97859,   0.00353,   0.00382,  -0.00328,478127258.16517,   0.00326,278126624.83399,   0.00300,   0.00225,  -0.00165,   0.00000,   1.00000
322581895.34037,482817885.79820,-125396735.62959,   0.00353,   0.00382,  -0.00328,478118087.15283,   0.00326,278126624.83399,   0.00300,   0.00225,  -0.00165,-8537.68116,   0.00000
320758490.38965,482656452.26845,-125904854.28058,   0.00352,   0.00382,  -0.00329,478103756.58554,   0.00326,278126624.83399,   0.00300,   0.00225,  -0.00165,-22868.24845,   0.00000
318890095.76671,482460614.87171,-126407680.02897,   0.00351,   0.00382,  -0.00330,478062685.33666,   0.00326,278126624.83399,   0.00300,   0.00225,  -0.00165,-63939.49732,   0.00000
317013761.78985,482246252.31582,-126905212.87474,   0.00350,   0.00383,  -0.00330,478011792.37071,   0.00326,278126624.83399,   0.00300,   0.00225,  -0.00165,-114832.46328,   0.00000
315100377.49468,482016011.05209,-127402745.72050,   0.00349,   0.00383,  -0.00331,477952544.31610,   0.00326,278126624.83399,   0.00300,   0.00225,  -0.00165,-174080.51789,   0.00000
313179053.84560,481767244.62920,-127894985.66366,   0.00348,   0.00383,  -0.00332,477883636.45577,   0.00326,278126624.83399,   0.00300,   0.00225,  -0.00165,-242988.37822,   0.00000
311220679.87821,481502599.49848,-128387225.60681,   0.00348,   0.00383,  -0.00332,477806799.47616,   0.00326,278126624.83399,   0.00300,   0.00225,  -0.00165,-319825.35783,   0.00000
309254366.55690,481219429.20860,-128874172.64735,   0.00347,   0.00384,  -0.00333,477720472.29965,   0.00326,278126624.83399,   0.00300,   0.00225,  -0.00165,-406152.53434,   0.00000
307243063.56337,480901855.05172,-129361119.68789,   0.00346,   0.00384,  -0.00333,477612848.38382,   0.00326,278126624.83399,   0.00300,   0.00225,  -0.00165,-513776.45016,   0.00000
305223821.21591,480565755.73570,-129842773.82582,   0.00345,   0.00384,  -0.00334,477495914.17797,   0.00326,278126624.83399,   0.00300,   0.00225,  -0.00165,-630710.65602,   0.00000
303167528.55015,480213777.71183,-130324427.96374,   0.00344,   0.00384,  -0.00335,477371938.93135,   0.00326,278126624.83399,   0.00300,   0.00225,  -0.00165,-754685.90264,   0.00000
301103296.53048,479843274.52881,-130800789.19905,   0.00343,   0.00385,  -0.00335,477238840.49680,   0.00326,278126624.83399,   0.00300,   0.00225,  -0.00165,-887784.33718,   0.00000
299002014.19249,479456892.63795,-131271857.53175,   0.00342,   0.00385,  -0.00336,477094793.00396,   0.00326,278126624.83399,   0.00300,   0.00225,  -0.00165,-1031831.83003,   0.00000
296884853.14667,479033460.42878,-131742925.86445,   0.00342,   0.00385,  -0.00337,476932373.85664,   0.00326,278126624.83399,   0.00300,   0.00225,  -0.00165,-1194250.97735,   0.00000
294730641.78254,478594149.51177,-132213994.19714,   0.00341,   0.00385,  -0.00337,476763852.54983,   0.00326,278126624.83399,   0.00300,   0.00225,  -0.00165,-1362772.28416,   0.00000
292576430.41842,478154838.59477,-132679769.62722,   0.00340,   0.00386,  -0.00338,476600404.16435,   0.00326,278126624.83399,   0.00300,   0.00225,  -0.00165,-1526220.66964,   0.00000
290387815.18730,477670538.00553,-133140252.15469,   0.00339,   0.00386,  -0.00338,476406866.45810,   0.00326,278126624.83399,   0.00300,   0.00225,  -0.00165,-1719758.37589,   0.00000
288162149.63787,477170358.70846,-133600734.68216,   0.00338,   0.00386,  -0.00339,476207946.51897,   0.00326,278126624.83399,   0.00300,   0.00225,  -0.00165,-1918678.31502,   0.00000
285936484.08845,476670179.41138,-134055924.30701,   0.00337,   0.00386,  -0.00340,476014401.28179,   0.00326,278126624.83399,   0.00300,   0.00225,  -0.00165,-2112223.55220,   0.00000
283676414.67203,476125010.44208,-134511113.93186,   0.00336,   0.00386,  -0.00340,475795772.60136,   0.00326,278126624.83399,   0.00300,   0.00225,  -0.00165,-2330852.23263,   0.00000
281397820.09646,475571902.11886,-134961010.65410,   0.00335,   0.00387,  -0.00341,475575329.33800,   0.00326,278126624.83399,   0.00300,   0.00225,  -0.00165,-2551295.49599,   0.00000
279100700.36174,475010854.44172,-135405614.47372,   0.00334,   0.00387,  -0.00341,475353228.57720,   0.00326,278126624.83399,   0.00300,   0.00225,  -0.00165,-2773396.25679,   0.00000
276769176.76003,474404817.09235,-135850218.29334,   0.00333,   0.00387,  -0.00342,475106643.22682,   0.00326,278126624.83399,   0.00300,   0.00225,  -0.00165,-3019981.60717,   0.00000
274419127.99916,473790840.38906,-136294822.11297,   0.00332,   0.00387,  -0.00342,474863332.52764,   0.00326,278126624.83399,   0.00300,   0.00225,  -0.00165,-3263292.30635,   0.00000
272042614.72523,473150399.17270,-136734133.02998,   0.00331,   0.00387,  -0.00343,474605185.51842,   0.00326,278126624.83399,   0.00300,   0.00225,  -0.00165,-3521439.31557,   0.00000
269647576.29214,472502018.60241,-137168151.04437,   0.00330,   0.00387,  -0.00344,474346132.96315,   0.00326,278126624.83399,   0.00300,   0.00225,  -0.00165,-3780491.87084,   0.00000
267218133.99205,471808648.35991,-137602169.05876,   0.00329,   0.00388,  -0.00344,474063472.51648,   0.00326,278126624.83399,   0.00300,   0.00225,  -0.00165,-4063152.31751,   0.00000
264796631.04589,471133803.27655,-138030894.17054,   0.00329,   0.00388,  -0.00345,473800860.86897,   0.00326,278126624.83399,   0.00300,   0.00225,  -0.00165,-4325763.96502,   0.00000
262322199.07358,470406029.16705,-138454326.37971,   0.00328,   0.00388,  -0.00345,473503564.77509,   0.00326,278126624.83399,   0.00300,   0.00225,  -0.00165,-4623060.05890,   0.00000
259847767.10128,469678255.05755,-138877758.58887,   0.00327,   0.00388,  -0.00346,473217471.14905,   0.00326,278126624.83399,   0.00300,   0.00225,  -0.00165,-4909153.68494,   0.00000
257346870.61589,468924016.43497,-139301190.79804,   0.00326,   0.00388,  -0.00346,472922279.12457,   0.00326,278126624.83399,   0.00300,   0.00225,  -0.00165,-5204345.70942,   0.00000
254819509.61744,468143313.29932,-139719330.10459,   0.00325,   0.00388,  -0.00347,472613550.75532,   0.00326,278126624.83399,   0.00300,   0.00225,  -0.00165,-5513074.07867,   0.00000
252273623.45984,467354670.80975,-140132176.50853,   0.00324,   0.00389,  -0.00347,472305191.43266,   0.00326,278126624.83399,   0.00300,   0.00225,  -0.00165,-5821433.40133,   0.00000
249701272.78916,466539563.80711,-140545022.91246,   0.00323,   0.00389,  -0.00348,471988429.66445,   0.00326,278126624.83399,   0.00300,   0.00225,  -0.00165,-6138195.16954,   0.00000
247120982.76456,465705931.64532,-140952576.41378,   0.00322,   0.00389,  -0.00349,471665107.65344,   0.00326,278126624.83399,   0.00300,   0.00225,  -0.00165,-6461517.18055,   0.00000
244503642.42166,464856420.77568,-141360129.91510,   0.00321,   0.00389,  -0.00349,471341165.18710,   0.00326,278126624.83399,   0.00300,   0.00225,  -0.00165,-6785459.64689,   0.00000
241878362.72484,463988384.74689,-141762390.51381,   0.00319,   0.00389,  -0.00350,471010975.24487,   0.00326,278126624.83399,   0.00300,   0.00225,  -0.00165,-7115649.58911,   0.00000
239208093.35579,463085944.85111,-142159358.20990,   0.00318,   0.00389,  -0.00350,470662349.98969,   0.00326,278126624.83399,   0.00300,   0.00225,  -0.00165,-7464274.84430,   0.00000
236537823.98675,462183504.95533,-142556325.90599,   0.00317,   0.00389,  -0.00351,470326240.02061,   0.00326,278126624.83399,   0.00300,   0.00225,  -0.00165,-7800384.81338,   0.00000
233859615.26378,461262539.90039,-142948000.69947,   0.00316,   0.00389,  -0.00351,469984215.65188,   0.00326,278126624.83399,   0.00300,   0.00225,  -0.00165,-8142409.18211,   0.00000
231136416.86859,460307170.97846,-143339675.49295,   0.00315,   0.00389,  -0.00352,469629399.00462,   0.00326,278126624.83399,   0.00300,   0.00225,  -0.00165,-8497225.82937,   0.00000
228405279.11947,459333276.89739,-143726057.38381,   0.00314,   0.00390,  -0.00352,469269031.78199,   0.00326,278126624.83399,   0.00300,   0.00225,  -0.00165,-8857593.05199,   0.00000
225637091.05206,458343504.10846,-144112439.27468,   0.00313,   0.00390,  -0.00353,468910178.08138,   0.00326,278126624.83399,   0.00300,   0.00225,  -0.00165,-9216446.75261,   0.00000
222860963.63072,457335206.16039,-144493528.26292,   0.00312,   0.00390,  -0.00353,468546128.23779,   0.00326,278126624.83399,   0.00300,   0.00225,  -0.00165,-9580496.59620,   0.00000
220066311.05023,456318968.85839,-144874617.25117,   0.00311,   0.00390,  -0.00354,468189827.56074,   0.00326,278126624.83399,   0.00300,   0.00225,  -0.00165,-9936797.27325,   0.00000
217263719.11582,455284206.39725,-145250413.33681,   0.00310,   0.00390,  -0.00354,467828536.99383,   0.00326,278126624.83399,   0.00300,   0.00225,  -0.00165,-10298087.84016,   0.00000
214416137.50919,454215040.06910,-145620916.51983,   0.00309,   0.00390,  -0.00355,467451497.10249,   0.00326,278126624.83399,   0.00300,   0.00225,  -0.00165,-10675127.73150,   0.00000
211560616.54863,453127348.58181,-145991419.70284,   0.00308,   0.00390,  -0.00355,467074802.51750,   0.00326,278126624.83399,   0.00300,   0.00225,  -0.00165,-11051822.31649,   0.00000
208686570.42892,452031717.74060,-146356629.98325,   0.00307,   0.00390,  -0.00356,466701830.98064,   0.00326,278126624.83399,   0.00300,   0.00225,  -0.00165,-11424793.85335,   0.00000
205804584.95529,450917561.74023,-146721840.26365,   0.00306,   0.00390,  -0.00356,466329463.21505,   0.00326,278126624.83399,   0.00300,   0.00225,  -0.00165,-11797161.61894,   0.00000
202877609.80944,449769001.87287,-147081757.64144,   0.00305,   0.00390,  -0.00357,465942646.50712,   0.00326,278126624.83399,   0.00300,   0.00225,  -0.00165,-12183978.32687,   0.00000
199950634.66359,448620442.00551,-147436382.11662,   0.00303,   0.00390,  -0.00357,465565328.92865,   0.00326,278126624.83399,   0.00300,   0.00225,  -0.00165,-12561295.90533,   0.00000
196997195.00466,447445417.62508,-147791006.59180,   0.00302,   0.00390,  -0.00357,465184210.06286,   0.00326,278126624.83399,   0.00300,   0.00225,  -0.00165,-12942414.77113,   0.00000
194017290.83267,446243928.73157,-148145631.06697,   0.00301,   0.00390,  -0.00358,464799633.15552,   0.00326,278126624.83399,   0.00300,   0.00225,  -0.00165,-13326991.67847,   0.00000
191037386.66067,445042439.83807,-148494962.63953,   0.00300,   0.00390,  -0.00358,464424992.31561,   0.00326,278126624.83399,   0.00300,   0.00225,  -0.00165,-13701632.51838,   0.00000
188031017.97560,443814486.43149,-148839001.30948,   0.00299,   0.00390,  -0.00359,464042258.14441,   0.00326,278126624.83399,   0.00300,   0.00225,  -0.00165,-14084366.68957,   0.00000
184998184.77745,442560068.51184,-149183039.97943,   0.00298,   0.00390,  -0.00359,463656846.74659,   0.00326,278126624.83399,   0.00300,   0.00225,  -0.00165,-14469778.08740,   0.00000
181965351.57931,441305650.59219,-149521785.74676,   0.00297,   0.00390,  -0.00360,463281795.23345,   0.00326,278126624.83399,   0.00300,   0.00225,  -0.00165,-14844829.60054,   0.00000
178887528.70894,440016828.80554,-149860531.51409,   0.00296,   0.00390,  -0.00360,462900174.09952,   0.00326,278126624.83399,   0.00300,   0.00225,  -0.00165,-15226450.73447,   0.00000
175801766.48465,438709481.85975,-150193984.37881,   0.00294,   0.00390,  -0.00361,462516018.66206,   0.00326,278126624.83399,   0.00300,   0.00225,  -0.00165,-15610606.17193,   0.00000
172708064.90644,437383609.75480,-150522144.34091,   0.00293,   0.00390,  -0.00361,462129385.25296,   0.00326,278126624.83399,   0.00300,   0.00225,  -0.00165,-15997239.58103,   0.00000
169595838.16908,436049798.29593,-150850304.30301,   0.00292,   0.00390,  -0.00361,461754682.50757,   0.00326,278126624.83399,   0.00300,   0.00225,  -0.00165,-16371942.32641,   0.00000
166457146.91864,434689522.32399,-151173171.36250,   0.00291,   0.00390,  -0.00362,461373783.51664,   0.00326,278126624.83399,   0.00300,   0.00225,  -0.00165,-16752841.31735,   0.00000
163299930.50906,433321306.99812,-151496038.42199,   0.00290,   0.00390,  -0.00362,461005457.72757,   0.00326,278126624.83399,   0.00300,   0.00225,  -0.00165,-17121167.10642,   0.00000
160134774.74555,431934566.51311,-151818905.48148,   0.00289,   0.00390,  -0.00363,460640653.33301,   0.00326,278126624.83399,   0.00300,   0.00225,  -0.00165,-17485971.50098,   0.00000
156943154.46897,430521361.51502,-152131186.73574,   0.00287,   0.00390,  -0.00363,460265260.30741,   0.00326,278126624.83399,   0.00300,   0.00225,  -0.00165,-17861364.52658,   0.00000
153743594.83847,429089631.35778,-152448760.89261,   0.00286,   0.00390,  -0.00363,459899006.68824,   0.00326,278126624.83399,   0.00300,   0.00225,  -0.00165,-18227618.14575,   0.00000
150525510.04881,427649961.84662,-152755749.24425,   0.00285,   0.00390,  -0.00364,459535795.33598,   0.00326,278126624.83399,   0.00300,   0.00225,  -0.00165,-18590829.49801,   0.00000
147280960.74609,426183827.82239,-153062737.59590,   0.00284,   0.00390,  -0.00364,459173363.55734,   0.00326,278126624.83399,   0.00300,   0.00225,  -0.00165,-18953261.27665,   0.00000
144028472.08944,424699168.63900,-153369725.94754,   0.00283,   0.00390,  -0.00365,458815464.83311,   0.00326,278126624.83399,   0.00300,   0.00225,  -0.00165,-19311160.00088,   0.00000
140757458.27364,423206570.10170,-153671421.39657,   0.00281,   0.00390,  -0.00365,458466682.72275,   0.00326,278126624.83399,   0.00300,   0.00225,  -0.00165,-19659942.11123,   0.00000
137459979.94477,421687507.05132,-153967823.94299,   0.00280,   0.00390,  -0.00365,458114304.35706,   0.00326,278126624.83399,   0.00300,   0.00225,  -0.00165,-20012320.47693,   0.00000
134154562.26197,420149918.84179,-154264226.48940,   0.00279,   0.00390,  -0.00366,457767110.17171,   0.00326,278126624.83399,   0.00300,   0.00225,  -0.00165,-20359514.66228,   0.00000
130830619.42003,418604391.27833,-154560629.03582,   0.00278,   0.00390,  -0.00366,457435219.14725,   0.00326,278126624.83399,   0.00300,   0.00225,  -0.00165,-20691405.68674,   0.00000
127498737.22416,417040338.55573,-154851738.67962,   0.00277,   0.00390,  -0.00367,457103531.33108,   0.00326,278126624.83399,   0.00300,   0.00225,  -0.00165,-21023093.50290,   0.00000
124140390.51522,415449821.32006,-155137555.42081,   0.00275,   0.00390,  -0.00367,456769384.74444,   0.00326,278126624.83399,   0.00300,   0.00225,  -0.00165,-21357240.08954,   0.00000
120782043.80628,413859304.08438,-155423372.16199,   0.00274,   0.00390,  -0.00367,456454079.76081,   0.00326,278126624.83399,   0.00300,   0.00225,  -0.00165,-21672545.07318,   0.00000
117397232.58427,412242322.33563,-155703896.00057,   0.00273,   0.00390,  -0.00368,456136870.28793,   0.00326,278126624.83399,   0.00300,   0.00225,  -0.00165,-21989754.54606,   0.00000
114004482.00834,410606815.42773,-155984419.83914,   0.00272,   0.00390,  -0.00368,455826040.49069,   0.00326,278126624.83399,   0.00300,   0.00225,  -0.00165,-22300584.34330,   0.00000
110593206.27325,408963369.16591,-156259650.77509,   0.00270,   0.00390,  -0.00368,455526683.88364,   0.00326,278126624.83399,   0.00300,   0.00225,  -0.00165,-22599940.95035,   0.00000
107155466.02510,407293458.39102,-156534881.71105,   0.00269,   0.00389,  -0.00369,455231855.63094,   0.00326,278126624.83399,   0.00300,   0.00225,  -0.00165,-22894769.20305,   0.00000
103709786.42302,405605022.45697,-156804819.74439,   0.00268,   0.00389,  -0.00369,454938675.29188,   0.00326,278126624.83399,   0.00300,   0.00225,  -0.00165,-23187949.54211,   0.00000
100245581.66179,403908647.16900,-157069464.87512,   0.00267,   0.00389,  -0.00369,454657854.89244,   0.00326,278126624.83399,   0.00300,   0.00225,  -0.00165,-23468769.94155,   0.00000
96773437.54663,402193746.72189,-157339402.90846,   0.00266,   0.00389,  -0.00370,454390030.49090,   0.00326,278126624.83399,   0.00300,   0.00225,  -0.00165,-23736594.34309,   0.00000
93293354.07756,400460321.11562,-157598755.13658,   0.00264,   0.00389,  -0.00370,454118855.62373,   0.00326,278126624.83399,   0.00300,   0.00225,  -0.00165,-24007769.21025,   0.00000
89794745.44933,398718956.15543,-157858107.36469,   0.00263,   0.00389,  -0.00371,453866259.28402,   0.00326,278126624.83399,   0.00300,   0.00225,  -0.00165,-24260365.54997,   0.00000
86261732.95411,396932601.52301,-158117459.59281,   0.00262,   0.00389,  -0.00371,453607623.10058,   0.00326,278126624.83399,   0.00300,   0.00225,  -0.00165,-24519001.73341,   0.00000
82736659.81282,395164772.04975,-158371518.91830,   0.00260,   0.00389,  -0.00371,453376832.93756,   0.00326,278126624.83399,   0.00300,   0.00225,  -0.00165,-24749791.89643,   0.00000
79195707.96367,393359892.25818,-158625578.24380,   0.00259,   0.00389,  -0.00372,453142110.23130,   0.00326,278126624.83399,   0.00300,   0.00225,  -0.00165,-24984514.60269,   0.00000
75636230.95538,391547073.11270,-158874344.66669,   0.00258,   0.00388,  -0.00372,452921601.63124,   0.00326,278126624.83399,   0.00300,   0.00225,  -0.00165,-25205023.20275,   0.00000
72050289.43402,389707789.45414,-159117818.18696,   0.00257,   0.00388,  -0.00372,452703309.61638,   0.00326,278126624.83399,   0.00300,   0.00225,  -0.00165,-25423315.21761,   0.00000
68482873.07180,387876445.14950,-159361291.70723,   0.00255,   0.00388,  -0.00372,452507691.78993,   0.00326,278126624.83399,   0.00300,   0.00225,  -0.00165,-25618933.04406,   0.00000
64870467.03736,386010696.97786,-159604765.22750,   0.00254,   0.00388,  -0.00373,452319339.32851,   0.00326,278126624.83399,   0.00300,   0.00225,  -0.00165,-25807285.50547,   0.00000
61268646.80815,384134363.00100,-159842945.84515,   0.00253,   0.00388,  -0.00373,452136003.11817,   0.00326,278126624.83399,   0.00300,   0.00225,  -0.00165,-25990621.71582,   0.00000
57640362.06587,382231564.51107,-160081126.46281,   0.00252,   0.00388,  -0.00373,451961630.70005,   0.00326,278126624.83399,   0.00300,   0.00225,  -0.00165,-26164994.13394,   0.00000
53993552.16444,380320826.66721,-160314014.17785,   0.00250,   0.00388,  -0.00374,451803178.27980,   0.00326,278126624.83399,   0.00300,   0.00225,  -0.00165,-26323446.55418,   0.00000
50346742.26301,378410088.82335,-160541608.99027,   0.00249,   0.00387,  -0.00374,451661487.42133,   0.00326,278126624.83399,   0.00300,   0.00225,  -0.00165,-26465137.41266,   0.00000
46684053.65373,376462300.66119,-160774496.70532,   0.00248,   0.00387,  -0.00374,451523858.52193,   0.00326,278126624.83399,   0.00300,   0.00225,  -0.00165,-26602766.31206,   0.00000
43002839.88530,374506573.14511,-160996798.61513,   0.00246,   0.00387,  -0.00375,451397251.71860,   0.00326,278126624.83399,   0.00300,   0.00225,  -0.00165,-26729373.11539,   0.00000
39313686.76295,372532320.46988,-161224393.42755,   0.00245,   0.00387,  -0.00375,451287260.96998,   0.00326,278126624.83399,   0.00300,   0.00225,  -0.00165,-26839363.86401,   0.00000
35624533.64060,370558067.79465,-161441402.43475,   0.00244,   0.00387,  -0.00375,451188884.96190,   0.00326,278126624.83399,   0.00300,   0.00225,  -0.00165,-26937739.87209,   0.00000
31900976.65126,368538825.44720,-161663704.34456,   0.00243,   0.00387,  -0.00375,451095610.28107,   0.00326,278126624.83399,   0.00300,   0.00225,  -0.00165,-27031014.55292,   0.00000
28185359.01584,366538108.25889,-161880713.35176,   0.00241,   0.00386,  -0.00376,451031802.82594,   0.00326,278126624.83399,   0.00300,   0.00225,  -0.00165,-27094822.00805,   0.00000
24453862.67257,364500340.75229,-162092429.45634,   0.00240,   0.00386,  -0.00376,450962210.82532,   0.00326,278126624.83399,   0.00300,   0.00225,  -0.00165,-27164414.00867,   0.00000
20703841.17015,362454633.89176,-162304145.56092,   0.00239,   0.00386,  -0.00376,450916527.19335,   0.00326,278126624.83399,   0.00300,   0.00225,  -0.00165,-27210097.64064,   0.00000
16945880.31382,360390401.87208,-162510568.76289,   0.00237,   0.00386,  -0.00377,450877285.83692,   0.00326,278126624.83399,   0.00300,   0.00225,  -0.00165,-27249338.99706,   0.00000
13169394.29833,358318230.49848,-162716991.96486,   0.00236,   0.00386,  -0.00377,450862519.63798,   0.00326,278126624.83399,   0.00300,   0.00225,  -0.00165,-27264105.19601,   0.00000
9403494.08807,356235473.31965,-162923415.16683,   0.00235,   0.00385,  -0.00377,450859620.74008,   0.00326,278126624.83399,   0.00300,   0.00225,  -0.00165,-27267004.09391,   0.00000
5611129.36473,354126251.62775,-163124545.46618,   0.00233,   0.00385,  -0.00377,450864381.66701,   0.00326,278126624.83399,   0.00300,   0.00225,  -0.00165,-27262243.16698,   0.00000
1792300.12833,351990565.42277,-163325675.76553,   0.00232,   0.00385,  -0.00378,450883052.29141,   0.00326,278126624.83399,   0.00300,   0.00225,  -0.00165,-27243572.54258,   0.00000
-2008003.94893,349862818.57172,-163521513.16227,   0.00231,   0.00385,  -0.00378,450919511.24421,   0.00326,278126624.83399,   0.00300,   0.00225,  -0.00165,-27207113.58978,   0.00000
-5834772.53926,347708607.20759,-163717350.55901,   0.00229,   0.00384,  -0.00378,450970324.24763,   0.00326,278126624.83399,   0.00300,   0.00225,  -0.00165,-27156300.58636,   0.00000
-9661541.12959,345554395.84346,-163907895.05314,   0.00228,   0.00384,  -0.00378,451040095.83843,   0.00326,278126624.83399,   0.00300,   0.00225,  -0.00165,-27086528.99556,   0.00000
-13514774.23299,343373719.96626,-164098439.54726,   0.00227,   0.00384,  -0.00379,451124896.86833,   0.00326,278126624.83399,   0.00300,   0.00225,  -0.00165,-27001727.96566,   0.00000
-17357421.53116,341182458.28384,-164288984.04138,   0.00225,   0.00384,  -0.00379,451222127.67364,   0.00326,278126624.83399,   0.00300,   0.00225,  -0.00165,-26904497.16034,   0.00000
-21218593.98848,338983257.24748,-164474235.63289,   0.00224,   0.00383,  -0.00379,451340168.93078,   0.00326,278126624.83399,   0.00300,   0.00225,  -0.00165,-26786455.90321,   0.00000
-25095645.15365,336747005.89283,-164659487.22440,   0.00223,   0.00383,  -0.00379,451461472.27523,   0.00326,278126624.83399,   0.00300,   0.00225,  -0.00165,-26665152.55876,   0.00000
-28964756.96489,334529279.69733,-164839445.91330,   0.00221,   0.00383,  -0.00380,451613201.96816,   0.00326,278126624.83399,   0.00300,   0.00225,  -0.00165,-26513422.86583,   0.00000
-32868272.64313,332266563.82961,-165019404.60219,   0.00220,   0.00383,  -0.00380,451770552.91554,   0.00326,278126624.83399,   0.00300,   0.00225,  -0.00165,-26356071.91845,   0.00000
-36771788.32137,330003847.96188,-165199363.29109,   0.00219,   0.00382,  -0.00380,451953564.67654,   0.00326,278126624.83399,   0.00300,   0.00225,  -0.00165,-26173060.15744,   0.00000
-40683243.35353,327722606.93500,-165374029.07737,   0.00217,   0.00382,  -0.00380,452145729.20274,   0.00326,278126624.83399,   0.00300,   0.00225,  -0.00165,-25980895.63125,   0.00000
-44594698.38569,325441365.90813,-165548694.86365,   0.00216,   0.00382,  -0.00381,452363615.28789,   0.00326,278126624.83399,   0.00300,   0.00225,  -0.00165,-25763009.54609,   0.00000
-48514092.77177,323141599.72210,-165718067.74732,   0.00215,   0.00382,  -0.00381,452590837.45639,   0.00326,278126624.83399,   0.00300,   0.00225,  -0.00165,-25535787.37760,   0.00000
-52441426.51178,320823308.37692,-165887440.63098,   0.00213,   0.00381,  -0.00381,452833368.07187,   0.00326,278126624.83399,   0.00300,   0.00225,  -0.00165,-25293256.76212,   0.00000
-56387285.41093,318497077.67782,-166056813.51465,   0.00212,   0.00381,  -0.00381,453104508.92792,   0.00326,278126624.83399,   0.00300,   0.00225,  -0.00165,-25022115.90607,   0.00000
-60341083.66401,316152321.81957,-166220893.49570,   0.00211,   0.00381,  -0.00381,453385561.05666,   0.00326,278126624.83399,   0.00300,   0.00225,  -0.00165,-24741063.77732,   0.00000
-64302821.27101,313789040.80217,-166384973.47675,   0.00209,   0.00380,  -0.00382,453682503.24984,   0.00326,278126624.83399,   0.00300,   0.00225,  -0.00165,-24444121.58415,   0.00000
-68264558.87801,311425759.78477,-166549053.45780,   0.00208,   0.00380,  -0.00382,454005680.13446,   0.00326,278126624.83399,   0.00300,   0.00225,  -0.00165,-24120944.69952,   0.00000
-72234235.83893,309043953.60822,-166707840.53624,   0.00207,   0.00380,  -0.00382,454339098.25958,   0.00326,278126624.83399,   0.00300,   0.00225,  -0.00165,-23787526.57440,   0.00000
-76211852.15378,306643622.27251,-166866627.61468,   0.00205,   0.00379,  -0.00382,454688739.82993,   0.00326,278126624.83399,   0.00300,   0.00225,  -0.00165,-23437885.00406,   0.00000
-80207993.62777,304235351.58289,-167020121.79050,   0.00204,   0.00379,  -0.00382,455062349.33731,   0.00326,278126624.83399,   0.00300,   0.00225,  -0.00165,-23064275.49667,   0.00000
-84193549.29653,301816495.08803,-167173615.96632,   0.00203,   0.00379,  -0.00383,455449015.84463,   0.00326,278126624.83399,   0.00300,   0.00225,  -0.00165,-22677608.98936,   0.00000
-88205569.47837,299371174.08011,-167327110.14214,   0.00201,   0.00378,  -0.00383,455855912.12335,   0.00326,278126624.83399,   0.00300,   0.00225,  -0.00165,-22270712.71064,   0.00000
-92217589.66021,296925853.07218,-167480604.31796,   0.00200,   0.00378,  -0.00383,456289481.59215,   0.00326,278126624.83399,   0.00300,   0.00225,  -0.00165,-21837143.24184,   0.00000
-96237549.19597,294462006.90510,-167628805.59117,   0.00199,   0.00378,  -0.00383,456734157.52872,   0.00326,278126624.83399,   0.00300,   0.00225,  -0.00165,-21392467.30527,   0.00000
-100246922.92650,291987574.93279,-167771713.96177,   0.00197,   0.00377,  -0.00383,457186055.57054,   0.00326,278126624.83399,   0.00300,   0.00225,  -0.00165,-20940569.26344,   0.00000
-104274821.81618,289505203.60656,-167919915.23497,   0.00196,   0.00377,  -0.00384,457674446.19354,   0.00326,278126624.83399,   0.00300,   0.00225,  -0.00165,-20452178.64044,   0.00000
-108310660.05978,287004307.12118,-168062823.60557,   0.00195,   0.00377,  -0.00384,458174241.27489,   0.00326,278126624.83399,   0.00300,   0.00225,  -0.00165,-19952383.55910,   0.00000
-112354437.65731,284484885.47665,-168205731.97616,   0.00193,   0.00376,  -0.00384,458691414.64016,   0.00326,278126624.83399,   0.00300,   0.00225,  -0.00165,-19435210.19383,   0.00000
-116398215.25483,281965463.83212,-168348640.34675,   0.00192,   0.00376,  -0.00384,459235384.28777,   0.00326,278126624.83399,   0.00300,   0.00225,  -0.00165,-18891240.54622,   0.00000
-120449932.20628,279427517.02844,-168486255.81473,   0.00191,   0.00376,  -0.00384,459791043.97457,   0.00326,278126624.83399,   0.00300,   0.00225,  -0.00165,-18335580.85942,   0.00000
-124520174.31688,276881630.87083,-168623871.28271,   0.00189,   0.00375,  -0.00385,460378203.40007,   0.00326,278126624.83399,   0.00300,   0.00225,  -0.00165,-17748421.43391,   0.00000
-128579830.62225,274325158.90800,-168756193.84807,   0.00188,   0.00375,  -0.00385,460972566.43625,   0.00326,278126624.83399,   0.00300,   0.00225,  -0.00165,-17154058.39774,   0.00000
-132647426.28154,271750161.78602,-168893809.31605,   0.00187,   0.00375,  -0.00385,461590517.83828,   0.00326,278126624.83399,   0.00300,   0.00225,  -0.00165,-16536106.99571,   0.00000
-136722961.29475,269156639.50488,-169026131.88142,   0.00185,   0.00374,  -0.00385,462220572.14754,   0.00326,278126624.83399,   0.00300,   0.00225,  -0.00165,-15906052.68645,   0.00000
-140798496.30796,266563117.22375,-169158454.44678,   0.00184,   0.00374,  -0.00385,462877463.52070,   0.00326,278126624.83399,   0.00300,   0.00225,  -0.00165,-15249161.31328,   0.00000
-144874031.32118,263969594.94261,-169285484.10953,   0.00183,   0.00373,  -0.00385,463555279.07852,   0.00326,278126624.83399,   0.00300,   0.00225,  -0.00165,-14571345.75547,   0.00000
-148965445.04223,261339022.34317,-169417806.67489,   0.00181,   0.00373,  -0.00386,464248265.30830,   0.00326,278126624.83399,   0.00300,   0.00225,  -0.00165,-13878359.52569,   0.00000
-153056858.76329,258708449.74374,-169544836.33764,   0.00180,   0.00373,  -0.00386,464962279.35486,   0.00326,278126624.83399,   0.00300,   0.00225,  -0.00165,-13164345.47913,   0.00000
-157156211.83827,256059351.98515,-169666573.09778,   0.00178,   0.00372,  -0.00386,465688761.40872,   0.00326,278126624.83399,   0.00300,   0.00225,  -0.00165,-12437863.42527,   0.00000
-161255564.91324,253410254.22656,-169793602.76053,   0.00177,   0.00372,  -0.00386,466447778.93991,   0.00326,278126624.83399,   0.00300,   0.00225,  -0.00165,-11678845.89408,   0.00000
-165362857.34214,250742631.30882,-169915339.52066,   0.00176,   0.00371,  -0.00386,467219356.97059,   0.00326,278126624.83399,   0.00300,   0.00225,  -0.00165,-10907267.86340,   0.00000
-169459563.96581,248064422.58585,-170037076.28080,   0.00174,   0.00371,  -0.00386,468003432.02751,   0.00326,278126624.83399,   0.00300,   0.00225,  -0.00165,-10123192.80647,   0.00000
-173574795.74864,245378274.50896,-170158813.04093,   0.00173,   0.00371,  -0.00387,468820068.00661,   0.00326,278126624.83399,   0.00300,   0.00225,  -0.00165,-9306556.82738,   0.00000
-177697966.88538,242673601.27292,-170280549.80107,   0.00172,   0.00370,  -0.00387,469655242.35824,   0.00326,278126624.83399,   0.00300,   0.00225,  -0.00165,-8471382.47575,   0.00000
-181810552.21689,239958342.23165,-170396993.65859,   0.00170,   0.00370,  -0.00387,470497022.26243,   0.00326,278126624.83399,   0.00300,   0.00225,  -0.00165,-7629602.57156,   0.00000
-185923137.54841,237243083.19038,-170513437.51611,   0.00169,   0.00369,  -0.00387,471365218.38869,   0.00326,278126624.83399,   0.00300,   0.00225,  -0.00165,-6761406.44530,   0.00000
-190062187.39299,234501359.63604,-170629881.37363,   0.00168,   0.00369,  -0.00387,472258439.16181,   0.00326,278126624.83399,   0.00300,   0.00225,  -0.00165,-5868185.67217,   0.00000
-194190651.43235,231749050.27647,-170746325.23115,   0.00166,   0.00368,  -0.00387,473163875.61775,   0.00326,278126624.83399,   0.00300,   0.00225,  -0.00165,-4962749.21624,   0.00000
-198319115.47171,228996740.91690,-170857476.18606,   0.00165,   0.00368,  -0.00387,474089908.69095,   0.00326,278126624.83399,   0.00300,   0.00225,  -0.00165,-4036716.14304,   0.00000
-202455518.86499,226225906.39817,-170973920.04358,   0.00164,   0.00367,  -0.00388,475040340.50837,   0.00326,278126624.83399,   0.00300,   0.00225,  -0.00165,-3086284.32561,   0.00000
-206573397.09912,223463011.23337,-171085070.99848,   0.00162,   0.00367,  -0.00388,476004310.57996,   0.00326,278126624.83399,   0.00300,   0.00225,  -0.00165,-2122314.25403,   0.00000
-210717739.84632,220673651.55550,-171196221.95339,   0.00161,   0.00367,  -0.00388,476993835.08545,   0.00326,278126624.83399,   0.00300,   0.00225,  -0.00165,-1132789.74854,   0.00000
-214851496.78829,217873706.07239,-171307372.90829,   0.00160,   0.00366,  -0.00388,477995039.06273,   0.00326,278126624.83399,   0.00300,   0.00225,  -0.00165,-131585.77126,   0.00000
-215394882.71627,217503925.87220,-171321261.36652,   0.00159,   0.00366,  -0.00388,478126625.13438,   0.00326,278126624.83399,   0.00300,   0.00225,  -0.00165,   0.30039,   0.00000
-218592079.16421,214660141.25656,-171098794.61462,   0.00158,   0.00366,  -0.00388,478126625.13438,   0.00326,278130601.77653,   0.00300,   0.00225,  -0.00166,   0.11411,   1.00000
-222251794.92854,211379411.92221,-170837943.08400,   0.00157,   0.00365,  -0.00388,479176438.92499,   0.00326,278135313.56631,   0.00299,   0.00226,  -0.00166,   0.16371,   1.00000
-225895416.90627,208095776.55541,-170565233.33457,   0.00156,   0.00365,  -0.00388,479201281.47426,   0.00327,278140115.55078,   0.00299,   0.00226,  -0.00167,   0.17714,   1.00000
-229542422.99586,204775993.07943,-170288876.53525,   0.00154,   0.00364,  -0.00389,479218051.38048,   0.00327,278144970.85161,   0.00299,   0.00226,  -0.00167,   0.19192,   1.00000
-233155274.38744,201462479.44395,-170006649.24737,   0.00153,   0.00364,  -0.00389,479241212.16312,   0.00328,278149907.90858,   0.00298,   0.00227,  -0.00168,   0.21321,   1.00000
-236774618.45537,198117569.47764,-169715612.21651,   0.00152,   0.00363,  -0.00389,479272867.65711,   0.00328,278154964.48371,   0.00298,   0.00227,  -0.00168,   0.24306,   1.00000
-240359451.84370,194779536.16736,-169418856.26583,   0.00150,   0.00363,  -0.00389,479295990.29382,   0.00329,278160101.48936,   0.00298,   0.00227,  -0.00169,   0.27468,   1.00000
-243923773.15848,191435182.86095,-169115532.49305,   0.00149,   0.00362,  -0.00389,479306662.99048,   0.00329,278165262.40094,   0.00297,   0.00228,  -0.00169,   0.30519,   1.00000
-247479647.19667,188073729.94674,-168804420.89053,   0.00148,   0.00362,  -0.00389,479350983.55821,   0.00330,278170598.42570,   0.00297,   0.00228,  -0.00170,   0.36035,   1.00000
-251025872.76279,184690348.53087,-168489020.78866,   0.00146,   0.00361,  -0.00389,479355501.01045,   0.00330,278175929.51333,   0.00297,   0.00228,  -0.00170,   0.39800,   1.00000
-254551444.26153,181303811.35821,-168165365.65246,   0.00145,   0.00361,  -0.00389,479386471.81990,   0.00331,278181374.58050,   0.00296,   0.00229,  -0.00171,   0.45943,   1.00000
-258053228.47444,177912327.19686,-167836877.14945,   0.00144,   0.00360,  -0.00390,479423011.75740,   0.00331,278186957.99484,   0.00296,   0.00229,  -0.00171,   0.53401,   1.00000
-261533944.46474,174515444.38282,-167502011.58586,   0.00142,   0.00360,  -0.00390,479433933.79704,   0.00332,278192563.78849,   0.00295,   0.00229,  -0.00172,   0.59410,   1.00000
-265004561.77697,171100104.79716,-167161199.20416,   0.00141,   0.00359,  -0.00390,479458871.90648,   0.00332,278198254.73223,   0.00295,   0.00230,  -0.00173,   0.67455,   1.00000
-268467765.97393,167668546.25566,-166811060.53026,   0.00140,   0.00359,  -0.00390,479478516.11867,   0.00333,278204006.49624,   0.00295,   0.00230,  -0.00173,   0.75753,   1.00000
-271906169.54259,164233323.95714,-166456301.58956,   0.00138,   0.00358,  -0.00390,479515221.31914,   0.00334,278209895.28210,   0.00294,   0.00230,  -0.00174,   0.87062,   1.00000
-275320033.80872,160791401.12451,-166098657.10320,   0.00137,   0.00357,  -0.00390,479531906.70644,   0.00334,278215830.38977,   0.00294,   0.00231,  -0.00174,   0.96698,   1.00000
-278711806.74192,157348475.81857,-165733189.93383,   0.00136,   0.00357,  -0.00390,479562992.62373,   0.00335,278221876.09956,   0.00293,   0.00231,  -0.00175,   0.00000,   2.00000
-282095411.76719,153890168.43038,-165358486.84267,   0.00135,   0.00356,  -0.00391,479583104.22540,   0.00335,278227982.47553,   0.00293,   0.00231,  -0.00176,   0.00000,   2.00000
-285451039.96037,150423918.57898,-164984438.55925,   0.00133,   0.00356,  -0.00391,479605322.99135,   0.00336,278234158.53380,   0.00292,   0.00232,  -0.00176,   0.00000,   2.00000
-288787162.16064,146959379.91992,-164599343.81120,   0.00132,   0.00355,  -0.00391,479630991.07850,   0.00336,278240419.25002,   0.00292,   0.00232,  -0.00177,  -0.00000,   2.00000
-292108217.43674,143476473.87046,-164211880.96561,   0.00131,   0.00355,  -0.00391,479662378.00452,   0.00337,278246789.66571,   0.00292,   0.00232,  -0.00177,   0.00000,   2.00000
-295407313.94094,139989896.68541,-163818407.52102,   0.00129,   0.00354,  -0.00391,479673736.18783,   0.00338,278253179.38376,   0.00291,   0.00233,  -0.00178,   0.00000,   2.00000
-298683217.67270,136504082.45479,-163417472.44722,   0.00128,   0.00354,  -0.00391,479704909.79361,   0.00338,278259676.87263,   0.00291,   0.00233,  -0.00179,   0.00000,   2.00000
-301943367.26537,133000734.63518,-163014269.27374,   0.00127,   0.00353,  -0.00391,479736583.44231,   0.00339,278266283.64764,   0.00290,   0.00234,  -0.00179,   0.00000,   2.00000
-305170523.90594,129511282.60038,-162603555.33576,   0.00125,   0.00352,  -0.00391,479752824.69980,   0.00340,278272929.99729,   0.00290,   0.00234,  -0.00180,  -0.00000,   2.00000
-308395669.54435,125989354.95503,-162188815.65740,   0.00124,   0.00352,  -0.00392,479774480.85509,   0.00340,278279639.75645,   0.00289,   0.00234,  -0.00181,   0.00000,   2.00000
-311573672.69204,122497302.63085,-161768594.26295,   0.00123,   0.00351,  -0.00392,479800597.17266,   0.00341,278286432.39343,   0.00289,   0.00235,  -0.00181,   0.00000,   2.00000
-314745971.28503,118971635.85790,-161347836.62531,   0.00122,   0.00351,  -0.00392,479827887.26808,   0.00342,278293312.53253,   0.00288,   0.00235,  -0.00182,   0.00000,   2.00000
-317897431.71769,115450064.68650,-160916518.56115,   0.00120,   0.00350,  -0.00392,479853771.57951,   0.00342,278300273.28219,   0.00288,   0.00236,  -0.00183,   0.00000,   2.00000
-321023130.64469,111924739.83421,-160483041.51778,   0.00119,   0.00349,  -0.00392,479870589.94920,   0.00343,278307273.64158,   0.00287,   0.00236,  -0.00183,  -0.00000,   2.00000
-324121032.17902,108401178.24741,-160046144.48855,   0.00118,   0.00349,  -0.00392,479907014.14114,   0.00344,278314400.60502,   0.00286,   0.00236,  -0.00184,   0.00000,   2.00000
-327196548.60385,104875687.29666,-159603721.15942,   0.00117,   0.00348,  -0.00392,479918437.22091,   0.00344,278321542.00281,   0.00286,   0.00237,  -0.00185,   0.00000,   2.00000
-330258011.22101,101336491.28741,-159155880.29155,   0.00115,   0.00348,  -0.00392,479945426.99149,   0.00345,278328766.86744,   0.00285,   0.00237,  -0.00186,   0.00000,   2.00000
-333291179.87778,97800061.25476,-158704841.19460,   0.00114,   0.00347,  -0.00393,479981816.93037,   0.00346,278336116.37559,   0.00285,   0.00237,  -0.00186,   0.00000,   2.00000
-336301806.06757,94262209.01799,-158248395.59359,   0.00113,   0.00346,  -0.00393,479993340.05284,   0.00346,278343479.17972,   0.00284,   0.00238,  -0.00187,   0.00000,   2.00000
-339282927.85570,90720565.75899,-157793662.22381,   0.00111,   0.00346,  -0.00393,480015297.79556,   0.00347,278350901.39709,   0.00284,   0.00238,  -0.00188,   0.00000,   2.00000
-342242533.13139,87185051.60274,-157328891.55647,   0.00110,   0.00345,  -0.00393,480040984.14143,   0.00348,278358399.08383,   0.00283,   0.00239,  -0.00188,   0.00000,   2.00000
-345183759.37452,83635909.12289,-156862446.58877,   0.00109,   0.00344,  -0.00393,480073553.31945,   0.00348,278366002.14682,   0.00282,   0.00239,  -0.00189,   0.00000,   2.00000
-348088546.28539,80102584.55327,-156393202.55239,   0.00108,   0.00344,  -0.00393,480093727.00872,   0.00349,278373654.93077,   0.00282,   0.00239,  -0.00190,  -0.00000,   2.00000
-350981834.37298,76558391.38775,-155915245.65483,   0.00107,   0.00343,  -0.00393,480115973.37555,   0.00350,278381366.15094,   0.00281,   0.00240,  -0.00191,   0.00000,   2.00000
-353845334.95219,73011570.85363,-155439322.35916,   0.00105,   0.00343,  -0.00393,480137820.30104,   0.00351,278389133.54763,   0.00280,   0.00240,  -0.00191,   0.00000,   2.00000
-356693396.62212,69453273.36105,-154958287.23633,   0.00104,   0.00342,  -0.00394,480165487.50506,   0.00351,278396982.33342,   0.00280,   0.00241,  -0.00192,  -0.00000,   2.00000
-359505084.98718,65911703.35964,-154474782.29238,   0.00103,   0.00341,  -0.00394,480185262.27351,   0.00352,278404877.04683,   0.00279,   0.00241,  -0.00193,   0.00000,   2.00000
-362291147.12816,62377063.14293,-153985322.34350,   0.00102,   0.00341,  -0.00394,480215893.93575,   0.00353,278412865.15520,   0.00279,   0.00242,  -0.00194,   0.00000,   2.00000
-365057316.45602,58822747.07220,-153499096.08486,   0.00100,   0.00340,  -0.00394,480234686.46426,   0.00354,278420893.73328,   0.00278,   0.00242,  -0.00194,   0.00000,   2.00000
-367791004.45277,55286691.65530,-153007041.05344,   0.00099,   0.00339,  -0.00394,480248933.84678,   0.00355,278428942.39701,   0.00277,   0.00242,  -0.00195,  -0.00000,   2.00000
-370495288.83785,51757503.83315,-152512899.07080,   0.00098,   0.00339,  -0.00394,480284409.06252,   0.00355,278437104.26263,   0.00277,   0.00243,  -0.00196,   0.00000,   2.00000
-373196976.95395,48201038.16296,-152011086.05080,   0.00097,   0.00338,  -0.00394,480304698.64646,   0.00356,278445311.67423,   0.00276,   0.00243,  -0.00197,   0.00000,   2.00000
-375849175.08527,44679913.67063,-151510212.58381,   0.00095,   0.00337,  -0.00395,480331223.22362,   0.00357,278453591.63189,   0.00275,   0.00244,  -0.00198,   0.00000,   2.00000
-378484949.24070,41140734.54945,-151009064.82726,   0.00094,   0.00336,  -0.00395,480345186.94559,   0.00358,278461888.39728,   0.00274,   0.00244,  -0.00198,   0.00000,   2.00000
-381094725.50313,37610369.37855,-150502446.66262,   0.00093,   0.00336,  -0.00395,480375488.19980,   0.00359,278470273.30838,   0.00274,   0.00244,  -0.00199,   0.00000,   2.00000
-383678342.26888,34080425.65306,-149994871.79966,   0.00092,   0.00335,  -0.00395,480391853.44594,   0.00359,278478684.64108,   0.00273,   0.00245,  -0.00200,   0.00000,   2.00000
-386235924.42713,30559809.65910,-149481990.08588,   0.00091,   0.00334,  -0.00395,480422007.33838,   0.00360,278487182.37648,   0.00272,   0.00245,  -0.00201,   0.00000,   2.00000
-388763644.10540,27039339.89579,-148971978.76166,   0.00089,   0.00334,  -0.00395,480443231.82355,   0.00361,278495726.79459,   0.00272,   0.00246,  -0.00202,  -0.00000,   2.00000
-391278385.04605,23511057.93917,-148453670.74106,   0.00088,   0.00333,  -0.00395,480466497.94127,   0.00362,278504326.31305,   0.00271,   0.00246,  -0.00202,  -0.00000,   2.00000
-393753912.66958,20001610.93661,-147937769.10228,   0.00087,   0.00332,  -0.00395,480489492.41004,   0.00363,278512979.26966,   0.00270,   0.00246,  -0.00203,   0.00000,   2.00000
-396203471.62014,16493392.33157,-147421179.40216,   0.00086,   0.00331,  -0.00396,480505638.18108,   0.00363,278521655.33441,   0.00269,   0.00247,  -0.00204,  -0.00000,   2.00000
-398632269.39897,12976969.98853,-146903872.94035,   0.00085,   0.00331,  -0.00396,480538779.41562,   0.00364,278530428.08930,   0.00269,   0.00247,  -0.00205,  -0.00000,   2.00000
-401029819.26433,9480924.46681,-146381734.53680,   0.00084,   0.00330,  -0.00396,480551564.63145,   0.00365,278539208.33231,   0.00268,   0.00248,  -0.00206,   0.00000,   2.00000
-403397707.60773,5986126.87008,-145862816.64173,   0.00082,   0.00329,  -0.00396,480572433.06350,   0.00366,278548030.93409,   0.00267,   0.00248,  -0.00206,  -0.00000,   2.00000
-405748467.64466,2484268.64279,-145339549.92264,   0.00081,   0.00329,  -0.00396,480600760.75474,   0.00367,278556927.74931,   0.00266,   0.00248,  -0.00207,   0.00000,   2.00000
-408064524.08753,-997185.20965,-144815444.16157,   0.00080,   0.00328,  -0.00396,480617990.08091,   0.00368,278565850.11078,   0.00266,   0.00249,  -0.00208,   0.00000,   2.00000
-410363334.19390,-4485262.93060,-144287082.90181,   0.00079,   0.00327,  -0.00397,480646361.41949,   0.00369,278574845.82905,   0.00265,   0.00249,  -0.00209,   0.00000,   2.00000
-412627688.61975,-7952625.15763,-143758055.41045,   0.00078,   0.00326,  -0.00397,480663314.21318,   0.00369,278583864.97196,   0.00264,   0.00249,  -0.00210,   0.00000,   2.00000
-414862604.06752,-11417859.72044,-143232539.44595,   0.00077,   0.00326,  -0.00397,480683896.37046,   0.00370,278592922.87515,   0.00263,   0.00250,  -0.00211,   0.00000,   2.00000
-417080136.29876,-14889063.57626,-142702877.07534,   0.00076,   0.00325,  -0.00397,480712325.50257,   0.00371,278602052.87917,   0.00262,   0.00250,  -0.00212,   0.00000,   2.00000
-419263625.89148,-18339101.28683,-142172772.01108,   0.00074,   0.00324,  -0.00397,480728863.57597,   0.00372,278611203.20623,   0.00262,   0.00251,  -0.00212,   0.00000,   2.00000
-421417842.36978,-21786507.45188,-141646333.18889,   0.00073,   0.00323,  -0.00397,480749278.68314,   0.00373,278620390.21439,   0.00261,   0.00251,  -0.00213,   0.00000,   2.00000
-423546313.78048,-25220800.55143,-141115732.83217,   0.00072,   0.00322,  -0.00398,480778173.10385,   0.00374,278629649.88770,   0.00260,   0.00251,  -0.00214,  -0.00000,   2.00000
-425649981.59219,-28662290.78964,-140589041.75436,   0.00071,   0.00322,  -0.00398,480780631.39910,   0.00375,278638868.22946,   0.00259,   0.00252,  -0.00215,   0.00000,   2.00000
-427727505.29595,-32079931.82544,-140054324.35984,   0.00070,   0.00321,  -0.00398,480822518.32546,   0.00376,278648214.15999,   0.00258,   0.00252,  -0.00216,   0.00000,   2.00000
-429780385.96816,-35504690.83132,-139523565.70989,   0.00069,   0.00320,  -0.00398,480824995.70590,   0.00377,278657518.13798,   0.00257,   0.00252,  -0.00217,  -0.00000,   2.00000
-431803774.62222,-38915547.58528,-138992773.06763,   0.00068,   0.00319,  -0.00398,480858208.41037,   0.00377,278666911.51377,   0.00257,   0.00253,  -0.00217,   0.00000,   2.00000
-433802174.97600,-42322850.49641,-138462042.11720,   0.00067,   0.00319,  -0.00398,480873713.60224,   0.00378,278676317.99925,   0.00256,   0.00253,  -0.00218,   0.00000,   2.00000
-435763982.16857,-45708001.79254,-137935352.39605,   0.00065,   0.00318,  -0.00399,480893596.79576,   0.00379,278685756.03109,   0.00255,   0.00254,  -0.00219,   0.00000,   2.00000
-437708265.57289,-49097127.84804,-137404898.48743,   0.00064,   0.00317,  -0.00399,480922035.18829,   0.00380,278695261.54309,   0.00254,   0.00254,  -0.00220,   0.00000,   2.00000
-439627779.46850,-52482342.59914,-136874614.15681,   0.00063,   0.00316,  -0.00399,480937444.84235,   0.00381,278704778.57303,   0.00253,   0.00254,  -0.00221,   0.00000,   2.00000
-441515087.62927,-55845119.70108,-136344659.59252,   0.00062,   0.00315,  -0.00399,480952367.56784,   0.00382,278714304.86087,   0.00252,   0.00255,  -0.00222,   0.00000,   2.00000
-443374016.91731,-59203717.40590,-135818905.74345,   0.00061,   0.00314,  -0.00399,480972065.05047,   0.00383,278723860.38448,   0.00251,   0.00255,  -0.00223,   0.00000,   2.00000
-445208007.19154,-62547096.51369,-135289693.42414,   0.00060,   0.00314,  -0.00399,480999927.44904,   0.00384,278733479.29268,   0.00250,   0.00255,  -0.00224,   0.00000,   2.00000
-447017716.35214,-65886226.81641,-134760824.79354,   0.00059,   0.00313,  -0.00400,481015046.22582,   0.00385,278743107.17060,   0.00250,   0.00256,  -0.00224,   0.00000,   2.00000
-448799272.33669,-69220768.49620,-134236279.87437,   0.00058,   0.00312,  -0.00400,481034608.69126,   0.00386,278752762.51213,   0.00249,   0.00256,  -0.00225,   0.00000,   2.00000
-450556113.64113,-72539538.18308,-133708448.35016,   0.00057,   0.00311,  -0.00400,481062237.48673,   0.00387,278762478.90863,   0.00248,   0.00256,  -0.00226,   0.00000,   2.00000
