# sigma_xx, sigma_yy, sigma_xy, epsilon_xx, epsilon_yy, epsilon_xy, vonMises, epsPlastic, hardening, epsilonP__xx, epsilonP__yy, epsilonP__xy, yieldValue, iteration
   0.00000,   0.00000,   0.00000,   0.00000,   0.00000,   0.00000,   0.00000,   0.00000,274640135.82653,   0.00000,   0.00000,   0.00000,-474640135.82653,   0.00000
   0.00000,   0.00000,   0.00000,   0.00000,   0.00000,   0.00000,   0.00000,   0.00000,274640135.82653,   0.00000,   0.00000,   0.00000,-474640135.82653,   0.00000
173267.38980,4413222.34028,264997.18440,  -0.00001,   0.00002,   0.00000,4353453.34428,   0.00000,274640135.82653,   0.00000,   0.00000,   0.00000,-470286682.48225,   0.00000
331246.48051,8790771.98266,529994.36881,  -0.00002,   0.00004,   0.00001,8678603.92544,   0.00000,274640135.82653,   0.00000,   0.00000,   0.00000,-465961531.90108,   0.00000
453552.87331,13153033.32594,794991.55321,  -0.00002,   0.00006,   0.00001,13005323.31523,   0.00000,274640135.82653,   0.00000,   0.00000,   0.00000,-461634812.51130,   0.00000
545282.66791,17443949.27342,1039604.33882,  -0.00003,   0.00008,   0.00001,17271917.89544,   0.00000,274640135.82653,   0.00000,   0.00000,   0.00000,-457368217.93109,   0.00000
637012.46251,21734865.22090,1284217.12442,  -0.00004,   0.00010,   0.00002,21538626.04484,   0.00000,274640135.82653,   0.00000,   0.00000,   0.00000,-453101509.78169,   0.00000
677781.26011,25974820.17138,1528829.91003,  -0.00005,   0.00012,   0.00002,25779010.58432,   0.00000,274640135.82653,   0.00000,   0.00000,   0.00000,-448861125.24221,   0.00000
703261.75861,30179102.42396,1763250.49623,  -0.00006,   0.00014,   0.00002,29989600.67274,   0.00000,274640135.82653,   0.00000,   0.00000,   0.00000,-444650535.15379,   0.00000
677781.26011,34332423.67954,1987478.88304,  -0.00006,   0.00015,   0.00003,34172431.09138,   0.00000,274640135.82653,   0.00000,   0.00000,   0.00000,-440467704.73515,   0.00000
672685.16041,38465360.53631,2211707.26984,  -0.00007,   0.00017,   0.00003,38325400.66892,   0.00000,274640135.82653,   0.00000,   0.00000,   0.00000,-436314735.15761,   0.00000
596243.66491,42567720.79489,2425743.45724,  -0.00008,   0.00019,   0.00003,42481034.83070,   0.00000,274640135.82653,   0.00000,   0.00000,   0.00000,-432159100.99583,   0.00000
524898.26911,46614023.95676,2629587.44525,  -0.00009,   0.00021,   0.00003,46577025.64076,   0.00000,274640135.82653,   0.00000,   0.00000,   0.00000,-428063110.18577,   0.00000
417880.17541,50645038.81954,2833431.43325,  -0.00010,   0.00023,   0.00004,50675595.94350,   0.00000,274640135.82653,   0.00000,   0.00000,   0.00000,-423964539.88303,   0.00000
295573.78261,54640380.98441,3027083.22186,  -0.00011,   0.00025,   0.00004,54744844.80194,   0.00000,274640135.82653,   0.00000,   0.00000,   0.00000,-419895291.02459,   0.00000
122306.39280,58584762.15229,3220735.01046,  -0.00011,   0.00027,   0.00004,58788973.68031,   0.00000,274640135.82653,   0.00000,   0.00000,   0.00000,-415851162.14622,   0.00000
-50960.99700,62529143.32016,3404194.59966,  -0.00012,   0.00028,   0.00004,62831906.95402,   0.00000,274640135.82653,   0.00000,   0.00000,   0.00000,-411808228.87251,   0.00000
-239516.68590,66437851.79013,3577461.98947,  -0.00013,   0.00030,   0.00005,66845741.79159,   0.00000,274640135.82653,   0.00000,   0.00000,   0.00000,-407794394.03494,   0.00000
-494321.67091,70259926.56520,3750729.37927,  -0.00014,   0.00032,   0.00005,70807037.44536,   0.00000,274640135.82653,   0.00000,   0.00000,   0.00000,-403833098.38116,   0.00000
-713453.95801,74097289.63937,3913804.56967,  -0.00015,   0.00034,   0.00005,74764536.72465,   0.00000,274640135.82653,   0.00000,   0.00000,   0.00000,-399875599.10188,   0.00000
-1003931.64092,77904076.11535,4076879.76008,  -0.00016,   0.00036,   0.00005,78728178.98839,   0.00000,274640135.82653,   0.00000,   0.00000,   0.00000,-395911956.83814,   0.00000
-1289313.22412,81654805.49461,4229762.75108,  -0.00017,   0.00037,   0.00005,82632444.52563,   0.00000,274640135.82653,   0.00000,   0.00000,   0.00000,-392007691.30090,   0.00000
-1610367.50523,85390246.57478,4372453.54268,  -0.00017,   0.00039,   0.00006,86538732.49534,   0.00000,274640135.82653,   0.00000,   0.00000,   0.00000,-388101403.33119,   0.00000
-1946710.08544,89090014.95705,4504952.13488,  -0.00018,   0.00041,   0.00006,90416462.31216,   0.00000,274640135.82653,   0.00000,   0.00000,   0.00000,-384223673.51437,   0.00000
-2298340.96474,92754110.64142,4637450.72709,  -0.00019,   0.00043,   0.00006,94267204.43476,   0.00000,274640135.82653,   0.00000,   0.00000,   0.00000,-380372931.39177,   0.00000
-2700932.84105,96367245.32879,4769949.31929,  -0.00020,   0.00044,   0.00006,98094238.96288,   0.00000,274640135.82653,   0.00000,   0.00000,   0.00000,-376545896.86365,   0.00000
-3083140.31856,99959995.61735,4892255.71209,  -0.00021,   0.00046,   0.00006,101889644.56035,   0.00000,274640135.82653,   0.00000,   0.00000,   0.00000,-372750491.26618,   0.00000
-3536693.19187,103522169.30772,5004369.90549,  -0.00022,   0.00048,   0.00007,105691083.08065,   0.00000,274640135.82653,   0.00000,   0.00000,   0.00000,-368949052.74588,   0.00000
-3969861.66637,107063958.59929,5106291.89949,  -0.00023,   0.00049,   0.00007,109460964.67957,   0.00000,274640135.82653,   0.00000,   0.00000,   0.00000,-365179171.14696,   0.00000
-4453991.13788,110554786.89385,5208213.89350,  -0.00024,   0.00051,   0.00007,113207709.36274,   0.00000,274640135.82653,   0.00000,   0.00000,   0.00000,-361432426.46379,   0.00000
-4902447.91149,114060903.48752,5310135.88750,  -0.00024,   0.00053,   0.00007,116951673.64099,   0.00000,274640135.82653,   0.00000,   0.00000,   0.00000,-357688462.18554,   0.00000
-5417153.98120,117480386.38628,5391673.48270,  -0.00025,   0.00055,   0.00007,120642473.92350,   0.00000,274640135.82653,   0.00000,   0.00000,   0.00000,-353997661.90303,   0.00000
-5967532.74881,120884580.98594,5473211.07790,  -0.00026,   0.00056,   0.00007,124338023.87695,   0.00000,274640135.82653,   0.00000,   0.00000,   0.00000,-350302111.94958,   0.00000
-6497527.11762,124268391.18681,5554748.67310,  -0.00027,   0.00058,   0.00007,128003335.29586,   0.00000,274640135.82653,   0.00000,   0.00000,   0.00000,-346636800.53067,   0.00000
-7063194.18433,127636913.08857,5615901.86950,  -0.00028,   0.00059,   0.00007,131670838.29961,   0.00000,274640135.82653,   0.00000,   0.00000,   0.00000,-342969297.52692,   0.00000
-7659437.84924,130934089.59453,5677055.06591,  -0.00029,   0.00061,   0.00007,135284778.11777,   0.00000,274640135.82653,   0.00000,   0.00000,   0.00000,-339355357.70876,   0.00000
-8255681.51415,134231266.10049,5738208.26231,  -0.00030,   0.00063,   0.00007,138899750.75772,   0.00000,274640135.82653,   0.00000,   0.00000,   0.00000,-335740385.06881,   0.00000
-8902886.17607,137477481.60945,5789169.25931,  -0.00031,   0.00064,   0.00008,142491435.33778,   0.00000,274640135.82653,   0.00000,   0.00000,   0.00000,-332148700.48875,   0.00000
-9529706.43918,140703312.71961,5829938.05691,  -0.00032,   0.00066,   0.00008,146051577.57987,   0.00000,274640135.82653,   0.00000,   0.00000,   0.00000,-328588558.24666,   0.00000
-10192199.40019,143913855.53067,5870706.85451,  -0.00033,   0.00067,   0.00008,149617088.09908,   0.00000,274640135.82653,   0.00000,   0.00000,   0.00000,-325023047.72745,   0.00000
-10869980.66030,147088725.64383,5901283.45271,  -0.00034,   0.00069,   0.00008,153155400.60130,   0.00000,274640135.82653,   0.00000,   0.00000,   0.00000,-321484735.22523,   0.00000
-11563050.21951,150227923.05909,5921667.85151,  -0.00035,   0.00071,   0.00008,156666602.90618,   0.00000,274640135.82653,   0.00000,   0.00000,   0.00000,-317973532.92035,   0.00000
-12271408.07783,153331447.77644,5942052.25031,  -0.00035,   0.00072,   0.00008,160151918.67442,   0.00000,274640135.82653,   0.00000,   0.00000,   0.00000,-314488217.15211,   0.00000
-13015438.63404,156419684.19470,5952244.44971,  -0.00036,   0.00074,   0.00008,163641919.10744,   0.00000,274640135.82653,   0.00000,   0.00000,   0.00000,-310998216.71909,   0.00000
-13774757.48936,159472247.91506,5952244.44971,  -0.00037,   0.00075,   0.00008,167105119.55728,   0.00000,274640135.82653,   0.00000,   0.00000,   0.00000,-307535016.26925,   0.00000
-14513691.94587,162504427.23661,5952244.44971,  -0.00038,   0.00077,   0.00008,170537863.72568,   0.00000,274640135.82653,   0.00000,   0.00000,   0.00000,-304102272.10085,   0.00000
-15288299.10028,165521318.25907,5942052.25031,  -0.00039,   0.00078,   0.00008,173975579.50314,   0.00000,274640135.82653,   0.00000,   0.00000,   0.00000,-300664556.32339,   0.00000
-16093482.85290,168466863.88573,5931860.05091,  -0.00040,   0.00080,   0.00008,177360829.64974,   0.00000,274640135.82653,   0.00000,   0.00000,   0.00000,-297279306.17679,   0.00000
-16934339.30341,171397121.21328,5911475.65211,  -0.00041,   0.00081,   0.00008,180751427.78759,   0.00000,274640135.82653,   0.00000,   0.00000,   0.00000,-293888708.03894,   0.00000
-17739523.05603,174342666.83993,5880899.05391,  -0.00042,   0.00083,   0.00008,184137358.61638,   0.00000,274640135.82653,   0.00000,   0.00000,   0.00000,-290502777.21014,   0.00000
-18610956.10475,177201578.77169,5850322.45571,  -0.00043,   0.00084,   0.00008,187476230.03738,   0.00000,274640135.82653,   0.00000,   0.00000,   0.00000,-287163905.78915,   0.00000
-19446716.45556,180075779.00254,5809553.65811,  -0.00044,   0.00086,   0.00008,190810367.43367,   0.00000,274640135.82653,   0.00000,   0.00000,   0.00000,-283829768.39286,   0.00000
-20333437.80338,182899018.23639,5758592.66111,  -0.00045,   0.00087,   0.00007,194123541.96402,   0.00000,274640135.82653,   0.00000,   0.00000,   0.00000,-280516593.86251,   0.00000
-21220159.15119,185722257.47025,5707631.66411,  -0.00046,   0.00089,   0.00007,197438190.61499,   0.00000,274640135.82653,   0.00000,   0.00000,   0.00000,-277201945.21153,   0.00000
-22122168.79811,188509824.00620,5646478.46770,  -0.00047,   0.00090,   0.00007,200726775.50144,   0.00000,274640135.82653,   0.00000,   0.00000,   0.00000,-273913360.32509,   0.00000
-23039466.74413,191261717.84425,5575133.07190,  -0.00048,   0.00092,   0.00007,203989401.81929,   0.00000,274640135.82653,   0.00000,   0.00000,   0.00000,-270650734.00724,   0.00000
-24007725.68715,193962650.68530,5503787.67610,  -0.00049,   0.00093,   0.00007,207232617.85031,   0.00000,274640135.82653,   0.00000,   0.00000,   0.00000,-267407517.97622,   0.00000
-24940311.93226,196678871.82545,5422250.08090,  -0.00050,   0.00094,   0.00007,210470978.00752,   0.00000,274640135.82653,   0.00000,   0.00000,   0.00000,-264169157.81901,   0.00000
-25888186.47648,199359420.26770,5340712.48570,  -0.00051,   0.00096,   0.00007,213684346.93681,   0.00000,274640135.82653,   0.00000,   0.00000,   0.00000,-260955788.88972,   0.00000
-26887022.01770,201989007.71295,5248982.69110,  -0.00052,   0.00097,   0.00007,216877867.80911,   0.00000,274640135.82653,   0.00000,   0.00000,   0.00000,-257762268.01742,   0.00000
-27885857.55892,204618595.15820,5147060.69710,  -0.00053,   0.00099,   0.00007,220072334.10008,   0.00000,274640135.82653,   0.00000,   0.00000,   0.00000,-254567801.72645,   0.00000
-28864308.70134,207227798.20464,5045138.70309,  -0.00054,   0.00100,   0.00007,223236099.40605,   0.00000,274640135.82653,   0.00000,   0.00000,   0.00000,-251404036.42048,   0.00000
-29893720.84075,209786040.25409,4933024.50969,  -0.00055,   0.00101,   0.00006,226380446.91907,   0.00000,274640135.82653,   0.00000,   0.00000,   0.00000,-248259688.90746,   0.00000
-30923132.98017,212344282.30354,4810718.11689,  -0.00055,   0.00103,   0.00006,229525845.79077,   0.00000,274640135.82653,   0.00000,   0.00000,   0.00000,-245114290.03576,   0.00000
-31967833.41869,214866851.65509,4688411.72409,  -0.00056,   0.00104,   0.00006,232646679.85606,   0.00000,274640135.82653,   0.00000,   0.00000,   0.00000,-241993455.97047,   0.00000
-33027822.15631,217353748.30873,4555913.13188,  -0.00057,   0.00105,   0.00006,235742399.49103,   0.00000,274640135.82653,   0.00000,   0.00000,   0.00000,-238897736.33550,   0.00000
-34087810.89393,219840644.96238,4413222.34028,  -0.00058,   0.00107,   0.00006,238839284.78282,   0.00000,274640135.82653,   0.00000,   0.00000,   0.00000,-235800851.04371,   0.00000
-35163087.93065,222291868.91812,4270531.54868,  -0.00059,   0.00108,   0.00006,241911757.86243,   0.00000,274640135.82653,   0.00000,   0.00000,   0.00000,-232728377.96410,   0.00000
-36253653.26647,224707420.17597,4117648.55768,  -0.00060,   0.00109,   0.00005,244959347.73693,   0.00000,274640135.82653,   0.00000,   0.00000,   0.00000,-229680788.08960,   0.00000
-37344218.60229,227122971.43381,3964765.56667,  -0.00061,   0.00111,   0.00005,248008715.18711,   0.00000,274640135.82653,   0.00000,   0.00000,   0.00000,-226631420.63942,   0.00000
-38450072.23721,229502849.99376,3801690.37627,  -0.00062,   0.00112,   0.00005,251033316.35534,   0.00000,274640135.82653,   0.00000,   0.00000,   0.00000,-223606819.47119,   0.00000
-39555925.87213,231882728.55370,3628422.98647,  -0.00063,   0.00113,   0.00005,254059251.85853,   0.00000,274640135.82653,   0.00000,   0.00000,   0.00000,-220580883.96800,   0.00000
-40677067.80615,234226934.41574,3455155.59666,  -0.00064,   0.00115,   0.00004,257061004.13122,   0.00000,274640135.82653,   0.00000,   0.00000,   0.00000,-217579131.69531,   0.00000
-41849170.73718,236520179.28079,3271696.00746,  -0.00065,   0.00116,   0.00004,260045060.80333,   0.00000,274640135.82653,   0.00000,   0.00000,   0.00000,-214595075.02319,   0.00000
-43000889.26940,238793039.74703,3078044.21886,  -0.00066,   0.00117,   0.00004,262997962.80331,   0.00000,274640135.82653,   0.00000,   0.00000,   0.00000,-211642173.02322,   0.00000
-44152607.80162,241065900.21327,2884392.43025,  -0.00067,   0.00118,   0.00004,265952755.81737,   0.00000,274640135.82653,   0.00000,   0.00000,   0.00000,-208687380.00916,   0.00000
-45319614.63294,243303087.98161,2680548.44225,  -0.00068,   0.00120,   0.00003,268883280.06414,   0.00000,274640135.82653,   0.00000,   0.00000,   0.00000,-205756855.76239,   0.00000
-46522294.16216,245524987.45085,2466512.25485,  -0.00069,   0.00121,   0.00003,271822515.72545,   0.00000,274640135.82653,   0.00000,   0.00000,   0.00000,-202817620.10108,   0.00000
-47704589.29258,247726502.52130,2252476.06744,  -0.00070,   0.00122,   0.00003,274730886.31600,   0.00000,274640135.82653,   0.00000,   0.00000,   0.00000,-199909249.51052,   0.00000
-48902172.72211,249892344.89384,2038439.88004,  -0.00071,   0.00123,   0.00003,277615473.01411,   0.00000,274640135.82653,   0.00000,   0.00000,   0.00000,-197024662.81242,   0.00000
-50099756.15163,252058187.26638,1804019.29383,  -0.00072,   0.00124,   0.00002,280501573.09607,   0.00000,274640135.82653,   0.00000,   0.00000,   0.00000,-194138562.73046,   0.00000
-51348300.57815,254173068.64191,1569598.70763,  -0.00073,   0.00126,   0.00002,283371386.77523,   0.00000,274640135.82653,   0.00000,   0.00000,   0.00000,-191268749.05130,   0.00000
-52561172.30678,256303238.31655,1335178.12142,  -0.00074,   0.00127,   0.00002,286235870.53268,   0.00000,274640135.82653,   0.00000,   0.00000,   0.00000,-188404265.29385,   0.00000
-53789332.33450,258397735.29329,1080373.13642,  -0.00075,   0.00128,   0.00001,289076503.98157,   0.00000,274640135.82653,   0.00000,   0.00000,   0.00000,-185563631.84496,   0.00000
-55032780.66132,260456559.57213,825568.15142,  -0.00076,   0.00129,   0.00001,291893678.88757,   0.00000,274640135.82653,   0.00000,   0.00000,   0.00000,-182746456.93896,   0.00000
-56276228.98814,262515383.85097,570763.16641,  -0.00077,   0.00130,   0.00001,294712900.75908,   0.00000,274640135.82653,   0.00000,   0.00000,   0.00000,-179927235.06745,   0.00000
-57534965.61407,264538535.43191,305765.98201,  -0.00078,   0.00132,   0.00000,297508663.76435,   0.00000,274640135.82653,   0.00000,   0.00000,   0.00000,-177131472.06218,   0.00000
-58793702.23999,266561687.01284,30576.59820,  -0.00079,   0.00133,   0.00000,300306482.89011,   0.00000,274640135.82653,   0.00000,   0.00000,   0.00000,-174333652.93642,   0.00000
-60067727.16501,268549165.89588,-244612.78560,  -0.00080,   0.00134,  -0.00000,303081018.67952,   0.00000,274640135.82653,   0.00000,   0.00000,   0.00000,-171559117.14701,   0.00000
-61357040.38914,270500972.08102,-529994.36881,  -0.00081,   0.00135,  -0.00001,305832379.01416,   0.00000,274640135.82653,   0.00000,   0.00000,   0.00000,-168807756.81237,   0.00000
-62646353.61326,272452778.26615,-825568.15142,  -0.00082,   0.00136,  -0.00001,308585968.22357,   0.00000,274640135.82653,   0.00000,   0.00000,   0.00000,-166054167.60296,   0.00000
-63950955.13649,274368911.75339,-1121141.93402,  -0.00083,   0.00137,  -0.00001,311316477.62961,   0.00000,274640135.82653,   0.00000,   0.00000,   0.00000,-163323658.19692,   0.00000
-65219883.96181,276300333.53973,-1426907.91603,  -0.00084,   0.00138,  -0.00002,314041225.74724,   0.00000,274640135.82653,   0.00000,   0.00000,   0.00000,-160598910.07929,   0.00000
-66539773.78413,278180794.32906,-1732673.89803,  -0.00085,   0.00140,  -0.00002,316750989.62915,   0.00000,274640135.82653,   0.00000,   0.00000,   0.00000,-157889146.19738,   0.00000
-67874951.90556,280025582.42049,-2058824.27884,  -0.00085,   0.00141,  -0.00003,319438217.99758,   0.00000,274640135.82653,   0.00000,   0.00000,   0.00000,-155201917.82895,   0.00000
-69174457.32908,281885658.81103,-2374782.46024,  -0.00086,   0.00142,  -0.00003,322119289.14985,   0.00000,274640135.82653,   0.00000,   0.00000,   0.00000,-152520846.67668,   0.00000
-70509635.45051,283730446.90246,-2700932.84105,  -0.00087,   0.00143,  -0.00004,324811007.63794,   0.00000,274640135.82653,   0.00000,   0.00000,   0.00000,-149829128.18859,   0.00000
-71824429.17313,285554850.59510,-3037275.42126,  -0.00088,   0.00144,  -0.00004,327471847.02200,   0.00000,274640135.82653,   0.00000,   0.00000,   0.00000,-147168288.80453,   0.00000
-73154511.19486,287343581.58983,-3383810.20086,  -0.00089,   0.00145,  -0.00004,330110203.05292,   0.00000,274640135.82653,   0.00000,   0.00000,   0.00000,-144529932.77361,   0.00000
-74484593.21658,289132312.58456,-3730344.98047,  -0.00090,   0.00146,  -0.00005,332750804.53214,   0.00000,274640135.82653,   0.00000,   0.00000,   0.00000,-141889331.29439,   0.00000
-75829963.53741,290885370.88140,-4087071.95948,  -0.00091,   0.00147,  -0.00005,335369083.10397,   0.00000,274640135.82653,   0.00000,   0.00000,   0.00000,-139271052.72256,   0.00000
-77190622.15733,292602756.48033,-4443798.93848,  -0.00092,   0.00148,  -0.00006,337964785.31588,   0.00000,274640135.82653,   0.00000,   0.00000,   0.00000,-136675350.51065,   0.00000
-78551280.77726,294320142.07926,-4810718.11689,  -0.00093,   0.00149,  -0.00006,340563214.23573,   0.00000,274640135.82653,   0.00000,   0.00000,   0.00000,-134076921.59080,   0.00000
-79876266.69928,296052815.97729,-5187829.49470,  -0.00094,   0.00150,  -0.00007,343155682.22102,   0.00000,274640135.82653,   0.00000,   0.00000,   0.00000,-131484453.60551,   0.00000
-81252213.61831,297734528.87832,-5564940.87250,  -0.00095,   0.00151,  -0.00007,345734388.14643,   0.00000,274640135.82653,   0.00000,   0.00000,   0.00000,-128905747.68010,   0.00000
-82607776.13853,299395857.38055,-5942052.25031,  -0.00096,   0.00152,  -0.00008,348281888.72424,   0.00000,274640135.82653,   0.00000,   0.00000,   0.00000,-126358247.10229,   0.00000
-83999011.35666,301041897.58368,-6339548.02692,  -0.00097,   0.00153,  -0.00008,350841630.07146,   0.00000,274640135.82653,   0.00000,   0.00000,   0.00000,-123798505.75507,   0.00000
-85354573.87688,302703226.08592,-6737043.80352,  -0.00098,   0.00154,  -0.00009,353394842.23157,   0.00000,274640135.82653,   0.00000,   0.00000,   0.00000,-121245293.59496,   0.00000
-86725424.69621,304328881.89025,-7134539.58013,  -0.00099,   0.00155,  -0.00009,355925728.39796,   0.00000,274640135.82653,   0.00000,   0.00000,   0.00000,-118714407.42857,   0.00000
-88111563.81463,305918864.99667,-7542227.55614,  -0.00100,   0.00156,  -0.00010,358434993.86011,   0.00000,274640135.82653,   0.00000,   0.00000,   0.00000,-116205141.96642,   0.00000
-89497702.93306,307508848.10310,-7960107.73155,  -0.00101,   0.00157,  -0.00010,360947303.59722,   0.00000,274640135.82653,   0.00000,   0.00000,   0.00000,-113692832.22931,   0.00000
-90863457.65269,309078446.81073,-8377987.90696,  -0.00102,   0.00158,  -0.00011,363428345.93189,   0.00000,274640135.82653,   0.00000,   0.00000,   0.00000,-111211789.89464,   0.00000
-92264885.07021,310632757.21926,-8806060.28176,  -0.00103,   0.00159,  -0.00011,365921650.91942,   0.00000,274640135.82653,   0.00000,   0.00000,   0.00000,-108718484.90711,   0.00000
-93645928.08894,312166683.22899,-9244324.85597,  -0.00103,   0.00160,  -0.00012,368384458.63171,   0.00000,274640135.82653,   0.00000,   0.00000,   0.00000,-106255677.19482,   0.00000
-95026971.10766,313700609.23872,-9682589.43018,  -0.00104,   0.00161,  -0.00013,370849664.71529,   0.00000,274640135.82653,   0.00000,   0.00000,   0.00000,-103790471.11124,   0.00000
-96423302.42549,315198862.55055,-10120854.00439,  -0.00105,   0.00162,  -0.00013,373292896.40845,   0.00000,274640135.82653,   0.00000,   0.00000,   0.00000,-101347239.41808,   0.00000
-97819633.74331,316697115.86237,-10569310.77800,  -0.00106,   0.00163,  -0.00014,375739365.53602,   0.00000,274640135.82653,   0.00000,   0.00000,   0.00000,-98900770.29051,   0.00000
-99231253.36024,318159696.47630,-11027959.75100,  -0.00107,   0.00164,  -0.00014,378164867.80795,   0.00000,274640135.82653,   0.00000,   0.00000,   0.00000,-96475268.01858,   0.00000
-100607200.27927,319637565.38933,-11496800.92341,  -0.00108,   0.00165,  -0.00015,380584224.32935,   0.00000,274640135.82653,   0.00000,   0.00000,   0.00000,-94055911.49718,   0.00000
-101998435.49739,321079761.60446,-11965642.09582,  -0.00109,   0.00166,  -0.00016,382981797.58536,   0.00000,274640135.82653,   0.00000,   0.00000,   0.00000,-91658338.24117,   0.00000
-103425343.41342,322506669.52048,-12434483.26823,  -0.00110,   0.00167,  -0.00016,385391444.78841,   0.00000,274640135.82653,   0.00000,   0.00000,   0.00000,-89248691.03812,   0.00000
-104816578.63154,323948865.73561,-12913516.64004,  -0.00111,   0.00168,  -0.00017,387794882.97478,   0.00000,274640135.82653,   0.00000,   0.00000,   0.00000,-86845252.85175,   0.00000
-106202717.74997,325335004.85404,-13402742.21125,  -0.00112,   0.00169,  -0.00017,390143877.09138,   0.00000,274640135.82653,   0.00000,   0.00000,   0.00000,-84496258.73515,   0.00000
-107609241.26720,326741528.37126,-13891967.78246,  -0.00113,   0.00170,  -0.00018,392529162.52632,   0.00000,274640135.82653,   0.00000,   0.00000,   0.00000,-82110973.30021,   0.00000
-108995380.38562,328127667.48969,-14391385.55307,  -0.00114,   0.00171,  -0.00019,394884153.87950,   0.00000,274640135.82653,   0.00000,   0.00000,   0.00000,-79755981.94703,   0.00000
-110396807.80315,329478133.91021,-14890803.32368,  -0.00114,   0.00171,  -0.00019,397217620.69875,   0.00000,274640135.82653,   0.00000,   0.00000,   0.00000,-77422515.12778,   0.00000
-111798235.22067,330828600.33074,-15400413.29369,  -0.00115,   0.00172,  -0.00020,399554727.24222,   0.00000,274640135.82653,   0.00000,   0.00000,   0.00000,-75085408.58431,   0.00000
-113199662.63820,332179066.75126,-15910023.26370,  -0.00116,   0.00173,  -0.00021,401894315.48805,   0.00000,274640135.82653,   0.00000,   0.00000,   0.00000,-72745820.33848,   0.00000
-114616378.35483,333493860.47389,-16429825.43310,  -0.00117,   0.00174,  -0.00021,404213736.95525,   0.00000,274640135.82653,   0.00000,   0.00000,   0.00000,-70426398.87128,   0.00000
-116012709.67265,334788269.79771,-16959819.80191,  -0.00118,   0.00175,  -0.00022,406503056.82581,   0.00000,274640135.82653,   0.00000,   0.00000,   0.00000,-68137079.00072,   0.00000
-117409040.99048,336082679.12153,-17489814.17072,  -0.00119,   0.00176,  -0.00023,408794906.96456,   0.00000,274640135.82653,   0.00000,   0.00000,   0.00000,-65845228.86197,   0.00000
-118805372.30830,337377088.44536,-18030000.73893,  -0.00120,   0.00177,  -0.00023,411090585.73283,   0.00000,274640135.82653,   0.00000,   0.00000,   0.00000,-63549550.09370,   0.00000
-120216991.92523,338635825.07128,-18570187.30714,  -0.00121,   0.00178,  -0.00024,413365072.28758,   0.00000,274640135.82653,   0.00000,   0.00000,   0.00000,-61275063.53895,   0.00000
-121592938.84426,339909849.99631,-19110373.87535,  -0.00122,   0.00178,  -0.00025,415631815.03997,   0.00000,274640135.82653,   0.00000,   0.00000,   0.00000,-59008320.78656,   0.00000
-122984174.06238,341148202.22343,-19670944.84236,  -0.00122,   0.00179,  -0.00026,417880211.36011,   0.00000,274640135.82653,   0.00000,   0.00000,   0.00000,-56759924.46642,   0.00000
-124375409.28051,342386554.45055,-20221323.60998,  -0.00123,   0.00180,  -0.00026,420129704.65055,   0.00000,274640135.82653,   0.00000,   0.00000,   0.00000,-54510431.17597,   0.00000
-125781932.79773,343589233.97977,-20792086.77639,  -0.00124,   0.00181,  -0.00027,422361109.57469,   0.00000,274640135.82653,   0.00000,   0.00000,   0.00000,-52279026.25184,   0.00000
-127188456.31496,344791913.50900,-21362849.94280,  -0.00125,   0.00182,  -0.00028,424595139.33052,   0.00000,274640135.82653,   0.00000,   0.00000,   0.00000,-50044996.49601,   0.00000
-128559307.13428,346009881.33732,-21933613.10921,  -0.00126,   0.00183,  -0.00029,426821243.83907,   0.00000,274640135.82653,   0.00000,   0.00000,   0.00000,-47818891.98746,   0.00000
-129945446.25271,347192176.46774,-22514568.47502,  -0.00127,   0.00183,  -0.00029,429027954.90460,   0.00000,274640135.82653,   0.00000,   0.00000,   0.00000,-45612180.92193,   0.00000
-131331585.37114,348374471.59816,-23095523.84083,  -0.00128,   0.00184,  -0.00030,431237219.05659,   0.00000,274640135.82653,   0.00000,   0.00000,   0.00000,-43402916.76994,   0.00000
-132697340.09076,349536382.32978,-23686671.40604,  -0.00129,   0.00185,  -0.00031,433416647.17262,   0.00000,274640135.82653,   0.00000,   0.00000,   0.00000,-41223488.65391,   0.00000
-134098767.50829,350683004.76231,-24288011.17065,  -0.00129,   0.00186,  -0.00032,435610985.23908,   0.00000,274640135.82653,   0.00000,   0.00000,   0.00000,-39029150.58744,   0.00000
-135479810.52701,351809242.79603,-24889350.93526,  -0.00130,   0.00186,  -0.00032,437773927.16189,   0.00000,274640135.82653,   0.00000,   0.00000,   0.00000,-36866208.66464,   0.00000
-136860853.54574,352935480.82975,-25490690.69987,  -0.00131,   0.00187,  -0.00033,439939454.87055,   0.00000,274640135.82653,   0.00000,   0.00000,   0.00000,-34700680.95598,   0.00000
-138206223.86656,354077007.16257,-26102222.66388,  -0.00132,   0.00188,  -0.00034,442098531.45940,   0.00000,274640135.82653,   0.00000,   0.00000,   0.00000,-32541604.36713,   0.00000
-139566882.48649,355182860.79749,-26723946.82730,  -0.00133,   0.00189,  -0.00035,444238732.98882,   0.00000,274640135.82653,   0.00000,   0.00000,   0.00000,-30401402.83771,   0.00000
-140942829.40551,356253041.73451,-27345670.99071,  -0.00134,   0.00190,  -0.00036,446358353.52114,   0.00000,274640135.82653,   0.00000,   0.00000,   0.00000,-28281782.30539,   0.00000
-142303488.02544,357358895.36943,-27967395.15412,  -0.00134,   0.00190,  -0.00036,448503740.97322,   0.00000,274640135.82653,   0.00000,   0.00000,   0.00000,-26136394.85331,   0.00000
-143643762.24656,358444364.60555,-28599311.51693,  -0.00135,   0.00191,  -0.00037,450619520.10046,   0.00000,274640135.82653,   0.00000,   0.00000,   0.00000,-24020615.72607,   0.00000
-145034997.46469,359478872.84467,-29241420.07914,  -0.00136,   0.00192,  -0.00038,452727743.64692,   0.00000,274640135.82653,   0.00000,   0.00000,   0.00000,-21912392.17961,   0.00000
-146354887.28701,360543957.68199,-29883528.64135,  -0.00137,   0.00193,  -0.00039,454816605.45161,   0.00000,274640135.82653,   0.00000,   0.00000,   0.00000,-19823530.37492,   0.00000
-147710449.80724,361593754.22021,-30525637.20357,  -0.00138,   0.00193,  -0.00040,456919073.50944,   0.00000,274640135.82653,   0.00000,   0.00000,   0.00000,-17721062.31709,   0.00000
-149045627.92866,362623166.35963,-31177937.96518,  -0.00139,   0.00194,  -0.00041,458992101.20019,   0.00000,274640135.82653,   0.00000,   0.00000,   0.00000,-15648034.62634,   0.00000
-150380806.05009,363652578.49905,-31840430.92619,  -0.00139,   0.00195,  -0.00041,461069833.84175,   0.00000,274640135.82653,   0.00000,   0.00000,   0.00000,-13570301.98478,   0.00000
-151715984.17151,364681990.63847,-32502923.88720,  -0.00140,   0.00196,  -0.00042,463150193.19024,   0.00000,274640135.82653,   0.00000,   0.00000,   0.00000,-11489942.63629,   0.00000
-153030777.89414,365691018.37908,-33165416.84822,  -0.00141,   0.00196,  -0.00043,465199049.37738,   0.00000,274640135.82653,   0.00000,   0.00000,   0.00000,-9441086.44915,   0.00000
-154396532.61376,366649085.12270,-33838102.00863,  -0.00142,   0.00197,  -0.00044,467241093.84349,   0.00000,274640135.82653,   0.00000,   0.00000,   0.00000,-7399041.98304,   0.00000
-155675653.63849,367673401.16242,-34510787.16904,  -0.00143,   0.00198,  -0.00045,469286074.16227,   0.00000,274640135.82653,   0.00000,   0.00000,   0.00000,-5354061.66426,   0.00000
-157005735.66021,368646756.20514,-35193664.52885,  -0.00143,   0.00198,  -0.00046,471324377.80834,   0.00000,274640135.82653,   0.00000,   0.00000,   0.00000,-3315758.01819,   0.00000
-158315433.28314,369599726.84906,-35876541.88867,  -0.00144,   0.00199,  -0.00047,473331230.92992,   0.00000,274640135.82653,   0.00000,   0.00000,   0.00000,-1308904.89661,   0.00000
-159148376.23211,370235911.62110,-36322527.08969,  -0.00145,   0.00199,  -0.00047,474640135.25100,   0.00000,274640135.82653,   0.00000,   0.00000,   0.00000,  -0.57553,   0.00000
-159338412.15190,370047617.02372,-36513592.32376,  -0.00145,   0.00200,  -0.00048,474640135.25100,   0.00000,274643544.85483,  -0.00000,   0.00000,  -0.00000,   0.81110,   1.00000
-159916231.47555,369482898.06806,-37050649.73177,  -0.00146,   0.00200,  -0.00048,476635276.17018,   0.00001,274652902.28172,  -0.00001,   0.00001,  -0.00000,   0.00000,   2.00000
-160435254.48654,368959093.56408,-37594338.69448,  -0.00146,   0.00201,  -0.00049,476660832.21752,   0.00002,274662335.33165,  -0.00001,   0.00002,  -0.00000,   0.00000,   2.00000
-160975314.87370,368416601.83663,-38137359.80391,  -0.00147,   0.00202,  -0.00050,476650166.48647,   0.00003,274671673.50847,  -0.00002,   0.00003,  -0.00001,   0.00000,   2.00000
-161512607.65513,367874265.96547,-38677917.30138,  -0.00148,   0.00202,  -0.00051,476662063.26997,   0.00004,274681023.25331,  -0.00003,   0.00004,  -0.00001,   0.00000,   2.00000
-162038754.10514,367335071.88106,-39228773.63959,  -0.00149,   0.00203,  -0.00052,476642377.16837,   0.00005,274690236.15021,  -0.00003,   0.00004,  -0.00001,  -0.00000,   2.00000
-162561222.17076,366794090.63236,-39787091.46437,  -0.00149,   0.00204,  -0.00053,476656742.81662,   0.00005,274699472.79964,  -0.00004,   0.00005,  -0.00001,  -0.00000,   2.00000
-163080969.34060,366253186.06515,-40342891.53103,  -0.00150,   0.00204,  -0.00054,476668619.59939,   0.00006,274708721.38901,  -0.00005,   0.00006,  -0.00002,   0.00000,   2.00000
-163590655.31531,365717097.65379,-40899113.84151,  -0.00151,   0.00205,  -0.00055,476646393.21164,   0.00007,274717821.68681,  -0.00005,   0.00007,  -0.00002,   0.00000,   2.00000
-164097700.04730,365181070.65205,-41452858.01202,  -0.00152,   0.00206,  -0.00056,476658096.58139,   0.00008,274726933.75276,  -0.00006,   0.00008,  -0.00002,   0.00000,   2.00000
-164600052.44306,364641164.07567,-42023952.97853,  -0.00152,   0.00206,  -0.00057,476675203.28692,   0.00009,274736082.89690,  -0.00006,   0.00008,  -0.00002,  -0.00000,   2.00000
-165093516.04451,364107888.51532,-42585630.20555,  -0.00153,   0.00207,  -0.00058,476650229.71167,   0.00010,274745071.33153,  -0.00007,   0.00009,  -0.00002,  -0.00000,   2.00000
-165583339.05050,363572608.56704,-43154723.59801,  -0.00154,   0.00208,  -0.00059,476664615.95156,   0.00010,274754084.64978,  -0.00008,   0.00010,  -0.00003,  -0.00000,   2.00000
-166094389.55431,363018057.38172,-43723343.51885,  -0.00155,   0.00208,  -0.00060,476653978.95420,   0.00011,274763005.26687,  -0.00008,   0.00011,  -0.00003,   0.00000,   2.00000
-166570666.02348,362485265.82262,-44300438.57185,  -0.00155,   0.00209,  -0.00061,476656681.25679,   0.00012,274771896.22255,  -0.00009,   0.00011,  -0.00003,   0.00000,   2.00000
-167044403.25549,361952418.49227,-44874996.17040,  -0.00156,   0.00210,  -0.00062,476668281.99255,   0.00013,274780799.43190,  -0.00009,   0.00012,  -0.00003,   0.00000,   2.00000
-167514483.60068,361417411.58027,-45456894.02255,  -0.00157,   0.00210,  -0.00063,476682801.10243,   0.00014,274789728.52946,  -0.00010,   0.00013,  -0.00004,   0.00000,   2.00000
-167974904.47756,360886730.65355,-46039512.78889,  -0.00158,   0.00211,  -0.00064,476660412.42416,   0.00014,274798510.12647,  -0.00011,   0.00014,  -0.00004,  -0.00000,   2.00000
-168432845.11941,360355956.62965,-46619588.78160,  -0.00158,   0.00211,  -0.00065,476671924.85184,   0.00015,274807304.07066,  -0.00011,   0.00015,  -0.00004,   0.00000,   2.00000
-168880062.69687,359827219.56119,-47210357.01834,  -0.00159,   0.00212,  -0.00066,476652420.34261,   0.00016,274815964.70903,  -0.00012,   0.00015,  -0.00004,  -0.00000,   2.00000
-169355752.33539,359274480.65330,-47797373.34451,  -0.00160,   0.00213,  -0.00067,476675784.24559,   0.00017,274824693.92359,  -0.00012,   0.00016,  -0.00005,  -0.00000,   2.00000
-169765891.51368,358767131.72300,-48394091.94951,  -0.00160,   0.00213,  -0.00068,476666531.73056,   0.00018,274833338.23121,  -0.00013,   0.00017,  -0.00005,   0.00000,   2.00000
-170228461.46577,358216043.88826,-48989271.31009,  -0.00161,   0.00214,  -0.00069,476667853.79899,   0.00018,274841947.73197,  -0.00014,   0.00018,  -0.00005,  -0.00000,   2.00000
-170633792.91269,357708401.05606,-49580829.38428,  -0.00162,   0.00214,  -0.00070,476689343.60434,   0.00019,274850617.16932,  -0.00014,   0.00018,  -0.00005,  -0.00000,   2.00000
-171083321.57800,357158758.52402,-50184272.57246,  -0.00162,   0.00215,  -0.00071,476659968.06307,   0.00020,274859107.62290,  -0.00015,   0.00019,  -0.00006,  -0.00000,   2.00000
-171475675.96302,356652597.19571,-50784067.92440,  -0.00163,   0.00215,  -0.00072,476681284.87703,   0.00021,274867657.75990,  -0.00015,   0.00020,  -0.00006,   0.00000,   2.00000
-171889664.15814,356126367.12055,-51383652.70123,  -0.00164,   0.00216,  -0.00073,476670664.40056,   0.00022,274876117.46628,  -0.00016,   0.00021,  -0.00006,   0.00000,   2.00000
-172300012.33978,355597538.38874,-51990463.24328,  -0.00164,   0.00217,  -0.00074,476685280.42308,   0.00022,274884605.58071,  -0.00017,   0.00021,  -0.00006,   0.00000,   2.00000
-172677247.13344,355092363.47388,-52596003.39287,  -0.00165,   0.00217,  -0.00075,476684532.49632,   0.00023,274893049.85074,  -0.00017,   0.00022,  -0.00007,   0.00000,   2.00000
-173076171.69468,354566954.04820,-53201399.23269,  -0.00166,   0.00218,  -0.00076,476673924.30559,   0.00024,274901404.26046,  -0.00018,   0.00023,  -0.00007,  -0.00000,   2.00000
-173471450.87980,354038834.34129,-53813987.54728,  -0.00166,   0.00218,  -0.00077,476688583.59325,   0.00025,274909787.77056,  -0.00018,   0.00023,  -0.00007,  -0.00000,   2.00000
-173857604.12576,353514282.22229,-54427842.76460,  -0.00167,   0.00219,  -0.00078,476665909.58750,   0.00025,274918025.11899,  -0.00019,   0.00024,  -0.00007,   0.00000,   2.00000
-174216211.72795,353007008.83519,-55046342.45395,  -0.00168,   0.00219,  -0.00079,476702350.85044,   0.00026,274926394.25596,  -0.00019,   0.00025,  -0.00008,   0.00000,   2.00000
-174565840.63082,352503163.05202,-55666168.76908,  -0.00168,   0.00220,  -0.00080,476679677.87843,   0.00027,274934617.28569,  -0.00020,   0.00026,  -0.00008,  -0.00000,   2.00000
-174937242.89128,351978773.17997,-56285952.76899,  -0.00169,   0.00220,  -0.00081,476669084.17576,   0.00028,274942751.59579,  -0.00021,   0.00026,  -0.00008,   0.00000,   2.00000
-175282546.23880,351474265.19947,-56900553.38537,  -0.00169,   0.00221,  -0.00082,476701828.98433,   0.00028,274951000.82190,  -0.00021,   0.00027,  -0.00008,   0.00000,   2.00000
-175617504.05387,350970453.05734,-57526357.10797,  -0.00170,   0.00222,  -0.00083,476682729.59160,   0.00029,274959121.29184,  -0.00022,   0.00028,  -0.00009,  -0.00000,   2.00000
-175974276.68849,350445933.24925,-58152183.20431,  -0.00171,   0.00222,  -0.00085,476672158.36047,   0.00030,274967153.64667,  -0.00022,   0.00028,  -0.00009,   0.00000,   2.00000
-176272832.89096,349962611.20687,-58783945.17937,  -0.00171,   0.00223,  -0.00086,476696254.90328,   0.00031,274975260.80212,  -0.00023,   0.00029,  -0.00009,  -0.00000,   2.00000
-176594845.77789,349461128.91007,-59406074.32786,  -0.00172,   0.00223,  -0.00087,476681905.31367,   0.00031,274983262.16910,  -0.00023,   0.00030,  -0.00010,   0.00000,   2.00000
-176913284.93876,348956535.13612,-60035293.29737,  -0.00172,   0.00224,  -0.00088,476696663.25757,   0.00032,274991294.71782,  -0.00024,   0.00030,  -0.00010,   0.00000,   2.00000
-177221410.69723,348452208.13094,-60675856.31619,  -0.00173,   0.00224,  -0.00089,476677713.16127,   0.00033,274999200.27878,  -0.00024,   0.00031,  -0.00010,   0.00000,   2.00000
-177505198.94927,347970652.73424,-61301362.04270,  -0.00174,   0.00225,  -0.00090,476706191.76638,   0.00034,275007201.76149,  -0.00025,   0.00032,  -0.00010,   0.00000,   2.00000
-177778790.30589,347489213.49248,-61938299.98841,  -0.00174,   0.00225,  -0.00091,476687244.73265,   0.00034,275015076.40458,  -0.00025,   0.00032,  -0.00011,  -0.00000,   2.00000
-178072756.10007,346983851.61399,-62585058.82239,  -0.00175,   0.00226,  -0.00092,476680685.36887,   0.00035,275022882.91037,  -0.00026,   0.00033,  -0.00011,   0.00000,   2.00000
-178342476.41233,346501416.02730,-63216705.28299,  -0.00175,   0.00226,  -0.00093,476708905.64500,   0.00036,275030784.57823,  -0.00027,   0.00034,  -0.00011,  -0.00000,   2.00000
-178602001.11101,346018857.46160,-63859870.06587,  -0.00176,   0.00227,  -0.00095,476690071.61064,   0.00036,275038560.43395,  -0.00027,   0.00034,  -0.00012,  -0.00000,   2.00000
-178859659.85945,345535738.71507,-64500401.04759,  -0.00176,   0.00227,  -0.00096,476700861.07781,   0.00037,275046349.90300,  -0.00028,   0.00035,  -0.00012,  -0.00000,   2.00000
-179139349.97729,345031336.05422,-65141217.02361,  -0.00177,   0.00228,  -0.00097,476690327.01210,   0.00038,275054053.02780,  -0.00028,   0.00036,  -0.00012,   0.00000,   2.00000
-179384873.01070,344547356.52524,-65790706.82782,  -0.00177,   0.00228,  -0.00098,476692859.83441,   0.00038,275061731.42526,  -0.00029,   0.00036,  -0.00012,   0.00000,   2.00000
-179598039.91603,344086650.03485,-66439283.84350,  -0.00178,   0.00229,  -0.00099,476691158.00026,   0.00039,275069365.35030,  -0.00029,   0.00037,  -0.00013,   0.00000,   2.00000
-179809481.36250,343625300.13450,-67085231.13027,  -0.00179,   0.00229,  -0.00100,476701812.21586,   0.00040,275077012.90212,  -0.00030,   0.00038,  -0.00013,   0.00000,   2.00000
-180043079.83063,343142429.62102,-67731567.29728,  -0.00179,   0.00230,  -0.00101,476691251.08861,   0.00041,275084574.65622,  -0.00030,   0.00038,  -0.00013,  -0.00000,   2.00000
-180242608.49668,342679784.42959,-68386607.76897,  -0.00180,   0.00230,  -0.00103,476693774.70588,   0.00041,275092112.29562,  -0.00031,   0.00039,  -0.00014,   0.00000,   2.00000
-180440434.33956,342216455.20401,-69039003.94642,  -0.00180,   0.00230,  -0.00104,476704388.59680,   0.00042,275099663.82849,  -0.00031,   0.00040,  -0.00014,  -0.00000,   2.00000
-180636569.48598,341752463.92584,-69688759.64157,  -0.00181,   0.00231,  -0.00105,476714995.68794,   0.00043,275107229.15268,  -0.00032,   0.00040,  -0.00014,   0.00000,   2.00000
-180824401.88580,341290628.74009,-70340836.92349,  -0.00181,   0.00231,  -0.00106,476691993.95773,   0.00043,275114650.80716,  -0.00032,   0.00041,  -0.00015,   0.00000,   2.00000
-181008717.87105,340824973.37410,-70999782.38972,  -0.00182,   0.00232,  -0.00107,476707035.48994,   0.00044,275122107.63952,  -0.00033,   0.00041,  -0.00015,   0.00000,   2.00000
-181160899.46905,340382449.84968,-71657952.00277,  -0.00182,   0.00232,  -0.00108,476705090.81302,   0.00045,275129519.91645,  -0.00033,   0.00042,  -0.00015,  -0.00000,   2.00000
-181335351.21631,339918017.43737,-72316671.08588,  -0.00183,   0.00233,  -0.00109,476694557.07576,   0.00045,275136847.66274,  -0.00034,   0.00043,  -0.00015,   0.00000,   2.00000
-181477712.99649,339476685.48316,-72974681.07731,  -0.00183,   0.00233,  -0.00111,476692467.04888,   0.00046,275144130.79947,  -0.00034,   0.00043,  -0.00016,  -0.00000,   2.00000
-181618543.80824,339034585.08002,-73630080.76905,  -0.00184,   0.00234,  -0.00112,476702825.76407,   0.00047,275151427.82111,  -0.00035,   0.00044,  -0.00016,   0.00000,   2.00000
-181725454.13401,338612283.03769,-74294240.57466,  -0.00184,   0.00234,  -0.00113,476705420.10530,   0.00047,275158702.29038,  -0.00035,   0.00045,  -0.00016,   0.00000,   2.00000
-181885169.56738,338144038.59763,-74957076.64077,  -0.00185,   0.00234,  -0.00114,476707425.18290,   0.00048,275165951.60196,  -0.00036,   0.00045,  -0.00017,   0.00000,   2.00000
-181958598.41810,337743979.91222,-75617936.49005,  -0.00185,   0.00235,  -0.00115,476713625.38956,   0.00049,275173195.44693,  -0.00036,   0.00046,  -0.00017,   0.00000,   2.00000
-182078275.02414,337300311.31332,-76282851.39449,  -0.00185,   0.00235,  -0.00117,476682186.52327,   0.00049,275180257.74172,  -0.00037,   0.00046,  -0.00017,  -0.00000,   2.00000
-182172680.39340,336877219.65090,-76941801.93981,  -0.00186,   0.00236,  -0.00118,476713236.85573,   0.00050,275187431.78451,  -0.00037,   0.00047,  -0.00018,   0.00000,   2.00000
-182287423.92486,336428481.72567,-77610881.30803,  -0.00186,   0.00236,  -0.00119,476707655.04356,   0.00051,275194545.63194,  -0.00038,   0.00047,  -0.00018,   0.00000,   2.00000
-182339808.58810,336026437.08923,-78281438.17076,  -0.00187,   0.00237,  -0.00120,476692836.17293,   0.00051,275201556.31528,  -0.00038,   0.00048,  -0.00018,   0.00000,   2.00000
-182421314.89420,335599689.47597,-78947297.21529,  -0.00187,   0.00237,  -0.00121,476715561.94267,   0.00052,275208640.01950,  -0.00039,   0.00049,  -0.00019,   0.00000,   2.00000
-182471006.53571,335195827.72495,-79612625.55318,  -0.00188,   0.00237,  -0.00122,476713222.68455,   0.00053,275215679.10194,  -0.00039,   0.00049,  -0.00019,   0.00000,   2.00000
-182543149.29962,334769480.55592,-80278829.44243,  -0.00188,   0.00238,  -0.00124,476702654.62882,   0.00053,275222635.30678,  -0.00040,   0.00050,  -0.00019,  -0.00000,   2.00000
-182581369.55388,334362466.16944,-80953841.05777,  -0.00188,   0.00238,  -0.00125,476705401.18222,   0.00054,275229571.29973,  -0.00040,   0.00050,  -0.00020,   0.00000,   2.00000
-182590012.30057,333981732.52495,-81619102.17441,  -0.00189,   0.00239,  -0.00126,476697731.74256,   0.00055,275236438.44034,  -0.00041,   0.00051,  -0.00020,   0.00000,   2.00000
-182649457.50515,333551074.64165,-82292433.53168,  -0.00189,   0.00239,  -0.00127,476704907.09881,   0.00055,275243306.53338,  -0.00041,   0.00052,  -0.00020,   0.00000,   2.00000
-182646680.11579,333166883.25795,-82967510.92701,  -0.00190,   0.00239,  -0.00128,476689872.00810,   0.00056,275250071.66438,  -0.00042,   0.00052,  -0.00021,   0.00000,   2.00000
-182673157.67490,332757962.90614,-83637787.02795,  -0.00190,   0.00240,  -0.00130,476712395.88654,   0.00056,275256909.99153,  -0.00042,   0.00053,  -0.00021,  -0.00000,   2.00000
-182667947.68881,332371763.41028,-84307674.94569,  -0.00190,   0.00240,  -0.00131,476709855.64634,   0.00057,275263703.93857,  -0.00042,   0.00053,  -0.00021,   0.00000,   2.00000
-182652563.51288,331982753.77039,-84990054.49015,  -0.00191,   0.00240,  -0.00132,476692168.31904,   0.00058,275270382.90193,  -0.00043,   0.00054,  -0.00022,  -0.00000,   2.00000
-182614597.20333,331618177.98386,-85656950.08725,  -0.00191,   0.00241,  -0.00133,476717149.71986,   0.00058,275277146.90867,  -0.00043,   0.00054,  -0.00022,  -0.00000,   2.00000
-182596940.20331,331226987.96780,-86334134.36322,  -0.00192,   0.00241,  -0.00135,476712083.83040,   0.00059,275283855.09530,  -0.00044,   0.00055,  -0.00022,  -0.00000,   2.00000
-182573588.92517,330840213.56752,-87005582.94115,  -0.00192,   0.00242,  -0.00136,476683406.54212,   0.00059,275290397.36461,  -0.00044,   0.00055,  -0.00023,   0.00000,   2.00000
-182523188.25850,330470558.06027,-87679846.84271,  -0.00192,   0.00242,  -0.00137,476719243.43066,   0.00060,275297076.05509,  -0.00045,   0.00056,  -0.00023,   0.00000,   2.00000
-182464867.32600,330101463.26539,-88357612.34170,  -0.00193,   0.00242,  -0.00138,476696157.04129,   0.00061,275303615.10646,  -0.00045,   0.00057,  -0.00023,   0.00000,   2.00000
-182375015.86528,329754831.88307,-89035129.14251,  -0.00193,   0.00243,  -0.00139,476693416.47473,   0.00061,275310110.26770,  -0.00046,   0.00057,  -0.00024,   0.00000,   2.00000
-182314659.71018,329383447.05172,-89707717.08082,  -0.00193,   0.00243,  -0.00141,476715666.86973,   0.00062,275316678.55428,  -0.00046,   0.00058,  -0.00024,   0.00000,   2.00000
-182243981.54846,329008630.53702,-90393015.79545,  -0.00194,   0.00243,  -0.00142,476698368.21104,   0.00062,275323134.80952,  -0.00047,   0.00058,  -0.00024,   0.00000,   2.00000
-182144139.65309,328660077.09512,-91069043.44935,  -0.00194,   0.00244,  -0.00143,476689793.36827,   0.00063,275329520.32383,  -0.00047,   0.00059,  -0.00025,   0.00000,   2.00000
-182043339.18742,328310341.07141,-91742518.51664,  -0.00194,   0.00244,  -0.00144,476699417.56625,   0.00064,275335920.46747,  -0.00047,   0.00059,  -0.00025,   0.00000,   2.00000
-181908670.39196,327979027.10186,-92424872.54346,  -0.00195,   0.00244,  -0.00146,476702495.41019,   0.00064,275342304.56905,  -0.00048,   0.00060,  -0.00025,   0.00000,   2.00000
-181799047.94456,327628248.73813,-93099599.71920,  -0.00195,   0.00245,  -0.00147,476685902.97803,   0.00065,275348580.84223,  -0.00048,   0.00060,  -0.00026,   0.00000,   2.00000
-181662542.75344,327294490.86708,-93776788.64532,  -0.00195,   0.00245,  -0.00148,476721723.63476,   0.00065,275354994.60675,  -0.00049,   0.00061,  -0.00026,   0.00000,   2.00000
-181518116.03396,326960768.46454,-94457863.74774,  -0.00195,   0.00245,  -0.00149,476698696.11600,   0.00066,275361270.34446,  -0.00049,   0.00061,  -0.00026,   0.00000,   2.00000
-181368218.80719,326631027.51193,-95133939.33317,  -0.00196,   0.00246,  -0.00150,476669485.74809,   0.00067,275367379.85787,  -0.00049,   0.00062,  -0.00027,   0.00000,   2.00000
-181222062.98983,326294789.49251,-95809881.31677,  -0.00196,   0.00246,  -0.00152,476717668.65911,   0.00067,275373685.35997,  -0.00050,   0.00062,  -0.00027,   0.00000,   2.00000
-181037373.40573,325981882.18528,-96492362.37723,  -0.00196,   0.00246,  -0.00153,476682209.18912,   0.00068,275379795.32454,  -0.00050,   0.00063,  -0.00027,   0.00000,   2.00000
-180851879.77786,325667626.22532,-97172296.66861,  -0.00197,   0.00247,  -0.00154,476691657.72619,   0.00068,275385920.38008,  -0.00051,   0.00063,  -0.00028,   0.00000,   2.00000
-180665594.70267,325352041.65990,-97849685.59078,  -0.00197,   0.00247,  -0.00155,476701102.91568,   0.00069,275392060.43684,  -0.00051,   0.00064,  -0.00028,   0.00000,   2.00000
-180471323.99867,325036147.71407,-98531245.24540,  -0.00197,   0.00247,  -0.00157,476678031.01533,   0.00069,275398063.62758,  -0.00052,   0.00064,  -0.00028,   0.00000,   2.00000
-180252897.34969,324741304.87927,-99206093.89548,  -0.00197,   0.00248,  -0.00158,476707493.41991,   0.00070,275404175.82227,  -0.00052,   0.00065,  -0.00029,   0.00000,   2.00000
-180057120.56880,324422682.85591,-99882612.73804,  -0.00198,   0.00248,  -0.00159,476696805.36870,   0.00070,275410209.10717,  -0.00052,   0.00065,  -0.00029,  -0.00000,   2.00000
-179822659.53922,324126945.60399,-100566038.03977,  -0.00198,   0.00248,  -0.00160,476661397.62331,   0.00071,275416048.48619,  -0.00053,   0.00066,  -0.00030,   0.00000,   2.00000
-179594797.47386,323828938.70351,-101240084.67837,  -0.00198,   0.00249,  -0.00162,476703004.98143,   0.00072,275422054.30669,  -0.00053,   0.00066,  -0.00030,   0.00000,   2.00000
-179358894.10251,323530362.56701,-101918520.72872,  -0.00198,   0.00249,  -0.00163,476679971.22857,   0.00072,275427924.12479,  -0.00054,   0.00067,  -0.00030,   0.00000,   2.00000
-179088980.39718,323249355.74455,-102605839.90767,  -0.00198,   0.00249,  -0.00164,476683501.24556,   0.00073,275433782.53210,  -0.00054,   0.00067,  -0.00031,  -0.00000,   2.00000
-178821060.77847,322971173.42158,-103281878.20829,  -0.00199,   0.00249,  -0.00165,476686172.56229,   0.00073,275439625.57833,  -0.00054,   0.00068,  -0.00031,   0.00000,   2.00000
-178552514.65529,322691547.91021,-103955415.30169,  -0.00199,   0.00250,  -0.00166,476695365.84242,   0.00074,275445483.76384,  -0.00055,   0.00068,  -0.00031,   0.00000,   2.00000
-178275868.18028,322411114.59160,-104633513.90427,  -0.00199,   0.00250,  -0.00168,476672356.47655,   0.00074,275451206.80075,  -0.00055,   0.00068,  -0.00032,  -0.00000,   2.00000
-177967864.79498,322152410.93471,-105311821.12079,  -0.00199,   0.00250,  -0.00169,476669245.72326,   0.00075,275456888.14725,  -0.00055,   0.00069,  -0.00032,   0.00000,   2.00000
-177659287.72583,321892173.99232,-105987642.49420,  -0.00199,   0.00251,  -0.00170,476678332.07712,   0.00075,275462584.89305,  -0.00056,   0.00069,  -0.00032,   0.00000,   2.00000
-177350150.00210,321630422.72979,-106660978.74382,  -0.00200,   0.00251,  -0.00171,476687416.31158,   0.00076,275468296.95285,  -0.00056,   0.00070,  -0.00033,  -0.00000,   2.00000
-177032835.35957,321367623.71757,-107339041.69015,  -0.00200,   0.00251,  -0.00173,476664446.89187,   0.00076,275473874.78356,  -0.00057,   0.00070,  -0.00033,  -0.00000,   2.00000
-176714952.85216,321103281.47379,-108014630.84685,  -0.00200,   0.00251,  -0.00174,476673451.96649,   0.00077,275479468.12879,  -0.00057,   0.00071,  -0.00033,   0.00000,   2.00000
-176365707.07928,320860516.79404,-108690506.83178,  -0.00200,   0.00252,  -0.00175,476670336.93297,   0.00077,275485020.38988,  -0.00057,   0.00071,  -0.00034,   0.00000,   2.00000
-176015960.03501,320616164.23181,-109363910.17038,  -0.00200,   0.00252,  -0.00176,476679322.43910,   0.00078,275490588.17923,  -0.00058,   0.00072,  -0.00034,   0.00000,   2.00000
-175657944.02780,320370521.03786,-110042198.75906,  -0.00200,   0.00252,  -0.00178,476656408.73192,   0.00078,275496022.72359,  -0.00058,   0.00072,  -0.00034,   0.00000,   2.00000
-175245509.88456,320169101.71710,-110716221.78247,  -0.00201,   0.00252,  -0.00179,476673079.79436,   0.00079,275501509.15227,  -0.00058,   0.00073,  -0.00035,   0.00000,   2.00000
-174886593.46530,319920143.89997,-111389586.82112,  -0.00201,   0.00253,  -0.00180,476674268.00021,   0.00079,275506975.08134,  -0.00059,   0.00073,  -0.00035,  -0.00000,   2.00000
-174522110.17022,319674403.67509,-112059479.43132,  -0.00201,   0.00253,  -0.00181,476644191.90545,   0.00080,275512274.91130,  -0.00059,   0.00073,  -0.00036,  -0.00000,   2.00000
-174100408.49440,319468244.71707,-112733582.22390,  -0.00201,   0.00253,  -0.00182,476667942.58669,   0.00080,275517660.25023,  -0.00059,   0.00074,  -0.00036,  -0.00000,   2.00000
-173701276.19632,319237490.74323,-113409914.40609,  -0.00201,   0.00253,  -0.00184,476657083.35013,   0.00081,275522969.43140,  -0.00060,   0.00074,  -0.00036,  -0.00000,   2.00000
-173273585.89285,319032710.03395,-114078227.88076,  -0.00201,   0.00254,  -0.00185,476646649.15767,   0.00081,275528204.79306,  -0.00060,   0.00075,  -0.00037,   0.00000,   2.00000
-172842653.06514,318821484.89377,-114752526.55933,  -0.00201,   0.00254,  -0.00186,476662726.81647,   0.00082,275533490.20540,  -0.00060,   0.00075,  -0.00037,  -0.00000,   2.00000
-172383200.05571,318636187.63637,-115418865.34405,  -0.00201,   0.00254,  -0.00187,476652253.81255,   0.00082,275538701.73007,  -0.00061,   0.00075,  -0.00037,   0.00000,   2.00000
-171946289.68305,318426180.59904,-116087584.59970,  -0.00201,   0.00254,  -0.00189,476641260.55575,   0.00083,275543837.32016,  -0.00061,   0.00076,  -0.00038,  -0.00000,   2.00000
-171506105.30811,318209642.53924,-116762232.38338,  -0.00202,   0.00255,  -0.00190,476657400.84021,   0.00083,275549023.71864,  -0.00061,   0.00076,  -0.00038,   0.00000,   2.00000
-171006292.02818,318041838.29091,-117431919.12811,  -0.00202,   0.00255,  -0.00191,476635031.02777,   0.00084,275554081.30276,  -0.00062,   0.00077,  -0.00038,   0.98754,   1.00000
-170537275.14885,317849389.89451,-118096283.21922,  -0.00202,   0.00255,  -0.00192,476655420.76804,   0.00084,275559209.83872,  -0.00062,   0.00077,  -0.00039,   0.00000,   2.00000
-170059600.82267,317654931.48226,-118766048.56494,  -0.00202,   0.00255,  -0.00193,476632692.23436,   0.00085,275564208.20554,  -0.00062,   0.00077,  -0.00039,   0.97066,   1.00000
-169553370.01889,317486331.43399,-119428091.85327,  -0.00202,   0.00255,  -0.00195,476621888.51143,   0.00085,275569132.54899,  -0.00063,   0.00078,  -0.00039,   0.94569,   1.00000
-169043916.37865,317310968.69536,-120096001.22290,  -0.00202,   0.00256,  -0.00196,476638063.43913,   0.00086,275574108.82467,  -0.00063,   0.00078,  -0.00040,   0.96935,   1.00000
-168534173.60386,317133756.55995,-120761500.23226,  -0.00202,   0.00256,  -0.00197,476646638.27617,   0.00086,275579101.40104,  -0.00063,   0.00079,  -0.00040,   0.97933,   1.00000
-168018568.92947,316959267.61168,-121424345.11458,  -0.00202,   0.00256,  -0.00198,476616225.51343,   0.00087,275583928.73225,  -0.00064,   0.00079,  -0.00040,   0.91908,   1.00000
-167480024.82553,316806051.66007,-122079822.69685,  -0.00202,   0.00256,  -0.00200,476644189.03781,   0.00087,275588863.29751,  -0.00064,   0.00079,  -0.00041,   0.96446,   1.00000
-166929664.08012,316645446.38283,-122749072.61006,  -0.00202,   0.00256,  -0.00201,476629452.07356,   0.00087,275593705.86104,  -0.00064,   0.00080,  -0.00041,   0.93286,   1.00000
-166373328.53462,316487408.63471,-123415822.30203,  -0.00202,   0.00257,  -0.00202,476599003.23511,   0.00088,275598383.76265,  -0.00065,   0.00080,  -0.00042,   0.87435,   1.00000
-165797128.01915,316355667.57468,-124067028.83939,  -0.00202,   0.00257,  -0.00203,476618911.55791,   0.00088,275603132.09280,  -0.00065,   0.00081,  -0.00042,   0.90528,   1.00000
-165240305.42763,316193734.18630,-124729087.62963,  -0.00202,   0.00257,  -0.00204,476615712.31543,   0.00089,275607843.01692,  -0.00065,   0.00081,  -0.00042,   0.89495,   1.00000
-164651866.02704,316052402.38059,-125391775.02923,  -0.00202,   0.00257,  -0.00206,476612670.84660,   0.00089,275612517.43798,  -0.00066,   0.00081,  -0.00043,   0.88546,   1.00000
-164066215.14975,315914238.36898,-126044055.48299,  -0.00202,   0.00257,  -0.00207,476612940.24445,   0.00090,275617170.93465,  -0.00066,   0.00082,  -0.00043,   0.88186,   1.00000
-163445946.80534,315791430.19350,-126705022.17430,  -0.00202,   0.00258,  -0.00208,476618011.57737,   0.00090,275621825.92933,  -0.00066,   0.00082,  -0.00043,   0.88722,   1.00000
-162850963.25704,315648546.86366,-127360816.37913,  -0.00202,   0.00258,  -0.00209,476598744.49037,   0.00090,275626369.24025,  -0.00066,   0.00082,  -0.00044,   0.84933,   1.00000
-162224292.76532,315526106.65292,-128017299.80327,  -0.00202,   0.00258,  -0.00210,476595697.68616,   0.00091,275630876.82639,  -0.00067,   0.00083,  -0.00044,   0.84061,   1.00000
-161568961.83580,315429259.05054,-128666525.97926,  -0.00202,   0.00258,  -0.00212,476584439.71946,   0.00091,275635310.66946,  -0.00067,   0.00083,  -0.00044,   0.81826,   1.00000
-160941998.42061,315302713.61713,-129318331.53289,  -0.00202,   0.00258,  -0.00213,476612056.33133,   0.00092,275639851.88094,  -0.00067,   0.00083,  -0.00045,   0.86300,   1.00000
-160308687.42109,315178495.88027,-129968230.37305,  -0.00202,   0.00258,  -0.00214,476581364.60094,   0.00092,275644228.87068,  -0.00068,   0.00084,  -0.00045,   0.80613,   1.00000
-159618268.28455,315092534.72754,-130621418.78976,  -0.00202,   0.00259,  -0.00215,476606149.45432,   0.00092,275648700.29070,  -0.00068,   0.00084,  -0.00045,   0.84674,   1.00000
-158953070.66082,314986451.81676,-131269730.70600,  -0.00202,   0.00259,  -0.00216,476586583.45515,   0.00093,275653059.55298,  -0.00068,   0.00084,  -0.00046,   0.80963,   1.00000
-158281378.16956,314882574.91696,-131916319.88183,  -0.00202,   0.00259,  -0.00217,476555780.47590,   0.00093,275657254.98173,  -0.00068,   0.00085,  -0.00046,   0.75449,   1.00000
-157584256.20103,314794549.29928,-132563047.55566,  -0.00202,   0.00259,  -0.00219,476591625.59103,   0.00094,275661597.07965,  -0.00069,   0.00085,  -0.00046,   0.81340,   1.00000
-156877513.10846,314703218.89122,-133215915.34155,  -0.00202,   0.00259,  -0.00220,476569437.85721,   0.00094,275665815.47574,  -0.00069,   0.00085,  -0.00047,   0.77274,   1.00000
-156173692.07046,314615137.64032,-133858689.15712,  -0.00202,   0.00259,  -0.00221,476568922.90951,   0.00094,275670011.46844,  -0.00069,   0.00086,  -0.00047,   0.76955,   1.00000
-155437988.29616,314547041.12921,-134502233.09779,  -0.00201,   0.00259,  -0.00222,476566046.59745,   0.00095,275674174.18395,  -0.00069,   0.00086,  -0.00047,   0.76274,   1.00000
-154702198.05823,314476730.78129,-135143469.12893,  -0.00201,   0.00260,  -0.00223,476574053.05512,   0.00095,275678354.33696,  -0.00070,   0.00086,  -0.00048,   0.77453,   1.00000
-153959629.96552,314408406.38141,-135783287.69728,  -0.00201,   0.00260,  -0.00224,476543227.59050,   0.00096,275682371.47834,  -0.00070,   0.00087,  -0.00048,   0.72038,   1.00000
-153213888.86024,314332330.33823,-136428501.40580,  -0.00201,   0.00260,  -0.00226,476559850.67791,   0.00096,275686446.76761,  -0.00070,   0.00087,  -0.00048,   0.74658,   1.00000
-152471117.30668,314259575.89802,-137063756.58147,  -0.00201,   0.00260,  -0.00227,476559020.39488,   0.00096,275690498.87021,  -0.00070,   0.00087,  -0.00049,   0.74327,   1.00000
-151696341.65136,314206605.75076,-137699809.05622,  -0.00201,   0.00260,  -0.00228,476556257.63536,   0.00097,275694518.91318,  -0.00071,   0.00088,  -0.00049,   0.73705,   1.00000
-150914559.97329,314155490.25692,-138334657.03048,  -0.00201,   0.00260,  -0.00229,476525375.28190,   0.00097,275698376.49758,  -0.00071,   0.00088,  -0.00049,   0.68384,   1.00000
-150129614.38352,314096462.26988,-138974821.44254,  -0.00201,   0.00260,  -0.00230,476542059.86115,   0.00097,275702293.24066,  -0.00071,   0.00088,  -0.00050,   0.71026,   1.00000
-149347656.89618,314040785.52791,-139605137.55550,  -0.00201,   0.00261,  -0.00231,476540965.38884,   0.00098,275706186.32394,  -0.00071,   0.00088,  -0.00050,   0.70695,   1.00000
-148533579.38128,314004700.69618,-140236267.92184,  -0.00200,   0.00261,  -0.00232,476538289.80296,   0.00098,275710048.51142,  -0.00072,   0.00089,  -0.00050,   0.70134,   1.00000
-147690435.92442,313993800.16616,-140860692.46177,  -0.00200,   0.00261,  -0.00234,476526658.55027,   0.00099,275713838.37858,  -0.00072,   0.00089,  -0.00050,   0.68107,   1.00000
-146865984.36891,313951328.56336,-141496065.37784,  -0.00200,   0.00261,  -0.00235,476524207.36758,   0.00099,275717598.89023,  -0.00072,   0.00089,  -0.00051,   0.67591,   1.00000
-146044529.40798,313912234.35639,-142121696.12415,  -0.00200,   0.00261,  -0.00236,476522861.90289,   0.00099,275721335.31964,  -0.00072,   0.00090,  -0.00051,   0.67258,   1.00000
-145190829.50581,313892531.59861,-142748147.58550,  -0.00200,   0.00261,  -0.00237,476520295.21627,   0.00100,275725042.10584,  -0.00072,   0.00090,  -0.00051,   0.66754,   1.00000
-144340162.54973,313876226.25640,-143364926.43012,  -0.00200,   0.00261,  -0.00238,476518806.01293,   0.00100,275728724.39142,  -0.00073,   0.00090,  -0.00052,   0.66429,   1.00000
-143475804.69935,313849893.35012,-143995744.55228,  -0.00199,   0.00261,  -0.00239,476506274.14045,   0.00100,275732331.07415,  -0.00073,   0.00090,  -0.00052,   0.64266,   1.00000
-142582142.28300,313848572.57219,-144619984.39136,  -0.00199,   0.00261,  -0.00240,476494607.35233,   0.00101,275735866.52330,  -0.00073,   0.00091,  -0.00052,   0.62304,   1.00000
-141723825.47824,313829054.69781,-145231570.95179,  -0.00199,   0.00261,  -0.00241,476502952.77258,   0.00101,275739423.90438,  -0.00073,   0.00091,  -0.00053,   0.63607,   1.00000
-140797694.74160,313844387.77770,-145854377.33473,  -0.00199,   0.00262,  -0.00243,476499845.12072,   0.00101,275742949.97797,  -0.00073,   0.00091,  -0.00053,   0.63077,   1.00000
-139928514.50279,313818043.88361,-146470473.74802,  -0.00199,   0.00262,  -0.00244,476488836.99646,   0.00102,275746408.28961,  -0.00074,   0.00092,  -0.00053,   0.61182,   1.00000
-138972926.64634,313855792.21858,-147084511.49277,  -0.00198,   0.00262,  -0.00245,476495790.95054,   0.00102,275749882.40597,  -0.00074,   0.00092,  -0.00054,   0.62346,   1.00000
-138074314.90194,313851939.06224,-147691958.72810,  -0.00198,   0.00262,  -0.00246,476484554.99566,   0.00102,275753287.95417,  -0.00074,   0.00092,  -0.00054,   0.60436,   1.00000
-137129029.20763,313858942.61577,-148316487.94476,  -0.00198,   0.00262,  -0.00247,476462750.79706,   0.00102,275756576.27405,  -0.00074,   0.00092,  -0.00054,   0.56872,   1.00000
-136197870.17995,313871521.02481,-148922495.57478,  -0.00198,   0.00262,  -0.00248,476489691.03957,   0.00103,275759973.83909,  -0.00074,   0.00093,  -0.00054,   0.61270,   1.00000
-135258508.88292,313885426.32300,-149528184.97457,  -0.00197,   0.00262,  -0.00249,476458700.56088,   0.00103,275763211.67018,  -0.00075,   0.00093,  -0.00055,   0.56160,   1.00000
-134286489.12758,313918115.20582,-150134700.31033,  -0.00197,   0.00262,  -0.00250,476456459.77040,   0.00103,275766423.74377,  -0.00075,   0.00093,  -0.00055,   0.55806,   1.00000
-133314435.99726,313948204.51669,-150738983.40494,  -0.00197,   0.00262,  -0.00251,476463886.63601,   0.00104,275769654.97322,  -0.00075,   0.00093,  -0.00055,   0.57017,   1.00000
-132309680.01542,313996929.76095,-151344044.63122,  -0.00197,   0.00262,  -0.00252,476461842.08488,   0.00104,275772861.37817,  -0.00075,   0.00094,  -0.00056,   0.56710,   1.00000
-131329115.48799,314025547.02537,-151945911.47316,  -0.00196,   0.00262,  -0.00253,476440385.72598,   0.00104,275775953.18025,  -0.00075,   0.00094,  -0.00056,   0.53236,   1.00000
-130324349.47837,314068978.09454,-152546443.13856,  -0.00196,   0.00262,  -0.00254,476476701.84451,   0.00105,275779198.48269,  -0.00076,   0.00094,  -0.00056,   0.59235,   1.00000
-129335039.11033,314096083.63660,-153146035.46509,  -0.00196,   0.00262,  -0.00255,476416849.77085,   0.00105,275782151.22467,  -0.00076,   0.00094,  -0.00056,   0.49509,   1.00000
-128288745.01354,314159024.69492,-153747205.38020,  -0.00196,   0.00262,  -0.00257,476443876.71740,   0.00105,275785215.07226,  -0.00076,   0.00094,  -0.00057,   0.53860,   1.00000
-127245415.17454,314225429.36455,-154339129.76369,  -0.00195,   0.00262,  -0.00258,476441443.02328,   0.00105,275788253.09129,  -0.00076,   0.00095,  -0.00057,   0.53505,   1.00000
-126226061.81681,314271791.99650,-154928128.45450,  -0.00195,   0.00263,  -0.00259,476419668.13062,   0.00106,275791175.88875,  -0.00076,   0.00095,  -0.00057,   0.50016,   1.00000
-125173725.13924,314336475.46470,-155517902.98029,  -0.00195,   0.00263,  -0.00260,476417781.88272,   0.00106,275794076.06922,  -0.00076,   0.00095,  -0.00057,   0.49754,   1.00000
-124121355.62505,314398430.71759,-156105454.06173,  -0.00194,   0.00263,  -0.00261,476425041.17083,   0.00106,275796996.06609,  -0.00077,   0.00095,  -0.00058,   0.50955,   1.00000
-123035955.28121,314478549.86501,-156693721.04464,  -0.00194,   0.00263,  -0.00262,476423374.84585,   0.00106,275799894.46914,  -0.00077,   0.00096,  -0.00058,   0.50741,   1.00000
-121974327.03162,314538620.26991,-157279233.49747,  -0.00194,   0.00263,  -0.00263,476401444.33473,   0.00107,275802677.63838,  -0.00077,   0.00096,  -0.00058,   0.47267,   1.00000
-120879554.80594,314616759.56913,-157865460.79724,  -0.00193,   0.00263,  -0.00264,476399796.91344,   0.00107,275805439.95780,  -0.00077,   0.00096,  -0.00059,   0.47058,   1.00000
-119784736.10023,314692073.89674,-158449438.67145,  -0.00193,   0.00263,  -0.00265,476407050.17732,   0.00107,275808222.69820,  -0.00077,   0.00096,  -0.00059,   0.48262,   1.00000
-118659628.78529,314791712.69730,-159027305.70236,  -0.00193,   0.00263,  -0.00266,476395415.48396,   0.00107,275810938.39290,  -0.00077,   0.00096,  -0.00059,   0.46471,   1.00000
-117558072.57164,314871334.84682,-159602630.20345,  -0.00192,   0.00263,  -0.00267,476373219.96147,   0.00108,275813538.54373,  -0.00077,   0.00097,  -0.00059,   0.43052,   1.00000
-116399680.79670,314985928.54071,-160178886.61316,  -0.00192,   0.00263,  -0.00268,476401182.63741,   0.00108,275816255.61058,  -0.00078,   0.00097,  -0.00060,   0.47544,   1.00000
-115264758.74992,315080470.25554,-160752650.22437,  -0.00192,   0.00263,  -0.00269,476379024.81191,   0.00108,275818857.31867,  -0.00078,   0.00097,  -0.00060,   0.44068,   1.00000
-114132649.84007,315178646.14177,-161317513.57679,  -0.00191,   0.00263,  -0.00270,476375807.50029,   0.00108,275821431.78417,  -0.00078,   0.00097,  -0.00060,   0.43619,   1.00000
-112984833.61410,315264385.07096,-161896191.15531,  -0.00191,   0.00263,  -0.00271,476365728.47393,   0.00109,275823947.42575,  -0.00078,   0.00097,  -0.00060,   0.42099,   1.00000
-111788730.97848,315404366.04103,-162455646.56425,  -0.00191,   0.00263,  -0.00272,476362923.85122,   0.00109,275826438.12721,  -0.00078,   0.00098,  -0.00061,   0.41750,   1.00000
-110610214.07123,315511198.70739,-163026025.04034,  -0.00190,   0.00263,  -0.00273,476361352.47533,   0.00109,275828909.71788,  -0.00078,   0.00098,  -0.00061,   0.41571,   1.00000
-109434440.56595,315621652.71233,-163587565.25327,  -0.00190,   0.00263,  -0.00274,476358012.51560,   0.00109,275831354.11943,  -0.00078,   0.00098,  -0.00061,   0.41113,   1.00000
-108225118.63138,315749515.15089,-164149654.63674,  -0.00189,   0.00263,  -0.00275,476357006.76878,   0.00110,275833782.23639,  -0.00079,   0.00098,  -0.00061,   0.41034,   1.00000
-107038833.58283,315857416.83926,-164709603.05757,  -0.00189,   0.00263,  -0.00276,476334418.04926,   0.00110,275836094.47393,  -0.00079,   0.00098,  -0.00061,   0.37623,   1.00000
-105818881.70619,315982616.42908,-165270080.24947,  -0.00189,   0.00263,  -0.00277,476333465.38556,   0.00110,275838391.30497,  -0.00079,   0.00098,  -0.00062,   0.37548,   1.00000
-104601588.11537,316111458.40004,-165821819.85527,  -0.00188,   0.00263,  -0.00278,476329898.21751,   0.00110,275840660.73180,  -0.00079,   0.00099,  -0.00062,   0.37074,   1.00000
-103350569.77367,316257460.09839,-166374047.13269,  -0.00188,   0.00263,  -0.00278,476329094.79715,   0.00110,275842915.63737,  -0.00079,   0.00099,  -0.00062,   0.37032,   1.00000
-102099481.50600,316400351.54696,-166923983.92304,  -0.00187,   0.00263,  -0.00279,476336192.93685,   0.00111,275845192.56454,  -0.00079,   0.00099,  -0.00062,   0.38198,   1.00000
-100871127.86540,316523343.81874,-167472013.21908,  -0.00187,   0.00263,  -0.00280,476313358.30422,   0.00111,275847353.26538,  -0.00079,   0.00099,  -0.00063,   0.34785,   1.00000
-99591559.65827,316693702.21023,-168007326.17383,  -0.00186,   0.00263,  -0.00281,476321094.71590,   0.00111,275849539.36424,  -0.00079,   0.00099,  -0.00063,   0.36035,   1.00000
-98295480.06741,316850554.99822,-168556185.68936,  -0.00186,   0.00263,  -0.00282,476312254.63042,   0.00111,275851674.25260,  -0.00079,   0.00099,  -0.00063,   0.34777,   1.00000
-97021900.93780,316987461.18497,-169103234.64298,  -0.00186,   0.00263,  -0.00283,476289357.45272,   0.00111,275853693.34322,  -0.00080,   0.00099,  -0.00063,   0.31466,   1.00000
-95730911.78578,317151626.55160,-169634844.18450,  -0.00185,   0.00263,  -0.00284,476304608.48069,   0.00112,275855773.15274,  -0.00080,   0.00100,  -0.00063,   0.33782,   1.00000
-94425803.62722,317308955.72473,-170173678.47030,  -0.00185,   0.00263,  -0.00285,476285097.39932,   0.00112,275857753.06672,  -0.00080,   0.00100,  -0.00064,   0.30977,   1.00000
-93100768.48131,317486612.60583,-170703292.10558,  -0.00184,   0.00263,  -0.00286,476311276.88755,   0.00112,275859844.24625,  -0.00080,   0.00100,  -0.00064,   0.34974,   1.00000
-91764042.47299,317664188.75409,-171233868.69338,  -0.00184,   0.00263,  -0.00287,476281055.91854,   0.00112,275861786.12006,  -0.00080,   0.00100,  -0.00064,   0.30523,   1.00000
-90449470.09084,317821915.90145,-171762895.11450,  -0.00183,   0.00262,  -0.00288,476257825.45060,   0.00112,275863611.65582,  -0.00080,   0.00100,  -0.00064,   0.27291,   1.00000
-89115079.21303,317999968.43649,-172282665.78910,  -0.00183,   0.00262,  -0.00288,476283842.84879,   0.00113,275865548.38954,  -0.00080,   0.00100,  -0.00064,   0.31084,   1.00000
-87766145.79265,318170888.66225,-172809652.01146,  -0.00182,   0.00262,  -0.00289,476264678.76169,   0.00113,275867387.57318,  -0.00080,   0.00100,  -0.00065,   0.28367,   1.00000
-86382957.00232,318358072.11340,-173336786.46610,  -0.00182,   0.00262,  -0.00290,476264846.90879,   0.00113,275869218.74734,  -0.00080,   0.00101,  -0.00065,   0.28465,   1.00000
-85038738.65365,318536434.86151,-173846893.06575,  -0.00181,   0.00262,  -0.00291,476256323.15403,   0.00113,275871001.91948,  -0.00080,   0.00101,  -0.00065,   0.27311,   1.00000
-83623575.96480,318743444.48176,-174365676.85984,  -0.00181,   0.00262,  -0.00292,476261012.74072,   0.00113,275872798.16508,  -0.00081,   0.00101,  -0.00065,   0.28060,   1.00000
-82264379.90431,318911162.13317,-174880684.74940,  -0.00180,   0.00262,  -0.00293,476244250.00702,   0.00113,275874508.64894,  -0.00081,   0.00101,  -0.00065,   0.25743,   1.00000
-80819537.28728,319144944.69349,-175385039.58476,  -0.00180,   0.00262,  -0.00294,476246081.51971,   0.00114,275876219.37924,  -0.00081,   0.00101,  -0.00066,   0.26079,   1.00000
-79428207.04704,319332423.69414,-175891759.12786,  -0.00179,   0.00262,  -0.00294,476240311.59252,   0.00114,275877895.37788,  -0.00081,   0.00101,  -0.00066,   0.25331,   1.00000
-78002419.10887,319535816.42183,-176398487.76617,  -0.00179,   0.00262,  -0.00295,476240865.32738,   0.00114,275879565.91153,  -0.00081,   0.00101,  -0.00066,   0.25475,   1.00000
-76563684.99403,319738682.45335,-176906395.70066,  -0.00178,   0.00262,  -0.00296,476211044.81651,   0.00114,275881091.23541,  -0.00081,   0.00101,  -0.00066,   0.21500,   1.00000
-75107893.01611,319968719.72485,-177398768.54194,  -0.00178,   0.00262,  -0.00297,476225840.23303,   0.00114,275882677.32902,  -0.00081,   0.00102,  -0.00066,   0.23538,   1.00000
-73671096.23287,320171807.36957,-177895987.03200,  -0.00177,   0.00262,  -0.00298,476213535.40552,   0.00114,275884199.23730,  -0.00081,   0.00102,  -0.00066,   0.21934,   1.00000
-72199671.07853,320390493.83205,-178393074.86034,  -0.00176,   0.00262,  -0.00298,476214431.02414,   0.00114,275885717.97970,  -0.00081,   0.00102,  -0.00067,   0.22115,   1.00000
-70730324.73959,320612890.40354,-178881876.86221,  -0.00176,   0.00262,  -0.00299,476209960.05499,   0.00115,275887208.89358,  -0.00081,   0.00102,  -0.00067,   0.21575,   1.00000
-69260842.72364,320831753.87364,-179368263.68117,  -0.00175,   0.00261,  -0.00300,476216883.91070,   0.00115,275888724.50123,  -0.00081,   0.00102,  -0.00067,   0.22568,   1.00000
-67777757.41214,321049898.40885,-179855942.92795,  -0.00175,   0.00261,  -0.00301,476187286.22330,   0.00115,275890096.80907,  -0.00081,   0.00102,  -0.00067,   0.18730,   1.00000
-66241026.86867,321306729.02218,-180335981.55954,  -0.00174,   0.00261,  -0.00302,476207827.24339,   0.00115,275891556.92922,  -0.00081,   0.00102,  -0.00067,   0.21476,   1.00000
-64725094.33895,321543810.21384,-180815135.95578,  -0.00174,   0.00261,  -0.00302,476184080.95293,   0.00115,275892900.94620,  -0.00081,   0.00102,  -0.00067,   0.18424,   1.00000
-63211083.74215,321784638.83342,-181286104.69648,  -0.00173,   0.00261,  -0.00303,476179389.86725,   0.00115,275894216.97170,  -0.00082,   0.00102,  -0.00067,   0.17883,   1.00000
-61678833.39593,322009730.64790,-181769814.24283,  -0.00172,   0.00261,  -0.00304,476173275.78878,   0.00115,275895498.60836,  -0.00082,   0.00102,  -0.00068,   0.17171,   1.00000
-60131825.54956,322269351.62579,-182232211.46597,  -0.00172,   0.00261,  -0.00305,476176204.52017,   0.00115,275896787.54234,  -0.00082,   0.00103,  -0.00068,   0.17586,   1.00000
-58603252.71902,322501915.35370,-182699600.00492,  -0.00171,   0.00261,  -0.00305,476163833.55168,   0.00116,275898013.50342,  -0.00082,   0.00103,  -0.00068,   0.16104,   1.00000
-57039707.91555,322749338.89541,-183166496.51273,  -0.00171,   0.00261,  -0.00306,476165599.21150,   0.00116,275899241.68414,  -0.00082,   0.00103,  -0.00068,   0.16364,   1.00000
-55477943.93073,323000497.19034,-183625256.07663,  -0.00170,   0.00261,  -0.00307,476160830.55071,   0.00116,275900442.08605,  -0.00082,   0.00103,  -0.00068,   0.15826,   1.00000
-53881164.43177,323266322.85178,-184083419.11605,  -0.00169,   0.00261,  -0.00308,476162860.21165,   0.00116,275901646.03034,  -0.00082,   0.00103,  -0.00068,   0.16122,   1.00000
-52286122.32908,323535847.03199,-184533446.63059,  -0.00169,   0.00260,  -0.00308,476158119.04212,   0.00116,275902822.44006,  -0.00082,   0.00103,  -0.00068,   0.15587,   1.00000
-50674317.28464,323796526.62521,-184990352.43966,  -0.00168,   0.00260,  -0.00309,476141081.27437,   0.00116,275903915.06096,  -0.00082,   0.00103,  -0.00069,   0.13615,   1.00000
-49064141.61123,324060893.68128,-185439143.72952,  -0.00168,   0.00260,  -0.00310,476136269.93255,   0.00116,275904980.36948,  -0.00082,   0.00103,  -0.00069,   0.13105,   1.00000
-47455572.47019,324329009.63275,-185879872.83297,  -0.00167,   0.00260,  -0.00310,476131338.54967,   0.00116,275906017.95108,  -0.00082,   0.00103,  -0.00069,   0.12586,   1.00000
-45811824.49917,324611402.40816,-186319801.47864,  -0.00166,   0.00260,  -0.00311,476133821.41091,   0.00116,275907061.91565,  -0.00082,   0.00103,  -0.00069,   0.12903,   1.00000
-44167917.21169,324889827.97962,-186757096.54687,  -0.00166,   0.00260,  -0.00312,476140930.77388,   0.00116,275908133.42641,  -0.00082,   0.00103,  -0.00069,   0.13764,   1.00000
-42543577.02070,325148726.15088,-187194035.49841,  -0.00165,   0.00260,  -0.00312,476116658.10756,   0.00117,275909088.59845,  -0.00082,   0.00103,  -0.00069,   0.11071,   1.00000
-40867682.04827,325452626.97721,-187616928.22251,  -0.00164,   0.00260,  -0.00313,476126774.55222,   0.00117,275910085.49320,  -0.00082,   0.00104,  -0.00069,   0.12214,   1.00000
-39209538.95296,325729276.20162,-188044902.74579,  -0.00164,   0.00259,  -0.00314,476114506.26930,   0.00117,275911021.41615,  -0.00082,   0.00104,  -0.00069,   0.10899,   1.00000
-37516099.67863,326019752.73229,-188471813.93578,  -0.00163,   0.00259,  -0.00314,476117591.92229,   0.00117,275911966.94865,  -0.00082,   0.00104,  -0.00069,   0.11264,   1.00000
-35824069.77535,326313893.48031,-188890675.57756,  -0.00162,   0.00259,  -0.00315,476112696.24833,   0.00117,275912885.51608,  -0.00082,   0.00104,  -0.00070,   0.10765,   1.00000
-34098229.09975,326629453.14527,-189303047.86561,  -0.00162,   0.00259,  -0.00316,476103928.59093,   0.00117,275913759.53366,  -0.00082,   0.00104,  -0.00070,   0.09871,   1.00000
-32389877.87626,326917653.52733,-189720498.11833,  -0.00161,   0.00259,  -0.00316,476091748.28999,   0.00117,275914573.62249,  -0.00082,   0.00104,  -0.00070,   0.08671,   1.00000
-30682795.77908,327209553.35474,-190129956.38625,  -0.00160,   0.00259,  -0.00317,476086696.79551,   0.00117,275915360.68318,  -0.00082,   0.00104,  -0.00070,   0.08205,   1.00000
-28958042.79146,327520488.08577,-190528826.25676,  -0.00160,   0.00259,  -0.00318,476113218.70590,   0.00117,275916265.18457,  -0.00082,   0.00104,  -0.00070,   0.10972,   1.00000
-27216760.74835,327829479.46668,-190929001.55681,  -0.00159,   0.00258,  -0.00318,476085351.08682,   0.00117,275917037.95009,  -0.00082,   0.00104,  -0.00070,   0.08109,   1.00000
-25457417.77787,328128511.22970,-191335644.86765,  -0.00158,   0.00258,  -0.00319,476069835.82157,   0.00117,275917736.08882,  -0.00083,   0.00104,  -0.00070,   0.06701,   1.00000
-23717197.39049,328436952.00204,-191725053.63288,  -0.00157,   0.00258,  -0.00319,476087449.47181,   0.00117,275918511.30775,  -0.00083,   0.00104,  -0.00070,   0.08365,   1.00000
-21906189.97120,328775714.16091,-192114196.66101,  -0.00157,   0.00258,  -0.00320,476088489.16367,   0.00118,275919287.51487,  -0.00083,   0.00104,  -0.00070,   0.08494,   1.00000
-20148876.51887,329077734.98888,-192502061.63161,  -0.00156,   0.00258,  -0.00321,476067132.14219,   0.00118,275919962.46550,  -0.00083,   0.00104,  -0.00070,   0.06501,   1.00000
-18357220.07794,329400624.91645,-192883190.92113,  -0.00155,   0.00258,  -0.00321,476059063.56530,   0.00118,275920597.32066,  -0.00083,   0.00104,  -0.00070,   0.05824,   1.00000
-16565435.05644,329719152.43892,-193261458.18486,  -0.00154,   0.00258,  -0.00322,476066344.40907,   0.00118,275921262.31960,  -0.00083,   0.00104,  -0.00071,   0.06469,   1.00000
-14738135.32303,330050304.54576,-193637940.46452,  -0.00154,   0.00257,  -0.00322,476071015.67061,   0.00118,275921945.39818,  -0.00083,   0.00104,  -0.00071,   0.06911,   1.00000
-12911828.96598,330385020.09502,-194006419.21151,  -0.00153,   0.00257,  -0.00323,476066082.39612,   0.00118,275922602.66451,  -0.00083,   0.00104,  -0.00071,   0.06479,   1.00000
-11086482.79396,330723352.53139,-194366937.98755,  -0.00152,   0.00257,  -0.00323,476061047.55011,   0.00118,275923233.78687,  -0.00083,   0.00104,  -0.00071,   0.06048,   1.00000
-9242403.14980,331051041.40665,-194733611.41955,  -0.00151,   0.00257,  -0.00324,476046559.16789,   0.00118,275923795.81560,  -0.00083,   0.00104,  -0.00071,   0.04856,   1.00000
-7399169.31391,331382306.71392,-195092315.98565,  -0.00151,   0.00257,  -0.00325,476041518.63347,   0.00118,275924332.14945,  -0.00083,   0.00104,  -0.00071,   0.04476,   1.00000
-5540095.28741,331740156.04667,-195434937.75624,  -0.00150,   0.00257,  -0.00325,476055945.08489,   0.00118,275924931.57880,  -0.00083,   0.00105,  -0.00071,   0.05661,   1.00000
-3661251.79044,332078944.97315,-195788530.97106,  -0.00149,   0.00256,  -0.00326,476054405.91787,   0.00118,275925521.08251,  -0.00083,   0.00105,  -0.00071,   0.05543,   1.00000
-1784008.07250,332429451.14001,-196129213.05162,  -0.00148,   0.00256,  -0.00326,476036883.85652,   0.00118,275926027.96198,  -0.00083,   0.00105,  -0.00071,   0.04149,   1.00000
76805.64006,332752437.45203,-196475086.29565,  -0.00148,   0.00256,  -0.00327,476024789.73049,   0.00118,275926477.34568,  -0.00083,   0.00105,  -0.00071,   0.03300,   1.00000
1988898.44645,333118334.87168,-196805530.39654,  -0.00147,   0.00256,  -0.00327,476037504.35011,   0.00118,275926982.37210,  -0.00083,   0.00105,  -0.00071,   0.04220,   1.00000
3884654.40341,333456625.96573,-197141126.30968,  -0.00146,   0.00256,  -0.00328,476025556.62429,   0.00118,275927430.60870,  -0.00083,   0.00105,  -0.00071,   0.03365,   1.00000
5832219.99259,333829289.59497,-197465956.39415,  -0.00145,   0.00255,  -0.00328,476051326.30147,   0.00118,275927993.79466,  -0.00083,   0.00105,  -0.00071,   0.05378,   1.00000
7762367.96970,334190827.24884,-197786228.91907,  -0.00145,   0.00255,  -0.00328,476014218.02990,   0.00118,275928385.60602,  -0.00083,   0.00105,  -0.00071,   0.02635,   1.00000
9692491.74941,334547563.54644,-198103352.93880,  -0.00144,   0.00255,  -0.00329,476021879.24926,   0.00118,275928810.30535,  -0.00083,   0.00105,  -0.00071,   0.03134,   1.00000
11622537.10584,334899492.50927,-198417318.10198,  -0.00143,   0.00255,  -0.00329,476029571.59335,   0.00118,275929267.86092,  -0.00083,   0.00105,  -0.00071,   0.03681,   1.00000
13587659.23875,335270908.22617,-198723774.62388,  -0.00142,   0.00255,  -0.00330,476023531.27732,   0.00118,275929695.75770,  -0.00083,   0.00105,  -0.00072,   0.03259,   1.00000
15552268.50475,335645769.60401,-199022240.66969,  -0.00141,   0.00255,  -0.00330,476018619.69269,   0.00119,275930099.27192,  -0.00083,   0.00105,  -0.00072,   0.02933,   1.00000
17552377.82028,336031508.68239,-199317805.89459,  -0.00141,   0.00254,  -0.00331,476025661.24272,   0.00119,275930532.74809,  -0.00083,   0.00105,  -0.00072,   0.03427,   1.00000
19500918.54060,336373739.38731,-199618180.28726,  -0.00140,   0.00254,  -0.00331,476014671.77813,   0.00119,275930914.27262,  -0.00083,   0.00105,  -0.00072,   0.02686,   1.00000
21535769.43144,336781945.47797,-199897965.47529,  -0.00139,   0.00254,  -0.00332,476015386.11352,   0.00119,275931297.15943,  -0.00083,   0.00105,  -0.00072,   0.02739,   1.00000
23519174.53435,337146727.98955,-200182632.62377,  -0.00138,   0.00254,  -0.00332,476004241.39364,   0.00119,275931627.67193,  -0.00083,   0.00105,  -0.00072,   0.02065,   1.00000
25538041.31829,337522000.64405,-200464143.23992,  -0.00137,   0.00254,  -0.00332,476011791.21752,   0.00119,275931990.75666,  -0.00083,   0.00105,  -0.00072,   0.02522,   1.00000
27556563.68246,337900615.65191,-200737617.07748,  -0.00136,   0.00253,  -0.00333,476007011.23586,   0.00119,275932330.41573,  -0.00083,   0.00105,  -0.00072,   0.02233,   1.00000
29574781.48748,338282615.47960,-201003086.82401,  -0.00136,   0.00253,  -0.00333,476002151.90919,   0.00119,275932646.41297,  -0.00083,   0.00105,  -0.00072,   0.01956,   1.00000
31628382.28841,338674757.22068,-201265170.71290,  -0.00135,   0.00253,  -0.00334,476010193.18900,   0.00119,275932997.23271,  -0.00083,   0.00105,  -0.00072,   0.02440,   1.00000
33681630.79395,339061620.70985,-201523777.89374,  -0.00134,   0.00253,  -0.00334,476018455.21596,   0.00119,275933383.68659,  -0.00083,   0.00105,  -0.00072,   0.02996,   1.00000
35734712.42866,339460351.40895,-201769748.38872,  -0.00133,   0.00253,  -0.00334,476000825.06786,   0.00119,275933688.54190,  -0.00083,   0.00105,  -0.00072,   0.01886,   1.00000
37808064.83166,339846316.78194,-202020691.18484,  -0.00132,   0.00252,  -0.00335,475989564.02993,   0.00119,275933941.01158,  -0.00083,   0.00105,  -0.00072,   0.01309,   1.00000
39895987.81117,340249436.81059,-202259482.32921,  -0.00131,   0.00252,  -0.00335,476017690.50202,   0.00119,275934319.26847,  -0.00083,   0.00105,  -0.00072,   0.02973,   1.00000
41968822.19780,340633270.15100,-202498806.67105,  -0.00130,   0.00252,  -0.00335,475993299.73654,   0.00119,275934585.54326,  -0.00083,   0.00105,  -0.00072,   0.01491,   1.00000
44077197.16370,341035169.86428,-202729748.59129,  -0.00130,   0.00252,  -0.00336,475989325.77924,   0.00119,275934832.56808,  -0.00083,   0.00105,  -0.00072,   0.01298,   1.00000
46199795.89937,341454027.56655,-202948394.75288,  -0.00129,   0.00252,  -0.00336,476017658.09955,   0.00119,275935206.16749,  -0.00083,   0.00105,  -0.00072,   0.03004,   1.00000
48307605.16337,341853582.65284,-203167583.74750,  -0.00128,   0.00251,  -0.00336,475993357.68038,   0.00119,275935468.35456,  -0.00083,   0.00105,  -0.00072,   0.01497,   1.00000
50414864.08887,342247641.42025,-203383149.42195,  -0.00127,   0.00251,  -0.00337,476001812.31406,   0.00119,275935767.34631,  -0.00083,   0.00105,  -0.00072,   0.01969,   1.00000
52557672.30192,342659363.54879,-203590073.23837,  -0.00126,   0.00251,  -0.00337,475998482.48742,   0.00119,275936049.85498,  -0.00083,   0.00105,  -0.00072,   0.01778,   1.00000
54700436.25474,343074170.55164,-203788824.39490,  -0.00125,   0.00251,  -0.00337,475994079.74491,   0.00119,275936311.13771,  -0.00083,   0.00105,  -0.00072,   0.01539,   1.00000
56842533.96500,343483338.11993,-203983857.89346,  -0.00124,   0.00251,  -0.00338,476002719.46464,   0.00119,275936610.00599,  -0.00083,   0.00105,  -0.00072,   0.02036,   1.00000
59019473.33018,343901049.59418,-204174445.56461,  -0.00123,   0.00250,  -0.00338,476013029.28832,   0.00119,275936953.76417,  -0.00083,   0.00105,  -0.00072,   0.02725,   1.00000
61183021.25524,344308206.12038,-204361170.14226,  -0.00122,   0.00250,  -0.00338,475975791.89722,   0.00119,275937128.38705,  -0.00083,   0.00105,  -0.00072,   0.00711,   1.00000
63359055.22990,344723086.55164,-204539684.24776,  -0.00122,   0.00250,  -0.00338,476017613.13869,   0.00119,275937490.08521,  -0.00083,   0.00105,  -0.00072,   0.03086,   1.00000
65535943.03951,345149791.89956,-204705594.55846,  -0.00121,   0.00250,  -0.00339,476000269.40416,   0.00119,275937772.07625,  -0.00083,   0.00105,  -0.00073,   0.01897,   1.00000
67733613.70290,345562318.96619,-204875586.10425,  -0.00120,   0.00249,  -0.00339,475991249.16911,   0.00119,275938012.16424,  -0.00083,   0.00105,  -0.00073,   0.01390,   1.00000
69944148.42598,345991127.87421,-205032804.77502,  -0.00119,   0.00249,  -0.00339,476020261.03955,   0.00119,275938381.23722,  -0.00083,   0.00105,  -0.00073,   0.03323,   1.00000
72142066.15816,346409507.60577,-205186262.04296,  -0.00118,   0.00249,  -0.00339,475983051.20708,   0.00119,275938581.58148,  -0.00083,   0.00105,  -0.00073,   0.00990,   1.00000
74386971.89583,346848841.98974,-205330147.23705,  -0.00117,   0.00249,  -0.00340,476027717.06195,   0.00119,275938981.14309,  -0.00083,   0.00105,  -0.00073,   0.03983,   1.00000
76584106.92066,347264184.28462,-205471410.31422,  -0.00116,   0.00249,  -0.00340,475988055.32828,   0.00119,275939201.01067,  -0.00083,   0.00105,  -0.00073,   0.01219,   1.00000
78815624.16464,347687023.17524,-205607540.58987,  -0.00115,   0.00248,  -0.00340,475999756.98142,   0.00119,275939472.17668,  -0.00083,   0.00105,  -0.00073,   0.01875,   1.00000
81081379.74637,348117078.99045,-205738354.87025,  -0.00114,   0.00248,  -0.00340,476011897.22708,   0.00119,275939796.31563,  -0.00083,   0.00106,  -0.00073,   0.02709,   1.00000
83325095.03483,348558640.47905,-205853133.84564,  -0.00113,   0.00248,  -0.00340,476025253.47660,   0.00119,275940178.57079,  -0.00083,   0.00106,  -0.00073,   0.03808,   1.00000
85591079.30789,348994112.27820,-205967138.62495,  -0.00112,   0.00248,  -0.00341,476004449.33071,   0.00119,275940465.89809,  -0.00083,   0.00106,  -0.00073,   0.02175,   1.00000
87855753.05761,349423306.76601,-206077013.59456,  -0.00111,   0.00247,  -0.00341,476013917.19932,   0.00120,275940794.08436,  -0.00083,   0.00106,  -0.00073,   0.02869,   1.00000
90120569.47287,349855207.83718,-206178483.76444,  -0.00110,   0.00247,  -0.00341,476010179.06468,   0.00120,275941103.92693,  -0.00083,   0.00106,  -0.00073,   0.02585,   1.00000
92419209.72827,350293687.69496,-206274227.75091,  -0.00109,   0.00247,  -0.00341,476023217.44006,   0.00120,275941470.39744,  -0.00083,   0.00106,  -0.00073,   0.03655,   1.00000
94717955.34040,350734712.42236,-206361463.54205,  -0.00109,   0.00247,  -0.00341,476019752.05554,   0.00120,275941819.56206,  -0.00083,   0.00106,  -0.00073,   0.03354,   1.00000
97016843.54538,351178301.54100,-206440204.73232,  -0.00108,   0.00247,  -0.00341,476016248.60012,   0.00120,275942151.34639,  -0.00083,   0.00106,  -0.00073,   0.03060,   1.00000
99314132.23429,351615421.32176,-206514701.67111,  -0.00107,   0.00246,  -0.00342,476025976.13688,   0.00120,275942524.79222,  -0.00083,   0.00106,  -0.00073,   0.03918,   1.00000
101611576.21987,352055124.19621,-206580717.85007,  -0.00106,   0.00246,  -0.00342,476022472.32845,   0.00120,275942880.75036,  -0.00083,   0.00106,  -0.00073,   0.03597,   1.00000
103942371.18009,352500739.91499,-206640587.05353,  -0.00105,   0.00246,  -0.00342,476036442.48099,   0.00120,275943297.06784,  -0.00083,   0.00106,  -0.00073,   0.04973,   1.00000
106273269.35624,352948766.44590,-206691866.11170,  -0.00104,   0.00246,  -0.00342,476033228.17187,   0.00120,275943696.98102,  -0.00083,   0.00106,  -0.00073,   0.04637,   1.00000
108602279.60403,353390114.95317,-206738778.44764,  -0.00103,   0.00245,  -0.00342,476043264.78603,   0.00120,275944139.47000,  -0.00083,   0.00106,  -0.00073,   0.05736,   1.00000
110931401.17653,353833888.48755,-206777111.94760,  -0.00102,   0.00245,  -0.00342,476040057.80451,   0.00120,275944565.47017,  -0.00083,   0.00106,  -0.00073,   0.05371,   1.00000
113295562.61970,354292106.03633,-206804724.29299,  -0.00101,   0.00245,  -0.00342,476041596.05011,   0.00120,275944996.12957,  -0.00083,   0.00106,  -0.00073,   0.05546,   1.00000
115657617.75837,354743440.76461,-206827850.14592,  -0.00100,   0.00245,  -0.00342,476051914.55866,   0.00120,275945470.36409,  -0.00083,   0.00106,  -0.00074,   0.06794,   1.00000
118019750.80986,355197030.78550,-206842291.28026,  -0.00099,   0.00244,  -0.00342,476048986.03831,   0.00120,275945929.20141,  -0.00083,   0.00106,  -0.00074,   0.06425,   1.00000
120379654.42887,355643723.38921,-206852246.02466,  -0.00098,   0.00244,  -0.00343,476059323.14655,   0.00120,275946431.48938,  -0.00083,   0.00106,  -0.00074,   0.07777,   1.00000
122774340.74176,356104289.87184,-206851119.55213,  -0.00097,   0.00244,  -0.00343,476061734.43601,   0.00120,275946941.88330,  -0.00083,   0.00106,  -0.00074,   0.08112,   1.00000
125134405.46998,356555420.14656,-206843664.22140,  -0.00096,   0.00244,  -0.00343,476053641.11186,   0.00120,275947413.87048,  -0.00083,   0.00106,  -0.00074,   0.07006,   1.00000
127526684.32743,357011045.82140,-206829195.05166,  -0.00095,   0.00244,  -0.00343,476069575.26067,   0.00120,275947953.87853,  -0.00083,   0.00106,  -0.00074,   0.09262,   1.00000
129916395.49155,357459543.84092,-206810115.30333,  -0.00094,   0.00243,  -0.00343,476080253.45338,   0.00120,275948538.29134,  -0.00083,   0.00106,  -0.00074,   0.10955,   1.00000
132306099.68487,357910116.12388,-206782244.67508,  -0.00093,   0.00243,  -0.00343,476077688.32577,   0.00120,275949108.38650,  -0.00083,   0.00106,  -0.00074,   0.10526,   1.00000
134741364.56680,358395379.85676,-206733639.17960,  -0.00092,   0.00243,  -0.00343,476101505.43793,   0.00120,275949780.60326,  -0.00083,   0.00106,  -0.00074,   0.14781,   1.00000
137131099.83270,358849995.86922,-206688127.69683,  -0.00091,   0.00243,  -0.00343,476072789.15365,   0.00120,275950322.79452,  -0.00083,   0.00106,  -0.00074,   0.09709,   1.00000
139552378.74263,359308356.16317,-206635160.81274,  -0.00090,   0.00242,  -0.00343,476089753.16175,   0.00120,275950936.91404,  -0.00083,   0.00106,  -0.00074,   0.12576,   1.00000
141970689.19622,359759341.87590,-206577461.88729,  -0.00089,   0.00242,  -0.00343,476100772.25376,   0.00121,275951596.36980,  -0.00083,   0.00106,  -0.00074,   0.14639,   1.00000
144388908.29747,360212199.95297,-206510853.59788,  -0.00088,   0.00242,  -0.00343,476098565.71039,   0.00121,275952242.72368,  -0.00083,   0.00106,  -0.00074,   0.14196,   1.00000
146851774.00933,360698887.12710,-206423024.20284,  -0.00087,   0.00242,  -0.00343,476123520.55225,   0.00121,275952995.39423,  -0.00083,   0.00106,  -0.00075,   0.19435,   1.00000
149266730.60647,361146090.47276,-206342709.39169,  -0.00086,   0.00242,  -0.00343,476107668.11159,   0.00121,275953674.57222,  -0.00083,   0.00106,  -0.00075,   0.15972,   1.00000
151715595.95188,361605539.91320,-206250313.34081,  -0.00085,   0.00241,  -0.00343,476112493.41282,   0.00121,275954371.40710,  -0.00083,   0.00106,  -0.00075,   0.16970,   1.00000
154171332.68388,362078634.32701,-206143772.76534,  -0.00084,   0.00241,  -0.00343,476144372.00978,   0.00121,275955204.38787,  -0.00083,   0.00106,  -0.00075,   0.24474,   1.00000
156616577.63923,362532073.84495,-206037479.38933,  -0.00083,   0.00241,  -0.00343,476122172.07622,   0.00121,275955935.80263,  -0.00083,   0.00107,  -0.00075,   0.19041,   1.00000
159068333.25588,362999076.75169,-205917032.27293,  -0.00082,   0.00241,  -0.00343,476154113.20392,   0.00121,275956803.22703,  -0.00083,   0.00107,  -0.00075,   0.27025,   1.00000
161543486.22865,363456424.04336,-205793413.44601,  -0.00081,   0.00240,  -0.00343,476139500.36795,   0.00121,275957602.23171,  -0.00083,   0.00107,  -0.00075,   0.23137,   1.00000
163994532.28683,363926508.20609,-205654800.52265,  -0.00080,   0.00240,  -0.00343,476150902.77236,   0.00121,275958446.90552,  -0.00083,   0.00107,  -0.00075,   0.26089,   1.00000
166475258.10584,364398580.02549,-205507773.61322,  -0.00079,   0.00240,  -0.00343,476170325.32604,   0.00121,275959371.97277,  -0.00083,   0.00107,  -0.00075,   0.31571,   1.00000
168955504.38074,364871999.58542,-205351559.53012,  -0.00078,   0.00240,  -0.00342,476169064.89670,   0.00121,275960286.71051,  -0.00083,   0.00107,  -0.00076,   0.31143,   1.00000
171422077.40586,365316345.93412,-205199700.10389,  -0.00077,   0.00240,  -0.00342,476160400.51930,   0.00121,275961158.91401,  -0.00083,   0.00107,  -0.00076,   0.28559,   1.00000
173897672.02960,365783124.39349,-205029323.40399,  -0.00076,   0.00239,  -0.00342,476179685.57934,   0.00122,275962110.53897,  -0.00083,   0.00107,  -0.00076,   0.34290,   1.00000
176402169.56976,366251182.66777,-204850161.22035,  -0.00075,   0.00239,  -0.00342,476200081.98596,   0.00122,275963145.91640,  -0.00083,   0.00107,  -0.00076,   0.40942,   1.00000
178882046.64816,366732130.40459,-204656212.28430,  -0.00074,   0.00239,  -0.00342,476211337.25722,   0.00122,275964224.78858,  -0.00083,   0.00107,  -0.00076,   0.44834,   1.00000
181381288.37665,367193091.47392,-204462697.45866,  -0.00072,   0.00239,  -0.00342,476211535.28325,   0.00122,275965298.85535,  -0.00083,   0.00107,  -0.00076,   0.44810,   1.00000
183846854.09428,367646148.13080,-204263861.44856,  -0.00071,   0.00239,  -0.00342,476201933.38684,   0.00122,275966325.62677,  -0.00083,   0.00107,  -0.00076,   0.41288,   1.00000
186344715.36468,368109332.66584,-204051744.82607,  -0.00070,   0.00238,  -0.00342,476209880.51103,   0.00122,275967381.44752,  -0.00083,   0.00107,  -0.00076,   0.44018,   1.00000
188846483.47302,368585068.29041,-203825196.36651,  -0.00069,   0.00238,  -0.00342,476242960.82775,   0.00122,275968574.97229,  -0.00083,   0.00107,  -0.00077,   0.56711,   1.00000
191371405.55767,369049560.96929,-203594454.49117,  -0.00068,   0.00238,  -0.00341,476231015.54814,   0.00122,275969710.50647,  -0.00083,   0.00107,  -0.00077,   0.51754,   1.00000
193867100.53289,369517768.11963,-203353423.70372,  -0.00067,   0.00238,  -0.00341,476255064.58528,   0.00122,275970944.00234,  -0.00083,   0.00107,  -0.00077,   0.61558,   1.00000
196357544.49627,369977554.28521,-203107334.58720,  -0.00066,   0.00238,  -0.00341,476267659.81344,   0.00122,275972225.37589,  -0.00083,   0.00108,  -0.00077,   0.66953,   1.00000
198883772.47886,370455918.32687,-202843195.80653,  -0.00065,   0.00237,  -0.00341,476263955.02976,   0.00123,275973483.96743,  -0.00083,   0.00108,  -0.00077,   0.65107,   1.00000
201367737.04451,370908052.15972,-202582643.51134,  -0.00064,   0.00237,  -0.00341,476280044.64808,   0.00123,275974805.24937,  -0.00083,   0.00108,  -0.00077,   0.72305,   1.00000
203887358.17151,371378503.75319,-202303886.62477,  -0.00063,   0.00237,  -0.00341,476276744.70218,   0.00123,275976105.30270,  -0.00083,   0.00108,  -0.00078,   0.70542,   1.00000
206401259.68646,371840227.20213,-202019961.48279,  -0.00062,   0.00237,  -0.00340,476289742.07516,   0.00123,275977454.35388,  -0.00083,   0.00108,  -0.00078,   0.76537,   1.00000
208917162.16523,372313844.07770,-201721529.47612,  -0.00061,   0.00237,  -0.00340,476323581.00157,   0.00123,275978941.62440,  -0.00083,   0.00108,  -0.00078,   0.93725,   1.00000
211423953.95734,372767408.38175,-201422944.93295,  -0.00060,   0.00236,  -0.00340,476303016.52344,   0.00123,275980332.70521,  -0.00083,   0.00108,  -0.00078,   0.82600,   1.00000
213932333.60491,373232769.96549,-201109875.68001,  -0.00059,   0.00236,  -0.00340,476336933.02656,   0.00123,275981861.80704,  -0.00083,   0.00108,  -0.00078,  -0.00000,   2.00000
216470898.57689,373706130.93497,-200782473.98058,  -0.00058,   0.00236,  -0.00340,476348019.43593,   0.00123,275983430.21074,  -0.00083,   0.00108,  -0.00079,   0.00000,   2.00000
218976297.32880,374172366.16470,-200450301.74341,  -0.00057,   0.00236,  -0.00339,476337848.78598,   0.00124,275984946.71018,  -0.00083,   0.00108,  -0.00079,  -0.00000,   2.00000
221506701.45398,374636961.59155,-200108079.26864,  -0.00056,   0.00236,  -0.00339,476362159.68529,   0.00124,275986558.99136,  -0.00083,   0.00108,  -0.00079,   0.00000,   2.00000
224004098.49425,375094621.24585,-199761199.34965,  -0.00055,   0.00235,  -0.00339,476351794.50748,   0.00124,275988118.38575,  -0.00083,   0.00108,  -0.00079,   0.00000,   2.00000
226526080.31764,375550370.63516,-199404173.27568,  -0.00053,   0.00235,  -0.00339,476376449.23644,   0.00124,275989774.56005,  -0.00083,   0.00109,  -0.00080,   0.00000,   2.00000
229048060.46309,376017334.21368,-199032631.75511,  -0.00052,   0.00235,  -0.00339,476411065.30784,   0.00124,275991569.29406,  -0.00083,   0.00109,  -0.00080,   0.00000,   2.00000
231561267.79342,376464031.12211,-198660761.03189,  -0.00051,   0.00235,  -0.00338,476391232.27011,   0.00124,275993269.98063,  -0.00083,   0.00109,  -0.00080,  -0.00000,   2.00000
234079277.89471,376931161.93667,-198269897.90803,  -0.00050,   0.00235,  -0.00338,476413191.20769,   0.00125,275995054.83342,  -0.00083,   0.00109,  -0.00080,   0.00000,   2.00000
236589979.80005,377388990.81998,-197873885.07738,  -0.00049,   0.00235,  -0.00338,476427090.83318,   0.00125,275996889.07166,  -0.00083,   0.00109,  -0.00081,   0.00000,   2.00000
239098602.48804,377846818.54093,-197468196.98715,  -0.00048,   0.00234,  -0.00337,476428336.09004,   0.00125,275998718.68484,  -0.00083,   0.00109,  -0.00081,  -0.00000,   2.00000
241606035.76960,378315533.87995,-197048090.70131,  -0.00047,   0.00234,  -0.00337,476463272.12868,   0.00125,276000686.37710,  -0.00083,   0.00109,  -0.00081,   0.00000,   2.00000
244104978.68524,378763935.47088,-196627601.39491,  -0.00046,   0.00234,  -0.00337,476443752.08371,   0.00125,276002560.84227,  -0.00083,   0.00109,  -0.00081,  -0.00000,   2.00000
246632465.57582,379229198.99031,-196187221.61665,  -0.00045,   0.00234,  -0.00337,476491259.91887,   0.00125,276004625.87510,  -0.00083,   0.00109,  -0.00082,   0.00000,   2.00000
249121351.72819,379667968.71631,-195751896.44147,  -0.00044,   0.00234,  -0.00336,476459533.65970,   0.00126,276006545.81932,  -0.00083,   0.00110,  -0.00082,  -0.00000,   2.00000
251638077.73999,380123262.21315,-195296622.30352,  -0.00043,   0.00234,  -0.00336,476507413.75341,   0.00126,276008657.15464,  -0.00083,   0.00110,  -0.00082,   0.00000,   2.00000
254128051.97925,380592449.39835,-194827975.35960,  -0.00042,   0.00233,  -0.00336,476517580.67222,   0.00126,276010799.80012,  -0.00083,   0.00110,  -0.00082,   0.00000,   2.00000
256633692.55406,381037606.89491,-194357843.34218,  -0.00041,   0.00233,  -0.00335,476523952.40290,   0.00126,276012957.56377,  -0.00083,   0.00110,  -0.00083,   0.00000,   2.00000
259112519.15084,381496778.55034,-193874461.61859,  -0.00039,   0.00233,  -0.00335,476533973.89706,   0.00126,276015145.65250,  -0.00083,   0.00110,  -0.00083,   0.00000,   2.00000
261606774.67058,381931705.29305,-193389509.25948,  -0.00038,   0.00233,  -0.00335,476540663.37674,   0.00127,276017349.86272,  -0.00083,   0.00110,  -0.00083,   0.00000,   2.00000
264103366.24390,382385999.40903,-192885533.11843,  -0.00037,   0.00233,  -0.00334,476564042.74687,   0.00127,276019639.94786,  -0.00083,   0.00110,  -0.00084,   0.00000,   2.00000
266561877.40047,382825284.77125,-192382487.19830,  -0.00036,   0.00233,  -0.00334,476565220.11877,   0.00127,276021922.45764,  -0.00083,   0.00110,  -0.00084,   0.00000,   2.00000
269045422.01136,383279785.26817,-191859381.69611,  -0.00035,   0.00233,  -0.00334,476614633.11520,   0.00127,276024398.91148,  -0.00083,   0.00111,  -0.00084,   0.00000,   2.00000
271526801.14111,383722826.79164,-191330840.15463,  -0.00034,   0.00232,  -0.00333,476583900.50273,   0.00128,276026733.53307,  -0.00083,   0.00111,  -0.00085,  -0.00000,   2.00000
273997526.20193,384166550.03110,-190793042.38332,  -0.00033,   0.00232,  -0.00333,476632220.89446,   0.00128,276029256.70086,  -0.00083,   0.00111,  -0.00085,   0.00000,   2.00000
276464805.96525,384609426.91774,-190245476.32313,  -0.00032,   0.00232,  -0.00333,476635041.29629,   0.00128,276031777.73172,  -0.00083,   0.00111,  -0.00085,   0.00000,   2.00000
278928599.15131,385051401.63726,-189688125.22478,  -0.00031,   0.00232,  -0.00332,476637931.45844,   0.00128,276034296.89601,  -0.00083,   0.00111,  -0.00086,   0.00000,   2.00000
281387008.84118,385503020.59534,-189116802.25950,  -0.00030,   0.00232,  -0.00332,476674232.00079,   0.00128,276036952.82901,  -0.00083,   0.00111,  -0.00086,   0.00000,   2.00000
283837419.63975,385933910.28004,-188544818.04994,  -0.00029,   0.00232,  -0.00331,476656167.46840,   0.00129,276039519.24906,  -0.00082,   0.00112,  -0.00086,   0.00000,   2.00000
286281996.95939,386374346.12355,-187958948.94472,  -0.00028,   0.00232,  -0.00331,476692549.53880,   0.00129,276042222.08597,  -0.00082,   0.00112,  -0.00087,   0.00000,   2.00000
288716348.84042,386804606.60814,-187368350.68450,  -0.00026,   0.00232,  -0.00331,476707853.66910,   0.00129,276044973.25479,  -0.00082,   0.00112,  -0.00087,   0.00000,   2.00000
291150684.24553,387253347.38416,-186758952.49800,  -0.00025,   0.00231,  -0.00330,476732416.58219,   0.00129,276047810.56535,  -0.00082,   0.00112,  -0.00087,   0.00000,   2.00000
293598072.48892,387676018.17114,-186147477.22648,  -0.00024,   0.00231,  -0.00330,476741848.87839,   0.00130,276050671.02396,  -0.00082,   0.00112,  -0.00088,  -0.00000,   2.00000
296017566.29254,388113149.83746,-185523656.39224,  -0.00023,   0.00231,  -0.00329,476751566.59246,   0.00130,276053555.61421,  -0.00082,   0.00112,  -0.00088,  -0.00000,   2.00000
298432837.52548,388548962.38725,-184890100.67648,  -0.00022,   0.00231,  -0.00329,476755220.11565,   0.00130,276056439.20378,  -0.00082,   0.00112,  -0.00089,   0.00000,   2.00000
300830651.09642,388965435.57899,-184257161.97256,  -0.00021,   0.00231,  -0.00328,476782627.05056,   0.00131,276059419.28458,  -0.00082,   0.00113,  -0.00089,   0.00000,   2.00000
303234029.86546,389408973.02533,-183600355.00235,  -0.00020,   0.00231,  -0.00328,476795895.37654,   0.00131,276062437.14014,  -0.00082,   0.00113,  -0.00089,   0.00000,   2.00000
305619530.75047,389833100.95659,-182944321.03024,  -0.00019,   0.00231,  -0.00328,476823390.40227,   0.00131,276065550.72160,  -0.00082,   0.00113,  -0.00090,   0.00000,   2.00000
308026839.55178,390258798.08382,-182271917.22192,  -0.00018,   0.00231,  -0.00327,476843447.56583,   0.00131,276068728.87044,  -0.00082,   0.00113,  -0.00090,  -0.00000,   2.00000
310402928.95332,390679796.51306,-181596502.91109,  -0.00017,   0.00231,  -0.00327,476831710.15473,   0.00132,276071841.42140,  -0.00082,   0.00113,  -0.00091,   0.00000,   2.00000
312767502.31471,391090310.73861,-180916743.84674,  -0.00016,   0.00231,  -0.00326,476847517.33480,   0.00132,276075001.02497,  -0.00082,   0.00114,  -0.00091,  -0.00000,   2.00000
315129957.97687,391518487.18427,-180218465.15497,  -0.00014,   0.00230,  -0.00326,476873117.18692,   0.00132,276078247.09438,  -0.00081,   0.00114,  -0.00091,   0.00000,   2.00000
317473709.02375,391927243.59507,-179521356.90629,  -0.00013,   0.00230,  -0.00325,476900624.32693,   0.00133,276081586.76656,  -0.00081,   0.00114,  -0.00092,  -0.00000,   2.00000
319821723.23723,392362319.91690,-178800413.24925,  -0.00012,   0.00230,  -0.00325,476914981.72002,   0.00133,276084965.93584,  -0.00081,   0.00114,  -0.00092,   0.00000,   2.00000
322180639.00462,392769831.41862,-178077202.07591,  -0.00011,   0.00230,  -0.00324,476926589.04064,   0.00133,276088373.15293,  -0.00081,   0.00114,  -0.00093,  -0.00000,   2.00000
324504065.53398,393183469.38796,-177348010.35940,  -0.00010,   0.00230,  -0.00324,476947373.56922,   0.00134,276091845.30530,  -0.00081,   0.00115,  -0.00093,   0.00000,   2.00000
326815115.68271,393586455.54279,-176614816.32822,  -0.00009,   0.00230,  -0.00323,476963524.44953,   0.00134,276095363.20576,  -0.00081,   0.00115,  -0.00094,   0.00000,   2.00000
329122665.25756,394006605.80243,-175863390.80009,  -0.00008,   0.00230,  -0.00323,476989811.62366,   0.00134,276098967.27731,  -0.00081,   0.00115,  -0.00094,   0.00000,   2.00000
331422720.27901,394405625.66747,-175111150.15388,  -0.00007,   0.00230,  -0.00322,476973432.92734,   0.00135,276102485.23598,  -0.00081,   0.00115,  -0.00095,   0.00000,   2.00000
333711819.66920,394812944.79647,-174346358.26503,  -0.00006,   0.00230,  -0.00322,477011131.14494,   0.00135,276106134.85822,  -0.00081,   0.00115,  -0.00095,   0.00000,   2.00000
335989621.08136,395228475.35781,-173569144.94397,  -0.00005,   0.00230,  -0.00321,477048955.46347,   0.00135,276109915.63059,  -0.00080,   0.00116,  -0.00096,   0.00000,   2.00000
338259961.33977,395622814.24991,-172791121.98916,  -0.00004,   0.00230,  -0.00321,477032849.84398,   0.00136,276113610.66673,  -0.00080,   0.00116,  -0.00096,   0.00000,   2.00000
340518576.91501,396025283.84303,-172000826.18703,  -0.00002,   0.00230,  -0.00320,477070742.00744,   0.00136,276117436.37221,  -0.00080,   0.00116,  -0.00097,   0.00000,   2.00000
342771070.34517,396425445.34466,-171201139.47356,  -0.00001,   0.00230,  -0.00320,477076258.72842,   0.00136,276121262.53778,  -0.00080,   0.00116,  -0.00097,   0.00000,   2.00000
345004088.68303,396825060.47536,-170395211.26517,  -0.00000,   0.00230,  -0.00319,477125276.53001,   0.00137,276125262.44644,  -0.00080,   0.00116,  -0.00098,   0.00000,   2.00000
347236961.57550,397211941.35111,-169582610.82237,   0.00001,   0.00230,  -0.00319,477098583.82018,   0.00137,276129133.63901,  -0.00080,   0.00117,  -0.00098,   0.00000,   2.00000
349457133.96262,397606710.59303,-168758089.62829,   0.00002,   0.00230,  -0.00318,477136721.41582,   0.00137,276133134.43069,  -0.00080,   0.00117,  -0.00099,   0.00000,   2.00000
351641183.63374,398008529.03336,-167929055.87695,   0.00003,   0.00230,  -0.00317,477156408.65364,   0.00138,276137190.72153,  -0.00079,   0.00117,  -0.00099,   0.00000,   2.00000
353833846.78772,398381457.94016,-167097958.56822,   0.00004,   0.00230,  -0.00317,477170030.45940,   0.00138,276141278.07223,  -0.00079,   0.00117,  -0.00100,   0.00000,   2.00000
356020399.69139,398770566.77828,-166249268.09626,   0.00005,   0.00230,  -0.00316,477197608.85085,   0.00139,276145451.28894,  -0.00079,   0.00118,  -0.00100,   0.00000,   2.00000
358170651.37973,399166924.82830,-165396436.64319,   0.00006,   0.00230,  -0.00316,477217092.53350,   0.00139,276149677.80569,  -0.00079,   0.00118,  -0.00101,  -0.00000,   2.00000
360336282.76473,399542366.57195,-164535510.79403,   0.00007,   0.00230,  -0.00315,477220628.77255,   0.00139,276153894.36800,  -0.00079,   0.00118,  -0.00101,   0.00000,   2.00000
362465578.84041,399925222.81805,-163670648.83334,   0.00008,   0.00230,  -0.00315,477239922.55383,   0.00140,276158162.98488,  -0.00079,   0.00118,  -0.00102,  -0.00000,   2.00000
364610042.58608,400305499.93661,-162789396.22445,   0.00009,   0.00230,  -0.00314,477265442.11786,   0.00140,276162507.57925,  -0.00078,   0.00119,  -0.00102,   0.00000,   2.00000
366710653.20226,400685076.67043,-161910685.87946,   0.00010,   0.00230,  -0.00313,477295058.20073,   0.00141,276166943.67635,  -0.00078,   0.00119,  -0.00103,   0.00000,   2.00000
368833219.00001,401069927.55399,-161009419.29623,   0.00012,   0.00230,  -0.00313,477310673.51762,   0.00141,276171415.67776,  -0.00078,   0.00119,  -0.00104,   0.00000,   2.00000
370912056.04378,401435733.68078,-160119156.33839,   0.00013,   0.00230,  -0.00312,477318456.23765,   0.00141,276175892.84320,  -0.00078,   0.00119,  -0.00104,  -0.00000,   2.00000
372983307.74882,401817224.05942,-159211927.15318,   0.00014,   0.00230,  -0.00312,477346653.67753,   0.00142,276180454.56888,  -0.00078,   0.00120,  -0.00105,   0.00000,   2.00000
375039765.29620,402187713.91224,-158302254.13181,   0.00015,   0.00230,  -0.00311,477363585.96730,   0.00142,276185056.39547,  -0.00077,   0.00120,  -0.00105,   0.00000,   2.00000
377088788.39870,402555264.72592,-157383790.49802,   0.00016,   0.00230,  -0.00310,477370389.03002,   0.00143,276189658.63416,  -0.00077,   0.00120,  -0.00106,   0.00000,   2.00000
379122873.75045,402911817.12030,-156463001.13683,   0.00017,   0.00230,  -0.00310,477387351.81871,   0.00143,276194300.65421,  -0.00077,   0.00120,  -0.00106,   0.00000,   2.00000
381141119.36183,403275761.18810,-155532025.65112,   0.00018,   0.00230,  -0.00309,477425986.71788,   0.00144,276199065.94713,  -0.00077,   0.00121,  -0.00107,   0.00000,   2.00000
383150669.11385,403654921.20363,-154584487.82263,   0.00019,   0.00230,  -0.00308,477454788.57421,   0.00144,276203915.49228,  -0.00077,   0.00121,  -0.00108,   0.00000,   2.00000
385145945.78190,404004677.70731,-153642799.74730,   0.00020,   0.00230,  -0.00308,477450260.02594,   0.00144,276208720.21446,  -0.00076,   0.00121,  -0.00108,   0.00000,   2.00000
387124755.03357,404361703.32342,-152691300.66984,   0.00021,   0.00230,  -0.00307,477489037.37626,   0.00145,276213647.04419,  -0.00076,   0.00121,  -0.00109,  -0.00000,   2.00000
389075781.44390,404716802.81921,-151738708.50030,   0.00022,   0.00230,  -0.00307,477475694.08107,   0.00145,276218494.85508,  -0.00076,   0.00122,  -0.00109,   0.00000,   2.00000
391029805.93650,405077808.42552,-150769161.29957,   0.00023,   0.00230,  -0.00306,477535158.80982,   0.00146,276223543.29523,  -0.00076,   0.00122,  -0.00110,   0.00000,   2.00000
392956173.72277,405436942.61757,-149798616.68549,   0.00024,   0.00230,  -0.00305,477521846.04224,   0.00146,276228512.30447,  -0.00075,   0.00122,  -0.00111,   0.00000,   2.00000
394878940.70840,405775837.06468,-148825849.41207,   0.00026,   0.00230,  -0.00305,477569479.34398,   0.00147,276233635.32518,  -0.00075,   0.00123,  -0.00111,   0.00000,   2.00000
396772624.13052,406131216.43037,-147844542.11822,   0.00027,   0.00230,  -0.00304,477577785.51629,   0.00147,276238761.16573,  -0.00075,   0.00123,  -0.00112,   0.00000,   2.00000
398658133.65695,406483249.36806,-146854978.41626,   0.00028,   0.00230,  -0.00303,477585409.48007,   0.00148,276243887.15100,  -0.00074,   0.00123,  -0.00112,   0.00000,   2.00000
400520589.08806,406816784.47180,-145871005.46439,   0.00029,   0.00230,  -0.00303,477611886.50058,   0.00148,276249084.98541,  -0.00074,   0.00123,  -0.00113,   0.00000,   2.00000
402372762.53774,407165024.11327,-144871367.39560,   0.00030,   0.00230,  -0.00302,477641378.68085,   0.00149,276254365.44500,  -0.00074,   0.00124,  -0.00114,  -0.00000,   2.00000
404216509.97206,407509773.99447,-143863623.30113,   0.00031,   0.00231,  -0.00301,477649287.15706,   0.00149,276259646.13796,  -0.00074,   0.00124,  -0.00114,   0.00000,   2.00000
406034729.83180,407854084.80782,-142854462.78122,   0.00032,   0.00231,  -0.00301,477697489.37583,   0.00150,276265079.33902,  -0.00073,   0.00124,  -0.00115,   0.00000,   2.00000
407844381.91172,408194856.51666,-141837347.29882,   0.00033,   0.00231,  -0.00300,477705561.96269,   0.00150,276270512.47619,  -0.00073,   0.00125,  -0.00115,  -0.00000,   2.00000
409620263.64770,408527176.29252,-140826756.61469,   0.00034,   0.00231,  -0.00299,477700877.79632,   0.00151,276275897.60138,  -0.00073,   0.00125,  -0.00116,   0.00000,   2.00000
411402792.84647,408871339.13210,-139793654.86759,   0.00035,   0.00231,  -0.00298,477752678.78804,   0.00151,276281447.16696,  -0.00072,   0.00125,  -0.00117,  -0.00000,   2.00000
413151721.76320,409207181.28508,-138767246.07651,   0.00036,   0.00231,  -0.00298,477747909.42407,   0.00152,276286947.81230,  -0.00072,   0.00126,  -0.00117,  -0.00000,   2.00000
414884795.34947,409532262.29301,-137740298.52366,   0.00037,   0.00231,  -0.00297,477764932.34540,   0.00152,276292481.52026,  -0.00072,   0.00126,  -0.00118,  -0.00000,   2.00000
416616176.41167,409861522.55635,-136698478.37475,   0.00038,   0.00231,  -0.00296,477826122.31414,   0.00153,276298212.99719,  -0.00071,   0.00126,  -0.00119,   0.00000,   2.00000
418321673.95699,410189977.42624,-135656288.14402,   0.00039,   0.00232,  -0.00296,477812321.78078,   0.00153,276303861.02239,  -0.00071,   0.00126,  -0.00119,   0.00000,   2.00000
420011155.25518,410507674.12632,-134613843.43175,   0.00040,   0.00232,  -0.00295,477829419.93088,   0.00154,276309541.30154,  -0.00071,   0.00127,  -0.00120,   0.00000,   2.00000
421664914.83897,410835569.07980,-133571451.82580,   0.00041,   0.00232,  -0.00294,477845778.61560,   0.00154,276315250.86541,  -0.00070,   0.00127,  -0.00121,   0.00000,   2.00000
423319269.49364,411149630.79876,-132521828.98561,   0.00042,   0.00232,  -0.00294,477885322.59204,   0.00155,276321075.47467,  -0.00070,   0.00127,  -0.00121,   0.00000,   2.00000
424961343.13352,411477582.71939,-131457869.93992,   0.00043,   0.00232,  -0.00293,477915884.95260,   0.00155,276326980.89033,  -0.00070,   0.00128,  -0.00122,  -0.00000,   2.00000
426571189.11579,411798255.13091,-130401248.13031,   0.00044,   0.00232,  -0.00292,477910214.77691,   0.00156,276332832.67831,  -0.00069,   0.00128,  -0.00123,   0.00000,   2.00000
428180989.83457,412104812.87595,-129337751.08516,   0.00045,   0.00232,  -0.00291,477950105.69811,   0.00157,276338799.30751,  -0.00069,   0.00128,  -0.00123,   0.00000,   2.00000
429762375.06728,412428734.27307,-128267330.75523,   0.00047,   0.00233,  -0.00291,477957883.01387,   0.00157,276344761.60401,  -0.00069,   0.00129,  -0.00124,   0.00000,   2.00000
431327747.43638,412742062.73451,-127197364.45831,   0.00048,   0.00233,  -0.00290,477974895.70224,   0.00158,276350753.58687,  -0.00068,   0.00129,  -0.00124,  -0.00000,   2.00000
432873268.23182,413062357.60506,-126121276.12316,   0.00049,   0.00233,  -0.00289,478013844.86998,   0.00158,276356855.49041,  -0.00068,   0.00129,  -0.00125,  -0.00000,   2.00000
434402763.30807,413372122.44759,-125045877.60351,   0.00050,   0.00233,  -0.00288,478030862.88466,   0.00159,276362986.21708,  -0.00067,   0.00130,  -0.00126,   0.00000,   2.00000
435916277.41907,413671445.93491,-123971251.22070,   0.00051,   0.00233,  -0.00288,478047830.26299,   0.00159,276369145.41345,  -0.00067,   0.00130,  -0.00126,   0.00000,   2.00000
437401824.77201,413988458.80678,-122890102.45872,   0.00052,   0.00234,  -0.00287,478055349.35209,   0.00160,276375298.34092,  -0.00067,   0.00130,  -0.00127,   0.00000,   2.00000
438886247.13287,414290873.55216,-121802977.81238,   0.00053,   0.00234,  -0.00286,478095761.79326,   0.00161,276381564.84920,  -0.00066,   0.00131,  -0.00128,   0.00000,   2.00000
440335799.78434,414604541.17427,-120717392.61060,   0.00054,   0.00234,  -0.00285,478111124.24922,   0.00161,276387853.05459,  -0.00066,   0.00131,  -0.00128,   0.00000,   2.00000
441790766.37943,414909845.88361,-119618192.89188,   0.00055,   0.00234,  -0.00285,478144019.83952,   0.00162,276394226.34007,  -0.00065,   0.00132,  -0.00129,   0.00000,   2.00000
443215428.42651,415209194.56889,-118527078.34341,   0.00056,   0.00234,  -0.00284,478137281.10367,   0.00162,276400540.61078,  -0.00065,   0.00132,  -0.00130,   0.00000,   2.00000
444612942.37880,415509310.92576,-117439033.93195,   0.00057,   0.00235,  -0.00283,478183691.73006,   0.00163,276406988.56425,  -0.00064,   0.00132,  -0.00130,  -0.00000,   2.00000
446008262.84576,415811692.91804,-116336368.26518,   0.00058,   0.00235,  -0.00282,478185494.83660,   0.00164,276413408.09020,  -0.00064,   0.00133,  -0.00131,   0.00000,   2.00000
447367328.92990,416102418.38233,-115250015.01886,   0.00059,   0.00235,  -0.00282,478185707.06425,   0.00164,276419793.86888,  -0.00064,   0.00133,  -0.00132,   0.00000,   2.00000
448719711.99740,416395517.97559,-114152466.17092,   0.00060,   0.00235,  -0.00281,478248463.02727,   0.00165,276426371.03847,  -0.00063,   0.00133,  -0.00132,  -0.00000,   2.00000
450044707.31356,416706649.39271,-113049100.72359,   0.00061,   0.00236,  -0.00280,478255844.75774,   0.00165,276432939.34271,  -0.00063,   0.00134,  -0.00133,   0.00000,   2.00000
451372462.28414,416985549.23351,-111946983.88892,   0.00062,   0.00236,  -0.00279,478274744.51897,   0.00166,276439540.22422,  -0.00062,   0.00134,  -0.00134,   0.00000,   2.00000
452666361.83542,417276619.95190,-110847369.50934,   0.00063,   0.00236,  -0.00278,478289246.84957,   0.00167,276446157.76037,  -0.00062,   0.00134,  -0.00134,   0.00000,   2.00000
453946197.57810,417580708.08429,-109735587.83548,   0.00064,   0.00236,  -0.00278,478320910.05804,   0.00167,276452853.02510,  -0.00061,   0.00135,  -0.00135,   0.00000,   2.00000
455204088.48715,417868914.30106,-108634240.06398,   0.00065,   0.00237,  -0.00277,478344615.40738,   0.00168,276459597.25445,  -0.00061,   0.00135,  -0.00136,   0.00000,   2.00000
456453113.85816,418153066.66588,-107526756.77151,   0.00066,   0.00237,  -0.00276,478354269.91013,   0.00168,276466340.08008,  -0.00060,   0.00136,  -0.00136,  -0.00000,   2.00000
457668867.35814,418449757.92194,-106422189.37205,   0.00067,   0.00237,  -0.00275,478368360.45274,   0.00169,276473097.32199,  -0.00060,   0.00136,  -0.00137,   0.00000,   2.00000
458881945.73025,418731177.77148,-105313650.97768,   0.00068,   0.00237,  -0.00274,478409531.60045,   0.00170,276479964.95983,  -0.00059,   0.00136,  -0.00138,  -0.00000,   2.00000
460061985.27182,419025323.05844,-104208260.47645,   0.00069,   0.00238,  -0.00274,478423483.78445,   0.00170,276486845.88941,  -0.00059,   0.00137,  -0.00138,   0.00000,   2.00000
461227095.43722,419309792.94284,-103105438.69999,   0.00070,   0.00238,  -0.00273,478439883.65914,   0.00171,276493748.75686,  -0.00058,   0.00137,  -0.00139,   0.00000,   2.00000
462383546.36380,419590188.07776,-101996730.06294,   0.00071,   0.00238,  -0.00272,478449672.84455,   0.00172,276500650.08019,  -0.00058,   0.00137,  -0.00139,  -0.00000,   2.00000
463519286.18942,419877797.27605,-100885257.25685,   0.00072,   0.00239,  -0.00271,478488277.59117,   0.00172,276507651.38673,  -0.00057,   0.00138,  -0.00140,   0.00000,   2.00000
464640172.24292,420155782.08604,-99776614.98038,   0.00073,   0.00239,  -0.00270,478504705.32146,   0.00173,276514674.08232,  -0.00057,   0.00138,  -0.00141,   0.00000,   2.00000
465734758.53753,420430214.98065,-98676909.16971,   0.00074,   0.00239,  -0.00270,478495925.57803,   0.00174,276521629.65878,  -0.00056,   0.00139,  -0.00141,   0.00000,   2.00000
466820309.54307,420706034.82141,-97568818.16967,   0.00075,   0.00239,  -0.00269,478559462.32873,   0.00174,276528772.02972,  -0.00056,   0.00139,  -0.00142,   0.00000,   2.00000
467873848.62276,420995248.53741,-96464530.23367,   0.00076,   0.00240,  -0.00268,478572788.68958,   0.00175,276535924.26034,  -0.00055,   0.00139,  -0.00143,   0.00000,   2.00000
468918950.77948,421280282.73567,-95354690.99835,   0.00077,   0.00240,  -0.00267,478582826.21229,   0.00176,276543074.80401,  -0.00054,   0.00140,  -0.00143,   0.00000,   2.00000
469943865.41954,421550820.72100,-94256825.71173,   0.00078,   0.00240,  -0.00266,478605089.37892,   0.00176,276550266.51483,  -0.00054,   0.00140,  -0.00144,   0.00000,   2.00000
470960448.78791,421817280.70541,-93153462.36080,   0.00079,   0.00241,  -0.00266,478615141.53823,   0.00177,276557456.60531,  -0.00053,   0.00141,  -0.00144,   0.00000,   2.00000
471956488.51533,422091173.07140,-92048424.37046,   0.00080,   0.00241,  -0.00265,478653523.17149,   0.00178,276564743.60539,  -0.00053,   0.00141,  -0.00145,   0.00000,   2.00000
472921309.88681,422378911.17776,-90947577.84815,   0.00081,   0.00241,  -0.00264,478666395.42842,   0.00178,276572038.37337,  -0.00052,   0.00142,  -0.00146,  -0.00000,   2.00000
473882884.77976,422651007.67013,-89844641.78377,   0.00082,   0.00242,  -0.00263,478707955.22215,   0.00179,276579440.35988,  -0.00052,   0.00142,  -0.00146,   0.00000,   2.00000
474820114.45413,422920601.67121,-88750931.22890,   0.00083,   0.00242,  -0.00262,478698380.00296,   0.00180,276586772.05692,  -0.00051,   0.00142,  -0.00147,   0.00000,   2.00000
475749276.09261,423186074.00644,-87651924.75124,   0.00084,   0.00243,  -0.00261,478708575.01126,   0.00180,276594102.26353,  -0.00050,   0.00143,  -0.00147,   0.00000,   2.00000
476652653.40700,423454349.09412,-86560837.77772,   0.00085,   0.00243,  -0.00261,478752357.56106,   0.00181,276601546.98086,  -0.00050,   0.00143,  -0.00148,   0.00000,   2.00000
477541247.92668,423734916.61824,-85459894.47212,   0.00086,   0.00243,  -0.00260,478785025.08411,   0.00182,276609067.10890,  -0.00049,   0.00144,  -0.00149,   0.00000,   2.00000
478406392.49233,424013358.77552,-84368239.88793,   0.00087,   0.00244,  -0.00259,478775101.33185,   0.00183,276616515.83074,  -0.00048,   0.00144,  -0.00149,   0.00000,   2.00000
479263004.46274,424271545.63539,-83284264.41603,   0.00087,   0.00244,  -0.00258,478822049.18211,   0.00183,276624089.10081,  -0.00048,   0.00145,  -0.00150,  -0.00000,   2.00000
480095019.42584,424548942.27909,-82195963.13212,   0.00088,   0.00244,  -0.00257,478828900.18303,   0.00184,276631648.59538,  -0.00047,   0.00145,  -0.00150,   0.00000,   2.00000
480914099.00424,424817636.29825,-81111747.15452,   0.00089,   0.00245,  -0.00256,478844557.50341,   0.00185,276639224.68570,  -0.00047,   0.00145,  -0.00151,   0.00000,   2.00000
481720362.97263,425077735.98880,-80031660.11073,   0.00090,   0.00245,  -0.00256,478860150.12004,   0.00185,276646817.17597,  -0.00046,   0.00146,  -0.00152,   0.00000,   2.00000
482511828.83641,425349956.82293,-78942242.29377,   0.00091,   0.00246,  -0.00255,478893037.76282,   0.00186,276654484.95667,  -0.00045,   0.00146,  -0.00152,   0.00000,   2.00000
483285545.60961,425609253.73604,-77866305.61874,   0.00092,   0.00246,  -0.00254,478913714.21835,   0.00187,276662186.14941,  -0.00045,   0.00147,  -0.00153,   0.00000,   2.00000
484030241.69272,425883627.25180,-76795400.21347,   0.00093,   0.00247,  -0.00253,478925476.07260,   0.00188,276669890.26416,  -0.00044,   0.00147,  -0.00153,   0.00000,   2.00000
484762741.03105,426149639.93458,-75728859.21751,   0.00094,   0.00247,  -0.00252,478940828.73493,   0.00188,276677609.62665,  -0.00043,   0.00148,  -0.00154,   0.00000,   2.00000
485497065.28682,426404147.33982,-74652643.46179,   0.00095,   0.00247,  -0.00251,478977591.08733,   0.00189,276685416.85120,  -0.00043,   0.00148,  -0.00154,   0.00000,   2.00000
486197920.60314,426669816.46548,-73590929.66216,   0.00096,   0.00248,  -0.00251,478994006.78501,   0.00190,276693242.57586,  -0.00042,   0.00148,  -0.00155,   0.00000,   2.00000
486891613.20595,426931322.87371,-72524456.55602,   0.00097,   0.00248,  -0.00250,479004609.57709,   0.00190,276701067.05890,  -0.00041,   0.00149,  -0.00155,   0.00000,   2.00000
487552436.30231,427204289.52274,-71472588.55655,   0.00098,   0.00249,  -0.00249,479020631.94652,   0.00191,276708908.79053,  -0.00041,   0.00149,  -0.00156,  -0.00000,   2.00000
488215120.59984,427465534.18992,-70411396.90166,   0.00099,   0.00249,  -0.00248,479057592.66808,   0.00192,276716838.40275,  -0.00040,   0.00150,  -0.00157,  -0.00000,   2.00000
488857495.02227,427726299.87775,-69359456.39693,   0.00100,   0.00250,  -0.00247,479046416.14020,   0.00193,276724693.20165,  -0.00039,   0.00150,  -0.00157,   0.00000,   2.00000
489489405.85562,427987422.33681,-68303953.20834,   0.00101,   0.00250,  -0.00246,479110499.84721,   0.00193,276732727.13517,  -0.00039,   0.00151,  -0.00158,  -0.00000,   2.00000
490097018.32048,428244522.35329,-67267130.84139,   0.00102,   0.00251,  -0.00246,479103540.27083,   0.00194,276740700.43336,  -0.00038,   0.00151,  -0.00158,   0.00000,   2.00000
490690205.55683,428513493.81014,-66221978.37793,   0.00103,   0.00251,  -0.00245,479136763.12867,   0.00195,276748748.40535,  -0.00037,   0.00152,  -0.00159,   0.00000,   2.00000
491264035.44343,428782387.25696,-65186011.80182,   0.00103,   0.00251,  -0.00244,479125230.86901,   0.00196,276756720.61849,  -0.00036,   0.00152,  -0.00159,   0.00000,   2.00000
491835413.32431,429035646.95549,-64150693.83535,   0.00104,   0.00252,  -0.00243,479166690.12054,   0.00196,276764795.22492,  -0.00036,   0.00153,  -0.00160,   0.00000,   2.00000
492379910.35717,429304992.79630,-63120968.14972,   0.00105,   0.00252,  -0.00242,479177571.18702,   0.00197,276772869.35679,  -0.00035,   0.00153,  -0.00160,   0.00000,   2.00000
492922050.80751,429558691.08170,-62092133.26202,   0.00106,   0.00253,  -0.00241,479219066.16394,   0.00198,276781045.49678,  -0.00034,   0.00154,  -0.00161,   0.00000,   2.00000
493441599.31300,429809387.65560,-61081943.82872,   0.00107,   0.00253,  -0.00240,479211178.45464,   0.00199,276789158.42395,  -0.00034,   0.00154,  -0.00161,  -0.00000,   2.00000
493946963.09734,430071863.24844,-60063827.26504,   0.00108,   0.00254,  -0.00240,479244538.06720,   0.00199,276797346.03190,  -0.00033,   0.00155,  -0.00162,   0.00000,   2.00000
494442207.17293,430326834.64155,-59050819.24614,   0.00109,   0.00254,  -0.00239,479259265.16240,   0.00200,276805545.98459,  -0.00032,   0.00155,  -0.00162,   0.00000,   2.00000
494911445.47827,430598260.73353,-58043527.95527,   0.00110,   0.00255,  -0.00238,479269801.20465,   0.00201,276813744.33268,  -0.00031,   0.00156,  -0.00162,   0.00000,   2.00000
495378759.57122,430854099.00775,-57037591.25517,   0.00111,   0.00255,  -0.00237,479311177.06194,   0.00202,276822043.73544,  -0.00031,   0.00156,  -0.00163,   0.00000,   2.00000
495828576.62821,431110831.10749,-56040598.83680,   0.00112,   0.00256,  -0.00236,479298975.93467,   0.00203,276830265.91889,  -0.00030,   0.00157,  -0.00163,   0.00000,   2.00000
496268337.41719,431367737.61234,-55042025.63225,   0.00113,   0.00257,  -0.00235,479362980.69649,   0.00203,276838664.09135,  -0.00029,   0.00157,  -0.00164,   0.00000,   2.00000
496690964.75928,431625691.28230,-54052369.80632,   0.00114,   0.00257,  -0.00235,479350708.65085,   0.00204,276846984.76091,  -0.00028,   0.00158,  -0.00164,  -0.00000,   2.00000
497104352.62667,431876511.17157,-53067970.21070,   0.00114,   0.00258,  -0.00234,479365126.36809,   0.00205,276855316.82928,  -0.00028,   0.00158,  -0.00165,   0.00000,   2.00000
497489250.01875,432141302.22231,-52099075.75672,   0.00115,   0.00258,  -0.00233,479378632.81359,   0.00206,276863657.35923,  -0.00027,   0.00159,  -0.00165,   0.00000,   2.00000
497876309.33205,432393619.88376,-51122287.40508,   0.00116,   0.00259,  -0.00232,479416458.64178,   0.00206,276872086.69875,  -0.00026,   0.00159,  -0.00166,   0.00000,   2.00000
498246046.36234,432654471.19965,-50148028.09043,   0.00117,   0.00259,  -0.00231,479453561.19124,   0.00207,276880602.05109,  -0.00025,   0.00160,  -0.00166,   0.00000,   2.00000
498599654.15673,432916805.26726,-49182482.46664,   0.00118,   0.00260,  -0.00230,479440947.86871,   0.00208,276889039.26163,  -0.00024,   0.00160,  -0.00166,   0.00000,   2.00000
498941542.03815,433169529.71436,-48232051.28882,   0.00119,   0.00260,  -0.00229,479458232.97226,   0.00209,276897497.41357,  -0.00024,   0.00161,  -0.00167,   0.00000,   2.00000
499269790.26644,433433656.92778,-47274498.62758,   0.00120,   0.00261,  -0.00229,479492025.22735,   0.00210,276906030.68446,  -0.00023,   0.00161,  -0.00167,  -0.00000,   2.00000
499586686.23622,433688338.74359,-46332164.58151,   0.00121,   0.00261,  -0.00228,479509173.84277,   0.00210,276914584.21701,  -0.00022,   0.00162,  -0.00168,   0.00000,   2.00000
499898624.70696,433938967.92107,-45385423.81554,   0.00122,   0.00262,  -0.00227,479520271.46200,   0.00211,276923138.12454,  -0.00021,   0.00162,  -0.00168,   0.00000,   2.00000
500183735.86164,434204431.93087,-44454399.28548,   0.00122,   0.00263,  -0.00226,479532950.37743,   0.00212,276931697.71525,  -0.00020,   0.00163,  -0.00168,   0.00000,   2.00000
500471258.66455,434457109.80276,-43516011.58953,   0.00123,   0.00263,  -0.00225,479571124.10430,   0.00213,276940346.60813,  -0.00020,   0.00163,  -0.00169,   0.00000,   2.00000
500741052.12908,434709516.41414,-42595827.11094,   0.00124,   0.00264,  -0.00224,479560800.29306,   0.00214,276948925.76712,  -0.00019,   0.00164,  -0.00169,   0.00000,   2.00000
501003432.73350,434955552.15371,-41681024.45351,   0.00125,   0.00264,  -0.00224,479574566.92608,   0.00215,276957514.50530,  -0.00018,   0.00164,  -0.00169,  -0.00000,   2.00000
501249733.97708,435210531.76715,-40769287.90886,   0.00126,   0.00265,  -0.00223,479611173.54557,   0.00215,276966187.49196,  -0.00017,   0.00165,  -0.00170,   0.00000,   2.00000
501480053.26763,435474381.71937,-39860728.05967,   0.00127,   0.00266,  -0.00222,479647839.77956,   0.00216,276974944.56438,  -0.00016,   0.00165,  -0.00170,   0.00000,   2.00000
501712164.98108,435716704.08863,-38959882.68097,   0.00128,   0.00266,  -0.00221,479638724.68786,   0.00217,276983636.15609,  -0.00016,   0.00166,  -0.00170,   0.00000,   2.00000
501921513.47467,435976889.31094,-38064868.69356,   0.00129,   0.00267,  -0.00220,479648144.80971,   0.00218,276992323.06715,  -0.00015,   0.00166,  -0.00171,  -0.00000,   2.00000
502122160.21532,436237101.09484,-37170648.39928,   0.00129,   0.00267,  -0.00219,479711854.83559,   0.00219,277001182.27358,  -0.00014,   0.00167,  -0.00171,  -0.00000,   2.00000
502318136.89848,436484922.75997,-36286486.36281,   0.00130,   0.00268,  -0.00219,479675455.03993,   0.00219,277009887.26288,  -0.00013,   0.00167,  -0.00171,   0.00000,   2.00000
502496269.24451,436739772.03020,-35415633.10240,   0.00131,   0.00269,  -0.00218,479714185.56229,   0.00220,277018683.28809,  -0.00012,   0.00168,  -0.00172,   0.00000,   2.00000
502661500.25060,437005660.77780,-34538278.74831,   0.00132,   0.00269,  -0.00217,479748388.94759,   0.00221,277027555.19795,  -0.00011,   0.00168,  -0.00172,  -0.00000,   2.00000
502827196.96033,437248527.69052,-33678297.76347,   0.00133,   0.00270,  -0.00216,479741130.60085,   0.00222,277036368.25466,  -0.00011,   0.00169,  -0.00172,   0.00000,   2.00000
502977828.36257,437500595.03063,-32821826.74968,   0.00134,   0.00271,  -0.00215,479777477.91971,   0.00223,277045264.32426,  -0.00010,   0.00170,  -0.00173,   0.00000,   2.00000
503122540.51464,437746843.36417,-31970789.47511,   0.00135,   0.00271,  -0.00214,479790860.65314,   0.00224,277054168.67746,  -0.00009,   0.00170,  -0.00173,  -0.00000,   2.00000
503245592.17661,438011331.47593,-31125497.53269,   0.00135,   0.00272,  -0.00214,479800007.65452,   0.00224,277063067.57892,  -0.00008,   0.00171,  -0.00173,   0.00000,   2.00000
503369786.99636,438260923.25232,-30283556.62672,   0.00136,   0.00272,  -0.00213,479840524.77357,   0.00225,277072062.82729,  -0.00007,   0.00171,  -0.00173,   0.00000,   2.00000
503481646.81762,438513923.96030,-29449062.92366,   0.00137,   0.00273,  -0.00212,479826622.29668,   0.00226,277080977.95081,  -0.00006,   0.00172,  -0.00174,   0.00000,   2.00000
503586155.54250,438759646.67139,-28629934.83422,   0.00138,   0.00274,  -0.00211,479841647.02320,   0.00227,277089907.07484,  -0.00006,   0.00172,  -0.00174,  -0.00000,   2.00000
503678190.18427,439016310.30753,-27804514.57565,   0.00139,   0.00274,  -0.00210,479876005.38166,   0.00228,277098912.63618,  -0.00005,   0.00173,  -0.00174,   0.00000,   2.00000
503763205.48522,439265816.64328,-26994502.36417,   0.00140,   0.00275,  -0.00210,479890932.97003,   0.00229,277107931.70245,  -0.00004,   0.00173,  -0.00174,  -0.00000,   2.00000
503836538.89815,439519085.32656,-26191591.16205,   0.00141,   0.00276,  -0.00209,479876733.93017,   0.00230,277116870.28164,  -0.00003,   0.00174,  -0.00175,   0.00000,   2.00000
503902528.77918,439772484.33928,-25390747.60636,   0.00141,   0.00276,  -0.00208,479940041.65281,   0.00230,277125978.89652,  -0.00002,   0.00175,  -0.00175,   0.00000,   2.00000
503972991.00368,440005796.13925,-24596669.57117,   0.00142,   0.00277,  -0.00207,479929952.73891,   0.00231,277135020.32449,  -0.00001,   0.00175,  -0.00175,   0.00000,   2.00000
504013569.52302,440272500.18305,-23806742.08884,   0.00143,   0.00278,  -0.00206,479961949.47748,   0.00232,277144130.43371,  -0.00000,   0.00176,  -0.00175,   0.00000,   2.00000
504057370.99691,440517826.93631,-23033482.28482,   0.00144,   0.00278,  -0.00206,479953229.32548,   0.00233,277153178.02642,   0.00000,   0.00176,  -0.00176,   0.00000,   2.00000
504089071.90483,440773939.71462,-22254069.56971,   0.00145,   0.00279,  -0.00205,479987745.31715,   0.00234,277162302.56809,   0.00001,   0.00177,  -0.00176,  -0.00000,   2.00000
504115008.22607,441023556.86937,-21489972.45465,   0.00146,   0.00280,  -0.00204,480002022.82066,   0.00235,277171438.77404,   0.00002,   0.00177,  -0.00176,   0.00000,   2.00000
504136833.32304,441268091.22144,-20731062.13195,   0.00146,   0.00281,  -0.00203,480014788.03220,   0.00236,277180581.85521,   0.00003,   0.00178,  -0.00176,   0.00000,   2.00000
504153281.40656,441506469.68576,-19987376.04803,   0.00147,   0.00281,  -0.00202,480028794.25660,   0.00236,277189735.92999,   0.00004,   0.00179,  -0.00176,  -0.00000,   2.00000
504157844.66610,441755618.82100,-19237600.38514,   0.00148,   0.00282,  -0.00202,480063405.79776,   0.00237,277198967.15111,   0.00005,   0.00179,  -0.00177,  -0.00000,   2.00000
504150662.08137,442008066.20598,-18504320.98544,   0.00149,   0.00283,  -0.00201,480050083.85883,   0.00238,277208121.40049,   0.00006,   0.00180,  -0.00177,   0.00000,   2.00000
504146561.74367,442246262.59954,-17774870.47487,   0.00150,   0.00283,  -0.00200,480089863.92116,   0.00239,277217369.58002,   0.00007,   0.00180,  -0.00177,   0.00000,   2.00000
504132230.31686,442489097.70139,-17051645.27160,   0.00151,   0.00284,  -0.00199,480075192.75982,   0.00240,277226536.70259,   0.00007,   0.00181,  -0.00177,   0.00000,   2.00000
504105052.06055,442741588.30148,-16332465.00051,   0.00151,   0.00285,  -0.00198,480110954.53380,   0.00241,277235784.85229,   0.00008,   0.00182,  -0.00177,   0.00000,   2.00000
504074552.63538,442989279.41028,-15618302.27379,   0.00152,   0.00285,  -0.00198,480123471.67952,   0.00242,277245039.30762,   0.00009,   0.00182,  -0.00177,   0.00000,   2.00000
504039800.07844,443231381.19985,-14919218.91303,   0.00153,   0.00286,  -0.00197,480136908.12521,   0.00243,277254303.12769,   0.00010,   0.00183,  -0.00177,   0.00000,   2.00000
504001978.28360,443468916.06600,-14225041.51488,   0.00154,   0.00287,  -0.00196,480149265.92740,   0.00243,277263572.92830,   0.00011,   0.00183,  -0.00178,   0.00000,   2.00000
503951695.83955,443716229.89825,-13534961.06638,   0.00155,   0.00288,  -0.00195,480184952.50262,   0.00244,277272923.38779,   0.00012,   0.00184,  -0.00178,   0.00000,   2.00000
503898527.60888,443958974.36484,-12849786.09013,   0.00155,   0.00288,  -0.00195,480197339.95333,   0.00245,277282279.73808,   0.00013,   0.00185,  -0.00178,   0.00000,   2.00000
503841721.58378,444196513.17039,-12179587.78481,   0.00156,   0.00289,  -0.00194,480210473.11248,   0.00246,277291644.46885,   0.00014,   0.00185,  -0.00178,   0.00000,   2.00000
503775533.39564,444439193.18052,-11514957.60658,   0.00157,   0.00290,  -0.00193,480195495.80105,   0.00247,277300927.74120,   0.00015,   0.00186,  -0.00178,   0.00000,   2.00000
503713536.39383,444668030.48182,-10854307.52691,   0.00158,   0.00291,  -0.00192,480234826.17079,   0.00248,277310303.57551,   0.00015,   0.00186,  -0.00178,  -0.00000,   2.00000
503632748.27032,444916305.07736,-10198494.16828,   0.00159,   0.00291,  -0.00192,480243228.19871,   0.00249,277319672.78494,   0.00016,   0.00187,  -0.00178,   0.00000,   2.00000
503548936.13478,445159669.40888,-9557493.67815,   0.00160,   0.00292,  -0.00191,480256000.28439,   0.00250,277329049.46793,   0.00017,   0.00188,  -0.00178,   0.00000,   2.00000
503462898.72299,445398823.45000,-8921107.74822,   0.00160,   0.00293,  -0.00190,480268048.11962,   0.00250,277338431.37717,   0.00018,   0.00188,  -0.00178,   0.00000,   2.00000
503374696.07390,445633830.93653,-8289312.36467,   0.00161,   0.00293,  -0.00189,480280064.92050,   0.00251,277347818.48583,   0.00019,   0.00189,  -0.00179,   0.00000,   2.00000
503284387.23670,445864754.81880,-7662083.37709,   0.00162,   0.00294,  -0.00189,480292051.13216,   0.00252,277357210.76722,   0.00020,   0.00190,  -0.00179,   0.00000,   2.00000
503181988.89761,446105253.22360,-7049093.89884,   0.00163,   0.00295,  -0.00188,480327963.12779,   0.00253,277366684.53539,   0.00021,   0.00190,  -0.00179,   0.00000,   2.00000
503077733.05322,446341724.60746,-6440588.05148,   0.00164,   0.00296,  -0.00187,480339913.00621,   0.00254,277376163.16725,   0.00022,   0.00191,  -0.00179,   0.00000,   2.00000
502981257.93759,446560275.75118,-5836882.81068,   0.00164,   0.00296,  -0.00186,480328301.84051,   0.00255,277385571.70908,   0.00023,   0.00191,  -0.00179,  -0.00000,   2.00000
502863803.66356,446802917.74151,-5236960.57793,   0.00165,   0.00297,  -0.00186,480387184.96430,   0.00256,277395134.97953,   0.00024,   0.00192,  -0.00179,   0.00000,   2.00000
502747105.32746,447036987.86946,-4652183.47784,   0.00166,   0.00298,  -0.00185,480348755.10835,   0.00257,277404542.54877,   0.00024,   0.00193,  -0.00179,   0.00000,   2.00000
502635769.95393,447257671.17117,-4071400.03669,   0.00167,   0.00299,  -0.00184,480387569.42836,   0.00258,277414041.09692,   0.00025,   0.00193,  -0.00179,   0.00000,   2.00000
502506155.50503,447497942.82572,-3505047.10708,   0.00168,   0.00300,  -0.00184,480396000.88988,   0.00259,277423533.53559,   0.00026,   0.00194,  -0.00179,   0.00000,   2.00000
502391982.43315,447711201.22789,-2932733.80619,   0.00168,   0.00300,  -0.00183,480410984.24936,   0.00259,277433040.91607,   0.00027,   0.00195,  -0.00179,   0.00000,   2.00000
502259652.62570,447944188.23352,-2374792.27662,   0.00169,   0.00301,  -0.00182,480419335.72195,   0.00260,277442542.05619,   0.00028,   0.00195,  -0.00179,   0.00000,   2.00000
502125980.29806,448173426.55330,-1831097.41843,   0.00170,   0.00302,  -0.00181,480431068.63169,   0.00261,277452047.81262,   0.00029,   0.00196,  -0.00179,   0.00000,   2.00000
501998284.99324,448389587.30277,-1281231.25469,   0.00171,   0.00303,  -0.00181,480469585.65897,   0.00262,277461643.44738,   0.00030,   0.00196,  -0.00179,   0.00000,   2.00000
501852729.81274,448625601.61479,-745606.31049,   0.00172,   0.00303,  -0.00180,480477855.28782,   0.00263,277471232.42849,   0.00031,   0.00197,  -0.00179,   0.00000,   2.00000
501715859.63161,448844360.03930,-214007.44782,   0.00172,   0.00304,  -0.00179,480465761.57917,   0.00264,277480750.19274,   0.00032,   0.00198,  -0.00179,   0.00000,   2.00000
501578033.13592,449059767.88249,303517.66783,   0.00173,   0.00305,  -0.00179,480477192.98381,   0.00265,277490271.82669,   0.00033,   0.00198,  -0.00179,   0.00000,   2.00000
501429678.57293,449285564.86711,817137.16461,   0.00174,   0.00306,  -0.00178,480512248.98267,   0.00266,277499872.36896,   0.00033,   0.00199,  -0.00179,   0.00000,   2.00000
501280547.24296,449508013.58923,1326893.56131,   0.00175,   0.00306,  -0.00177,480523688.39406,   0.00267,277509476.57885,   0.00034,   0.00200,  -0.00179,   0.00000,   2.00000
501140345.49298,449713565.63177,1832919.54616,   0.00176,   0.00307,  -0.00177,480511385.42758,   0.00268,277519009.17416,   0.00035,   0.00200,  -0.00179,   0.00000,   2.00000
500982731.27908,449939380.54890,2325064.02330,   0.00176,   0.00308,  -0.00176,480519260.01709,   0.00269,277528534.43465,   0.00036,   0.00201,  -0.00179,  -0.00000,   2.00000
500831880.50393,450152465.41378,2803223.94918,   0.00177,   0.00309,  -0.00175,480557320.24638,   0.00269,277538148.29192,   0.00037,   0.00202,  -0.00179,   0.00000,   2.00000
500680302.21642,450362311.03835,3287885.74315,   0.00178,   0.00310,  -0.00175,480568759.47390,   0.00270,277547766.00016,   0.00038,   0.00202,  -0.00179,   0.00000,   2.00000
500518752.48959,450582822.12496,3758546.79619,   0.00179,   0.00310,  -0.00174,480603561.47948,   0.00271,277557461.65950,   0.00039,   0.00203,  -0.00179,   0.00000,   2.00000
500359277.88145,450796444.61320,4226151.11694,   0.00180,   0.00311,  -0.00173,480564102.04485,   0.00272,277566999.48756,   0.00040,   0.00204,  -0.00179,   0.00000,   2.00000
500206968.82697,450997665.43586,4679817.34483,   0.00180,   0.00312,  -0.00173,480601858.99656,   0.00273,277576625.04261,   0.00041,   0.00204,  -0.00179,   0.00000,   2.00000
500037365.63112,451219183.33217,5130083.85945,   0.00181,   0.00313,  -0.00172,480609821.50027,   0.00274,277586243.47842,   0.00042,   0.00205,  -0.00179,   0.00000,   2.00000
499884903.47288,451414940.58705,5566783.02424,   0.00182,   0.00314,  -0.00171,480623679.00598,   0.00275,277595873.64575,   0.00042,   0.00206,  -0.00179,   0.00000,   2.00000
499722119.12548,451621036.94487,6009919.33545,   0.00183,   0.00314,  -0.00171,480658899.44703,   0.00276,277605583.21898,   0.00043,   0.00206,  -0.00179,  -0.00000,   2.00000
499562369.79517,451821400.87825,6430256.65960,   0.00183,   0.00315,  -0.00170,480618457.12512,   0.00277,277615132.15367,   0.00044,   0.00207,  -0.00179,   0.00000,   2.00000
499399720.80513,452022352.46113,6856668.10373,   0.00184,   0.00316,  -0.00170,480680498.81275,   0.00278,277624845.81565,   0.00045,   0.00208,  -0.00178,  -0.00000,   2.00000
499239794.18859,452217416.93199,7270620.39998,   0.00185,   0.00317,  -0.00169,480640323.70595,   0.00279,277634399.81170,   0.00046,   0.00208,  -0.00178,   0.00000,   2.00000
499070615.68637,452423658.07637,7670885.40031,   0.00186,   0.00317,  -0.00168,480674530.69125,   0.00279,277644030.30918,   0.00047,   0.00209,  -0.00178,  -0.00000,   2.00000
498908408.01413,452617091.53741,8077668.47222,   0.00187,   0.00318,  -0.00168,480712754.95979,   0.00280,277653749.84805,   0.00048,   0.00210,  -0.00178,   0.00000,   2.00000
498739339.26681,452818187.34038,8471788.06847,   0.00187,   0.00319,  -0.00167,480696307.08214,   0.00281,277663384.96437,   0.00049,   0.00210,  -0.00178,   0.00000,   2.00000
498588173.16261,452994321.71317,8852736.55942,   0.00188,   0.00320,  -0.00167,480709475.30879,   0.00282,277673029.84340,   0.00050,   0.00211,  -0.00178,  -0.00000,   2.00000
498419888.94733,453191110.30152,9230845.08655,   0.00189,   0.00321,  -0.00166,480717293.51062,   0.00283,277682667.45741,   0.00051,   0.00212,  -0.00178,   0.00000,   2.00000
498251804.94948,453385454.86085,9606068.80879,   0.00190,   0.00321,  -0.00165,480728029.77845,   0.00284,277692307.10407,   0.00051,   0.00212,  -0.00178,   0.00000,   2.00000
498084601.37550,453577981.12700,9968328.80394,   0.00191,   0.00322,  -0.00165,480738113.60803,   0.00285,277701946.72591,   0.00052,   0.00213,  -0.00178,   0.00000,   2.00000
497925930.56579,453759065.08635,10317037.10073,   0.00191,   0.00323,  -0.00164,480774908.21074,   0.00286,277711670.89122,   0.00053,   0.00214,  -0.00178,   0.00000,   2.00000
497759268.14086,453947044.48147,10673867.33828,   0.00192,   0.00324,  -0.00164,480759471.87700,   0.00287,277721314.06255,   0.00054,   0.00214,  -0.00178,   0.00000,   2.00000
497603370.28142,454120303.10377,11018532.04483,   0.00193,   0.00325,  -0.00163,480745414.18700,   0.00288,277730880.95087,   0.00055,   0.00215,  -0.00177,   0.00000,   2.00000
497446434.47485,454295512.78565,11349055.16450,   0.00194,   0.00325,  -0.00163,480805929.20816,   0.00289,277740607.68910,   0.00056,   0.00216,  -0.00177,   0.00000,   2.00000
497282225.98826,454478378.17052,11677807.44718,   0.00194,   0.00326,  -0.00162,480789761.37630,   0.00290,277750251.18621,   0.00057,   0.00216,  -0.00177,   0.00000,   2.00000
497118439.88037,454659121.82008,12004045.64952,   0.00195,   0.00327,  -0.00162,480800270.77300,   0.00291,277759896.12209,   0.00058,   0.00217,  -0.00177,   0.00000,   2.00000
496973340.15321,454815764.11605,12317614.62018,   0.00196,   0.00328,  -0.00161,480812680.08175,   0.00291,277769548.58406,   0.00059,   0.00218,  -0.00177,   0.00000,   2.00000
496811174.75607,454993306.01522,12628868.06084,   0.00197,   0.00329,  -0.00160,480820414.78204,   0.00292,277779193.70677,   0.00060,   0.00218,  -0.00177,   0.00000,   2.00000
496650355.75143,455169609.22224,12927651.15039,   0.00198,   0.00329,  -0.00160,480830021.02379,   0.00293,277788837.43018,   0.00060,   0.00219,  -0.00177,  -0.00000,   2.00000
496508447.39905,455322060.36774,13213974.32920,   0.00198,   0.00330,  -0.00159,480842194.81771,   0.00294,277798487.95191,   0.00061,   0.00220,  -0.00177,   0.00000,   2.00000
496348601.97037,455494682.96292,13508280.17574,   0.00199,   0.00331,  -0.00159,480850746.03092,   0.00295,277808133.76476,   0.00062,   0.00220,  -0.00177,   0.00000,   2.00000
496207764.07219,455643570.81109,13790159.04511,   0.00200,   0.00332,  -0.00158,480862825.19887,   0.00296,277817786.10725,   0.00063,   0.00221,  -0.00176,   0.00000,   2.00000
496050784.04900,455814286.53132,14059886.26130,   0.00201,   0.00333,  -0.00158,480869633.01662,   0.00297,277827428.21246,   0.00064,   0.00222,  -0.00176,   0.00000,   2.00000
495904159.50490,455970305.86574,14328407.94495,   0.00202,   0.00333,  -0.00157,480855802.16404,   0.00298,277836994.98755,   0.00065,   0.00223,  -0.00176,   0.00000,   2.00000
495766937.80092,456115808.03976,14583842.69767,   0.00202,   0.00334,  -0.00157,480891683.65537,   0.00299,277846643.73551,   0.00066,   0.00223,  -0.00176,  -0.00000,   2.00000
495612651.94573,456282360.24366,14837415.25368,   0.00203,   0.00335,  -0.00157,480899351.81150,   0.00300,277856285.00211,   0.00067,   0.00224,  -0.00176,   0.00000,   2.00000
495477677.64432,456425528.81253,15078874.43462,   0.00204,   0.00336,  -0.00156,480911095.42015,   0.00301,277865931.74722,   0.00067,   0.00225,  -0.00176,   0.00000,   2.00000
495343301.38798,456567225.57273,15318485.93324,   0.00205,   0.00336,  -0.00156,480921235.19209,   0.00302,277875578.90128,   0.00068,   0.00225,  -0.00175,   0.00000,   2.00000
495201572.04797,456717197.49424,15557292.79565,   0.00206,   0.00337,  -0.00155,480904758.00806,   0.00302,277885142.41675,   0.00069,   0.00226,  -0.00175,   0.00000,   2.00000
495079229.23490,456844075.86121,15784114.83179,   0.00206,   0.00338,  -0.00155,480916255.11189,   0.00303,277894710.95051,   0.00070,   0.00227,  -0.00175,  -0.00000,   2.00000
494940778.09663,456993139.43515,15999237.32356,   0.00207,   0.00339,  -0.00154,480922794.50220,   0.00304,277904268.74181,   0.00071,   0.00227,  -0.00175,   0.00000,   2.00000
494811021.31502,457131027.55499,16211656.52641,   0.00208,   0.00340,  -0.00154,480959359.90707,   0.00305,277913910.62724,   0.00072,   0.00228,  -0.00175,  -0.00000,   2.00000
494692735.58772,457255808.69289,16413365.64287,   0.00209,   0.00340,  -0.00153,480944173.99042,   0.00306,277923473.03325,   0.00073,   0.00229,  -0.00175,   0.00000,   2.00000
494575056.57877,457379393.33142,16613545.45515,   0.00209,   0.00341,  -0.00153,480954091.35481,   0.00307,277933035.45270,   0.00074,   0.00229,  -0.00175,   0.00000,   2.00000
494449356.53535,457515520.55288,16801126.13038,   0.00210,   0.00342,  -0.00153,480987119.70011,   0.00308,277942670.72572,   0.00075,   0.00230,  -0.00174,   0.00000,   2.00000
494326003.78334,457647405.83973,16989416.82334,   0.00211,   0.00343,  -0.00152,480946337.05853,   0.00309,277952145.79461,   0.00075,   0.00231,  -0.00174,   0.00000,   2.00000
494212537.76134,457769370.34870,17165090.20565,   0.00212,   0.00343,  -0.00152,480981584.56501,   0.00310,277961701.02406,   0.00076,   0.00231,  -0.00174,   0.00000,   2.00000
494109447.51233,457877546.53743,17340476.98401,   0.00213,   0.00344,  -0.00151,480967211.38675,   0.00311,277971179.69839,   0.00077,   0.00232,  -0.00174,   0.00000,   2.00000
494006471.42808,457988721.73788,17502270.79368,   0.00213,   0.00345,  -0.00151,481026588.44902,   0.00312,277980814.59525,   0.00078,   0.00233,  -0.00174,   0.00000,   2.00000
493905704.32503,458095979.11858,17665058.31807,   0.00214,   0.00346,  -0.00151,480985717.42832,   0.00312,277990289.11739,   0.00079,   0.00234,  -0.00174,  -0.00000,   2.00000
493796957.17141,458215994.58367,17815484.78770,   0.00215,   0.00346,  -0.00150,481018525.85637,   0.00313,277999836.03137,   0.00080,   0.00234,  -0.00173,   0.00000,   2.00000
493699788.03859,458323418.16332,17955790.97099,   0.00216,   0.00347,  -0.00150,481002909.54022,   0.00314,278009302.45560,   0.00081,   0.00235,  -0.00173,  -0.00000,   2.00000
493611405.76047,458420199.59920,18093853.64103,   0.00217,   0.00348,  -0.00149,481039070.04930,   0.00315,278018851.89079,   0.00081,   0.00236,  -0.00173,   0.00000,   2.00000
493525123.88135,458513281.76499,18233172.86158,   0.00217,   0.00349,  -0.00149,480998052.67653,   0.00316,278028240.85036,   0.00082,   0.00236,  -0.00173,   0.00000,   2.00000
493430844.83297,458619280.76250,18360286.19740,   0.00218,   0.00349,  -0.00149,481030702.34134,   0.00317,278037701.94840,   0.00083,   0.00237,  -0.00173,  -0.00000,   2.00000
493356344.28687,458703198.03742,18476283.80619,   0.00219,   0.00350,  -0.00148,481041366.04420,   0.00318,278047165.69736,   0.00084,   0.00238,  -0.00172,   0.00000,   2.00000
493282344.66752,458786440.00696,18591413.73579,   0.00220,   0.00351,  -0.00148,481050959.03385,   0.00319,278056628.71749,   0.00085,   0.00238,  -0.00172,   0.00000,   2.00000
493201827.73550,458879869.52100,18696851.84961,   0.00221,   0.00352,  -0.00148,481032880.49146,   0.00320,278066003.79207,   0.00086,   0.00239,  -0.00172,   0.00000,   2.00000
493131345.07472,458963964.46948,18790211.52578,   0.00221,   0.00352,  -0.00147,481067638.17816,   0.00321,278075457.62634,   0.00087,   0.00240,  -0.00172,  -0.00000,   2.00000
493061365.01400,459047412.78208,18882874.14117,   0.00222,   0.00353,  -0.00147,481077187.11940,   0.00322,278084910.56130,   0.00087,   0.00240,  -0.00172,  -0.00000,   2.00000
493001621.65302,459117678.92929,18975990.50605,   0.00223,   0.00354,  -0.00147,481062446.56176,   0.00322,278094286.16463,   0.00088,   0.00241,  -0.00172,   0.00000,   2.00000
492943557.95585,459188563.15024,19058358.56151,   0.00224,   0.00355,  -0.00147,481070687.11771,   0.00323,278103657.02368,   0.00089,   0.00242,  -0.00171,  -0.00000,   2.00000
492887178.17116,459260077.03355,19130058.90257,   0.00225,   0.00355,  -0.00146,481078904.72644,   0.00324,278113023.04738,   0.00090,   0.00243,  -0.00171,   0.00000,   2.00000
492840962.88083,459318552.25809,19202389.52288,   0.00225,   0.00356,  -0.00146,481064032.07650,   0.00325,278122311.61914,   0.00091,   0.00243,  -0.00171,   0.00000,   2.00000
492794937.38479,459380561.39378,19261702.94636,   0.00226,   0.00357,  -0.00146,481122883.06803,   0.00326,278131754.97125,   0.00092,   0.00244,  -0.00171,   0.00000,   2.00000
492751973.73985,459440523.52201,19312953.80858,   0.00227,   0.00358,  -0.00146,481080389.11481,   0.00327,278141033.64132,   0.00093,   0.00245,  -0.00171,   0.00000,   2.00000
492727417.04115,459477842.23484,19363728.57121,   0.00228,   0.00358,  -0.00145,481091829.21122,   0.00328,278150317.96429,   0.00093,   0.00245,  -0.00170,  -0.00000,   2.00000
492686296.74895,459538334.60814,19404177.62912,   0.00229,   0.00359,  -0.00145,481097772.84956,   0.00329,278159590.52887,   0.00094,   0.00246,  -0.00170,   0.00000,   2.00000
492664861.20653,459577366.97166,19434172.48878,   0.00230,   0.00360,  -0.00145,481107943.78042,   0.00330,278168864.69998,   0.00095,   0.00247,  -0.00170,   0.00000,   2.00000
492643639.61820,459616167.06180,19463950.02425,   0.00230,   0.00360,  -0.00145,481117229.81850,   0.00330,278178137.68908,   0.00096,   0.00247,  -0.00170,  -0.00000,   2.00000
492622630.57314,459654736.73306,19493511.84071,   0.00231,   0.00361,  -0.00144,481126514.51839,   0.00331,278187409.49626,   0.00097,   0.00248,  -0.00170,   0.00000,   2.00000
492614127.66312,459682943.43493,19503923.82141,   0.00232,   0.00362,  -0.00144,481108982.10621,   0.00332,278196595.77393,   0.00098,   0.00249,  -0.00170,   0.00000,   2.00000
492604472.26193,459709829.14569,19524320.59028,   0.00233,   0.00362,  -0.00144,481119419.91772,   0.00333,278205784.79271,   0.00098,   0.00249,  -0.00169,  -0.00000,   2.00000
492597508.61263,459738933.63326,19524456.39212,   0.00234,   0.00363,  -0.00144,481126113.20529,   0.00334,278214964.69879,   0.00099,   0.00250,  -0.00169,   0.00000,   2.00000
492599006.80427,459758153.89846,19523311.87260,   0.00235,   0.00364,  -0.00144,481161715.01642,   0.00335,278224226.40384,   0.00100,   0.00251,  -0.00169,   0.00000,   2.00000
492603233.06171,459775727.47363,19514581.62649,   0.00235,   0.00364,  -0.00143,481118983.79376,   0.00336,278233323.43963,   0.00101,   0.00251,  -0.00169,   0.00000,   2.00000
492617118.36677,459784676.10266,19494578.02659,   0.00236,   0.00365,  -0.00143,481153253.19133,   0.00337,278242498.31359,   0.00102,   0.00252,  -0.00169,  -0.00000,   2.00000
492640707.98184,459781138.12147,19475898.88409,   0.00237,   0.00366,  -0.00143,481138107.72277,   0.00338,278251595.54809,   0.00103,   0.00253,  -0.00168,   0.00000,   2.00000
492655724.02589,459791340.28085,19446122.12499,   0.00238,   0.00366,  -0.00143,481170281.52479,   0.00338,278260763.98021,   0.00103,   0.00253,  -0.00168,   0.00000,   2.00000
492680433.58507,459789042.63061,19417736.73640,   0.00239,   0.00367,  -0.00143,481155131.94346,   0.00339,278269854.76792,   0.00104,   0.00254,  -0.00168,   0.00000,   2.00000
492716036.87179,459775499.06598,19380669.28106,   0.00240,   0.00368,  -0.00143,481138667.56278,   0.00340,278278864.06031,   0.00105,   0.00255,  -0.00168,   0.00000,   2.00000
492752705.56986,459763266.53071,19333807.28254,   0.00240,   0.00368,  -0.00143,481146449.08276,   0.00341,278287868.23928,   0.00106,   0.00255,  -0.00168,   0.00000,   2.00000
492797491.02248,459741427.70543,19286013.80234,   0.00241,   0.00369,  -0.00142,481181896.84105,   0.00342,278296954.20262,   0.00107,   0.00256,  -0.00167,   0.00000,   2.00000
492836192.14903,459731842.69713,19219706.44279,   0.00242,   0.00370,  -0.00142,481162107.67365,   0.00343,278305948.18002,   0.00107,   0.00257,  -0.00167,  -0.00000,   2.00000
492891460.50553,459698963.78061,19163831.91170,   0.00243,   0.00370,  -0.00142,481174475.69459,   0.00344,278314951.52269,   0.00108,   0.00257,  -0.00167,   0.00000,   2.00000
492948870.69540,459668651.06363,19088232.43363,   0.00244,   0.00371,  -0.00142,481181063.57646,   0.00344,278323945.98949,   0.00109,   0.00258,  -0.00167,   0.00000,   2.00000
493015632.01607,459626057.47751,19014319.10554,   0.00245,   0.00372,  -0.00142,481165795.58058,   0.00345,278332863.07689,   0.00110,   0.00259,  -0.00167,  -0.00000,   2.00000
493083172.88240,459584914.53555,18930863.43499,   0.00245,   0.00372,  -0.00142,481173550.07500,   0.00346,278341775.25231,   0.00111,   0.00259,  -0.00167,  -0.00000,   2.00000
493150237.08012,459544062.48294,18847995.42579,   0.00246,   0.00373,  -0.00142,481182519.40644,   0.00347,278350686.34632,   0.00111,   0.00260,  -0.00166,   0.00000,   2.00000
493229034.30079,459493227.39334,18746713.64041,   0.00247,   0.00374,  -0.00142,481164791.61986,   0.00348,278359512.60492,   0.00112,   0.00261,  -0.00166,  -0.00000,   2.00000
493314300.97323,459431856.62448,18654976.61607,   0.00248,   0.00374,  -0.00142,481201353.89398,   0.00349,278368424.63547,   0.00113,   0.00261,  -0.00166,   0.00000,   2.00000
493411121.03399,459360580.80547,18544872.48683,   0.00249,   0.00375,  -0.00142,481183689.02340,   0.00350,278377252.08309,   0.00114,   0.00262,  -0.00166,   0.00000,   2.00000
493507203.51333,459289748.20804,18435534.29227,   0.00250,   0.00375,  -0.00142,481192632.04135,   0.00350,278386078.66658,   0.00115,   0.00263,  -0.00166,   0.00000,   2.00000
493603757.65227,459220459.80167,18316889.05606,   0.00251,   0.00376,  -0.00142,481200400.27874,   0.00351,278394900.67733,   0.00116,   0.00263,  -0.00166,   0.00000,   2.00000
493710505.82380,459140104.54163,18190097.10933,   0.00251,   0.00376,  -0.00142,481183914.50202,   0.00352,278403642.12722,   0.00116,   0.00264,  -0.00165,   0.00000,   2.00000
493817602.21966,459061302.65935,18054107.93683,   0.00252,   0.00377,  -0.00142,481191650.75341,   0.00353,278412379.17762,   0.00117,   0.00264,  -0.00165,   0.00000,   2.00000
493941791.17593,458960597.93091,17918954.76295,   0.00253,   0.00378,  -0.00142,481202788.49511,   0.00354,278421122.57028,   0.00118,   0.00265,  -0.00165,   0.00000,   2.00000
494057966.08089,458871276.74957,17775829.97706,   0.00254,   0.00378,  -0.00142,481184082.71939,   0.00355,278429778.73879,   0.00119,   0.00266,  -0.00165,   0.00000,   2.00000
494181374.98880,458772699.46945,17632518.77899,   0.00255,   0.00379,  -0.00142,481219436.09628,   0.00355,278438517.35479,   0.00119,   0.00266,  -0.00165,   0.00000,   2.00000
494315824.33160,458664125.67350,17471098.59218,   0.00256,   0.00379,  -0.00142,481201903.41585,   0.00356,278447172.47455,   0.00120,   0.00267,  -0.00165,  -0.00000,   2.00000
494449148.84284,458556112.62938,17310776.40848,   0.00257,   0.00380,  -0.00142,481210809.15041,   0.00357,278455827.19254,   0.00121,   0.00268,  -0.00164,  -0.00000,   2.00000
494600354.19991,458427274.25121,17141371.07204,   0.00258,   0.00380,  -0.00142,481220927.30524,   0.00358,278464485.34788,   0.00122,   0.00268,  -0.00164,   0.00000,   2.00000
494742170.43889,458308833.79077,16974236.76122,   0.00258,   0.00381,  -0.00142,481203342.53932,   0.00359,278473060.18328,   0.00123,   0.00269,  -0.00164,   0.00000,   2.00000
494901728.18201,458169549.77902,16798052.76090,   0.00259,   0.00382,  -0.00142,481213468.28426,   0.00360,278481638.77615,   0.00123,   0.00270,  -0.00164,   0.00000,   2.00000
495061010.39852,458031951.56294,16612976.09801,   0.00260,   0.00382,  -0.00142,481221315.83478,   0.00360,278490213.96294,   0.00124,   0.00270,  -0.00164,  -0.00000,   2.00000
495229733.44232,457883253.94715,16420051.90976,   0.00261,   0.00383,  -0.00142,481205007.23986,   0.00361,278498710.18090,   0.00125,   0.00271,  -0.00164,  -0.00000,   2.00000
495398044.57927,457736218.47562,16218331.94872,   0.00262,   0.00383,  -0.00142,481212854.32466,   0.00362,278507203.27388,   0.00126,   0.00271,  -0.00164,  -0.00000,   2.00000
495582599.70589,457567320.53176,16017859.78474,   0.00263,   0.00384,  -0.00143,481224185.66399,   0.00363,278515704.23187,   0.00127,   0.00272,  -0.00163,   0.00000,   2.00000
495758576.43854,457409881.71736,15809684.83976,   0.00264,   0.00384,  -0.00143,481205518.68288,   0.00364,278524119.14148,   0.00127,   0.00273,  -0.00163,  -0.00000,   2.00000
495951700.57810,457231499.72797,15592702.92034,   0.00265,   0.00385,  -0.00143,481215855.34792,   0.00365,278532539.07642,   0.00128,   0.00273,  -0.00163,  -0.00000,   2.00000
496143065.32803,457053885.03094,15377152.91348,   0.00266,   0.00385,  -0.00143,481224786.70228,   0.00365,278540959.63753,   0.00129,   0.00274,  -0.00163,   0.00000,   2.00000
496343430.18444,456865071.77341,15153846.36921,   0.00266,   0.00386,  -0.00143,481208628.34028,   0.00366,278549302.38968,   0.00130,   0.00274,  -0.00163,  -0.00000,   2.00000
496543929.93399,456678830.88290,14911820.94463,   0.00267,   0.00386,  -0.00143,481215613.65276,   0.00367,278557639.93302,   0.00130,   0.00275,  -0.00163,   0.00000,   2.00000
496749419.70595,456482705.97687,14680495.09491,   0.00268,   0.00386,  -0.00144,481252155.44209,   0.00368,278566064.76332,   0.00131,   0.00276,  -0.00163,  -0.00000,   2.00000
496974367.06201,456263225.23189,14432241.50108,   0.00269,   0.00387,  -0.00144,481211173.94081,   0.00369,278574334.27488,   0.00132,   0.00276,  -0.00162,  -0.00000,   2.00000
497187441.92805,456057564.71356,14184746.97413,   0.00270,   0.00387,  -0.00144,481244203.86179,   0.00369,278582680.32986,   0.00133,   0.00277,  -0.00162,   0.00000,   2.00000
497418867.34653,455827531.31567,13930442.02869,   0.00271,   0.00388,  -0.00144,481204228.46359,   0.00370,278590874.55840,   0.00134,   0.00277,  -0.00162,   0.00000,   2.00000
497639254.64663,455612203.78352,13666856.12748,   0.00272,   0.00388,  -0.00144,481236324.50495,   0.00371,278599142.67811,   0.00134,   0.00278,  -0.00162,   0.00000,   2.00000
497877836.17297,455372338.52081,13396480.08165,   0.00273,   0.00389,  -0.00145,481196440.49212,   0.00372,278607259.57946,   0.00135,   0.00279,  -0.00162,  -0.00000,   2.00000
498122636.05372,455124371.81186,13116851.31590,   0.00274,   0.00389,  -0.00145,481231291.49989,   0.00372,278615459.33281,   0.00136,   0.00279,  -0.00162,   0.00000,   2.00000
498364996.13182,454877261.90044,12839017.60463,   0.00275,   0.00390,  -0.00145,481240370.43112,   0.00373,278623661.15269,   0.00137,   0.00280,  -0.00162,   0.00000,   2.00000
498615495.24519,454618607.79141,12553615.47240,   0.00276,   0.00390,  -0.00145,481224671.28440,   0.00374,278631787.66302,   0.00137,   0.00280,  -0.00162,  -0.00000,   2.00000
498864296.73861,454361550.67376,12259926.92518,   0.00277,   0.00390,  -0.00146,481232941.22432,   0.00375,278639913.99994,   0.00138,   0.00281,  -0.00162,   0.00000,   2.00000
499138337.70557,454069895.09731,11958629.91990,   0.00277,   0.00391,  -0.00146,481220203.67937,   0.00376,278647974.66283,   0.00139,   0.00281,  -0.00161,   0.00000,   2.00000
499399859.92353,453792420.39602,11658540.47807,   0.00278,   0.00391,  -0.00146,481253262.39918,   0.00376,278656112.90218,   0.00140,   0.00282,  -0.00161,  -0.00000,   2.00000
499669147.06387,453503228.39207,11350932.09080,   0.00279,   0.00392,  -0.00147,481237815.28886,   0.00377,278664177.00323,   0.00140,   0.00283,  -0.00161,   0.00000,   2.00000
499946073.96983,453202263.73260,11035813.52782,   0.00280,   0.00392,  -0.00147,481222397.66920,   0.00378,278672167.35831,   0.00141,   0.00283,  -0.00161,   0.00000,   2.00000
500230514.32102,452889466.83275,10713192.34582,   0.00281,   0.00392,  -0.00147,481207012.95385,   0.00379,278680084.36984,   0.00142,   0.00284,  -0.00161,   0.00000,   2.00000
500512650.39723,452578179.47760,10382460.12843,   0.00282,   0.00393,  -0.00148,481215497.84060,   0.00379,278688002.83649,   0.00143,   0.00284,  -0.00161,  -0.00000,   2.00000
500799109.03199,452258077.86138,10053107.50331,   0.00283,   0.00393,  -0.00148,481251591.40613,   0.00380,278696009.03290,   0.00143,   0.00285,  -0.00161,   0.00000,   2.00000
501093466.70606,451926565.90894,9706170.13269,   0.00284,   0.00393,  -0.00148,481235843.45935,   0.00381,278703940.82126,   0.00144,   0.00285,  -0.00161,   0.00000,   2.00000
501394269.20493,451582405.79548,9361941.87168,   0.00285,   0.00394,  -0.00149,481221398.95561,   0.00382,278711802.59398,   0.00145,   0.00286,  -0.00161,   0.00000,   2.00000
501699609.27896,451230028.75907,9009115.18922,   0.00286,   0.00394,  -0.00149,481257080.76764,   0.00383,278719751.16000,   0.00146,   0.00287,  -0.00161,   0.00000,   2.00000
502004614.55895,450875135.12724,8649460.43414,   0.00287,   0.00394,  -0.00149,481215247.96132,   0.00383,278727544.21292,   0.00146,   0.00287,  -0.00161,   0.00000,   2.00000
502323012.53625,450497811.06110,8291935.39318,   0.00288,   0.00395,  -0.00150,481227877.85738,   0.00384,278735352.44311,   0.00147,   0.00288,  -0.00161,   0.00000,   2.00000
502638918.26413,450122371.01243,7916361.15594,   0.00289,   0.00395,  -0.00150,481236268.81056,   0.00385,278743162.57182,   0.00148,   0.00288,  -0.00161,   0.00000,   2.00000
502960844.64131,449734061.03835,7543531.31117,   0.00290,   0.00395,  -0.00151,481222097.52420,   0.00386,278750904.21895,   0.00149,   0.00289,  -0.00160,  -0.00000,   2.00000
503286592.89434,449337458.21068,7162363.47776,   0.00291,   0.00396,  -0.00151,481258157.19025,   0.00386,278758734.52871,   0.00149,   0.00289,  -0.00160,  -0.00000,   2.00000
503618631.29200,448928338.83214,6773814.26119,   0.00292,   0.00396,  -0.00152,481243725.90437,   0.00387,278766495.61045,   0.00150,   0.00290,  -0.00160,   0.00000,   2.00000
503949895.47828,448516216.78608,6378312.87716,   0.00293,   0.00396,  -0.00152,481202242.23589,   0.00388,278774103.23501,   0.00151,   0.00290,  -0.00160,  -0.00000,   2.00000
504291429.85437,448086099.87788,5974245.21404,   0.00294,   0.00396,  -0.00152,481265637.90601,   0.00389,278781885.56030,   0.00152,   0.00291,  -0.00160,   0.00000,   2.00000
504631606.86535,447652487.90161,5573350.08775,   0.00295,   0.00397,  -0.00153,481224750.86238,   0.00389,278789516.36241,   0.00152,   0.00291,  -0.00160,   0.00000,   2.00000
504977655.59039,447206023.15262,5165035.44098,   0.00296,   0.00397,  -0.00153,481210561.28518,   0.00390,278797079.59151,   0.00153,   0.00292,  -0.00160,   0.00000,   2.00000
505326602.59945,446751145.75186,4748701.86935,   0.00297,   0.00397,  -0.00154,481247112.87861,   0.00391,278804734.04451,   0.00154,   0.00292,  -0.00160,   0.00000,   2.00000
505681118.06576,446283258.17315,4325000.87948,   0.00298,   0.00397,  -0.00154,481233219.90573,   0.00392,278812321.92235,   0.00155,   0.00293,  -0.00160,   0.00000,   2.00000
506047701.19581,445792716.22136,3893666.00281,   0.00299,   0.00397,  -0.00155,481246659.73298,   0.00392,278819928.96365,   0.00155,   0.00293,  -0.00160,   0.00000,   2.00000
506403306.49263,445312797.65865,3455021.05406,   0.00300,   0.00398,  -0.00156,481229160.29526,   0.00393,278827458.42200,   0.00156,   0.00294,  -0.00160,   0.00000,   2.00000
506770683.23196,444810031.54018,3008820.89549,   0.00301,   0.00398,  -0.00156,481242827.89309,   0.00394,278835008.07654,   0.00157,   0.00294,  -0.00160,  -0.00000,   2.00000
507133332.93037,444308110.95577,2565278.18013,   0.00302,   0.00398,  -0.00157,481252890.37140,   0.00394,278842566.64334,   0.00158,   0.00295,  -0.00160,   0.00000,   2.00000
507500946.44788,443792734.71665,2114374.03462,   0.00303,   0.00398,  -0.00157,481239524.79358,   0.00395,278850060.94816,   0.00158,   0.00295,  -0.00160,  -0.00000,   2.00000
507873366.48470,443263786.18635,1656103.90227,   0.00304,   0.00398,  -0.00158,481226253.77337,   0.00396,278857491.57547,   0.00159,   0.00296,  -0.00160,  -0.00000,   2.00000
508256791.52475,442711692.40009,1190381.71531,   0.00305,   0.00399,  -0.00158,481240475.70572,   0.00397,278864944.83822,   0.00160,   0.00296,  -0.00160,  -0.00000,   2.00000
508628838.34843,442169911.88594,717322.73167,   0.00306,   0.00399,  -0.00159,481223292.45563,   0.00397,278872322.43828,   0.00161,   0.00297,  -0.00160,   0.00000,   2.00000
509017832.16539,441595363.26704,236876.26207,   0.00307,   0.00399,  -0.00160,481265214.84637,   0.00398,278879809.71003,   0.00161,   0.00297,  -0.00160,   0.00000,   2.00000
509404663.65195,441016260.36492,-250882.56994,   0.00308,   0.00399,  -0.00160,481225159.78117,   0.00399,278887149.86579,   0.00162,   0.00298,  -0.00160,   0.00000,   2.00000
509786143.29974,440437905.20603,-735801.23471,   0.00309,   0.00399,  -0.00161,481235564.90132,   0.00399,278894501.32056,   0.00163,   0.00298,  -0.00160,   0.00000,   2.00000
510177642.60916,439835919.18733,-1238140.98888,   0.00310,   0.00399,  -0.00162,481250600.04593,   0.00400,278901878.69657,   0.00164,   0.00299,  -0.00160,   0.00000,   2.00000
510572910.63762,439219696.80646,-1737634.47301,   0.00311,   0.00399,  -0.00162,481238242.94659,   0.00401,278909196.24974,   0.00164,   0.00299,  -0.00160,  -0.00000,   2.00000
510962393.59432,438604112.78506,-2244352.31159,   0.00312,   0.00400,  -0.00163,481249001.14177,   0.00402,278916526.61245,   0.00165,   0.00300,  -0.00160,   0.00000,   2.00000
511361311.53600,437964695.29580,-2758212.22577,   0.00313,   0.00400,  -0.00164,481264523.11588,   0.00402,278923884.84234,   0.00166,   0.00300,  -0.00160,  -0.00000,   2.00000
511757537.49195,437319935.71703,-3279599.47571,   0.00314,   0.00400,  -0.00164,481225086.86188,   0.00403,278931098.67167,   0.00166,   0.00300,  -0.00160,  -0.00000,   2.00000
512153734.01963,436666594.21707,-3797724.14422,   0.00315,   0.00400,  -0.00165,481263501.24188,   0.00404,278938412.69155,   0.00167,   0.00301,  -0.00160,   0.00000,   2.00000
512561908.78510,435982831.85905,-4333571.56749,   0.00316,   0.00400,  -0.00166,481229360.99625,   0.00404,278945599.25491,   0.00168,   0.00301,  -0.00160,  -0.00000,   2.00000
512960042.41711,435305667.62119,-4875857.80977,   0.00317,   0.00400,  -0.00166,481291140.41911,   0.00405,278952959.71573,   0.00169,   0.00302,  -0.00160,   0.00000,   2.00000
513364668.19332,434607385.10602,-5415929.69383,   0.00318,   0.00400,  -0.00167,481229197.41671,   0.00406,278960105.40749,   0.00169,   0.00302,  -0.00160,  -0.00000,   2.00000
513777399.70454,433884676.34186,-5962959.31155,   0.00319,   0.00400,  -0.00168,481245740.73398,   0.00407,278967283.51750,   0.00170,   0.00303,  -0.00160,   0.00000,   2.00000
514183176.25039,433162269.60830,-6516961.75047,   0.00320,   0.00400,  -0.00169,481257422.49237,   0.00407,278974478.76009,   0.00171,   0.00303,  -0.00160,   0.00000,   2.00000
514581478.07245,432439730.42097,-7088011.44272,   0.00321,   0.00400,  -0.00170,481269637.56865,   0.00408,278981692.84759,   0.00172,   0.00304,  -0.00160,   0.00000,   2.00000
514997351.01327,431677464.18685,-7645946.07714,   0.00323,   0.00400,  -0.00170,481263381.51737,   0.00409,278988867.89086,   0.00172,   0.00304,  -0.00160,   0.00000,   2.00000
515405303.20869,430914975.62674,-8220898.62213,   0.00324,   0.00400,  -0.00171,481275951.85731,   0.00409,278996063.29013,   0.00173,   0.00304,  -0.00160,  -0.00000,   2.00000
515814808.05883,430136613.85801,-8803121.29572,   0.00325,   0.00400,  -0.00172,481265732.04500,   0.00410,279003207.41244,   0.00174,   0.00305,  -0.00160,   0.00000,   2.00000
516225665.17675,429342215.34150,-9392620.14244,   0.00326,   0.00400,  -0.00173,481255675.02260,   0.00411,279010301.03519,   0.00175,   0.00305,  -0.00161,   0.00000,   2.00000
516629411.81960,428548354.56822,-9978729.57075,   0.00327,   0.00400,  -0.00174,481267470.72226,   0.00411,279017413.18547,   0.00175,   0.00306,  -0.00161,   0.00000,   2.00000
517047689.11064,427712464.05918,-10582126.88906,   0.00328,   0.00400,  -0.00174,481264019.56758,   0.00412,279024496.04284,   0.00176,   0.00306,  -0.00161,  -0.00000,   2.00000
517458483.97470,426877082.22704,-11182046.58929,   0.00329,   0.00400,  -0.00175,481276125.14009,   0.00413,279031598.80439,   0.00177,   0.00307,  -0.00161,  -0.00000,   2.00000
517861073.32859,426041626.89687,-11788609.65158,   0.00330,   0.00400,  -0.00176,481288952.54866,   0.00413,279038723.78238,   0.00178,   0.00307,  -0.00161,   0.00000,   2.00000
518273035.41989,425172949.35268,-12403118.38708,   0.00331,   0.00400,  -0.00177,481257632.80851,   0.00414,279045731.74420,   0.00178,   0.00307,  -0.00161,   0.00000,   2.00000
518681404.93398,424295288.57561,-13023309.98723,   0.00332,   0.00400,  -0.00178,481298809.27421,   0.00415,279052852.15261,   0.00179,   0.00308,  -0.00161,   0.00000,   2.00000
519089803.98057,423400685.09689,-13650736.15580,   0.00333,   0.00400,  -0.00179,481290118.19832,   0.00415,279059927.25097,   0.00180,   0.00308,  -0.00161,   0.00000,   2.00000
519498012.95487,422488961.95575,-14285399.76384,   0.00334,   0.00399,  -0.00180,481281617.62318,   0.00416,279066957.89458,   0.00180,   0.00308,  -0.00161,   0.00000,   2.00000
519897169.27649,421576893.73558,-14926495.62566,   0.00336,   0.00399,  -0.00181,481295207.23503,   0.00417,279074014.20128,   0.00181,   0.00309,  -0.00161,  -0.00000,   2.00000
520304438.48691,420630350.50450,-15575647.83652,   0.00337,   0.00399,  -0.00182,481265210.94705,   0.00418,279080958.25393,   0.00182,   0.00309,  -0.00161,   0.00000,   2.00000
520708109.08851,419675634.64776,-16219944.43099,   0.00338,   0.00399,  -0.00183,481306283.48822,   0.00418,279088015.74618,   0.00183,   0.00310,  -0.00162,   0.00000,   2.00000
521101138.73866,418719626.84487,-16880664.38857,   0.00339,   0.00399,  -0.00184,481321387.12377,   0.00419,279095104.15923,   0.00183,   0.00310,  -0.00162,   0.00000,   2.00000
521502729.25635,417729357.03982,-17539385.87256,   0.00340,   0.00399,  -0.00185,481291150.08706,   0.00420,279102079.66394,   0.00184,   0.00310,  -0.00162,   0.00000,   2.00000
521899012.50786,416730145.90799,-18203101.59318,   0.00341,   0.00399,  -0.00186,481333792.77043,   0.00420,279109174.25611,   0.00185,   0.00311,  -0.00162,   0.00000,   2.00000
522287893.46776,415720215.71109,-18885386.43138,   0.00342,   0.00398,  -0.00187,481299678.35501,   0.00421,279116143.68559,   0.00186,   0.00311,  -0.00162,   0.00000,   2.00000
522680733.97558,414684636.52701,-19563373.91244,   0.00343,   0.00398,  -0.00188,481319993.09502,   0.00422,279123161.67033,   0.00186,   0.00311,  -0.00162,   0.00000,   2.00000
523071484.63189,413630620.01948,-20248525.35166,   0.00344,   0.00398,  -0.00189,481313460.31372,   0.00422,279130142.74481,   0.00187,   0.00312,  -0.00162,   0.00000,   2.00000
523456021.52183,412567703.87844,-20938268.13278,   0.00346,   0.00398,  -0.00190,481356930.74686,   0.00423,279137246.60851,   0.00188,   0.00312,  -0.00163,   0.00000,   2.00000
523835292.19993,411495385.44294,-21626553.05667,   0.00347,   0.00398,  -0.00191,481321093.15298,   0.00424,279144219.95255,   0.00189,   0.00313,  -0.00163,   0.00000,   2.00000
524214644.91688,410394957.41412,-22330518.95017,   0.00348,   0.00397,  -0.00192,481344999.52402,   0.00424,279151254.16667,   0.00189,   0.00313,  -0.00163,   0.00000,   2.00000
524590982.40120,409275485.11321,-23041562.33686,   0.00349,   0.00397,  -0.00193,481339471.62095,   0.00425,279158255.18070,   0.00190,   0.00313,  -0.00163,   0.00000,   2.00000
524964047.58981,408136775.83387,-23759676.30050,   0.00350,   0.00397,  -0.00194,481334186.61748,   0.00426,279165224.00071,   0.00191,   0.00314,  -0.00163,   0.00000,   2.00000
525327394.13581,406998391.01170,-24473543.30172,   0.00351,   0.00397,  -0.00195,481348594.10483,   0.00426,279172223.85402,   0.00192,   0.00314,  -0.00163,   0.00000,   2.00000
525691241.88200,405832697.59982,-25192732.27346,   0.00352,   0.00396,  -0.00196,481372221.77810,   0.00427,279179284.52013,   0.00192,   0.00314,  -0.00164,  -0.00000,   2.00000
526049392.92712,404646090.37371,-25928993.05907,   0.00354,   0.00396,  -0.00197,481369306.43943,   0.00428,279186320.86639,   0.00193,   0.00315,  -0.00164,   0.00000,   2.00000
526405182.15202,403441001.08317,-26662193.73104,   0.00355,   0.00396,  -0.00199,481363389.52505,   0.00428,279193323.42215,   0.00194,   0.00315,  -0.00164,  -0.00000,   2.00000
526748917.82964,402234914.42319,-27401015.28244,   0.00356,   0.00396,  -0.00200,481380057.58393,   0.00429,279200365.03068,   0.00195,   0.00315,  -0.00164,   0.00000,   2.00000
527091993.08126,401001185.76644,-28144836.46221,   0.00357,   0.00395,  -0.00201,481404879.56140,   0.00430,279207472.16768,   0.00195,   0.00316,  -0.00164,  -0.00000,   2.00000
527426430.70098,399754761.82992,-28897619.86528,   0.00358,   0.00395,  -0.00202,481372685.71513,   0.00430,279214460.88534,   0.00196,   0.00316,  -0.00164,   0.00000,   2.00000
527759565.30746,398480450.34067,-29655264.82713,   0.00359,   0.00395,  -0.00203,481398098.65915,   0.00431,279221517.69073,   0.00197,   0.00316,  -0.00165,   0.00000,   2.00000
528087289.78078,397185568.60319,-30419801.96535,   0.00361,   0.00394,  -0.00204,481395177.89816,   0.00432,279228551.03362,   0.00198,   0.00316,  -0.00165,   0.00000,   2.00000
528405695.78278,395882269.25489,-31187454.35905,   0.00362,   0.00394,  -0.00206,481441678.54990,   0.00433,279235721.16505,   0.00199,   0.00317,  -0.00165,  -0.00000,   2.00000
528714635.92502,394565389.69804,-31964156.80498,   0.00363,   0.00394,  -0.00207,481410535.46299,   0.00433,279242776.24899,   0.00199,   0.00317,  -0.00165,   0.00000,   2.00000
529023396.77251,393221958.26147,-32735391.70267,   0.00364,   0.00393,  -0.00208,481435127.08435,   0.00434,279249897.60716,   0.00200,   0.00317,  -0.00166,   0.00000,   2.00000
529323458.93038,391855790.93172,-33523403.61533,   0.00365,   0.00393,  -0.00209,481435421.10634,   0.00435,279257006.38878,   0.00201,   0.00318,  -0.00166,   0.00000,   2.00000
529619220.99057,390469959.59959,-34308187.34915,   0.00366,   0.00392,  -0.00211,481431787.71396,   0.00435,279264089.96144,   0.00202,   0.00318,  -0.00166,   0.00000,   2.00000
529902162.78349,389074362.08062,-35105486.58699,   0.00368,   0.00392,  -0.00212,481481631.73930,   0.00436,279271322.91267,   0.00202,   0.00318,  -0.00166,   0.00000,   2.00000
530177054.45176,387665756.87840,-35902004.94028,   0.00369,   0.00392,  -0.00213,481449578.71696,   0.00437,279278437.76435,   0.00203,   0.00319,  -0.00167,   0.00000,   2.00000
530448028.53616,386228708.63496,-36702623.41124,   0.00370,   0.00391,  -0.00215,481477793.21957,   0.00437,279285631.94409,   0.00204,   0.00319,  -0.00167,   0.00000,   2.00000
530711331.73944,384769824.68008,-37509866.42523,   0.00371,   0.00391,  -0.00216,481477484.09564,   0.00438,279292812.16140,   0.00205,   0.00319,  -0.00167,   0.00000,   2.00000
530966659.93675,383288916.88651,-38323703.29808,   0.00372,   0.00390,  -0.00217,481477489.80921,   0.00439,279299979.64308,   0.00206,   0.00319,  -0.00167,   0.00000,   2.00000
531207281.04594,381806762.64563,-39142237.99053,   0.00374,   0.00390,  -0.00219,481497311.69071,   0.00440,279307199.56302,   0.00206,   0.00320,  -0.00168,  -0.00000,   2.00000
531442792.32800,380295997.99833,-39964456.90037,   0.00375,   0.00389,  -0.00220,481526891.57824,   0.00440,279314504.23449,   0.00207,   0.00320,  -0.00168,   0.00000,   2.00000
531669572.38044,378762873.36992,-40793112.17630,   0.00376,   0.00389,  -0.00221,481527871.63583,   0.00441,279321799.54969,   0.00208,   0.00320,  -0.00168,  -0.00000,   2.00000
531890255.94237,377209153.47770,-41618298.60922,   0.00377,   0.00388,  -0.00223,481526524.07827,   0.00442,279329077.96640,   0.00209,   0.00320,  -0.00168,   0.00000,   2.00000
532092643.34054,375652326.90201,-42457793.10297,   0.00378,   0.00388,  -0.00224,481549892.35502,   0.00442,279336421.30682,   0.00210,   0.00321,  -0.00169,   0.00000,   2.00000
532294598.92143,374053026.40642,-43295760.75848,   0.00380,   0.00387,  -0.00225,481529937.89137,   0.00443,279343686.34347,   0.00210,   0.00321,  -0.00169,   0.00000,   2.00000
532480821.00442,372444684.80512,-44144745.40855,   0.00381,   0.00387,  -0.00227,481583061.08305,   0.00444,279351115.65002,   0.00211,   0.00321,  -0.00169,   0.00000,   2.00000
532660110.45208,370815379.36356,-44990089.19273,   0.00382,   0.00386,  -0.00228,481582847.76221,   0.00445,279358532.08944,   0.00212,   0.00321,  -0.00170,   0.00000,   2.00000
532825993.56462,369168532.90478,-45844892.02139,   0.00383,   0.00386,  -0.00230,481556542.01400,   0.00445,279365848.95126,   0.00213,   0.00322,  -0.00170,   0.00000,   2.00000
532978550.08979,367507420.86193,-46706958.21560,   0.00384,   0.00385,  -0.00231,481639708.85577,   0.00446,279373431.43256,   0.00214,   0.00322,  -0.00170,   0.00000,   2.00000
533125963.51226,365808115.86250,-47570746.43152,   0.00386,   0.00385,  -0.00233,481592589.41810,   0.00447,279380844.54858,   0.00214,   0.00322,  -0.00171,   0.00000,   2.00000
533256782.54933,364107730.34663,-48438427.05817,   0.00387,   0.00384,  -0.00234,481614995.03701,   0.00447,279388320.98276,   0.00215,   0.00322,  -0.00171,   0.00000,   2.00000
533379221.95637,362378491.30802,-49308617.53555,   0.00388,   0.00384,  -0.00236,481648425.60367,   0.00448,279395897.89616,   0.00216,   0.00323,  -0.00171,   0.00000,   2.00000
533493467.02391,360627739.01958,-50174968.65895,   0.00389,   0.00383,  -0.00237,481649881.22512,   0.00449,279403468.02333,   0.00217,   0.00323,  -0.00172,   0.00000,   2.00000
533587194.38897,358873932.98966,-51054736.84235,   0.00391,   0.00382,  -0.00238,481676183.35347,   0.00450,279411115.02988,   0.00218,   0.00323,  -0.00172,   0.00000,   2.00000
533673595.59072,357073022.46006,-51942567.17287,   0.00392,   0.00382,  -0.00240,481663393.52757,   0.00450,279418707.46593,   0.00219,   0.00323,  -0.00172,  -0.00000,   2.00000
533746304.54161,355273527.70057,-52824133.86059,   0.00393,   0.00381,  -0.00242,481683732.09871,   0.00451,279426357.15964,   0.00220,   0.00324,  -0.00173,  -0.00000,   2.00000
533809266.97317,353445299.04675,-53707644.78993,   0.00394,   0.00380,  -0.00243,481718937.84507,   0.00452,279434114.61020,   0.00220,   0.00324,  -0.00173,   0.00000,   2.00000
533852365.91173,351594973.59940,-54610343.59295,   0.00396,   0.00380,  -0.00245,481699455.52633,   0.00453,279441794.62498,   0.00221,   0.00324,  -0.00174,   0.00000,   2.00000
533884549.99213,349741965.05725,-55502636.98281,   0.00397,   0.00379,  -0.00246,481749643.99637,   0.00453,279449633.79962,   0.00222,   0.00324,  -0.00174,   0.00000,   2.00000
533907474.15764,347840653.66589,-56402827.25566,   0.00398,   0.00378,  -0.00248,481739134.86934,   0.00454,279457425.91319,   0.00223,   0.00324,  -0.00174,   0.00000,   2.00000
