# sigma_xx, sigma_yy, sigma_xy, epsilon_xx, epsilon_yy, epsilon_xy, vonMises, epsPlastic, hardening, epsilonP__xx, epsilonP__yy, epsilonP__xy, yieldValue, iteration
   0.00000,   0.00000,   0.00000,   0.00000,   0.00000,   0.00000,   0.00000,   0.00000,274640135.82653,   0.00000,   0.00000,   0.00000,-474640135.82653,   0.00000
   0.00000,   0.00000,   0.00000,   0.00000,   0.00000,   0.00000,   0.00000,   0.00000,274640135.82653,   0.00000,   0.00000,   0.00000,-474640135.82653,   0.00000
-456909.58314,1439051.67775,-444099.03408,  -0.00000,   0.00001,  -0.00001,1878516.55751,   0.00000,274640135.82653,   0.00000,   0.00000,   0.00000,-472761619.26902,   0.00000
-913819.16629,2878103.35551,-883927.88515,  -0.00001,   0.00001,  -0.00001,3754010.64476,   0.00000,274640135.82653,   0.00000,   0.00000,   0.00000,-470886125.18177,   0.00000
-1349377.83433,4338505.94836,-1323756.73621,  -0.00001,   0.00002,  -0.00002,5635133.88081,   0.00000,274640135.82653,   0.00000,   0.00000,   0.00000,-469005001.94572,   0.00000
-1784936.50238,5798908.54122,-1759315.40426,  -0.00002,   0.00003,  -0.00002,7513294.49650,   0.00000,274640135.82653,   0.00000,   0.00000,   0.00000,-467126841.33003,   0.00000
-2199144.25532,7280662.04918,-2194874.07230,  -0.00002,   0.00004,  -0.00003,9397229.27411,   0.00000,274640135.82653,   0.00000,   0.00000,   0.00000,-465242906.55242,   0.00000
-2613352.00827,8762415.55713,-2626162.55733,  -0.00003,   0.00004,  -0.00003,11278253.44373,   0.00000,274640135.82653,   0.00000,   0.00000,   0.00000,-463361882.38280,   0.00000
-3012614.12064,10250574.33962,-3057451.04235,  -0.00003,   0.00005,  -0.00004,13155803.42515,   0.00000,274640135.82653,   0.00000,   0.00000,   0.00000,-461484332.40138,   0.00000
-3399065.68396,11768624.40324,-3484469.34436,  -0.00004,   0.00006,  -0.00005,15049288.19114,   0.00000,274640135.82653,   0.00000,   0.00000,   0.00000,-459590847.63539,   0.00000
-3791922.52180,13271728.82630,-3911487.64636,  -0.00004,   0.00007,  -0.00005,16933459.08882,   0.00000,274640135.82653,   0.00000,   0.00000,   0.00000,-457706676.73771,   0.00000
-4148482.80397,14802589.43898,-4334235.76534,  -0.00005,   0.00008,  -0.00006,18817323.14716,   0.00000,274640135.82653,   0.00000,   0.00000,   0.00000,-455822812.67937,   0.00000
-4513583.45219,16341990.41771,-4756983.88433,  -0.00005,   0.00008,  -0.00006,20714263.46614,   0.00000,274640135.82653,   0.00000,   0.00000,   0.00000,-453925872.36039,   0.00000
-4855198.09379,17879256.30493,-5179732.00331,  -0.00006,   0.00009,  -0.00007,22595064.87169,   0.00000,274640135.82653,   0.00000,   0.00000,   0.00000,-452045070.95484,   0.00000
-5184002.18633,19446413.47328,-5598209.93928,  -0.00006,   0.00010,  -0.00007,24492182.20527,   0.00000,274640135.82653,   0.00000,   0.00000,   0.00000,-450147953.62126,   0.00000
-5512806.27888,21013570.64164,-6012417.69222,  -0.00007,   0.00011,  -0.00008,26386595.60973,   0.00000,274640135.82653,   0.00000,   0.00000,   0.00000,-448253540.21680,   0.00000
-5826664.73085,22587133.08452,-6426625.44517,  -0.00007,   0.00011,  -0.00008,28277920.68763,   0.00000,274640135.82653,   0.00000,   0.00000,   0.00000,-446362215.13890,   0.00000
-6134117.90829,24175641.16798,-6836563.01509,  -0.00008,   0.00012,  -0.00009,30176166.81102,   0.00000,274640135.82653,   0.00000,   0.00000,   0.00000,-444463969.01551,   0.00000
-6426625.44517,25770554.52597,-7246500.58502,  -0.00008,   0.00013,  -0.00009,32071420.43669,   0.00000,274640135.82653,   0.00000,   0.00000,   0.00000,-442568715.38984,   0.00000
-6719132.98204,27365467.88395,-7656438.15494,  -0.00008,   0.00014,  -0.00010,33966909.39764,   0.00000,274640135.82653,   0.00000,   0.00000,   0.00000,-440673226.42889,   0.00000
-6990289.60381,28981732.15704,-8062105.54184,  -0.00009,   0.00015,  -0.00010,35866255.53175,   0.00000,274640135.82653,   0.00000,   0.00000,   0.00000,-438773880.29478,   0.00000
-7240095.31049,30619347.34523,-8463502.74573,  -0.00009,   0.00015,  -0.00011,37769604.72732,   0.00000,274640135.82653,   0.00000,   0.00000,   0.00000,-436870531.09921,   0.00000
-7489901.01716,32256962.53341,-8864899.94961,  -0.00010,   0.00016,  -0.00012,39673304.10954,   0.00000,274640135.82653,   0.00000,   0.00000,   0.00000,-434966831.71699,   0.00000
-7739706.72383,33894577.72160,-9266297.15350,  -0.00010,   0.00017,  -0.00012,41577305.57649,   0.00000,274640135.82653,   0.00000,   0.00000,   0.00000,-433062830.25004,   0.00000
-7968161.51540,35553543.82489,-9663424.17436,  -0.00011,   0.00018,  -0.00013,43485489.03262,   0.00000,274640135.82653,   0.00000,   0.00000,   0.00000,-431154646.79391,   0.00000
-8181670.66640,37218915.20271,-10056281.01220,  -0.00011,   0.00019,  -0.00013,45388177.46835,   0.00000,274640135.82653,   0.00000,   0.00000,   0.00000,-429251958.35818,   0.00000
-8395179.81741,38884286.58052,-10449137.85005,  -0.00011,   0.00019,  -0.00014,47291233.96979,   0.00000,274640135.82653,   0.00000,   0.00000,   0.00000,-427348901.85673,   0.00000
-8602283.69388,40564603.59891,-10841994.68789,  -0.00012,   0.00020,  -0.00014,49204482.76744,   0.00000,274640135.82653,   0.00000,   0.00000,   0.00000,-425435653.05909,   0.00000
-8794441.92978,42251325.89183,-11230581.34272,  -0.00012,   0.00021,  -0.00015,51112341.48786,   0.00000,274640135.82653,   0.00000,   0.00000,   0.00000,-423527794.33867,   0.00000
-8965249.25058,43959399.09985,-11614897.81452,  -0.00013,   0.00022,  -0.00015,53024795.96289,   0.00000,274640135.82653,   0.00000,   0.00000,   0.00000,-421615339.86364,   0.00000
-9136056.57138,45667472.30786,-11999214.28632,  -0.00013,   0.00023,  -0.00016,54937688.31694,   0.00000,274640135.82653,   0.00000,   0.00000,   0.00000,-419702447.50959,   0.00000
-9285512.97709,47396896.43098,-12383530.75813,  -0.00013,   0.00023,  -0.00016,56858126.43354,   0.00000,274640135.82653,   0.00000,   0.00000,   0.00000,-417782009.39299,   0.00000
-9434969.38279,49126320.55410,-12763577.04691,  -0.00014,   0.00024,  -0.00017,58776237.08483,   0.00000,274640135.82653,   0.00000,   0.00000,   0.00000,-415863898.74170,   0.00000
-9569480.14792,50862149.95175,-13139353.15268,  -0.00014,   0.00025,  -0.00017,60689252.64057,   0.00000,274640135.82653,   0.00000,   0.00000,   0.00000,-413950883.18596,   0.00000
-9697585.63852,52612924.98997,-13515129.25844,  -0.00015,   0.00026,  -0.00018,62612758.64883,   0.00000,274640135.82653,   0.00000,   0.00000,   0.00000,-412027377.17770,   0.00000
-9810745.48855,54370105.30271,-13890905.36420,  -0.00015,   0.00027,  -0.00018,64534038.29369,   0.00000,274640135.82653,   0.00000,   0.00000,   0.00000,-410106097.53284,   0.00000
-9923905.33858,56127285.61546,-14262411.28695,  -0.00015,   0.00027,  -0.00019,66453044.20598,   0.00000,274640135.82653,   0.00000,   0.00000,   0.00000,-408187091.62055,   0.00000
-10015714.27351,57905816.84331,-14629647.02667,  -0.00016,   0.00028,  -0.00019,68377232.97525,   0.00000,274640135.82653,   0.00000,   0.00000,   0.00000,-406262902.85128,   0.00000
-10101117.93391,59699293.71173,-14996882.76640,  -0.00016,   0.00029,  -0.00019,70312071.06660,   0.00000,274640135.82653,   0.00000,   0.00000,   0.00000,-404328064.75993,   0.00000
-10177981.22828,61484230.21411,-15359848.32310,  -0.00017,   0.00030,  -0.00020,72232001.42170,   0.00000,274640135.82653,   0.00000,   0.00000,   0.00000,-402408134.40483,   0.00000
-10233493.60754,63290517.63159,-15722813.87980,  -0.00017,   0.00031,  -0.00020,74160081.91734,   0.00000,274640135.82653,   0.00000,   0.00000,   0.00000,-400480053.90919,   0.00000
-10289005.98680,65096805.04906,-16085779.43651,  -0.00017,   0.00032,  -0.00021,76088737.59567,   0.00000,274640135.82653,   0.00000,   0.00000,   0.00000,-398551398.23086,   0.00000
-10338113.09153,66918038.10711,-16440204.62717,  -0.00018,   0.00032,  -0.00021,78022737.94710,   0.00000,274640135.82653,   0.00000,   0.00000,   0.00000,-396617397.87943,   0.00000
-10357328.91512,68752081.71422,-16798900.00085,  -0.00018,   0.00033,  -0.00022,79955112.71910,   0.00000,274640135.82653,   0.00000,   0.00000,   0.00000,-394685023.10743,   0.00000
-10385085.10475,70594665.68737,-17153325.19152,  -0.00018,   0.00034,  -0.00022,81898095.96460,   0.00000,274640135.82653,   0.00000,   0.00000,   0.00000,-392742039.86193,   0.00000
-10404300.92834,72428709.29448,-17503480.19916,  -0.00019,   0.00035,  -0.00023,83826326.13010,   0.00000,274640135.82653,   0.00000,   0.00000,   0.00000,-390813809.69643,   0.00000
-10402165.83683,74284103.81669,-17853635.20680,  -0.00019,   0.00036,  -0.00023,85763078.13494,   0.00000,274640135.82653,   0.00000,   0.00000,   0.00000,-388877057.69159,   0.00000
-10393625.47079,76154443.97947,-18199520.03143,  -0.00020,   0.00037,  -0.00024,87708124.73785,   0.00000,274640135.82653,   0.00000,   0.00000,   0.00000,-386932011.08868,   0.00000
-10370139.46418,78031189.41678,-18545404.85605,  -0.00020,   0.00038,  -0.00024,89651529.57388,   0.00000,274640135.82653,   0.00000,   0.00000,   0.00000,-384988606.25265,   0.00000
-10346653.45757,79907934.85409,-18887019.49766,  -0.00020,   0.00038,  -0.00025,91592955.61000,   0.00000,274640135.82653,   0.00000,   0.00000,   0.00000,-383047180.21653,   0.00000
-10308221.81039,81791085.56593,-19228634.13926,  -0.00021,   0.00039,  -0.00025,93532790.39810,   0.00000,274640135.82653,   0.00000,   0.00000,   0.00000,-381107345.42843,   0.00000
-10248439.24811,83695587.19287,-19565978.59784,  -0.00021,   0.00040,  -0.00025,95478864.25139,   0.00000,274640135.82653,   0.00000,   0.00000,   0.00000,-379161271.57514,   0.00000
-10188656.68583,85600088.81981,-19903323.05643,  -0.00021,   0.00041,  -0.00026,97425667.32821,   0.00000,274640135.82653,   0.00000,   0.00000,   0.00000,-377214468.49832,   0.00000
-10122468.84901,87519536.08732,-20236397.33199,  -0.00022,   0.00042,  -0.00026,99380997.58604,   0.00000,274640135.82653,   0.00000,   0.00000,   0.00000,-375259138.24049,   0.00000
-10047740.64616,89430442.98879,-20569471.60755,  -0.00022,   0.00043,  -0.00027,101324452.17680,   0.00000,274640135.82653,   0.00000,   0.00000,   0.00000,-373315683.64973,   0.00000
-9951661.52821,91362700.80536,-20898275.70010,  -0.00022,   0.00044,  -0.00027,103274406.90728,   0.00000,274640135.82653,   0.00000,   0.00000,   0.00000,-371365728.91925,   0.00000
-9849177.13573,93309904.26250,-21222809.60962,  -0.00023,   0.00044,  -0.00028,105233042.54133,   0.00000,274640135.82653,   0.00000,   0.00000,   0.00000,-369407093.28520,   0.00000
-9738152.37721,95248567.35360,-21547343.51914,  -0.00023,   0.00045,  -0.00028,107179896.88104,   0.00000,274640135.82653,   0.00000,   0.00000,   0.00000,-367460238.94549,   0.00000
-9620722.34416,97202176.08527,-21871877.42867,  -0.00023,   0.00046,  -0.00028,109138048.12375,   0.00000,274640135.82653,   0.00000,   0.00000,   0.00000,-365502087.70277,   0.00000
-9496887.03658,99170730.45751,-22192141.15517,  -0.00024,   0.00047,  -0.00029,111104956.03034,   0.00000,274640135.82653,   0.00000,   0.00000,   0.00000,-363535179.79619,   0.00000
-9349565.72239,101137149.73824,-22508134.69865,  -0.00024,   0.00048,  -0.00029,113055624.57332,   0.00000,274640135.82653,   0.00000,   0.00000,   0.00000,-361584511.25321,   0.00000
-9210784.77424,103112109.38501,-22824128.24214,  -0.00024,   0.00049,  -0.00030,115019613.95860,   0.00000,274640135.82653,   0.00000,   0.00000,   0.00000,-359620521.86792,   0.00000
-9042112.54494,105099879.58084,-23140121.78562,  -0.00025,   0.00050,  -0.00030,116980618.63220,   0.00000,274640135.82653,   0.00000,   0.00000,   0.00000,-357659517.19433,   0.00000
-8867035.04112,107102595.41724,-23451845.14608,  -0.00025,   0.00050,  -0.00030,118950577.31830,   0.00000,274640135.82653,   0.00000,   0.00000,   0.00000,-355689558.50823,   0.00000
-8691957.53730,109105311.25364,-23759298.32353,  -0.00025,   0.00051,  -0.00031,120918859.45779,   0.00000,274640135.82653,   0.00000,   0.00000,   0.00000,-353721276.36874,   0.00000
-8501934.39291,111114432.36457,-24066751.50097,  -0.00026,   0.00052,  -0.00031,122886179.71773,   0.00000,274640135.82653,   0.00000,   0.00000,   0.00000,-351753956.10880,   0.00000
-8296965.60795,113129958.75003,-24369934.49539,  -0.00026,   0.00053,  -0.00032,124850084.91783,   0.00000,274640135.82653,   0.00000,   0.00000,   0.00000,-349790050.90870,   0.00000
-8085591.54845,115160430.77606,-24673117.48982,  -0.00026,   0.00054,  -0.00032,126825588.87312,   0.00000,274640135.82653,   0.00000,   0.00000,   0.00000,-347814546.95340,   0.00000
-7880622.76349,117175957.16152,-24976300.48424,  -0.00026,   0.00055,  -0.00032,128791208.64732,   0.00000,274640135.82653,   0.00000,   0.00000,   0.00000,-345848927.17921,   0.00000
-7647897.78890,119227780.10266,-25270943.11262,  -0.00027,   0.00056,  -0.00033,130772540.93281,   0.00000,274640135.82653,   0.00000,   0.00000,   0.00000,-343867594.89372,   0.00000
-7406632.44827,121271062.67775,-25569855.92402,  -0.00027,   0.00057,  -0.00033,132744836.55120,   0.00000,274640135.82653,   0.00000,   0.00000,   0.00000,-341895299.27533,   0.00000
-7158961.83310,123329290.89341,-25860228.36939,  -0.00027,   0.00058,  -0.00034,134723897.83242,   0.00000,274640135.82653,   0.00000,   0.00000,   0.00000,-339916237.99411,   0.00000
-6896345.57737,125393924.38360,-26150600.81475,  -0.00028,   0.00058,  -0.00034,136702295.00419,   0.00000,274640135.82653,   0.00000,   0.00000,   0.00000,-337937840.82234,   0.00000
-6633729.32164,127458557.87379,-26440973.26011,  -0.00028,   0.00059,  -0.00034,138681617.79222,   0.00000,274640135.82653,   0.00000,   0.00000,   0.00000,-335958518.03431,   0.00000
-6356167.42534,129529596.63851,-26727075.52246,  -0.00028,   0.00060,  -0.00035,140657878.45121,   0.00000,274640135.82653,   0.00000,   0.00000,   0.00000,-333982257.37532,   0.00000
-6072200.25450,131615581.04380,-27013177.78480,  -0.00028,   0.00061,  -0.00035,142645940.27255,   0.00000,274640135.82653,   0.00000,   0.00000,   0.00000,-331994195.55398,   0.00000
-5773287.44310,133707970.72363,-27295009.86412,  -0.00029,   0.00062,  -0.00035,144631046.18926,   0.00000,274640135.82653,   0.00000,   0.00000,   0.00000,-330009089.63727,   0.00000
-5474374.63170,135800360.40345,-27572571.76043,  -0.00029,   0.00063,  -0.00036,146614695.21072,   0.00000,274640135.82653,   0.00000,   0.00000,   0.00000,-328025440.61581,   0.00000
-5160516.17972,137899155.35780,-27850133.65673,  -0.00029,   0.00064,  -0.00036,148597875.59761,   0.00000,274640135.82653,   0.00000,   0.00000,   0.00000,-326042260.22892,   0.00000
-4825306.81265,140019301.22725,-28127695.55303,  -0.00029,   0.00065,  -0.00037,150591587.28658,   0.00000,274640135.82653,   0.00000,   0.00000,   0.00000,-324048548.53995,   0.00000
-4490097.44558,142139447.09670,-28400987.26631,  -0.00030,   0.00066,  -0.00037,152583916.57529,   0.00000,274640135.82653,   0.00000,   0.00000,   0.00000,-322056219.25124,   0.00000
-4154888.07850,144259592.96615,-28670008.79658,  -0.00030,   0.00066,  -0.00037,154574848.96942,   0.00000,274640135.82653,   0.00000,   0.00000,   0.00000,-320065286.85711,   0.00000
-3804733.07086,146386144.11014,-28939030.32684,  -0.00030,   0.00067,  -0.00038,156565455.36471,   0.00000,274640135.82653,   0.00000,   0.00000,   0.00000,-318074680.46182,   0.00000
-3439632.42265,148519100.52865,-29203781.67408,  -0.00031,   0.00068,  -0.00038,158553423.16962,   0.00000,274640135.82653,   0.00000,   0.00000,   0.00000,-316086712.65691,   0.00000
-3068126.49990,150667002.58773,-29468533.02133,  -0.00031,   0.00069,  -0.00038,160553442.21653,   0.00000,274640135.82653,   0.00000,   0.00000,   0.00000,-314086693.61000,   0.00000
-2681674.93659,152821309.92134,-29729014.18555,  -0.00031,   0.00070,  -0.00039,162550927.63952,   0.00000,274640135.82653,   0.00000,   0.00000,   0.00000,-312089208.18701,   0.00000
-2295223.37327,154975617.25496,-29989495.34977,  -0.00031,   0.00071,  -0.00039,164549455.01855,   0.00000,274640135.82653,   0.00000,   0.00000,   0.00000,-310090680.80798,   0.00000
-1893826.16939,157136329.86310,-30245706.33097,  -0.00032,   0.00072,  -0.00039,166545518.96836,   0.00000,274640135.82653,   0.00000,   0.00000,   0.00000,-308094616.85817,   0.00000
-1486023.69098,159311988.11181,-30501917.31218,  -0.00032,   0.00073,  -0.00040,168553730.57365,   0.00000,274640135.82653,   0.00000,   0.00000,   0.00000,-306086405.25288,   0.00000
-1063275.57199,161494051.63505,-30753858.11036,  -0.00032,   0.00074,  -0.00040,170559582.88700,   0.00000,274640135.82653,   0.00000,   0.00000,   0.00000,-304080552.93953,   0.00000
-640527.45301,163676115.15830,-31005798.90854,  -0.00032,   0.00075,  -0.00040,172566505.12704,   0.00000,274640135.82653,   0.00000,   0.00000,   0.00000,-302073630.69949,   0.00000
-202833.69345,165864583.95607,-31253469.52370,  -0.00032,   0.00076,  -0.00041,174571138.36603,   0.00000,274640135.82653,   0.00000,   0.00000,   0.00000,-300068997.46050,   0.00000
234860.06610,168053052.75384,-31496869.95585,  -0.00033,   0.00076,  -0.00041,176574554.22315,   0.00000,274640135.82653,   0.00000,   0.00000,   0.00000,-298065581.60338,   0.00000
687499.46623,170247926.82614,-31740270.38799,  -0.00033,   0.00077,  -0.00041,178578045.06211,   0.00000,274640135.82653,   0.00000,   0.00000,   0.00000,-296062090.76442,   0.00000
1161489.78145,172464151.81355,-31979400.63711,  -0.00033,   0.00078,  -0.00042,180590596.55643,   0.00000,274640135.82653,   0.00000,   0.00000,   0.00000,-294049539.27010,   0.00000
1620534.45611,174673971.52642,-32218530.88623,  -0.00033,   0.00079,  -0.00042,182605198.36164,   0.00000,274640135.82653,   0.00000,   0.00000,   0.00000,-292034937.46489,   0.00000
2109470.41190,176896601.78835,-32457661.13536,  -0.00034,   0.00080,  -0.00042,184619063.86227,   0.00000,274640135.82653,   0.00000,   0.00000,   0.00000,-290021071.96426,   0.00000
2598406.36770,179119232.05029,-32692521.20146,  -0.00034,   0.00081,  -0.00043,186631801.36387,   0.00000,274640135.82653,   0.00000,   0.00000,   0.00000,-288008334.46266,   0.00000
3087342.32349,181341862.31222,-32923111.08454,  -0.00034,   0.00082,  -0.00043,188643399.12492,   0.00000,274640135.82653,   0.00000,   0.00000,   0.00000,-285996736.70161,   0.00000
3597629.19439,183585843.48925,-33153700.96762,  -0.00034,   0.00083,  -0.00043,190666553.80223,   0.00000,274640135.82653,   0.00000,   0.00000,   0.00000,-283973582.02430,   0.00000
4116456.43132,185821284.30025,-33380020.66769,  -0.00034,   0.00084,  -0.00043,192676534.71825,   0.00000,274640135.82653,   0.00000,   0.00000,   0.00000,-281963601.10828,   0.00000
4641688.94279,188071670.75181,-33602070.18473,  -0.00035,   0.00085,  -0.00044,194696753.39650,   0.00000,274640135.82653,   0.00000,   0.00000,   0.00000,-279943382.43003,   0.00000
5181867.09482,190328462.47790,-33828389.88479,  -0.00035,   0.00086,  -0.00044,196719593.49658,   0.00000,274640135.82653,   0.00000,   0.00000,   0.00000,-277920542.32995,   0.00000
5722045.24686,192585254.20400,-34046169.21881,  -0.00035,   0.00087,  -0.00044,198739189.17923,   0.00000,274640135.82653,   0.00000,   0.00000,   0.00000,-275900946.64729,   0.00000
6262223.39889,194842045.93009,-34263948.55283,  -0.00035,   0.00087,  -0.00045,200759927.26713,   0.00000,274640135.82653,   0.00000,   0.00000,   0.00000,-273880208.55940,   0.00000
6817347.19150,197105242.93071,-34481727.88686,  -0.00035,   0.00088,  -0.00045,202781130.31880,   0.00000,274640135.82653,   0.00000,   0.00000,   0.00000,-271859005.50773,   0.00000
7393821.89921,199389790.84644,-34695237.03786,  -0.00036,   0.00089,  -0.00045,204812067.79231,   0.00000,274640135.82653,   0.00000,   0.00000,   0.00000,-269828068.03421,   0.00000
7970296.60691,201674338.76216,-34904476.00584,  -0.00036,   0.00090,  -0.00045,206842035.33360,   0.00000,274640135.82653,   0.00000,   0.00000,   0.00000,-267798100.49293,   0.00000
8555311.68066,203950346.31184,-35113714.97382,  -0.00036,   0.00091,  -0.00046,208861191.40804,   0.00000,274640135.82653,   0.00000,   0.00000,   0.00000,-265778944.41849,   0.00000
9146732.02893,206241299.50210,-35318683.75879,  -0.00036,   0.00092,  -0.00046,210890802.77394,   0.00000,274640135.82653,   0.00000,   0.00000,   0.00000,-263749333.05259,   0.00000
9753098.01778,208538657.96688,-35523652.54375,  -0.00036,   0.00093,  -0.00046,212921080.41730,   0.00000,274640135.82653,   0.00000,   0.00000,   0.00000,-261719055.40923,   0.00000
10359464.00663,210836016.43166,-35728621.32871,  -0.00036,   0.00094,  -0.00046,214952551.37333,   0.00000,274640135.82653,   0.00000,   0.00000,   0.00000,-259687584.45320,   0.00000
10980775.63604,213139780.17098,-35925049.74763,  -0.00037,   0.00095,  -0.00047,216980484.87788,   0.00000,274640135.82653,   0.00000,   0.00000,   0.00000,-257659650.94865,   0.00000
11608492.53999,215458489.55086,-36125748.34957,  -0.00037,   0.00096,  -0.00047,219023237.65165,   0.00000,274640135.82653,   0.00000,   0.00000,   0.00000,-255616898.17488,   0.00000
12229804.16941,217762253.29018,-36317906.58548,  -0.00037,   0.00097,  -0.00047,221051460.91140,   0.00000,274640135.82653,   0.00000,   0.00000,   0.00000,-253588674.91513,   0.00000
12887412.35449,220093773.21912,-36510064.82138,  -0.00037,   0.00098,  -0.00047,223091617.26671,   0.00000,274640135.82653,   0.00000,   0.00000,   0.00000,-251548518.55982,   0.00000
13523669.62448,222403942.23296,-36702223.05728,  -0.00037,   0.00099,  -0.00048,225121845.35263,   0.00000,274640135.82653,   0.00000,   0.00000,   0.00000,-249518290.47390,   0.00000
14196223.45014,224741867.43644,-36890111.11016,  -0.00037,   0.00099,  -0.00048,227162045.38500,   0.00000,274640135.82653,   0.00000,   0.00000,   0.00000,-247478090.44153,   0.00000
14853831.63522,227073387.36538,-37073728.98002,  -0.00038,   0.00100,  -0.00048,229201731.75725,   0.00000,274640135.82653,   0.00000,   0.00000,   0.00000,-245438404.06928,   0.00000
15541331.10145,229417717.84339,-37257346.84989,  -0.00038,   0.00101,  -0.00048,231242070.57153,   0.00000,274640135.82653,   0.00000,   0.00000,   0.00000,-243398065.25500,   0.00000
16213884.92711,231755643.04686,-37440964.71975,  -0.00038,   0.00102,  -0.00049,233283917.87339,   0.00000,274640135.82653,   0.00000,   0.00000,   0.00000,-241356217.95314,   0.00000
16916330.03391,234106378.79940,-37620312.40659,  -0.00038,   0.00103,  -0.00049,235324460.62039,   0.00000,274640135.82653,   0.00000,   0.00000,   0.00000,-239315675.20614,   0.00000
17603829.50013,236450709.27740,-37795389.91041,  -0.00038,   0.00104,  -0.00049,237364422.89229,   0.00000,274640135.82653,   0.00000,   0.00000,   0.00000,-237275712.93424,   0.00000
18306274.60693,238801445.02993,-37970467.41423,  -0.00038,   0.00105,  -0.00049,239405418.05917,   0.00000,274640135.82653,   0.00000,   0.00000,   0.00000,-235234717.76736,   0.00000
19023665.35430,241158586.05700,-38141274.73504,  -0.00038,   0.00106,  -0.00050,241445467.44410,   0.00000,274640135.82653,   0.00000,   0.00000,   0.00000,-233194668.38243,   0.00000
19747461.37619,243530672.72463,-38312082.05584,  -0.00039,   0.00107,  -0.00050,243498429.41861,   0.00000,274640135.82653,   0.00000,   0.00000,   0.00000,-231141706.40792,   0.00000
20479797.76413,245894219.02623,-38478619.19362,  -0.00039,   0.00108,  -0.00050,245538871.86166,   0.00000,274640135.82653,   0.00000,   0.00000,   0.00000,-229101263.96487,   0.00000
21218539.42660,248272710.96839,-38645156.33140,  -0.00039,   0.00109,  -0.00050,247592256.43060,   0.00000,274640135.82653,   0.00000,   0.00000,   0.00000,-227047879.39593,   0.00000
21965821.45511,250642662.54452,-38807423.28616,  -0.00039,   0.00110,  -0.00050,249633166.72960,   0.00000,274640135.82653,   0.00000,   0.00000,   0.00000,-225006969.09692,   0.00000
22719508.75815,253027559.76121,-38965420.05790,  -0.00039,   0.00111,  -0.00051,251685065.30532,   0.00000,274640135.82653,   0.00000,   0.00000,   0.00000,-222955070.52121,   0.00000
23488141.70175,255418862.25244,-39123416.82965,  -0.00039,   0.00112,  -0.00051,253738248.59158,   0.00000,274640135.82653,   0.00000,   0.00000,   0.00000,-220901887.23495,   0.00000
24250369.37083,257795219.10309,-39281413.60139,  -0.00039,   0.00113,  -0.00051,255780989.29615,   0.00000,274640135.82653,   0.00000,   0.00000,   0.00000,-218859146.53038,   0.00000
25019002.31444,260186521.59432,-39435140.19011,  -0.00039,   0.00114,  -0.00051,257834753.58385,   0.00000,274640135.82653,   0.00000,   0.00000,   0.00000,-216805382.24268,   0.00000
25817526.53919,262590634.63460,-39584596.59581,  -0.00039,   0.00114,  -0.00051,259887987.90776,   0.00000,274640135.82653,   0.00000,   0.00000,   0.00000,-214752147.91877,   0.00000
26601105.12337,264988342.40036,-39734053.00151,  -0.00040,   0.00115,  -0.00052,261942441.29769,   0.00000,274640135.82653,   0.00000,   0.00000,   0.00000,-212697694.52884,   0.00000
27399629.34811,267392455.44064,-39879239.22419,  -0.00040,   0.00116,  -0.00052,263996348.28674,   0.00000,274640135.82653,   0.00000,   0.00000,   0.00000,-210643787.53979,   0.00000
28206693.93890,269788028.11489,-40024425.44687,  -0.00040,   0.00117,  -0.00052,266039909.14282,   0.00000,274640135.82653,   0.00000,   0.00000,   0.00000,-208600226.68371,   0.00000
29020163.80422,272198546.42970,-40165341.48654,  -0.00040,   0.00118,  -0.00052,268094640.28808,   0.00000,274640135.82653,   0.00000,   0.00000,   0.00000,-206545495.53845,   0.00000
29833633.66954,274609064.74452,-40306257.52620,  -0.00040,   0.00119,  -0.00052,270150663.67708,   0.00000,274640135.82653,   0.00000,   0.00000,   0.00000,-204489472.14945,   0.00000
30662049.17543,277025988.33386,-40442903.38284,  -0.00040,   0.00120,  -0.00053,272206282.61839,   0.00000,274640135.82653,   0.00000,   0.00000,   0.00000,-202433853.20814,   0.00000
31505410.32189,279449317.19774,-40575279.05646,  -0.00040,   0.00121,  -0.00053,274261565.24543,   0.00000,274640135.82653,   0.00000,   0.00000,   0.00000,-200378570.58110,   0.00000
32348771.46835,281872646.06161,-40711924.91310,  -0.00040,   0.00122,  -0.00053,276320068.56732,   0.00000,274640135.82653,   0.00000,   0.00000,   0.00000,-198320067.25921,   0.00000
33192132.61480,284295974.92549,-40840030.40370,  -0.00040,   0.00123,  -0.00053,278376100.94061,   0.00000,274640135.82653,   0.00000,   0.00000,   0.00000,-196264034.88592,   0.00000
34050439.40183,286725709.06389,-40968135.89430,  -0.00040,   0.00124,  -0.00053,280433758.23211,   0.00000,274640135.82653,   0.00000,   0.00000,   0.00000,-194206377.59442,   0.00000
34915151.46339,289170388.84287,-41091971.20189,  -0.00041,   0.00125,  -0.00053,282502750.34385,   0.00000,274640135.82653,   0.00000,   0.00000,   0.00000,-192137385.48268,   0.00000
35788403.89099,291606528.25580,-41215806.50947,  -0.00041,   0.00126,  -0.00054,284561545.33365,   0.00000,274640135.82653,   0.00000,   0.00000,   0.00000,-190078590.49288,   0.00000
36661656.31859,294042667.66874,-41339641.81705,  -0.00041,   0.00127,  -0.00054,286621656.86735,   0.00000,274640135.82653,   0.00000,   0.00000,   0.00000,-188018478.95918,   0.00000
37549854.38676,296485212.35620,-41454936.75859,  -0.00041,   0.00128,  -0.00054,288679807.92487,   0.00000,274640135.82653,   0.00000,   0.00000,   0.00000,-185960327.90166,   0.00000
38438052.45493,298927757.04367,-41574501.88315,  -0.00041,   0.00129,  -0.00054,290741129.91234,   0.00000,274640135.82653,   0.00000,   0.00000,   0.00000,-183899005.91419,   0.00000
39341196.16367,301376707.00566,-41685526.64167,  -0.00041,   0.00129,  -0.00054,292800578.01493,   0.00000,274640135.82653,   0.00000,   0.00000,   0.00000,-181839557.81160,   0.00000
40244339.87241,303825656.96766,-41796551.40019,  -0.00041,   0.00130,  -0.00054,294861372.25733,   0.00000,274640135.82653,   0.00000,   0.00000,   0.00000,-179778763.56920,   0.00000
41147483.58115,306274606.92965,-41907576.15871,  -0.00041,   0.00131,  -0.00054,296923484.61095,   0.00000,274640135.82653,   0.00000,   0.00000,   0.00000,-177716651.21558,   0.00000
42065572.93046,308729962.16618,-42014330.73422,  -0.00041,   0.00132,  -0.00055,298985637.09133,   0.00000,274640135.82653,   0.00000,   0.00000,   0.00000,-175654498.73519,   0.00000
42998607.92034,311191722.67723,-42121085.30972,  -0.00041,   0.00133,  -0.00055,301049688.85130,   0.00000,274640135.82653,   0.00000,   0.00000,   0.00000,-173590446.97523,   0.00000
43931642.91022,313653483.18829,-42223569.70220,  -0.00041,   0.00134,  -0.00055,303113301.35636,   0.00000,274640135.82653,   0.00000,   0.00000,   0.00000,-171526834.47017,   0.00000
44864677.90009,316115243.69935,-42321783.91166,  -0.00041,   0.00135,  -0.00055,305176470.61117,   0.00000,274640135.82653,   0.00000,   0.00000,   0.00000,-169463665.21536,   0.00000
45812658.53054,318583409.48493,-42419998.12112,  -0.00041,   0.00136,  -0.00055,307241605.66277,   0.00000,274640135.82653,   0.00000,   0.00000,   0.00000,-167398530.16376,   0.00000
46760639.16099,321051575.27052,-42513942.14756,  -0.00041,   0.00137,  -0.00055,309306321.18647,   0.00000,274640135.82653,   0.00000,   0.00000,   0.00000,-165333814.64006,   0.00000
47723565.43201,323526146.33063,-42607886.17400,  -0.00041,   0.00138,  -0.00055,311373057.17799,   0.00000,274640135.82653,   0.00000,   0.00000,   0.00000,-163267078.64854,   0.00000
48680086.42850,325985771.75018,-42697560.01742,  -0.00041,   0.00139,  -0.00056,313427349.71490,   0.00000,274640135.82653,   0.00000,   0.00000,   0.00000,-161212786.11163,   0.00000
49657958.34009,328466748.08482,-42787233.86084,  -0.00041,   0.00140,  -0.00056,315495755.08366,   0.00000,274640135.82653,   0.00000,   0.00000,   0.00000,-159144380.74287,   0.00000
50635830.25168,330947724.41947,-42872637.52124,  -0.00041,   0.00141,  -0.00056,317563788.79195,   0.00000,274640135.82653,   0.00000,   0.00000,   0.00000,-157076347.03458,   0.00000
51613702.16327,333428700.75411,-42958041.18165,  -0.00042,   0.00142,  -0.00056,319633169.41559,   0.00000,274640135.82653,   0.00000,   0.00000,   0.00000,-155006966.41094,   0.00000
52600114.44090,335901136.72272,-43039174.65903,  -0.00042,   0.00143,  -0.00056,321690875.10273,   0.00000,274640135.82653,   0.00000,   0.00000,   0.00000,-152949260.72380,   0.00000
53607877.63364,338394923.60643,-43116037.95339,  -0.00042,   0.00144,  -0.00056,323761136.32868,   0.00000,274640135.82653,   0.00000,   0.00000,   0.00000,-150878999.49785,   0.00000
54600695.18580,340882305.21560,-43192901.24775,  -0.00042,   0.00144,  -0.00056,325831937.10433,   0.00000,274640135.82653,   0.00000,   0.00000,   0.00000,-148808198.72220,   0.00000
55616998.74457,343367551.73327,-43269764.54211,  -0.00042,   0.00145,  -0.00056,327893688.57843,   0.00000,274640135.82653,   0.00000,   0.00000,   0.00000,-146746447.24810,   0.00000
56618356.66277,345846392.97640,-43342357.65345,  -0.00042,   0.00146,  -0.00056,329954226.09627,   0.00000,274640135.82653,   0.00000,   0.00000,   0.00000,-144685909.73026,   0.00000
57641065.49607,348346585.13464,-43410680.58177,  -0.00042,   0.00147,  -0.00056,332027452.24322,   0.00000,274640135.82653,   0.00000,   0.00000,   0.00000,-142612683.58331,   0.00000
58672314.69541,350838236.92683,-43479003.51009,  -0.00042,   0.00148,  -0.00057,334090839.13838,   0.00000,274640135.82653,   0.00000,   0.00000,   0.00000,-140549296.68815,   0.00000
59703563.89475,353329888.71903,-43543056.25539,  -0.00042,   0.00149,  -0.00057,336153931.19976,   0.00000,274640135.82653,   0.00000,   0.00000,   0.00000,-138486204.62676,   0.00000
60741218.36862,355836486.15180,-43607109.00069,  -0.00042,   0.00150,  -0.00057,338230540.67173,   0.00000,274640135.82653,   0.00000,   0.00000,   0.00000,-136409595.15480,   0.00000
61787413.20853,358334543.21852,-43666891.56297,  -0.00042,   0.00151,  -0.00057,340295690.63127,   0.00000,274640135.82653,   0.00000,   0.00000,   0.00000,-134344445.19526,   0.00000
62833608.04844,360832600.28525,-43722403.94223,  -0.00042,   0.00152,  -0.00057,342360569.24103,   0.00000,274640135.82653,   0.00000,   0.00000,   0.00000,-132279566.58550,   0.00000
63894748.52892,363337062.62650,-43777916.32149,  -0.00042,   0.00153,  -0.00057,344427855.42437,   0.00000,274640135.82653,   0.00000,   0.00000,   0.00000,-130212280.40216,   0.00000
64955889.00940,365841524.96776,-43833428.70075,  -0.00042,   0.00154,  -0.00057,346496516.33443,   0.00000,274640135.82653,   0.00000,   0.00000,   0.00000,-128143619.49210,   0.00000
66010624.21535,368331041.66845,-43884670.89699,  -0.00042,   0.00155,  -0.00057,348552707.35808,   0.00000,274640135.82653,   0.00000,   0.00000,   0.00000,-126087428.46845,   0.00000
67086710.33640,370841909.28423,-43931642.91022,  -0.00042,   0.00156,  -0.00057,350621950.80023,   0.00000,274640135.82653,   0.00000,   0.00000,   0.00000,-124018185.02630,   0.00000
68177742.09803,373359182.17455,-43978614.92344,  -0.00042,   0.00157,  -0.00057,352693710.05329,   0.00000,274640135.82653,   0.00000,   0.00000,   0.00000,-121946425.77323,   0.00000
69247422.94455,375855104.14976,-44025586.93666,  -0.00042,   0.00158,  -0.00057,354753469.96515,   0.00000,274640135.82653,   0.00000,   0.00000,   0.00000,-119886665.86138,   0.00000
70353400.34674,378378782.31461,-44064018.58384,  -0.00042,   0.00158,  -0.00057,356825984.32936,   0.00000,274640135.82653,   0.00000,   0.00000,   0.00000,-117814151.49717,   0.00000
71438026.83383,380881109.56436,-44106720.41404,  -0.00042,   0.00159,  -0.00057,358888039.27182,   0.00000,274640135.82653,   0.00000,   0.00000,   0.00000,-115752096.55470,   0.00000
72537598.96149,383389842.08863,-44140881.87820,  -0.00042,   0.00160,  -0.00057,360949508.97247,   0.00000,274640135.82653,   0.00000,   0.00000,   0.00000,-113690626.85406,   0.00000
73637171.08915,385898574.61291,-44175043.34236,  -0.00042,   0.00161,  -0.00057,363012350.83032,   0.00000,274640135.82653,   0.00000,   0.00000,   0.00000,-111627784.99621,   0.00000
74758094.13191,388428658.05228,-44209204.80652,  -0.00042,   0.00162,  -0.00057,365090085.07655,   0.00000,274640135.82653,   0.00000,   0.00000,   0.00000,-109550050.74998,   0.00000
75866206.62562,390928850.21052,-44239096.08766,  -0.00042,   0.00163,  -0.00058,367143093.59792,   0.00000,274640135.82653,   0.00000,   0.00000,   0.00000,-107497042.22861,   0.00000
76995670.03442,393450393.28386,-44268987.36880,  -0.00042,   0.00164,  -0.00058,369211048.38703,   0.00000,274640135.82653,   0.00000,   0.00000,   0.00000,-105429087.43950,   0.00000
78125133.44322,395971936.35719,-44290338.28390,  -0.00042,   0.00165,  -0.00058,371277325.84446,   0.00000,274640135.82653,   0.00000,   0.00000,   0.00000,-103362809.98207,   0.00000
79254596.85202,398493479.43053,-44315959.38202,  -0.00042,   0.00166,  -0.00058,373346510.60141,   0.00000,274640135.82653,   0.00000,   0.00000,   0.00000,-101293625.22512,   0.00000
80392600.62686,401006482.13782,-44337310.29712,  -0.00042,   0.00167,  -0.00058,375404590.05980,   0.00000,274640135.82653,   0.00000,   0.00000,   0.00000,-99235545.76673,   0.00000
81537009.67623,403534430.48569,-44354391.02920,  -0.00042,   0.00168,  -0.00058,377474854.50273,   0.00000,274640135.82653,   0.00000,   0.00000,   0.00000,-97165281.32379,   0.00000
82689959.09165,406053838.46752,-44371471.76128,  -0.00042,   0.00169,  -0.00058,379535579.74936,   0.00000,274640135.82653,   0.00000,   0.00000,   0.00000,-95104556.07717,   0.00000
83842908.50706,408573246.44934,-44384282.31034,  -0.00042,   0.00170,  -0.00058,381596193.96583,   0.00000,274640135.82653,   0.00000,   0.00000,   0.00000,-93043941.86070,   0.00000
84995857.92247,411092654.43117,-44397092.85940,  -0.00041,   0.00170,  -0.00058,383658180.03183,   0.00000,274640135.82653,   0.00000,   0.00000,   0.00000,-90981955.79470,   0.00000
86163752.97845,413618467.68753,-44405633.22544,  -0.00041,   0.00171,  -0.00058,385721519.29703,   0.00000,274640135.82653,   0.00000,   0.00000,   0.00000,-88918616.52950,   0.00000
87331648.03443,416144280.94388,-44409903.40846,  -0.00041,   0.00172,  -0.00058,387784775.35615,   0.00000,274640135.82653,   0.00000,   0.00000,   0.00000,-86855360.47038,   0.00000
88493137.81589,418655148.55967,-44414173.59148,  -0.00041,   0.00173,  -0.00058,389837039.72896,   0.00000,274640135.82653,   0.00000,   0.00000,   0.00000,-84803096.09757,   0.00000
89675978.51244,421187367.09055,-44418443.77450,  -0.00041,   0.00174,  -0.00058,391904560.42251,   0.00000,274640135.82653,   0.00000,   0.00000,   0.00000,-82735575.40402,   0.00000
90852413.93446,423704639.98087,-44418443.77450,  -0.00041,   0.00175,  -0.00058,393959627.58078,   0.00000,274640135.82653,   0.00000,   0.00000,   0.00000,-80680508.24575,   0.00000
92050200.27158,426243263.78629,-44414173.59148,  -0.00041,   0.00176,  -0.00058,396028582.23205,   0.00000,274640135.82653,   0.00000,   0.00000,   0.00000,-78611553.59448,   0.00000
93241581.33418,428766941.95113,-44409903.40846,  -0.00041,   0.00177,  -0.00058,398086540.68020,   0.00000,274640135.82653,   0.00000,   0.00000,   0.00000,-76553595.14633,   0.00000
94432962.39677,431290620.11598,-44401363.04242,  -0.00041,   0.00178,  -0.00058,400144443.41467,   0.00000,274640135.82653,   0.00000,   0.00000,   0.00000,-74495692.41186,   0.00000
95639289.09993,433820703.55535,-44392822.67638,  -0.00041,   0.00179,  -0.00058,402205346.66196,   0.00000,274640135.82653,   0.00000,   0.00000,   0.00000,-72434789.16457,   0.00000
96839210.52856,436335841.35416,-44380012.12732,  -0.00041,   0.00180,  -0.00058,404253802.91748,   0.00000,274640135.82653,   0.00000,   0.00000,   0.00000,-70386332.90904,   0.00000
98045537.23173,438865924.79354,-44367201.57826,  -0.00041,   0.00181,  -0.00058,406316044.07717,   0.00000,274640135.82653,   0.00000,   0.00000,   0.00000,-68324091.74936,   0.00000
99260404.30093,441387467.86687,-44350120.84618,  -0.00041,   0.00181,  -0.00058,408367513.14875,   0.00000,274640135.82653,   0.00000,   0.00000,   0.00000,-66272622.67778,   0.00000
100481676.64466,443923956.58078,-44333040.11410,  -0.00041,   0.00182,  -0.00058,410432794.06617,   0.00000,274640135.82653,   0.00000,   0.00000,   0.00000,-64207341.76036,   0.00000
101711489.35443,446451904.92865,-44311689.19900,  -0.00041,   0.00183,  -0.00058,412487357.02407,   0.00000,274640135.82653,   0.00000,   0.00000,   0.00000,-62152778.80246,   0.00000
102941302.06421,448979853.27651,-44286068.10088,  -0.00041,   0.00184,  -0.00058,414541936.48592,   0.00000,274640135.82653,   0.00000,   0.00000,   0.00000,-60098199.34061,   0.00000
104164709.49945,451492855.98381,-44260447.00276,  -0.00041,   0.00185,  -0.00058,416585435.45297,   0.00000,274640135.82653,   0.00000,   0.00000,   0.00000,-58054700.37356,   0.00000
105409467.84979,454027209.60620,-44230555.72162,  -0.00041,   0.00186,  -0.00057,418643192.46775,   0.00000,274640135.82653,   0.00000,   0.00000,   0.00000,-55996943.35878,   0.00000
106647820.92560,456546617.58803,-44200664.44048,  -0.00041,   0.00187,  -0.00057,420689869.18331,   0.00000,274640135.82653,   0.00000,   0.00000,   0.00000,-53950266.64322,   0.00000
107892579.27595,459080971.21043,-44170773.15934,  -0.00040,   0.00188,  -0.00057,422750385.35098,   0.00000,274640135.82653,   0.00000,   0.00000,   0.00000,-51889750.47554,   0.00000
109145877.99233,461606784.46678,-44132341.51216,  -0.00040,   0.00189,  -0.00057,424798963.12570,   0.00000,274640135.82653,   0.00000,   0.00000,   0.00000,-49841172.70083,   0.00000
110399176.70871,464132597.72314,-44093909.86498,  -0.00040,   0.00190,  -0.00057,426848929.33733,   0.00000,274640135.82653,   0.00000,   0.00000,   0.00000,-47791206.48920,   0.00000
111652475.42510,466658410.97949,-44055478.21780,  -0.00040,   0.00191,  -0.00057,428900264.07739,   0.00000,274640135.82653,   0.00000,   0.00000,   0.00000,-45739871.74914,   0.00000
112914314.50752,469175683.86981,-44012776.38760,  -0.00040,   0.00191,  -0.00057,430941048.73368,   0.00000,274640135.82653,   0.00000,   0.00000,   0.00000,-43699087.09285,   0.00000
114182558.86447,471707902.40070,-43970074.55740,  -0.00040,   0.00192,  -0.00057,432995714.72839,   0.00000,274640135.82653,   0.00000,   0.00000,   0.00000,-41644421.09814,   0.00000
115444397.94690,474225175.29101,-43923102.54418,  -0.00040,   0.00193,  -0.00057,435037932.66300,   0.00000,274640135.82653,   0.00000,   0.00000,   0.00000,-39602203.16353,   0.00000
116721182.66989,476748853.45586,-43871860.34793,  -0.00040,   0.00194,  -0.00057,437082182.35776,   0.00000,274640135.82653,   0.00000,   0.00000,   0.00000,-37557953.46877,   0.00000
117997967.39288,479272531.62071,-43820618.15169,  -0.00040,   0.00195,  -0.00057,439127811.73831,   0.00000,274640135.82653,   0.00000,   0.00000,   0.00000,-35512324.08822,   0.00000
119289697.75645,481802615.06008,-43765105.77243,  -0.00040,   0.00196,  -0.00057,441175539.88247,   0.00000,274640135.82653,   0.00000,   0.00000,   0.00000,-33464595.94406,   0.00000
120581428.12001,484332698.49946,-43709593.39317,  -0.00040,   0.00197,  -0.00057,443224661.81016,   0.00000,274640135.82653,   0.00000,   0.00000,   0.00000,-31415474.01636,   0.00000
121866753.20904,486847836.29826,-43649810.83089,  -0.00039,   0.00198,  -0.00057,445261354.80885,   0.00000,274640135.82653,   0.00000,   0.00000,   0.00000,-29378781.01768,   0.00000
123158483.57261,489377919.73764,-43590028.26861,  -0.00039,   0.00199,  -0.00057,447311960.05385,   0.00000,274640135.82653,   0.00000,   0.00000,   0.00000,-27328175.77268,   0.00000
124458754.30221,491899462.81098,-43525975.52331,  -0.00039,   0.00200,  -0.00057,449352200.71629,   0.00000,274640135.82653,   0.00000,   0.00000,   0.00000,-25287935.11024,   0.00000
125752619.75728,494406060.24374,-43461922.77801,  -0.00039,   0.00200,  -0.00057,451381249.80632,   0.00000,274640135.82653,   0.00000,   0.00000,   0.00000,-23258886.02021,   0.00000
127052890.48689,496927603.31708,-43393599.84969,  -0.00039,   0.00201,  -0.00056,453422986.93286,   0.00000,274640135.82653,   0.00000,   0.00000,   0.00000,-21217148.89367,   0.00000
128368106.85706,499455551.66494,-43325276.92137,  -0.00039,   0.00202,  -0.00056,455468214.23834,   0.00000,274640135.82653,   0.00000,   0.00000,   0.00000,-19171921.58819,   0.00000
129676917.95270,501968554.37224,-43252683.81003,  -0.00039,   0.00203,  -0.00056,457501018.09549,   0.00000,274640135.82653,   0.00000,   0.00000,   0.00000,-17139117.73104,   0.00000
131000674.68892,504487962.35407,-43175820.51567,  -0.00039,   0.00204,  -0.00056,459536148.65415,   0.00000,274640135.82653,   0.00000,   0.00000,   0.00000,-15103987.17237,   0.00000
132309485.78456,507000965.06136,-43098957.22131,  -0.00039,   0.00205,  -0.00056,461570473.45219,   0.00000,274640135.82653,   0.00000,   0.00000,   0.00000,-13069662.37434,   0.00000
133633242.52077,509520373.04319,-43017823.74393,  -0.00039,   0.00206,  -0.00056,463607154.76740,   0.00000,274640135.82653,   0.00000,   0.00000,   0.00000,-11032981.05913,   0.00000
134965539.62303,512031240.65897,-42936690.26654,  -0.00038,   0.00207,  -0.00056,465634828.71264,   0.00000,274640135.82653,   0.00000,   0.00000,   0.00000,-9005307.11389,   0.00000
136289296.35924,514550648.64080,-42851286.60614,  -0.00038,   0.00208,  -0.00056,467673063.97282,   0.00000,274640135.82653,   0.00000,   0.00000,   0.00000,-6967071.85371,   0.00000
137621593.46150,517061516.25659,-42765882.94574,  -0.00038,   0.00208,  -0.00056,469702296.17065,   0.00000,274640135.82653,   0.00000,   0.00000,   0.00000,-4937839.65588,   0.00000
138953890.56375,519572383.87237,-42676209.10232,  -0.00038,   0.00209,  -0.00055,471731722.57874,   0.00000,274640135.82653,   0.00000,   0.00000,   0.00000,-2908413.24778,   0.00000
140301133.30657,522089656.76269,-42586535.25890,  -0.00038,   0.00210,  -0.00055,473764800.43405,   0.00000,274640135.82653,   0.00000,   0.00000,   0.00000,-875335.39248,   0.00000
140882082.40191,523173848.38648,-42545831.81910,  -0.00038,   0.00211,  -0.00055,474640136.28647,   0.00000,274640135.82653,   0.00000,   0.00000,   0.00000,   0.45995,   0.00000
141417161.18187,523367541.79323,-42381670.80133,  -0.00038,   0.00211,  -0.00055,474640136.28647,   0.00000,274644986.62056,  -0.00000,   0.00001,  -0.00000,   0.00000,   2.00000
142361584.74842,523708996.93909,-42087777.88124,  -0.00038,   0.00212,  -0.00055,476678668.85927,   0.00001,274653594.39987,  -0.00000,   0.00001,  -0.00000,   0.00000,   2.00000
143297809.10435,524045506.38643,-41796229.04325,  -0.00038,   0.00213,  -0.00055,476676276.25439,   0.00002,274662149.54267,  -0.00001,   0.00002,  -0.00001,   0.00000,   2.00000
144244158.29308,524382363.98488,-41505581.82317,  -0.00037,   0.00214,  -0.00055,476688828.71820,   0.00003,274670715.45520,  -0.00001,   0.00003,  -0.00001,   0.00000,   2.00000
145182578.74787,524715520.60447,-41213102.20376,  -0.00037,   0.00215,  -0.00055,476685266.85916,   0.00004,274679224.02870,  -0.00001,   0.00004,  -0.00001,   0.00000,   2.00000
146135109.60503,525051506.06762,-40916196.03313,  -0.00037,   0.00215,  -0.00055,476709384.99444,   0.00004,274687792.33211,  -0.00001,   0.00005,  -0.00001,   0.00000,   2.00000
147065108.60787,525378835.90381,-40621847.03814,  -0.00037,   0.00216,  -0.00054,476704514.92998,   0.00005,274696297.85094,  -0.00002,   0.00006,  -0.00002,   0.00000,   2.00000
148005434.77105,525707611.24473,-40324264.16548,  -0.00037,   0.00217,  -0.00054,476716016.51067,   0.00006,274704809.87572,  -0.00002,   0.00007,  -0.00002,  -0.00000,   2.00000
148941430.10921,526032884.07514,-40027840.68417,  -0.00037,   0.00218,  -0.00054,476726179.50677,   0.00007,274713322.73518,  -0.00002,   0.00008,  -0.00002,  -0.00000,   2.00000
149887680.93612,526359504.71899,-39728193.28759,  -0.00037,   0.00219,  -0.00054,476737774.48708,   0.00007,274721842.37626,  -0.00002,   0.00009,  -0.00002,   0.00000,   2.00000
150825891.51885,526681326.11422,-39430861.52238,  -0.00037,   0.00220,  -0.00054,476735282.15954,   0.00008,274730309.53750,  -0.00002,   0.00010,  -0.00003,   0.00000,   2.00000
151763631.89215,527002058.96770,-39129399.21350,  -0.00036,   0.00221,  -0.00054,476757035.09850,   0.00009,274738826.39419,  -0.00003,   0.00010,  -0.00003,   0.00000,   2.00000
152693406.36485,527318062.88694,-38830252.51824,  -0.00036,   0.00222,  -0.00054,476754513.50580,   0.00010,274747290.74119,  -0.00003,   0.00011,  -0.00003,  -0.00000,   2.00000
153629832.24311,527634098.51553,-38529010.91305,  -0.00036,   0.00222,  -0.00053,476753475.27114,   0.00011,274755709.05095,  -0.00003,   0.00012,  -0.00003,  -0.00000,   2.00000
154565709.17589,527948980.26876,-38223676.10388,  -0.00036,   0.00223,  -0.00053,476775233.91970,   0.00011,274764177.16654,  -0.00003,   0.00013,  -0.00004,  -0.00000,   2.00000
155493698.05484,528259190.73263,-37920650.94977,  -0.00036,   0.00224,  -0.00053,476772660.73873,   0.00012,274772592.86436,  -0.00004,   0.00014,  -0.00004,  -0.00000,   2.00000
156417608.70223,528567066.74532,-37614656.13532,  -0.00036,   0.00225,  -0.00053,476781708.25826,   0.00013,274781005.10589,  -0.00004,   0.00015,  -0.00004,   0.00000,   2.00000
157351486.59533,528874984.51107,-37309639.94496,  -0.00036,   0.00226,  -0.00053,476794465.92089,   0.00014,274789429.36623,  -0.00004,   0.00016,  -0.00004,  -0.00000,   2.00000
158281002.33339,529179445.22903,-37005831.28216,  -0.00035,   0.00227,  -0.00053,476804562.40424,   0.00014,274797854.45402,  -0.00004,   0.00017,  -0.00004,   0.00000,   2.00000
159202977.99647,529480427.20265,-36700132.49884,  -0.00035,   0.00228,  -0.00052,476800917.17268,   0.00015,274806222.96726,  -0.00004,   0.00018,  -0.00005,  -0.00000,   2.00000
160138514.37715,529783567.23044,-36390181.94063,  -0.00035,   0.00228,  -0.00052,476825455.50938,   0.00016,274814652.80848,  -0.00005,   0.00019,  -0.00005,  -0.00000,   2.00000
161066276.50087,530082140.68090,-36082523.42811,  -0.00035,   0.00229,  -0.00052,476822836.31130,   0.00017,274823030.34546,  -0.00005,   0.00020,  -0.00005,   0.00000,   2.00000
161986575.21059,530377265.55649,-35772963.89651,  -0.00035,   0.00230,  -0.00052,476819167.55004,   0.00017,274831351.52220,  -0.00005,   0.00020,  -0.00005,   0.00000,   2.00000
162906119.06112,530671099.64416,-35459422.53844,  -0.00035,   0.00231,  -0.00052,476840949.13993,   0.00018,274839722.66908,  -0.00005,   0.00021,  -0.00006,   0.00000,   2.00000
163832231.92055,530963765.20488,-35147936.41299,  -0.00034,   0.00232,  -0.00051,476841084.03003,   0.00019,274848053.33541,  -0.00005,   0.00022,  -0.00006,   0.00000,   2.00000
164753989.95598,531253017.74252,-34837692.85027,  -0.00034,   0.00233,  -0.00051,476851100.49311,   0.00020,274856384.86505,  -0.00006,   0.00023,  -0.00006,   0.00000,   2.00000
165671635.06343,531539897.90537,-34524514.06095,  -0.00034,   0.00234,  -0.00051,476860170.50717,   0.00020,274864713.31933,  -0.00006,   0.00024,  -0.00006,   0.00000,   2.00000
166584947.46448,531823401.84028,-34212593.00940,  -0.00034,   0.00234,  -0.00051,476870170.09384,   0.00021,274873042.58301,  -0.00006,   0.00025,  -0.00006,   0.00000,   2.00000
167505130.42616,532106745.69753,-33898514.65278,  -0.00034,   0.00235,  -0.00051,476869400.38980,   0.00022,274881327.89592,  -0.00006,   0.00026,  -0.00007,   0.00000,   2.00000
168407060.34023,532384549.62601,-33581744.49647,  -0.00034,   0.00236,  -0.00050,476875502.13204,   0.00023,274889598.08585,  -0.00006,   0.00027,  -0.00007,   0.00000,   2.00000
169332978.35370,532665291.97701,-33265792.81415,  -0.00033,   0.00237,  -0.00050,476891389.26439,   0.00024,274897893.65045,  -0.00007,   0.00028,  -0.00007,  -0.00000,   2.00000
170240610.66575,532940502.36605,-32947160.33121,  -0.00033,   0.00238,  -0.00050,476897499.46401,   0.00024,274906174.03060,  -0.00007,   0.00028,  -0.00007,   0.00000,   2.00000
171140848.10456,533211456.39175,-32630779.09860,  -0.00033,   0.00239,  -0.00050,476894653.01242,   0.00025,274914402.27177,  -0.00007,   0.00029,  -0.00007,  -0.00000,   2.00000
172050914.11794,533482176.11986,-32315447.27523,  -0.00033,   0.00239,  -0.00050,476907578.37571,   0.00026,274922643.82438,  -0.00007,   0.00030,  -0.00008,   0.00000,   2.00000
172957106.90592,533751467.80804,-31993016.48178,  -0.00033,   0.00240,  -0.00049,476915763.74833,   0.00027,274930879.02183,  -0.00007,   0.00031,  -0.00008,   0.00000,   2.00000
173872821.09966,534019490.51178,-31675856.37570,  -0.00033,   0.00241,  -0.00049,476929636.00391,   0.00027,274939131.31846,  -0.00008,   0.00032,  -0.00008,   0.00000,   2.00000
174767574.27754,534282191.61642,-31352757.94094,  -0.00032,   0.00242,  -0.00049,476921959.28156,   0.00028,274947311.79397,  -0.00008,   0.00033,  -0.00008,  -0.00000,   2.00000
175674839.39866,534544502.81304,-31034019.65260,  -0.00032,   0.00243,  -0.00049,476948599.95002,   0.00029,274955562.26837,  -0.00008,   0.00034,  -0.00008,  -0.00000,   2.00000
176575269.44969,534804487.60900,-30709109.52856,  -0.00032,   0.00244,  -0.00048,476944048.92084,   0.00030,274963753.84823,  -0.00008,   0.00035,  -0.00008,   0.00000,   2.00000
177468489.16383,535060355.10642,-30386423.44433,  -0.00032,   0.00244,  -0.00048,476941101.12000,   0.00030,274971893.49447,  -0.00008,   0.00036,  -0.00009,   0.00000,   2.00000
178360322.30427,535313794.03582,-30064159.10645,  -0.00032,   0.00245,  -0.00048,476963739.05674,   0.00031,274980086.74858,  -0.00009,   0.00036,  -0.00009,   0.00000,   2.00000
179259238.34050,535566917.91576,-29739680.58644,  -0.00032,   0.00246,  -0.00048,476963174.80194,   0.00032,274988237.86954,  -0.00009,   0.00037,  -0.00009,   0.00000,   2.00000
180153839.90171,535816776.22163,-29416528.09745,  -0.00031,   0.00247,  -0.00047,476973015.89496,   0.00033,274996389.84703,  -0.00009,   0.00038,  -0.00009,   0.00000,   2.00000
181044359.26747,536064260.10655,-29090502.22400,  -0.00031,   0.00248,  -0.00047,476982057.45546,   0.00033,275004539.39716,  -0.00009,   0.00039,  -0.00009,   0.00000,   2.00000
181928035.25352,536308609.61335,-28762471.09780,  -0.00031,   0.00249,  -0.00047,476978258.18731,   0.00034,275012633.88574,  -0.00009,   0.00040,  -0.00010,   0.00000,   2.00000
182821412.83263,536552492.83689,-28435566.00199,  -0.00031,   0.00249,  -0.00047,476991330.74272,   0.00035,275020742.70694,  -0.00009,   0.00041,  -0.00010,  -0.00000,   2.00000
183710482.01196,536793144.30745,-28110003.59524,  -0.00031,   0.00250,  -0.00046,477001131.69029,   0.00035,275028852.38844,  -0.00010,   0.00042,  -0.00010,  -0.00000,   2.00000
184595471.11529,537031418.43489,-27781579.77648,  -0.00030,   0.00251,  -0.00046,477010168.47746,   0.00036,275036959.80144,  -0.00010,   0.00043,  -0.00010,   0.00000,   2.00000
185473721.70288,537266606.55503,-27451125.76596,  -0.00030,   0.00252,  -0.00046,477006349.92965,   0.00037,275045012.40882,  -0.00010,   0.00044,  -0.00010,  -0.00000,   2.00000
186347733.70370,537498627.70457,-27122032.21680,  -0.00030,   0.00253,  -0.00046,477016074.64045,   0.00038,275053065.87150,  -0.00010,   0.00044,  -0.00010,  -0.00000,   2.00000
187231403.32254,537730116.23955,-26794085.23230,  -0.00030,   0.00253,  -0.00045,477029199.92922,   0.00038,275061134.00183,  -0.00010,   0.00045,  -0.00011,   0.00000,   2.00000
188097123.46191,537956643.64908,-26463499.90792,  -0.00030,   0.00254,  -0.00045,477034797.49427,   0.00039,275069186.08277,  -0.00010,   0.00046,  -0.00011,   0.00000,   2.00000
188970142.53525,538182744.42948,-26130648.71919,  -0.00029,   0.00255,  -0.00045,477034367.61692,   0.00040,275077197.57324,  -0.00011,   0.00047,  -0.00011,  -0.00000,   2.00000
189855311.05396,538408883.67798,-25798196.71179,  -0.00029,   0.00256,  -0.00045,477060414.00152,   0.00041,275085276.48687,  -0.00011,   0.00048,  -0.00011,   0.00000,   2.00000
190717491.30813,538628827.08325,-25464649.79667,  -0.00029,   0.00257,  -0.00044,477040243.84033,   0.00041,275093234.40372,  -0.00011,   0.00049,  -0.00011,   0.00000,   2.00000
191591804.30642,538848790.38965,-25131525.41733,  -0.00029,   0.00258,  -0.00044,477066264.39085,   0.00042,275101259.83005,  -0.00011,   0.00050,  -0.00011,  -0.00000,   2.00000
192445776.14652,539063302.26447,-24796523.62897,  -0.00029,   0.00258,  -0.00044,477058874.03408,   0.00043,275109216.66577,  -0.00011,   0.00051,  -0.00011,  -0.00000,   2.00000
193311826.47771,539277795.42863,-24461980.53829,  -0.00028,   0.00259,  -0.00043,477084928.77287,   0.00044,275117241.06887,  -0.00011,   0.00051,  -0.00012,   0.00000,   2.00000
194182578.40615,539490424.34778,-24130083.83149,  -0.00028,   0.00260,  -0.00043,477072413.26205,   0.00044,275125176.06550,  -0.00011,   0.00052,  -0.00012,   0.00000,   2.00000
195038104.56110,539699589.22118,-23790621.83494,  -0.00028,   0.00261,  -0.00043,477090040.80021,   0.00045,275133144.48065,  -0.00012,   0.00053,  -0.00012,   0.00000,   2.00000
195886872.75038,539904427.19102,-23457501.64185,  -0.00028,   0.00262,  -0.00043,477087408.30814,   0.00046,275141064.04276,  -0.00012,   0.00054,  -0.00012,   0.00000,   2.00000
196745432.89142,540109293.10955,-23121358.89247,  -0.00028,   0.00262,  -0.00042,477099978.03566,   0.00046,275148996.52268,  -0.00012,   0.00055,  -0.00012,   0.00000,   2.00000
197599973.76677,540311798.00644,-22782405.69434,  -0.00027,   0.00263,  -0.00042,477108965.13174,   0.00047,275156927.35485,  -0.00012,   0.00056,  -0.00012,   0.00000,   2.00000
198450310.34318,540511266.01363,-22444876.14246,  -0.00027,   0.00264,  -0.00042,477118567.74368,   0.00048,275164859.04760,  -0.00012,   0.00057,  -0.00012,   0.00000,   2.00000
199294384.58681,540707868.46295,-22105211.25851,  -0.00027,   0.00265,  -0.00041,477114645.32449,   0.00049,275172736.96348,  -0.00012,   0.00058,  -0.00013,  -0.00000,   2.00000
200147999.43693,540903714.13599,-21766782.22384,  -0.00027,   0.00266,  -0.00041,477127902.25204,   0.00049,275180630.70535,  -0.00012,   0.00058,  -0.00013,   0.00000,   2.00000
200981705.06036,541094488.67281,-21426385.86901,  -0.00027,   0.00266,  -0.00041,477120225.82005,   0.00050,275188455.81838,  -0.00013,   0.00059,  -0.00013,   0.00000,   2.00000
201827169.74568,541284998.09431,-21086596.61813,  -0.00026,   0.00267,  -0.00040,477146374.48418,   0.00051,275196348.98550,  -0.00013,   0.00060,  -0.00013,   0.00000,   2.00000
202666466.37500,541472674.26414,-20744645.00109,  -0.00026,   0.00268,  -0.00040,477142445.18107,   0.00052,275204188.66485,  -0.00013,   0.00061,  -0.00013,  -0.00000,   2.00000
203501618.91707,541657396.07214,-20404134.36679,  -0.00026,   0.00269,  -0.00040,477151943.55447,   0.00052,275212029.22507,  -0.00013,   0.00062,  -0.00013,   0.00000,   2.00000
204344325.15724,541841439.91650,-20061261.49869,  -0.00026,   0.00269,  -0.00039,477151784.45614,   0.00053,275219831.75320,  -0.00013,   0.00063,  -0.00013,   0.00000,   2.00000
205171350.32649,542020894.20747,-19719415.67677,  -0.00026,   0.00270,  -0.00039,477170348.40189,   0.00054,275227671.80210,  -0.00013,   0.00064,  -0.00013,  -0.00000,   2.00000
206005969.03711,542199655.51714,-19375203.50025,  -0.00025,   0.00271,  -0.00039,477170230.90121,   0.00054,275235474.06255,  -0.00013,   0.00065,  -0.00014,   0.00000,   2.00000
206822867.40649,542373461.57633,-19032621.26900,  -0.00025,   0.00272,  -0.00038,477175810.52894,   0.00055,275243261.70209,  -0.00014,   0.00065,  -0.00014,  -0.00000,   2.00000
207647432.90822,542546574.86359,-18687655.99294,  -0.00025,   0.00273,  -0.00038,477175677.14707,   0.00056,275251011.83011,  -0.00014,   0.00066,  -0.00014,   0.00000,   2.00000
208467911.84123,542716812.59746,-18344148.79175,  -0.00025,   0.00273,  -0.00038,477185075.24290,   0.00057,275258762.87003,  -0.00014,   0.00067,  -0.00014,  -0.00000,   2.00000
209297854.25234,542886160.34841,-18001931.28533,  -0.00025,   0.00274,  -0.00037,477198406.77260,   0.00057,275266530.50500,  -0.00014,   0.00068,  -0.00014,   0.00000,   2.00000
210110301.47131,543051233.66640,-17657101.60176,  -0.00024,   0.00275,  -0.00037,477203385.03550,   0.00058,275274281.29647,  -0.00014,   0.00069,  -0.00014,  -0.00000,   2.00000
210930448.54246,543215540.65526,-17309870.31242,  -0.00024,   0.00276,  -0.00037,477203330.33587,   0.00059,275281995.15315,  -0.00014,   0.00070,  -0.00014,   0.00000,   2.00000
211733014.69809,543375114.70176,-16964272.24784,  -0.00024,   0.00277,  -0.00036,477208693.28897,   0.00059,275289694.01962,  -0.00014,   0.00071,  -0.00014,  -0.00000,   2.00000
212545222.27050,543534286.27174,-16615753.75095,  -0.00024,   0.00277,  -0.00036,477221575.79783,   0.00060,275297407.93930,  -0.00014,   0.00071,  -0.00014,   0.00000,   2.00000
213353365.11796,543690643.34625,-16268722.65861,  -0.00023,   0.00278,  -0.00036,477230934.29566,   0.00061,275305122.77818,  -0.00014,   0.00072,  -0.00014,  -0.00000,   2.00000
214155634.26770,543843864.22821,-15923658.22223,  -0.00023,   0.00279,  -0.00035,477227324.05954,   0.00062,275312786.84086,  -0.00015,   0.00073,  -0.00015,   0.00000,   2.00000
214967486.21606,543996601.13949,-15575679.15789,  -0.00023,   0.00280,  -0.00035,477240263.02972,   0.00062,275320466.28356,  -0.00015,   0.00074,  -0.00015,   0.00000,   2.00000
215761986.97535,544145240.12145,-15225098.00619,  -0.00023,   0.00280,  -0.00035,477245077.02947,   0.00063,275328128.75581,  -0.00015,   0.00075,  -0.00015,   0.00000,   2.00000
216564157.43932,544292561.34010,-14876324.89028,  -0.00023,   0.00281,  -0.00034,477245520.96384,   0.00064,275335756.90998,  -0.00015,   0.00076,  -0.00015,  -0.00000,   2.00000
217348913.34547,544435417.63526,-14529181.41842,  -0.00022,   0.00282,  -0.00034,477250640.40052,   0.00064,275343369.61442,  -0.00015,   0.00077,  -0.00015,   0.00000,   2.00000
218143260.90628,544577732.88083,-14179144.76593,  -0.00022,   0.00283,  -0.00033,477263617.21298,   0.00065,275350998.10535,  -0.00015,   0.00077,  -0.00015,  -0.00000,   2.00000
218933611.11262,544717334.46498,-13830609.60205,  -0.00022,   0.00283,  -0.00033,477272869.07464,   0.00066,275358627.51956,  -0.00015,   0.00078,  -0.00015,   0.00000,   2.00000
219718452.38621,544854363.71389,-13479742.69051,  -0.00022,   0.00284,  -0.00033,477268777.91139,   0.00066,275366204.93571,  -0.00015,   0.00079,  -0.00015,   0.00000,   2.00000
220499479.17224,544989122.20599,-13126137.63023,  -0.00021,   0.00285,  -0.00032,477277610.37484,   0.00067,275373781.88578,  -0.00015,   0.00080,  -0.00015,   0.00000,   2.00000
221289766.69064,545122430.97853,-12778163.76760,  -0.00021,   0.00286,  -0.00032,477291382.80087,   0.00068,275381377.88168,  -0.00016,   0.00081,  -0.00015,   0.00000,   2.00000
222061286.93590,545251598.92544,-12427949.51581,  -0.00021,   0.00286,  -0.00032,477283031.34861,   0.00069,275388905.33188,  -0.00016,   0.00082,  -0.00015,   0.00000,   2.00000
222842346.15884,545380091.55256,-12074871.96183,  -0.00021,   0.00287,  -0.00031,477296089.59735,   0.00069,275396449.24236,  -0.00016,   0.00082,  -0.00015,   0.00000,   2.00000
223606177.50427,545504406.63359,-11723430.65657,  -0.00020,   0.00288,  -0.00031,477300958.48840,   0.00070,275403977.23909,  -0.00016,   0.00083,  -0.00016,   0.00000,   2.00000
224378014.65676,545627757.85930,-11369489.28070,  -0.00020,   0.00289,  -0.00030,477301090.64347,   0.00071,275411470.64127,  -0.00016,   0.00084,  -0.00016,   0.00000,   2.00000
225147453.74403,545748753.81681,-11016731.29368,  -0.00020,   0.00289,  -0.00030,477323164.52389,   0.00071,275419016.25764,  -0.00016,   0.00085,  -0.00016,   0.00000,   2.00000
225910032.96478,545866683.88727,-10666150.09167,  -0.00020,   0.00290,  -0.00030,477306354.26233,   0.00072,275426460.44811,  -0.00016,   0.00086,  -0.00016,   0.00000,   2.00000
226670332.69731,545982624.12013,-10312511.26423,  -0.00020,   0.00291,  -0.00029,477328071.40160,   0.00073,275433955.64019,  -0.00016,   0.00087,  -0.00016,  -0.00000,   2.00000
227438654.70503,546097515.40024,-9956356.14892,  -0.00019,   0.00292,  -0.00029,477328290.16450,   0.00073,275441416.81521,  -0.00016,   0.00087,  -0.00016,   0.00000,   2.00000
228189882.87898,546208430.55272,-9601835.06469,  -0.00019,   0.00292,  -0.00028,477332963.13130,   0.00074,275448861.78188,  -0.00016,   0.00088,  -0.00016,   0.00000,   2.00000
228937302.53221,546316843.25882,-9248842.41511,  -0.00019,   0.00293,  -0.00028,477341978.37862,   0.00075,275456307.72288,  -0.00016,   0.00089,  -0.00016,   0.00000,   2.00000
229694185.66582,546424403.52169,-8893036.02326,  -0.00019,   0.00294,  -0.00028,477355182.67550,   0.00075,275463771.03519,  -0.00017,   0.00090,  -0.00016,   0.00000,   2.00000
230445864.90668,546529238.19994,-8539033.88795,  -0.00018,   0.00295,  -0.00027,477351259.43320,   0.00076,275471184.36919,  -0.00017,   0.00091,  -0.00016,   0.00000,   2.00000
231180587.30838,546630279.78866,-8186647.06821,  -0.00018,   0.00295,  -0.00027,477355771.89457,   0.00077,275478581.19862,  -0.00017,   0.00092,  -0.00016,   0.00000,   2.00000
231923488.01018,546730242.47390,-7831691.52792,  -0.00018,   0.00296,  -0.00026,477356003.10298,   0.00077,275485944.76361,  -0.00017,   0.00092,  -0.00016,   0.00000,   2.00000
232662696.46988,546827986.92443,-7474017.64992,  -0.00018,   0.00297,  -0.00026,477364731.32082,   0.00078,275493308.56377,  -0.00017,   0.00093,  -0.00016,   0.00000,   2.00000
233398140.21129,546923289.00537,-7117888.43853,  -0.00017,   0.00297,  -0.00025,477373666.55301,   0.00079,275500673.42320,  -0.00017,   0.00094,  -0.00016,  -0.00000,   2.00000
234142911.12060,547017395.66921,-6763228.23251,  -0.00017,   0.00298,  -0.00025,477387138.97240,   0.00080,275508057.03535,  -0.00017,   0.00095,  -0.00016,   0.00000,   2.00000
234869666.98563,547107887.92076,-6406125.83579,  -0.00017,   0.00299,  -0.00025,477378374.28072,   0.00080,275515372.41036,  -0.00017,   0.00096,  -0.00016,   0.00000,   2.00000
235592720.97542,547196001.78136,-6050565.32267,  -0.00017,   0.00300,  -0.00024,477387236.98408,   0.00081,275522688.83591,  -0.00017,   0.00097,  -0.00016,   0.00000,   2.00000
236325121.15255,547282919.00679,-5696481.64191,  -0.00016,   0.00300,  -0.00024,477400690.24941,   0.00082,275530024.17791,  -0.00017,   0.00097,  -0.00016,   0.00000,   2.00000
237039666.63187,547366331.36182,-5339908.88880,  -0.00016,   0.00301,  -0.00023,477391828.14720,   0.00082,275537291.31873,  -0.00017,   0.00098,  -0.00016,   0.00000,   2.00000
237763631.16240,547448692.77618,-4980570.79253,  -0.00016,   0.00302,  -0.00023,477405123.30537,   0.00083,275544576.99837,  -0.00017,   0.00099,  -0.00016,   0.00000,   2.00000
238483886.14456,547528694.69555,-4622790.51662,  -0.00016,   0.00303,  -0.00022,477413970.14252,   0.00084,275551863.79137,  -0.00017,   0.00100,  -0.00016,   0.00000,   2.00000
239186390.17848,547605144.88609,-4266742.35926,  -0.00015,   0.00303,  -0.00022,477405146.38363,   0.00084,275559082.94863,  -0.00018,   0.00101,  -0.00016,   0.00000,   2.00000
239899378.61114,547680652.27418,-3907816.83671,  -0.00015,   0.00304,  -0.00022,477431437.44468,   0.00085,275566371.46969,  -0.00018,   0.00102,  -0.00016,   0.00000,   2.00000
240606615.75706,547753575.70866,-3550674.97280,  -0.00015,   0.00305,  -0.00021,477414295.44198,   0.00086,275573560.03661,  -0.00018,   0.00102,  -0.00016,  -0.00000,   2.00000
241311261.94651,547824368.18692,-3194975.47538,  -0.00015,   0.00305,  -0.00021,477435993.24170,   0.00086,275580800.19513,  -0.00018,   0.00103,  -0.00017,   0.00000,   2.00000
242011323.01853,547892867.42488,-2836660.04211,  -0.00014,   0.00306,  -0.00020,477431683.82977,   0.00087,275587990.64622,  -0.00018,   0.00104,  -0.00017,  -0.00000,   2.00000
242707795.74104,547959127.67374,-2479896.51864,  -0.00014,   0.00307,  -0.00020,477440391.20866,   0.00088,275595182.20940,  -0.00018,   0.00105,  -0.00017,   0.00000,   2.00000
243399762.36746,548023113.12150,-2120495.22333,  -0.00014,   0.00307,  -0.00019,477436044.56541,   0.00088,275602324.24815,  -0.00018,   0.00106,  -0.00017,   0.00000,   2.00000
244101994.10062,548085940.90586,-1762572.23104,  -0.00014,   0.00308,  -0.00019,477462472.89417,   0.00089,275609536.29162,  -0.00018,   0.00106,  -0.00017,   0.00000,   2.00000
244786823.75438,548145513.71164,-1406272.32609,  -0.00014,   0.00309,  -0.00018,477453418.04149,   0.00090,275616680.56833,  -0.00018,   0.00107,  -0.00017,   0.00000,   2.00000
245467255.59272,548202845.46274,-1047298.41030,  -0.00013,   0.00310,  -0.00018,477449033.16879,   0.00090,275623775.54080,  -0.00018,   0.00108,  -0.00017,   0.00000,   2.00000
246157032.01848,548258892.78071,-689865.87420,  -0.00013,   0.00310,  -0.00017,477462459.84341,   0.00091,275630890.33978,  -0.00018,   0.00109,  -0.00017,   0.00000,   2.00000
246830451.69967,548311936.94068,-329735.38522,  -0.00013,   0.00311,  -0.00017,477466212.08499,   0.00091,275637987.53547,  -0.00018,   0.00110,  -0.00017,  -0.00000,   2.00000
247513206.41677,548363683.44215,28834.02967,  -0.00013,   0.00312,  -0.00017,477479667.83465,   0.00092,275645104.66511,  -0.00018,   0.00110,  -0.00017,   0.00000,   2.00000
248191621.04543,548413182.64150,385853.97102,  -0.00012,   0.00312,  -0.00016,477475301.84308,   0.00093,275652172.81068,  -0.00018,   0.00111,  -0.00017,   0.00000,   2.00000
248853767.84815,548459760.83075,745587.39165,  -0.00012,   0.00313,  -0.00016,477478967.32198,   0.00093,275659223.31917,  -0.00018,   0.00112,  -0.00017,   0.00000,   2.00000
249525263.10013,548505036.42544,1103750.35491,  -0.00012,   0.00314,  -0.00015,477492406.62765,   0.00094,275666293.92674,  -0.00018,   0.00113,  -0.00017,   0.00000,   2.00000
250192517.47066,548548081.16330,1464651.62182,  -0.00012,   0.00314,  -0.00015,477488016.03302,   0.00095,275673315.81604,  -0.00018,   0.00114,  -0.00017,   0.00000,   2.00000
250856332.01942,548589045.05463,1823990.60602,  -0.00011,   0.00315,  -0.00014,477496524.64928,   0.00095,275680338.95142,  -0.00018,   0.00114,  -0.00017,   0.00000,   2.00000
251516720.66461,548627952.10809,2181770.91726,  -0.00011,   0.00316,  -0.00014,477505021.90825,   0.00096,275687363.29866,  -0.00018,   0.00115,  -0.00017,   0.00000,   2.00000
252173000.19808,548664731.99336,2538074.16193,  -0.00011,   0.00316,  -0.00013,477500529.28676,   0.00097,275694338.89207,  -0.00019,   0.00116,  -0.00017,   0.00000,   2.00000
252825869.65860,548699416.24345,2897087.97193,  -0.00011,   0.00317,  -0.00013,477509032.37736,   0.00097,275701315.97229,  -0.00019,   0.00117,  -0.00017,   0.00000,   2.00000
253475329.96172,548731995.64659,3258797.32796,  -0.00010,   0.00318,  -0.00012,477517553.61057,   0.00098,275708294.61814,  -0.00019,   0.00118,  -0.00016,   0.00000,   2.00000
254120828.20658,548762593.25988,3614796.32314,  -0.00010,   0.00318,  -0.00012,477512922.14180,   0.00099,275715224.32974,  -0.00019,   0.00118,  -0.00016,   0.00000,   2.00000
254762957.70657,548791112.82899,3973508.54999,  -0.00010,   0.00319,  -0.00011,477521391.23211,   0.00099,275722155.65672,  -0.00019,   0.00119,  -0.00016,   0.00000,   2.00000
255401116.63569,548817457.35262,4335052.23134,  -0.00010,   0.00320,  -0.00011,477516904.60087,   0.00100,275729038.91846,  -0.00019,   0.00120,  -0.00016,   0.00000,   2.00000
256036626.00758,548842081.27777,4690644.31213,  -0.00009,   0.00320,  -0.00010,477538082.05041,   0.00101,275735972.75118,  -0.00019,   0.00121,  -0.00016,   0.00000,   2.00000
256668220.28835,548864555.99410,5049096.93885,  -0.00009,   0.00321,  -0.00010,477533595.00455,   0.00101,275742858.59687,  -0.00019,   0.00121,  -0.00016,  -0.00000,   2.00000
257295939.10555,548884873.91929,5410416.63493,  -0.00009,   0.00322,  -0.00009,477529078.92903,   0.00102,275749696.61177,  -0.00019,   0.00122,  -0.00016,   0.00000,   2.00000
257933059.68900,548903985.43446,5765862.31069,  -0.00009,   0.00322,  -0.00009,477542324.24698,   0.00102,275756554.94415,  -0.00019,   0.00123,  -0.00016,   0.00000,   2.00000
258554263.33767,548920509.52326,6124096.32365,  -0.00008,   0.00323,  -0.00008,477545629.12257,   0.00103,275763395.56757,  -0.00019,   0.00124,  -0.00016,   0.00000,   2.00000
259172177.13702,548934976.11479,6485033.35389,  -0.00008,   0.00324,  -0.00008,477554052.47553,   0.00104,275770238.15132,  -0.00019,   0.00125,  -0.00016,  -0.00000,   2.00000
259799020.95060,548948177.99733,6840286.54777,  -0.00008,   0.00324,  -0.00007,477554336.74747,   0.00104,275777051.54549,  -0.00019,   0.00125,  -0.00016,   0.00000,   2.00000
260410028.58872,548958860.32382,7198344.11621,  -0.00008,   0.00325,  -0.00007,477557564.91117,   0.00105,275783847.22549,  -0.00019,   0.00126,  -0.00016,  -0.00000,   2.00000
261017344.99236,548967415.00994,7559339.42712,  -0.00007,   0.00326,  -0.00006,477552994.06355,   0.00106,275790595.55026,  -0.00019,   0.00127,  -0.00016,   0.00000,   2.00000
261634107.59679,548974813.60562,7914440.31989,  -0.00007,   0.00326,  -0.00006,477566153.64192,   0.00106,275797364.30249,  -0.00019,   0.00128,  -0.00016,  -0.00000,   2.00000
262235113.18518,548979757.95929,8272361.67746,  -0.00007,   0.00327,  -0.00005,477569306.89774,   0.00107,275804115.34015,  -0.00019,   0.00128,  -0.00016,   0.00000,   2.00000
262845357.32627,548983045.89199,8632882.30864,  -0.00007,   0.00328,  -0.00005,477582921.63549,   0.00107,275810888.53886,  -0.00019,   0.00129,  -0.00016,   0.00000,   2.00000
263439728.57922,548984363.32457,8987985.44190,  -0.00006,   0.00328,  -0.00004,477572642.29420,   0.00108,275817592.93581,  -0.00019,   0.00130,  -0.00016,  -0.00000,   2.00000
264030567.25673,548983583.51897,9346100.19354,  -0.00006,   0.00329,  -0.00004,477568000.75216,   0.00109,275824250.34310,  -0.00019,   0.00131,  -0.00016,  -0.00000,   2.00000
264631111.42235,548981488.21602,9702266.36809,  -0.00006,   0.00330,  -0.00003,477594277.01614,   0.00109,275830978.47622,  -0.00019,   0.00131,  -0.00016,  -0.00000,   2.00000
265215695.18515,548976950.22305,10061576.91591,  -0.00005,   0.00330,  -0.00003,477584394.18371,   0.00110,275837639.68902,  -0.00019,   0.00132,  -0.00016,   0.00000,   2.00000
265809471.04887,548971232.98900,10415292.27160,  -0.00005,   0.00331,  -0.00002,477584513.22645,   0.00111,275844272.24271,  -0.00019,   0.00133,  -0.00016,   0.00000,   2.00000
266387683.53542,548963210.79003,10771878.24284,  -0.00005,   0.00332,  -0.00002,477587459.96312,   0.00111,275850887.10055,  -0.00019,   0.00134,  -0.00016,   0.00000,   2.00000
266975130.32190,548953440.01883,11131045.76267,  -0.00005,   0.00332,  -0.00001,477601073.25203,   0.00112,275857524.75770,  -0.00019,   0.00134,  -0.00016,   0.00000,   2.00000
267547332.65580,548942083.03294,11484575.61223,  -0.00004,   0.00333,  -0.00001,477603413.37169,   0.00112,275864142.44906,  -0.00019,   0.00135,  -0.00016,   0.00000,   2.00000
268128523.89700,548928872.63003,11841048.47265,  -0.00004,   0.00333,  -0.00000,477604110.44894,   0.00113,275870734.00045,  -0.00019,   0.00136,  -0.00015,   0.00000,   2.00000
268694394.68528,548913795.27417,12196154.80610,  -0.00004,   0.00334,   0.00000,477606665.88418,   0.00114,275877306.66439,  -0.00019,   0.00137,  -0.00015,   0.00000,   2.00000
269269282.88974,548896825.47096,12554213.82280,  -0.00004,   0.00335,   0.00001,477607368.92023,   0.00114,275883853.47599,  -0.00019,   0.00137,  -0.00015,   0.00000,   2.00000
269829077.73305,548878436.82094,12906673.12435,  -0.00003,   0.00335,   0.00002,477609504.02898,   0.00115,275890380.06218,  -0.00019,   0.00138,  -0.00015,  -0.00000,   2.00000
270398094.65707,548858233.48815,13261704.40716,  -0.00003,   0.00336,   0.00002,477623129.97070,   0.00115,275896929.91362,  -0.00019,   0.00139,  -0.00015,   0.00000,   2.00000
270951575.61146,548835768.58987,13620055.97062,  -0.00003,   0.00337,   0.00003,477612998.14775,   0.00116,275903413.23902,  -0.00019,   0.00140,  -0.00015,  -0.00000,   2.00000
271514627.34449,548812292.00829,13972468.00185,  -0.00003,   0.00337,   0.00003,477625894.96829,   0.00117,275909917.27520,  -0.00019,   0.00140,  -0.00015,   0.00000,   2.00000
272062232.98121,548786597.07355,14328248.14091,  -0.00002,   0.00338,   0.00004,477615694.50406,   0.00117,275916354.83209,  -0.00019,   0.00141,  -0.00015,   0.00000,   2.00000
272619240.81073,548759465.45269,14682335.52319,  -0.00002,   0.00338,   0.00004,477628931.10693,   0.00118,275922814.59705,  -0.00019,   0.00142,  -0.00015,   0.00000,   2.00000
273161168.52201,548730706.88192,15035118.89509,  -0.00002,   0.00339,   0.00005,477631205.56475,   0.00118,275929255.21367,  -0.00019,   0.00143,  -0.00015,   0.00000,   2.00000
273700228.50186,548700344.03399,15386883.55325,  -0.00002,   0.00340,   0.00005,477626007.65952,   0.00119,275935648.63359,  -0.00019,   0.00143,  -0.00015,  -0.00000,   2.00000
274248494.40057,548668068.36096,15741197.47448,  -0.00001,   0.00340,   0.00006,477639636.44520,   0.00120,275942065.94926,  -0.00019,   0.00144,  -0.00015,  -0.00000,   2.00000
274781763.26808,548634246.45221,16094225.12448,  -0.00001,   0.00341,   0.00006,477641819.66993,   0.00120,275948464.04057,  -0.00019,   0.00145,  -0.00015,   0.00000,   2.00000
275312252.10805,548598846.62688,16446268.92718,  -0.00001,   0.00341,   0.00007,477636577.60391,   0.00121,275954815.07944,  -0.00019,   0.00145,  -0.00014,  -0.00000,   2.00000
275852155.51472,548562006.26721,16796611.47330,  -0.00001,   0.00342,   0.00007,477649771.84527,   0.00121,275961188.57601,  -0.00019,   0.00146,  -0.00014,   0.00000,   2.00000
276376926.02311,548523067.64909,17150466.12134,  -0.00000,   0.00343,   0.00008,477639392.83360,   0.00122,275967495.90289,  -0.00019,   0.00147,  -0.00014,  -0.00000,   2.00000
276899000.15655,548482696.73843,17502841.13606,  -0.00000,   0.00343,   0.00009,477646974.11008,   0.00123,275973804.87020,  -0.00019,   0.00148,  -0.00014,  -0.00000,   2.00000
277430489.46515,548440872.97288,17853501.06854,   0.00000,   0.00344,   0.00009,477660158.04245,   0.00123,275980136.45716,  -0.00019,   0.00148,  -0.00014,   0.00000,   2.00000
277947198.72425,548397546.04630,18203489.27042,   0.00000,   0.00344,   0.00010,477649236.14087,   0.00124,275986400.16527,  -0.00019,   0.00149,  -0.00014,   0.00000,   2.00000
278461320.30754,548352702.62133,18552589.23433,   0.00001,   0.00345,   0.00010,477643843.95918,   0.00124,275992617.08065,  -0.00019,   0.00150,  -0.00014,  -0.00000,   2.00000
278972490.28745,548306047.10165,18903889.95170,   0.00001,   0.00346,   0.00011,477664713.55893,   0.00125,275998885.91437,  -0.00019,   0.00150,  -0.00014,   0.00000,   2.00000
279481115.00864,548257885.02653,19254313.53655,   0.00001,   0.00346,   0.00011,477659331.11570,   0.00125,276005108.05036,  -0.00019,   0.00151,  -0.00014,   0.00000,   2.00000
279987233.08648,548208225.98668,19603882.92174,   0.00001,   0.00347,   0.00012,477653898.81245,   0.00126,276011283.54111,  -0.00019,   0.00152,  -0.00014,   0.00000,   2.00000
280490766.21051,548157227.46144,19952006.51325,   0.00002,   0.00347,   0.00012,477661310.81444,   0.00127,276017460.71421,  -0.00019,   0.00153,  -0.00014,   0.00000,   2.00000
280991725.66185,548104906.85977,20298688.10368,   0.00002,   0.00348,   0.00013,477668715.03148,   0.00127,276023639.54758,  -0.00019,   0.00153,  -0.00013,  -0.00000,   2.00000
281489985.46504,548050490.75038,20648793.18453,   0.00002,   0.00348,   0.00014,477663778.68951,   0.00128,276029773.89375,  -0.00019,   0.00154,  -0.00013,   0.00000,   2.00000
281985984.01686,547995408.72684,20993228.80205,   0.00002,   0.00349,   0.00014,477670579.21618,   0.00128,276035907.85539,  -0.00019,   0.00155,  -0.00013,   0.00000,   2.00000
282479334.13592,547938231.23293,21341123.00317,   0.00003,   0.00350,   0.00015,477665607.54968,   0.00129,276041997.46174,  -0.00019,   0.00155,  -0.00013,   0.00000,   2.00000
282970170.31823,547879770.67570,21687588.37000,   0.00003,   0.00350,   0.00015,477672914.40733,   0.00129,276048088.80143,  -0.00019,   0.00156,  -0.00013,   0.00000,   2.00000
283458200.47032,547819366.32213,22036850.97599,   0.00003,   0.00351,   0.00016,477680807.03835,   0.00130,276054184.07342,  -0.00019,   0.00157,  -0.00013,   0.00000,   2.00000
283944249.90897,547758206.57034,22381141.85535,   0.00003,   0.00351,   0.00016,477674642.32154,   0.00131,276060230.80875,  -0.00019,   0.00157,  -0.00013,   0.00000,   2.00000
284415909.93614,547696040.89862,22724337.62133,   0.00004,   0.00352,   0.00017,477676098.96806,   0.00131,276066257.74277,  -0.00019,   0.00158,  -0.00013,  -0.00000,   2.00000
284897000.19920,547631540.18043,23070741.73633,   0.00004,   0.00352,   0.00017,477676838.09019,   0.00132,276072262.24998,  -0.00019,   0.00159,  -0.00013,   0.00000,   2.00000
285375644.32635,547565809.08395,23415733.36697,   0.00004,   0.00353,   0.00018,477684042.53221,   0.00132,276078268.54559,  -0.00019,   0.00159,  -0.00012,   0.00000,   2.00000
285840234.44641,547498942.36772,23760378.40248,   0.00004,   0.00353,   0.00019,477672556.12487,   0.00133,276084207.07065,  -0.00019,   0.00160,  -0.00012,   0.00000,   2.00000
286314343.07018,547430612.85469,24103294.44109,   0.00005,   0.00354,   0.00019,477685492.48627,   0.00133,276090169.03410,  -0.00019,   0.00161,  -0.00012,   0.00000,   2.00000
286774190.45247,547361391.92268,24445158.78329,   0.00005,   0.00355,   0.00020,477686789.59926,   0.00134,276096111.08206,  -0.00019,   0.00161,  -0.00012,   0.00000,   2.00000
287243507.21129,547289745.63165,24790267.28593,   0.00005,   0.00355,   0.00020,477687547.50508,   0.00134,276102031.25896,  -0.00019,   0.00162,  -0.00012,   0.00000,   2.00000
287699276.01650,547217800.25416,25130891.84500,   0.00005,   0.00356,   0.00021,477675257.46476,   0.00135,276107881.21363,  -0.00019,   0.00163,  -0.00012,   0.00000,   2.00000
288152069.95564,547144159.34670,25473582.27707,   0.00006,   0.00356,   0.00021,477695784.46734,   0.00136,276113783.27992,  -0.00019,   0.00163,  -0.00012,  -0.00000,   2.00000
288615414.74750,547069396.28989,25811900.48827,   0.00006,   0.00357,   0.00022,477682335.33912,   0.00136,276119610.91876,  -0.00019,   0.00164,  -0.00012,  -0.00000,   2.00000
289063920.91805,546993284.59953,26152640.74508,   0.00006,   0.00357,   0.00023,477696960.47888,   0.00137,276125468.82638,  -0.00019,   0.00165,  -0.00011,   0.00000,   2.00000
289510883.75868,546915607.07179,26493640.14418,   0.00006,   0.00358,   0.00023,477678274.10171,   0.00137,276131233.20460,  -0.00019,   0.00165,  -0.00011,  -0.00000,   2.00000
289955230.95908,546837065.38141,26832462.75812,   0.00007,   0.00358,   0.00024,477698013.37008,   0.00138,276137047.09761,  -0.00019,   0.00166,  -0.00011,  -0.00000,   2.00000
290397724.77581,546757202.02812,27170765.00906,   0.00007,   0.00359,   0.00024,477692117.93445,   0.00138,276142815.19768,  -0.00019,   0.00167,  -0.00011,   0.00000,   2.00000
290838395.87285,546676019.10721,27508567.74620,   0.00007,   0.00359,   0.00025,477686177.07570,   0.00139,276148537.55928,  -0.00019,   0.00167,  -0.00011,   0.00000,   2.00000
291276467.48945,546592916.59324,27849240.46695,   0.00007,   0.00360,   0.00025,477693768.05775,   0.00139,276154264.56849,  -0.00019,   0.00168,  -0.00011,   0.00000,   2.00000
291701435.14777,546509781.69179,28185630.90315,   0.00007,   0.00360,   0.00026,477681075.80126,   0.00140,276159921.11738,  -0.00019,   0.00169,  -0.00011,   0.00000,   2.00000
292135593.27623,546424310.38490,28524498.98925,   0.00008,   0.00361,   0.00027,477694566.40924,   0.00140,276165604.46066,  -0.00019,   0.00169,  -0.00011,  -0.00000,   2.00000
292567990.58217,546338678.07319,28857831.78392,   0.00008,   0.00361,   0.00027,477700592.16059,   0.00141,276171286.84609,  -0.00019,   0.00170,  -0.00010,   0.00000,   2.00000
292986577.38029,546251321.76817,29195367.18344,   0.00008,   0.00362,   0.00028,477689340.68468,   0.00141,276176904.41589,  -0.00019,   0.00171,  -0.00010,   0.00000,   2.00000
293415179.51394,546163393.49158,29526962.68618,   0.00008,   0.00362,   0.00028,477701262.59264,   0.00142,276182543.13927,  -0.00019,   0.00171,  -0.00010,  -0.00000,   2.00000
293830031.98986,546073751.39600,29862803.29769,   0.00009,   0.00363,   0.00029,477689961.12963,   0.00143,276188117.11732,  -0.00019,   0.00172,  -0.00010,  -0.00000,   2.00000
294254966.64287,545982335.65519,30197831.60584,   0.00009,   0.00363,   0.00029,477689841.10092,   0.00143,276193667.93014,  -0.00018,   0.00172,  -0.00010,   0.00000,   2.00000
294666152.26601,545890425.38469,30532005.00480,   0.00009,   0.00364,   0.00030,477690449.80013,   0.00144,276199198.44516,  -0.00018,   0.00173,  -0.00010,   0.00000,   2.00000
295075747.82332,545798495.17941,30860695.83061,   0.00009,   0.00364,   0.00031,477696221.78678,   0.00144,276204727.83157,  -0.00018,   0.00174,  -0.00010,   0.00000,   2.00000
295483391.58270,545704361.17582,31193267.13727,   0.00010,   0.00365,   0.00031,477690842.59380,   0.00145,276210214.93655,  -0.00018,   0.00174,  -0.00009,  -0.00000,   2.00000
295900633.91999,545608740.70553,31524102.84068,   0.00010,   0.00365,   0.00032,477703463.64725,   0.00145,276215726.34805,  -0.00018,   0.00175,  -0.00009,  -0.00000,   2.00000
296304757.88456,545512389.48855,31855102.89391,   0.00010,   0.00366,   0.00032,477691180.32851,   0.00146,276221170.13133,  -0.00018,   0.00176,  -0.00009,   0.00000,   2.00000
296695304.80530,545415666.47445,32185310.35458,   0.00010,   0.00366,   0.00033,477691588.20853,   0.00146,276226593.46882,  -0.00018,   0.00176,  -0.00009,   0.00000,   2.00000
297096068.56021,545317140.04962,32514783.37990,   0.00011,   0.00367,   0.00033,477691361.71273,   0.00147,276231994.06730,  -0.00018,   0.00177,  -0.00009,   0.00000,   2.00000
297494867.96900,545217699.62799,32843005.68929,   0.00011,   0.00367,   0.00034,477697809.11066,   0.00147,276237396.64001,  -0.00018,   0.00177,  -0.00009,   0.00000,   2.00000
297892294.26854,545117008.52156,33170997.29076,   0.00011,   0.00368,   0.00035,477691477.54892,   0.00148,276242754.10190,  -0.00018,   0.00178,  -0.00008,  -0.00000,   2.00000
298276827.27874,545015663.21352,33499270.62358,   0.00011,   0.00368,   0.00035,477678973.21060,   0.00148,276248043.98121,  -0.00018,   0.00179,  -0.00008,   0.00000,   2.00000
298671023.13720,544912833.86370,33825820.76965,   0.00012,   0.00369,   0.00036,477691424.56402,   0.00149,276253358.42674,  -0.00018,   0.00179,  -0.00008,   0.00000,   2.00000
299051777.59096,544809741.40099,34151649.46940,   0.00012,   0.00369,   0.00036,477691620.60841,   0.00149,276258652.28396,  -0.00018,   0.00180,  -0.00008,  -0.00000,   2.00000
299431298.63764,544705422.09586,34477316.23579,   0.00012,   0.00370,   0.00037,477685162.63189,   0.00150,276263901.16803,  -0.00018,   0.00180,  -0.00008,  -0.00000,   2.00000
299820480.00843,544599616.51166,34801257.95634,   0.00012,   0.00370,   0.00038,477697588.06207,   0.00150,276269174.69875,  -0.00018,   0.00181,  -0.00008,   0.00000,   2.00000
300196923.79312,544493214.07258,35125585.80522,   0.00012,   0.00371,   0.00038,477684948.11800,   0.00151,276274380.65636,  -0.00018,   0.00181,  -0.00008,  -0.00000,   2.00000
300572198.05601,544385581.28215,35449801.63134,   0.00013,   0.00371,   0.00039,477678406.12239,   0.00151,276279541.76434,  -0.00018,   0.00182,  -0.00007,  -0.00000,   2.00000
300945665.29806,544277116.77226,35772828.83522,   0.00013,   0.00372,   0.00039,477684568.15446,   0.00152,276284704.91787,  -0.00018,   0.00183,  -0.00007,   0.00000,   2.00000
301317333.20239,544167831.94785,36094670.35602,   0.00013,   0.00372,   0.00040,477690725.75414,   0.00152,276289870.10255,  -0.00018,   0.00183,  -0.00007,  -0.00000,   2.00000
301687887.92135,544057320.72357,36416443.35740,   0.00013,   0.00372,   0.00040,477684141.13571,   0.00152,276294990.52007,  -0.00018,   0.00184,  -0.00007,   0.00000,   2.00000
302046461.29348,543947394.44270,36734546.94381,   0.00014,   0.00373,   0.00041,477670302.01733,   0.00153,276300039.78290,  -0.00018,   0.00184,  -0.00007,  -0.00000,   2.00000
302414203.31720,543834860.51362,37055117.50951,   0.00014,   0.00373,   0.00042,477683537.90791,   0.00153,276305117.54592,  -0.00018,   0.00185,  -0.00007,   0.00000,   2.00000
302769473.37945,543721804.57946,37376229.09071,   0.00014,   0.00374,   0.00042,477670628.06554,   0.00154,276310127.80676,  -0.00018,   0.00185,  -0.00006,   0.00000,   2.00000
303135022.19282,543608403.53104,37691459.63030,   0.00014,   0.00374,   0.00043,477681843.98913,   0.00154,276315159.30948,  -0.00018,   0.00186,  -0.00006,  -0.00000,   2.00000
303487593.96199,543493350.07096,38011451.27928,   0.00015,   0.00375,   0.00043,477669876.96277,   0.00155,276320127.01322,  -0.00018,   0.00187,  -0.00006,   0.00000,   2.00000
303839066.31190,543378702.12809,38326142.56682,   0.00015,   0.00375,   0.00044,477674775.64261,   0.00155,276325093.02731,  -0.00017,   0.00187,  -0.00006,  -0.00000,   2.00000
304189035.22420,543261667.13558,38645053.97276,   0.00015,   0.00376,   0.00044,477669008.54435,   0.00156,276330018.28456,  -0.00017,   0.00188,  -0.00006,   0.00000,   2.00000
304538682.73630,543144591.69397,38959868.86613,   0.00015,   0.00376,   0.00045,477661135.03817,   0.00156,276334895.24235,  -0.00017,   0.00188,  -0.00006,  -0.00000,   2.00000
304886691.60356,543026777.94780,39273579.10499,   0.00015,   0.00376,   0.00046,477666953.05987,   0.00157,276339774.27026,  -0.00017,   0.00189,  -0.00005,   0.00000,   2.00000
305233068.60283,542908235.95846,39586187.30846,   0.00016,   0.00377,   0.00046,477672767.38834,   0.00157,276344655.35549,  -0.00017,   0.00189,  -0.00005,   0.00000,   2.00000
305578594.17787,542788477.33486,39898914.03764,   0.00016,   0.00377,   0.00047,477665881.70571,   0.00158,276349492.00292,  -0.00017,   0.00190,  -0.00005,   0.00000,   2.00000
305911958.93446,542668281.96082,40212388.05665,   0.00016,   0.00378,   0.00047,477652633.98421,   0.00158,276354261.17423,  -0.00017,   0.00190,  -0.00005,   0.00000,   2.00000
306255087.18161,542546587.96201,40524165.14502,   0.00016,   0.00378,   0.00048,477664652.15810,   0.00158,276359055.56580,  -0.00017,   0.00191,  -0.00005,  -0.00000,   2.00000
306586107.12986,542424467.19205,40836729.35091,   0.00017,   0.00378,   0.00048,477651348.85163,   0.00159,276363782.49974,  -0.00017,   0.00191,  -0.00005,   0.00000,   2.00000
306928320.94169,542301565.41245,41144702.75195,   0.00017,   0.00379,   0.00049,477649550.26322,   0.00159,276368484.28756,  -0.00017,   0.00192,  -0.00004,   0.00000,   2.00000
307257043.18471,542177524.62332,41456404.76103,   0.00017,   0.00379,   0.00050,477649923.73095,   0.00160,276373169.04234,  -0.00017,   0.00192,  -0.00004,   0.00000,   2.00000
307584881.40612,542054070.39864,41762902.81365,   0.00017,   0.00380,   0.00050,477654395.27410,   0.00160,276377851.81550,  -0.00017,   0.00193,  -0.00004,  -0.00000,   2.00000
307912040.58025,541929401.44806,42069640.94896,   0.00018,   0.00380,   0.00051,477647297.04554,   0.00161,276382490.34423,  -0.00017,   0.00194,  -0.00004,   0.00000,   2.00000
308238537.55872,541803508.55022,42376635.30367,   0.00018,   0.00380,   0.00051,477640160.63176,   0.00161,276387084.68319,  -0.00017,   0.00194,  -0.00004,   0.00000,   2.00000
308564389.00840,541676382.25978,42683901.96370,   0.00018,   0.00381,   0.00052,477632986.21259,   0.00161,276391634.88714,  -0.00017,   0.00195,  -0.00004,  -0.00000,   2.00000
308877517.24707,541549447.26833,42990809.99340,   0.00018,   0.00381,   0.00052,477632032.93937,   0.00162,276396163.91219,  -0.00017,   0.00195,  -0.00003,  -0.00000,   2.00000
309200449.49460,541421004.68611,43296036.11270,   0.00018,   0.00382,   0.00053,477643843.50784,   0.00162,276400718.40566,  -0.00017,   0.00196,  -0.00003,  -0.00000,   2.00000
309512228.04380,541293518.61714,43598111.92868,   0.00019,   0.00382,   0.00054,477629046.28983,   0.00163,276405201.19320,  -0.00017,   0.00196,  -0.00003,  -0.00000,   2.00000
309834688.27191,541163929.95254,43899854.56485,   0.00019,   0.00382,   0.00054,477628162.36303,   0.00163,276409663.30442,  -0.00017,   0.00197,  -0.00003,  -0.00000,   2.00000
310144697.04045,541032635.93837,44206769.85470,   0.00019,   0.00383,   0.00055,477615615.09118,   0.00164,276414062.33820,  -0.00017,   0.00197,  -0.00003,  -0.00000,   2.00000
310454685.28686,540903406.63137,44504434.42906,   0.00019,   0.00383,   0.00055,477618498.06492,   0.00164,276418454.82433,  -0.00017,   0.00198,  -0.00003,   0.00000,   2.00000
310762602.26461,540772211.25143,44805266.67956,   0.00019,   0.00383,   0.00056,477624936.10862,   0.00164,276422853.76945,  -0.00016,   0.00198,  -0.00002,  -0.00000,   2.00000
311070943.99917,540639136.94071,45107868.87100,   0.00020,   0.00384,   0.00056,477604929.33626,   0.00165,276427162.74761,  -0.00016,   0.00198,  -0.00002,   0.00000,   2.00000
311377712.47798,540507460.46320,45404004.58634,   0.00020,   0.00384,   0.00057,477621504.64617,   0.00165,276431515.46210,  -0.00016,   0.00199,  -0.00002,   0.00000,   2.00000
311673794.78501,540374811.87253,45702680.25146,   0.00020,   0.00385,   0.00057,477594980.46643,   0.00166,276435754.73081,  -0.00016,   0.00199,  -0.00002,   0.00000,   2.00000
311979722.89206,540240643.60412,45999703.43218,   0.00020,   0.00385,   0.00058,477606528.07031,   0.00166,276440019.68611,  -0.00016,   0.00200,  -0.00002,   0.00000,   2.00000
312285236.56032,540105210.19954,46297195.34902,   0.00021,   0.00385,   0.00059,477599020.78789,   0.00166,276444240.82483,  -0.00016,   0.00200,  -0.00002,   0.00000,   2.00000
312578280.48252,539970117.46562,46594485.06266,   0.00021,   0.00386,   0.00059,477597593.26073,   0.00167,276448440.51656,  -0.00016,   0.00201,  -0.00001,   0.00000,   2.00000
312871711.95395,539835182.11600,46888157.35501,   0.00021,   0.00386,   0.00060,477588753.34795,   0.00167,276452591.85993,  -0.00016,   0.00201,  -0.00001,  -0.00000,   2.00000
313164818.82757,539698983.36110,47182356.86152,   0.00021,   0.00386,   0.00060,477581117.56984,   0.00168,276456699.44249,  -0.00016,   0.00202,  -0.00001,  -0.00000,   2.00000
313456658.30429,539562210.83290,47475657.71396,   0.00021,   0.00387,   0.00061,477586041.89290,   0.00168,276460809.15994,  -0.00016,   0.00202,  -0.00001,  -0.00000,   2.00000
313748946.95224,539425609.08678,47765399.54281,   0.00022,   0.00387,   0.00061,477577087.37650,   0.00168,276464870.50221,  -0.00016,   0.00203,  -0.00001,   0.00000,   2.00000
314040200.35054,539286274.92021,48059830.50321,   0.00022,   0.00387,   0.00062,477570653.57231,   0.00169,276468892.85165,  -0.00016,   0.00203,  -0.00001,   0.00000,   2.00000
314330964.08548,539147830.94193,48349268.79652,   0.00022,   0.00388,   0.00062,477574195.55177,   0.00169,276472912.64793,  -0.00016,   0.00204,  -0.00000,   0.00000,   2.00000
314610398.80628,539009081.91894,48640078.55168,   0.00022,   0.00388,   0.00063,477559891.43372,   0.00169,276476865.05219,  -0.00016,   0.00204,  -0.00000,   0.00000,   2.00000
314900478.32660,538870276.18228,48925151.87659,   0.00022,   0.00388,   0.00063,477569870.49271,   0.00170,276480838.58194,  -0.00016,   0.00204,  -0.00000,  -0.00000,   2.00000
315179492.66854,538728932.23654,49217237.76294,   0.00023,   0.00388,   0.00064,477544250.49432,   0.00170,276484703.80316,  -0.00016,   0.00205,   0.00000,   0.00000,   2.00000
315458109.58579,538588530.70621,49504374.60959,   0.00023,   0.00389,   0.00065,477547583.60450,   0.00171,276488566.37594,  -0.00016,   0.00205,   0.00000,  -0.00000,   2.00000
315746597.12389,538446583.71222,49789888.62658,   0.00023,   0.00389,   0.00065,477558798.84170,   0.00171,276492454.91918,  -0.00016,   0.00206,   0.00000,   0.00000,   2.00000
316024656.00126,538305845.53068,50072778.96297,   0.00023,   0.00389,   0.00066,477542990.11220,   0.00171,276496271.18702,  -0.00016,   0.00206,   0.00001,   0.00000,   2.00000
316290760.86515,538163295.66927,50361274.28415,   0.00023,   0.00390,   0.00066,477529783.34206,   0.00172,276500024.97367,  -0.00015,   0.00206,   0.00001,   0.00000,   2.00000
316568592.13355,538019923.41186,50645585.70989,   0.00024,   0.00390,   0.00067,477526991.60630,   0.00172,276503754.31356,  -0.00015,   0.00207,   0.00001,   0.00000,   2.00000
316846092.53621,537877558.61671,50925002.25551,   0.00024,   0.00390,   0.00067,477530124.55469,   0.00172,276507480.81482,  -0.00015,   0.00207,   0.00001,   0.00000,   2.00000
317122683.62841,537732318.35748,51209267.54001,   0.00024,   0.00391,   0.00068,477523440.69567,   0.00173,276511168.86438,  -0.00015,   0.00208,   0.00001,   0.00000,   2.00000
317389014.84672,537588321.91456,51491025.71293,   0.00024,   0.00391,   0.00068,477507365.42927,   0.00173,276514784.56143,  -0.00015,   0.00208,   0.00001,   0.00000,   2.00000
317655090.81552,537445376.26869,51767923.15723,   0.00024,   0.00391,   0.00069,477510340.01404,   0.00173,276518397.32652,  -0.00015,   0.00208,   0.00002,   0.00000,   2.00000
317931289.59048,537298467.52200,52048884.22777,   0.00025,   0.00391,   0.00069,477510185.27878,   0.00174,276521995.79449,  -0.00015,   0.00209,   0.00002,   0.00000,   2.00000
318197306.75236,537152823.65702,52327407.62916,   0.00025,   0.00392,   0.00070,477493980.56206,   0.00174,276525521.82715,  -0.00015,   0.00209,   0.00002,   0.00000,   2.00000
318462262.57544,537006674.43213,52605180.23495,   0.00025,   0.00392,   0.00070,477498248.58410,   0.00174,276529049.97934,  -0.00015,   0.00210,   0.00002,   0.00000,   2.00000
318717127.36207,536861821.86487,52880568.27062,   0.00025,   0.00392,   0.00071,477481927.75521,   0.00175,276532505.60348,  -0.00015,   0.00210,   0.00002,   0.00000,   2.00000
318982996.10342,536714530.41666,53155978.19973,   0.00025,   0.00392,   0.00071,477480244.91292,   0.00175,276535942.03801,  -0.00015,   0.00210,   0.00002,   0.00000,   2.00000
319248901.07390,536565851.03937,53432271.73769,   0.00026,   0.00393,   0.00072,477471907.77042,   0.00175,276539335.23849,  -0.00015,   0.00211,   0.00002,  -0.00000,   2.00000
319502843.26803,536417753.37762,53708706.45245,   0.00026,   0.00393,   0.00072,477469369.71959,   0.00176,276542706.43651,  -0.00015,   0.00211,   0.00003,   0.00000,   2.00000
319768660.05806,536268792.42377,53981109.27536,   0.00026,   0.00393,   0.00073,477466191.32122,   0.00176,276546053.36155,  -0.00015,   0.00212,   0.00003,  -0.00000,   2.00000
320024513.04822,536121152.72894,54251246.21693,   0.00026,   0.00393,   0.00073,477449627.59663,   0.00176,276549327.63198,  -0.00015,   0.00212,   0.00003,   0.00000,   2.00000
320278509.90927,535971392.98500,54524766.58897,   0.00026,   0.00394,   0.00074,477455072.39638,   0.00177,276552609.29250,  -0.00015,   0.00212,   0.00003,   0.00000,   2.00000
320533513.77481,535821862.32933,54795175.29245,   0.00027,   0.00394,   0.00074,477445111.58255,   0.00177,276555842.49813,  -0.00015,   0.00213,   0.00003,   0.00000,   2.00000
320789546.05596,535672564.50735,55062497.82298,   0.00027,   0.00394,   0.00075,477435089.98367,   0.00177,276559027.21619,  -0.00015,   0.00213,   0.00003,   0.00000,   2.00000
321045733.02633,535521838.63354,55330822.12167,   0.00027,   0.00394,   0.00075,477426495.60542,   0.00177,276562168.81130,  -0.00015,   0.00213,   0.00004,  -0.00000,   2.00000
321300963.07130,535370630.52528,55598487.29971,   0.00027,   0.00395,   0.00076,477430340.60496,   0.00178,276565312.50372,  -0.00015,   0.00214,   0.00004,   0.00000,   2.00000
321556363.65772,535217973.49227,55867174.52608,   0.00027,   0.00395,   0.00076,477421716.87816,   0.00178,276568413.14349,  -0.00015,   0.00214,   0.00004,  -0.00000,   2.00000
321801999.72323,535066670.85216,56133750.21928,   0.00028,   0.00395,   0.00077,477404821.43405,   0.00178,276571440.98052,  -0.00014,   0.00214,   0.00004,  -0.00000,   2.00000
322058490.43920,534915454.70389,56394719.60956,   0.00028,   0.00395,   0.00077,477413754.71789,   0.00179,276574489.76003,  -0.00014,   0.00215,   0.00004,   0.00000,   2.00000
322304570.57718,534761216.83591,56663443.18806,   0.00028,   0.00395,   0.00078,477387355.01211,   0.00179,276577431.56271,  -0.00014,   0.00215,   0.00004,   0.00000,   2.00000
322551601.10962,534609912.18865,56923437.79256,   0.00028,   0.00396,   0.00078,477387933.48319,   0.00179,276580364.42303,  -0.00014,   0.00215,   0.00004,   0.00000,   2.00000
322797964.49509,534455415.64212,57188596.34972,   0.00028,   0.00396,   0.00079,477380624.04513,   0.00179,276583259.84665,  -0.00014,   0.00216,   0.00005,   0.00000,   2.00000
323044374.79669,534302166.41254,57449097.06249,   0.00029,   0.00396,   0.00079,477382661.59806,   0.00180,276586151.79162,  -0.00014,   0.00216,   0.00005,   0.00000,   2.00000
323292005.77112,534149150.60062,57706685.11652,   0.00029,   0.00396,   0.00080,477372234.57274,   0.00180,276588995.17895,  -0.00014,   0.00216,   0.00005,   0.00000,   2.00000
323538982.97776,533992893.03262,57969472.57123,   0.00029,   0.00396,   0.00080,477364865.39508,   0.00180,276591801.26924,  -0.00014,   0.00216,   0.00005,  -0.00000,   2.00000
323788157.52186,533838593.89781,58225331.19833,   0.00029,   0.00397,   0.00081,477352794.45227,   0.00180,276594553.19320,  -0.00014,   0.00217,   0.00005,   0.00000,   2.00000
324026862.22090,533683943.36743,58483335.89373,   0.00029,   0.00397,   0.00081,477336995.33221,   0.00181,276597237.71092,  -0.00014,   0.00217,   0.00005,  -0.00000,   2.00000
324275519.11619,533527652.77907,58739819.55680,   0.00030,   0.00397,   0.00082,477347128.37560,   0.00181,276599948.81970,  -0.00014,   0.00217,   0.00005,   0.00000,   2.00000
324513734.91801,533370996.54096,58998478.26061,   0.00030,   0.00397,   0.00082,477331288.89325,   0.00181,276602592.55305,  -0.00014,   0.00218,   0.00006,  -0.00000,   2.00000
324754261.58470,533216329.75262,59250288.86084,   0.00030,   0.00397,   0.00083,477318995.39082,   0.00181,276605181.97859,  -0.00014,   0.00218,   0.00006,   0.00000,   2.00000
324994196.86269,533058327.90267,59507385.15745,   0.00030,   0.00397,   0.00083,477311416.28322,   0.00182,276607734.35599,  -0.00014,   0.00218,   0.00006,   0.00000,   2.00000
325234305.08387,532901644.18183,59759914.71554,   0.00030,   0.00397,   0.00084,477313020.41023,   0.00182,276610283.01116,  -0.00014,   0.00218,   0.00006,   0.00000,   2.00000
325477000.60421,532744054.41181,60011481.58377,   0.00030,   0.00398,   0.00084,477289803.79168,   0.00182,276612738.26808,  -0.00014,   0.00219,   0.00006,   0.00000,   2.00000
325718904.59400,532585999.81625,60262539.77228,   0.00031,   0.00398,   0.00085,477292902.97936,   0.00182,276615195.56908,  -0.00014,   0.00219,   0.00006,  -0.00000,   2.00000
325960018.82878,532427484.04210,60513089.64851,   0.00031,   0.00398,   0.00085,477296002.22152,   0.00183,276617654.90943,  -0.00014,   0.00219,   0.00006,   0.00000,   2.00000
326203775.28368,532268022.19946,60762741.25988,   0.00031,   0.00398,   0.00085,477272700.88469,   0.00183,276620020.91546,  -0.00014,   0.00219,   0.00006,   0.00000,   2.00000
326437052.04885,532111135.40841,61008888.65199,   0.00031,   0.00398,   0.00086,477267218.71080,   0.00183,276622358.32421,  -0.00014,   0.00220,   0.00007,  -0.00000,   2.00000
326682733.22382,531950237.01943,61257204.65280,   0.00031,   0.00398,   0.00086,477252278.18345,   0.00183,276624633.06954,  -0.00014,   0.00220,   0.00007,   0.00000,   2.00000
326916951.73657,531790092.18705,61506064.84956,   0.00032,   0.00398,   0.00087,477248332.82908,   0.00183,276626885.12019,  -0.00014,   0.00220,   0.00007,   0.00000,   2.00000
327152685.37794,531630136.77923,61752282.17573,   0.00032,   0.00399,   0.00087,477237188.45243,   0.00184,276629088.56727,  -0.00013,   0.00220,   0.00007,  -0.00000,   2.00000
327388717.16984,531471570.29206,61994027.03493,   0.00032,   0.00399,   0.00088,477238347.93095,   0.00184,276631288.01274,  -0.00013,   0.00221,   0.00007,   0.00000,   2.00000
327626506.31884,531310136.35144,62239037.35223,   0.00032,   0.00399,   0.00088,477216442.05764,   0.00184,276633400.21390,  -0.00013,   0.00221,   0.00007,   0.00000,   2.00000
327864613.52532,531150096.37335,62479594.64750,   0.00032,   0.00399,   0.00089,477217498.25647,   0.00184,276635508.38149,  -0.00013,   0.00221,   0.00007,   0.00000,   2.00000
328103257.10563,530988371.46248,62721588.85571,   0.00032,   0.00399,   0.00089,477207867.78170,   0.00184,276637573.96517,  -0.00013,   0.00221,   0.00007,   0.00000,   2.00000
328342442.43292,530824941.78376,62965030.01598,   0.00033,   0.00399,   0.00089,477198206.67135,   0.00185,276639597.02032,  -0.00013,   0.00222,   0.00008,   0.00000,   2.00000
328583025.75291,530664802.88969,63200034.26730,   0.00033,   0.00399,   0.00090,477197455.09219,   0.00185,276641609.84852,  -0.00013,   0.00222,   0.00008,   0.00000,   2.00000
328813745.22150,530501069.09142,63443471.37442,   0.00033,   0.00399,   0.00090,477170189.72334,   0.00185,276643516.85707,  -0.00013,   0.00222,   0.00008,   0.00000,   2.00000
329056543.95096,530339384.80615,63677434.30679,   0.00033,   0.00399,   0.00091,477176204.89085,   0.00185,276645438.48422,  -0.00013,   0.00222,   0.00008,   0.00000,   2.00000
329289309.86534,530177233.67610,63913974.14802,   0.00033,   0.00399,   0.00091,477159475.32498,   0.00185,276647292.65013,  -0.00013,   0.00222,   0.00008,   0.00000,   2.00000
329522691.53762,530013333.23040,64152035.95894,   0.00033,   0.00399,   0.00091,477149603.31322,   0.00186,276649104.34860,  -0.00013,   0.00223,   0.00008,   0.00000,   2.00000
329768376.71270,529848298.06726,64386554.30842,   0.00034,   0.00400,   0.00092,477144907.03514,   0.00186,276650892.38772,  -0.00013,   0.00223,   0.00008,   0.00000,   2.00000
330005158.88201,529684679.62231,64619707.17035,   0.00034,   0.00400,   0.00092,477126312.20615,   0.00186,276652606.75208,  -0.00013,   0.00223,   0.00008,   0.00000,   2.00000
330241300.50910,529520590.96476,64852498.03703,   0.00034,   0.00400,   0.00093,477128617.46274,   0.00186,276654323.08539,  -0.00013,   0.00223,   0.00008,   0.00000,   2.00000
330480477.80377,529355311.13220,65084805.51720,   0.00034,   0.00400,   0.00093,477104571.46246,   0.00186,276655946.37010,  -0.00013,   0.00223,   0.00008,   0.00000,   2.00000
330719023.64339,529189550.15795,65316764.97232,   0.00034,   0.00400,   0.00093,477106788.61131,   0.00186,276657571.64325,  -0.00013,   0.00223,   0.00009,   0.00000,   2.00000
330959341.59536,529023908.15702,65546336.63552,   0.00034,   0.00400,   0.00094,477094952.75259,   0.00187,276659148.23711,  -0.00013,   0.00224,   0.00009,   0.00000,   2.00000
331189782.60238,528857733.78180,65778632.55419,   0.00035,   0.00400,   0.00094,477077855.92979,   0.00187,276660657.39092,  -0.00013,   0.00224,   0.00009,   0.00000,   2.00000
331432595.83418,528690359.54901,66007461.61969,   0.00035,   0.00400,   0.00095,477072872.88603,   0.00187,276662143.00281,  -0.00013,   0.00224,   0.00009,   0.00000,   2.00000
331675913.84707,528524459.36403,66231985.47717,   0.00035,   0.00400,   0.00095,477073169.79279,   0.00187,276663624.18689,  -0.00013,   0.00224,   0.00009,  -0.00000,   2.00000
331910725.20181,528356622.77963,66461258.15663,   0.00035,   0.00400,   0.00095,477043689.69423,   0.00187,276664993.67470,  -0.00013,   0.00224,   0.00009,   0.85963,   1.00000
332156608.57272,528188947.06433,66685119.03990,   0.00035,   0.00400,   0.00096,477050850.40465,   0.00187,276666383.89637,  -0.00013,   0.00224,   0.00009,   0.88555,   1.00000
332393834.16296,528022681.40105,66907816.41943,   0.00036,   0.00400,   0.00096,477031755.02345,   0.00187,276667700.19067,  -0.00013,   0.00225,   0.00009,   0.79363,   1.00000
332631822.43305,527854515.77545,67132213.23411,   0.00036,   0.00400,   0.00096,477021378.31434,   0.00187,276668974.24763,  -0.00013,   0.00225,   0.00009,   0.74328,   1.00000
332871720.40522,527686422.93645,67354346.75702,   0.00036,   0.00400,   0.00097,477009162.06429,   0.00188,276670199.59886,  -0.00013,   0.00225,   0.00009,   0.68732,   1.00000
333124041.69744,527517058.57809,67573086.43230,   0.00036,   0.00400,   0.00097,477003916.68510,   0.00188,276671401.52270,  -0.00013,   0.00225,   0.00009,   0.66103,   1.00000
333365305.03856,527348531.73348,67792705.72249,   0.00036,   0.00400,   0.00098,476998666.87626,   0.00188,276672580.10475,  -0.00013,   0.00225,   0.00009,   0.63540,   1.00000
333608711.64955,527176592.33164,68016082.24897,   0.00036,   0.00400,   0.00098,476975931.41380,   0.00188,276673672.46850,  -0.00013,   0.00225,   0.00009,   0.54566,   1.00000
333853893.27943,527008169.11391,68231268.32992,   0.00037,   0.00400,   0.00098,476973939.84875,   0.00188,276674753.62789,  -0.00013,   0.00225,   0.00010,   0.53433,   1.00000
334089432.39239,526839125.19544,68449395.41945,   0.00037,   0.00400,   0.00099,476956299.70223,   0.00188,276675767.29526,  -0.00013,   0.00225,   0.00010,   0.46956,   1.00000
334338804.51514,526667271.84589,68666207.81893,   0.00037,   0.00400,   0.00099,476938628.29788,   0.00188,276676713.60232,  -0.00013,   0.00225,   0.00010,   0.40907,   1.00000
334587652.99844,526494892.91482,68882785.63392,   0.00037,   0.00400,   0.00099,476940148.94502,   0.00188,276677661.89211,  -0.00013,   0.00226,   0.00010,   0.41064,   1.00000
334837158.91252,526324030.75542,69095171.30188,   0.00037,   0.00400,   0.00100,476939813.83656,   0.00188,276678605.47538,  -0.00013,   0.00226,   0.00010,   0.40643,   1.00000
335079647.17096,526153034.89572,69308651.16331,   0.00037,   0.00400,   0.00100,476907957.20093,   0.00188,276679430.92734,  -0.00013,   0.00226,   0.00010,   0.31093,   1.00000
335333447.60850,525978612.85882,69522779.73976,   0.00038,   0.00400,   0.00100,476904213.94113,   0.00188,276680239.86239,  -0.00013,   0.00226,   0.00010,   0.29849,   1.00000
335577521.37774,525807088.37776,69733937.47994,   0.00038,   0.00400,   0.00101,476896636.57087,   0.00189,276681018.55166,  -0.00012,   0.00226,   0.00010,   0.27649,   1.00000
335835493.14003,525632618.82884,69943866.54926,   0.00038,   0.00400,   0.00101,476878789.49029,   0.00189,276681730.14931,  -0.00012,   0.00226,   0.00010,   0.23081,   1.00000
336082576.28852,525458992.70577,70154802.45414,   0.00038,   0.00400,   0.00101,476872970.82939,   0.00189,276682418.19272,  -0.00012,   0.00226,   0.00010,   0.21570,   1.00000
336343392.16624,525286012.41367,70358516.19626,   0.00038,   0.00400,   0.00102,476865357.27845,   0.00189,276683076.30397,  -0.00012,   0.00226,   0.00010,   0.19726,   1.00000
336593536.83829,525110231.35943,70569282.45747,   0.00038,   0.00400,   0.00102,476849172.22664,   0.00189,276683673.77241,  -0.00012,   0.00226,   0.00010,   0.16252,   1.00000
336847060.05682,524936475.29991,70774065.66905,   0.00038,   0.00399,   0.00102,476834353.59812,   0.00189,276684215.73867,  -0.00012,   0.00226,   0.00010,   0.13367,   1.00000
337111909.68218,524759163.55183,70979544.62739,   0.00039,   0.00399,   0.00102,476830404.47708,   0.00189,276684741.50077,  -0.00012,   0.00226,   0.00010,   0.12575,   1.00000
337368580.61306,524583176.78468,71184236.35191,   0.00039,   0.00399,   0.00103,476810288.62761,   0.00189,276685192.98557,  -0.00012,   0.00226,   0.00010,   0.09269,   1.00000
337627464.09372,524407104.95486,71386931.77177,   0.00039,   0.00399,   0.00103,476797218.74912,   0.00189,276685595.80913,  -0.00012,   0.00226,   0.00010,   0.07375,   1.00000
337885917.95282,524230468.29694,71589475.01811,   0.00039,   0.00399,   0.00103,476798179.64522,   0.00189,276686000.60357,  -0.00012,   0.00226,   0.00010,   0.07445,   1.00000
338148037.15236,524052087.96242,71792153.87158,   0.00039,   0.00399,   0.00104,476772907.67010,   0.00189,276686313.04871,  -0.00012,   0.00226,   0.00010,   0.04433,   1.00000
338410983.76030,523875240.72871,71990758.78641,   0.00039,   0.00399,   0.00104,476771851.42282,   0.00189,276686620.54490,  -0.00012,   0.00227,   0.00010,   0.04292,   1.00000
338676205.38557,523698276.62899,72187415.95283,   0.00040,   0.00399,   0.00104,476758631.28580,   0.00189,276686879.38702,  -0.00012,   0.00227,   0.00010,   0.03040,   1.00000
338943903.18294,523517382.87074,72388194.06896,   0.00040,   0.00399,   0.00104,476735168.77577,   0.00189,276687052.94675,  -0.00012,   0.00227,   0.00010,   0.01366,   1.00000
339212460.62608,523338014.24563,72584920.71411,   0.00040,   0.00399,   0.00105,476733965.05808,   0.00189,276687221.54057,  -0.00012,   0.00227,   0.00010,   0.01288,   1.00000
339483339.63975,523158488.75509,72779736.77803,   0.00040,   0.00398,   0.00105,476720612.81021,   0.00189,276687341.53135,  -0.00012,   0.00227,   0.00010,   0.00652,   1.00000
339756558.58246,522978796.15382,72972655.40329,   0.00040,   0.00398,   0.00105,476707211.03224,   0.00189,276687412.92496,  -0.00012,   0.00227,   0.00010,   0.00231,   1.00000
340030859.69465,522796779.82942,73167611.37515,   0.00040,   0.00398,   0.00105,476695726.21779,   0.00189,276687442.79281,  -0.00012,   0.00227,   0.00010,   0.00040,   1.00000
340306065.10730,522616294.88902,73358541.95938,   0.00041,   0.00398,   0.00106,476694355.71583,   0.00189,276687467.62701,  -0.00012,   0.00227,   0.00010,   0.00028,   1.00000
340558005.90548,522407055.92103,73546430.01226,   0.00041,   0.00398,   0.00106,476661530.15491,   0.00189,276687467.62701,  -0.00012,   0.00227,   0.00010,-25937.47209,   0.00000
340818487.06970,522189276.58701,73734318.06514,   0.00041,   0.00398,   0.00106,476631274.13351,   0.00189,276687467.62701,  -0.00012,   0.00227,   0.00010,-56193.49350,   0.00000
341078968.23393,521971497.25299,73913665.75198,   0.00041,   0.00398,   0.00106,476597625.61323,   0.00189,276687467.62701,  -0.00012,   0.00227,   0.00010,-89842.01378,   0.00000
341326638.84909,521723826.63783,74093013.43883,   0.00041,   0.00397,   0.00107,476540354.46875,   0.00189,276687467.62701,  -0.00012,   0.00227,   0.00010,-147113.15826,   0.00000
341574309.46425,521476156.02266,74268090.94265,   0.00041,   0.00397,   0.00107,476481668.36452,   0.00189,276687467.62701,  -0.00012,   0.00227,   0.00010,-205799.26249,   0.00000
341800629.16431,521207134.49240,74438898.26345,   0.00042,   0.00397,   0.00107,476402213.86188,   0.00189,276687467.62701,  -0.00012,   0.00227,   0.00010,-285253.76513,   0.00000
342035489.23042,520929572.59610,74609705.58425,   0.00042,   0.00397,   0.00107,476318505.60612,   0.00189,276687467.62701,  -0.00012,   0.00227,   0.00010,-368962.02088,   0.00000
342257538.74746,520622119.41866,74776242.72203,   0.00042,   0.00397,   0.00108,476209227.41438,   0.00189,276687467.62701,  -0.00012,   0.00227,   0.00010,-478240.21263,   0.00000
342464642.62393,520308260.96668,74934239.49377,   0.00042,   0.00397,   0.00108,476089231.10800,   0.00189,276687467.62701,  -0.00012,   0.00227,   0.00010,-598236.51901,   0.00000
342680286.86644,519985862.14867,75096506.44854,   0.00042,   0.00396,   0.00108,475967044.31724,   0.00189,276687467.62701,  -0.00012,   0.00227,   0.00010,-720423.30977,   0.00000
342889525.83442,519648517.69009,75250233.03726,   0.00042,   0.00396,   0.00108,475829347.29757,   0.00189,276687467.62701,  -0.00012,   0.00227,   0.00010,-858120.32944,   0.00000
343098764.80241,519311173.23150,75399689.44296,   0.00042,   0.00396,   0.00108,475690208.51021,   0.00189,276687467.62701,  -0.00012,   0.00227,   0.00010,-997259.11680,   0.00000
343280247.58076,518937532.21725,75549145.84866,   0.00043,   0.00396,   0.00109,475520248.25420,   0.00189,276687467.62701,  -0.00012,   0.00227,   0.00010,-1167219.37281,   0.00000
343470270.72515,518555350.83695,75694332.07134,   0.00043,   0.00396,   0.00109,475344115.07757,   0.00189,276687467.62701,  -0.00012,   0.00227,   0.00010,-1343352.54944,   0.00000
343653888.59501,518158223.81609,75835248.11100,   0.00043,   0.00395,   0.00109,475154507.60885,   0.00189,276687467.62701,  -0.00012,   0.00227,   0.00010,-1532960.01816,   0.00000
343837506.46487,517761096.79523,75971893.96765,   0.00043,   0.00395,   0.00109,474963457.28812,   0.00189,276687467.62701,  -0.00012,   0.00227,   0.00010,-1724010.33889,   0.00000
344008313.78568,517334078.49322,76108539.82429,   0.00043,   0.00395,   0.00109,474748959.15666,   0.00189,276687467.62701,  -0.00012,   0.00227,   0.00010,-1938508.47035,   0.00000
344164175.46591,516900654.91669,76236645.31489,   0.00043,   0.00395,   0.00109,474523610.89501,   0.00189,276687467.62701,  -0.00012,   0.00227,   0.00010,-2163856.73199,   0.00000
344328577.51218,516458690.97411,76364750.80549,   0.00044,   0.00394,   0.00110,474294199.69476,   0.00189,276687467.62701,  -0.00012,   0.00227,   0.00010,-2393267.93225,   0.00000
344480169.00939,515986835.75040,76488586.11307,   0.00044,   0.00394,   0.00110,474039323.83217,   0.00189,276687467.62701,  -0.00012,   0.00227,   0.00010,-2648143.79484,   0.00000
344631760.50660,515514980.52668,76608151.23763,   0.00044,   0.00394,   0.00110,473783005.92044,   0.00189,276687467.62701,  -0.00012,   0.00227,   0.00010,-2904461.70656,   0.00000
344776946.72928,515028179.66240,76723446.17917,   0.00044,   0.00394,   0.00110,473513238.63184,   0.00189,276687467.62701,  -0.00012,   0.00227,   0.00010,-3174228.99517,   0.00000
344915727.67744,514526433.15754,76838741.12071,   0.00044,   0.00393,   0.00110,473232106.82108,   0.00189,276687467.62701,  -0.00012,   0.00227,   0.00010,-3455360.80593,   0.00000
345048103.35106,514009741.01212,76945495.69622,   0.00044,   0.00393,   0.00110,472935459.83053,   0.00189,276687467.62701,  -0.00012,   0.00227,   0.00010,-3752007.79648,   0.00000
345174073.75015,513478103.22612,77052250.27172,   0.00045,   0.00393,   0.00110,472627467.27810,   0.00189,276687467.62701,  -0.00012,   0.00227,   0.00010,-4060000.34891,   0.00000
345293638.87471,512931519.79956,77154734.66420,   0.00045,   0.00393,   0.00111,472306054.72448,   0.00189,276687467.62701,  -0.00012,   0.00227,   0.00010,-4381412.90253,   0.00000
345406798.72474,512369990.73242,77252948.87366,   0.00045,   0.00392,   0.00111,471971228.01706,   0.00189,276687467.62701,  -0.00012,   0.00227,   0.00010,-4716239.60995,   0.00000
345513553.30024,511793516.02471,77346892.90010,   0.00045,   0.00392,   0.00111,471622993.29578,   0.00189,276687467.62701,  -0.00012,   0.00227,   0.00010,-5064474.33123,   0.00000
345613902.60121,511202095.67644,77436566.74352,   0.00045,   0.00392,   0.00111,471261356.99593,   0.00189,276687467.62701,  -0.00012,   0.00227,   0.00010,-5426110.63108,   0.00000
345714251.90218,510610675.32816,77526240.58694,   0.00045,   0.00392,   0.00111,470900384.40381,   0.00189,276687467.62701,  -0.00012,   0.00227,   0.00010,-5787083.22320,   0.00000
345816736.29466,509995768.97328,77607374.06432,   0.00046,   0.00391,   0.00111,470519437.05780,   0.00189,276687467.62701,  -0.00012,   0.00227,   0.00010,-6168030.56921,   0.00000
345904275.04658,509374457.34386,77688507.54170,   0.00046,   0.00391,   0.00111,470131700.17267,   0.00189,276687467.62701,  -0.00012,   0.00227,   0.00010,-6555767.45433,   0.00000
345979003.24943,508723254.43330,77765370.83606,   0.00046,   0.00391,   0.00111,469718654.61769,   0.00189,276687467.62701,  -0.00012,   0.00227,   0.00010,-6968813.00932,   0.00000
346068677.09285,508078456.79728,77837963.94741,   0.00046,   0.00390,   0.00112,469311681.10065,   0.00189,276687467.62701,  -0.00012,   0.00227,   0.00010,-7375786.52636,   0.00000
346130594.74664,507397362.60558,77906286.87573,   0.00046,   0.00390,   0.00112,468871933.38000,   0.00189,276687467.62701,  -0.00012,   0.00227,   0.00010,-7815534.24701,   0.00000
346207458.04100,506722673.68841,77970339.62103,   0.00046,   0.00390,   0.00112,468438282.83520,   0.00189,276687467.62701,  -0.00012,   0.00227,   0.00010,-8249184.79181,   0.00000
346277916.06083,506033039.13067,78030122.18331,   0.00047,   0.00389,   0.00112,467991309.21309,   0.00189,276687467.62701,  -0.00012,   0.00227,   0.00010,-8696158.41392,   0.00000
346327023.16556,505322053.65784,78089904.74559,   0.00047,   0.00389,   0.00112,467525616.38266,   0.00189,276687467.62701,  -0.00012,   0.00227,   0.00010,-9161851.24434,   0.00000
346384670.63633,504602527.81896,78141146.94183,   0.00047,   0.00389,   0.00112,467052017.73298,   0.00189,276687467.62701,  -0.00012,   0.00227,   0.00010,-9635449.89403,   0.00000
346435912.83257,503868056.33951,78192389.13807,   0.00047,   0.00388,   0.00112,466567271.68941,   0.00189,276687467.62701,  -0.00012,   0.00227,   0.00010,-10120195.93760,   0.00000
346480749.75428,503118639.21949,78235090.96827,   0.00047,   0.00388,   0.00112,466067098.30740,   0.00189,276687467.62701,  -0.00012,   0.00227,   0.00010,-10620369.31961,   0.00000
346519181.40146,502354276.45891,78277792.79847,   0.00047,   0.00388,   0.00112,465555805.50545,   0.00189,276687467.62701,  -0.00012,   0.00227,   0.00010,-11131662.12156,   0.00000
346551207.77411,501574968.05775,78316224.44565,   0.00048,   0.00387,   0.00112,465031257.28968,   0.00189,276687467.62701,  -0.00012,   0.00227,   0.00010,-11656210.33733,   0.00000
346576828.87223,500780714.01602,78350385.90981,   0.00048,   0.00387,   0.00112,464493464.89927,   0.00189,276687467.62701,  -0.00012,   0.00227,   0.00010,-12194002.72774,   0.00000
346602449.97035,499986459.97429,78380277.19095,   0.00048,   0.00387,   0.00112,463954297.38453,   0.00189,276687467.62701,  -0.00012,   0.00227,   0.00010,-12733170.24248,   0.00000
346630206.15998,499168719.92595,78405898.28907,   0.00048,   0.00386,   0.00112,463397679.25404,   0.00189,276687467.62701,  -0.00012,   0.00227,   0.00010,-13289788.37297,   0.00000
346643016.70904,498344574.60308,78431519.38719,   0.00048,   0.00386,   0.00112,462834245.78204,   0.00189,276687467.62701,  -0.00012,   0.00227,   0.00010,-13853221.84497,   0.00000
346657962.34961,497496943.27361,78448600.11927,   0.00048,   0.00385,   0.00112,462251255.68093,   0.00189,276687467.62701,  -0.00012,   0.00227,   0.00010,-14436211.94608,   0.00000
346672907.99018,496649311.94413,78461410.66833,   0.00049,   0.00385,   0.00112,461666938.23377,   0.00189,276687467.62701,  -0.00012,   0.00227,   0.00010,-15020529.39324,   0.00000
346666502.71565,495780329.69955,78474221.21739,   0.00049,   0.00385,   0.00112,461063961.50314,   0.00189,276687467.62701,  -0.00012,   0.00227,   0.00010,-15623506.12387,   0.00000
346662232.53263,494887861.44836,78478491.40041,   0.00049,   0.00384,   0.00112,460441515.07863,   0.00189,276687467.62701,  -0.00012,   0.00227,   0.00010,-16245952.54838,   0.00000
346657962.34961,493995393.19717,78482761.58343,   0.00049,   0.00384,   0.00112,459819950.13469,   0.00189,276687467.62701,  -0.00012,   0.00227,   0.00010,-16867517.49232,   0.00000
346647286.89206,493087979.30541,78482761.58343,   0.00049,   0.00383,   0.00112,459185276.56829,   0.00189,276687467.62701,  -0.00012,   0.00227,   0.00010,-17502191.05872,   0.00000
346645151.80055,492172025.04761,78478491.40041,   0.00049,   0.00383,   0.00112,458545240.96226,   0.00189,276687467.62701,  -0.00012,   0.00227,   0.00010,-18142226.66475,   0.00000
346621665.79394,491234719.87471,78465680.85135,   0.00050,   0.00383,   0.00112,457882213.59184,   0.00189,276687467.62701,  -0.00012,   0.00227,   0.00010,-18805254.03517,   0.00000
346591774.51280,490282469.06124,78452870.30229,   0.00050,   0.00382,   0.00112,457208317.11625,   0.00189,276687467.62701,  -0.00012,   0.00227,   0.00010,-19479150.51076,   0.00000
346576828.87223,489336623.52230,78435789.57021,   0.00050,   0.00382,   0.00112,456540921.99543,   0.00189,276687467.62701,  -0.00012,   0.00227,   0.00010,-20146545.63157,   0.00000
346549072.68260,488360886.70222,78414438.65511,   0.00050,   0.00381,   0.00112,455848742.00269,   0.00189,276687467.62701,  -0.00012,   0.00227,   0.00010,-20838725.62432,   0.00000
346514911.21844,487370204.24157,78388817.55699,   0.00050,   0.00381,   0.00112,455143578.20347,   0.00189,276687467.62701,  -0.00012,   0.00227,   0.00010,-21543889.42353,   0.00000
346480749.75428,486379521.78092,78358926.27585,   0.00050,   0.00380,   0.00112,454437203.32699,   0.00189,276687467.62701,  -0.00012,   0.00227,   0.00010,-22250264.30002,   0.00000
346433777.74106,485358948.03913,78329034.99471,   0.00051,   0.00380,   0.00112,453708331.46591,   0.00189,276687467.62701,  -0.00012,   0.00227,   0.00010,-22979136.16110,   0.00000
346386805.72784,484338374.29734,78290603.34753,   0.00051,   0.00379,   0.00112,452976062.67066,   0.00189,276687467.62701,  -0.00012,   0.00227,   0.00010,-23711404.95635,   0.00000
346348374.08066,483309260.18951,78247901.51733,   0.00051,   0.00379,   0.00112,452238723.51235,   0.00189,276687467.62701,  -0.00012,   0.00227,   0.00010,-24448744.11466,   0.00000
346288591.51838,482258795.16658,78200929.50411,   0.00051,   0.00379,   0.00112,451480643.36319,   0.00189,276687467.62701,  -0.00012,   0.00227,   0.00010,-25206824.26382,   0.00000
346237349.32214,481199789.77761,78153957.49089,   0.00051,   0.00378,   0.00112,450719783.51868,   0.00189,276687467.62701,  -0.00012,   0.00227,   0.00010,-25967684.10833,   0.00000
346179701.85137,480125838.74807,78098445.11163,   0.00052,   0.00378,   0.00112,449943872.81644,   0.00189,276687467.62701,  -0.00012,   0.00227,   0.00010,-26743594.81057,   0.00000
346115649.10607,479036942.07795,78042932.73237,   0.00052,   0.00377,   0.00112,449157378.12800,   0.00189,276687467.62701,  -0.00012,   0.00227,   0.00010,-27530089.49901,   0.00000
346045191.08624,477933099.76727,77978879.98707,   0.00052,   0.00377,   0.00112,448355872.56528,   0.00189,276687467.62701,  -0.00012,   0.00227,   0.00010,-28331595.06173,   0.00000
345983273.43245,476820717.09055,77914827.24177,   0.00052,   0.00376,   0.00112,447551773.66951,   0.00189,276687467.62701,  -0.00012,   0.00227,   0.00010,-29135693.95750,   0.00000
345906410.13809,475701929.13930,77842234.13043,   0.00052,   0.00376,   0.00112,446736458.77674,   0.00189,276687467.62701,  -0.00012,   0.00227,   0.00010,-29951008.85027,   0.00000
345831681.93523,474559655.18144,77769641.01908,   0.00052,   0.00375,   0.00111,445906947.71307,   0.00189,276687467.62701,  -0.00012,   0.00227,   0.00010,-30780519.91394,   0.00000
345756953.73238,473417381.22358,77692777.72472,   0.00053,   0.00375,   0.00111,445076442.25999,   0.00189,276687467.62701,  -0.00012,   0.00227,   0.00010,-31611025.36702,   0.00000
345675820.25500,472260161.62514,77607374.06432,   0.00053,   0.00374,   0.00111,444231052.21396,   0.00189,276687467.62701,  -0.00012,   0.00227,   0.00010,-32456415.41305,   0.00000
345588281.50309,471087996.38614,77521970.40392,   0.00053,   0.00374,   0.00111,443375278.09912,   0.00189,276687467.62701,  -0.00012,   0.00227,   0.00010,-33312189.52789,   0.00000
345509283.11722,469907290.78110,77432296.56050,   0.00053,   0.00373,   0.00111,442514945.65944,   0.00189,276687467.62701,  -0.00012,   0.00227,   0.00010,-34172521.96757,   0.00000
345408933.81625,468705234.26096,77334082.35104,   0.00053,   0.00373,   0.00111,441631785.34018,   0.00189,276687467.62701,  -0.00012,   0.00227,   0.00010,-35055682.28683,   0.00000
345317124.88132,467494637.37477,77235868.14158,   0.00054,   0.00372,   0.00111,440746397.16909,   0.00189,276687467.62701,  -0.00012,   0.00227,   0.00010,-35941070.45792,   0.00000
345218910.67186,466269094.84802,77133383.74910,   0.00054,   0.00371,   0.00111,439848533.88209,   0.00189,276687467.62701,  -0.00012,   0.00227,   0.00010,-36838933.74492,   0.00000
345135642.10297,465049957.59580,77026629.17360,   0.00054,   0.00371,   0.00110,438957929.18051,   0.00189,276687467.62701,  -0.00012,   0.00227,   0.00010,-37729538.44650,   0.00000
345024617.34445,463794523.78791,76915604.41508,   0.00054,   0.00370,   0.00110,438035214.77225,   0.00189,276687467.62701,  -0.00012,   0.00227,   0.00010,-38652252.85476,   0.00000
344928538.22650,462545495.25454,76796039.29051,   0.00054,   0.00370,   0.00110,437117587.23948,   0.00189,276687467.62701,  -0.00012,   0.00227,   0.00010,-39569880.38752,   0.00000
344826053.83401,461281521.08061,76676474.16595,   0.00055,   0.00369,   0.00110,436189875.56335,   0.00189,276687467.62701,  -0.00012,   0.00227,   0.00010,-40497592.06366,   0.00000
344717164.16700,460002601.26611,76552638.85837,   0.00055,   0.00369,   0.00110,435249863.61120,   0.00189,276687467.62701,  -0.00012,   0.00227,   0.00010,-41437604.01581,   0.00000
344601869.22546,458708735.81103,76424533.36777,   0.00055,   0.00368,   0.00110,434297585.41115,   0.00189,276687467.62701,  -0.00012,   0.00227,   0.00010,-42389882.21586,   0.00000
344495114.64996,457406329.98992,76292157.69415,   0.00055,   0.00368,   0.00110,433341284.22980,   0.00189,276687467.62701,  -0.00012,   0.00227,   0.00010,-43346183.39721,   0.00000
344373414.43389,456097518.89428,76155511.83751,   0.00055,   0.00367,   0.00109,432376134.12817,   0.00189,276687467.62701,  -0.00012,   0.00227,   0.00010,-44311333.49884,   0.00000
344253849.30933,454765221.79202,76014595.79785,   0.00056,   0.00366,   0.00109,431395523.74225,   0.00189,276687467.62701,  -0.00012,   0.00227,   0.00010,-45291943.88476,   0.00000
344149229.82534,453439329.96430,75869409.57516,   0.00056,   0.00366,   0.00109,430422611.04171,   0.00189,276687467.62701,  -0.00012,   0.00227,   0.00010,-46264856.58529,   0.00000
344023259.42625,452092087.22148,75719953.16946,   0.00056,   0.00365,   0.00109,429429387.52691,   0.00189,276687467.62701,  -0.00012,   0.00227,   0.00010,-47258080.10010,   0.00000
343905829.39319,450736304.11261,75566226.58074,   0.00056,   0.00365,   0.00109,428432441.15170,   0.00189,276687467.62701,  -0.00012,   0.00227,   0.00010,-48255026.47531,   0.00000
343781994.08561,449365575.36318,75408229.80900,   0.00056,   0.00364,   0.00108,427423548.22349,   0.00189,276687467.62701,  -0.00012,   0.00227,   0.00010,-49263919.40352,   0.00000
343651753.50350,447979900.97317,75245962.85424,   0.00057,   0.00363,   0.00108,426402750.50214,   0.00189,276687467.62701,  -0.00012,   0.00227,   0.00010,-50284717.12487,   0.00000
343536458.56196,446600631.85770,75079425.71646,   0.00057,   0.00363,   0.00108,425389919.69110,   0.00189,276687467.62701,  -0.00012,   0.00227,   0.00010,-51297547.93591,   0.00000
343393407.43079,445185066.18655,74908618.39565,   0.00057,   0.00362,   0.00108,424345451.18004,   0.00189,276687467.62701,  -0.00012,   0.00227,   0.00010,-52342016.44697,   0.00000
343265301.94019,443775905.78994,74733540.89183,   0.00057,   0.00362,   0.00107,423309057.52618,   0.00189,276687467.62701,  -0.00012,   0.00227,   0.00010,-53378410.10083,   0.00000
343145736.81563,442358205.02728,74554193.20499,   0.00058,   0.00361,   0.00107,422269379.92532,   0.00189,276687467.62701,  -0.00012,   0.00227,   0.00010,-54418087.70169,   0.00000
343011226.05050,440934098.99010,74370575.33513,   0.00058,   0.00360,   0.00107,421221061.17079,   0.00189,276687467.62701,  -0.00012,   0.00227,   0.00010,-55466406.45622,   0.00000
342878850.37687,439486506.94630,74182687.28225,   0.00058,   0.00360,   0.00107,420158161.69983,   0.00189,276687467.62701,  -0.00012,   0.00227,   0.00010,-56529305.92718,   0.00000
342740069.42872,438023969.26194,73990529.04635,   0.00058,   0.00359,   0.00107,419083741.47583,   0.00189,276687467.62701,  -0.00012,   0.00227,   0.00010,-57603726.15118,   0.00000
342616234.12114,436567836.85210,73794100.62742,   0.00058,   0.00358,   0.00106,418017750.48271,   0.00189,276687467.62701,  -0.00012,   0.00227,   0.00010,-58669717.14430,   0.00000
342471047.89846,435090353.52717,73593402.02548,   0.00059,   0.00358,   0.00106,416931830.81069,   0.00189,276687467.62701,  -0.00012,   0.00227,   0.00010,-59755636.81631,   0.00000
342334402.04182,433604329.83619,73388433.24052,   0.00059,   0.00357,   0.00106,415843077.49114,   0.00189,276687467.62701,  -0.00012,   0.00227,   0.00010,-60844390.13587,   0.00000
342197756.18518,432118306.14522,73179194.27254,   0.00059,   0.00357,   0.00105,414754389.36518,   0.00189,276687467.62701,  -0.00012,   0.00227,   0.00010,-61933078.26183,   0.00000
342063245.42005,430608796.44763,72965685.12153,   0.00059,   0.00356,   0.00105,413651702.08986,   0.00189,276687467.62701,  -0.00012,   0.00227,   0.00010,-63035765.53715,   0.00000
341928734.65491,429099286.75005,72747905.78751,   0.00060,   0.00355,   0.00105,412549214.88441,   0.00189,276687467.62701,  -0.00012,   0.00227,   0.00010,-64138252.74259,   0.00000
341787818.61525,427574831.41189,72525856.27047,   0.00060,   0.00355,   0.00105,411435632.84057,   0.00189,276687467.62701,  -0.00012,   0.00227,   0.00010,-65251834.78644,   0.00000
341655442.94163,426041835.70770,72299536.57041,   0.00060,   0.00354,   0.00104,410319685.53718,   0.00189,276687467.62701,  -0.00012,   0.00227,   0.00010,-66367782.08982,   0.00000
341501716.35291,424487489.08840,72068946.68733,   0.00060,   0.00353,   0.00104,409184119.68256,   0.00189,276687467.62701,  -0.00012,   0.00227,   0.00010,-67503347.94445,   0.00000
341362935.40476,422939547.74363,71834086.62122,   0.00060,   0.00352,   0.00104,408057639.55516,   0.00189,276687467.62701,  -0.00012,   0.00227,   0.00010,-68629828.07185,   0.00000
341232694.82265,421383066.03283,71594956.37210,   0.00061,   0.00352,   0.00103,406929077.99014,   0.00189,276687467.62701,  -0.00012,   0.00227,   0.00010,-69758389.63686,   0.00000
341096048.96601,419811638.68145,71351555.93996,   0.00061,   0.00351,   0.00103,405789808.80943,   0.00189,276687467.62701,  -0.00012,   0.00227,   0.00010,-70897658.81758,   0.00000
340952997.83483,418225265.68950,71103885.32480,   0.00061,   0.00350,   0.00103,404639900.41932,   0.00189,276687467.62701,  -0.00012,   0.00227,   0.00010,-72047567.20769,   0.00000
340809946.70366,416638892.69756,70851944.52661,   0.00061,   0.00350,   0.00102,403490646.72565,   0.00189,276687467.62701,  -0.00012,   0.00227,   0.00010,-73196820.90136,   0.00000
340669030.66400,415029033.69900,70595733.54541,   0.00062,   0.00349,   0.00102,402328499.41741,   0.00189,276687467.62701,  -0.00012,   0.00227,   0.00010,-74358968.20960,   0.00000
340528114.62434,413419174.70044,70335252.38119,   0.00062,   0.00348,   0.00102,401167174.54434,   0.00189,276687467.62701,  -0.00012,   0.00227,   0.00010,-75520293.08267,   0.00000
340387198.58468,411809315.70189,70070501.03394,   0.00062,   0.00348,   0.00101,400006704.29605,   0.00189,276687467.62701,  -0.00012,   0.00227,   0.00010,-76680763.33096,   0.00000
340248417.63653,410175970.69672,69801479.50368,   0.00062,   0.00347,   0.00101,398833708.80830,   0.00189,276687467.62701,  -0.00012,   0.00227,   0.00010,-77853758.81871,   0.00000
340109636.68838,408542625.69155,69528187.79040,   0.00063,   0.00346,   0.00101,397661746.55331,   0.00189,276687467.62701,  -0.00012,   0.00227,   0.00010,-79025721.07370,   0.00000
339979396.10626,406900740.32035,69250625.89410,   0.00063,   0.00345,   0.00100,396488690.68473,   0.00189,276687467.62701,  -0.00012,   0.00227,   0.00010,-80198776.94227,   0.00000
339842750.24962,405243909.30857,68968793.81477,   0.00063,   0.00345,   0.00100,395305704.26997,   0.00189,276687467.62701,  -0.00012,   0.00227,   0.00010,-81381763.35703,   0.00000
339706104.39298,403587078.29679,68682691.55243,   0.00064,   0.00344,   0.00100,394123977.11267,   0.00189,276687467.62701,  -0.00012,   0.00227,   0.00010,-82563490.51434,   0.00000
339563053.26181,401915301.64445,68392319.10707,   0.00064,   0.00343,   0.00099,392932459.58552,   0.00189,276687467.62701,  -0.00012,   0.00227,   0.00010,-83755008.04149,   0.00000
339428542.49668,400234984.62606,68097676.47868,   0.00064,   0.00343,   0.00099,391740324.08934,   0.00189,276687467.62701,  -0.00012,   0.00227,   0.00010,-84947143.53767,   0.00000
339302572.09759,398546127.24163,67798763.66728,   0.00064,   0.00342,   0.00098,390547746.07359,   0.00189,276687467.62701,  -0.00012,   0.00227,   0.00010,-86139721.55342,   0.00000
339161656.05793,396850864.58267,67495580.67286,   0.00065,   0.00341,   0.00098,389347661.41739,   0.00189,276687467.62701,  -0.00012,   0.00227,   0.00010,-87339806.20962,   0.00000
339029280.38430,395147061.55768,67188127.49541,   0.00065,   0.00340,   0.00098,388147346.65938,   0.00189,276687467.62701,  -0.00012,   0.00227,   0.00010,-88540120.96763,   0.00000
338911850.35125,393449663.80721,66872133.95193,   0.00065,   0.00340,   0.00097,386955777.28649,   0.00189,276687467.62701,  -0.00012,   0.00227,   0.00010,-89731690.34052,   0.00000
338781609.76914,391722374.77560,66556140.40845,   0.00065,   0.00339,   0.00097,385746316.62110,   0.00189,276687467.62701,  -0.00012,   0.00227,   0.00010,-90941151.00591,   0.00000
338651369.18703,389995085.74399,66235876.68194,   0.00066,   0.00338,   0.00096,384538842.08591,   0.00189,276687467.62701,  -0.00012,   0.00227,   0.00010,-92148625.54110,   0.00000
338536074.24549,388274201.98691,65911342.77242,   0.00066,   0.00337,   0.00096,383342693.60569,   0.00189,276687467.62701,  -0.00012,   0.00227,   0.00010,-93344774.02132,   0.00000
338407968.75489,386523426.94870,65582538.67988,   0.00066,   0.00336,   0.00096,382126828.74431,   0.00189,276687467.62701,  -0.00012,   0.00227,   0.00010,-94560638.88270,   0.00000
338279863.26429,384772651.91048,65249464.40431,   0.00067,   0.00336,   0.00095,380913241.15520,   0.00189,276687467.62701,  -0.00012,   0.00227,   0.00010,-95774226.47181,   0.00000
338166703.41426,383028282.14679,64912119.94573,   0.00067,   0.00335,   0.00095,379711367.59640,   0.00189,276687467.62701,  -0.00012,   0.00227,   0.00010,-96976100.03061,   0.00000
338055678.65573,381260426.37649,64570505.30413,   0.00067,   0.00334,   0.00094,378499607.49595,   0.00189,276687467.62701,  -0.00012,   0.00227,   0.00010,-98187860.13106,   0.00000
337929708.25664,379486165.33166,64224620.47950,   0.00067,   0.00333,   0.00094,377281054.24179,   0.00189,276687467.62701,  -0.00012,   0.00227,   0.00010,-99406413.38522,   0.00000
337833629.13869,377724714.83589,63874465.47186,   0.00068,   0.00333,   0.00093,376084102.24900,   0.00189,276687467.62701,  -0.00012,   0.00227,   0.00010,-100603365.37801,   0.00000
337709793.83111,375926967.78446,63520040.28120,   0.00068,   0.00332,   0.00093,374858850.39972,   0.00189,276687467.62701,  -0.00012,   0.00227,   0.00010,-101828617.22729,   0.00000
337600904.16410,374135626.00755,63161344.90751,   0.00068,   0.00331,   0.00092,373646059.78373,   0.00189,276687467.62701,  -0.00012,   0.00227,   0.00010,-103041407.84328,   0.00000
337506960.13766,372350689.50517,62798379.35081,   0.00069,   0.00330,   0.00092,372445894.24982,   0.00189,276687467.62701,  -0.00012,   0.00227,   0.00010,-104241573.37718,   0.00000
337406610.83669,370550807.36222,62431143.61109,   0.00069,   0.00329,   0.00091,371238161.96072,   0.00189,276687467.62701,  -0.00012,   0.00227,   0.00010,-105449305.66629,   0.00000
337299856.26119,368735979.57870,62059637.68834,   0.00069,   0.00329,   0.00091,370022997.46027,   0.00189,276687467.62701,  -0.00012,   0.00227,   0.00010,-106664470.16674,   0.00000
337208047.32626,366927557.06971,61683861.58258,   0.00070,   0.00328,   0.00091,368820919.45588,   0.00189,276687467.62701,  -0.00012,   0.00227,   0.00010,-107866548.17113,   0.00000
337103427.84226,365089243.27958,61303815.29379,   0.00070,   0.00327,   0.00090,367601026.32107,   0.00189,276687467.62701,  -0.00012,   0.00227,   0.00010,-109086441.30594,   0.00000
337020159.27337,363272280.40455,60919498.82199,   0.00070,   0.00326,   0.00090,366405256.06983,   0.00189,276687467.62701,  -0.00012,   0.00227,   0.00010,-110282211.55718,   0.00000
336930485.42995,361440371.88896,60530912.16717,   0.00070,   0.00325,   0.00089,365202667.66842,   0.00189,276687467.62701,  -0.00012,   0.00227,   0.00010,-111484799.95859,   0.00000
336849351.95257,359599923.00732,60138055.32932,   0.00071,   0.00325,   0.00089,364003223.34686,   0.00189,276687467.62701,  -0.00012,   0.00227,   0.00010,-112684244.28015,   0.00000
336761813.20066,357744528.48511,59740928.30846,   0.00071,   0.00324,   0.00088,362797334.55669,   0.00189,276687467.62701,  -0.00012,   0.00227,   0.00010,-113890133.07032,   0.00000
336695625.36385,355910484.87800,59339531.10457,   0.00071,   0.00323,   0.00087,361616169.38520,   0.00189,276687467.62701,  -0.00012,   0.00227,   0.00010,-115071298.24180,   0.00000
336616626.97798,354046549.98975,58933863.71767,   0.00072,   0.00322,   0.00087,360418310.50186,   0.00189,276687467.62701,  -0.00012,   0.00227,   0.00010,-116269157.12515,   0.00000
336552574.23268,352189020.37603,58523926.14775,   0.00072,   0.00321,   0.00086,359234978.34603,   0.00189,276687467.62701,  -0.00012,   0.00227,   0.00010,-117452489.28098,   0.00000
336482116.21285,350316545.12174,58113988.57782,   0.00072,   0.00320,   0.00086,358047972.86878,   0.00189,276687467.62701,  -0.00012,   0.00227,   0.00010,-118639494.75823,   0.00000
336411658.19302,348444069.86745,57695510.64186,   0.00073,   0.00320,   0.00085,356863758.46674,   0.00189,276687467.62701,  -0.00012,   0.00227,   0.00010,-119823709.16027,   0.00000
336364686.17980,346569459.52165,57272762.52287,   0.00073,   0.00319,   0.00085,355694212.59203,   0.00189,276687467.62701,  -0.00012,   0.00227,   0.00010,-120993255.03498,   0.00000
336302768.52601,344688443.90132,56845744.22087,   0.00073,   0.00318,   0.00084,354519835.01986,   0.00189,276687467.62701,  -0.00012,   0.00227,   0.00010,-122167632.60715,   0.00000
336249391.23826,342798887.91495,56414455.73584,   0.00074,   0.00317,   0.00084,353350513.98461,   0.00189,276687467.62701,  -0.00012,   0.00227,   0.00010,-123336953.64240,   0.00000
336210959.59107,340915737.20311,55983167.25082,   0.00074,   0.00316,   0.00083,352198931.17872,   0.00189,276687467.62701,  -0.00012,   0.00227,   0.00010,-124488536.44828,   0.00000
336166122.66936,339017640.85070,55543338.39975,   0.00074,   0.00315,   0.00083,351040687.55488,   0.00189,276687467.62701,  -0.00012,   0.00227,   0.00010,-125646780.07213,   0.00000
336129826.11369,337111004.13225,55099239.36567,   0.00075,   0.00314,   0.00082,349888274.23382,   0.00189,276687467.62701,  -0.00012,   0.00227,   0.00010,-126799193.39319,   0.00000
336099934.83255,335219313.05437,54655140.33158,   0.00075,   0.00314,   0.00081,348754237.05082,   0.00189,276687467.62701,  -0.00012,   0.00227,   0.00010,-127933230.57619,   0.00000
336072178.64292,333304135.96988,54202500.93146,   0.00076,   0.00313,   0.00081,347614215.05458,   0.00189,276687467.62701,  -0.00012,   0.00227,   0.00010,-129073252.57243,   0.00000
336044422.45329,331388958.88539,53745591.34832,   0.00076,   0.00312,   0.00080,346480663.82587,   0.00189,276687467.62701,  -0.00012,   0.00227,   0.00010,-130206803.80114,   0.00000
336031611.90423,329480187.07543,53288681.76517,   0.00076,   0.00311,   0.00080,345366081.62002,   0.00189,276687467.62701,  -0.00012,   0.00227,   0.00010,-131321386.00699,   0.00000
336012396.08064,327556469.62490,52823231.81599,   0.00077,   0.00310,   0.00079,344246159.54439,   0.00189,276687467.62701,  -0.00012,   0.00227,   0.00010,-132441308.08262,   0.00000
336008125.89762,325639157.44891,52357781.86680,   0.00077,   0.00309,   0.00078,343145640.34242,   0.00189,276687467.62701,  -0.00012,   0.00227,   0.00010,-133541827.28458,   0.00000
335997450.44007,323706899.63234,51883791.55158,   0.00077,   0.00308,   0.00078,342040252.13823,   0.00189,276687467.62701,  -0.00012,   0.00227,   0.00010,-134647215.48878,   0.00000
335995315.34856,321766101.44972,51409801.23635,   0.00078,   0.00307,   0.00077,340944682.08602,   0.00189,276687467.62701,  -0.00012,   0.00227,   0.00010,-135742785.54098,   0.00000
336014531.17215,319846654.18222,50931540.73811,   0.00078,   0.00307,   0.00077,339877315.10687,   0.00189,276687467.62701,  -0.00012,   0.00227,   0.00010,-136810152.52014,   0.00000
336027341.72121,317912261.27413,50444739.87382,   0.00079,   0.00306,   0.00076,338805819.81268,   0.00189,276687467.62701,  -0.00012,   0.00227,   0.00010,-137881647.81433,   0.00000
336048692.63631,315969328.00001,49957939.00954,   0.00079,   0.00305,   0.00075,337744944.42111,   0.00189,276687467.62701,  -0.00012,   0.00227,   0.00010,-138942523.20590,   0.00000
336070043.55141,314026394.72589,49466867.96223,   0.00079,   0.00304,   0.00075,336692292.28384,   0.00189,276687467.62701,  -0.00012,   0.00227,   0.00010,-139995175.34317,   0.00000
336099934.83255,312074921.08573,48971526.73191,   0.00080,   0.00303,   0.00074,335648913.62357,   0.00189,276687467.62701,  -0.00012,   0.00227,   0.00010,-141038554.00343,   0.00000
336129826.11369,310123447.44557,48471915.31856,   0.00080,   0.00302,   0.00073,334614183.67881,   0.00189,276687467.62701,  -0.00012,   0.00227,   0.00010,-142073283.94819,   0.00000
336174663.03540,308178379.07994,47968033.72220,   0.00081,   0.00301,   0.00073,333599087.88070,   0.00189,276687467.62701,  -0.00012,   0.00227,   0.00010,-143088379.74631,   0.00000
336228040.32316,306224770.34827,47459881.94281,   0.00081,   0.00300,   0.00072,332594154.82517,   0.00189,276687467.62701,  -0.00012,   0.00227,   0.00010,-144093312.80184,   0.00000
336281417.61091,304271161.61660,46947459.98041,   0.00081,   0.00299,   0.00071,331598531.43704,   0.00189,276687467.62701,  -0.00012,   0.00227,   0.00010,-145088936.18996,   0.00000
336349740.53923,302323958.15946,46430767.83498,   0.00082,   0.00299,   0.00071,330623331.53835,   0.00189,276687467.62701,  -0.00012,   0.00227,   0.00010,-146064136.08866,   0.00000
336411658.19302,300361809.06175,45909805.50653,   0.00082,   0.00298,   0.00070,329648201.25650,   0.00189,276687467.62701,  -0.00012,   0.00227,   0.00010,-147039266.37050,   0.00000
336482116.21285,298391119.59800,45384572.99507,   0.00083,   0.00297,   0.00069,328684465.41083,   0.00189,276687467.62701,  -0.00012,   0.00227,   0.00010,-148003002.21618,   0.00000
336573925.14778,296441781.04935,44859340.48360,   0.00083,   0.00296,   0.00069,327753328.13167,   0.00189,276687467.62701,  -0.00012,   0.00227,   0.00010,-148934139.49534,   0.00000
336659328.80818,294477496.86013,44325567.60610,   0.00083,   0.00295,   0.00068,326821313.90004,   0.00189,276687467.62701,  -0.00012,   0.00227,   0.00010,-149866153.72697,   0.00000
336753272.83462,292504672.30487,43791794.72859,   0.00084,   0.00294,   0.00067,325903372.52563,   0.00189,276687467.62701,  -0.00012,   0.00227,   0.00010,-150784095.10138,   0.00000
336853622.13559,290546793.39018,43249481.48505,   0.00084,   0.00293,   0.00067,325004023.18740,   0.00189,276687467.62701,  -0.00012,   0.00227,   0.00010,-151683444.43961,   0.00000
336962511.80260,288580374.10945,42707168.24150,   0.00085,   0.00292,   0.00066,324119276.84456,   0.00189,276687467.62701,  -0.00012,   0.00227,   0.00010,-152568190.78245,   0.00000
337079941.83565,286605414.46268,42160584.81494,   0.00085,   0.00291,   0.00065,323247829.20571,   0.00189,276687467.62701,  -0.00012,   0.00227,   0.00010,-153439638.42130,   0.00000
337197371.86871,284630454.81591,41609731.20535,   0.00086,   0.00290,   0.00064,322388013.54749,   0.00189,276687467.62701,  -0.00012,   0.00227,   0.00010,-154299454.07952,   0.00000
337329747.54233,282661900.44367,41050337.22972,   0.00086,   0.00289,   0.00064,321549734.22928,   0.00189,276687467.62701,  -0.00012,   0.00227,   0.00010,-155137733.39773,   0.00000
337462123.21595,280693346.07143,40490943.25410,   0.00086,   0.00289,   0.00063,320725140.97457,   0.00189,276687467.62701,  -0.00012,   0.00227,   0.00010,-155962326.65244,   0.00000
337617984.89618,278722656.60768,39927279.09545,   0.00087,   0.00288,   0.00062,319926560.65245,   0.00189,276687467.62701,  -0.00012,   0.00227,   0.00010,-156760906.97456,   0.00000
337758900.93584,276745561.86940,39363614.93681,   0.00087,   0.00287,   0.00061,319130673.71000,   0.00189,276687467.62701,  -0.00012,   0.00227,   0.00010,-157556793.91701,   0.00000
337929708.25664,274781277.68018,38791410.41212,   0.00088,   0.00286,   0.00061,318368971.24312,   0.00189,276687467.62701,  -0.00012,   0.00227,   0.00010,-158318496.38388,   0.00000
338100515.57744,272816993.49096,38214935.70441,   0.00088,   0.00285,   0.00060,317620289.56960,   0.00189,276687467.62701,  -0.00012,   0.00227,   0.00010,-159067178.05741,   0.00000
338279863.26429,270844168.93570,37638460.99671,   0.00089,   0.00284,   0.00059,316889038.21634,   0.00189,276687467.62701,  -0.00012,   0.00227,   0.00010,-159798429.41067,   0.00000
338459210.95113,268871344.38044,37053445.92296,   0.00089,   0.00283,   0.00058,316169776.86763,   0.00189,276687467.62701,  -0.00012,   0.00227,   0.00010,-160517690.75937,   0.00000
338662044.64458,266896384.73367,36468430.84922,   0.00090,   0.00282,   0.00058,315480307.86471,   0.00189,276687467.62701,  -0.00012,   0.00227,   0.00010,-161207159.76230,   0.00000
338856337.97199,264929965.45294,35879145.59245,   0.00090,   0.00281,   0.00057,314801915.06976,   0.00189,276687467.62701,  -0.00012,   0.00227,   0.00010,-161885552.55725,   0.00000
339074117.30601,262961411.08070,35285590.15266,   0.00091,   0.00280,   0.00056,314152464.59950,   0.00189,276687467.62701,  -0.00012,   0.00227,   0.00010,-162535003.02751,   0.00000
339291896.64004,260992856.70846,34687764.52986,   0.00091,   0.00279,   0.00055,313517501.96848,   0.00189,276687467.62701,  -0.00012,   0.00227,   0.00010,-163169965.65853,   0.00000
339524621.61463,259030707.61075,34085668.72403,   0.00092,   0.00278,   0.00055,312909046.87603,   0.00189,276687467.62701,  -0.00012,   0.00227,   0.00010,-163778420.75098,   0.00000
339765886.95526,257060018.14699,33479302.73519,   0.00092,   0.00277,   0.00054,312318870.60612,   0.00189,276687467.62701,  -0.00012,   0.00227,   0.00010,-164368597.02089,   0.00000
340007152.29589,255089328.68324,32872936.74634,   0.00093,   0.00276,   0.00053,311745285.29676,   0.00189,276687467.62701,  -0.00012,   0.00227,   0.00010,-164942182.33025,   0.00000
340263363.27710,253125044.49402,32258030.39145,   0.00093,   0.00275,   0.00052,311197697.84455,   0.00189,276687467.62701,  -0.00012,   0.00227,   0.00010,-165489769.78246,   0.00000
340519574.25830,251160760.30480,31643124.03657,   0.00094,   0.00274,   0.00051,310667047.97410,   0.00189,276687467.62701,  -0.00012,   0.00227,   0.00010,-166020419.65291,   0.00000
340805676.52064,249209286.66464,31023947.49866,   0.00094,   0.00274,   0.00051,310176230.75733,   0.00189,276687467.62701,  -0.00012,   0.00227,   0.00010,-166511236.86968,   0.00000
341091778.78299,247257813.02448,30400500.77773,   0.00095,   0.00273,   0.00050,309701455.81687,   0.00189,276687467.62701,  -0.00012,   0.00227,   0.00010,-166986011.81014,   0.00000
341371475.77080,245291393.74375,29772783.87379,   0.00095,   0.00272,   0.00049,309234738.05071,   0.00189,276687467.62701,  -0.00012,   0.00227,   0.00010,-167452729.57630,   0.00000
341681064.03975,243337785.01208,29140796.78682,   0.00096,   0.00271,   0.00048,308808795.12415,   0.00189,276687467.62701,  -0.00012,   0.00227,   0.00010,-167878672.50286,   0.00000
341990652.30871,241384176.28041,28504539.51683,   0.00096,   0.00270,   0.00047,308399612.90697,   0.00189,276687467.62701,  -0.00012,   0.00227,   0.00010,-168287854.72004,   0.00000
342315186.21823,239436972.82327,27868282.24685,   0.00097,   0.00269,   0.00047,308020717.15558,   0.00189,276687467.62701,  -0.00012,   0.00227,   0.00010,-168666750.47143,   0.00000
342654665.76832,237496174.64066,27223484.61082,   0.00097,   0.00268,   0.00046,307670009.81907,   0.00189,276687467.62701,  -0.00012,   0.00227,   0.00010,-169017457.80794,   0.00000
342987740.04389,235540430.81748,26578686.97479,   0.00098,   0.00267,   0.00045,307329927.14501,   0.00189,276687467.62701,  -0.00012,   0.00227,   0.00010,-169357540.48200,   0.00000
343342165.23455,233606037.90940,25929619.15575,   0.00098,   0.00266,   0.00044,307027451.47085,   0.00189,276687467.62701,  -0.00012,   0.00227,   0.00010,-169660016.15616,   0.00000
343705130.79125,231663104.63528,25276281.15368,   0.00099,   0.00265,   0.00043,306747264.81289,   0.00189,276687467.62701,  -0.00012,   0.00227,   0.00010,-169940202.81411,   0.00000
344068096.34796,229720171.36116,24622943.15161,   0.00099,   0.00264,   0.00042,306486048.60595,   0.00189,276687467.62701,  -0.00012,   0.00227,   0.00010,-170201419.02106,   0.00000
344460953.18580,227790048.63610,23961064.78351,   0.00100,   0.00263,   0.00041,306266673.21887,   0.00189,276687467.62701,  -0.00012,   0.00227,   0.00010,-170420794.40814,   0.00000
344860215.29817,225874871.55161,23299186.41540,   0.00101,   0.00262,   0.00041,306074051.69841,   0.00189,276687467.62701,  -0.00012,   0.00227,   0.00010,-170613415.92860,   0.00000
345246666.86149,223929803.18598,22633037.86427,   0.00101,   0.00261,   0.00040,305884884.85355,   0.00189,276687467.62701,  -0.00012,   0.00227,   0.00010,-170802582.77346,   0.00000
345669414.98047,222012491.00998,21962619.13013,   0.00102,   0.00260,   0.00039,305746680.51965,   0.00189,276687467.62701,  -0.00012,   0.00227,   0.00010,-170940787.10736,   0.00000
346092163.09946,220095178.83398,21287930.21296,   0.00102,   0.00259,   0.00038,305627198.54860,   0.00189,276687467.62701,  -0.00012,   0.00227,   0.00010,-171060269.07841,   0.00000
346529856.85901,218184271.93251,20608971.11277,   0.00103,   0.00258,   0.00037,305539101.85567,   0.00189,276687467.62701,  -0.00012,   0.00227,   0.00010,-171148365.77134,   0.00000
346982496.25914,216279770.30557,19930012.01259,   0.00103,   0.00257,   0.00036,305483409.20439,   0.00189,276687467.62701,  -0.00012,   0.00227,   0.00010,-171204058.42262,   0.00000
347443676.02530,214366728.31259,19246782.72938,   0.00104,   0.00256,   0.00035,305452376.07730,   0.00189,276687467.62701,  -0.00012,   0.00227,   0.00010,-171235091.54970,   0.00000
347911261.06600,212468631.96018,18555013.08013,   0.00105,   0.00255,   0.00034,305446887.35121,   0.00189,276687467.62701,  -0.00012,   0.00227,   0.00010,-171240580.27580,   0.00000
348393791.74726,210576940.88230,17867513.61390,   0.00105,   0.00254,   0.00034,305474921.06405,   0.00189,276687467.62701,  -0.00012,   0.00227,   0.00010,-171212546.56296,   0.00000
348884862.79457,208676709.43838,17171473.78164,   0.00106,   0.00254,   0.00033,305527494.57927,   0.00189,276687467.62701,  -0.00012,   0.00227,   0.00010,-171159973.04774,   0.00000
349397284.75697,206797828.90956,16471163.76635,   0.00106,   0.00253,   0.00032,305619211.48722,   0.00189,276687467.62701,  -0.00012,   0.00227,   0.00010,-171068256.13979,   0.00000
349903301.44485,204904002.74017,15770853.75106,   0.00107,   0.00252,   0.00031,305724619.79208,   0.00189,276687467.62701,  -0.00012,   0.00227,   0.00010,-170962847.83493,   0.00000
350430669.04782,203031527.48588,15066273.55275,   0.00108,   0.00251,   0.00030,305869185.67285,   0.00189,276687467.62701,  -0.00012,   0.00227,   0.00010,-170818281.95415,   0.00000
350966577.01684,201150511.86556,14357423.17143,   0.00108,   0.00250,   0.00029,306039812.43038,   0.00189,276687467.62701,  -0.00012,   0.00227,   0.00010,-170647655.19663,   0.00000
351523835.90095,199290847.16033,13648572.79010,   0.00109,   0.00249,   0.00028,306250251.48116,   0.00189,276687467.62701,  -0.00012,   0.00227,   0.00010,-170437216.14585,   0.00000
352096040.42564,197437587.72963,12931182.04273,   0.00109,   0.00248,   0.00027,306492864.95477,   0.00189,276687467.62701,  -0.00012,   0.00227,   0.00010,-170194602.67224,   0.00000
352661839.67580,195569382.65836,12213791.29537,   0.00110,   0.00247,   0.00026,306749781.44695,   0.00189,276687467.62701,  -0.00012,   0.00227,   0.00010,-169937686.18006,   0.00000
353248989.84105,193722528.50219,11492130.36498,   0.00111,   0.00246,   0.00025,307045903.00333,   0.00189,276687467.62701,  -0.00012,   0.00227,   0.00010,-169641564.62368,   0.00000
353851085.64688,191882079.62055,10770469.43459,   0.00111,   0.00245,   0.00024,307375422.14464,   0.00189,276687467.62701,  -0.00012,   0.00227,   0.00010,-169312045.48237,   0.00000
354468127.09327,190048036.01344,10040268.13816,   0.00112,   0.00244,   0.00023,307737483.39615,   0.00189,276687467.62701,  -0.00012,   0.00227,   0.00010,-168949984.23085,   0.00000
355100114.18024,188220397.68086,9310066.84174,   0.00113,   0.00243,   0.00022,308133017.57558,   0.00189,276687467.62701,  -0.00012,   0.00227,   0.00010,-168554450.05143,   0.00000
355732101.26721,186392759.34828,8575595.36229,   0.00113,   0.00242,   0.00021,308548737.11125,   0.00189,276687467.62701,  -0.00012,   0.00227,   0.00010,-168138730.51576,   0.00000
356379033.99474,184571526.29023,7841123.88284,   0.00114,   0.00241,   0.00021,308997882.86835,   0.00189,276687467.62701,  -0.00012,   0.00227,   0.00010,-167689584.75866,   0.00000
357040912.36285,182756698.50671,7098112.03735,   0.00114,   0.00240,   0.00020,309479813.81375,   0.00189,276687467.62701,  -0.00012,   0.00227,   0.00010,-167207653.81326,   0.00000
357717736.37153,180948275.99773,6355100.19186,   0.00115,   0.00239,   0.00019,309995180.13419,   0.00189,276687467.62701,  -0.00012,   0.00227,   0.00010,-166692287.49282,   0.00000
358415911.29531,179161204.40384,5607818.16336,   0.00116,   0.00238,   0.00018,310549221.80159,   0.00189,276687467.62701,  -0.00012,   0.00227,   0.00010,-166138245.82542,   0.00000
359107680.94455,177359187.16938,4856265.95183,   0.00116,   0.00237,   0.00017,311117841.57315,   0.00189,276687467.62701,  -0.00012,   0.00227,   0.00010,-165569626.05386,   0.00000
359835747.14947,175584926.12455,4104713.74030,   0.00117,   0.00236,   0.00016,311738101.86315,   0.00189,276687467.62701,  -0.00012,   0.00227,   0.00010,-164949365.76386,   0.00000
360563813.35439,173810665.07972,3348891.34575,   0.00118,   0.00235,   0.00015,312378328.01435,   0.00189,276687467.62701,  -0.00012,   0.00227,   0.00010,-164309139.61266,   0.00000
361306825.19987,172042809.30942,2588798.76819,   0.00118,   0.00234,   0.00014,313051456.75787,   0.00189,276687467.62701,  -0.00012,   0.00227,   0.00010,-163636010.86914,   0.00000
362049837.04536,170274953.53913,1828706.19062,   0.00119,   0.00233,   0.00013,313744573.85678,   0.00189,276687467.62701,  -0.00012,   0.00227,   0.00010,-162942893.77023,   0.00000
362822740.17199,168519908.31789,1060073.24701,   0.00120,   0.00233,   0.00012,314483412.34765,   0.00189,276687467.62701,  -0.00012,   0.00227,   0.00010,-162204055.27936,   0.00000
363616994.21372,166786214.01175,295710.48642,   0.00121,   0.00232,   0.00011,315260083.39818,   0.00189,276687467.62701,  -0.00012,   0.00227,   0.00010,-161427384.22883,   0.00000
364404842.98092,165037574.06504,-477192.64021,   0.00121,   0.00231,   0.00010,316051391.89149,   0.00189,276687467.62701,  -0.00012,   0.00227,   0.00010,-160636075.73552,   0.00000
365214042.66322,163310285.03343,-1250095.76683,   0.00122,   0.00230,   0.00009,316880142.90714,   0.00189,276687467.62701,  -0.00012,   0.00227,   0.00010,-159807324.71987,   0.00000
366038187.98608,161589401.27636,-2027269.07648,   0.00123,   0.00229,   0.00008,317741290.18395,   0.00189,276687467.62701,  -0.00012,   0.00227,   0.00010,-158946177.44306,   0.00000
366877278.94952,159874922.79381,-2808712.56915,   0.00123,   0.00228,   0.00007,318634773.21184,   0.00189,276687467.62701,  -0.00012,   0.00227,   0.00010,-158052694.41517,   0.00000
367737720.82806,158181795.22636,-3594426.24484,   0.00124,   0.00227,   0.00006,319565108.40188,   0.00189,276687467.62701,  -0.00012,   0.00227,   0.00010,-157122359.22513,   0.00000
368591757.43207,156473722.01834,-4380139.92053,   0.00125,   0.00226,   0.00005,320509815.78671,   0.00189,276687467.62701,  -0.00012,   0.00227,   0.00010,-156177651.84030,   0.00000
369482090.59175,154793404.99996,-5165853.59621,   0.00126,   0.00225,   0.00004,321503780.28954,   0.00189,276687467.62701,  -0.00012,   0.00227,   0.00010,-155183687.33747,   0.00000
370372423.75143,153113087.98157,-5960107.63794,   0.00126,   0.00224,   0.00003,322516748.60715,   0.00189,276687467.62701,  -0.00012,   0.00227,   0.00010,-154170719.01986,   0.00000
371284107.82621,151454121.87828,-6754361.67967,   0.00127,   0.00223,   0.00002,323565442.29127,   0.00189,276687467.62701,  -0.00012,   0.00227,   0.00010,-153122025.33574,   0.00000
372204332.26703,149786615.40895,-7552885.90442,   0.00128,   0.00222,   0.00001,324641350.10753,   0.00189,276687467.62701,  -0.00012,   0.00227,   0.00010,-152046117.51948,   0.00000
373145907.62295,148140459.85473,-8351410.12917,   0.00129,   0.00221,  -0.00001,325752507.32264,   0.00189,276687467.62701,  -0.00012,   0.00227,   0.00010,-150934960.30437,   0.00000
374108833.89397,146515655.21560,-9154204.53694,   0.00129,   0.00220,  -0.00002,326898844.11382,   0.00189,276687467.62701,  -0.00012,   0.00227,   0.00010,-149788623.51318,   0.00000
375065354.89046,144875904.93590,-9961269.12772,   0.00130,   0.00219,  -0.00003,328059135.24568,   0.00189,276687467.62701,  -0.00012,   0.00227,   0.00010,-148628332.38133,   0.00000
376058172.44262,143263910.84584,-10772603.90153,   0.00131,   0.00218,  -0.00004,329267185.89394,   0.00189,276687467.62701,  -0.00012,   0.00227,   0.00010,-147420281.73307,   0.00000
377050989.99478,141651916.75577,-11583938.67534,   0.00132,   0.00218,  -0.00005,330492484.08233,   0.00189,276687467.62701,  -0.00012,   0.00227,   0.00010,-146194983.54468,   0.00000
378073698.82808,140052733.21476,-12395273.44915,   0.00132,   0.00217,  -0.00006,331760701.95341,   0.00189,276687467.62701,  -0.00012,   0.00227,   0.00010,-144926765.67360,   0.00000
379102812.93591,138468495.31433,-13215148.58900,   0.00133,   0.00216,  -0.00007,333050433.64415,   0.00189,276687467.62701,  -0.00012,   0.00227,   0.00010,-143637033.98286,   0.00000
380146872.68431,136890662.68842,-14035023.72885,   0.00134,   0.00215,  -0.00008,334369685.67060,   0.00189,276687467.62701,  -0.00012,   0.00227,   0.00010,-142317781.95641,   0.00000
381190932.43271,135312830.06251,-14854898.86870,   0.00135,   0.00214,  -0.00009,335705330.83048,   0.00189,276687467.62701,  -0.00012,   0.00227,   0.00010,-140982136.79652,   0.00000
382271288.73678,133762753.62624,-15679044.19156,   0.00136,   0.00213,  -0.00010,337087005.85569,   0.00189,276687467.62701,  -0.00012,   0.00227,   0.00010,-139600461.77132,   0.00000
383366590.68142,132219082.46449,-16507459.69745,   0.00136,   0.00212,  -0.00011,338498062.66506,   0.00189,276687467.62701,  -0.00012,   0.00227,   0.00010,-138189404.96195,   0.00000
384461892.62606,130675411.30275,-17340145.38636,   0.00137,   0.00211,  -0.00012,339925485.91960,   0.00189,276687467.62701,  -0.00012,   0.00227,   0.00010,-136761981.70741,   0.00000
385593491.12638,129159496.33063,-18172831.07527,   0.00138,   0.00210,  -0.00013,341397437.24438,   0.00189,276687467.62701,  -0.00012,   0.00227,   0.00010,-135290030.38263,   0.00000
386725089.62669,127643581.35851,-19005516.76418,   0.00139,   0.00209,  -0.00014,342884575.87077,   0.00189,276687467.62701,  -0.00012,   0.00227,   0.00010,-133802891.75624,   0.00000
387871633.76757,126134071.66093,-19842472.63611,   0.00140,   0.00208,  -0.00015,344400277.33344,   0.00189,276687467.62701,  -0.00012,   0.00227,   0.00010,-132287190.29357,   0.00000
389039528.82355,124645912.87844,-20683698.69106,   0.00140,   0.00207,  -0.00017,345947420.20019,   0.00189,276687467.62701,  -0.00012,   0.00227,   0.00010,-130740047.42682,   0.00000
390222369.52010,123164159.37049,-21529194.92902,   0.00141,   0.00207,  -0.00018,347522684.75698,   0.00189,276687467.62701,  -0.00012,   0.00227,   0.00010,-129164782.87003,   0.00000
391426561.13176,121703756.77763,-22374691.16699,   0.00142,   0.00206,  -0.00019,349127991.70991,   0.00189,276687467.62701,  -0.00012,   0.00227,   0.00010,-127559475.91710,   0.00000
392645698.38398,120249759.45931,-23220187.40496,   0.00143,   0.00205,  -0.00020,350760074.17525,   0.00189,276687467.62701,  -0.00012,   0.00227,   0.00010,-125927393.45176,   0.00000
393864835.63620,118795762.14098,-24069953.82595,   0.00144,   0.00204,  -0.00021,352406805.48906,   0.00189,276687467.62701,  -0.00012,   0.00227,   0.00010,-124280662.13795,   0.00000
395120269.44410,117369521.01229,-24923990.42996,   0.00145,   0.00203,  -0.00022,354096273.51638,   0.00189,276687467.62701,  -0.00012,   0.00227,   0.00010,-122591194.11063,   0.00000
396375703.25199,115943279.88359,-25778027.03397,   0.00145,   0.00202,  -0.00023,355799048.91773,   0.00189,276687467.62701,  -0.00012,   0.00227,   0.00010,-120888418.70927,   0.00000
397652487.97498,114538389.67000,-26636333.82100,   0.00146,   0.00201,  -0.00024,357531189.01466,   0.00189,276687467.62701,  -0.00012,   0.00227,   0.00010,-119156278.61235,   0.00000
398959163.97912,113146310.00546,-27498910.79105,   0.00147,   0.00200,  -0.00025,359302539.69009,   0.00189,276687467.62701,  -0.00012,   0.00227,   0.00010,-117384927.93692,   0.00000
400272245.25778,111769175.98150,-28361487.76110,   0.00148,   0.00199,  -0.00027,361088966.83038,   0.00189,276687467.62701,  -0.00012,   0.00227,   0.00010,-115598500.79663,   0.00000
401600272.17701,110398447.23207,-29224064.73114,   0.00149,   0.00199,  -0.00028,362900381.90365,   0.00189,276687467.62701,  -0.00012,   0.00227,   0.00010,-113787085.72336,   0.00000
402949650.01135,109049069.39773,-30090911.88421,   0.00150,   0.00198,  -0.00029,364739941.00862,   0.00189,276687467.62701,  -0.00012,   0.00227,   0.00010,-111947526.61839,   0.00000
404299027.84568,107699691.56340,-30962029.22030,   0.00151,   0.00197,  -0.00030,366592401.23299,   0.00189,276687467.62701,  -0.00012,   0.00227,   0.00010,-110095066.39402,   0.00000
405678296.96115,106363124.27812,-31833146.55639,   0.00151,   0.00196,  -0.00031,368481792.45918,   0.00189,276687467.62701,  -0.00012,   0.00227,   0.00010,-108205675.16783,   0.00000
407078916.99173,105047907.90795,-32704263.89248,   0.00152,   0.00195,  -0.00032,370397388.84316,   0.00189,276687467.62701,  -0.00012,   0.00227,   0.00010,-106290078.78385,   0.00000
408485942.29683,103747637.17835,-33583921.59461,   0.00153,   0.00194,  -0.00033,372328517.99100,   0.00189,276687467.62701,  -0.00012,   0.00227,   0.00010,-104358949.63601,   0.00000
409922858.88308,102460176.99780,-34459309.11372,   0.00154,   0.00193,  -0.00034,374294538.27497,   0.00189,276687467.62701,  -0.00012,   0.00227,   0.00010,-102392929.35203,   0.00000
411359775.46932,101172716.81726,-35338966.81585,   0.00155,   0.00192,  -0.00036,376272408.17740,   0.00189,276687467.62701,  -0.00012,   0.00227,   0.00010,-100415059.44960,   0.00000
412824448.24520,99921553.19239,-36222894.70100,   0.00156,   0.00192,  -0.00037,378278437.26340,   0.00189,276687467.62701,  -0.00012,   0.00227,   0.00010,-98409030.36361,   0.00000
414297661.38711,98661849.20147,-37106822.58615,   0.00157,   0.00191,  -0.00038,380305256.56860,   0.00189,276687467.62701,  -0.00012,   0.00227,   0.00010,-96382211.05841,   0.00000
415792225.44413,97423496.12566,-37995020.65431,   0.00158,   0.00190,  -0.00039,382357744.60060,   0.00189,276687467.62701,  -0.00012,   0.00227,   0.00010,-94329723.02641,   0.00000
417308140.41625,96206493.96495,-38883218.72248,   0.00159,   0.00189,  -0.00040,384434304.58386,   0.00189,276687467.62701,  -0.00012,   0.00227,   0.00010,-92253163.04315,   0.00000
418839001.02893,94995897.07877,-39775686.97367,   0.00160,   0.00188,  -0.00041,386534162.05179,   0.00189,276687467.62701,  -0.00012,   0.00227,   0.00010,-90153305.57522,   0.00000
420391212.55672,93806651.10768,-40668155.22486,   0.00161,   0.00187,  -0.00043,388657515.21112,   0.00189,276687467.62701,  -0.00012,   0.00227,   0.00010,-88029952.41589,   0.00000
421949829.35903,92632350.77717,-41564893.65907,   0.00162,   0.00186,  -0.00044,390792947.04196,   0.00189,276687467.62701,  -0.00012,   0.00227,   0.00010,-85894520.58505,   0.00000
423538337.44249,91470860.99572,-42461632.09328,   0.00163,   0.00186,  -0.00045,392962079.47379,   0.00189,276687467.62701,  -0.00012,   0.00227,   0.00010,-83725388.15322,   0.00000
425126845.52595,90309371.21427,-43358370.52749,   0.00163,   0.00185,  -0.00046,395139879.14991,   0.00189,276687467.62701,  -0.00012,   0.00227,   0.00010,-81547588.47710,   0.00000
426751650.16507,89175637.62245,-44259379.14472,   0.00164,   0.00184,  -0.00047,397353863.30186,   0.00189,276687467.62701,  -0.00012,   0.00227,   0.00010,-79333604.32515,   0.00000
428382860.07873,88056849.67119,-45164657.94497,   0.00165,   0.00183,  -0.00048,399579000.26583,   0.00189,276687467.62701,  -0.00012,   0.00227,   0.00010,-77108467.36118,   0.00000
430029015.63296,86944466.99447,-46069936.74522,   0.00166,   0.00182,  -0.00050,401824549.13303,   0.00189,276687467.62701,  -0.00012,   0.00227,   0.00010,-74862918.49398,   0.00000
431696522.10228,85853435.23285,-46975215.54547,   0.00167,   0.00181,  -0.00051,404091676.18569,   0.00189,276687467.62701,  -0.00012,   0.00227,   0.00010,-72595791.44132,   0.00000
433385379.48671,84783754.38633,-47884764.52874,   0.00168,   0.00181,  -0.00052,406381575.14038,   0.00189,276687467.62701,  -0.00012,   0.00227,   0.00010,-70305892.48663,   0.00000
435089182.51171,83720478.81434,-48794313.51201,   0.00169,   0.00180,  -0.00053,408691198.48379,   0.00189,276687467.62701,  -0.00012,   0.00227,   0.00010,-67996269.14322,   0.00000
436799390.81124,82672148.88292,-49708132.67830,   0.00170,   0.00179,  -0.00054,411010879.54939,   0.00189,276687467.62701,  -0.00012,   0.00227,   0.00010,-65676588.07762,   0.00000
438545895.66644,81651575.14113,-50621951.84459,   0.00171,   0.00178,  -0.00055,413363357.35250,   0.00189,276687467.62701,  -0.00012,   0.00227,   0.00010,-63324110.27451,   0.00000
440307346.16220,80637406.67387,-51540041.19390,   0.00172,   0.00177,  -0.00057,415736497.60915,   0.00189,276687467.62701,  -0.00012,   0.00227,   0.00010,-60950970.01786,   0.00000
442075201.93250,79638183.84718,-52458130.54320,   0.00173,   0.00177,  -0.00058,418117477.10975,   0.00189,276687467.62701,  -0.00012,   0.00227,   0.00010,-58569990.51726,   0.00000
443858003.34337,78645366.29502,-53376219.89251,   0.00174,   0.00176,  -0.00059,420517191.16556,   0.00189,276687467.62701,  -0.00012,   0.00227,   0.00010,-56170276.46145,   0.00000
445677101.30991,77680304.93249,-54298579.42484,   0.00175,   0.00175,  -0.00060,422950330.95849,   0.00189,276687467.62701,  -0.00012,   0.00227,   0.00010,-53737136.66852,   0.00000
447502604.55098,76730189.21053,-55220938.95717,   0.00176,   0.00174,  -0.00061,425390643.75551,   0.00189,276687467.62701,  -0.00012,   0.00227,   0.00010,-51296823.87150,   0.00000
449349458.70715,75801424.40367,-56143298.48950,   0.00177,   0.00173,  -0.00063,427850058.84405,   0.00189,276687467.62701,  -0.00012,   0.00227,   0.00010,-48837408.78296,   0.00000
451211258.50389,74879064.87134,-57069928.20485,   0.00178,   0.00173,  -0.00064,430329091.71516,   0.00189,276687467.62701,  -0.00012,   0.00227,   0.00010,-46358375.91185,   0.00000
453079463.57516,73971650.97958,-58000828.10322,   0.00179,   0.00172,  -0.00065,432816424.94085,   0.00189,276687467.62701,  -0.00012,   0.00227,   0.00010,-43871042.68616,   0.00000
454977559.92757,73077047.63688,-58927457.81857,   0.00180,   0.00171,  -0.00066,435331774.58498,   0.00189,276687467.62701,  -0.00012,   0.00227,   0.00010,-41355693.04203,   0.00000
456903412.46961,72218740.84985,-59862627.89996,   0.00181,   0.00170,  -0.00067,437869716.21137,   0.00189,276687467.62701,  -0.00012,   0.00227,   0.00010,-38817751.41564,   0.00000
458829265.01165,71360434.06282,-60793527.79833,   0.00183,   0.00170,  -0.00069,440411068.81561,   0.00189,276687467.62701,  -0.00012,   0.00227,   0.00010,-36276398.81140,   0.00000
460770063.19426,70508532.55032,-61728697.87972,   0.00184,   0.00169,  -0.00070,442971308.01585,   0.00189,276687467.62701,  -0.00012,   0.00227,   0.00010,-33716159.61116,   0.00000
462753563.20707,69699332.86802,-62663867.96111,   0.00185,   0.00168,  -0.00071,445562031.22438,   0.00189,276687467.62701,  -0.00012,   0.00227,   0.00010,-31125436.40263,   0.00000
464737063.21988,68890133.18573,-63603308.22552,   0.00186,   0.00167,  -0.00072,448159271.52154,   0.00189,276687467.62701,  -0.00012,   0.00227,   0.00010,-28528196.10547,   0.00000
466741914.14779,68102284.41853,-64538478.30691,   0.00187,   0.00167,  -0.00074,450771993.94432,   0.00189,276687467.62701,  -0.00012,   0.00227,   0.00010,-25915473.68269,   0.00000
468768115.99080,67335786.56643,-65482188.75434,   0.00188,   0.00166,  -0.00075,453405487.44667,   0.00189,276687467.62701,  -0.00012,   0.00227,   0.00010,-23281980.18034,   0.00000
470794317.83381,66569288.71433,-66421629.01875,   0.00189,   0.00165,  -0.00076,456041462.41334,   0.00189,276687467.62701,  -0.00012,   0.00227,   0.00010,-20646005.21366,   0.00000
472856816.23249,65830547.05186,-67365339.46618,   0.00190,   0.00164,  -0.00077,458708048.30204,   0.00189,276687467.62701,  -0.00012,   0.00227,   0.00010,-17979419.32497,   0.00000
474940665.54627,65113156.30450,-68309049.91361,   0.00191,   0.00164,  -0.00078,461391213.63838,   0.00189,276687467.62701,  -0.00012,   0.00227,   0.00010,-15296253.98863,   0.00000
477030920.13458,64410711.19770,-69257030.54406,   0.00192,   0.00163,  -0.00080,464080754.27841,   0.00189,276687467.62701,  -0.00012,   0.00227,   0.00010,-12606713.34859,   0.00000
479142525.63800,63729617.00600,-70205011.17451,   0.00193,   0.00162,  -0.00081,466786551.95960,   0.00189,276687467.62701,  -0.00012,   0.00227,   0.00010,-9900915.66741,   0.00000
481269076.78198,63054928.08883,-71152991.80496,   0.00194,   0.00161,  -0.00082,469507940.21336,   0.00189,276687467.62701,  -0.00012,   0.00227,   0.00010,-7179527.41365,   0.00000
483416978.84106,62401590.08677,-72105242.61843,   0.00195,   0.00161,  -0.00083,472247227.37327,   0.00189,276687467.62701,  -0.00012,   0.00227,   0.00010,-4440240.25374,   0.00000
485586231.81524,61769602.99980,-73053223.24888,   0.00197,   0.00160,  -0.00085,475000340.95044,   0.00189,276687467.62701,  -0.00012,   0.00227,   0.00010,-1687126.67657,   0.00000
486920436.42699,61397690.21329,-73633199.13274,   0.00197,   0.00160,  -0.00085,476687467.53305,   0.00189,276687467.62701,  -0.00012,   0.00227,   0.00010,  -0.09396,   0.00000
486720522.70339,61122131.62834,-73828625.07523,   0.00198,   0.00159,  -0.00086,476687467.53305,   0.00190,276692127.04014,  -0.00012,   0.00226,   0.00010,  -0.00000,   2.00000
486208912.42257,60421693.51564,-74329100.79071,   0.00199,   0.00159,  -0.00087,479467873.36793,   0.00191,276704066.84706,  -0.00011,   0.00226,   0.00010,  -0.00000,   2.00000
485718704.31494,59766641.15455,-74818269.97980,   0.00200,   0.00158,  -0.00088,479504969.47765,   0.00192,276716116.97293,  -0.00009,   0.00225,   0.00009,   0.00000,   2.00000
485227222.25070,59114917.32317,-75308039.83480,   0.00201,   0.00157,  -0.00090,479521615.61985,   0.00193,276728188.93813,  -0.00008,   0.00225,   0.00008,   0.00000,   2.00000
484743971.94636,58487405.74396,-75796370.61192,   0.00202,   0.00157,  -0.00091,479550450.19134,   0.00194,276740334.97665,  -0.00007,   0.00224,   0.00008,  -0.00000,   2.00000
484272954.33062,57884123.98870,-76275446.33966,   0.00203,   0.00156,  -0.00092,479575183.51733,   0.00195,276752536.97924,  -0.00006,   0.00224,   0.00007,  -0.00000,   2.00000
483804237.39835,57290007.09182,-76753171.07441,   0.00204,   0.00155,  -0.00093,479603627.58023,   0.00196,276764810.63047,  -0.00005,   0.00223,   0.00006,   0.00000,   2.00000
483351990.27918,56734800.31962,-77225524.08604,   0.00206,   0.00155,  -0.00095,479630660.73425,   0.00198,276777149.33988,  -0.00003,   0.00223,   0.00006,   0.00000,   2.00000
482900557.23446,56182517.61712,-77694641.96823,   0.00207,   0.00154,  -0.00096,479645251.07472,   0.00199,276789499.22447,  -0.00002,   0.00222,   0.00005,   0.00000,   2.00000
482461205.64888,55660160.27641,-78160347.34788,   0.00208,   0.00153,  -0.00097,479685722.47984,   0.00200,276801971.53245,  -0.00001,   0.00222,   0.00005,   0.00000,   2.00000
482036942.85099,55170335.68116,-78618863.39451,   0.00209,   0.00153,  -0.00098,479698775.12242,   0.00201,276814447.46235,   0.00000,   0.00221,   0.00004,   0.00000,   2.00000
481609025.92748,54674330.62226,-79076113.20547,   0.00210,   0.00152,  -0.00100,479726890.53846,   0.00202,276826991.90444,   0.00002,   0.00221,   0.00003,   0.00000,   2.00000
481197900.35573,54216818.06597,-79528064.87000,   0.00211,   0.00151,  -0.00101,479753710.47381,   0.00203,276839598.77149,   0.00003,   0.00220,   0.00003,  -0.00000,   2.00000
480791756.15929,53776562.10478,-79980707.97274,   0.00213,   0.00151,  -0.00102,479770653.21661,   0.00205,276852225.15098,   0.00004,   0.00220,   0.00002,   0.00000,   2.00000
480400017.04536,53365818.43662,-80426043.56011,   0.00214,   0.00150,  -0.00103,479808848.22362,   0.00206,276864962.34908,   0.00006,   0.00219,   0.00001,   0.00000,   2.00000
480011259.05009,52957317.41521,-80864417.04013,   0.00215,   0.00149,  -0.00105,479821241.19548,   0.00207,276877698.68594,   0.00007,   0.00219,   0.00000,   0.00000,   2.00000
479631236.39153,52571998.12796,-81301470.41002,   0.00216,   0.00149,  -0.00106,479849850.49087,   0.00208,276890503.91095,   0.00008,   0.00218,  -0.00000,   0.00000,   2.00000
479266128.76157,52224604.46218,-81737149.73756,   0.00217,   0.00148,  -0.00107,479878687.29648,   0.00209,276903378.49956,   0.00009,   0.00218,  -0.00001,   0.00000,   2.00000
478907780.98555,51885296.68375,-82163828.34294,   0.00219,   0.00147,  -0.00108,479902705.26642,   0.00211,276916301.31898,   0.00011,   0.00217,  -0.00002,   0.00000,   2.00000
478554437.43571,51562638.00527,-82591314.09957,   0.00220,   0.00147,  -0.00110,479919653.29415,   0.00212,276929241.60533,   0.00012,   0.00217,  -0.00002,   0.00000,   2.00000
478211987.96664,51262767.44695,-83013639.97122,   0.00221,   0.00146,  -0.00111,479946032.77531,   0.00213,276942239.78975,   0.00013,   0.00216,  -0.00003,   0.00000,   2.00000
477878063.67144,50976916.70379,-83428735.01961,   0.00222,   0.00146,  -0.00112,479983867.07168,   0.00214,276955344.87995,   0.00015,   0.00216,  -0.00004,   0.00000,   2.00000
477553639.37085,50716109.89770,-83842952.90395,   0.00223,   0.00145,  -0.00113,479987157.44025,   0.00216,276968407.42138,   0.00016,   0.00215,  -0.00004,  -0.00000,   2.00000
477243984.47448,50483981.31942,-84249921.59571,   0.00225,   0.00144,  -0.00115,480025100.70596,   0.00217,276981576.74754,   0.00017,   0.00214,  -0.00005,   0.00000,   2.00000
476943115.80221,50274133.86300,-84655632.81852,   0.00226,   0.00144,  -0.00116,480053707.64894,   0.00218,276994812.02800,   0.00019,   0.00214,  -0.00006,  -0.00000,   2.00000
476643101.33694,50065397.40543,-85058447.32961,   0.00227,   0.00143,  -0.00117,480068287.31657,   0.00219,277008052.51782,   0.00020,   0.00213,  -0.00007,   0.00000,   2.00000
476362431.55569,49893732.77794,-85452340.21578,   0.00228,   0.00143,  -0.00119,480092482.68049,   0.00221,277021339.40500,   0.00021,   0.00213,  -0.00007,   0.00000,   2.00000
476080406.66085,49722931.68753,-85847225.72742,   0.00229,   0.00142,  -0.00120,480109319.13387,   0.00222,277034640.77473,   0.00023,   0.00212,  -0.00008,   0.00000,   2.00000
475811065.05632,49580311.21477,-86238685.39949,   0.00231,   0.00141,  -0.00121,480149532.98102,   0.00223,277048057.10071,   0.00024,   0.00212,  -0.00009,   0.00000,   2.00000
475557157.49021,49468153.34166,-86623459.24375,   0.00232,   0.00141,  -0.00122,480162123.52226,   0.00224,277061468.70169,   0.00025,   0.00211,  -0.00010,   0.00000,   2.00000
475307929.94763,49362778.39827,-87003257.49534,   0.00233,   0.00140,  -0.00124,480188270.16219,   0.00226,277074933.93570,   0.00027,   0.00211,  -0.00011,   0.00000,   2.00000
475067416.80998,49278977.22925,-87381863.20999,   0.00234,   0.00140,  -0.00125,480216923.97873,   0.00227,277088463.23305,   0.00028,   0.00210,  -0.00011,   0.00000,   2.00000
474837805.90857,49216649.53420,-87755470.63738,   0.00236,   0.00139,  -0.00126,480243268.32246,   0.00228,277102046.22576,   0.00029,   0.00209,  -0.00012,   0.00000,   2.00000
474623558.71108,49184308.21902,-88122510.53116,   0.00237,   0.00139,  -0.00127,480255827.61769,   0.00229,277115623.14165,   0.00031,   0.00209,  -0.00013,   0.00000,   2.00000
474411682.87226,49158252.23320,-88488424.66220,   0.00238,   0.00138,  -0.00129,480284355.05747,   0.00231,277129262.71284,   0.00032,   0.00208,  -0.00014,   0.00000,   2.00000
474210646.99933,49153323.28029,-88849389.29409,   0.00240,   0.00138,  -0.00130,480310697.32130,   0.00232,277142955.11503,   0.00033,   0.00208,  -0.00015,   0.00000,   2.00000
474016421.79935,49163153.25258,-89207673.80833,   0.00241,   0.00137,  -0.00131,480325501.40157,   0.00233,277156650.36015,   0.00035,   0.00207,  -0.00015,   0.00000,   2.00000
473830730.96351,49193862.09497,-89564808.04017,   0.00242,   0.00137,  -0.00133,480354244.24879,   0.00235,277170408.29841,   0.00036,   0.00207,  -0.00016,   0.00000,   2.00000
473658059.42272,49245374.78079,-89913241.14043,   0.00243,   0.00136,  -0.00134,480378215.12321,   0.00236,277184207.97037,   0.00037,   0.00206,  -0.00017,   0.00000,   2.00000
473496108.50746,49317533.81669,-90256789.82141,   0.00245,   0.00136,  -0.00135,480404591.40833,   0.00237,277198059.40162,   0.00039,   0.00205,  -0.00018,   0.00000,   2.00000
473338524.03069,49403946.26051,-90601512.92902,   0.00246,   0.00135,  -0.00136,480421888.79103,   0.00239,277211923.22542,   0.00040,   0.00205,  -0.00019,   0.00000,   2.00000
473193878.85214,49510811.02071,-90937590.66767,   0.00247,   0.00135,  -0.00138,480445861.38995,   0.00240,277225827.95610,   0.00042,   0.00204,  -0.00019,   0.00000,   2.00000
473057549.71945,49637936.49941,-91272580.39415,   0.00249,   0.00134,  -0.00139,480474723.59636,   0.00241,277239794.30510,   0.00043,   0.00204,  -0.00020,   0.00000,   2.00000
472930027.05851,49779028.46797,-91601270.78613,   0.00250,   0.00134,  -0.00140,480487209.61718,   0.00242,277253751.49638,   0.00044,   0.00203,  -0.00021,   0.00000,   2.00000
472810726.60786,49940155.53773,-91928891.30826,   0.00251,   0.00133,  -0.00142,480516108.12263,   0.00244,277267769.99434,   0.00046,   0.00203,  -0.00022,  -0.00000,   2.00000
472701907.24089,50121214.82683,-92251681.87579,   0.00252,   0.00133,  -0.00143,480542598.10334,   0.00245,277281839.03199,   0.00047,   0.00202,  -0.00023,   0.00000,   2.00000
472599439.05902,50315862.83823,-92571985.36963,   0.00254,   0.00132,  -0.00144,480557608.99088,   0.00246,277295908.97551,   0.00049,   0.00201,  -0.00024,   0.00000,   2.00000
472507362.44549,50530217.81899,-92887482.76663,   0.00255,   0.00132,  -0.00145,480584126.79699,   0.00248,277310029.11812,   0.00050,   0.00201,  -0.00025,  -0.00000,   2.00000
472427958.61979,50764182.52416,-93194459.29987,   0.00256,   0.00131,  -0.00147,480608178.68540,   0.00249,277324188.49740,   0.00051,   0.00200,  -0.00026,   0.00000,   2.00000
472352392.26328,51011354.74450,-93502769.40901,   0.00258,   0.00131,  -0.00148,480625749.88052,   0.00250,277338359.03373,   0.00053,   0.00200,  -0.00026,   0.00000,   2.00000
472287060.95105,51277872.57824,-93806311.97826,   0.00259,   0.00130,  -0.00149,480652340.96986,   0.00252,277352579.26088,   0.00054,   0.00199,  -0.00027,   0.00000,   2.00000
472238068.56692,51578446.33806,-94105057.64959,   0.00260,   0.00130,  -0.00151,480679178.78580,   0.00253,277366849.78933,   0.00056,   0.00198,  -0.00028,  -0.00000,   2.00000
472188867.68571,51876978.42460,-94401478.26214,   0.00262,   0.00129,  -0.00152,480694153.56096,   0.00255,277381119.49442,   0.00057,   0.00198,  -0.00029,   0.00000,   2.00000
472149729.44568,52194492.60427,-94693167.89211,   0.00263,   0.00129,  -0.00153,480720831.91436,   0.00256,277395438.44544,   0.00058,   0.00197,  -0.00030,   0.00000,   2.00000
472116475.63439,52524694.21994,-94982524.30775,   0.00264,   0.00129,  -0.00154,480736063.85319,   0.00257,277409757.25372,   0.00060,   0.00197,  -0.00031,   0.00000,   2.00000
472093169.18806,52873649.74915,-95267169.66302,   0.00266,   0.00128,  -0.00156,480762793.23253,   0.00259,277424125.07332,   0.00061,   0.00196,  -0.00032,   0.00000,   2.00000
472085865.78390,53256064.92647,-95547064.27171,   0.00267,   0.00128,  -0.00157,480789818.56974,   0.00260,277438542.72373,   0.00063,   0.00196,  -0.00033,   0.00000,   2.00000
