# sigma_xx, sigma_yy, sigma_xy, epsilon_xx, epsilon_yy, epsilon_xy, vonMises, epsPlastic, hardening, epsilonP__xx, epsilonP__yy, epsilonP__xy, yieldValue, iteration
   0.00000,   0.00000,   0.00000,   0.00000,   0.00000,   0.00000,1181185.37500,   0.00000,274640576.00000,   0.00000,   0.00000,   0.00000,-473459392.00000,   0.00000
   0.00000,   0.00000,   0.00000,   0.00000,   0.00000,   0.00000,1181185.37500,   0.00000,274640576.00000,   0.00000,   0.00000,   0.00000,-473459392.00000,   0.00000
173267.38980,4413222.34028,264997.18440,  -0.00001,   0.00002,   0.00000,5442908.00000,   0.00000,274640576.00000,   0.00000,   0.00000,   0.00000,-469197664.00000,   0.00000
331246.48051,8790771.98266,529994.36881,  -0.00002,   0.00004,   0.00001,9342262.00000,   0.00000,274640576.00000,   0.00000,   0.00000,   0.00000,-465298320.00000,   0.00000
453552.87331,13153033.32594,794991.55321,  -0.00002,   0.00006,   0.00001,13727860.00000,   0.00000,274640576.00000,   0.00000,   0.00000,   0.00000,-460912720.00000,   0.00000
545282.66791,17443949.27342,1039604.33882,  -0.00003,   0.00008,   0.00001,18094864.00000,   0.00000,274640576.00000,   0.00000,   0.00000,   0.00000,-456545712.00000,   0.00000
637012.46251,21734865.22090,1284217.12442,  -0.00004,   0.00010,   0.00002,22331334.00000,   0.00000,274640576.00000,   0.00000,   0.00000,   0.00000,-452309248.00000,   0.00000
677781.26011,25974820.17138,1528829.91003,  -0.00005,   0.00012,   0.00002,26475484.00000,   0.00000,274640576.00000,   0.00000,   0.00000,   0.00000,-448165088.00000,   0.00000
703261.75861,30179102.42396,1763250.49623,  -0.00006,   0.00014,   0.00002,30587202.00000,   0.00000,274640576.00000,   0.00000,   0.00000,   0.00000,-444053376.00000,   0.00000
677781.26011,34332423.67954,1987478.88304,  -0.00006,   0.00015,   0.00003,34693768.00000,   0.00000,274640576.00000,   0.00000,   0.00000,   0.00000,-439946816.00000,   0.00000
672685.16041,38465360.53631,2211707.26984,  -0.00007,   0.00017,   0.00003,38792340.00000,   0.00000,274640576.00000,   0.00000,   0.00000,   0.00000,-435848240.00000,   0.00000
596243.66491,42567720.79489,2425743.45724,  -0.00008,   0.00019,   0.00003,42905840.00000,   0.00000,274640576.00000,   0.00000,   0.00000,   0.00000,-431734736.00000,   0.00000
524898.26911,46614023.95676,2629587.44525,  -0.00009,   0.00021,   0.00003,46964168.00000,   0.00000,274640576.00000,   0.00000,   0.00000,   0.00000,-427676416.00000,   0.00000
417880.17541,50645038.81954,2833431.43325,  -0.00010,   0.00023,   0.00004,51028452.00000,   0.00000,274640576.00000,   0.00000,   0.00000,   0.00000,-423612128.00000,   0.00000
295573.78261,54640380.98441,3027083.22186,  -0.00011,   0.00025,   0.00004,55069432.00000,   0.00000,274640576.00000,   0.00000,   0.00000,   0.00000,-419571136.00000,   0.00000
122306.39280,58584762.15229,3220735.01046,  -0.00011,   0.00027,   0.00004,59095580.00000,   0.00000,274640576.00000,   0.00000,   0.00000,   0.00000,-415544992.00000,   0.00000
-50960.99700,62529143.32016,3404194.59966,  -0.00012,   0.00028,   0.00004,63132144.00000,   0.00000,274640576.00000,   0.00000,   0.00000,   0.00000,-411508432.00000,   0.00000
-239516.68590,66437851.79013,3577461.98947,  -0.00013,   0.00030,   0.00005,67150456.00000,   0.00000,274640576.00000,   0.00000,   0.00000,   0.00000,-407490112.00000,   0.00000
-494321.67091,70259926.56520,3750729.37927,  -0.00014,   0.00032,   0.00005,71123568.00000,   0.00000,274640576.00000,   0.00000,   0.00000,   0.00000,-403517008.00000,   0.00000
-713453.95801,74097289.63937,3913804.56967,  -0.00015,   0.00034,   0.00005,75096384.00000,   0.00000,274640576.00000,   0.00000,   0.00000,   0.00000,-399544192.00000,   0.00000
-1003931.64092,77904076.11535,4076879.76008,  -0.00016,   0.00036,   0.00005,79074480.00000,   0.00000,274640576.00000,   0.00000,   0.00000,   0.00000,-395566096.00000,   0.00000
-1289313.22412,81654805.49461,4229762.75108,  -0.00017,   0.00037,   0.00005,82990320.00000,   0.00000,274640576.00000,   0.00000,   0.00000,   0.00000,-391650256.00000,   0.00000
-1610367.50523,85390246.57478,4372453.54268,  -0.00017,   0.00039,   0.00006,86904048.00000,   0.00000,274640576.00000,   0.00000,   0.00000,   0.00000,-387736528.00000,   0.00000
-1946710.08544,89090014.95705,4504952.13488,  -0.00018,   0.00041,   0.00006,90785464.00000,   0.00000,274640576.00000,   0.00000,   0.00000,   0.00000,-383855104.00000,   0.00000
-2298340.96474,92754110.64142,4637450.72709,  -0.00019,   0.00043,   0.00006,94637336.00000,   0.00000,274640576.00000,   0.00000,   0.00000,   0.00000,-380003232.00000,   0.00000
-2700932.84105,96367245.32879,4769949.31929,  -0.00020,   0.00044,   0.00006,98464440.00000,   0.00000,274640576.00000,   0.00000,   0.00000,   0.00000,-376176128.00000,   0.00000
-3083140.31856,99959995.61735,4892255.71209,  -0.00021,   0.00046,   0.00006,102259920.00000,   0.00000,274640576.00000,   0.00000,   0.00000,   0.00000,-372380656.00000,   0.00000
-3536693.19187,103522169.30772,5004369.90549,  -0.00022,   0.00048,   0.00007,106062888.00000,   0.00000,274640576.00000,   0.00000,   0.00000,   0.00000,-368577696.00000,   0.00000
-3969861.66637,107063958.59929,5106291.89949,  -0.00023,   0.00049,   0.00007,109835432.00000,   0.00000,274640576.00000,   0.00000,   0.00000,   0.00000,-364805152.00000,   0.00000
-4453991.13788,110554786.89385,5208213.89350,  -0.00024,   0.00051,   0.00007,113586656.00000,   0.00000,274640576.00000,   0.00000,   0.00000,   0.00000,-361053920.00000,   0.00000
-4902447.91149,114060903.48752,5310135.88750,  -0.00024,   0.00053,   0.00007,117335448.00000,   0.00000,274640576.00000,   0.00000,   0.00000,   0.00000,-357305120.00000,   0.00000
-5417153.98120,117480386.38628,5391673.48270,  -0.00025,   0.00055,   0.00007,121031880.00000,   0.00000,274640576.00000,   0.00000,   0.00000,   0.00000,-353608704.00000,   0.00000
-5967532.74881,120884580.98594,5473211.07790,  -0.00026,   0.00056,   0.00007,124732712.00000,   0.00000,274640576.00000,   0.00000,   0.00000,   0.00000,-349907872.00000,   0.00000
-6497527.11762,124268391.18681,5554748.67310,  -0.00027,   0.00058,   0.00007,128401752.00000,   0.00000,274640576.00000,   0.00000,   0.00000,   0.00000,-346238816.00000,   0.00000
-7063194.18433,127636913.08857,5615901.86950,  -0.00028,   0.00059,   0.00007,132071304.00000,   0.00000,274640576.00000,   0.00000,   0.00000,   0.00000,-342569280.00000,   0.00000
-7659437.84924,130934089.59453,5677055.06591,  -0.00029,   0.00061,   0.00007,135685344.00000,   0.00000,274640576.00000,   0.00000,   0.00000,   0.00000,-338955232.00000,   0.00000
-8255681.51415,134231266.10049,5738208.26231,  -0.00030,   0.00063,   0.00007,139297984.00000,   0.00000,274640576.00000,   0.00000,   0.00000,   0.00000,-335342592.00000,   0.00000
-8902886.17607,137477481.60945,5789169.25931,  -0.00031,   0.00064,   0.00008,142885424.00000,   0.00000,274640576.00000,   0.00000,   0.00000,   0.00000,-331755152.00000,   0.00000
-9529706.43918,140703312.71961,5829938.05691,  -0.00032,   0.00066,   0.00008,146439104.00000,   0.00000,274640576.00000,   0.00000,   0.00000,   0.00000,-328201472.00000,   0.00000
-10192199.40019,143913855.53067,5870706.85451,  -0.00033,   0.00067,   0.00008,149996608.00000,   0.00000,274640576.00000,   0.00000,   0.00000,   0.00000,-324643968.00000,   0.00000
-10869980.66030,147088725.64383,5901283.45271,  -0.00034,   0.00069,   0.00008,153525808.00000,   0.00000,274640576.00000,   0.00000,   0.00000,   0.00000,-321114768.00000,   0.00000
-11563050.21951,150227923.05909,5921667.85151,  -0.00035,   0.00071,   0.00008,157027168.00000,   0.00000,274640576.00000,   0.00000,   0.00000,   0.00000,-317613408.00000,   0.00000
-12271408.07783,153331447.77644,5942052.25031,  -0.00035,   0.00072,   0.00008,160502368.00000,   0.00000,274640576.00000,   0.00000,   0.00000,   0.00000,-314138208.00000,   0.00000
-13015438.63404,156419684.19470,5952244.44971,  -0.00036,   0.00074,   0.00008,163982096.00000,   0.00000,274640576.00000,   0.00000,   0.00000,   0.00000,-310658480.00000,   0.00000
-13774757.48936,159472247.91506,5952244.44971,  -0.00037,   0.00075,   0.00008,167435424.00000,   0.00000,274640576.00000,   0.00000,   0.00000,   0.00000,-307205152.00000,   0.00000
-14513691.94587,162504427.23661,5952244.44971,  -0.00038,   0.00077,   0.00008,170858416.00000,   0.00000,274640576.00000,   0.00000,   0.00000,   0.00000,-303782160.00000,   0.00000
-15288299.10028,165521318.25907,5942052.25031,  -0.00039,   0.00078,   0.00008,174287136.00000,   0.00000,274640576.00000,   0.00000,   0.00000,   0.00000,-300353440.00000,   0.00000
-16093482.85290,168466863.88573,5931860.05091,  -0.00040,   0.00080,   0.00008,177664256.00000,   0.00000,274640576.00000,   0.00000,   0.00000,   0.00000,-296976320.00000,   0.00000
-16934339.30341,171397121.21328,5911475.65211,  -0.00041,   0.00081,   0.00008,181047808.00000,   0.00000,274640576.00000,   0.00000,   0.00000,   0.00000,-293592768.00000,   0.00000
-17739523.05603,174342666.83993,5880899.05391,  -0.00042,   0.00083,   0.00008,184427968.00000,   0.00000,274640576.00000,   0.00000,   0.00000,   0.00000,-290212608.00000,   0.00000
-18610956.10475,177201578.77169,5850322.45571,  -0.00043,   0.00084,   0.00008,187762720.00000,   0.00000,274640576.00000,   0.00000,   0.00000,   0.00000,-286877856.00000,   0.00000
-19446716.45556,180075779.00254,5809553.65811,  -0.00044,   0.00086,   0.00008,191094848.00000,   0.00000,274640576.00000,   0.00000,   0.00000,   0.00000,-283545728.00000,   0.00000
-20333437.80338,182899018.23639,5758592.66111,  -0.00045,   0.00087,   0.00007,194408400.00000,   0.00000,274640576.00000,   0.00000,   0.00000,   0.00000,-280232176.00000,   0.00000
-21220159.15119,185722257.47025,5707631.66411,  -0.00046,   0.00089,   0.00007,197726160.00000,   0.00000,274640576.00000,   0.00000,   0.00000,   0.00000,-276914416.00000,   0.00000
-22122168.79811,188509824.00620,5646478.46770,  -0.00047,   0.00090,   0.00007,201020784.00000,   0.00000,274640576.00000,   0.00000,   0.00000,   0.00000,-273619792.00000,   0.00000
-23039466.74413,191261717.84425,5575133.07190,  -0.00048,   0.00092,   0.00007,204291664.00000,   0.00000,274640576.00000,   0.00000,   0.00000,   0.00000,-270348912.00000,   0.00000
-24007725.68715,193962650.68530,5503787.67610,  -0.00049,   0.00093,   0.00007,207545216.00000,   0.00000,274640576.00000,   0.00000,   0.00000,   0.00000,-267095360.00000,   0.00000
-24940311.93226,196678871.82545,5422250.08090,  -0.00050,   0.00094,   0.00007,210795232.00000,   0.00000,274640576.00000,   0.00000,   0.00000,   0.00000,-263845344.00000,   0.00000
-25888186.47648,199359420.26770,5340712.48570,  -0.00051,   0.00096,   0.00007,214020368.00000,   0.00000,274640576.00000,   0.00000,   0.00000,   0.00000,-260620208.00000,   0.00000
-26887022.01770,201989007.71295,5248982.69110,  -0.00052,   0.00097,   0.00007,217224128.00000,   0.00000,274640576.00000,   0.00000,   0.00000,   0.00000,-257416448.00000,   0.00000
-27885857.55892,204618595.15820,5147060.69710,  -0.00053,   0.00099,   0.00007,220426736.00000,   0.00000,274640576.00000,   0.00000,   0.00000,   0.00000,-254213840.00000,   0.00000
-28864308.70134,207227798.20464,5045138.70309,  -0.00054,   0.00100,   0.00007,223595424.00000,   0.00000,274640576.00000,   0.00000,   0.00000,   0.00000,-251045152.00000,   0.00000
-29893720.84075,209786040.25409,4933024.50969,  -0.00055,   0.00101,   0.00006,226740976.00000,   0.00000,274640576.00000,   0.00000,   0.00000,   0.00000,-247899600.00000,   0.00000
-30923132.98017,212344282.30354,4810718.11689,  -0.00055,   0.00103,   0.00006,229883664.00000,   0.00000,274640576.00000,   0.00000,   0.00000,   0.00000,-244756912.00000,   0.00000
-31967833.41869,214866851.65509,4688411.72409,  -0.00056,   0.00104,   0.00006,232999008.00000,   0.00000,274640576.00000,   0.00000,   0.00000,   0.00000,-241641568.00000,   0.00000
-33027822.15631,217353748.30873,4555913.13188,  -0.00057,   0.00105,   0.00006,236087600.00000,   0.00000,274640576.00000,   0.00000,   0.00000,   0.00000,-238552976.00000,   0.00000
-34087810.89393,219840644.96238,4413222.34028,  -0.00058,   0.00107,   0.00006,239177440.00000,   0.00000,274640576.00000,   0.00000,   0.00000,   0.00000,-235463136.00000,   0.00000
-35163087.93065,222291868.91812,4270531.54868,  -0.00059,   0.00108,   0.00006,242244976.00000,   0.00000,274640576.00000,   0.00000,   0.00000,   0.00000,-232395600.00000,   0.00000
-36253653.26647,224707420.17597,4117648.55768,  -0.00060,   0.00109,   0.00005,245291424.00000,   0.00000,274640576.00000,   0.00000,   0.00000,   0.00000,-229349152.00000,   0.00000
-37344218.60229,227122971.43381,3964765.56667,  -0.00061,   0.00111,   0.00005,248344864.00000,   0.00000,274640576.00000,   0.00000,   0.00000,   0.00000,-226295712.00000,   0.00000
-38450072.23721,229502849.99376,3801690.37627,  -0.00062,   0.00112,   0.00005,251378480.00000,   0.00000,274640576.00000,   0.00000,   0.00000,   0.00000,-223262096.00000,   0.00000
-39555925.87213,231882728.55370,3628422.98647,  -0.00063,   0.00113,   0.00005,254417520.00000,   0.00000,274640576.00000,   0.00000,   0.00000,   0.00000,-220223056.00000,   0.00000
-40677067.80615,234226934.41574,3455155.59666,  -0.00064,   0.00115,   0.00004,257432256.00000,   0.00000,274640576.00000,   0.00000,   0.00000,   0.00000,-217208320.00000,   0.00000
-41849170.73718,236520179.28079,3271696.00746,  -0.00065,   0.00116,   0.00004,260425312.00000,   0.00000,274640576.00000,   0.00000,   0.00000,   0.00000,-214215264.00000,   0.00000
-43000889.26940,238793039.74703,3078044.21886,  -0.00066,   0.00117,   0.00004,263378752.00000,   0.00000,274640576.00000,   0.00000,   0.00000,   0.00000,-211261824.00000,   0.00000
-44152607.80162,241065900.21327,2884392.43025,  -0.00067,   0.00118,   0.00004,266321984.00000,   0.00000,274640576.00000,   0.00000,   0.00000,   0.00000,-208318592.00000,   0.00000
-45319614.63294,243303087.98161,2680548.44225,  -0.00068,   0.00120,   0.00003,269226784.00000,   0.00000,274640576.00000,   0.00000,   0.00000,   0.00000,-205413792.00000,   0.00000
-46522294.16216,245524987.45085,2466512.25485,  -0.00069,   0.00121,   0.00003,272125824.00000,   0.00000,274640576.00000,   0.00000,   0.00000,   0.00000,-202514752.00000,   0.00000
-47704589.29258,247726502.52130,2252476.06744,  -0.00070,   0.00122,   0.00003,274981984.00000,   0.00000,274640576.00000,   0.00000,   0.00000,   0.00000,-199658592.00000,   0.00000
-48902172.72211,249892344.89384,2038439.88004,  -0.00071,   0.00123,   0.00003,277806240.00000,   0.00000,274640576.00000,   0.00000,   0.00000,   0.00000,-196834336.00000,   0.00000
-50099756.15163,252058187.26638,1804019.29383,  -0.00072,   0.00124,   0.00002,280626848.00000,   0.00000,274640576.00000,   0.00000,   0.00000,   0.00000,-194013728.00000,   0.00000
-51348300.57815,254173068.64191,1569598.70763,  -0.00073,   0.00126,   0.00002,283432448.00000,   0.00000,274640576.00000,   0.00000,   0.00000,   0.00000,-191208128.00000,   0.00000
-52561172.30678,256303238.31655,1335178.12142,  -0.00074,   0.00127,   0.00002,286237152.00000,   0.00000,274640576.00000,   0.00000,   0.00000,   0.00000,-188403424.00000,   0.00000
-53789332.33450,258397735.29329,1080373.13642,  -0.00075,   0.00128,   0.00001,289025344.00000,   0.00000,274640576.00000,   0.00000,   0.00000,   0.00000,-185615232.00000,   0.00000
-55032780.66132,260456559.57213,825568.15142,  -0.00076,   0.00129,   0.00001,291799168.00000,   0.00000,274640576.00000,   0.00000,   0.00000,   0.00000,-182841408.00000,   0.00000
-56276228.98814,262515383.85097,570763.16641,  -0.00077,   0.00130,   0.00001,294584544.00000,   0.00000,274640576.00000,   0.00000,   0.00000,   0.00000,-180056032.00000,   0.00000
-57534965.61407,264538535.43191,305765.98201,  -0.00078,   0.00132,   0.00000,297355392.00000,   0.00000,274640576.00000,   0.00000,   0.00000,   0.00000,-177285184.00000,   0.00000
-58793702.23999,266561687.01284,30576.59820,  -0.00079,   0.00133,   0.00000,300136320.00000,   0.00000,274640576.00000,   0.00000,   0.00000,   0.00000,-174504256.00000,   0.00000
-60067727.16501,268549165.89588,-244612.78560,  -0.00080,   0.00134,  -0.00000,302901664.00000,   0.00000,274640576.00000,   0.00000,   0.00000,   0.00000,-171738912.00000,   0.00000
-61357040.38914,270500972.08102,-529994.36881,  -0.00081,   0.00135,  -0.00001,305649696.00000,   0.00000,274640576.00000,   0.00000,   0.00000,   0.00000,-168990880.00000,   0.00000
-62646353.61326,272452778.26615,-825568.15142,  -0.00082,   0.00136,  -0.00001,308404896.00000,   0.00000,274640576.00000,   0.00000,   0.00000,   0.00000,-166235680.00000,   0.00000
-63950955.13649,274368911.75339,-1121141.93402,  -0.00083,   0.00137,  -0.00001,311140160.00000,   0.00000,274640576.00000,   0.00000,   0.00000,   0.00000,-163500416.00000,   0.00000
-65219883.96181,276300333.53973,-1426907.91603,  -0.00084,   0.00138,  -0.00002,313872064.00000,   0.00000,274640576.00000,   0.00000,   0.00000,   0.00000,-160768512.00000,   0.00000
-66539773.78413,278180794.32906,-1732673.89803,  -0.00085,   0.00140,  -0.00002,316589696.00000,   0.00000,274640576.00000,   0.00000,   0.00000,   0.00000,-158050880.00000,   0.00000
-67874951.90556,280025582.42049,-2058824.27884,  -0.00085,   0.00141,  -0.00003,319284992.00000,   0.00000,274640576.00000,   0.00000,   0.00000,   0.00000,-155355584.00000,   0.00000
-69174457.32908,281885658.81103,-2374782.46024,  -0.00086,   0.00142,  -0.00003,321973088.00000,   0.00000,274640576.00000,   0.00000,   0.00000,   0.00000,-152667488.00000,   0.00000
-70509635.45051,283730446.90246,-2700932.84105,  -0.00087,   0.00143,  -0.00004,324670752.00000,   0.00000,274640576.00000,   0.00000,   0.00000,   0.00000,-149969824.00000,   0.00000
-71824429.17313,285554850.59510,-3037275.42126,  -0.00088,   0.00144,  -0.00004,327335872.00000,   0.00000,274640576.00000,   0.00000,   0.00000,   0.00000,-147304704.00000,   0.00000
-73154511.19486,287343581.58983,-3383810.20086,  -0.00089,   0.00145,  -0.00004,329976960.00000,   0.00000,274640576.00000,   0.00000,   0.00000,   0.00000,-144663616.00000,   0.00000
-74484593.21658,289132312.58456,-3730344.98047,  -0.00090,   0.00146,  -0.00005,332618528.00000,   0.00000,274640576.00000,   0.00000,   0.00000,   0.00000,-142022048.00000,   0.00000
-75829963.53741,290885370.88140,-4087071.95948,  -0.00091,   0.00147,  -0.00005,335236128.00000,   0.00000,274640576.00000,   0.00000,   0.00000,   0.00000,-139404448.00000,   0.00000
-77190622.15733,292602756.48033,-4443798.93848,  -0.00092,   0.00148,  -0.00006,337829888.00000,   0.00000,274640576.00000,   0.00000,   0.00000,   0.00000,-136810688.00000,   0.00000
-78551280.77726,294320142.07926,-4810718.11689,  -0.00093,   0.00149,  -0.00006,340425088.00000,   0.00000,274640576.00000,   0.00000,   0.00000,   0.00000,-134215488.00000,   0.00000
-79876266.69928,296052815.97729,-5187829.49470,  -0.00094,   0.00150,  -0.00007,343013344.00000,   0.00000,274640576.00000,   0.00000,   0.00000,   0.00000,-131627232.00000,   0.00000
-81252213.61831,297734528.87832,-5564940.87250,  -0.00095,   0.00151,  -0.00007,345587296.00000,   0.00000,274640576.00000,   0.00000,   0.00000,   0.00000,-129053280.00000,   0.00000
-82607776.13853,299395857.38055,-5942052.25031,  -0.00096,   0.00152,  -0.00008,348130368.00000,   0.00000,274640576.00000,   0.00000,   0.00000,   0.00000,-126510208.00000,   0.00000
-83999011.35666,301041897.58368,-6339548.02692,  -0.00097,   0.00153,  -0.00008,350686592.00000,   0.00000,274640576.00000,   0.00000,   0.00000,   0.00000,-123953984.00000,   0.00000
-85354573.87688,302703226.08592,-6737043.80352,  -0.00098,   0.00154,  -0.00009,353239456.00000,   0.00000,274640576.00000,   0.00000,   0.00000,   0.00000,-121401120.00000,   0.00000
-86725424.69621,304328881.89025,-7134539.58013,  -0.00099,   0.00155,  -0.00009,355774368.00000,   0.00000,274640576.00000,   0.00000,   0.00000,   0.00000,-118866208.00000,   0.00000
-88111563.81463,305918864.99667,-7542227.55614,  -0.00100,   0.00156,  -0.00010,358293760.00000,   0.00000,274640576.00000,   0.00000,   0.00000,   0.00000,-116346816.00000,   0.00000
-89497702.93306,307508848.10310,-7960107.73155,  -0.00101,   0.00157,  -0.00010,360824096.00000,   0.00000,274640576.00000,   0.00000,   0.00000,   0.00000,-113816480.00000,   0.00000
-90863457.65269,309078446.81073,-8377987.90696,  -0.00102,   0.00158,  -0.00011,363331360.00000,   0.00000,274640576.00000,   0.00000,   0.00000,   0.00000,-111309216.00000,   0.00000
-92264885.07021,310632757.21926,-8806060.28176,  -0.00103,   0.00159,  -0.00011,365859520.00000,   0.00000,274640576.00000,   0.00000,   0.00000,   0.00000,-108781056.00000,   0.00000
-93645928.08894,312166683.22899,-9244324.85597,  -0.00103,   0.00160,  -0.00012,368363712.00000,   0.00000,274640576.00000,   0.00000,   0.00000,   0.00000,-106276864.00000,   0.00000
-95026971.10766,313700609.23872,-9682589.43018,  -0.00104,   0.00161,  -0.00013,370875744.00000,   0.00000,274640576.00000,   0.00000,   0.00000,   0.00000,-103764832.00000,   0.00000
-96423302.42549,315198862.55055,-10120854.00439,  -0.00105,   0.00162,  -0.00013,373369120.00000,   0.00000,274640576.00000,   0.00000,   0.00000,   0.00000,-101271456.00000,   0.00000
-97819633.74331,316697115.86237,-10569310.77800,  -0.00106,   0.00163,  -0.00014,375866720.00000,   0.00000,274640576.00000,   0.00000,   0.00000,   0.00000,-98773856.00000,   0.00000
-99231253.36024,318159696.47630,-11027959.75100,  -0.00107,   0.00164,  -0.00014,378341920.00000,   0.00000,274640576.00000,   0.00000,   0.00000,   0.00000,-96298656.00000,   0.00000
-100607200.27927,319637565.38933,-11496800.92341,  -0.00108,   0.00165,  -0.00015,380807776.00000,   0.00000,274640576.00000,   0.00000,   0.00000,   0.00000,-93832800.00000,   0.00000
-101998435.49739,321079761.60446,-11965642.09582,  -0.00109,   0.00166,  -0.00016,383247808.00000,   0.00000,274640576.00000,   0.00000,   0.00000,   0.00000,-91392768.00000,   0.00000
-103425343.41342,322506669.52048,-12434483.26823,  -0.00110,   0.00167,  -0.00016,385695104.00000,   0.00000,274640576.00000,   0.00000,   0.00000,   0.00000,-88945472.00000,   0.00000
-104816578.63154,323948865.73561,-12913516.64004,  -0.00111,   0.00168,  -0.00017,388129568.00000,   0.00000,274640576.00000,   0.00000,   0.00000,   0.00000,-86511008.00000,   0.00000
-106202717.74997,325335004.85404,-13402742.21125,  -0.00112,   0.00169,  -0.00017,390502528.00000,   0.00000,274640576.00000,   0.00000,   0.00000,   0.00000,-84138048.00000,   0.00000
-107609241.26720,326741528.37126,-13891967.78246,  -0.00113,   0.00170,  -0.00018,392904928.00000,   0.00000,274640576.00000,   0.00000,   0.00000,   0.00000,-81735648.00000,   0.00000
-108995380.38562,328127667.48969,-14391385.55307,  -0.00114,   0.00171,  -0.00019,395268960.00000,   0.00000,274640576.00000,   0.00000,   0.00000,   0.00000,-79371616.00000,   0.00000
-110396807.80315,329478133.91021,-14890803.32368,  -0.00114,   0.00171,  -0.00019,397603680.00000,   0.00000,274640576.00000,   0.00000,   0.00000,   0.00000,-77036896.00000,   0.00000
-111798235.22067,330828600.33074,-15400413.29369,  -0.00115,   0.00172,  -0.00020,399933728.00000,   0.00000,274640576.00000,   0.00000,   0.00000,   0.00000,-74706848.00000,   0.00000
-113199662.63820,332179066.75126,-15910023.26370,  -0.00116,   0.00173,  -0.00021,402257728.00000,   0.00000,274640576.00000,   0.00000,   0.00000,   0.00000,-72382848.00000,   0.00000
-114616378.35483,333493860.47389,-16429825.43310,  -0.00117,   0.00174,  -0.00021,404553312.00000,   0.00000,274640576.00000,   0.00000,   0.00000,   0.00000,-70087264.00000,   0.00000
-116012709.67265,334788269.79771,-16959819.80191,  -0.00118,   0.00175,  -0.00022,406810848.00000,   0.00000,274640576.00000,   0.00000,   0.00000,   0.00000,-67829728.00000,   0.00000
-117409040.99048,336082679.12153,-17489814.17072,  -0.00119,   0.00176,  -0.00023,409062848.00000,   0.00000,274640576.00000,   0.00000,   0.00000,   0.00000,-65577728.00000,   0.00000
-118805372.30830,337377088.44536,-18030000.73893,  -0.00120,   0.00177,  -0.00023,411311104.00000,   0.00000,274640576.00000,   0.00000,   0.00000,   0.00000,-63329472.00000,   0.00000
-120216991.92523,338635825.07128,-18570187.30714,  -0.00121,   0.00178,  -0.00024,413531744.00000,   0.00000,274640576.00000,   0.00000,   0.00000,   0.00000,-61108832.00000,   0.00000
-121592938.84426,339909849.99631,-19110373.87535,  -0.00122,   0.00178,  -0.00025,415739040.00000,   0.00000,274640576.00000,   0.00000,   0.00000,   0.00000,-58901536.00000,   0.00000
-122984174.06238,341148202.22343,-19670944.84236,  -0.00122,   0.00179,  -0.00026,417923968.00000,   0.00000,274640576.00000,   0.00000,   0.00000,   0.00000,-56716608.00000,   0.00000
-124375409.28051,342386554.45055,-20221323.60998,  -0.00123,   0.00180,  -0.00026,420107072.00000,   0.00000,274640576.00000,   0.00000,   0.00000,   0.00000,-54533504.00000,   0.00000
-125781932.79773,343589233.97977,-20792086.77639,  -0.00124,   0.00181,  -0.00027,422271360.00000,   0.00000,274640576.00000,   0.00000,   0.00000,   0.00000,-52369216.00000,   0.00000
-127188456.31496,344791913.50900,-21362849.94280,  -0.00125,   0.00182,  -0.00028,424439072.00000,   0.00000,274640576.00000,   0.00000,   0.00000,   0.00000,-50201504.00000,   0.00000
-128559307.13428,346009881.33732,-21933613.10921,  -0.00126,   0.00183,  -0.00029,426602336.00000,   0.00000,274640576.00000,   0.00000,   0.00000,   0.00000,-48038240.00000,   0.00000
-129945446.25271,347192176.46774,-22514568.47502,  -0.00127,   0.00183,  -0.00029,428752160.00000,   0.00000,274640576.00000,   0.00000,   0.00000,   0.00000,-45888416.00000,   0.00000
-131331585.37114,348374471.59816,-23095523.84083,  -0.00128,   0.00184,  -0.00030,430911840.00000,   0.00000,274640576.00000,   0.00000,   0.00000,   0.00000,-43728736.00000,   0.00000
-132697340.09076,349536382.32978,-23686671.40604,  -0.00129,   0.00185,  -0.00031,433052288.00000,   0.00000,274640576.00000,   0.00000,   0.00000,   0.00000,-41588288.00000,   0.00000
-134098767.50829,350683004.76231,-24288011.17065,  -0.00129,   0.00186,  -0.00032,435218848.00000,   0.00000,274640576.00000,   0.00000,   0.00000,   0.00000,-39421728.00000,   0.00000
-135479810.52701,351809242.79603,-24889350.93526,  -0.00130,   0.00186,  -0.00032,437367584.00000,   0.00000,274640576.00000,   0.00000,   0.00000,   0.00000,-37272992.00000,   0.00000
-136860853.54574,352935480.82975,-25490690.69987,  -0.00131,   0.00187,  -0.00033,439532960.00000,   0.00000,274640576.00000,   0.00000,   0.00000,   0.00000,-35107616.00000,   0.00000
-138206223.86656,354077007.16257,-26102222.66388,  -0.00132,   0.00188,  -0.00034,441706272.00000,   0.00000,274640576.00000,   0.00000,   0.00000,   0.00000,-32934304.00000,   0.00000
-139566882.48649,355182860.79749,-26723946.82730,  -0.00133,   0.00189,  -0.00035,443873888.00000,   0.00000,274640576.00000,   0.00000,   0.00000,   0.00000,-30766688.00000,   0.00000
-140942829.40551,356253041.73451,-27345670.99071,  -0.00134,   0.00190,  -0.00036,446031200.00000,   0.00000,274640576.00000,   0.00000,   0.00000,   0.00000,-28609376.00000,   0.00000
-142303488.02544,357358895.36943,-27967395.15412,  -0.00134,   0.00190,  -0.00036,448221248.00000,   0.00000,274640576.00000,   0.00000,   0.00000,   0.00000,-26419328.00000,   0.00000
-143643762.24656,358444364.60555,-28599311.51693,  -0.00135,   0.00191,  -0.00037,450380544.00000,   0.00000,274640576.00000,   0.00000,   0.00000,   0.00000,-24260032.00000,   0.00000
-145034997.46469,359478872.84467,-29241420.07914,  -0.00136,   0.00192,  -0.00038,452525120.00000,   0.00000,274640576.00000,   0.00000,   0.00000,   0.00000,-22115456.00000,   0.00000
-146354887.28701,360543957.68199,-29883528.64135,  -0.00137,   0.00193,  -0.00039,454657440.00000,   0.00000,274640576.00000,   0.00000,   0.00000,   0.00000,-19983136.00000,   0.00000
-147710449.80724,361593754.22021,-30525637.20357,  -0.00138,   0.00193,  -0.00040,456822912.00000,   0.00000,274640576.00000,   0.00000,   0.00000,   0.00000,-17817664.00000,   0.00000
-149045627.92866,362623166.35963,-31177937.96518,  -0.00139,   0.00194,  -0.00041,458967360.00000,   0.00000,274640576.00000,   0.00000,   0.00000,   0.00000,-15673216.00000,   0.00000
-150380806.05009,363652578.49905,-31840430.92619,  -0.00139,   0.00195,  -0.00041,461112960.00000,   0.00000,274640576.00000,   0.00000,   0.00000,   0.00000,-13527616.00000,   0.00000
-151715984.17151,364681990.63847,-32502923.88720,  -0.00140,   0.00196,  -0.00042,463266720.00000,   0.00000,274640576.00000,   0.00000,   0.00000,   0.00000,-11373856.00000,   0.00000
-153030777.89414,365691018.37908,-33165416.84822,  -0.00141,   0.00196,  -0.00043,465396928.00000,   0.00000,274640576.00000,   0.00000,   0.00000,   0.00000,-9243648.00000,   0.00000
-154396532.61376,366649085.12270,-33838102.00863,  -0.00142,   0.00197,  -0.00044,467521664.00000,   0.00000,274640576.00000,   0.00000,   0.00000,   0.00000,-7118912.00000,   0.00000
-155675653.63849,367673401.16242,-34510787.16904,  -0.00143,   0.00198,  -0.00045,469640352.00000,   0.00000,274640576.00000,   0.00000,   0.00000,   0.00000,-5000224.00000,   0.00000
-157005735.66021,368646756.20514,-35193664.52885,  -0.00143,   0.00198,  -0.00046,471734656.00000,   0.00000,274640576.00000,   0.00000,   0.00000,   0.00000,-2905920.00000,   0.00000
-158315433.28314,369599726.84906,-35876541.88867,  -0.00144,   0.00199,  -0.00047,473772928.00000,   0.00000,274640576.00000,   0.00000,   0.00000,   0.00000,-867648.00000,   0.00000
-158864040.35984,370018741.70291,-36170284.26044,  -0.00144,   0.00199,  -0.00047,474639872.00000,   0.00000,274640576.00000,   0.00000,   0.00000,   0.00000,-704.00000,   0.00000
-159173029.16994,369714555.03679,-36478590.18146,  -0.00145,   0.00200,  -0.00048,474639872.00000,   0.00001,274646080.00000,  -0.00000,   0.00000,  -0.00000, 192.00000,   2.00000
-159756575.51988,369147457.38416,-37014683.16970,  -0.00146,   0.00200,  -0.00048,476626688.00000,   0.00001,274655424.00000,  -0.00001,   0.00001,  -0.00000,  96.00000,   2.00000
-160281364.57699,368622035.05865,-37559011.29844,  -0.00146,   0.00201,  -0.00049,476652352.00000,   0.00002,274664864.00000,  -0.00002,   0.00002,  -0.00001,  96.00000,   2.00000
-160826821.01385,368078130.34641,-38103552.66039,  -0.00147,   0.00202,  -0.00050,476642592.00000,   0.00003,274674176.00000,  -0.00002,   0.00003,  -0.00001,  64.00000,   2.00000
-161369404.54338,367534390.44309,-38645842.07546,  -0.00148,   0.00202,  -0.00051,476654784.00000,   0.00004,274683520.00000,  -0.00003,   0.00004,  -0.00001, 160.00000,   2.00000
-161900627.75262,366993733.02106,-39198194.60215,  -0.00149,   0.00203,  -0.00052,476635936.00000,   0.00005,274692736.00000,  -0.00004,   0.00005,  -0.00001, 160.00000,   2.00000
-162428148.85382,366450586.44905,-39757422.63791,  -0.00149,   0.00204,  -0.00053,476650592.00000,   0.00006,274701952.00000,  -0.00004,   0.00005,  -0.00001, 160.00000,   2.00000
-162953158.22590,365906910.31956,-40313486.29764,  -0.00150,   0.00204,  -0.00054,476662560.00000,   0.00006,274711200.00000,  -0.00005,   0.00006,  -0.00002,  64.00000,   2.00000
-163468269.25167,365367749.19861,-40869446.70637,  -0.00151,   0.00205,  -0.00055,476640544.00000,   0.00007,274720320.00000,  -0.00005,   0.00007,  -0.00002,  64.00000,   2.00000
-163980945.72475,364828139.69248,-41422496.89806,  -0.00152,   0.00206,  -0.00056,476652096.00000,   0.00008,274729408.00000,  -0.00006,   0.00008,  -0.00002,  32.00000,   2.00000
-164489217.72795,364284635.35361,-41992652.70847,  -0.00152,   0.00206,  -0.00057,476668864.00000,   0.00009,274738560.00000,  -0.00007,   0.00009,  -0.00002, 160.00000,   2.00000
-164988319.52768,363747660.49658,-42553296.79197,  -0.00153,   0.00207,  -0.00058,476644288.00000,   0.00010,274747552.00000,  -0.00007,   0.00009,  -0.00002, -32.00000,   2.00000
-165483733.47740,363209003.27851,-43121373.18095,  -0.00154,   0.00208,  -0.00059,476658240.00000,   0.00011,274756576.00000,  -0.00008,   0.00010,  -0.00003,  96.00000,   2.00000
-165999958.65551,362651330.85014,-43689063.97321,  -0.00155,   0.00208,  -0.00060,476647808.00000,   0.00011,274765472.00000,  -0.00008,   0.00011,  -0.00003,   0.00000,   2.00000
-166481040.21245,362115823.77403,-44265368.56935,  -0.00155,   0.00209,  -0.00061,476650752.00000,   0.00012,274774368.00000,  -0.00009,   0.00012,  -0.00003,   0.00000,   2.00000
-166959120.66548,361580512.77877,-44839267.57133,  -0.00156,   0.00210,  -0.00062,476662464.00000,   0.00013,274783264.00000,  -0.00010,   0.00012,  -0.00003,-128.00000,   2.00000
-167433180.75664,361043481.21766,-45420674.64325,  -0.00157,   0.00210,  -0.00063,476677024.00000,   0.00014,274792192.00000,  -0.00010,   0.00013,  -0.00004,  96.00000,   2.00000
-167896975.68546,360511033.13863,-46002971.89868,  -0.00158,   0.00211,  -0.00064,476655296.00000,   0.00015,274800960.00000,  -0.00011,   0.00014,  -0.00004, -64.00000,   2.00000
-168357992.26076,359978916.31557,-46582885.07733,  -0.00158,   0.00211,  -0.00065,476667008.00000,   0.00015,274809760.00000,  -0.00011,   0.00015,  -0.00004, 160.00000,   2.00000
-168807780.95441,359448988.78224,-47173621.23765,  -0.00159,   0.00212,  -0.00066,476648064.00000,   0.00016,274818400.00000,  -0.00012,   0.00016,  -0.00004, -32.00000,   2.00000
-169285868.82570,358895278.63834,-47760694.76784,  -0.00160,   0.00213,  -0.00067,476671296.00000,   0.00017,274827104.00000,  -0.00013,   0.00016,  -0.00005, 160.00000,   2.00000
-169698090.62651,358387096.17454,-48357560.74785,  -0.00160,   0.00213,  -0.00068,476662560.00000,   0.00018,274835744.00000,  -0.00013,   0.00017,  -0.00005,  64.00000,   2.00000
-170162646.43082,357835319.31202,-48952935.87221,  -0.00161,   0.00214,  -0.00069,476664032.00000,   0.00019,274844352.00000,  -0.00014,   0.00018,  -0.00005,  96.00000,   2.00000
-170569853.39353,357326901.25727,-49544685.79018,  -0.00162,   0.00214,  -0.00070,476685696.00000,   0.00019,274852992.00000,  -0.00014,   0.00018,  -0.00005, 128.00000,   2.00000
-171021190.02727,356776534.18981,-50148320.51098,  -0.00162,   0.00215,  -0.00071,476656832.00000,   0.00020,274861472.00000,  -0.00015,   0.00019,  -0.00006,  32.00000,   2.00000
-171415433.69289,356269601.77445,-50748264.11863,  -0.00163,   0.00215,  -0.00072,476678176.00000,   0.00021,274870016.00000,  -0.00016,   0.00020,  -0.00006,  64.00000,   2.00000
-171831345.64013,355742453.97360,-51347924.13296,  -0.00164,   0.00216,  -0.00073,476667776.00000,   0.00022,274878464.00000,  -0.00016,   0.00021,  -0.00006,   0.00000,   2.00000
-172243829.43069,355212579.70626,-51954715.21820,  -0.00164,   0.00217,  -0.00074,476682496.00000,   0.00022,274886944.00000,  -0.00017,   0.00021,  -0.00006, 128.00000,   2.00000
-172623354.82051,354706236.30636,-52560135.00716,  -0.00165,   0.00217,  -0.00075,476681920.00000,   0.00023,274895392.00000,  -0.00017,   0.00022,  -0.00007, 128.00000,   2.00000
-173024677.14227,354179329.72402,-53165270.37669,  -0.00166,   0.00218,  -0.00076,476671680.00000,   0.00024,274903744.00000,  -0.00018,   0.00023,  -0.00007, -32.00000,   2.00000
-173422673.88411,353649506.40496,-53777460.13880,  -0.00166,   0.00218,  -0.00077,476686304.00000,   0.00025,274912096.00000,  -0.00018,   0.00024,  -0.00007,   0.00000,   2.00000
-173811701.35800,353123042.50288,-54390793.84616,  -0.00167,   0.00219,  -0.00078,476663840.00000,   0.00026,274920320.00000,  -0.00019,   0.00024,  -0.00007, -32.00000,   2.00000
-174173600.07410,352613664.81234,-55008628.54896,  -0.00168,   0.00219,  -0.00079,476700160.00000,   0.00026,274928704.00000,  -0.00020,   0.00025,  -0.00008, 192.00000,   2.00000
-174526570.62505,352107446.17147,-55627669.54175,  -0.00168,   0.00220,  -0.00080,476677856.00000,   0.00027,274936928.00000,  -0.00020,   0.00026,  -0.00008, 160.00000,   2.00000
-174901553.12379,351580521.12626,-56246570.86568,  -0.00169,   0.00220,  -0.00081,476667424.00000,   0.00028,274945056.00000,  -0.00021,   0.00026,  -0.00008, 128.00000,   2.00000
-175250794.31201,351073198.84233,-56860163.63808,  -0.00169,   0.00221,  -0.00082,476700032.00000,   0.00029,274953280.00000,  -0.00021,   0.00027,  -0.00008, 224.00000,   2.00000
-175589684.58739,350566297.55117,-57484883.03249,  -0.00170,   0.00222,  -0.00083,476681088.00000,   0.00029,274961408.00000,  -0.00022,   0.00028,  -0.00009,  64.00000,   2.00000
-175950693.74977,350038790.51240,-58109625.94663,  -0.00171,   0.00222,  -0.00085,476670528.00000,   0.00030,274969440.00000,  -0.00022,   0.00029,  -0.00009, 160.00000,   2.00000
-176253564.07033,349552149.77830,-58740239.73634,  -0.00171,   0.00223,  -0.00086,476694688.00000,   0.00031,274977536.00000,  -0.00023,   0.00029,  -0.00009, 192.00000,   2.00000
-176579906.81923,349047266.21532,-59361241.67957,  -0.00172,   0.00223,  -0.00087,476680352.00000,   0.00031,274985536.00000,  -0.00023,   0.00030,  -0.00010, -32.00000,   2.00000
-176902951.73152,348539383.81811,-59989399.70968,  -0.00172,   0.00224,  -0.00088,476694784.00000,   0.00032,274993568.00000,  -0.00024,   0.00031,  -0.00010,   0.00000,   2.00000
-177215504.15553,348031649.30000,-60628969.59765,  -0.00173,   0.00224,  -0.00089,476676064.00000,   0.00033,275001472.00000,  -0.00024,   0.00031,  -0.00010,  96.00000,   2.00000
-177503851.87551,347546716.14146,-61253582.01377,  -0.00174,   0.00225,  -0.00090,476704192.00000,   0.00034,275009472.00000,  -0.00025,   0.00032,  -0.00010,   0.00000,   2.00000
-177781869.48618,347062218.56033,-61889823.40365,  -0.00174,   0.00225,  -0.00091,476685280.00000,   0.00034,275017344.00000,  -0.00026,   0.00033,  -0.00011, 192.00000,   2.00000
-178079994.39834,346553703.08141,-62536016.71021,  -0.00175,   0.00226,  -0.00092,476678816.00000,   0.00035,275025152.00000,  -0.00026,   0.00033,  -0.00011, -64.00000,   2.00000
-178353948.21956,346068375.36319,-63167307.55495,  -0.00175,   0.00226,  -0.00093,476706432.00000,   0.00036,275033056.00000,  -0.00027,   0.00034,  -0.00011, 128.00000,   2.00000
-178617352.10849,345583204.17998,-63810346.53171,  -0.00176,   0.00227,  -0.00095,476687584.00000,   0.00037,275040832.00000,  -0.00027,   0.00035,  -0.00012, -96.00000,   2.00000
-178878694.34442,345097727.74257,-64450983.51079,  -0.00176,   0.00227,  -0.00096,476698016.00000,   0.00037,275048608.00000,  -0.00028,   0.00035,  -0.00012,  64.00000,   2.00000
-179161846.30037,344591295.04762,-65092134.31835,  -0.00177,   0.00228,  -0.00097,476687104.00000,   0.00038,275056320.00000,  -0.00028,   0.00036,  -0.00012, 224.00000,   2.00000
-179410484.50618,344105583.59529,-65742186.04274,  -0.00177,   0.00228,  -0.00098,476689408.00000,   0.00039,275063968.00000,  -0.00029,   0.00037,  -0.00012, 128.00000,   2.00000
-179626298.82274,343643566.61120,-66391562.84399,  -0.00178,   0.00229,  -0.00099,476687488.00000,   0.00039,275071616.00000,  -0.00029,   0.00037,  -0.00013,  96.00000,   2.00000
-179839992.20490,343181314.37343,-67038522.99843,  -0.00179,   0.00229,  -0.00100,476697792.00000,   0.00040,275079264.00000,  -0.00030,   0.00038,  -0.00013,  64.00000,   2.00000
-180075480.89488,342697945.48538,-67686026.29989,  -0.00179,   0.00230,  -0.00101,476687072.00000,   0.00041,275086816.00000,  -0.00030,   0.00038,  -0.00013, 128.00000,   2.00000
-180276382.62550,342235070.43452,-68342334.22688,  -0.00180,   0.00230,  -0.00103,476689408.00000,   0.00041,275094336.00000,  -0.00031,   0.00039,  -0.00014, -32.00000,   2.00000
-180475327.36491,341772003.16530,-68996099.56973,  -0.00180,   0.00230,  -0.00104,476699808.00000,   0.00042,275101888.00000,  -0.00031,   0.00040,  -0.00014,  96.00000,   2.00000
-180672176.65856,341308311.04801,-69647175.43886,  -0.00181,   0.00231,  -0.00105,476710368.00000,   0.00043,275109440.00000,  -0.00032,   0.00040,  -0.00014,  64.00000,   2.00000
-180860502.43185,340847214.09031,-70300528.89796,  -0.00181,   0.00231,  -0.00106,476687456.00000,   0.00044,275116864.00000,  -0.00032,   0.00041,  -0.00015,  96.00000,   2.00000
-181045100.37775,340382208.49609,-70960568.96103,  -0.00182,   0.00232,  -0.00107,476702720.00000,   0.00044,275124320.00000,  -0.00033,   0.00042,  -0.00015,  64.00000,   2.00000
-181197412.23055,339940468.19735,-71619642.31930,  -0.00182,   0.00232,  -0.00108,476701056.00000,   0.00045,275131712.00000,  -0.00033,   0.00042,  -0.00015, 160.00000,   2.00000
-181371970.53163,339476612.95156,-72278967.43447,  -0.00183,   0.00233,  -0.00109,476690976.00000,   0.00046,275139040.00000,  -0.00034,   0.00043,  -0.00016,  64.00000,   2.00000
-181514470.74091,339035658.56060,-72937268.74600,  -0.00183,   0.00233,  -0.00111,476689248.00000,   0.00046,275146336.00000,  -0.00034,   0.00043,  -0.00016,  64.00000,   2.00000
-181655646.95995,338593571.37330,-73592607.56059,  -0.00184,   0.00234,  -0.00112,476700128.00000,   0.00047,275153632.00000,  -0.00035,   0.00044,  -0.00016, -96.00000,   2.00000
-181763209.81952,338171196.99981,-74256415.33310,  -0.00184,   0.00234,  -0.00113,476703072.00000,   0.00048,275160896.00000,  -0.00035,   0.00045,  -0.00016, -32.00000,   2.00000
-181924041.69694,337702093.72564,-74918508.17760,  -0.00185,   0.00234,  -0.00114,476706016.00000,   0.00048,275168128.00000,  -0.00036,   0.00045,  -0.00017,  96.00000,   2.00000
-181998921.41617,337300882.74198,-75578350.87799,  -0.00185,   0.00235,  -0.00115,476712832.00000,   0.00049,275175392.00000,  -0.00036,   0.00046,  -0.00017,  96.00000,   2.00000
-182120408.87335,336855426.27617,-76242001.80161,  -0.00185,   0.00235,  -0.00117,476682272.00000,   0.00050,275182464.00000,  -0.00037,   0.00046,  -0.00017,   0.00000,   2.00000
-182217403.81290,336429993.49122,-76899482.24604,  -0.00186,   0.00236,  -0.00118,476713728.00000,   0.00050,275189632.00000,  -0.00037,   0.00047,  -0.00018,  64.00000,   2.00000
-182335419.60716,335978201.00630,-77566956.22655,  -0.00186,   0.00236,  -0.00119,476708736.00000,   0.00051,275196736.00000,  -0.00038,   0.00048,  -0.00018,  64.00000,   2.00000
-182391470.29440,335572742.38011,-78235887.90702,  -0.00187,   0.00237,  -0.00120,476694336.00000,   0.00051,275203744.00000,  -0.00038,   0.00048,  -0.00018,   0.00000,   2.00000
-182477522.43434,335141975.75390,-78900116.24524,  -0.00187,   0.00237,  -0.00121,476717280.00000,   0.00052,275210848.00000,  -0.00039,   0.00049,  -0.00019, -32.00000,   2.00000
-182532376.54407,334733793.70683,-79563927.94562,  -0.00188,   0.00237,  -0.00122,476715168.00000,   0.00053,275217888.00000,  -0.00039,   0.00049,  -0.00019,  96.00000,   2.00000
-182610217.69992,334302474.75295,-80228711.47770,  -0.00188,   0.00238,  -0.00124,476704992.00000,   0.00053,275224832.00000,  -0.00040,   0.00050,  -0.00019, -64.00000,   2.00000
-182654790.94281,333890210.29801,-80902504.95382,  -0.00188,   0.00238,  -0.00125,476707680.00000,   0.00054,275231776.00000,  -0.00040,   0.00051,  -0.00020,  32.00000,   2.00000
-182670138.63105,333504053.19559,-81566769.75150,  -0.00189,   0.00239,  -0.00126,476700032.00000,   0.00055,275238624.00000,  -0.00041,   0.00051,  -0.00020, 160.00000,   2.00000
-182737051.34396,333067399.03881,-82239302.82707,  -0.00189,   0.00239,  -0.00127,476707008.00000,   0.00055,275245504.00000,  -0.00041,   0.00052,  -0.00020, -64.00000,   2.00000
-182742054.78643,332677245.62583,-82913864.63093,  -0.00190,   0.00239,  -0.00128,476691776.00000,   0.00056,275252256.00000,  -0.00042,   0.00052,  -0.00021,  32.00000,   2.00000
-182777098.57397,332261874.17363,-83583842.65725,  -0.00190,   0.00240,  -0.00130,476714016.00000,   0.00057,275259072.00000,  -0.00042,   0.00053,  -0.00021, -64.00000,   2.00000
-182780822.77381,331869048.81321,-84253663.51080,  -0.00190,   0.00240,  -0.00131,476711264.00000,   0.00057,275265856.00000,  -0.00043,   0.00053,  -0.00021,  96.00000,   2.00000
-182774471.02953,331473272.56035,-84936166.80279,  -0.00191,   0.00240,  -0.00132,476693344.00000,   0.00058,275272544.00000,  -0.00043,   0.00054,  -0.00022,  32.00000,   2.00000
-182746059.02772,331101772.95379,-85603406.48345,  -0.00191,   0.00241,  -0.00133,476717984.00000,   0.00058,275279296.00000,  -0.00043,   0.00055,  -0.00022,  64.00000,   2.00000
-182738243.07882,330703496.43665,-86281098.41365,  -0.00192,   0.00241,  -0.00135,476712576.00000,   0.00059,275285984.00000,  -0.00044,   0.00055,  -0.00022,   0.00000,   2.00000
-182724746.99442,330309701.60526,-86953188.75397,  -0.00192,   0.00242,  -0.00136,476683648.00000,   0.00060,275292512.00000,  -0.00044,   0.00056,  -0.00023, -32.00000,   2.00000
-182684776.15597,329932708.23610,-87628233.14409,  -0.00192,   0.00242,  -0.00137,476719264.00000,   0.00060,275299168.00000,  -0.00045,   0.00056,  -0.00023, 160.00000,   2.00000
-182636665.99056,329556282.48602,-88306820.74969,  -0.00193,   0.00242,  -0.00138,476695968.00000,   0.00061,275305696.00000,  -0.00045,   0.00057,  -0.00023, 128.00000,   2.00000
-182556896.33292,329202396.18878,-88985213.92494,  -0.00193,   0.00243,  -0.00139,476693120.00000,   0.00061,275312192.00000,  -0.00046,   0.00057,  -0.00024,  64.00000,   2.00000
-182506995.95681,328823510.97789,-89658726.07685,  -0.00193,   0.00243,  -0.00141,476714752.00000,   0.00062,275318720.00000,  -0.00046,   0.00058,  -0.00024,  32.00000,   2.00000
-182446679.11571,328441326.57944,-90344956.96056,  -0.00194,   0.00243,  -0.00142,476697216.00000,   0.00063,275325184.00000,  -0.00047,   0.00058,  -0.00024,-160.00000,   2.00000
-182356981.92845,328085532.61716,-91021895.44066,  -0.00194,   0.00244,  -0.00143,476688640.00000,   0.00063,275331552.00000,  -0.00047,   0.00059,  -0.00025,  64.00000,   2.00000
-182266276.02646,327728451.97505,-91696230.94776,  -0.00194,   0.00244,  -0.00144,476698016.00000,   0.00064,275337920.00000,  -0.00047,   0.00059,  -0.00025,  64.00000,   2.00000
-182141409.88064,327389945.82665,-92379393.97613,  -0.00195,   0.00244,  -0.00146,476701120.00000,   0.00064,275344320.00000,  -0.00048,   0.00060,  -0.00025,  64.00000,   2.00000
-182041288.55140,327032182.31668,-93054857.68936,  -0.00195,   0.00245,  -0.00147,476684384.00000,   0.00065,275350560.00000,  -0.00048,   0.00060,  -0.00026,  64.00000,   2.00000
-181914324.91373,326691245.04535,-93732703.57974,  -0.00195,   0.00245,  -0.00148,476720032.00000,   0.00066,275356960.00000,  -0.00049,   0.00061,  -0.00026,  96.00000,   2.00000
-181778877.45511,326350703.88985,-94414335.68736,  -0.00195,   0.00245,  -0.00149,476697120.00000,   0.00066,275363232.00000,  -0.00049,   0.00061,  -0.00026, -32.00000,   2.00000
-181637357.54156,326014589.87411,-95090874.53039,  -0.00196,   0.00246,  -0.00150,476667936.00000,   0.00067,275369344.00000,  -0.00049,   0.00062,  -0.00027,   0.00000,   2.00000
-181499788.13491,325671792.47265,-95767208.21450,  -0.00196,   0.00246,  -0.00152,476715936.00000,   0.00067,275375648.00000,  -0.00050,   0.00062,  -0.00027,  32.00000,   2.00000
-181322800.86358,325352811.58717,-96449950.67401,  -0.00196,   0.00246,  -0.00153,476680960.00000,   0.00068,275381728.00000,  -0.00050,   0.00063,  -0.00027,  64.00000,   2.00000
-181144581.33567,325032629.44281,-97130033.36651,  -0.00197,   0.00247,  -0.00154,476690240.00000,   0.00068,275387840.00000,  -0.00051,   0.00063,  -0.00028,   0.00000,   2.00000
-180965301.99631,324711462.60334,-97807528.47454,  -0.00197,   0.00247,  -0.00155,476699680.00000,   0.00069,275393984.00000,  -0.00051,   0.00064,  -0.00028,  64.00000,   2.00000
-180777382.76134,324390361.61235,-98489100.67531,  -0.00197,   0.00247,  -0.00157,476676864.00000,   0.00070,275400000.00000,  -0.00052,   0.00064,  -0.00029, -64.00000,   2.00000
-180564975.78560,324090497.62468,-99163902.64384,  -0.00197,   0.00248,  -0.00158,476706272.00000,   0.00070,275406080.00000,  -0.00052,   0.00065,  -0.00029,  96.00000,   2.00000
-180374824.94122,323767204.02944,-99840352.69823,  -0.00198,   0.00248,  -0.00159,476695680.00000,   0.00071,275412128.00000,  -0.00052,   0.00065,  -0.00029,  64.00000,   2.00000
-180145176.18556,323467318.10959,-100523681.70737,  -0.00198,   0.00248,  -0.00160,476660672.00000,   0.00071,275417952.00000,  -0.00053,   0.00066,  -0.00030,   0.00000,   2.00000
-179922015.82725,323165372.45740,-101197694.42779,  -0.00198,   0.00249,  -0.00162,476701984.00000,   0.00072,275423968.00000,  -0.00053,   0.00066,  -0.00030, -96.00000,   2.00000
-179690252.96238,322863322.60436,-101876178.97195,  -0.00198,   0.00249,  -0.00163,476679168.00000,   0.00072,275429824.00000,  -0.00054,   0.00067,  -0.00030,  32.00000,   2.00000
-179423937.89280,322579320.83941,-102563700.04793,  -0.00198,   0.00249,  -0.00164,476682560.00000,   0.00073,275435680.00000,  -0.00054,   0.00067,  -0.00031,  64.00000,   2.00000
-179159184.87610,322298701.01014,-103240199.32384,  -0.00199,   0.00249,  -0.00165,476685088.00000,   0.00073,275441536.00000,  -0.00054,   0.00068,  -0.00031,   0.00000,   2.00000
-178893419.99649,322017070.92814,-103914513.70491,  -0.00199,   0.00250,  -0.00166,476693760.00000,   0.00074,275447392.00000,  -0.00055,   0.00068,  -0.00031,  32.00000,   2.00000
-178619162.23999,321735299.32296,-104593782.76480,  -0.00199,   0.00250,  -0.00168,476670336.00000,   0.00074,275453088.00000,  -0.00055,   0.00069,  -0.00032, 128.00000,   2.00000
-178313165.46284,321475911.94480,-105273640.52979,  -0.00199,   0.00250,  -0.00169,476666784.00000,   0.00075,275458752.00000,  -0.00055,   0.00069,  -0.00032, 160.00000,   2.00000
-178006533.34826,321215583.78800,-105951298.59805,  -0.00199,   0.00251,  -0.00170,476675456.00000,   0.00075,275464448.00000,  -0.00056,   0.00070,  -0.00032, 192.00000,   2.00000
-177699430.81910,320953876.62144,-106626381.22676,  -0.00200,   0.00251,  -0.00171,476684640.00000,   0.00076,275470144.00000,  -0.00056,   0.00070,  -0.00033, 160.00000,   2.00000
-177384318.41242,320690930.09614,-107305684.25392,  -0.00200,   0.00251,  -0.00173,476662752.00000,   0.00076,275475712.00000,  -0.00057,   0.00071,  -0.00033, 128.00000,   2.00000
-177068971.26923,320425824.75869,-107981890.77803,  -0.00200,   0.00251,  -0.00174,476673152.00000,   0.00077,275481312.00000,  -0.00057,   0.00071,  -0.00033,  32.00000,   2.00000
-176721987.67015,320181559.09814,-108658006.51314,  -0.00200,   0.00252,  -0.00175,476671552.00000,   0.00078,275486848.00000,  -0.00057,   0.00071,  -0.00034,  32.00000,   2.00000
-176374083.45155,319935539.53200,-109332137.43637,  -0.00200,   0.00252,  -0.00176,476680480.00000,   0.00078,275492416.00000,  -0.00058,   0.00072,  -0.00034,  96.00000,   2.00000
-176017439.63526,319689114.16663,-110012425.13238,  -0.00200,   0.00252,  -0.00178,476655936.00000,   0.00079,275497824.00000,  -0.00058,   0.00072,  -0.00035,  64.00000,   2.00000
-175605781.48023,319488355.56263,-110689892.25772,  -0.00201,   0.00252,  -0.00179,476669888.00000,   0.00079,275503296.00000,  -0.00058,   0.00073,  -0.00035, -64.00000,   2.00000
-175247900.77276,319241333.25387,-111367711.84039,  -0.00201,   0.00253,  -0.00180,476668512.00000,   0.00080,275508736.00000,  -0.00059,   0.00073,  -0.00035,  64.00000,   2.00000
-174884804.01779,318998031.43243,-112042077.29718,  -0.00201,   0.00253,  -0.00181,476637664.00000,   0.00080,275514016.00000,  -0.00059,   0.00074,  -0.00036, 224.00000,   2.00000
-174464554.45575,318794060.08944,-112720019.68149,  -0.00201,   0.00253,  -0.00182,476661472.00000,   0.00081,275519392.00000,  -0.00059,   0.00074,  -0.00036, -96.00000,   2.00000
-174067181.58578,318564662.35965,-113399115.84534,  -0.00201,   0.00253,  -0.00184,476651808.00000,   0.00081,275524672.00000,  -0.00060,   0.00074,  -0.00036,  32.00000,   2.00000
-173641228.74036,318360129.61211,-114069010.90112,  -0.00201,   0.00254,  -0.00185,476643104.00000,   0.00081,275529888.00000,  -0.00060,   0.00075,  -0.00037, -32.00000,   2.00000
-173212276.27543,318148272.98174,-114744044.94397,  -0.00201,   0.00254,  -0.00186,476660416.00000,   0.00082,275535168.00000,  -0.00060,   0.00075,  -0.00037, 192.00000,   2.00000
-172754576.90904,317961458.30260,-115410399.34092,  -0.00201,   0.00254,  -0.00187,476651328.00000,   0.00082,275540384.00000,  -0.00061,   0.00076,  -0.00037,  32.00000,   2.00000
-172319625.92428,317749461.25580,-116078880.40896,  -0.00201,   0.00254,  -0.00189,476640832.00000,   0.00083,275545504.00000,  -0.00061,   0.00076,  -0.00038,  32.00000,   2.00000
-171881686.80993,317530394.84064,-116753228.68336,  -0.00202,   0.00255,  -0.00190,476657088.00000,   0.00083,275550720.00000,  -0.00061,   0.00077,  -0.00038,   0.00000,   2.00000
-171384059.77590,317360206.88924,-117422725.24610,  -0.00202,   0.00255,  -0.00191,476634784.00000,   0.00084,275555776.00000,  -0.00062,   0.00077,  -0.00038,  64.00000,   2.00000
-170917517.98600,317165216.23073,-118087094.71236,  -0.00202,   0.00255,  -0.00192,476654912.00000,   0.00084,275560896.00000,  -0.00062,   0.00077,  -0.00039, -32.00000,   2.00000
-170442569.12284,316968242.23209,-118757113.20601,  -0.00202,   0.00255,  -0.00193,476632096.00000,   0.00085,275565888.00000,  -0.00062,   0.00078,  -0.00039, 128.00000,   2.00000
-169939092.61842,316797042.41249,-119419545.68416,  -0.00202,   0.00255,  -0.00195,476621184.00000,   0.00085,275570816.00000,  -0.00063,   0.00078,  -0.00039, -64.00000,   2.00000
-169432769.42992,316619126.63943,-120088092.72252,  -0.00202,   0.00256,  -0.00196,476637056.00000,   0.00086,275575776.00000,  -0.00063,   0.00079,  -0.00040,  32.00000,   2.00000
-168926465.76601,316439191.48378,-120754384.18305,  -0.00202,   0.00256,  -0.00197,476645568.00000,   0.00086,275580768.00000,  -0.00063,   0.00079,  -0.00040, 160.00000,   2.00000
-168414473.57319,316261889.92283,-121418113.29385,  -0.00202,   0.00256,  -0.00198,476615392.00000,   0.00087,275585600.00000,  -0.00064,   0.00079,  -0.00040,  96.00000,   2.00000
-167879796.16793,316105603.77495,-122074544.86672,  -0.00202,   0.00256,  -0.00200,476643360.00000,   0.00087,275590528.00000,  -0.00064,   0.00080,  -0.00041, 192.00000,   2.00000
-167333446.10665,315941756.84632,-122744771.89495,  -0.00202,   0.00256,  -0.00201,476628736.00000,   0.00088,275595360.00000,  -0.00064,   0.00080,  -0.00041,  64.00000,   2.00000
-166781215.97998,315780387.65082,-123412503.14408,  -0.00202,   0.00257,  -0.00202,476598624.00000,   0.00088,275600032.00000,  -0.00065,   0.00080,  -0.00042,  64.00000,   2.00000
-166209271.64053,315645120.05559,-124064692.30606,  -0.00202,   0.00257,  -0.00203,476618720.00000,   0.00088,275604768.00000,  -0.00065,   0.00081,  -0.00042, 160.00000,   2.00000
-165656978.37574,315479412.07132,-124727757.11908,  -0.00202,   0.00257,  -0.00204,476615552.00000,   0.00089,275609504.00000,  -0.00065,   0.00081,  -0.00042,  32.00000,   2.00000
-165073215.75000,315334177.06183,-125391450.75182,  -0.00202,   0.00257,  -0.00206,476612768.00000,   0.00089,275614144.00000,  -0.00065,   0.00082,  -0.00043, 224.00000,   2.00000
-164492320.08194,315191834.32931,-126044682.73594,  -0.00202,   0.00257,  -0.00207,476613376.00000,   0.00090,275618816.00000,  -0.00066,   0.00082,  -0.00043, 160.00000,   2.00000
-163876804.79713,315064646.33010,-126706532.79551,  -0.00202,   0.00258,  -0.00208,476618720.00000,   0.00090,275623456.00000,  -0.00066,   0.00082,  -0.00043,  96.00000,   2.00000
-163286706.15611,314917405.04945,-127363239.63395,  -0.00202,   0.00258,  -0.00209,476599488.00000,   0.00091,275628000.00000,  -0.00066,   0.00083,  -0.00044, 128.00000,   2.00000
-162664858.85677,314790424.34988,-128020555.00834,  -0.00202,   0.00258,  -0.00210,476596608.00000,   0.00091,275632512.00000,  -0.00067,   0.00083,  -0.00044,   0.00000,   2.00000
-162014157.61759,314689131.17793,-128670546.09616,  -0.00202,   0.00258,  -0.00212,476585600.00000,   0.00091,275636928.00000,  -0.00067,   0.00083,  -0.00044,   0.00000,   2.00000
-161392015.76424,314557963.60424,-129323138.18378,  -0.00202,   0.00258,  -0.00213,476613152.00000,   0.00092,275641472.00000,  -0.00067,   0.00084,  -0.00045, -96.00000,   2.00000
-160763401.27254,314429249.03238,-129973799.45333,  -0.00202,   0.00258,  -0.00214,476582560.00000,   0.00092,275645856.00000,  -0.00067,   0.00084,  -0.00045,   0.00000,   2.00000
-160077524.91223,314338734.16266,-130627677.85527,  -0.00202,   0.00259,  -0.00215,476607648.00000,   0.00093,275650304.00000,  -0.00068,   0.00084,  -0.00045, -32.00000,   2.00000
-159416714.09610,314228348.27217,-131276680.70862,  -0.00202,   0.00259,  -0.00216,476588096.00000,   0.00093,275654688.00000,  -0.00068,   0.00085,  -0.00046,   0.00000,   2.00000
-158749119.45297,314120379.78791,-131923908.48835,  -0.00202,   0.00259,  -0.00217,476557472.00000,   0.00093,275658880.00000,  -0.00068,   0.00085,  -0.00046,  32.00000,   2.00000
-158055970.20659,314028214.13828,-132571229.02255,  -0.00202,   0.00259,  -0.00219,476593248.00000,   0.00094,275663200.00000,  -0.00069,   0.00085,  -0.00046,  64.00000,   2.00000
-157352933.41604,313933147.03131,-133224697.27833,  -0.00202,   0.00259,  -0.00220,476571072.00000,   0.00094,275667424.00000,  -0.00069,   0.00086,  -0.00047, -32.00000,   2.00000
-156652557.97319,313841543.16184,-133868042.58699,  -0.00202,   0.00259,  -0.00221,476570656.00000,   0.00095,275671616.00000,  -0.00069,   0.00086,  -0.00047,  64.00000,   2.00000
-155919899.99797,313770204.40778,-134512094.75550,  -0.00201,   0.00259,  -0.00222,476567680.00000,   0.00095,275675776.00000,  -0.00069,   0.00086,  -0.00047,  64.00000,   2.00000
-155186872.84999,313697044.94710,-135153851.17773,  -0.00201,   0.00260,  -0.00223,476575744.00000,   0.00095,275679968.00000,  -0.00070,   0.00087,  -0.00048, 128.00000,   2.00000
-154446599.93400,313626259.27070,-135794128.07976,  -0.00201,   0.00260,  -0.00224,476544928.00000,   0.00096,275683968.00000,  -0.00070,   0.00087,  -0.00048, -64.00000,   2.00000
-153702965.02068,313548225.12701,-136439883.01571,  -0.00201,   0.00260,  -0.00226,476561152.00000,   0.00096,275688032.00000,  -0.00070,   0.00087,  -0.00048,  96.00000,   2.00000
-152961928.46175,313473834.35707,-137075647.92294,  -0.00201,   0.00260,  -0.00227,476560448.00000,   0.00096,275692096.00000,  -0.00070,   0.00088,  -0.00049, 160.00000,   2.00000
-152188446.56582,313419648.92590,-137712176.00184,  -0.00201,   0.00260,  -0.00228,476557632.00000,   0.00097,275696128.00000,  -0.00071,   0.00088,  -0.00049,  32.00000,   2.00000
-151407528.14411,313367802.98534,-138347477.20103,  -0.00201,   0.00260,  -0.00229,476526688.00000,   0.00097,275699968.00000,  -0.00071,   0.00088,  -0.00049, -32.00000,   2.00000
-150623152.35993,313308609.26168,-138988160.75085,  -0.00201,   0.00260,  -0.00230,476542976.00000,   0.00098,275703872.00000,  -0.00071,   0.00088,  -0.00050, 128.00000,   2.00000
-149841337.75901,313253099.65170,-139618945.85922,  -0.00201,   0.00261,  -0.00231,476541856.00000,   0.00098,275707776.00000,  -0.00071,   0.00089,  -0.00050, -96.00000,   2.00000
-149027047.64017,313217783.32966,-140250588.01907,  -0.00200,   0.00261,  -0.00232,476538944.00000,   0.00098,275711616.00000,  -0.00071,   0.00089,  -0.00050,  96.00000,   2.00000
-148183247.89251,313208182.46795,-140875508.13164,  -0.00200,   0.00261,  -0.00234,476527200.00000,   0.00099,275715424.00000,  -0.00072,   0.00089,  -0.00050,  64.00000,   2.00000
-147357813.38368,313167474.36135,-141511391.94104,  -0.00200,   0.00261,  -0.00235,476524512.00000,   0.00099,275719168.00000,  -0.00072,   0.00090,  -0.00051,  32.00000,   2.00000
-146535047.23449,313130549.12480,-142137529.90162,  -0.00200,   0.00261,  -0.00236,476523008.00000,   0.00099,275722880.00000,  -0.00072,   0.00090,  -0.00051, -32.00000,   2.00000
-145679756.78812,313113556.82513,-142764534.81919,  -0.00200,   0.00261,  -0.00237,476520256.00000,   0.00100,275726592.00000,  -0.00072,   0.00090,  -0.00051,  96.00000,   2.00000
-144827166.99687,313100317.18898,-143381839.00589,  -0.00200,   0.00261,  -0.00238,476518592.00000,   0.00100,275730272.00000,  -0.00073,   0.00090,  -0.00052, 128.00000,   2.00000
-143960706.62223,313077422.91874,-144013209.53097,  -0.00199,   0.00261,  -0.00239,476505856.00000,   0.00100,275733856.00000,  -0.00073,   0.00091,  -0.00052,  96.00000,   2.00000
-143064724.88805,313079845.58084,-144637989.46131,  -0.00199,   0.00261,  -0.00240,476494016.00000,   0.00101,275737376.00000,  -0.00073,   0.00091,  -0.00052,  96.00000,   2.00000
-142203857.25280,313064364.85004,-145250100.58756,  -0.00199,   0.00261,  -0.00241,476502432.00000,   0.00101,275740928.00000,  -0.00073,   0.00091,  -0.00053,  32.00000,   2.00000
-141275025.20143,313084081.49862,-145873448.80712,  -0.00199,   0.00262,  -0.00243,476499008.00000,   0.00101,275744448.00000,  -0.00073,   0.00092,  -0.00053, -64.00000,   2.00000
-140403034.29733,313062117.15448,-146490018.75169,  -0.00199,   0.00262,  -0.00244,476488256.00000,   0.00102,275747904.00000,  -0.00074,   0.00092,  -0.00053, -64.00000,   2.00000
-139444563.63207,313104677.26802,-147104594.38785,  -0.00198,   0.00262,  -0.00245,476494784.00000,   0.00102,275751360.00000,  -0.00074,   0.00092,  -0.00054,  32.00000,   2.00000
-138543025.40465,313105558.86551,-147712505.89578,  -0.00198,   0.00262,  -0.00246,476483712.00000,   0.00102,275754752.00000,  -0.00074,   0.00092,  -0.00054, 224.00000,   2.00000
-137594863.01563,313117137.79725,-148337431.80927,  -0.00198,   0.00262,  -0.00247,476461984.00000,   0.00103,275758048.00000,  -0.00074,   0.00093,  -0.00054, -96.00000,   2.00000
-136660720.46209,313134494.68028,-148943816.63308,  -0.00198,   0.00262,  -0.00248,476488896.00000,   0.00103,275761440.00000,  -0.00074,   0.00093,  -0.00054,  96.00000,   2.00000
-135718547.44982,313152870.58931,-149549818.49184,  -0.00197,   0.00262,  -0.00249,476457984.00000,   0.00103,275764640.00000,  -0.00075,   0.00093,  -0.00055, -32.00000,   2.00000
-134743876.51817,313190077.62594,-150156682.76562,  -0.00197,   0.00262,  -0.00250,476455872.00000,   0.00103,275767840.00000,  -0.00075,   0.00093,  -0.00055,  64.00000,   2.00000
-133769191.30202,313224490.98500,-150761223.37935,  -0.00197,   0.00262,  -0.00251,476463392.00000,   0.00104,275771072.00000,  -0.00075,   0.00094,  -0.00055,  32.00000,   2.00000
-132761905.04211,313277259.74535,-151366459.10257,  -0.00197,   0.00262,  -0.00252,476461408.00000,   0.00104,275774272.00000,  -0.00075,   0.00094,  -0.00056,   0.00000,   2.00000
-131779039.64699,313309526.81175,-151968448.29399,  -0.00196,   0.00262,  -0.00253,476440320.00000,   0.00104,275777344.00000,  -0.00075,   0.00094,  -0.00056,-192.00000,   2.00000
-130772026.88299,313356578.89134,-152569082.96180,  -0.00196,   0.00262,  -0.00254,476476640.00000,   0.00105,275780608.00000,  -0.00076,   0.00094,  -0.00056, -32.00000,   2.00000
-129780876.13767,313386696.25905,-153168762.48662,  -0.00196,   0.00262,  -0.00255,476417152.00000,   0.00105,275783552.00000,  -0.00076,   0.00094,  -0.00056,  32.00000,   2.00000
-128732897.74527,313452540.28349,-153770042.57335,  -0.00196,   0.00262,  -0.00257,476444032.00000,   0.00105,275786592.00000,  -0.00076,   0.00095,  -0.00057, 128.00000,   2.00000
-127688052.98116,313521375.50738,-154362014.22938,  -0.00195,   0.00262,  -0.00258,476441920.00000,   0.00105,275789632.00000,  -0.00076,   0.00095,  -0.00057,   0.00000,   2.00000
-126667456.10670,313569755.30158,-154951081.78422,  -0.00195,   0.00263,  -0.00259,476420288.00000,   0.00106,275792544.00000,  -0.00076,   0.00095,  -0.00057,  32.00000,   2.00000
-125614133.26250,313636181.60256,-155540998.32537,  -0.00195,   0.00263,  -0.00260,476418272.00000,   0.00106,275795456.00000,  -0.00076,   0.00095,  -0.00057, -64.00000,   2.00000
-124561002.98472,313699618.67141,-156128776.80508,  -0.00194,   0.00263,  -0.00261,476425504.00000,   0.00106,275798368.00000,  -0.00077,   0.00096,  -0.00058,  32.00000,   2.00000
-123475099.05878,313780955.44314,-156717392.80738,  -0.00194,   0.00263,  -0.00262,476423840.00000,   0.00107,275801248.00000,  -0.00077,   0.00096,  -0.00058,  96.00000,   2.00000
-122413201.51279,313841953.70590,-157303371.91640,  -0.00194,   0.00263,  -0.00263,476401728.00000,   0.00107,275804032.00000,  -0.00077,   0.00096,  -0.00058,  96.00000,   2.00000
-121318350.21410,313920749.37589,-157890197.49201,  -0.00193,   0.00263,  -0.00264,476399744.00000,   0.00107,275806784.00000,  -0.00077,   0.00096,  -0.00059, -32.00000,   2.00000
-120223718.64586,313996708.02318,-158475053.18396,  -0.00193,   0.00263,  -0.00265,476406656.00000,   0.00107,275809568.00000,  -0.00077,   0.00096,  -0.00059, -32.00000,   2.00000
-119099020.10394,314096891.61451,-159054030.68597,  -0.00193,   0.00263,  -0.00266,476394560.00000,   0.00108,275812256.00000,  -0.00077,   0.00097,  -0.00059, -64.00000,   2.00000
-117998055.48210,314177040.71167,-159630698.59593,  -0.00192,   0.00263,  -0.00267,476371808.00000,   0.00108,275814848.00000,  -0.00077,   0.00097,  -0.00059, -96.00000,   2.00000
-116840460.35530,314292164.04130,-160208651.91566,  -0.00192,   0.00263,  -0.00268,476399104.00000,   0.00108,275817568.00000,  -0.00078,   0.00097,  -0.00060,-160.00000,   2.00000
-115706521.12912,314387418.88614,-160784425.31507,  -0.00192,   0.00263,  -0.00269,476376128.00000,   0.00108,275820160.00000,  -0.00078,   0.00097,  -0.00060, -32.00000,   2.00000
-114575530.07845,314486442.39759,-161351610.30124,  -0.00191,   0.00263,  -0.00270,476372288.00000,   0.00109,275822720.00000,  -0.00078,   0.00097,  -0.00060,  64.00000,   2.00000
-113428991.80724,314573377.86681,-161932982.80392,  -0.00191,   0.00263,  -0.00271,476361280.00000,   0.00109,275825216.00000,  -0.00078,   0.00098,  -0.00060, -64.00000,   2.00000
-112234204.70168,314714589.66193,-162495360.92143,  -0.00191,   0.00263,  -0.00272,476357952.00000,   0.00109,275827680.00000,  -0.00078,   0.00098,  -0.00060,-128.00000,   2.00000
-111057157.17941,314823129.38638,-163069083.65452,  -0.00190,   0.00263,  -0.00273,476355392.00000,   0.00109,275830112.00000,  -0.00078,   0.00098,  -0.00061,-128.00000,   2.00000
-109882924.96976,314935667.74327,-163634294.74102,  -0.00190,   0.00263,  -0.00274,476351296.00000,   0.00109,275832512.00000,  -0.00078,   0.00098,  -0.00061, 160.00000,   2.00000
-108675097.79919,315065766.64787,-164200246.14161,  -0.00189,   0.00263,  -0.00275,476349632.00000,   0.00110,275834912.00000,  -0.00078,   0.00098,  -0.00061,   0.00000,   2.00000
-107490390.19211,315176521.16659,-164764342.47116,  -0.00189,   0.00263,  -0.00276,476326176.00000,   0.00110,275837184.00000,  -0.00079,   0.00098,  -0.00061,  96.00000,   2.00000
-106271980.16192,315304899.58154,-165329189.07711,  -0.00189,   0.00263,  -0.00277,476324576.00000,   0.00110,275839456.00000,  -0.00079,   0.00099,  -0.00062,  64.00000,   2.00000
-105056178.43631,315437259.46166,-165885492.87254,  -0.00188,   0.00263,  -0.00278,476320416.00000,   0.00110,275841696.00000,  -0.00079,   0.00099,  -0.00062, -64.00000,   2.00000
-103806622.28704,315587191.70802,-166442525.92598,  -0.00188,   0.00263,  -0.00278,476318880.00000,   0.00111,275843904.00000,  -0.00079,   0.00099,  -0.00062, -32.00000,   2.00000
-102556963.53778,315734448.89557,-166997553.99252,  -0.00187,   0.00263,  -0.00279,476325216.00000,   0.00111,275846144.00000,  -0.00079,   0.00099,  -0.00062,  64.00000,   2.00000
-101330033.99551,315862249.31285,-167550778.86764,  -0.00187,   0.00263,  -0.00280,476301920.00000,   0.00111,275848256.00000,  -0.00079,   0.00099,  -0.00062,  96.00000,   2.00000
-100051785.59235,316037577.35884,-168091397.85455,  -0.00186,   0.00263,  -0.00281,476309408.00000,   0.00111,275850400.00000,  -0.00079,   0.00099,  -0.00063, -96.00000,   2.00000
-98757101.64102,316199879.01021,-168645713.10476,  -0.00186,   0.00263,  -0.00282,476300000.00000,   0.00111,275852480.00000,  -0.00079,   0.00100,  -0.00063,  32.00000,   2.00000
-97484955.50816,316342407.33103,-169198064.73200,  -0.00186,   0.00263,  -0.00283,476277376.00000,   0.00111,275854432.00000,  -0.00080,   0.00100,  -0.00063,  64.00000,   2.00000
-96195189.42177,316511674.92022,-169734551.82030,  -0.00185,   0.00263,  -0.00284,476293568.00000,   0.00112,275856480.00000,  -0.00080,   0.00100,  -0.00063, -96.00000,   2.00000
-94891323.83702,316673881.66739,-170277749.39127,  -0.00185,   0.00263,  -0.00285,476275104.00000,   0.00112,275858400.00000,  -0.00080,   0.00100,  -0.00064,   0.00000,   2.00000
-93567326.35570,316855556.27397,-170810933.85408,  -0.00184,   0.00263,  -0.00286,476303520.00000,   0.00112,275860480.00000,  -0.00080,   0.00100,  -0.00064,  96.00000,   2.00000
-92231397.52424,317036006.54371,-171343906.05284,  -0.00184,   0.00263,  -0.00287,476275936.00000,   0.00112,275862368.00000,  -0.00080,   0.00100,  -0.00064, -32.00000,   2.00000
-90917349.90028,317195429.63748,-171874187.15281,  -0.00183,   0.00262,  -0.00288,476255328.00000,   0.00112,275864192.00000,  -0.00080,   0.00100,  -0.00064,   0.00000,   2.00000
-89583211.71508,317374066.25331,-172394179.52154,  -0.00183,   0.00262,  -0.00288,476284000.00000,   0.00113,275866112.00000,  -0.00080,   0.00101,  -0.00064,  32.00000,   2.00000
-88234230.17574,317544584.04057,-172920490.62309,  -0.00182,   0.00262,  -0.00289,476266912.00000,   0.00113,275867968.00000,  -0.00080,   0.00101,  -0.00064,   0.00000,   2.00000
-86850754.34824,317730726.55152,-173446343.51548,  -0.00182,   0.00262,  -0.00290,476268608.00000,   0.00113,275869824.00000,  -0.00080,   0.00101,  -0.00065,-128.00000,   2.00000
-85506072.15954,317907790.72449,-173954901.41358,  -0.00181,   0.00262,  -0.00291,476260672.00000,   0.00113,275871616.00000,  -0.00080,   0.00101,  -0.00065, -64.00000,   2.00000
-84090314.16937,318113533.10619,-174472100.16403,  -0.00181,   0.00262,  -0.00292,476265440.00000,   0.00113,275873408.00000,  -0.00080,   0.00101,  -0.00065, -64.00000,   2.00000
-82730444.76277,318280245.21850,-174985722.46416,  -0.00180,   0.00262,  -0.00293,476248192.00000,   0.00113,275875136.00000,  -0.00081,   0.00101,  -0.00065, -32.00000,   2.00000
-81284958.79938,318513648.53798,-175489117.95918,  -0.00180,   0.00262,  -0.00294,476248896.00000,   0.00114,275876864.00000,  -0.00081,   0.00101,  -0.00065,  32.00000,   2.00000
-79893001.71307,318701287.07745,-175995277.74672,  -0.00179,   0.00262,  -0.00294,476242048.00000,   0.00114,275878528.00000,  -0.00081,   0.00101,  -0.00066, -96.00000,   2.00000
-78466637.46194,318905433.27013,-176501873.62174,  -0.00179,   0.00262,  -0.00295,476241344.00000,   0.00114,275880224.00000,  -0.00081,   0.00102,  -0.00066,   0.00000,   2.00000
-77027447.51983,319109522.91404,-177010032.83242,  -0.00178,   0.00262,  -0.00296,476210432.00000,   0.00114,275881728.00000,  -0.00081,   0.00102,  -0.00066,  64.00000,   2.00000
-75571245.66182,319341221.45894,-177502952.29764,  -0.00178,   0.00262,  -0.00297,476224480.00000,   0.00114,275883296.00000,  -0.00081,   0.00102,  -0.00066,  64.00000,   2.00000
-74134088.64486,319546074.84041,-178000831.02175,  -0.00177,   0.00262,  -0.00298,476211840.00000,   0.00114,275884832.00000,  -0.00081,   0.00102,  -0.00066, -64.00000,   2.00000
-72662379.95786,319766705.55641,-178498709.56250,  -0.00176,   0.00262,  -0.00298,476212224.00000,   0.00114,275886336.00000,  -0.00081,   0.00102,  -0.00066, -32.00000,   2.00000
-71192778.99533,319990922.31864,-178988247.48131,  -0.00176,   0.00262,  -0.00299,476207808.00000,   0.00115,275887808.00000,  -0.00081,   0.00102,  -0.00067, -32.00000,   2.00000
-69723070.65551,320211476.59597,-179475295.38930,  -0.00175,   0.00261,  -0.00300,476214912.00000,   0.00115,275889312.00000,  -0.00081,   0.00102,  -0.00067,   0.00000,   2.00000
-68239817.21120,320430973.40671,-179963470.37210,  -0.00175,   0.00261,  -0.00301,476185984.00000,   0.00115,275890688.00000,  -0.00081,   0.00102,  -0.00067,  96.00000,   2.00000
-66702911.30880,320688887.14843,-180443826.12012,  -0.00174,   0.00261,  -0.00302,476206816.00000,   0.00115,275892128.00000,  -0.00081,   0.00102,  -0.00067,  96.00000,   2.00000
-65186840.21914,320926680.92364,-180923110.92385,  -0.00174,   0.00261,  -0.00302,476183616.00000,   0.00115,275893472.00000,  -0.00081,   0.00102,  -0.00067,  96.00000,   2.00000
-63672677.17401,321167786.45091,-181393970.49223,  -0.00173,   0.00261,  -0.00303,476179584.00000,   0.00115,275894784.00000,  -0.00081,   0.00103,  -0.00067, -32.00000,   2.00000
-62140329.08948,321392946.57980,-181877487.47408,  -0.00172,   0.00261,  -0.00304,476173760.00000,   0.00115,275896064.00000,  -0.00082,   0.00103,  -0.00067, 128.00000,   2.00000
-60593209.48700,321652250.73669,-182339492.53721,  -0.00172,   0.00261,  -0.00305,476177248.00000,   0.00115,275897376.00000,  -0.00082,   0.00103,  -0.00068,  32.00000,   2.00000
-59064566.48706,321884309.31454,-182806440.04530,  -0.00171,   0.00261,  -0.00305,476165120.00000,   0.00116,275898592.00000,  -0.00082,   0.00103,  -0.00068,  64.00000,   2.00000
-57500992.12467,322131057.58029,-183272856.20749,  -0.00171,   0.00261,  -0.00306,476167040.00000,   0.00116,275899840.00000,  -0.00082,   0.00103,  -0.00068,   0.00000,   2.00000
-55939248.07633,322381448.20280,-183731150.51703,  -0.00170,   0.00261,  -0.00307,476162496.00000,   0.00116,275901024.00000,  -0.00082,   0.00103,  -0.00068,   0.00000,   2.00000
-54342514.46380,322646329.72570,-184188812.33393,  -0.00169,   0.00261,  -0.00308,476164800.00000,   0.00116,275902240.00000,  -0.00082,   0.00103,  -0.00068,  64.00000,   2.00000
-52747564.06301,322914874.00822,-184638383.79339,  -0.00169,   0.00260,  -0.00308,476159904.00000,   0.00116,275903424.00000,  -0.00082,   0.00103,  -0.00068,  96.00000,   2.00000
-51135866.30717,323174502.42544,-185094848.38217,  -0.00168,   0.00260,  -0.00309,476142912.00000,   0.00116,275904544.00000,  -0.00082,   0.00103,  -0.00068, -96.00000,   2.00000
-49525825.05084,323437777.84707,-185543226.17940,  -0.00168,   0.00260,  -0.00310,476138144.00000,   0.00116,275905600.00000,  -0.00082,   0.00103,  -0.00069,   0.00000,   2.00000
-47917444.44146,323704942.78739,-185983665.06730,  -0.00167,   0.00260,  -0.00310,476133120.00000,   0.00116,275906656.00000,  -0.00082,   0.00103,  -0.00069,  64.00000,   2.00000
-46273860.66314,323986208.94119,-186423223.51398,  -0.00166,   0.00260,  -0.00311,476135840.00000,   0.00116,275907680.00000,  -0.00082,   0.00103,  -0.00069,   0.00000,   2.00000
-44630150.04492,324263619.38682,-186860239.63320,  -0.00166,   0.00260,  -0.00312,476142656.00000,   0.00117,275908768.00000,  -0.00082,   0.00104,  -0.00069, -64.00000,   2.00000
-43005984.94598,324521682.00704,-187296981.17796,  -0.00165,   0.00260,  -0.00312,476118272.00000,   0.00117,275909728.00000,  -0.00082,   0.00104,  -0.00069,   0.00000,   2.00000
-41330239.72276,324824819.64030,-187719708.56899,  -0.00164,   0.00260,  -0.00313,476128288.00000,   0.00117,275910720.00000,  -0.00082,   0.00104,  -0.00069,  96.00000,   2.00000
-39672107.01650,325100434.99142,-188147306.37760,  -0.00164,   0.00259,  -0.00314,476115520.00000,   0.00117,275911680.00000,  -0.00082,   0.00104,  -0.00069,-928.00000,   1.00000
-37978766.51437,325390746.55862,-188574342.59907,  -0.00163,   0.00259,  -0.00314,476117376.00000,   0.00117,275912608.00000,  -0.00082,   0.00104,  -0.00069,-960.00000,   1.00000
-36286927.30523,325685763.21298,-188993922.54979,  -0.00162,   0.00259,  -0.00315,476112032.00000,   0.00117,275913536.00000,  -0.00082,   0.00104,  -0.00069, -32.00000,   2.00000
-34561026.44345,326001586.53857,-189406563.43320,  -0.00162,   0.00259,  -0.00316,476103392.00000,   0.00117,275914400.00000,  -0.00082,   0.00104,  -0.00070,-864.00000,   1.00000
-32852705.62261,326291122.67756,-189824896.80095,  -0.00161,   0.00259,  -0.00316,476089728.00000,   0.00117,275915200.00000,  -0.00082,   0.00104,  -0.00070,-832.00000,   1.00000
-31145631.29137,326584882.60654,-190235514.54376,  -0.00160,   0.00259,  -0.00317,476084000.00000,   0.00117,275915968.00000,  -0.00082,   0.00104,  -0.00070,-800.00000,   1.00000
-29420790.11801,326898283.24184,-190635855.48846,  -0.00160,   0.00259,  -0.00318,476109632.00000,   0.00117,275916864.00000,  -0.00082,   0.00104,  -0.00070,-928.00000,   1.00000
-27679490.17705,327210419.89992,-191037893.12395,  -0.00159,   0.00258,  -0.00318,476080896.00000,   0.00117,275917600.00000,  -0.00082,   0.00104,  -0.00070,-832.00000,   1.00000
-25920176.93942,327513194.42320,-191446749.17400,  -0.00158,   0.00258,  -0.00319,476064544.00000,   0.00117,275918272.00000,  -0.00082,   0.00104,  -0.00070,-672.00000,   1.00000
-24179858.75083,327825713.18418,-191838520.18245,  -0.00157,   0.00258,  -0.00319,476081696.00000,   0.00117,275919040.00000,  -0.00082,   0.00104,  -0.00070,-800.00000,   1.00000
-22368771.93624,328169317.54532,-192230468.12116,  -0.00157,   0.00258,  -0.00320,476081632.00000,   0.00118,275919776.00000,  -0.00082,   0.00104,  -0.00070,-768.00000,   1.00000
-20611425.93262,328476220.00052,-192621177.37584,  -0.00156,   0.00258,  -0.00321,476060224.00000,   0.00118,275920416.00000,  -0.00083,   0.00104,  -0.00070,-768.00000,   1.00000
-18819806.82292,328804502.55976,-193005475.32289,  -0.00155,   0.00258,  -0.00321,476051360.00000,   0.00118,275921024.00000,  -0.00083,   0.00104,  -0.00070,-480.00000,   1.00000
-17027961.45753,329128308.86267,-193386812.58942,  -0.00154,   0.00258,  -0.00322,476058816.00000,   0.00118,275921664.00000,  -0.00083,   0.00104,  -0.00070,-640.00000,   1.00000
-15200580.43049,329464912.28324,-193766460.30302,  -0.00154,   0.00257,  -0.00322,476063200.00000,   0.00118,275922304.00000,  -0.00083,   0.00104,  -0.00070,-576.00000,   1.00000
-13374196.22265,329804888.44495,-194137996.27919,  -0.00153,   0.00257,  -0.00323,476058496.00000,   0.00118,275922912.00000,  -0.00083,   0.00105,  -0.00071,-576.00000,   1.00000
-11548775.64881,330148149.07667,-194501379.22682,  -0.00152,   0.00257,  -0.00323,476053888.00000,   0.00118,275923520.00000,  -0.00083,   0.00105,  -0.00071,-704.00000,   1.00000
-9704690.74546,330480454.93931,-194870764.47749,  -0.00151,   0.00257,  -0.00324,476039808.00000,   0.00118,275924064.00000,  -0.00083,   0.00105,  -0.00071,-480.00000,   1.00000
-7861436.96635,330815660.08496,-195231773.13768,  -0.00151,   0.00257,  -0.00325,476035744.00000,   0.00118,275924576.00000,  -0.00083,   0.00105,  -0.00071,-544.00000,   1.00000
-6002280.50940,331176864.22476,-195576311.82040,  -0.00150,   0.00257,  -0.00325,476050976.00000,   0.00118,275925152.00000,  -0.00083,   0.00105,  -0.00071,-640.00000,   1.00000
-4123370.79485,331518385.05115,-195931447.22331,  -0.00149,   0.00256,  -0.00326,476050304.00000,   0.00118,275925728.00000,  -0.00083,   0.00105,  -0.00071,-576.00000,   1.00000
-2246100.23721,331870806.91351,-196273198.59425,  -0.00148,   0.00256,  -0.00326,476033984.00000,   0.00118,275926208.00000,  -0.00083,   0.00105,  -0.00071,-448.00000,   1.00000
-385267.40490,332194819.68482,-196619605.46128,  -0.00148,   0.00256,  -0.00327,476023200.00000,   0.00118,275926656.00000,  -0.00083,   0.00105,  -0.00071,-448.00000,   1.00000
1526851.40660,332560915.09511,-196950049.29642,  -0.00147,   0.00256,  -0.00327,476037088.00000,   0.00118,275927168.00000,  -0.00083,   0.00105,  -0.00071,-544.00000,   1.00000
3422623.78413,332898579.46632,-197285142.99883,  -0.00146,   0.00256,  -0.00328,476026400.00000,   0.00118,275927616.00000,  -0.00083,   0.00105,  -0.00071,-448.00000,   1.00000
5370171.05685,333269853.18582,-197608964.54746,  -0.00145,   0.00255,  -0.00328,476053184.00000,   0.00118,275928192.00000,  -0.00083,   0.00105,  -0.00071,-672.00000,   1.00000
7300304.17572,333629633.52201,-197928037.62402,  -0.00145,   0.00255,  -0.00328,476016768.00000,   0.00118,275928608.00000,  -0.00083,   0.00105,  -0.00071,-352.00000,   1.00000
9230402.47589,333983822.87202,-198243450.24950,  -0.00144,   0.00255,  -0.00329,476025600.00000,   0.00118,275929024.00000,  -0.00083,   0.00105,  -0.00071,-576.00000,   1.00000
11160383.01115,334332965.09400,-198555545.12605,  -0.00143,   0.00255,  -0.00329,476033600.00000,   0.00118,275929504.00000,  -0.00083,   0.00105,  -0.00071,-480.00000,   1.00000
13125438.55241,334701397.13352,-198860007.63229,  -0.00142,   0.00255,  -0.00330,476027904.00000,   0.00118,275929952.00000,  -0.00083,   0.00105,  -0.00071,-544.00000,   1.00000
15089982.78754,335073274.19198,-199156478.87451,  -0.00141,   0.00255,  -0.00330,476023040.00000,   0.00119,275930400.00000,  -0.00083,   0.00105,  -0.00071,-576.00000,   1.00000
17090012.75307,335456214.09771,-199450157.08670,  -0.00141,   0.00254,  -0.00331,476029824.00000,   0.00119,275930848.00000,  -0.00083,   0.00105,  -0.00071,-384.00000,   1.00000
19038501.76992,335795972.02014,-199748854.86414,  -0.00140,   0.00254,  -0.00331,476018432.00000,   0.00119,275931232.00000,  -0.00083,   0.00105,  -0.00072,-480.00000,   1.00000
21073318.45807,336202127.26079,-200027227.27576,  -0.00139,   0.00254,  -0.00332,476018528.00000,   0.00119,275931648.00000,  -0.00083,   0.00105,  -0.00072,-480.00000,   1.00000
23056717.21830,336565599.69196,-200310964.58730,  -0.00138,   0.00254,  -0.00332,476006368.00000,   0.00119,275931968.00000,  -0.00083,   0.00105,  -0.00072,-384.00000,   1.00000
25075610.26172,336940152.11744,-200591909.16482,  -0.00137,   0.00254,  -0.00332,476013024.00000,   0.00119,275932352.00000,  -0.00083,   0.00105,  -0.00072,-320.00000,   1.00000
27094194.01904,337318888.17815,-200865362.13248,  -0.00136,   0.00253,  -0.00333,476007040.00000,   0.00119,275932672.00000,  -0.00083,   0.00105,  -0.00072,-288.00000,   1.00000
29112508.88045,337701746.39952,-201131291.72923,  -0.00136,   0.00253,  -0.00333,476001088.00000,   0.00119,275932992.00000,  -0.00083,   0.00105,  -0.00072,-320.00000,   1.00000
31166267.07742,338095377.71265,-201394228.43164,  -0.00135,   0.00253,  -0.00334,476008192.00000,   0.00119,275933344.00000,  -0.00083,   0.00105,  -0.00072,-448.00000,   1.00000
33219742.50504,338484612.65903,-201654247.01253,  -0.00134,   0.00253,  -0.00334,476015136.00000,   0.00119,275933696.00000,  -0.00083,   0.00105,  -0.00072,-256.00000,   1.00000
35273046.29107,338886146.67898,-201901942.84973,  -0.00133,   0.00253,  -0.00334,475996864.00000,   0.00119,275933984.00000,  -0.00083,   0.00105,  -0.00072,-160.00000,   1.00000
37346620.30689,339275219.31365,-202154832.44593,  -0.00132,   0.00252,  -0.00335,475985152.00000,   0.00119,275934240.00000,  -0.00083,   0.00105,  -0.00072,-352.00000,   1.00000
39434881.26952,339681749.23332,-202395724.21059,  -0.00131,   0.00252,  -0.00335,476012800.00000,   0.00119,275934592.00000,  -0.00083,   0.00105,  -0.00072,-224.00000,   1.00000
41507989.05758,340068947.88580,-202637170.35431,  -0.00130,   0.00252,  -0.00335,475988480.00000,   0.00119,275934816.00000,  -0.00083,   0.00105,  -0.00072,-192.00000,   1.00000
43616630.92545,340474180.44559,-202870228.97687,  -0.00130,   0.00252,  -0.00336,475984512.00000,   0.00119,275935040.00000,  -0.00083,   0.00105,  -0.00072,-256.00000,   1.00000
45739541.75668,340895833.39662,-203090614.57533,  -0.00129,   0.00252,  -0.00336,476013568.00000,   0.00119,275935392.00000,  -0.00083,   0.00105,  -0.00072,-512.00000,   1.00000
47847581.76990,341297925.07014,-203311418.72365,  -0.00128,   0.00251,  -0.00336,475989664.00000,   0.00119,275935648.00000,  -0.00083,   0.00105,  -0.00072,-256.00000,   1.00000
49955019.08391,341693661.63995,-203528045.42979,  -0.00127,   0.00251,  -0.00337,475999360.00000,   0.00119,275935936.00000,  -0.00083,   0.00105,  -0.00072,-352.00000,   1.00000
52097944.06174,342106572.16516,-203735730.44812,  -0.00126,   0.00251,  -0.00337,475996736.00000,   0.00119,275936224.00000,  -0.00083,   0.00105,  -0.00072,-352.00000,   1.00000
54240751.05483,342521930.92678,-203934844.40569,  -0.00125,   0.00251,  -0.00337,475993280.00000,   0.00119,275936480.00000,  -0.00083,   0.00105,  -0.00072,-224.00000,   1.00000
56382798.66473,342930837.22163,-204129726.52627,  -0.00124,   0.00251,  -0.00338,476003072.00000,   0.00119,275936768.00000,  -0.00083,   0.00105,  -0.00072,-384.00000,   1.00000
58559598.73914,343347700.24467,-204319801.84475,  -0.00123,   0.00250,  -0.00338,476014176.00000,   0.00119,275937120.00000,  -0.00083,   0.00105,  -0.00072,-416.00000,   1.00000
60723000.48717,343753753.10204,-204505834.74931,  -0.00122,   0.00250,  -0.00338,475977472.00000,   0.00119,275937312.00000,  -0.00083,   0.00105,  -0.00072,-160.00000,   1.00000
62898769.77612,344167014.71552,-204683368.65251,  -0.00122,   0.00250,  -0.00338,476019872.00000,   0.00119,275937664.00000,  -0.00083,   0.00106,  -0.00072,-288.00000,   1.00000
65075416.22306,344592172.24594,-204848335.88451,  -0.00121,   0.00250,  -0.00339,476002496.00000,   0.00119,275937952.00000,  -0.00083,   0.00106,  -0.00072,-288.00000,   1.00000
67272880.93802,345003338.64615,-205017500.46558,  -0.00120,   0.00249,  -0.00339,475993248.00000,   0.00119,275938208.00000,  -0.00083,   0.00106,  -0.00072,-352.00000,   1.00000
69483244.52192,345431129.19386,-205174151.54880,  -0.00119,   0.00249,  -0.00339,476021632.00000,   0.00119,275938592.00000,  -0.00083,   0.00106,  -0.00072,-384.00000,   1.00000
71681144.17770,345849386.96772,-205327582.30929,  -0.00118,   0.00249,  -0.00339,475983296.00000,   0.00119,275938784.00000,  -0.00083,   0.00106,  -0.00072,-256.00000,   1.00000
73926181.87668,346289284.25389,-205471932.43911,  -0.00117,   0.00249,  -0.00340,476026752.00000,   0.00119,275939200.00000,  -0.00083,   0.00106,  -0.00073,-384.00000,   1.00000
76123637.74556,346706512.78677,-205614482.79021,  -0.00116,   0.00249,  -0.00340,475985344.00000,   0.00119,275939392.00000,  -0.00083,   0.00106,  -0.00073,-224.00000,   1.00000
78355713.53246,347132383.76271,-205752656.64356,  -0.00115,   0.00248,  -0.00340,475995296.00000,   0.00119,275939648.00000,  -0.00083,   0.00106,  -0.00073,-288.00000,   1.00000
80622315.87980,347566748.23461,-205886354.93033,  -0.00114,   0.00248,  -0.00340,476005504.00000,   0.00119,275939936.00000,  -0.00083,   0.00106,  -0.00073,-352.00000,   1.00000
82867172.01926,348013765.22811,-206004771.81648,  -0.00113,   0.00248,  -0.00340,476017088.00000,   0.00119,275940288.00000,  -0.00083,   0.00106,  -0.00073,-288.00000,   1.00000
85134400.67964,348455577.21408,-206122982.69678,  -0.00112,   0.00248,  -0.00341,475995040.00000,   0.00119,275940544.00000,  -0.00083,   0.00106,  -0.00073,-224.00000,   1.00000
87400394.94850,348891123.00712,-206237077.10000,  -0.00111,   0.00247,  -0.00341,476004416.00000,   0.00120,275940832.00000,  -0.00083,   0.00106,  -0.00073,-352.00000,   1.00000
89666461.13367,349329051.74603,-206342553.74716,  -0.00110,   0.00247,  -0.00341,476001120.00000,   0.00120,275941088.00000,  -0.00083,   0.00106,  -0.00073,-192.00000,   1.00000
91966100.69721,349772106.45868,-206441352.48935,  -0.00109,   0.00247,  -0.00341,476016160.00000,   0.00120,275941440.00000,  -0.00083,   0.00106,  -0.00073,-320.00000,   1.00000
94265436.18426,350215846.79877,-206530398.71529,  -0.00109,   0.00247,  -0.00341,476015424.00000,   0.00120,275941760.00000,  -0.00083,   0.00106,  -0.00073,-320.00000,   1.00000
96564552.99553,350660488.67042,-206609809.06642,  -0.00108,   0.00247,  -0.00341,476014368.00000,   0.00120,275942080.00000,  -0.00083,   0.00106,  -0.00073,-512.00000,   1.00000
98861981.39926,351098088.60597,-206684505.36429,  -0.00107,   0.00246,  -0.00342,476024928.00000,   0.00120,275942464.00000,  -0.00083,   0.00106,  -0.00073,-576.00000,   1.00000
101159876.33750,351539307.03429,-206751303.09107,  -0.00106,   0.00246,  -0.00342,476020000.00000,   0.00120,275942816.00000,  -0.00083,   0.00106,  -0.00073,-416.00000,   1.00000
103491846.66660,351988926.09116,-206813435.80560,  -0.00105,   0.00246,  -0.00342,476030336.00000,   0.00120,275943200.00000,  -0.00083,   0.00106,  -0.00073,-416.00000,   1.00000
105824670.02105,352443837.16419,-206868818.31123,  -0.00104,   0.00246,  -0.00342,476022912.00000,   0.00120,275943552.00000,  -0.00083,   0.00106,  -0.00073,-448.00000,   1.00000
108156079.59896,352893636.45578,-206920773.42783,  -0.00103,   0.00245,  -0.00342,476030560.00000,   0.00120,275943936.00000,  -0.00083,   0.00106,  -0.00073,-544.00000,   1.00000
110487548.24803,353345813.01768,-206964132.84250,  -0.00102,   0.00245,  -0.00342,476027328.00000,   0.00120,275944320.00000,  -0.00083,   0.00106,  -0.00073,-288.00000,   1.00000
112853473.74191,353810309.73243,-206995375.14628,  -0.00101,   0.00245,  -0.00342,476031840.00000,   0.00120,275944704.00000,  -0.00083,   0.00106,  -0.00073,-448.00000,   1.00000
115216514.62538,354265215.60685,-207020317.64712,  -0.00100,   0.00245,  -0.00342,476045920.00000,   0.00120,275945152.00000,  -0.00083,   0.00106,  -0.00073,-576.00000,   1.00000
117578746.69869,354719455.93881,-207034702.38401,  -0.00099,   0.00244,  -0.00342,476047168.00000,   0.00120,275945632.00000,  -0.00083,   0.00106,  -0.00073,-608.00000,   1.00000
119937993.16428,355164469.23498,-207043057.85331,  -0.00098,   0.00244,  -0.00343,476060800.00000,   0.00120,275946144.00000,  -0.00083,   0.00106,  -0.00073,-576.00000,   1.00000
122331468.40690,355621740.44452,-207039300.66817,  -0.00097,   0.00244,  -0.00343,476065536.00000,   0.00120,275946688.00000,  -0.00083,   0.00106,  -0.00073,-704.00000,   1.00000
124689983.89289,356068546.90810,-207028606.77435,  -0.00096,   0.00244,  -0.00343,476059040.00000,   0.00120,275947168.00000,  -0.00083,   0.00106,  -0.00074,-576.00000,   1.00000
127080393.55065,356519123.00431,-207010394.65043,  -0.00095,   0.00244,  -0.00343,476075968.00000,   0.00120,275947744.00000,  -0.00083,   0.00106,  -0.00074,-704.00000,   1.00000
129468126.39905,356962462.77863,-206987490.43873,  -0.00094,   0.00243,  -0.00343,476086848.00000,   0.00120,275948384.00000,  -0.00083,   0.00106,  -0.00074,-704.00000,   1.00000
131855885.65582,357408010.18700,-206955914.12929,  -0.00093,   0.00243,  -0.00343,476084256.00000,   0.00120,275948960.00000,  -0.00083,   0.00106,  -0.00074,-736.00000,   1.00000
134289196.04529,357888481.76741,-206903702.69322,  -0.00092,   0.00243,  -0.00343,476107712.00000,   0.00120,275949696.00000,  -0.00083,   0.00106,  -0.00074,-928.00000,   1.00000
136677323.41215,358339064.44966,-206855188.07805,  -0.00091,   0.00243,  -0.00343,476078208.00000,   0.00120,275950240.00000,  -0.00083,   0.00106,  -0.00074,-672.00000,   1.00000
139097041.91649,358793599.29865,-206799311.44963,  -0.00090,   0.00242,  -0.00343,476094912.00000,   0.00120,275950880.00000,  -0.00083,   0.00106,  -0.00074,-704.00000,   1.00000
141514053.16205,359241523.53777,-206739174.69315,  -0.00089,   0.00242,  -0.00343,476104928.00000,   0.00120,275951584.00000,  -0.00083,   0.00106,  -0.00074,-960.00000,   1.00000
143931352.08923,359692307.93010,-206670786.71206,  -0.00088,   0.00242,  -0.00343,476101440.00000,   0.00121,275952224.00000,  -0.00083,   0.00106,  -0.00074,-768.00000,   1.00000
146393780.37571,360178291.70145,-206582010.50864,  -0.00087,   0.00242,  -0.00343,476125440.00000,   0.00121,275952992.00000,  -0.00083,   0.00106,  -0.00074,  64.00000,   2.00000
148808203.55556,360624240.01491,-206500442.18754,  -0.00086,   0.00242,  -0.00343,476109440.00000,   0.00121,275953696.00000,  -0.00083,   0.00107,  -0.00074,-992.00000,   1.00000
151257076.06481,361083834.40258,-206407699.27201,  -0.00085,   0.00241,  -0.00343,476112288.00000,   0.00121,275954368.00000,  -0.00083,   0.00107,  -0.00075,-832.00000,   1.00000
153713386.81092,361558489.35123,-206301656.15088,  -0.00084,   0.00241,  -0.00343,476143072.00000,   0.00121,275955200.00000,  -0.00083,   0.00107,  -0.00075,   0.00000,   2.00000
156159032.28463,362012797.28888,-206195486.25816,  -0.00083,   0.00241,  -0.00343,476120800.00000,   0.00121,275955936.00000,  -0.00083,   0.00107,  -0.00075,-960.00000,   1.00000
158612017.10575,362482702.68604,-206076414.76978,  -0.00082,   0.00241,  -0.00343,476150816.00000,   0.00121,275956800.00000,  -0.00083,   0.00107,  -0.00075,   0.00000,   2.00000
161088153.31939,362942103.74302,-205953677.96605,  -0.00081,   0.00240,  -0.00343,476136192.00000,   0.00121,275957568.00000,  -0.00083,   0.00107,  -0.00075,-768.00000,   1.00000
163540677.62170,363415335.76590,-205816653.30812,  -0.00080,   0.00240,  -0.00343,476145824.00000,   0.00121,275958400.00000,  -0.00083,   0.00107,  -0.00075,-896.00000,   1.00000
166023494.37631,363891874.55310,-205672048.80906,  -0.00079,   0.00240,  -0.00343,476164192.00000,   0.00121,275959296.00000,  -0.00083,   0.00107,  -0.00075,  32.00000,   2.00000
168505831.38938,364369547.83347,-205518153.77919,  -0.00078,   0.00240,  -0.00342,476163264.00000,   0.00121,275960192.00000,  -0.00083,   0.00107,  -0.00075, 128.00000,   2.00000
170974339.34143,364817611.82820,-205368301.09930,  -0.00077,   0.00240,  -0.00342,476153952.00000,   0.00121,275961056.00000,  -0.00083,   0.00107,  -0.00075,-992.00000,   1.00000
173452762.54537,365290055.69533,-205201171.21945,  -0.00076,   0.00239,  -0.00342,476171392.00000,   0.00121,275961984.00000,  -0.00083,   0.00107,  -0.00076,   0.00000,   2.00000
175960116.56133,365763512.25904,-205025071.93484,  -0.00075,   0.00239,  -0.00342,476192032.00000,   0.00122,275962976.00000,  -0.00083,   0.00107,  -0.00076, 160.00000,   2.00000
178443022.26319,366250016.02622,-204834303.46936,  -0.00074,   0.00239,  -0.00342,476202784.00000,   0.00122,275964032.00000,  -0.00083,   0.00107,  -0.00076, -32.00000,   2.00000
180945495.01497,366716866.79269,-204644193.37670,  -0.00072,   0.00239,  -0.00342,476202496.00000,   0.00122,275965056.00000,  -0.00083,   0.00107,  -0.00076,  32.00000,   2.00000
183414325.57541,367175841.80729,-204448794.85810,  -0.00071,   0.00239,  -0.00342,476192768.00000,   0.00122,275966048.00000,  -0.00083,   0.00107,  -0.00076,  96.00000,   2.00000
185915630.75117,367645208.23267,-204240266.35958,  -0.00070,   0.00238,  -0.00342,476200384.00000,   0.00122,275967072.00000,  -0.00083,   0.00107,  -0.00076,  64.00000,   2.00000
188421020.76601,368127229.22530,-204017316.21954,  -0.00069,   0.00238,  -0.00342,476233344.00000,   0.00122,275968256.00000,  -0.00083,   0.00107,  -0.00076,  32.00000,   2.00000
190949557.85527,368598061.32434,-203790180.11497,  -0.00068,   0.00238,  -0.00341,476221472.00000,   0.00122,275969344.00000,  -0.00083,   0.00107,  -0.00077, -32.00000,   2.00000
193448855.45914,369072463.61248,-203552567.65802,  -0.00067,   0.00238,  -0.00341,476245888.00000,   0.00122,275970528.00000,  -0.00083,   0.00108,  -0.00077,  64.00000,   2.00000
195942810.45509,369538290.62496,-203309681.38516,  -0.00066,   0.00238,  -0.00341,476259072.00000,   0.00122,275971808.00000,  -0.00083,   0.00108,  -0.00077,  96.00000,   2.00000
198472400.30025,370022583.35374,-203048565.37795,  -0.00065,   0.00237,  -0.00341,476256064.00000,   0.00122,275973024.00000,  -0.00083,   0.00108,  -0.00077, 160.00000,   2.00000
200959309.19412,370480003.16258,-202790424.81361,  -0.00064,   0.00237,  -0.00341,476273440.00000,   0.00123,275974304.00000,  -0.00083,   0.00108,  -0.00077, -32.00000,   2.00000
203481565.03543,370955501.83263,-202513749.67366,  -0.00063,   0.00237,  -0.00341,476271296.00000,   0.00123,275975584.00000,  -0.00083,   0.00108,  -0.00077, 128.00000,   2.00000
205997436.17239,371421407.87073,-202231084.44185,  -0.00062,   0.00237,  -0.00340,476286176.00000,   0.00123,275976928.00000,  -0.00083,   0.00108,  -0.00078,  32.00000,   2.00000
208514698.34123,371898643.62439,-201933141.04693,  -0.00061,   0.00237,  -0.00340,476321920.00000,   0.00123,275978400.00000,  -0.00083,   0.00108,  -0.00078,   0.00000,   2.00000
211022052.87455,372354809.84201,-201634231.98085,  -0.00060,   0.00236,  -0.00340,476303200.00000,   0.00123,275979808.00000,  -0.00083,   0.00108,  -0.00078,   0.00000,   2.00000
213530397.15043,372822394.01049,-201320109.27433,  -0.00059,   0.00236,  -0.00340,476339200.00000,   0.00123,275981312.00000,  -0.00083,   0.00108,  -0.00078, 224.00000,   2.00000
216068259.54654,373297277.31369,-200990874.24935,  -0.00058,   0.00236,  -0.00340,476352032.00000,   0.00123,275982912.00000,  -0.00083,   0.00108,  -0.00078,  64.00000,   2.00000
218572567.15326,373764538.32150,-200656436.26076,  -0.00057,   0.00236,  -0.00339,476342688.00000,   0.00124,275984416.00000,  -0.00083,   0.00108,  -0.00079,   0.00000,   2.00000
221101708.57177,374230206.33325,-200311647.24879,  -0.00056,   0.00236,  -0.00339,476367552.00000,   0.00124,275986048.00000,  -0.00083,   0.00108,  -0.00079,  64.00000,   2.00000
223597847.87734,374688858.45217,-199962192.00950,  -0.00055,   0.00235,  -0.00339,476356928.00000,   0.00124,275987648.00000,  -0.00083,   0.00109,  -0.00079,  32.00000,   2.00000
226118676.21690,375145895.75214,-199602602.38126,  -0.00053,   0.00235,  -0.00339,476381216.00000,   0.00124,275989312.00000,  -0.00083,   0.00109,  -0.00079,  64.00000,   2.00000
228639725.53216,375614643.87788,-199228645.57698,  -0.00052,   0.00235,  -0.00339,476415168.00000,   0.00124,275991104.00000,  -0.00083,   0.00109,  -0.00080, -64.00000,   2.00000
231151980.52632,376062743.13766,-198854462.90797,  -0.00051,   0.00235,  -0.00338,476394688.00000,   0.00124,275992832.00000,  -0.00083,   0.00109,  -0.00080,-128.00000,   2.00000
233669317.09329,376531719.45962,-198461644.68652,  -0.00050,   0.00235,  -0.00338,476415680.00000,   0.00124,275994624.00000,  -0.00083,   0.00109,  -0.00080, -32.00000,   2.00000
236179263.54427,376991129.39130,-198063709.80375,  -0.00049,   0.00235,  -0.00338,476429248.00000,   0.00125,275996448.00000,  -0.00083,   0.00109,  -0.00080,  64.00000,   2.00000
238687047.29352,377450187.75907,-197656196.69437,  -0.00048,   0.00234,  -0.00337,476430016.00000,   0.00125,275998304.00000,  -0.00083,   0.00109,  -0.00081, -64.00000,   2.00000
241193641.13799,377920071.21705,-197234394.45769,  -0.00047,   0.00234,  -0.00337,476464448.00000,   0.00125,276000288.00000,  -0.00083,   0.00109,  -0.00081,  32.00000,   2.00000
243691584.63874,378368995.24980,-196812249.09228,  -0.00046,   0.00234,  -0.00337,476444768.00000,   0.00125,276002176.00000,  -0.00083,   0.00109,  -0.00081, -64.00000,   2.00000
246218197.61900,378834829.08379,-196370422.84627,  -0.00045,   0.00234,  -0.00337,476491424.00000,   0.00125,276004224.00000,  -0.00083,   0.00110,  -0.00081,-160.00000,   2.00000
248706464.91355,379274075.71118,-195934005.28534,  -0.00044,   0.00234,  -0.00336,476459232.00000,   0.00126,276006176.00000,  -0.00083,   0.00110,  -0.00082, -64.00000,   2.00000
251223009.15176,379730163.88763,-195478016.30693,  -0.00043,   0.00234,  -0.00336,476506272.00000,   0.00126,276008288.00000,  -0.00083,   0.00110,  -0.00082, -64.00000,   2.00000
253713454.87604,380200617.51026,-195009174.14980,  -0.00042,   0.00233,  -0.00336,476515232.00000,   0.00126,276010432.00000,  -0.00083,   0.00110,  -0.00082,   0.00000,   2.00000
256220501.77486,380647845.46834,-194539513.04960,  -0.00041,   0.00233,  -0.00335,476520416.00000,   0.00126,276012576.00000,  -0.00083,   0.00110,  -0.00082,  96.00000,   2.00000
258701868.82843,381110108.39084,-194057327.84347,  -0.00039,   0.00233,  -0.00335,476528928.00000,   0.00126,276014752.00000,  -0.00083,   0.00110,  -0.00083,   0.00000,   2.00000
261200111.13240,381549531.30286,-193574454.12902,  -0.00038,   0.00233,  -0.00335,476533664.00000,   0.00127,276016928.00000,  -0.00083,   0.00110,  -0.00083, -96.00000,   2.00000
263702516.17118,382010135.83754,-193073595.30989,  -0.00037,   0.00233,  -0.00334,476554880.00000,   0.00127,276019200.00000,  -0.00083,   0.00110,  -0.00083, -64.00000,   2.00000
266168830.50204,382457818.44853,-192574797.78121,  -0.00036,   0.00233,  -0.00334,476553824.00000,   0.00127,276021440.00000,  -0.00083,   0.00111,  -0.00084,  64.00000,   2.00000
268662563.20782,382922908.27112,-192057011.96248,  -0.00035,   0.00233,  -0.00334,476600800.00000,   0.00127,276023840.00000,  -0.00083,   0.00111,  -0.00084, -32.00000,   2.00000
271156404.23444,383379182.24433,-191535128.87461,  -0.00034,   0.00232,  -0.00333,476567200.00000,   0.00127,276026112.00000,  -0.00083,   0.00111,  -0.00084,-128.00000,   2.00000
273642579.67128,383838968.34471,-191005260.75857,  -0.00033,   0.00232,  -0.00333,476612736.00000,   0.00128,276028576.00000,  -0.00083,   0.00111,  -0.00085, -32.00000,   2.00000
276127968.34194,384300695.33619,-190466889.37848,  -0.00032,   0.00232,  -0.00333,476612704.00000,   0.00128,276031008.00000,  -0.00083,   0.00111,  -0.00085, -64.00000,   2.00000
278612585.16882,384764401.43259,-189920030.06976,  -0.00031,   0.00232,  -0.00332,476612576.00000,   0.00128,276033408.00000,  -0.00083,   0.00111,  -0.00085, -64.00000,   2.00000
281094834.60408,385240553.17386,-189360325.37311,  -0.00030,   0.00232,  -0.00332,476646336.00000,   0.00128,276035936.00000,  -0.00082,   0.00111,  -0.00086,   0.00000,   2.00000
283571087.74399,385698269.10167,-188801017.75787,  -0.00029,   0.00232,  -0.00331,476625568.00000,   0.00129,276038368.00000,  -0.00082,   0.00112,  -0.00086,   0.00000,   2.00000
286044042.26328,386167712.08326,-188228622.09653,  -0.00028,   0.00232,  -0.00331,476660064.00000,   0.00129,276040960.00000,  -0.00082,   0.00112,  -0.00086,   0.00000,   2.00000
288508539.21256,386628519.35275,-187652059.14019,  -0.00026,   0.00232,  -0.00331,476673984.00000,   0.00129,276043552.00000,  -0.00082,   0.00112,  -0.00087,  32.00000,   2.00000
290974806.25510,387109275.98556,-187057202.98246,  -0.00025,   0.00231,  -0.00330,476697216.00000,   0.00129,276046240.00000,  -0.00082,   0.00112,  -0.00087, -64.00000,   2.00000
293455450.80501,387565178.27978,-186460750.93120,  -0.00024,   0.00231,  -0.00330,476705696.00000,   0.00130,276048960.00000,  -0.00082,   0.00112,  -0.00087,  96.00000,   2.00000
295908534.72265,388035566.28769,-185851831.66624,  -0.00023,   0.00231,  -0.00329,476715520.00000,   0.00130,276051680.00000,  -0.00082,   0.00112,  -0.00088, -32.00000,   2.00000
298356874.10751,388504018.29462,-185232882.62357,  -0.00022,   0.00231,  -0.00329,476719872.00000,   0.00130,276054400.00000,  -0.00082,   0.00112,  -0.00088,  32.00000,   2.00000
300785974.05753,388950968.48699,-184613496.35835,  -0.00021,   0.00231,  -0.00328,476749888.00000,   0.00130,276057248.00000,  -0.00082,   0.00113,  -0.00088, -32.00000,   2.00000
303216946.22500,389421242.46438,-183968657.64387,  -0.00020,   0.00231,  -0.00328,476767264.00000,   0.00131,276060128.00000,  -0.00082,   0.00113,  -0.00089,  96.00000,   2.00000
305624695.84787,389866588.14415,-183322171.95558,  -0.00019,   0.00231,  -0.00328,476801152.00000,   0.00131,276063168.00000,  -0.00082,   0.00113,  -0.00089, 128.00000,   2.00000
308048197.69630,390307591.30601,-182656801.00620,  -0.00018,   0.00231,  -0.00327,476827648.00000,   0.00131,276066272.00000,  -0.00082,   0.00113,  -0.00090,  32.00000,   2.00000
310434277.62197,390737990.57656,-181985857.54188,  -0.00017,   0.00231,  -0.00327,476822528.00000,   0.00131,276069312.00000,  -0.00082,   0.00113,  -0.00090,   0.00000,   2.00000
312804011.79811,391153325.19364,-181308488.06256,  -0.00016,   0.00231,  -0.00326,476843616.00000,   0.00132,276072448.00000,  -0.00082,   0.00114,  -0.00091, -32.00000,   2.00000
315168182.50743,391583139.83863,-180611122.04641,  -0.00014,   0.00230,  -0.00326,476873120.00000,   0.00132,276075712.00000,  -0.00081,   0.00114,  -0.00091, -32.00000,   2.00000
317511250.78192,391991439.75161,-179914087.97515,  -0.00013,   0.00230,  -0.00325,476903200.00000,   0.00132,276079040.00000,  -0.00081,   0.00114,  -0.00091,  64.00000,   2.00000
319855526.91220,392423171.70590,-179192348.69616,  -0.00012,   0.00230,  -0.00325,476920480.00000,   0.00133,276082432.00000,  -0.00081,   0.00114,  -0.00092,-160.00000,   2.00000
322206353.70416,392823198.49499,-178467422.44615,  -0.00011,   0.00230,  -0.00324,476936448.00000,   0.00133,276085856.00000,  -0.00081,   0.00114,  -0.00092, -64.00000,   2.00000
324515437.32990,393223154.44110,-177734994.47180,  -0.00010,   0.00230,  -0.00324,476963648.00000,   0.00133,276089376.00000,  -0.00081,   0.00115,  -0.00093, -32.00000,   2.00000
326806416.25406,393606491.38976,-176996800.93537,  -0.00009,   0.00230,  -0.00323,476985952.00000,   0.00134,276092960.00000,  -0.00081,   0.00115,  -0.00093, 224.00000,   2.00000
329092958.57174,394005224.42607,-176239038.66417,  -0.00008,   0.00230,  -0.00323,477013472.00000,   0.00134,276096640.00000,  -0.00081,   0.00115,  -0.00094,  64.00000,   2.00000
331381347.39498,394390997.29315,-175481154.97858,  -0.00007,   0.00230,  -0.00322,476986976.00000,   0.00134,276100224.00000,  -0.00081,   0.00115,  -0.00094, -32.00000,   2.00000
333673331.68018,394800287.35528,-174714927.65059,  -0.00006,   0.00230,  -0.00322,477005600.00000,   0.00135,276103872.00000,  -0.00081,   0.00115,  -0.00095, -32.00000,   2.00000
335947065.62557,395216093.19133,-173940496.32038,  -0.00005,   0.00230,  -0.00321,477042464.00000,   0.00135,276107648.00000,  -0.00080,   0.00116,  -0.00095,   0.00000,   2.00000
338172870.81406,395574420.44126,-173158551.90775,  -0.00004,   0.00230,  -0.00321,477068576.00000,   0.00135,276111424.00000,  -0.00080,   0.00116,  -0.00096,  96.00000,   2.00000
340360989.75814,395912420.32698,-172352801.61983,  -0.00002,   0.00230,  -0.00320,477141984.00000,   0.00136,276115488.00000,  -0.00080,   0.00116,  -0.00096,  32.00000,   2.00000
342555585.49830,396256913.63058,-171536971.52037,  -0.00001,   0.00230,  -0.00320,477137376.00000,   0.00136,276119520.00000,  -0.00080,   0.00116,  -0.00097, -32.00000,   2.00000
344748972.47618,396618229.55525,-170720900.89190,  -0.00000,   0.00230,  -0.00319,477164224.00000,   0.00136,276123648.00000,  -0.00080,   0.00116,  -0.00097, 192.00000,   2.00000
346952298.20347,396976049.21938,-169901497.21402,   0.00001,   0.00230,  -0.00319,477126016.00000,   0.00137,276127616.00000,  -0.00080,   0.00117,  -0.00098,   0.00000,   2.00000
349147754.08486,397345939.00181,-169071997.80832,   0.00002,   0.00230,  -0.00318,477158592.00000,   0.00137,276131712.00000,  -0.00080,   0.00117,  -0.00098,  32.00000,   2.00000
351311131.02229,397726235.19910,-168239121.50450,   0.00003,   0.00230,  -0.00317,477174048.00000,   0.00138,276135840.00000,  -0.00079,   0.00117,  -0.00099, -64.00000,   2.00000
353487222.24299,398081155.59137,-167405130.51502,   0.00004,   0.00230,  -0.00317,477183744.00000,   0.00138,276139968.00000,  -0.00079,   0.00117,  -0.00099, -64.00000,   2.00000
355661311.98345,398455886.89721,-166554463.17723,   0.00005,   0.00230,  -0.00316,477207360.00000,   0.00138,276144192.00000,  -0.00079,   0.00118,  -0.00100, 128.00000,   2.00000
357802992.98527,398841396.69165,-165700364.85913,   0.00006,   0.00230,  -0.00316,477222848.00000,   0.00139,276148448.00000,  -0.00079,   0.00118,  -0.00100, -32.00000,   2.00000
359964032.59482,399209827.00731,-164838904.24004,   0.00007,   0.00230,  -0.00315,477222368.00000,   0.00139,276152672.00000,  -0.00079,   0.00118,  -0.00101,  32.00000,   2.00000
362092171.87373,399589051.21980,-163974071.23083,   0.00008,   0.00230,  -0.00315,477238208.00000,   0.00140,276156928.00000,  -0.00078,   0.00118,  -0.00101, 128.00000,   2.00000
364238415.86747,399968682.22133,-163093235.76596,   0.00009,   0.00230,  -0.00314,477260416.00000,   0.00140,276161280.00000,  -0.00078,   0.00119,  -0.00102,   0.00000,   2.00000
366343487.26411,400350478.22183,-162215340.38402,   0.00010,   0.00230,  -0.00313,477287200.00000,   0.00140,276165696.00000,  -0.00078,   0.00119,  -0.00103,  32.00000,   2.00000
368472468.35936,400739807.28153,-161315078.12743,   0.00012,   0.00230,  -0.00313,477300704.00000,   0.00141,276170176.00000,  -0.00078,   0.00119,  -0.00103,  64.00000,   2.00000
370559083.94263,401111851.63737,-160425937.18232,   0.00013,   0.00230,  -0.00312,477307072.00000,   0.00141,276174624.00000,  -0.00078,   0.00119,  -0.00104,  96.00000,   2.00000
372638828.20653,401500678.23747,-159519763.04692,   0.00014,   0.00230,  -0.00312,477334240.00000,   0.00142,276179168.00000,  -0.00078,   0.00120,  -0.00104, -64.00000,   2.00000
374704119.85118,401879292.12452,-158611126.02365,   0.00015,   0.00230,  -0.00311,477350720.00000,   0.00142,276183744.00000,  -0.00077,   0.00120,  -0.00105, -32.00000,   2.00000
376761798.35599,402255234.96866,-157693637.68707,   0.00016,   0.00230,  -0.00310,477357632.00000,   0.00143,276188320.00000,  -0.00077,   0.00120,  -0.00105, -64.00000,   2.00000
378803903.87216,402619935.00170,-156773678.04270,   0.00017,   0.00230,  -0.00310,477375200.00000,   0.00143,276192928.00000,  -0.00077,   0.00120,  -0.00106, -32.00000,   2.00000
380829319.25418,402991507.35311,-155843372.51876,   0.00018,   0.00230,  -0.00309,477414880.00000,   0.00143,276197664.00000,  -0.00077,   0.00121,  -0.00107,   0.00000,   2.00000
382845043.62167,403377578.93763,-154896408.50842,   0.00019,   0.00230,  -0.00308,477444864.00000,   0.00144,276202496.00000,  -0.00076,   0.00121,  -0.00107,  96.00000,   2.00000
384845024.14065,403732938.92854,-153955062.70931,   0.00020,   0.00230,  -0.00308,477442208.00000,   0.00144,276207296.00000,  -0.00076,   0.00121,  -0.00108,   0.00000,   2.00000
386827524.17391,404094653.67069,-153003840.40667,   0.00021,   0.00230,  -0.00307,477482240.00000,   0.00145,276212224.00000,  -0.00076,   0.00121,  -0.00108,   0.00000,   2.00000
388781279.66417,404453457.51669,-152051464.21075,   0.00022,   0.00230,  -0.00307,477470496.00000,   0.00145,276217056.00000,  -0.00076,   0.00122,  -0.00109,  32.00000,   2.00000
390737255.58923,404817296.39865,-151082023.60084,   0.00023,   0.00230,  -0.00306,477531168.00000,   0.00146,276222080.00000,  -0.00075,   0.00122,  -0.00110, 128.00000,   2.00000
392665129.89003,405178614.68108,-150111518.24023,   0.00024,   0.00230,  -0.00305,477518784.00000,   0.00146,276227040.00000,  -0.00075,   0.00122,  -0.00110,  32.00000,   2.00000
394589525.48895,405519557.25394,-149138816.70426,   0.00026,   0.00230,  -0.00305,477566912.00000,   0.00147,276232160.00000,  -0.00075,   0.00123,  -0.00111, 128.00000,   2.00000
396485202.00615,405877037.87194,-148157584.52461,   0.00027,   0.00230,  -0.00304,477575360.00000,   0.00147,276237280.00000,  -0.00075,   0.00123,  -0.00111,  64.00000,   2.00000
398373203.38427,406231336.82046,-147168072.60861,   0.00028,   0.00230,  -0.00303,477583040.00000,   0.00148,276242400.00000,  -0.00074,   0.00123,  -0.00112,  64.00000,   2.00000
400238855.86886,406567507.28258,-146184174.99458,   0.00029,   0.00230,  -0.00303,477609056.00000,   0.00148,276247616.00000,  -0.00074,   0.00123,  -0.00113, -32.00000,   2.00000
402095009.37170,406918838.60172,-145184683.10586,   0.00030,   0.00230,  -0.00302,477638048.00000,   0.00149,276252864.00000,  -0.00074,   0.00124,  -0.00113, 128.00000,   2.00000
403943175.23541,407266771.89005,-144177069.64105,   0.00031,   0.00231,  -0.00301,477645600.00000,   0.00149,276258144.00000,  -0.00074,   0.00124,  -0.00114,  32.00000,   2.00000
405766342.66849,407614241.61356,-143167972.70975,   0.00032,   0.00231,  -0.00301,477693056.00000,   0.00150,276263552.00000,  -0.00073,   0.00124,  -0.00114,  64.00000,   2.00000
407581725.24625,407958004.99111,-142150781.76233,   0.00033,   0.00231,  -0.00300,477700000.00000,   0.00150,276268992.00000,  -0.00073,   0.00125,  -0.00115,   0.00000,   2.00000
409365017.24801,408293565.44015,-141140128.20311,   0.00034,   0.00231,  -0.00299,477692800.00000,   0.00151,276274368.00000,  -0.00073,   0.00125,  -0.00116, -96.00000,   2.00000
411155763.24493,408641271.93971,-140107820.23752,   0.00035,   0.00231,  -0.00298,477741824.00000,   0.00151,276279904.00000,  -0.00072,   0.00125,  -0.00116, 128.00000,   2.00000
412905076.01517,408977608.17517,-139084194.78361,   0.00036,   0.00231,  -0.00298,477741568.00000,   0.00152,276285376.00000,  -0.00072,   0.00126,  -0.00117,   0.00000,   2.00000
414624256.62944,409296797.05798,-138059808.55914,   0.00037,   0.00231,  -0.00297,477773088.00000,   0.00152,276290912.00000,  -0.00072,   0.00126,  -0.00118,  32.00000,   2.00000
416337652.51585,409618494.97015,-137016598.60756,   0.00038,   0.00231,  -0.00296,477844544.00000,   0.00153,276296672.00000,  -0.00071,   0.00126,  -0.00118,  32.00000,   2.00000
418035545.29663,409945293.08695,-135970726.96528,   0.00039,   0.00232,  -0.00296,477824352.00000,   0.00153,276302368.00000,  -0.00071,   0.00127,  -0.00119, -32.00000,   2.00000
419727478.50251,410266973.78503,-134925410.76894,   0.00040,   0.00232,  -0.00295,477830432.00000,   0.00154,276308032.00000,  -0.00071,   0.00127,  -0.00120,  32.00000,   2.00000
421387769.39017,410600558.35167,-133881516.22954,   0.00041,   0.00232,  -0.00294,477839936.00000,   0.00154,276313760.00000,  -0.00070,   0.00127,  -0.00120,  32.00000,   2.00000
423049696.71673,410920474.91167,-132831195.01422,   0.00042,   0.00232,  -0.00294,477876512.00000,   0.00155,276319552.00000,  -0.00070,   0.00127,  -0.00121,   0.00000,   2.00000
424699573.40446,411254404.08584,-131766968.46965,   0.00043,   0.00232,  -0.00293,477906144.00000,   0.00155,276325440.00000,  -0.00070,   0.00128,  -0.00121,  96.00000,   2.00000
426316706.60859,411580882.23880,-130710292.35386,   0.00044,   0.00232,  -0.00292,477900864.00000,   0.00156,276331296.00000,  -0.00069,   0.00128,  -0.00122, -64.00000,   2.00000
427932817.60546,411892865.13554,-129646953.62925,   0.00045,   0.00232,  -0.00291,477941984.00000,   0.00156,276337248.00000,  -0.00069,   0.00128,  -0.00123, -32.00000,   2.00000
429518488.64963,412220992.89182,-128576891.12896,   0.00047,   0.00233,  -0.00291,477952160.00000,   0.00157,276343168.00000,  -0.00069,   0.00129,  -0.00123,  64.00000,   2.00000
431085436.14774,412536765.07981,-127507509.31119,   0.00048,   0.00233,  -0.00290,477972192.00000,   0.00158,276349152.00000,  -0.00068,   0.00129,  -0.00124,   0.00000,   2.00000
432629114.43551,412857118.75111,-126432171.38123,   0.00049,   0.00233,  -0.00289,478015008.00000,   0.00158,276355264.00000,  -0.00068,   0.00129,  -0.00125, -96.00000,   2.00000
434153688.96148,413164759.23755,-125357774.90033,   0.00050,   0.00233,  -0.00288,478035680.00000,   0.00159,276361408.00000,  -0.00067,   0.00130,  -0.00125, -32.00000,   2.00000
435659393.07502,413459685.05551,-124284217.43775,   0.00051,   0.00233,  -0.00288,478056128.00000,   0.00159,276367552.00000,  -0.00067,   0.00130,  -0.00126,  96.00000,   2.00000
437135310.77971,413770522.31759,-123204033.25225,   0.00052,   0.00234,  -0.00287,478066208.00000,   0.00160,276373728.00000,  -0.00067,   0.00130,  -0.00127,  96.00000,   2.00000
438609706.66562,414065672.44352,-122117511.78400,   0.00053,   0.00234,  -0.00286,478107680.00000,   0.00160,276380032.00000,  -0.00066,   0.00131,  -0.00127,  32.00000,   2.00000
440051522.47731,414372639.85640,-121031981.88996,   0.00054,   0.00234,  -0.00285,478121408.00000,   0.00161,276386336.00000,  -0.00066,   0.00131,  -0.00128, 160.00000,   2.00000
441502840.50496,414672787.55684,-119931841.97243,   0.00055,   0.00234,  -0.00285,478150048.00000,   0.00162,276392704.00000,  -0.00065,   0.00132,  -0.00129,  64.00000,   2.00000
442929915.59696,414970384.08474,-118838958.62731,   0.00056,   0.00234,  -0.00284,478136480.00000,   0.00162,276399040.00000,  -0.00065,   0.00132,  -0.00129, 160.00000,   2.00000
444336018.61395,415272867.30726,-117748467.42107,   0.00057,   0.00235,  -0.00283,478174784.00000,   0.00163,276405472.00000,  -0.00064,   0.00132,  -0.00130,  32.00000,   2.00000
445744439.34776,415581667.81860,-116643241.55811,   0.00058,   0.00235,  -0.00282,478169568.00000,   0.00163,276411872.00000,  -0.00064,   0.00133,  -0.00131, -32.00000,   2.00000
447118609.29094,415881684.83751,-115554525.86778,   0.00059,   0.00235,  -0.00282,478165152.00000,   0.00164,276418240.00000,  -0.00064,   0.00133,  -0.00131,  32.00000,   2.00000
448486070.46632,416185491.95696,-114454634.08524,   0.00060,   0.00235,  -0.00281,478225152.00000,   0.00165,276424800.00000,  -0.00063,   0.00133,  -0.00132,   0.00000,   2.00000
449824819.36227,416507708.90193,-113349208.14826,   0.00061,   0.00236,  -0.00280,478232160.00000,   0.00165,276431360.00000,  -0.00063,   0.00134,  -0.00133,  64.00000,   2.00000
451164260.35578,416797252.80672,-112245293.72009,   0.00062,   0.00236,  -0.00279,478251520.00000,   0.00166,276437920.00000,  -0.00062,   0.00134,  -0.00133,  64.00000,   2.00000
452467529.73677,417098025.98665,-111144175.02446,   0.00063,   0.00236,  -0.00278,478267520.00000,   0.00166,276444544.00000,  -0.00062,   0.00134,  -0.00134,  64.00000,   2.00000
453754544.42229,417410687.77928,-110031193.74178,   0.00064,   0.00236,  -0.00278,478300864.00000,   0.00167,276451200.00000,  -0.00061,   0.00135,  -0.00135, 192.00000,   2.00000
455017256.26055,417705835.94284,-108928878.74635,   0.00065,   0.00237,  -0.00277,478326656.00000,   0.00168,276457952.00000,  -0.00061,   0.00135,  -0.00135, 128.00000,   2.00000
456269397.87748,417995555.51323,-107820837.19109,   0.00066,   0.00237,  -0.00276,478338304.00000,   0.00168,276464672.00000,  -0.00060,   0.00136,  -0.00136,   0.00000,   2.00000
457486796.09732,418296407.52182,-106716184.91805,   0.00067,   0.00237,  -0.00275,478354464.00000,   0.00169,276471424.00000,  -0.00060,   0.00136,  -0.00137, 128.00000,   2.00000
458699814.56705,418580225.78597,-105608029.79636,   0.00068,   0.00237,  -0.00274,478398016.00000,   0.00170,276478304.00000,  -0.00059,   0.00136,  -0.00137, 128.00000,   2.00000
459878280.99746,418875034.90530,-104503578.39910,   0.00069,   0.00238,  -0.00274,478414560.00000,   0.00170,276485184.00000,  -0.00059,   0.00137,  -0.00138, 128.00000,   2.00000
461040486.10657,419158549.17716,-103402315.21987,   0.00070,   0.00238,  -0.00273,478433664.00000,   0.00171,276492064.00000,  -0.00058,   0.00137,  -0.00138, 128.00000,   2.00000
462192341.87425,419436061.97361,-102295625.98075,   0.00071,   0.00238,  -0.00272,478446848.00000,   0.00171,276498976.00000,  -0.00058,   0.00138,  -0.00139,  32.00000,   2.00000
463322162.20357,419719303.15214,-101186607.82020,   0.00072,   0.00239,  -0.00271,478488256.00000,   0.00172,276505984.00000,  -0.00057,   0.00138,  -0.00140,  64.00000,   2.00000
464436195.44589,419992054.07937,-100080389.90626,   0.00073,   0.00239,  -0.00270,478507424.00000,   0.00173,276513024.00000,  -0.00057,   0.00138,  -0.00140,   0.00000,   2.00000
465524106.17069,420261909.55259,-98982234.30824,   0.00074,   0.00239,  -0.00270,478500000.00000,   0.00173,276519968.00000,  -0.00056,   0.00139,  -0.00141,  96.00000,   2.00000
466604922.92725,420536289.88159,-97873437.85460,   0.00075,   0.00239,  -0.00269,478561984.00000,   0.00174,276527136.00000,  -0.00055,   0.00139,  -0.00142,  96.00000,   2.00000
467658309.54002,420829602.07362,-96765459.03882,   0.00076,   0.00240,  -0.00268,478569792.00000,   0.00175,276534304.00000,  -0.00055,   0.00140,  -0.00142, -64.00000,   2.00000
468707280.03712,421118698.99981,-95655405.25271,   0.00077,   0.00240,  -0.00267,478574336.00000,   0.00175,276541440.00000,  -0.00054,   0.00140,  -0.00143, -32.00000,   2.00000
469726414.90890,421369834.02136,-94576117.75075,   0.00078,   0.00240,  -0.00266,478610688.00000,   0.00176,276548576.00000,  -0.00054,   0.00140,  -0.00143,  64.00000,   2.00000
470711994.84210,421586765.02355,-93497758.23740,   0.00079,   0.00241,  -0.00266,478659104.00000,   0.00177,276555776.00000,  -0.00053,   0.00141,  -0.00144,  64.00000,   2.00000
471667691.56232,421819821.59536,-92388354.59234,   0.00080,   0.00241,  -0.00265,478702432.00000,   0.00178,276563168.00000,  -0.00053,   0.00141,  -0.00145, 128.00000,   2.00000
472626902.68166,422109895.20118,-91270934.06442,   0.00081,   0.00241,  -0.00264,478664896.00000,   0.00178,276570560.00000,  -0.00052,   0.00142,  -0.00145, 192.00000,   2.00000
473613053.50868,422408553.50740,-90162542.23187,   0.00082,   0.00242,  -0.00263,478675520.00000,   0.00179,276577920.00000,  -0.00051,   0.00142,  -0.00146,  32.00000,   2.00000
474570281.19089,422696226.77491,-89069789.37908,   0.00083,   0.00242,  -0.00262,478677664.00000,   0.00180,276585184.00000,  -0.00051,   0.00142,  -0.00146, -32.00000,   2.00000
475507867.17096,422967231.89192,-87972539.47334,   0.00084,   0.00243,  -0.00261,478704352.00000,   0.00180,276592480.00000,  -0.00050,   0.00143,  -0.00147,  32.00000,   2.00000
476413458.36562,423234612.57198,-86882440.09131,   0.00085,   0.00243,  -0.00261,478756320.00000,   0.00181,276599904.00000,  -0.00050,   0.00143,  -0.00148,  32.00000,   2.00000
477302963.16267,423512837.03478,-85781595.82694,   0.00086,   0.00243,  -0.00260,478790688.00000,   0.00182,276607424.00000,  -0.00049,   0.00144,  -0.00148,  32.00000,   2.00000
478169739.78918,423789612.02466,-84689261.78792,   0.00087,   0.00244,  -0.00259,478779552.00000,   0.00182,276614880.00000,  -0.00048,   0.00144,  -0.00149, 160.00000,   2.00000
479029409.18302,424047363.69151,-83603925.45007,   0.00087,   0.00244,  -0.00258,478824384.00000,   0.00183,276622464.00000,  -0.00048,   0.00145,  -0.00149,  32.00000,   2.00000
479866051.51529,424325793.44284,-82513761.73925,   0.00088,   0.00244,  -0.00257,478828992.00000,   0.00184,276630016.00000,  -0.00047,   0.00145,  -0.00150, 192.00000,   2.00000
480690901.57077,424596588.73177,-81427244.99990,   0.00089,   0.00245,  -0.00256,478842496.00000,   0.00184,276637568.00000,  -0.00047,   0.00145,  -0.00151, 128.00000,   2.00000
481504019.37742,424859781.79131,-80344573.44816,   0.00090,   0.00245,  -0.00256,478856352.00000,   0.00185,276645152.00000,  -0.00046,   0.00146,  -0.00151,  32.00000,   2.00000
482303333.99279,425135951.67682,-79252389.72096,   0.00091,   0.00246,  -0.00255,478887552.00000,   0.00186,276652832.00000,  -0.00045,   0.00146,  -0.00152,  64.00000,   2.00000
483085268.40807,425399516.04738,-78173554.91119,   0.00092,   0.00246,  -0.00254,478907232.00000,   0.00187,276660512.00000,  -0.00045,   0.00147,  -0.00152,  64.00000,   2.00000
483838431.65903,425678370.04617,-77099737.63999,   0.00093,   0.00247,  -0.00253,478918368.00000,   0.00187,276668192.00000,  -0.00044,   0.00147,  -0.00153, -64.00000,   2.00000
484579734.59016,425949123.20003,-76030380.18593,   0.00094,   0.00247,  -0.00252,478933376.00000,   0.00188,276675904.00000,  -0.00043,   0.00148,  -0.00153, 192.00000,   2.00000
485322796.83788,426208229.54989,-74951412.28205,   0.00095,   0.00247,  -0.00251,478970272.00000,   0.00189,276683712.00000,  -0.00043,   0.00148,  -0.00154,   0.00000,   2.00000
486032295.37141,426478366.13424,-73887097.55440,   0.00096,   0.00248,  -0.00251,478987008.00000,   0.00190,276691520.00000,  -0.00042,   0.00149,  -0.00155,  64.00000,   2.00000
486734250.17171,426743973.43297,-72818168.15242,   0.00097,   0.00248,  -0.00250,478998208.00000,   0.00190,276699328.00000,  -0.00041,   0.00149,  -0.00155,  32.00000,   2.00000
487403186.42132,427020863.62040,-71764038.83923,   0.00098,   0.00249,  -0.00249,479014912.00000,   0.00191,276707168.00000,  -0.00041,   0.00149,  -0.00156,  32.00000,   2.00000
488073579.02550,427285602.47549,-70700720.11166,   0.00099,   0.00249,  -0.00248,479052896.00000,   0.00192,276715072.00000,  -0.00040,   0.00150,  -0.00156, -64.00000,   2.00000
488723385.08283,427549661.83242,-69646848.76836,   0.00100,   0.00250,  -0.00247,479042624.00000,   0.00192,276722912.00000,  -0.00039,   0.00150,  -0.00157,  96.00000,   2.00000
489362299.88494,427813612.08618,-68589505.29821,   0.00101,   0.00250,  -0.00246,479108064.00000,   0.00193,276730944.00000,  -0.00039,   0.00151,  -0.00157, -32.00000,   2.00000
489976439.23771,428073209.79046,-67550960.11119,   0.00102,   0.00251,  -0.00246,479102080.00000,   0.00194,276738912.00000,  -0.00038,   0.00151,  -0.00158, -32.00000,   2.00000
490575826.74171,428344424.79466,-66504177.80731,   0.00103,   0.00251,  -0.00245,479136288.00000,   0.00195,276746944.00000,  -0.00037,   0.00152,  -0.00158,   0.00000,   2.00000
491155485.35509,428615392.39188,-65466673.70423,   0.00103,   0.00251,  -0.00244,479125792.00000,   0.00195,276754880.00000,  -0.00036,   0.00152,  -0.00159, 128.00000,   2.00000
491732296.15871,428870478.75495,-64429858.07993,   0.00104,   0.00252,  -0.00243,479168192.00000,   0.00196,276762944.00000,  -0.00036,   0.00153,  -0.00159, 128.00000,   2.00000
492281612.44182,429141313.04878,-63398645.64989,   0.00105,   0.00252,  -0.00242,479180000.00000,   0.00197,276771040.00000,  -0.00035,   0.00153,  -0.00160, -32.00000,   2.00000
492828280.46784,429396426.24943,-62368358.50553,   0.00106,   0.00253,  -0.00241,479222112.00000,   0.00198,276779200.00000,  -0.00034,   0.00154,  -0.00160, -64.00000,   2.00000
493351903.90874,429648427.05297,-61356752.16900,   0.00107,   0.00253,  -0.00240,479214592.00000,   0.00199,276787296.00000,  -0.00034,   0.00154,  -0.00161, -32.00000,   2.00000
493860929.44646,429912072.88784,-60337218.63696,   0.00108,   0.00254,  -0.00240,479248448.00000,   0.00199,276795488.00000,  -0.00033,   0.00155,  -0.00161,   0.00000,   2.00000
494359534.81821,430168168.27210,-59322801.57081,   0.00109,   0.00254,  -0.00239,479263200.00000,   0.00200,276803680.00000,  -0.00032,   0.00155,  -0.00162,  32.00000,   2.00000
494831881.67617,430440627.87813,-58314073.24801,   0.00110,   0.00255,  -0.00238,479273792.00000,   0.00201,276811872.00000,  -0.00031,   0.00156,  -0.00162, 160.00000,   2.00000
495302142.83428,430697296.51648,-57306586.76135,   0.00111,   0.00255,  -0.00237,479315040.00000,   0.00202,276820160.00000,  -0.00031,   0.00156,  -0.00163, -32.00000,   2.00000
495755371.99701,430955024.75333,-56307965.84655,   0.00112,   0.00256,  -0.00236,479302368.00000,   0.00202,276828384.00000,  -0.00030,   0.00157,  -0.00163, -32.00000,   2.00000
496199240.33241,431212965.04251,-55307533.31848,   0.00113,   0.00257,  -0.00235,479366176.00000,   0.00203,276836768.00000,  -0.00029,   0.00157,  -0.00163,  32.00000,   2.00000
496626720.79630,431471909.37824,-54315787.52472,   0.00114,   0.00257,  -0.00235,479353536.00000,   0.00204,276845088.00000,  -0.00028,   0.00158,  -0.00164,  32.00000,   2.00000
497045950.78972,431723811.40672,-53329066.85930,   0.00114,   0.00258,  -0.00234,479367712.00000,   0.00205,276853408.00000,  -0.00028,   0.00158,  -0.00164,  32.00000,   2.00000
497437178.91715,431989570.89170,-52357670.63759,   0.00115,   0.00258,  -0.00233,479381408.00000,   0.00206,276861728.00000,  -0.00027,   0.00159,  -0.00165,  64.00000,   2.00000
497830558.31949,432242729.91193,-51378307.66706,   0.00116,   0.00259,  -0.00232,479419520.00000,   0.00206,276870144.00000,  -0.00026,   0.00159,  -0.00165, -32.00000,   2.00000
498205991.50838,432504351.17809,-50401549.41598,   0.00117,   0.00259,  -0.00231,479456928.00000,   0.00207,276878656.00000,  -0.00025,   0.00160,  -0.00166,   0.00000,   2.00000
498564435.00782,432767648.52156,-49433715.13768,   0.00118,   0.00260,  -0.00230,479444448.00000,   0.00208,276887104.00000,  -0.00024,   0.00160,  -0.00166, -32.00000,   2.00000
498910534.16785,433021675.67082,-48481079.08079,   0.00119,   0.00260,  -0.00229,479461792.00000,   0.00209,276895552.00000,  -0.00024,   0.00161,  -0.00166,  32.00000,   2.00000
499242432.30605,433287091.10377,-47521150.17258,   0.00120,   0.00261,  -0.00229,479495552.00000,   0.00209,276904064.00000,  -0.00023,   0.00161,  -0.00167, -96.00000,   2.00000
499563343.66947,433543452.52271,-46576277.25068,   0.00121,   0.00261,  -0.00228,479512096.00000,   0.00210,276912640.00000,  -0.00022,   0.00162,  -0.00167, -32.00000,   2.00000
499879154.27668,433795711.62063,-45626928.41030,   0.00122,   0.00262,  -0.00227,479522752.00000,   0.00211,276921184.00000,  -0.00021,   0.00162,  -0.00168,  96.00000,   2.00000
500167676.28828,434062734.56532,-44693400.74910,   0.00122,   0.00263,  -0.00226,479535040.00000,   0.00212,276929728.00000,  -0.00021,   0.00163,  -0.00168, -64.00000,   2.00000
500458345.01157,434317280.15824,-43752638.52601,   0.00123,   0.00263,  -0.00225,479572768.00000,   0.00213,276938368.00000,  -0.00020,   0.00163,  -0.00168,   0.00000,   2.00000
500730625.05146,434571633.24860,-42830156.49735,   0.00124,   0.00264,  -0.00224,479562112.00000,   0.00214,276946944.00000,  -0.00019,   0.00164,  -0.00169, -64.00000,   2.00000
500995244.20992,434820150.54998,-41913157.20278,   0.00125,   0.00264,  -0.00224,479575264.00000,   0.00214,276955552.00000,  -0.00018,   0.00164,  -0.00169,  64.00000,   2.00000
501243138.54049,435077937.94466,-40999356.34565,   0.00126,   0.00265,  -0.00223,479611520.00000,   0.00215,276964224.00000,  -0.00017,   0.00165,  -0.00169, -32.00000,   2.00000
501474540.92365,435345084.24482,-40088962.32005,   0.00127,   0.00266,  -0.00222,479647936.00000,   0.00216,276972960.00000,  -0.00016,   0.00165,  -0.00170,  96.00000,   2.00000
501706991.70435,435590867.65744,-39186559.27726,   0.00128,   0.00266,  -0.00221,479638560.00000,   0.00217,276981664.00000,  -0.00016,   0.00166,  -0.00170, 128.00000,   2.00000
501916248.94660,435854791.91479,-38290216.91398,   0.00129,   0.00267,  -0.00220,479647744.00000,   0.00218,276990336.00000,  -0.00015,   0.00166,  -0.00170,  32.00000,   2.00000
502116356.32075,436118943.59621,-37394794.40122,   0.00129,   0.00267,  -0.00219,479711392.00000,   0.00218,276999200.00000,  -0.00014,   0.00167,  -0.00171, -96.00000,   2.00000
502311814.47548,436370956.34300,-36509582.58576,   0.00130,   0.00268,  -0.00219,479674656.00000,   0.00219,277007904.00000,  -0.00013,   0.00167,  -0.00171,   0.00000,   2.00000
502489291.57082,436630170.62836,-35637716.28818,   0.00131,   0.00269,  -0.00218,479713408.00000,   0.00220,277016704.00000,  -0.00012,   0.00168,  -0.00171,  96.00000,   2.00000
502653754.72004,436900550.26459,-34759342.19909,   0.00132,   0.00269,  -0.00217,479747552.00000,   0.00221,277025568.00000,  -0.00012,   0.00169,  -0.00172,  64.00000,   2.00000
502818753.35967,437148011.97564,-33898326.43458,   0.00133,   0.00270,  -0.00216,479740384.00000,   0.00222,277034400.00000,  -0.00011,   0.00169,  -0.00172,   0.00000,   2.00000
502968710.16024,437404817.00635,-33040760.75444,   0.00134,   0.00271,  -0.00215,479776768.00000,   0.00223,277043296.00000,  -0.00010,   0.00170,  -0.00172,  96.00000,   2.00000
503112761.58522,437655844.78852,-32188556.74890,   0.00135,   0.00271,  -0.00214,479790240.00000,   0.00223,277052192.00000,  -0.00009,   0.00170,  -0.00173,  96.00000,   2.00000
503235371.23894,437925307.50944,-31342028.84027,   0.00135,   0.00272,  -0.00214,479799360.00000,   0.00224,277061088.00000,  -0.00008,   0.00171,  -0.00173,  96.00000,   2.00000
503359102.49863,438179916.95480,-30498743.72283,   0.00136,   0.00272,  -0.00213,479839936.00000,   0.00225,277070080.00000,  -0.00007,   0.00171,  -0.00173,   0.00000,   2.00000
503470721.78788,438438052.61448,-29662823.02259,   0.00137,   0.00273,  -0.00212,479826016.00000,   0.00226,277079008.00000,  -0.00006,   0.00172,  -0.00173,  96.00000,   2.00000
503574873.98802,438688841.84162,-28842136.74863,   0.00138,   0.00274,  -0.00211,479841376.00000,   0.00227,277087936.00000,  -0.00006,   0.00172,  -0.00174,   0.00000,   2.00000
503666722.14713,438950868.67322,-28015012.02716,   0.00139,   0.00274,  -0.00210,479875584.00000,   0.00228,277096928.00000,  -0.00005,   0.00173,  -0.00174, -64.00000,   2.00000
503751653.76661,439206040.69994,-27203121.18650,   0.00140,   0.00275,  -0.00210,479890624.00000,   0.00229,277105952.00000,  -0.00004,   0.00173,  -0.00174, -96.00000,   2.00000
503824923.47589,439465282.00982,-26398129.03479,   0.00141,   0.00276,  -0.00209,479876352.00000,   0.00229,277114880.00000,  -0.00003,   0.00174,  -0.00174,  32.00000,   2.00000
503890924.85836,439725359.84302,-25594922.08192,   0.00141,   0.00276,  -0.00208,479939616.00000,   0.00230,277124000.00000,  -0.00002,   0.00175,  -0.00175,  32.00000,   2.00000
503961227.88797,439965737.77283,-24798222.75757,   0.00142,   0.00277,  -0.00207,479929568.00000,   0.00231,277133024.00000,  -0.00001,   0.00175,  -0.00175, -32.00000,   2.00000
504001865.21642,440240353.54519,-24005420.65567,   0.00143,   0.00278,  -0.00206,479961312.00000,   0.00232,277142144.00000,  -0.00000,   0.00176,  -0.00175,  64.00000,   2.00000
504045403.08591,440493650.47771,-23229123.95142,   0.00144,   0.00278,  -0.00206,479952576.00000,   0.00233,277151200.00000,   0.00000,   0.00176,  -0.00175,   0.00000,   2.00000
504076940.01768,440757937.20683,-22446616.97854,   0.00145,   0.00279,  -0.00205,479986976.00000,   0.00234,277160320.00000,   0.00001,   0.00177,  -0.00176,   0.00000,   2.00000
504102583.71072,441015182.94971,-21679537.55308,   0.00146,   0.00280,  -0.00204,480001312.00000,   0.00235,277169440.00000,   0.00002,   0.00177,  -0.00176,  64.00000,   2.00000
504124132.38276,441266424.66360,-20917922.05209,   0.00146,   0.00281,  -0.00203,480013984.00000,   0.00235,277178592.00000,   0.00003,   0.00178,  -0.00176,   0.00000,   2.00000
504140212.71894,441510117.64638,-20171916.79451,   0.00147,   0.00281,  -0.00202,480028000.00000,   0.00236,277187744.00000,   0.00004,   0.00179,  -0.00176, -96.00000,   2.00000
504144750.69333,441763336.21086,-19420288.23026,   0.00148,   0.00282,  -0.00202,480062496.00000,   0.00237,277196960.00000,   0.00005,   0.00179,  -0.00176, -32.00000,   2.00000
504137600.23673,442018235.74536,-18685644.85570,   0.00149,   0.00283,  -0.00201,480049312.00000,   0.00238,277206112.00000,   0.00006,   0.00180,  -0.00176,  32.00000,   2.00000
504133664.86222,442257636.67906,-17955236.20389,   0.00150,   0.00283,  -0.00200,480089088.00000,   0.00239,277215360.00000,   0.00007,   0.00180,  -0.00177,  64.00000,   2.00000
504119779.78204,442500755.53839,-17231411.82491,   0.00151,   0.00284,  -0.00199,480074240.00000,   0.00240,277224544.00000,   0.00007,   0.00181,  -0.00177,  96.00000,   2.00000
504093065.53697,442752757.17791,-16511881.86661,   0.00151,   0.00285,  -0.00198,480110112.00000,   0.00241,277233792.00000,   0.00008,   0.00182,  -0.00177, 128.00000,   2.00000
504063084.77602,442999540.64679,-15797544.67505,   0.00152,   0.00285,  -0.00198,480122560.00000,   0.00241,277243040.00000,   0.00009,   0.00182,  -0.00177, 160.00000,   2.00000
504028659.61573,443240390.38810,-15098386.73998,   0.00153,   0.00286,  -0.00197,480135936.00000,   0.00242,277252288.00000,   0.00010,   0.00183,  -0.00177,  32.00000,   2.00000
503991283.32775,443476802.51406,-14404201.54709,   0.00154,   0.00287,  -0.00196,480148192.00000,   0.00243,277261568.00000,   0.00011,   0.00183,  -0.00177,-160.00000,   2.00000
503941387.19070,443723117.63141,-13714147.52192,   0.00155,   0.00288,  -0.00195,480183808.00000,   0.00244,277270912.00000,   0.00012,   0.00184,  -0.00177,   0.00000,   2.00000
503888574.88637,443965093.79665,-13029018.27844,   0.00155,   0.00288,  -0.00195,480196192.00000,   0.00245,277280288.00000,   0.00013,   0.00185,  -0.00178, 128.00000,   2.00000
503831788.64483,444201869.03980,-12358868.83012,   0.00156,   0.00289,  -0.00194,480209184.00000,   0.00246,277289632.00000,   0.00014,   0.00185,  -0.00178, -64.00000,   2.00000
503765587.75233,444444055.28150,-11694293.60020,   0.00157,   0.00290,  -0.00193,480194112.00000,   0.00247,277298912.00000,   0.00015,   0.00186,  -0.00178,   0.00000,   2.00000
503703633.25596,444672751.10839,-11033708.53004,   0.00158,   0.00291,  -0.00192,480233184.00000,   0.00248,277308288.00000,   0.00015,   0.00186,  -0.00178,  64.00000,   2.00000
503622713.68892,444921026.05622,-10377955.52838,   0.00159,   0.00291,  -0.00192,480241696.00000,   0.00249,277317664.00000,   0.00016,   0.00187,  -0.00178,  96.00000,   2.00000
503538532.27902,445164457.55756,-9737003.76625,   0.00160,   0.00292,  -0.00191,480254400.00000,   0.00249,277327040.00000,   0.00017,   0.00188,  -0.00178, -64.00000,   2.00000
503452127.51330,445403937.28016,-9100650.89160,   0.00160,   0.00293,  -0.00190,480266208.00000,   0.00250,277336416.00000,   0.00018,   0.00188,  -0.00178,  32.00000,   2.00000
503363439.11254,445639416.28269,-8468856.68570,   0.00161,   0.00293,  -0.00189,480278048.00000,   0.00251,277345824.00000,   0.00019,   0.00189,  -0.00178, -32.00000,   2.00000
503272596.77454,445871014.32581,-7841581.74763,   0.00162,   0.00294,  -0.00189,480289920.00000,   0.00252,277355200.00000,   0.00020,   0.00190,  -0.00178, 128.00000,   2.00000
503169500.79104,446112323.90455,-7228474.54719,   0.00163,   0.00295,  -0.00188,480325600.00000,   0.00253,277364672.00000,   0.00021,   0.00190,  -0.00178, -32.00000,   2.00000
503064649.01762,446349962.32175,-6619761.10578,   0.00164,   0.00296,  -0.00187,480337248.00000,   0.00254,277374176.00000,   0.00022,   0.00191,  -0.00178,  96.00000,   2.00000
502967447.41521,446569814.42169,-6015735.31397,   0.00164,   0.00296,  -0.00186,480325472.00000,   0.00255,277383584.00000,   0.00023,   0.00191,  -0.00179,  64.00000,   2.00000
502849095.19435,446813994.44833,-5415328.20957,   0.00165,   0.00297,  -0.00186,480384032.00000,   0.00256,277393152.00000,   0.00024,   0.00192,  -0.00179,  64.00000,   2.00000
502731541.91290,447049896.40118,-4829905.32583,   0.00166,   0.00298,  -0.00185,480345344.00000,   0.00257,277402560.00000,   0.00024,   0.00193,  -0.00179,  96.00000,   2.00000
502619172.85259,447272668.76068,-4248252.67640,   0.00167,   0.00299,  -0.00184,480383744.00000,   0.00257,277412064.00000,   0.00025,   0.00193,  -0.00179, 160.00000,   2.00000
502488394.90739,447515318.32654,-3680782.79290,   0.00168,   0.00300,  -0.00184,480391584.00000,   0.00258,277421536.00000,   0.00026,   0.00194,  -0.00179,  32.00000,   2.00000
502373049.91505,447731382.96987,-3107068.34767,   0.00168,   0.00300,  -0.00183,480405920.00000,   0.00259,277431040.00000,   0.00027,   0.00195,  -0.00179,  64.00000,   2.00000
502239309.25016,447967419.40001,-2547407.55580,   0.00169,   0.00301,  -0.00182,480413696.00000,   0.00260,277440544.00000,   0.00028,   0.00195,  -0.00179,-128.00000,   2.00000
502104324.62847,448200257.47987,-2001649.63101,   0.00170,   0.00302,  -0.00181,480424608.00000,   0.00261,277450048.00000,   0.00029,   0.00196,  -0.00179, -64.00000,   2.00000
501975206.98944,448420463.49486,-1449311.94812,   0.00171,   0.00303,  -0.00181,480462272.00000,   0.00262,277459648.00000,   0.00030,   0.00196,  -0.00179,  96.00000,   2.00000
501827999.54787,448660742.46788,-910830.30548,   0.00172,   0.00303,  -0.00180,480469664.00000,   0.00263,277469248.00000,   0.00031,   0.00197,  -0.00179,  32.00000,   2.00000
501689626.23452,448884161.88677,-376033.84628,   0.00172,   0.00304,  -0.00179,480456544.00000,   0.00264,277478752.00000,   0.00032,   0.00198,  -0.00179, 128.00000,   2.00000
501550132.57025,449104317.98346,145033.54819,   0.00173,   0.00305,  -0.00179,480467072.00000,   0.00265,277488288.00000,   0.00033,   0.00198,  -0.00179,  64.00000,   2.00000
501400208.16884,449335103.35021,662528.46764,   0.00174,   0.00306,  -0.00178,480500832.00000,   0.00266,277497888.00000,   0.00033,   0.00199,  -0.00179,  32.00000,   2.00000
501249704.02536,449562565.36354,1176357.62018,   0.00175,   0.00306,  -0.00177,480511168.00000,   0.00267,277507488.00000,   0.00034,   0.00200,  -0.00179,  96.00000,   2.00000
501108464.03336,449772950.42507,1686489.50186,   0.00176,   0.00307,  -0.00177,480498080.00000,   0.00267,277517024.00000,   0.00035,   0.00200,  -0.00179, 160.00000,   2.00000
500950169.97156,450003207.13038,2182638.13035,   0.00176,   0.00308,  -0.00176,480505152.00000,   0.00268,277526560.00000,   0.00036,   0.00201,  -0.00179,  64.00000,   2.00000
500798979.33217,450220092.23771,2664554.03406,   0.00177,   0.00309,  -0.00175,480542656.00000,   0.00269,277536160.00000,   0.00037,   0.00202,  -0.00179, -96.00000,   2.00000
500647690.42233,450432976.30540,3152474.36325,   0.00178,   0.00310,  -0.00175,480553728.00000,   0.00270,277545760.00000,   0.00038,   0.00202,  -0.00179,  32.00000,   2.00000
500487028.30543,450655481.57221,3625689.76249,   0.00179,   0.00310,  -0.00174,480588640.00000,   0.00271,277555456.00000,   0.00039,   0.00203,  -0.00179,  32.00000,   2.00000
500329130.12568,450870017.08573,4094972.19795,   0.00180,   0.00311,  -0.00173,480549856.00000,   0.00272,277564992.00000,   0.00040,   0.00204,  -0.00179,  96.00000,   2.00000
500178932.73252,451070874.42701,4549333.63529,   0.00180,   0.00312,  -0.00173,480588416.00000,   0.00273,277574624.00000,   0.00041,   0.00204,  -0.00179,  64.00000,   2.00000
500011920.13744,451290792.52433,4999249.90154,   0.00181,   0.00313,  -0.00172,480597600.00000,   0.00274,277584224.00000,   0.00042,   0.00205,  -0.00179,  32.00000,   2.00000
499862504.07465,451483964.42492,5434631.11302,   0.00182,   0.00314,  -0.00171,480612928.00000,   0.00275,277593856.00000,   0.00042,   0.00206,  -0.00179,  64.00000,   2.00000
499702948.57617,451686475.04932,5875526.60398,   0.00183,   0.00314,  -0.00171,480649856.00000,   0.00276,277603584.00000,   0.00043,   0.00206,  -0.00178,  32.00000,   2.00000
499546297.95681,451882642.05834,6293059.49188,   0.00183,   0.00315,  -0.00170,480611136.00000,   0.00277,277613120.00000,   0.00044,   0.00207,  -0.00178,   0.00000,   2.00000
499386593.93730,452078872.41392,6716116.27713,   0.00184,   0.00316,  -0.00170,480674528.00000,   0.00277,277622848.00000,   0.00045,   0.00208,  -0.00178, -32.00000,   2.00000
499229334.17002,452269252.66310,7126605.76621,   0.00185,   0.00317,  -0.00169,480635680.00000,   0.00278,277632384.00000,   0.00046,   0.00208,  -0.00178, -32.00000,   2.00000
499062480.43950,452470944.27978,7523383.55465,   0.00186,   0.00317,  -0.00168,480671008.00000,   0.00279,277642016.00000,   0.00047,   0.00209,  -0.00178,  96.00000,   2.00000
498902096.16210,452660069.14742,7926838.20635,   0.00187,   0.00318,  -0.00168,480710016.00000,   0.00280,277651744.00000,   0.00048,   0.00210,  -0.00178,  32.00000,   2.00000
498734283.21580,452857267.81389,8317999.64792,   0.00187,   0.00319,  -0.00167,480694176.00000,   0.00281,277661376.00000,   0.00049,   0.00210,  -0.00178, -32.00000,   2.00000
498584215.64673,453030250.25313,8696391.05097,   0.00188,   0.00320,  -0.00167,480707232.00000,   0.00282,277671040.00000,   0.00050,   0.00211,  -0.00178,  64.00000,   2.00000
498416564.88862,453224392.92360,9072394.76326,   0.00189,   0.00321,  -0.00166,480715296.00000,   0.00283,277680672.00000,   0.00051,   0.00212,  -0.00178,  96.00000,   2.00000
498248740.40565,453416621.26592,9445968.87965,   0.00190,   0.00321,  -0.00165,480725760.00000,   0.00284,277690336.00000,   0.00051,   0.00212,  -0.00178, -32.00000,   2.00000
498081758.92165,453607767.60771,9807014.87311,   0.00191,   0.00322,  -0.00165,480735648.00000,   0.00285,277699968.00000,   0.00052,   0.00213,  -0.00178,  32.00000,   2.00000
497923047.87731,453787901.55912,10154884.67902,   0.00191,   0.00323,  -0.00164,480772192.00000,   0.00286,277709696.00000,   0.00053,   0.00214,  -0.00177,  32.00000,   2.00000
497756184.60096,453975351.71110,10511237.93331,   0.00192,   0.00324,  -0.00164,480756640.00000,   0.00287,277719328.00000,   0.00054,   0.00214,  -0.00177,  64.00000,   2.00000
497600098.97156,454148534.86242,10855730.16903,   0.00193,   0.00325,  -0.00163,480742272.00000,   0.00288,277728896.00000,   0.00055,   0.00215,  -0.00177, -32.00000,   2.00000
497442776.55884,454323917.95666,11186336.77561,   0.00194,   0.00325,  -0.00163,480802560.00000,   0.00288,277738624.00000,   0.00056,   0.00216,  -0.00177,  64.00000,   2.00000
497278159.52688,454507230.66635,11515393.98135,   0.00194,   0.00326,  -0.00162,480786208.00000,   0.00289,277748288.00000,   0.00057,   0.00216,  -0.00177,   0.00000,   2.00000
497114012.20875,454688718.34128,11842127.51533,   0.00195,   0.00327,  -0.00162,480796480.00000,   0.00290,277757920.00000,   0.00058,   0.00217,  -0.00177,  96.00000,   2.00000
496968439.10783,454846189.94906,12156340.04857,   0.00196,   0.00328,  -0.00161,480808736.00000,   0.00291,277767584.00000,   0.00059,   0.00218,  -0.00177,  32.00000,   2.00000
496805759.49590,455024672.94207,12468362.24895,   0.00197,   0.00329,  -0.00160,480816448.00000,   0.00292,277777216.00000,   0.00060,   0.00218,  -0.00177, -32.00000,   2.00000
496644438.77997,455202042.07764,12768015.06769,   0.00198,   0.00329,  -0.00160,480825792.00000,   0.00293,277786880.00000,   0.00060,   0.00219,  -0.00177,   0.00000,   2.00000
496502118.83531,455355714.35240,13055289.43606,   0.00198,   0.00330,  -0.00159,480837952.00000,   0.00294,277796512.00000,   0.00061,   0.00220,  -0.00176,   0.00000,   2.00000
496341775.48109,455529534.73236,13350607.74735,   0.00199,   0.00331,  -0.00159,480846496.00000,   0.00295,277806176.00000,   0.00062,   0.00220,  -0.00176,  32.00000,   2.00000
496200452.01099,455679658.69656,13633548.99850,   0.00200,   0.00332,  -0.00158,480858368.00000,   0.00296,277815840.00000,   0.00063,   0.00221,  -0.00176,  32.00000,   2.00000
496043012.62817,455851649.24221,13904372.18102,   0.00201,   0.00333,  -0.00158,480865312.00000,   0.00297,277825472.00000,   0.00064,   0.00222,  -0.00176,  64.00000,   2.00000
495895837.53013,456008833.94450,14174005.47112,   0.00202,   0.00333,  -0.00157,480851488.00000,   0.00298,277835040.00000,   0.00065,   0.00223,  -0.00176, -64.00000,   2.00000
495758251.43287,456155682.51446,14430581.69925,   0.00202,   0.00334,  -0.00157,480887264.00000,   0.00299,277844672.00000,   0.00066,   0.00223,  -0.00176,  96.00000,   2.00000
495603479.65773,456323451.49141,14685298.57448,   0.00203,   0.00335,  -0.00157,480894976.00000,   0.00299,277854336.00000,   0.00067,   0.00224,  -0.00176,  96.00000,   2.00000
495468043.08816,456467832.27094,14927907.13453,   0.00204,   0.00336,  -0.00156,480906912.00000,   0.00300,277863968.00000,   0.00068,   0.00225,  -0.00175,  96.00000,   2.00000
495333312.18868,456610804.33995,15168671.13174,   0.00205,   0.00336,  -0.00156,480917120.00000,   0.00301,277873632.00000,   0.00068,   0.00225,  -0.00175,  96.00000,   2.00000
495191108.90277,456761882.84293,15408615.73710,   0.00206,   0.00337,  -0.00155,480900672.00000,   0.00302,277883200.00000,   0.00069,   0.00226,  -0.00175,   0.00000,   2.00000
495068414.57368,456889937.83853,15636575.93690,   0.00206,   0.00338,  -0.00155,480912192.00000,   0.00303,277892768.00000,   0.00070,   0.00227,  -0.00175,   0.00000,   2.00000
494929532.73274,457040066.10595,15852822.37513,   0.00207,   0.00339,  -0.00154,480918912.00000,   0.00304,277902304.00000,   0.00071,   0.00227,  -0.00175,  32.00000,   2.00000
494799410.83854,457179059.99746,16066363.43312,   0.00208,   0.00340,  -0.00154,480955488.00000,   0.00305,277911968.00000,   0.00072,   0.00228,  -0.00175,  96.00000,   2.00000
494680716.77900,457304844.31181,16269177.78926,   0.00209,   0.00340,  -0.00153,480940448.00000,   0.00306,277921536.00000,   0.00073,   0.00229,  -0.00175,  32.00000,   2.00000
494562673.04158,457429430.57118,16470453.73323,   0.00209,   0.00341,  -0.00153,480950400.00000,   0.00307,277931072.00000,   0.00074,   0.00229,  -0.00174, 128.00000,   2.00000
494436721.10396,457566640.43380,16659125.74786,   0.00210,   0.00342,  -0.00153,480983456.00000,   0.00308,277940736.00000,   0.00075,   0.00230,  -0.00174, 160.00000,   2.00000
494312945.53877,457699378.78539,16848480.57561,   0.00211,   0.00343,  -0.00152,480943008.00000,   0.00309,277950208.00000,   0.00075,   0.00231,  -0.00174,  32.00000,   2.00000
494199096.55551,457822211.64322,17025212.64625,   0.00212,   0.00343,  -0.00152,480978240.00000,   0.00310,277959744.00000,   0.00076,   0.00231,  -0.00174,  64.00000,   2.00000
494095760.53257,457931324.99263,17201651.37031,   0.00213,   0.00344,  -0.00151,480963936.00000,   0.00310,277969216.00000,   0.00077,   0.00232,  -0.00174,  96.00000,   2.00000
493992466.36152,458043366.33204,17364489.91550,   0.00213,   0.00345,  -0.00151,481023520.00000,   0.00311,277978880.00000,   0.00078,   0.00233,  -0.00174, 128.00000,   2.00000
493891232.91606,458151289.35926,17528301.38276,   0.00214,   0.00346,  -0.00151,480982720.00000,   0.00312,277988352.00000,   0.00079,   0.00234,  -0.00173, -32.00000,   2.00000
493782271.04112,458272182.03709,17679754.18751,   0.00215,   0.00346,  -0.00150,481015424.00000,   0.00313,277997888.00000,   0.00080,   0.00234,  -0.00173, 128.00000,   2.00000
493684806.07112,458380368.39692,17821071.42425,   0.00216,   0.00347,  -0.00150,481000096.00000,   0.00314,278007360.00000,   0.00081,   0.00235,  -0.00173,  32.00000,   2.00000
493596053.75331,458477827.23582,17960136.41061,   0.00217,   0.00348,  -0.00149,481036256.00000,   0.00315,278016896.00000,   0.00081,   0.00236,  -0.00173, 128.00000,   2.00000
493509453.11252,458571579.84762,18100450.10162,   0.00217,   0.00349,  -0.00149,480995488.00000,   0.00316,278026304.00000,   0.00082,   0.00236,  -0.00173,   0.00000,   2.00000
493414899.39872,458678276.94763,18228553.53384,   0.00218,   0.00349,  -0.00149,481028160.00000,   0.00317,278035776.00000,   0.00083,   0.00237,  -0.00172,  96.00000,   2.00000
493340008.86535,458762761.48936,18345530.10189,   0.00219,   0.00350,  -0.00148,481038880.00000,   0.00318,278045216.00000,   0.00084,   0.00238,  -0.00172,  32.00000,   2.00000
493265828.24677,458846738.31678,18461643.01873,   0.00220,   0.00351,  -0.00148,481048480.00000,   0.00319,278054688.00000,   0.00085,   0.00238,  -0.00172, 224.00000,   2.00000
493184850.45153,458940616.85491,18568042.42444,   0.00221,   0.00352,  -0.00148,481030752.00000,   0.00320,278064064.00000,   0.00086,   0.00239,  -0.00172,   0.00000,   2.00000
493114057.81020,459025289.85371,18662364.30241,   0.00221,   0.00352,  -0.00147,481065344.00000,   0.00320,278073536.00000,   0.00087,   0.00240,  -0.00172,  32.00000,   2.00000
493043863.20192,459109387.59360,18755987.52172,   0.00222,   0.00353,  -0.00147,481074976.00000,   0.00321,278082976.00000,   0.00087,   0.00240,  -0.00172, 128.00000,   2.00000
492983713.80164,459180100.04246,18850050.08463,   0.00223,   0.00354,  -0.00147,481060352.00000,   0.00322,278092352.00000,   0.00088,   0.00241,  -0.00171, 128.00000,   2.00000
492925233.62688,459251403.95997,18933357.48901,   0.00224,   0.00355,  -0.00147,481068704.00000,   0.00323,278101728.00000,   0.00089,   0.00242,  -0.00171, -32.00000,   2.00000
492868631.74481,459323503.25861,19005999.45589,   0.00225,   0.00355,  -0.00146,481076896.00000,   0.00324,278111104.00000,   0.00090,   0.00242,  -0.00171,  96.00000,   2.00000
492822042.90566,459382401.55786,19079258.36769,   0.00225,   0.00356,  -0.00146,481062208.00000,   0.00325,278120384.00000,   0.00091,   0.00243,  -0.00171,  64.00000,   2.00000
492775618.82308,459444814.47351,19139494.72484,   0.00226,   0.00357,  -0.00146,481120928.00000,   0.00326,278129824.00000,   0.00092,   0.00244,  -0.00171,   0.00000,   2.00000
492732245.52101,459505146.44331,19191658.26515,   0.00227,   0.00358,  -0.00146,481078560.00000,   0.00327,278139104.00000,   0.00093,   0.00245,  -0.00170,  32.00000,   2.00000
492707355.01751,459542892.96821,19243344.27973,   0.00228,   0.00358,  -0.00145,481090016.00000,   0.00328,278148416.00000,   0.00093,   0.00245,  -0.00170,   0.00000,   2.00000
492665813.78497,459603726.36589,19284691.98759,   0.00229,   0.00359,  -0.00145,481095968.00000,   0.00328,278157664.00000,   0.00094,   0.00246,  -0.00170, -64.00000,   2.00000
492644043.43193,459643170.53433,19315581.11565,   0.00230,   0.00360,  -0.00145,481106112.00000,   0.00329,278166944.00000,   0.00095,   0.00247,  -0.00170,   0.00000,   2.00000
492622522.77467,459682406.65698,19346247.16864,   0.00230,   0.00360,  -0.00145,481115392.00000,   0.00330,278176224.00000,   0.00096,   0.00247,  -0.00170, 128.00000,   2.00000
492601085.39131,459721287.94153,19376683.33595,   0.00231,   0.00361,  -0.00144,481124864.00000,   0.00331,278185504.00000,   0.00097,   0.00248,  -0.00170,   0.00000,   2.00000
492592045.32636,459749694.82311,19387954.55331,   0.00232,   0.00362,  -0.00144,481107328.00000,   0.00332,278194688.00000,   0.00098,   0.00249,  -0.00169, -32.00000,   2.00000
492582128.52996,459777027.87909,19409215.31472,   0.00233,   0.00362,  -0.00144,481117600.00000,   0.00333,278203872.00000,   0.00098,   0.00249,  -0.00169,  96.00000,   2.00000
492574662.79999,459806354.87490,19410192.81150,   0.00234,   0.00363,  -0.00144,481124512.00000,   0.00334,278213056.00000,   0.00099,   0.00250,  -0.00169,  64.00000,   2.00000
492575721.83354,459825859.79868,19409883.33852,   0.00235,   0.00364,  -0.00144,481159968.00000,   0.00335,278222336.00000,   0.00100,   0.00251,  -0.00169, -96.00000,   2.00000
492579495.71596,459843691.99193,19401975.84277,   0.00235,   0.00364,  -0.00143,481117344.00000,   0.00336,278231424.00000,   0.00101,   0.00251,  -0.00169, -64.00000,   2.00000
492592923.08032,459852900.36478,19382782.74848,   0.00236,   0.00365,  -0.00143,481151520.00000,   0.00336,278240608.00000,   0.00102,   0.00252,  -0.00168,  32.00000,   2.00000
492616154.91286,459849704.82884,19364908.74055,   0.00237,   0.00366,  -0.00143,481136384.00000,   0.00337,278249696.00000,   0.00103,   0.00253,  -0.00168,  32.00000,   2.00000
492630535.26594,459860001.86455,19335910.48579,   0.00238,   0.00366,  -0.00143,481168480.00000,   0.00338,278258880.00000,   0.00103,   0.00253,  -0.00168, -32.00000,   2.00000
492654904.83806,459858066.17600,19308305.72398,   0.00239,   0.00367,  -0.00143,481153216.00000,   0.00339,278267968.00000,   0.00104,   0.00254,  -0.00168, 128.00000,   2.00000
492690014.15188,459844737.58724,19272000.73248,   0.00240,   0.00368,  -0.00143,481136864.00000,   0.00340,278276992.00000,   0.00105,   0.00255,  -0.00168,  64.00000,   2.00000
492726224.96028,459832756.23936,19225889.71074,   0.00240,   0.00368,  -0.00143,481144640.00000,   0.00341,278285984.00000,   0.00106,   0.00255,  -0.00168,  64.00000,   2.00000
492770440.01261,459811074.63592,19178830.52176,   0.00241,   0.00369,  -0.00142,481180128.00000,   0.00342,278295072.00000,   0.00107,   0.00256,  -0.00167,   0.00000,   2.00000
492808665.10839,459801734.51373,19113246.02184,   0.00242,   0.00370,  -0.00142,481160224.00000,   0.00343,278304096.00000,   0.00107,   0.00257,  -0.00167,   0.00000,   2.00000
492863345.64182,459769000.68635,19058078.30445,   0.00243,   0.00370,  -0.00142,481172480.00000,   0.00343,278313088.00000,   0.00108,   0.00257,  -0.00167,  32.00000,   2.00000
492920259.61332,459738925.09806,18983175.63782,   0.00244,   0.00371,  -0.00142,481178976.00000,   0.00344,278322080.00000,   0.00109,   0.00258,  -0.00167,  64.00000,   2.00000
492986451.57159,459696501.09715,18909944.52008,   0.00245,   0.00372,  -0.00142,481163712.00000,   0.00345,278331008.00000,   0.00110,   0.00259,  -0.00167,   0.00000,   2.00000
493053373.72351,459655490.07982,18827155.96296,   0.00245,   0.00372,  -0.00142,481171328.00000,   0.00346,278339936.00000,   0.00111,   0.00259,  -0.00166, -64.00000,   2.00000
493120062.79031,459615002.64259,18744953.94575,   0.00246,   0.00373,  -0.00142,481180192.00000,   0.00347,278348832.00000,   0.00112,   0.00260,  -0.00166, 128.00000,   2.00000
493198174.25476,459564250.78835,18644311.87216,   0.00247,   0.00374,  -0.00142,481162528.00000,   0.00348,278357664.00000,   0.00112,   0.00261,  -0.00166, -32.00000,   2.00000
493282758.25037,459502983.14031,18553204.24473,   0.00248,   0.00374,  -0.00142,481198880.00000,   0.00349,278366592.00000,   0.00113,   0.00261,  -0.00166, -96.00000,   2.00000
493379017.21836,459431926.73808,18443725.23110,   0.00249,   0.00375,  -0.00142,481181024.00000,   0.00349,278375424.00000,   0.00114,   0.00262,  -0.00166,   0.00000,   2.00000
493474569.34215,459361353.07044,18335004.28911,   0.00250,   0.00375,  -0.00142,481189888.00000,   0.00350,278384256.00000,   0.00115,   0.00263,  -0.00166, -64.00000,   2.00000
493570537.27495,459292287.18973,18216963.92800,   0.00251,   0.00376,  -0.00142,481197728.00000,   0.00351,278393088.00000,   0.00116,   0.00263,  -0.00165,  32.00000,   2.00000
493676628.93928,459212097.68192,18090766.20581,   0.00251,   0.00376,  -0.00142,481181248.00000,   0.00352,278401824.00000,   0.00116,   0.00264,  -0.00165,   0.00000,   2.00000
493783097.98546,459133506.10601,17955363.04592,   0.00252,   0.00377,  -0.00142,481188640.00000,   0.00353,278410560.00000,   0.00117,   0.00264,  -0.00165,  96.00000,   2.00000
493906681.95549,459033048.79567,17820792.32225,   0.00253,   0.00378,  -0.00142,481199744.00000,   0.00354,278419328.00000,   0.00118,   0.00265,  -0.00165,  96.00000,   2.00000
494022103.79750,458943848.52891,17678237.61503,   0.00254,   0.00378,  -0.00142,481181120.00000,   0.00354,278427968.00000,   0.00119,   0.00266,  -0.00165, -32.00000,   2.00000
494144881.60555,458845535.51478,17535497.43683,   0.00255,   0.00379,  -0.00142,481216192.00000,   0.00355,278436704.00000,   0.00120,   0.00266,  -0.00165,   0.00000,   2.00000
494278604.02571,458737147.61533,17374639.91306,   0.00256,   0.00379,  -0.00142,481198656.00000,   0.00356,278445376.00000,   0.00120,   0.00267,  -0.00164,  64.00000,   2.00000
494411274.21028,458629409.52299,17214881.02709,   0.00257,   0.00380,  -0.00142,481207488.00000,   0.00357,278454048.00000,   0.00121,   0.00268,  -0.00164,  64.00000,   2.00000
494561752.45902,458500802.73726,17046036.50801,   0.00258,   0.00380,  -0.00142,481217504.00000,   0.00358,278462688.00000,   0.00122,   0.00268,  -0.00164,   0.00000,   2.00000
494702855.35759,458382615.34153,16879462.51578,   0.00258,   0.00381,  -0.00142,481199840.00000,   0.00359,278471264.00000,   0.00123,   0.00269,  -0.00164, 160.00000,   2.00000
494861599.65035,458243515.44949,16703837.49057,   0.00259,   0.00382,  -0.00142,481209952.00000,   0.00359,278479872.00000,   0.00123,   0.00270,  -0.00164,   0.00000,   2.00000
495020179.83267,458106226.28680,16519326.73059,   0.00260,   0.00382,  -0.00142,481217632.00000,   0.00360,278488448.00000,   0.00124,   0.00270,  -0.00164,  32.00000,   2.00000
495188200.69462,457957846.07448,16326969.70439,   0.00261,   0.00383,  -0.00142,481201248.00000,   0.00361,278496928.00000,   0.00125,   0.00271,  -0.00164,  96.00000,   2.00000
495355652.52344,457811007.42521,16125813.12379,   0.00262,   0.00383,  -0.00142,481209120.00000,   0.00362,278505440.00000,   0.00126,   0.00271,  -0.00163,  32.00000,   2.00000
495539443.00299,457642413.67261,15925913.12145,   0.00263,   0.00384,  -0.00143,481220224.00000,   0.00363,278513952.00000,   0.00127,   0.00272,  -0.00163,   0.00000,   2.00000
495714619.20043,457485249.18642,15718308.29955,   0.00264,   0.00384,  -0.00143,481201696.00000,   0.00363,278522368.00000,   0.00127,   0.00273,  -0.00163,   0.00000,   2.00000
495906912.08564,457307130.59390,15501898.27409,   0.00265,   0.00385,  -0.00143,481211840.00000,   0.00364,278530784.00000,   0.00128,   0.00273,  -0.00163, -64.00000,   2.00000
496097534.03934,457129873.00075,15286924.55216,   0.00266,   0.00385,  -0.00143,481220736.00000,   0.00365,278539200.00000,   0.00129,   0.00274,  -0.00163,  96.00000,   2.00000
496297106.86278,456941361.20367,15064188.11106,   0.00266,   0.00386,  -0.00143,481204544.00000,   0.00366,278547552.00000,   0.00130,   0.00274,  -0.00163, -64.00000,   2.00000
496496898.79812,456755503.33995,14822729.14506,   0.00267,   0.00386,  -0.00143,481211552.00000,   0.00367,278555872.00000,   0.00131,   0.00275,  -0.00163,  96.00000,   2.00000
496701503.78234,456559618.58621,14591958.35195,   0.00268,   0.00386,  -0.00144,481248000.00000,   0.00368,278564320.00000,   0.00131,   0.00276,  -0.00163, -32.00000,   2.00000
496925849.74534,456340578.95165,14344247.02864,   0.00269,   0.00387,  -0.00144,481207008.00000,   0.00368,278572576.00000,   0.00132,   0.00276,  -0.00162, -32.00000,   2.00000
497138231.21395,456135271.68723,14097271.94287,   0.00270,   0.00387,  -0.00144,481240192.00000,   0.00369,278580928.00000,   0.00133,   0.00277,  -0.00162,   0.00000,   2.00000
497368938.19276,455905486.38393,13843445.60297,   0.00271,   0.00388,  -0.00144,481200224.00000,   0.00370,278589120.00000,   0.00134,   0.00277,  -0.00162, -96.00000,   2.00000
497588819.17858,455690561.75322,13580303.48396,   0.00272,   0.00388,  -0.00144,481232256.00000,   0.00371,278597408.00000,   0.00134,   0.00278,  -0.00162,  32.00000,   2.00000
497826927.29247,455451009.07618,13310304.17646,   0.00273,   0.00389,  -0.00145,481192704.00000,   0.00372,278605504.00000,   0.00135,   0.00279,  -0.00162,  64.00000,   2.00000
498071315.67814,455203318.89846,13030978.09579,   0.00274,   0.00389,  -0.00145,481227488.00000,   0.00372,278613728.00000,   0.00136,   0.00279,  -0.00162,  64.00000,   2.00000
498313396.89345,454956461.61169,12753351.46155,   0.00275,   0.00390,  -0.00145,481236640.00000,   0.00373,278621920.00000,   0.00137,   0.00280,  -0.00162, -96.00000,   2.00000
498563907.28442,454698114.45785,12468034.59404,   0.00276,   0.00390,  -0.00145,481220960.00000,   0.00374,278630048.00000,   0.00137,   0.00280,  -0.00162, 160.00000,   2.00000
498812821.80538,454441222.18001,12174274.57603,   0.00277,   0.00390,  -0.00146,481229376.00000,   0.00375,278638176.00000,   0.00138,   0.00281,  -0.00161,  64.00000,   2.00000
499087235.65385,454149636.21351,11872707.74993,   0.00277,   0.00391,  -0.00146,481216768.00000,   0.00375,278646240.00000,   0.00139,   0.00281,  -0.00161, -32.00000,   2.00000
499349591.05050,453872278.34676,11572117.57410,   0.00278,   0.00391,  -0.00146,481249760.00000,   0.00376,278654368.00000,   0.00140,   0.00282,  -0.00161,  96.00000,   2.00000
499620076.65829,453583051.11831,11263721.87094,   0.00279,   0.00392,  -0.00147,481234624.00000,   0.00377,278662432.00000,   0.00140,   0.00283,  -0.00161,  64.00000,   2.00000
499898584.70064,453281812.14886,10947472.48000,   0.00280,   0.00392,  -0.00147,481219296.00000,   0.00378,278670400.00000,   0.00141,   0.00283,  -0.00161, 128.00000,   2.00000
500185381.33654,452968732.76503,10623326.09703,   0.00281,   0.00392,  -0.00147,481203744.00000,   0.00379,278678336.00000,   0.00142,   0.00284,  -0.00161,  96.00000,   2.00000
500470468.81172,452656877.59801,10290605.72831,   0.00282,   0.00393,  -0.00148,481212416.00000,   0.00379,278686240.00000,   0.00143,   0.00284,  -0.00161,  64.00000,   2.00000
500760429.33427,452335752.17867,9958737.02244,   0.00283,   0.00393,  -0.00148,481248512.00000,   0.00380,278694240.00000,   0.00143,   0.00285,  -0.00161, -96.00000,   2.00000
501059312.51526,452003116.25978,9608786.03522,   0.00284,   0.00393,  -0.00148,481232352.00000,   0.00381,278702176.00000,   0.00144,   0.00285,  -0.00161,  32.00000,   2.00000
501365135.52689,451657271.85753,9261091.56827,   0.00285,   0.00394,  -0.00149,481217792.00000,   0.00382,278710016.00000,   0.00145,   0.00286,  -0.00161,   0.00000,   2.00000
501676224.60392,451302842.81533,8904395.79058,   0.00286,   0.00394,  -0.00149,481252992.00000,   0.00382,278717952.00000,   0.00146,   0.00286,  -0.00161, 160.00000,   2.00000
501986992.72931,450945353.20273,8540821.06130,   0.00287,   0.00394,  -0.00149,481210656.00000,   0.00383,278725728.00000,   0.00146,   0.00287,  -0.00161, -96.00000,   2.00000
502311192.62310,450565147.03095,8179532.05300,   0.00288,   0.00395,  -0.00150,481222464.00000,   0.00384,278733536.00000,   0.00147,   0.00288,  -0.00160,  64.00000,   2.00000
502632390.39475,450186612.01094,7800735.78214,   0.00289,   0.00395,  -0.00150,481229856.00000,   0.00385,278741344.00000,   0.00148,   0.00288,  -0.00160,  32.00000,   2.00000
502958176.52271,449794869.25646,7425638.14556,   0.00290,   0.00395,  -0.00151,481214784.00000,   0.00385,278749056.00000,   0.00149,   0.00289,  -0.00160,  32.00000,   2.00000
503286752.76965,449395218.46601,7043388.21135,   0.00291,   0.00396,  -0.00151,481249824.00000,   0.00386,278756896.00000,   0.00149,   0.00289,  -0.00160, 192.00000,   2.00000
503619717.78200,448983313.28496,6655222.12458,   0.00292,   0.00396,  -0.00152,481234656.00000,   0.00387,278764672.00000,   0.00150,   0.00290,  -0.00160,  32.00000,   2.00000
503950235.99254,448569103.62521,6261571.79559,   0.00293,   0.00396,  -0.00152,481192672.00000,   0.00388,278772256.00000,   0.00151,   0.00290,  -0.00160,   0.00000,   2.00000
504289446.16876,448137461.47286,5860681.62016,   0.00294,   0.00396,  -0.00152,481255552.00000,   0.00388,278780064.00000,   0.00152,   0.00291,  -0.00160, -96.00000,   2.00000
504626155.27689,447703115.68718,5463957.55333,   0.00295,   0.00397,  -0.00153,481214720.00000,   0.00389,278787680.00000,   0.00152,   0.00291,  -0.00160, -32.00000,   2.00000
504967900.19138,447256530.55346,5060467.29003,   0.00296,   0.00397,  -0.00153,481200992.00000,   0.00390,278795264.00000,   0.00153,   0.00292,  -0.00160,  96.00000,   2.00000
505312029.58427,446802028.87990,4649365.38796,   0.00297,   0.00397,  -0.00154,481237984.00000,   0.00391,278802912.00000,   0.00154,   0.00292,  -0.00160,  64.00000,   2.00000
505661449.36252,446334687.06662,4230862.61902,   0.00298,   0.00397,  -0.00154,481225056.00000,   0.00391,278810528.00000,   0.00155,   0.00293,  -0.00160,  64.00000,   2.00000
506023125.50116,445844904.38877,3804496.96578,   0.00299,   0.00397,  -0.00155,481239232.00000,   0.00392,278818144.00000,   0.00155,   0.00293,  -0.00160,  32.00000,   2.00000
506374281.15382,445365801.18844,3370317.03130,   0.00300,   0.00398,  -0.00156,481222592.00000,   0.00393,278825664.00000,   0.00156,   0.00294,  -0.00160,  32.00000,   2.00000
506737824.78713,444863886.94438,2928041.56646,   0.00301,   0.00398,  -0.00156,481236992.00000,   0.00393,278833216.00000,   0.00157,   0.00294,  -0.00160, 160.00000,   2.00000
507097132.88570,444362620.63476,2487832.18011,   0.00302,   0.00398,  -0.00157,481247680.00000,   0.00394,278840800.00000,   0.00158,   0.00295,  -0.00160, -64.00000,   2.00000
507462096.46040,443847786.02888,2039620.96993,   0.00303,   0.00398,  -0.00157,481234912.00000,   0.00395,278848288.00000,   0.00158,   0.00295,  -0.00160,  96.00000,   2.00000
507832475.22335,443319216.55383,1583445.97802,   0.00304,   0.00398,  -0.00158,481222176.00000,   0.00396,278855712.00000,   0.00159,   0.00296,  -0.00160,  96.00000,   2.00000
508214348.35513,442767308.63097,1119311.41607,   0.00305,   0.00399,  -0.00158,481236640.00000,   0.00396,278863168.00000,   0.00160,   0.00296,  -0.00160, 128.00000,   2.00000
508585284.96220,442225553.45439,647362.43384,   0.00306,   0.00399,  -0.00159,481219680.00000,   0.00397,278870560.00000,   0.00161,   0.00297,  -0.00160, 128.00000,   2.00000
508973729.31733,441651061.55698,167655.37456,   0.00307,   0.00399,  -0.00160,481261408.00000,   0.00398,278878048.00000,   0.00161,   0.00297,  -0.00160,  96.00000,   2.00000
509360316.72363,441071955.44086,-319731.02754,   0.00308,   0.00399,  -0.00160,481221536.00000,   0.00399,278885408.00000,   0.00162,   0.00298,  -0.00160,  96.00000,   2.00000
509741677.41675,440493528.52359,-804547.34048,   0.00309,   0.00399,  -0.00161,481232000.00000,   0.00399,278892736.00000,   0.00163,   0.00298,  -0.00160, -96.00000,   2.00000
510133405.65242,439891771.76075,-1307000.42915,   0.00310,   0.00399,  -0.00162,481246816.00000,   0.00400,278900128.00000,   0.00164,   0.00299,  -0.00160,  64.00000,   2.00000
510528721.35340,439275897.55162,-1806757.16549,   0.00311,   0.00399,  -0.00162,481234656.00000,   0.00401,278907456.00000,   0.00164,   0.00299,  -0.00160, -64.00000,   2.00000
510918017.34778,438661020.15692,-2313803.74995,   0.00312,   0.00400,  -0.00163,481245600.00000,   0.00401,278914784.00000,   0.00165,   0.00300,  -0.00160,   0.00000,   2.00000
511316101.49073,438022645.10131,-2827967.81379,   0.00313,   0.00400,  -0.00164,481261344.00000,   0.00402,278922144.00000,   0.00166,   0.00300,  -0.00160, -64.00000,   2.00000
511710731.81914,437379343.20947,-3349562.89914,   0.00314,   0.00400,  -0.00164,481222464.00000,   0.00403,278929344.00000,   0.00167,   0.00300,  -0.00160,   0.00000,   2.00000
512104452.07018,436727794.58203,-3867728.88857,   0.00315,   0.00400,  -0.00165,481261440.00000,   0.00404,278936672.00000,   0.00167,   0.00301,  -0.00160,  32.00000,   2.00000
512509268.63497,436045706.02677,-4403468.04328,   0.00316,   0.00400,  -0.00166,481227872.00000,   0.00404,278943872.00000,   0.00168,   0.00301,  -0.00160, -96.00000,   2.00000
512904039.99241,435370120.58977,-4945543.60013,   0.00317,   0.00400,  -0.00166,481289568.00000,   0.00405,278951232.00000,   0.00169,   0.00302,  -0.00160,  96.00000,   2.00000
513305619.64664,434672480.59881,-5485455.61340,   0.00318,   0.00400,  -0.00167,481227680.00000,   0.00406,278958400.00000,   0.00169,   0.00302,  -0.00160,  96.00000,   2.00000
513716597.26311,433949451.97127,-6032462.88275,   0.00319,   0.00400,  -0.00168,481243392.00000,   0.00406,278965568.00000,   0.00170,   0.00303,  -0.00160,  64.00000,   2.00000
514122523.41416,433225919.08274,-6586618.97093,   0.00320,   0.00400,  -0.00169,481253696.00000,   0.00407,278972768.00000,   0.00171,   0.00303,  -0.00160,  32.00000,   2.00000
514522894.96117,432501745.62431,-7157935.66153,   0.00321,   0.00400,  -0.00170,481264672.00000,   0.00408,278979968.00000,   0.00172,   0.00304,  -0.00160, -64.00000,   2.00000
514942400.11112,431737760.64624,-7716121.28201,   0.00323,   0.00400,  -0.00170,481257472.00000,   0.00408,278987136.00000,   0.00172,   0.00304,  -0.00160,  64.00000,   2.00000
515354588.32231,430973545.69358,-8291147.32726,   0.00324,   0.00400,  -0.00171,481269824.00000,   0.00409,278994336.00000,   0.00173,   0.00304,  -0.00160, 192.00000,   2.00000
515768067.53984,430193528.31497,-8873160.48910,   0.00325,   0.00400,  -0.00172,481259904.00000,   0.00410,279001472.00000,   0.00174,   0.00305,  -0.00160,-160.00000,   2.00000
516182366.18498,429397731.36468,-9462134.56215,   0.00326,   0.00400,  -0.00173,481250336.00000,   0.00410,279008544.00000,   0.00175,   0.00305,  -0.00160, -96.00000,   2.00000
516588648.12292,428602477.38872,-10047424.38153,   0.00327,   0.00400,  -0.00174,481262656.00000,   0.00411,279015680.00000,   0.00175,   0.00306,  -0.00161,  32.00000,   2.00000
517008397.07074,427765032.90243,-10649781.61057,   0.00328,   0.00400,  -0.00174,481259776.00000,   0.00412,279022752.00000,   0.00176,   0.00306,  -0.00161,  96.00000,   2.00000
517419763.86290,426927828.61834,-11248534.78880,   0.00329,   0.00400,  -0.00175,481272000.00000,   0.00413,279029856.00000,   0.00177,   0.00306,  -0.00161, -32.00000,   2.00000
517822532.69164,426090463.54045,-11853913.17780,   0.00330,   0.00400,  -0.00176,481284256.00000,   0.00413,279036992.00000,   0.00178,   0.00307,  -0.00161,  64.00000,   2.00000
518234272.27039,425219684.13644,-12467322.19528,   0.00331,   0.00400,  -0.00177,481252384.00000,   0.00414,279044000.00000,   0.00178,   0.00307,  -0.00161,   0.00000,   2.00000
518642297.41778,424339640.29080,-13086541.84240,   0.00332,   0.00400,  -0.00178,481292416.00000,   0.00415,279051104.00000,   0.00179,   0.00308,  -0.00161, -64.00000,   2.00000
519050560.43350,423442644.36439,-13713199.40229,   0.00333,   0.00400,  -0.00179,481282272.00000,   0.00415,279058208.00000,   0.00180,   0.00308,  -0.00161, -64.00000,   2.00000
519459023.52977,422528608.88512,-14347328.79892,   0.00334,   0.00399,  -0.00180,481272320.00000,   0.00416,279065216.00000,   0.00180,   0.00308,  -0.00161,  32.00000,   2.00000
519858600.72699,421614062.98676,-14988122.29482,   0.00336,   0.00399,  -0.00181,481284352.00000,   0.00417,279072288.00000,   0.00181,   0.00309,  -0.00161,  64.00000,   2.00000
520266682.06471,420665185.98180,-15637207.13259,   0.00337,   0.00399,  -0.00182,481252832.00000,   0.00417,279079232.00000,   0.00182,   0.00309,  -0.00161,   0.00000,   2.00000
520671593.63507,419708154.28748,-16281654.60816,   0.00338,   0.00399,  -0.00183,481291840.00000,   0.00418,279086272.00000,   0.00183,   0.00310,  -0.00162,  32.00000,   2.00000
521066339.64693,418750013.49206,-16942714.31516,   0.00339,   0.00399,  -0.00184,481305280.00000,   0.00419,279093376.00000,   0.00183,   0.00310,  -0.00162,  32.00000,   2.00000
521469851.41559,417757788.82691,-17601907.49894,   0.00340,   0.00399,  -0.00185,481273888.00000,   0.00419,279100352.00000,   0.00184,   0.00310,  -0.00162,   0.00000,   2.00000
521868423.67978,416756799.58416,-18266198.49946,   0.00341,   0.00399,  -0.00186,481314880.00000,   0.00420,279107424.00000,   0.00185,   0.00311,  -0.00162,  32.00000,   2.00000
522259635.72370,415745312.67407,-18949084.36319,   0.00342,   0.00398,  -0.00187,481280032.00000,   0.00421,279114400.00000,   0.00186,   0.00311,  -0.00162, 128.00000,   2.00000
522654902.78074,414708381.64607,-19627653.41119,   0.00343,   0.00398,  -0.00188,481299392.00000,   0.00421,279121408.00000,   0.00186,   0.00311,  -0.00162,  96.00000,   2.00000
523047927.82101,413653180.95029,-20313296.43878,   0.00344,   0.00398,  -0.00189,481292192.00000,   0.00422,279128384.00000,   0.00187,   0.00312,  -0.00162,  96.00000,   2.00000
523434792.49268,412589376.63157,-21003392.13022,   0.00346,   0.00398,  -0.00190,481334720.00000,   0.00423,279135488.00000,   0.00188,   0.00312,  -0.00162, 128.00000,   2.00000
523815898.75786,411516276.33917,-21691822.22400,   0.00347,   0.00398,  -0.00191,481299328.00000,   0.00423,279142464.00000,   0.00189,   0.00313,  -0.00163, -96.00000,   2.00000
524196886.18536,410415346.85477,-22395677.41584,   0.00348,   0.00397,  -0.00192,481322880.00000,   0.00424,279149472.00000,   0.00189,   0.00313,  -0.00163,  96.00000,   2.00000
524574457.70609,409295592.63492,-23106309.94396,   0.00349,   0.00397,  -0.00193,481317920.00000,   0.00425,279156480.00000,   0.00190,   0.00313,  -0.00163,  96.00000,   2.00000
524948219.75176,408156739.78274,-23823673.49775,   0.00350,   0.00397,  -0.00194,481313504.00000,   0.00426,279163456.00000,   0.00191,   0.00314,  -0.00163, 160.00000,   2.00000
525311632.32497,407018266.99362,-24536411.88077,   0.00351,   0.00397,  -0.00195,481328576.00000,   0.00426,279170432.00000,   0.00192,   0.00314,  -0.00163, 192.00000,   2.00000
525675056.73221,405852641.94849,-25254074.31805,   0.00352,   0.00396,  -0.00196,481352800.00000,   0.00427,279177504.00000,   0.00192,   0.00314,  -0.00163, 128.00000,   2.00000
526032293.51617,404666230.93296,-25988432.96807,   0.00354,   0.00396,  -0.00197,481351168.00000,   0.00428,279184544.00000,   0.00193,   0.00315,  -0.00164, 256.00000,   2.00000
526386190.04607,403461046.63837,-26719349.67081,   0.00355,   0.00396,  -0.00199,481346848.00000,   0.00428,279191552.00000,   0.00194,   0.00315,  -0.00164,  96.00000,   2.00000
526727992.48692,402255190.10528,-27455557.99401,   0.00356,   0.00396,  -0.00200,481364320.00000,   0.00429,279198592.00000,   0.00195,   0.00315,  -0.00164, 160.00000,   2.00000
527068316.33458,401021378.88153,-28196411.31904,   0.00357,   0.00395,  -0.00201,481390432.00000,   0.00430,279205728.00000,   0.00195,   0.00316,  -0.00164,  32.00000,   2.00000
527399791.02870,399774830.89361,-28946063.89199,   0.00358,   0.00395,  -0.00202,481359744.00000,   0.00430,279212736.00000,   0.00196,   0.00316,  -0.00164,-128.00000,   2.00000
527729970.74239,398500454.66379,-29700393.96570,   0.00359,   0.00395,  -0.00203,481386080.00000,   0.00431,279219776.00000,   0.00197,   0.00316,  -0.00165, 128.00000,   2.00000
528054439.27859,397205191.72074,-30461541.52499,   0.00361,   0.00394,  -0.00204,481384672.00000,   0.00432,279226848.00000,   0.00198,   0.00316,  -0.00165,  96.00000,   2.00000
528369707.83544,395901417.42830,-31225754.54707,   0.00362,   0.00394,  -0.00206,481431424.00000,   0.00432,279234016.00000,   0.00199,   0.00317,  -0.00165,  64.00000,   2.00000
528675682.48923,394583810.78055,-31999203.99587,   0.00363,   0.00394,  -0.00207,481401376.00000,   0.00433,279241088.00000,   0.00199,   0.00317,  -0.00165,  32.00000,   2.00000
528981858.47537,393239483.85175,-32767386.31120,   0.00364,   0.00393,  -0.00208,481426176.00000,   0.00434,279248224.00000,   0.00200,   0.00317,  -0.00166, -96.00000,   2.00000
529280099.50041,391872402.49511,-33552708.85481,   0.00365,   0.00393,  -0.00209,481426592.00000,   0.00434,279255328.00000,   0.00201,   0.00318,  -0.00166,  96.00000,   2.00000
529574435.31186,390485316.09949,-34335227.80266,   0.00366,   0.00392,  -0.00211,481423168.00000,   0.00435,279262400.00000,   0.00202,   0.00318,  -0.00166, -32.00000,   2.00000
529856829.32848,389088400.19579,-35130743.83328,   0.00368,   0.00392,  -0.00212,481472256.00000,   0.00436,279269632.00000,   0.00202,   0.00318,  -0.00166,  96.00000,   2.00000
530132021.65881,387678416.01569,-35926089.88453,   0.00369,   0.00392,  -0.00213,481439904.00000,   0.00437,279276768.00000,   0.00203,   0.00319,  -0.00167,  32.00000,   2.00000
530404265.55552,386240003.12360,-36726147.27790,   0.00370,   0.00391,  -0.00215,481467104.00000,   0.00437,279283936.00000,   0.00204,   0.00319,  -0.00167, 160.00000,   2.00000
530669403.59383,384779595.04972,-37533426.10224,   0.00371,   0.00391,  -0.00216,481465920.00000,   0.00438,279291104.00000,   0.00205,   0.00319,  -0.00167, -96.00000,   2.00000
530927463.81320,383297356.96385,-38347889.26042,   0.00372,   0.00390,  -0.00217,481464896.00000,   0.00439,279298272.00000,   0.00206,   0.00319,  -0.00167,   0.00000,   2.00000
531171374.11534,381813972.92914,-39167546.31646,   0.00374,   0.00390,  -0.00219,481483552.00000,   0.00439,279305472.00000,   0.00206,   0.00320,  -0.00168,  32.00000,   2.00000
531410523.47941,380302126.94676,-39991274.26505,   0.00375,   0.00389,  -0.00220,481511744.00000,   0.00440,279312768.00000,   0.00207,   0.00320,  -0.00168, 128.00000,   2.00000
531640814.38665,378768041.03652,-40821632.05965,   0.00376,   0.00389,  -0.00221,481512128.00000,   0.00441,279320032.00000,   0.00208,   0.00320,  -0.00168,  96.00000,   2.00000
531864850.29211,377213705.01251,-41648549.07116,   0.00377,   0.00388,  -0.00223,481509952.00000,   0.00441,279327296.00000,   0.00209,   0.00320,  -0.00168,  64.00000,   2.00000
532069990.65219,375656495.08400,-42489618.47071,   0.00378,   0.00388,  -0.00224,481532736.00000,   0.00442,279334624.00000,   0.00210,   0.00321,  -0.00169,  64.00000,   2.00000
532273713.26870,374057010.66644,-43328796.78335,   0.00380,   0.00387,  -0.00225,481512992.00000,   0.00443,279341888.00000,   0.00210,   0.00321,  -0.00169,   0.00000,   2.00000
532460848.97893,372448770.09258,-44178578.68425,   0.00381,   0.00387,  -0.00227,481565664.00000,   0.00444,279349312.00000,   0.00211,   0.00321,  -0.00169, 128.00000,   2.00000
532639951.88199,370819633.33931,-45024239.41009,   0.00382,   0.00386,  -0.00228,481565696.00000,   0.00444,279356704.00000,   0.00212,   0.00321,  -0.00170,  32.00000,   2.00000
532804941.48592,369172970.84673,-45879005.91794,   0.00383,   0.00386,  -0.00230,481539840.00000,   0.00445,279364032.00000,   0.00213,   0.00322,  -0.00170,  64.00000,   2.00000
532956204.85197,367511736.89790,-46740931.19150,   0.00384,   0.00385,  -0.00231,481622144.00000,   0.00446,279371616.00000,   0.00214,   0.00322,  -0.00170,  64.00000,   2.00000
533102840.84200,365811784.77779,-47604920.96730,   0.00386,   0.00385,  -0.00233,481574752.00000,   0.00446,279379040.00000,   0.00214,   0.00322,  -0.00171,  32.00000,   2.00000
533234787.63448,364110077.13478,-48473763.36898,   0.00387,   0.00384,  -0.00234,481594880.00000,   0.00447,279386496.00000,   0.00215,   0.00322,  -0.00171,  32.00000,   2.00000
533361638.78719,362378413.52520,-49346807.11485,   0.00388,   0.00384,  -0.00236,481624672.00000,   0.00448,279394048.00000,   0.00216,   0.00323,  -0.00171,  96.00000,   2.00000
533485073.46532,360623790.57924,-50218406.68926,   0.00389,   0.00383,  -0.00237,481621312.00000,   0.00449,279401568.00000,   0.00217,   0.00323,  -0.00172,  96.00000,   2.00000
533594624.67956,358864376.29227,-51106538.08198,   0.00391,   0.00382,  -0.00238,481640544.00000,   0.00449,279409152.00000,   0.00218,   0.00323,  -0.00172,  96.00000,   2.00000
533705472.38990,357056508.71432,-52006156.88778,   0.00392,   0.00382,  -0.00240,481619392.00000,   0.00450,279416640.00000,   0.00219,   0.00323,  -0.00172,  64.00000,   2.00000
533812009.40605,355248483.61297,-52902696.90548,   0.00393,   0.00381,  -0.00242,481630528.00000,   0.00451,279424128.00000,   0.00219,   0.00324,  -0.00173,  32.00000,   2.00000
533918842.90302,353411004.92289,-53802992.89307,   0.00394,   0.00380,  -0.00243,481657280.00000,   0.00452,279431712.00000,   0.00220,   0.00324,  -0.00173, -64.00000,   2.00000
534014183.45394,351553461.71974,-54720561.09810,   0.00396,   0.00380,  -0.00245,481634336.00000,   0.00452,279439168.00000,   0.00221,   0.00324,  -0.00174,  64.00000,   2.00000
534100531.10564,349696243.43920,-55619879.27832,   0.00397,   0.00379,  -0.00246,481692064.00000,   0.00453,279446816.00000,   0.00222,   0.00324,  -0.00174,  64.00000,   2.00000
534169151.52001,347797175.91489,-56512949.47032,   0.00398,   0.00378,  -0.00248,481705152.00000,   0.00454,279454496.00000,   0.00223,   0.00324,  -0.00174,  96.00000,   2.00000
