# sigma_xx, sigma_yy, sigma_xy, epsilon_xx, epsilon_yy, epsilon_xy, vonMises, epsPlastic, hardening, epsilonP__xx, epsilonP__yy, epsilonP__xy, yieldValue, iteration
   0.00000,   0.00000,   0.00000,   0.00000,   0.00000,   0.00000,   0.00000,   0.00000,274640135.82653,   0.00000,   0.00000,   0.00000,-474640135.82653,   0.00000
   0.00000,   0.00000,   0.00000,   0.00000,   0.00000,   0.00000,   0.00000,   0.00000,274640135.82653,   0.00000,   0.00000,   0.00000,-474640135.82653,   0.00000
-1211475.36386,-1031997.53218,106564.96256,  -0.00000,  -0.00000,   0.00000,1147397.12027,   0.00000,274640135.82653,   0.00000,   0.00000,   0.00000,-473492738.70626,   0.00000
-2431363.75109,-2083625.45220,213129.92512,  -0.00001,  -0.00000,   0.00000,2307216.16126,   0.00000,274640135.82653,   0.00000,   0.00000,   0.00000,-472332919.66527,   0.00000
-3623208.72711,-3107209.96102,314086.20545,  -0.00001,  -0.00001,   0.00000,3438062.74051,   0.00000,274640135.82653,   0.00000,   0.00000,   0.00000,-471202073.08602,   0.00000
-4803836.33865,-4142011.83432,415042.48577,  -0.00001,  -0.00001,   0.00001,4566436.18529,   0.00000,274640135.82653,   0.00000,   0.00000,   0.00000,-470073699.64124,   0.00000
-5956420.53899,-5148770.29642,510390.08385,  -0.00002,  -0.00001,   0.00001,5665865.70363,   0.00000,274640135.82653,   0.00000,   0.00000,   0.00000,-468974270.12290,   0.00000
-7089374.35150,-6147115.73516,605737.68193,  -0.00002,  -0.00001,   0.00001,6750393.34754,   0.00000,274640135.82653,   0.00000,   0.00000,   0.00000,-467889742.47899,   0.00000
-8230741.18736,-7165091.56174,695476.59777,  -0.00002,  -0.00002,   0.00001,7846061.84319,   0.00000,274640135.82653,   0.00000,   0.00000,   0.00000,-466794073.98334,   0.00000
-9344064.61202,-8155023.97712,785215.51362,  -0.00003,  -0.00002,   0.00001,8914290.70620,   0.00000,274640135.82653,   0.00000,   0.00000,   0.00000,-465725845.12033,   0.00000
-10437757.64884,-9136543.36914,874954.42946,  -0.00003,  -0.00002,   0.00001,9967688.78917,   0.00000,274640135.82653,   0.00000,   0.00000,   0.00000,-464672447.03736,   0.00000
-11539863.70902,-10137693.14899,959084.66306,  -0.00003,  -0.00002,   0.00001,11032370.99247,   0.00000,274640135.82653,   0.00000,   0.00000,   0.00000,-463607764.83406,   0.00000
-12594295.97016,-11102386.49429,1043214.89666,  -0.00004,  -0.00003,   0.00001,12054767.82565,   0.00000,274640135.82653,   0.00000,   0.00000,   0.00000,-462585368.00088,   0.00000
-13648728.23130,-12067079.83959,1121736.44802,  -0.00004,  -0.00003,   0.00001,13075809.07200,   0.00000,274640135.82653,   0.00000,   0.00000,   0.00000,-461564326.75453,   0.00000
-14711573.51580,-13051403.57273,1200257.99938,  -0.00004,  -0.00003,   0.00002,14109737.95574,   0.00000,274640135.82653,   0.00000,   0.00000,   0.00000,-460530397.87079,   0.00000
-15726745.00126,-13999270.87131,1278779.55074,  -0.00004,  -0.00003,   0.00002,15101422.49871,   0.00000,274640135.82653,   0.00000,   0.00000,   0.00000,-459538713.32782,   0.00000
-16741916.48672,-14947138.16989,1351692.41987,  -0.00005,  -0.00004,   0.00002,16091804.91294,   0.00000,274640135.82653,   0.00000,   0.00000,   0.00000,-458548330.91359,   0.00000
-17737457.58434,-15886592.44511,1424605.28899,  -0.00005,  -0.00004,   0.00002,17067570.48049,   0.00000,274640135.82653,   0.00000,   0.00000,   0.00000,-457572565.34604,   0.00000
-18741411.70532,-16845677.10816,1491909.47587,  -0.00005,  -0.00004,   0.00002,18054998.24022,   0.00000,274640135.82653,   0.00000,   0.00000,   0.00000,-456585137.58631,   0.00000
-19697692.02726,-17768305.33666,1564822.34499,  -0.00005,  -0.00004,   0.00002,19001661.67165,   0.00000,274640135.82653,   0.00000,   0.00000,   0.00000,-455638474.15488,   0.00000
-20653972.34920,-18690933.56516,1626517.84963,  -0.00006,  -0.00004,   0.00002,19945732.05597,   0.00000,274640135.82653,   0.00000,   0.00000,   0.00000,-454694403.77056,   0.00000
-21610252.67113,-19613561.79366,1693822.03651,  -0.00006,  -0.00005,   0.00002,20891335.52160,   0.00000,274640135.82653,   0.00000,   0.00000,   0.00000,-453748800.30493,   0.00000
-22535685.24075,-20538994.36327,1755517.54115,  -0.00006,  -0.00005,   0.00002,21819546.56047,   0.00000,274640135.82653,   0.00000,   0.00000,   0.00000,-452820589.26606,   0.00000
-23452704.78701,-21444796.54505,1817213.04579,  -0.00006,  -0.00005,   0.00002,22734928.36712,   0.00000,274640135.82653,   0.00000,   0.00000,   0.00000,-451905207.45941,   0.00000
-24369724.33327,-22350598.72683,1873299.86820,  -0.00007,  -0.00005,   0.00002,23649155.48301,   0.00000,274640135.82653,   0.00000,   0.00000,   0.00000,-450990980.34352,   0.00000
-25247483.10384,-23239574.86189,1929386.69060,  -0.00007,  -0.00006,   0.00003,24534466.94305,   0.00000,274640135.82653,   0.00000,   0.00000,   0.00000,-450105668.88348,   0.00000
-26125241.87442,-24128550.99694,1985473.51300,  -0.00007,  -0.00006,   0.00003,25420018.10674,   0.00000,274640135.82653,   0.00000,   0.00000,   0.00000,-449220117.71979,   0.00000
-27003000.64500,-25017527.13200,2035951.65316,  -0.00007,  -0.00006,   0.00003,26304480.67829,   0.00000,274640135.82653,   0.00000,   0.00000,   0.00000,-448335655.14824,   0.00000
-27841498.63989,-25889677.22034,2092038.47556,  -0.00008,  -0.00006,   0.00003,27161496.55157,   0.00000,274640135.82653,   0.00000,   0.00000,   0.00000,-447478639.27496,   0.00000
-28679996.63479,-26761827.30867,2136907.93348,  -0.00008,  -0.00007,   0.00003,28016202.76315,   0.00000,274640135.82653,   0.00000,   0.00000,   0.00000,-446623933.06338,   0.00000
-29518494.62969,-27633977.39701,2187386.07364,  -0.00008,  -0.00007,   0.00003,28872457.32695,   0.00000,274640135.82653,   0.00000,   0.00000,   0.00000,-445767678.49958,   0.00000
-30317731.84890,-28489301.43863,2232255.53156,  -0.00008,  -0.00007,   0.00003,29698872.93516,   0.00000,274640135.82653,   0.00000,   0.00000,   0.00000,-444941262.89137,   0.00000
-31116969.06812,-29344625.48024,2277124.98948,  -0.00008,  -0.00007,   0.00003,30525610.55623,   0.00000,274640135.82653,   0.00000,   0.00000,   0.00000,-444114525.27029,   0.00000
-31916206.28733,-30199949.52186,2321994.44740,  -0.00009,  -0.00008,   0.00003,31352644.71672,   0.00000,274640135.82653,   0.00000,   0.00000,   0.00000,-443287491.10981,   0.00000
-32695813.11871,-31046860.54012,2361255.22309,  -0.00009,  -0.00008,   0.00003,32164389.83463,   0.00000,274640135.82653,   0.00000,   0.00000,   0.00000,-442475745.99190,   0.00000
-33455789.56224,-31885358.53501,2406124.68101,  -0.00009,  -0.00008,   0.00003,32963379.78450,   0.00000,274640135.82653,   0.00000,   0.00000,   0.00000,-441676756.04203,   0.00000
-34215766.00578,-32723856.52991,2439776.77445,  -0.00009,  -0.00008,   0.00003,33760259.83084,   0.00000,274640135.82653,   0.00000,   0.00000,   0.00000,-440879875.99569,   0.00000
-34947699.03811,-33534311.11360,2479037.55013,  -0.00009,  -0.00008,   0.00003,34530878.34386,   0.00000,274640135.82653,   0.00000,   0.00000,   0.00000,-440109257.48267,   0.00000
-35668414.70596,-34355983.06178,2512689.64357,  -0.00010,  -0.00009,   0.00003,35299954.05144,   0.00000,274640135.82653,   0.00000,   0.00000,   0.00000,-439340181.77509,   0.00000
-36389130.37382,-35177655.00996,2546341.73701,  -0.00010,  -0.00009,   0.00003,36069426.32874,   0.00000,274640135.82653,   0.00000,   0.00000,   0.00000,-438570709.49779,   0.00000
-37090215.65383,-35990913.93477,2579993.83045,  -0.00010,  -0.00009,   0.00003,36825104.59163,   0.00000,274640135.82653,   0.00000,   0.00000,   0.00000,-437815031.23490,   0.00000
-37782887.91049,-36784542.47175,2613645.92389,  -0.00010,  -0.00009,   0.00003,37567490.91582,   0.00000,274640135.82653,   0.00000,   0.00000,   0.00000,-437072644.91071,   0.00000
-38464342.80266,-37589388.37320,2641689.33509,  -0.00010,  -0.00010,   0.00003,38308644.36406,   0.00000,274640135.82653,   0.00000,   0.00000,   0.00000,-436331491.46247,   0.00000
-39117754.28363,-38366190.86346,2675341.42853,  -0.00010,  -0.00010,   0.00003,39023536.87005,   0.00000,274640135.82653,   0.00000,   0.00000,   0.00000,-435616598.95648,   0.00000
-39779578.78796,-39162623.74155,2703384.83973,  -0.00010,  -0.00010,   0.00004,39751455.05481,   0.00000,274640135.82653,   0.00000,   0.00000,   0.00000,-434888680.77172,   0.00000
-40421772.90446,-39950643.59629,2725819.56869,  -0.00011,  -0.00010,   0.00004,40464652.26125,   0.00000,274640135.82653,   0.00000,   0.00000,   0.00000,-434175483.56528,   0.00000
-41055553.99759,-40719033.06318,2753862.97989,  -0.00011,  -0.00011,   0.00004,41165604.46453,   0.00000,274640135.82653,   0.00000,   0.00000,   0.00000,-433474531.36200,   0.00000
-41669704.70288,-41479009.50672,2776297.70885,  -0.00011,  -0.00011,   0.00004,41851856.93700,   0.00000,274640135.82653,   0.00000,   0.00000,   0.00000,-432788278.88953,   0.00000
-42292268.43153,-42258616.33809,2798732.43781,  -0.00011,  -0.00011,   0.00004,42552468.64701,   0.00000,274640135.82653,   0.00000,   0.00000,   0.00000,-432087667.17952,   0.00000
-42886788.74898,-43010179.75827,2821167.16677,  -0.00011,  -0.00011,   0.00004,43225694.57208,   0.00000,274640135.82653,   0.00000,   0.00000,   0.00000,-431414441.25445,   0.00000
-43470091.70195,-43772960.54292,2843601.89573,  -0.00011,  -0.00011,   0.00004,43899482.38449,   0.00000,274640135.82653,   0.00000,   0.00000,   0.00000,-430740653.44204,   0.00000
-44044981.63157,-44516110.93973,2860427.94245,  -0.00011,  -0.00012,   0.00004,44558718.51295,   0.00000,274640135.82653,   0.00000,   0.00000,   0.00000,-430081417.31358,   0.00000
-44619871.56118,-45259261.33655,2882862.67142,  -0.00011,  -0.00012,   0.00004,45219508.38545,   0.00000,274640135.82653,   0.00000,   0.00000,   0.00000,-429420627.44108,   0.00000
-45155500.71511,-45985585.68664,2899688.71814,  -0.00012,  -0.00012,   0.00004,45852107.61136,   0.00000,274640135.82653,   0.00000,   0.00000,   0.00000,-428788028.21517,   0.00000
-45710760.25688,-46720323.06010,2916514.76486,  -0.00012,  -0.00012,   0.00004,46499020.19074,   0.00000,274640135.82653,   0.00000,   0.00000,   0.00000,-428141115.63579,   0.00000
-46246389.41081,-47446647.41019,2933340.81158,  -0.00012,  -0.00013,   0.00004,47132687.34737,   0.00000,274640135.82653,   0.00000,   0.00000,   0.00000,-427507448.47916,   0.00000
-46762388.17690,-48164558.73692,2950166.85830,  -0.00012,  -0.00013,   0.00004,47753181.33674,   0.00000,274640135.82653,   0.00000,   0.00000,   0.00000,-426886954.48979,   0.00000
-47278386.94299,-48882470.06366,2961384.22278,  -0.00012,  -0.00013,   0.00004,48373203.39404,   0.00000,274640135.82653,   0.00000,   0.00000,   0.00000,-426266932.43249,   0.00000
-47774755.32124,-49591968.36703,2978210.26950,  -0.00012,  -0.00013,   0.00004,48981176.25288,   0.00000,274640135.82653,   0.00000,   0.00000,   0.00000,-425658959.57365,   0.00000
-48271123.69949,-50301466.67041,2989427.63398,  -0.00012,  -0.00013,   0.00004,49588714.89794,   0.00000,274640135.82653,   0.00000,   0.00000,   0.00000,-425051420.92859,   0.00000
-48747861.68990,-51002551.95042,3000644.99846,  -0.00012,  -0.00014,   0.00004,50183269.99810,   0.00000,274640135.82653,   0.00000,   0.00000,   0.00000,-424456865.82843,   0.00000
-49224599.68031,-51703637.23043,3011862.36294,  -0.00012,  -0.00014,   0.00004,50778444.40842,   0.00000,274640135.82653,   0.00000,   0.00000,   0.00000,-423861691.41811,   0.00000
-49681707.28287,-52396309.48709,3023079.72742,  -0.00012,  -0.00014,   0.00004,51360726.32744,   0.00000,274640135.82653,   0.00000,   0.00000,   0.00000,-423279409.49909,   0.00000
-50130401.86208,-53069351.35590,3034297.09190,  -0.00012,  -0.00014,   0.00004,51929242.34653,   0.00000,274640135.82653,   0.00000,   0.00000,   0.00000,-422710893.48000,   0.00000
-50587509.46465,-53762023.61255,3045514.45638,  -0.00013,  -0.00015,   0.00004,52512759.33834,   0.00000,274640135.82653,   0.00000,   0.00000,   0.00000,-422127376.48819,   0.00000
-51024986.67938,-54446282.84585,3051123.13862,  -0.00013,  -0.00015,   0.00004,53082522.37442,   0.00000,274640135.82653,   0.00000,   0.00000,   0.00000,-421557613.45211,   0.00000
-51434420.48291,-55102498.66794,3062340.50310,  -0.00013,  -0.00015,   0.00004,53626054.03894,   0.00000,274640135.82653,   0.00000,   0.00000,   0.00000,-421014081.78758,   0.00000
-51852267.30980,-55778344.87787,3067949.18534,  -0.00013,  -0.00015,   0.00004,54183804.50270,   0.00000,274640135.82653,   0.00000,   0.00000,   0.00000,-420456331.32382,   0.00000
-52261701.11332,-56434560.69996,3073557.86758,  -0.00013,  -0.00015,   0.00004,54727681.97895,   0.00000,274640135.82653,   0.00000,   0.00000,   0.00000,-419912453.84758,   0.00000
-52659917.55237,-57101993.88654,3079166.54982,  -0.00013,  -0.00016,   0.00004,55273521.07677,   0.00000,274640135.82653,   0.00000,   0.00000,   0.00000,-419366614.74976,   0.00000
-53030090.58022,-57741383.66191,3090383.91430,  -0.00013,  -0.00016,   0.00004,55793176.16459,   0.00000,274640135.82653,   0.00000,   0.00000,   0.00000,-418846959.66194,   0.00000
-53419893.99591,-58389186.46064,3095992.59654,  -0.00013,  -0.00016,   0.00004,56325780.32578,   0.00000,274640135.82653,   0.00000,   0.00000,   0.00000,-418314355.50075,   0.00000
-53778849.65927,-59039793.60049,3101601.27878,  -0.00013,  -0.00016,   0.00004,56847423.04261,   0.00000,274640135.82653,   0.00000,   0.00000,   0.00000,-417792712.78392,   0.00000
-54149022.68712,-59679183.37587,3101601.27878,  -0.00013,  -0.00017,   0.00004,57367341.95768,   0.00000,274640135.82653,   0.00000,   0.00000,   0.00000,-417272793.86885,   0.00000
-54499565.32713,-60310160.12788,3107209.96102,  -0.00013,  -0.00017,   0.00004,57875770.27516,   0.00000,274640135.82653,   0.00000,   0.00000,   0.00000,-416764365.55137,   0.00000
-54830477.57929,-60932723.85653,3112818.64326,  -0.00013,  -0.00017,   0.00004,58371882.60290,   0.00000,274640135.82653,   0.00000,   0.00000,   0.00000,-416268253.22363,   0.00000
-55161389.83146,-61555287.58518,3118427.32550,  -0.00013,  -0.00017,   0.00004,58868760.05244,   0.00000,274640135.82653,   0.00000,   0.00000,   0.00000,-415771375.77409,   0.00000
-55492302.08363,-62177851.31383,3118427.32550,  -0.00013,  -0.00017,   0.00004,59365498.76385,   0.00000,274640135.82653,   0.00000,   0.00000,   0.00000,-415274637.06268,   0.00000
-55803583.94795,-62792002.01913,3124036.00774,  -0.00013,  -0.00018,   0.00004,59850944.40362,   0.00000,274640135.82653,   0.00000,   0.00000,   0.00000,-414789191.42291,   0.00000
-56106452.78892,-63386522.33658,3129644.68998,  -0.00013,  -0.00018,   0.00004,60322270.87242,   0.00000,274640135.82653,   0.00000,   0.00000,   0.00000,-414317864.95411,   0.00000
-56398104.26540,-63992260.01851,3129644.68998,  -0.00013,  -0.00018,   0.00004,60795537.51684,   0.00000,274640135.82653,   0.00000,   0.00000,   0.00000,-413844598.30969,   0.00000
-56689755.74189,-64597997.70044,3135253.37222,  -0.00013,  -0.00018,   0.00004,61270502.22621,   0.00000,274640135.82653,   0.00000,   0.00000,   0.00000,-413369633.60032,   0.00000
-56981407.21837,-65203735.38237,3135253.37222,  -0.00013,  -0.00019,   0.00004,61745418.61177,   0.00000,274640135.82653,   0.00000,   0.00000,   0.00000,-412894717.21476,   0.00000
-57245015.28366,-65781429.65310,3140862.05446,  -0.00013,  -0.00019,   0.00004,62194246.99677,   0.00000,274640135.82653,   0.00000,   0.00000,   0.00000,-412445888.82976,   0.00000
-57517036.37230,-66378754.31167,3140862.05446,  -0.00013,  -0.00019,   0.00004,62658074.61345,   0.00000,274640135.82653,   0.00000,   0.00000,   0.00000,-411982061.21307,   0.00000
-57780644.43759,-66956448.58241,3146470.73670,  -0.00013,  -0.00019,   0.00004,63108501.52189,   0.00000,274640135.82653,   0.00000,   0.00000,   0.00000,-411531634.30464,   0.00000
-58024622.11503,-67525729.82978,3146470.73670,  -0.00013,  -0.00019,   0.00004,63546257.47054,   0.00000,274640135.82653,   0.00000,   0.00000,   0.00000,-411093878.35599,   0.00000
-58277012.81584,-68114641.46499,3152079.41894,  -0.00013,  -0.00020,   0.00004,64000809.25293,   0.00000,274640135.82653,   0.00000,   0.00000,   0.00000,-410639326.57360,   0.00000
-58501360.10544,-68675509.68900,3152079.41894,  -0.00013,  -0.00020,   0.00004,64427718.07599,   0.00000,274640135.82653,   0.00000,   0.00000,   0.00000,-410212417.75054,   0.00000
-58725707.39505,-69236377.91301,3157688.10118,  -0.00013,  -0.00020,   0.00004,64856321.56993,   0.00000,274640135.82653,   0.00000,   0.00000,   0.00000,-409783814.25660,   0.00000
-58950054.68465,-69797246.13702,3157688.10118,  -0.00013,  -0.00020,   0.00004,65284960.14744,   0.00000,274640135.82653,   0.00000,   0.00000,   0.00000,-409355175.67909,   0.00000
-59154771.58642,-70349701.33767,3157688.10118,  -0.00013,  -0.00020,   0.00004,65702054.36949,   0.00000,274640135.82653,   0.00000,   0.00000,   0.00000,-408938081.45704,   0.00000
-59359488.48818,-70902156.53832,3163296.78342,  -0.00013,  -0.00021,   0.00004,66120861.08150,   0.00000,274640135.82653,   0.00000,   0.00000,   0.00000,-408519274.74503,   0.00000
-59564205.38994,-71454611.73897,3168905.46566,  -0.00013,  -0.00021,   0.00004,66540550.18088,   0.00000,274640135.82653,   0.00000,   0.00000,   0.00000,-408099585.64565,   0.00000
-59749291.90387,-71998653.91626,3168905.46566,  -0.00013,  -0.00021,   0.00004,66948049.59661,   0.00000,274640135.82653,   0.00000,   0.00000,   0.00000,-407692086.22992,   0.00000
-59934378.41779,-72542696.09355,3174514.14790,  -0.00013,  -0.00021,   0.00004,67357283.89682,   0.00000,274640135.82653,   0.00000,   0.00000,   0.00000,-407282851.92971,   0.00000
-60111051.90835,-73067107.88300,3174514.14790,  -0.00013,  -0.00022,   0.00004,67751256.23479,   0.00000,274640135.82653,   0.00000,   0.00000,   0.00000,-406888879.59174,   0.00000
-60276508.03444,-73602737.03693,3180122.83014,  -0.00013,  -0.00022,   0.00004,68150156.95825,   0.00000,274640135.82653,   0.00000,   0.00000,   0.00000,-406489978.86828,   0.00000
-60441964.16052,-74138366.19086,3185731.51238,  -0.00013,  -0.00022,   0.00004,68550029.58870,   0.00000,274640135.82653,   0.00000,   0.00000,   0.00000,-406090106.23783,   0.00000
-60599007.26324,-74654364.95695,3191340.19462,  -0.00013,  -0.00022,   0.00004,68935385.98478,   0.00000,274640135.82653,   0.00000,   0.00000,   0.00000,-405704749.84175,   0.00000
-60756050.36597,-75170363.72304,3196948.87686,  -0.00013,  -0.00022,   0.00004,69321629.23868,   0.00000,274640135.82653,   0.00000,   0.00000,   0.00000,-405318506.58785,   0.00000
-60901876.10421,-75697579.85361,3202557.55910,  -0.00013,  -0.00023,   0.00004,69712313.14360,   0.00000,274640135.82653,   0.00000,   0.00000,   0.00000,-404927822.68293,   0.00000
-61039288.81909,-76205165.59634,3208166.24134,  -0.00013,  -0.00023,   0.00004,70088443.57425,   0.00000,274640135.82653,   0.00000,   0.00000,   0.00000,-404551692.25228,   0.00000
-61157071.14613,-76704338.31571,3213774.92358,  -0.00013,  -0.00023,   0.00004,70453638.93946,   0.00000,274640135.82653,   0.00000,   0.00000,   0.00000,-404186496.88707,   0.00000
-61294483.86102,-77211924.05844,3219383.60582,  -0.00013,  -0.00023,   0.00004,70831654.13797,   0.00000,274640135.82653,   0.00000,   0.00000,   0.00000,-403808481.68856,   0.00000
-61412266.18806,-77711096.77781,3224992.28806,  -0.00013,  -0.00023,   0.00004,71198793.28649,   0.00000,274640135.82653,   0.00000,   0.00000,   0.00000,-403441342.54004,   0.00000
-61510418.12726,-78201856.47382,3230600.97030,  -0.00013,  -0.00024,   0.00004,71555176.97552,   0.00000,274640135.82653,   0.00000,   0.00000,   0.00000,-403084958.85101,   0.00000
-61628200.45430,-78701029.19319,3241818.33478,  -0.00013,  -0.00024,   0.00004,71925047.39361,   0.00000,274640135.82653,   0.00000,   0.00000,   0.00000,-402715088.43292,   0.00000
-61726352.39351,-79191788.88920,3247427.01702,  -0.00013,  -0.00024,   0.00004,72283463.43615,   0.00000,274640135.82653,   0.00000,   0.00000,   0.00000,-402356672.39038,   0.00000
-61816091.30935,-79662918.19737,3258644.38150,  -0.00013,  -0.00024,   0.00004,72627926.75579,   0.00000,274640135.82653,   0.00000,   0.00000,   0.00000,-402012209.07074,   0.00000
-61894612.86071,-80145264.87002,3269861.74598,  -0.00013,  -0.00024,   0.00004,72977547.42403,   0.00000,274640135.82653,   0.00000,   0.00000,   0.00000,-401662588.40249,   0.00000
-61984351.77655,-80616394.17819,3275470.42822,  -0.00012,  -0.00025,   0.00004,73323216.37335,   0.00000,274640135.82653,   0.00000,   0.00000,   0.00000,-401316919.45318,   0.00000
-62062873.32791,-81098740.85084,3286687.79270,  -0.00012,  -0.00025,   0.00004,73674908.09474,   0.00000,274640135.82653,   0.00000,   0.00000,   0.00000,-400965227.73178,   0.00000
-62132981.85591,-81561457.13565,3297905.15718,  -0.00012,  -0.00025,   0.00004,74011828.26632,   0.00000,274640135.82653,   0.00000,   0.00000,   0.00000,-400628307.56021,   0.00000
-62203090.38391,-82024173.42045,3309122.52166,  -0.00012,  -0.00025,   0.00004,74349736.25555,   0.00000,274640135.82653,   0.00000,   0.00000,   0.00000,-400290399.57098,   0.00000
-62253568.52408,-82478476.68190,3325948.56838,  -0.00012,  -0.00025,   0.00004,74678057.09517,   0.00000,274640135.82653,   0.00000,   0.00000,   0.00000,-399962078.73136,   0.00000
-62312459.68760,-82952410.33119,3337165.93286,  -0.00012,  -0.00026,   0.00004,75022572.04810,   0.00000,274640135.82653,   0.00000,   0.00000,   0.00000,-399617563.77843,   0.00000
-62354524.80440,-83387083.20480,3348383.29734,  -0.00012,  -0.00026,   0.00004,75336348.94952,   0.00000,274640135.82653,   0.00000,   0.00000,   0.00000,-399303786.87701,   0.00000
-62405002.94456,-83841386.46625,3365209.34406,  -0.00012,  -0.00026,   0.00004,75667789.77596,   0.00000,274640135.82653,   0.00000,   0.00000,   0.00000,-398972346.05057,   0.00000
-62435850.69688,-84287276.70434,3382035.39078,  -0.00012,  -0.00026,   0.00004,75989125.09479,   0.00000,274640135.82653,   0.00000,   0.00000,   0.00000,-398651010.73174,   0.00000
-62466698.44920,-84733166.94243,3398861.43751,  -0.00012,  -0.00026,   0.00004,76311556.03454,   0.00000,274640135.82653,   0.00000,   0.00000,   0.00000,-398328579.79199,   0.00000
-62508763.56600,-85167839.81604,3415687.48423,  -0.00012,  -0.00027,   0.00004,76630091.09979,   0.00000,274640135.82653,   0.00000,   0.00000,   0.00000,-398010044.72674,   0.00000
-62519980.93048,-85605317.03076,3432513.53095,  -0.00012,  -0.00027,   0.00004,76943628.57699,   0.00000,274640135.82653,   0.00000,   0.00000,   0.00000,-397696507.24953,   0.00000
-62542415.65944,-86031576.88101,3449339.57767,  -0.00012,  -0.00027,   0.00004,77253201.65914,   0.00000,274640135.82653,   0.00000,   0.00000,   0.00000,-397386934.16738,   0.00000
-62553633.02392,-86469054.09574,3471774.30663,  -0.00012,  -0.00027,   0.00005,77569713.76369,   0.00000,274640135.82653,   0.00000,   0.00000,   0.00000,-397070422.06284,   0.00000
-62576067.75288,-86895313.94599,3488600.35335,  -0.00012,  -0.00027,   0.00005,77881344.27171,   0.00000,274640135.82653,   0.00000,   0.00000,   0.00000,-396758791.55482,   0.00000
-62578872.09400,-87313160.77288,3511035.08231,  -0.00011,  -0.00028,   0.00005,78183925.83278,   0.00000,274640135.82653,   0.00000,   0.00000,   0.00000,-396456209.99375,   0.00000
-62562046.04728,-87722594.57640,3533469.81127,  -0.00011,  -0.00028,   0.00005,78476840.08855,   0.00000,274640135.82653,   0.00000,   0.00000,   0.00000,-396163295.73798,   0.00000
-62564850.38840,-88140441.40329,3555904.54023,  -0.00011,  -0.00028,   0.00005,78781582.59786,   0.00000,274640135.82653,   0.00000,   0.00000,   0.00000,-395858553.22867,   0.00000
-62567654.72952,-88558288.23018,3578339.26919,  -0.00011,  -0.00028,   0.00005,79087362.87780,   0.00000,274640135.82653,   0.00000,   0.00000,   0.00000,-395552772.94873,   0.00000
-62550828.68280,-88967722.03371,3606382.68039,  -0.00011,  -0.00028,   0.00005,79384349.72748,   0.00000,274640135.82653,   0.00000,   0.00000,   0.00000,-395255786.09905,   0.00000
-62525589.61272,-89357525.44940,3628817.40935,  -0.00011,  -0.00028,   0.00005,79665486.21060,   0.00000,274640135.82653,   0.00000,   0.00000,   0.00000,-394974649.61593,   0.00000
-62508763.56600,-89766959.25292,3656860.82055,  -0.00011,  -0.00029,   0.00005,79964671.93248,   0.00000,274640135.82653,   0.00000,   0.00000,   0.00000,-394675463.89405,   0.00000
-62483524.49592,-90156762.66861,3684904.23175,  -0.00011,  -0.00029,   0.00005,80248713.11885,   0.00000,274640135.82653,   0.00000,   0.00000,   0.00000,-394391422.70768,   0.00000
-62438655.03800,-90538153.06094,3712947.64295,  -0.00011,  -0.00029,   0.00005,80523414.21281,   0.00000,274640135.82653,   0.00000,   0.00000,   0.00000,-394116721.61371,   0.00000
-62421828.99128,-90947586.86447,3740991.05415,  -0.00011,  -0.00029,   0.00005,80825853.65379,   0.00000,274640135.82653,   0.00000,   0.00000,   0.00000,-393814282.17273,   0.00000
-62376959.53336,-91328977.25679,3774643.14759,  -0.00011,  -0.00029,   0.00005,81103557.51447,   0.00000,274640135.82653,   0.00000,   0.00000,   0.00000,-393536578.31206,   0.00000
-62332090.07544,-91710367.64912,3808295.24103,  -0.00010,  -0.00030,   0.00005,81382377.87311,   0.00000,274640135.82653,   0.00000,   0.00000,   0.00000,-393257757.95342,   0.00000
-62287220.61752,-92091758.04145,3836338.65223,  -0.00010,  -0.00030,   0.00005,81661512.25639,   0.00000,274640135.82653,   0.00000,   0.00000,   0.00000,-392978623.57014,   0.00000
-62233938.13623,-92453518.04594,3869990.74567,  -0.00010,  -0.00030,   0.00005,81926186.39716,   0.00000,274640135.82653,   0.00000,   0.00000,   0.00000,-392713949.42937,   0.00000
-62189068.67831,-92834908.43826,3909251.52136,  -0.00010,  -0.00030,   0.00005,82209067.22239,   0.00000,274640135.82653,   0.00000,   0.00000,   0.00000,-392431068.60413,   0.00000
-62124568.83255,-93207885.80723,3942903.61480,  -0.00010,  -0.00030,   0.00005,82482190.67449,   0.00000,274640135.82653,   0.00000,   0.00000,   0.00000,-392157945.15204,   0.00000
-62051655.96343,-93561232.78836,3982164.39048,  -0.00010,  -0.00030,   0.00005,82740895.32923,   0.00000,274640135.82653,   0.00000,   0.00000,   0.00000,-391899240.49730,   0.00000
-61998373.48215,-93922992.79284,4021425.16616,  -0.00010,  -0.00031,   0.00005,83010660.06824,   0.00000,274640135.82653,   0.00000,   0.00000,   0.00000,-391629475.75828,   0.00000
-61925460.61303,-94276339.77397,4060685.94184,  -0.00010,  -0.00031,   0.00005,83271559.72392,   0.00000,274640135.82653,   0.00000,   0.00000,   0.00000,-391368576.10261,   0.00000
-61860960.76727,-94649317.14294,4099946.71752,  -0.00010,  -0.00031,   0.00005,83550001.18196,   0.00000,274640135.82653,   0.00000,   0.00000,   0.00000,-391090134.64457,   0.00000
-61779634.87479,-94983033.73622,4139207.49320,  -0.00010,  -0.00031,   0.00005,83796670.31267,   0.00000,274640135.82653,   0.00000,   0.00000,   0.00000,-390843465.51386,   0.00000
-61706722.00566,-95336380.71735,4184076.95112,  -0.00009,  -0.00031,   0.00005,84061697.50139,   0.00000,274640135.82653,   0.00000,   0.00000,   0.00000,-390578438.32514,   0.00000
-61614178.74870,-95681314.67512,4228946.40904,  -0.00009,  -0.00032,   0.00005,84318131.73170,   0.00000,274640135.82653,   0.00000,   0.00000,   0.00000,-390322004.09483,   0.00000
-61541265.87958,-96034661.65624,4273815.86696,  -0.00009,  -0.00032,   0.00006,84585374.06102,   0.00000,274640135.82653,   0.00000,   0.00000,   0.00000,-390054761.76551,   0.00000
-61440309.59926,-96359965.22617,4318685.32488,  -0.00009,  -0.00032,   0.00006,84827599.13128,   0.00000,274640135.82653,   0.00000,   0.00000,   0.00000,-389812536.69524,   0.00000
-61358983.70678,-96693681.81946,4369163.46504,  -0.00009,  -0.00032,   0.00006,85081347.58086,   0.00000,274640135.82653,   0.00000,   0.00000,   0.00000,-389558788.24567,   0.00000
-61266440.44982,-97038615.77722,4419641.60520,  -0.00009,  -0.00032,   0.00006,85343182.49432,   0.00000,274640135.82653,   0.00000,   0.00000,   0.00000,-389296953.33221,   0.00000
-61165484.16949,-97363919.34715,4470119.74537,  -0.00009,  -0.00032,   0.00006,85589624.88779,   0.00000,274640135.82653,   0.00000,   0.00000,   0.00000,-389050510.93874,   0.00000
-61064527.88917,-97689222.91708,4520597.88553,  -0.00009,  -0.00033,   0.00006,85837182.96232,   0.00000,274640135.82653,   0.00000,   0.00000,   0.00000,-388802952.86421,   0.00000
-60955158.58549,-97994896.09916,4576684.70793,  -0.00009,  -0.00033,   0.00006,86070173.20839,   0.00000,274640135.82653,   0.00000,   0.00000,   0.00000,-388569962.61814,   0.00000
-60854202.30517,-98320199.66909,4627162.84809,  -0.00009,  -0.00033,   0.00006,86319929.26253,   0.00000,274640135.82653,   0.00000,   0.00000,   0.00000,-388320206.56400,   0.00000
-60733615.63701,-98637090.21565,4683249.67049,  -0.00008,  -0.00033,   0.00006,86562457.17557,   0.00000,274640135.82653,   0.00000,   0.00000,   0.00000,-388077678.65096,   0.00000
-60624246.33332,-98942763.39774,4739336.49289,  -0.00008,  -0.00033,   0.00006,86798750.81082,   0.00000,274640135.82653,   0.00000,   0.00000,   0.00000,-387841385.01571,   0.00000
-60514877.02964,-99248436.57983,4801031.99753,  -0.00008,  -0.00033,   0.00006,87037034.04393,   0.00000,274640135.82653,   0.00000,   0.00000,   0.00000,-387603101.78260,   0.00000
-60394290.36148,-99565327.12639,4857118.81993,  -0.00008,  -0.00034,   0.00006,87283000.67790,   0.00000,274640135.82653,   0.00000,   0.00000,   0.00000,-387357135.14863,   0.00000
-60284921.05780,-99871000.30848,4918814.32457,  -0.00008,  -0.00034,   0.00006,87523466.81365,   0.00000,274640135.82653,   0.00000,   0.00000,   0.00000,-387116669.01288,   0.00000
-60155921.36628,-100168260.46720,4980509.82922,  -0.00008,  -0.00034,   0.00006,87756012.41434,   0.00000,274640135.82653,   0.00000,   0.00000,   0.00000,-386884123.41219,   0.00000
-60018508.65139,-100445890.23809,5047814.01610,  -0.00008,  -0.00034,   0.00007,87974013.16998,   0.00000,274640135.82653,   0.00000,   0.00000,   0.00000,-386666122.65655,   0.00000
-59909139.34771,-100751563.42017,5109509.52074,  -0.00008,  -0.00034,   0.00007,88217709.78200,   0.00000,274640135.82653,   0.00000,   0.00000,   0.00000,-386422426.04453,   0.00000
-59771726.63283,-101029193.19106,5176813.70762,  -0.00007,  -0.00034,   0.00007,88437922.09593,   0.00000,274640135.82653,   0.00000,   0.00000,   0.00000,-386202213.73060,   0.00000
-59642726.94131,-101326453.34979,5244117.89450,  -0.00007,  -0.00034,   0.00007,88675934.46840,   0.00000,274640135.82653,   0.00000,   0.00000,   0.00000,-385964201.35813,   0.00000
-59505314.22642,-101604083.12067,5311422.08138,  -0.00007,  -0.00035,   0.00007,88898384.96156,   0.00000,274640135.82653,   0.00000,   0.00000,   0.00000,-385741750.86497,   0.00000
-59367901.51154,-101881712.89156,5384334.95050,  -0.00007,  -0.00035,   0.00007,89122953.51595,   0.00000,274640135.82653,   0.00000,   0.00000,   0.00000,-385517182.31058,   0.00000
-59230488.79666,-102159342.66244,5457247.81962,  -0.00007,  -0.00035,   0.00007,89348637.12764,   0.00000,274640135.82653,   0.00000,   0.00000,   0.00000,-385291498.69889,   0.00000
-59084663.05841,-102417342.04549,5530160.68875,  -0.00007,  -0.00035,   0.00007,89558713.95918,   0.00000,274640135.82653,   0.00000,   0.00000,   0.00000,-385081421.86735,   0.00000
-58947250.34353,-102694971.81637,5603073.55787,  -0.00007,  -0.00035,   0.00007,89786595.02750,   0.00000,274640135.82653,   0.00000,   0.00000,   0.00000,-384853540.79903,   0.00000
-58801424.60529,-102952971.19942,5681595.10923,  -0.00007,  -0.00035,   0.00007,89999900.05262,   0.00000,274640135.82653,   0.00000,   0.00000,   0.00000,-384640235.77391,   0.00000
-58644381.50257,-103222187.94694,5760116.66059,  -0.00007,  -0.00036,   0.00007,90222608.19059,   0.00000,274640135.82653,   0.00000,   0.00000,   0.00000,-384417527.63594,   0.00000
-58498555.76432,-103480187.32999,5838638.21195,  -0.00006,  -0.00036,   0.00008,90438143.36797,   0.00000,274640135.82653,   0.00000,   0.00000,   0.00000,-384201992.45856,   0.00000
-58352730.02608,-103738186.71303,5917159.76331,  -0.00006,  -0.00036,   0.00008,90654753.98642,   0.00000,274640135.82653,   0.00000,   0.00000,   0.00000,-383985381.84011,   0.00000
-58198491.26448,-103976555.70824,6001289.99692,  -0.00006,  -0.00036,   0.00008,90856790.05003,   0.00000,274640135.82653,   0.00000,   0.00000,   0.00000,-383783345.77650,   0.00000
-58033035.13839,-104226142.06792,6085420.23052,  -0.00006,  -0.00036,   0.00008,91068433.11991,   0.00000,274640135.82653,   0.00000,   0.00000,   0.00000,-383571702.70662,   0.00000
-57887209.40015,-104484141.45097,6169550.46412,  -0.00006,  -0.00036,   0.00008,91289427.15618,   0.00000,274640135.82653,   0.00000,   0.00000,   0.00000,-383350708.67035,   0.00000
-57713340.25071,-104714097.42281,6253680.69772,  -0.00006,  -0.00036,   0.00008,91486595.05724,   0.00000,274640135.82653,   0.00000,   0.00000,   0.00000,-383153540.76929,   0.00000
-57559101.48911,-104952466.41802,6343419.61356,  -0.00006,  -0.00037,   0.00008,91694152.60829,   0.00000,274640135.82653,   0.00000,   0.00000,   0.00000,-382945983.21824,   0.00000
-57404862.72750,-105190835.41322,6433158.52940,  -0.00006,  -0.00037,   0.00008,91902781.45193,   0.00000,274640135.82653,   0.00000,   0.00000,   0.00000,-382737354.37460,   0.00000
-57230993.57806,-105420791.38506,6522897.44525,  -0.00005,  -0.00037,   0.00008,92104494.03083,   0.00000,274640135.82653,   0.00000,   0.00000,   0.00000,-382535641.79569,   0.00000
-57068341.79310,-105639529.99243,6612636.36109,  -0.00005,  -0.00037,   0.00009,92298504.89849,   0.00000,274640135.82653,   0.00000,   0.00000,   0.00000,-382341630.92804,   0.00000
-56894472.64365,-105869485.96427,6707983.95917,  -0.00005,  -0.00037,   0.00009,92503684.51654,   0.00000,274640135.82653,   0.00000,   0.00000,   0.00000,-382136451.30999,   0.00000
-56731820.85869,-106088224.57164,6803331.55725,  -0.00005,  -0.00037,   0.00009,92701071.73018,   0.00000,274640135.82653,   0.00000,   0.00000,   0.00000,-381939064.09635,   0.00000
-56549538.68589,-106298550.15564,6898679.15533,  -0.00005,  -0.00037,   0.00009,92891729.65750,   0.00000,274640135.82653,   0.00000,   0.00000,   0.00000,-381748406.16903,   0.00000
-56386886.90092,-106517288.76301,6994026.75341,  -0.00005,  -0.00037,   0.00009,93091270.99792,   0.00000,274640135.82653,   0.00000,   0.00000,   0.00000,-381548864.82861,   0.00000
-56204604.72812,-106727614.34701,7094983.03374,  -0.00005,  -0.00038,   0.00009,93285444.90780,   0.00000,274640135.82653,   0.00000,   0.00000,   0.00000,-381354690.91873,   0.00000
-56033539.91980,-106926722.56653,7195939.31406,  -0.00005,  -0.00038,   0.00009,93471618.39389,   0.00000,274640135.82653,   0.00000,   0.00000,   0.00000,-381168517.43264,   0.00000
-55851257.74699,-107137048.15054,7296895.59438,  -0.00005,  -0.00038,   0.00009,93668058.82354,   0.00000,274640135.82653,   0.00000,   0.00000,   0.00000,-380972077.00299,   0.00000
-55680192.93867,-107336156.37006,7403460.55694,  -0.00004,  -0.00038,   0.00010,93857712.19596,   0.00000,274640135.82653,   0.00000,   0.00000,   0.00000,-380782423.63057,   0.00000
-55489497.74251,-107526851.56622,7510025.51950,  -0.00004,  -0.00038,   0.00010,94040941.24438,   0.00000,274640135.82653,   0.00000,   0.00000,   0.00000,-380599194.58215,   0.00000
-55318432.93418,-107725959.78575,7616590.48207,  -0.00004,  -0.00038,   0.00010,94232783.59515,   0.00000,274640135.82653,   0.00000,   0.00000,   0.00000,-380407352.23138,   0.00000
-55138955.10250,-107905437.61743,7723155.44463,  -0.00004,  -0.00038,   0.00010,94408877.48071,   0.00000,274640135.82653,   0.00000,   0.00000,   0.00000,-380231258.34582,   0.00000
-54948259.90634,-108096132.81360,7835329.08943,  -0.00004,  -0.00038,   0.00010,94596870.67285,   0.00000,274640135.82653,   0.00000,   0.00000,   0.00000,-380043265.15368,   0.00000
-54768782.07465,-108275610.64528,7941894.05199,  -0.00004,  -0.00039,   0.00010,94775128.96597,   0.00000,274640135.82653,   0.00000,   0.00000,   0.00000,-379865006.86056,   0.00000
-54569673.85513,-108446675.45360,8054067.69679,  -0.00004,  -0.00039,   0.00010,94948591.51568,   0.00000,274640135.82653,   0.00000,   0.00000,   0.00000,-379691544.31085,   0.00000
-54390196.02344,-108626153.28529,8171850.02384,  -0.00004,  -0.00039,   0.00011,95131878.09039,   0.00000,274640135.82653,   0.00000,   0.00000,   0.00000,-379508257.73614,   0.00000
-54210718.19176,-108805631.11697,8284023.66864,  -0.00003,  -0.00039,   0.00011,95314799.83663,   0.00000,274640135.82653,   0.00000,   0.00000,   0.00000,-379325335.98990,   0.00000
-54003196.94888,-108957065.53745,8401805.99568,  -0.00003,  -0.00039,   0.00011,95476324.67794,   0.00000,274640135.82653,   0.00000,   0.00000,   0.00000,-379163811.14858,   0.00000
-53815306.09383,-109116912.98130,8519588.32272,  -0.00003,  -0.00039,   0.00011,95646107.87692,   0.00000,274640135.82653,   0.00000,   0.00000,   0.00000,-378994027.94961,   0.00000
-53627415.23879,-109276760.42514,8642979.33201,  -0.00003,  -0.00039,   0.00011,95818490.39793,   0.00000,274640135.82653,   0.00000,   0.00000,   0.00000,-378821645.42860,   0.00000
-53419893.99591,-109428194.84562,8760761.65905,  -0.00003,  -0.00039,   0.00011,95983462.98935,   0.00000,274640135.82653,   0.00000,   0.00000,   0.00000,-378656672.83718,   0.00000
-53232003.14086,-109588042.28946,8884152.66833,  -0.00003,  -0.00039,   0.00012,96158092.04521,   0.00000,274640135.82653,   0.00000,   0.00000,   0.00000,-378482043.78132,   0.00000
-53035699.26246,-109728259.34547,9007543.67761,  -0.00003,  -0.00040,   0.00012,96317022.69753,   0.00000,274640135.82653,   0.00000,   0.00000,   0.00000,-378323113.12900,   0.00000
-52847808.40741,-109888106.78931,9136543.36914,  -0.00003,  -0.00040,   0.00012,96495443.04038,   0.00000,274640135.82653,   0.00000,   0.00000,   0.00000,-378144692.78615,   0.00000
-52651504.52901,-110028323.84531,9265543.06066,  -0.00003,  -0.00040,   0.00012,96658197.01786,   0.00000,274640135.82653,   0.00000,   0.00000,   0.00000,-377981938.80867,   0.00000
-52446787.62725,-110148910.51347,9388934.06994,  -0.00002,  -0.00040,   0.00012,96803655.67250,   0.00000,274640135.82653,   0.00000,   0.00000,   0.00000,-377836480.15403,   0.00000
-52250483.74884,-110289127.56948,9523542.44370,  -0.00002,  -0.00040,   0.00012,96970294.55618,   0.00000,274640135.82653,   0.00000,   0.00000,   0.00000,-377669841.27035,   0.00000
-52045766.84708,-110409714.23764,9652542.13523,  -0.00002,  -0.00040,   0.00013,97119634.00307,   0.00000,274640135.82653,   0.00000,   0.00000,   0.00000,-377520501.82346,   0.00000
-51841049.94532,-110530300.90580,9787150.50899,  -0.00002,  -0.00040,   0.00013,97271784.05523,   0.00000,274640135.82653,   0.00000,   0.00000,   0.00000,-377368351.77129,   0.00000
-51636333.04355,-110650887.57396,9921758.88275,  -0.00002,  -0.00040,   0.00013,97425087.25549,   0.00000,274640135.82653,   0.00000,   0.00000,   0.00000,-377215048.57104,   0.00000
-51431616.14179,-110771474.24213,10056367.25651,  -0.00002,  -0.00040,   0.00013,97579538.16883,   0.00000,274640135.82653,   0.00000,   0.00000,   0.00000,-377060597.65770,   0.00000
-51226899.24002,-110892060.91029,10190975.63028,  -0.00002,  -0.00040,   0.00013,97735131.35408,   0.00000,274640135.82653,   0.00000,   0.00000,   0.00000,-376905004.47245,   0.00000
-51013769.31490,-110993017.19061,10331192.68628,  -0.00002,  -0.00041,   0.00013,97876876.62173,   0.00000,274640135.82653,   0.00000,   0.00000,   0.00000,-376763259.20480,   0.00000
-50820269.77762,-111102386.49429,10471409.74228,  -0.00001,  -0.00041,   0.00014,98026211.37427,   0.00000,274640135.82653,   0.00000,   0.00000,   0.00000,-376613924.45226,   0.00000
-50607139.85249,-111203342.77462,10611626.79828,  -0.00001,  -0.00041,   0.00014,98170274.51503,   0.00000,274640135.82653,   0.00000,   0.00000,   0.00000,-376469861.31150,   0.00000
-50385596.90401,-111284668.66710,10751843.85429,  -0.00001,  -0.00041,   0.00014,98298768.23981,   0.00000,274640135.82653,   0.00000,   0.00000,   0.00000,-376341367.58672,   0.00000
-50183684.34336,-111374407.58294,10897669.59253,  -0.00001,  -0.00041,   0.00014,98436580.25499,   0.00000,274640135.82653,   0.00000,   0.00000,   0.00000,-376203555.57154,   0.00000
-49962141.39488,-111455733.47542,11043495.33077,  -0.00001,  -0.00041,   0.00014,98569292.12234,   0.00000,274640135.82653,   0.00000,   0.00000,   0.00000,-376070843.70419,   0.00000
-49760228.83424,-111545472.39126,11189321.06901,  -0.00001,  -0.00041,   0.00015,98709408.21912,   0.00000,274640135.82653,   0.00000,   0.00000,   0.00000,-375930727.60741,   0.00000
-49558316.27359,-111635211.30710,11340755.48950,  -0.00001,  -0.00041,   0.00015,98852578.17298,   0.00000,274640135.82653,   0.00000,   0.00000,   0.00000,-375787557.65354,   0.00000
-49328360.30175,-111696906.81174,11486581.22774,  -0.00001,  -0.00041,   0.00015,98972145.08373,   0.00000,274640135.82653,   0.00000,   0.00000,   0.00000,-375667990.74280,   0.00000
-49118034.71774,-111767015.33975,11638015.64822,  -0.00001,  -0.00041,   0.00015,99100964.36169,   0.00000,274640135.82653,   0.00000,   0.00000,   0.00000,-375539171.46484,   0.00000
-48907709.13374,-111837123.86775,11789450.06871,  -0.00000,  -0.00041,   0.00015,99230953.64860,   0.00000,274640135.82653,   0.00000,   0.00000,   0.00000,-375409182.17793,   0.00000
-48697383.54973,-111907232.39575,11940884.48919,  -0.00000,  -0.00041,   0.00016,99362108.35250,   0.00000,274640135.82653,   0.00000,   0.00000,   0.00000,-375278027.47403,   0.00000
-48478644.94237,-111957710.53591,12097927.59191,  -0.00000,  -0.00041,   0.00016,99479794.04038,   0.00000,274640135.82653,   0.00000,   0.00000,   0.00000,-375160341.78614,   0.00000
-48259906.33501,-112008188.67607,12254970.69464,  -0.00000,  -0.00042,   0.00016,99598700.37242,   0.00000,274640135.82653,   0.00000,   0.00000,   0.00000,-375041435.45410,   0.00000
-48041167.72764,-112058666.81623,12412013.79736,  -0.00000,  -0.00042,   0.00016,99718822.98207,   0.00000,274640135.82653,   0.00000,   0.00000,   0.00000,-374921312.84446,   0.00000
-47814016.09692,-112089514.56855,12569056.90008,   0.00000,  -0.00042,   0.00016,99823509.91488,   0.00000,274640135.82653,   0.00000,   0.00000,   0.00000,-374816625.91165,   0.00000
-47614907.87739,-112148405.73207,12726100.00280,   0.00000,  -0.00042,   0.00017,99951834.48408,   0.00000,274640135.82653,   0.00000,   0.00000,   0.00000,-374688301.34245,   0.00000
-47387756.24667,-112179253.48439,12888751.78777,   0.00000,  -0.00042,   0.00017,100061086.35378,   0.00000,274640135.82653,   0.00000,   0.00000,   0.00000,-374579049.47275,   0.00000
-47171821.98043,-112198883.87223,13051403.57273,   0.00000,  -0.00042,   0.00017,100160680.71034,   0.00000,274640135.82653,   0.00000,   0.00000,   0.00000,-374479455.11619,   0.00000
-46944670.34970,-112229731.62455,13214055.35769,   0.00001,  -0.00042,   0.00017,100272432.68815,   0.00000,274640135.82653,   0.00000,   0.00000,   0.00000,-374367703.13838,   0.00000
-46728736.08346,-112249362.01240,13376707.14266,   0.00001,  -0.00042,   0.00017,100374459.48584,   0.00000,274640135.82653,   0.00000,   0.00000,   0.00000,-374265676.34069,   0.00000
-46493171.42937,-112260579.37688,13544967.60986,   0.00001,  -0.00042,   0.00018,100474378.58738,   0.00000,274640135.82653,   0.00000,   0.00000,   0.00000,-374165757.23915,   0.00000
-46277237.16313,-112280209.76472,13713228.07706,   0.00001,  -0.00042,   0.00018,100581152.11676,   0.00000,274640135.82653,   0.00000,   0.00000,   0.00000,-374058983.70977,   0.00000
-46052889.87352,-112280209.76472,13881488.54427,   0.00001,  -0.00042,   0.00018,100672604.05818,   0.00000,274640135.82653,   0.00000,   0.00000,   0.00000,-373967531.76835,   0.00000
-45828542.58392,-112280209.76472,14049749.01147,   0.00001,  -0.00042,   0.00018,100765315.39918,   0.00000,274640135.82653,   0.00000,   0.00000,   0.00000,-373874820.42735,   0.00000
-45604195.29432,-112280209.76472,14218009.47867,   0.00001,  -0.00042,   0.00018,100859282.66680,   0.00000,274640135.82653,   0.00000,   0.00000,   0.00000,-373780853.15973,   0.00000
-45379848.00471,-112280209.76472,14391878.62812,   0.00001,  -0.00042,   0.00019,100956900.54681,   0.00000,274640135.82653,   0.00000,   0.00000,   0.00000,-373683235.27972,   0.00000
-45147087.69175,-112260579.37688,14565747.77756,   0.00001,  -0.00042,   0.00019,101039309.24438,   0.00000,274640135.82653,   0.00000,   0.00000,   0.00000,-373600826.58214,   0.00000
-44914327.37878,-112240948.98904,14739616.92700,   0.00001,  -0.00042,   0.00019,101123042.01869,   0.00000,274640135.82653,   0.00000,   0.00000,   0.00000,-373517093.80784,   0.00000
-44692784.43030,-112210101.23671,14913486.07645,   0.00002,  -0.00042,   0.00019,101196868.20781,   0.00000,274640135.82653,   0.00000,   0.00000,   0.00000,-373443267.61872,   0.00000
-44460024.11733,-112190470.84887,15087355.22589,   0.00002,  -0.00042,   0.00020,101283213.40314,   0.00000,274640135.82653,   0.00000,   0.00000,   0.00000,-373356922.42339,   0.00000
-44238481.16885,-112159623.09655,15266833.05757,   0.00002,  -0.00042,   0.00020,101362130.35374,   0.00000,274640135.82653,   0.00000,   0.00000,   0.00000,-373278005.47279,   0.00000
-43997307.83252,-112120362.32087,15440702.20702,   0.00002,  -0.00042,   0.00020,101434661.24597,   0.00000,274640135.82653,   0.00000,   0.00000,   0.00000,-373205474.58056,   0.00000
-43767351.86068,-112069884.18071,15620180.03870,   0.00002,  -0.00042,   0.00020,101499793.34253,   0.00000,274640135.82653,   0.00000,   0.00000,   0.00000,-373140342.48400,   0.00000
-43537395.88884,-112019406.04055,15799657.87038,   0.00002,  -0.00042,   0.00021,101566266.58937,   0.00000,274640135.82653,   0.00000,   0.00000,   0.00000,-373073869.23716,   0.00000
-43307439.91699,-111968927.90039,15984744.38431,   0.00002,  -0.00043,   0.00021,101636724.21328,   0.00000,274640135.82653,   0.00000,   0.00000,   0.00000,-373003411.61325,   0.00000
-43077483.94515,-111918449.76023,16164222.21599,   0.00002,  -0.00043,   0.00021,101705899.71388,   0.00000,274640135.82653,   0.00000,   0.00000,   0.00000,-372934236.11265,   0.00000
-42839114.94994,-111848341.23223,16349308.72991,   0.00002,  -0.00043,   0.00021,101762748.32632,   0.00000,274640135.82653,   0.00000,   0.00000,   0.00000,-372877387.50021,   0.00000
-42600745.95474,-111778232.70423,16528786.56160,   0.00002,  -0.00043,   0.00021,101818284.81798,   0.00000,274640135.82653,   0.00000,   0.00000,   0.00000,-372821851.00855,   0.00000
-42382007.34737,-111716537.19959,16713873.07552,   0.00003,  -0.00043,   0.00022,101882818.91368,   0.00000,274640135.82653,   0.00000,   0.00000,   0.00000,-372757316.91285,   0.00000
-42135225.32881,-111626798.28374,16904568.27168,   0.00003,  -0.00043,   0.00022,101930330.59657,   0.00000,274640135.82653,   0.00000,   0.00000,   0.00000,-372709805.22996,   0.00000
-41888443.31024,-111537059.36790,17089654.78561,   0.00003,  -0.00043,   0.00022,101976528.71688,   0.00000,274640135.82653,   0.00000,   0.00000,   0.00000,-372663607.10965,   0.00000
-41661291.67952,-111455733.47542,17274741.29953,   0.00003,  -0.00043,   0.00022,102028937.01383,   0.00000,274640135.82653,   0.00000,   0.00000,   0.00000,-372611198.81270,   0.00000
-41425727.02544,-111354777.19510,17465436.49570,   0.00003,  -0.00043,   0.00023,102069334.65370,   0.00000,274640135.82653,   0.00000,   0.00000,   0.00000,-372570801.17283,   0.00000
-41190162.37135,-111253820.91478,17656131.69186,   0.00003,  -0.00043,   0.00023,102111195.05404,   0.00000,274640135.82653,   0.00000,   0.00000,   0.00000,-372528940.77249,   0.00000
-40934967.32943,-111144451.61109,17846826.88802,   0.00003,  -0.00043,   0.00023,102149859.85579,   0.00000,274640135.82653,   0.00000,   0.00000,   0.00000,-372490275.97074,   0.00000
-40690989.65198,-111023864.94293,18037522.08419,   0.00003,  -0.00043,   0.00023,102178475.69337,   0.00000,274640135.82653,   0.00000,   0.00000,   0.00000,-372461660.13316,   0.00000
-40466642.36238,-110911691.29813,18228217.28035,   0.00003,  -0.00043,   0.00024,102213171.26862,   0.00000,274640135.82653,   0.00000,   0.00000,   0.00000,-372426964.55791,   0.00000
-40222664.68493,-110791104.62997,18418912.47651,   0.00003,  -0.00043,   0.00024,102244741.56813,   0.00000,274640135.82653,   0.00000,   0.00000,   0.00000,-372395394.25840,   0.00000
-39970273.98413,-110650887.57396,18609607.67268,   0.00003,  -0.00043,   0.00024,102261663.99755,   0.00000,274640135.82653,   0.00000,   0.00000,   0.00000,-372378471.82898,   0.00000
-39737513.67116,-110519083.54132,18805911.55108,   0.00003,  -0.00043,   0.00024,102287688.18501,   0.00000,274640135.82653,   0.00000,   0.00000,   0.00000,-372352447.64152,   0.00000
-39485122.97036,-110378866.48532,19002215.42948,   0.00004,  -0.00043,   0.00025,102310793.95524,   0.00000,274640135.82653,   0.00000,   0.00000,   0.00000,-372329341.87129,   0.00000
-39243949.63403,-110227432.06484,19198519.30789,   0.00004,  -0.00043,   0.00025,102323819.32420,   0.00000,274640135.82653,   0.00000,   0.00000,   0.00000,-372316316.50233,   0.00000
-39002776.29771,-110075997.64435,19394823.18629,   0.00004,  -0.00042,   0.00025,102338408.25292,   0.00000,274640135.82653,   0.00000,   0.00000,   0.00000,-372301727.57361,   0.00000
-38741972.57354,-109916150.20051,19591127.06470,   0.00004,  -0.00042,   0.00025,102350226.26418,   0.00000,274640135.82653,   0.00000,   0.00000,   0.00000,-372289909.56235,   0.00000
-38492386.21386,-109745085.39219,19787430.94310,   0.00004,  -0.00042,   0.00026,102351964.42751,   0.00000,274640135.82653,   0.00000,   0.00000,   0.00000,-372288171.39902,   0.00000
-38262430.24201,-109582433.60722,19983734.82150,   0.00004,  -0.00042,   0.00026,102359572.45861,   0.00000,274640135.82653,   0.00000,   0.00000,   0.00000,-372280563.36792,   0.00000
-38012843.88233,-109411368.79890,20185647.38215,   0.00004,  -0.00042,   0.00026,102367806.08217,   0.00000,274640135.82653,   0.00000,   0.00000,   0.00000,-372272329.74436,   0.00000
-37754844.49928,-109220673.60274,20381951.26055,   0.00004,  -0.00042,   0.00026,102358419.72688,   0.00000,274640135.82653,   0.00000,   0.00000,   0.00000,-372281716.09965,   0.00000
-37496845.11624,-109029978.40657,20583863.82120,   0.00004,  -0.00042,   0.00027,102354070.36899,   0.00000,274640135.82653,   0.00000,   0.00000,   0.00000,-372286065.45754,   0.00000
-37250063.09768,-108828065.84593,20785776.38184,   0.00004,  -0.00042,   0.00027,102339671.17582,   0.00000,274640135.82653,   0.00000,   0.00000,   0.00000,-372300464.65071,   0.00000
-37011694.10247,-108645783.67313,20982080.26024,   0.00004,  -0.00042,   0.00027,102339388.19238,   0.00000,274640135.82653,   0.00000,   0.00000,   0.00000,-372300747.63415,   0.00000
-36736868.67271,-108415827.70128,21183992.82089,   0.00004,  -0.00042,   0.00028,102308434.87822,   0.00000,274640135.82653,   0.00000,   0.00000,   0.00000,-372331700.94831,   0.00000
-36490086.65414,-108213915.14064,21385905.38153,   0.00004,  -0.00042,   0.00028,102299137.63268,   0.00000,274640135.82653,   0.00000,   0.00000,   0.00000,-372340998.19385,   0.00000
-36234891.61222,-107992372.19215,21587817.94217,   0.00005,  -0.00042,   0.00028,102275752.60550,   0.00000,274640135.82653,   0.00000,   0.00000,   0.00000,-372364383.22103,   0.00000
-35971283.54693,-107751198.85583,21795339.18506,   0.00005,  -0.00042,   0.00028,102241946.37668,   0.00000,274640135.82653,   0.00000,   0.00000,   0.00000,-372398189.44985,   0.00000
-35735718.89285,-107538068.93070,21997251.74570,   0.00005,  -0.00042,   0.00029,102226048.17578,   0.00000,274640135.82653,   0.00000,   0.00000,   0.00000,-372414087.65075,   0.00000
-35472110.82756,-107296895.59438,22199164.30635,   0.00005,  -0.00042,   0.00029,102192249.05284,   0.00000,274640135.82653,   0.00000,   0.00000,   0.00000,-372447886.77369,   0.00000
-35200089.73892,-107036091.87022,22401076.86699,   0.00005,  -0.00042,   0.00029,102144583.68286,   0.00000,274640135.82653,   0.00000,   0.00000,   0.00000,-372495552.14367,   0.00000
-34947699.03811,-106783701.16941,22608598.10987,   0.00005,  -0.00042,   0.00029,102106326.82813,   0.00000,274640135.82653,   0.00000,   0.00000,   0.00000,-372533808.99840,   0.00000
-34695308.33731,-106531310.46861,22810510.67052,   0.00005,  -0.00042,   0.00030,102066184.69230,   0.00000,274640135.82653,   0.00000,   0.00000,   0.00000,-372573951.13423,   0.00000
-34414874.22530,-106250876.35660,23018031.91340,   0.00005,  -0.00042,   0.00030,102012308.70757,   0.00000,274640135.82653,   0.00000,   0.00000,   0.00000,-372627827.11896,   0.00000
-34154070.50114,-105978855.26795,23225553.15629,   0.00005,  -0.00042,   0.00030,101964150.36422,   0.00000,274640135.82653,   0.00000,   0.00000,   0.00000,-372675985.46231,   0.00000
-33893266.77697,-105706834.17931,23427465.71693,   0.00005,  -0.00041,   0.00030,101914065.97616,   0.00000,274640135.82653,   0.00000,   0.00000,   0.00000,-372726069.85037,   0.00000
-33643680.41729,-105423595.72618,23634986.95981,   0.00005,  -0.00041,   0.00031,101857900.18736,   0.00000,274640135.82653,   0.00000,   0.00000,   0.00000,-372782235.63917,   0.00000
-33374463.66976,-105131944.24970,23842508.20270,   0.00005,  -0.00041,   0.00031,101800068.10047,   0.00000,274640135.82653,   0.00000,   0.00000,   0.00000,-372840067.72606,   0.00000
-33096833.89888,-104820662.38537,24044420.76334,   0.00005,  -0.00041,   0.00031,101724835.38661,   0.00000,274640135.82653,   0.00000,   0.00000,   0.00000,-372915300.43992,   0.00000
-32838834.51583,-104517793.54441,24251942.00623,   0.00005,  -0.00041,   0.00032,101659164.69657,   0.00000,274640135.82653,   0.00000,   0.00000,   0.00000,-372980971.12996,   0.00000
-32561204.74495,-104206511.68008,24459463.24911,   0.00006,  -0.00041,   0.00032,101592005.56985,   0.00000,274640135.82653,   0.00000,   0.00000,   0.00000,-373048130.25668,   0.00000
-32294792.33854,-103884012.45127,24666984.49199,   0.00006,  -0.00041,   0.00032,101515069.90365,   0.00000,274640135.82653,   0.00000,   0.00000,   0.00000,-373125065.92288,   0.00000
-32019966.90877,-103541882.83463,24874505.73488,   0.00006,  -0.00041,   0.00032,101424924.08873,   0.00000,274640135.82653,   0.00000,   0.00000,   0.00000,-373215211.73780,   0.00000
-31753554.50237,-103219383.60582,25082026.97776,   0.00006,  -0.00041,   0.00033,101352214.00844,   0.00000,274640135.82653,   0.00000,   0.00000,   0.00000,-373287921.81809,   0.00000
-31478729.07260,-102877253.98918,25289548.22065,   0.00006,  -0.00041,   0.00033,101266373.06596,   0.00000,274640135.82653,   0.00000,   0.00000,   0.00000,-373373762.76057,   0.00000
-31195490.61948,-102515493.98469,25491460.78129,   0.00006,  -0.00041,   0.00033,101163272.63022,   0.00000,274640135.82653,   0.00000,   0.00000,   0.00000,-373476863.19631,   0.00000
-30931882.55419,-102162147.00356,25698982.02417,   0.00006,  -0.00040,   0.00033,101069931.91529,   0.00000,274640135.82653,   0.00000,   0.00000,   0.00000,-373570203.91124,   0.00000
-30648644.10107,-101800386.99907,25906503.26706,   0.00006,  -0.00040,   0.00034,100975517.24298,   0.00000,274640135.82653,   0.00000,   0.00000,   0.00000,-373664618.58355,   0.00000
-30376623.01242,-101427409.63011,26114024.50994,   0.00006,  -0.00040,   0.00034,100871518.73928,   0.00000,274640135.82653,   0.00000,   0.00000,   0.00000,-373768617.08725,   0.00000
-30084971.53594,-101046019.23778,26321545.75283,   0.00006,  -0.00040,   0.00034,100766602.68157,   0.00000,274640135.82653,   0.00000,   0.00000,   0.00000,-373873533.14496,   0.00000
-29804537.42393,-100653411.48097,26529066.99571,   0.00006,  -0.00040,   0.00034,100652200.72840,   0.00000,274640135.82653,   0.00000,   0.00000,   0.00000,-373987935.09813,   0.00000
-29524103.31193,-100260803.72417,26736588.23859,   0.00006,  -0.00040,   0.00035,100540173.88298,   0.00000,274640135.82653,   0.00000,   0.00000,   0.00000,-374099961.94355,   0.00000
-29235256.17656,-99848565.57952,26944109.48148,   0.00006,  -0.00040,   0.00035,100415601.20652,   0.00000,274640135.82653,   0.00000,   0.00000,   0.00000,-374224534.62001,   0.00000
-28946409.04120,-99436327.43487,27146022.04212,   0.00006,  -0.00040,   0.00035,100288946.25413,   0.00000,274640135.82653,   0.00000,   0.00000,   0.00000,-374351189.57239,   0.00000
-28677192.29367,-99032502.31358,27353543.28501,   0.00006,  -0.00039,   0.00036,100172315.29171,   0.00000,274640135.82653,   0.00000,   0.00000,   0.00000,-374467820.53482,   0.00000
-28379932.13494,-98600633.78109,27561064.52789,   0.00006,  -0.00039,   0.00036,100040307.21953,   0.00000,274640135.82653,   0.00000,   0.00000,   0.00000,-374599828.60700,   0.00000
-28102302.36406,-98177178.27197,27762977.08853,   0.00006,  -0.00039,   0.00036,99909167.11199,   0.00000,274640135.82653,   0.00000,   0.00000,   0.00000,-374730968.71453,   0.00000
-27796629.18197,-97725679.35164,27970498.33142,   0.00006,  -0.00039,   0.00036,99767544.11555,   0.00000,274640135.82653,   0.00000,   0.00000,   0.00000,-374872591.71098,   0.00000
-27510586.38773,-97282593.45467,28178019.57430,   0.00006,  -0.00039,   0.00037,99631503.66624,   0.00000,274640135.82653,   0.00000,   0.00000,   0.00000,-375008632.16029,   0.00000
-27216130.57012,-96819877.16986,28379932.13494,   0.00006,  -0.00039,   0.00037,99478669.08795,   0.00000,274640135.82653,   0.00000,   0.00000,   0.00000,-375161466.73858,   0.00000
-26921674.75252,-96357160.88505,28587453.37783,   0.00007,  -0.00039,   0.00037,99333329.51116,   0.00000,274640135.82653,   0.00000,   0.00000,   0.00000,-375306806.31537,   0.00000
-26627218.93491,-95894444.60024,28789365.93847,   0.00007,  -0.00038,   0.00037,99185854.31301,   0.00000,274640135.82653,   0.00000,   0.00000,   0.00000,-375454281.51352,   0.00000
-26343980.48179,-95420510.95095,28991278.49912,   0.00007,  -0.00038,   0.00038,99029318.01619,   0.00000,274640135.82653,   0.00000,   0.00000,   0.00000,-375610817.81034,   0.00000
-26032698.61746,-94918533.89046,29198799.74200,   0.00007,  -0.00038,   0.00038,98863307.68471,   0.00000,274640135.82653,   0.00000,   0.00000,   0.00000,-375776828.14182,   0.00000
-25721416.75313,-94416556.82997,29400712.30264,   0.00007,  -0.00038,   0.00038,98695265.98832,   0.00000,274640135.82653,   0.00000,   0.00000,   0.00000,-375944869.83821,   0.00000
-25429765.27665,-93922992.79284,29602624.86329,   0.00007,  -0.00038,   0.00038,98532776.64198,   0.00000,274640135.82653,   0.00000,   0.00000,   0.00000,-376107359.18455,   0.00000
-25129700.77680,-93409798.36787,29804537.42393,   0.00007,  -0.00038,   0.00039,98358849.94659,   0.00000,274640135.82653,   0.00000,   0.00000,   0.00000,-376281285.87994,   0.00000
-24829636.27696,-92896603.94290,30006449.98458,   0.00007,  -0.00037,   0.00039,98187891.80207,   0.00000,274640135.82653,   0.00000,   0.00000,   0.00000,-376452244.02446,   0.00000
-24521158.75375,-92363779.13009,30202753.86298,   0.00007,  -0.00037,   0.00039,98000546.18928,   0.00000,274640135.82653,   0.00000,   0.00000,   0.00000,-376639589.63725,   0.00000
-24212681.23054,-91830954.31728,30404666.42362,   0.00007,  -0.00037,   0.00040,97821448.05823,   0.00000,274640135.82653,   0.00000,   0.00000,   0.00000,-376818687.76830,   0.00000
-23895790.68398,-91278499.11663,30606578.98427,   0.00007,  -0.00037,   0.00040,97631395.23698,   0.00000,274640135.82653,   0.00000,   0.00000,   0.00000,-377008740.58955,   0.00000
-23598530.52525,-90734456.93934,30802882.86267,   0.00007,  -0.00037,   0.00040,97441701.77705,   0.00000,274640135.82653,   0.00000,   0.00000,   0.00000,-377198434.04948,   0.00000
-23273226.95533,-90162371.35085,31004795.42332,   0.00007,  -0.00036,   0.00040,97244120.57790,   0.00000,274640135.82653,   0.00000,   0.00000,   0.00000,-377396015.24863,   0.00000
-22967553.77324,-89598698.78572,31201099.30172,   0.00007,  -0.00036,   0.00041,97046886.66286,   0.00000,274640135.82653,   0.00000,   0.00000,   0.00000,-377593249.16367,   0.00000
-22653467.56779,-89015395.83275,31397403.18012,   0.00007,  -0.00036,   0.00041,96839060.73966,   0.00000,274640135.82653,   0.00000,   0.00000,   0.00000,-377801075.08687,   0.00000
-22339381.36235,-88432092.87978,31593707.05853,   0.00007,  -0.00036,   0.00041,96634630.12988,   0.00000,274640135.82653,   0.00000,   0.00000,   0.00000,-378005505.69665,   0.00000
-22016882.13354,-87829159.53897,31790010.93693,   0.00007,  -0.00036,   0.00041,96419886.41798,   0.00000,274640135.82653,   0.00000,   0.00000,   0.00000,-378220249.40855,   0.00000
-21694382.90474,-87226226.19815,31980706.13309,   0.00007,  -0.00035,   0.00042,96203109.77419,   0.00000,274640135.82653,   0.00000,   0.00000,   0.00000,-378437026.05234,   0.00000
-21363470.65257,-86603662.46950,32177010.01150,   0.00007,  -0.00035,   0.00042,95981859.48252,   0.00000,274640135.82653,   0.00000,   0.00000,   0.00000,-378658276.34401,   0.00000
-21032558.40040,-85981098.74085,32367705.20766,   0.00007,  -0.00035,   0.00042,95758657.01952,   0.00000,274640135.82653,   0.00000,   0.00000,   0.00000,-378881478.80701,   0.00000
-20721276.53608,-85366948.03556,32564009.08607,   0.00007,  -0.00035,   0.00042,95546946.80719,   0.00000,274640135.82653,   0.00000,   0.00000,   0.00000,-379093189.01934,   0.00000
-20393168.62503,-84713536.55459,32754704.28223,   0.00007,  -0.00035,   0.00043,95306343.56759,   0.00000,274640135.82653,   0.00000,   0.00000,   0.00000,-379333792.25894,   0.00000
-20053843.34951,-84071342.43809,32945399.47839,   0.00007,  -0.00034,   0.00043,95080974.76029,   0.00000,274640135.82653,   0.00000,   0.00000,   0.00000,-379559161.06624,   0.00000
-19725735.43846,-83417930.95712,33130485.99232,   0.00007,  -0.00034,   0.00043,94842306.55742,   0.00000,274640135.82653,   0.00000,   0.00000,   0.00000,-379797829.26910,   0.00000
-19389214.50405,-82744889.08831,33321181.18848,   0.00007,  -0.00034,   0.00043,94600228.60998,   0.00000,274640135.82653,   0.00000,   0.00000,   0.00000,-380039907.21655,   0.00000
-19052693.56965,-82071847.21950,33506267.70240,   0.00007,  -0.00034,   0.00044,94356310.91001,   0.00000,274640135.82653,   0.00000,   0.00000,   0.00000,-380283824.91652,   0.00000
-18727389.99972,-81387587.98620,33691354.21633,   0.00007,  -0.00033,   0.00044,94105257.87569,   0.00000,274640135.82653,   0.00000,   0.00000,   0.00000,-380534877.95084,   0.00000
-18382456.04195,-80694915.72955,33882049.41249,   0.00007,  -0.00033,   0.00044,93862629.36173,   0.00000,274640135.82653,   0.00000,   0.00000,   0.00000,-380777506.46480,   0.00000
-18048739.44867,-79991026.10842,34061527.24417,   0.00007,  -0.00033,   0.00044,93600998.81795,   0.00000,274640135.82653,   0.00000,   0.00000,   0.00000,-381039137.00858,   0.00000
-17695392.46754,-79278723.46392,34246613.75810,   0.00007,  -0.00033,   0.00045,93348092.87992,   0.00000,274640135.82653,   0.00000,   0.00000,   0.00000,-381292042.94661,   0.00000
-17353262.85089,-78555203.45495,34426091.58978,   0.00007,  -0.00032,   0.00045,93082404.21264,   0.00000,274640135.82653,   0.00000,   0.00000,   0.00000,-381557731.61389,   0.00000
-17011133.23425,-77831683.44597,34611178.10370,   0.00007,  -0.00032,   0.00045,92827503.54384,   0.00000,274640135.82653,   0.00000,   0.00000,   0.00000,-381812632.28269,   0.00000
-16660590.59424,-77088533.04916,34790655.93539,   0.00007,  -0.00032,   0.00045,92558338.03187,   0.00000,274640135.82653,   0.00000,   0.00000,   0.00000,-382081797.79466,   0.00000
-16310047.95423,-76345382.65235,34964525.08483,   0.00007,  -0.00032,   0.00045,92287552.29001,   0.00000,274640135.82653,   0.00000,   0.00000,   0.00000,-382352583.53652,   0.00000
-15951092.29087,-75582601.86769,35144002.91651,   0.00007,  -0.00031,   0.00046,92015459.65420,   0.00000,274640135.82653,   0.00000,   0.00000,   0.00000,-382624676.17233,   0.00000
-15611767.01534,-74828234.10640,35317872.06596,   0.00007,  -0.00031,   0.00046,91743376.83771,   0.00000,274640135.82653,   0.00000,   0.00000,   0.00000,-382896758.98882,   0.00000
-15244398.32861,-74045822.93390,35491741.21540,   0.00008,  -0.00031,   0.00046,91462465.73589,   0.00000,274640135.82653,   0.00000,   0.00000,   0.00000,-383177670.09064,   0.00000
-14896660.02973,-73271824.78477,35665610.36484,   0.00008,  -0.00030,   0.00046,91188116.61530,   0.00000,274640135.82653,   0.00000,   0.00000,   0.00000,-383452019.21123,   0.00000
-14540508.70748,-72478196.24779,35839479.51429,   0.00008,  -0.00030,   0.00047,90906822.38824,   0.00000,274640135.82653,   0.00000,   0.00000,   0.00000,-383733313.43829,   0.00000
-14175944.36187,-71664937.32298,36007739.98149,   0.00008,  -0.00030,   0.00047,90612220.43187,   0.00000,274640135.82653,   0.00000,   0.00000,   0.00000,-384027915.39466,   0.00000
-13811380.01627,-70851678.39816,36176000.44869,   0.00008,  -0.00030,   0.00047,90323109.55694,   0.00000,274640135.82653,   0.00000,   0.00000,   0.00000,-384317026.26959,   0.00000
-13446815.67066,-70038419.47334,36344260.91590,   0.00008,  -0.00029,   0.00047,90039542.65794,   0.00000,274640135.82653,   0.00000,   0.00000,   0.00000,-384600593.16859,   0.00000
-13073838.30169,-69205530.16069,36512521.38310,   0.00008,  -0.00029,   0.00047,89749882.42394,   0.00000,274640135.82653,   0.00000,   0.00000,   0.00000,-384890253.40259,   0.00000
-12692447.90936,-68353010.46019,36675173.16806,   0.00008,  -0.00029,   0.00048,89447583.69521,   0.00000,274640135.82653,   0.00000,   0.00000,   0.00000,-385192552.13132,   0.00000
-12330687.90488,-67508903.78306,36837824.95303,   0.00008,  -0.00028,   0.00048,89152357.07853,   0.00000,274640135.82653,   0.00000,   0.00000,   0.00000,-385487778.74800,   0.00000
-11960514.87703,-66645166.71808,37000476.73799,   0.00008,  -0.00028,   0.00048,88851716.31154,   0.00000,274640135.82653,   0.00000,   0.00000,   0.00000,-385788419.51499,   0.00000
-11570711.46134,-65773016.62974,37157519.84071,   0.00008,  -0.00028,   0.00048,88549276.25380,   0.00000,274640135.82653,   0.00000,   0.00000,   0.00000,-386090859.57273,   0.00000
-11192125.41013,-64889649.17693,37320171.62568,   0.00008,  -0.00027,   0.00049,88250001.58982,   0.00000,274640135.82653,   0.00000,   0.00000,   0.00000,-386390134.23671,   0.00000
-10813539.35893,-64006281.72411,37471606.04616,   0.00008,  -0.00027,   0.00049,87942970.53208,   0.00000,274640135.82653,   0.00000,   0.00000,   0.00000,-386697165.29445,   0.00000
-10446170.67220,-63111696.90681,37628649.14888,   0.00008,  -0.00027,   0.00049,87639482.66152,   0.00000,274640135.82653,   0.00000,   0.00000,   0.00000,-387000653.16501,   0.00000
-10050758.57427,-62189068.67831,37780083.56937,   0.00008,  -0.00026,   0.00049,87323850.34614,   0.00000,274640135.82653,   0.00000,   0.00000,   0.00000,-387316285.48039,   0.00000
-9655346.47635,-61266440.44982,37931517.98985,   0.00008,  -0.00026,   0.00049,87015250.97416,   0.00000,274640135.82653,   0.00000,   0.00000,   0.00000,-387624884.85237,   0.00000
-9279564.76626,-60352225.24468,38082952.41033,   0.00008,  -0.00026,   0.00050,86714432.61737,   0.00000,274640135.82653,   0.00000,   0.00000,   0.00000,-387925703.20916,   0.00000
-8867326.62161,-59390336.24050,38228778.14857,   0.00008,  -0.00025,   0.00050,86391703.57599,   0.00000,274640135.82653,   0.00000,   0.00000,   0.00000,-388248432.25054,   0.00000
-8483131.88816,-58456490.64752,38380212.56906,   0.00008,  -0.00025,   0.00050,86095022.24932,   0.00000,274640135.82653,   0.00000,   0.00000,   0.00000,-388545113.57720,   0.00000
-8082111.10800,-57483384.27886,38520429.62506,   0.00008,  -0.00025,   0.00050,85770294.30406,   0.00000,274640135.82653,   0.00000,   0.00000,   0.00000,-388869841.52247,   0.00000
-7689503.35119,-56529908.29805,38666255.36330,   0.00008,  -0.00024,   0.00050,85471106.14783,   0.00000,274640135.82653,   0.00000,   0.00000,   0.00000,-389169029.67870,   0.00000
-7280069.54766,-55537171.54155,38806472.41931,   0.00008,  -0.00024,   0.00050,85152153.63713,   0.00000,274640135.82653,   0.00000,   0.00000,   0.00000,-389487982.18940,   0.00000
-6890266.13197,-54552847.80841,38946689.47531,   0.00008,  -0.00023,   0.00051,84841848.13509,   0.00000,274640135.82653,   0.00000,   0.00000,   0.00000,-389798287.69144,   0.00000
-6480832.32844,-53560111.05191,39081297.84907,   0.00007,  -0.00023,   0.00051,84531746.16110,   0.00000,274640135.82653,   0.00000,   0.00000,   0.00000,-390108389.66543,   0.00000
-6082615.88940,-52556156.93093,39215906.22283,   0.00007,  -0.00023,   0.00051,84220726.87176,   0.00000,274640135.82653,   0.00000,   0.00000,   0.00000,-390419408.95477,   0.00000
-5656356.03915,-51524159.39875,39350514.59660,   0.00007,  -0.00022,   0.00051,83908780.06659,   0.00000,274640135.82653,   0.00000,   0.00000,   0.00000,-390731355.75994,   0.00000
-5249726.57674,-50500574.88993,39479514.28812,   0.00007,  -0.00022,   0.00051,83598143.69040,   0.00000,274640135.82653,   0.00000,   0.00000,   0.00000,-391041992.13613,   0.00000
-4834684.09097,-49457359.99327,39608513.97964,   0.00007,  -0.00022,   0.00051,83287436.35896,   0.00000,274640135.82653,   0.00000,   0.00000,   0.00000,-391352699.46757,   0.00000
-4411228.58184,-48394514.70877,39737513.67116,   0.00007,  -0.00021,   0.00052,82977217.97764,   0.00000,274640135.82653,   0.00000,   0.00000,   0.00000,-391662917.84889,   0.00000
-3987773.07272,-47331669.42427,39860904.68045,   0.00007,  -0.00021,   0.00052,82668715.20461,   0.00000,274640135.82653,   0.00000,   0.00000,   0.00000,-391971420.62192,   0.00000
-3583947.95143,-46277237.16313,39984295.68973,   0.00007,  -0.00020,   0.00052,82369920.83554,   0.00000,274640135.82653,   0.00000,   0.00000,   0.00000,-392270214.99099,   0.00000
-3152079.41894,-45194761.49079,40102078.01677,   0.00007,  -0.00020,   0.00052,82064453.79775,   0.00000,274640135.82653,   0.00000,   0.00000,   0.00000,-392575682.02878,   0.00000
-2731428.25093,-44101068.45397,40219860.34381,   0.00007,  -0.00020,   0.00052,81760733.44233,   0.00000,274640135.82653,   0.00000,   0.00000,   0.00000,-392879402.38420,   0.00000
-2310777.08292,-43007375.41715,40337642.67085,   0.00007,  -0.00019,   0.00052,81467599.83093,   0.00000,274640135.82653,   0.00000,   0.00000,   0.00000,-393172535.99560,   0.00000
-1862082.50372,-41885638.96912,40449816.31566,   0.00007,  -0.00019,   0.00053,81169221.42988,   0.00000,274640135.82653,   0.00000,   0.00000,   0.00000,-393470914.39665,   0.00000
-1433018.31235,-40772315.54446,40561989.96046,   0.00007,  -0.00018,   0.00053,80881597.84639,   0.00000,274640135.82653,   0.00000,   0.00000,   0.00000,-393758537.98014,   0.00000
-987128.07426,-39619731.34412,40674163.60526,   0.00007,  -0.00018,   0.00053,80590015.13509,   0.00000,274640135.82653,   0.00000,   0.00000,   0.00000,-394050120.69144,   0.00000
-569281.24737,-38495190.55498,40780728.56782,   0.00007,  -0.00017,   0.00053,80308733.36365,   0.00000,274640135.82653,   0.00000,   0.00000,   0.00000,-394331402.46288,   0.00000
-123391.00928,-37342606.35464,40881684.84814,   0.00007,  -0.00017,   0.00053,80023835.20477,   0.00000,274640135.82653,   0.00000,   0.00000,   0.00000,-394616300.62176,   0.00000
311281.86433,-36178804.78981,40988249.81071,   0.00007,  -0.00017,   0.00053,79751956.00020,   0.00000,274640135.82653,   0.00000,   0.00000,   0.00000,-394888179.82633,   0.00000
773998.14913,-34986959.81379,41083597.40879,   0.00007,  -0.00016,   0.00053,79469190.25905,   0.00000,274640135.82653,   0.00000,   0.00000,   0.00000,-395170945.56748,   0.00000
1217084.04610,-33803527.86113,41184553.68911,   0.00007,  -0.00016,   0.00054,79207347.58600,   0.00000,274640135.82653,   0.00000,   0.00000,   0.00000,-395432788.24053,   0.00000
1660169.94307,-32620095.90847,41279901.28719,   0.00007,  -0.00015,   0.00054,78949809.84731,   0.00000,274640135.82653,   0.00000,   0.00000,   0.00000,-395690325.97922,   0.00000
2111668.86340,-31417033.56796,41369640.20303,   0.00007,  -0.00015,   0.00054,78690360.95197,   0.00000,274640135.82653,   0.00000,   0.00000,   0.00000,-395949774.87456,   0.00000
2571580.80709,-30194340.83962,41464987.80112,   0.00007,  -0.00014,   0.00054,78447396.85938,   0.00000,274640135.82653,   0.00000,   0.00000,   0.00000,-396192738.96715,   0.00000
3031492.75078,-28971648.11128,41549118.03472,   0.00007,  -0.00014,   0.00054,78200775.64959,   0.00000,274640135.82653,   0.00000,   0.00000,   0.00000,-396439360.17694,   0.00000
3480187.32999,-27737738.01845,41633248.26832,   0.00007,  -0.00013,   0.00054,77961582.99291,   0.00000,274640135.82653,   0.00000,   0.00000,   0.00000,-396678552.83362,   0.00000
3956925.32040,-26475784.51443,41717378.50192,   0.00007,  -0.00013,   0.00054,77732915.37686,   0.00000,274640135.82653,   0.00000,   0.00000,   0.00000,-396907220.44967,   0.00000
4414032.92296,-25222244.03376,41801508.73552,   0.00007,  -0.00012,   0.00054,77518226.85019,   0.00000,274640135.82653,   0.00000,   0.00000,   0.00000,-397121908.97634,   0.00000
4879553.54889,-23949073.16526,41874421.60464,   0.00007,  -0.00012,   0.00054,77295733.95368,   0.00000,274640135.82653,   0.00000,   0.00000,   0.00000,-397344401.87285,   0.00000
5345074.17482,-22675902.29676,41952943.15601,   0.00007,  -0.00011,   0.00055,77098113.21308,   0.00000,274640135.82653,   0.00000,   0.00000,   0.00000,-397542022.61345,   0.00000
5819007.82411,-21383101.04041,42025856.02513,   0.00007,  -0.00011,   0.00055,76902821.91411,   0.00000,274640135.82653,   0.00000,   0.00000,   0.00000,-397737313.91242,   0.00000
6292941.47340,-20090299.78407,42093160.21201,   0.00007,  -0.00010,   0.00055,76714736.18821,   0.00000,274640135.82653,   0.00000,   0.00000,   0.00000,-397925399.63832,   0.00000
6783701.16941,-18758237.75204,42160464.39889,   0.00007,  -0.00010,   0.00055,76535316.28917,   0.00000,274640135.82653,   0.00000,   0.00000,   0.00000,-398104819.53736,   0.00000
7246417.45422,-17454219.13122,42227768.58577,   0.00007,  -0.00009,   0.00055,76375350.79306,   0.00000,274640135.82653,   0.00000,   0.00000,   0.00000,-398264785.03346,   0.00000
7725959.78575,-16110939.73471,42289464.09041,   0.00007,  -0.00009,   0.00055,76216281.89180,   0.00000,274640135.82653,   0.00000,   0.00000,   0.00000,-398423853.93473,   0.00000
8225132.50512,-14759247.31484,42345550.91281,   0.00007,  -0.00008,   0.00055,76067877.56469,   0.00000,274640135.82653,   0.00000,   0.00000,   0.00000,-398572258.26184,   0.00000
8704674.83665,-13415967.91834,42401637.73521,   0.00007,  -0.00008,   0.00055,75935748.13901,   0.00000,274640135.82653,   0.00000,   0.00000,   0.00000,-398704387.68752,   0.00000
9192630.19154,-12053058.13399,42457724.55762,   0.00007,  -0.00007,   0.00055,75819226.38852,   0.00000,274640135.82653,   0.00000,   0.00000,   0.00000,-398820909.43801,   0.00000
9688998.56979,-10670517.96180,42508202.69778,   0.00006,  -0.00007,   0.00055,75709742.89954,   0.00000,274640135.82653,   0.00000,   0.00000,   0.00000,-398930392.92699,   0.00000
10165736.56020,-9296390.81298,42553072.15570,   0.00006,  -0.00006,   0.00055,75607946.61666,   0.00000,274640135.82653,   0.00000,   0.00000,   0.00000,-399032189.20987,   0.00000
10670517.96180,-7894220.25295,42597941.61362,   0.00006,  -0.00006,   0.00055,75525942.39816,   0.00000,274640135.82653,   0.00000,   0.00000,   0.00000,-399114193.42837,   0.00000
11164081.99893,-6480832.32844,42642811.07154,   0.00006,  -0.00005,   0.00055,75460045.49650,   0.00000,274640135.82653,   0.00000,   0.00000,   0.00000,-399180090.33003,   0.00000
11677276.42390,-5059031.38058,42682071.84722,   0.00006,  -0.00005,   0.00055,75407599.50145,   0.00000,274640135.82653,   0.00000,   0.00000,   0.00000,-399232536.32507,   0.00000
12179253.48439,-3626013.06823,42715723.94066,   0.00006,  -0.00004,   0.00056,75362746.32620,   0.00000,274640135.82653,   0.00000,   0.00000,   0.00000,-399277389.50032,   0.00000
12681230.54488,-2192994.75588,42749376.03410,   0.00006,  -0.00003,   0.00056,75338968.40367,   0.00000,274640135.82653,   0.00000,   0.00000,   0.00000,-399301167.42286,   0.00000
13191620.62873,-740346.05569,42783028.12754,   0.00006,  -0.00003,   0.00056,75335886.65889,   0.00000,274640135.82653,   0.00000,   0.00000,   0.00000,-399304249.16764,   0.00000
13690793.34810,723520.00897,42811071.53874,   0.00006,  -0.00002,   0.00056,75342015.36768,   0.00000,274640135.82653,   0.00000,   0.00000,   0.00000,-399298120.45885,   0.00000
14209596.45531,2195799.09700,42833506.26770,   0.00006,  -0.00002,   0.00056,75363522.49987,   0.00000,274640135.82653,   0.00000,   0.00000,   0.00000,-399276613.32666,   0.00000
14736812.58588,3687708.57287,42855940.99666,   0.00006,  -0.00001,   0.00056,75407710.51907,   0.00000,274640135.82653,   0.00000,   0.00000,   0.00000,-399232425.30746,   0.00000
15244398.32861,5171205.02538,42872767.04338,   0.00006,  -0.00001,   0.00056,75462067.25527,   0.00000,274640135.82653,   0.00000,   0.00000,   0.00000,-399178068.57126,   0.00000
15760397.09470,6674331.86573,42889593.09010,   0.00006,  -0.00000,   0.00056,75540044.26921,   0.00000,274640135.82653,   0.00000,   0.00000,   0.00000,-399100091.55732,   0.00000
16284808.88415,8197089.09392,42900810.45458,   0.00006,   0.00001,   0.00056,75632915.14735,   0.00000,274640135.82653,   0.00000,   0.00000,   0.00000,-399007220.67918,   0.00000
16809220.67360,9719846.32211,42906419.13682,   0.00006,   0.00001,   0.00056,75739848.69190,   0.00000,274640135.82653,   0.00000,   0.00000,   0.00000,-398900287.13463,   0.00000
17342045.48641,11262233.93814,42917636.50130,   0.00006,   0.00002,   0.00056,75881782.07100,   0.00000,274640135.82653,   0.00000,   0.00000,   0.00000,-398758353.75553,   0.00000
17855239.91138,12796208.53081,42917636.50130,   0.00006,   0.00002,   0.00056,76025283.55986,   0.00000,274640135.82653,   0.00000,   0.00000,   0.00000,-398614852.26667,   0.00000
18396477.74755,14358226.53468,42917636.50130,   0.00006,   0.00003,   0.00056,76198548.78127,   0.00000,274640135.82653,   0.00000,   0.00000,   0.00000,-398441587.04526,   0.00000
18926498.21924,15931461.90303,42912027.81906,   0.00006,   0.00004,   0.00056,76386015.88318,   0.00000,274640135.82653,   0.00000,   0.00000,   0.00000,-398254119.94335,   0.00000
19456518.69093,17504697.27138,42906419.13682,   0.00005,   0.00004,   0.00056,76598123.25330,   0.00000,274640135.82653,   0.00000,   0.00000,   0.00000,-398042012.57323,   0.00000
19994952.18598,19097563.02757,42895201.77234,   0.00005,   0.00005,   0.00056,76828739.23329,   0.00000,274640135.82653,   0.00000,   0.00000,   0.00000,-397811396.59324,   0.00000
20533385.68103,20690428.78376,42883984.40786,   0.00005,   0.00005,   0.00056,77084223.89011,   0.00000,274640135.82653,   0.00000,   0.00000,   0.00000,-397555911.93642,   0.00000
21080232.19944,22302924.92779,42867158.36114,   0.00005,   0.00006,   0.00056,77359069.35577,   0.00000,274640135.82653,   0.00000,   0.00000,   0.00000,-397281066.47076,   0.00000
21635491.74122,23935051.45966,42850332.31442,   0.00005,   0.00007,   0.00056,77663295.84462,   0.00000,274640135.82653,   0.00000,   0.00000,   0.00000,-396976839.98191,   0.00000
22171120.89515,25558764.96817,42827897.58546,   0.00005,   0.00007,   0.00056,77979670.65318,   0.00000,274640135.82653,   0.00000,   0.00000,   0.00000,-396660465.17335,   0.00000
22715163.07244,27202108.86452,42799854.17426,   0.00005,   0.00008,   0.00056,78316764.31855,   0.00000,274640135.82653,   0.00000,   0.00000,   0.00000,-396323371.50798,   0.00000
23287248.66093,28873496.17207,42771810.76306,   0.00005,   0.00009,   0.00056,78688460.61640,   0.00000,274640135.82653,   0.00000,   0.00000,   0.00000,-395951675.21013,   0.00000
23839703.86158,30536470.45627,42738158.66962,   0.00005,   0.00009,   0.00056,79072610.39632,   0.00000,274640135.82653,   0.00000,   0.00000,   0.00000,-395567525.43021,   0.00000
24380941.69775,32210662.10494,42698897.89394,   0.00005,   0.00010,   0.00056,79474640.23544,   0.00000,274640135.82653,   0.00000,   0.00000,   0.00000,-395165495.59109,   0.00000
24941809.92176,33893266.77697,42659637.11826,   0.00005,   0.00011,   0.00055,79906332.13078,   0.00000,274640135.82653,   0.00000,   0.00000,   0.00000,-394733803.69575,   0.00000
25511091.16913,35595501.83684,42620376.34258,   0.00005,   0.00011,   0.00055,80369551.88275,   0.00000,274640135.82653,   0.00000,   0.00000,   0.00000,-394270583.94377,   0.00000
26069155.05202,37308954.26120,42569898.20242,   0.00005,   0.00012,   0.00055,80842653.95581,   0.00000,274640135.82653,   0.00000,   0.00000,   0.00000,-393797481.87072,   0.00000
26627218.93491,39022406.68555,42519420.06226,   0.00005,   0.00013,   0.00055,81341269.30930,   0.00000,274640135.82653,   0.00000,   0.00000,   0.00000,-393298866.51723,   0.00000
27213326.22900,40763902.52110,42468941.92210,   0.00004,   0.00013,   0.00055,81876569.17256,   0.00000,274640135.82653,   0.00000,   0.00000,   0.00000,-392763566.65397,   0.00000
27779803.13525,42496985.33330,42412855.09969,   0.00004,   0.00014,   0.00055,82423929.60405,   0.00000,274640135.82653,   0.00000,   0.00000,   0.00000,-392216206.22248,   0.00000
28335062.67702,44241285.50997,42351159.59505,   0.00004,   0.00015,   0.00055,82990660.19611,   0.00000,274640135.82653,   0.00000,   0.00000,   0.00000,-391649475.63042,   0.00000
28909952.60664,45993998.71000,42289464.09041,   0.00004,   0.00015,   0.00055,83586752.97749,   0.00000,274640135.82653,   0.00000,   0.00000,   0.00000,-391053382.84904,   0.00000
29501668.58297,47785972.68572,42222159.90353,   0.00004,   0.00016,   0.00055,84215284.04256,   0.00000,274640135.82653,   0.00000,   0.00000,   0.00000,-390424851.78397,   0.00000
30065341.14810,49549903.25023,42149247.03441,   0.00004,   0.00017,   0.00055,84847274.45292,   0.00000,274640135.82653,   0.00000,   0.00000,   0.00000,-389792861.37361,   0.00000
30645839.75995,51353094.59043,42076334.16529,   0.00004,   0.00017,   0.00055,85520774.09014,   0.00000,274640135.82653,   0.00000,   0.00000,   0.00000,-389119361.73639,   0.00000
31226338.37180,53156285.93062,41997812.61393,   0.00004,   0.00018,   0.00055,86210484.07273,   0.00000,274640135.82653,   0.00000,   0.00000,   0.00000,-388429651.75380,   0.00000
31806836.98365,54959477.27082,41919291.06256,   0.00004,   0.00019,   0.00054,86924178.31703,   0.00000,274640135.82653,   0.00000,   0.00000,   0.00000,-387715957.50950,   0.00000
32395748.61886,56782298.99885,41835160.82896,   0.00004,   0.00020,   0.00054,87662711.39178,   0.00000,274640135.82653,   0.00000,   0.00000,   0.00000,-386977424.43475,   0.00000
32973442.88959,58616338.09137,41745421.91312,   0.00004,   0.00020,   0.00054,88421611.06254,   0.00000,274640135.82653,   0.00000,   0.00000,   0.00000,-386218524.76399,   0.00000
33579180.57152,60478420.59508,41650074.31504,   0.00003,   0.00021,   0.00054,89210823.28413,   0.00000,274640135.82653,   0.00000,   0.00000,   0.00000,-385429312.54240,   0.00000
34165287.86562,62332090.07544,41554726.71696,   0.00003,   0.00022,   0.00054,90018600.77219,   0.00000,274640135.82653,   0.00000,   0.00000,   0.00000,-384621535.05434,   0.00000
34751395.15971,64185759.55579,41459379.11888,   0.00003,   0.00022,   0.00054,90849143.37581,   0.00000,274640135.82653,   0.00000,   0.00000,   0.00000,-383790992.45072,   0.00000
35345915.47716,66059059.42399,41352814.15631,   0.00003,   0.00023,   0.00054,91697223.82897,   0.00000,274640135.82653,   0.00000,   0.00000,   0.00000,-382942911.99756,   0.00000
35948848.81797,67951989.68002,41246249.19375,   0.00003,   0.00024,   0.00054,92578377.85673,   0.00000,274640135.82653,   0.00000,   0.00000,   0.00000,-382061757.96980,   0.00000
36551782.15878,69844919.93606,41139684.23119,   0.00003,   0.00025,   0.00053,93481603.41684,   0.00000,274640135.82653,   0.00000,   0.00000,   0.00000,-381158532.40969,   0.00000
37143498.13511,71749067.55658,41027510.58639,   0.00003,   0.00025,   0.00053,94405119.91792,   0.00000,274640135.82653,   0.00000,   0.00000,   0.00000,-380235015.90861,   0.00000
37743627.13480,73672845.56493,40909728.25935,   0.00003,   0.00026,   0.00053,95354112.38496,   0.00000,274640135.82653,   0.00000,   0.00000,   0.00000,-379286023.44157,   0.00000
38363386.52234,75605036.59665,40786337.25006,   0.00003,   0.00027,   0.00053,96322280.19040,   0.00000,274640135.82653,   0.00000,   0.00000,   0.00000,-378317855.63613,   0.00000
38971928.54539,77548444.99285,40662946.24078,   0.00003,   0.00028,   0.00053,97317961.69891,   0.00000,274640135.82653,   0.00000,   0.00000,   0.00000,-377322174.12762,   0.00000
39560840.18060,79483440.36569,40533946.54926,   0.00003,   0.00028,   0.00053,98322165.12783,   0.00000,274640135.82653,   0.00000,   0.00000,   0.00000,-376317970.69870,   0.00000
40177795.22701,81446479.14972,40399338.17550,   0.00002,   0.00029,   0.00053,99356750.19346,   0.00000,274640135.82653,   0.00000,   0.00000,   0.00000,-375283385.63307,   0.00000
40794750.27342,83409517.93376,40264729.80173,   0.00002,   0.00030,   0.00052,100411325.43343,   0.00000,274640135.82653,   0.00000,   0.00000,   0.00000,-374228810.39310,   0.00000
41400487.95535,85383774.08228,40124512.74573,   0.00002,   0.00031,   0.00052,101485905.12109,   0.00000,274640135.82653,   0.00000,   0.00000,   0.00000,-373154230.70544,   0.00000
42014638.66065,87377660.61864,39984295.68973,   0.00002,   0.00032,   0.00052,102592281.89526,   0.00000,274640135.82653,   0.00000,   0.00000,   0.00000,-372047853.93127,   0.00000
42628789.36594,89371547.15500,39838469.95148,   0.00002,   0.00032,   0.00052,103711124.42227,   0.00000,274640135.82653,   0.00000,   0.00000,   0.00000,-370929011.40426,   0.00000
43251353.09459,91385064.07919,39687035.53100,   0.00002,   0.00033,   0.00052,104854967.33549,   0.00000,274640135.82653,   0.00000,   0.00000,   0.00000,-369785168.49104,   0.00000
43854286.43540,93390167.98003,39529992.42828,   0.00002,   0.00034,   0.00051,106005771.73621,   0.00000,274640135.82653,   0.00000,   0.00000,   0.00000,-368634364.09032,   0.00000
44485263.18741,95423315.29207,39372949.32556,   0.00002,   0.00035,   0.00051,107192834.94235,   0.00000,274640135.82653,   0.00000,   0.00000,   0.00000,-367447300.88418,   0.00000
45096609.55159,97448049.58075,39210297.54059,   0.00002,   0.00036,   0.00051,108386310.09634,   0.00000,274640135.82653,   0.00000,   0.00000,   0.00000,-366253825.73019,   0.00000
45724781.96248,99512044.64511,39047645.75563,   0.00001,   0.00036,   0.00051,109623866.41649,   0.00000,274640135.82653,   0.00000,   0.00000,   0.00000,-365016269.41004,   0.00000
46344541.35001,101556409.32163,38873776.60619,   0.00001,   0.00037,   0.00051,110853268.32784,   0.00000,274640135.82653,   0.00000,   0.00000,   0.00000,-363786867.49869,   0.00000
46972713.76090,103620404.38599,38699907.45674,   0.00001,   0.00038,   0.00050,112113072.20681,   0.00000,274640135.82653,   0.00000,   0.00000,   0.00000,-362527063.61972,   0.00000
47609299.19515,105704029.83819,38526038.30730,   0.00001,   0.00039,   0.00050,113403083.70654,   0.00000,274640135.82653,   0.00000,   0.00000,   0.00000,-361237052.11999,   0.00000
48226254.24157,107779242.26703,38346560.47562,   0.00001,   0.00040,   0.00050,114698402.88001,   0.00000,274640135.82653,   0.00000,   0.00000,   0.00000,-359941732.94652,   0.00000
48871252.69918,109882498.10707,38161473.96169,   0.00001,   0.00040,   0.00050,116023108.40180,   0.00000,274640135.82653,   0.00000,   0.00000,   0.00000,-358617027.42473,   0.00000
49505033.79231,111996971.31159,37970778.76553,   0.00001,   0.00041,   0.00049,117366929.85894,   0.00000,274640135.82653,   0.00000,   0.00000,   0.00000,-357273205.96759,   0.00000
50138814.88544,114111444.51611,37780083.56937,   0.00001,   0.00042,   0.00049,118726214.78970,   0.00000,274640135.82653,   0.00000,   0.00000,   0.00000,-355913921.03682,   0.00000
50752965.59073,116217504.69727,37583779.69096,   0.00000,   0.00043,   0.00049,120090009.51349,   0.00000,274640135.82653,   0.00000,   0.00000,   0.00000,-354550126.31304,   0.00000
51403572.73059,118371238.67747,37381867.13032,   0.00000,   0.00044,   0.00049,121497262.64154,   0.00000,274640135.82653,   0.00000,   0.00000,   0.00000,-353142873.18499,   0.00000
52026136.45924,120496929.24647,37179954.56967,   0.00000,   0.00045,   0.00048,122899496.39530,   0.00000,274640135.82653,   0.00000,   0.00000,   0.00000,-351740639.43123,   0.00000
52676743.59909,122650663.22667,36972433.32679,   0.00000,   0.00046,   0.00048,124330484.77911,   0.00000,274640135.82653,   0.00000,   0.00000,   0.00000,-350309651.04742,   0.00000
53316133.37446,124815614.57136,36759303.40167,  -0.00000,   0.00046,   0.00048,125779970.28484,   0.00000,274640135.82653,   0.00000,   0.00000,   0.00000,-348860165.54169,   0.00000
53944305.78536,126991783.28052,36540564.79430,  -0.00000,   0.00047,   0.00048,127248010.53210,   0.00000,274640135.82653,   0.00000,   0.00000,   0.00000,-347392125.29443,   0.00000
54592108.58409,129176365.01304,36321826.18694,  -0.00000,   0.00048,   0.00047,128734791.82028,   0.00000,274640135.82653,   0.00000,   0.00000,   0.00000,-345905344.00625,   0.00000
55239911.38282,131360946.74556,36103087.57957,  -0.00000,   0.00049,   0.00047,130234703.05728,   0.00000,274640135.82653,   0.00000,   0.00000,   0.00000,-344405432.76925,   0.00000
55876496.81707,133556745.84256,35873131.60773,  -0.00001,   0.00050,   0.00047,131748050.78888,   0.00000,274640135.82653,   0.00000,   0.00000,   0.00000,-342892085.03765,   0.00000
56513082.25133,135752544.93957,35643175.63588,  -0.00001,   0.00051,   0.00046,133274135.12512,   0.00000,274640135.82653,   0.00000,   0.00000,   0.00000,-341366000.70141,   0.00000
57158080.70894,137967974.42441,35407610.98180,  -0.00001,   0.00052,   0.00046,134823292.81701,   0.00000,274640135.82653,   0.00000,   0.00000,   0.00000,-339816843.00952,   0.00000
57811492.18991,140203034.29709,35172046.32772,  -0.00001,   0.00053,   0.00046,136399895.02087,   0.00000,274640135.82653,   0.00000,   0.00000,   0.00000,-338240240.80566,   0.00000
58445273.28304,142429681.14641,34925264.30915,  -0.00001,   0.00053,   0.00045,137974797.20432,   0.00000,274640135.82653,   0.00000,   0.00000,   0.00000,-336665338.62221,   0.00000
59107097.78737,144684371.40694,34678482.29059,  -0.00001,   0.00054,   0.00045,139581999.02261,   0.00000,274640135.82653,   0.00000,   0.00000,   0.00000,-335058136.80392,   0.00000
59749291.90387,146930648.64410,34431700.27202,  -0.00001,   0.00055,   0.00045,141195669.65525,   0.00000,274640135.82653,   0.00000,   0.00000,   0.00000,-333444466.17127,   0.00000
60399899.04372,149196556.26910,34179309.57122,  -0.00002,   0.00056,   0.00044,142831995.29175,   0.00000,274640135.82653,   0.00000,   0.00000,   0.00000,-331808140.53478,   0.00000
61050506.18357,151462463.89411,33921310.18817,  -0.00002,   0.00057,   0.00044,144475423.65484,   0.00000,274640135.82653,   0.00000,   0.00000,   0.00000,-330164712.17169,   0.00000
61689895.95894,153739588.88359,33657702.12289,  -0.00002,   0.00058,   0.00044,146136401.85491,   0.00000,274640135.82653,   0.00000,   0.00000,   0.00000,-328503733.97162,   0.00000
62348916.12216,156025126.89644,33394094.05760,  -0.00002,   0.00059,   0.00043,147813147.48230,   0.00000,274640135.82653,   0.00000,   0.00000,   0.00000,-326826988.34422,   0.00000
62996718.92089,158321882.27376,33124877.31008,  -0.00002,   0.00060,   0.00043,149507251.91542,   0.00000,274640135.82653,   0.00000,   0.00000,   0.00000,-325132883.91111,   0.00000
63644521.71962,160618637.65108,32850051.88031,  -0.00002,   0.00061,   0.00043,151207980.14280,   0.00000,274640135.82653,   0.00000,   0.00000,   0.00000,-323432155.68373,   0.00000
64300737.54171,162935023.41625,32569617.76831,  -0.00003,   0.00062,   0.00042,152931045.02272,   0.00000,274640135.82653,   0.00000,   0.00000,   0.00000,-321709090.80381,   0.00000
64956953.36381,165251409.18141,32289183.65630,  -0.00003,   0.00063,   0.00042,154664087.91578,   0.00000,274640135.82653,   0.00000,   0.00000,   0.00000,-319976047.91075,   0.00000
65601951.82142,167579012.31106,32003140.86205,  -0.00003,   0.00063,   0.00042,156414303.16032,   0.00000,274640135.82653,   0.00000,   0.00000,   0.00000,-318225832.66621,   0.00000
66266580.66687,169915028.46406,31717098.06781,  -0.00003,   0.00064,   0.00041,158179049.18327,   0.00000,274640135.82653,   0.00000,   0.00000,   0.00000,-316461086.64326,   0.00000
66919992.14784,172262261.98155,31425446.59132,  -0.00003,   0.00065,   0.00041,159960804.92822,   0.00000,274640135.82653,   0.00000,   0.00000,   0.00000,-314679330.89831,   0.00000
67581816.65218,174629125.88687,31128186.43260,  -0.00003,   0.00066,   0.00040,161764557.16242,   0.00000,274640135.82653,   0.00000,   0.00000,   0.00000,-312875578.66411,   0.00000
68215597.74531,176967946.38100,30830926.27387,  -0.00003,   0.00067,   0.00040,163556368.33408,   0.00000,274640135.82653,   0.00000,   0.00000,   0.00000,-311083767.49245,   0.00000
68885835.27300,179354440.67416,30522448.75067,  -0.00004,   0.00068,   0.00040,165387886.09886,   0.00000,274640135.82653,   0.00000,   0.00000,   0.00000,-309252249.72767,   0.00000
69536442.41286,181732521.94397,30213971.22746,  -0.00004,   0.00069,   0.00039,167223340.11989,   0.00000,274640135.82653,   0.00000,   0.00000,   0.00000,-307416795.70664,   0.00000
70187049.55271,184110603.21377,29905493.70425,  -0.00004,   0.00070,   0.00039,169067358.67930,   0.00000,274640135.82653,   0.00000,   0.00000,   0.00000,-305572777.14723,   0.00000
70846069.71592,186508314.87142,29591407.49881,  -0.00004,   0.00071,   0.00038,170932999.22973,   0.00000,274640135.82653,   0.00000,   0.00000,   0.00000,-303707136.59680,   0.00000
71505089.87913,188906026.52907,29271712.61112,  -0.00004,   0.00072,   0.00038,172803998.24517,   0.00000,274640135.82653,   0.00000,   0.00000,   0.00000,-301836137.58136,   0.00000
72152892.67787,191314955.55119,28946409.04120,  -0.00004,   0.00073,   0.00038,174691752.73299,   0.00000,274640135.82653,   0.00000,   0.00000,   0.00000,-299948383.09354,   0.00000
72820325.86444,193732297.59668,28621105.47127,  -0.00005,   0.00074,   0.00037,176592346.90333,   0.00000,274640135.82653,   0.00000,   0.00000,   0.00000,-298047788.92320,   0.00000
73476541.68653,196160857.00665,28290193.21910,  -0.00005,   0.00075,   0.00037,178509573.16010,   0.00000,274640135.82653,   0.00000,   0.00000,   0.00000,-296130562.66643,   0.00000
74132757.50862,198589416.41661,27953672.28470,  -0.00005,   0.00076,   0.00036,180431882.93684,   0.00000,274640135.82653,   0.00000,   0.00000,   0.00000,-294208252.88969,   0.00000
74769342.94288,201009562.80322,27617151.35029,  -0.00005,   0.00077,   0.00036,182356977.36180,   0.00000,274640135.82653,   0.00000,   0.00000,   0.00000,-292283158.46472,   0.00000
75433971.78833,203457752.60103,27275021.73364,  -0.00005,   0.00078,   0.00035,184308152.98058,   0.00000,274640135.82653,   0.00000,   0.00000,   0.00000,-290331982.84595,   0.00000
76087383.26930,205917159.76331,26927283.43476,  -0.00006,   0.00079,   0.00035,186275882.76707,   0.00000,274640135.82653,   0.00000,   0.00000,   0.00000,-288364253.05946,   0.00000
76740794.75027,208376566.92560,26579545.13587,  -0.00006,   0.00080,   0.00035,188250834.07063,   0.00000,274640135.82653,   0.00000,   0.00000,   0.00000,-286389301.75590,   0.00000
77394206.23125,210835974.08789,26226198.15474,  -0.00006,   0.00081,   0.00034,190230462.01170,   0.00000,274640135.82653,   0.00000,   0.00000,   0.00000,-284409673.81483,   0.00000
78056030.73558,213315011.63802,25867242.49138,  -0.00006,   0.00082,   0.00034,192231261.04218,   0.00000,274640135.82653,   0.00000,   0.00000,   0.00000,-282408874.78435,   0.00000
78706637.87543,215805266.55262,25508286.82801,  -0.00006,   0.00083,   0.00033,194250763.29846,   0.00000,274640135.82653,   0.00000,   0.00000,   0.00000,-280389372.52807,   0.00000
79348831.99192,218275891.07939,25143722.48240,  -0.00006,   0.00084,   0.00033,196258210.26560,   0.00000,274640135.82653,   0.00000,   0.00000,   0.00000,-278381925.56093,   0.00000
80027482.54298,220794189.40520,24773549.45456,  -0.00007,   0.00085,   0.00032,198307980.56756,   0.00000,274640135.82653,   0.00000,   0.00000,   0.00000,-276332155.25897,   0.00000
80658459.29499,223276031.29645,24403376.42671,  -0.00007,   0.00086,   0.00032,200338331.00167,   0.00000,274640135.82653,   0.00000,   0.00000,   0.00000,-274301804.82486,   0.00000
81317479.45820,225785916.59890,24027594.71662,  -0.00007,   0.00087,   0.00031,202394285.71097,   0.00000,274640135.82653,   0.00000,   0.00000,   0.00000,-272245850.11556,   0.00000
81965282.25693,228307019.26582,23646204.32429,  -0.00007,   0.00088,   0.00031,204466579.67252,   0.00000,274640135.82653,   0.00000,   0.00000,   0.00000,-270173556.15401,   0.00000
82632715.44351,230836534.95611,23264813.93197,  -0.00007,   0.00089,   0.00030,206549695.05421,   0.00000,274640135.82653,   0.00000,   0.00000,   0.00000,-268090440.77232,   0.00000
83280518.24224,233357637.62304,22877814.85740,  -0.00008,   0.00090,   0.00030,208632380.02913,   0.00000,274640135.82653,   0.00000,   0.00000,   0.00000,-266007755.79740,   0.00000
83917103.67649,235889957.65445,22490815.78283,  -0.00008,   0.00091,   0.00029,210733150.60206,   0.00000,274640135.82653,   0.00000,   0.00000,   0.00000,-263906985.22447,   0.00000
84573319.49858,238430690.70922,22092599.34378,  -0.00008,   0.00092,   0.00029,212840819.62058,   0.00000,274640135.82653,   0.00000,   0.00000,   0.00000,-261799316.20595,   0.00000
85218317.95620,240982641.12847,21699991.58698,  -0.00008,   0.00093,   0.00028,214968203.72220,   0.00000,274640135.82653,   0.00000,   0.00000,   0.00000,-259671932.10433,   0.00000
85863316.41381,243534591.54772,21296166.46569,  -0.00008,   0.00094,   0.00028,217097901.44662,   0.00000,274640135.82653,   0.00000,   0.00000,   0.00000,-257542234.37991,   0.00000
86508314.87142,246086541.96696,20892341.34440,  -0.00009,   0.00095,   0.00027,219233237.44726,   0.00000,274640135.82653,   0.00000,   0.00000,   0.00000,-255406898.37927,   0.00000
87161726.35239,248658122.77405,20482907.54087,  -0.00009,   0.00096,   0.00027,221389263.09489,   0.00000,274640135.82653,   0.00000,   0.00000,   0.00000,-253250872.73164,   0.00000
87795507.44553,251221290.55778,20073473.73735,  -0.00009,   0.00097,   0.00026,223546237.53297,   0.00000,274640135.82653,   0.00000,   0.00000,   0.00000,-251093898.29356,   0.00000
88457331.94986,253812501.75271,19658431.25158,  -0.00009,   0.00098,   0.00026,225728311.60250,   0.00000,274640135.82653,   0.00000,   0.00000,   0.00000,-248911824.22403,   0.00000
89099526.06635,256395299.92428,19237780.08357,  -0.00009,   0.00099,   0.00025,227909745.74873,   0.00000,274640135.82653,   0.00000,   0.00000,   0.00000,-246730390.07780,   0.00000
89750133.20620,258997728.48369,18817128.91556,  -0.00010,   0.00100,   0.00024,230113194.23406,   0.00000,274640135.82653,   0.00000,   0.00000,   0.00000,-244526941.59247,   0.00000
90372696.93486,261572113.63190,18390869.06531,  -0.00010,   0.00101,   0.00024,232299138.66437,   0.00000,274640135.82653,   0.00000,   0.00000,   0.00000,-242340997.16216,   0.00000
91003673.68687,264166129.16795,17959000.53282,  -0.00010,   0.00102,   0.00023,234505653.03757,   0.00000,274640135.82653,   0.00000,   0.00000,   0.00000,-240134482.78896,   0.00000
91662693.85008,266788188.11520,17527132.00034,  -0.00010,   0.00104,   0.00023,236738386.87483,   0.00000,274640135.82653,   0.00000,   0.00000,   0.00000,-237901748.95170,   0.00000
92302083.62545,269401834.03909,17089654.78561,  -0.00011,   0.00105,   0.00022,238970377.06162,   0.00000,274640135.82653,   0.00000,   0.00000,   0.00000,-235669758.76491,   0.00000
92921843.01298,272007066.93962,16652177.57088,  -0.00011,   0.00106,   0.00022,241202820.16385,   0.00000,274640135.82653,   0.00000,   0.00000,   0.00000,-233437315.66268,   0.00000
93569645.81172,274640343.25135,16209091.67391,  -0.00011,   0.00107,   0.00021,243460060.53066,   0.00000,274640135.82653,   0.00000,   0.00000,   0.00000,-231180075.29587,   0.00000
94197818.22261,277265206.53972,15760397.09470,  -0.00011,   0.00108,   0.00020,245716536.96909,   0.00000,274640135.82653,   0.00000,   0.00000,   0.00000,-228923598.85744,   0.00000
94825990.63350,279890069.82809,15311702.51549,  -0.00011,   0.00109,   0.00020,247977642.64111,   0.00000,274640135.82653,   0.00000,   0.00000,   0.00000,-226662493.18542,   0.00000
95462576.06775,282534563.50430,14857399.25405,  -0.00012,   0.00110,   0.00019,250259131.06527,   0.00000,274640135.82653,   0.00000,   0.00000,   0.00000,-224381004.76126,   0.00000
96079531.11416,285170644.15716,14397487.31036,  -0.00012,   0.00111,   0.00019,252539845.83138,   0.00000,274640135.82653,   0.00000,   0.00000,   0.00000,-222100289.99515,   0.00000
96716116.54842,287815137.83337,13937575.36667,  -0.00012,   0.00112,   0.00018,254829288.68649,   0.00000,274640135.82653,   0.00000,   0.00000,   0.00000,-219810847.14004,   0.00000
97341484.61819,290470848.87406,13477663.42298,  -0.00012,   0.00113,   0.00018,257135678.65936,   0.00000,274640135.82653,   0.00000,   0.00000,   0.00000,-217504457.16717,   0.00000
97966852.68796,293126559.91475,13006534.11481,  -0.00013,   0.00114,   0.00017,259444613.79643,   0.00000,274640135.82653,   0.00000,   0.00000,   0.00000,-215195522.03009,   0.00000
98592220.75773,295782270.95544,12541013.48888,  -0.00013,   0.00115,   0.00016,261758625.28142,   0.00000,274640135.82653,   0.00000,   0.00000,   0.00000,-212881510.54511,   0.00000
99206371.46302,298449199.36061,12064275.49847,  -0.00013,   0.00116,   0.00016,264087877.10372,   0.00000,274640135.82653,   0.00000,   0.00000,   0.00000,-210552258.72281,   0.00000
99820522.16832,301116127.76578,11587537.50806,  -0.00013,   0.00118,   0.00015,266421288.59428,   0.00000,274640135.82653,   0.00000,   0.00000,   0.00000,-208218847.23225,   0.00000
100434672.87361,303783056.17095,11110799.51765,  -0.00014,   0.00119,   0.00014,268758751.40818,   0.00000,274640135.82653,   0.00000,   0.00000,   0.00000,-205881384.41835,   0.00000
101057236.60226,306469614.96396,10628452.84500,  -0.00014,   0.00120,   0.00014,271116413.38116,   0.00000,274640135.82653,   0.00000,   0.00000,   0.00000,-203523722.44537,   0.00000
101679800.33091,309156173.75698,10140497.49011,  -0.00014,   0.00121,   0.00013,273477371.30657,   0.00000,274640135.82653,   0.00000,   0.00000,   0.00000,-201162764.51996,   0.00000
102282733.67172,311834319.52663,9652542.13523,  -0.00014,   0.00122,   0.00013,275838083.84117,   0.00000,274640135.82653,   0.00000,   0.00000,   0.00000,-198802051.98536,   0.00000
102894080.03590,314532095.68412,9158978.09810,  -0.00015,   0.00123,   0.00012,278218980.18306,   0.00000,274640135.82653,   0.00000,   0.00000,   0.00000,-196421155.64347,   0.00000
103505426.40007,317229871.84161,8659805.37873,  -0.00015,   0.00124,   0.00011,280603151.12039,   0.00000,274640135.82653,   0.00000,   0.00000,   0.00000,-194036984.70614,   0.00000
104116772.76424,319927647.99910,8166241.34160,  -0.00015,   0.00125,   0.00011,282991573.35565,   0.00000,274640135.82653,   0.00000,   0.00000,   0.00000,-191648562.47088,   0.00000
104708488.74057,322617011.13323,7661459.93999,  -0.00015,   0.00126,   0.00010,285378621.68416,   0.00000,274640135.82653,   0.00000,   0.00000,   0.00000,-189261514.14237,   0.00000
105308617.74026,325326004.65521,7156678.53838,  -0.00016,   0.00127,   0.00009,287786268.87534,   0.00000,274640135.82653,   0.00000,   0.00000,   0.00000,-186853866.95119,   0.00000
105908746.73995,328034998.17718,6646288.45453,  -0.00016,   0.00129,   0.00009,290197116.75343,   0.00000,274640135.82653,   0.00000,   0.00000,   0.00000,-184443019.07310,   0.00000
106508875.73964,330743991.69915,6135898.37068,  -0.00016,   0.00130,   0.00008,292611526.92493,   0.00000,274640135.82653,   0.00000,   0.00000,   0.00000,-182028608.90160,   0.00000
107097787.37486,333464202.58560,5625508.28683,  -0.00016,   0.00131,   0.00007,295042321.08540,   0.00000,274640135.82653,   0.00000,   0.00000,   0.00000,-179597814.74113,   0.00000
107686699.01007,336184413.47205,5109509.52074,  -0.00017,   0.00132,   0.00007,297476245.30779,   0.00000,274640135.82653,   0.00000,   0.00000,   0.00000,-177163890.51874,   0.00000
108275610.64528,338904624.35851,4587902.07241,  -0.00017,   0.00133,   0.00006,299913310.23404,   0.00000,274640135.82653,   0.00000,   0.00000,   0.00000,-174726825.59249,   0.00000
108864522.28049,341624835.24496,4066294.62408,  -0.00017,   0.00134,   0.00005,302353753.13583,   0.00000,274640135.82653,   0.00000,   0.00000,   0.00000,-172286382.69070,   0.00000
109453433.91570,344345046.13141,3539078.49351,  -0.00017,   0.00135,   0.00005,304797297.34692,   0.00000,274640135.82653,   0.00000,   0.00000,   0.00000,-169842838.47961,   0.00000
110031128.18643,347076474.38234,3011862.36294,  -0.00018,   0.00136,   0.00004,307257101.04256,   0.00000,274640135.82653,   0.00000,   0.00000,   0.00000,-167383034.78397,   0.00000
110608822.45716,349807902.63328,2479037.55013,  -0.00018,   0.00138,   0.00003,309719997.79656,   0.00000,274640135.82653,   0.00000,   0.00000,   0.00000,-164920138.02997,   0.00000
111194929.75125,352558961.27205,1946212.73732,  -0.00018,   0.00139,   0.00003,312203023.48928,   0.00000,274640135.82653,   0.00000,   0.00000,   0.00000,-162437112.33725,   0.00000
111772624.02199,355290389.52298,1407779.24227,  -0.00018,   0.00140,   0.00002,314672189.37898,   0.00000,274640135.82653,   0.00000,   0.00000,   0.00000,-159967946.44755,   0.00000
112339100.92824,358033035.13839,869345.74722,  -0.00019,   0.00141,   0.00001,317157509.54976,   0.00000,274640135.82653,   0.00000,   0.00000,   0.00000,-157482626.27677,   0.00000
112905577.83449,360775680.75381,325303.56993,  -0.00019,   0.00142,   0.00000,319645885.46173,   0.00000,274640135.82653,   0.00000,   0.00000,   0.00000,-154994250.36480,   0.00000
113472054.74074,363518326.36922,-218738.60736,  -0.00019,   0.00143,  -0.00000,322137319.98027,   0.00000,274640135.82653,   0.00000,   0.00000,   0.00000,-152502815.84626,   0.00000
114038531.64699,366260971.98463,-768389.46689,  -0.00020,   0.00144,  -0.00001,324631782.36538,   0.00000,274640135.82653,   0.00000,   0.00000,   0.00000,-150008353.46115,   0.00000
114593791.18876,369014834.96452,-1318040.32643,  -0.00020,   0.00146,  -0.00002,327142305.65663,   0.00000,274640135.82653,   0.00000,   0.00000,   0.00000,-147497830.16990,   0.00000
115149050.73053,371768697.94442,-1867691.18596,  -0.00020,   0.00147,  -0.00002,329655761.07040,   0.00000,274640135.82653,   0.00000,   0.00000,   0.00000,-144984374.75613,   0.00000
115704310.27230,374522560.92431,-2422950.72773,  -0.00020,   0.00148,  -0.00003,332172204.63852,   0.00000,274640135.82653,   0.00000,   0.00000,   0.00000,-142467931.18801,   0.00000
116259569.81407,377276423.90420,-2983818.95174,  -0.00021,   0.00149,  -0.00004,334691652.70412,   0.00000,274640135.82653,   0.00000,   0.00000,   0.00000,-139948483.12241,   0.00000
116814829.35584,380030286.88410,-3544687.17575,  -0.00021,   0.00150,  -0.00005,337213944.87142,   0.00000,274640135.82653,   0.00000,   0.00000,   0.00000,-137426190.95511,   0.00000
117358871.53313,382795367.22847,-4105555.39976,  -0.00021,   0.00151,  -0.00005,339752163.09611,   0.00000,274640135.82653,   0.00000,   0.00000,   0.00000,-134887972.73042,   0.00000
117894500.68706,385540817.18500,-4672032.30601,  -0.00022,   0.00152,  -0.00006,342276462.13117,   0.00000,274640135.82653,   0.00000,   0.00000,   0.00000,-132363673.69536,   0.00000
118438542.86435,388305897.52938,-5244117.89450,  -0.00022,   0.00154,  -0.00007,344820643.40811,   0.00000,274640135.82653,   0.00000,   0.00000,   0.00000,-129819492.41842,   0.00000
118962954.65380,391062564.85039,-5810594.80075,  -0.00022,   0.00155,  -0.00008,347363563.25044,   0.00000,274640135.82653,   0.00000,   0.00000,   0.00000,-127276572.57608,   0.00000
119506996.83109,393827645.19476,-6382680.38924,  -0.00022,   0.00156,  -0.00008,349913122.20579,   0.00000,274640135.82653,   0.00000,   0.00000,   0.00000,-124727013.62074,   0.00000
120039821.64390,396603942.90361,-6960374.65997,  -0.00023,   0.00157,  -0.00009,352478822.31958,   0.00000,274640135.82653,   0.00000,   0.00000,   0.00000,-122161313.50695,   0.00000
120564233.43335,399360610.22463,-7538068.93070,  -0.00023,   0.00158,  -0.00010,355030270.53586,   0.00000,274640135.82653,   0.00000,   0.00000,   0.00000,-119609865.29067,   0.00000
121077427.85832,402128494.91012,-8115763.20144,  -0.00023,   0.00159,  -0.00011,357597515.31608,   0.00000,274640135.82653,   0.00000,   0.00000,   0.00000,-117042620.51045,   0.00000
121610252.67113,404904792.61897,-8699066.15441,  -0.00024,   0.00161,  -0.00011,360171336.66948,   0.00000,274640135.82653,   0.00000,   0.00000,   0.00000,-114468799.15705,   0.00000
122123447.09610,407672677.30447,-9282369.10738,  -0.00024,   0.00162,  -0.00012,362744045.63086,   0.00000,274640135.82653,   0.00000,   0.00000,   0.00000,-111896090.19567,   0.00000
122636641.52107,410440561.98996,-9871280.74259,  -0.00024,   0.00163,  -0.00013,365319689.11383,   0.00000,274640135.82653,   0.00000,   0.00000,   0.00000,-109320446.71269,   0.00000
123149835.94604,413208446.67545,-10460192.37780,  -0.00025,   0.00164,  -0.00014,367897807.75593,   0.00000,274640135.82653,   0.00000,   0.00000,   0.00000,-106742328.07060,   0.00000
123643399.98317,415967918.33759,-11049104.01301,  -0.00025,   0.00165,  -0.00014,370474776.24906,   0.00000,274640135.82653,   0.00000,   0.00000,   0.00000,-104165359.57747,   0.00000
124145377.04366,418747020.38756,-11643624.33046,  -0.00025,   0.00166,  -0.00015,373071517.21285,   0.00000,274640135.82653,   0.00000,   0.00000,   0.00000,-101568618.61368,   0.00000
124638941.08079,421506492.04969,-12238144.64791,  -0.00025,   0.00167,  -0.00016,375653806.31546,   0.00000,274640135.82653,   0.00000,   0.00000,   0.00000,-98986329.51107,   0.00000
125140918.14128,424285594.09967,-12838273.64761,  -0.00026,   0.00169,  -0.00017,378255852.25446,   0.00000,274640135.82653,   0.00000,   0.00000,   0.00000,-96384283.57207,   0.00000
125634482.17841,427045065.76180,-13438402.64730,  -0.00026,   0.00170,  -0.00017,380843402.98480,   0.00000,274640135.82653,   0.00000,   0.00000,   0.00000,-93796732.84173,   0.00000
126116828.85106,429815754.78841,-14038531.64699,  -0.00026,   0.00171,  -0.00018,383446578.69389,   0.00000,274640135.82653,   0.00000,   0.00000,   0.00000,-91193557.13264,   0.00000
126599175.52371,432586443.81503,-14638660.64668,  -0.00027,   0.00172,  -0.00019,386052025.82383,   0.00000,274640135.82653,   0.00000,   0.00000,   0.00000,-88588110.00270,   0.00000
127081522.19636,435357132.84164,-15244398.32861,  -0.00027,   0.00173,  -0.00020,388660358.54005,   0.00000,274640135.82653,   0.00000,   0.00000,   0.00000,-85979777.28648,   0.00000
127544238.48117,438119408.84489,-15850136.01054,  -0.00027,   0.00174,  -0.00021,391267457.43296,   0.00000,274640135.82653,   0.00000,   0.00000,   0.00000,-83372678.39357,   0.00000
128034998.17718,440909728.25935,-16461482.37472,  -0.00028,   0.00176,  -0.00021,393897720.46039,   0.00000,274640135.82653,   0.00000,   0.00000,   0.00000,-80742415.36614,   0.00000
128497714.46199,443672004.26260,-17072828.73889,  -0.00028,   0.00177,  -0.00022,396509919.06039,   0.00000,274640135.82653,   0.00000,   0.00000,   0.00000,-78130216.76614,   0.00000
128960430.74680,446434280.26585,-17684175.10306,  -0.00028,   0.00178,  -0.00023,399124281.84576,   0.00000,274640135.82653,   0.00000,   0.00000,   0.00000,-75515853.98077,   0.00000
129423147.03160,449196556.26910,-18295521.46723,  -0.00029,   0.00179,  -0.00024,401740766.56565,   0.00000,274640135.82653,   0.00000,   0.00000,   0.00000,-72899369.26088,   0.00000
129874645.95193,451970049.63684,-18912476.51364,  -0.00029,   0.00180,  -0.00025,404373521.08668,   0.00000,274640135.82653,   0.00000,   0.00000,   0.00000,-70266614.73985,   0.00000
130317731.84890,454723912.61673,-19529431.56005,  -0.00029,   0.00181,  -0.00025,406991590.97114,   0.00000,274640135.82653,   0.00000,   0.00000,   0.00000,-67648544.85539,   0.00000
130769230.76923,457497405.98446,-20151995.28871,  -0.00030,   0.00183,  -0.00026,409629336.20693,   0.00000,274640135.82653,   0.00000,   0.00000,   0.00000,-65010799.61960,   0.00000
131212316.66620,460251268.96436,-20768950.33512,  -0.00030,   0.00184,  -0.00027,412251519.43068,   0.00000,274640135.82653,   0.00000,   0.00000,   0.00000,-62388616.39584,   0.00000
131663815.58653,463024762.33209,-21391514.06377,  -0.00030,   0.00185,  -0.00028,414893329.14573,   0.00000,274640135.82653,   0.00000,   0.00000,   0.00000,-59746806.68080,   0.00000
132087271.09566,465770212.28862,-22014077.79242,  -0.00031,   0.00186,  -0.00029,417517042.05360,   0.00000,274640135.82653,   0.00000,   0.00000,   0.00000,-57123093.77293,   0.00000
132519139.62814,468535292.63300,-22642250.20331,  -0.00031,   0.00187,  -0.00029,420160402.02301,   0.00000,274640135.82653,   0.00000,   0.00000,   0.00000,-54479733.80352,   0.00000
132951008.16063,471300372.97737,-23270422.61421,  -0.00031,   0.00189,  -0.00030,422805735.66550,   0.00000,274640135.82653,   0.00000,   0.00000,   0.00000,-51834400.16103,   0.00000
133374463.66976,474045822.93390,-23898595.02510,  -0.00032,   0.00190,  -0.00031,425436259.55494,   0.00000,274640135.82653,   0.00000,   0.00000,   0.00000,-49203876.27159,   0.00000
133786701.81441,476802490.25491,-24526767.43599,  -0.00032,   0.00191,  -0.00032,428082177.47314,   0.00000,274640135.82653,   0.00000,   0.00000,   0.00000,-46557958.35339,   0.00000
134198939.95906,479559157.57593,-25154939.84688,  -0.00032,   0.00192,  -0.00033,430729989.09157,   0.00000,274640135.82653,   0.00000,   0.00000,   0.00000,-43910146.73496,   0.00000
134602765.08034,482296194.50910,-25788720.94002,  -0.00033,   0.00193,  -0.00034,433363930.91690,   0.00000,274640135.82653,   0.00000,   0.00000,   0.00000,-41276204.90963,   0.00000
135015003.22499,485052861.83011,-26422502.03315,  -0.00033,   0.00194,  -0.00034,436016469.87496,   0.00000,274640135.82653,   0.00000,   0.00000,   0.00000,-38623665.95157,   0.00000
135427241.36964,487809529.15113,-27056283.12628,  -0.00034,   0.00196,  -0.00035,438670836.68589,   0.00000,274640135.82653,   0.00000,   0.00000,   0.00000,-35969299.14064,   0.00000
135811436.10309,490538153.06094,-27690064.21941,  -0.00034,   0.00197,  -0.00036,441307096.84264,   0.00000,274640135.82653,   0.00000,   0.00000,   0.00000,-33333038.98389,   0.00000
136204043.85990,493286407.35859,-28329453.99478,  -0.00034,   0.00198,  -0.00037,443962939.52998,   0.00000,274640135.82653,   0.00000,   0.00000,   0.00000,-30677196.29655,   0.00000
136588238.59334,496015031.26840,-28963235.08792,  -0.00035,   0.00199,  -0.00038,446602782.89519,   0.00000,274640135.82653,   0.00000,   0.00000,   0.00000,-28037352.93134,   0.00000
136980846.35015,498763285.56606,-29602624.86329,  -0.00035,   0.00200,  -0.00038,449262169.01340,   0.00000,274640135.82653,   0.00000,   0.00000,   0.00000,-25377966.81313,   0.00000
137345410.69576,501483496.45251,-30242014.63866,  -0.00035,   0.00201,  -0.00039,451903463.83295,   0.00000,274640135.82653,   0.00000,   0.00000,   0.00000,-22736671.99358,   0.00000
137718388.06472,504223337.72680,-30887013.09627,  -0.00036,   0.00203,  -0.00040,454564325.65389,   0.00000,274640135.82653,   0.00000,   0.00000,   0.00000,-20075810.17264,   0.00000
138082952.41033,506943548.61325,-31526402.87165,  -0.00036,   0.00204,  -0.00041,457209080.79689,   0.00000,274640135.82653,   0.00000,   0.00000,   0.00000,-17431055.02964,   0.00000
138447516.75594,509663759.49971,-32171401.32926,  -0.00036,   0.00205,  -0.00042,459856692.84082,   0.00000,274640135.82653,   0.00000,   0.00000,   0.00000,-14783442.98571,   0.00000
138812081.10155,512383970.38616,-32816399.78687,  -0.00037,   0.00206,  -0.00043,462505989.15145,   0.00000,274640135.82653,   0.00000,   0.00000,   0.00000,-12134146.67508,   0.00000
139165428.08267,515115398.63709,-33455789.56224,  -0.00037,   0.00207,  -0.00043,465169329.26503,   0.00000,274640135.82653,   0.00000,   0.00000,   0.00000,-9470806.56150,   0.00000
139510362.04044,517827196.50018,-34106396.70209,  -0.00037,   0.00208,  -0.00044,467820078.42948,   0.00000,274640135.82653,   0.00000,   0.00000,   0.00000,-6820057.39705,   0.00000
139855295.99821,520538994.36327,-34751395.15971,  -0.00038,   0.00210,  -0.00045,470471244.32087,   0.00000,274640135.82653,   0.00000,   0.00000,   0.00000,-4168891.50566,   0.00000
140200229.95597,523250792.22637,-35396393.61732,  -0.00038,   0.00211,  -0.00046,473124009.84708,   0.00000,274640135.82653,   0.00000,   0.00000,   0.00000,-1516125.97945,   0.00000
140393687.38706,524798451.67507,-35767187.02690,  -0.00038,   0.00211,  -0.00046,474640166.41710,   0.00000,274640135.82653,   0.00000,   0.00000,   0.00000,  -9.65937,   0.00000
140319675.08315,524741583.44438,-35949344.88517,  -0.00039,   0.00212,  -0.00047,474646013.69087,   0.00001,274646020.75968,  -0.00000,   0.00001,  -0.00000,  -7.06881,   1.00000
140133175.97229,524603362.50166,-36379500.41170,  -0.00039,   0.00213,  -0.00048,474659945.42793,   0.00002,274659952.50034,  -0.00000,   0.00002,  -0.00000,  -7.07241,   1.00000
139947441.51739,524464722.82660,-36806979.55122,  -0.00039,   0.00214,  -0.00049,474673884.87486,   0.00003,274673894.79633,  -0.00001,   0.00003,  -0.00001,  -9.92147,   1.00000
139757524.40814,524325264.10312,-37227740.41820,  -0.00040,   0.00215,  -0.00049,474687751.34791,   0.00004,274687753.26369,  -0.00001,   0.00004,  -0.00001,  -1.91578,   1.00000
139573347.75756,524185865.79786,-37649939.20126,  -0.00040,   0.00217,  -0.00050,474701715.74946,   0.00006,274701716.39133,  -0.00001,   0.00005,  -0.00001,  -0.64187,   1.00000
139365757.88820,524039039.11247,-38071200.85083,  -0.00041,   0.00218,  -0.00051,474715578.15120,   0.00007,274715587.20023,  -0.00002,   0.00006,  -0.00002,  -9.04903,   1.00000
139178012.07369,523897097.51556,-38489595.31535,  -0.00041,   0.00219,  -0.00052,474729478.87111,   0.00008,274729484.03469,  -0.00002,   0.00008,  -0.00002,  -5.16357,   1.00000
138972081.57882,523749602.35310,-38905658.21303,  -0.00041,   0.00220,  -0.00053,474743366.12665,   0.00009,274743375.82591,  -0.00002,   0.00009,  -0.00002,  -9.69927,   1.00000
138767030.87982,523601815.63106,-39319143.98827,  -0.00042,   0.00221,  -0.00054,474757270.74459,   0.00011,274757278.09676,  -0.00003,   0.00010,  -0.00002,  -7.35218,   1.00000
138562856.44526,523453743.84413,-39730066.66566,  -0.00042,   0.00222,  -0.00054,474771182.52741,   0.00012,274771190.83289,  -0.00003,   0.00011,  -0.00003,  -8.30548,   1.00000
138335064.37195,523296746.63813,-40145667.49411,  -0.00042,   0.00224,  -0.00055,474785014.29665,   0.00013,274785018.92127,  -0.00003,   0.00012,  -0.00003,  -4.62462,   1.00000
138113792.97070,523142933.54619,-40551735.59773,  -0.00043,   0.00225,  -0.00056,474798929.74832,   0.00014,274798937.56003,  -0.00004,   0.00014,  -0.00003,  -7.81171,   1.00000
137907197.76740,522992226.58735,-40956553.90617,  -0.00043,   0.00226,  -0.00057,474812794.44394,   0.00016,274812794.67148,  -0.00004,   0.00015,  -0.00004,  -0.22754,   1.00000
137682510.63267,522836023.99999,-41359148.37003,  -0.00044,   0.00227,  -0.00058,474826644.94992,   0.00017,274826646.89149,  -0.00004,   0.00016,  -0.00004,  -1.94156,   1.00000
137439551.36198,522672784.14441,-41764971.69607,  -0.00044,   0.00228,  -0.00059,474840494.46550,   0.00018,274840502.28880,  -0.00005,   0.00017,  -0.00004,  -7.82330,   1.00000
137216933.74361,522516230.19283,-42162579.08758,  -0.00044,   0.00229,  -0.00060,474854369.26340,   0.00020,274854375.76600,  -0.00005,   0.00018,  -0.00005,  -6.50260,   1.00000
136976309.78288,522354224.56125,-42558013.42258,  -0.00045,   0.00230,  -0.00060,474868239.40779,   0.00021,274868244.45207,  -0.00005,   0.00019,  -0.00005,  -5.04427,   1.00000
136750154.43509,522193765.74065,-42957763.70322,  -0.00045,   0.00232,  -0.00061,474882052.71782,   0.00022,274882059.66320,  -0.00006,   0.00021,  -0.00005,  -6.94538,   1.00000
136506280.55453,522029468.56497,-43349916.91600,  -0.00046,   0.00233,  -0.00062,474895857.50696,   0.00023,274895862.15538,  -0.00006,   0.00022,  -0.00006,  -4.64842,   1.00000
136244500.41287,521859740.35000,-43739949.66730,  -0.00046,   0.00234,  -0.00063,474909657.16865,   0.00025,274909660.13898,  -0.00006,   0.00023,  -0.00006,  -2.97034,   1.00000
136002903.17903,521695246.53657,-44127300.50259,  -0.00046,   0.00235,  -0.00064,474923475.70661,   0.00026,274923483.86388,  -0.00007,   0.00024,  -0.00006,  -8.15728,   1.00000
135762390.77431,521530676.48435,-44512272.96049,  -0.00047,   0.00236,  -0.00065,474937310.69864,   0.00027,274937317.92856,  -0.00007,   0.00025,  -0.00007,  -7.22993,   1.00000
135498301.33079,521356945.64002,-44902267.10804,  -0.00047,   0.00237,  -0.00065,474951065.56751,   0.00028,274951068.61070,  -0.00007,   0.00026,  -0.00007,  -3.04319,   1.00000
135241065.80796,521186912.74168,-45282770.84633,  -0.00048,   0.00238,  -0.00066,474964902.21520,   0.00030,274964908.84572,  -0.00008,   0.00028,  -0.00007,  -6.63052,   1.00000
134979619.76655,521014757.68053,-45662645.58504,  -0.00048,   0.00240,  -0.00067,474978666.04114,   0.00031,274978672.26298,  -0.00008,   0.00029,  -0.00008,  -6.22184,   1.00000
134713967.37859,520840471.62780,-46041921.23447,  -0.00048,   0.00241,  -0.00068,474992356.90789,   0.00032,274992358.91845,  -0.00008,   0.00030,  -0.00008,  -2.01055,   1.00000
134436196.19197,520664629.12740,-46412052.47618,  -0.00049,   0.00242,  -0.00069,475006116.26010,   0.00033,275006119.80922,  -0.00009,   0.00031,  -0.00009,  -3.54913,   1.00000
134173013.41445,520490327.52046,-46786773.81163,  -0.00049,   0.00243,  -0.00070,475019820.09773,   0.00035,275019827.45267,  -0.00009,   0.00032,  -0.00009,  -7.35494,   1.00000
133892000.71764,520310633.93986,-47159519.07069,  -0.00050,   0.00244,  -0.00071,475033527.86002,   0.00036,275033530.74492,  -0.00009,   0.00033,  -0.00009,  -2.88491,   1.00000
133612572.06750,520132729.34666,-47524603.33373,  -0.00050,   0.00245,  -0.00071,475047226.63509,   0.00037,275047235.68567,  -0.00009,   0.00035,  -0.00010,  -9.05058,   1.00000
133334128.61060,519953111.84180,-47892865.13547,  -0.00051,   0.00246,  -0.00072,475060957.00781,   0.00038,275060959.91159,  -0.00010,   0.00036,  -0.00010,  -2.90378,   1.00000
133051809.30900,519773149.32344,-48255297.17426,  -0.00051,   0.00247,  -0.00073,475074598.23317,   0.00040,275074598.24525,  -0.00010,   0.00037,  -0.00010,  -0.01208,   1.00000
132770782.43212,519593255.41915,-48615540.37248,  -0.00051,   0.00249,  -0.00074,475088245.45907,   0.00041,275088246.87344,  -0.00010,   0.00038,  -0.00011,  -1.41437,   1.00000
132471697.46630,519406158.65168,-48979298.80589,  -0.00052,   0.00250,  -0.00075,475101892.12253,   0.00042,275101900.51830,  -0.00011,   0.00039,  -0.00011,  -8.39577,   1.00000
132168809.46095,519218758.01935,-49337313.96524,  -0.00052,   0.00251,  -0.00076,475115459.04567,   0.00043,275115468.19618,  -0.00011,   0.00040,  -0.00011,  -9.15050,   1.00000
131892169.81700,519041052.03370,-49685643.68766,  -0.00053,   0.00252,  -0.00076,475129137.33472,   0.00045,275129138.47110,  -0.00011,   0.00042,  -0.00012,  -1.13637,   1.00000
131591937.31742,518853858.14259,-50039417.78373,  -0.00053,   0.00253,  -0.00077,475142725.60485,   0.00046,275142726.47042,  -0.00012,   0.00043,  -0.00012,  -0.86557,   1.00000
131268820.62233,518660879.57885,-50387877.83444,  -0.00053,   0.00254,  -0.00078,475156210.10969,   0.00047,275156213.73219,  -0.00012,   0.00044,  -0.00013,  -3.62251,   1.00000
130971477.14946,518473984.07475,-50737433.67714,  -0.00054,   0.00255,  -0.00079,475169820.12712,   0.00048,275169822.48686,  -0.00012,   0.00045,  -0.00013,  -2.35973,   1.00000
130670273.88336,518286825.13550,-51081417.54610,  -0.00054,   0.00256,  -0.00080,475183339.19736,   0.00050,275183344.53584,  -0.00013,   0.00046,  -0.00013,  -5.33848,   1.00000
130345837.02401,518091977.80899,-51425572.26049,  -0.00055,   0.00258,  -0.00081,475196770.44729,   0.00051,275196775.19915,  -0.00013,   0.00047,  -0.00014,  -4.75185,   1.00000
130028773.63654,517901558.57069,-51760403.07390,  -0.00055,   0.00259,  -0.00081,475210290.07913,   0.00052,275210293.57393,  -0.00013,   0.00048,  -0.00014,  -3.49480,   1.00000
129707289.83256,517707069.15140,-52100529.89994,  -0.00056,   0.00260,  -0.00082,475223742.32125,   0.00053,275223744.56685,  -0.00014,   0.00049,  -0.00015,  -2.24559,   1.00000
129387602.45502,517514713.54310,-52433281.12036,  -0.00056,   0.00261,  -0.00083,475237192.66200,   0.00055,275237195.80952,  -0.00014,   0.00051,  -0.00015,  -3.14752,   1.00000
129063790.80205,517320200.13021,-52766014.68740,  -0.00056,   0.00262,  -0.00084,475250568.00561,   0.00056,275250569.76019,  -0.00014,   0.00052,  -0.00015,  -1.75459,   1.00000
128747082.28019,517128295.42866,-53094821.71764,  -0.00057,   0.00263,  -0.00085,475264038.41162,   0.00057,275264040.87812,  -0.00015,   0.00053,  -0.00016,  -2.46649,   1.00000
128420588.31250,516931812.57827,-53425632.43786,  -0.00057,   0.00264,  -0.00086,475277343.74089,   0.00058,275277347.39210,  -0.00015,   0.00054,  -0.00016,  -3.65121,   1.00000
128082453.42710,516734342.18129,-53747490.30396,  -0.00058,   0.00265,  -0.00086,475290722.70637,   0.00060,275290726.99050,  -0.00015,   0.00055,  -0.00016,  -4.28413,   1.00000
127740234.61046,516534700.36926,-54069452.23268,  -0.00058,   0.00266,  -0.00087,475304026.29107,   0.00061,275304029.22328,  -0.00016,   0.00056,  -0.00017,  -2.93221,   1.00000
127418690.06135,516340963.41889,-54389207.77933,  -0.00059,   0.00267,  -0.00088,475317348.37478,   0.00062,275317355.10730,  -0.00016,   0.00057,  -0.00017,  -6.73251,   1.00000
127073846.42507,516139368.49263,-54709432.98655,  -0.00059,   0.00268,  -0.00089,475330581.25961,   0.00063,275330589.65049,  -0.00016,   0.00058,  -0.00018,  -8.39088,   1.00000
126730904.01736,515940078.79811,-55022458.98202,  -0.00060,   0.00270,  -0.00090,475343820.10884,   0.00064,275343823.56853,  -0.00017,   0.00059,  -0.00018,  -3.45970,   1.00000
126370426.23822,515735388.06003,-55333987.28641,  -0.00060,   0.00271,  -0.00090,475357049.76030,   0.00066,275357053.53278,  -0.00017,   0.00061,  -0.00018,  -3.77248,   1.00000
126030722.70998,515536692.95888,-55643380.95507,  -0.00060,   0.00272,  -0.00091,475370298.17711,   0.00067,275370306.86321,  -0.00017,   0.00062,  -0.00019,  -8.68610,   1.00000
125681453.41719,515335320.29245,-55949771.47854,  -0.00061,   0.00273,  -0.00092,475383380.87055,   0.00068,275383384.61763,  -0.00018,   0.00063,  -0.00019,  -3.74707,   1.00000
125320389.43132,515131067.35561,-56252655.28777,  -0.00061,   0.00274,  -0.00093,475396544.23833,   0.00069,275396545.57922,  -0.00018,   0.00064,  -0.00020,  -1.34089,   1.00000
124974356.49697,514930312.81909,-56555546.75815,  -0.00062,   0.00275,  -0.00094,475409635.96017,   0.00070,275409642.32734,  -0.00018,   0.00065,  -0.00020,  -6.36717,   1.00000
124611093.44859,514726223.32478,-56851703.98000,  -0.00062,   0.00276,  -0.00094,475422718.02026,   0.00072,275422724.21167,  -0.00018,   0.00066,  -0.00021,  -6.19141,   1.00000
124249170.49040,514520379.05148,-57151481.40299,  -0.00063,   0.00277,  -0.00095,475435823.22848,   0.00073,275435826.30416,  -0.00019,   0.00067,  -0.00021,  -3.07567,   1.00000
123883754.80965,514316482.96640,-57441017.27205,  -0.00063,   0.00278,  -0.00096,475448823.41009,   0.00074,275448828.83135,  -0.00019,   0.00068,  -0.00021,  -5.42127,   1.00000
123513876.79870,514108206.10684,-57736337.80386,  -0.00063,   0.00279,  -0.00097,475461756.42943,   0.00075,275461764.35943,  -0.00019,   0.00069,  -0.00022,  -7.92999,   1.00000
123151811.04560,513905039.93705,-58022545.40721,  -0.00064,   0.00280,  -0.00098,475474783.33703,   0.00076,275474785.30870,  -0.00020,   0.00070,  -0.00022,  -1.97167,   1.00000
122780056.91657,513699073.58029,-58306092.56097,  -0.00064,   0.00281,  -0.00098,475487623.78288,   0.00078,275487629.90850,  -0.00020,   0.00071,  -0.00023,  -6.12561,   1.00000
122415498.99898,513493992.77085,-58591204.02884,  -0.00065,   0.00282,  -0.00099,475500577.51547,   0.00079,275500581.79801,  -0.00020,   0.00073,  -0.00023,  -4.28255,   1.00000
122027902.78311,513282919.66437,-58871881.12763,  -0.00065,   0.00283,  -0.00100,475513429.48261,   0.00080,275513431.38625,  -0.00021,   0.00074,  -0.00023,  -1.90364,   1.00000
121655667.70122,513077546.25333,-59147520.84473,  -0.00066,   0.00284,  -0.00101,475526199.22297,   0.00081,275526204.61352,  -0.00021,   0.00075,  -0.00024,  -5.39055,   1.00000
121265936.97100,512866685.91063,-59421947.46291,  -0.00066,   0.00285,  -0.00102,475538967.17209,   0.00082,275538973.77243,  -0.00021,   0.00076,  -0.00024,  -6.60034,   1.00000
120897126.21551,512662102.86764,-59694518.66938,  -0.00067,   0.00286,  -0.00102,475551762.23524,   0.00084,275551764.62260,  -0.00022,   0.00077,  -0.00025,  -2.38736,   1.00000
120504885.93362,512449267.12925,-59968084.57809,  -0.00067,   0.00287,  -0.00103,475564456.13281,   0.00085,275564464.34404,  -0.00022,   0.00078,  -0.00025,  -8.21123,   1.00000
120114718.38599,512239025.92214,-60234842.17388,  -0.00068,   0.00288,  -0.00104,475577152.03823,   0.00086,275577161.50400,  -0.00022,   0.00079,  -0.00026,  -9.46577,   1.00000
119726616.93313,512031399.77489,-60494834.06802,  -0.00068,   0.00290,  -0.00105,475589849.28808,   0.00087,275589855.79457,  -0.00023,   0.00080,  -0.00026,  -6.50649,   1.00000
119328346.37806,511818618.20094,-60757822.92924,  -0.00068,   0.00291,  -0.00105,475602378.01373,   0.00088,275602384.38272,  -0.00023,   0.00081,  -0.00026,  -6.36899,   1.00000
118937799.95899,511609035.36095,-61017146.62150,  -0.00069,   0.00292,  -0.00106,475615000.56513,   0.00089,275615008.75689,  -0.00023,   0.00082,  -0.00027,  -8.19176,   1.00000
118543331.66509,511399296.75279,-61271998.34387,  -0.00069,   0.00293,  -0.00107,475627542.40729,   0.00091,275627542.75017,  -0.00024,   0.00083,  -0.00027,  -0.34289,   1.00000
118144611.04458,511187137.69893,-61527699.41181,  -0.00070,   0.00294,  -0.00108,475639996.94937,   0.00092,275639998.08554,  -0.00024,   0.00084,  -0.00028,  -1.13616,   1.00000
117747959.33896,510977635.16148,-61776734.69865,  -0.00070,   0.00295,  -0.00108,475652443.07759,   0.00093,275652450.07167,  -0.00024,   0.00085,  -0.00028,  -6.99408,   1.00000
117353051.82919,510768560.37745,-62024420.41926,  -0.00071,   0.00296,  -0.00109,475664900.83883,   0.00094,275664910.24423,  -0.00024,   0.00086,  -0.00028,  -9.40540,   1.00000
116954164.04835,510559312.39775,-62267758.50592,  -0.00071,   0.00297,  -0.00110,475677276.76838,   0.00095,275677279.52333,  -0.00025,   0.00087,  -0.00029,  -2.75494,   1.00000
116537805.30712,510344448.34941,-62510106.10557,  -0.00072,   0.00298,  -0.00111,475689640.58673,   0.00096,275689644.81137,  -0.00025,   0.00088,  -0.00029,  -4.22464,   1.00000
116136735.68167,510135446.28259,-62747842.48998,  -0.00072,   0.00299,  -0.00111,475701928.36839,   0.00097,275701931.29341,  -0.00025,   0.00089,  -0.00030,  -2.92502,   1.00000
115718187.23377,509920812.62501,-62984627.92342,  -0.00073,   0.00300,  -0.00112,475714212.52579,   0.00099,275714213.70778,  -0.00026,   0.00090,  -0.00030,  -1.18198,   1.00000
115314902.95425,509712049.04612,-63216860.41869,  -0.00073,   0.00301,  -0.00113,475726411.54277,   0.00100,275726416.99438,  -0.00026,   0.00091,  -0.00031,  -5.45161,   1.00000
114907250.97728,509500772.18680,-63450164.05248,  -0.00073,   0.00302,  -0.00113,475738531.16830,   0.00101,275738540.98491,  -0.00026,   0.00092,  -0.00031,  -9.81660,   1.00000
114482427.94351,509286134.47399,-63677296.70925,  -0.00074,   0.00302,  -0.00114,475750642.91218,   0.00102,275750648.77389,  -0.00027,   0.00093,  -0.00031,  -5.86172,   1.00000
114059739.41769,509074245.01071,-63897974.96120,  -0.00074,   0.00303,  -0.00115,475762744.41312,   0.00103,275762752.20368,  -0.00027,   0.00094,  -0.00032,  -7.79056,   1.00000
113651641.63431,508863628.82576,-64124755.70927,  -0.00075,   0.00304,  -0.00116,475774793.87645,   0.00104,275774800.17461,  -0.00027,   0.00095,  -0.00032,  -6.29816,   1.00000
113226660.78023,508651952.88210,-64340158.72312,  -0.00075,   0.00305,  -0.00116,475786813.42759,   0.00105,275786819.49961,  -0.00028,   0.00096,  -0.00033,  -6.07203,   1.00000
112816560.04332,508443871.18181,-64556460.47519,  -0.00076,   0.00306,  -0.00117,475798767.97630,   0.00106,275798770.80523,  -0.00028,   0.00097,  -0.00033,  -2.82893,   1.00000
112382745.67321,508227006.29079,-64774295.54789,  -0.00076,   0.00307,  -0.00118,475810627.40053,   0.00107,275810631.01901,  -0.00028,   0.00098,  -0.00033,  -3.61848,   1.00000
111951062.53287,508012929.52981,-64985759.80636,  -0.00077,   0.00308,  -0.00118,475822484.40278,   0.00109,275822486.40702,  -0.00028,   0.00099,  -0.00034,  -2.00423,   1.00000
111540762.61896,507807860.56408,-65190578.97805,  -0.00077,   0.00309,  -0.00119,475834344.81713,   0.00110,275834348.02146,  -0.00029,   0.00100,  -0.00034,  -3.20433,   1.00000
111106992.16873,507596292.66193,-65391774.77443,  -0.00078,   0.00310,  -0.00120,475846104.68481,   0.00111,275846105.81127,  -0.00029,   0.00101,  -0.00035,  -1.12646,   1.00000
110668470.08194,507379697.33800,-65599550.27421,  -0.00078,   0.00311,  -0.00120,475857789.33898,   0.00112,275857796.45271,  -0.00029,   0.00102,  -0.00035,  -7.11373,   1.00000
110251648.89820,507174554.90237,-65795485.83998,  -0.00078,   0.00312,  -0.00121,475869480.15054,   0.00113,275869480.21493,  -0.00030,   0.00103,  -0.00036,  -0.06439,   1.00000
109810993.40890,506960444.79562,-65993113.50767,  -0.00079,   0.00313,  -0.00122,475881066.95907,   0.00114,275881072.83735,  -0.00030,   0.00104,  -0.00036,  -5.87828,   1.00000
109372454.27274,506749168.51726,-66184511.23661,  -0.00079,   0.00314,  -0.00122,475892657.92619,   0.00115,275892659.79715,  -0.00030,   0.00105,  -0.00036,  -1.87096,   1.00000
108948689.08721,506541474.52445,-66377031.92430,  -0.00080,   0.00315,  -0.00123,475904174.96669,   0.00116,275904177.65090,  -0.00031,   0.00106,  -0.00037,  -2.68421,   1.00000
108507666.83017,506330296.60325,-66563661.98710,  -0.00080,   0.00316,  -0.00124,475915672.34208,   0.00117,275915678.61869,  -0.00031,   0.00107,  -0.00037,  -6.27661,   1.00000
108062400.82288,506118777.59184,-66746531.99285,  -0.00081,   0.00317,  -0.00124,475927082.53866,   0.00118,275927086.60320,  -0.00031,   0.00107,  -0.00038,  -4.06453,   1.00000
107631875.49996,505910835.85921,-66930601.11851,  -0.00081,   0.00318,  -0.00125,475938418.77114,   0.00119,275938425.11992,  -0.00032,   0.00108,  -0.00038,  -6.34877,   1.00000
107184079.15644,505699381.95559,-67108837.78979,  -0.00082,   0.00319,  -0.00126,475949742.59734,   0.00120,275949746.63456,  -0.00032,   0.00109,  -0.00038,  -4.03721,   1.00000
106757683.00455,505497154.01778,-67280674.63520,  -0.00082,   0.00319,  -0.00126,475961067.95656,   0.00121,275961072.35930,  -0.00032,   0.00110,  -0.00039,  -4.40274,   1.00000
106300886.11184,505282477.83419,-67456808.07523,  -0.00083,   0.00320,  -0.00127,475972214.03245,   0.00122,275972220.05088,  -0.00032,   0.00111,  -0.00039,  -6.01843,   1.00000
105871922.00901,505080323.49382,-67624143.31273,  -0.00083,   0.00321,  -0.00128,475983452.13843,   0.00123,275983458.60968,  -0.00033,   0.00112,  -0.00040,  -6.47125,   1.00000
105412487.05955,504865637.27560,-67795820.78991,  -0.00083,   0.00322,  -0.00128,475994518.48039,   0.00125,275994519.17643,  -0.00033,   0.00113,  -0.00040,  -0.69603,   1.00000
104974753.37332,504662667.27666,-67955939.60051,  -0.00084,   0.00323,  -0.00129,476005563.76523,   0.00126,276005570.42012,  -0.00033,   0.00114,  -0.00040,  -6.65489,   1.00000
104519417.87928,504453676.21243,-68115581.69546,  -0.00084,   0.00324,  -0.00129,476016609.98584,   0.00127,276016617.41235,  -0.00034,   0.00115,  -0.00041,  -7.42651,   1.00000
104078717.41129,504248263.99832,-68276612.38798,  -0.00085,   0.00325,  -0.00130,476027589.52293,   0.00128,276027593.84796,  -0.00034,   0.00116,  -0.00041,  -4.32502,   1.00000
103633809.10397,504044829.57105,-68428895.61553,  -0.00085,   0.00326,  -0.00131,476038456.66561,   0.00129,276038463.12172,  -0.00034,   0.00117,  -0.00042,  -6.45610,   1.00000
103164775.23660,503831971.82544,-68583198.91020,  -0.00086,   0.00327,  -0.00131,476049241.22513,   0.00130,276049241.42001,  -0.00034,   0.00117,  -0.00042,  -0.19488,   1.00000
102717156.94380,503628481.83020,-68731277.80404,  -0.00086,   0.00327,  -0.00132,476060019.19655,   0.00131,276060022.58189,  -0.00035,   0.00118,  -0.00042,  -3.38535,   1.00000
102271255.23613,503425406.29672,-68878662.22807,  -0.00087,   0.00328,  -0.00132,476070805.09506,   0.00132,276070809.46163,  -0.00035,   0.00119,  -0.00043,  -4.36657,   1.00000
101821064.09056,503224280.95130,-69017403.44954,  -0.00087,   0.00329,  -0.00133,476081484.83802,   0.00133,276081488.63363,  -0.00035,   0.00120,  -0.00043,  -3.79561,   1.00000
101366011.48566,503020154.46269,-69157967.10399,  -0.00088,   0.00330,  -0.00134,476092082.02538,   0.00134,276092086.58608,  -0.00036,   0.00121,  -0.00044,  -4.56070,   1.00000
100906360.45348,502815474.88619,-69295145.82588,  -0.00088,   0.00331,  -0.00134,476102580.87899,   0.00135,276102590.06954,  -0.00036,   0.00122,  -0.00044,  -9.19055,   1.00000
100448427.11238,502611197.41839,-69431695.44488,  -0.00088,   0.00332,  -0.00135,476113094.80731,   0.00136,276113099.08570,  -0.00036,   0.00123,  -0.00044,  -4.27839,   1.00000
100012108.15082,502418870.09173,-69556936.13929,  -0.00089,   0.00333,  -0.00135,476123591.64785,   0.00137,276123596.25750,  -0.00036,   0.00123,  -0.00045,  -4.60964,   1.00000
99544790.43832,502213400.08676,-69686842.27812,  -0.00089,   0.00333,  -0.00136,476133914.80050,   0.00137,276133915.62131,  -0.00037,   0.00124,  -0.00045,  -0.82081,   1.00000
99079454.27266,502010784.30994,-69810956.69187,  -0.00090,   0.00334,  -0.00136,476144222.16040,   0.00138,276144227.03780,  -0.00037,   0.00125,  -0.00046,  -4.87740,   1.00000
98635196.97667,501815207.77956,-69934241.11598,  -0.00090,   0.00335,  -0.00137,476154551.81868,   0.00139,276154552.94888,  -0.00037,   0.00126,  -0.00046,  -1.13020,   1.00000
98179741.54924,501617982.16246,-70051553.55460,  -0.00091,   0.00336,  -0.00137,476164675.61180,   0.00140,276164683.54516,  -0.00038,   0.00127,  -0.00046,  -7.93336,   1.00000
97713244.87741,501417960.39840,-70166115.16133,  -0.00091,   0.00337,  -0.00138,476174888.49658,   0.00141,276174896.70585,  -0.00038,   0.00128,  -0.00047,  -8.20928,   1.00000
97254665.93266,501220452.08833,-70279696.03591,  -0.00092,   0.00337,  -0.00139,476184933.65029,   0.00142,276184937.07938,  -0.00038,   0.00128,  -0.00047,  -3.42908,   1.00000
96797982.93722,501025793.19726,-70387577.14993,  -0.00092,   0.00338,  -0.00139,476194961.98485,   0.00143,276194968.85423,  -0.00038,   0.00129,  -0.00048,  -6.86938,   1.00000
96336447.76973,500830447.31078,-70492289.76821,  -0.00092,   0.00339,  -0.00140,476204904.05272,   0.00144,276204905.14923,  -0.00039,   0.00130,  -0.00048,  -1.09651,   1.00000
95876543.25564,500635438.46986,-70596539.68919,  -0.00093,   0.00340,  -0.00140,476214838.88584,   0.00145,276214846.30162,  -0.00039,   0.00131,  -0.00048,  -7.41578,   1.00000
95404976.32397,500436135.70720,-70700154.12328,  -0.00093,   0.00341,  -0.00141,476224603.65807,   0.00146,276224605.30268,  -0.00039,   0.00132,  -0.00049,  -1.64461,   1.00000
94961482.52053,500250040.81971,-70795361.83174,  -0.00094,   0.00341,  -0.00141,476234449.36931,   0.00147,276234450.71221,  -0.00039,   0.00132,  -0.00049,  -1.34291,   1.00000
94486786.09149,500052786.84288,-70890237.56657,  -0.00094,   0.00342,  -0.00142,476244096.04433,   0.00148,276244105.14035,  -0.00040,   0.00133,  -0.00049,  -9.09602,   1.00000
94033374.09804,499865186.84180,-70979263.81774,  -0.00095,   0.00343,  -0.00142,476253753.81627,   0.00149,276253758.96811,  -0.00040,   0.00134,  -0.00050,  -5.15184,   1.00000
93574932.84300,499676788.89098,-71065231.47009,  -0.00095,   0.00344,  -0.00143,476263310.38721,   0.00150,276263316.87492,  -0.00040,   0.00135,  -0.00050,  -6.48771,   1.00000
93118051.31852,499488709.77197,-71150830.78634,  -0.00096,   0.00345,  -0.00143,476272872.96908,   0.00150,276272879.09569,  -0.00041,   0.00135,  -0.00050,  -6.12661,   1.00000
92656344.37398,499302323.00327,-71228204.94234,  -0.00096,   0.00345,  -0.00143,476282323.27079,   0.00151,276282331.56505,  -0.00041,   0.00136,  -0.00051,  -8.29426,   1.00000
92189313.32923,499112574.58693,-71307768.67476,  -0.00096,   0.00346,  -0.00144,476291696.02028,   0.00152,276291701.70706,  -0.00041,   0.00137,  -0.00051,  -5.68679,   1.00000
91724075.97820,498925643.51651,-71381806.21986,  -0.00097,   0.00347,  -0.00144,476301057.12319,   0.00153,276301062.34719,  -0.00041,   0.00138,  -0.00052,  -5.22400,   1.00000
91266231.22901,498741035.36320,-71455149.81839,  -0.00097,   0.00348,  -0.00145,476310241.30051,   0.00154,276310248.40981,  -0.00042,   0.00138,  -0.00052,  -7.10929,   1.00000
90797611.82628,498556036.89627,-71520711.61100,  -0.00098,   0.00348,  -0.00145,476319501.27550,   0.00155,276319503.16746,  -0.00042,   0.00139,  -0.00052,  -1.89195,   1.00000
90336319.24321,498373324.48700,-71585623.50528,  -0.00098,   0.00349,  -0.00146,476328577.63250,   0.00156,276328583.14306,  -0.00042,   0.00140,  -0.00053,  -5.51056,   1.00000
89876746.38511,498193412.91546,-71645077.83012,  -0.00099,   0.00350,  -0.00146,476337647.81050,   0.00156,276337653.16322,  -0.00042,   0.00141,  -0.00053,  -5.35272,   1.00000
89411688.16108,498010029.57669,-71706808.48341,  -0.00099,   0.00351,  -0.00147,476346639.77173,   0.00157,276346640.56032,  -0.00043,   0.00141,  -0.00053,  -0.78859,   1.00000
88961021.65499,497835172.91000,-71760211.49934,  -0.00099,   0.00351,  -0.00147,476355519.57090,   0.00158,276355525.36706,  -0.00043,   0.00142,  -0.00054,  -5.79616,   1.00000
88492337.07363,497653586.91771,-71813616.09286,  -0.00100,   0.00352,  -0.00147,476364402.21997,   0.00159,276364406.17912,  -0.00043,   0.00143,  -0.00054,  -3.95915,   1.00000
88037785.86923,497478004.31267,-71863917.87940,  -0.00100,   0.00353,  -0.00148,476373196.74418,   0.00160,276373197.98559,  -0.00043,   0.00144,  -0.00054,  -1.24140,   1.00000
87578063.11204,497303928.21681,-71906171.21661,  -0.00101,   0.00353,  -0.00148,476381875.94007,   0.00161,276381879.20646,  -0.00044,   0.00144,  -0.00055,  -3.26638,   1.00000
87119761.28456,497130081.40337,-71948243.26197,  -0.00101,   0.00354,  -0.00148,476390560.09603,   0.00161,276390563.93156,  -0.00044,   0.00145,  -0.00055,  -3.83552,   1.00000
86656030.03899,496955178.68624,-71987482.62504,  -0.00102,   0.00355,  -0.00149,476399146.97341,   0.00162,276399151.89313,  -0.00044,   0.00146,  -0.00055,  -4.91972,   1.00000
86186852.06301,496779197.69671,-72023899.93013,  -0.00102,   0.00356,  -0.00149,476407636.37487,   0.00163,276407643.12118,  -0.00044,   0.00146,  -0.00056,  -6.74631,   1.00000
85738762.97471,496613039.01948,-72054764.31039,  -0.00102,   0.00356,  -0.00150,476416126.44561,   0.00164,276416130.98754,  -0.00045,   0.00147,  -0.00056,  -4.54194,   1.00000
85284923.75442,496443240.37297,-72088022.68992,  -0.00103,   0.00357,  -0.00150,476424531.56217,   0.00165,276424535.77542,  -0.00045,   0.00148,  -0.00056,  -4.21326,   1.00000
84825731.57741,496274842.26542,-72113301.47532,  -0.00103,   0.00358,  -0.00150,476432820.02145,   0.00165,276432829.69785,  -0.00045,   0.00148,  -0.00057,  -9.67640,   1.00000
84360963.51149,496105301.32815,-72135812.27899,  -0.00104,   0.00358,  -0.00151,476441021.72958,   0.00166,276441026.59650,  -0.00045,   0.00149,  -0.00057,  -4.86691,   1.00000
83917224.10489,495945598.76524,-72152828.51224,  -0.00104,   0.00359,  -0.00151,476449211.84489,   0.00167,276449219.61026,  -0.00046,   0.00150,  -0.00057,  -7.76536,   1.00000
83448140.21083,495775035.06384,-72172488.72197,  -0.00104,   0.00360,  -0.00151,476457319.43494,   0.00168,276457322.61467,  -0.00046,   0.00150,  -0.00058,  -3.17973,   1.00000
82993098.35344,495612952.17600,-72184014.61509,  -0.00105,   0.00360,  -0.00152,476465312.64258,   0.00168,276465321.42348,  -0.00046,   0.00151,  -0.00058,  -8.78090,   1.00000
82559027.97519,495460746.01402,-72190094.05854,  -0.00105,   0.00361,  -0.00152,476473310.26065,   0.00169,276473315.75644,  -0.00046,   0.00152,  -0.00058,  -5.49579,   1.00000
82092294.03963,495293649.80072,-72201373.04284,  -0.00106,   0.00362,  -0.00152,476481129.89500,   0.00170,276481133.98860,  -0.00046,   0.00152,  -0.00058,  -4.09360,   1.00000
81653945.08537,495142889.88484,-72199496.70228,  -0.00106,   0.00362,  -0.00153,476489013.28744,   0.00171,276489019.96054,  -0.00047,   0.00153,  -0.00059,  -6.67310,   1.00000
81182864.72212,494977161.28327,-72202837.44531,  -0.00107,   0.00363,  -0.00153,476496729.26160,   0.00171,276496729.95754,  -0.00047,   0.00153,  -0.00059,  -0.69595,   1.00000
80752428.08106,494831080.23589,-72195390.61711,  -0.00107,   0.00363,  -0.00153,476504422.50671,   0.00172,276504427.62724,  -0.00047,   0.00154,  -0.00059,  -5.12053,   1.00000
80296594.06596,494676424.62058,-72185461.14110,  -0.00107,   0.00364,  -0.00153,476512012.89443,   0.00173,276512021.55323,  -0.00047,   0.00155,  -0.00060,  -8.65881,   1.00000
79854209.29787,494525183.59265,-72177870.08067,  -0.00108,   0.00365,  -0.00154,476519537.08574,   0.00173,276519538.20047,  -0.00048,   0.00155,  -0.00060,  -1.11474,   1.00000
79406067.78889,494375100.93930,-72162420.61122,  -0.00108,   0.00365,  -0.00154,476526941.62820,   0.00174,276526943.51830,  -0.00048,   0.00156,  -0.00060,  -1.89010,   1.00000
78959107.70433,494225108.57731,-72146983.47843,  -0.00108,   0.00366,  -0.00154,476534350.00479,   0.00175,276534351.46486,  -0.00048,   0.00156,  -0.00060,  -1.46007,   1.00000
78506347.45934,494076229.20036,-72123704.61194,  -0.00109,   0.00367,  -0.00154,476541638.29838,   0.00176,276541648.11564,  -0.00048,   0.00157,  -0.00061,  -9.81726,   1.00000
78066932.45945,493930749.45959,-72102804.31986,  -0.00109,   0.00367,  -0.00155,476548859.95037,   0.00176,276548867.09556,  -0.00048,   0.00158,  -0.00061,  -7.14519,   1.00000
77628983.50002,493790370.88228,-72071559.12638,  -0.00110,   0.00368,  -0.00155,476556055.26143,   0.00177,276556060.65869,  -0.00049,   0.00158,  -0.00061,  -5.39726,   1.00000
77184790.41256,493646023.69546,-72042883.54142,  -0.00110,   0.00368,  -0.00155,476563169.90650,   0.00178,276563170.61077,  -0.00049,   0.00159,  -0.00062,  -0.70427,   1.00000
76754181.76525,493510074.05391,-72006223.65441,  -0.00110,   0.00369,  -0.00155,476570167.36168,   0.00178,276570174.81955,  -0.00049,   0.00159,  -0.00062,  -7.45787,   1.00000
76317253.91435,493370132.93509,-71972144.12917,  -0.00111,   0.00369,  -0.00156,476577093.65862,   0.00179,276577095.27855,  -0.00049,   0.00160,  -0.00062,  -1.61992,   1.00000
75881720.31783,493235231.17784,-71927745.92733,  -0.00111,   0.00370,  -0.00156,476583982.93782,   0.00179,276583990.31584,  -0.00050,   0.00160,  -0.00062,  -7.37802,   1.00000
75432568.40122,493094736.14707,-71883254.81020,  -0.00112,   0.00371,  -0.00156,476590700.43925,   0.00180,276590701.82057,  -0.00050,   0.00161,  -0.00063,  -1.38132,   1.00000
75004011.87164,492961668.73401,-71838688.35777,  -0.00112,   0.00371,  -0.00156,476597416.29468,   0.00181,276597421.08399,  -0.00050,   0.00161,  -0.00063,  -4.78931,   1.00000
74576786.06794,492833620.55587,-71783827.35713,  -0.00112,   0.00372,  -0.00156,476604113.17283,   0.00181,276604114.73203,  -0.00050,   0.00162,  -0.00063,  -1.55920,   1.00000
74135800.19690,492699877.98721,-71728876.91383,  -0.00113,   0.00372,  -0.00157,476610619.14094,   0.00182,276610624.94459,  -0.00050,   0.00163,  -0.00063,  -5.80365,   1.00000
73715514.12938,492576088.54190,-71668691.44654,  -0.00113,   0.00373,  -0.00157,476617125.59755,   0.00183,276617128.59843,  -0.00051,   0.00163,  -0.00064,  -3.00088,   1.00000
73288710.18576,492448170.22345,-71611117.32460,  -0.00113,   0.00373,  -0.00157,476623541.74079,   0.00183,276623548.50422,  -0.00051,   0.00164,  -0.00064,  -6.76343,   1.00000
72863168.88552,492325211.18218,-71543267.56751,  -0.00114,   0.00374,  -0.00157,476629937.51900,   0.00184,276629942.83069,  -0.00051,   0.00164,  -0.00064,  -5.31170,   1.00000
72443236.39501,492203965.78818,-71475184.63705,  -0.00114,   0.00374,  -0.00157,476636154.99198,   0.00184,276636158.64090,  -0.00051,   0.00165,  -0.00064,  -3.64892,   1.00000
72024372.41952,492085154.65270,-71402038.27195,  -0.00114,   0.00375,  -0.00157,476642359.02754,   0.00185,276642362.68209,  -0.00051,   0.00165,  -0.00065,  -3.65455,   1.00000
71599025.27681,491964629.03851,-71326316.44834,  -0.00115,   0.00375,  -0.00158,476648464.79353,   0.00186,276648469.17223,  -0.00051,   0.00166,  -0.00065,  -4.37870,   1.00000
71194279.02317,491854060.05622,-71245406.83859,  -0.00115,   0.00376,  -0.00158,476654561.03543,   0.00186,276654568.58974,  -0.00052,   0.00166,  -0.00065,  -7.55431,   1.00000
70775402.21681,491737601.16304,-71164401.15431,  -0.00116,   0.00376,  -0.00158,476660482.33941,   0.00187,276660484.57990,  -0.00052,   0.00167,  -0.00065,  -2.24049,   1.00000
70357667.45221,491625986.92719,-71073145.64634,  -0.00116,   0.00377,  -0.00158,476666372.62194,   0.00187,276666375.12175,  -0.00052,   0.00167,  -0.00065,  -2.49980,   1.00000
69960356.66519,491521861.43478,-70981936.68676,  -0.00116,   0.00377,  -0.00158,476672270.06165,   0.00188,276672272.05573,  -0.00052,   0.00167,  -0.00066,  -1.99408,   1.00000
69548785.48896,491411759.49009,-70890620.55435,  -0.00117,   0.00378,  -0.00158,476677983.68328,   0.00188,276677985.69771,  -0.00052,   0.00168,  -0.00066,  -2.01444,   1.00000
69138298.40014,491306452.69325,-70789063.14967,  -0.00117,   0.00378,  -0.00158,476683665.56480,   0.00189,276683673.94082,  -0.00053,   0.00168,  -0.00066,  -8.37603,   1.00000
68732922.59852,491200289.69642,-70692476.48972,  -0.00117,   0.00379,  -0.00158,476689192.71519,   0.00189,276689196.95361,  -0.00053,   0.00169,  -0.00066,  -4.23842,   1.00000
68336231.93932,491103079.60590,-70583200.99198,  -0.00118,   0.00379,  -0.00158,476694772.60279,   0.00190,276694780.24209,  -0.00053,   0.00169,  -0.00067,  -7.63931,   1.00000
67944563.09415,491004992.65150,-70478895.79310,  -0.00118,   0.00380,  -0.00158,476700189.86429,   0.00190,276700198.15140,  -0.00053,   0.00170,  -0.00067,  -8.28711,   1.00000
67553880.81150,490911652.60271,-70364358.29677,  -0.00118,   0.00380,  -0.00158,476705589.39503,   0.00191,276705590.58883,  -0.00053,   0.00170,  -0.00067,  -1.19380,   1.00000
67148687.31126,490812160.06182,-70249679.58174,  -0.00119,   0.00381,  -0.00158,476710795.82031,   0.00191,276710800.11914,  -0.00053,   0.00171,  -0.00067,  -4.29883,   1.00000
66763918.13690,490722621.47784,-70129871.83816,  -0.00119,   0.00381,  -0.00158,476715999.14300,   0.00192,276716001.86765,  -0.00054,   0.00171,  -0.00067,  -2.72464,   1.00000
66379862.81675,490632909.45381,-70010272.22183,  -0.00119,   0.00382,  -0.00159,476721205.16449,   0.00192,276721205.36030,  -0.00054,   0.00171,  -0.00067,  -0.19582,   1.00000
65981283.81559,490539404.52290,-69885284.00548,  -0.00120,   0.00382,  -0.00159,476726206.84483,   0.00193,276726212.57855,  -0.00054,   0.00172,  -0.00068,  -5.73372,   1.00000
65603086.92383,490455855.66159,-69755179.21551,  -0.00120,   0.00383,  -0.00159,476731211.81392,   0.00193,276731211.83877,  -0.00054,   0.00172,  -0.00068,  -0.02485,   1.00000
65218019.61012,490372677.29517,-69617259.09831,  -0.00120,   0.00383,  -0.00159,476736096.94303,   0.00194,276736100.50722,  -0.00054,   0.00173,  -0.00068,  -3.56419,   1.00000
64853192.67595,490297027.58810,-69479461.49035,  -0.00120,   0.00383,  -0.00159,476740989.39606,   0.00194,276740994.54335,  -0.00054,   0.00173,  -0.00068,  -5.14728,   1.00000
64473556.61975,490215072.97165,-69341464.13995,  -0.00121,   0.00384,  -0.00159,476745701.55999,   0.00195,276745705.91434,  -0.00055,   0.00173,  -0.00068,  -4.35435,   1.00000
64114322.88008,490145450.35109,-69193133.54766,  -0.00121,   0.00384,  -0.00159,476750390.06452,   0.00195,276750395.80866,  -0.00055,   0.00174,  -0.00069,  -5.74414,   1.00000
63747894.90267,490071328.88816,-69047423.17300,  -0.00121,   0.00385,  -0.00158,476754995.64708,   0.00196,276755001.95765,  -0.00055,   0.00174,  -0.00069,  -6.31057,   1.00000
63374446.05616,489997469.19578,-68893859.88261,  -0.00122,   0.00385,  -0.00158,476759492.65911,   0.00196,276759497.84871,  -0.00055,   0.00174,  -0.00069,  -5.18961,   1.00000
63021172.13964,489931147.45049,-68740431.72453,  -0.00122,   0.00385,  -0.00158,476763990.94414,   0.00196,276763998.84728,  -0.00055,   0.00175,  -0.00069,  -7.90314,   1.00000
62660812.78397,489865045.82421,-68579140.05204,  -0.00122,   0.00386,  -0.00158,476768386.12070,   0.00197,276768389.66434,  -0.00055,   0.00175,  -0.00069,  -3.54365,   1.00000
62312841.67376,489804576.92754,-68415122.70335,  -0.00123,   0.00386,  -0.00158,476772677.28657,   0.00197,276772686.89325,  -0.00055,   0.00176,  -0.00069,  -9.60668,   1.00000
61957636.64539,489741913.23782,-68248461.75192,  -0.00123,   0.00387,  -0.00158,476776883.25320,   0.00198,276776887.29952,  -0.00056,   0.00176,  -0.00070,  -4.04633,   1.00000
61603046.19011,489681290.75225,-68076790.82171,  -0.00123,   0.00387,  -0.00158,476781072.38627,   0.00198,276781076.45617,  -0.00056,   0.00176,  -0.00070,  -4.06990,   1.00000
61252899.42759,489622007.22039,-67904723.97806,  -0.00123,   0.00387,  -0.00158,476785082.28825,   0.00198,276785086.68297,  -0.00056,   0.00177,  -0.00070,  -4.39471,   1.00000
60922917.07670,489572625.73249,-67727559.36674,  -0.00124,   0.00388,  -0.00158,476789085.55519,   0.00199,276789088.57092,  -0.00056,   0.00177,  -0.00070,  -3.01574,   1.00000
60593483.25521,489525246.15069,-67545382.49639,  -0.00124,   0.00388,  -0.00158,476793071.58978,   0.00199,276793079.22742,  -0.00056,   0.00177,  -0.00070,  -7.63764,   1.00000
60248781.05840,489471285.94005,-67362850.43660,  -0.00124,   0.00388,  -0.00158,476796883.26864,   0.00199,276796888.12380,  -0.00056,   0.00178,  -0.00070,  -4.85516,   1.00000
59924282.15699,489429520.55978,-67169968.93670,  -0.00124,   0.00389,  -0.00158,476800667.66133,   0.00200,276800675.80462,  -0.00056,   0.00178,  -0.00070,  -8.14328,   1.00000
59592294.24393,489383096.12882,-66979637.20534,  -0.00125,   0.00389,  -0.00158,476804373.14253,   0.00200,276804380.11352,  -0.00056,   0.00178,  -0.00070,  -6.97098,   1.00000
59272537.51272,489344554.86992,-66781260.11350,  -0.00125,   0.00390,  -0.00157,476807973.61821,   0.00200,276807977.98428,  -0.00057,   0.00178,  -0.00071,  -4.36607,   1.00000
58953259.37696,489307916.97769,-66577855.27337,  -0.00125,   0.00390,  -0.00157,476811556.38453,   0.00201,276811565.01978,  -0.00057,   0.00179,  -0.00071,  -8.63525,   1.00000
58646024.25825,489274538.50555,-66376908.29698,  -0.00125,   0.00390,  -0.00157,476815064.36162,   0.00201,276815071.28626,  -0.00057,   0.00179,  -0.00071,  -6.92464,   1.00000
58331335.95863,489241034.65525,-66167950.15615,  -0.00126,   0.00390,  -0.00157,476818460.70767,   0.00201,276818468.82869,  -0.00057,   0.00179,  -0.00071,  -8.12102,   1.00000
58028709.45919,489213066.56114,-65956166.52504,  -0.00126,   0.00391,  -0.00157,476821770.07827,   0.00202,276821772.90102,  -0.00057,   0.00180,  -0.00071,  -2.82275,   1.00000
57718513.66512,489182635.54305,-65741606.11313,  -0.00126,   0.00391,  -0.00157,476824977.76986,   0.00202,276824981.24310,  -0.00057,   0.00180,  -0.00071,  -3.47324,   1.00000
57428329.80298,489162027.03928,-65521932.16981,  -0.00126,   0.00391,  -0.00157,476828181.14183,   0.00202,276828181.33929,  -0.00057,   0.00180,  -0.00071,  -0.19746,   1.00000
57130529.49478,489138917.86745,-65299461.08535,  -0.00127,   0.00392,  -0.00156,476831282.37641,   0.00203,276831285.85995,  -0.00057,   0.00180,  -0.00071,  -3.48354,   1.00000
56844756.29998,489123553.12969,-65068846.74050,  -0.00127,   0.00392,  -0.00156,476834281.29193,   0.00203,276834284.56072,  -0.00057,   0.00181,  -0.00072,  -3.26879,   1.00000
56559288.37005,489107712.13381,-64838444.79582,  -0.00127,   0.00392,  -0.00156,476837283.36376,   0.00203,276837285.46155,  -0.00057,   0.00181,  -0.00072,  -2.09779,   1.00000
56285746.84235,489097342.96471,-64605151.47737,  -0.00127,   0.00393,  -0.00156,476840186.81064,   0.00204,276840193.16536,  -0.00058,   0.00181,  -0.00072,  -6.35472,   1.00000
56004552.12669,489086634.01879,-64363727.18428,  -0.00128,   0.00393,  -0.00156,476842988.49467,   0.00204,276842993.24880,  -0.00058,   0.00181,  -0.00072,  -4.75413,   1.00000
55735240.26866,489081367.76281,-64119382.98207,  -0.00128,   0.00393,  -0.00155,476845697.87235,   0.00204,276845700.30514,  -0.00058,   0.00181,  -0.00072,  -2.43279,   1.00000
55458127.58142,489071271.76067,-63877438.10322,  -0.00128,   0.00393,  -0.00155,476848316.64443,   0.00204,276848324.74092,  -0.00058,   0.00182,  -0.00072,  -8.09649,   1.00000
55200975.06847,489073127.26464,-63625055.84661,  -0.00128,   0.00394,  -0.00155,476850921.30621,   0.00205,276850928.97331,  -0.00058,   0.00182,  -0.00072,  -7.66710,   1.00000
54955636.85144,489080404.84230,-63369715.72515,  -0.00128,   0.00394,  -0.00155,476853438.61196,   0.00205,276853440.27140,  -0.00058,   0.00182,  -0.00072,  -1.65944,   1.00000
54702433.14734,489082827.48036,-63116738.91905,  -0.00129,   0.00394,  -0.00154,476855864.85855,   0.00205,276855869.06499,  -0.00058,   0.00182,  -0.00072,  -4.20644,   1.00000
54449537.02830,489089051.56547,-62853346.87949,  -0.00129,   0.00394,  -0.00154,476858269.99467,   0.00205,276858276.20845,  -0.00058,   0.00182,  -0.00072,  -6.21377,   1.00000
54208407.46358,489100658.64921,-62586952.29028,  -0.00129,   0.00395,  -0.00154,476860585.21021,   0.00205,276860590.70279,  -0.00058,   0.00183,  -0.00072,  -5.49259,   1.00000
53979018.38851,489117636.40456,-62317536.34355,  -0.00129,   0.00395,  -0.00154,476862802.89653,   0.00206,276862812.62359,  -0.00058,   0.00183,  -0.00072,  -9.72705,   1.00000
53741735.52387,489131880.70189,-62045124.03354,  -0.00129,   0.00395,  -0.00153,476864935.73770,   0.00206,276864940.32737,  -0.00058,   0.00183,  -0.00073,  -4.58967,   1.00000
53524320.44415,489157903.73679,-61762212.47473,  -0.00130,   0.00395,  -0.00153,476867042.21313,   0.00206,276867048.73553,  -0.00058,   0.00183,  -0.00073,  -6.52239,   1.00000
53298937.56874,489179002.70660,-61481582.89042,  -0.00130,   0.00396,  -0.00153,476869067.36956,   0.00206,276869075.09112,  -0.00059,   0.00183,  -0.00073,  -7.72156,   1.00000
53085228.07154,489205440.17541,-61197865.42588,  -0.00130,   0.00396,  -0.00152,476871007.68355,   0.00206,276871009.16678,  -0.00059,   0.00184,  -0.00073,  -1.48323,   1.00000
52863556.28408,489229047.81755,-60911074.10521,  -0.00130,   0.00396,  -0.00152,476872840.86253,   0.00207,276872849.68074,  -0.00059,   0.00184,  -0.00073,  -8.81821,   1.00000
52661711.51195,489264363.28110,-60613742.87852,  -0.00130,   0.00396,  -0.00152,476874670.91603,   0.00207,276874671.34017,  -0.00059,   0.00184,  -0.00073,  -0.42414,   1.00000
52451838.09515,489294704.45938,-60318625.66976,  -0.00130,   0.00396,  -0.00151,476876405.70749,   0.00207,276876411.34950,  -0.00059,   0.00184,  -0.00073,  -5.64201,   1.00000
52273224.16091,489340566.88414,-60014987.81501,  -0.00130,   0.00397,  -0.00151,476878042.59183,   0.00207,276878049.38222,  -0.00059,   0.00184,  -0.00073,  -6.79039,   1.00000
52075096.73494,489377577.68000,-59711497.95118,  -0.00131,   0.00397,  -0.00151,476879684.51279,   0.00207,276879689.27547,  -0.00059,   0.00184,  -0.00073,  -4.76268,   1.00000
51908169.16192,489428012.03083,-59404779.53165,  -0.00131,   0.00397,  -0.00150,476881230.95665,   0.00207,276881238.87122,  -0.00059,   0.00184,  -0.00073,  -7.91457,   1.00000
51733210.94952,489477568.44407,-59089541.59589,  -0.00131,   0.00397,  -0.00150,476882680.12135,   0.00207,276882684.29570,  -0.00059,   0.00184,  -0.00073,  -4.17435,   1.00000
51550181.80306,489524147.03112,-58771089.37283,  -0.00131,   0.00397,  -0.00150,476884027.65478,   0.00208,276884037.23614,  -0.00059,   0.00185,  -0.00073,  -9.58137,   1.00000
51378662.37765,489573916.38564,-58454710.92310,  -0.00131,   0.00397,  -0.00149,476885304.11548,   0.00208,276885310.14040,  -0.00059,   0.00185,  -0.00073,  -6.02491,   1.00000
51226890.96995,489635172.43439,-58127691.41256,  -0.00131,   0.00398,  -0.00149,476886563.42658,   0.00208,276886565.54302,  -0.00059,   0.00185,  -0.00073,  -2.11643,   1.00000
51075183.45075,489695657.63431,-57800743.60327,  -0.00131,   0.00398,  -0.00148,476887820.98623,   0.00208,276887824.66157,  -0.00059,   0.00185,  -0.00073,  -3.67535,   1.00000
50926796.16852,489759049.09038,-57467116.71642,  -0.00132,   0.00398,  -0.00148,476888890.60271,   0.00208,276888897.19595,  -0.00059,   0.00185,  -0.00073,  -6.59324,   1.00000
50778486.39523,489823631.94082,-57128186.53434,  -0.00132,   0.00398,  -0.00148,476889957.48267,   0.00208,276889962.69235,  -0.00059,   0.00185,  -0.00073,  -5.20967,   1.00000
50661252.30476,489899593.12902,-56791218.03242,  -0.00132,   0.00398,  -0.00147,476890945.89683,   0.00208,276890949.58645,  -0.00059,   0.00185,  -0.00073,  -3.68962,   1.00000
50516259.82559,489966203.42322,-56445546.76227,  -0.00132,   0.00398,  -0.00147,476891824.43582,   0.00208,276891833.15618,  -0.00059,   0.00185,  -0.00073,  -8.72036,   1.00000
50410574.82412,490050375.80703,-56094490.17981,  -0.00132,   0.00398,  -0.00146,476892704.10764,   0.00208,276892712.22797,  -0.00059,   0.00185,  -0.00073,  -8.12033,   1.00000
50296688.25384,490129475.94774,-55745386.08083,  -0.00132,   0.00399,  -0.00146,476893504.66771,   0.00209,276893510.82472,  -0.00059,   0.00185,  -0.00073,  -6.15701,   1.00000
50174639.24566,490207347.99629,-55387474.40843,  -0.00132,   0.00399,  -0.00145,476894200.61030,   0.00209,276894207.89975,  -0.00059,   0.00185,  -0.00073,  -7.28945,   1.00000
50083646.11578,490298511.57262,-55026049.46441,  -0.00132,   0.00399,  -0.00145,476894813.63594,   0.00209,276894816.19541,  -0.00059,   0.00185,  -0.00074,  -2.55947,   1.00000
49992665.97221,490388785.04639,-54664607.92105,  -0.00132,   0.00399,  -0.00145,476895420.92625,   0.00209,276895429.05734,  -0.00059,   0.00186,  -0.00074,  -8.13109,   1.00000
49893496.96562,490477747.02067,-54294277.51649,  -0.00132,   0.00399,  -0.00144,476895939.47985,   0.00209,276895941.08383,  -0.00059,   0.00186,  -0.00074,  -1.60398,   1.00000
49813963.73233,490574020.61136,-53923893.80578,  -0.00132,   0.00399,  -0.00144,476896449.11689,   0.00209,276896458.86987,  -0.00059,   0.00186,  -0.00074,  -9.75298,   1.00000
49737604.42989,490672965.12972,-53546402.80995,  -0.00133,   0.00399,  -0.00143,476896783.29929,   0.00209,276896792.65919,  -0.00059,   0.00186,  -0.00074,  -9.35989,   1.00000
49680872.54902,490779222.94383,-53168833.89918,  -0.00133,   0.00399,  -0.00143,476897126.68499,   0.00209,276897132.27889,  -0.00060,   0.00186,  -0.00074,  -5.59390,   1.00000
49615923.39348,490884024.87491,-52782254.74996,  -0.00133,   0.00399,  -0.00142,476897369.26069,   0.00209,276897372.20820,  -0.00060,   0.00186,  -0.00074,  -2.94751,   1.00000
49570598.14893,490996095.77958,-52395580.42359,  -0.00133,   0.00399,  -0.00142,476897610.24650,   0.00209,276897618.25276,  -0.00060,   0.00186,  -0.00074,  -8.00626,   1.00000
49517046.88288,491106643.79401,-51999840.83715,  -0.00133,   0.00400,  -0.00141,476897759.63685,   0.00209,276897765.14219,  -0.00060,   0.00186,  -0.00074,  -5.50534,   1.00000
49474857.41064,491220274.79026,-51605779.80928,  -0.00133,   0.00400,  -0.00141,476897825.90984,   0.00209,276897833.79922,  -0.00060,   0.00186,  -0.00074,  -7.88938,   1.00000
49452305.33451,491342940.44360,-51206193.04849,  -0.00133,   0.00400,  -0.00140,476897889.62779,   0.00209,276897899.01791,  -0.00060,   0.00186,  -0.00074,  -9.39011,   1.00000
49441087.97003,491466331.45288,-50802367.92720,  -0.00133,   0.00400,  -0.00140,476893686.01899,   0.00209,276897899.01791,  -0.00060,   0.00186,  -0.00074,-4212.99892,   0.00000
49421457.58219,491570092.07432,-50392934.12367,  -0.00133,   0.00400,  -0.00139,476873011.25788,   0.00209,276897899.01791,  -0.00060,   0.00186,  -0.00074,-24887.76002,   0.00000
49413044.55883,491662635.33129,-49977891.63790,  -0.00133,   0.00400,  -0.00139,476836048.55721,   0.00209,276897899.01791,  -0.00060,   0.00186,  -0.00074,-61850.46070,   0.00000
49404631.53547,491755178.58825,-49557240.46989,  -0.00133,   0.00400,  -0.00138,476798437.63447,   0.00209,276897899.01791,  -0.00060,   0.00186,  -0.00074,-99461.38343,   0.00000
49407435.87659,491836504.48073,-49130980.61965,  -0.00133,   0.00400,  -0.00137,476744607.80670,   0.00209,276897899.01791,  -0.00060,   0.00186,  -0.00074,-153291.21120,   0.00000
49429870.60555,491926243.39657,-48699112.08716,  -0.00133,   0.00400,  -0.00137,476690361.81363,   0.00209,276897899.01791,  -0.00060,   0.00186,  -0.00074,-207537.20428,   0.00000
49455109.67563,491985134.56009,-48261634.87243,  -0.00133,   0.00400,  -0.00136,476604194.18462,   0.00209,276897899.01791,  -0.00060,   0.00186,  -0.00074,-293704.83329,   0.00000
49488761.76907,492063656.11145,-47824157.65770,  -0.00133,   0.00400,  -0.00136,476535002.19994,   0.00209,276897899.01791,  -0.00060,   0.00186,  -0.00074,-362896.81797,   0.00000
49525218.20363,492111329.91049,-47375463.07849,  -0.00133,   0.00400,  -0.00135,476432252.03149,   0.00209,276897899.01791,  -0.00060,   0.00186,  -0.00074,-465646.98641,   0.00000
49581305.02603,492167416.73290,-46926768.49928,  -0.00133,   0.00400,  -0.00135,476330907.97686,   0.00209,276897899.01791,  -0.00060,   0.00186,  -0.00074,-566991.04104,   0.00000
49628978.82507,492203873.16746,-46472465.23783,  -0.00133,   0.00400,  -0.00134,476213379.46037,   0.00209,276897899.01791,  -0.00060,   0.00186,  -0.00074,-684519.55754,   0.00000
49687869.98860,492229112.23754,-46012553.29415,  -0.00133,   0.00400,  -0.00133,476079859.27430,   0.00209,276897899.01791,  -0.00060,   0.00186,  -0.00074,-818039.74361,   0.00000
49766391.53996,492262764.33098,-45547032.66822,  -0.00133,   0.00400,  -0.00133,475946192.29287,   0.00209,276897899.01791,  -0.00060,   0.00186,  -0.00074,-951706.72503,   0.00000
49836500.06796,492276786.03658,-45075903.36005,  -0.00133,   0.00400,  -0.00132,475796458.49873,   0.00209,276897899.01791,  -0.00060,   0.00186,  -0.00074,-1101440.51918,   0.00000
49926238.98380,492299220.76554,-44604774.05188,  -0.00133,   0.00400,  -0.00132,475648253.61038,   0.00209,276897899.01791,  -0.00060,   0.00186,  -0.00074,-1249645.40753,   0.00000
50027195.26412,492310438.13002,-44122427.37923,  -0.00133,   0.00400,  -0.00131,475482642.30398,   0.00209,276897899.01791,  -0.00060,   0.00186,  -0.00074,-1415256.71392,   0.00000
50139368.90892,492310438.13002,-43640080.70658,  -0.00133,   0.00400,  -0.00130,475302807.75888,   0.00209,276897899.01791,  -0.00060,   0.00186,  -0.00074,-1595091.25903,   0.00000
50243129.53037,492290807.74218,-43152125.35169,  -0.00133,   0.00400,  -0.00130,475107038.88656,   0.00209,276897899.01791,  -0.00060,   0.00186,  -0.00074,-1790860.13134,   0.00000
50366520.53965,492279590.37770,-42658561.31456,  -0.00133,   0.00400,  -0.00129,474911391.68689,   0.00209,276897899.01791,  -0.00060,   0.00186,  -0.00074,-1986507.33101,   0.00000
50509541.93677,492276786.03658,-42159388.59519,  -0.00133,   0.00400,  -0.00128,474715930.91923,   0.00209,276897899.01791,  -0.00060,   0.00186,  -0.00074,-2181968.09867,   0.00000
50655367.67501,492243133.94314,-41654607.19358,  -0.00132,   0.00400,  -0.00128,474489021.11052,   0.00209,276897899.01791,  -0.00060,   0.00186,  -0.00074,-2408877.90739,   0.00000
50801193.41326,492209481.84970,-41149825.79197,  -0.00132,   0.00400,  -0.00127,474263672.10214,   0.00209,276897899.01791,  -0.00060,   0.00186,  -0.00074,-2634226.91577,   0.00000
50958236.51598,492164612.39178,-40639435.70812,  -0.00132,   0.00400,  -0.00126,474022782.19568,   0.00209,276897899.01791,  -0.00060,   0.00186,  -0.00074,-2875116.82223,   0.00000
51134910.00654,492128155.95721,-40123436.94203,  -0.00132,   0.00400,  -0.00126,473782273.32477,   0.00209,276897899.01791,  -0.00060,   0.00186,  -0.00074,-3115625.69313,   0.00000
51303170.47375,492072069.13481,-39601829.49370,  -0.00132,   0.00400,  -0.00125,473526128.07830,   0.00209,276897899.01791,  -0.00060,   0.00186,  -0.00074,-3371770.93960,   0.00000
51491061.32879,492024395.33577,-39080222.04537,  -0.00132,   0.00400,  -0.00124,473271875.30229,   0.00209,276897899.01791,  -0.00060,   0.00186,  -0.00074,-3626023.71561,   0.00000
51681756.52495,491945873.78441,-38547397.23256,  -0.00132,   0.00399,  -0.00124,472985015.95595,   0.00209,276897899.01791,  -0.00060,   0.00186,  -0.00074,-3912883.06196,   0.00000
51900495.13232,491895395.64425,-38014572.41975,  -0.00132,   0.00399,  -0.00123,472716035.49332,   0.00209,276897899.01791,  -0.00060,   0.00186,  -0.00074,-4181863.52459,   0.00000
52102407.69296,491805656.72841,-37476138.92470,  -0.00132,   0.00399,  -0.00122,472415695.13619,   0.00209,276897899.01791,  -0.00060,   0.00186,  -0.00074,-4482203.88172,   0.00000
52343581.02929,491732743.85929,-36937705.42965,  -0.00132,   0.00399,  -0.00122,472117645.70139,   0.00209,276897899.01791,  -0.00060,   0.00186,  -0.00074,-4780253.31651,   0.00000
52584754.36561,491659830.99017,-36393663.25236,  -0.00131,   0.00399,  -0.00121,471820125.18723,   0.00209,276897899.01791,  -0.00060,   0.00186,  -0.00074,-5077773.83068,   0.00000
52809101.65522,491547657.34536,-35844012.39283,  -0.00131,   0.00399,  -0.00120,471491346.82141,   0.00209,276897899.01791,  -0.00060,   0.00186,  -0.00074,-5406552.19650,   0.00000
53072709.72050,491452309.74728,-35288752.85106,  -0.00131,   0.00399,  -0.00119,471163737.70662,   0.00209,276897899.01791,  -0.00060,   0.00186,  -0.00074,-5734161.31128,   0.00000
53336317.78579,491356962.14920,-34733493.30929,  -0.00131,   0.00399,  -0.00119,470838085.37584,   0.00209,276897899.01791,  -0.00060,   0.00186,  -0.00074,-6059813.64206,   0.00000
53611143.21555,491250397.18664,-34167016.40304,  -0.00131,   0.00399,  -0.00118,470496298.65100,   0.00209,276897899.01791,  -0.00060,   0.00186,  -0.00074,-6401600.36690,   0.00000
53897186.00980,491132614.85960,-33606148.17903,  -0.00131,   0.00399,  -0.00117,470142112.26641,   0.00209,276897899.01791,  -0.00060,   0.00186,  -0.00074,-6755786.75149,   0.00000
54183228.80404,491014832.53255,-33034062.59054,  -0.00131,   0.00399,  -0.00117,469787576.36513,   0.00209,276897899.01791,  -0.00060,   0.00186,  -0.00074,-7110322.65278,   0.00000
54500119.35061,490894245.86439,-32461977.00205,  -0.00130,   0.00398,  -0.00116,469419821.15853,   0.00209,276897899.01791,  -0.00060,   0.00186,  -0.00074,-7478077.85937,   0.00000
54808596.87381,490754028.80839,-31884282.73131,  -0.00130,   0.00398,  -0.00115,469037079.35477,   0.00209,276897899.01791,  -0.00060,   0.00186,  -0.00074,-7860819.66314,   0.00000
55136704.78486,490622224.77575,-31306588.46058,  -0.00130,   0.00398,  -0.00114,468656844.96570,   0.00209,276897899.01791,  -0.00060,   0.00186,  -0.00074,-8241054.05221,   0.00000
55464812.69591,490490420.74310,-30717676.82537,  -0.00130,   0.00398,  -0.00114,468276591.32304,   0.00209,276897899.01791,  -0.00060,   0.00186,  -0.00074,-8621307.69486,   0.00000
55815355.33591,490336181.98150,-30134373.87240,  -0.00130,   0.00398,  -0.00113,467868441.43003,   0.00209,276897899.01791,  -0.00060,   0.00186,  -0.00074,-9029457.58788,   0.00000
56165897.97592,490181943.21990,-29539853.55495,  -0.00130,   0.00398,  -0.00112,467460421.19723,   0.00209,276897899.01791,  -0.00060,   0.00186,  -0.00074,-9437477.82067,   0.00000
56536071.00377,490036117.48165,-28945333.23750,  -0.00129,   0.00398,  -0.00111,467055140.18944,   0.00209,276897899.01791,  -0.00060,   0.00186,  -0.00074,-9842758.82847,   0.00000
56917461.39609,489879074.37893,-28350812.92005,  -0.00129,   0.00398,  -0.00110,466636622.43881,   0.00209,276897899.01791,  -0.00060,   0.00186,  -0.00074,-10261276.57910,   0.00000
57290438.76506,489702400.88837,-27745075.23811,  -0.00129,   0.00397,  -0.00110,466202464.59927,   0.00209,276897899.01791,  -0.00060,   0.00186,  -0.00074,-10695434.41864,   0.00000
57683046.52187,489534140.42117,-27139337.55618,  -0.00129,   0.00397,  -0.00109,465771208.67110,   0.00209,276897899.01791,  -0.00060,   0.00186,  -0.00074,-11126690.34680,   0.00000
58106502.03100,489363075.61284,-26533599.87425,  -0.00129,   0.00397,  -0.00108,465327309.07546,   0.00209,276897899.01791,  -0.00060,   0.00186,  -0.00074,-11570589.94245,   0.00000
58510327.15228,489183597.78116,-25922253.51008,  -0.00128,   0.00397,  -0.00107,464884553.47430,   0.00209,276897899.01791,  -0.00060,   0.00186,  -0.00074,-12013345.54360,   0.00000
58945000.02589,489001315.60835,-25305298.46367,  -0.00128,   0.00397,  -0.00106,464428349.18270,   0.00209,276897899.01791,  -0.00060,   0.00186,  -0.00074,-12469549.83521,   0.00000
59399303.28734,488827446.45891,-24688343.41726,  -0.00128,   0.00397,  -0.00106,463975304.08119,   0.00209,276897899.01791,  -0.00060,   0.00186,  -0.00074,-12922594.93671,   0.00000
59845193.52543,488633946.92163,-24065779.68860,  -0.00128,   0.00396,  -0.00105,463508007.92623,   0.00209,276897899.01791,  -0.00060,   0.00186,  -0.00074,-13389891.09167,   0.00000
60302301.12800,488429230.01986,-23443215.95995,  -0.00127,   0.00396,  -0.00104,463027889.95307,   0.00209,276897899.01791,  -0.00060,   0.00186,  -0.00074,-13870009.06484,   0.00000
60779039.11841,488232926.14146,-22815043.54906,  -0.00127,   0.00396,  -0.00103,462550248.38865,   0.00209,276897899.01791,  -0.00060,   0.00186,  -0.00074,-14347650.62926,   0.00000
61266994.47330,488025404.89858,-22186871.13817,  -0.00127,   0.00396,  -0.00102,462059912.13929,   0.00209,276897899.01791,  -0.00060,   0.00186,  -0.00074,-14837986.87862,   0.00000
61754949.82819,487817883.65569,-21553090.04504,  -0.00127,   0.00396,  -0.00102,461571662.45732,   0.00209,276897899.01791,  -0.00060,   0.00186,  -0.00074,-15326236.56058,   0.00000
62254122.54756,487599145.04833,-20919308.95190,  -0.00126,   0.00395,  -0.00101,461070816.20634,   0.00209,276897899.01791,  -0.00060,   0.00186,  -0.00074,-15827082.81157,   0.00000
62772925.65477,487388819.46432,-20279919.17653,  -0.00126,   0.00395,  -0.00100,460572800.72786,   0.00209,276897899.01791,  -0.00060,   0.00186,  -0.00074,-16325098.29004,   0.00000
63302946.12646,487167276.51584,-19640529.40116,  -0.00126,   0.00395,  -0.00099,460062327.97499,   0.00209,276897899.01791,  -0.00060,   0.00186,  -0.00074,-16835571.04291,   0.00000
63852596.98599,486954146.59072,-18995530.94355,  -0.00125,   0.00395,  -0.00098,459554891.97518,   0.00209,276897899.01791,  -0.00060,   0.00186,  -0.00074,-17343007.04273,   0.00000
64413465.21000,486729799.30111,-18350532.48593,  -0.00125,   0.00395,  -0.00097,459035145.88935,   0.00209,276897899.01791,  -0.00060,   0.00186,  -0.00074,-17862753.12855,   0.00000
64965920.41065,486485821.62367,-17699925.34608,  -0.00125,   0.00394,  -0.00097,458501786.64746,   0.00209,276897899.01791,  -0.00060,   0.00186,  -0.00074,-18396112.37044,   0.00000
65538005.99914,486250256.96958,-17049318.20623,  -0.00125,   0.00394,  -0.00096,457972387.95463,   0.00209,276897899.01791,  -0.00060,   0.00186,  -0.00074,-18925511.06328,   0.00000
66129721.97547,486023105.33886,-16398711.06638,  -0.00124,   0.00394,  -0.00095,457447023.59506,   0.00209,276897899.01791,  -0.00060,   0.00186,  -0.00074,-19450875.42284,   0.00000
66732655.31628,485784736.34365,-15742495.24428,  -0.00124,   0.00394,  -0.00094,456908995.80907,   0.00209,276897899.01791,  -0.00060,   0.00186,  -0.00074,-19988903.20884,   0.00000
67327175.63373,485526736.96061,-15086279.42219,  -0.00124,   0.00394,  -0.00093,456358197.54730,   0.00209,276897899.01791,  -0.00060,   0.00186,  -0.00074,-20539701.47060,   0.00000
67960956.72687,485285563.62428,-14424454.91786,  -0.00123,   0.00393,  -0.00092,455811905.73608,   0.00209,276897899.01791,  -0.00060,   0.00186,  -0.00074,-21085993.28182,   0.00000
68586324.79664,485024759.90012,-13762630.41353,  -0.00123,   0.00393,  -0.00091,455252969.16775,   0.00209,276897899.01791,  -0.00060,   0.00186,  -0.00074,-21644929.85015,   0.00000
69231323.25425,484772369.19931,-13095197.22695,  -0.00123,   0.00393,  -0.00091,454697972.32132,   0.00209,276897899.01791,  -0.00060,   0.00186,  -0.00074,-22199926.69658,   0.00000
69895952.09970,484528391.52187,-12427764.04038,  -0.00122,   0.00393,  -0.00090,454147532.22171,   0.00209,276897899.01791,  -0.00060,   0.00186,  -0.00074,-22750366.79620,   0.00000
70563385.28628,484253566.09210,-11760330.85381,  -0.00122,   0.00392,  -0.00089,453569237.05311,   0.00209,276897899.01791,  -0.00060,   0.00186,  -0.00074,-23328661.96479,   0.00000
71239231.49621,483998371.05018,-11087288.98499,  -0.00121,   0.00392,  -0.00088,453010555.30250,   0.00209,276897899.01791,  -0.00060,   0.00186,  -0.00074,-23887343.71541,   0.00000
71917882.04726,483712328.25593,-10414247.11618,  -0.00121,   0.00392,  -0.00087,452424139.19420,   0.00209,276897899.01791,  -0.00060,   0.00186,  -0.00074,-24473759.82371,   0.00000
72624576.00952,483454328.87289,-9741205.24737,  -0.00121,   0.00392,  -0.00086,451858854.87744,   0.00209,276897899.01791,  -0.00060,   0.00186,  -0.00074,-25039044.14046,   0.00000
73342487.33625,483185112.12536,-9068163.37856,  -0.00120,   0.00391,  -0.00085,451282250.72822,   0.00209,276897899.01791,  -0.00060,   0.00186,  -0.00074,-25615648.28968,   0.00000
74071616.02746,482904678.01336,-8389512.82750,  -0.00120,   0.00391,  -0.00084,450694080.54342,   0.00209,276897899.01791,  -0.00060,   0.00186,  -0.00074,-26203818.47448,   0.00000
74820375.10652,482632656.92471,-7710862.27645,  -0.00120,   0.00391,  -0.00084,450111081.64837,   0.00209,276897899.01791,  -0.00060,   0.00186,  -0.00074,-26786817.36954,   0.00000
75560721.16221,482341005.44823,-7026603.04316,  -0.00119,   0.00390,  -0.00083,449515687.54890,   0.00209,276897899.01791,  -0.00060,   0.00186,  -0.00074,-27382211.46900,   0.00000
76340327.99359,482066180.01846,-6347952.49210,  -0.00119,   0.00390,  -0.00082,448926994.95693,   0.00209,276897899.01791,  -0.00060,   0.00186,  -0.00074,-27970904.06097,   0.00000
77111521.80160,481771724.20086,-5663693.25881,  -0.00118,   0.00390,  -0.00081,448326067.14746,   0.00209,276897899.01791,  -0.00060,   0.00186,  -0.00074,-28571831.87045,   0.00000
77902345.99746,481485681.40661,-4973825.34328,  -0.00118,   0.00390,  -0.00080,447730487.66124,   0.00209,276897899.01791,  -0.00060,   0.00186,  -0.00074,-29167411.35666,   0.00000
78693170.19331,481199638.61236,-4289566.10998,  -0.00118,   0.00389,  -0.00079,447139556.86083,   0.00209,276897899.01791,  -0.00060,   0.00186,  -0.00074,-29758342.15708,   0.00000
79514842.14149,480910791.47700,-3599698.19445,  -0.00117,   0.00389,  -0.00078,446539054.61075,   0.00209,276897899.01791,  -0.00060,   0.00186,  -0.00074,-30358844.40716,   0.00000
80328101.06630,480602313.95379,-2909830.27892,  -0.00117,   0.00389,  -0.00077,445926807.99368,   0.00209,276897899.01791,  -0.00060,   0.00186,  -0.00074,-30971091.02422,   0.00000
81180620.76680,480310662.47731,-2219962.36338,  -0.00116,   0.00388,  -0.00076,445321785.49374,   0.00209,276897899.01791,  -0.00060,   0.00186,  -0.00074,-31576113.52416,   0.00000
82024727.44394,479999380.61298,-1530094.44785,  -0.00116,   0.00388,  -0.00076,444705145.57414,   0.00209,276897899.01791,  -0.00060,   0.00186,  -0.00074,-32192753.44376,   0.00000
82888464.50891,479696511.77202,-840226.53232,  -0.00115,   0.00388,  -0.00075,444094642.62215,   0.00209,276897899.01791,  -0.00060,   0.00186,  -0.00074,-32803256.39575,   0.00000
83752201.57389,479393642.93105,-144749.93454,  -0.00115,   0.00388,  -0.00074,443488991.96350,   0.00209,276897899.01791,  -0.00060,   0.00186,  -0.00074,-33408907.05440,   0.00000
84646786.39119,479087969.74896,550726.66323,  -0.00114,   0.00387,  -0.00073,442874715.99334,   0.00209,276897899.01791,  -0.00060,   0.00186,  -0.00074,-34023183.02456,   0.00000
85541371.20848,478782296.56688,1240594.57876,  -0.00114,   0.00387,  -0.00072,442265459.60558,   0.00209,276897899.01791,  -0.00060,   0.00186,  -0.00074,-34632439.41233,   0.00000
86447173.39026,478465406.02031,1936071.17654,  -0.00113,   0.00387,  -0.00071,441646376.35179,   0.00209,276897899.01791,  -0.00060,   0.00186,  -0.00074,-35251522.66611,   0.00000
87392236.34772,478165341.52047,2637156.45655,  -0.00113,   0.00386,  -0.00070,441035624.46624,   0.00209,276897899.01791,  -0.00060,   0.00186,  -0.00074,-35862274.55167,   0.00000
88309255.89398,477837233.60942,3332633.05432,  -0.00113,   0.00386,  -0.00069,440412097.12131,   0.00209,276897899.01791,  -0.00060,   0.00186,  -0.00074,-36485801.89659,   0.00000
89265536.21592,477525951.74509,4028109.65210,  -0.00112,   0.00386,  -0.00068,439797041.15483,   0.00209,276897899.01791,  -0.00060,   0.00186,  -0.00074,-37100857.86308,   0.00000
90233033.90233,477203452.51629,4723586.24987,  -0.00112,   0.00385,  -0.00067,439172582.24148,   0.00209,276897899.01791,  -0.00060,   0.00186,  -0.00074,-37725316.77642,   0.00000
91200531.58875,476880953.28748,5424671.52988,  -0.00111,   0.00385,  -0.00067,438553833.99270,   0.00209,276897899.01791,  -0.00060,   0.00186,  -0.00074,-38344065.02520,   0.00000
92187659.66301,476566867.08204,6120148.12766,  -0.00111,   0.00385,  -0.00066,437942151.29925,   0.00209,276897899.01791,  -0.00060,   0.00186,  -0.00074,-38955747.71865,   0.00000
93186005.10175,476241563.51211,6821233.40767,  -0.00110,   0.00384,  -0.00065,437321617.65888,   0.00209,276897899.01791,  -0.00060,   0.00186,  -0.00074,-39576281.35902,   0.00000
