# sigma_xx, sigma_yy, sigma_xy, epsilon_xx, epsilon_yy, epsilon_xy, vonMises, epsPlastic, hardening, epsilonP__xx, epsilonP__yy, epsilonP__xy, yieldValue, iteration
   0.00000,   0.00000,   0.00000,   0.00000,   0.00000,   0.00000,   0.00000,   0.00000,274640135.82653,   0.00000,   0.00000,   0.00000,-474640135.82653,   0.00000
   0.00000,   0.00000,   0.00000,   0.00000,   0.00000,   0.00000,   0.00000,   0.00000,274640135.82653,   0.00000,   0.00000,   0.00000,-474640135.82653,   0.00000
-1718636.45096,-139913.29552,334121.30274,  -0.00001,   0.00000,   0.00000,1751495.93948,   0.00000,274640135.82653,   0.00000,   0.00000,   0.00000,-472888639.88705,   0.00000
-3414302.06236,-281914.84919,668242.60548,  -0.00001,   0.00001,   0.00001,3480522.46704,   0.00000,274640135.82653,   0.00000,   0.00000,   0.00000,-471159613.35949,   0.00000
-5109967.67376,-423916.40285,1006540.42450,  -0.00002,   0.00001,   0.00001,5211971.46069,   0.00000,274640135.82653,   0.00000,   0.00000,   0.00000,-469428164.36584,   0.00000
-6791015.47817,-559653.18209,1340661.72724,  -0.00003,   0.00001,   0.00002,6929834.85284,   0.00000,274640135.82653,   0.00000,   0.00000,   0.00000,-467710300.97369,   0.00000
-8449092.44301,-697478.21947,1678959.54626,  -0.00004,   0.00001,   0.00002,8627705.16985,   0.00000,274640135.82653,   0.00000,   0.00000,   0.00000,-466012430.65668,   0.00000
-10113434.18228,-849921.06384,2017257.36529,  -0.00004,   0.00002,   0.00003,10325515.86451,   0.00000,274640135.82653,   0.00000,   0.00000,   0.00000,-464314619.96202,   0.00000
-11763158.11455,-996099.13379,2355555.18431,  -0.00005,   0.00002,   0.00003,12012191.78097,   0.00000,274640135.82653,   0.00000,   0.00000,   0.00000,-462627944.04556,   0.00000
-13398264.23983,-1136012.42931,2693853.00333,  -0.00006,   0.00002,   0.00004,13687729.76731,   0.00000,274640135.82653,   0.00000,   0.00000,   0.00000,-460952406.05922,   0.00000
-15025017.33254,-1284278.75740,3036327.33864,  -0.00007,   0.00002,   0.00004,15354545.20011,   0.00000,274640135.82653,   0.00000,   0.00000,   0.00000,-459285590.62642,   0.00000
-16643417.39268,-1440898.11806,3374625.15766,  -0.00007,   0.00003,   0.00004,17007714.30730,   0.00000,274640135.82653,   0.00000,   0.00000,   0.00000,-457632421.51923,   0.00000
-18247199.64583,-1591252.70429,3717099.49297,  -0.00008,   0.00003,   0.00005,18652264.21171,   0.00000,274640135.82653,   0.00000,   0.00000,   0.00000,-455987871.61482,   0.00000
-19836364.09198,-1735342.51610,4059573.82828,  -0.00009,   0.00003,   0.00005,20285716.33110,   0.00000,274640135.82653,   0.00000,   0.00000,   0.00000,-454354419.49543,   0.00000
-21417175.50557,-1887785.36048,4402048.16359,  -0.00009,   0.00003,   0.00006,21908039.48155,   0.00000,274640135.82653,   0.00000,   0.00000,   0.00000,-452732096.34498,   0.00000
-22983369.11216,-2033963.43042,4744522.49889,  -0.00010,   0.00004,   0.00006,23519277.45334,   0.00000,274640135.82653,   0.00000,   0.00000,   0.00000,-451120858.37319,   0.00000
-24526591.87918,-2182229.75851,5086996.83420,  -0.00011,   0.00004,   0.00007,25108281.25593,   0.00000,274640135.82653,   0.00000,   0.00000,   0.00000,-449531854.57060,   0.00000
-26069814.64621,-2330496.08660,5429471.16951,  -0.00011,   0.00004,   0.00007,26697346.65144,   0.00000,274640135.82653,   0.00000,   0.00000,   0.00000,-447942789.17509,   0.00000
-27604684.38066,-2487115.44726,5776122.02110,  -0.00012,   0.00004,   0.00008,28277890.00035,   0.00000,274640135.82653,   0.00000,   0.00000,   0.00000,-446362245.82618,   0.00000
-29124936.30813,-2637470.03350,6118596.35641,  -0.00013,   0.00004,   0.00008,29844826.69589,   0.00000,274640135.82653,   0.00000,   0.00000,   0.00000,-444795309.13064,   0.00000
-30630570.42859,-2781559.84530,6465247.20800,  -0.00013,   0.00005,   0.00008,31403286.76417,   0.00000,274640135.82653,   0.00000,   0.00000,   0.00000,-443236849.06236,   0.00000
-32134116.29092,-2948620.49667,6811898.05959,  -0.00014,   0.00005,   0.00009,32950726.00439,   0.00000,274640135.82653,   0.00000,   0.00000,   0.00000,-441689409.82214,   0.00000
-33616779.57182,-3094798.56662,7158548.91118,  -0.00015,   0.00005,   0.00009,34487141.85398,   0.00000,274640135.82653,   0.00000,   0.00000,   0.00000,-440152993.97255,   0.00000
-35076472.01316,-3243064.89471,7501023.24649,  -0.00015,   0.00005,   0.00010,35998849.05130,   0.00000,274640135.82653,   0.00000,   0.00000,   0.00000,-438641286.77523,   0.00000
-36536164.45451,-3391331.22280,7847674.09808,  -0.00016,   0.00006,   0.00010,37513253.27778,   0.00000,274640135.82653,   0.00000,   0.00000,   0.00000,-437126882.54875,   0.00000
-37987503.86328,-3547950.58346,8194324.94967,  -0.00017,   0.00006,   0.00011,39016682.33912,   0.00000,274640135.82653,   0.00000,   0.00000,   0.00000,-435623453.48741,   0.00000
-39409607.65806,-3692040.39527,8540975.80126,  -0.00017,   0.00006,   0.00011,40498040.41581,   0.00000,274640135.82653,   0.00000,   0.00000,   0.00000,-434142095.41072,   0.00000
-40837976.22727,-3850748.01407,8891803.16914,  -0.00018,   0.00006,   0.00012,41982190.24238,   0.00000,274640135.82653,   0.00000,   0.00000,   0.00000,-432657945.58415,   0.00000
-42237109.18249,-3996926.08401,9238454.02073,  -0.00018,   0.00006,   0.00012,43441654.03031,   0.00000,274640135.82653,   0.00000,   0.00000,   0.00000,-431198481.79622,   0.00000
-43621624.33071,-4136839.37954,9585104.87232,  -0.00019,   0.00007,   0.00012,44890161.53025,   0.00000,274640135.82653,   0.00000,   0.00000,   0.00000,-429749974.29628,   0.00000
-45012404.25336,-4291370.48205,9931755.72392,  -0.00020,   0.00007,   0.00013,46338826.15714,   0.00000,274640135.82653,   0.00000,   0.00000,   0.00000,-428301309.66939,   0.00000
-46380213.33645,-4447989.84271,10278406.57551,  -0.00020,   0.00007,   0.00013,47765542.07948,   0.00000,274640135.82653,   0.00000,   0.00000,   0.00000,-426874593.74705,   0.00000
-47733404.61254,-4598344.42894,10629233.94338,  -0.00021,   0.00007,   0.00014,49184041.05893,   0.00000,274640135.82653,   0.00000,   0.00000,   0.00000,-425456094.76760,   0.00000
-49071978.08164,-4742434.24075,10975884.79497,  -0.00021,   0.00007,   0.00014,50588923.95925,   0.00000,274640135.82653,   0.00000,   0.00000,   0.00000,-424051211.86728,   0.00000
-50395933.74375,-4880259.27813,11322535.64657,  -0.00022,   0.00008,   0.00015,51982894.16429,   0.00000,274640135.82653,   0.00000,   0.00000,   0.00000,-422657241.66224,   0.00000
-51711536.37328,-5026437.34808,11669186.49816,  -0.00023,   0.00008,   0.00015,53366028.60746,   0.00000,274640135.82653,   0.00000,   0.00000,   0.00000,-421274107.21907,   0.00000
-53018785.97025,-5180968.45060,12020013.86603,  -0.00023,   0.00008,   0.00016,54741096.46749,   0.00000,274640135.82653,   0.00000,   0.00000,   0.00000,-419899039.35904,   0.00000
-54296799.95322,-5322970.00426,12366664.71763,  -0.00024,   0.00008,   0.00016,56091527.39998,   0.00000,274640135.82653,   0.00000,   0.00000,   0.00000,-418548608.42655,   0.00000
-55574813.93620,-5464971.55792,12713315.56922,  -0.00024,   0.00008,   0.00017,57442112.24321,   0.00000,274640135.82653,   0.00000,   0.00000,   0.00000,-417198023.58332,   0.00000
-56829857.07961,-5609061.36973,13059966.42081,  -0.00025,   0.00009,   0.00017,58770913.19593,   0.00000,274640135.82653,   0.00000,   0.00000,   0.00000,-415869222.63060,   0.00000
-58070282.41603,-5746886.40711,13406617.27240,  -0.00025,   0.00009,   0.00017,60088877.89472,   0.00000,274640135.82653,   0.00000,   0.00000,   0.00000,-414551257.93181,   0.00000
-59310707.75245,-5884711.44449,13753268.12399,  -0.00026,   0.00009,   0.00018,61407008.02401,   0.00000,274640135.82653,   0.00000,   0.00000,   0.00000,-413233127.80252,   0.00000
-60528162.24930,-6024624.74001,14099918.97558,  -0.00026,   0.00009,   0.00018,62703414.66089,   0.00000,274640135.82653,   0.00000,   0.00000,   0.00000,-411936721.16564,   0.00000
-61716381.13217,-6152008.48668,14446569.82718,  -0.00027,   0.00009,   0.00019,63978038.00753,   0.00000,274640135.82653,   0.00000,   0.00000,   0.00000,-410662097.81899,   0.00000
-62910864.78946,-6294010.04035,14793220.67877,  -0.00027,   0.00009,   0.00019,65252953.88307,   0.00000,274640135.82653,   0.00000,   0.00000,   0.00000,-409387181.94346,   0.00000
-64090730.63976,-6429746.81958,15139871.53036,  -0.00028,   0.00010,   0.00020,66517090.70963,   0.00000,274640135.82653,   0.00000,   0.00000,   0.00000,-408123045.11690,   0.00000
-65241360.87607,-6552954.04997,15486522.38195,  -0.00028,   0.00010,   0.00020,67759500.16215,   0.00000,274640135.82653,   0.00000,   0.00000,   0.00000,-406880635.66438,   0.00000
-66398255.88680,-6690779.08735,15828996.71726,  -0.00029,   0.00010,   0.00021,68999349.69915,   0.00000,274640135.82653,   0.00000,   0.00000,   0.00000,-405640786.12738,   0.00000
-67525915.28354,-6816074.57587,16175647.56885,  -0.00029,   0.00010,   0.00021,70220375.64655,   0.00000,274640135.82653,   0.00000,   0.00000,   0.00000,-404419760.17998,   0.00000
-68638956.87329,-6935105.28998,16518121.90416,  -0.00030,   0.00010,   0.00021,71427786.93792,   0.00000,274640135.82653,   0.00000,   0.00000,   0.00000,-403212348.88861,   0.00000
-69743645.43047,-7062489.03664,16860596.23946,  -0.00030,   0.00010,   0.00022,72624584.09345,   0.00000,274640135.82653,   0.00000,   0.00000,   0.00000,-402015551.73308,   0.00000
-70833716.18066,-7183608.00889,17203070.57477,  -0.00031,   0.00011,   0.00022,73810668.82731,   0.00000,274640135.82653,   0.00000,   0.00000,   0.00000,-400829466.99922,   0.00000
-71900816.09128,-7306815.23927,17545544.91008,  -0.00031,   0.00011,   0.00023,74975258.34151,   0.00000,274640135.82653,   0.00000,   0.00000,   0.00000,-399664877.48502,   0.00000
-72967916.00190,-7430022.46966,17888019.24539,  -0.00032,   0.00011,   0.00023,76140084.32930,   0.00000,274640135.82653,   0.00000,   0.00000,   0.00000,-398500051.49723,   0.00000
-74005780.29854,-7540700.15119,18230493.58069,  -0.00032,   0.00011,   0.00024,77283342.10078,   0.00000,274640135.82653,   0.00000,   0.00000,   0.00000,-397356793.72575,   0.00000
-75035291.56260,-7659730.86529,18572967.91600,  -0.00033,   0.00011,   0.00024,78416080.81045,   0.00000,274640135.82653,   0.00000,   0.00000,   0.00000,-396224055.01608,   0.00000
-76050185.01967,-7772496.80497,18911265.73503,  -0.00033,   0.00011,   0.00025,79535215.11337,   0.00000,274640135.82653,   0.00000,   0.00000,   0.00000,-395104920.71316,   0.00000
-77035842.86275,-7872733.19579,19249563.55405,  -0.00034,   0.00011,   0.00025,80632843.60135,   0.00000,274640135.82653,   0.00000,   0.00000,   0.00000,-394007292.22518,   0.00000
-78027765.48026,-7987587.39360,19587861.37307,  -0.00034,   0.00012,   0.00025,81730857.58649,   0.00000,274640135.82653,   0.00000,   0.00000,   0.00000,-392909278.24004,   0.00000
-78990452.48377,-8089912.04257,19926159.19209,  -0.00034,   0.00012,   0.00026,82807414.57199,   0.00000,274640135.82653,   0.00000,   0.00000,   0.00000,-391832721.25454,   0.00000
-79938521.68030,-8185971.91710,20264457.01112,  -0.00035,   0.00012,   0.00026,83873401.89211,   0.00000,274640135.82653,   0.00000,   0.00000,   0.00000,-390766733.93442,   0.00000
-80878237.84425,-8290384.82421,20602754.83014,  -0.00035,   0.00012,   0.00027,84928962.32419,   0.00000,274640135.82653,   0.00000,   0.00000,   0.00000,-389711173.50234,   0.00000
-81803336.20121,-8388532.95689,20936876.13288,  -0.00036,   0.00012,   0.00027,85970934.99387,   0.00000,274640135.82653,   0.00000,   0.00000,   0.00000,-388669200.83266,   0.00000
-82720081.52560,-8495034.12214,21270997.43562,  -0.00036,   0.00012,   0.00028,87002491.76265,   0.00000,274640135.82653,   0.00000,   0.00000,   0.00000,-387637644.06388,   0.00000
-83601326.46157,-8574387.93154,21605118.73836,  -0.00036,   0.00012,   0.00028,88012585.33277,   0.00000,274640135.82653,   0.00000,   0.00000,   0.00000,-386627550.49376,   0.00000
-84474218.36498,-8662094.77351,21939240.04110,  -0.00037,   0.00013,   0.00029,89012316.72969,   0.00000,274640135.82653,   0.00000,   0.00000,   0.00000,-385627819.09684,   0.00000
-85338757.23581,-8758154.64804,22269184.82755,  -0.00037,   0.00013,   0.00029,89998602.79304,   0.00000,274640135.82653,   0.00000,   0.00000,   0.00000,-384641533.03349,   0.00000
-86188678.29966,-8847949.74816,22599129.61401,  -0.00037,   0.00013,   0.00029,90974410.49693,   0.00000,274640135.82653,   0.00000,   0.00000,   0.00000,-383665725.32960,   0.00000
-87009363.74951,-8925215.29941,22929074.40046,  -0.00038,   0.00013,   0.00030,91928988.36761,   0.00000,274640135.82653,   0.00000,   0.00000,   0.00000,-382711147.45892,   0.00000
-87815431.39237,-8996216.07625,23259019.18692,  -0.00038,   0.00013,   0.00030,92873145.84580,   0.00000,274640135.82653,   0.00000,   0.00000,   0.00000,-381766989.98073,   0.00000
-88627763.80965,-9081834.66007,23584787.45709,  -0.00039,   0.00013,   0.00031,93814626.46980,   0.00000,274640135.82653,   0.00000,   0.00000,   0.00000,-380825509.35673,   0.00000
-89396242.80595,-9148658.92062,23910555.72726,  -0.00039,   0.00013,   0.00031,94724202.18301,   0.00000,274640135.82653,   0.00000,   0.00000,   0.00000,-379915933.64352,   0.00000
-90164721.80225,-9215483.18117,24236323.99743,  -0.00039,   0.00013,   0.00032,95634140.94015,   0.00000,274640135.82653,   0.00000,   0.00000,   0.00000,-379005994.88638,   0.00000
-90903965.18456,-9269777.89286,24562092.26760,  -0.00040,   0.00014,   0.00032,96522998.45790,   0.00000,274640135.82653,   0.00000,   0.00000,   0.00000,-378117137.36863,   0.00000
-91649473.34130,-9338690.41155,24883684.02148,  -0.00040,   0.00014,   0.00032,97409158.89108,   0.00000,274640135.82653,   0.00000,   0.00000,   0.00000,-377230976.93545,   0.00000
-92365745.88404,-9395073.38139,25205275.77537,  -0.00040,   0.00014,   0.00033,98274275.55972,   0.00000,274640135.82653,   0.00000,   0.00000,   0.00000,-376365860.26681,   0.00000
-93059047.58723,-9453544.60937,25526867.52926,  -0.00040,   0.00014,   0.00033,99118519.37665,   0.00000,274640135.82653,   0.00000,   0.00000,   0.00000,-375521616.44987,   0.00000
-93752349.29041,-9512015.83735,25844282.76686,  -0.00041,   0.00014,   0.00034,99959934.30731,   0.00000,274640135.82653,   0.00000,   0.00000,   0.00000,-374680201.51922,   0.00000
-94416415.37960,-9557957.51648,26165874.52074,  -0.00041,   0.00014,   0.00034,100783654.06290,   0.00000,274640135.82653,   0.00000,   0.00000,   0.00000,-373856481.76363,   0.00000
-95065863.66180,-9597634.42118,26479113.24206,  -0.00041,   0.00014,   0.00034,101590629.14042,   0.00000,274640135.82653,   0.00000,   0.00000,   0.00000,-373049506.68611,   0.00000
-95706958.91143,-9645664.35845,26796528.47966,  -0.00042,   0.00014,   0.00035,102390748.79230,   0.00000,274640135.82653,   0.00000,   0.00000,   0.00000,-372249387.03423,   0.00000
-96312553.77265,-9666546.93987,27109767.20098,  -0.00042,   0.00014,   0.00035,103166655.24811,   0.00000,274640135.82653,   0.00000,   0.00000,   0.00000,-371473480.57842,   0.00000
-96916060.37572,-9710400.36085,27423005.92230,  -0.00042,   0.00014,   0.00036,103932596.65628,   0.00000,274640135.82653,   0.00000,   0.00000,   0.00000,-370707539.17025,   0.00000
-97513302.20437,-9739635.97484,27732068.12733,  -0.00042,   0.00015,   0.00036,104695574.67918,   0.00000,274640135.82653,   0.00000,   0.00000,   0.00000,-369944561.14735,   0.00000
-98072955.38645,-9764695.07255,28041130.33237,  -0.00043,   0.00015,   0.00036,105427303.45993,   0.00000,274640135.82653,   0.00000,   0.00000,   0.00000,-369212832.36660,   0.00000
-98632608.56854,-9789754.17025,28350192.53740,  -0.00043,   0.00015,   0.00037,106159512.14759,   0.00000,274640135.82653,   0.00000,   0.00000,   0.00000,-368480623.67893,   0.00000
-99163026.13664,-9802283.71910,28655078.22615,  -0.00043,   0.00015,   0.00037,106867707.59443,   0.00000,274640135.82653,   0.00000,   0.00000,   0.00000,-367772428.23209,   0.00000
-99685090.67217,-9823166.30053,28959963.91490,  -0.00043,   0.00015,   0.00038,107565920.27677,   0.00000,274640135.82653,   0.00000,   0.00000,   0.00000,-367074215.54976,   0.00000
-100186272.62628,-9823166.30053,29260673.08736,  -0.00044,   0.00015,   0.00038,108250627.57533,   0.00000,274640135.82653,   0.00000,   0.00000,   0.00000,-366389508.25120,   0.00000
-100664483.74082,-9825254.55867,29561382.25983,  -0.00044,   0.00015,   0.00038,108914855.27472,   0.00000,274640135.82653,   0.00000,   0.00000,   0.00000,-365725280.55181,   0.00000
-101148959.62979,-9841960.62380,29862091.43229,  -0.00044,   0.00015,   0.00039,109579677.21903,   0.00000,274640135.82653,   0.00000,   0.00000,   0.00000,-365060458.60750,   0.00000
-101597935.13035,-9831519.33309,30158624.08848,  -0.00044,   0.00015,   0.00039,110220528.72510,   0.00000,274640135.82653,   0.00000,   0.00000,   0.00000,-364419607.10143,   0.00000
-102023939.79134,-9823166.30053,30455156.74466,  -0.00045,   0.00015,   0.00040,110841014.41495,   0.00000,274640135.82653,   0.00000,   0.00000,   0.00000,-363799121.41158,   0.00000
-102449944.45233,-9814813.26796,30751689.40084,  -0.00045,   0.00016,   0.00040,111462073.40022,   0.00000,274640135.82653,   0.00000,   0.00000,   0.00000,-363178062.42631,   0.00000
-102846713.49934,-9793930.68654,31044045.54073,  -0.00045,   0.00016,   0.00040,112059324.74882,   0.00000,274640135.82653,   0.00000,   0.00000,   0.00000,-362580811.07771,   0.00000
-103235129.51377,-9781401.13768,31332225.16435,  -0.00045,   0.00016,   0.00041,112643280.14540,   0.00000,274640135.82653,   0.00000,   0.00000,   0.00000,-361996855.68113,   0.00000
-103588045.13979,-9741724.23298,31620404.78796,  -0.00045,   0.00016,   0.00041,113206926.08755,   0.00000,274640135.82653,   0.00000,   0.00000,   0.00000,-361433209.73898,   0.00000
-103947225.54023,-9716665.13528,31908584.41157,  -0.00045,   0.00016,   0.00041,113771227.35559,   0.00000,274640135.82653,   0.00000,   0.00000,   0.00000,-360868908.47093,   0.00000
-104283435.10111,-9693694.29571,32192587.51890,  -0.00046,   0.00016,   0.00042,114311849.25062,   0.00000,274640135.82653,   0.00000,   0.00000,   0.00000,-360328286.57591,   0.00000
-104598762.08057,-9649840.87473,32476590.62623,  -0.00046,   0.00016,   0.00042,114842700.52570,   0.00000,274640135.82653,   0.00000,   0.00000,   0.00000,-359797435.30083,   0.00000
-104891118.22047,-9608075.71189,32756417.21727,  -0.00046,   0.00016,   0.00043,115349939.75636,   0.00000,274640135.82653,   0.00000,   0.00000,   0.00000,-359290196.07017,   0.00000
-105183474.36037,-9566310.54904,33036243.80831,  -0.00046,   0.00016,   0.00043,115857843.97514,   0.00000,274640135.82653,   0.00000,   0.00000,   0.00000,-358782291.85139,   0.00000
-105446594.88627,-9512015.83735,33311893.88307,  -0.00046,   0.00016,   0.00043,116342167.59232,   0.00000,274640135.82653,   0.00000,   0.00000,   0.00000,-358297968.23421,   0.00000
-105680479.79819,-9445191.57680,33587543.95783,  -0.00046,   0.00016,   0.00044,116806559.76457,   0.00000,274640135.82653,   0.00000,   0.00000,   0.00000,-357833576.06196,   0.00000
-105920629.48453,-9392985.12325,33859017.51631,  -0.00046,   0.00016,   0.00044,117268052.87222,   0.00000,274640135.82653,   0.00000,   0.00000,   0.00000,-357372082.95431,   0.00000
-106125278.78246,-9313631.31385,34130491.07478,  -0.00046,   0.00016,   0.00044,117709719.51485,   0.00000,274640135.82653,   0.00000,   0.00000,   0.00000,-356930416.31168,   0.00000
-106321575.04782,-9242630.53702,34397788.11698,  -0.00047,   0.00017,   0.00045,118138207.13738,   0.00000,274640135.82653,   0.00000,   0.00000,   0.00000,-356501928.68915,   0.00000
-106503253.50619,-9165364.98576,34660908.64288,  -0.00047,   0.00017,   0.00045,118553538.52172,   0.00000,274640135.82653,   0.00000,   0.00000,   0.00000,-356086597.30481,   0.00000
-106661961.12499,-9090187.69264,34928205.68507,  -0.00047,   0.00017,   0.00045,118952792.62868,   0.00000,274640135.82653,   0.00000,   0.00000,   0.00000,-355687343.19785,   0.00000
-106799786.16237,-8994127.81810,35187149.69470,  -0.00047,   0.00017,   0.00046,119335343.64452,   0.00000,274640135.82653,   0.00000,   0.00000,   0.00000,-355304792.18201,   0.00000
-106929258.16718,-8906420.97614,35446093.70432,  -0.00047,   0.00017,   0.00046,119708438.61470,   0.00000,274640135.82653,   0.00000,   0.00000,   0.00000,-354931697.21182,   0.00000
-107029494.55800,-8806184.58531,35705037.71394,  -0.00047,   0.00017,   0.00046,120062022.56169,   0.00000,274640135.82653,   0.00000,   0.00000,   0.00000,-354578113.26484,   0.00000
-107129730.94882,-8705948.19449,35959805.20728,  -0.00047,   0.00017,   0.00047,120412747.12853,   0.00000,274640135.82653,   0.00000,   0.00000,   0.00000,-354227388.69800,   0.00000
-107206996.50008,-8607800.06181,36210396.18433,  -0.00047,   0.00017,   0.00047,120740201.69294,   0.00000,274640135.82653,   0.00000,   0.00000,   0.00000,-353899934.13359,   0.00000
-107248761.66292,-8482504.57329,36460987.16139,  -0.00047,   0.00017,   0.00047,121048429.99862,   0.00000,274640135.82653,   0.00000,   0.00000,   0.00000,-353591705.82791,   0.00000
-107296791.60019,-8371826.89175,36707401.62216,  -0.00047,   0.00017,   0.00048,121353693.01935,   0.00000,274640135.82653,   0.00000,   0.00000,   0.00000,-353286442.80718,   0.00000
-107315585.92347,-8248619.66137,36953816.08293,  -0.00047,   0.00017,   0.00048,121639725.52447,   0.00000,274640135.82653,   0.00000,   0.00000,   0.00000,-353000410.30206,   0.00000
-107319762.43975,-8119147.65656,37196054.02741,  -0.00047,   0.00017,   0.00048,121912863.45874,   0.00000,274640135.82653,   0.00000,   0.00000,   0.00000,-352727272.36779,   0.00000
-107294703.34205,-7977146.10289,37434115.45562,  -0.00047,   0.00017,   0.00049,122163094.67434,   0.00000,274640135.82653,   0.00000,   0.00000,   0.00000,-352477041.15219,   0.00000
-107269644.24434,-7835144.54923,37672176.88382,  -0.00047,   0.00017,   0.00049,122414344.05948,   0.00000,274640135.82653,   0.00000,   0.00000,   0.00000,-352225791.76705,   0.00000
-107221614.30707,-7695231.25371,37906061.79573,  -0.00047,   0.00017,   0.00049,122642588.86602,   0.00000,274640135.82653,   0.00000,   0.00000,   0.00000,-351997546.96051,   0.00000
-107144348.75582,-7542788.40933,38139946.70765,  -0.00047,   0.00017,   0.00050,122851962.05174,   0.00000,274640135.82653,   0.00000,   0.00000,   0.00000,-351788173.77479,   0.00000
-107060818.43013,-7375727.75796,38369655.10329,  -0.00047,   0.00018,   0.00050,123058766.65577,   0.00000,274640135.82653,   0.00000,   0.00000,   0.00000,-351581369.17076,   0.00000
-106954317.26488,-7210755.36474,38595186.98263,  -0.00047,   0.00018,   0.00050,123242707.41996,   0.00000,274640135.82653,   0.00000,   0.00000,   0.00000,-351397428.40657,   0.00000
-106839463.06707,-7054136.00408,38820718.86198,  -0.00047,   0.00018,   0.00050,123417649.62528,   0.00000,274640135.82653,   0.00000,   0.00000,   0.00000,-351222486.20125,   0.00000
-106703726.28783,-6876634.06200,39042074.22505,  -0.00047,   0.00018,   0.00051,123580182.47429,   0.00000,274640135.82653,   0.00000,   0.00000,   0.00000,-351059953.35223,   0.00000
-106545018.66903,-6701220.37806,39259253.07183,  -0.00047,   0.00018,   0.00051,123719976.40934,   0.00000,274640135.82653,   0.00000,   0.00000,   0.00000,-350920159.41719,   0.00000
-106365428.46881,-6504924.11270,39476431.91861,  -0.00047,   0.00018,   0.00051,123851465.07706,   0.00000,274640135.82653,   0.00000,   0.00000,   0.00000,-350788670.74947,   0.00000
-106177485.23601,-6316980.87991,39689434.24910,  -0.00047,   0.00018,   0.00052,123970137.72442,   0.00000,274640135.82653,   0.00000,   0.00000,   0.00000,-350669998.10211,   0.00000
-105960306.38923,-6116508.09827,39898260.06332,  -0.00047,   0.00018,   0.00052,124066532.94717,   0.00000,274640135.82653,   0.00000,   0.00000,   0.00000,-350573602.87936,   0.00000
-105743127.54245,-5916035.31662,40107085.87753,  -0.00047,   0.00018,   0.00052,124164259.88205,   0.00000,274640135.82653,   0.00000,   0.00000,   0.00000,-350475875.94448,   0.00000
-105496713.08168,-5703032.98613,40311735.17546,  -0.00047,   0.00018,   0.00052,124239839.82691,   0.00000,274640135.82653,   0.00000,   0.00000,   0.00000,-350400295.99962,   0.00000
-105227327.78135,-5492118.91377,40512207.95710,  -0.00047,   0.00018,   0.00053,124293000.06714,   0.00000,274640135.82653,   0.00000,   0.00000,   0.00000,-350347135.75939,   0.00000
-104951677.70659,-5266587.03442,40712680.73874,  -0.00047,   0.00018,   0.00053,124347985.77449,   0.00000,274640135.82653,   0.00000,   0.00000,   0.00000,-350292150.05204,   0.00000
-104653056.79227,-5043143.41322,40908977.00410,  -0.00047,   0.00018,   0.00053,124380659.33248,   0.00000,274640135.82653,   0.00000,   0.00000,   0.00000,-350259476.49405,   0.00000
-104339818.07095,-4813435.01758,41101096.75318,  -0.00047,   0.00018,   0.00053,124401102.57011,   0.00000,274640135.82653,   0.00000,   0.00000,   0.00000,-350239033.25642,   0.00000
-104005696.76821,-4562844.04053,41293216.50225,  -0.00046,   0.00018,   0.00054,124413953.87819,   0.00000,274640135.82653,   0.00000,   0.00000,   0.00000,-350226181.94834,   0.00000
-103654869.40034,-4328959.12861,41476983.21876,  -0.00046,   0.00018,   0.00054,124400058.50163,   0.00000,274640135.82653,   0.00000,   0.00000,   0.00000,-350240077.32490,   0.00000
-103283159.45104,-4074191.63527,41660749.93526,  -0.00046,   0.00018,   0.00054,124378731.84301,   0.00000,274640135.82653,   0.00000,   0.00000,   0.00000,-350261403.98352,   0.00000
-102896831.69475,-3813159.36751,41844516.65177,  -0.00046,   0.00018,   0.00054,124349615.44362,   0.00000,274640135.82653,   0.00000,   0.00000,   0.00000,-350290520.38291,   0.00000
-102495886.13146,-3545862.32532,42019930.33571,  -0.00046,   0.00018,   0.00055,124304332.78299,   0.00000,274640135.82653,   0.00000,   0.00000,   0.00000,-350335803.04354,   0.00000
-102071969.72861,-3280653.54127,42195344.01965,  -0.00046,   0.00018,   0.00055,124241410.54331,   0.00000,274640135.82653,   0.00000,   0.00000,   0.00000,-350398725.28322,   0.00000
-101627170.74434,-2994562.17580,42366581.18730,  -0.00046,   0.00018,   0.00055,124167233.83840,   0.00000,274640135.82653,   0.00000,   0.00000,   0.00000,-350472901.98813,   0.00000
-101174018.72750,-2716823.84290,42537818.35495,  -0.00046,   0.00018,   0.00055,124085007.88614,   0.00000,274640135.82653,   0.00000,   0.00000,   0.00000,-350555127.94039,   0.00000
-100691631.09667,-2426555.96114,42700702.49004,  -0.00045,   0.00019,   0.00056,123977452.98438,   0.00000,274640135.82653,   0.00000,   0.00000,   0.00000,-350662682.84215,   0.00000
-100209243.46584,-2136288.07939,42863586.62512,  -0.00045,   0.00019,   0.00056,123871875.60380,   0.00000,274640135.82653,   0.00000,   0.00000,   0.00000,-350768260.22273,   0.00000
-99697620.22102,-1833490.64878,43022294.24393,  -0.00045,   0.00019,   0.00056,123745448.06718,   0.00000,274640135.82653,   0.00000,   0.00000,   0.00000,-350894687.75935,   0.00000
-99156761.36221,-1518163.66932,43176825.34644,  -0.00045,   0.00019,   0.00056,123598328.03519,   0.00000,274640135.82653,   0.00000,   0.00000,   0.00000,-351041807.79134,   0.00000
-98615902.50340,-1202836.68986,43331356.44896,  -0.00045,   0.00019,   0.00056,123453406.48216,   0.00000,274640135.82653,   0.00000,   0.00000,   0.00000,-351186729.34437,   0.00000
-98045808.03061,-874980.16155,43477534.51891,  -0.00044,   0.00019,   0.00057,123283599.67666,   0.00000,274640135.82653,   0.00000,   0.00000,   0.00000,-351356536.14986,   0.00000
-97467360.52524,-555476.66580,43623712.58886,  -0.00044,   0.00019,   0.00057,123106210.15099,   0.00000,274640135.82653,   0.00000,   0.00000,   0.00000,-351533925.67554,   0.00000
-96868030.43845,-215090.58864,43765714.14252,  -0.00044,   0.00019,   0.00057,122918425.74046,   0.00000,274640135.82653,   0.00000,   0.00000,   0.00000,-351721710.08607,   0.00000
-96260347.31909,116942.45596,43907715.69618,  -0.00044,   0.00019,   0.00057,122723215.22812,   0.00000,274640135.82653,   0.00000,   0.00000,   0.00000,-351916920.59841,   0.00000
-95617163.81132,476122.85640,44041364.21728,  -0.00044,   0.00019,   0.00057,122504365.27654,   0.00000,274640135.82653,   0.00000,   0.00000,   0.00000,-352135770.54999,   0.00000
-94965627.27098,826950.22428,44175012.73837,  -0.00043,   0.00019,   0.00057,122278294.50774,   0.00000,274640135.82653,   0.00000,   0.00000,   0.00000,-352361841.31879,   0.00000
-94299472.92364,1184042.36658,44300308.22690,  -0.00043,   0.00019,   0.00058,122036875.77157,   0.00000,274640135.82653,   0.00000,   0.00000,   0.00000,-352603260.05496,   0.00000
-93618700.76931,1547399.28331,44425603.71543,  -0.00043,   0.00019,   0.00058,121789260.13895,   0.00000,274640135.82653,   0.00000,   0.00000,   0.00000,-352850875.68758,   0.00000
-92908693.00099,1923285.74889,44550899.20396,  -0.00043,   0.00019,   0.00058,121526795.76153,   0.00000,274640135.82653,   0.00000,   0.00000,   0.00000,-353113340.06500,   0.00000
-92184067.42568,2305436.98890,44667841.65991,  -0.00042,   0.00019,   0.00058,121249289.15811,   0.00000,274640135.82653,   0.00000,   0.00000,   0.00000,-353390846.66842,   0.00000
-91444824.04337,2693853.00333,44780607.59959,  -0.00042,   0.00019,   0.00058,120961399.02126,   0.00000,274640135.82653,   0.00000,   0.00000,   0.00000,-353678736.80527,   0.00000
-90690962.85406,3088533.79219,44893373.53926,  -0.00042,   0.00019,   0.00058,120667878.29001,   0.00000,274640135.82653,   0.00000,   0.00000,   0.00000,-353972257.53652,   0.00000
-89907866.05077,3495744.12991,45001962.96265,  -0.00042,   0.00019,   0.00059,120355596.09457,   0.00000,274640135.82653,   0.00000,   0.00000,   0.00000,-354284539.73195,   0.00000
-89131034.02190,3888336.66062,45106375.86976,  -0.00041,   0.00019,   0.00059,120040773.43677,   0.00000,274640135.82653,   0.00000,   0.00000,   0.00000,-354599362.38976,   0.00000
-88318701.60462,4308076.54719,45206612.26058,  -0.00041,   0.00019,   0.00059,119708603.19943,   0.00000,274640135.82653,   0.00000,   0.00000,   0.00000,-354931532.62710,   0.00000
-87477133.57334,4740345.98261,45302672.13512,  -0.00041,   0.00019,   0.00059,119358233.75324,   0.00000,274640135.82653,   0.00000,   0.00000,   0.00000,-355281902.07328,   0.00000
-86641830.31650,5157997.61103,45394555.49337,  -0.00040,   0.00019,   0.00059,119005491.71806,   0.00000,274640135.82653,   0.00000,   0.00000,   0.00000,-355634644.10846,   0.00000
-85785644.47823,5596531.82088,45486438.85163,  -0.00040,   0.00019,   0.00059,118649266.38742,   0.00000,274640135.82653,   0.00000,   0.00000,   0.00000,-355990869.43911,   0.00000
-84906487.80040,6032977.77258,45569969.17731,  -0.00040,   0.00019,   0.00059,118269242.48305,   0.00000,274640135.82653,   0.00000,   0.00000,   0.00000,-356370893.34348,   0.00000
-84012713.31557,6475688.49871,45653499.50299,  -0.00039,   0.00019,   0.00059,117884845.30316,   0.00000,274640135.82653,   0.00000,   0.00000,   0.00000,-356755290.52337,   0.00000
-83098056.24932,6939281.80626,45732853.31240,  -0.00039,   0.00019,   0.00059,117492821.18729,   0.00000,274640135.82653,   0.00000,   0.00000,   0.00000,-357147314.63924,   0.00000
-82160428.34351,7400786.85567,45803854.08923,  -0.00039,   0.00019,   0.00060,117077489.71555,   0.00000,274640135.82653,   0.00000,   0.00000,   0.00000,-357562646.11098,   0.00000
-81222800.43770,7862291.90508,45874854.86606,  -0.00038,   0.00019,   0.00060,116666461.49720,   0.00000,274640135.82653,   0.00000,   0.00000,   0.00000,-357973674.32933,   0.00000
-80255936.91790,8336326.50334,45941679.12661,  -0.00038,   0.00019,   0.00060,116238819.19150,   0.00000,274640135.82653,   0.00000,   0.00000,   0.00000,-358401316.63503,   0.00000
-79274455.59110,8816625.87602,46008503.38715,  -0.00038,   0.00019,   0.00060,115807826.02809,   0.00000,274640135.82653,   0.00000,   0.00000,   0.00000,-358832309.79844,   0.00000
-78272091.68289,9317807.83013,46066974.61513,  -0.00037,   0.00020,   0.00060,115365352.85133,   0.00000,274640135.82653,   0.00000,   0.00000,   0.00000,-359274782.97520,   0.00000
-77261374.74210,9810636.75167,46121269.32683,  -0.00037,   0.00020,   0.00060,114913299.29993,   0.00000,274640135.82653,   0.00000,   0.00000,   0.00000,-359726836.52660,   0.00000
-76221422.18733,10315995.22207,46175564.03852,  -0.00037,   0.00020,   0.00060,114450744.54809,   0.00000,274640135.82653,   0.00000,   0.00000,   0.00000,-360189391.27844,   0.00000
-75181469.63255,10821353.69246,46221505.71765,  -0.00036,   0.00020,   0.00060,113983345.79350,   0.00000,274640135.82653,   0.00000,   0.00000,   0.00000,-360656790.03303,   0.00000
-74112281.46379,11339241.71170,46267447.39678,  -0.00036,   0.00020,   0.00060,113506016.60497,   0.00000,274640135.82653,   0.00000,   0.00000,   0.00000,-361134119.22156,   0.00000
-73028475.48803,11863394.50538,46305036.04334,  -0.00036,   0.00020,   0.00060,113016516.77989,   0.00000,274640135.82653,   0.00000,   0.00000,   0.00000,-361623619.04664,   0.00000
-71930051.70527,12393812.07347,46342624.68989,  -0.00035,   0.00020,   0.00060,112525299.59414,   0.00000,274640135.82653,   0.00000,   0.00000,   0.00000,-362114836.23239,   0.00000
-70808657.08295,12922141.38343,46376036.82017,  -0.00035,   0.00020,   0.00060,112018112.40714,   0.00000,274640135.82653,   0.00000,   0.00000,   0.00000,-362622023.41939,   0.00000
-69680997.68621,13465088.50038,46405272.43416,  -0.00034,   0.00020,   0.00060,111513939.83074,   0.00000,274640135.82653,   0.00000,   0.00000,   0.00000,-363126195.99579,   0.00000
-68524102.67548,14020565.16618,46426155.01558,  -0.00034,   0.00020,   0.00060,110991166.99389,   0.00000,274640135.82653,   0.00000,   0.00000,   0.00000,-363648968.83264,   0.00000
-67352589.85775,14582306.60641,46447037.59700,  -0.00033,   0.00020,   0.00060,110467882.42364,   0.00000,274640135.82653,   0.00000,   0.00000,   0.00000,-364172253.40289,   0.00000
-66181077.04002,15144048.04664,46463743.66214,  -0.00033,   0.00020,   0.00060,109946191.31735,   0.00000,274640135.82653,   0.00000,   0.00000,   0.00000,-364693944.50918,   0.00000
-64980328.60830,15718319.03573,46476273.21099,  -0.00033,   0.00020,   0.00060,109412166.18919,   0.00000,274640135.82653,   0.00000,   0.00000,   0.00000,-365227969.63734,   0.00000
-63756609.33702,16290501.76667,46484626.24356,  -0.00032,   0.00020,   0.00060,108864017.33362,   0.00000,274640135.82653,   0.00000,   0.00000,   0.00000,-365776118.49291,   0.00000
-62526625.29131,16877302.30460,46488802.75984,  -0.00032,   0.00020,   0.00060,108320493.47496,   0.00000,274640135.82653,   0.00000,   0.00000,   0.00000,-366319642.35157,   0.00000
-61282023.43861,17470367.61696,46488802.75984,  -0.00031,   0.00020,   0.00060,107772658.70951,   0.00000,274640135.82653,   0.00000,   0.00000,   0.00000,-366867477.11702,   0.00000
-60008185.97192,18075962.47818,46488802.75984,  -0.00031,   0.00020,   0.00060,107219657.09372,   0.00000,274640135.82653,   0.00000,   0.00000,   0.00000,-367420478.73281,   0.00000
-58740613.27965,18666939.53240,46480449.72727,  -0.00030,   0.00020,   0.00060,106661700.60857,   0.00000,274640135.82653,   0.00000,   0.00000,   0.00000,-367978435.21796,   0.00000
-57437540.19897,19285063.94246,46467920.17842,  -0.00030,   0.00020,   0.00060,106096532.30871,   0.00000,274640135.82653,   0.00000,   0.00000,   0.00000,-368543603.51782,   0.00000
-56119849.31129,19909453.12696,46451214.11328,  -0.00029,   0.00020,   0.00060,105528598.95633,   0.00000,274640135.82653,   0.00000,   0.00000,   0.00000,-369111536.87020,   0.00000
-54787540.61662,20540107.08588,46430331.53186,  -0.00029,   0.00020,   0.00060,104958275.59383,   0.00000,274640135.82653,   0.00000,   0.00000,   0.00000,-369681860.23270,   0.00000
-53446878.88938,21162408.01223,46405272.43416,  -0.00028,   0.00020,   0.00060,104383087.53335,   0.00000,274640135.82653,   0.00000,   0.00000,   0.00000,-370257048.29318,   0.00000
-52085334.58072,21805591.52000,46380213.33645,  -0.00028,   0.00020,   0.00060,103814690.66263,   0.00000,274640135.82653,   0.00000,   0.00000,   0.00000,-370825445.16390,   0.00000
-50694554.65807,22461304.57663,46346801.20618,  -0.00027,   0.00020,   0.00060,103233675.96841,   0.00000,274640135.82653,   0.00000,   0.00000,   0.00000,-371406459.85812,   0.00000
-49303774.73542,23117017.63325,46309212.55962,  -0.00027,   0.00020,   0.00060,102657900.04202,   0.00000,274640135.82653,   0.00000,   0.00000,   0.00000,-371982235.78451,   0.00000
-47890023.97320,23770642.43173,46267447.39678,  -0.00026,   0.00020,   0.00060,102073035.32043,   0.00000,274640135.82653,   0.00000,   0.00000,   0.00000,-372567100.50610,   0.00000
-46470008.43656,24438885.03721,46225682.23394,  -0.00026,   0.00020,   0.00060,101502891.94793,   0.00000,274640135.82653,   0.00000,   0.00000,   0.00000,-373137243.87860,   0.00000
-45020757.28593,25119657.19154,46175564.03852,  -0.00025,   0.00020,   0.00060,100922345.87233,   0.00000,274640135.82653,   0.00000,   0.00000,   0.00000,-373717789.95420,   0.00000
-43571506.13530,25800429.34587,46121269.32683,  -0.00025,   0.00020,   0.00060,100348474.42697,   0.00000,274640135.82653,   0.00000,   0.00000,   0.00000,-374291661.39956,   0.00000
-42093019.37068,26493731.04906,46062798.09885,  -0.00024,   0.00020,   0.00060,99771164.69690,   0.00000,274640135.82653,   0.00000,   0.00000,   0.00000,-374868971.12963,   0.00000
-40606179.57349,27178679.71967,46000150.35459,  -0.00024,   0.00020,   0.00060,99192773.41652,   0.00000,274640135.82653,   0.00000,   0.00000,   0.00000,-375447362.41001,   0.00000
-39098457.19488,27884510.97171,45933326.09404,  -0.00023,   0.00020,   0.00060,98620930.86137,   0.00000,274640135.82653,   0.00000,   0.00000,   0.00000,-376019204.96516,   0.00000
-37576117.00928,28596606.99817,45866501.83349,  -0.00023,   0.00020,   0.00060,98058594.33655,   0.00000,274640135.82653,   0.00000,   0.00000,   0.00000,-376581541.48998,   0.00000
-36039159.01668,29314967.79906,45791324.54037,  -0.00022,   0.00020,   0.00060,97494673.26605,   0.00000,274640135.82653,   0.00000,   0.00000,   0.00000,-377145462.56048,   0.00000
-34487583.21709,30039593.37437,45711970.73097,  -0.00022,   0.00020,   0.00059,96935629.91433,   0.00000,274640135.82653,   0.00000,   0.00000,   0.00000,-377704505.91220,   0.00000
-32921389.61050,30770483.72412,45628440.40529,  -0.00021,   0.00020,   0.00059,96382111.24034,   0.00000,274640135.82653,   0.00000,   0.00000,   0.00000,-378258024.58619,   0.00000
-31340578.19691,31507638.84828,45540733.56332,  -0.00020,   0.00020,   0.00059,95834784.95354,   0.00000,274640135.82653,   0.00000,   0.00000,   0.00000,-378805350.87299,   0.00000
-29745148.97634,32251058.74688,45448850.20507,  -0.00020,   0.00020,   0.00059,95294339.70534,   0.00000,274640135.82653,   0.00000,   0.00000,   0.00000,-379345796.12119,   0.00000
-28141366.72319,32986125.61290,45352790.33053,  -0.00019,   0.00020,   0.00059,94757176.16067,   0.00000,274640135.82653,   0.00000,   0.00000,   0.00000,-379882959.66586,   0.00000
-26516701.88862,33742075.06035,45252553.93971,  -0.00019,   0.00021,   0.00059,94232545.16411,   0.00000,274640135.82653,   0.00000,   0.00000,   0.00000,-380407590.66242,   0.00000
-24871154.47263,34518907.08922,45148141.03260,  -0.00018,   0.00021,   0.00059,93721493.04176,   0.00000,274640135.82653,   0.00000,   0.00000,   0.00000,-380918642.78477,   0.00000
-23202636.21708,35293650.85994,45039551.60921,  -0.00017,   0.00021,   0.00059,93212625.15131,   0.00000,274640135.82653,   0.00000,   0.00000,   0.00000,-381427510.67522,   0.00000
-21534117.96153,36068394.63067,44926785.66954,  -0.00017,   0.00021,   0.00058,92717833.25803,   0.00000,274640135.82653,   0.00000,   0.00000,   0.00000,-381922302.56850,   0.00000
-19850981.89898,36849403.17582,44805666.69729,  -0.00016,   0.00021,   0.00058,92228412.84966,   0.00000,274640135.82653,   0.00000,   0.00000,   0.00000,-382411722.97687,   0.00000
-18153228.02944,37636676.49540,44684547.72505,  -0.00016,   0.00021,   0.00058,91757357.70159,   0.00000,274640135.82653,   0.00000,   0.00000,   0.00000,-382882778.12494,   0.00000
-16440856.35290,38430214.58941,44559252.23652,  -0.00015,   0.00021,   0.00058,91299450.53676,   0.00000,274640135.82653,   0.00000,   0.00000,   0.00000,-383340685.28977,   0.00000
-14713866.86937,39230017.45784,44429780.23171,  -0.00014,   0.00021,   0.00058,90855564.03691,   0.00000,274640135.82653,   0.00000,   0.00000,   0.00000,-383784571.78962,   0.00000
-12965994.80441,40050702.90769,44291955.19433,  -0.00014,   0.00021,   0.00058,90425687.25364,   0.00000,274640135.82653,   0.00000,   0.00000,   0.00000,-384214448.57289,   0.00000
-11209769.70689,40863035.32497,44154130.15695,  -0.00013,   0.00021,   0.00057,90012629.32567,   0.00000,274640135.82653,   0.00000,   0.00000,   0.00000,-384627506.50086,   0.00000
-9438926.80238,41681632.51669,44007952.08701,  -0.00012,   0.00021,   0.00057,89610162.63483,   0.00000,274640135.82653,   0.00000,   0.00000,   0.00000,-385029973.19169,   0.00000
-7653466.09086,42506494.48282,43861774.01706,  -0.00012,   0.00021,   0.00057,89231526.32539,   0.00000,274640135.82653,   0.00000,   0.00000,   0.00000,-385408609.50114,   0.00000
-5847122.79793,43352239.03038,43707242.91454,  -0.00011,   0.00021,   0.00057,88871033.46259,   0.00000,274640135.82653,   0.00000,   0.00000,   0.00000,-385769102.36394,   0.00000
-4032426.47243,44189630.54537,43552711.81202,  -0.00010,   0.00021,   0.00057,88530737.40545,   0.00000,274640135.82653,   0.00000,   0.00000,   0.00000,-386109398.42108,   0.00000
-2196847.56551,45047904.64178,43389827.67694,  -0.00010,   0.00021,   0.00056,88210740.09999,   0.00000,274640135.82653,   0.00000,   0.00000,   0.00000,-386429395.72654,   0.00000
-352915.62602,45897825.70562,43222767.02557,  -0.00009,   0.00021,   0.00056,87906517.28896,   0.00000,274640135.82653,   0.00000,   0.00000,   0.00000,-386733618.53757,   0.00000
1497281.08790,46762364.57646,43055706.37420,  -0.00008,   0.00021,   0.00056,87637467.68064,   0.00000,274640135.82653,   0.00000,   0.00000,   0.00000,-387002668.14589,   0.00000
3370448.64138,47624815.18915,42880292.69026,  -0.00008,   0.00021,   0.00056,87379199.21699,   0.00000,274640135.82653,   0.00000,   0.00000,   0.00000,-387260936.60954,   0.00000
5249880.96929,48501883.60884,42700702.49004,  -0.00007,   0.00021,   0.00056,87151677.13529,   0.00000,274640135.82653,   0.00000,   0.00000,   0.00000,-387488458.69124,   0.00000
7158548.91118,49391481.57739,42516935.77353,  -0.00006,   0.00021,   0.00055,86949763.77753,   0.00000,274640135.82653,   0.00000,   0.00000,   0.00000,-387690372.04900,   0.00000
9060952.07865,50266461.73893,42328992.54074,  -0.00006,   0.00021,   0.00055,86767429.69505,   0.00000,274640135.82653,   0.00000,   0.00000,   0.00000,-387872706.13148,   0.00000
10984237.82754,51162324.48190,42136872.79167,  -0.00005,   0.00021,   0.00055,86618738.92587,   0.00000,274640135.82653,   0.00000,   0.00000,   0.00000,-388021396.90066,   0.00000
12922141.38343,52064451.99930,41940576.52631,  -0.00004,   0.00021,   0.00055,86498211.35846,   0.00000,274640135.82653,   0.00000,   0.00000,   0.00000,-388141924.46807,   0.00000
14874662.74631,52972844.29112,41740103.74466,  -0.00004,   0.00021,   0.00054,86406790.31425,   0.00000,274640135.82653,   0.00000,   0.00000,   0.00000,-388233345.51228,   0.00000
16841801.91619,53887501.35737,41531277.93045,  -0.00003,   0.00021,   0.00054,86339374.62314,   0.00000,274640135.82653,   0.00000,   0.00000,   0.00000,-388300761.20339,   0.00000
18823558.89306,54808423.19804,41322452.11624,  -0.00002,   0.00021,   0.00054,86308951.95546,   0.00000,274640135.82653,   0.00000,   0.00000,   0.00000,-388331183.87107,   0.00000
20805315.86993,55729345.03872,41109449.78574,  -0.00001,   0.00021,   0.00053,86308255.83452,   0.00000,274640135.82653,   0.00000,   0.00000,   0.00000,-388331879.99201,   0.00000
22816308.46079,56662796.42824,40888094.42268,  -0.00001,   0.00021,   0.00053,86336141.82857,   0.00000,274640135.82653,   0.00000,   0.00000,   0.00000,-388303993.99796,   0.00000
24827301.05165,57596247.81777,40666739.05962,   0.00000,   0.00021,   0.00053,86400892.66557,   0.00000,274640135.82653,   0.00000,   0.00000,   0.00000,-388239243.16096,   0.00000
26852911.44950,58535963.98172,40437030.66398,   0.00001,   0.00021,   0.00053,86493567.51766,   0.00000,274640135.82653,   0.00000,   0.00000,   0.00000,-388146568.30887,   0.00000
28893139.65435,59481944.92010,40207322.26835,   0.00002,   0.00021,   0.00052,86626678.57564,   0.00000,274640135.82653,   0.00000,   0.00000,   0.00000,-388013457.25089,   0.00000
30954250.44062,60448808.43990,39969260.84015,   0.00002,   0.00021,   0.00052,86796900.53903,   0.00000,274640135.82653,   0.00000,   0.00000,   0.00000,-387843235.28750,   0.00000
33023714.25946,61407318.92714,39731199.41195,   0.00003,   0.00022,   0.00052,87001329.80453,   0.00000,274640135.82653,   0.00000,   0.00000,   0.00000,-387638806.02200,   0.00000
35093178.07830,62365829.41437,39484784.95118,   0.00004,   0.00022,   0.00051,87232777.07640,   0.00000,274640135.82653,   0.00000,   0.00000,   0.00000,-387407358.75013,   0.00000
37198142.28556,63351487.25745,39234193.97412,   0.00005,   0.00022,   0.00051,87512976.29849,   0.00000,274640135.82653,   0.00000,   0.00000,   0.00000,-387127159.52804,   0.00000
39296841.71839,64322527.29353,38979426.48078,   0.00005,   0.00022,   0.00051,87818814.49211,   0.00000,274640135.82653,   0.00000,   0.00000,   0.00000,-386821321.33442,   0.00000
41416423.73264,65314449.91104,38720482.47116,   0.00006,   0.00022,   0.00050,88170481.89163,   0.00000,274640135.82653,   0.00000,   0.00000,   0.00000,-386469653.93490,   0.00000
43550623.55388,66312637.30297,38457361.94525,   0.00007,   0.00022,   0.00050,88560555.76455,   0.00000,274640135.82653,   0.00000,   0.00000,   0.00000,-386079580.06198,   0.00000
45678558.60070,67296206.88791,38190064.90306,   0.00008,   0.00022,   0.00050,88976174.44746,   0.00000,274640135.82653,   0.00000,   0.00000,   0.00000,-385663961.37907,   0.00000
47827376.22894,68300659.05427,37918591.34459,   0.00008,   0.00022,   0.00049,89438556.20253,   0.00000,274640135.82653,   0.00000,   0.00000,   0.00000,-385201579.62400,   0.00000
50005429.47117,69317640.76948,37642941.26983,   0.00009,   0.00022,   0.00049,89945500.07737,   0.00000,274640135.82653,   0.00000,   0.00000,   0.00000,-384694635.74916,   0.00000
52168864.90640,70328357.71027,37363114.67878,   0.00010,   0.00022,   0.00049,90480521.58818,   0.00000,274640135.82653,   0.00000,   0.00000,   0.00000,-384159614.23835,   0.00000
54355271.18120,71336986.39291,37079111.57146,   0.00011,   0.00022,   0.00048,91052190.73121,   0.00000,274640135.82653,   0.00000,   0.00000,   0.00000,-383587945.09532,   0.00000
56547942.23043,72360232.88255,36786755.43156,   0.00012,   0.00022,   0.00048,91660498.19870,   0.00000,274640135.82653,   0.00000,   0.00000,   0.00000,-382979637.62783,   0.00000
58755231.08665,73389744.14661,36494399.29166,   0.00012,   0.00022,   0.00047,92313183.71828,   0.00000,274640135.82653,   0.00000,   0.00000,   0.00000,-382326952.10825,   0.00000
60977137.74986,74425520.18510,36197866.63548,   0.00013,   0.00022,   0.00047,93005219.38815,   0.00000,274640135.82653,   0.00000,   0.00000,   0.00000,-381634916.43838,   0.00000
63219926.99450,75482178.80502,35892980.94673,   0.00014,   0.00022,   0.00047,93740380.28849,   0.00000,274640135.82653,   0.00000,   0.00000,   0.00000,-380899755.53804,   0.00000
65456451.46470,76524219.61793,35588095.25798,   0.00015,   0.00022,   0.00046,94504163.56681,   0.00000,274640135.82653,   0.00000,   0.00000,   0.00000,-380135972.25972,   0.00000
67707593.74191,77572525.20528,35274856.53667,   0.00016,   0.00022,   0.00046,95302216.16498,   0.00000,274640135.82653,   0.00000,   0.00000,   0.00000,-379337919.66155,   0.00000
69973353.82611,78627095.56705,34961617.81535,   0.00017,   0.00022,   0.00045,96143814.07740,   0.00000,274640135.82653,   0.00000,   0.00000,   0.00000,-378496321.74913,   0.00000
72259996.49173,79702548.51024,34640026.06146,   0.00017,   0.00022,   0.00045,97028303.46294,   0.00000,274640135.82653,   0.00000,   0.00000,   0.00000,-377611832.36359,   0.00000
74540374.38292,80763383.64643,34314257.79129,   0.00018,   0.00022,   0.00045,97934996.61016,   0.00000,274640135.82653,   0.00000,   0.00000,   0.00000,-376705139.21637,   0.00000
76841634.85553,81845101.36405,33988489.52112,   0.00019,   0.00022,   0.00044,98892862.89017,   0.00000,274640135.82653,   0.00000,   0.00000,   0.00000,-375747272.93636,   0.00000
79136630.55372,82912201.27467,33654368.21838,   0.00020,   0.00022,   0.00044,99867395.45755,   0.00000,274640135.82653,   0.00000,   0.00000,   0.00000,-374772740.36898,   0.00000
81467126.64033,84006448.54114,33316070.39936,   0.00021,   0.00022,   0.00043,100896450.77101,   0.00000,274640135.82653,   0.00000,   0.00000,   0.00000,-373743685.05552,   0.00000
83776740.14551,85079813.22619,32977772.58034,   0.00022,   0.00022,   0.00043,101941198.03501,   0.00000,274640135.82653,   0.00000,   0.00000,   0.00000,-372698937.79152,   0.00000
86121854.03911,86180325.26709,32631121.72874,   0.00022,   0.00022,   0.00042,103035834.19572,   0.00000,274640135.82653,   0.00000,   0.00000,   0.00000,-371604301.63081,   0.00000
88466967.93271,87280837.30798,32280294.36087,   0.00023,   0.00022,   0.00042,104158197.72441,   0.00000,274640135.82653,   0.00000,   0.00000,   0.00000,-370481938.10212,   0.00000
90826699.63330,88387614.12331,31925290.47671,   0.00024,   0.00023,   0.00042,105316555.83750,   0.00000,274640135.82653,   0.00000,   0.00000,   0.00000,-369323579.98903,   0.00000
93201049.14089,89500655.71306,31566110.07626,   0.00025,   0.00023,   0.00041,106510590.26602,   0.00000,274640135.82653,   0.00000,   0.00000,   0.00000,-368129545.56051,   0.00000
95575398.64848,90613697.30281,31202753.15953,   0.00026,   0.00023,   0.00041,107730655.51261,   0.00000,274640135.82653,   0.00000,   0.00000,   0.00000,-366909480.31392,   0.00000
97964365.96306,91733003.66698,30835219.72652,   0.00027,   0.00023,   0.00040,108985447.39981,   0.00000,274640135.82653,   0.00000,   0.00000,   0.00000,-365654688.42672,   0.00000
100353333.27765,92852310.03116,30463509.77722,   0.00028,   0.00023,   0.00040,110265046.35532,   0.00000,274640135.82653,   0.00000,   0.00000,   0.00000,-364375089.47121,   0.00000
102756918.39922,93977881.16976,30087623.31164,   0.00028,   0.00023,   0.00039,111578421.70868,   0.00000,274640135.82653,   0.00000,   0.00000,   0.00000,-363061714.11785,   0.00000
105175121.32780,95109717.08279,29707560.32978,   0.00029,   0.00023,   0.00039,112925222.24239,   0.00000,274640135.82653,   0.00000,   0.00000,   0.00000,-361714913.58414,   0.00000
107593324.25637,96241552.99582,29323320.83163,   0.00030,   0.00023,   0.00038,114295156.34073,   0.00000,274640135.82653,   0.00000,   0.00000,   0.00000,-360344979.48580,   0.00000
110026144.99194,97379653.68327,28934904.81719,   0.00031,   0.00023,   0.00038,115697570.36421,   0.00000,274640135.82653,   0.00000,   0.00000,   0.00000,-358942565.46232,   0.00000
112479848.30893,98538636.95215,28542312.28648,   0.00032,   0.00023,   0.00037,117140766.10223,   0.00000,274640135.82653,   0.00000,   0.00000,   0.00000,-357499369.72430,   0.00000
114927286.85149,99683002.41403,28145543.23947,   0.00033,   0.00023,   0.00037,118596796.05032,   0.00000,274640135.82653,   0.00000,   0.00000,   0.00000,-356043339.77621,   0.00000
117380990.16848,100841985.68290,27744597.67619,   0.00034,   0.00023,   0.00036,120082300.52772,   0.00000,274640135.82653,   0.00000,   0.00000,   0.00000,-354557835.29881,   0.00000
119857664.32503,101998880.69364,27339475.59662,   0.00035,   0.00023,   0.00036,121600265.35413,   0.00000,274640135.82653,   0.00000,   0.00000,   0.00000,-353039870.47240,   0.00000
122325985.44902,103164128.73694,26930177.00076,   0.00036,   0.00023,   0.00035,123136240.65752,   0.00000,274640135.82653,   0.00000,   0.00000,   0.00000,-351503895.16901,   0.00000
124823542.18699,104341906.32909,26516701.88862,   0.00036,   0.00023,   0.00034,124712590.34719,   0.00000,274640135.82653,   0.00000,   0.00000,   0.00000,-349927545.47934,   0.00000
127300216.34354,105498801.33983,26099050.26020,   0.00037,   0.00023,   0.00034,126288571.15417,   0.00000,274640135.82653,   0.00000,   0.00000,   0.00000,-348351564.67236,   0.00000
129812390.88851,106682843.70641,25677222.11549,   0.00038,   0.00023,   0.00033,127912822.53108,   0.00000,274640135.82653,   0.00000,   0.00000,   0.00000,-346727313.29545,   0.00000
132324565.43348,107866886.07299,25251217.45450,   0.00039,   0.00023,   0.00033,129554964.60103,   0.00000,274640135.82653,   0.00000,   0.00000,   0.00000,-345085171.22550,   0.00000
134836739.97845,109050928.43957,24821036.27722,   0.00040,   0.00023,   0.00032,131214447.69826,   0.00000,274640135.82653,   0.00000,   0.00000,   0.00000,-343425688.12827,   0.00000
137363532.33041,110241235.58058,24386678.58366,   0.00041,   0.00023,   0.00032,132901748.61841,   0.00000,274640135.82653,   0.00000,   0.00000,   0.00000,-341738387.20812,   0.00000
139904942.48937,111437807.49601,23948144.37381,   0.00042,   0.00023,   0.00031,134616561.68707,   0.00000,274640135.82653,   0.00000,   0.00000,   0.00000,-340023574.13946,   0.00000
142431734.84133,112628114.63702,23505433.64769,   0.00043,   0.00023,   0.00031,136336311.26681,   0.00000,274640135.82653,   0.00000,   0.00000,   0.00000,-338303824.55972,   0.00000
144987762.80729,113830951.32688,23062722.92156,   0.00044,   0.00024,   0.00030,138096015.28793,   0.00000,274640135.82653,   0.00000,   0.00000,   0.00000,-336544120.53860,   0.00000
147543790.77324,115033788.01674,22611659.16286,   0.00045,   0.00024,   0.00029,139868805.74494,   0.00000,274640135.82653,   0.00000,   0.00000,   0.00000,-334771330.08159,   0.00000
150099818.73919,116236624.70660,22156418.88788,   0.00046,   0.00024,   0.00029,141656390.26606,   0.00000,274640135.82653,   0.00000,   0.00000,   0.00000,-332983745.56047,   0.00000
152670464.51214,117445726.17089,21697002.09661,   0.00047,   0.00024,   0.00028,143469702.23927,   0.00000,274640135.82653,   0.00000,   0.00000,   0.00000,-331170433.58726,   0.00000
155255728.09208,118661092.40960,21237585.30535,   0.00048,   0.00024,   0.00028,145310311.91142,   0.00000,274640135.82653,   0.00000,   0.00000,   0.00000,-329329823.91511,   0.00000
157832638.63946,119884811.68088,20769815.48151,   0.00048,   0.00024,   0.00027,147159537.36226,   0.00000,274640135.82653,   0.00000,   0.00000,   0.00000,-327480598.46427,   0.00000
160432520.02640,121106442.69402,20297869.14139,   0.00049,   0.00024,   0.00026,149036782.79616,   0.00000,274640135.82653,   0.00000,   0.00000,   0.00000,-325603353.03037,   0.00000
163024048.38076,122336426.73973,19825922.80127,   0.00050,   0.00024,   0.00026,150925358.21100,   0.00000,274640135.82653,   0.00000,   0.00000,   0.00000,-323714777.61553,   0.00000
165623929.76770,123558057.75287,19345623.42859,   0.00051,   0.00024,   0.00025,152828230.72124,   0.00000,274640135.82653,   0.00000,   0.00000,   0.00000,-321811905.10529,   0.00000
168244693.73606,124800571.34743,18865324.05590,   0.00052,   0.00024,   0.00025,154764747.37405,   0.00000,274640135.82653,   0.00000,   0.00000,   0.00000,-319875388.45248,   0.00000
170859192.92999,126028467.13499,18380848.16693,   0.00053,   0.00024,   0.00024,156705082.54107,   0.00000,274640135.82653,   0.00000,   0.00000,   0.00000,-317935053.28546,   0.00000
173479956.89835,127270980.72955,17888019.24539,   0.00054,   0.00024,   0.00023,158663724.35914,   0.00000,274640135.82653,   0.00000,   0.00000,   0.00000,-315976411.46739,   0.00000
176109073.89928,128505141.29155,17395190.32385,   0.00055,   0.00024,   0.00023,160638830.18461,   0.00000,274640135.82653,   0.00000,   0.00000,   0.00000,-314001305.64192,   0.00000
178744455.67463,129753919.66053,16898184.88602,   0.00056,   0.00024,   0.00022,162633060.34644,   0.00000,274640135.82653,   0.00000,   0.00000,   0.00000,-312007075.48009,   0.00000
181394455.25698,131008962.80395,16397002.93191,   0.00057,   0.00024,   0.00021,164649878.24710,   0.00000,274640135.82653,   0.00000,   0.00000,   0.00000,-309990257.57942,   0.00000
184044454.83933,132264005.94736,15891644.46152,   0.00058,   0.00024,   0.00021,166677247.54140,   0.00000,274640135.82653,   0.00000,   0.00000,   0.00000,-307962888.28513,   0.00000
186694454.42168,133519049.09077,15382109.47484,   0.00059,   0.00024,   0.00020,168714900.44657,   0.00000,274640135.82653,   0.00000,   0.00000,   0.00000,-305925235.37996,   0.00000
189352807.03659,134765739.20162,14872574.48817,   0.00060,   0.00024,   0.00019,170767676.68598,   0.00000,274640135.82653,   0.00000,   0.00000,   0.00000,-303872459.14055,   0.00000
192017424.42594,136027047.11946,14354686.46892,   0.00061,   0.00024,   0.00019,172837081.26999,   0.00000,274640135.82653,   0.00000,   0.00000,   0.00000,-301803054.55654,   0.00000
194682041.81528,137288355.03730,13836798.44968,   0.00062,   0.00025,   0.00018,174917076.15925,   0.00000,274640135.82653,   0.00000,   0.00000,   0.00000,-299723059.66727,   0.00000
197361277.01162,138555927.72956,13310557.39786,   0.00063,   0.00025,   0.00017,177017391.10366,   0.00000,274640135.82653,   0.00000,   0.00000,   0.00000,-297622744.72287,   0.00000
200040512.20796,139823500.42183,12784316.34605,   0.00064,   0.00025,   0.00017,179127801.81996,   0.00000,274640135.82653,   0.00000,   0.00000,   0.00000,-295512334.00657,   0.00000
202719747.40430,141091073.11409,12253898.77795,   0.00065,   0.00025,   0.00016,181247108.39966,   0.00000,274640135.82653,   0.00000,   0.00000,   0.00000,-293393027.42687,   0.00000
205413600.40763,142364910.58079,11719304.69357,   0.00066,   0.00025,   0.00015,183387165.44647,   0.00000,274640135.82653,   0.00000,   0.00000,   0.00000,-291252970.38005,   0.00000
208107453.41096,143638748.04748,11180534.09290,   0.00067,   0.00025,   0.00015,185535767.62002,   0.00000,274640135.82653,   0.00000,   0.00000,   0.00000,-289104368.20651,   0.00000
210807571.18872,144927203.32117,10637586.97595,   0.00068,   0.00025,   0.00014,187700424.53784,   0.00000,274640135.82653,   0.00000,   0.00000,   0.00000,-286939711.28869,   0.00000
213516041.99905,146207305.56228,10090463.34272,   0.00069,   0.00025,   0.00013,189877654.15427,   0.00000,274640135.82653,   0.00000,   0.00000,   0.00000,-284762481.67226,   0.00000
216209895.00238,147481143.02898,9543339.70948,   0.00070,   0.00025,   0.00012,192051424.87204,   0.00000,274640135.82653,   0.00000,   0.00000,   0.00000,-282588710.95449,   0.00000
218932983.61970,148767510.04452,8992039.55996,   0.00071,   0.00025,   0.00012,194257249.15198,   0.00000,274640135.82653,   0.00000,   0.00000,   0.00000,-280382886.67455,   0.00000
221647719.20446,150062230.09264,8436562.89416,   0.00072,   0.00025,   0.00011,196466180.47528,   0.00000,274640135.82653,   0.00000,   0.00000,   0.00000,-278173955.35124,   0.00000
224370807.82178,151348597.10818,7876909.71207,   0.00073,   0.00025,   0.00010,198687159.55792,   0.00000,274640135.82653,   0.00000,   0.00000,   0.00000,-275952976.26861,   0.00000
227093896.43910,152634964.12373,7313080.01370,   0.00074,   0.00025,   0.00010,200915516.46178,   0.00000,274640135.82653,   0.00000,   0.00000,   0.00000,-273724619.36475,   0.00000
229816985.05642,153921331.13927,6745073.79904,   0.00075,   0.00025,   0.00009,203151112.73009,   0.00000,274640135.82653,   0.00000,   0.00000,   0.00000,-271489023.09644,   0.00000
232546338.44817,155222315.96181,6177067.58439,   0.00076,   0.00025,   0.00008,205401689.78775,   0.00000,274640135.82653,   0.00000,   0.00000,   0.00000,-269238446.03878,   0.00000
235284044.87249,156514947.75178,5600708.33716,   0.00077,   0.00025,   0.00007,207663536.64736,   0.00000,274640135.82653,   0.00000,   0.00000,   0.00000,-266976599.17916,   0.00000
238028016.07123,157822197.34875,5024349.08994,   0.00078,   0.00025,   0.00007,209940015.56445,   0.00000,274640135.82653,   0.00000,   0.00000,   0.00000,-264700120.26208,   0.00000
240765722.49555,159114829.13872,4443813.32643,   0.00079,   0.00025,   0.00006,212215710.10165,   0.00000,274640135.82653,   0.00000,   0.00000,   0.00000,-262424425.72488,   0.00000
243503428.91987,160407460.92869,3863277.56292,   0.00080,   0.00026,   0.00005,214498208.37816,   0.00000,274640135.82653,   0.00000,   0.00000,   0.00000,-260141927.44837,   0.00000
246262017.92561,161720975.30008,3274388.76684,   0.00081,   0.00026,   0.00004,216806564.64207,   0.00000,274640135.82653,   0.00000,   0.00000,   0.00000,-257833571.18446,   0.00000
248999724.34993,163013607.09005,2685499.97076,   0.00082,   0.00026,   0.00003,219101783.01971,   0.00000,274640135.82653,   0.00000,   0.00000,   0.00000,-255538352.80682,   0.00000
251758313.35566,164327121.46145,2092434.65840,   0.00083,   0.00026,   0.00003,221422824.25750,   0.00000,274640135.82653,   0.00000,   0.00000,   0.00000,-253217311.56903,   0.00000
254510637.58698,165626018.02584,1495192.82976,   0.00084,   0.00026,   0.00002,223742633.05877,   0.00000,274640135.82653,   0.00000,   0.00000,   0.00000,-250897502.76776,   0.00000
257283844.39971,166945797.17166,893774.48483,   0.00085,   0.00026,   0.00001,226088070.84445,   0.00000,274640135.82653,   0.00000,   0.00000,   0.00000,-248552064.98208,   0.00000
260036168.63102,168244693.73606,292356.13990,   0.00086,   0.00026,   0.00000,228419869.60717,   0.00000,274640135.82653,   0.00000,   0.00000,   0.00000,-246220266.21936,   0.00000
262809375.44375,169564472.88188,-313238.72132,   0.00087,   0.00026,  -0.00000,230777034.00642,   0.00000,274640135.82653,   0.00000,   0.00000,   0.00000,-243863101.82011,   0.00000
265561699.67507,170863369.44628,-923010.09882,   0.00088,   0.00026,  -0.00001,233120347.44614,   0.00000,274640135.82653,   0.00000,   0.00000,   0.00000,-241519788.38039,   0.00000
268334906.48780,172183148.59210,-1536957.99260,   0.00089,   0.00026,  -0.00002,235488845.47316,   0.00000,274640135.82653,   0.00000,   0.00000,   0.00000,-239151290.35337,   0.00000
271101848.52611,173488309.93092,-2150905.88638,   0.00090,   0.00026,  -0.00003,237855594.05953,   0.00000,274640135.82653,   0.00000,   0.00000,   0.00000,-236784541.76700,   0.00000
273875055.33884,174808089.07674,-2773206.81273,   0.00091,   0.00026,  -0.00004,240235115.88031,   0.00000,274640135.82653,   0.00000,   0.00000,   0.00000,-234405019.94622,   0.00000
276662879.95857,176134132.99698,-3395507.73908,   0.00092,   0.00026,  -0.00004,242632219.37335,   0.00000,274640135.82653,   0.00000,   0.00000,   0.00000,-232007916.45318,   0.00000
279429821.99688,177439294.33581,-4017808.66544,   0.00093,   0.00026,  -0.00005,245014951.63256,   0.00000,274640135.82653,   0.00000,   0.00000,   0.00000,-229625184.19397,   0.00000
282203028.80961,178759073.48163,-4648462.62436,   0.00094,   0.00026,  -0.00006,247410243.26394,   0.00000,274640135.82653,   0.00000,   0.00000,   0.00000,-227229892.56259,   0.00000
284984588.65491,180070499.59488,-5279116.58328,   0.00095,   0.00026,  -0.00007,249815713.18659,   0.00000,274640135.82653,   0.00000,   0.00000,   0.00000,-224824422.63994,   0.00000
287772413.27464,181396543.51512,-5909770.54220,   0.00096,   0.00026,  -0.00008,252233072.60885,   0.00000,274640135.82653,   0.00000,   0.00000,   0.00000,-222407063.21768,   0.00000
290539355.31295,182701704.85395,-6548777.53368,   0.00097,   0.00026,  -0.00009,254636316.85389,   0.00000,274640135.82653,   0.00000,   0.00000,   0.00000,-220003818.97264,   0.00000
293327179.93267,184027748.77419,-7187784.52517,   0.00098,   0.00027,  -0.00009,257063608.79751,   0.00000,274640135.82653,   0.00000,   0.00000,   0.00000,-217576527.02902,   0.00000
296108739.77798,185339174.88744,-7830968.03294,   0.00099,   0.00027,  -0.00010,259488763.13715,   0.00000,274640135.82653,   0.00000,   0.00000,   0.00000,-215151372.68938,   0.00000
298896564.39770,186665218.80769,-8474151.54072,   0.00100,   0.00027,  -0.00011,261925373.45609,   0.00000,274640135.82653,   0.00000,   0.00000,   0.00000,-212714762.37043,   0.00000
301678124.24301,187976644.92094,-9125688.08106,   0.00101,   0.00027,  -0.00012,264360175.87777,   0.00000,274640135.82653,   0.00000,   0.00000,   0.00000,-210279959.94876,   0.00000
304459684.08831,189288071.03419,-9773048.10511,   0.00102,   0.00027,  -0.00013,266798845.89338,   0.00000,274640135.82653,   0.00000,   0.00000,   0.00000,-207841289.93315,   0.00000
307247508.70804,190614114.95443,-10428761.16174,   0.00103,   0.00027,  -0.00014,269249582.47122,   0.00000,274640135.82653,   0.00000,   0.00000,   0.00000,-205390553.35531,   0.00000
310029068.55334,191925541.06768,-11084474.21836,   0.00104,   0.00027,  -0.00014,271697509.44655,   0.00000,274640135.82653,   0.00000,   0.00000,   0.00000,-202942626.37998,   0.00000
312816893.17307,193251584.98793,-11744363.79127,   0.00105,   0.00027,  -0.00015,274156914.15809,   0.00000,274640135.82653,   0.00000,   0.00000,   0.00000,-200483221.66844,   0.00000
315598453.01837,194563011.10118,-12404253.36418,   0.00106,   0.00027,  -0.00016,276613376.43503,   0.00000,274640135.82653,   0.00000,   0.00000,   0.00000,-198026759.39150,   0.00000
318380012.86367,195874437.21443,-13072495.96966,   0.00107,   0.00027,  -0.00017,279074886.64833,   0.00000,274640135.82653,   0.00000,   0.00000,   0.00000,-195565249.17820,   0.00000
321167837.48340,197200481.13468,-13736562.05886,   0.00108,   0.00027,  -0.00018,281546509.35217,   0.00000,274640135.82653,   0.00000,   0.00000,   0.00000,-193093626.47436,   0.00000
323949397.32870,198511907.24793,-14408981.18062,   0.00109,   0.00027,  -0.00019,284016254.55120,   0.00000,274640135.82653,   0.00000,   0.00000,   0.00000,-190623881.27533,   0.00000
326730957.17400,199823333.36118,-15081400.30238,   0.00110,   0.00027,  -0.00020,286489720.34238,   0.00000,274640135.82653,   0.00000,   0.00000,   0.00000,-188150415.48415,   0.00000
329512517.01930,201134759.47443,-15753819.42414,   0.00111,   0.00027,  -0.00020,288966811.18441,   0.00000,274640135.82653,   0.00000,   0.00000,   0.00000,-185673324.64212,   0.00000
332300341.63903,202460803.39467,-16434591.57847,   0.00112,   0.00027,  -0.00021,291455635.09585,   0.00000,274640135.82653,   0.00000,   0.00000,   0.00000,-183184500.73068,   0.00000
335081901.48433,203772229.50792,-17111187.21652,   0.00113,   0.00027,  -0.00022,293940460.41953,   0.00000,274640135.82653,   0.00000,   0.00000,   0.00000,-180699675.40700,   0.00000
337863461.32964,205083655.62117,-17796135.88713,   0.00114,   0.00027,  -0.00023,296430190.62137,   0.00000,274640135.82653,   0.00000,   0.00000,   0.00000,-178209945.20516,   0.00000
340645021.17494,206395081.73442,-18481084.55775,   0.00115,   0.00027,  -0.00024,298923325.76582,   0.00000,274640135.82653,   0.00000,   0.00000,   0.00000,-175716810.06071,   0.00000
343426581.02024,207706507.84767,-19166033.22836,   0.00116,   0.00028,  -0.00025,301419781.36293,   0.00000,274640135.82653,   0.00000,   0.00000,   0.00000,-173220354.46360,   0.00000
346208140.86554,209017933.96092,-19855158.41526,   0.00117,   0.00028,  -0.00026,303920294.06044,   0.00000,274640135.82653,   0.00000,   0.00000,   0.00000,-170719841.76609,   0.00000
348975082.90385,210323095.29975,-20548460.11845,   0.00118,   0.00028,  -0.00027,306412484.93674,   0.00000,274640135.82653,   0.00000,   0.00000,   0.00000,-168227650.88979,   0.00000
351756642.74915,211634521.41300,-21241761.82163,   0.00119,   0.00028,  -0.00028,308920208.08886,   0.00000,274640135.82653,   0.00000,   0.00000,   0.00000,-165719927.73767,   0.00000
354517320.01303,212925064.94483,-21939240.04110,   0.00120,   0.00028,  -0.00029,311412878.41687,   0.00000,274640135.82653,   0.00000,   0.00000,   0.00000,-163227257.40966,   0.00000
357298879.85833,214236491.05808,-22640894.77685,   0.00121,   0.00028,  -0.00029,313928551.93173,   0.00000,274640135.82653,   0.00000,   0.00000,   0.00000,-160711583.89480,   0.00000
360065821.89664,215541652.39690,-23338372.99632,   0.00122,   0.00028,  -0.00030,316433969.02859,   0.00000,274640135.82653,   0.00000,   0.00000,   0.00000,-158206166.79794,   0.00000
362832763.93495,216846813.73573,-24044204.24835,   0.00123,   0.00028,  -0.00031,318944192.15217,   0.00000,274640135.82653,   0.00000,   0.00000,   0.00000,-155695943.67436,   0.00000
365593441.19883,218137357.26756,-24750035.50039,   0.00124,   0.00028,  -0.00032,321450737.37296,   0.00000,274640135.82653,   0.00000,   0.00000,   0.00000,-153189398.45357,   0.00000
368360383.23713,219442518.60638,-25455866.75242,   0.00125,   0.00028,  -0.00033,323966763.90473,   0.00000,274640135.82653,   0.00000,   0.00000,   0.00000,-150673371.92180,   0.00000
371121060.50102,220733062.13821,-26165874.52074,   0.00126,   0.00028,  -0.00034,326480010.30422,   0.00000,274640135.82653,   0.00000,   0.00000,   0.00000,-148160125.52231,   0.00000
373873384.73233,222031958.70261,-26880058.80535,   0.00127,   0.00028,  -0.00035,328991293.59569,   0.00000,274640135.82653,   0.00000,   0.00000,   0.00000,-145648842.23084,   0.00000
376634061.99621,223322502.23444,-27590066.57367,   0.00128,   0.00028,  -0.00036,331510076.51189,   0.00000,274640135.82653,   0.00000,   0.00000,   0.00000,-143130059.31464,   0.00000
379380121.45309,224606780.99184,-28308427.37456,   0.00129,   0.00028,  -0.00037,334021310.62354,   0.00000,274640135.82653,   0.00000,   0.00000,   0.00000,-140618825.20299,   0.00000
382126180.90998,225891059.74924,-29026788.17545,   0.00130,   0.00028,  -0.00038,336535234.92072,   0.00000,274640135.82653,   0.00000,   0.00000,   0.00000,-138104900.90581,   0.00000
384872240.36687,227175338.50664,-29745148.97634,   0.00131,   0.00028,  -0.00039,339051789.56369,   0.00000,274640135.82653,   0.00000,   0.00000,   0.00000,-135588346.26284,   0.00000
387618299.82375,228459617.26405,-30467686.29351,   0.00132,   0.00028,  -0.00040,341572033.95573,   0.00000,274640135.82653,   0.00000,   0.00000,   0.00000,-133068101.87080,   0.00000
390364359.28064,229743896.02145,-31190223.61068,   0.00133,   0.00028,  -0.00041,344094830.14614,   0.00000,274640135.82653,   0.00000,   0.00000,   0.00000,-130545305.68039,   0.00000
393095800.93053,231021910.00443,-31916937.44414,   0.00134,   0.00028,  -0.00041,346608946.15266,   0.00000,274640135.82653,   0.00000,   0.00000,   0.00000,-128031189.67387,   0.00000
395841860.38741,232306188.76183,-32643651.27760,   0.00135,   0.00029,  -0.00042,349137872.10674,   0.00000,274640135.82653,   0.00000,   0.00000,   0.00000,-125502263.71979,   0.00000
398573302.03730,233584202.74481,-33374541.62734,   0.00136,   0.00029,  -0.00043,351658086.73142,   0.00000,274640135.82653,   0.00000,   0.00000,   0.00000,-122982049.09511,   0.00000
401298478.91277,234847598.92079,-34105431.97708,   0.00137,   0.00029,  -0.00044,354174280.74941,   0.00000,274640135.82653,   0.00000,   0.00000,   0.00000,-120465855.07712,   0.00000
404015302.75567,236119348.12934,-34836322.32682,   0.00138,   0.00029,  -0.00045,356686962.98099,   0.00000,274640135.82653,   0.00000,   0.00000,   0.00000,-117953172.84553,   0.00000
406740479.63113,237382744.30532,-35571389.19285,   0.00139,   0.00029,  -0.00046,359209110.37572,   0.00000,274640135.82653,   0.00000,   0.00000,   0.00000,-115431025.45081,   0.00000
409457303.47403,238654493.51387,-36306456.05887,   0.00140,   0.00029,  -0.00047,361727662.09000,   0.00000,274640135.82653,   0.00000,   0.00000,   0.00000,-112912473.73653,   0.00000
412167862.54250,239911624.91543,-37045699.44118,   0.00141,   0.00029,  -0.00048,364243359.01040,   0.00000,274640135.82653,   0.00000,   0.00000,   0.00000,-110396776.81613,   0.00000
414878421.61097,241168756.31698,-37784942.82349,   0.00142,   0.00029,  -0.00049,366761320.87741,   0.00000,274640135.82653,   0.00000,   0.00000,   0.00000,-107878814.94912,   0.00000
417574362.87244,242419622.94411,-38524186.20580,   0.00143,   0.00029,  -0.00050,369269198.94094,   0.00000,274640135.82653,   0.00000,   0.00000,   0.00000,-105370936.88559,   0.00000
420270304.13392,243670489.57124,-39267606.10440,   0.00144,   0.00029,  -0.00051,371780580.35842,   0.00000,274640135.82653,   0.00000,   0.00000,   0.00000,-102859555.46811,   0.00000
422966245.39539,244921356.19837,-40011026.00299,   0.00145,   0.00029,  -0.00052,374294129.82705,   0.00000,274640135.82653,   0.00000,   0.00000,   0.00000,-100346005.99948,   0.00000
425662186.65687,246172222.82550,-40758622.41787,   0.00146,   0.00029,  -0.00053,376811159.17987,   0.00000,274640135.82653,   0.00000,   0.00000,   0.00000,-97828976.64666,   0.00000
428337245.33692,247402206.87120,-41506218.83275,   0.00147,   0.00029,  -0.00054,379311701.02101,   0.00000,274640135.82653,   0.00000,   0.00000,   0.00000,-95328434.80552,   0.00000
431018568.79140,248646808.72391,-42253815.24763,   0.00148,   0.00029,  -0.00055,381820645.34253,   0.00000,274640135.82653,   0.00000,   0.00000,   0.00000,-92819490.48400,   0.00000
433693627.47145,249876792.76961,-43001411.66250,   0.00149,   0.00029,  -0.00056,384325338.23818,   0.00000,274640135.82653,   0.00000,   0.00000,   0.00000,-90314797.58835,   0.00000
436368686.15151,251106776.81532,-43753184.59367,   0.00150,   0.00029,  -0.00057,386833469.10498,   0.00000,274640135.82653,   0.00000,   0.00000,   0.00000,-87806666.72155,   0.00000
439029127.02457,252330496.08660,-44504957.52483,   0.00151,   0.00029,  -0.00058,389331336.96833,   0.00000,274640135.82653,   0.00000,   0.00000,   0.00000,-85308798.85820,   0.00000
441689567.89763,253554215.35789,-45260906.97228,   0.00152,   0.00029,  -0.00059,391832632.37658,   0.00000,274640135.82653,   0.00000,   0.00000,   0.00000,-82807503.44995,   0.00000
444335390.96369,254771669.85474,-46016856.41972,   0.00152,   0.00029,  -0.00060,394323632.45982,   0.00000,274640135.82653,   0.00000,   0.00000,   0.00000,-80316503.36671,   0.00000
446995831.83675,255995389.12602,-46772805.86717,   0.00153,   0.00029,  -0.00061,396828838.58222,   0.00000,274640135.82653,   0.00000,   0.00000,   0.00000,-77811297.24431,   0.00000
449635390.12839,257198225.81588,-47528755.31462,   0.00154,   0.00029,  -0.00062,399317460.87413,   0.00000,274640135.82653,   0.00000,   0.00000,   0.00000,-75322674.95240,   0.00000
452266595.38746,258409415.53831,-48288881.27835,   0.00155,   0.00029,  -0.00063,401803435.68215,   0.00000,274640135.82653,   0.00000,   0.00000,   0.00000,-72836700.14438,   0.00000
454906153.67909,259612252.22817,-49049007.24208,   0.00156,   0.00029,  -0.00064,404297334.13332,   0.00000,274640135.82653,   0.00000,   0.00000,   0.00000,-70342801.69321,   0.00000
457516476.35674,260802559.36918,-49809133.20581,   0.00157,   0.00029,  -0.00065,406768585.77837,   0.00000,274640135.82653,   0.00000,   0.00000,   0.00000,-67871550.04815,   0.00000
460141416.84138,261999131.28461,-50573435.68583,   0.00158,   0.00029,  -0.00066,409255463.00249,   0.00000,274640135.82653,   0.00000,   0.00000,   0.00000,-65384672.82404,   0.00000
462751739.51903,263189438.42562,-51333561.64956,   0.00159,   0.00030,  -0.00067,411730356.09131,   0.00000,274640135.82653,   0.00000,   0.00000,   0.00000,-62909779.73522,   0.00000
465362062.19668,264379745.56663,-52097864.12957,   0.00160,   0.00030,  -0.00068,414208591.82119,   0.00000,274640135.82653,   0.00000,   0.00000,   0.00000,-60431544.00534,   0.00000
467972384.87433,265570052.70764,-52862166.60959,   0.00161,   0.00030,  -0.00069,416688589.90773,   0.00000,274640135.82653,   0.00000,   0.00000,   0.00000,-57951545.91880,   0.00000
470561824.97056,266739477.26722,-53630645.60589,   0.00162,   0.00030,  -0.00070,419153555.49269,   0.00000,274640135.82653,   0.00000,   0.00000,   0.00000,-55486580.33383,   0.00000
473136647.25979,267902637.05238,-54394948.08590,   0.00163,   0.00030,  -0.00071,421606434.44406,   0.00000,274640135.82653,   0.00000,   0.00000,   0.00000,-53033701.38246,   0.00000
475726087.35601,269072061.61197,-55163427.08220,   0.00164,   0.00030,  -0.00072,424074871.34474,   0.00000,274640135.82653,   0.00000,   0.00000,   0.00000,-50565264.48179,   0.00000
478300909.64525,270235221.39713,-55931906.07850,   0.00165,   0.00030,  -0.00073,426532785.59956,   0.00000,274640135.82653,   0.00000,   0.00000,   0.00000,-48107350.22697,   0.00000
480861114.12748,271392116.40786,-56704561.59109,   0.00166,   0.00030,  -0.00074,428981815.91144,   0.00000,274640135.82653,   0.00000,   0.00000,   0.00000,-45658319.91509,   0.00000
483421318.60972,272549011.41860,-57473040.58739,   0.00167,   0.00030,  -0.00075,431430856.11595,   0.00000,274640135.82653,   0.00000,   0.00000,   0.00000,-43209279.71058,   0.00000
485975258.31753,273691288.62233,-58245696.09997,   0.00168,   0.00030,  -0.00076,433877127.55982,   0.00000,274640135.82653,   0.00000,   0.00000,   0.00000,-40763008.26671,   0.00000
488514580.21835,274827301.05165,-59014175.09627,   0.00169,   0.00030,  -0.00077,436311145.25111,   0.00000,274640135.82653,   0.00000,   0.00000,   0.00000,-38328990.57542,   0.00000
491053902.11916,275963313.48096,-59786830.60885,   0.00170,   0.00030,  -0.00078,438748468.47601,   0.00000,274640135.82653,   0.00000,   0.00000,   0.00000,-35891667.35052,   0.00000
493593224.01998,277099325.91027,-60559486.12144,   0.00171,   0.00030,  -0.00079,441187388.35831,   0.00000,274640135.82653,   0.00000,   0.00000,   0.00000,-33452747.46822,   0.00000
496117928.11380,278229073.56516,-61336318.15030,   0.00171,   0.00030,  -0.00080,443617421.01432,   0.00000,274640135.82653,   0.00000,   0.00000,   0.00000,-31022714.81221,   0.00000
498621749.62620,279337938.63862,-62108973.66289,   0.00172,   0.00030,  -0.00081,446029074.49019,   0.00000,274640135.82653,   0.00000,   0.00000,   0.00000,-28611061.33634,   0.00000
501146453.72002,280467686.29351,-62881629.17547,   0.00173,   0.00030,  -0.00082,448460480.56124,   0.00000,274640135.82653,   0.00000,   0.00000,   0.00000,-26179655.26528,   0.00000
503635657.42543,281570286.59255,-63658461.20434,   0.00174,   0.00030,  -0.00083,450864796.11006,   0.00000,274640135.82653,   0.00000,   0.00000,   0.00000,-23775339.71647,   0.00000
506124861.13083,282672886.89159,-64435293.23321,   0.00175,   0.00030,  -0.00084,453270649.23401,   0.00000,274640135.82653,   0.00000,   0.00000,   0.00000,-21369486.59252,   0.00000
508607800.06181,283760869.38363,-65212125.26208,   0.00176,   0.00030,  -0.00085,455672028.54666,   0.00000,274640135.82653,   0.00000,   0.00000,   0.00000,-18968107.27987,   0.00000
511097003.76722,284863469.68267,-65988957.29094,   0.00177,   0.00030,  -0.00086,458080893.76765,   0.00000,274640135.82653,   0.00000,   0.00000,   0.00000,-16559242.05888,   0.00000
513550707.08421,285938922.62586,-66765789.31981,   0.00178,   0.00030,  -0.00087,460460934.49088,   0.00000,274640135.82653,   0.00000,   0.00000,   0.00000,-14179201.33565,   0.00000
516019028.20819,287020640.34348,-67542621.34868,   0.00179,   0.00030,  -0.00088,462854610.70008,   0.00000,274640135.82653,   0.00000,   0.00000,   0.00000,-11785525.12645,   0.00000
518472731.52518,288096093.28667,-68319453.37755,   0.00180,   0.00030,  -0.00089,465237581.24594,   0.00000,274640135.82653,   0.00000,   0.00000,   0.00000,-9402554.58059,   0.00000
520911817.03517,289165281.45543,-69096285.40642,   0.00181,   0.00030,  -0.00090,467609836.19952,   0.00000,274640135.82653,   0.00000,   0.00000,   0.00000,-7030299.62701,   0.00000
523350902.54517,290234469.62420,-69877293.95157,   0.00182,   0.00030,  -0.00091,469985373.76744,   0.00000,274640135.82653,   0.00000,   0.00000,   0.00000,-4654762.05909,   0.00000
525769105.47374,291282775.21154,-70654125.98044,   0.00182,   0.00030,  -0.00092,472342396.78108,   0.00000,274640135.82653,   0.00000,   0.00000,   0.00000,-2297739.04545,   0.00000
528123233.55207,292303303.96398,-71414440.23026,   0.00183,   0.00030,  -0.00093,474640150.09115,   0.00000,274640135.82653,   0.00000,   0.00000,   0.00000,  -3.74824,   0.00000
528118420.25133,292297528.26913,-71424432.22240,   0.00183,   0.00030,  -0.00093,474640443.41272,   0.00000,274640448.87506,   0.00000,   0.00000,  -0.00000,  -5.46234,   1.00000
527939018.34818,292083023.05081,-71797479.22325,   0.00184,   0.00030,  -0.00094,474652197.98476,   0.00001,274652205.51571,   0.00001,   0.00000,  -0.00001,  -7.53095,   1.00000
527757795.01925,291856737.61618,-72173158.75112,   0.00185,   0.00030,  -0.00095,474663956.62833,   0.00002,274663956.67461,   0.00002,   0.00000,  -0.00001,  -0.04628,   1.00000
527578667.21366,291632144.92323,-72542788.24058,   0.00186,   0.00030,  -0.00096,474675708.34557,   0.00003,274675712.83145,   0.00003,   0.00000,  -0.00002,  -4.48589,   1.00000
527395978.48443,291418835.00548,-72915132.74278,   0.00187,   0.00030,  -0.00097,474687458.89236,   0.00004,274687461.73147,   0.00004,   0.00000,  -0.00002,  -2.83911,   1.00000
527214526.70929,291184512.88031,-73285630.86901,   0.00188,   0.00030,  -0.00098,474699087.47225,   0.00005,274699095.53551,   0.00005,   0.00000,  -0.00003,  -8.06326,   1.00000
527030796.33683,290961312.82867,-73656741.23385,   0.00189,   0.00030,  -0.00099,474710775.14070,   0.00006,274710783.11264,   0.00006,   0.00000,  -0.00003,  -7.97194,   1.00000
526848095.19842,290728550.54997,-74025033.37695,   0.00190,   0.00030,  -0.00100,474722381.12545,   0.00007,274722384.88652,   0.00006,   0.00000,  -0.00004,  -3.76108,   1.00000
526663118.81962,290506902.06075,-74393943.36062,   0.00190,   0.00030,  -0.00101,474734037.34937,   0.00009,274734040.47996,   0.00007,   0.00001,  -0.00004,  -3.13058,   1.00000
526479321.33541,290264212.98578,-74761134.72836,   0.00191,   0.00030,  -0.00102,474745579.30638,   0.00010,274745580.61218,   0.00008,   0.00001,  -0.00005,  -1.30580,   1.00000
526291881.65872,290032827.63912,-75131111.69200,   0.00192,   0.00030,  -0.00103,474757111.62599,   0.00011,274757113.79826,   0.00009,   0.00001,  -0.00005,  -2.17227,   1.00000
526106793.66773,289791718.90864,-75496201.78503,   0.00193,   0.00030,  -0.00104,474768613.19676,   0.00012,274768621.91861,   0.00010,   0.00001,  -0.00006,  -8.72184,   1.00000
525919449.93044,289561772.83134,-75861922.60431,   0.00194,   0.00030,  -0.00105,474780174.09712,   0.00013,274780183.98899,   0.00011,   0.00001,  -0.00006,  -9.89187,   1.00000
525733222.44692,289310752.76019,-76226049.26151,   0.00195,   0.00030,  -0.00106,474791628.26232,   0.00014,274791630.24348,   0.00012,   0.00001,  -0.00007,  -1.98116,   1.00000
525545506.07290,289072100.06423,-76589221.93411,   0.00196,   0.00030,  -0.00107,474803055.61208,   0.00015,274803059.33492,   0.00013,   0.00001,  -0.00007,  -3.72283,   1.00000
525355751.54457,288821623.56994,-76955167.43964,   0.00196,   0.00030,  -0.00108,474814477.66113,   0.00016,274814483.66895,   0.00014,   0.00001,  -0.00008,  -6.00782,   1.00000
525166837.30002,288573080.26725,-77317460.04639,   0.00197,   0.00030,  -0.00109,474825848.75387,   0.00017,274825850.98520,   0.00015,   0.00001,  -0.00009,  -2.23134,   1.00000
524977978.20400,288325302.67097,-77677691.71951,   0.00198,   0.00030,  -0.00110,474837229.65961,   0.00018,274837232.63921,   0.00015,   0.00001,  -0.00009,  -2.97960,   1.00000
524787810.99284,288066856.01728,-78039191.32163,   0.00199,   0.00030,  -0.00111,474848535.28240,   0.00019,274848538.01995,   0.00016,   0.00001,  -0.00010,  -2.73755,   1.00000
524596164.09641,287820786.83655,-78399810.88949,   0.00200,   0.00030,  -0.00112,474859822.51685,   0.00020,274859826.00087,   0.00017,   0.00001,  -0.00010,  -3.48402,   1.00000
524406902.00734,287565030.38809,-78755718.53897,   0.00201,   0.00030,  -0.00113,474871086.16059,   0.00021,274871088.15510,   0.00018,   0.00001,  -0.00011,  -1.99451,   1.00000
524214007.54800,287297498.38143,-79116743.54421,   0.00201,   0.00030,  -0.00114,474882282.91635,   0.00022,274882284.57129,   0.00019,   0.00001,  -0.00011,  -1.65495,   1.00000
524021159.27666,287030798.52232,-79475748.34692,   0.00202,   0.00030,  -0.00115,474893489.74917,   0.00023,274893495.46678,   0.00020,   0.00001,  -0.00012,  -5.71761,   1.00000
523829143.93826,286766049.69439,-79831272.67793,   0.00203,   0.00030,  -0.00116,474904644.39357,   0.00024,274904648.61684,   0.00021,   0.00001,  -0.00012,  -4.22327,   1.00000
523635667.48158,286502134.16478,-80187110.88729,   0.00204,   0.00030,  -0.00117,474915747.41098,   0.00025,274915754.66330,   0.00022,   0.00001,  -0.00013,  -7.25232,   1.00000
523442265.80214,286239036.94941,-80540980.21005,   0.00205,   0.00030,  -0.00118,474926868.39088,   0.00026,274926874.83546,   0.00022,   0.00002,  -0.00013,  -6.44458,   1.00000
523247392.32924,285965182.88347,-80896307.50185,   0.00206,   0.00030,  -0.00119,474937912.63964,   0.00027,274937918.43360,   0.00023,   0.00002,  -0.00014,  -5.79396,   1.00000
523052568.96701,285680611.29638,-81250791.06258,   0.00206,   0.00030,  -0.00120,474948941.54626,   0.00028,274948946.96391,   0.00024,   0.00002,  -0.00015,  -5.41765,   1.00000
522856252.92520,285408484.55991,-81604539.55727,   0.00207,   0.00030,  -0.00121,474959952.12310,   0.00029,274959957.72237,   0.00025,   0.00002,  -0.00015,  -5.59928,   1.00000
522660726.61554,285126687.80657,-81956068.71633,   0.00208,   0.00030,  -0.00122,474970875.96786,   0.00030,274970880.75801,   0.00026,   0.00002,  -0.00016,  -4.79015,   1.00000
522462925.91024,284844653.16776,-82309419.73461,   0.00209,   0.00030,  -0.00123,474981827.22730,   0.00031,274981829.10439,   0.00027,   0.00002,  -0.00016,  -1.87709,   1.00000
522265871.46971,284552949.79692,-82660594.56662,   0.00210,   0.00029,  -0.00124,474992683.22522,   0.00032,274992689.71411,   0.00027,   0.00002,  -0.00017,  -6.48889,   1.00000
522069688.18581,284274822.73432,-83007383.16319,   0.00210,   0.00029,  -0.00125,475003519.01631,   0.00033,275003520.88896,   0.00028,   0.00002,  -0.00017,  -1.87266,   1.00000
521871059.24508,283973192.88469,-83358289.39851,   0.00211,   0.00029,  -0.00126,475014314.54337,   0.00034,275014318.81623,   0.00029,   0.00002,  -0.00018,  -4.27286,   1.00000
521670922.21922,283684036.84166,-83708556.05681,   0.00212,   0.00029,  -0.00127,475025091.75950,   0.00035,275025098.70689,   0.00030,   0.00002,  -0.00018,  -6.94738,   1.00000
521471492.07348,283385172.06641,-84056759.19561,   0.00213,   0.00029,  -0.00128,475035788.73900,   0.00036,275035790.36975,   0.00031,   0.00002,  -0.00019,  -1.63075,   1.00000
521272104.31105,283087225.33718,-84403110.40861,   0.00214,   0.00029,  -0.00129,475046487.58498,   0.00037,275046496.15339,   0.00032,   0.00002,  -0.00019,  -8.56841,   1.00000
521070997.54036,282778436.25592,-84751172.52867,   0.00214,   0.00029,  -0.00130,475057123.26122,   0.00038,275057125.04249,   0.00032,   0.00002,  -0.00020,  -1.78127,   1.00000
520872472.16724,282483398.37425,-85092545.29478,   0.00215,   0.00029,  -0.00131,475067785.01127,   0.00039,275067785.61811,   0.00033,   0.00002,  -0.00020,  -0.60684,   1.00000
520667917.15464,282164504.36801,-85442957.99324,   0.00216,   0.00029,  -0.00132,475078288.18736,   0.00040,275078289.96612,   0.00034,   0.00002,  -0.00021,  -1.77875,   1.00000
520467680.78750,281859562.63646,-85784259.76365,   0.00217,   0.00029,  -0.00133,475088880.72691,   0.00041,275088887.71392,   0.00035,   0.00002,  -0.00022,  -6.98700,   1.00000
520266339.39833,281544700.87900,-86126109.85590,   0.00217,   0.00029,  -0.00134,475099328.55920,   0.00042,275099334.81457,   0.00036,   0.00002,  -0.00022,  -6.25537,   1.00000
520062605.96579,281229650.76975,-86469879.52577,   0.00218,   0.00029,  -0.00135,475109803.87426,   0.00043,275109807.63235,   0.00036,   0.00002,  -0.00023,  -3.75808,   1.00000
519859437.65204,280904832.11303,-86811793.35478,   0.00219,   0.00029,  -0.00136,475120188.96353,   0.00044,275120191.59318,   0.00037,   0.00002,  -0.00023,  -2.62964,   1.00000
519654539.39220,280580799.52204,-87154408.15742,   0.00220,   0.00029,  -0.00137,475130520.82268,   0.00045,275130527.72058,   0.00038,   0.00002,  -0.00024,  -6.89790,   1.00000
519449684.04031,280257750.71674,-87495267.29052,   0.00220,   0.00029,  -0.00138,475140870.08112,   0.00046,275140877.76159,   0.00039,   0.00003,  -0.00024,  -7.68047,   1.00000
519245351.01601,279924904.04926,-87834352.67296,   0.00221,   0.00029,  -0.00139,475151135.87782,   0.00047,275151138.60638,   0.00039,   0.00003,  -0.00025,  -2.72856,   1.00000
519041039.88089,279593063.78822,-88171711.09733,   0.00222,   0.00029,  -0.00140,475161403.88345,   0.00048,275161413.34651,   0.00040,   0.00003,  -0.00025,  -9.46307,   1.00000
518832914.35768,279249997.92248,-88513521.37647,   0.00223,   0.00029,  -0.00141,475171542.18606,   0.00049,275171548.96672,   0.00041,   0.00003,  -0.00026,  -6.78066,   1.00000
518627300.79970,278909130.30032,-88849945.41235,   0.00223,   0.00028,  -0.00142,475181680.07926,   0.00049,275181686.33120,   0.00042,   0.00003,  -0.00026,  -6.25194,   1.00000
518419208.89754,278568114.71829,-89188342.14619,   0.00224,   0.00028,  -0.00143,475191845.63676,   0.00050,275191849.76152,   0.00043,   0.00003,  -0.00027,  -4.12476,   1.00000
518212203.18932,278218141.70791,-89523939.99946,   0.00225,   0.00028,  -0.00144,475201844.72192,   0.00051,275201849.35100,   0.00043,   0.00003,  -0.00027,  -4.62908,   1.00000
518002687.05970,277868029.39449,-89861528.87120,   0.00226,   0.00028,  -0.00145,475211871.48421,   0.00052,275211875.10259,   0.00044,   0.00003,  -0.00028,  -3.61838,   1.00000
517795413.88909,277508358.27702,-90194975.35645,   0.00226,   0.00028,  -0.00146,475221869.30433,   0.00053,275221873.26775,   0.00045,   0.00003,  -0.00029,  -3.96342,   1.00000
517584698.12445,277160909.13078,-90530667.48508,   0.00227,   0.00028,  -0.00147,475231784.56866,   0.00054,275231789.99651,   0.00045,   0.00003,  -0.00029,  -5.42786,   1.00000
517375891.64927,276792062.37514,-90863449.54934,   0.00228,   0.00028,  -0.00148,475241642.08642,   0.00055,275241649.97201,   0.00046,   0.00003,  -0.00030,  -7.88558,   1.00000
517165178.89106,276423962.10937,-91197164.86543,   0.00228,   0.00028,  -0.00149,475251459.66117,   0.00056,275251461.53928,   0.00047,   0.00003,  -0.00030,  -1.87811,   1.00000
516952531.34941,276056574.76077,-91531821.32744,   0.00229,   0.00028,  -0.00150,475261222.87174,   0.00057,275261224.74851,   0.00048,   0.00003,  -0.00031,  -1.87678,   1.00000
516742446.27151,275691446.56122,-91861222.01794,   0.00230,   0.00028,  -0.00151,475270985.12890,   0.00058,275270988.94454,   0.00048,   0.00003,  -0.00031,  -3.81564,   1.00000
516530043.29047,275315160.41085,-92192813.66588,   0.00230,   0.00028,  -0.00152,475280670.89149,   0.00059,275280675.61383,   0.00049,   0.00003,  -0.00032,  -4.72234,   1.00000
516315274.26717,274927715.16844,-92526604.64823,   0.00231,   0.00027,  -0.00153,475290279.77824,   0.00059,275290284.93933,   0.00050,   0.00003,  -0.00032,  -5.16109,   1.00000
516103061.06545,274542580.87670,-92855176.54175,   0.00232,   0.00027,  -0.00153,475299887.86459,   0.00060,275299895.19221,   0.00051,   0.00003,  -0.00033,  -7.32762,   1.00000
515891447.62943,274159337.85949,-93181168.15251,   0.00233,   0.00027,  -0.00154,475309436.97562,   0.00061,275309443.75631,   0.00051,   0.00003,  -0.00033,  -6.78068,   1.00000
515674775.03633,273763671.10315,-93513053.42599,   0.00233,   0.00027,  -0.00155,475318919.46204,   0.00062,275318927.77212,   0.00052,   0.00003,  -0.00034,  -8.31008,   1.00000
515458668.47625,273369879.15155,-93842381.49245,   0.00234,   0.00027,  -0.00156,475328342.85175,   0.00063,275328350.12645,   0.00053,   0.00003,  -0.00034,  -7.27470,   1.00000
515245143.01615,272978401.66941,-94166556.82327,   0.00235,   0.00027,  -0.00157,475337765.00831,   0.00064,275337772.93340,   0.00053,   0.00003,  -0.00035,  -7.92509,   1.00000
515028617.63544,272563741.81375,-94494282.60938,   0.00235,   0.00027,  -0.00158,475347085.30577,   0.00065,275347089.37800,   0.00054,   0.00003,  -0.00035,  -4.07224,   1.00000
514810452.79740,272161662.69026,-94821911.22242,   0.00236,   0.00027,  -0.00159,475356380.71634,   0.00066,275356385.78962,   0.00055,   0.00003,  -0.00036,  -5.07328,   1.00000
514592327.46938,271749478.65011,-95148295.36582,   0.00237,   0.00027,  -0.00160,475365585.90508,   0.00066,275365591.37223,   0.00055,   0.00003,  -0.00036,  -5.46716,   1.00000
514374133.48115,271338427.33437,-95473181.25863,   0.00237,   0.00026,  -0.00161,475374807.83214,   0.00067,275374810.49123,   0.00056,   0.00003,  -0.00037,  -2.65908,   1.00000
514155924.46776,270917243.26014,-95796870.82232,   0.00238,   0.00026,  -0.00162,475383932.28668,   0.00068,275383938.64363,   0.00057,   0.00003,  -0.00037,  -6.35695,   1.00000
513935002.54151,270484706.17861,-96122983.07009,   0.00238,   0.00026,  -0.00163,475392983.30897,   0.00069,275392989.22433,   0.00057,   0.00003,  -0.00038,  -5.91536,   1.00000
513716657.68112,270054559.91720,-96444034.81036,   0.00239,   0.00026,  -0.00164,475402039.69949,   0.00070,275402039.91102,   0.00058,   0.00003,  -0.00038,  -0.21153,   1.00000
513493969.84525,269624426.14464,-96769008.71590,   0.00240,   0.00026,  -0.00165,475410974.24920,   0.00071,275410978.92868,   0.00059,   0.00003,  -0.00039,  -4.67948,   1.00000
513273290.39000,269184667.19879,-97090179.80939,   0.00240,   0.00026,  -0.00166,475419882.70717,   0.00071,275419889.35396,   0.00059,   0.00003,  -0.00039,  -6.64680,   1.00000
513052500.40390,268746079.29393,-97409917.20321,   0.00241,   0.00026,  -0.00167,475428807.77217,   0.00072,275428813.22036,   0.00060,   0.00003,  -0.00040,  -5.44819,   1.00000
512829387.59727,268296642.93893,-97731308.55599,   0.00242,   0.00026,  -0.00167,475437579.83474,   0.00073,275437582.99891,   0.00061,   0.00003,  -0.00040,  -3.16417,   1.00000
512606135.57904,267848375.00040,-98051281.81628,   0.00242,   0.00025,  -0.00168,475446362.26497,   0.00074,275446366.27666,   0.00061,   0.00003,  -0.00041,  -4.01168,   1.00000
512379928.74647,267388595.46817,-98373800.59415,   0.00243,   0.00025,  -0.00169,475455062.86619,   0.00075,275455071.96648,   0.00062,   0.00003,  -0.00041,  -9.10029,   1.00000
512154116.96098,266930576.23247,-98694081.00854,   0.00244,   0.00025,  -0.00170,475463714.03717,   0.00075,275463714.50814,   0.00063,   0.00004,  -0.00042,  -0.47097,   1.00000
511930203.50129,266462896.60136,-99010643.85674,   0.00244,   0.00025,  -0.00171,475472319.31014,   0.00076,275472328.34569,   0.00063,   0.00004,  -0.00042,  -9.03556,   1.00000
511703927.66776,265995732.29585,-99328580.90528,   0.00245,   0.00025,  -0.00172,475480892.55567,   0.00077,275480892.67945,   0.00064,   0.00004,  -0.00043,  -0.12378,   1.00000
511477290.11962,265518195.19931,-99645583.39984,   0.00245,   0.00025,  -0.00173,475489358.66672,   0.00078,275489365.38292,   0.00064,   0.00004,  -0.00043,  -6.71619,   1.00000
511248227.84284,265041134.33239,-99963986.48680,   0.00246,   0.00024,  -0.00174,475497780.13231,   0.00079,275497788.62758,   0.00065,   0.00004,  -0.00044,  -8.49527,   1.00000
511021020.50757,264554394.03833,-100278731.78710,   0.00247,   0.00024,  -0.00175,475506179.27725,   0.00079,275506182.95115,   0.00066,   0.00004,  -0.00044,  -3.67390,   1.00000
510791337.05500,264068105.63745,-100594908.00060,   0.00247,   0.00024,  -0.00176,475514521.56606,   0.00080,275514527.78911,   0.00066,   0.00004,  -0.00045,  -6.22305,   1.00000
510561194.35072,263571360.58999,-100910235.57496,   0.00248,   0.00024,  -0.00176,475522779.23566,   0.00081,275522780.68242,   0.00067,   0.00004,  -0.00045,  -1.44676,   1.00000
510328525.00782,263075031.19969,-101227022.01727,   0.00248,   0.00024,  -0.00177,475530979.85127,   0.00082,275530984.07457,   0.00067,   0.00004,  -0.00046,  -4.22331,   1.00000
510097636.96207,262568985.50326,-101540201.65027,   0.00249,   0.00024,  -0.00178,475539157.15878,   0.00082,275539158.48344,   0.00068,   0.00004,  -0.00046,  -1.32465,   1.00000
509866977.65806,262064573.98029,-101851349.45282,   0.00249,   0.00023,  -0.00179,475547259.17740,   0.00083,275547268.82546,   0.00069,   0.00004,  -0.00047,  -9.64806,   1.00000
509632934.52102,261548362.65617,-102165261.79847,   0.00250,   0.00023,  -0.00180,475555292.82308,   0.00084,275555301.42560,   0.00069,   0.00004,  -0.00047,  -8.60252,   1.00000
509395442.39310,261020327.44595,-102481939.12973,   0.00251,   0.00023,  -0.00181,475563251.77762,   0.00085,275563256.54019,   0.00070,   0.00004,  -0.00048,  -4.76257,   1.00000
509160473.38517,260494745.87149,-102793803.12240,   0.00251,   0.00023,  -0.00182,475571203.96770,   0.00085,275571210.68165,   0.00070,   0.00004,  -0.00048,  -6.71395,   1.00000
508923304.34780,259969862.11752,-103106538.29679,   0.00252,   0.00023,  -0.00183,475579028.52905,   0.00086,275579037.23264,   0.00071,   0.00004,  -0.00049,  -8.70358,   1.00000
508687797.11625,259435187.01676,-103415752.52454,   0.00252,   0.00023,  -0.00183,475586828.06618,   0.00087,275586834.61793,   0.00071,   0.00004,  -0.00049,  -6.55175,   1.00000
508451080.73872,258889483.21843,-103724963.24512,   0.00253,   0.00022,  -0.00184,475594609.40152,   0.00087,275594617.67705,   0.00072,   0.00004,  -0.00049,  -8.27552,   1.00000
508209222.19451,258343147.88612,-104038620.05762,   0.00253,   0.00022,  -0.00185,475602279.98534,   0.00088,275602287.71116,   0.00073,   0.00004,  -0.00050,  -7.72582,   1.00000
507968948.15775,257786996.33249,-104348777.79401,   0.00254,   0.00022,  -0.00186,475609924.91344,   0.00089,275609928.74712,   0.00073,   0.00004,  -0.00050,  -3.83368,   1.00000
507728748.27954,257232342.43790,-104657068.31190,   0.00254,   0.00022,  -0.00187,475617504.33044,   0.00090,275617505.00644,   0.00074,   0.00004,  -0.00051,  -0.67600,   1.00000
507490089.15966,256667848.33895,-104961896.86094,   0.00255,   0.00022,  -0.00188,475625046.76081,   0.00090,275625052.13072,   0.00074,   0.00004,  -0.00051,  -5.36992,   1.00000
507245150.88067,256090283.58729,-105272514.61608,   0.00256,   0.00021,  -0.00189,475632451.48249,   0.00091,275632458.44476,   0.00075,   0.00004,  -0.00052,  -6.96227,   1.00000
506999817.34491,255513927.50802,-105581913.83916,   0.00256,   0.00021,  -0.00189,475639873.17352,   0.00092,275639878.37498,   0.00075,   0.00004,  -0.00052,  -5.20147,   1.00000
506753457.79130,254926669.13704,-105890759.66650,   0.00257,   0.00021,  -0.00190,475647202.76753,   0.00092,275647205.90436,   0.00076,   0.00004,  -0.00053,  -3.13683,   1.00000
506507065.37465,254340814.38056,-106197823.69671,   0.00257,   0.00021,  -0.00191,475654465.87945,   0.00093,275654468.34627,   0.00076,   0.00004,  -0.00053,  -2.46682,   1.00000
506262094.47115,253745050.89973,-106501480.18333,   0.00258,   0.00020,  -0.00192,475661701.28354,   0.00094,275661701.68600,   0.00077,   0.00004,  -0.00053,  -0.40246,   1.00000
506014152.15191,253149409.20589,-106806865.42173,   0.00258,   0.00020,  -0.00193,475668877.89289,   0.00094,275668885.04599,   0.00077,   0.00004,  -0.00054,  -7.15310,   1.00000
505765050.28050,252542731.61923,-107111777.82424,   0.00259,   0.00020,  -0.00193,475675970.45633,   0.00095,275675975.73125,   0.00078,   0.00004,  -0.00054,  -5.27492,   1.00000
505511809.60476,251923737.42180,-107419689.11026,   0.00259,   0.00020,  -0.00194,475682986.41595,   0.00096,275682989.32771,   0.00078,   0.00004,  -0.00055,  -2.91176,   1.00000
505263920.19446,251308426.60292,-107719522.22266,   0.00260,   0.00020,  -0.00195,475689983.00600,   0.00096,275689985.57427,   0.00079,   0.00004,  -0.00055,  -2.56827,   1.00000
505008877.06044,250679489.02577,-108025839.68431,   0.00260,   0.00019,  -0.00196,475696910.84931,   0.00097,275696920.30047,   0.00079,   0.00004,  -0.00055,  -9.45116,   1.00000
504756606.36347,250053060.17036,-108327047.79500,   0.00261,   0.00019,  -0.00197,475703771.64542,   0.00098,275703773.72741,   0.00080,   0.00004,  -0.00056,  -2.08199,   1.00000
504500010.63640,249414162.79981,-108631310.07192,   0.00261,   0.00019,  -0.00198,475710544.48657,   0.00098,275710550.16770,   0.00080,   0.00004,  -0.00056,  -5.68113,   1.00000
504244618.53423,248765229.26695,-108932242.04611,   0.00262,   0.00019,  -0.00198,475717296.87731,   0.00099,275717297.68731,   0.00081,   0.00004,  -0.00057,  -0.81000,   1.00000
503986017.58278,248116247.07712,-109234999.85342,   0.00262,   0.00018,  -0.00199,475723989.61954,   0.00099,275723995.24484,   0.00081,   0.00004,  -0.00057,  -5.62529,   1.00000
503728879.80011,247457181.88318,-109533977.28255,   0.00262,   0.00018,  -0.00200,475730584.17526,   0.00100,275730584.22509,   0.00082,   0.00004,  -0.00058,  -0.04983,   1.00000
503465513.23349,246796769.61109,-109838240.64792,   0.00263,   0.00018,  -0.00201,475737137.03599,   0.00101,275737139.07185,   0.00082,   0.00004,  -0.00058,  -2.03585,   1.00000
503204915.61765,246114957.85514,-110137018.72198,   0.00263,   0.00018,  -0.00201,475743619.67447,   0.00101,275743622.59341,   0.00082,   0.00004,  -0.00058,  -2.91894,   1.00000
502942294.72765,245445541.79526,-110436434.35922,   0.00264,   0.00017,  -0.00202,475750081.33877,   0.00102,275750082.64525,   0.00083,   0.00004,  -0.00059,  -1.30648,   1.00000
502676671.39380,244752087.51146,-110736799.58460,   0.00264,   0.00017,  -0.00203,475756420.85477,   0.00102,275756423.54550,   0.00083,   0.00004,  -0.00059,  -2.69073,   1.00000
502410633.00253,244059666.46128,-111035645.95957,   0.00265,   0.00017,  -0.00204,475762690.26792,   0.00103,275762698.37404,   0.00084,   0.00004,  -0.00059,  -8.10612,   1.00000
502143924.95385,243368385.96779,-111333408.53975,   0.00265,   0.00016,  -0.00205,475768977.22352,   0.00104,275768987.05614,   0.00084,   0.00004,  -0.00060,  -9.83263,   1.00000
501874019.53762,242652906.34945,-111632158.25567,   0.00266,   0.00016,  -0.00205,475775147.79049,   0.00104,275775156.81483,   0.00085,   0.00004,  -0.00060,  -9.02434,   1.00000
501603626.50426,241938384.68348,-111929433.87076,   0.00266,   0.00016,  -0.00206,475781255.89135,   0.00105,275781260.33169,   0.00085,   0.00004,  -0.00061,  -4.44034,   1.00000
501335510.23938,241226214.98339,-112222240.58350,   0.00267,   0.00016,  -0.00207,475787354.70284,   0.00105,275787361.47607,   0.00086,   0.00004,  -0.00061,  -6.77323,   1.00000
501060975.82402,240488447.02573,-112519473.38810,   0.00267,   0.00015,  -0.00208,475793352.60179,   0.00106,275793360.32187,   0.00086,   0.00004,  -0.00061,  -7.72008,   1.00000
500785869.54499,239751553.04158,-112815272.59979,   0.00267,   0.00015,  -0.00208,475799287.04485,   0.00106,275799292.81862,   0.00086,   0.00004,  -0.00062,  -5.77377,   1.00000
500510184.06463,239015491.96566,-113109660.71192,   0.00268,   0.00015,  -0.00209,475805157.50995,   0.00107,275805158.74801,   0.00087,   0.00004,  -0.00062,  -1.23807,   1.00000
500232190.12278,238267841.25006,-113404226.50598,   0.00268,   0.00014,  -0.00210,475811012.81172,   0.00107,275811012.91987,   0.00087,   0.00004,  -0.00062,  -0.10815,   1.00000
499952025.39371,237508271.28738,-113698626.85116,   0.00269,   0.00014,  -0.00211,475816769.97646,   0.00108,275816774.72686,   0.00088,   0.00004,  -0.00063,  -4.75040,   1.00000
499669637.92949,236736736.37487,-113992876.58863,   0.00269,   0.00014,  -0.00211,475822443.57305,   0.00109,275822444.18458,   0.00088,   0.00004,  -0.00063,  -0.61154,   1.00000
499386529.66648,235965904.25901,-114285763.93085,   0.00270,   0.00014,  -0.00212,475828043.99210,   0.00109,275828047.05430,   0.00088,   0.00004,  -0.00063,  -3.06220,   1.00000
499100934.45598,235183390.49135,-114578836.16207,   0.00270,   0.00013,  -0.00213,475833635.91054,   0.00110,275833638.71567,   0.00089,   0.00004,  -0.00064,  -2.80513,   1.00000
498812949.33835,234388765.94430,-114871785.33906,   0.00270,   0.00013,  -0.00214,475839134.15882,   0.00110,275839138.23844,   0.00089,   0.00004,  -0.00064,  -4.07962,   1.00000
498527087.95563,233596407.16730,-115160339.96199,   0.00271,   0.00013,  -0.00214,475844632.14947,   0.00111,275844635.37566,   0.00089,   0.00003,  -0.00065,  -3.22619,   1.00000
498235806.14045,232790164.87265,-115451877.85515,   0.00271,   0.00012,  -0.00215,475849968.18935,   0.00111,275849975.96006,   0.00090,   0.00003,  -0.00065,  -7.77072,   1.00000
497941849.92679,231972140.63283,-115743603.15723,   0.00272,   0.00012,  -0.00216,475855301.65751,   0.00112,275855305.94094,   0.00090,   0.00003,  -0.00065,  -4.28343,   1.00000
497649960.44257,231156346.45912,-116030950.10918,   0.00272,   0.00012,  -0.00216,475860627.82616,   0.00112,275860633.60506,   0.00091,   0.00003,  -0.00066,  -5.77890,   1.00000
497350708.87886,230313615.17024,-116322526.72330,   0.00272,   0.00011,  -0.00217,475865779.24410,   0.00113,275865779.75641,   0.00091,   0.00003,  -0.00066,  -0.51231,   1.00000
497055222.05870,229485928.72577,-116608536.27490,   0.00273,   0.00011,  -0.00218,475870946.99439,   0.00113,275870948.65984,   0.00091,   0.00003,  -0.00066,  -1.66544,   1.00000
496752095.97803,228631701.38689,-116899037.89164,   0.00273,   0.00011,  -0.00218,475876011.21158,   0.00114,275876018.07239,   0.00092,   0.00003,  -0.00066,  -6.86081,   1.00000
496454066.01064,227780843.51685,-117181852.48258,   0.00273,   0.00010,  -0.00219,475881062.93718,   0.00114,275881067.82872,   0.00092,   0.00003,  -0.00067,  -4.89153,   1.00000
496146995.84950,226914377.87701,-117471083.40080,   0.00274,   0.00010,  -0.00220,475885969.30896,   0.00114,275885978.71638,   0.00092,   0.00003,  -0.00067,  -9.40743,   1.00000
495836902.94038,226035938.16212,-117760492.04720,   0.00274,   0.00009,  -0.00220,475890870.46129,   0.00115,275890880.21726,   0.00093,   0.00003,  -0.00067,  -9.75597,   1.00000
495531857.72487,225160815.26471,-118042237.27837,   0.00275,   0.00009,  -0.00221,475895752.26200,   0.00115,275895761.99499,   0.00093,   0.00003,  -0.00068,  -9.73300,   1.00000
495217542.75206,224269859.61447,-118330424.03453,   0.00275,   0.00009,  -0.00222,475900497.52635,   0.00116,275900505.21361,   0.00093,   0.00003,  -0.00068,  -7.68726,   1.00000
494906311.45448,223369196.01231,-118612149.53761,   0.00275,   0.00008,  -0.00223,475905196.44931,   0.00116,275905204.25096,   0.00094,   0.00003,  -0.00068,  -7.80165,   1.00000
494588724.35363,222455284.18251,-118897366.00938,   0.00276,   0.00008,  -0.00223,475909902.62951,   0.00117,275909912.26274,   0.00094,   0.00003,  -0.00069,  -9.63323,   1.00000
494272985.83821,221542640.96459,-119178094.77724,   0.00276,   0.00008,  -0.00224,475914528.54387,   0.00117,275914535.69990,   0.00094,   0.00003,  -0.00069,  -7.15603,   1.00000
493953927.84425,220617021.07224,-119458838.09660,   0.00276,   0.00007,  -0.00224,475919058.98986,   0.00118,275919068.10042,   0.00095,   0.00003,  -0.00069,  -9.11056,   1.00000
493628326.42189,219677196.31383,-119742901.43223,   0.00277,   0.00007,  -0.00225,475923518.84222,   0.00118,275923527.51686,   0.00095,   0.00003,  -0.00069,  -8.67464,   1.00000
493304498.06704,218739386.44283,-120022661.93371,   0.00277,   0.00006,  -0.00226,475927979.73102,   0.00118,275927984.92489,   0.00095,   0.00003,  -0.00070,  -5.19388,   1.00000
492977162.78733,217788423.52059,-120302449.89127,   0.00277,   0.00006,  -0.00226,475932347.80150,   0.00119,275932351.62739,   0.00095,   0.00003,  -0.00070,  -3.82589,   1.00000
492646240.10779,216824237.65734,-120582268.47924,   0.00278,   0.00006,  -0.00227,475936626.97538,   0.00119,275936627.79493,   0.00096,   0.00003,  -0.00070,  -0.81956,   1.00000
492311706.82121,215847754.65368,-120862234.03636,   0.00278,   0.00005,  -0.00228,475940891.50225,   0.00120,275940896.70155,   0.00096,   0.00003,  -0.00071,  -5.19930,   1.00000
491978773.54727,214872200.42475,-121137800.79118,   0.00278,   0.00005,  -0.00228,475945075.44847,   0.00120,275945080.67507,   0.00096,   0.00003,  -0.00071,  -5.22659,   1.00000
491638883.17652,213882096.98881,-121416695.32578,   0.00279,   0.00005,  -0.00229,475949187.70794,   0.00120,275949192.64244,   0.00097,   0.00003,  -0.00071,  -4.93449,   1.00000
491298405.17021,212880738.19467,-121692446.80966,   0.00279,   0.00004,  -0.00230,475953274.26353,   0.00121,275953279.65090,   0.00097,   0.00003,  -0.00071,  -5.38738,   1.00000
490953982.52347,211865847.49538,-121968239.99227,   0.00279,   0.00004,  -0.00230,475957270.56371,   0.00121,275957276.89753,   0.00097,   0.00003,  -0.00072,  -6.33382,   1.00000
490602337.04365,210836224.23961,-122247342.22265,   0.00279,   0.00003,  -0.00231,475961196.17087,   0.00121,275961203.03389,   0.00097,   0.00003,  -0.00072,  -6.86302,   1.00000
490255400.53948,209809561.61855,-122518895.28993,   0.00280,   0.00003,  -0.00231,475965102.02490,   0.00122,275965109.31291,   0.00098,   0.00003,  -0.00072,  -7.28801,   1.00000
489901117.57864,208768054.01651,-122793763.22980,   0.00280,   0.00002,  -0.00232,475968935.19393,   0.00122,275968944.71647,   0.00098,   0.00003,  -0.00072,  -9.52254,   1.00000
489545967.86710,207715110.40342,-123065473.10702,   0.00280,   0.00002,  -0.00233,475972750.26512,   0.00122,275972756.10139,   0.00098,   0.00003,  -0.00073,  -5.83627,   1.00000
489188891.91488,206661576.71310,-123336120.57867,   0.00281,   0.00002,  -0.00233,475976498.85996,   0.00123,275976501.02729,   0.00098,   0.00003,  -0.00073,  -2.16734,   1.00000
488827448.14906,205594112.85146,-123606820.67499,   0.00281,   0.00001,  -0.00234,475980153.06900,   0.00123,275980157.04899,   0.00099,   0.00003,  -0.00073,  -3.97999,   1.00000
488461761.38914,204513997.95693,-123877604.44762,   0.00281,   0.00001,  -0.00234,475983805.06061,   0.00124,275983808.30741,   0.00099,   0.00003,  -0.00073,  -3.24680,   1.00000
488094754.00491,203420914.45907,-124145186.22075,   0.00282,   0.00000,  -0.00235,475987350.57717,   0.00124,275987352.37096,   0.00099,   0.00003,  -0.00074,  -1.79379,   1.00000
487723348.20256,202315109.29409,-124412829.05815,   0.00282,  -0.00000,  -0.00236,475990883.77454,   0.00124,275990892.36489,   0.00099,   0.00003,  -0.00074,  -8.59035,   1.00000
487346296.45819,201205927.91502,-124682655.08165,   0.00282,  -0.00001,  -0.00236,475994293.80978,   0.00124,275994301.01323,   0.00100,   0.00003,  -0.00074,  -7.20345,   1.00000
486968886.31978,200074210.94581,-124947136.11645,   0.00282,  -0.00001,  -0.00237,475997721.54353,   0.00125,275997730.65831,   0.00100,   0.00003,  -0.00074,  -9.11478,   1.00000
486585669.83355,198938952.53496,-125213809.44971,   0.00283,  -0.00002,  -0.00237,476001020.66969,   0.00125,276001029.19280,   0.00100,   0.00003,  -0.00074,  -8.52311,   1.00000
486203948.88171,197806860.58283,-125476205.21912,   0.00283,  -0.00002,  -0.00238,476004402.81484,   0.00125,276004411.49580,   0.00100,   0.00003,  -0.00075,  -8.68096,   1.00000
485811052.71857,196644232.02150,-125742934.60127,   0.00283,  -0.00003,  -0.00238,476007613.77090,   0.00126,276007619.85597,   0.00100,   0.00003,  -0.00075,  -6.08506,   1.00000
485422504.14106,195484209.20370,-126002164.24278,   0.00283,  -0.00003,  -0.00239,476010803.87368,   0.00126,276010808.77840,   0.00101,   0.00003,  -0.00075,  -4.90472,   1.00000
485025539.74225,194308514.35937,-126264640.64116,   0.00284,  -0.00004,  -0.00239,476013927.66374,   0.00126,276013930.12765,   0.00101,   0.00003,  -0.00075,  -2.46391,   1.00000
484626894.56556,193120856.40670,-126523880.18090,   0.00284,  -0.00004,  -0.00240,476017024.87137,   0.00127,276017030.45435,   0.00101,   0.00003,  -0.00075,  -5.58298,   1.00000
484219636.72498,191917399.29901,-126786337.91729,   0.00284,  -0.00005,  -0.00240,476020060.31410,   0.00127,276020063.99992,   0.00101,   0.00003,  -0.00076,  -3.68583,   1.00000
483813798.13117,190702924.09619,-127042325.43128,   0.00284,  -0.00005,  -0.00241,476023053.90833,   0.00127,276023057.79073,   0.00101,   0.00003,  -0.00076,  -3.88240,   1.00000
483401987.94102,189486049.88222,-127300489.71227,   0.00285,  -0.00006,  -0.00242,476026003.37386,   0.00127,276026005.95369,   0.00102,   0.00003,  -0.00076,  -2.57983,   1.00000
482987820.60240,188255193.38877,-127555445.82927,   0.00285,  -0.00006,  -0.00242,476028846.18296,   0.00128,276028849.12357,   0.00102,   0.00002,  -0.00076,  -2.94060,   1.00000
482568363.93150,187011151.76358,-127810317.30058,   0.00285,  -0.00007,  -0.00243,476031682.59412,   0.00128,276031692.23558,   0.00102,   0.00002,  -0.00076,  -9.64146,   1.00000
482143102.36996,185751969.92798,-128065162.97729,   0.00285,  -0.00007,  -0.00243,476034444.49729,   0.00128,276034450.51227,   0.00102,   0.00002,  -0.00077,  -6.01498,   1.00000
481718621.72602,184494133.84300,-128315705.77714,   0.00286,  -0.00008,  -0.00244,476037201.39919,   0.00128,276037209.71018,   0.00102,   0.00002,  -0.00077,  -8.31100,   1.00000
481285669.57039,183209412.58379,-128567109.72533,   0.00286,  -0.00008,  -0.00244,476039940.44146,   0.00129,276039950.11193,   0.00103,   0.00002,  -0.00077,  -9.67048,   1.00000
480849139.01386,181920921.90878,-128817566.46774,   0.00286,  -0.00009,  -0.00245,476042533.75310,   0.00129,276042540.93788,   0.00103,   0.00002,  -0.00077,  -7.18478,   1.00000
480406941.87391,180619065.29556,-129067862.32926,   0.00286,  -0.00009,  -0.00245,476045127.06765,   0.00129,276045133.55095,   0.00103,   0.00002,  -0.00077,  -6.48330,   1.00000
479962286.73427,179304790.48199,-129314800.70766,   0.00287,  -0.00010,  -0.00246,476047708.07244,   0.00129,276047708.44853,   0.00103,   0.00002,  -0.00077,  -0.37609,   1.00000
479511243.95850,177974925.51501,-129561647.01974,   0.00287,  -0.00010,  -0.00246,476050197.35631,   0.00130,276050200.50601,   0.00103,   0.00002,  -0.00078,  -3.14970,   1.00000
479060734.85290,176646267.69869,-129804157.28023,   0.00287,  -0.00011,  -0.00247,476052684.58293,   0.00130,276052694.52096,   0.00103,   0.00002,  -0.00078,  -9.93803,   1.00000
478600503.03243,175288147.38648,-130047509.58853,   0.00287,  -0.00011,  -0.00247,476055085.94366,   0.00130,276055087.28334,   0.00104,   0.00002,  -0.00078,  -1.33968,   1.00000
478140686.84498,173931176.42657,-130286505.16504,   0.00287,  -0.00012,  -0.00247,476057474.12862,   0.00130,276057482.54925,   0.00104,   0.00002,  -0.00078,  -8.42063,   1.00000
477670841.74161,172557399.13044,-130528533.60355,   0.00288,  -0.00012,  -0.00248,476059812.63649,   0.00131,276059816.29738,   0.00104,   0.00002,  -0.00078,  -3.66089,   1.00000
477197424.96908,171181430.84940,-130769494.90574,   0.00288,  -0.00013,  -0.00248,476062085.29415,   0.00131,276062087.07695,   0.00104,   0.00002,  -0.00078,  -1.78280,   1.00000
476720985.57081,169779840.91314,-131004757.52029,   0.00288,  -0.00014,  -0.00249,476064301.17452,   0.00131,276064304.10198,   0.00104,   0.00002,  -0.00079,  -2.92746,   1.00000
476238138.02820,168364588.19178,-131239690.10856,   0.00288,  -0.00014,  -0.00249,476066517.89282,   0.00131,276066526.81155,   0.00104,   0.00002,  -0.00079,  -8.91874,   1.00000
475748217.21208,166946092.39773,-131476683.15845,   0.00288,  -0.00015,  -0.00250,476068705.92556,   0.00131,276068707.64026,   0.00104,   0.00002,  -0.00079,  -1.71470,   1.00000
475254316.55032,165512192.10026,-131710319.74898,   0.00289,  -0.00015,  -0.00250,476070785.05336,   0.00132,276070788.31054,   0.00105,   0.00002,  -0.00079,  -3.25717,   1.00000
474761131.91612,164068881.01087,-131937126.29877,   0.00289,  -0.00016,  -0.00251,476072912.82054,   0.00132,276072921.00812,   0.00105,   0.00002,  -0.00079,  -8.18759,   1.00000
474253105.26501,162604776.95201,-132170139.44727,   0.00289,  -0.00017,  -0.00251,476074929.21308,   0.00132,276074929.64005,   0.00105,   0.00002,  -0.00079,  -0.42697,   1.00000
473745094.72230,161141603.02122,-132398723.56754,   0.00289,  -0.00017,  -0.00251,476076940.22883,   0.00132,276076942.60893,   0.00105,   0.00002,  -0.00079,  -2.38010,   1.00000
473233242.38543,159652346.61194,-132621441.34572,   0.00289,  -0.00018,  -0.00252,476078896.76981,   0.00132,276078905.62017,   0.00105,   0.00002,  -0.00079,  -8.85036,   1.00000
472710571.35922,158158701.57766,-132849283.66427,   0.00289,  -0.00018,  -0.00252,476080839.22965,   0.00133,276080849.19353,   0.00105,   0.00002,  -0.00080,  -9.96388,   1.00000
472187464.87353,156652806.28369,-133070375.42499,   0.00290,  -0.00019,  -0.00253,476082751.92772,   0.00133,276082760.43489,   0.00105,   0.00002,  -0.00080,  -8.50717,   1.00000
471660531.47320,155133803.79957,-133287826.11804,   0.00290,  -0.00020,  -0.00253,476084651.56437,   0.00133,276084660.57561,   0.00106,   0.00002,  -0.00080,  -9.01125,   1.00000
471121253.40863,153594180.04963,-133508236.30602,   0.00290,  -0.00020,  -0.00254,476086412.76749,   0.00133,276086418.71459,   0.00106,   0.00002,  -0.00080,  -5.94710,   1.00000
470578851.40569,152044313.87164,-133724758.57992,   0.00290,  -0.00021,  -0.00254,476088251.64909,   0.00133,276088253.53567,   0.00106,   0.00002,  -0.00080,  -1.88658,   1.00000
470028058.00631,150477414.06500,-133940871.94164,   0.00290,  -0.00021,  -0.00254,476090004.38946,   0.00133,276090013.27018,   0.00106,   0.00002,  -0.00080,  -8.88072,   1.00000
469476902.99629,148911293.19715,-134152472.75150,   0.00291,  -0.00022,  -0.00255,476091777.67872,   0.00134,276091779.31597,   0.00106,   0.00002,  -0.00080,  -1.63725,   1.00000
468917173.20755,147327992.19674,-134363636.26401,   0.00291,  -0.00023,  -0.00255,476093464.80361,   0.00134,276093470.93792,   0.00106,   0.00002,  -0.00080,  -6.13431,   1.00000
468353076.24461,145731348.01934,-134571024.99016,   0.00291,  -0.00023,  -0.00255,476095144.87537,   0.00134,276095154.32704,   0.00106,   0.00002,  -0.00081,  -9.45167,   1.00000
467776853.32496,144116625.64714,-134781032.84711,   0.00291,  -0.00024,  -0.00256,476096781.21522,   0.00134,276096785.55448,   0.00106,   0.00002,  -0.00081,  -4.33926,   1.00000
467199353.65476,142489212.31929,-134984102.81441,   0.00291,  -0.00025,  -0.00256,476098380.40292,   0.00134,276098388.54851,   0.00106,   0.00002,  -0.00081,  -8.14560,   1.00000
466609462.49443,140843579.70135,-135189730.66118,   0.00291,  -0.00025,  -0.00257,476099934.09044,   0.00134,276099940.67895,   0.00106,   0.00002,  -0.00081,  -6.58851,   1.00000
466023303.23509,139202681.80107,-135387444.95847,   0.00291,  -0.00026,  -0.00257,476101557.38433,   0.00134,276101566.66150,   0.00107,   0.00002,  -0.00081,  -9.27717,   1.00000
465419311.07797,137525896.62013,-135588595.53832,   0.00292,  -0.00027,  -0.00257,476103036.14376,   0.00135,276103041.75873,   0.00107,   0.00002,  -0.00081,  -5.61498,   1.00000
464818965.03067,135853875.51503,-135781797.29415,   0.00292,  -0.00027,  -0.00258,476104586.57907,   0.00135,276104591.45630,   0.00107,   0.00002,  -0.00081,  -4.87723,   1.00000
464209103.92300,134164098.09937,-135974363.28991,   0.00292,  -0.00028,  -0.00258,476106063.85842,   0.00135,276106070.98027,   0.00107,   0.00002,  -0.00081,  -7.12185,   1.00000
463586265.97001,132455803.59075,-136169345.73813,   0.00292,  -0.00029,  -0.00258,476107494.86271,   0.00135,276107502.58943,   0.00107,   0.00002,  -0.00081,  -7.72672,   1.00000
462970347.25176,130753018.82768,-136353264.51583,   0.00292,  -0.00029,  -0.00259,476108981.29364,   0.00135,276108987.85742,   0.00107,   0.00002,  -0.00081,  -6.56378,   1.00000
462332361.73861,129013071.33195,-136543511.01373,   0.00292,  -0.00030,  -0.00259,476110342.79999,   0.00135,276110347.83578,   0.00107,   0.00001,  -0.00082,  -5.03579,   1.00000
461693518.92615,127263764.38323,-136726363.37193,   0.00292,  -0.00031,  -0.00259,476111763.40883,   0.00135,276111771.54568,   0.00107,   0.00001,  -0.00082,  -8.13685,   1.00000
461048904.17324,125510610.06255,-136907804.65568,   0.00293,  -0.00031,  -0.00260,476113134.63617,   0.00136,276113140.54950,   0.00107,   0.00001,  -0.00082,  -5.91333,   1.00000
460398695.36110,123743709.51546,-137085127.73657,   0.00293,  -0.00032,  -0.00260,476114501.62166,   0.00136,276114508.47466,   0.00107,   0.00001,  -0.00082,  -6.85300,   1.00000
459739501.62348,121962459.51997,-137261377.36458,   0.00293,  -0.00033,  -0.00260,476115897.31571,   0.00136,276115897.74326,   0.00108,   0.00001,  -0.00082,  -0.42755,   1.00000
459073081.41045,120163489.09036,-137433676.13332,   0.00293,  -0.00033,  -0.00261,476117192.48822,   0.00136,276117199.96869,   0.00108,   0.00001,  -0.00082,  -7.48046,   1.00000
458397445.91176,118350125.74027,-137604828.33877,   0.00293,  -0.00034,  -0.00261,476118516.40627,   0.00136,276118525.03335,   0.00108,   0.00001,  -0.00082,  -8.62708,   1.00000
457715624.88615,116532653.78325,-137774478.90572,   0.00293,  -0.00035,  -0.00261,476119793.04569,   0.00136,276119797.26342,   0.00108,   0.00001,  -0.00082,  -4.21773,   1.00000
457023068.29064,114686965.02892,-137940404.56881,   0.00293,  -0.00036,  -0.00262,476121058.01435,   0.00136,276121060.72453,   0.00108,   0.00001,  -0.00082,  -2.71018,   1.00000
456325664.69587,112841220.81332,-138104541.29875,   0.00294,  -0.00036,  -0.00262,476122359.55062,   0.00136,276122359.80912,   0.00108,   0.00001,  -0.00082,  -0.25850,   1.00000
455625277.16553,110982116.08082,-138261283.07449,   0.00294,  -0.00037,  -0.00262,476123632.13184,   0.00137,276123640.14859,   0.00108,   0.00001,  -0.00082,  -8.01675,   1.00000
454910327.28174,109103831.80305,-138420016.46426,   0.00294,  -0.00038,  -0.00262,476124873.34981,   0.00137,276124881.24828,   0.00108,   0.00001,  -0.00082,  -7.89847,   1.00000
454188871.82237,107211617.71967,-138574344.11022,   0.00294,  -0.00039,  -0.00263,476126123.10157,   0.00137,276126127.14808,   0.00108,   0.00001,  -0.00083,  -4.04651,   1.00000
453460801.09375,105305466.92424,-138724229.12108,   0.00294,  -0.00039,  -0.00263,476127370.91813,   0.00137,276127378.61303,   0.00108,   0.00001,  -0.00083,  -7.69490,   1.00000
452725942.51953,103394886.12985,-138872466.14316,   0.00294,  -0.00040,  -0.00263,476128574.85265,   0.00137,276128580.23001,   0.00108,   0.00001,  -0.00083,  -5.37737,   1.00000
451979353.10695,101455895.77328,-139016659.21860,   0.00294,  -0.00041,  -0.00264,476129771.07354,   0.00137,276129779.54075,   0.00108,   0.00001,  -0.00083,  -8.46721,   1.00000
451227534.34882,99516929.34768,-139158916.17082,   0.00294,  -0.00042,  -0.00264,476131011.56646,   0.00137,276131017.59892,   0.00108,   0.00001,  -0.00083,  -6.03246,   1.00000
450468743.76367,97563998.16920,-139296609.34664,   0.00294,  -0.00042,  -0.00264,476132258.18185,   0.00137,276132263.71462,   0.00109,   0.00001,  -0.00083,  -5.53276,   1.00000
449701035.64630,95592423.41355,-139429932.66017,   0.00295,  -0.00043,  -0.00264,476133426.08063,   0.00137,276133431.15004,   0.00109,   0.00001,  -0.00083,  -5.06941,   1.00000
448919566.81837,93606045.30514,-139564703.76540,   0.00295,  -0.00044,  -0.00265,476134648.48871,   0.00138,276134653.15946,   0.00109,   0.00001,  -0.00083,  -4.67075,   1.00000
448139216.05866,91620542.07865,-139691369.44906,   0.00295,  -0.00045,  -0.00265,476135861.80220,   0.00138,276135870.68601,   0.00109,   0.00001,  -0.00083,  -8.88381,   1.00000
447341101.35049,89601338.49190,-139816976.71135,   0.00295,  -0.00045,  -0.00265,476137018.41347,   0.00138,276137026.69317,   0.00109,   0.00001,  -0.00083,  -8.27970,   1.00000
446542662.71646,87587514.83032,-139937251.01391,   0.00295,  -0.00046,  -0.00265,476138281.33327,   0.00138,276138289.19764,   0.00109,   0.00001,  -0.00083,  -7.86437,   1.00000
445731406.56365,85554425.40349,-140056017.90428,   0.00295,  -0.00047,  -0.00266,476139492.77927,   0.00138,276139499.12001,   0.00109,   0.00001,  -0.00083,  -6.34074,   1.00000
444912461.26404,83507338.48413,-140169972.62460,   0.00295,  -0.00048,  -0.00266,476140716.53964,   0.00138,276140722.21523,   0.00109,   0.00001,  -0.00084,  -5.67559,   1.00000
444085725.56598,81446264.36231,-140279078.25520,   0.00295,  -0.00049,  -0.00266,476141955.31842,   0.00138,276141959.26140,   0.00109,   0.00001,  -0.00084,  -3.94298,   1.00000
443242471.67224,79365488.28552,-140389574.76256,   0.00295,  -0.00049,  -0.00266,476143163.69954,   0.00138,276143169.16598,   0.00109,   0.00001,  -0.00084,  -5.46645,   1.00000
442396657.95898,77285266.78678,-140494856.29517,   0.00296,  -0.00050,  -0.00266,476144395.78330,   0.00138,276144400.34131,   0.00109,   0.00001,  -0.00084,  -4.55801,   1.00000
441540495.10114,75176782.16686,-140592416.75552,   0.00296,  -0.00051,  -0.00267,476145615.03865,   0.00139,276145619.55960,   0.00109,   0.00001,  -0.00084,  -4.52095,   1.00000
440675189.40018,73068391.70913,-140690782.67343,   0.00296,  -0.00052,  -0.00267,476146903.85642,   0.00139,276146906.65300,   0.00109,   0.00001,  -0.00084,  -2.79659,   1.00000
439804842.74784,70946309.22187,-140781086.98661,   0.00296,  -0.00053,  -0.00267,476148182.27647,   0.00139,276148188.64214,   0.00110,   0.00001,  -0.00084,  -6.36567,   1.00000
438920587.26695,68804652.23192,-140869549.16945,   0.00296,  -0.00054,  -0.00267,476149423.37548,   0.00139,276149424.73688,   0.00110,   0.00001,  -0.00084,  -1.36140,   1.00000
438030164.82899,66654557.28280,-140952706.15860,   0.00296,  -0.00054,  -0.00267,476150758.38833,   0.00139,276150767.57831,   0.00110,   0.00001,  -0.00084,  -9.18998,   1.00000
437131313.21690,64499440.82324,-141033746.39562,   0.00296,  -0.00055,  -0.00268,476152066.52872,   0.00139,276152070.03744,   0.00110,   0.00001,  -0.00084,  -3.50872,   1.00000
436223816.89896,62330448.91519,-141109616.59356,   0.00296,  -0.00056,  -0.00268,476153387.72563,   0.00139,276153393.18874,   0.00110,   0.00001,  -0.00084,  -5.46311,   1.00000
435298549.96030,60132864.12362,-141183462.36546,   0.00296,  -0.00057,  -0.00268,476154754.80538,   0.00139,276154757.72006,   0.00110,   0.00001,  -0.00084,  -2.91468,   1.00000
434367707.47980,57930325.77190,-141252053.30332,   0.00296,  -0.00058,  -0.00268,476156059.32657,   0.00140,276156061.08940,   0.00110,   0.00001,  -0.00085,  -1.76283,   1.00000
433430434.97641,55719757.92067,-141315182.65852,   0.00296,  -0.00059,  -0.00268,476157470.82627,   0.00140,276157474.85019,   0.00110,   0.00001,  -0.00085,  -4.02392,   1.00000
432484294.07262,53504078.43210,-141376056.06079,   0.00297,  -0.00060,  -0.00269,476158844.42018,   0.00140,276158851.06605,   0.00110,   0.00000,  -0.00085,  -6.64587,   1.00000
431525687.46848,51265966.17243,-141431520.22522,   0.00297,  -0.00060,  -0.00269,476160331.90102,   0.00140,276160336.88081,   0.00110,   0.00000,  -0.00085,  -4.97979,   1.00000
430561198.65453,49022816.38780,-141481637.48159,   0.00297,  -0.00061,  -0.00269,476161759.23890,   0.00140,276161763.41277,   0.00110,   0.00000,  -0.00085,  -4.17387,   1.00000
429584232.36657,46765927.56743,-141529346.52105,   0.00297,  -0.00062,  -0.00269,476163236.04860,   0.00140,276163239.45332,   0.00110,   0.00000,  -0.00085,  -3.40472,   1.00000
428597851.89674,44495412.23563,-141571576.46733,   0.00297,  -0.00063,  -0.00269,476164736.24934,   0.00140,276164742.86969,   0.00111,   0.00000,  -0.00085,  -6.62035,   1.00000
427598815.31192,42211287.29744,-141611315.66900,   0.00297,  -0.00064,  -0.00269,476166291.71625,   0.00140,276166297.65017,   0.00111,   0.00000,  -0.00085,  -5.93392,   1.00000
426593534.66645,39922016.69845,-141645597.09221,   0.00297,  -0.00065,  -0.00269,476167788.23111,   0.00141,276167795.35718,   0.00111,   0.00000,  -0.00085,  -7.12607,   1.00000
425575212.91346,37610883.10085,-141674181.79298,   0.00297,  -0.00066,  -0.00270,476169404.88715,   0.00141,276169409.26285,   0.00111,   0.00000,  -0.00085,  -4.37570,   1.00000
424547322.05432,35294598.64152,-141700272.48848,   0.00297,  -0.00067,  -0.00270,476170989.97151,   0.00141,276170990.59195,   0.00111,   0.00000,  -0.00085,  -0.62043,   1.00000
423515678.74712,32971256.57911,-141717573.36898,   0.00297,  -0.00067,  -0.00270,476172659.44253,   0.00141,276172666.57655,   0.00111,   0.00000,  -0.00086,  -7.13402,   1.00000
422471264.24500,30642821.78019,-141735379.65490,   0.00297,  -0.00068,  -0.00270,476174331.01718,   0.00141,276174333.84073,   0.00111,   0.00000,  -0.00086,  -2.82355,   1.00000
421410404.16623,28286461.02322,-141747389.89548,   0.00297,  -0.00069,  -0.00270,476176029.71073,   0.00141,276176035.44424,   0.00111,   0.00000,  -0.00086,  -5.73351,   1.00000
420352136.78270,25937957.08232,-141750602.72932,   0.00298,  -0.00070,  -0.00270,476177824.92933,   0.00142,276177832.32945,   0.00111,  -0.00000,  -0.00086,  -7.40012,   1.00000
419277465.80266,23569732.98812,-141751116.64970,   0.00298,  -0.00071,  -0.00270,476179593.15833,   0.00142,276179601.00202,   0.00111,  -0.00000,  -0.00086,  -7.84368,   1.00000
418189450.19629,21188484.77554,-141748819.13065,   0.00298,  -0.00072,  -0.00270,476181426.05376,   0.00142,276181428.51451,   0.00112,  -0.00000,  -0.00086,  -2.46075,   1.00000
417091070.41786,18794166.94998,-141740633.33288,   0.00298,  -0.00073,  -0.00271,476183288.17347,   0.00142,276183292.68332,   0.00112,  -0.00000,  -0.00086,  -4.50985,   1.00000
415988923.43111,16401431.04766,-141726679.00092,   0.00298,  -0.00074,  -0.00271,476185187.01807,   0.00142,276185191.18563,   0.00112,  -0.00000,  -0.00086,  -4.16755,   1.00000
414873258.96536,13995915.60239,-141709822.30645,   0.00298,  -0.00075,  -0.00271,476187144.67559,   0.00142,276187150.80427,   0.00112,  -0.00000,  -0.00087,  -6.12868,   1.00000
413750092.71801,11577337.59339,-141683956.28180,   0.00298,  -0.00076,  -0.00271,476189121.95703,   0.00143,276189125.95696,   0.00112,  -0.00000,  -0.00087,  -3.99993,   1.00000
412613235.59063,9146152.50575,-141655107.44606,   0.00298,  -0.00077,  -0.00271,476191158.15845,   0.00143,276191164.19225,   0.00112,  -0.00000,  -0.00087,  -6.03380,   1.00000
411462621.09727,6702466.56618,-141623237.66373,   0.00298,  -0.00078,  -0.00271,476193260.65815,   0.00143,276193266.45395,   0.00112,  -0.00000,  -0.00087,  -5.79580,   1.00000
410311113.29219,4260458.83151,-141582474.66322,   0.00298,  -0.00079,  -0.00271,476195379.00900,   0.00143,276195382.20919,   0.00112,  -0.00001,  -0.00087,  -3.20019,   1.00000
409145763.69863,1806116.68857,-141538644.60348,   0.00298,  -0.00080,  -0.00271,476197560.64760,   0.00143,276197563.27423,   0.00113,  -0.00001,  -0.00087,  -2.62663,   1.00000
407959816.03029,-667441.73469,-141494704.54181,   0.00298,  -0.00081,  -0.00271,476199748.65739,   0.00144,276199749.15857,   0.00113,  -0.00001,  -0.00087,  -0.50119,   1.00000
406779570.75575,-3132162.88378,-141438823.53803,   0.00299,  -0.00081,  -0.00271,476202007.46472,   0.00144,276202011.39268,   0.00113,  -0.00001,  -0.00087,  -3.92796,   1.00000
405578264.64465,-5623452.11712,-141379483.86512,   0.00299,  -0.00082,  -0.00271,476204344.04860,   0.00144,276204347.55090,   0.00113,  -0.00001,  -0.00088,  -3.50230,   1.00000
404372909.55436,-8112459.38894,-141314204.68075,   0.00299,  -0.00083,  -0.00271,476206713.64357,   0.00144,276206722.96260,   0.00113,  -0.00001,  -0.00088,  -9.31903,   1.00000
403156389.42551,-10613634.71268,-141242656.53661,   0.00299,  -0.00084,  -0.00272,476209137.14714,   0.00144,276209144.58557,   0.00113,  -0.00001,  -0.00088,  -7.43843,   1.00000
401932878.65859,-13112034.33595,-141168209.22111,   0.00299,  -0.00085,  -0.00272,476211625.20566,   0.00145,276211629.20078,   0.00113,  -0.00001,  -0.00088,  -3.99512,   1.00000
400698117.09600,-15622429.21378,-141087444.45461,   0.00299,  -0.00086,  -0.00272,476214153.77690,   0.00145,276214161.37479,   0.00114,  -0.00001,  -0.00088,  -7.59789,   1.00000
399449105.38994,-18144329.16632,-141003378.61145,   0.00299,  -0.00087,  -0.00272,476216756.18424,   0.00145,276216765.27309,   0.00114,  -0.00001,  -0.00088,  -9.08885,   1.00000
398191614.20767,-20678432.94498,-140909869.31989,   0.00299,  -0.00088,  -0.00272,476219394.42159,   0.00145,276219395.39830,   0.00114,  -0.00001,  -0.00089,  -0.97671,   1.00000
396924197.22227,-23208938.97960,-140816469.29483,   0.00299,  -0.00089,  -0.00272,476222108.61734,   0.00146,276222113.56551,   0.00114,  -0.00001,  -0.00089,  -4.94817,   1.00000
395647904.58487,-25758500.64931,-140710242.30121,   0.00299,  -0.00090,  -0.00272,476224924.20141,   0.00146,276224928.65082,   0.00114,  -0.00001,  -0.00089,  -4.44940,   1.00000
394364918.58449,-28297689.99311,-140604399.87713,   0.00299,  -0.00091,  -0.00272,476227735.72503,   0.00146,276227739.78069,   0.00114,  -0.00002,  -0.00089,  -4.05567,   1.00000
393062883.27847,-30862704.31263,-140491600.41545,   0.00299,  -0.00092,  -0.00272,476230605.51948,   0.00146,276230613.01284,   0.00115,  -0.00002,  -0.00089,  -7.49336,   1.00000
391763942.99559,-33417078.18165,-140369901.81667,   0.00300,  -0.00093,  -0.00272,476233579.73326,   0.00147,276233589.16660,   0.00115,  -0.00002,  -0.00089,  -9.43334,   1.00000
390443237.07907,-35989706.98475,-140247591.06286,   0.00300,  -0.00094,  -0.00272,476236578.27081,   0.00147,276236582.62449,   0.00115,  -0.00002,  -0.00090,  -4.35368,   1.00000
389118108.30265,-38565790.30869,-140115866.31595,   0.00300,  -0.00095,  -0.00272,476239685.18141,   0.00147,276239690.40611,   0.00115,  -0.00002,  -0.00090,  -5.22471,   1.00000
387786062.86588,-41137934.90420,-139981170.28468,   0.00300,  -0.00096,  -0.00272,476242860.47661,   0.00148,276242865.35934,   0.00115,  -0.00002,  -0.00090,  -4.88273,   1.00000
386437650.02673,-43729204.61888,-139839607.81321,   0.00300,  -0.00097,  -0.00272,476246007.33790,   0.00148,276246014.17219,   0.00116,  -0.00002,  -0.00090,  -6.83429,   1.00000
385079228.01422,-46322330.71164,-139694756.07351,   0.00300,  -0.00098,  -0.00272,476249317.21122,   0.00148,276249325.12378,   0.00116,  -0.00002,  -0.00090,  -7.91256,   1.00000
383719506.69385,-48912378.50220,-139540759.91399,   0.00300,  -0.00100,  -0.00272,476252648.67539,   0.00149,276252658.22304,   0.00116,  -0.00002,  -0.00091,  -9.54765,   1.00000
382352701.19694,-51504509.76493,-139380418.22372,   0.00300,  -0.00101,  -0.00272,476256122.29537,   0.00149,276256130.86245,   0.00116,  -0.00003,  -0.00091,  -8.56708,   1.00000
380966428.66505,-54114875.72577,-139216161.90140,   0.00300,  -0.00102,  -0.00272,476259603.25351,   0.00149,276259603.86816,   0.00116,  -0.00003,  -0.00091,  -0.61465,   1.00000
379573316.52943,-56720641.04398,-139048912.84297,   0.00300,  -0.00103,  -0.00272,476263137.42171,   0.00149,276263146.19131,   0.00117,  -0.00003,  -0.00091,  -8.76960,   1.00000
378175942.93147,-59328627.46672,-138872211.54171,   0.00300,  -0.00104,  -0.00272,476266798.02365,   0.00150,276266806.65800,   0.00117,  -0.00003,  -0.00092,  -8.63435,   1.00000
376756147.91407,-61953928.18797,-138694589.79488,   0.00300,  -0.00105,  -0.00272,476270485.39283,   0.00150,276270493.11656,   0.00117,  -0.00003,  -0.00092,  -7.72372,   1.00000
375342795.87771,-64567648.63224,-138505077.23105,   0.00301,  -0.00106,  -0.00272,476274255.74390,   0.00151,276274261.57975,   0.00117,  -0.00003,  -0.00092,  -5.83585,   1.00000
373912049.36013,-67189730.80464,-138315009.78581,   0.00301,  -0.00107,  -0.00272,476278129.16358,   0.00151,276278137.78824,   0.00117,  -0.00003,  -0.00092,  -8.62466,   1.00000
372471946.07779,-69822175.83555,-138115046.94699,   0.00301,  -0.00108,  -0.00272,476282045.79403,   0.00151,276282054.16923,   0.00118,  -0.00004,  -0.00092,  -8.37520,   1.00000
371033130.82811,-72441168.93650,-137909463.58912,   0.00301,  -0.00109,  -0.00272,476286091.84257,   0.00152,276286098.25649,   0.00118,  -0.00004,  -0.00093,  -6.41392,   1.00000
369571683.14786,-75076954.23013,-137702852.62847,   0.00301,  -0.00110,  -0.00272,476290164.97059,   0.00152,276290172.00902,   0.00118,  -0.00004,  -0.00093,  -7.03843,   1.00000
368114354.46369,-77699757.36721,-137487548.34557,   0.00301,  -0.00111,  -0.00272,476294346.10604,   0.00152,276294350.67255,   0.00118,  -0.00004,  -0.00093,  -4.56651,   1.00000
366644992.89896,-80331701.02796,-137265433.08133,   0.00301,  -0.00112,  -0.00272,476298589.45612,   0.00153,276298594.24620,   0.00119,  -0.00004,  -0.00093,  -4.79008,   1.00000
365163546.47483,-82972640.28565,-137036480.02577,   0.00301,  -0.00113,  -0.00272,476302896.13931,   0.00153,276302903.69642,   0.00119,  -0.00004,  -0.00094,  -7.55711,   1.00000
363673110.97242,-85606834.22748,-136807753.22418,   0.00301,  -0.00114,  -0.00272,476307305.69828,   0.00154,276307307.09650,   0.00119,  -0.00004,  -0.00094,  -1.39821,   1.00000
362173177.53433,-88250603.01937,-136569035.74765,   0.00301,  -0.00115,  -0.00272,476311752.26796,   0.00154,276311754.93846,   0.00119,  -0.00005,  -0.00094,  -2.67049,   1.00000
360675179.91236,-90879836.56692,-136324873.16716,   0.00302,  -0.00117,  -0.00272,476316328.33187,   0.00154,276316330.13448,   0.00120,  -0.00005,  -0.00095,  -1.80261,   1.00000
359165141.65107,-93517543.94410,-136073863.10992,   0.00302,  -0.00118,  -0.00272,476320963.83121,   0.00155,276320973.00542,   0.00120,  -0.00005,  -0.00095,  -9.17421,   1.00000
357640503.73910,-96162688.35356,-135819134.86452,   0.00302,  -0.00119,  -0.00272,476325704.78177,   0.00155,276325706.72750,   0.00120,  -0.00005,  -0.00095,  -1.94573,   1.00000
356112251.67903,-98802190.97583,-135558418.17988,   0.00302,  -0.00120,  -0.00272,476330487.84962,   0.00156,276330490.14917,   0.00121,  -0.00005,  -0.00095,  -2.29955,   1.00000
354569424.92986,-101448836.98082,-135293974.58764,   0.00302,  -0.00121,  -0.00272,476335363.04489,   0.00156,276335365.47517,   0.00121,  -0.00006,  -0.00096,  -2.43028,   1.00000
353031543.04088,-104081086.34687,-135021076.52243,   0.00302,  -0.00122,  -0.00271,476340343.39662,   0.00157,276340345.36649,   0.00121,  -0.00006,  -0.00096,  -1.96988,   1.00000
351479180.80817,-106720172.54320,-134744476.40236,   0.00302,  -0.00123,  -0.00271,476345410.76120,   0.00157,276345417.68576,   0.00121,  -0.00006,  -0.00096,  -6.92456,   1.00000
349923427.51965,-109353208.35427,-134461959.12353,   0.00302,  -0.00124,  -0.00271,476350537.03768,   0.00158,276350539.73348,   0.00122,  -0.00006,  -0.00097,  -2.69580,   1.00000
348364292.56967,-111985110.33576,-134170125.03324,   0.00302,  -0.00125,  -0.00271,476355777.09233,   0.00158,276355787.06130,   0.00122,  -0.00006,  -0.00097,  -9.96897,   1.00000
346790791.95795,-114618453.76106,-133878026.18676,   0.00303,  -0.00126,  -0.00271,476361045.18441,   0.00159,276361052.25548,   0.00122,  -0.00007,  -0.00097,  -7.07107,   1.00000
345211622.28316,-117249329.82769,-133579820.98912,   0.00303,  -0.00128,  -0.00271,476366462.49741,   0.00159,276366465.17145,   0.00123,  -0.00007,  -0.00097,  -2.67404,   1.00000
343631670.81341,-119874762.37140,-133272582.68521,   0.00303,  -0.00129,  -0.00271,476371905.77155,   0.00160,276371906.02555,   0.00123,  -0.00007,  -0.00098,  -0.25400,   1.00000
342043847.34984,-122496333.93738,-132962493.08741,   0.00303,  -0.00130,  -0.00271,476377514.57036,   0.00160,276377516.52508,   0.00123,  -0.00007,  -0.00098,  -1.95472,   1.00000
340444188.14235,-125124697.11435,-132645564.37512,   0.00303,  -0.00131,  -0.00271,476383194.74840,   0.00161,276383200.09720,   0.00124,  -0.00008,  -0.00098,  -5.34880,   1.00000
338841506.23169,-127746257.60309,-132322845.26452,   0.00303,  -0.00132,  -0.00271,476388930.55501,   0.00161,276388933.73662,   0.00124,  -0.00008,  -0.00099,  -3.18162,   1.00000
337233526.91236,-130359879.66999,-131997567.83159,   0.00303,  -0.00133,  -0.00271,476394737.19876,   0.00162,276394738.92959,   0.00124,  -0.00008,  -0.00099,  -1.73083,   1.00000
335622762.51655,-132971033.39210,-131663148.97975,   0.00303,  -0.00134,  -0.00271,476400665.82671,   0.00162,276400670.48492,   0.00125,  -0.00008,  -0.00099,  -4.65821,   1.00000
333997850.17839,-135582939.71602,-131328541.64541,   0.00303,  -0.00135,  -0.00271,476406617.71639,   0.00163,276406621.16941,   0.00125,  -0.00009,  -0.00100,  -3.45302,   1.00000
332379362.47372,-138183098.34499,-130982543.80014,   0.00304,  -0.00137,  -0.00270,476412740.95082,   0.00163,276412750.42542,   0.00125,  -0.00009,  -0.00100,  -9.47460,   1.00000
330746821.74011,-140783840.11219,-130636398.64492,   0.00304,  -0.00138,  -0.00270,476418894.82905,   0.00164,276418898.77866,   0.00126,  -0.00009,  -0.00101,  -3.94962,   1.00000
329111814.60587,-143381449.59184,-130281214.11923,   0.00304,  -0.00139,  -0.00270,476425167.17042,   0.00165,276425173.89034,   0.00126,  -0.00009,  -0.00101,  -6.71992,   1.00000
327472004.62287,-145970440.89461,-129923655.05475,   0.00304,  -0.00140,  -0.00270,476431511.08054,   0.00165,276431519.69586,   0.00127,  -0.00010,  -0.00101,  -8.61532,   1.00000
325820667.45144,-148565029.51831,-129559350.38207,   0.00304,  -0.00141,  -0.00270,476437937.43377,   0.00166,276437941.23944,   0.00127,  -0.00010,  -0.00102,  -3.80567,   1.00000
324173964.76350,-151141695.11694,-129190510.64872,   0.00304,  -0.00142,  -0.00270,476444475.36463,   0.00166,276444484.11723,   0.00127,  -0.00010,  -0.00102,  -8.75260,   1.00000
322522757.11037,-153709455.17386,-128819410.49168,   0.00304,  -0.00143,  -0.00270,476451093.29164,   0.00167,276451096.70867,   0.00128,  -0.00011,  -0.00102,  -3.41702,   1.00000
320860183.87011,-156282436.11846,-128441621.62836,   0.00305,  -0.00145,  -0.00270,476457783.14609,   0.00168,276457785.43116,   0.00128,  -0.00011,  -0.00103,  -2.28507,   1.00000
319204835.49094,-158838350.78472,-128056197.69985,   0.00305,  -0.00146,  -0.00270,476464571.21251,   0.00168,276464572.83746,   0.00128,  -0.00011,  -0.00103,  -1.62494,   1.00000
317536065.81762,-161397996.38470,-127667399.61878,   0.00305,  -0.00147,  -0.00269,476471453.40621,   0.00169,276471457.62103,   0.00129,  -0.00012,  -0.00103,  -4.21482,   1.00000
315865234.79074,-163949539.98151,-127273189.26467,   0.00305,  -0.00148,  -0.00269,476478385.93839,   0.00170,276478390.78396,   0.00129,  -0.00012,  -0.00104,  -4.84557,   1.00000
314199879.77979,-166482464.89693,-126874774.94567,   0.00305,  -0.00149,  -0.00269,476485436.90274,   0.00170,276485441.93747,   0.00130,  -0.00012,  -0.00104,  -5.03473,   1.00000
312521333.42921,-169018725.31211,-126473072.33608,   0.00305,  -0.00150,  -0.00269,476492586.34520,   0.00171,276492590.44641,   0.00130,  -0.00013,  -0.00105,  -4.10121,   1.00000
310850643.38929,-171537385.08526,-126063987.92659,   0.00305,  -0.00152,  -0.00269,476499832.79363,   0.00172,276499835.20069,   0.00130,  -0.00013,  -0.00105,  -2.40706,   1.00000
309157192.12367,-174068377.51224,-125653730.42795,   0.00306,  -0.00153,  -0.00269,476507125.05914,   0.00172,276507128.97666,   0.00131,  -0.00013,  -0.00105,  -3.91752,   1.00000
307481104.64756,-176568882.14505,-125237454.19288,   0.00306,  -0.00154,  -0.00269,476514485.17724,   0.00173,276514488.05946,   0.00131,  -0.00014,  -0.00106,  -2.88222,   1.00000
305792591.98963,-179075520.82868,-124814684.99174,   0.00306,  -0.00155,  -0.00269,476522020.39429,   0.00174,276522023.18800,   0.00132,  -0.00014,  -0.00106,  -2.79371,   1.00000
304109920.70681,-181559594.69261,-124391375.17647,   0.00306,  -0.00156,  -0.00268,476529586.59212,   0.00174,276529594.07003,   0.00132,  -0.00014,  -0.00107,  -7.47790,   1.00000
302416517.40931,-184047556.20873,-123961636.98508,   0.00306,  -0.00157,  -0.00268,476537234.92166,   0.00175,276537241.95642,   0.00133,  -0.00015,  -0.00107,  -7.03477,   1.00000
300731705.71801,-186517361.22396,-123524827.03742,   0.00306,  -0.00159,  -0.00268,476544979.75824,   0.00176,276544982.98928,   0.00133,  -0.00015,  -0.00108,  -3.23104,   1.00000
299043692.88170,-188977026.84292,-123086313.31407,   0.00306,  -0.00160,  -0.00268,476552784.56785,   0.00177,276552789.23364,   0.00134,  -0.00016,  -0.00108,  -4.66579,   1.00000
297343167.79581,-191438891.00283,-122644789.81167,   0.00307,  -0.00161,  -0.00268,476560686.70966,   0.00177,276560692.61239,   0.00134,  -0.00016,  -0.00108,  -5.90273,   1.00000
295651613.58837,-193882342.04437,-122196352.94949,   0.00307,  -0.00162,  -0.00268,476568685.99206,   0.00178,276568687.46926,   0.00134,  -0.00016,  -0.00109,  -1.47720,   1.00000
293957150.30633,-196315426.29717,-121746337.75079,   0.00307,  -0.00163,  -0.00268,476576739.21535,   0.00179,276576746.39646,   0.00135,  -0.00017,  -0.00109,  -7.18111,   1.00000
292260571.07647,-198740879.92544,-121291524.84893,   0.00307,  -0.00165,  -0.00267,476584938.72894,   0.00180,276584948.17279,   0.00135,  -0.00017,  -0.00110,  -9.44385,   1.00000
290563182.59544,-201157183.87236,-120831860.74538,   0.00307,  -0.00166,  -0.00267,476593183.92620,   0.00180,276593193.54301,   0.00136,  -0.00018,  -0.00110,  -9.61681,   1.00000
288863188.14706,-203562915.56148,-120370750.57826,   0.00307,  -0.00167,  -0.00267,476601497.71092,   0.00181,276601501.68058,   0.00136,  -0.00018,  -0.00111,  -3.96966,   1.00000
287172800.61836,-205949906.95162,-119903011.62824,   0.00308,  -0.00168,  -0.00267,476609892.62428,   0.00182,276609898.00446,   0.00137,  -0.00018,  -0.00111,  -5.38018,   1.00000
285480018.55841,-208326264.59563,-119433933.48632,   0.00308,  -0.00169,  -0.00267,476618351.30793,   0.00183,276618355.75978,   0.00137,  -0.00019,  -0.00111,  -4.45186,   1.00000
283787564.54670,-210695823.68746,-118956945.13131,   0.00308,  -0.00171,  -0.00267,476626930.58621,   0.00183,276626934.90672,   0.00138,  -0.00019,  -0.00112,  -4.32051,   1.00000
282091112.53598,-213053177.45350,-118482105.21174,   0.00308,  -0.00172,  -0.00266,476635592.26962,   0.00184,276635593.85361,   0.00138,  -0.00020,  -0.00112,  -1.58399,   1.00000
280404795.49619,-215391560.24526,-118000875.30693,   0.00308,  -0.00173,  -0.00266,476644332.47855,   0.00185,276644338.10696,   0.00139,  -0.00020,  -0.00113,  -5.62841,   1.00000
278708682.37621,-217732412.83859,-117513664.71502,   0.00309,  -0.00174,  -0.00266,476653156.19378,   0.00186,276653158.39903,   0.00139,  -0.00021,  -0.00113,  -2.20525,   1.00000
277020239.84535,-220050477.82411,-117026772.55513,   0.00309,  -0.00175,  -0.00266,476661996.28618,   0.00187,276662002.06498,   0.00140,  -0.00021,  -0.00114,  -5.77880,   1.00000
275330949.39977,-222359805.51633,-116535644.91785,   0.00309,  -0.00177,  -0.00266,476670977.48557,   0.00188,276670983.92608,   0.00140,  -0.00022,  -0.00114,  -6.44051,   1.00000
273641677.63059,-224659586.35917,-116040078.21646,   0.00309,  -0.00178,  -0.00266,476680000.46585,   0.00188,276680005.05032,   0.00141,  -0.00022,  -0.00115,  -4.58448,   1.00000
271961425.24239,-226938701.03204,-115541843.28636,   0.00309,  -0.00179,  -0.00265,476689118.89338,   0.00189,276689126.74870,   0.00141,  -0.00023,  -0.00115,  -7.85532,   1.00000
270279680.45964,-229206792.88017,-115042704.04975,   0.00310,  -0.00180,  -0.00265,476698300.37021,   0.00190,276698304.98118,   0.00142,  -0.00023,  -0.00116,  -4.61097,   1.00000
268598192.61559,-231465299.71709,-114539248.00274,   0.00310,  -0.00181,  -0.00265,476707513.26764,   0.00191,276707520.95363,   0.00142,  -0.00024,  -0.00116,  -7.68599,   1.00000
266916474.15135,-233714588.77298,-114031843.78871,   0.00310,  -0.00183,  -0.00265,476716867.08705,   0.00192,276716872.64646,   0.00143,  -0.00024,  -0.00117,  -5.55941,   1.00000
265254009.44765,-235931562.20355,-113523512.30268,   0.00310,  -0.00184,  -0.00265,476726281.98811,   0.00193,276726283.50766,   0.00144,  -0.00025,  -0.00117,  -1.51954,   1.00000
263582381.43128,-238150385.29859,-113009531.84294,   0.00310,  -0.00185,  -0.00264,476735761.58781,   0.00194,276735768.43105,   0.00144,  -0.00025,  -0.00118,  -6.84324,   1.00000
261909719.49344,-240358030.10356,-112494881.13059,   0.00311,  -0.00186,  -0.00264,476745301.90089,   0.00195,276745307.24803,   0.00145,  -0.00026,  -0.00118,  -5.34714,   1.00000
260247031.11607,-242544778.99473,-111978012.82624,   0.00311,  -0.00187,  -0.00264,476754938.87107,   0.00195,276754940.72850,   0.00145,  -0.00026,  -0.00118,  -1.85743,   1.00000
258596033.97749,-244712138.15879,-111455521.63894,   0.00311,  -0.00189,  -0.00264,476764645.98015,   0.00196,276764649.88959,   0.00146,  -0.00027,  -0.00119,  -3.90944,   1.00000
256942743.72290,-246866835.84197,-110936017.24908,   0.00311,  -0.00190,  -0.00264,476774422.65202,   0.00197,276774428.36758,   0.00146,  -0.00027,  -0.00119,  -5.71556,   1.00000
255291898.92236,-249013377.57644,-110409048.19909,   0.00312,  -0.00191,  -0.00263,476784214.98479,   0.00198,276784222.62437,   0.00147,  -0.00028,  -0.00120,  -7.63958,   1.00000
253650007.78272,-251137493.60245,-109883631.18140,   0.00312,  -0.00192,  -0.00263,476794118.62220,   0.00199,276794125.41019,   0.00147,  -0.00028,  -0.00120,  -6.78799,   1.00000
252009165.69912,-253251968.88519,-109354334.65984,   0.00312,  -0.00193,  -0.00263,476804056.46104,   0.00200,276804060.44831,   0.00148,  -0.00029,  -0.00121,  -3.98727,   1.00000
250379064.46674,-255345535.69178,-108823214.78076,   0.00312,  -0.00195,  -0.00263,476814084.40700,   0.00201,276814084.58443,   0.00148,  -0.00030,  -0.00121,  -0.17744,   1.00000
248740395.21859,-257440456.23298,-108286782.20856,   0.00312,  -0.00196,  -0.00263,476824176.34894,   0.00202,276824180.60769,   0.00149,  -0.00030,  -0.00122,  -4.25876,   1.00000
247120989.66259,-259501924.61476,-107753695.88052,   0.00313,  -0.00197,  -0.00262,476834333.67204,   0.00203,276834340.63706,   0.00150,  -0.00031,  -0.00122,  -6.96502,   1.00000
245504366.35447,-261555338.54821,-107213364.48514,   0.00313,  -0.00198,  -0.00262,476844506.36634,   0.00204,276844513.57186,   0.00150,  -0.00031,  -0.00123,  -7.20551,   1.00000
243897514.12506,-263586345.01176,-106675006.73793,   0.00313,  -0.00199,  -0.00262,476854783.10102,   0.00205,276854788.97964,   0.00151,  -0.00032,  -0.00123,  -5.87862,   1.00000
242290705.04089,-265606279.63250,-106136567.81781,   0.00313,  -0.00201,  -0.00262,476865103.95426,   0.00206,276865110.07543,   0.00151,  -0.00033,  -0.00124,  -6.12117,   1.00000
240687002.37776,-267617635.19440,-105591597.88267,   0.00314,  -0.00202,  -0.00262,476875533.87572,   0.00207,276875539.87281,   0.00152,  -0.00033,  -0.00124,  -5.99709,   1.00000
239093265.31239,-269607171.89946,-105048167.31298,   0.00314,  -0.00203,  -0.00261,476885969.70963,   0.00208,276885972.44880,   0.00153,  -0.00034,  -0.00125,  -2.73917,   1.00000
237512579.77523,-271577430.97460,-104499843.63783,   0.00314,  -0.00204,  -0.00261,476896461.26465,   0.00209,276896470.39924,   0.00153,  -0.00034,  -0.00125,  -9.13459,   1.00000
235930873.78126,-273535167.14091,-103955200.03745,   0.00314,  -0.00205,  -0.00261,476907021.02604,   0.00210,276907027.90694,   0.00154,  -0.00035,  -0.00126,  -6.88090,   1.00000
234350941.85675,-275483462.61543,-103407112.08060,   0.00315,  -0.00207,  -0.00261,476917606.65776,   0.00211,276917611.70340,   0.00154,  -0.00036,  -0.00126,  -5.04564,   1.00000
232805632.11183,-277392268.62536,-102854488.71238,   0.00315,  -0.00208,  -0.00261,476928247.24609,   0.00212,276928252.92340,   0.00155,  -0.00036,  -0.00127,  -5.67731,   1.00000
231238221.49879,-279308967.72679,-102305490.07647,   0.00315,  -0.00209,  -0.00260,476938951.41799,   0.00213,276938957.17681,   0.00156,  -0.00037,  -0.00127,  -5.75882,   1.00000
229695911.75389,-281196721.98958,-101750550.74173,   0.00315,  -0.00210,  -0.00260,476949755.74212,   0.00214,276949759.76139,   0.00156,  -0.00038,  -0.00128,  -4.01926,   1.00000
228164087.72564,-283063311.49602,-101197486.47649,   0.00316,  -0.00211,  -0.00260,476960548.98318,   0.00215,276960558.52028,   0.00157,  -0.00038,  -0.00128,  -9.53710,   1.00000
226623246.43434,-284929490.25248,-100643256.61845,   0.00316,  -0.00213,  -0.00260,476971436.91649,   0.00216,276971439.95507,   0.00157,  -0.00039,  -0.00129,  -3.03858,   1.00000
225104705.21012,-286764840.62130,-100089701.41953,   0.00316,  -0.00214,  -0.00259,476982349.80734,   0.00217,276982352.29798,   0.00158,  -0.00039,  -0.00129,  -2.49064,   1.00000
223588313.69927,-288591099.13298,-99532977.18620,   0.00317,  -0.00215,  -0.00259,476993285.45386,   0.00218,276993286.64972,   0.00159,  -0.00040,  -0.00130,  -1.19586,   1.00000
222084601.18488,-290396938.06718,-98975504.01046,   0.00317,  -0.00216,  -0.00259,477004288.32514,   0.00219,277004293.95494,   0.00159,  -0.00041,  -0.00130,  -5.62980,   1.00000
220581907.54543,-292192216.05068,-98418566.02283,   0.00317,  -0.00217,  -0.00259,477015332.93736,   0.00220,277015337.73117,   0.00160,  -0.00041,  -0.00131,  -4.79381,   1.00000
219101876.16287,-293957112.00816,-97862521.71017,   0.00317,  -0.00219,  -0.00259,477026403.94123,   0.00221,277026407.88905,   0.00160,  -0.00042,  -0.00131,  -3.94782,   1.00000
217625015.31349,-295711848.04611,-97304361.65787,   0.00318,  -0.00220,  -0.00258,477037583.65290,   0.00222,277037592.89633,   0.00161,  -0.00043,  -0.00132,  -9.24343,   1.00000
216160331.35126,-297447759.07979,-96744748.42787,   0.00318,  -0.00221,  -0.00258,477048743.25268,   0.00223,277048751.98778,   0.00162,  -0.00044,  -0.00132,  -8.73510,   1.00000
214696879.87590,-299173370.70366,-96185826.31578,   0.00318,  -0.00222,  -0.00258,477059938.32098,   0.00224,277059944.87715,   0.00162,  -0.00044,  -0.00133,  -6.55617,   1.00000
213246629.50332,-300878921.05205,-95626467.80823,   0.00319,  -0.00223,  -0.00258,477071200.10262,   0.00225,277071205.45359,   0.00163,  -0.00045,  -0.00133,  -5.35097,   1.00000
211820587.23335,-302556200.84982,-95064597.77845,   0.00319,  -0.00225,  -0.00257,477082467.96124,   0.00226,277082472.13270,   0.00164,  -0.00046,  -0.00134,  -4.17145,   1.00000
210385004.88720,-304231673.54676,-94505684.66194,   0.00319,  -0.00226,  -0.00257,477093823.99764,   0.00227,277093831.10274,   0.00164,  -0.00046,  -0.00134,  -7.10511,   1.00000
208973770.00446,-305879069.15169,-93944340.54951,   0.00320,  -0.00227,  -0.00257,477105188.72144,   0.00228,277105194.41649,   0.00165,  -0.00047,  -0.00135,  -5.69505,   1.00000
207573781.05511,-307506837.23356,-93385403.69560,   0.00320,  -0.00228,  -0.00257,477116534.29947,   0.00230,277116541.94232,   0.00165,  -0.00048,  -0.00135,  -7.64285,   1.00000
206177577.88367,-309124652.46483,-92824759.28628,   0.00320,  -0.00229,  -0.00256,477127995.72282,   0.00231,277127998.88157,   0.00166,  -0.00049,  -0.00136,  -3.15876,   1.00000
204792716.09353,-310723032.31656,-92266582.64884,   0.00320,  -0.00231,  -0.00256,477139434.48323,   0.00232,277139438.59883,   0.00167,  -0.00049,  -0.00136,  -4.11560,   1.00000
203422623.20834,-312303448.92955,-91704608.38846,   0.00321,  -0.00232,  -0.00256,477150919.79746,   0.00233,277150925.60540,   0.00167,  -0.00050,  -0.00137,  -5.80794,   1.00000
202062870.12287,-313863197.35374,-91148872.42197,   0.00321,  -0.00233,  -0.00256,477162403.64265,   0.00234,277162407.84360,   0.00168,  -0.00051,  -0.00137,  -4.20094,   1.00000
200708225.20093,-315414646.22370,-90587897.85787,   0.00321,  -0.00234,  -0.00255,477173979.04390,   0.00235,277173982.88904,   0.00169,  -0.00051,  -0.00138,  -3.84515,   1.00000
199374808.13118,-316937721.85145,-90031019.76746,   0.00322,  -0.00235,  -0.00255,477185482.48506,   0.00236,277185490.46849,   0.00169,  -0.00052,  -0.00138,  -7.98343,   1.00000
198046576.86705,-318452605.13970,-89468986.13661,   0.00322,  -0.00236,  -0.00255,477197082.04500,   0.00237,277197089.72610,   0.00170,  -0.00053,  -0.00139,  -7.68110,   1.00000
196741072.22768,-319937560.37494,-88912319.01363,   0.00322,  -0.00238,  -0.00255,477208709.19461,   0.00238,277208712.76862,   0.00171,  -0.00054,  -0.00139,  -3.57401,   1.00000
195437356.56448,-321413355.13619,-88356817.40457,   0.00323,  -0.00239,  -0.00254,477220350.82207,   0.00239,277220360.59134,   0.00171,  -0.00054,  -0.00140,  -9.76928,   1.00000
194158474.81379,-322862548.68418,-87799278.79660,   0.00323,  -0.00240,  -0.00254,477231996.81443,   0.00240,277232002.82345,   0.00172,  -0.00055,  -0.00140,  -6.00902,   1.00000
192881413.06712,-324302776.99058,-87242964.79351,   0.00323,  -0.00241,  -0.00254,477243662.37384,   0.00242,277243668.67651,   0.00172,  -0.00056,  -0.00141,  -6.30268,   1.00000
191618528.78283,-325724341.39792,-86686931.53063,   0.00324,  -0.00242,  -0.00254,477255380.83297,   0.00243,277255388.90521,   0.00173,  -0.00057,  -0.00141,  -8.07224,   1.00000
190367265.19014,-327127946.38208,-86133662.61502,   0.00324,  -0.00243,  -0.00253,477267079.30318,   0.00244,277267083.47494,   0.00174,  -0.00058,  -0.00141,  -4.17176,   1.00000
189130264.07461,-328513105.83007,-85580742.17664,   0.00324,  -0.00245,  -0.00253,477278826.51881,   0.00245,277278830.86261,   0.00174,  -0.00058,  -0.00142,  -4.34379,   1.00000
187905839.10844,-329882074.14846,-85026858.45726,   0.00325,  -0.00246,  -0.00253,477290535.35826,   0.00246,277290538.12441,   0.00175,  -0.00059,  -0.00142,  -2.76616,   1.00000
186694816.16392,-331231323.53050,-84477165.08742,   0.00325,  -0.00247,  -0.00253,477302303.98368,   0.00247,277302309.76153,   0.00176,  -0.00060,  -0.00143,  -5.77785,   1.00000
185486662.76944,-332573622.53966,-83925063.02684,   0.00326,  -0.00248,  -0.00252,477314085.75141,   0.00248,277314088.85514,   0.00176,  -0.00061,  -0.00143,  -3.10374,   1.00000
184302630.76111,-333888888.20579,-83374914.35376,   0.00326,  -0.00249,  -0.00252,477325862.36395,   0.00249,277325869.23622,   0.00177,  -0.00061,  -0.00144,  -6.87227,   1.00000
183142733.49494,-335177352.63013,-82826753.22948,   0.00326,  -0.00250,  -0.00252,477337645.97613,   0.00250,277337649.69729,   0.00178,  -0.00062,  -0.00144,  -3.72117,   1.00000
181984790.18186,-336457760.93121,-82280028.81729,   0.00327,  -0.00252,  -0.00252,477349445.58785,   0.00252,277349448.72859,   0.00178,  -0.00063,  -0.00145,  -3.14074,   1.00000
180841337.03572,-337720456.94384,-81733886.02144,   0.00327,  -0.00253,  -0.00251,477361288.30243,   0.00253,277361295.57829,   0.00179,  -0.00064,  -0.00145,  -7.27586,   1.00000
179709569.21242,-338966460.15251,-81190668.59926,   0.00327,  -0.00254,  -0.00251,477373104.50955,   0.00254,277373110.74017,   0.00180,  -0.00065,  -0.00146,  -6.23061,   1.00000
178602025.57705,-340186249.92064,-80649528.73998,   0.00328,  -0.00255,  -0.00251,477384919.05643,   0.00255,277384922.80141,   0.00180,  -0.00065,  -0.00146,  -3.74497,   1.00000
177497298.83640,-341399833.31009,-80106084.63357,   0.00328,  -0.00256,  -0.00251,477396732.18412,   0.00256,277396739.24818,   0.00181,  -0.00066,  -0.00147,  -7.06406,   1.00000
176416814.79660,-342587477.94086,-79564768.47850,   0.00329,  -0.00257,  -0.00250,477408547.66279,   0.00257,277408551.17517,   0.00181,  -0.00067,  -0.00147,  -3.51238,   1.00000
175337477.72238,-343766240.76910,-79028812.08016,   0.00329,  -0.00258,  -0.00250,477420385.38958,   0.00258,277420390.86107,   0.00182,  -0.00068,  -0.00147,  -5.47149,   1.00000
174283239.41131,-344920792.52351,-78491189.20521,   0.00329,  -0.00259,  -0.00250,477432208.86803,   0.00259,277432212.53823,   0.00183,  -0.00069,  -0.00148,  -3.67019,   1.00000
173243604.05490,-346058443.89859,-77954336.74090,   0.00330,  -0.00261,  -0.00250,477444070.88601,   0.00261,277444077.41821,   0.00183,  -0.00069,  -0.00148,  -6.53220,   1.00000
172215590.18541,-347180430.21493,-77420490.67415,   0.00330,  -0.00262,  -0.00249,477455904.19022,   0.00262,277455906.42308,   0.00184,  -0.00070,  -0.00149,  -2.23286,   1.00000
171211848.79606,-348277252.53729,-76888861.17968,   0.00331,  -0.00263,  -0.00249,477467721.44737,   0.00263,277467727.20681,   0.00185,  -0.00071,  -0.00149,  -5.75945,   1.00000
170210818.68071,-349368600.50878,-76355005.57573,   0.00331,  -0.00264,  -0.00249,477479547.16487,   0.00264,277479549.69371,   0.00185,  -0.00072,  -0.00150,  -2.52884,   1.00000
169233290.27953,-350433649.22498,-75827248.78021,   0.00331,  -0.00265,  -0.00249,477491364.84727,   0.00265,277491374.24692,   0.00186,  -0.00073,  -0.00150,  -9.39965,   1.00000
168257690.20812,-351492030.08910,-75301127.92168,   0.00332,  -0.00266,  -0.00248,477503208.61594,   0.00266,277503211.20824,   0.00187,  -0.00073,  -0.00150,  -2.59230,   1.00000
167307129.52007,-352527178.28747,-74773425.15400,   0.00332,  -0.00267,  -0.00248,477515018.21874,   0.00267,277515026.11071,   0.00187,  -0.00074,  -0.00151,  -7.89198,   1.00000
166367336.41338,-353546148.29478,-74252618.09734,   0.00333,  -0.00268,  -0.00248,477526810.21415,   0.00268,277526813.26020,   0.00188,  -0.00075,  -0.00151,  -3.04605,   1.00000
165442931.76951,-354550506.73681,-73728868.74028,   0.00333,  -0.00269,  -0.00248,477538625.71722,   0.00269,277538627.91474,   0.00189,  -0.00076,  -0.00152,  -2.19752,   1.00000
164539602.42478,-355532063.10386,-73209523.38695,   0.00333,  -0.00271,  -0.00247,477550349.09106,   0.00271,277550351.87639,   0.00189,  -0.00077,  -0.00152,  -2.78533,   1.00000
163640576.14899,-356504759.73524,-72693644.74348,   0.00334,  -0.00272,  -0.00247,477562167.80380,   0.00272,277562175.34906,   0.00190,  -0.00078,  -0.00152,  -7.54526,   1.00000
162776116.47317,-357446758.96663,-72177571.17641,   0.00334,  -0.00273,  -0.00247,477573921.19243,   0.00273,277573922.88241,   0.00190,  -0.00078,  -0.00153,  -1.68998,   1.00000
161913424.67922,-358382866.84587,-71663192.67867,   0.00335,  -0.00274,  -0.00246,477585671.07074,   0.00274,277585680.20970,   0.00191,  -0.00079,  -0.00153,  -9.13897,   1.00000
161074940.94966,-359295425.93274,-71151161.10641,   0.00335,  -0.00275,  -0.00246,477597416.65349,   0.00275,277597422.40887,   0.00192,  -0.00080,  -0.00154,  -5.75537,   1.00000
160247775.88727,-360194189.52515,-70642168.04174,   0.00336,  -0.00276,  -0.00246,477609117.71063,   0.00276,277609122.41223,   0.00192,  -0.00081,  -0.00154,  -4.70160,   1.00000
159431905.51202,-361079287.34897,-70136201.03150,   0.00336,  -0.00277,  -0.00246,477620773.37151,   0.00277,277620779.87564,   0.00193,  -0.00082,  -0.00154,  -6.50413,   1.00000
158644158.05244,-361941082.44566,-69626699.26389,   0.00336,  -0.00278,  -0.00245,477632480.14184,   0.00278,277632487.87109,   0.00194,  -0.00082,  -0.00155,  -7.72925,   1.00000
157854073.04173,-362797734.04110,-69124804.32790,   0.00337,  -0.00279,  -0.00245,477644135.24090,   0.00279,277644136.70834,   0.00194,  -0.00083,  -0.00155,  -1.46744,   1.00000
157101007.18172,-363621973.67653,-68624606.98588,   0.00337,  -0.00280,  -0.00245,477655790.86599,   0.00281,277655793.95406,   0.00195,  -0.00084,  -0.00156,  -3.08807,   1.00000
156349533.20886,-364441097.69838,-68126133.60056,   0.00338,  -0.00281,  -0.00245,477667453.33086,   0.00282,277667458.54238,   0.00196,  -0.00085,  -0.00156,  -5.21153,   1.00000
155619395.90899,-365240553.25373,-67628056.39603,   0.00338,  -0.00282,  -0.00244,477679007.72244,   0.00283,277679016.88776,   0.00196,  -0.00086,  -0.00156,  -9.16532,   1.00000
154903091.92983,-366024246.63237,-67134976.71314,   0.00339,  -0.00283,  -0.00244,477690610.99385,   0.00284,277690617.87447,   0.00197,  -0.00087,  -0.00157,  -6.88062,   1.00000
154198482.64725,-366796484.86458,-66640979.11455,   0.00339,  -0.00284,  -0.00244,477702161.45442,   0.00285,277702163.70361,   0.00197,  -0.00087,  -0.00157,  -2.24919,   1.00000
153517225.99063,-367545283.72858,-66153270.72838,   0.00340,  -0.00285,  -0.00244,477713692.84868,   0.00286,277713699.53359,   0.00198,  -0.00088,  -0.00158,  -6.68492,   1.00000
152860530.93268,-368273375.86068,-65664003.53549,   0.00340,  -0.00286,  -0.00243,477725202.52567,   0.00287,277725204.99041,   0.00199,  -0.00089,  -0.00158,  -2.46473,   1.00000
152214129.84721,-368987896.61369,-65181644.08830,   0.00341,  -0.00287,  -0.00243,477736664.86664,   0.00288,277736674.01177,   0.00199,  -0.00090,  -0.00158,  -9.14513,   1.00000
151569709.22613,-369699286.12092,-64697065.28498,   0.00341,  -0.00288,  -0.00243,477748137.60090,   0.00289,277748138.81080,   0.00200,  -0.00091,  -0.00159,  -1.20990,   1.00000
150958675.38398,-370381241.06726,-64216089.43934,   0.00341,  -0.00289,  -0.00242,477759526.72390,   0.00290,277759530.08855,   0.00201,  -0.00092,  -0.00159,  -3.36465,   1.00000
150361331.64871,-371048266.93445,-63740170.58880,   0.00342,  -0.00290,  -0.00242,477770955.59746,   0.00292,277770960.90365,   0.00201,  -0.00092,  -0.00159,  -5.30619,   1.00000
149775347.62390,-371704704.19424,-63263248.20684,   0.00342,  -0.00291,  -0.00242,477782334.20791,   0.00293,277782334.87979,   0.00202,  -0.00093,  -0.00160,  -0.67189,   1.00000
149209594.09187,-372341697.44844,-62790471.65927,   0.00343,  -0.00292,  -0.00242,477793602.05133,   0.00294,277793609.19081,   0.00202,  -0.00094,  -0.00160,  -7.13948,   1.00000
148657471.14724,-372964100.31501,-62322760.34562,   0.00343,  -0.00293,  -0.00241,477804921.70394,   0.00295,277804921.86172,   0.00203,  -0.00095,  -0.00160,  -0.15778,   1.00000
148129597.68769,-373566740.77933,-61853422.98586,   0.00344,  -0.00294,  -0.00241,477816195.15663,   0.00296,277816201.95771,   0.00204,  -0.00096,  -0.00161,  -6.80108,   1.00000
147612303.66127,-374158048.32658,-61386980.93850,   0.00344,  -0.00295,  -0.00241,477827430.20140,   0.00297,277827433.66446,   0.00204,  -0.00096,  -0.00161,  -3.46306,   1.00000
147105554.29134,-374738108.65561,-60923413.37934,   0.00345,  -0.00296,  -0.00241,477838611.10566,   0.00298,277838616.89669,   0.00205,  -0.00097,  -0.00161,  -5.79103,   1.00000
146635441.50854,-375288063.36208,-60461604.40111,   0.00345,  -0.00297,  -0.00240,477849799.51102,   0.00299,277849800.25370,   0.00205,  -0.00098,  -0.00162,  -0.74268,   1.00000
146162678.17898,-375836524.77191,-60003193.92285,   0.00346,  -0.00298,  -0.00240,477860905.18691,   0.00300,277860910.26414,   0.00206,  -0.00099,  -0.00162,  -5.07723,   1.00000
145712874.56849,-376363432.31771,-59551037.65787,   0.00346,  -0.00299,  -0.00240,477872002.59572,   0.00301,277872004.20795,   0.00207,  -0.00100,  -0.00162,  -1.61223,   1.00000
145287053.12115,-376871260.87139,-59097184.69759,   0.00347,  -0.00300,  -0.00239,477883062.77898,   0.00302,277883064.21901,   0.00207,  -0.00100,  -0.00163,  -1.44003,   1.00000
144871525.44697,-377368436.15000,-58646137.52424,   0.00347,  -0.00301,  -0.00239,477894072.81086,   0.00303,277894074.66333,   0.00208,  -0.00101,  -0.00163,  -1.85247,   1.00000
144466262.34928,-377855044.34456,-58197876.20510,   0.00348,  -0.00302,  -0.00239,477905032.24431,   0.00304,277905035.41466,   0.00208,  -0.00102,  -0.00163,  -3.17035,   1.00000
144084331.34883,-378321705.13525,-57751862.57223,   0.00348,  -0.00303,  -0.00239,477915965.34069,   0.00305,277915970.37535,   0.00209,  -0.00103,  -0.00164,  -5.03465,   1.00000
143725671.78186,-378768544.30341,-57308089.62508,   0.00349,  -0.00304,  -0.00238,477926870.73667,   0.00306,277926879.29598,   0.00210,  -0.00104,  -0.00164,  -8.55932,   1.00000
143377118.42920,-379205151.99491,-56867059.40258,   0.00349,  -0.00305,  -0.00238,477937730.99680,   0.00307,277937737.98354,   0.00210,  -0.00104,  -0.00164,  -6.98674,   1.00000
143038642.60130,-379631607.31702,-56428751.43472,   0.00350,  -0.00306,  -0.00238,477948545.67824,   0.00309,277948546.33901,   0.00211,  -0.00105,  -0.00164,  -0.66077,   1.00000
142722826.39041,-380037409.48968,-55996631.43813,   0.00350,  -0.00307,  -0.00238,477959327.97489,   0.00310,277959336.41118,   0.00211,  -0.00106,  -0.00165,  -8.43629,   1.00000
142440081.30961,-380417490.51204,-55563803.93625,   0.00351,  -0.00308,  -0.00237,477970031.54455,   0.00311,277970038.65944,   0.00212,  -0.00107,  -0.00165,  -7.11489,   1.00000
142157762.23823,-380795182.08329,-55132548.54913,   0.00351,  -0.00309,  -0.00237,477980736.79496,   0.00312,277980742.92282,   0.00213,  -0.00108,  -0.00165,  -6.12786,   1.00000
141894787.70903,-381155690.69205,-54705032.44751,   0.00352,  -0.00310,  -0.00237,477991337.64747,   0.00313,277991343.66280,   0.00213,  -0.00108,  -0.00166,  -6.01533,   1.00000
141645320.82982,-381504478.92780,-54278581.11471,   0.00353,  -0.00310,  -0.00236,478001968.37898,   0.00314,278001969.91651,   0.00214,  -0.00109,  -0.00166,  -1.53753,   1.00000
141415099.81209,-381836278.25928,-53855818.50754,   0.00353,  -0.00311,  -0.00236,478012486.04302,   0.00315,278012492.47879,   0.00214,  -0.00110,  -0.00166,  -6.43576,   1.00000
141207756.84257,-382149139.85693,-53435171.98231,   0.00354,  -0.00312,  -0.00236,478022981.99852,   0.00316,278022987.53276,   0.00215,  -0.00111,  -0.00166,  -5.53424,   1.00000
141010085.46324,-382452611.64819,-53017099.74912,   0.00354,  -0.00313,  -0.00236,478033428.13076,   0.00317,278033431.45487,   0.00215,  -0.00112,  -0.00167,  -3.32411,   1.00000
140844190.47502,-382728906.12511,-52606171.02084,   0.00355,  -0.00314,  -0.00235,478043797.38397,   0.00318,278043802.60031,   0.00216,  -0.00112,  -0.00167,  -5.21634,   1.00000
140678863.60679,-383004409.79105,-52192707.91195,   0.00355,  -0.00315,  -0.00235,478054162.19130,   0.00319,278054167.58687,   0.00217,  -0.00113,  -0.00167,  -5.39557,   1.00000
140532543.81670,-383263411.50506,-51782794.89832,   0.00356,  -0.00316,  -0.00235,478064424.72036,   0.00320,278064428.45153,   0.00217,  -0.00114,  -0.00168,  -3.73117,   1.00000
140408874.87485,-383503890.61584,-51374915.09368,   0.00356,  -0.00316,  -0.00235,478074661.27714,   0.00321,278074661.40475,   0.00218,  -0.00115,  -0.00168,  -0.12761,   1.00000
140307339.88432,-383724910.86799,-50973073.99354,   0.00357,  -0.00317,  -0.00234,478084868.15036,   0.00322,278084873.88903,   0.00218,  -0.00115,  -0.00168,  -5.73867,   1.00000
140215632.05488,-383938067.85871,-50569657.70532,   0.00357,  -0.00318,  -0.00234,478095025.19862,   0.00323,278095027.46557,   0.00219,  -0.00116,  -0.00168,  -2.26695,   1.00000
140133266.27426,-384142372.80903,-50168675.48745,   0.00358,  -0.00319,  -0.00234,478105122.66719,   0.00323,278105129.69126,   0.00219,  -0.00117,  -0.00169,  -7.02407,   1.00000
140082834.56959,-384321141.27176,-49770664.35455,   0.00359,  -0.00320,  -0.00234,478115145.24718,   0.00324,278115150.96038,   0.00220,  -0.00118,  -0.00169,  -5.71320,   1.00000
140041196.93317,-384490243.71875,-49379068.12686,   0.00359,  -0.00321,  -0.00233,478125125.25500,   0.00325,278125128.01856,   0.00220,  -0.00118,  -0.00169,  -2.76355,   1.00000
140009203.10399,-384651707.48520,-48985797.16027,   0.00360,  -0.00321,  -0.00233,478135040.58265,   0.00326,278135046.48225,   0.00221,  -0.00119,  -0.00169,  -5.89960,   1.00000
140009008.94813,-384787853.23894,-48595417.15453,   0.00360,  -0.00322,  -0.00233,478144877.91819,   0.00327,278144883.99000,   0.00221,  -0.00120,  -0.00170,  -6.07181,   1.00000
140021179.26596,-384912373.03357,-48210001.17479,   0.00361,  -0.00323,  -0.00232,478154747.52784,   0.00328,278154753.28997,   0.00222,  -0.00121,  -0.00170,  -5.76213,   1.00000
140039139.96016,-385031614.48860,-47824231.06407,   0.00361,  -0.00324,  -0.00232,478164482.42999,   0.00329,278164488.07879,   0.00223,  -0.00121,  -0.00170,  -5.64879,   1.00000
140101508.05322,-385115322.69736,-47444891.44306,   0.00362,  -0.00325,  -0.00232,478174168.05126,   0.00330,278174172.18531,   0.00223,  -0.00122,  -0.00170,  -4.13406,   1.00000
140150595.12106,-385208440.75501,-47063228.97590,   0.00363,  -0.00325,  -0.00232,478183821.26968,   0.00331,278183827.69213,   0.00224,  -0.00123,  -0.00170,  -6.42245,   1.00000
140230860.93987,-385275612.81035,-46688374.78046,   0.00363,  -0.00326,  -0.00231,478193408.66305,   0.00332,278193409.16895,   0.00224,  -0.00123,  -0.00171,  -0.50590,   1.00000
140333570.10612,-385326054.48745,-46311271.32736,   0.00364,  -0.00327,  -0.00231,478202950.22364,   0.00333,278202956.03013,   0.00225,  -0.00124,  -0.00171,  -5.80649,   1.00000
140441012.15414,-385369647.98666,-45941739.75188,   0.00364,  -0.00328,  -0.00231,478212376.72740,   0.00334,278212382.37517,   0.00225,  -0.00125,  -0.00171,  -5.64777,   1.00000
140574501.69253,-385394380.97936,-45568595.34248,   0.00365,  -0.00328,  -0.00231,478221845.09107,   0.00335,278221850.35415,   0.00226,  -0.00126,  -0.00171,  -5.26309,   1.00000
140722135.82550,-385405115.88202,-45203874.97791,   0.00365,  -0.00329,  -0.00230,478231141.67040,   0.00336,278231145.11868,   0.00226,  -0.00126,  -0.00172,  -3.44828,   1.00000
140882545.79460,-385406546.87830,-44835914.07006,   0.00366,  -0.00330,  -0.00230,478240453.27412,   0.00336,278240458.51695,   0.00227,  -0.00127,  -0.00172,  -5.24283,   1.00000
141060719.28504,-385391859.65612,-44475009.98161,   0.00367,  -0.00331,  -0.00230,478249667.51969,   0.00337,278249674.84689,   0.00227,  -0.00128,  -0.00172,  -7.32720,   1.00000
141260673.50452,-385359792.28888,-44115786.01595,   0.00367,  -0.00331,  -0.00229,478258861.83069,   0.00338,278258863.71629,   0.00228,  -0.00128,  -0.00172,  -1.88560,   1.00000
141478696.08495,-385312605.05936,-43759492.83257,   0.00368,  -0.00332,  -0.00229,478267947.54752,   0.00339,278267949.27993,   0.00228,  -0.00129,  -0.00172,  -1.73241,   1.00000
141718774.14237,-385248981.34598,-43400779.35515,   0.00368,  -0.00333,  -0.00229,478276995.99122,   0.00340,278277001.44673,   0.00229,  -0.00130,  -0.00173,  -5.45551,   1.00000
141953810.92201,-385186208.33539,-43048529.56670,   0.00369,  -0.00333,  -0.00229,478285978.68686,   0.00341,278285986.08781,   0.00229,  -0.00130,  -0.00173,  -7.40095,   1.00000
142219985.29041,-385098905.53591,-42698740.18941,   0.00370,  -0.00334,  -0.00228,478294887.26403,   0.00342,278294891.14404,   0.00230,  -0.00131,  -0.00173,  -3.88000,   1.00000
142507704.23308,-384994387.41438,-42350531.99947,   0.00370,  -0.00335,  -0.00228,478303766.53474,   0.00343,278303769.51060,   0.00230,  -0.00132,  -0.00173,  -2.97585,   1.00000
142803787.80202,-384882195.60075,-42004267.09767,   0.00371,  -0.00335,  -0.00228,478312593.45081,   0.00343,278312597.86164,   0.00231,  -0.00132,  -0.00173,  -4.41083,   1.00000
143117740.81555,-384755071.38030,-41660760.29855,   0.00371,  -0.00336,  -0.00228,478321320.99483,   0.00344,278321323.72446,   0.00231,  -0.00133,  -0.00173,  -2.72962,   1.00000
143449528.99577,-384613035.16734,-41319974.79752,   0.00372,  -0.00337,  -0.00227,478329942.48942,   0.00345,278329947.32248,   0.00232,  -0.00134,  -0.00174,  -4.83306,   1.00000
143802700.66559,-384453884.36642,-40980687.89899,   0.00373,  -0.00337,  -0.00227,478338544.46243,   0.00346,278338544.87850,   0.00232,  -0.00134,  -0.00174,  -0.41608,   1.00000
144164090.53351,-384287159.21091,-40643250.75228,   0.00373,  -0.00338,  -0.00227,478347087.41690,   0.00347,278347093.04963,   0.00233,  -0.00135,  -0.00174,  -5.63273,   1.00000
144556321.90387,-384096048.91262,-40308087.90608,   0.00374,  -0.00339,  -0.00227,478355561.20235,   0.00347,278355563.13622,   0.00233,  -0.00136,  -0.00174,  -1.93387,   1.00000
144943595.73662,-383906953.93245,-39975092.16102,   0.00374,  -0.00339,  -0.00226,478363955.09472,   0.00348,278363960.45944,   0.00234,  -0.00136,  -0.00174,  -5.36472,   1.00000
145361662.07755,-383693474.26909,-39644313.74705,   0.00375,  -0.00340,  -0.00226,478372272.38221,   0.00349,278372280.17885,   0.00234,  -0.00137,  -0.00174,  -7.79664,   1.00000
145800890.81364,-383462956.45543,-39314938.92833,   0.00376,  -0.00341,  -0.00226,478380573.02700,   0.00350,278380574.93703,   0.00235,  -0.00138,  -0.00175,  -1.91004,   1.00000
146247792.63085,-383224181.52957,-38991387.83160,   0.00376,  -0.00341,  -0.00225,478388822.78433,   0.00351,278388826.83473,   0.00235,  -0.00138,  -0.00175,  -4.05041,   1.00000
146712640.70084,-382971382.37956,-38666241.24553,   0.00377,  -0.00342,  -0.00225,478396964.99983,   0.00351,278396972.45619,   0.00235,  -0.00139,  -0.00175,  -7.45636,   1.00000
147195053.97210,-382703780.91504,-38343557.46902,   0.00377,  -0.00342,  -0.00225,478405013.27408,   0.00352,278405017.66511,   0.00236,  -0.00139,  -0.00175,  -4.39103,   1.00000
147685424.52283,-382428725.95975,-38022544.67658,   0.00378,  -0.00343,  -0.00225,478413007.25401,   0.00353,278413014.91567,   0.00236,  -0.00140,  -0.00175,  -7.66167,   1.00000
148206023.00688,-382128524.03271,-37707675.15871,   0.00379,  -0.00343,  -0.00224,478420933.12996,   0.00354,278420941.74582,   0.00237,  -0.00141,  -0.00175,  -8.61586,   1.00000
148734850.78381,-381821652.07433,-37390337.86732,   0.00379,  -0.00344,  -0.00224,478428812.23360,   0.00355,278428815.57080,   0.00237,  -0.00141,  -0.00176,  -3.33720,   1.00000
149284220.49618,-381497005.43583,-37078357.96742,   0.00380,  -0.00345,  -0.00224,478436663.11483,   0.00355,278436671.65254,   0.00238,  -0.00142,  -0.00176,  -8.53771,   1.00000
149847955.22074,-381160479.93464,-36765674.71042,   0.00381,  -0.00345,  -0.00224,478444337.60652,   0.00356,278444347.04721,   0.00238,  -0.00142,  -0.00176,  -9.44068,   1.00000
150422553.05953,-380813599.46771,-36457580.83099,   0.00381,  -0.00346,  -0.00223,478452047.21097,   0.00357,278452057.05533,   0.00239,  -0.00143,  -0.00176,  -9.84437,   1.00000
151037514.00522,-380435552.45645,-36148033.53339,   0.00382,  -0.00346,  -0.00223,478459633.90545,   0.00357,278459635.77165,   0.00239,  -0.00144,  -0.00176,  -1.86620,   1.00000
151637210.03184,-380066420.68891,-35843725.97894,   0.00383,  -0.00347,  -0.00223,478467195.67567,   0.00358,278467200.79993,   0.00239,  -0.00144,  -0.00176,  -5.12426,   1.00000
152277240.77728,-379666023.98619,-35537896.26039,   0.00383,  -0.00347,  -0.00223,478474626.90258,   0.00359,278474635.42362,   0.00240,  -0.00145,  -0.00176,  -8.52104,   1.00000
152924599.82449,-379257488.36039,-35237642.34693,   0.00384,  -0.00348,  -0.00222,478482026.47683,   0.00360,278482029.29805,   0.00240,  -0.00145,  -0.00177,  -2.82122,   1.00000
153579611.71084,-378841500.39245,-34938840.26055,   0.00384,  -0.00348,  -0.00222,478489370.58134,   0.00360,278489377.53261,   0.00241,  -0.00146,  -0.00177,  -6.95127,   1.00000
154252265.83989,-378411251.93386,-34638058.78901,   0.00385,  -0.00349,  -0.00222,478496620.14168,   0.00361,278496623.63130,   0.00241,  -0.00146,  -0.00177,  -3.48961,   1.00000
154954816.30884,-377955666.87377,-34343148.63589,   0.00386,  -0.00349,  -0.00222,478503801.16284,   0.00362,278503802.88059,   0.00241,  -0.00147,  -0.00177,  -1.71775,   1.00000
155664923.40149,-377492596.51863,-34049627.01104,   0.00386,  -0.00350,  -0.00221,478510936.36870,   0.00362,278510937.35219,   0.00242,  -0.00147,  -0.00177,  -0.98349,   1.00000
156392265.59424,-377014481.98015,-33758140.99443,   0.00387,  -0.00350,  -0.00221,478517967.90651,   0.00363,278517975.85489,   0.00242,  -0.00148,  -0.00177,  -7.94838,   1.00000
157127462.40249,-376529511.67563,-33463900.47469,   0.00388,  -0.00350,  -0.00221,478524959.84840,   0.00364,278524965.17822,   0.00243,  -0.00149,  -0.00177,  -5.32982,   1.00000
157892446.17063,-376019063.79880,-33175437.90051,   0.00388,  -0.00351,  -0.00220,478531879.53105,   0.00364,278531889.21170,   0.00243,  -0.00149,  -0.00177,  -9.68064,   1.00000
158661725.64264,-375503179.69271,-32889248.45309,   0.00389,  -0.00351,  -0.00220,478538683.50323,   0.00365,278538693.04572,   0.00243,  -0.00150,  -0.00177,  -9.54249,   1.00000
159451349.29261,-374969991.47621,-32604028.59392,   0.00390,  -0.00352,  -0.00220,478545469.54881,   0.00366,278545478.79515,   0.00244,  -0.00150,  -0.00178,  -9.24634,   1.00000
160258136.09156,-374421576.76941,-32320712.67819,   0.00390,  -0.00352,  -0.00220,478552167.21235,   0.00366,278552170.31403,   0.00244,  -0.00151,  -0.00178,  -3.10168,   1.00000
161082070.76631,-373857878.56275,-32039270.33774,   0.00391,  -0.00353,  -0.00219,478558766.15972,   0.00367,278558768.06569,   0.00245,  -0.00151,  -0.00178,  -1.90597,   1.00000
161926216.75469,-373276764.59743,-31758742.27927,   0.00391,  -0.00353,  -0.00219,478565345.68226,   0.00368,278565349.09799,   0.00245,  -0.00152,  -0.00178,  -3.41573,   1.00000
162777703.31668,-372687961.75721,-31479427.81428,   0.00392,  -0.00353,  -0.00219,478571887.10888,   0.00368,278571888.04993,   0.00245,  -0.00152,  -0.00178,  -0.94105,   1.00000
163643264.80191,-372085801.27101,-31202832.34110,   0.00393,  -0.00354,  -0.00219,478578256.05356,   0.00369,278578257.67105,   0.00246,  -0.00153,  -0.00178,  -1.61750,   1.00000
164528951.91309,-371466100.04159,-30927096.14668,   0.00393,  -0.00354,  -0.00218,478584604.26242,   0.00370,278584611.79278,   0.00246,  -0.00153,  -0.00178,  -7.53036,   1.00000
165421940.07891,-370838616.25889,-30652515.03323,   0.00394,  -0.00354,  -0.00218,478590922.35393,   0.00370,278590924.70914,   0.00247,  -0.00153,  -0.00178,  -2.35521,   1.00000
166354559.83274,-370177986.48966,-30379943.32429,   0.00395,  -0.00355,  -0.00218,478597116.71730,   0.00371,278597121.89493,   0.00247,  -0.00154,  -0.00178,  -5.17764,   1.00000
167281657.07960,-369519281.10381,-30108786.07861,   0.00395,  -0.00355,  -0.00218,478603245.46127,   0.00371,278603252.54883,   0.00247,  -0.00154,  -0.00178,  -7.08756,   1.00000
168228426.36379,-368842284.49315,-29842542.30911,   0.00396,  -0.00356,  -0.00217,478609364.05181,   0.00372,278609373.78288,   0.00248,  -0.00155,  -0.00179,  -9.73107,   1.00000
169189659.45669,-368152102.67987,-29574694.13535,   0.00397,  -0.00356,  -0.00217,478615323.67336,   0.00372,278615323.71008,   0.00248,  -0.00155,  -0.00179,  -0.03673,   1.00000
170170790.42332,-367444076.79734,-29307600.31812,   0.00397,  -0.00356,  -0.00217,478621251.91108,   0.00373,278621261.05494,   0.00248,  -0.00156,  -0.00179,  -9.14386,   1.00000
171159094.79277,-366728028.31870,-29041549.83897,   0.00398,  -0.00356,  -0.00217,478627156.24807,   0.00374,278627159.38176,   0.00249,  -0.00156,  -0.00179,  -3.13368,   1.00000
172164414.63295,-365996006.15636,-28777078.58428,   0.00399,  -0.00357,  -0.00216,478632960.73479,   0.00374,278632969.01567,   0.00249,  -0.00157,  -0.00179,  -8.28088,   1.00000
173186750.85719,-365247950.41475,-28514161.10378,   0.00399,  -0.00357,  -0.00216,478638688.25512,   0.00375,278638690.33809,   0.00249,  -0.00157,  -0.00179,  -2.08297,   1.00000
174238409.96171,-364473354.42433,-28256600.10164,   0.00400,  -0.00357,  -0.00216,478644349.89617,   0.00375,278644355.23140,   0.00250,  -0.00158,  -0.00179,  -5.33523,   1.00000
