# sigma_xx, sigma_yy, sigma_xy, epsilon_xx, epsilon_yy, epsilon_xy, vonMises, epsPlastic, hardening, epsilonP__xx, epsilonP__yy, epsilonP__xy, yieldValue, iteration
   0.00000,   0.00000,   0.00000,   0.00000,   0.00000,   0.00000,   0.00000,   0.00000,274640135.82653,   0.00000,   0.00000,   0.00000,-474640135.82653,   0.00000
   0.00000,   0.00000,   0.00000,   0.00000,   0.00000,   0.00000,   0.00000,   0.00000,274640135.82653,   0.00000,   0.00000,   0.00000,-474640135.82653,   0.00000
-2165432.62451,-2133292.62266,-413802.52379,  -0.00001,  -0.00001,  -0.00001,2265884.37670,   0.00000,274640135.82653,   0.00000,   0.00000,   0.00000,-472374251.44983,   0.00000
-4330865.24902,-4266585.24533,-831622.54782,  -0.00001,  -0.00001,  -0.00001,4533974.62234,   0.00000,274640135.82653,   0.00000,   0.00000,   0.00000,-470106161.20419,   0.00000
-6502324.12388,-6413939.11880,-1245425.07161,  -0.00002,  -0.00002,  -0.00002,6809300.53658,   0.00000,274640135.82653,   0.00000,   0.00000,   0.00000,-467830835.28995,   0.00000
-8653695.49759,-8541205.49112,-1663245.09564,  -0.00002,  -0.00002,  -0.00002,9067789.04963,   0.00000,274640135.82653,   0.00000,   0.00000,   0.00000,-465572346.77690,   0.00000
-10811093.12164,-10682533.11425,-2081065.11966,  -0.00003,  -0.00003,  -0.00003,11335734.82600,   0.00000,274640135.82653,   0.00000,   0.00000,   0.00000,-463304401.00053,   0.00000
-12954429.49488,-12817834.48703,-2494867.64345,  -0.00003,  -0.00003,  -0.00003,13591890.41342,   0.00000,274640135.82653,   0.00000,   0.00000,   0.00000,-461048245.41311,   0.00000
-15097765.86812,-14953135.85981,-2912687.66748,  -0.00004,  -0.00004,  -0.00004,15850271.61880,   0.00000,274640135.82653,   0.00000,   0.00000,   0.00000,-458789864.20773,   0.00000
-17247128.49171,-17102498.48339,-3326490.19127,  -0.00005,  -0.00004,  -0.00004,18115918.90271,   0.00000,274640135.82653,   0.00000,   0.00000,   0.00000,-456524216.92382,   0.00000
-19390464.86495,-19237799.85617,-3744310.21530,  -0.00005,  -0.00005,  -0.00005,20374316.32620,   0.00000,274640135.82653,   0.00000,   0.00000,   0.00000,-454265819.50033,   0.00000
-21525766.23773,-21381136.22942,-4162130.23932,  -0.00006,  -0.00006,  -0.00005,22632636.66916,   0.00000,274640135.82653,   0.00000,   0.00000,   0.00000,-452007499.15737,   0.00000
-23661067.61051,-23524472.60266,-4575932.76312,  -0.00006,  -0.00006,  -0.00006,24888758.04268,   0.00000,274640135.82653,   0.00000,   0.00000,   0.00000,-449751377.78385,   0.00000
-25796368.98329,-25667808.97590,-4993752.78714,  -0.00007,  -0.00007,  -0.00006,27147108.49626,   0.00000,274640135.82653,   0.00000,   0.00000,   0.00000,-447493027.33027,   0.00000
-27917609.10526,-27805119.09879,-5411572.81117,  -0.00007,  -0.00007,  -0.00007,29395925.92518,   0.00000,274640135.82653,   0.00000,   0.00000,   0.00000,-445244209.90135,   0.00000
-30044875.47758,-29956490.47250,-5829392.83519,  -0.00008,  -0.00008,  -0.00008,31654261.96236,   0.00000,274640135.82653,   0.00000,   0.00000,   0.00000,-442985873.86417,   0.00000
-32172141.84990,-32107861.84620,-6247212.85921,  -0.00008,  -0.00008,  -0.00008,33912620.41271,   0.00000,274640135.82653,   0.00000,   0.00000,   0.00000,-440727515.41382,   0.00000
-34293381.97187,-34245171.96910,-6665032.88324,  -0.00009,  -0.00009,  -0.00009,36161486.10382,   0.00000,274640135.82653,   0.00000,   0.00000,   0.00000,-438478649.72271,   0.00000
-36412613.34373,-36404578.34326,-7082852.90726,  -0.00009,  -0.00009,  -0.00009,38419868.76128,   0.00000,274640135.82653,   0.00000,   0.00000,   0.00000,-436220267.06525,   0.00000
-38525818.46523,-38549923.46662,-7500672.93129,  -0.00010,  -0.00010,  -0.00010,40668762.18477,   0.00000,274640135.82653,   0.00000,   0.00000,   0.00000,-433971373.64176,   0.00000
-40639023.58674,-40695268.58998,-7918492.95531,  -0.00011,  -0.00011,  -0.00010,42917673.93100,   0.00000,274640135.82653,   0.00000,   0.00000,   0.00000,-431722461.89553,   0.00000
-42744193.70779,-42848648.71380,-8336312.97934,  -0.00011,  -0.00011,  -0.00011,45166626.99224,   0.00000,274640135.82653,   0.00000,   0.00000,   0.00000,-429473508.83429,   0.00000
-44863425.07965,-45008055.08796,-8754133.00336,  -0.00012,  -0.00012,  -0.00011,47425108.95275,   0.00000,274640135.82653,   0.00000,   0.00000,   0.00000,-427215026.87378,   0.00000
-46968595.20069,-47161435.21178,-9175970.52762,  -0.00012,  -0.00012,  -0.00012,49676340.97019,   0.00000,274640135.82653,   0.00000,   0.00000,   0.00000,-424963794.85633,   0.00000
-49065730.32128,-49322850.33606,-9593790.55164,  -0.00013,  -0.00013,  -0.00012,51925429.56408,   0.00000,274640135.82653,   0.00000,   0.00000,   0.00000,-422714706.26245,   0.00000
-51170900.44233,-51476230.45988,-10015628.07590,  -0.00013,  -0.00013,  -0.00013,54176717.39495,   0.00000,274640135.82653,   0.00000,   0.00000,   0.00000,-420463418.43157,   0.00000
-53268035.56291,-53637645.58416,-10433448.09992,  -0.00014,  -0.00014,  -0.00014,56425872.98232,   0.00000,274640135.82653,   0.00000,   0.00000,   0.00000,-418214262.84421,   0.00000
-55365170.68350,-55799060.70845,-10855285.62418,  -0.00014,  -0.00015,  -0.00014,58677290.82535,   0.00000,274640135.82653,   0.00000,   0.00000,   0.00000,-415962845.00118,   0.00000
-57462305.80408,-57960475.83273,-11277123.14843,  -0.00015,  -0.00015,  -0.00015,60928739.35790,   0.00000,274640135.82653,   0.00000,   0.00000,   0.00000,-413711396.46863,   0.00000
-59545379.67386,-60115864.70666,-11698960.67269,  -0.00015,  -0.00016,  -0.00015,63170756.55726,   0.00000,274640135.82653,   0.00000,   0.00000,   0.00000,-411469379.26927,   0.00000
-61648541.04479,-62291341.08175,-12120798.19695,  -0.00016,  -0.00016,  -0.00016,65431832.74290,   0.00000,274640135.82653,   0.00000,   0.00000,   0.00000,-409208303.08363,   0.00000
-63737641.16491,-64460791.20650,-12542635.72120,  -0.00016,  -0.00017,  -0.00016,67683490.28835,   0.00000,274640135.82653,   0.00000,   0.00000,   0.00000,-406956645.53818,   0.00000
-65812680.03423,-66624215.08089,-12964473.24546,  -0.00017,  -0.00017,  -0.00017,69925742.31554,   0.00000,274640135.82653,   0.00000,   0.00000,   0.00000,-404714393.51099,   0.00000
-67901780.15435,-68793665.20564,-13386310.76971,  -0.00017,  -0.00018,  -0.00017,72177473.89470,   0.00000,274640135.82653,   0.00000,   0.00000,   0.00000,-402462661.93183,   0.00000
-69976819.02367,-70957089.08003,-13808148.29397,  -0.00018,  -0.00019,  -0.00018,74419803.73736,   0.00000,274640135.82653,   0.00000,   0.00000,   0.00000,-400220332.08917,   0.00000
-72071945.39414,-73140600.45558,-14234003.31846,  -0.00019,  -0.00019,  -0.00019,76683426.74385,   0.00000,274640135.82653,   0.00000,   0.00000,   0.00000,-397956709.08268,   0.00000
-74153010.51380,-75318085.58079,-14655840.84271,  -0.00019,  -0.00020,  -0.00019,78935424.26746,   0.00000,274640135.82653,   0.00000,   0.00000,   0.00000,-395704711.55907,   0.00000
-76234075.63346,-77495570.70600,-15081695.86720,  -0.00020,  -0.00020,  -0.00020,81189698.97080,   0.00000,274640135.82653,   0.00000,   0.00000,   0.00000,-393450436.85573,   0.00000
-78301079.50231,-79667029.58085,-15507550.89168,  -0.00020,  -0.00021,  -0.00020,83434600.97894,   0.00000,274640135.82653,   0.00000,   0.00000,   0.00000,-391205534.84759,   0.00000
-80382144.62197,-81844514.70606,-15933405.91617,  -0.00021,  -0.00022,  -0.00021,85688951.54073,   0.00000,274640135.82653,   0.00000,   0.00000,   0.00000,-388951184.28580,   0.00000
-82455174.74117,-84030034.83173,-16359260.94066,  -0.00021,  -0.00022,  -0.00021,87943548.06031,   0.00000,274640135.82653,   0.00000,   0.00000,   0.00000,-386696587.76622,   0.00000
-84528204.86037,-86215554.95739,-16785115.96514,  -0.00022,  -0.00023,  -0.00022,90198190.64609,   0.00000,274640135.82653,   0.00000,   0.00000,   0.00000,-384441945.18043,   0.00000
-86601234.97957,-88401075.08306,-17210970.98963,  -0.00022,  -0.00023,  -0.00022,92452875.92785,   0.00000,274640135.82653,   0.00000,   0.00000,   0.00000,-382187259.89868,   0.00000
-88660203.84796,-90580568.95838,-17640843.51435,  -0.00023,  -0.00024,  -0.00023,94700462.46120,   0.00000,274640135.82653,   0.00000,   0.00000,   0.00000,-379939673.36533,   0.00000
-90739260.21751,-92780150.33486,-18066698.53884,  -0.00023,  -0.00025,  -0.00023,96964860.77443,   0.00000,274640135.82653,   0.00000,   0.00000,   0.00000,-377675275.05210,   0.00000
-92798229.08590,-94959644.21018,-18496571.06355,  -0.00024,  -0.00025,  -0.00024,99212539.30829,   0.00000,274640135.82653,   0.00000,   0.00000,   0.00000,-375427596.51824,   0.00000
-94863224.20464,-97153199.33631,-18926443.58827,  -0.00024,  -0.00026,  -0.00025,101469899.56456,   0.00000,274640135.82653,   0.00000,   0.00000,   0.00000,-373170236.26197,   0.00000
-96928219.32337,-99346754.46244,-19356316.11299,  -0.00025,  -0.00026,  -0.00025,103727307.10000,   0.00000,274640135.82653,   0.00000,   0.00000,   0.00000,-370912828.72653,   0.00000
-98999240.69246,-101554370.83938,-19786188.63771,  -0.00025,  -0.00027,  -0.00026,105994405.86459,   0.00000,274640135.82653,   0.00000,   0.00000,   0.00000,-368645729.96194,   0.00000
-101064235.81119,-103747925.96551,-20216061.16242,  -0.00026,  -0.00027,  -0.00026,108251902.68218,   0.00000,274640135.82653,   0.00000,   0.00000,   0.00000,-366388233.14435,   0.00000
-103121195.92947,-105949516.09210,-20649951.18737,  -0.00026,  -0.00028,  -0.00027,110511997.78590,   0.00000,274640135.82653,   0.00000,   0.00000,   0.00000,-364128138.04063,   0.00000
-105192217.29855,-108157132.46904,-21079823.71209,  -0.00027,  -0.00029,  -0.00027,112779236.59184,   0.00000,274640135.82653,   0.00000,   0.00000,   0.00000,-361860899.23469,   0.00000
-107249177.41683,-110358722.59563,-21513713.73704,  -0.00027,  -0.00029,  -0.00028,115039432.92041,   0.00000,274640135.82653,   0.00000,   0.00000,   0.00000,-359600702.90612,   0.00000
-109306137.53510,-112560312.72222,-21947603.76199,  -0.00028,  -0.00030,  -0.00029,117299678.65360,   0.00000,274640135.82653,   0.00000,   0.00000,   0.00000,-357340457.17293,   0.00000
-111369123.90372,-114775964.09962,-22381493.78694,  -0.00028,  -0.00031,  -0.00029,119569640.45904,   0.00000,274640135.82653,   0.00000,   0.00000,   0.00000,-355070495.36749,   0.00000
-113432110.27235,-116991615.47702,-22815383.81188,  -0.00029,  -0.00031,  -0.00030,121839653.31731,   0.00000,274640135.82653,   0.00000,   0.00000,   0.00000,-352800482.50922,   0.00000
-115481035.39016,-119201240.60407,-23249273.83683,  -0.00029,  -0.00032,  -0.00030,124100398.11944,   0.00000,274640135.82653,   0.00000,   0.00000,   0.00000,-350539737.70709,   0.00000
-117544021.75878,-121416891.98147,-23687181.36201,  -0.00030,  -0.00032,  -0.00031,126372768.42479,   0.00000,274640135.82653,   0.00000,   0.00000,   0.00000,-348267367.40174,   0.00000
-119592946.87659,-123626517.10852,-24125088.88719,  -0.00030,  -0.00033,  -0.00031,128635877.27908,   0.00000,274640135.82653,   0.00000,   0.00000,   0.00000,-346004258.54745,   0.00000
-121647898.24475,-125850203.48639,-24558978.91214,  -0.00031,  -0.00034,  -0.00032,130906464.51860,   0.00000,274640135.82653,   0.00000,   0.00000,   0.00000,-343733671.30793,   0.00000
-123710884.61338,-128065854.86379,-24996886.43732,  -0.00031,  -0.00034,  -0.00032,133178973.39494,   0.00000,274640135.82653,   0.00000,   0.00000,   0.00000,-341461162.43159,   0.00000
-125765835.98154,-130289541.24165,-25434793.96250,  -0.00032,  -0.00035,  -0.00033,135451922.15296,   0.00000,274640135.82653,   0.00000,   0.00000,   0.00000,-339188213.67357,   0.00000
-127806726.09889,-132507201.36916,-25876718.98791,  -0.00032,  -0.00035,  -0.00034,137717899.40318,   0.00000,274640135.82653,   0.00000,   0.00000,   0.00000,-336922236.42335,   0.00000
-129867703.71739,-134744948.99783,-26314626.51309,  -0.00033,  -0.00036,  -0.00034,140000654.78762,   0.00000,274640135.82653,   0.00000,   0.00000,   0.00000,-334639481.03891,   0.00000
-131922655.08555,-136968635.37570,-26756551.53850,  -0.00033,  -0.00037,  -0.00035,142276024.36810,   0.00000,274640135.82653,   0.00000,   0.00000,   0.00000,-332364111.45843,   0.00000
-133969571.45325,-139200356.75402,-27198476.56391,  -0.00034,  -0.00037,  -0.00035,144551875.24737,   0.00000,274640135.82653,   0.00000,   0.00000,   0.00000,-330088260.57916,   0.00000
-136030549.07176,-141438104.38269,-27640401.58932,  -0.00034,  -0.00038,  -0.00036,146837052.72629,   0.00000,274640135.82653,   0.00000,   0.00000,   0.00000,-327803083.10024,   0.00000
-138077465.43945,-143669825.76101,-28082326.61473,  -0.00035,  -0.00038,  -0.00037,149113014.52075,   0.00000,274640135.82653,   0.00000,   0.00000,   0.00000,-325527121.30578,   0.00000
-140130408.05750,-145915608.39015,-28524251.64014,  -0.00035,  -0.00039,  -0.00037,151398748.61917,   0.00000,274640135.82653,   0.00000,   0.00000,   0.00000,-323241387.20736,   0.00000
-142177324.42520,-148147329.76847,-28970194.16579,  -0.00036,  -0.00040,  -0.00038,153677091.26941,   0.00000,274640135.82653,   0.00000,   0.00000,   0.00000,-320963044.55712,   0.00000
-144230267.04324,-150393112.39760,-29412119.19120,  -0.00036,  -0.00040,  -0.00038,155962936.91574,   0.00000,274640135.82653,   0.00000,   0.00000,   0.00000,-318677198.91079,   0.00000
-146283209.66128,-152638895.02674,-29858061.71684,  -0.00037,  -0.00041,  -0.00039,158251109.84946,   0.00000,274640135.82653,   0.00000,   0.00000,   0.00000,-316389025.97707,   0.00000
-148336152.27933,-154884677.65587,-30304004.24248,  -0.00037,  -0.00042,  -0.00039,160539335.78562,   0.00000,274640135.82653,   0.00000,   0.00000,   0.00000,-314100800.04091,   0.00000
-150389094.89737,-157130460.28500,-30753964.26835,  -0.00038,  -0.00042,  -0.00040,162829888.73366,   0.00000,274640135.82653,   0.00000,   0.00000,   0.00000,-311810247.09287,   0.00000
-152448063.76576,-159390304.16494,-31199906.79399,  -0.00038,  -0.00043,  -0.00041,165127951.92397,   0.00000,274640135.82653,   0.00000,   0.00000,   0.00000,-309512183.90256,   0.00000
-154486945.13300,-161630060.54373,-31649866.81987,  -0.00039,  -0.00043,  -0.00041,167409380.26879,   0.00000,274640135.82653,   0.00000,   0.00000,   0.00000,-307230755.55774,   0.00000
-156531852.75058,-163883878.17332,-32099826.84574,  -0.00039,  -0.00044,  -0.00042,169700606.99602,   0.00000,274640135.82653,   0.00000,   0.00000,   0.00000,-304939528.83051,   0.00000
-158590821.61897,-166143722.05326,-32549786.87161,  -0.00040,  -0.00045,  -0.00042,172001109.20687,   0.00000,274640135.82653,   0.00000,   0.00000,   0.00000,-302639026.61966,   0.00000
-160635729.23655,-168397539.68286,-32999746.89749,  -0.00040,  -0.00045,  -0.00043,174292447.27152,   0.00000,274640135.82653,   0.00000,   0.00000,   0.00000,-300347688.55501,   0.00000
-162686663.10448,-170665418.56326,-33449706.92336,  -0.00041,  -0.00046,  -0.00043,176593591.81984,   0.00000,274640135.82653,   0.00000,   0.00000,   0.00000,-298046544.00669,   0.00000
-164731570.72207,-172919236.19286,-33903684.44946,  -0.00041,  -0.00047,  -0.00044,178887324.06103,   0.00000,274640135.82653,   0.00000,   0.00000,   0.00000,-295752811.76550,   0.00000
-166796565.84080,-175193141.32361,-34357661.97557,  -0.00042,  -0.00047,  -0.00045,181200065.17869,   0.00000,274640135.82653,   0.00000,   0.00000,   0.00000,-293440070.64784,   0.00000
-168847499.70873,-177461020.20401,-34811639.50167,  -0.00042,  -0.00048,  -0.00045,183503659.43739,   0.00000,274640135.82653,   0.00000,   0.00000,   0.00000,-291136476.38914,   0.00000
-170884372.32585,-179722872.83407,-35265617.02777,  -0.00043,  -0.00048,  -0.00046,185798117.96983,   0.00000,274640135.82653,   0.00000,   0.00000,   0.00000,-288842017.85670,   0.00000
-172935306.19378,-181990751.71447,-35719594.55388,  -0.00043,  -0.00049,  -0.00046,188101822.88068,   0.00000,274640135.82653,   0.00000,   0.00000,   0.00000,-286538312.94585,   0.00000
-174992266.31206,-184272691.84568,-36177589.58021,  -0.00044,  -0.00050,  -0.00047,190417636.33415,   0.00000,274640135.82653,   0.00000,   0.00000,   0.00000,-284222499.49237,   0.00000
-177049226.43033,-186554631.97689,-36635584.60655,  -0.00044,  -0.00050,  -0.00048,192733505.62759,   0.00000,274640135.82653,   0.00000,   0.00000,   0.00000,-281906630.19894,   0.00000
-179086099.04745,-188816484.60695,-37093579.63288,  -0.00045,  -0.00051,  -0.00048,195030482.27698,   0.00000,274640135.82653,   0.00000,   0.00000,   0.00000,-279609653.54955,   0.00000
-181143059.16573,-191098424.73816,-37551574.65922,  -0.00045,  -0.00052,  -0.00049,197346458.90074,   0.00000,274640135.82653,   0.00000,   0.00000,   0.00000,-277293676.92579,   0.00000
-183185958.03319,-193374338.61902,-38009569.68555,  -0.00046,  -0.00052,  -0.00049,199653321.38726,   0.00000,274640135.82653,   0.00000,   0.00000,   0.00000,-274986814.43927,   0.00000
-185248944.40181,-195670340.00104,-38471582.21212,  -0.00046,  -0.00053,  -0.00050,201981477.70497,   0.00000,274640135.82653,   0.00000,   0.00000,   0.00000,-272658658.12156,   0.00000
-187291843.26928,-197946253.88191,-38933594.73868,  -0.00047,  -0.00054,  -0.00051,204290747.76191,   0.00000,274640135.82653,   0.00000,   0.00000,   0.00000,-270349388.06462,   0.00000
-189354829.63790,-200242255.26393,-39391589.76502,  -0.00047,  -0.00054,  -0.00051,206616713.26691,   0.00000,274640135.82653,   0.00000,   0.00000,   0.00000,-268023422.55962,   0.00000
-191397728.50537,-202518169.14479,-39857619.79181,  -0.00048,  -0.00055,  -0.00052,208928388.02279,   0.00000,274640135.82653,   0.00000,   0.00000,   0.00000,-265711747.80374,   0.00000
-193446653.62318,-204808144.27647,-40319632.31838,  -0.00048,  -0.00055,  -0.00052,211247607.95282,   0.00000,274640135.82653,   0.00000,   0.00000,   0.00000,-263392527.87371,   0.00000
-195495578.74100,-207098119.40814,-40785662.34518,  -0.00049,  -0.00056,  -0.00053,213569184.15025,   0.00000,274640135.82653,   0.00000,   0.00000,   0.00000,-261070951.67628,   0.00000
-197550530.10916,-209402155.79062,-41247674.87174,  -0.00049,  -0.00057,  -0.00054,215898309.30488,   0.00000,274640135.82653,   0.00000,   0.00000,   0.00000,-258741826.52165,   0.00000
-199599455.22697,-211692130.92230,-41713704.89854,  -0.00050,  -0.00057,  -0.00054,218219995.28569,   0.00000,274640135.82653,   0.00000,   0.00000,   0.00000,-256420140.54084,   0.00000
-201648380.34478,-213982106.05397,-42183752.42557,  -0.00050,  -0.00058,  -0.00055,220544038.24298,   0.00000,274640135.82653,   0.00000,   0.00000,   0.00000,-254096097.58355,   0.00000
-203703331.71294,-216286142.43645,-42649782.45236,  -0.00051,  -0.00059,  -0.00055,222875630.72945,   0.00000,274640135.82653,   0.00000,   0.00000,   0.00000,-251764505.09708,   0.00000
-205758283.08110,-218590178.81894,-43119829.97939,  -0.00051,  -0.00059,  -0.00056,225209583.83860,   0.00000,274640135.82653,   0.00000,   0.00000,   0.00000,-249430551.98793,   0.00000
-207813234.44926,-220894215.20142,-43585860.00619,  -0.00051,  -0.00060,  -0.00057,227541281.89630,   0.00000,274640135.82653,   0.00000,   0.00000,   0.00000,-247098853.93023,   0.00000
-209868185.81742,-223198251.58390,-44055907.53321,  -0.00052,  -0.00061,  -0.00057,229875339.60083,   0.00000,274640135.82653,   0.00000,   0.00000,   0.00000,-244764796.22570,   0.00000
-211923137.18558,-225502287.96638,-44529972.56047,  -0.00052,  -0.00061,  -0.00058,232211758.98950,   0.00000,274640135.82653,   0.00000,   0.00000,   0.00000,-242428376.83703,   0.00000
-213964027.30293,-227800298.09852,-45000020.08750,  -0.00053,  -0.00062,  -0.00059,234536813.77371,   0.00000,274640135.82653,   0.00000,   0.00000,   0.00000,-240103322.05282,   0.00000
-216025004.92144,-230118395.73181,-45474085.11476,  -0.00053,  -0.00063,  -0.00059,236883153.65615,   0.00000,274640135.82653,   0.00000,   0.00000,   0.00000,-237756982.17038,   0.00000
-218079956.28960,-232422432.11429,-45944132.64179,  -0.00054,  -0.00063,  -0.00060,239217412.45488,   0.00000,274640135.82653,   0.00000,   0.00000,   0.00000,-235422723.37165,   0.00000
-220126872.65730,-234734503.49723,-46418197.66905,  -0.00054,  -0.00064,  -0.00060,241554760.38135,   0.00000,274640135.82653,   0.00000,   0.00000,   0.00000,-233085375.44518,   0.00000
-222181824.02545,-237038539.87972,-46896280.19654,  -0.00055,  -0.00065,  -0.00061,243893748.27903,   0.00000,274640135.82653,   0.00000,   0.00000,   0.00000,-230746387.54750,   0.00000
-224228740.39315,-239350611.26266,-47370345.22379,  -0.00055,  -0.00065,  -0.00062,246231204.10341,   0.00000,274640135.82653,   0.00000,   0.00000,   0.00000,-228408931.72312,   0.00000
-226289718.01166,-241668708.89595,-47848427.75128,  -0.00056,  -0.00066,  -0.00062,248580114.77939,   0.00000,274640135.82653,   0.00000,   0.00000,   0.00000,-226060021.04714,   0.00000
-228342660.62970,-243994841.52970,-48322492.77854,  -0.00056,  -0.00066,  -0.00063,250927503.44818,   0.00000,274640135.82653,   0.00000,   0.00000,   0.00000,-223712632.37834,   0.00000
-230403638.24821,-246312939.16299,-48804592.80626,  -0.00057,  -0.00067,  -0.00063,253278834.53482,   0.00000,274640135.82653,   0.00000,   0.00000,   0.00000,-221361301.29171,   0.00000
-232450554.61591,-248625010.54594,-49282675.33375,  -0.00057,  -0.00068,  -0.00064,255618819.49805,   0.00000,274640135.82653,   0.00000,   0.00000,   0.00000,-219021316.32848,   0.00000
-234497470.98360,-250937081.92888,-49760757.86124,  -0.00058,  -0.00068,  -0.00065,257958855.17876,   0.00000,274640135.82653,   0.00000,   0.00000,   0.00000,-216681280.64777,   0.00000
-236564474.85246,-253269240.81298,-50242857.88896,  -0.00058,  -0.00069,  -0.00065,260320165.29949,   0.00000,274640135.82653,   0.00000,   0.00000,   0.00000,-214319970.52704,   0.00000
-238617417.47050,-255595373.44673,-50724957.91669,  -0.00059,  -0.00070,  -0.00066,262672463.31762,   0.00000,274640135.82653,   0.00000,   0.00000,   0.00000,-211967672.50891,   0.00000
-240664333.83820,-257907444.82968,-51207057.94441,  -0.00059,  -0.00070,  -0.00067,265014974.34763,   0.00000,274640135.82653,   0.00000,   0.00000,   0.00000,-209625161.47890,   0.00000
-242717276.45624,-260233577.46343,-51689157.97213,  -0.00060,  -0.00071,  -0.00067,267367374.82529,   0.00000,274640135.82653,   0.00000,   0.00000,   0.00000,-207272761.00124,   0.00000
-244770219.07429,-262559710.09718,-52171257.99985,  -0.00060,  -0.00072,  -0.00068,269719825.43981,   0.00000,274640135.82653,   0.00000,   0.00000,   0.00000,-204920310.38672,   0.00000
-246823161.69233,-264885842.73094,-52657375.52780,  -0.00061,  -0.00072,  -0.00068,272074657.45474,   0.00000,274640135.82653,   0.00000,   0.00000,   0.00000,-202565478.37178,   0.00000
-248876104.31038,-267211975.36469,-53143493.05575,  -0.00061,  -0.00073,  -0.00069,274429539.56100,   0.00000,274640135.82653,   0.00000,   0.00000,   0.00000,-200210596.26553,   0.00000
-250929046.92842,-269538107.99844,-53625593.08347,  -0.00062,  -0.00074,  -0.00070,276782135.27160,   0.00000,274640135.82653,   0.00000,   0.00000,   0.00000,-197858000.55493,   0.00000
-252981989.54646,-271864240.63219,-54115728.11165,  -0.00062,  -0.00074,  -0.00070,279139448.97649,   0.00000,274640135.82653,   0.00000,   0.00000,   0.00000,-195500686.85004,   0.00000
-255040958.41486,-274204434.51676,-54601845.63961,  -0.00063,  -0.00075,  -0.00071,281504325.43536,   0.00000,274640135.82653,   0.00000,   0.00000,   0.00000,-193135810.39117,   0.00000
-257093901.03290,-276530567.15051,-55091980.66779,  -0.00063,  -0.00076,  -0.00072,283861736.15870,   0.00000,274640135.82653,   0.00000,   0.00000,   0.00000,-190778399.66783,   0.00000
-259146843.65094,-278856699.78426,-55578098.19574,  -0.00064,  -0.00076,  -0.00072,286216853.11311,   0.00000,274640135.82653,   0.00000,   0.00000,   0.00000,-188423282.71342,   0.00000
-261205812.51933,-281196893.66882,-56068233.22392,  -0.00064,  -0.00077,  -0.00073,288584210.83760,   0.00000,274640135.82653,   0.00000,   0.00000,   0.00000,-186055924.98893,   0.00000
-263244693.88657,-283517000.05223,-56558368.25211,  -0.00064,  -0.00078,  -0.00074,290932740.24366,   0.00000,274640135.82653,   0.00000,   0.00000,   0.00000,-183707395.58287,   0.00000
-265303662.75496,-285857193.93679,-57052520.78052,  -0.00065,  -0.00078,  -0.00074,293302537.66813,   0.00000,274640135.82653,   0.00000,   0.00000,   0.00000,-181337598.15840,   0.00000
-267356605.37300,-288183326.57054,-57542655.80870,  -0.00065,  -0.00079,  -0.00075,295660176.46176,   0.00000,274640135.82653,   0.00000,   0.00000,   0.00000,-178979959.36477,   0.00000
-269401512.99059,-290517494.20476,-58036808.33712,  -0.00066,  -0.00080,  -0.00075,298021057.17132,   0.00000,274640135.82653,   0.00000,   0.00000,   0.00000,-176619078.65521,   0.00000
-271454455.60863,-292843626.83851,-58526943.36530,  -0.00066,  -0.00080,  -0.00076,300378782.95056,   0.00000,274640135.82653,   0.00000,   0.00000,   0.00000,-174261352.87597,   0.00000
-273499363.22621,-295177794.47272,-59021095.89371,  -0.00067,  -0.00081,  -0.00077,302739760.33815,   0.00000,274640135.82653,   0.00000,   0.00000,   0.00000,-171900375.48838,   0.00000
-275558332.09460,-297517988.35728,-59519265.92236,  -0.00067,  -0.00082,  -0.00077,305112137.07563,   0.00000,274640135.82653,   0.00000,   0.00000,   0.00000,-169527998.75090,   0.00000
-277603239.71219,-299852155.99150,-60013418.45077,  -0.00068,  -0.00082,  -0.00078,307473210.85904,   0.00000,274640135.82653,   0.00000,   0.00000,   0.00000,-167166924.96749,   0.00000
-279656182.33023,-302178288.62525,-60507570.97919,  -0.00068,  -0.00083,  -0.00079,309833455.72967,   0.00000,274640135.82653,   0.00000,   0.00000,   0.00000,-164806680.09686,   0.00000
-281701089.94781,-304512456.25947,-61005741.00783,  -0.00069,  -0.00084,  -0.00079,312196973.99514,   0.00000,274640135.82653,   0.00000,   0.00000,   0.00000,-162443161.83138,   0.00000
-283745997.56539,-306846623.89368,-61503911.03647,  -0.00069,  -0.00084,  -0.00080,314560540.35971,   0.00000,274640135.82653,   0.00000,   0.00000,   0.00000,-160079595.46682,   0.00000
-285790905.18298,-309180791.52790,-62002081.06512,  -0.00070,  -0.00085,  -0.00081,316924153.74722,   0.00000,274640135.82653,   0.00000,   0.00000,   0.00000,-157715982.07931,   0.00000
-287849874.05137,-311520985.41246,-62500251.09376,  -0.00070,  -0.00086,  -0.00081,319296793.10753,   0.00000,274640135.82653,   0.00000,   0.00000,   0.00000,-155343342.71900,   0.00000
-289888755.41860,-313841091.79586,-63002438.62264,  -0.00071,  -0.00086,  -0.00082,321652980.29872,   0.00000,274640135.82653,   0.00000,   0.00000,   0.00000,-152987155.52781,   0.00000
-291933663.03619,-316175259.43008,-63500608.65128,  -0.00071,  -0.00087,  -0.00083,324016725.70998,   0.00000,274640135.82653,   0.00000,   0.00000,   0.00000,-150623410.11655,   0.00000
-293978570.65377,-318509427.06429,-64002796.18016,  -0.00072,  -0.00088,  -0.00083,326382877.58549,   0.00000,274640135.82653,   0.00000,   0.00000,   0.00000,-148257258.24104,   0.00000
-296023478.27135,-320843594.69851,-64504983.70904,  -0.00072,  -0.00088,  -0.00084,328749074.26957,   0.00000,274640135.82653,   0.00000,   0.00000,   0.00000,-145891061.55695,   0.00000
-298068385.88893,-323177762.33272,-65003153.73768,  -0.00073,  -0.00089,  -0.00085,331112948.62424,   0.00000,274640135.82653,   0.00000,   0.00000,   0.00000,-143527187.20229,   0.00000
-300093206.00536,-325491842.46578,-65509358.76679,  -0.00073,  -0.00090,  -0.00085,333462755.83085,   0.00000,274640135.82653,   0.00000,   0.00000,   0.00000,-141177379.99568,   0.00000
-302138113.62294,-327826010.10000,-66011546.29566,  -0.00074,  -0.00090,  -0.00086,335829083.08632,   0.00000,274640135.82653,   0.00000,   0.00000,   0.00000,-138811052.74021,   0.00000
-304183021.24052,-330160177.73421,-66513733.82454,  -0.00074,  -0.00091,  -0.00086,338195451.44464,   0.00000,274640135.82653,   0.00000,   0.00000,   0.00000,-136444684.38189,   0.00000
-306221902.60776,-332480284.11762,-67019938.85365,  -0.00074,  -0.00092,  -0.00087,340554348.66321,   0.00000,274640135.82653,   0.00000,   0.00000,   0.00000,-134085787.16332,   0.00000
-308252748.97453,-334808425.50148,-67526143.88275,  -0.00075,  -0.00092,  -0.00088,342914219.33115,   0.00000,274640135.82653,   0.00000,   0.00000,   0.00000,-131725916.49538,   0.00000
-310297656.59212,-337142593.13570,-68032348.91186,  -0.00075,  -0.00093,  -0.00088,345283084.87504,   0.00000,274640135.82653,   0.00000,   0.00000,   0.00000,-129357050.95149,   0.00000
-312322476.70854,-339456673.26876,-68534536.44074,  -0.00076,  -0.00094,  -0.00089,347630783.45991,   0.00000,274640135.82653,   0.00000,   0.00000,   0.00000,-127009352.36662,   0.00000
-314367384.32612,-341790840.90297,-69044758.97007,  -0.00076,  -0.00094,  -0.00090,350002106.90169,   0.00000,274640135.82653,   0.00000,   0.00000,   0.00000,-124638028.92484,   0.00000
-316392204.44255,-344104921.03603,-69550963.99918,  -0.00077,  -0.00095,  -0.00090,352352265.44860,   0.00000,274640135.82653,   0.00000,   0.00000,   0.00000,-122287870.37793,   0.00000
-318423050.80933,-346433062.41990,-70057169.02829,  -0.00077,  -0.00096,  -0.00091,354712354.14651,   0.00000,274640135.82653,   0.00000,   0.00000,   0.00000,-119927781.68002,   0.00000
-320447870.92575,-348747142.55296,-70567391.55763,  -0.00078,  -0.00096,  -0.00092,357064977.77143,   0.00000,274640135.82653,   0.00000,   0.00000,   0.00000,-117575158.05510,   0.00000
-322472691.04218,-351061222.68602,-71073596.58673,  -0.00078,  -0.00097,  -0.00092,359415260.85712,   0.00000,274640135.82653,   0.00000,   0.00000,   0.00000,-115224874.96941,   0.00000
-324497511.15861,-353375302.81908,-71583819.11607,  -0.00079,  -0.00098,  -0.00093,361767967.90018,   0.00000,274640135.82653,   0.00000,   0.00000,   0.00000,-112872167.92635,   0.00000
-326522331.27503,-355689382.95214,-72094041.64541,  -0.00079,  -0.00098,  -0.00094,364120716.18785,   0.00000,274640135.82653,   0.00000,   0.00000,   0.00000,-110519419.63868,   0.00000
-328547151.39146,-358003463.08520,-72604264.17475,  -0.00080,  -0.00099,  -0.00094,366473504.92578,   0.00000,274640135.82653,   0.00000,   0.00000,   0.00000,-108166630.90075,   0.00000
-330571971.50789,-360317543.21826,-73114486.70408,  -0.00080,  -0.00099,  -0.00095,368826333.33985,   0.00000,274640135.82653,   0.00000,   0.00000,   0.00000,-105813802.48668,   0.00000
-332582730.37351,-362625597.10097,-73628726.73365,  -0.00081,  -0.00100,  -0.00096,371172673.06420,   0.00000,274640135.82653,   0.00000,   0.00000,   0.00000,-103467462.76233,   0.00000
-334607550.48993,-364939677.23403,-74138949.26299,  -0.00081,  -0.00101,  -0.00096,373525582.50024,   0.00000,274640135.82653,   0.00000,   0.00000,   0.00000,-101114553.32628,   0.00000
-336612283.10521,-367233669.86594,-74649171.79233,  -0.00082,  -0.00101,  -0.00097,375859721.06847,   0.00000,274640135.82653,   0.00000,   0.00000,   0.00000,-98780414.75806,   0.00000
-338637103.22163,-369547749.99900,-75163411.82190,  -0.00082,  -0.00102,  -0.00098,378215101.59703,   0.00000,274640135.82653,   0.00000,   0.00000,   0.00000,-96425034.22950,   0.00000
-340641835.83691,-371841742.63090,-75677651.85147,  -0.00082,  -0.00103,  -0.00098,380551716.59551,   0.00000,274640135.82653,   0.00000,   0.00000,   0.00000,-94088419.23102,   0.00000
-342646568.45218,-374135735.26280,-76187874.38080,  -0.00083,  -0.00103,  -0.00099,382885975.26882,   0.00000,274640135.82653,   0.00000,   0.00000,   0.00000,-91754160.55771,   0.00000
-344657327.31780,-376443789.14552,-76702114.41037,  -0.00083,  -0.00104,  -0.00100,385232569.33036,   0.00000,274640135.82653,   0.00000,   0.00000,   0.00000,-89407566.49617,   0.00000
-346662059.93307,-378737781.77742,-77216354.43994,  -0.00084,  -0.00105,  -0.00100,387569306.98426,   0.00000,274640135.82653,   0.00000,   0.00000,   0.00000,-87070828.84227,   0.00000
-348660766.29799,-381017713.15852,-77730594.46951,  -0.00084,  -0.00105,  -0.00101,389896185.93011,   0.00000,274640135.82653,   0.00000,   0.00000,   0.00000,-84743949.89642,   0.00000
-350665498.91327,-383311705.79042,-78244834.49908,  -0.00085,  -0.00106,  -0.00102,392233001.86385,   0.00000,274640135.82653,   0.00000,   0.00000,   0.00000,-82407133.96268,   0.00000
-352670231.52854,-385605698.42233,-78763092.02888,  -0.00085,  -0.00107,  -0.00102,394572261.97325,   0.00000,274640135.82653,   0.00000,   0.00000,   0.00000,-80067873.85328,   0.00000
-354654876.64266,-387879603.55308,-79277332.05845,  -0.00086,  -0.00107,  -0.00103,396890364.66448,   0.00000,274640135.82653,   0.00000,   0.00000,   0.00000,-77749771.16205,   0.00000
-356639521.75677,-390153508.68383,-79791572.08802,  -0.00086,  -0.00108,  -0.00104,399208508.17249,   0.00000,274640135.82653,   0.00000,   0.00000,   0.00000,-75431627.65404,   0.00000
-358638228.12170,-392433440.06492,-80309829.61782,  -0.00087,  -0.00109,  -0.00104,401537988.42775,   0.00000,274640135.82653,   0.00000,   0.00000,   0.00000,-73102147.39878,   0.00000
-360622873.23582,-394707345.19567,-80824069.64738,  -0.00087,  -0.00109,  -0.00105,403856210.60425,   0.00000,274640135.82653,   0.00000,   0.00000,   0.00000,-70783925.22228,   0.00000
-362607518.34993,-396981250.32642,-81342327.17718,  -0.00088,  -0.00110,  -0.00106,406176885.15487,   0.00000,274640135.82653,   0.00000,   0.00000,   0.00000,-68463250.67166,   0.00000
-364592163.46405,-399255155.45717,-81856567.20675,  -0.00088,  -0.00111,  -0.00106,408495185.65198,   0.00000,274640135.82653,   0.00000,   0.00000,   0.00000,-66144950.17455,   0.00000
-366570782.32782,-401514999.33711,-82374824.73655,  -0.00088,  -0.00111,  -0.00107,410806038.14560,   0.00000,274640135.82653,   0.00000,   0.00000,   0.00000,-63834097.68093,   0.00000
-368535339.94078,-403768816.96671,-82893082.26635,  -0.00089,  -0.00112,  -0.00108,413108055.33722,   0.00000,274640135.82653,   0.00000,   0.00000,   0.00000,-61532080.48931,   0.00000
-370513958.80455,-406028660.84665,-83407322.29592,  -0.00089,  -0.00112,  -0.00108,415416567.81750,   0.00000,274640135.82653,   0.00000,   0.00000,   0.00000,-59223568.00903,   0.00000
-372478516.41751,-408282478.47624,-83925579.82572,  -0.00090,  -0.00113,  -0.00109,417718666.57889,   0.00000,274640135.82653,   0.00000,   0.00000,   0.00000,-56921469.24763,   0.00000
-374443074.03048,-410536296.10584,-84443837.35552,  -0.00090,  -0.00114,  -0.00110,420020807.09974,   0.00000,274640135.82653,   0.00000,   0.00000,   0.00000,-54619328.72679,   0.00000
-376401605.39309,-412776052.48462,-84962094.88532,  -0.00091,  -0.00114,  -0.00110,422313085.19410,   0.00000,274640135.82653,   0.00000,   0.00000,   0.00000,-52327050.63243,   0.00000
-378360136.75571,-415015808.86341,-85480352.41512,  -0.00091,  -0.00115,  -0.00111,424605403.21815,   0.00000,274640135.82653,   0.00000,   0.00000,   0.00000,-50034732.60838,   0.00000
-380318668.11832,-417255565.24220,-85998609.94492,  -0.00092,  -0.00116,  -0.00112,426897760.52866,   0.00000,274640135.82653,   0.00000,   0.00000,   0.00000,-47742375.29787,   0.00000
-382263138.23013,-419489295.37063,-86516867.47472,  -0.00092,  -0.00116,  -0.00112,429181297.76435,   0.00000,274640135.82653,   0.00000,   0.00000,   0.00000,-45458838.06218,   0.00000
-384215643.34240,-421714990.49861,-87035125.00452,  -0.00093,  -0.00117,  -0.00113,431463829.73820,   0.00000,274640135.82653,   0.00000,   0.00000,   0.00000,-43176306.08833,   0.00000
-386154087.20386,-423934659.37624,-87553382.53432,  -0.00093,  -0.00118,  -0.00114,433737544.41919,   0.00000,274640135.82653,   0.00000,   0.00000,   0.00000,-40902591.40734,   0.00000
-388092531.06532,-426154328.25387,-88071640.06412,  -0.00093,  -0.00118,  -0.00114,436011299.89080,   0.00000,274640135.82653,   0.00000,   0.00000,   0.00000,-38628835.93573,   0.00000
-390030974.92678,-428373997.13151,-88589897.59392,  -0.00094,  -0.00119,  -0.00115,438285095.51818,   0.00000,274640135.82653,   0.00000,   0.00000,   0.00000,-36355040.30835,   0.00000
-391969418.78824,-430593666.00914,-89108155.12372,  -0.00094,  -0.00119,  -0.00116,440558930.67958,   0.00000,274640135.82653,   0.00000,   0.00000,   0.00000,-34081205.14695,   0.00000
-393887775.14855,-432793247.38561,-89626412.65352,  -0.00095,  -0.00120,  -0.00117,442814054.22303,   0.00000,274640135.82653,   0.00000,   0.00000,   0.00000,-31826081.60350,   0.00000
-395806131.50885,-434992828.76209,-90148687.68355,  -0.00095,  -0.00121,  -0.00117,445071661.30999,   0.00000,274640135.82653,   0.00000,   0.00000,   0.00000,-29568474.51654,   0.00000
-397732522.86962,-437184375.13810,-90666945.21335,  -0.00096,  -0.00121,  -0.00118,447325807.43037,   0.00000,274640135.82653,   0.00000,   0.00000,   0.00000,-27314328.39616,   0.00000
-399650879.22993,-439383956.51458,-91185202.74315,  -0.00096,  -0.00122,  -0.00119,449581055.61624,   0.00000,274640135.82653,   0.00000,   0.00000,   0.00000,-25059080.21029,   0.00000
-401549148.08908,-441563450.38990,-91703460.27295,  -0.00097,  -0.00123,  -0.00119,451817602.13393,   0.00000,274640135.82653,   0.00000,   0.00000,   0.00000,-22822533.69260,   0.00000
-403461478.19904,-443748970.51557,-92221717.80275,  -0.00097,  -0.00123,  -0.00120,454063027.93129,   0.00000,274640135.82653,   0.00000,   0.00000,   0.00000,-20577107.89524,   0.00000
-405353720.80784,-445914403.14008,-92739975.33255,  -0.00097,  -0.00124,  -0.00121,456289754.98025,   0.00000,274640135.82653,   0.00000,   0.00000,   0.00000,-18350380.84628,   0.00000
-407245963.41664,-448079835.76459,-93258232.86235,  -0.00098,  -0.00124,  -0.00121,458516524.81047,   0.00000,274640135.82653,   0.00000,   0.00000,   0.00000,-16123611.01605,   0.00000
-409138206.02545,-450245268.38910,-93776490.39215,  -0.00098,  -0.00125,  -0.00122,460743336.80167,   0.00000,274640135.82653,   0.00000,   0.00000,   0.00000,-13896799.02486,   0.00000
-411030448.63425,-452410701.01362,-94294747.92195,  -0.00099,  -0.00126,  -0.00123,462970190.34548,   0.00000,274640135.82653,   0.00000,   0.00000,   0.00000,-11669945.48105,   0.00000
-412902603.74190,-454556046.13697,-94813005.45175,  -0.00099,  -0.00126,  -0.00123,465178355.33085,   0.00000,274640135.82653,   0.00000,   0.00000,   0.00000,-9461780.49568,   0.00000
-414788820.10036,-456707417.51068,-95331262.98155,  -0.00100,  -0.00127,  -0.00124,467395388.03261,   0.00000,274640135.82653,   0.00000,   0.00000,   0.00000,-7244747.79392,   0.00000
-416654948.95766,-458838701.38323,-95849520.51135,  -0.00100,  -0.00128,  -0.00125,469593735.49920,   0.00000,274640135.82653,   0.00000,   0.00000,   0.00000,-5046400.32733,   0.00000
-418521077.81496,-460969985.25577,-96363760.54092,  -0.00101,  -0.00128,  -0.00125,471789664.83940,   0.00000,274640135.82653,   0.00000,   0.00000,   0.00000,-2850470.98713,   0.00000
-420373145.42146,-463095242.87798,-96882018.07072,  -0.00101,  -0.00129,  -0.00126,473979279.89077,   0.00000,274640135.82653,   0.00000,   0.00000,   0.00000,-660855.93576,   0.00000
-420932116.66954,-463736665.41645,-97038433.01866,  -0.00101,  -0.00129,  -0.00126,474640135.25259,   0.00000,274640135.82653,   0.00000,   0.00000,   0.00000,  -0.57394,   0.00000
-420922521.31501,-463756987.07220,-97035954.75773,  -0.00101,  -0.00129,  -0.00127,474640135.25259,   0.00001,274645637.58642,  -0.00000,  -0.00000,  -0.00000,   0.00000,   2.00000
-420919996.56827,-463781421.32241,-97029159.14380,  -0.00102,  -0.00130,  -0.00127,476831759.70718,   0.00001,274653504.33328,  -0.00001,  -0.00001,  -0.00001,   0.00000,   2.00000
-420904796.04708,-463803661.55445,-97032352.92132,  -0.00102,  -0.00131,  -0.00128,476814558.22370,   0.00002,274661280.04570,  -0.00001,  -0.00002,  -0.00002,   0.00000,   2.00000
-420895917.80927,-463830323.04243,-97027684.17214,  -0.00103,  -0.00131,  -0.00129,476838591.56261,   0.00003,274669113.34619,  -0.00002,  -0.00002,  -0.00002,   0.00000,   2.00000
-420880912.16797,-463852379.84715,-97030901.63362,  -0.00103,  -0.00132,  -0.00129,476830173.10131,   0.00003,274676887.35745,  -0.00002,  -0.00003,  -0.00003,   0.00000,   2.00000
-420870503.98391,-463872150.01073,-97033048.66524,  -0.00104,  -0.00132,  -0.00130,476825581.36617,   0.00004,274684616.05570,  -0.00002,  -0.00003,  -0.00004,  -0.00000,   2.00000
-420857786.76184,-463896406.65176,-97032842.23267,  -0.00104,  -0.00133,  -0.00131,476843219.18173,   0.00005,274692379.55491,  -0.00003,  -0.00004,  -0.00004,  -0.00000,   2.00000
-420849964.61366,-463911467.82926,-97037345.95769,  -0.00104,  -0.00134,  -0.00131,476831173.90854,   0.00005,274700071.00330,  -0.00003,  -0.00004,  -0.00005,   0.00000,   2.00000
-420831209.58909,-463931091.72130,-97044987.62045,  -0.00105,  -0.00134,  -0.00132,476842429.75779,   0.00006,274707774.53253,  -0.00004,  -0.00005,  -0.00006,  -0.00000,   2.00000
-420817068.55478,-463948444.14351,-97051536.81182,  -0.00105,  -0.00135,  -0.00133,476837768.87673,   0.00007,274715432.84141,  -0.00004,  -0.00006,  -0.00006,  -0.00000,   2.00000
-420800992.09987,-463965936.71118,-97059090.88496,  -0.00106,  -0.00135,  -0.00133,476824250.40773,   0.00008,274723014.27480,  -0.00005,  -0.00006,  -0.00007,  -0.00000,   2.00000
-420789468.36296,-463978628.62945,-97067935.47942,  -0.00106,  -0.00136,  -0.00134,476843114.79705,   0.00008,274730635.55241,  -0.00005,  -0.00007,  -0.00008,  -0.00000,   2.00000
-420771509.39456,-463993688.42100,-97078834.65129,  -0.00106,  -0.00136,  -0.00135,476841933.47586,   0.00009,274738224.49641,  -0.00005,  -0.00007,  -0.00008,   0.00000,   2.00000
-420758156.88538,-464006502.91305,-97088626.39706,  -0.00107,  -0.00137,  -0.00135,476837157.53486,   0.00010,274745768.29042,  -0.00006,  -0.00008,  -0.00009,  -0.00000,   2.00000
-420736286.71073,-464019334.99936,-97103880.61422,  -0.00107,  -0.00138,  -0.00136,476838367.61809,   0.00010,274753288.69823,  -0.00006,  -0.00008,  -0.00010,   0.00000,   2.00000
-420716645.14624,-464034483.26598,-97115653.95683,  -0.00108,  -0.00138,  -0.00137,476843433.21504,   0.00011,274760799.62608,  -0.00007,  -0.00009,  -0.00010,  -0.00000,   2.00000
-420701921.76162,-464040487.88953,-97132082.22658,  -0.00108,  -0.00139,  -0.00137,476831138.27816,   0.00012,274768238.76220,  -0.00007,  -0.00010,  -0.00011,   0.00000,   2.00000
-420684908.15195,-464051045.28528,-97146083.05553,  -0.00108,  -0.00139,  -0.00138,476848496.54549,   0.00012,274775712.91360,  -0.00008,  -0.00010,  -0.00012,   0.00000,   2.00000
-420663869.54313,-464059427.36279,-97164467.97211,  -0.00109,  -0.00140,  -0.00139,476837267.35922,   0.00013,274783119.28689,  -0.00008,  -0.00011,  -0.00012,   0.00000,   2.00000
-420645356.82270,-464063248.54496,-97185123.83861,  -0.00109,  -0.00140,  -0.00139,476834779.50455,   0.00014,274790489.56427,  -0.00008,  -0.00011,  -0.00013,   0.00000,   2.00000
-420622516.37903,-464071826.35782,-97204366.94802,  -0.00110,  -0.00141,  -0.00140,476830890.63174,   0.00014,274797818.84731,  -0.00009,  -0.00012,  -0.00014,   0.00000,   2.00000
-420599816.05917,-464080391.72318,-97223523.16819,  -0.00110,  -0.00142,  -0.00141,476838234.65807,   0.00015,274805147.64187,  -0.00009,  -0.00012,  -0.00014,   0.00000,   2.00000
-420577556.14248,-464082042.30296,-97248359.84912,  -0.00110,  -0.00142,  -0.00141,476838140.09913,   0.00016,274812449.28657,  -0.00010,  -0.00013,  -0.00015,   0.00000,   2.00000
-420559911.47144,-464081515.22869,-97272027.98301,  -0.00111,  -0.00143,  -0.00142,476833080.95551,   0.00016,274819706.03325,  -0.00010,  -0.00013,  -0.00015,   0.00000,   2.00000
-420535837.35871,-464083410.97768,-97297682.69304,  -0.00111,  -0.00143,  -0.00143,476831552.05365,   0.00017,274826930.76551,  -0.00010,  -0.00014,  -0.00016,  -0.00000,   2.00000
-420507452.55397,-464090068.97204,-97321904.51580,  -0.00112,  -0.00144,  -0.00143,476827522.67114,   0.00018,274834114.62175,  -0.00011,  -0.00015,  -0.00017,  -0.00000,   2.00000
-420486070.72764,-464087425.94396,-97349690.39713,  -0.00112,  -0.00144,  -0.00144,476836090.65283,   0.00018,274841303.01316,  -0.00011,  -0.00015,  -0.00017,  -0.00000,   2.00000
-420462748.75496,-464085013.84769,-97378393.62901,  -0.00112,  -0.00145,  -0.00145,476822118.06209,   0.00019,274848414.99946,  -0.00012,  -0.00016,  -0.00018,   0.00000,   2.00000
-420433013.64242,-464085026.80219,-97409062.82178,  -0.00113,  -0.00145,  -0.00145,476820451.87614,   0.00020,274855495.08995,  -0.00012,  -0.00016,  -0.00019,   0.00000,   2.00000
-420409990.90930,-464082677.00089,-97437497.00986,  -0.00113,  -0.00146,  -0.00146,476836353.96096,   0.00020,274862606.44549,  -0.00012,  -0.00017,  -0.00019,   0.00000,   2.00000
-420385319.14999,-464073642.02939,-97472620.76862,  -0.00114,  -0.00146,  -0.00147,476814873.73792,   0.00021,274869614.80826,  -0.00013,  -0.00017,  -0.00020,   0.00000,   2.00000
-420351847.99671,-464071611.97322,-97507321.69155,  -0.00114,  -0.00147,  -0.00147,476823018.33331,   0.00022,274876626.93408,  -0.00013,  -0.00018,  -0.00020,   0.00000,   2.00000
-420325411.93590,-464062860.53639,-97543181.90376,  -0.00114,  -0.00147,  -0.00148,476807767.15567,   0.00022,274883558.81934,  -0.00014,  -0.00018,  -0.00021,   0.00000,   2.00000
-420296736.71016,-464058727.71731,-97576518.62102,  -0.00115,  -0.00148,  -0.00148,476824632.43799,   0.00023,274890526.03412,  -0.00014,  -0.00019,  -0.00022,   0.00000,   2.00000
-420266418.31833,-464047904.13208,-97616532.58283,  -0.00115,  -0.00148,  -0.00149,476803017.87508,   0.00023,274897390.38898,  -0.00014,  -0.00019,  -0.00022,  -0.00000,   2.00000
-420236255.73936,-464037149.10948,-97656368.13581,  -0.00115,  -0.00149,  -0.00150,476809913.35140,   0.00024,274904254.60106,  -0.00015,  -0.00020,  -0.00023,  -0.00000,   2.00000
-420201784.43030,-464031203.59410,-97694719.12122,  -0.00116,  -0.00150,  -0.00150,476805534.73006,   0.00025,274911078.20132,  -0.00015,  -0.00020,  -0.00023,   0.00000,   2.00000
-420172240.08170,-464016184.07899,-97737633.29331,  -0.00116,  -0.00150,  -0.00151,476792577.99605,   0.00025,274917830.58673,  -0.00015,  -0.00021,  -0.00024,   0.00000,   2.00000
-420140468.28086,-464005810.07141,-97777991.10243,  -0.00117,  -0.00151,  -0.00152,476809268.69486,   0.00026,274924618.40898,  -0.00016,  -0.00021,  -0.00025,   0.00000,   2.00000
-420107038.52946,-463988752.74360,-97825009.42588,  -0.00117,  -0.00151,  -0.00152,476787488.59273,   0.00027,274931303.53345,  -0.00016,  -0.00022,  -0.00025,   0.00000,   2.00000
-420073769.59124,-463971785.26755,-97871821.69351,  -0.00117,  -0.00152,  -0.00153,476794211.63506,   0.00027,274937988.63268,  -0.00017,  -0.00022,  -0.00026,   0.00000,   2.00000
-420038562.87119,-463955082.42873,-97919497.79942,  -0.00118,  -0.00152,  -0.00154,476779755.82099,   0.00028,274944597.71437,  -0.00017,  -0.00023,  -0.00026,   0.00000,   2.00000
-420003522.08782,-463938465.72218,-97966967.09590,  -0.00118,  -0.00153,  -0.00154,476786403.59960,   0.00028,274951206.79223,  -0.00017,  -0.00023,  -0.00027,   0.00000,   2.00000
-419964441.65006,-463919737.85730,-98018708.15056,  -0.00118,  -0.00153,  -0.00155,476774361.79228,   0.00029,274957748.84390,  -0.00018,  -0.00024,  -0.00027,  -0.00000,   2.00000
-419927642.12761,-463903470.79324,-98066822.44693,  -0.00119,  -0.00154,  -0.00156,476778457.16188,   0.00030,274964281.99009,  -0.00018,  -0.00024,  -0.00028,   0.00000,   2.00000
-419893378.20461,-463882716.60400,-98117104.60568,  -0.00119,  -0.00154,  -0.00156,476775127.76281,   0.00030,274970779.63493,  -0.00018,  -0.00025,  -0.00029,   0.00000,   2.00000
-419848476.51145,-463862222.58800,-98173762.78584,  -0.00119,  -0.00154,  -0.00157,476754197.47013,   0.00031,274977178.82764,  -0.00019,  -0.00025,  -0.00029,  -0.00000,   2.00000
-419812713.28919,-463834883.74748,-98230448.69962,  -0.00120,  -0.00155,  -0.00157,476759528.26944,   0.00031,274983574.14888,  -0.00019,  -0.00026,  -0.00030,   0.00000,   2.00000
-419772628.93906,-463812403.56511,-98285602.62357,  -0.00120,  -0.00155,  -0.00158,476754694.04327,   0.00032,274989929.13263,  -0.00020,  -0.00026,  -0.00030,  -0.00000,   2.00000
-419728491.79685,-463787808.80964,-98345014.26049,  -0.00120,  -0.00156,  -0.00159,476742415.59411,   0.00032,274996217.25942,  -0.00020,  -0.00027,  -0.00031,   0.00000,   2.00000
-419684540.11066,-463763318.56296,-98404177.63624,  -0.00121,  -0.00156,  -0.00159,476748755.76937,   0.00033,275002505.58279,  -0.00020,  -0.00027,  -0.00031,  -0.00000,   2.00000
-419645237.99068,-463736732.08630,-98462075.67387,  -0.00121,  -0.00157,  -0.00160,476742697.86339,   0.00034,275008749.59413,  -0.00021,  -0.00028,  -0.00032,  -0.00000,   2.00000
-419601862.50837,-463708033.77558,-98524230.03781,  -0.00121,  -0.00157,  -0.00161,476730316.04737,   0.00034,275014926.80737,  -0.00021,  -0.00028,  -0.00032,  -0.00000,   2.00000
-419554420.64409,-463677223.20155,-98590627.38165,  -0.00122,  -0.00158,  -0.00161,476717874.77194,   0.00035,275021037.29650,  -0.00021,  -0.00029,  -0.00033,   0.00000,   2.00000
-419509278.27066,-463648914.87016,-98653355.55612,  -0.00122,  -0.00158,  -0.00162,476721541.02154,   0.00035,275027139.07181,  -0.00022,  -0.00029,  -0.00034,   0.00000,   2.00000
-419460065.00617,-463618482.55730,-98720332.03598,  -0.00122,  -0.00159,  -0.00162,476709028.72658,   0.00036,275033174.15108,  -0.00022,  -0.00030,  -0.00034,   0.00000,   2.00000
-419411042.31075,-463588165.69511,-98787037.95621,  -0.00123,  -0.00159,  -0.00163,476715124.92651,   0.00036,275039209.55234,  -0.00022,  -0.00030,  -0.00035,   0.00000,   2.00000
-419369013.76824,-463551170.68165,-98854857.85337,  -0.00123,  -0.00160,  -0.00164,476698924.16278,   0.00037,275045165.25592,  -0.00023,  -0.00030,  -0.00035,   0.00000,   2.00000
-419311813.65616,-463516614.37783,-98930042.66268,  -0.00123,  -0.00160,  -0.00164,476689910.18230,   0.00038,275051067.42864,  -0.00023,  -0.00031,  -0.00036,   0.00000,   2.00000
-419268008.52603,-463480021.29011,-98998411.04580,  -0.00124,  -0.00160,  -0.00165,476689736.31695,   0.00038,275056947.91187,  -0.00023,  -0.00031,  -0.00036,   0.00000,   2.00000
-419209023.27786,-463445850.76714,-99074148.58363,  -0.00124,  -0.00161,  -0.00165,476680656.22495,   0.00039,275062774.90591,  -0.00024,  -0.00032,  -0.00037,   0.00000,   2.00000
-419157042.19354,-463404990.79995,-99150987.02048,  -0.00124,  -0.00161,  -0.00166,476664259.46521,   0.00039,275068522.34043,  -0.00024,  -0.00032,  -0.00037,   0.00000,   2.00000
-419107364.21249,-463366663.46171,-99224135.28688,  -0.00125,  -0.00162,  -0.00167,476667561.48529,   0.00040,275074261.17155,  -0.00024,  -0.00033,  -0.00038,  -0.00000,   2.00000
-419051449.92101,-463323801.93737,-99304917.15013,  -0.00125,  -0.00162,  -0.00167,476657235.90305,   0.00040,275079942.58694,  -0.00025,  -0.00033,  -0.00038,   0.00000,   2.00000
-418993352.21656,-463288204.69399,-99380735.26923,  -0.00125,  -0.00163,  -0.00168,476649188.13688,   0.00041,275085574.93475,  -0.00025,  -0.00033,  -0.00039,  -0.00000,   2.00000
-418935654.79600,-463245715.39517,-99462056.47845,  -0.00125,  -0.00163,  -0.00168,476647531.04794,   0.00041,275091181.37215,  -0.00025,  -0.00034,  -0.00039,   0.00000,   2.00000
-418878297.16878,-463198866.01465,-99546617.75505,  -0.00126,  -0.00163,  -0.00169,476622159.45376,   0.00042,275096676.88688,  -0.00025,  -0.00034,  -0.00040,   0.00000,   2.00000
-418821121.92166,-463152159.80195,-99630863.13450,  -0.00126,  -0.00164,  -0.00170,476627739.07617,   0.00042,275102172.98494,  -0.00026,  -0.00035,  -0.00040,   0.00000,   2.00000
-418759625.69781,-463110321.18370,-99713540.22814,  -0.00126,  -0.00164,  -0.00170,476622030.16022,   0.00043,275107629.13286,  -0.00026,  -0.00035,  -0.00041,   0.00000,   2.00000
-418696323.62531,-463061689.25076,-99802863.23179,  -0.00127,  -0.00165,  -0.00171,476599047.27813,   0.00043,275112983.50591,  -0.00026,  -0.00036,  -0.00041,   0.00000,   2.00000
-418633213.56435,-463013195.34726,-99891859.76277,  -0.00127,  -0.00165,  -0.00171,476604493.25764,   0.00044,275118338.53743,  -0.00027,  -0.00036,  -0.00042,   0.00000,   2.00000
-418568098.74466,-462964938.18329,-99981697.11349,  -0.00127,  -0.00165,  -0.00172,476588768.45476,   0.00044,275123618.21534,  -0.00027,  -0.00036,  -0.00042,   0.00000,   2.00000
-418505486.64698,-462912187.66939,-100073624.69755,  -0.00127,  -0.00166,  -0.00173,476584261.52268,   0.00045,275128863.10074,  -0.00027,  -0.00037,  -0.00042,  -0.00000,   2.00000
-418440851.12995,-462859673.76612,-100166397.13261,  -0.00128,  -0.00166,  -0.00173,476568431.13503,   0.00045,275134032.66067,  -0.00027,  -0.00037,  -0.00043,   0.00000,   2.00000
-418369747.33968,-462809604.15040,-100260983.26045,  -0.00128,  -0.00166,  -0.00174,476564948.06987,   0.00046,275139171.52892,  -0.00028,  -0.00037,  -0.00043,   0.00000,   2.00000
-418298931.74672,-462755110.74781,-100358839.72102,  -0.00128,  -0.00167,  -0.00174,476539142.23276,   0.00046,275144199.65730,  -0.00028,  -0.00038,  -0.00044,  -0.00000,   2.00000
-418228307.43640,-462700750.92550,-100456357.46794,  -0.00128,  -0.00167,  -0.00175,476544275.02501,   0.00047,275149228.56529,  -0.00028,  -0.00038,  -0.00044,   0.00000,   2.00000
-418160168.56733,-462641883.80935,-100555961.74723,  -0.00129,  -0.00168,  -0.00175,476539535.16608,   0.00047,275154222.79469,  -0.00029,  -0.00039,  -0.00045,   0.00000,   2.00000
-418083315.10514,-462585526.04406,-100658570.03816,  -0.00129,  -0.00168,  -0.00176,476514725.73441,   0.00047,275159110.39671,  -0.00029,  -0.00039,  -0.00045,   0.00000,   2.00000
-418006658.93858,-462529294.81384,-100760831.52574,  -0.00129,  -0.00168,  -0.00177,476519726.26234,   0.00048,275163998.84767,  -0.00029,  -0.00039,  -0.00046,   0.00000,   2.00000
-417936919.95999,-462466317.33243,-100864233.22857,  -0.00129,  -0.00169,  -0.00177,476502429.46488,   0.00048,275168808.02076,  -0.00029,  -0.00040,  -0.00046,   0.00000,   2.00000
-417856280.48419,-462403396.84926,-100974031.12814,  -0.00130,  -0.00169,  -0.00178,476480009.18624,   0.00049,275173519.83663,  -0.00030,  -0.00040,  -0.00046,   0.00000,   2.00000
-417777984.04032,-462343037.59110,-101080096.56999,  -0.00130,  -0.00169,  -0.00178,476482281.00121,   0.00049,275178223.34958,  -0.00030,  -0.00040,  -0.00047,   0.00000,   2.00000
-417695466.51380,-462280420.82185,-101190409.85693,  -0.00130,  -0.00170,  -0.00179,476468504.08856,   0.00050,275182860.93574,  -0.00030,  -0.00041,  -0.00047,   0.00000,   2.00000
-417617568.36609,-462215700.29884,-101299435.61816,  -0.00130,  -0.00170,  -0.00179,476460833.60111,   0.00050,275187454.75969,  -0.00030,  -0.00041,  -0.00048,  -0.00000,   2.00000
-417535423.70552,-462148712.89279,-101412714.84012,  -0.00131,  -0.00170,  -0.00180,476446957.89689,   0.00050,275191982.69593,  -0.00031,  -0.00041,  -0.00048,   0.00000,   2.00000
-417451188.91365,-462081889.48934,-101526874.52902,  -0.00131,  -0.00171,  -0.00181,476430451.58314,   0.00051,275196435.52068,  -0.00031,  -0.00042,  -0.00049,  -0.00000,   2.00000
-417362696.03010,-462012775.92449,-101645289.02419,  -0.00131,  -0.00171,  -0.00181,476416451.21346,   0.00051,275200822.53422,  -0.00031,  -0.00042,  -0.00049,   0.00000,   2.00000
-417276548.64280,-461946225.76483,-101759973.34777,  -0.00131,  -0.00171,  -0.00182,476418396.35094,   0.00052,275205201.28374,  -0.00031,  -0.00042,  -0.00049,   0.00000,   2.00000
-417188383.10978,-461872683.78030,-101881375.24019,  -0.00131,  -0.00172,  -0.00182,476394473.71401,   0.00052,275209478.79623,  -0.00032,  -0.00043,  -0.00050,   0.00000,   2.00000
-417093675.11379,-461801513.83650,-102004581.57782,  -0.00132,  -0.00172,  -0.00183,476390176.17350,   0.00052,275213726.03391,  -0.00032,  -0.00043,  -0.00050,   0.00000,   2.00000
-416999098.87070,-461725774.16103,-102131141.02913,  -0.00132,  -0.00172,  -0.00183,476363558.41910,   0.00053,275217862.81325,  -0.00032,  -0.00043,  -0.00050,   0.00000,   2.00000
-416906864.48788,-461652599.19196,-102253969.27783,  -0.00132,  -0.00172,  -0.00184,476365256.11205,   0.00053,275221991.37374,  -0.00032,  -0.00044,  -0.00051,   0.00000,   2.00000
-416810313.71209,-461577075.48676,-102381075.78651,  -0.00132,  -0.00173,  -0.00184,476350968.88485,   0.00054,275226054.24508,  -0.00033,  -0.00044,  -0.00051,   0.00000,   2.00000
-416711615.50840,-461501651.11847,-102509100.46031,  -0.00132,  -0.00173,  -0.00185,476334027.89638,   0.00054,275230042.10474,  -0.00033,  -0.00044,  -0.00052,   0.00000,   2.00000
-416610815.05384,-461419145.40244,-102643873.77747,  -0.00133,  -0.00173,  -0.00185,476309772.10522,   0.00054,275233928.91114,  -0.00033,  -0.00045,  -0.00052,  -0.00000,   2.00000
-416512350.69255,-461339203.32073,-102774917.42288,  -0.00133,  -0.00174,  -0.00186,476311222.83989,   0.00055,275237807.53654,  -0.00033,  -0.00045,  -0.00052,  -0.00000,   2.00000
-416409522.17031,-461256869.12038,-102910253.67001,  -0.00133,  -0.00174,  -0.00186,476296717.14637,   0.00055,275241620.57623,  -0.00033,  -0.00045,  -0.00053,  -0.00000,   2.00000
-416304505.44647,-461174599.96978,-103046529.57764,  -0.00133,  -0.00174,  -0.00187,476279545.04010,   0.00055,275245358.65320,  -0.00034,  -0.00045,  -0.00053,   0.00000,   2.00000
-416195076.65731,-461097105.52844,-103181278.96609,  -0.00133,  -0.00174,  -0.00187,476272139.58896,   0.00056,275249057.19617,  -0.00034,  -0.00046,  -0.00053,   0.00000,   2.00000
-416090231.13578,-461010230.61419,-103320626.97428,  -0.00133,  -0.00175,  -0.00188,476256335.12076,   0.00056,275252686.09492,  -0.00034,  -0.00046,  -0.00054,  -0.00000,   2.00000
-415974207.49189,-460923123.09158,-103466479.39223,  -0.00134,  -0.00175,  -0.00188,476232917.76620,   0.00056,275256218.19158,  -0.00034,  -0.00046,  -0.00054,   0.00000,   2.00000
-415862725.49139,-460833826.80255,-103611096.02783,  -0.00134,  -0.00175,  -0.00189,476224183.56262,   0.00057,275259706.71428,  -0.00034,  -0.00046,  -0.00054,  -0.00000,   2.00000
-415749000.07875,-460744543.97784,-103756688.30571,  -0.00134,  -0.00175,  -0.00189,476206709.60098,   0.00057,275263120.30895,  -0.00035,  -0.00047,  -0.00055,   0.00000,   2.00000
-415630821.43738,-460652772.35981,-103906608.43970,  -0.00134,  -0.00176,  -0.00190,476191799.26777,   0.00057,275266468.48952,  -0.00035,  -0.00047,  -0.00055,   0.00000,   2.00000
-415514971.94956,-460563546.59021,-104052819.37700,  -0.00134,  -0.00176,  -0.00190,476192711.52678,   0.00058,275269808.50932,  -0.00035,  -0.00047,  -0.00055,   0.00000,   2.00000
-415390043.21777,-460469237.66485,-104208076.78883,  -0.00134,  -0.00176,  -0.00191,476159229.69841,   0.00058,275273016.39177,  -0.00035,  -0.00047,  -0.00055,   0.00000,   2.00000
-415269619.50779,-460372706.25719,-104362127.47668,  -0.00134,  -0.00176,  -0.00191,476150182.74397,   0.00058,275276180.70749,  -0.00035,  -0.00048,  -0.00056,   0.00000,   2.00000
-415146889.93024,-460276130.25685,-104517195.21140,  -0.00135,  -0.00176,  -0.00192,476132409.04773,   0.00058,275279270.11631,  -0.00035,  -0.00048,  -0.00056,   0.00000,   2.00000
-415017461.81432,-460181759.60522,-104674118.46091,  -0.00135,  -0.00177,  -0.00192,476127038.36166,   0.00059,275282329.63814,  -0.00036,  -0.00048,  -0.00056,  -0.00000,   2.00000
-414887878.18850,-460082538.40961,-104834585.27164,  -0.00135,  -0.00177,  -0.00193,476099351.98693,   0.00059,275285278.82954,  -0.00036,  -0.00048,  -0.00057,   0.00000,   2.00000
-414753733.52556,-459980717.01158,-104999425.23079,  -0.00135,  -0.00177,  -0.00193,476084044.42588,   0.00059,275288162.76229,  -0.00036,  -0.00049,  -0.00057,   0.00000,   2.00000
-414617230.10222,-459878788.94809,-105165313.59184,  -0.00135,  -0.00177,  -0.00194,476066020.43762,   0.00060,275290971.84166,  -0.00036,  -0.00049,  -0.00057,   0.00000,   2.00000
-414485181.70409,-459774590.14488,-105330039.54343,  -0.00135,  -0.00177,  -0.00194,476056587.38292,   0.00060,275293737.33166,  -0.00036,  -0.00049,  -0.00057,   0.00000,   2.00000
-414348518.38080,-459667746.39022,-105499165.07752,  -0.00135,  -0.00178,  -0.00195,476041120.62171,   0.00060,275296437.59212,  -0.00036,  -0.00049,  -0.00058,   0.00000,   2.00000
-414202609.79508,-459562898.18722,-105671601.33042,  -0.00135,  -0.00178,  -0.00195,476014268.84578,   0.00060,275299031.70568,  -0.00037,  -0.00049,  -0.00058,  -0.00000,   2.00000
-414058898.75745,-459453218.91917,-105846217.29440,  -0.00135,  -0.00178,  -0.00196,476007315.94155,   0.00061,275301591.94535,  -0.00037,  -0.00050,  -0.00058,  -0.00000,   2.00000
-413912749.87760,-459343362.21363,-106021933.57245,  -0.00136,  -0.00178,  -0.00196,475988996.99304,   0.00061,275304077.32778,  -0.00037,  -0.00050,  -0.00058,  -0.00000,   2.00000
-413764147.76564,-459233311.84052,-106198764.27351,  -0.00136,  -0.00178,  -0.00197,475970606.95636,   0.00061,275306487.83771,  -0.00037,  -0.00050,  -0.00059,   0.00000,   2.00000
-413610837.70962,-459120513.58966,-106380035.89990,  -0.00136,  -0.00178,  -0.00197,475954843.96054,   0.00061,275308833.23202,  -0.00037,  -0.00050,  -0.00059,   0.00000,   2.00000
-413461910.96712,-459005375.42907,-106560199.34272,  -0.00136,  -0.00178,  -0.00198,475944971.28492,   0.00061,275311135.02227,  -0.00037,  -0.00050,  -0.00059,  -0.00000,   2.00000
-413303600.34388,-458892106.62038,-106743759.47752,  -0.00136,  -0.00179,  -0.00198,475917774.63055,   0.00062,275313330.65915,  -0.00037,  -0.00050,  -0.00059,   0.00000,   2.00000
-413140519.95187,-458776024.91262,-106931789.63328,  -0.00136,  -0.00179,  -0.00198,475901832.37766,   0.00062,275315461.23538,  -0.00037,  -0.00051,  -0.00059,   0.00000,   2.00000
-412983879.23382,-458652721.93449,-107121293.26083,  -0.00136,  -0.00179,  -0.00199,475881968.77123,   0.00062,275317512.75215,  -0.00038,  -0.00051,  -0.00060,  -0.00000,   2.00000
-412815681.85530,-458536061.66670,-107311681.40136,  -0.00136,  -0.00179,  -0.00199,475864345.95272,   0.00062,275319493.58073,  -0.00038,  -0.00051,  -0.00060,  -0.00000,   2.00000
-412651632.70811,-458409585.38724,-107506874.41623,  -0.00136,  -0.00179,  -0.00200,475847065.69292,   0.00062,275321405.19097,  -0.00038,  -0.00051,  -0.00060,   0.00000,   2.00000
-412475984.14013,-458289709.77492,-107702973.95631,  -0.00136,  -0.00179,  -0.00200,475829324.32434,   0.00062,275323246.13293,  -0.00038,  -0.00051,  -0.00060,   0.00000,   2.00000
-412306698.78071,-458162537.57038,-107900605.30401,  -0.00136,  -0.00179,  -0.00201,475809194.74857,   0.00063,275325007.96472,  -0.00038,  -0.00051,  -0.00060,   0.00000,   2.00000
-412132495.51325,-458032422.45361,-108102771.67756,  -0.00136,  -0.00179,  -0.00201,475792892.79985,   0.00063,275326704.82314,  -0.00038,  -0.00051,  -0.00060,   0.00000,   2.00000
-411948678.56917,-457903963.98007,-108308459.86674,  -0.00136,  -0.00180,  -0.00201,475765192.52433,   0.00063,275328295.56686,  -0.00038,  -0.00052,  -0.00061,   0.00000,   2.00000
-411767057.84413,-457777917.67708,-108510563.95396,  -0.00136,  -0.00180,  -0.00202,475764380.10525,   0.00063,275329878.08394,  -0.00038,  -0.00052,  -0.00061,   0.00000,   2.00000
-411582494.03416,-457643964.80765,-108719822.40827,  -0.00136,  -0.00180,  -0.00202,475738166.49705,   0.00063,275331360.20291,  -0.00038,  -0.00052,  -0.00061,   0.91110,   1.00000
-411397214.48714,-457504649.75978,-108932965.16350,  -0.00136,  -0.00180,  -0.00203,475709121.32007,   0.00063,275332731.95512,  -0.00038,  -0.00052,  -0.00061,   0.78211,   1.00000
-411200161.36032,-457371779.43355,-109147111.44996,  -0.00136,  -0.00180,  -0.00203,475690911.58700,   0.00063,275334033.03731,  -0.00038,  -0.00052,  -0.00061,   0.70511,   1.00000
-411007286.29713,-457236375.73150,-109360303.90561,  -0.00136,  -0.00180,  -0.00203,475680055.57819,   0.00064,275335290.37861,  -0.00038,  -0.00052,  -0.00061,   0.65989,   1.00000
-410811318.31267,-457092929.11129,-109580719.77457,  -0.00136,  -0.00180,  -0.00204,475653588.38137,   0.00064,275336447.37629,  -0.00039,  -0.00052,  -0.00061,   0.55997,   1.00000
-410610490.15013,-456953851.88569,-109799891.94119,  -0.00136,  -0.00180,  -0.00204,475643774.54923,   0.00064,275337564.88301,  -0.00039,  -0.00052,  -0.00062,   0.52352,   1.00000
-410399491.22799,-456808655.21643,-110028614.72361,  -0.00136,  -0.00180,  -0.00205,475608634.05695,   0.00064,275338550.90570,  -0.00039,  -0.00052,  -0.00062,   0.40848,   1.00000
-410194878.15829,-456663461.31668,-110253166.77404,  -0.00136,  -0.00180,  -0.00205,475594702.68053,   0.00064,275339482.99949,  -0.00039,  -0.00052,  -0.00062,   0.36582,   1.00000
-409985031.06367,-456515026.21409,-110482398.65386,  -0.00136,  -0.00180,  -0.00205,475577730.88484,   0.00064,275340350.26211,  -0.00039,  -0.00052,  -0.00062,   0.31740,   1.00000
-409769913.62538,-456363314.66891,-110716320.22551,  -0.00136,  -0.00180,  -0.00206,475560718.14901,   0.00064,275341152.74020,  -0.00039,  -0.00052,  -0.00062,   0.27236,   1.00000
-409547065.89175,-456215508.15217,-110950736.26845,  -0.00136,  -0.00180,  -0.00206,475529483.39276,   0.00064,275341838.81382,  -0.00039,  -0.00053,  -0.00062,   0.19952,   1.00000
-409327878.60717,-456057429.94518,-111190196.14006,  -0.00136,  -0.00180,  -0.00207,475511140.10795,   0.00064,275342455.80423,  -0.00039,  -0.00053,  -0.00062,   0.16172,   1.00000
-409096618.44554,-455905534.27937,-111430819.71534,  -0.00136,  -0.00180,  -0.00207,475492295.74089,   0.00064,275343002.08621,  -0.00039,  -0.00053,  -0.00062,   0.12707,   1.00000
-408871266.41034,-455745942.82978,-111673269.69805,  -0.00136,  -0.00180,  -0.00207,475471016.01012,   0.00064,275343468.98041,  -0.00039,  -0.00053,  -0.00062,   0.09303,   1.00000
-408633389.92392,-455584845.62982,-111922811.51889,  -0.00136,  -0.00180,  -0.00208,475445152.18709,   0.00064,275343839.99320,  -0.00039,  -0.00053,  -0.00062,   0.05888,   1.00000
-408399420.51109,-455420984.75778,-112171570.16790,  -0.00136,  -0.00180,  -0.00208,475433450.25955,   0.00064,275344167.08955,  -0.00039,  -0.00053,  -0.00062,   0.04587,   1.00000
-408155159.06622,-455258185.29621,-112424219.00369,  -0.00136,  -0.00180,  -0.00208,475404646.82317,   0.00064,275344387.94588,  -0.00039,  -0.00053,  -0.00062,   0.02096,   1.00000
-407907655.35790,-455094492.71386,-112678451.95579,  -0.00136,  -0.00180,  -0.00209,475384280.91348,   0.00064,275344533.68649,  -0.00039,  -0.00053,  -0.00062,   0.00915,   1.00000
-407654540.68081,-454927216.03897,-112937522.01410,  -0.00136,  -0.00180,  -0.00209,475366711.68309,   0.00064,275344614.74433,  -0.00039,  -0.00053,  -0.00062,   0.00284,   1.00000
-407393403.16579,-454746428.52857,-113194642.02888,  -0.00136,  -0.00180,  -0.00209,475333656.56020,   0.00064,275344614.74433,  -0.00039,  -0.00053,  -0.00062,-10958.18413,   0.00000
-407112178.14962,-454545553.51702,-113451762.04366,  -0.00136,  -0.00180,  -0.00210,475305020.37294,   0.00064,275344614.74433,  -0.00039,  -0.00053,  -0.00062,-39594.37139,   0.00000
-406810865.63230,-454324591.00432,-113708882.05845,  -0.00135,  -0.00180,  -0.00210,475258733.55487,   0.00064,275344614.74433,  -0.00039,  -0.00053,  -0.00062,-85881.18946,   0.00000
-406489465.61382,-454083540.99046,-113957967.07277,  -0.00135,  -0.00180,  -0.00210,475189043.12944,   0.00064,275344614.74433,  -0.00039,  -0.00053,  -0.00062,-155571.61489,   0.00000
-406147978.09418,-453822403.47544,-114207052.08709,  -0.00135,  -0.00180,  -0.00211,475101730.85361,   0.00064,275344614.74433,  -0.00039,  -0.00053,  -0.00062,-242883.89072,   0.00000
-405772341.82258,-453535152.20893,-114452119.60118,  -0.00135,  -0.00180,  -0.00211,474985441.78774,   0.00064,275344614.74433,  -0.00039,  -0.00053,  -0.00062,-359172.95660,   0.00000
-405384653.05029,-453219778.44079,-114693169.61505,  -0.00135,  -0.00180,  -0.00211,474847461.11663,   0.00064,275344614.74433,  -0.00039,  -0.00053,  -0.00062,-497153.62770,   0.00000
-404962815.52604,-452878290.92116,-114934219.62891,  -0.00135,  -0.00180,  -0.00212,474683457.77951,   0.00064,275344614.74433,  -0.00039,  -0.00053,  -0.00062,-661156.96483,   0.00000
-404520890.50063,-452516715.90037,-115167234.64230,  -0.00135,  -0.00180,  -0.00212,474496090.54628,   0.00064,275344614.74433,  -0.00039,  -0.00053,  -0.00062,-848524.19805,   0.00000
-404072939.22487,-452141079.62877,-115400249.65570,  -0.00135,  -0.00180,  -0.00212,474299666.84954,   0.00064,275344614.74433,  -0.00039,  -0.00053,  -0.00062,-1044947.89479,   0.00000
-403590839.19715,-451739329.60567,-115629247.16887,  -0.00135,  -0.00180,  -0.00212,474074361.95711,   0.00064,275344614.74433,  -0.00039,  -0.00053,  -0.00062,-1270252.78722,   0.00000
-403068564.16712,-451297404.58025,-115854227.18181,  -0.00134,  -0.00179,  -0.00213,473810535.75431,   0.00064,275344614.74433,  -0.00039,  -0.00053,  -0.00062,-1534078.99002,   0.00000
-402546289.13709,-450855479.55484,-116079207.19474,  -0.00134,  -0.00179,  -0.00213,473547384.26014,   0.00064,275344614.74433,  -0.00039,  -0.00053,  -0.00062,-1797230.48419,   0.00000
-401997900.35555,-450379405.77747,-116300169.70745,  -0.00134,  -0.00179,  -0.00213,473254195.93994,   0.00064,275344614.74433,  -0.00039,  -0.00053,  -0.00062,-2090418.80439,   0.00000
-401415362.82206,-449877218.24859,-116513097.21969,  -0.00134,  -0.00179,  -0.00214,472929258.65418,   0.00064,275344614.74433,  -0.00039,  -0.00053,  -0.00062,-2415356.09015,   0.00000
-400806711.53706,-449340881.96775,-116726024.73193,  -0.00134,  -0.00179,  -0.00214,472577296.86181,   0.00064,275344614.74433,  -0.00039,  -0.00053,  -0.00062,-2767317.88253,   0.00000
-400183999.00125,-448798519.43657,-116938952.24418,  -0.00134,  -0.00179,  -0.00214,472217654.80234,   0.00064,275344614.74433,  -0.00039,  -0.00053,  -0.00062,-3126959.94199,   0.00000
-399535172.71395,-448222008.15342,-117143844.75596,  -0.00133,  -0.00179,  -0.00214,471825080.38414,   0.00064,275344614.74433,  -0.00039,  -0.00053,  -0.00062,-3519534.36019,   0.00000
-398872285.17583,-447639470.61992,-117348737.26774,  -0.00133,  -0.00179,  -0.00215,471424856.54896,   0.00064,275344614.74433,  -0.00039,  -0.00053,  -0.00062,-3919758.19538,   0.00000
-398177257.63587,-447008723.08366,-117549612.27929,  -0.00133,  -0.00178,  -0.00215,470985088.46414,   0.00064,275344614.74433,  -0.00039,  -0.00053,  -0.00062,-4359526.28019,   0.00000
-397454107.59429,-446365923.04669,-117746469.79061,  -0.00133,  -0.00178,  -0.00215,470526331.61209,   0.00064,275344614.74433,  -0.00039,  -0.00053,  -0.00062,-4818283.13225,   0.00000
-396710870.05155,-445703035.50858,-117939309.80170,  -0.00133,  -0.00178,  -0.00216,470047352.57939,   0.00064,275344614.74433,  -0.00039,  -0.00053,  -0.00062,-5297262.16494,   0.00000
-395941518.75731,-445005999.21850,-118128132.31256,  -0.00132,  -0.00178,  -0.00216,469538540.86813,   0.00064,275344614.74433,  -0.00039,  -0.00053,  -0.00062,-5806073.87621,   0.00000
-395152079.96192,-444288875.42726,-118316954.82341,  -0.00132,  -0.00178,  -0.00216,469012583.29994,   0.00064,275344614.74433,  -0.00039,  -0.00053,  -0.00062,-6332031.44439,   0.00000
-394342553.66537,-443551664.13487,-118501759.83404,  -0.00132,  -0.00178,  -0.00216,468466470.22168,   0.00064,275344614.74433,  -0.00039,  -0.00053,  -0.00062,-6878144.52265,   0.00000
-393498878.61686,-442788339.09098,-118682547.34443,  -0.00132,  -0.00177,  -0.00216,467891875.26954,   0.00064,275344614.74433,  -0.00039,  -0.00053,  -0.00062,-7452739.47480,   0.00000
-392629089.81685,-441990865.29513,-118859317.35460,  -0.00131,  -0.00177,  -0.00217,467287564.56015,   0.00064,275344614.74433,  -0.00039,  -0.00053,  -0.00062,-8057050.18418,   0.00000
-391759301.01683,-441193391.49927,-119032069.86453,  -0.00131,  -0.00177,  -0.00217,466681095.54334,   0.00064,275344614.74433,  -0.00039,  -0.00053,  -0.00062,-8663519.20099,   0.00000
-390835275.96370,-440349716.45076,-119200804.87423,  -0.00131,  -0.00177,  -0.00217,466028302.16020,   0.00064,275344614.74433,  -0.00039,  -0.00053,  -0.00062,-9316312.58414,   0.00000
-389905224.66022,-439491980.15144,-119369539.88394,  -0.00131,  -0.00177,  -0.00217,465366873.26643,   0.00064,275344614.74433,  -0.00039,  -0.00053,  -0.00062,-9977741.47791,   0.00000
-388934998.35444,-438594068.84981,-119534257.39341,  -0.00130,  -0.00176,  -0.00218,464667540.07636,   0.00064,275344614.74433,  -0.00039,  -0.00053,  -0.00062,-10677074.66798,   0.00000
-387964772.04865,-437696157.54818,-119694957.40265,  -0.00130,  -0.00176,  -0.00218,463966107.78840,   0.00064,275344614.74433,  -0.00039,  -0.00053,  -0.00062,-11378506.95593,   0.00000
-386954370.74055,-436758071.24424,-119851639.91166,  -0.00130,  -0.00176,  -0.00218,463226834.25788,   0.00064,275344614.74433,  -0.00039,  -0.00053,  -0.00062,-12117780.48646,   0.00000
-385909820.68049,-435793871.18880,-120004304.92044,  -0.00130,  -0.00176,  -0.00218,462459352.56793,   0.00064,275344614.74433,  -0.00039,  -0.00053,  -0.00062,-12885262.17640,   0.00000
-384859244.37008,-434815609.88255,-120152952.42898,  -0.00129,  -0.00176,  -0.00218,461680237.22825,   0.00064,275344614.74433,  -0.00039,  -0.00053,  -0.00062,-13664377.51608,   0.00000
-383768493.05736,-433797173.57399,-120301599.93753,  -0.00129,  -0.00175,  -0.00219,460866554.77682,   0.00064,275344614.74433,  -0.00039,  -0.00053,  -0.00062,-14478059.96751,   0.00000
-382663680.49384,-432772711.01508,-120442212.44562,  -0.00129,  -0.00175,  -0.00219,460039447.18958,   0.00064,275344614.74433,  -0.00039,  -0.00053,  -0.00062,-15305167.55476,   0.00000
-381532754.17881,-431714099.70421,-120582824.95370,  -0.00128,  -0.00175,  -0.00219,459186116.88308,   0.00064,275344614.74433,  -0.00039,  -0.00053,  -0.00062,-16158497.86126,   0.00000
-380367679.11182,-430629374.64184,-120719419.96155,  -0.00128,  -0.00174,  -0.00219,458304777.29891,   0.00064,275344614.74433,  -0.00039,  -0.00053,  -0.00062,-17039837.44542,   0.00000
-379190551.54413,-429516527.07785,-120851997.46918,  -0.00128,  -0.00174,  -0.00219,457402370.44670,   0.00064,275344614.74433,  -0.00039,  -0.00053,  -0.00062,-17942244.29763,   0.00000
-377985301.47483,-428391627.01317,-120984574.97680,  -0.00127,  -0.00174,  -0.00219,456484762.16309,   0.00064,275344614.74433,  -0.00039,  -0.00053,  -0.00062,-18859852.58124,   0.00000
-376739876.40322,-427226551.94618,-121109117.48396,  -0.00127,  -0.00174,  -0.00220,455526550.04620,   0.00064,275344614.74433,  -0.00039,  -0.00053,  -0.00062,-19818064.69814,   0.00000
-375488425.08126,-426047415.62838,-121233659.99112,  -0.00127,  -0.00173,  -0.00220,454560101.16806,   0.00064,275344614.74433,  -0.00039,  -0.00053,  -0.00062,-20784513.57628,   0.00000
-374202825.00734,-424842165.55908,-121350167.49782,  -0.00126,  -0.00173,  -0.00220,453562642.64289,   0.00064,275344614.74433,  -0.00039,  -0.00053,  -0.00062,-21781972.10144,   0.00000
-372891111.18191,-423602766.73781,-121466675.00452,  -0.00126,  -0.00173,  -0.00220,452539321.83599,   0.00064,275344614.74433,  -0.00039,  -0.00053,  -0.00062,-22805292.90834,   0.00000
-371565336.10568,-422357341.66620,-121579165.01099,  -0.00126,  -0.00172,  -0.00220,451505986.15752,   0.00064,275344614.74433,  -0.00039,  -0.00053,  -0.00062,-23838628.58682,   0.00000
-370199386.02714,-421071741.59228,-121687637.51723,  -0.00125,  -0.00172,  -0.00220,450435500.53827,   0.00064,275344614.74433,  -0.00039,  -0.00053,  -0.00062,-24909114.20607,   0.00000
-368813348.44744,-419766054.01720,-121792092.52323,  -0.00125,  -0.00172,  -0.00221,449345572.53310,   0.00064,275344614.74433,  -0.00039,  -0.00053,  -0.00062,-25999042.21124,   0.00000
-367407223.36659,-418440278.94097,-121896547.52924,  -0.00125,  -0.00171,  -0.00221,448239510.40749,   0.00064,275344614.74433,  -0.00039,  -0.00053,  -0.00062,-27105104.33685,   0.00000
-365974984.53424,-417080355.11277,-121992967.53478,  -0.00124,  -0.00171,  -0.00221,447101317.15052,   0.00064,275344614.74433,  -0.00039,  -0.00053,  -0.00062,-28243297.59382,   0.00000
-364508596.94992,-415694317.53308,-122089387.54033,  -0.00124,  -0.00171,  -0.00221,445938993.68139,   0.00064,275344614.74433,  -0.00039,  -0.00053,  -0.00062,-29405621.06295,   0.00000
-363022121.86445,-414288192.45222,-122181790.04564,  -0.00123,  -0.00170,  -0.00221,444757414.93220,   0.00064,275344614.74433,  -0.00039,  -0.00053,  -0.00062,-30587199.81213,   0.00000
-361515559.27782,-412861979.87022,-122270175.05072,  -0.00123,  -0.00170,  -0.00221,443556615.98694,   0.00064,275344614.74433,  -0.00039,  -0.00053,  -0.00062,-31787998.75740,   0.00000
-359974847.93923,-411409653.53671,-122354542.55557,  -0.00123,  -0.00170,  -0.00221,442328575.77983,   0.00064,275344614.74433,  -0.00039,  -0.00053,  -0.00062,-33016038.96451,   0.00000
-358408022.84913,-409923178.45124,-122434892.56019,  -0.00122,  -0.00169,  -0.00221,441071962.28521,   0.00064,275344614.74433,  -0.00039,  -0.00053,  -0.00062,-34272652.45912,   0.00000
-356821110.25789,-408416615.86461,-122511225.06458,  -0.00122,  -0.00169,  -0.00221,439796279.33836,   0.00064,275344614.74433,  -0.00039,  -0.00053,  -0.00062,-35548335.40597,   0.00000
-355214110.16549,-406889965.77683,-122587557.56897,  -0.00121,  -0.00169,  -0.00222,438504936.11135,   0.00064,275344614.74433,  -0.00039,  -0.00053,  -0.00062,-36839678.63298,   0.00000
-353572961.32112,-405337201.93754,-122655855.07290,  -0.00121,  -0.00168,  -0.00222,437183242.79444,   0.00064,275344614.74433,  -0.00039,  -0.00053,  -0.00062,-38161371.94990,   0.00000
-351911724.97560,-403764350.59710,-122724152.57683,  -0.00120,  -0.00168,  -0.00222,435846024.14525,   0.00064,275344614.74433,  -0.00039,  -0.00053,  -0.00062,-39498590.59908,   0.00000
-350210313.62777,-402151324.25435,-122788432.58052,  -0.00120,  -0.00167,  -0.00222,434472562.43012,   0.00064,275344614.74433,  -0.00039,  -0.00053,  -0.00062,-40872052.31421,   0.00000
-348502876.02959,-400524236.66080,-122844677.58376,  -0.00119,  -0.00167,  -0.00222,433084881.73768,   0.00064,275344614.74433,  -0.00039,  -0.00053,  -0.00062,-42259733.00666,   0.00000
-346761289.67945,-398871035.31574,-122904940.08722,  -0.00119,  -0.00167,  -0.00222,431677348.38149,   0.00064,275344614.74433,  -0.00039,  -0.00053,  -0.00062,-43667266.36285,   0.00000
-344985554.57734,-397191720.21918,-122957167.59023,  -0.00118,  -0.00166,  -0.00222,430239799.16995,   0.00064,275344614.74433,  -0.00039,  -0.00053,  -0.00062,-45104815.57439,   0.00000
-343183705.72374,-395478256.37065,-123005377.59300,  -0.00118,  -0.00166,  -0.00222,428774279.00026,   0.00064,275344614.74433,  -0.00039,  -0.00053,  -0.00062,-46570335.74407,   0.00000
-341375830.61978,-393750731.27132,-123049570.09554,  -0.00118,  -0.00165,  -0.00222,427298143.29721,   0.00064,275344614.74433,  -0.00039,  -0.00053,  -0.00062,-48046471.44712,   0.00000
-339519745.51306,-391991066.17014,-123093762.59808,  -0.00117,  -0.00165,  -0.00222,425791227.82490,   0.00064,275344614.74433,  -0.00039,  -0.00053,  -0.00062,-49553386.91944,   0.00000
-337657634.15599,-390217339.81815,-123133937.60039,  -0.00116,  -0.00164,  -0.00222,424273833.97502,   0.00064,275344614.74433,  -0.00039,  -0.00053,  -0.00062,-51070780.76931,   0.00000
-335761374.04695,-388417499.71466,-123166077.60224,  -0.00116,  -0.00164,  -0.00222,422726754.52847,   0.00064,275344614.74433,  -0.00039,  -0.00053,  -0.00062,-52617860.21587,   0.00000
-333824938.93561,-386577484.60886,-123198217.60409,  -0.00115,  -0.00164,  -0.00222,421147763.53545,   0.00064,275344614.74433,  -0.00039,  -0.00053,  -0.00062,-54196851.20888,   0.00000
-331882477.57392,-384723408.25225,-123226340.10570,  -0.00115,  -0.00163,  -0.00222,419558475.72648,   0.00064,275344614.74433,  -0.00039,  -0.00053,  -0.00062,-55786139.01785,   0.00000
-329905867.46026,-382843218.14414,-123250445.10709,  -0.00114,  -0.00163,  -0.00222,417943302.06122,   0.00064,275344614.74433,  -0.00039,  -0.00053,  -0.00062,-57401312.68312,   0.00000
-327895108.59464,-380936914.28453,-123274550.10847,  -0.00114,  -0.00162,  -0.00222,416305930.94648,   0.00064,275344614.74433,  -0.00039,  -0.00053,  -0.00062,-59038683.79785,   0.00000
-325878323.47868,-379016549.17411,-123290620.10940,  -0.00113,  -0.00162,  -0.00222,414654892.24953,   0.00064,275344614.74433,  -0.00039,  -0.00053,  -0.00062,-60689722.49480,   0.00000
-323821363.36040,-377056009.06137,-123306690.11032,  -0.00113,  -0.00161,  -0.00222,412972563.13015,   0.00064,275344614.74433,  -0.00039,  -0.00053,  -0.00062,-62372051.61419,   0.00000
-321730254.49016,-375069355.19714,-123314725.11078,  -0.00112,  -0.00161,  -0.00222,411261210.24321,   0.00064,275344614.74433,  -0.00039,  -0.00053,  -0.00062,-64083404.50112,   0.00000
-319633119.36958,-373068640.08210,-123322760.11125,  -0.00112,  -0.00160,  -0.00222,409543596.61286,   0.00064,275344614.74433,  -0.00039,  -0.00053,  -0.00062,-65801018.13148,   0.00000
-317501835.49703,-371041811.21556,-123326777.61148,  -0.00111,  -0.00160,  -0.00223,407800769.16935,   0.00064,275344614.74433,  -0.00039,  -0.00053,  -0.00062,-67543845.57498,   0.00000
-315350464.12333,-368994894.84786,-123326777.61148,  -0.00110,  -0.00159,  -0.00223,406040538.03193,   0.00064,275344614.74433,  -0.00039,  -0.00053,  -0.00062,-69304076.71240,   0.00000
-313158917.74731,-366907803.47785,-123322760.11125,  -0.00110,  -0.00159,  -0.00222,404246091.94377,   0.00064,275344614.74433,  -0.00039,  -0.00053,  -0.00062,-71098522.80056,   0.00000
-310947283.87014,-364800624.60669,-123314725.11078,  -0.00109,  -0.00158,  -0.00222,402434479.10376,   0.00064,275344614.74433,  -0.00039,  -0.00053,  -0.00062,-72910135.64058,   0.00000
-308707527.49136,-362681393.23483,-123302672.61009,  -0.00109,  -0.00158,  -0.00222,400607415.77549,   0.00064,275344614.74433,  -0.00039,  -0.00053,  -0.00062,-74737198.96885,   0.00000
-306449692.36153,-360519978.11055,-123290620.10940,  -0.00108,  -0.00157,  -0.00222,398756270.42597,   0.00064,275344614.74433,  -0.00039,  -0.00053,  -0.00062,-76588344.31837,   0.00000
-304163734.73009,-358346510.48558,-123274550.10847,  -0.00107,  -0.00156,  -0.00222,396889947.28854,   0.00064,275344614.74433,  -0.00039,  -0.00053,  -0.00062,-78454667.45580,   0.00000
-301843628.34668,-356146929.10910,-123250445.10709,  -0.00107,  -0.00156,  -0.00222,394995628.37809,   0.00064,275344614.74433,  -0.00039,  -0.00053,  -0.00062,-80348986.36625,   0.00000
-299511469.46258,-353919225.23101,-123226340.10570,  -0.00106,  -0.00155,  -0.00222,393086840.01795,   0.00064,275344614.74433,  -0.00039,  -0.00053,  -0.00062,-82257774.72639,   0.00000
-297131100.57571,-351659381.35107,-123198217.60409,  -0.00106,  -0.00155,  -0.00222,391146615.57452,   0.00064,275344614.74433,  -0.00039,  -0.00053,  -0.00062,-84197999.16981,   0.00000
-294744705.43849,-349385476.22032,-123166077.60224,  -0.00105,  -0.00154,  -0.00222,389197611.91513,   0.00064,275344614.74433,  -0.00039,  -0.00053,  -0.00062,-86147002.82921,   0.00000
-292324161.54931,-347085457.33807,-123129920.10016,  -0.00104,  -0.00154,  -0.00222,387224994.66123,   0.00064,275344614.74433,  -0.00039,  -0.00053,  -0.00062,-88119620.08311,   0.00000
-289883530.15898,-344765350.95466,-123093762.59808,  -0.00104,  -0.00153,  -0.00222,385240229.51496,   0.00064,275344614.74433,  -0.00039,  -0.00053,  -0.00062,-90104385.22937,   0.00000
-287402723.76633,-342405069.56895,-123049570.09554,  -0.00103,  -0.00152,  -0.00222,383219255.48098,   0.00064,275344614.74433,  -0.00039,  -0.00053,  -0.00062,-92125359.26336,   0.00000
-284915891.12334,-340030726.93242,-123005377.59300,  -0.00102,  -0.00152,  -0.00222,381193876.45910,   0.00064,275344614.74433,  -0.00039,  -0.00053,  -0.00062,-94150738.28523,   0.00000
-282386874.72792,-337638305.54486,-122957167.59023,  -0.00102,  -0.00151,  -0.00222,379147387.81112,   0.00064,275344614.74433,  -0.00039,  -0.00053,  -0.00062,-96197226.93322,   0.00000
-279845805.83181,-335217761.65568,-122904940.08722,  -0.00101,  -0.00151,  -0.00222,377083824.93148,   0.00064,275344614.74433,  -0.00039,  -0.00053,  -0.00062,-98260789.81285,   0.00000
-277270588.18373,-332771104.01499,-122848695.08399,  -0.00100,  -0.00150,  -0.00222,374997803.52669,   0.00064,275344614.74433,  -0.00039,  -0.00053,  -0.00062,-100346811.21765,   0.00000
-274669256.78416,-330290297.62235,-122788432.58052,  -0.00100,  -0.00149,  -0.00222,372887769.01585,   0.00064,275344614.74433,  -0.00039,  -0.00053,  -0.00062,-102456845.72849,   0.00000
-272039802.88296,-327797438.72901,-122724152.57683,  -0.00099,  -0.00149,  -0.00222,370764773.74424,   0.00064,275344614.74433,  -0.00039,  -0.00053,  -0.00062,-104579841.00009,   0.00000
-269384235.23027,-325270431.08370,-122655855.07290,  -0.00098,  -0.00148,  -0.00222,368618189.40262,   0.00064,275344614.74433,  -0.00039,  -0.00053,  -0.00062,-106726425.34172,   0.00000
-266708580.07642,-322723335.93725,-122587557.56897,  -0.00097,  -0.00148,  -0.00222,366461271.31209,   0.00064,275344614.74433,  -0.00039,  -0.00053,  -0.00062,-108883343.43224,   0.00000
-264004802.42095,-320164188.29009,-122515242.56481,  -0.00097,  -0.00147,  -0.00221,364292072.21011,   0.00064,275344614.74433,  -0.00039,  -0.00053,  -0.00062,-111052542.53422,   0.00000
-261274911.01398,-317570891.89098,-122434892.56019,  -0.00096,  -0.00146,  -0.00221,362095916.47936,   0.00064,275344614.74433,  -0.00039,  -0.00053,  -0.00062,-113248698.26497,   0.00000
-258518905.85551,-314943446.73990,-122354542.55557,  -0.00095,  -0.00146,  -0.00221,359881183.61972,   0.00064,275344614.74433,  -0.00039,  -0.00053,  -0.00062,-115463431.12462,   0.00000
-255734778.19542,-312303949.08813,-122274192.55095,  -0.00094,  -0.00145,  -0.00221,357659036.98503,   0.00064,275344614.74433,  -0.00039,  -0.00053,  -0.00062,-117685577.75930,   0.00000
-252930563.03418,-309644363.93520,-122185807.54587,  -0.00094,  -0.00144,  -0.00221,355419601.62608,   0.00064,275344614.74433,  -0.00039,  -0.00053,  -0.00062,-119925013.11825,   0.00000
-250086172.87063,-306944603.77997,-122093405.04056,  -0.00093,  -0.00144,  -0.00221,353151357.17039,   0.00064,275344614.74433,  -0.00039,  -0.00053,  -0.00062,-122193257.57394,   0.00000
-247241782.70708,-304244843.62473,-122001002.53525,  -0.00092,  -0.00143,  -0.00221,350890467.71038,   0.00064,275344614.74433,  -0.00039,  -0.00053,  -0.00062,-124454147.03395,   0.00000
-244343156.29041,-301498882.21684,-121900565.02947,  -0.00091,  -0.00142,  -0.00221,348590316.51579,   0.00064,275344614.74433,  -0.00039,  -0.00053,  -0.00062,-126754298.22854,   0.00000
-241438503.62339,-298738859.55814,-121800127.52370,  -0.00091,  -0.00142,  -0.00221,346289195.91938,   0.00064,275344614.74433,  -0.00039,  -0.00053,  -0.00062,-129055418.82496,   0.00000
-238499702.20441,-295952723.14794,-121695672.51769,  -0.00090,  -0.00141,  -0.00220,343969469.69390,   0.00064,275344614.74433,  -0.00039,  -0.00053,  -0.00062,-131375145.05044,   0.00000
-235540813.28427,-293146499.23658,-121591217.51168,  -0.00089,  -0.00140,  -0.00220,341642579.93344,   0.00064,275344614.74433,  -0.00039,  -0.00053,  -0.00062,-133702034.81090,   0.00000
-232547775.61217,-290314161.57372,-121478727.50521,  -0.00088,  -0.00139,  -0.00220,339293547.77036,   0.00064,275344614.74433,  -0.00039,  -0.00053,  -0.00062,-136051066.97397,   0.00000
-229528624.18857,-287447675.15890,-121362219.99852,  -0.00087,  -0.00139,  -0.00220,336924993.43271,   0.00064,275344614.74433,  -0.00039,  -0.00053,  -0.00062,-138419621.31162,   0.00000
-226495411.51416,-284575162.49373,-121245712.49182,  -0.00087,  -0.00138,  -0.00220,334559104.49802,   0.00064,275344614.74433,  -0.00039,  -0.00053,  -0.00062,-140785510.24631,   0.00000
-223436085.08825,-281668501.07659,-121125187.48489,  -0.00086,  -0.00137,  -0.00220,332174433.95724,   0.00064,275344614.74433,  -0.00039,  -0.00053,  -0.00062,-143170180.78709,   0.00000
-220348636.16072,-278749787.15877,-121000644.97773,  -0.00085,  -0.00137,  -0.00219,329782198.00877,   0.00064,275344614.74433,  -0.00039,  -0.00053,  -0.00062,-145562416.73556,   0.00000
-217221012.23088,-275790898.23863,-120872084.97033,  -0.00084,  -0.00136,  -0.00219,327365533.31352,   0.00064,275344614.74433,  -0.00039,  -0.00053,  -0.00062,-147979081.43081,   0.00000
-214087362.05070,-272817948.06769,-120739507.46271,  -0.00083,  -0.00135,  -0.00219,324946522.58919,   0.00064,275344614.74433,  -0.00039,  -0.00053,  -0.00062,-150398092.15514,   0.00000
-210919563.11855,-269818884.14524,-120606929.95509,  -0.00082,  -0.00134,  -0.00219,322517140.38486,   0.00064,275344614.74433,  -0.00039,  -0.00053,  -0.00062,-152827474.35948,   0.00000
-207737702.93559,-266813793.97245,-120466317.44700,  -0.00081,  -0.00134,  -0.00219,320083848.57922,   0.00064,275344614.74433,  -0.00039,  -0.00053,  -0.00062,-155260766.16511,   0.00000
-204515667.75032,-263768528.79734,-120325704.93892,  -0.00081,  -0.00133,  -0.00219,317632687.46763,   0.00064,275344614.74433,  -0.00039,  -0.00053,  -0.00062,-157711927.27671,   0.00000
-201273545.06390,-260703176.12109,-120181074.93060,  -0.00080,  -0.00132,  -0.00218,315174564.05828,   0.00064,275344614.74433,  -0.00039,  -0.00053,  -0.00062,-160170050.68605,   0.00000
-198005308.62598,-257603674.69287,-120032427.42205,  -0.00079,  -0.00131,  -0.00218,312701473.04911,   0.00064,275344614.74433,  -0.00039,  -0.00053,  -0.00062,-162643141.69523,   0.00000
-194708949.68644,-254492120.76395,-119883779.91351,  -0.00078,  -0.00131,  -0.00218,310229404.05538,   0.00064,275344614.74433,  -0.00039,  -0.00053,  -0.00062,-165115210.68896,   0.00000
-191392503.24574,-251360479.33388,-119727097.40450,  -0.00077,  -0.00130,  -0.00218,307747303.92253,   0.00064,275344614.74433,  -0.00039,  -0.00053,  -0.00062,-167597310.82180,   0.00000
-188055969.30389,-248208750.40266,-119570414.89549,  -0.00076,  -0.00129,  -0.00218,305265043.15993,   0.00064,275344614.74433,  -0.00039,  -0.00053,  -0.00062,-170079571.58441,   0.00000
-184693321.61054,-245022872.71947,-119409714.88625,  -0.00075,  -0.00128,  -0.00217,302770181.81744,   0.00064,275344614.74433,  -0.00039,  -0.00053,  -0.00062,-172574432.92690,   0.00000
-181302551.41557,-241824942.53559,-119244997.37678,  -0.00074,  -0.00127,  -0.00217,300274119.93489,   0.00064,275344614.74433,  -0.00039,  -0.00053,  -0.00062,-175070494.80945,   0.00000
-177891693.71945,-238606924.85055,-119076262.36707,  -0.00073,  -0.00127,  -0.00217,297775079.65593,   0.00064,275344614.74433,  -0.00039,  -0.00053,  -0.00062,-177569535.08841,   0.00000
-174440661.02101,-235348732.16321,-118907527.35737,  -0.00072,  -0.00126,  -0.00217,295264596.12693,   0.00064,275344614.74433,  -0.00039,  -0.00053,  -0.00062,-180080018.61740,   0.00000
-170975567.07177,-232084513.22551,-118734774.84744,  -0.00071,  -0.00125,  -0.00217,292760866.29115,   0.00064,275344614.74433,  -0.00039,  -0.00053,  -0.00062,-182583748.45319,   0.00000
-167484359.37102,-228786145.53586,-118553987.33704,  -0.00071,  -0.00124,  -0.00216,290243266.49480,   0.00064,275344614.74433,  -0.00039,  -0.00053,  -0.00062,-185101348.24953,   0.00000
-163979090.41947,-225481751.59585,-118377217.32688,  -0.00070,  -0.00123,  -0.00216,287743577.87937,   0.00064,275344614.74433,  -0.00039,  -0.00053,  -0.00062,-187601036.86497,   0.00000
-160433646.46561,-222137182.65354,-118192412.31625,  -0.00069,  -0.00123,  -0.00216,285226127.12409,   0.00064,275344614.74433,  -0.00039,  -0.00053,  -0.00062,-190118487.62025,   0.00000
-156874141.26094,-218786587.46088,-118003589.80539,  -0.00068,  -0.00122,  -0.00216,282718323.85376,   0.00064,275344614.74433,  -0.00039,  -0.00053,  -0.00062,-192626290.89058,   0.00000
-153288522.30476,-215401843.51626,-117814767.29454,  -0.00067,  -0.00121,  -0.00215,280210016.13834,   0.00064,275344614.74433,  -0.00039,  -0.00053,  -0.00062,-195134598.60599,   0.00000
-149668754.59663,-211990985.82014,-117621927.28345,  -0.00066,  -0.00120,  -0.00215,277699911.18419,   0.00064,275344614.74433,  -0.00039,  -0.00053,  -0.00062,-197644703.56015,   0.00000
-146034925.63768,-208574101.87366,-117425069.77213,  -0.00065,  -0.00119,  -0.00215,275202094.93082,   0.00064,275344614.74433,  -0.00039,  -0.00053,  -0.00062,-200142519.81352,   0.00000
-142374982.92724,-205123069.17523,-117228212.26081,  -0.00064,  -0.00118,  -0.00215,272706943.52947,   0.00064,275344614.74433,  -0.00039,  -0.00053,  -0.00062,-202637671.21486,   0.00000
-138686917.71517,-201659983.97610,-117023319.74903,  -0.00063,  -0.00117,  -0.00214,270215804.07832,   0.00064,275344614.74433,  -0.00039,  -0.00053,  -0.00062,-205128810.66602,   0.00000
-134986800.00241,-198168776.27536,-116818427.23725,  -0.00062,  -0.00117,  -0.00214,267734506.40908,   0.00064,275344614.74433,  -0.00039,  -0.00053,  -0.00062,-207610108.33526,   0.00000
-131258559.78804,-194665516.07392,-116609517.22524,  -0.00061,  -0.00116,  -0.00214,265264577.18324,   0.00064,275344614.74433,  -0.00039,  -0.00053,  -0.00062,-210080037.56109,   0.00000
-127490144.57136,-191122080.87017,-116400607.21322,  -0.00060,  -0.00115,  -0.00214,262797467.86618,   0.00064,275344614.74433,  -0.00039,  -0.00053,  -0.00062,-212547146.87816,   0.00000
-123721729.35467,-187578645.66643,-116183662.20075,  -0.00059,  -0.00114,  -0.00213,260348209.67281,   0.00064,275344614.74433,  -0.00039,  -0.00053,  -0.00062,-214996405.07153,   0.00000
-119913139.13568,-183995035.46037,-115966717.18827,  -0.00058,  -0.00113,  -0.00213,257904537.00987,   0.00064,275344614.74433,  -0.00039,  -0.00053,  -0.00062,-217440077.73446,   0.00000
-116090487.66588,-180405399.00396,-115745754.67557,  -0.00057,  -0.00112,  -0.00213,255481893.18346,   0.00064,275344614.74433,  -0.00039,  -0.00053,  -0.00062,-219862721.56088,   0.00000
-112233687.44411,-176789648.79606,-115524792.16286,  -0.00056,  -0.00111,  -0.00212,253075402.09436,   0.00064,275344614.74433,  -0.00039,  -0.00053,  -0.00062,-222269212.64997,   0.00000
-108370860.97200,-173159837.33734,-115295794.64970,  -0.00054,  -0.00110,  -0.00212,250683970.18598,   0.00064,275344614.74433,  -0.00039,  -0.00053,  -0.00062,-224660644.55836,   0.00000
-104467859.49758,-169489850.87632,-115066797.13653,  -0.00053,  -0.00109,  -0.00212,248304661.05220,   0.00064,275344614.74433,  -0.00039,  -0.00053,  -0.00062,-227039953.69214,   0.00000
-100536735.52154,-165807811.91460,-114833782.12313,  -0.00052,  -0.00109,  -0.00211,245948128.87575,   0.00064,275344614.74433,  -0.00039,  -0.00053,  -0.00062,-229396485.86859,   0.00000
-96599585.29515,-162111711.70208,-114600767.10973,  -0.00051,  -0.00108,  -0.00211,243622187.60754,   0.00064,275344614.74433,  -0.00039,  -0.00053,  -0.00062,-231722427.13680,   0.00000
-92628286.31680,-158389497.73805,-114359717.09587,  -0.00050,  -0.00107,  -0.00211,241309592.34226,   0.00064,275344614.74433,  -0.00039,  -0.00053,  -0.00062,-234035022.40207,   0.00000
-88636899.83730,-154647196.27287,-114118667.08201,  -0.00049,  -0.00106,  -0.00211,239027232.36358,   0.00064,275344614.74433,  -0.00039,  -0.00053,  -0.00062,-236317382.38075,   0.00000
-84625425.85664,-150884807.30653,-113873599.56792,  -0.00048,  -0.00105,  -0.00210,236771169.56969,   0.00064,275344614.74433,  -0.00039,  -0.00053,  -0.00062,-238573445.17464,   0.00000
-80593864.37482,-147102330.83904,-113628532.05383,  -0.00047,  -0.00104,  -0.00210,234549038.16133,   0.00064,275344614.74433,  -0.00039,  -0.00053,  -0.00062,-240795576.58300,   0.00000
-76534180.39139,-143307801.87085,-113379447.03951,  -0.00046,  -0.00103,  -0.00210,232360406.95074,   0.00064,275344614.74433,  -0.00039,  -0.00053,  -0.00062,-242984207.79360,   0.00000
-72462443.90726,-139485150.40105,-113126344.52495,  -0.00045,  -0.00102,  -0.00209,230200320.48049,   0.00064,275344614.74433,  -0.00039,  -0.00053,  -0.00062,-245144294.26385,   0.00000
-68362584.92152,-135650446.43055,-112869224.51017,  -0.00044,  -0.00101,  -0.00209,228077743.31309,   0.00064,275344614.74433,  -0.00039,  -0.00053,  -0.00062,-247266871.43125,   0.00000
-64222550.93347,-131775567.45775,-112612104.49538,  -0.00042,  -0.00100,  -0.00209,225988564.69080,   0.00064,275344614.74433,  -0.00039,  -0.00053,  -0.00062,-249356050.05353,   0.00000
-60082516.94542,-127900688.48494,-112350966.98037,  -0.00041,  -0.00099,  -0.00208,223946687.89349,   0.00064,275344614.74433,  -0.00039,  -0.00053,  -0.00062,-251397926.85085,   0.00000
-55908334.20540,-123999695.76064,-112085811.96512,  -0.00040,  -0.00098,  -0.00208,221943095.59444,   0.00064,275344614.74433,  -0.00039,  -0.00053,  -0.00062,-253401519.14990,   0.00000
-51714063.96423,-120078615.53517,-111816639.44964,  -0.00039,  -0.00097,  -0.00208,219982607.69764,   0.00064,275344614.74433,  -0.00039,  -0.00053,  -0.00062,-255362007.04669,   0.00000
-47499706.22191,-116137447.80856,-111547466.93417,  -0.00038,  -0.00096,  -0.00207,218073717.72103,   0.00064,275344614.74433,  -0.00039,  -0.00053,  -0.00062,-257270897.02330,   0.00000
-43265260.97843,-112176192.58078,-111274276.91846,  -0.00037,  -0.00095,  -0.00207,216212725.92763,   0.00064,275344614.74433,  -0.00039,  -0.00053,  -0.00062,-259131888.81670,   0.00000
-39010728.23379,-108194849.85186,-111001086.90275,  -0.00036,  -0.00094,  -0.00206,214408317.11644,   0.00064,275344614.74433,  -0.00039,  -0.00053,  -0.00062,-260936297.62789,   0.00000
-34728072.98754,-104201454.62224,-110723879.38681,  -0.00034,  -0.00093,  -0.00206,212660760.07737,   0.00064,275344614.74433,  -0.00039,  -0.00053,  -0.00062,-262683854.66696,   0.00000
-30439391.49094,-100193998.14181,-110442654.37064,  -0.00033,  -0.00092,  -0.00206,210969877.46310,   0.00064,275344614.74433,  -0.00039,  -0.00053,  -0.00062,-264374737.28123,   0.00000
-26110534.99203,-96146366.65907,-110157411.85424,  -0.00032,  -0.00091,  -0.00205,209330879.10668,   0.00064,275344614.74433,  -0.00039,  -0.00053,  -0.00062,-266013735.63765,   0.00000
-21767617.24231,-92092708.92598,-109872169.33784,  -0.00031,  -0.00090,  -0.00205,207764140.65963,   0.00064,275344614.74433,  -0.00039,  -0.00053,  -0.00062,-267580474.08471,   0.00000
-17396576.99098,-88026998.69221,-109582909.32121,  -0.00030,  -0.00089,  -0.00205,206265040.60462,   0.00064,275344614.74433,  -0.00039,  -0.00053,  -0.00062,-269079574.13971,   0.00000
-13013484.23895,-83933165.95681,-109293649.30457,  -0.00029,  -0.00088,  -0.00204,204834492.99910,   0.00064,275344614.74433,  -0.00039,  -0.00053,  -0.00062,-270510121.74523,   0.00000
-8610303.98577,-79819245.72026,-109000371.78771,  -0.00027,  -0.00087,  -0.00204,203472908.52123,   0.00064,275344614.74433,  -0.00039,  -0.00053,  -0.00062,-271871706.22310,   0.00000
-4179001.23097,-75693272.98302,-108703076.77061,  -0.00026,  -0.00086,  -0.00203,202187264.79032,   0.00064,275344614.74433,  -0.00039,  -0.00053,  -0.00062,-273157349.95401,   0.00000
272389.02499,-71547212.74462,-108405781.75352,  -0.00025,  -0.00085,  -0.00203,200982603.91288,   0.00064,275344614.74433,  -0.00039,  -0.00053,  -0.00062,-274362010.83146,   0.00000
4743866.78210,-67381065.00507,-108100451.73596,  -0.00024,  -0.00084,  -0.00203,199848647.69580,   0.00064,275344614.74433,  -0.00039,  -0.00053,  -0.00062,-275495967.04853,   0.00000
9235432.04036,-63194829.76436,-107799139.21864,  -0.00022,  -0.00083,  -0.00202,198807631.94190,   0.00064,275344614.74433,  -0.00039,  -0.00053,  -0.00062,-276536982.80243,   0.00000
13741058.54944,-59002568.27330,-107489791.70085,  -0.00021,  -0.00082,  -0.00202,197846009.45632,   0.00064,275344614.74433,  -0.00039,  -0.00053,  -0.00062,-277498605.28801,   0.00000
18272798.81001,-54776158.03028,-107184461.68329,  -0.00020,  -0.00081,  -0.00202,196979092.44180,   0.00064,275344614.74433,  -0.00039,  -0.00053,  -0.00062,-278365522.30253,   0.00000
22818600.32140,-50543721.53692,-106871096.66528,  -0.00019,  -0.00080,  -0.00201,196196297.60842,   0.00064,275344614.74433,  -0.00039,  -0.00053,  -0.00062,-279148317.13591,   0.00000
27398550.58474,-46285171.29205,-106557731.64726,  -0.00017,  -0.00079,  -0.00201,195511623.14316,   0.00064,275344614.74433,  -0.00039,  -0.00053,  -0.00062,-279832991.60117,   0.00000
31978500.84809,-42026621.04718,-106240349.12901,  -0.00016,  -0.00078,  -0.00200,194920099.21785,   0.00064,275344614.74433,  -0.00039,  -0.00053,  -0.00062,-280424515.52649,   0.00000
36598626.11375,-37727895.80001,-105922966.61076,  -0.00015,  -0.00077,  -0.00200,194429080.32037,   0.00064,275344614.74433,  -0.00039,  -0.00053,  -0.00062,-280915534.42396,   0.00000
41218751.37940,-33429170.55283,-105601566.59228,  -0.00014,  -0.00076,  -0.00199,194034729.31203,   0.00064,275344614.74433,  -0.00039,  -0.00053,  -0.00062,-281309885.43230,   0.00000
45873025.39703,-29104331.55415,-105276149.07357,  -0.00012,  -0.00075,  -0.00199,193741330.14439,   0.00064,275344614.74433,  -0.00039,  -0.00053,  -0.00062,-281603284.59995,   0.00000
50541360.66545,-24773466.30513,-104950731.55485,  -0.00011,  -0.00074,  -0.00199,193556727.15730,   0.00064,275344614.74433,  -0.00039,  -0.00053,  -0.00062,-281787887.58703,   0.00000
55235809.68539,-20408452.30414,-104621296.53591,  -0.00010,  -0.00073,  -0.00198,193472540.81926,   0.00064,275344614.74433,  -0.00039,  -0.00053,  -0.00062,-281872073.92507,   0.00000
59944319.95612,-16037412.05280,-104291861.51697,  -0.00009,  -0.00072,  -0.00198,193499997.35333,   0.00064,275344614.74433,  -0.00039,  -0.00053,  -0.00062,-281844617.39100,   0.00000
64672917.72802,-11646284.30032,-103958408.99780,  -0.00007,  -0.00071,  -0.00197,193632316.04231,   0.00064,275344614.74433,  -0.00039,  -0.00053,  -0.00062,-281712298.70202,   0.00000
69407541.75026,-7241095.29702,-103620938.97839,  -0.00006,  -0.00070,  -0.00197,193866768.48122,   0.00064,275344614.74433,  -0.00039,  -0.00053,  -0.00062,-281477846.26311,   0.00000
74170288.27412,-2823853.79303,-103283468.95899,  -0.00005,  -0.00068,  -0.00196,194219146.18129,   0.00064,275344614.74433,  -0.00039,  -0.00053,  -0.00062,-281125468.56304,   0.00000
78953122.29913,1613475.21212,-102945998.93958,  -0.00003,  -0.00067,  -0.00196,194685505.39344,   0.00064,275344614.74433,  -0.00039,  -0.00053,  -0.00062,-280659109.35090,   0.00000
83756043.82530,6070891.71842,-102604511.41995,  -0.00002,  -0.00066,  -0.00196,195260118.87191,   0.00064,275344614.74433,  -0.00039,  -0.00053,  -0.00062,-280084495.87242,   0.00000
88573026.60228,10534334.47507,-102259006.40008,  -0.00001,  -0.00065,  -0.00195,195943380.92015,   0.00064,275344614.74433,  -0.00039,  -0.00053,  -0.00062,-279401233.82419,   0.00000
93410096.88041,15017864.73287,-101913501.38021,   0.00001,  -0.00064,  -0.00195,196741575.55390,   0.00064,275344614.74433,  -0.00039,  -0.00053,  -0.00062,-278603039.19043,   0.00000
98267254.65969,19521482.49183,-101563978.86012,   0.00002,  -0.00063,  -0.00194,197648537.89332,   0.00064,275344614.74433,  -0.00039,  -0.00053,  -0.00062,-277696076.85101,   0.00000
103138473.68979,24031126.50114,-101214456.34002,   0.00003,  -0.00062,  -0.00194,198669586.51041,   0.00064,275344614.74433,  -0.00039,  -0.00053,  -0.00062,-276675028.23393,   0.00000
108035806.47139,28574919.26240,-100860916.31969,   0.00005,  -0.00061,  -0.00193,199799700.61527,   0.00064,275344614.74433,  -0.00039,  -0.00053,  -0.00062,-275544914.12907,   0.00000
112941174.25344,33110677.02321,-100503358.79913,   0.00006,  -0.00060,  -0.00193,201035425.78629,   0.00064,275344614.74433,  -0.00039,  -0.00053,  -0.00062,-274309188.95804,   0.00000
117872655.78700,37680583.53598,-100149818.77880,   0.00007,  -0.00059,  -0.00192,202391298.00756,   0.00064,275344614.74433,  -0.00039,  -0.00053,  -0.00062,-272953316.73678,   0.00000
122818198.57137,42256516.29910,-99788243.75801,   0.00009,  -0.00057,  -0.00192,203845859.99529,   0.00064,275344614.74433,  -0.00039,  -0.00053,  -0.00062,-271498754.74904,   0.00000
127783828.85690,46852536.56337,-99426668.73722,   0.00010,  -0.00056,  -0.00191,205411435.79307,   0.00064,275344614.74433,  -0.00039,  -0.00053,  -0.00062,-269933178.95127,   0.00000
132749459.14242,51448556.82764,-99065093.71643,   0.00011,  -0.00055,  -0.00191,207077964.03495,   0.00064,275344614.74433,  -0.00039,  -0.00053,  -0.00062,-268266650.70938,   0.00000
137749238.17991,56070690.84341,-98699501.19541,   0.00013,  -0.00054,  -0.00190,208853668.03475,   0.00064,275344614.74433,  -0.00039,  -0.00053,  -0.00062,-266490946.70959,   0.00000
142755043.46774,60706886.10999,-98333908.67439,   0.00014,  -0.00053,  -0.00190,210729179.46211,   0.00064,275344614.74433,  -0.00039,  -0.00053,  -0.00062,-264615435.28223,   0.00000
147788971.25719,65355133.87727,-97964298.65314,   0.00016,  -0.00052,  -0.00190,212708995.99942,   0.00064,275344614.74433,  -0.00039,  -0.00053,  -0.00062,-262635618.74492,   0.00000
152828925.29699,70017442.89535,-97590671.13165,   0.00017,  -0.00051,  -0.00189,214779536.83504,   0.00064,275344614.74433,  -0.00039,  -0.00053,  -0.00062,-260565077.90929,   0.00000
157888966.83794,74699839.41459,-97221061.11040,   0.00018,  -0.00050,  -0.00189,216957404.94365,   0.00064,275344614.74433,  -0.00039,  -0.00053,  -0.00062,-258387209.80068,   0.00000
162963069.62970,79388262.18417,-96843416.08868,   0.00020,  -0.00048,  -0.00188,219221452.09088,   0.00064,275344614.74433,  -0.00039,  -0.00053,  -0.00062,-256123162.65345,   0.00000
168057259.92262,84096772.45491,-96465771.06697,   0.00021,  -0.00047,  -0.00188,221583780.01460,   0.00064,275344614.74433,  -0.00039,  -0.00053,  -0.00062,-253760834.72973,   0.00000
173165511.46634,88811308.97600,-96088126.04526,   0.00023,  -0.00046,  -0.00187,224038994.64440,   0.00064,275344614.74433,  -0.00039,  -0.00053,  -0.00062,-251305620.09994,   0.00000
178293850.51122,93545932.99824,-95710481.02354,   0.00024,  -0.00045,  -0.00187,226588531.59412,   0.00064,275344614.74433,  -0.00039,  -0.00053,  -0.00062,-248756083.15021,   0.00000
183428215.80645,98294618.27129,-95324801.00136,   0.00025,  -0.00044,  -0.00186,229212104.69782,   0.00064,275344614.74433,  -0.00039,  -0.00053,  -0.00062,-246132510.04651,   0.00000
188590703.60329,103055356.04503,-94943138.47942,   0.00027,  -0.00043,  -0.00186,231935716.14027,   0.00064,275344614.74433,  -0.00039,  -0.00053,  -0.00062,-243408898.60407,   0.00000
193759217.65048,107830155.06958,-94557458.45724,   0.00028,  -0.00041,  -0.00185,234734379.95130,   0.00064,275344614.74433,  -0.00039,  -0.00053,  -0.00062,-240610234.79303,   0.00000
198941792.94848,112610980.34448,-94167760.93483,   0.00030,  -0.00040,  -0.00185,237610481.96307,   0.00064,275344614.74433,  -0.00039,  -0.00053,  -0.00062,-237734132.78126,   0.00000
204144455.74763,117411893.12053,-93782080.91266,   0.00031,  -0.00039,  -0.00184,240575893.51425,   0.00064,275344614.74433,  -0.00039,  -0.00053,  -0.00062,-234768721.23009,   0.00000
209347118.54679,122212805.89658,-93388365.89002,   0.00032,  -0.00038,  -0.00184,243601001.34403,   0.00064,275344614.74433,  -0.00039,  -0.00053,  -0.00062,-231743613.40030,   0.00000
214583930.09790,127039832.42414,-92998668.36761,   0.00034,  -0.00037,  -0.00183,246720352.85422,   0.00064,275344614.74433,  -0.00039,  -0.00053,  -0.00062,-228624261.89011,   0.00000
219820741.64902,131866858.95169,-92604953.34497,   0.00035,  -0.00036,  -0.00183,249899956.71728,   0.00064,275344614.74433,  -0.00039,  -0.00053,  -0.00062,-225444658.02706,   0.00000
225077640.70129,136713972.98040,-92207220.82210,   0.00037,  -0.00034,  -0.00182,253151952.34804,   0.00064,275344614.74433,  -0.00039,  -0.00053,  -0.00062,-222192662.39629,   0.00000
230354627.25472,141581174.51026,-91809488.29923,   0.00038,  -0.00033,  -0.00182,256479143.43679,   0.00064,275344614.74433,  -0.00039,  -0.00053,  -0.00062,-218865471.30754,   0.00000
235631613.80814,146448376.04013,-91411755.77636,   0.00040,  -0.00032,  -0.00181,259865050.29930,   0.00064,275344614.74433,  -0.00039,  -0.00053,  -0.00062,-215479564.44504,   0.00000
240922661.61238,151321603.82034,-91010005.75326,   0.00041,  -0.00031,  -0.00180,263312773.23922,   0.00064,275344614.74433,  -0.00039,  -0.00053,  -0.00062,-212031841.50511,   0.00000
246239823.16812,156228980.35251,-90608255.73016,   0.00043,  -0.00030,  -0.00180,266835747.86655,   0.00064,275344614.74433,  -0.00039,  -0.00053,  -0.00062,-208508866.87778,   0.00000
251565019.72432,161128321.88422,-90206505.70706,   0.00044,  -0.00028,  -0.00179,270415766.56106,   0.00064,275344614.74433,  -0.00039,  -0.00053,  -0.00062,-204928848.18327,   0.00000
256910303.78167,166047750.91709,-89800738.18373,   0.00046,  -0.00027,  -0.00179,274058204.36263,   0.00064,275344614.74433,  -0.00039,  -0.00053,  -0.00062,-201286410.38170,   0.00000
262261614.08937,170981241.20077,-89394970.66040,   0.00047,  -0.00026,  -0.00178,277755837.21881,   0.00064,275344614.74433,  -0.00039,  -0.00053,  -0.00062,-197588777.52553,   0.00000
267612924.39707,175914731.48444,-88985185.63684,   0.00049,  -0.00025,  -0.00178,281497254.17663,   0.00064,275344614.74433,  -0.00039,  -0.00053,  -0.00062,-193847360.56770,   0.00000
272992357.20639,180860274.26881,-88575400.61327,   0.00050,  -0.00024,  -0.00177,285304395.48920,   0.00064,275344614.74433,  -0.00039,  -0.00053,  -0.00062,-190040219.25513,   0.00000
278377816.26605,185819878.30399,-88165615.58971,   0.00051,  -0.00022,  -0.00177,289161946.21322,   0.00064,275344614.74433,  -0.00039,  -0.00053,  -0.00062,-186182668.53112,   0.00000
283783362.82687,190799569.84032,-87755830.56615,   0.00053,  -0.00021,  -0.00176,293078465.10523,   0.00064,275344614.74433,  -0.00039,  -0.00053,  -0.00062,-182266149.63911,   0.00000
289182883.13734,195765200.12585,-87342028.04235,   0.00054,  -0.00020,  -0.00176,297026426.56377,   0.00064,275344614.74433,  -0.00039,  -0.00053,  -0.00062,-178318188.18057,   0.00000
294622578.45012,200771005.41368,-86928225.51856,   0.00056,  -0.00019,  -0.00175,301047069.79115,   0.00064,275344614.74433,  -0.00039,  -0.00053,  -0.00062,-174297544.95319,   0.00000
300048212.51210,205770784.45117,-86510405.49454,   0.00057,  -0.00018,  -0.00175,305092674.90396,   0.00064,275344614.74433,  -0.00039,  -0.00053,  -0.00062,-170251939.84037,   0.00000
305501969.07569,210782615.98935,-86092585.47051,   0.00059,  -0.00016,  -0.00174,309195827.75283,   0.00064,275344614.74433,  -0.00039,  -0.00053,  -0.00062,-166148786.99150,   0.00000
310955725.63928,215794447.52753,-85674765.44649,   0.00060,  -0.00015,  -0.00174,313334779.70797,   0.00064,275344614.74433,  -0.00039,  -0.00053,  -0.00062,-162009835.03636,   0.00000
316421534.70356,220834401.56732,-85256945.42246,   0.00062,  -0.00014,  -0.00173,317521496.13654,   0.00064,275344614.74433,  -0.00039,  -0.00053,  -0.00062,-157823118.60779,   0.00000
321909440.01912,225872346.85701,-84835107.89821,   0.00063,  -0.00013,  -0.00172,321752312.42661,   0.00064,275344614.74433,  -0.00039,  -0.00053,  -0.00062,-153592302.31772,   0.00000
327389310.33421,230918327.14715,-84413270.37395,   0.00065,  -0.00011,  -0.00172,326011722.35211,   0.00064,275344614.74433,  -0.00039,  -0.00053,  -0.00062,-149332892.39222,   0.00000
332897303.15092,235976359.93799,-83991432.84970,   0.00066,  -0.00010,  -0.00171,330322941.13556,   0.00064,275344614.74433,  -0.00039,  -0.00053,  -0.00062,-145021673.60877,   0.00000
338411322.21798,241048453.97963,-83565577.82521,   0.00068,  -0.00009,  -0.00171,334668001.95601,   0.00064,275344614.74433,  -0.00039,  -0.00053,  -0.00062,-140676612.78833,   0.00000
343925341.28503,246120548.02128,-83139722.80072,   0.00070,  -0.00008,  -0.00170,339042049.87433,   0.00064,275344614.74433,  -0.00039,  -0.00053,  -0.00062,-136302564.87001,   0.00000
349459447.85324,251212729.56408,-82713867.77624,   0.00071,  -0.00007,  -0.00170,343461542.51863,   0.00064,275344614.74433,  -0.00039,  -0.00053,  -0.00062,-131883072.22571,   0.00000
355007615.67226,256310937.35723,-82288012.75175,   0.00073,  -0.00005,  -0.00169,347918553.94651,   0.00064,275344614.74433,  -0.00039,  -0.00053,  -0.00062,-127426060.79783,   0.00000
360555783.49128,261409145.15037,-81858140.22703,   0.00074,  -0.00004,  -0.00169,352398780.36121,   0.00064,275344614.74433,  -0.00039,  -0.00053,  -0.00062,-122945834.38313,   0.00000
366103951.31030,266507352.94352,-81428267.70231,   0.00076,  -0.00003,  -0.00168,356904140.79288,   0.00064,275344614.74433,  -0.00039,  -0.00053,  -0.00062,-118440473.95145,   0.00000
371672206.63048,271625648.23782,-80998395.17760,   0.00077,  -0.00002,  -0.00167,361451570.70933,   0.00064,275344614.74433,  -0.00039,  -0.00053,  -0.00062,-113893044.03501,   0.00000
377260549.45181,276764031.03328,-80568522.65288,   0.00079,  -0.00000,  -0.00167,366040381.86757,   0.00064,275344614.74433,  -0.00039,  -0.00053,  -0.00062,-109304232.87676,   0.00000
382848892.27314,281902413.82874,-80134632.62793,   0.00080,   0.00001,  -0.00166,370649290.31771,   0.00064,275344614.74433,  -0.00039,  -0.00053,  -0.00062,-104695324.42663,   0.00000
388437235.09447,287040796.62419,-79700742.60298,   0.00082,   0.00002,  -0.00166,375280157.01456,   0.00064,275344614.74433,  -0.00039,  -0.00053,  -0.00062,-100064457.72978,   0.00000
394039639.16661,292185205.67000,-79266852.57803,   0.00083,   0.00003,  -0.00165,379942864.63602,   0.00064,275344614.74433,  -0.00039,  -0.00053,  -0.00062,-95401750.10832,   0.00000
399662130.73990,297349702.21695,-78832962.55308,   0.00085,   0.00005,  -0.00165,384644194.74087,   0.00064,275344614.74433,  -0.00039,  -0.00053,  -0.00062,-90700420.00346,   0.00000
405284622.31319,302514198.76391,-78395055.02790,   0.00086,   0.00006,  -0.00164,389362898.47056,   0.00064,275344614.74433,  -0.00039,  -0.00053,  -0.00062,-85981716.27378,   0.00000
410907113.88649,307678695.31087,-77961165.00295,   0.00088,   0.00007,  -0.00164,394103160.15230,   0.00064,275344614.74433,  -0.00039,  -0.00053,  -0.00062,-81241454.59204,   0.00000
416535631.71013,312857253.10864,-77523257.47778,   0.00090,   0.00008,  -0.00163,398867103.30388,   0.00064,275344614.74433,  -0.00039,  -0.00053,  -0.00062,-76477511.44045,   0.00000
422178210.78457,318041837.15675,-77085349.95260,   0.00091,   0.00010,  -0.00162,403659722.55078,   0.00064,275344614.74433,  -0.00039,  -0.00053,  -0.00062,-71684892.19356,   0.00000
427834851.10983,323232447.45521,-76647442.42742,   0.00093,   0.00011,  -0.00162,408480428.13969,   0.00064,275344614.74433,  -0.00039,  -0.00053,  -0.00062,-66864186.60465,   0.00000
433483456.43463,328431092.75413,-76205517.40201,   0.00094,   0.00012,  -0.00161,413312577.89964,   0.00064,275344614.74433,  -0.00039,  -0.00053,  -0.00062,-62032036.84470,   0.00000
439160184.26104,333641790.55375,-75763592.37659,   0.00096,   0.00013,  -0.00161,418182600.56673,   0.00064,275344614.74433,  -0.00039,  -0.00053,  -0.00062,-57162014.17760,   0.00000
444822850.83664,338846462.10302,-75325684.85141,   0.00097,   0.00015,  -0.00160,423059712.84512,   0.00064,275344614.74433,  -0.00039,  -0.00053,  -0.00062,-52284901.89921,   0.00000
450499578.66305,344057159.90263,-74883759.82600,   0.00099,   0.00016,  -0.00160,427960660.03869,   0.00064,275344614.74433,  -0.00039,  -0.00053,  -0.00062,-47383954.70565,   0.00000
456182332.73981,349281918.95306,-74441834.80059,   0.00100,   0.00017,  -0.00159,432884163.88805,   0.00064,275344614.74433,  -0.00039,  -0.00053,  -0.00062,-42460450.85628,   0.00000
461865086.81657,354506678.00348,-73999909.77518,   0.00102,   0.00019,  -0.00158,437821933.54858,   0.00064,275344614.74433,  -0.00039,  -0.00053,  -0.00062,-37522681.19576,   0.00000
467561902.14414,359737463.30425,-73553967.24954,   0.00104,   0.00020,  -0.00158,442782339.89243,   0.00064,275344614.74433,  -0.00039,  -0.00053,  -0.00062,-32562274.85190,   0.00000
473264743.72205,364982309.85583,-73112042.22413,   0.00105,   0.00021,  -0.00157,447766073.94436,   0.00064,275344614.74433,  -0.00039,  -0.00053,  -0.00062,-27578540.79998,   0.00000
478967585.29996,370227156.40741,-72666099.69849,   0.00107,   0.00022,  -0.00157,452760835.46265,   0.00064,275344614.74433,  -0.00039,  -0.00053,  -0.00062,-22583779.28168,   0.00000
484684488.12868,375478029.20933,-72220157.17285,   0.00108,   0.00024,  -0.00156,457779073.75371,   0.00064,275344614.74433,  -0.00039,  -0.00053,  -0.00062,-17565540.99062,   0.00000
490387329.70660,380722875.76091,-71774214.64721,   0.00110,   0.00025,  -0.00155,462798639.28763,   0.00064,275344614.74433,  -0.00039,  -0.00053,  -0.00062,-12545975.45670,   0.00000
496110258.78567,385987809.81365,-71332289.62179,   0.00112,   0.00026,  -0.00155,467850780.28194,   0.00064,275344614.74433,  -0.00039,  -0.00053,  -0.00062,-7493834.46240,   0.00000
501841222.86520,391244708.86592,-70882329.59592,   0.00113,   0.00027,  -0.00154,472913550.23137,   0.00064,275344614.74433,  -0.00039,  -0.00053,  -0.00062,-2431064.51297,   0.00000
504585344.47947,393769223.69604,-70668501.93767,   0.00114,   0.00028,  -0.00154,475344615.52426,   0.00064,275344614.74433,  -0.00039,  -0.00053,  -0.00062,   0.77993,   0.00000
504766593.16821,394430880.48994,-69980490.06807,   0.00115,   0.00029,  -0.00154,475344615.52426,   0.00065,275353876.86225,  -0.00038,  -0.00052,  -0.00063,  -0.00000,   2.00000
505102267.11706,395677427.51816,-68670460.64127,   0.00116,   0.00030,  -0.00153,480449173.32418,   0.00067,275371704.77613,  -0.00036,  -0.00052,  -0.00064,   0.00000,   2.00000
505414877.62654,396908644.77442,-67374734.46285,   0.00118,   0.00031,  -0.00153,480476103.28370,   0.00069,275389525.78612,  -0.00035,  -0.00051,  -0.00065,   0.00000,   2.00000
505716858.65407,398105997.02773,-66088676.61410,   0.00119,   0.00033,  -0.00152,480506593.88463,   0.00070,275407353.01211,  -0.00033,  -0.00050,  -0.00066,   0.00000,   2.00000
505999829.29557,399282260.52275,-64817121.23998,   0.00121,   0.00034,  -0.00151,480556546.73710,   0.00072,275425254.65898,  -0.00031,  -0.00049,  -0.00067,  -0.00000,   2.00000
506265555.41989,400438300.51673,-63557398.12074,   0.00123,   0.00035,  -0.00151,480572999.74311,   0.00074,275443114.44218,  -0.00030,  -0.00048,  -0.00068,   0.00000,   2.00000
506515226.56916,401570550.99235,-62311464.87159,   0.00124,   0.00036,  -0.00150,480601726.32003,   0.00075,275460975.80627,  -0.00028,  -0.00048,  -0.00069,   0.00000,   2.00000
506747329.16227,402682749.38915,-61080137.23500,   0.00126,   0.00038,  -0.00150,480650949.69957,   0.00077,275478910.16319,  -0.00026,  -0.00047,  -0.00070,   0.00000,   2.00000
506968770.66944,403765940.18177,-59860034.42368,   0.00127,   0.00039,  -0.00149,480669400.47165,   0.00078,275496811.46819,  -0.00025,  -0.00046,  -0.00071,   0.00000,   2.00000
507170369.36897,404836699.40470,-58654001.65163,   0.00129,   0.00040,  -0.00149,480694805.42861,   0.00080,275514704.40861,  -0.00023,  -0.00045,  -0.00072,   0.00000,   2.00000
507360172.91803,405882441.37716,-57460049.03444,   0.00131,   0.00042,  -0.00148,480733523.06317,   0.00082,275532635.41560,  -0.00021,  -0.00044,  -0.00073,   0.00000,   2.00000
507534733.72979,406905303.03832,-56283476.58445,   0.00132,   0.00043,  -0.00147,480762540.87949,   0.00083,275550571.61293,  -0.00019,  -0.00043,  -0.00074,   0.00000,   2.00000
507697559.99811,407908056.78829,-55116636.32024,   0.00134,   0.00044,  -0.00147,480788441.62783,   0.00085,275568502.82964,  -0.00018,  -0.00042,  -0.00075,   0.00000,   2.00000
507847534.53736,408889933.96758,-53963273.02325,   0.00135,   0.00045,  -0.00146,480815561.24374,   0.00087,275586433.86797,  -0.00016,  -0.00042,  -0.00076,   0.00000,   2.00000
507982108.69766,409858344.17775,-52822216.85928,   0.00137,   0.00047,  -0.00146,480850897.68324,   0.00088,275604393.25987,  -0.00014,  -0.00041,  -0.00077,   0.00000,   2.00000
508107670.51374,410799605.14089,-51695597.79746,   0.00138,   0.00048,  -0.00145,480869171.18055,   0.00090,275622323.38024,  -0.00013,  -0.00040,  -0.00078,  -0.00000,   2.00000
508218607.46658,411728141.04255,-50581171.93559,   0.00140,   0.00049,  -0.00144,480904109.77658,   0.00092,275640281.58821,  -0.00011,  -0.00039,  -0.00079,  -0.00000,   2.00000
508318339.68386,412637289.92575,-49479945.12534,   0.00142,   0.00051,  -0.00144,480930416.60695,   0.00093,275658238.96821,  -0.00009,  -0.00038,  -0.00080,  -0.00000,   2.00000
508407258.65729,413527447.29520,-48391832.64357,   0.00143,   0.00052,  -0.00143,480956514.22533,   0.00095,275676195.39221,  -0.00007,  -0.00037,  -0.00080,   0.00000,   2.00000
508485746.26249,414399002.45885,-47316747.12709,   0.00145,   0.00053,  -0.00143,480982407.30979,   0.00097,275694150.74327,  -0.00006,  -0.00036,  -0.00081,   0.00000,   2.00000
508554174.88210,415252338.51374,-46254598.73358,   0.00146,   0.00054,  -0.00142,481008100.46192,   0.00098,275712104.91477,  -0.00004,  -0.00035,  -0.00082,  -0.00000,   2.00000
508612907.53331,416087832.33912,-45205295.29751,   0.00148,   0.00056,  -0.00141,481033598.20644,   0.00100,275730057.80982,  -0.00002,  -0.00034,  -0.00083,   0.00000,   2.00000
508659126.28020,416912559.85420,-44167805.03531,   0.00150,   0.00057,  -0.00141,481067509.26503,   0.00102,275748038.23720,  -0.00001,  -0.00033,  -0.00083,   0.00000,   2.00000
508698382.44872,417712458.32809,-43147765.08195,   0.00151,   0.00058,  -0.00140,481085165.12797,   0.00103,275765992.02020,   0.00001,  -0.00032,  -0.00084,   0.00000,   2.00000
508727883.45793,418499759.57994,-42137520.24030,   0.00153,   0.00060,  -0.00140,481098057.05379,   0.00105,275783903.77702,   0.00003,  -0.00032,  -0.00085,   0.00000,   2.00000
508748138.46605,419274026.26930,-41137701.86457,   0.00154,   0.00061,  -0.00139,481142367.91938,   0.00107,275801879.64022,   0.00005,  -0.00031,  -0.00086,   0.00000,   2.00000
508758085.90710,420035353.99597,-40151349.40183,   0.00156,   0.00062,  -0.00139,481156087.14705,   0.00108,275819817.20651,   0.00006,  -0.00030,  -0.00086,   0.00000,   2.00000
508761601.71450,420776717.39293,-39180049.03477,   0.00157,   0.00064,  -0.00138,481192447.60247,   0.00110,275837793.05681,   0.00008,  -0.00029,  -0.00087,   0.00000,   2.00000
508759804.59035,421500211.53252,-38218859.54009,   0.00159,   0.00065,  -0.00137,481196110.71509,   0.00112,275855698.19887,   0.00010,  -0.00028,  -0.00088,   0.00000,   2.00000
508746611.28442,422214321.19132,-37272747.04862,   0.00161,   0.00066,  -0.00137,481229834.25559,   0.00113,275873633.84437,   0.00012,  -0.00027,  -0.00088,   0.00000,   2.00000
508725364.95395,422917699.33370,-36335611.71044,   0.00162,   0.00067,  -0.00136,481241903.80699,   0.00115,275891528.03274,   0.00013,  -0.00026,  -0.00089,   0.00000,   2.00000
508698977.69794,423602391.72607,-35413186.79189,   0.00164,   0.00069,  -0.00136,481277483.48132,   0.00117,275909459.83642,   0.00015,  -0.00025,  -0.00090,   0.00000,   2.00000
508664101.12031,424276233.17175,-34503355.57881,   0.00165,   0.00070,  -0.00135,481290175.23243,   0.00118,275927353.35187,   0.00017,  -0.00024,  -0.00090,   0.00000,   2.00000
508623324.12285,424936148.09356,-33605041.98346,   0.00167,   0.00071,  -0.00135,481313600.74233,   0.00120,275945244.91289,   0.00018,  -0.00023,  -0.00091,  -0.00000,   2.00000
508576898.68252,425582435.01944,-32718137.01842,   0.00169,   0.00073,  -0.00134,481336883.17967,   0.00122,275963134.50154,   0.00020,  -0.00022,  -0.00091,   0.00000,   2.00000
508521663.73824,426221704.22793,-31841836.50969,   0.00170,   0.00074,  -0.00133,481368842.95796,   0.00123,275981051.24854,   0.00022,  -0.00021,  -0.00092,   0.00000,   2.00000
508462380.97908,426844922.88260,-30978262.18342,   0.00172,   0.00075,  -0.00133,481372171.09810,   0.00125,275998900.67894,   0.00024,  -0.00020,  -0.00092,  -0.00000,   2.00000
508400508.01867,427451917.94065,-30124919.80259,   0.00173,   0.00077,  -0.00132,481405911.20727,   0.00127,276016784.20990,   0.00025,  -0.00019,  -0.00093,   0.00000,   2.00000
508329271.58865,428053302.88516,-29284122.84613,   0.00175,   0.00078,  -0.00132,481406862.53567,   0.00128,276034593.65956,   0.00027,  -0.00018,  -0.00094,   0.00000,   2.00000
508255154.16540,428638326.31007,-28457262.13966,   0.00176,   0.00079,  -0.00131,481441030.30079,   0.00130,276052439.55170,   0.00029,  -0.00017,  -0.00094,   0.00000,   2.00000
508174493.27731,429214870.80606,-27641810.17250,   0.00178,   0.00080,  -0.00130,481452565.44991,   0.00132,276070247.40956,   0.00030,  -0.00016,  -0.00095,   0.00000,   2.00000
508087082.33927,429786448.50751,-26832369.54483,   0.00180,   0.00082,  -0.00130,481483057.03346,   0.00133,276088080.16560,   0.00032,  -0.00015,  -0.00095,   0.00000,   2.00000
507998651.78848,430339684.21921,-26037908.38465,   0.00181,   0.00083,  -0.00129,481497052.03322,   0.00135,276105883.87196,   0.00034,  -0.00014,  -0.00095,   0.00000,   2.00000
507904270.37576,430885203.11802,-25254427.89506,   0.00183,   0.00084,  -0.00129,481508216.75777,   0.00137,276123649.70829,   0.00036,  -0.00013,  -0.00096,  -0.00000,   2.00000
507805839.69275,431419169.26147,-24485034.24950,   0.00184,   0.00086,  -0.00128,481530739.39321,   0.00138,276141415.58211,   0.00037,  -0.00012,  -0.00096,   0.00000,   2.00000
507702512.96074,431946446.91632,-23722352.51914,   0.00186,   0.00087,  -0.00128,481541025.83872,   0.00140,276159141.60449,   0.00039,  -0.00011,  -0.00097,  -0.00000,   2.00000
507596162.03872,432463142.40088,-22969584.30547,   0.00187,   0.00088,  -0.00127,481562684.49225,   0.00141,276176865.62378,   0.00041,  -0.00009,  -0.00097,  -0.00000,   2.00000
507486357.21987,432968992.56144,-22230554.28718,   0.00189,   0.00090,  -0.00126,481584804.42010,   0.00143,276194589.52359,   0.00042,  -0.00008,  -0.00098,   0.00000,   2.00000
507371515.72729,433468305.89832,-21501750.07235,   0.00190,   0.00091,  -0.00126,481595368.36193,   0.00145,276212275.74992,   0.00044,  -0.00007,  -0.00098,   0.00000,   2.00000
507254197.39734,433957704.46401,-20782458.71625,   0.00192,   0.00092,  -0.00125,481616664.27121,   0.00146,276229959.92428,   0.00046,  -0.00006,  -0.00098,  -0.00000,   2.00000
507132150.23835,434440975.96953,-20073113.26742,   0.00194,   0.00094,  -0.00125,481627015.90021,   0.00148,276247606.54558,   0.00048,  -0.00005,  -0.00099,   0.00000,   2.00000
507007419.79650,434914282.60027,-19376982.26678,   0.00195,   0.00095,  -0.00124,481648587.63373,   0.00150,276265252.78452,   0.00049,  -0.00004,  -0.00099,   0.00000,   2.00000
506878790.75542,435382304.16615,-18686530.04849,   0.00197,   0.00096,  -0.00124,481658231.03710,   0.00151,276282859.92928,   0.00051,  -0.00003,  -0.00099,   0.00000,   2.00000
506747806.54426,435840752.47887,-18009061.21282,   0.00198,   0.00097,  -0.00123,481679562.38151,   0.00153,276300466.61199,   0.00053,  -0.00002,  -0.00100,   0.00000,   2.00000
506618736.58161,436284371.26506,-17340867.34824,   0.00200,   0.00099,  -0.00122,481691271.53325,   0.00155,276318041.80217,   0.00054,  -0.00001,  -0.00100,  -0.00000,   2.00000
506479554.16864,436732451.57514,-16681958.19771,   0.00201,   0.00100,  -0.00122,481699302.52477,   0.00156,276335573.80577,   0.00056,   0.00000,  -0.00100,   0.00000,   2.00000
506340970.46450,437167897.28500,-16035200.63183,   0.00203,   0.00101,  -0.00121,481731071.18643,   0.00158,276353140.43073,   0.00058,   0.00001,  -0.00100,   0.00000,   2.00000
506202695.05055,437593097.54208,-15393759.35663,   0.00204,   0.00103,  -0.00121,481731241.18952,   0.00160,276370638.95981,   0.00059,   0.00002,  -0.00101,  -0.00000,   2.00000
506060333.16447,438013422.37138,-14765080.43074,   0.00206,   0.00104,  -0.00120,481741138.44580,   0.00161,276388101.57752,   0.00061,   0.00003,  -0.00101,   0.00000,   2.00000
505910780.15438,438435168.25340,-14144705.46774,   0.00207,   0.00105,  -0.00120,481759633.23286,   0.00163,276405556.53552,   0.00063,   0.00004,  -0.00101,   0.00000,   2.00000
505763615.47964,438842829.34424,-13536731.59951,   0.00209,   0.00106,  -0.00119,481771021.07265,   0.00164,276422981.10044,   0.00064,   0.00005,  -0.00102,   0.00000,   2.00000
505615986.24015,439243082.18206,-12932782.30349,   0.00210,   0.00108,  -0.00119,481790700.93470,   0.00166,276440402.53118,   0.00066,   0.00007,  -0.00102,   0.00000,   2.00000
505464774.57462,439639156.16078,-12341052.40724,   0.00212,   0.00109,  -0.00118,481800186.71110,   0.00168,276457787.97928,   0.00068,   0.00008,  -0.00102,   0.00000,   2.00000
505310445.34094,440031478.47110,-11757405.29008,   0.00213,   0.00110,  -0.00117,481809242.64143,   0.00169,276475136.39572,   0.00069,   0.00009,  -0.00102,   0.00000,   2.00000
505153093.89108,440420164.25297,-11181712.55479,   0.00215,   0.00112,  -0.00117,481818211.81328,   0.00171,276492447.84247,   0.00071,   0.00010,  -0.00102,  -0.00000,   2.00000
504998749.33355,440795705.53403,-10617762.38081,   0.00216,   0.00113,  -0.00116,481828992.35904,   0.00173,276509728.62402,   0.00073,   0.00011,  -0.00103,  -0.00000,   2.00000
504837846.36713,441173684.11744,-10061239.09019,   0.00218,   0.00114,  -0.00116,481846910.59081,   0.00174,276527002.08356,   0.00074,   0.00012,  -0.00103,   0.00000,   2.00000
504680450.44563,441539065.74972,-9512226.52326,   0.00219,   0.00116,  -0.00115,481857230.92395,   0.00176,276544243.92025,   0.00076,   0.00013,  -0.00103,   0.00000,   2.00000
504520339.74430,441901455.72752,-8970644.70291,   0.00221,   0.00117,  -0.00115,481865853.39024,   0.00177,276561448.93582,   0.00078,   0.00014,  -0.00103,   0.00000,   2.00000
504357368.53698,442260758.35223,-8440334.58684,   0.00222,   0.00118,  -0.00114,481874611.80358,   0.00179,276578617.89001,   0.00079,   0.00015,  -0.00103,  -0.00000,   2.00000
504191867.44797,442617284.12514,-7917167.38692,   0.00224,   0.00119,  -0.00114,481883054.62898,   0.00181,276595750.06234,   0.00081,   0.00016,  -0.00103,   0.00000,   2.00000
504026493.42482,442967406.58844,-7400830.78344,   0.00225,   0.00121,  -0.00113,481902174.52237,   0.00182,276612880.24812,   0.00082,   0.00017,  -0.00103,   0.00000,   2.00000
503858711.15469,443314976.87844,-6891425.27147,   0.00227,   0.00122,  -0.00113,481910496.29468,   0.00184,276629973.74533,   0.00084,   0.00019,  -0.00104,   0.00000,   2.00000
503692149.27260,443654361.03636,-6392947.56604,   0.00228,   0.00123,  -0.00112,481909688.07195,   0.00185,276647001.45560,   0.00086,   0.00020,  -0.00104,  -0.00000,   2.00000
503519565.60067,443997033.89055,-5900979.56776,   0.00230,   0.00125,  -0.00111,481927027.86705,   0.00187,276664022.23507,   0.00087,   0.00021,  -0.00104,   0.00000,   2.00000
503348533.42684,444331877.57191,-5415685.76935,   0.00231,   0.00126,  -0.00111,481925878.86241,   0.00189,276680976.70871,   0.00089,   0.00022,  -0.00104,  -0.00000,   2.00000
503177838.30510,444660753.37837,-4940655.76955,   0.00233,   0.00127,  -0.00110,481944706.17647,   0.00190,276697929.64797,   0.00090,   0.00023,  -0.00104,   0.00000,   2.00000
503005039.64509,444987655.90157,-4471916.46697,   0.00234,   0.00128,  -0.00110,481952618.94063,   0.00192,276714846.03004,   0.00092,   0.00024,  -0.00104,   0.00000,   2.00000
502830190.49562,445312653.48820,-4009365.68408,   0.00236,   0.00130,  -0.00109,481960467.16103,   0.00193,276731725.90729,   0.00094,   0.00025,  -0.00104,   0.00000,   2.00000
502657003.60651,445630244.32443,-3556949.28285,   0.00237,   0.00131,  -0.00109,481959075.69617,   0.00195,276748539.86915,   0.00095,   0.00026,  -0.00104,  -0.00000,   2.00000
502484529.54439,445942420.26464,-3110377.04838,   0.00239,   0.00132,  -0.00108,481977438.97960,   0.00196,276765351.83307,   0.00097,   0.00027,  -0.00104,  -0.00000,   2.00000
502303670.74963,446262260.81813,-2669657.40692,   0.00240,   0.00134,  -0.00108,481983641.43110,   0.00198,276782122.74067,   0.00098,   0.00028,  -0.00104,   0.00000,   2.00000
502124743.77710,446575021.17324,-2234735.49774,   0.00241,   0.00135,  -0.00107,481981932.81080,   0.00200,276798827.48751,   0.00100,   0.00030,  -0.00104,  -0.00000,   2.00000
501950416.01269,446877057.41244,-1809415.09890,   0.00243,   0.00136,  -0.00107,481990851.48817,   0.00201,276815500.64067,   0.00102,   0.00031,  -0.00104,   0.00000,   2.00000
501770492.41708,447183241.13210,-1389563.75806,   0.00244,   0.00137,  -0.00106,482007536.17917,   0.00203,276832167.29651,   0.00103,   0.00032,  -0.00104,   0.00000,   2.00000
501592573.11017,447482685.10999,-979122.28311,   0.00246,   0.00139,  -0.00106,482005619.34679,   0.00204,276848767.92050,   0.00105,   0.00033,  -0.00104,   0.00000,   2.00000
501410189.98486,447784749.31290,-573968.55667,   0.00247,   0.00140,  -0.00105,482002194.04666,   0.00206,276865297.99544,   0.00106,   0.00034,  -0.00104,   0.00000,   2.00000
501228884.29049,448081881.01163,-173985.88350,   0.00248,   0.00141,  -0.00105,482020033.74436,   0.00207,276881826.09639,   0.00108,   0.00035,  -0.00104,   0.00000,   2.00000
501045927.18823,448377957.63973,216928.73231,   0.00250,   0.00142,  -0.00104,482027169.86832,   0.00209,276898317.99551,   0.00109,   0.00036,  -0.00104,   0.00000,   2.00000
500861365.21394,448673035.85152,602875.31863,   0.00251,   0.00144,  -0.00104,482034239.20421,   0.00211,276914773.69532,   0.00111,   0.00037,  -0.00104,  -0.00000,   2.00000
500679018.56400,448961815.02920,983957.90199,   0.00253,   0.00145,  -0.00103,482031912.59200,   0.00212,276931163.35846,   0.00112,   0.00038,  -0.00104,   0.00000,   2.00000
500495087.01844,449249764.70390,1360242.02232,   0.00254,   0.00146,  -0.00103,482038837.39226,   0.00214,276947516.93733,   0.00114,   0.00039,  -0.00104,   0.00000,   2.00000
500309643.85449,449536962.99554,1727839.49486,   0.00255,   0.00148,  -0.00102,482045668.27267,   0.00215,276963834.33683,   0.00115,   0.00041,  -0.00104,   0.00000,   2.00000
500123728.35305,449821958.64106,2086981.09809,   0.00257,   0.00149,  -0.00102,482032419.41953,   0.00217,276980051.52953,   0.00117,   0.00042,  -0.00104,   0.00000,   2.00000
499935346.89287,450107799.92393,2441549.90410,   0.00258,   0.00150,  -0.00101,482059096.85169,   0.00218,276996296.66162,   0.00119,   0.00043,  -0.00104,   0.00000,   2.00000
499749321.49482,450387706.68875,2791788.93090,   0.00260,   0.00151,  -0.00101,482056411.69737,   0.00220,277012475.83253,   0.00120,   0.00044,  -0.00104,   0.00000,   2.00000
499558986.75356,450670876.38937,3137795.10927,   0.00261,   0.00153,  -0.00100,482052393.56851,   0.00221,277028585.07414,   0.00122,   0.00045,  -0.00104,   0.00000,   2.00000
499373983.46720,450944510.91763,3475586.90588,   0.00262,   0.00154,  -0.00100,482060064.86164,   0.00223,277044662.12720,   0.00123,   0.00046,  -0.00104,  -0.00000,   2.00000
499184667.71091,451221570.87778,3809359.84981,   0.00264,   0.00155,  -0.00099,482055906.67187,   0.00224,277060669.35751,   0.00124,   0.00047,  -0.00104,   0.00000,   2.00000
498990241.44677,451503557.07010,4135025.00870,   0.00265,   0.00156,  -0.00099,482071590.17039,   0.00226,277076670.40534,   0.00126,   0.00048,  -0.00104,   0.00000,   2.00000
498802107.37772,451774657.18562,4456962.63526,   0.00266,   0.00158,  -0.00098,482059134.35653,   0.00227,277092575.59032,   0.00127,   0.00049,  -0.00104,   0.00000,   2.00000
498608760.50633,452050711.96782,4774929.64586,   0.00268,   0.00159,  -0.00098,482074789.81484,   0.00229,277108475.00685,   0.00129,   0.00050,  -0.00104,  -0.00000,   2.00000
498418022.29838,452321375.56276,5085247.10321,   0.00269,   0.00160,  -0.00097,482071475.24459,   0.00230,277124308.23198,   0.00130,   0.00052,  -0.00104,   0.00000,   2.00000
498226073.10232,452591969.86069,5387912.92420,   0.00270,   0.00161,  -0.00097,482077476.35637,   0.00232,277140105.26997,   0.00132,   0.00053,  -0.00104,  -0.00000,   2.00000
498029717.12043,452866087.14393,5691118.10756,   0.00272,   0.00163,  -0.00096,482073121.35224,   0.00233,277155833.26868,   0.00133,   0.00054,  -0.00104,  -0.00000,   2.00000
497836034.57157,453134979.14306,5986936.58467,   0.00273,   0.00164,  -0.00096,482069558.60437,   0.00235,277171495.09131,   0.00135,   0.00055,  -0.00103,   0.00000,   2.00000
497637370.64193,453409076.87491,6275192.61416,   0.00274,   0.00165,  -0.00095,482084782.26085,   0.00236,277187150.85152,   0.00136,   0.00056,  -0.00103,  -0.00000,   2.00000
497444932.27392,453672604.55302,6564373.31047,   0.00276,   0.00166,  -0.00095,482071958.14291,   0.00238,277202711.34120,   0.00138,   0.00057,  -0.00103,   0.00000,   2.00000
497247685.15073,453941604.33623,6842127.93187,   0.00277,   0.00168,  -0.00094,482086886.34653,   0.00239,277218265.29296,   0.00139,   0.00058,  -0.00103,   0.00000,   2.00000
497049829.29505,454209133.41131,7121014.70837,   0.00278,   0.00169,  -0.00094,482072832.79151,   0.00241,277233720.52023,   0.00140,   0.00059,  -0.00103,   0.00000,   2.00000
496851072.00233,454477027.27419,7388795.48408,   0.00279,   0.00170,  -0.00093,482078156.12766,   0.00242,277249139.09231,   0.00142,   0.00060,  -0.00103,   0.00000,   2.00000
496650859.52804,454744796.36603,7657514.81390,   0.00281,   0.00171,  -0.00093,482083980.53922,   0.00244,277264522.78606,   0.00143,   0.00061,  -0.00103,   0.00000,   2.00000
496450405.53422,455011561.44198,7919636.69874,   0.00282,   0.00173,  -0.00092,482069366.01854,   0.00245,277279806.75559,   0.00145,   0.00062,  -0.00103,   0.00000,   2.00000
496244852.78708,455283505.04562,8178645.11740,   0.00283,   0.00174,  -0.00092,482084351.11141,   0.00246,277295085.51253,   0.00146,   0.00063,  -0.00103,   0.00000,   2.00000
496045979.81282,455545580.11978,8431208.76330,   0.00284,   0.00175,  -0.00091,482070636.17046,   0.00248,277310267.91683,   0.00148,   0.00065,  -0.00102,  -0.00000,   2.00000
495841988.74107,455812922.62513,8680791.85316,   0.00286,   0.00176,  -0.00091,482085506.33417,   0.00249,277325445.18811,   0.00149,   0.00066,  -0.00102,   0.00000,   2.00000
495637767.09703,456079436.47326,8924119.30319,   0.00287,   0.00178,  -0.00091,482070626.35620,   0.00251,277340522.84531,   0.00150,   0.00067,  -0.00102,  -0.00000,   2.00000
495429223.86900,456349993.64944,9165049.69816,   0.00288,   0.00179,  -0.00090,482065376.77505,   0.00252,277355531.87203,   0.00152,   0.00068,  -0.00102,  -0.00000,   2.00000
495226645.05035,456612086.33587,9399402.07888,   0.00289,   0.00180,  -0.00090,482071315.77936,   0.00254,277370508.12612,   0.00153,   0.00069,  -0.00102,  -0.00000,   2.00000
495019699.68054,456878329.72455,9631503.93626,   0.00291,   0.00181,  -0.00089,482065954.15810,   0.00255,277385415.86137,   0.00154,   0.00070,  -0.00102,  -0.00000,   2.00000
494808397.19929,457148684.35928,9861404.41912,   0.00292,   0.00182,  -0.00089,482060541.73027,   0.00256,277400255.18649,   0.00156,   0.00071,  -0.00102,   0.00000,   2.00000
494599264.78022,457415658.13310,10084661.91559,   0.00293,   0.00184,  -0.00088,482075792.47405,   0.00258,277415091.96164,   0.00157,   0.00072,  -0.00101,  -0.00000,   2.00000
494386473.76201,457685655.49608,10306367.02133,   0.00294,   0.00185,  -0.00088,482050284.03655,   0.00259,277429796.90954,   0.00158,   0.00073,  -0.00101,   0.00000,   2.00000
494175879.88393,457952329.85797,10521546.00762,   0.00295,   0.00186,  -0.00087,482065369.56080,   0.00261,277444499.30868,   0.00160,   0.00074,  -0.00101,  -0.00000,   2.00000
493964737.66076,458218255.35672,10735051.45459,   0.00296,   0.00187,  -0.00087,482050196.87695,   0.00262,277459103.25908,   0.00161,   0.00075,  -0.00101,  -0.00000,   2.00000
493749446.77759,458488662.98500,10942709.52202,   0.00298,   0.00189,  -0.00087,482044219.78437,   0.00263,277473638.27897,   0.00162,   0.00076,  -0.00101,  -0.00000,   2.00000
493532925.59280,458759406.78859,11148282.35480,   0.00299,   0.00190,  -0.00086,482048914.86715,   0.00265,277488138.47467,   0.00164,   0.00077,  -0.00101,   0.00000,   2.00000
493319324.07373,459025858.66718,11348109.71127,   0.00300,   0.00191,  -0.00086,482043709.69649,   0.00266,277502572.64407,   0.00165,   0.00078,  -0.00100,   0.00000,   2.00000
493101248.66617,459296593.03440,11546265.11866,   0.00301,   0.00192,  -0.00085,482037845.71339,   0.00267,277516938.95645,   0.00166,   0.00079,  -0.00100,   0.00000,   2.00000
492878703.57584,459571567.48729,11742786.68597,   0.00302,   0.00193,  -0.00085,482031935.23107,   0.00269,277531237.52832,   0.00168,   0.00080,  -0.00100,   0.00000,   2.00000
492659098.59242,459842298.90529,11933723.48248,   0.00303,   0.00195,  -0.00084,482026506.70614,   0.00270,277545470.17380,   0.00169,   0.00082,  -0.00100,  -0.00000,   2.00000
492438545.62152,460113742.13049,12118867.91115,   0.00304,   0.00196,  -0.00084,482030591.53035,   0.00271,277559667.26085,   0.00170,   0.00083,  -0.00100,   0.00000,   2.00000
492213473.58949,460389478.97749,12302575.67682,   0.00306,   0.00197,  -0.00084,482024523.13299,   0.00273,277573796.79949,   0.00171,   0.00084,  -0.00100,   0.00000,   2.00000
491987748.99664,460664636.32823,12485178.80307,   0.00307,   0.00198,  -0.00083,482008788.95313,   0.00274,277587828.49436,   0.00173,   0.00085,  -0.00099,   0.00000,   2.00000
491761086.59635,460940512.29274,12662122.69236,   0.00308,   0.00199,  -0.00083,482012675.75266,   0.00275,277601824.78189,   0.00174,   0.00086,  -0.00099,   0.00000,   2.00000
491533729.35219,461215872.42934,12838080.55143,   0.00309,   0.00201,  -0.00082,481996808.38566,   0.00277,277615723.35587,   0.00175,   0.00087,  -0.00099,   0.00000,   2.00000
491305423.11711,461491995.25485,13008478.25776,   0.00310,   0.00202,  -0.00082,482000554.80052,   0.00278,277629586.59874,   0.00176,   0.00088,  -0.00099,  -0.00000,   2.00000
491072508.94336,461772444.55973,13177688.02058,   0.00311,   0.00203,  -0.00081,481994203.39573,   0.00279,277643382.73281,   0.00178,   0.00089,  -0.00099,   0.00000,   2.00000
490839199.42578,462052727.49066,13342095.72126,   0.00312,   0.00204,  -0.00081,481977817.87289,   0.00281,277657080.31515,   0.00179,   0.00090,  -0.00098,   0.00000,   2.00000
490604601.58888,462333456.41080,13505068.58283,   0.00313,   0.00205,  -0.00081,481981704.56208,   0.00282,277670743.78236,   0.00180,   0.00091,  -0.00098,   0.00000,   2.00000
490365696.74369,462618830.63837,13663018.76101,   0.00314,   0.00207,  -0.00080,481974849.33093,   0.00283,277684339.32503,   0.00181,   0.00092,  -0.00098,   0.00000,   2.00000
490126009.68490,462903754.23782,13820310.26313,   0.00315,   0.00208,  -0.00080,481958613.97807,   0.00285,277697837.60414,   0.00182,   0.00093,  -0.00098,   0.00000,   2.00000
489889253.90768,463184728.78371,13972650.74053,   0.00316,   0.00209,  -0.00079,481952290.88947,   0.00286,277711270.30198,   0.00184,   0.00094,  -0.00098,   0.00000,   2.00000
489643881.01859,463474789.78200,14123754.11730,   0.00317,   0.00210,  -0.00079,481955261.68296,   0.00287,277724666.98966,   0.00185,   0.00095,  -0.00097,   0.00000,   2.00000
489401456.24160,463760896.45968,14269997.80461,   0.00318,   0.00211,  -0.00079,481948835.16286,   0.00288,277737998.16765,   0.00186,   0.00096,  -0.00097,   0.00000,   2.00000
489158148.19872,464046669.38101,14415780.49640,   0.00319,   0.00213,  -0.00078,481932346.88204,   0.00290,277751232.36112,   0.00187,   0.00097,  -0.00097,   0.00000,   2.00000
488910041.64956,464336811.50244,14560777.09293,   0.00320,   0.00214,  -0.00078,481925477.99456,   0.00291,277764400.28490,   0.00188,   0.00098,  -0.00097,  -0.00000,   2.00000
488657507.24082,464631632.63929,14701046.59070,   0.00321,   0.00215,  -0.00078,481918199.00500,   0.00292,277777500.88687,   0.00190,   0.00099,  -0.00097,   0.00000,   2.00000
488407898.14369,464922578.79189,14836629.24709,   0.00322,   0.00216,  -0.00077,481911463.02966,   0.00293,277790536.15010,   0.00191,   0.00100,  -0.00096,  -0.00000,   2.00000
488153431.97633,465217883.79941,14971571.10400,   0.00323,   0.00217,  -0.00077,481904437.69322,   0.00295,277803505.41576,   0.00192,   0.00101,  -0.00096,  -0.00000,   2.00000
487897984.84533,465512891.91258,15106256.51132,   0.00324,   0.00218,  -0.00076,481887637.60930,   0.00296,277816378.14817,   0.00193,   0.00102,  -0.00096,  -0.00000,   2.00000
487638023.21622,465812606.68990,15236376.21002,   0.00325,   0.00220,  -0.00076,481880108.94228,   0.00297,277829183.91623,   0.00194,   0.00103,  -0.00096,   0.00000,   2.00000
487377072.48878,466113108.22144,15361595.78169,   0.00326,   0.00221,  -0.00076,481882821.66596,   0.00298,277841955.23714,   0.00195,   0.00104,  -0.00096,   0.00000,   2.00000
487115078.44229,466413342.21463,15486703.96107,   0.00327,   0.00222,  -0.00075,481865848.98315,   0.00300,277854630.26007,   0.00196,   0.00105,  -0.00095,  -0.00000,   2.00000
486852001.91382,466713345.63799,15611720.01662,   0.00328,   0.00223,  -0.00075,481848788.91413,   0.00301,277867209.09263,   0.00197,   0.00106,  -0.00095,  -0.00000,   2.00000
486580429.06655,467022622.85385,15731936.37348,   0.00329,   0.00224,  -0.00075,481850791.99942,   0.00302,277879752.09465,   0.00198,   0.00107,  -0.00095,   0.00000,   2.00000
486315633.98855,467323581.88228,15848156.40099,   0.00330,   0.00225,  -0.00074,481833719.10951,   0.00303,277892199.37976,   0.00200,   0.00108,  -0.00095,   0.00000,   2.00000
486041880.39581,467633434.76055,15963642.10497,   0.00331,   0.00227,  -0.00074,481836023.40191,   0.00304,277904612.28726,   0.00201,   0.00109,  -0.00095,   0.00000,   2.00000
485767240.91519,467942443.49653,16079987.81219,   0.00331,   0.00228,  -0.00074,481798711.60964,   0.00305,277916866.31836,   0.00202,   0.00109,  -0.00094,   0.00000,   2.00000
485487642.18968,468256756.34282,16191243.63515,   0.00332,   0.00229,  -0.00073,481810730.98050,   0.00307,277929117.24929,   0.00203,   0.00110,  -0.00094,  -0.00000,   2.00000
485206831.48287,468570848.96960,16302629.24075,   0.00333,   0.00230,  -0.00073,481793328.25371,   0.00308,277941272.57273,   0.00204,   0.00111,  -0.00094,  -0.00000,   2.00000
484928842.70990,468881266.82111,16409780.11630,   0.00334,   0.00231,  -0.00072,481785649.98582,   0.00309,277953363.23769,   0.00205,   0.00112,  -0.00094,   0.00000,   2.00000
484642397.49341,469200320.03850,16513182.97640,   0.00335,   0.00232,  -0.00072,481767279.88599,   0.00310,277965355.85782,   0.00206,   0.00113,  -0.00094,   0.00000,   2.00000
484354022.95523,469519333.37188,16619968.45465,   0.00336,   0.00233,  -0.00072,481770116.73095,   0.00311,277977317.49871,   0.00207,   0.00114,  -0.00093,   0.00000,   2.00000
484061453.82338,469842898.48421,16719478.76977,   0.00337,   0.00234,  -0.00071,481741430.14261,   0.00312,277989149.18206,   0.00208,   0.00115,  -0.00093,   0.00000,   2.00000
483767348.64690,470166808.38366,16818461.99869,   0.00337,   0.00236,  -0.00071,481743718.24854,   0.00314,278000948.74487,   0.00209,   0.00116,  -0.00093,  -0.00000,   2.00000
483471853.42669,470490574.96221,16917769.92186,   0.00338,   0.00237,  -0.00071,481725941.81252,   0.00315,278012653.28936,   0.00210,   0.00117,  -0.00093,   0.00000,   2.00000
483171457.50219,470819018.82378,17013034.00426,   0.00339,   0.00238,  -0.00070,481717518.31513,   0.00316,278024292.54613,   0.00211,   0.00118,  -0.00093,  -0.00000,   2.00000
482869611.72646,471147330.62815,17108681.82142,   0.00340,   0.00239,  -0.00070,481699614.92979,   0.00317,278035837.00547,   0.00212,   0.00119,  -0.00092,  -0.00000,   2.00000
482562807.54495,471480305.59632,17200338.38019,   0.00341,   0.00240,  -0.00070,481691076.55932,   0.00318,278047316.42520,   0.00213,   0.00120,  -0.00092,   0.00000,   2.00000
482254491.20638,471813160.22253,17292435.16457,   0.00341,   0.00241,  -0.00069,481673048.02794,   0.00319,278058701.27221,   0.00214,   0.00121,  -0.00092,   0.00000,   2.00000
481941156.16859,472150663.66489,17380590.91427,   0.00342,   0.00242,  -0.00069,481664397.02067,   0.00320,278070021.33315,   0.00215,   0.00122,  -0.00092,  -0.00000,   2.00000
481626244.15214,472488058.90036,17469240.93191,   0.00343,   0.00243,  -0.00069,481646245.16948,   0.00321,278081247.04993,   0.00216,   0.00122,  -0.00092,   0.00000,   2.00000
481306250.54552,472830088.34547,17553997.87393,   0.00344,   0.00245,  -0.00069,481637483.78102,   0.00322,278092408.23964,   0.00217,   0.00123,  -0.00091,   0.00000,   2.00000
480988482.17232,473168123.69973,17638857.11743,   0.00344,   0.00246,  -0.00068,481629331.27996,   0.00323,278103507.07616,   0.00218,   0.00124,  -0.00091,  -0.00000,   2.00000
480661672.11878,473514719.20002,17720316.97055,   0.00345,   0.00247,  -0.00068,481610364.35071,   0.00324,278114509.86157,   0.00219,   0.00125,  -0.00091,   0.00000,   2.00000
480329248.65209,473865456.95535,17801932.32334,   0.00346,   0.00248,  -0.00068,481601911.90509,   0.00325,278125449.94800,   0.00220,   0.00126,  -0.00091,   0.00000,   2.00000
479995087.90692,474216087.30529,17884150.25732,   0.00346,   0.00249,  -0.00067,481583487.00544,   0.00326,278136296.31331,   0.00220,   0.00127,  -0.00091,   0.00000,   2.00000
479663977.67818,474563634.38314,17958600.57601,   0.00347,   0.00250,  -0.00067,481574161.95665,   0.00327,278147077.82784,   0.00221,   0.00128,  -0.00090,   0.00000,   2.00000
479322716.63586,474918820.89754,18037703.64676,   0.00348,   0.00251,  -0.00067,481555924.36516,   0.00329,278157766.82004,   0.00222,   0.00129,  -0.00090,   0.00000,   2.00000
478980046.44221,475274397.97916,18113497.86842,   0.00348,   0.00252,  -0.00066,481536846.74988,   0.00330,278168361.00109,   0.00223,   0.00129,  -0.00090,  -0.00000,   2.00000
478632017.28271,475634547.14226,18185570.24328,   0.00349,   0.00253,  -0.00066,481527666.72618,   0.00331,278178891.74504,   0.00224,   0.00130,  -0.00090,   0.00000,   2.00000
478282048.69259,475994653.12825,18258373.93844,   0.00350,   0.00254,  -0.00066,481508926.66794,   0.00332,278189329.34560,   0.00225,   0.00131,  -0.00090,   0.00000,   2.00000
477926188.79699,476358860.35853,18331457.13750,   0.00350,   0.00256,  -0.00066,481500110.54395,   0.00333,278199705.26090,   0.00226,   0.00132,  -0.00089,   0.00000,   2.00000
477568767.12787,476723494.69324,18401317.05863,   0.00351,   0.00257,  -0.00065,481480799.97079,   0.00334,278209986.84209,   0.00227,   0.00133,  -0.00089,  -0.00000,   2.00000
477205831.54341,477092667.79657,18467529.56533,   0.00351,   0.00258,  -0.00065,481471424.87120,   0.00334,278220205.56423,   0.00227,   0.00134,  -0.00089,  -0.00000,   2.00000
476832806.42199,477469780.41347,18534553.73766,   0.00352,   0.00259,  -0.00065,481452479.30241,   0.00335,278230331.70103,   0.00228,   0.00135,  -0.00089,  -0.00000,   2.00000
476465655.73046,477838877.80938,18602392.70806,   0.00353,   0.00260,  -0.00064,481433444.38688,   0.00336,278240365.33026,   0.00229,   0.00135,  -0.00089,   0.00000,   2.00000
476084831.97544,478220436.25270,18666616.50938,   0.00353,   0.00261,  -0.00064,481423961.08375,   0.00337,278250336.70865,   0.00230,   0.00136,  -0.00088,   0.00000,   2.00000
475709832.00869,478594031.27967,18731694.33103,   0.00354,   0.00262,  -0.00064,481404782.13220,   0.00338,278260215.72297,   0.00231,   0.00137,  -0.00088,   0.00000,   2.00000
475324933.20973,478976049.70113,18793658.04101,   0.00354,   0.00263,  -0.00064,481385180.73418,   0.00339,278270001.39312,   0.00231,   0.00138,  -0.00088,  -0.00000,   2.00000
474934268.71983,479362512.88982,18852070.34561,   0.00355,   0.00264,  -0.00063,481375520.67042,   0.00340,278279725.18852,   0.00232,   0.00139,  -0.00088,  -0.00000,   2.00000
474540767.38555,479748491.21892,18915365.06230,   0.00355,   0.00265,  -0.00063,481356709.31499,   0.00341,278289358.72433,   0.00233,   0.00139,  -0.00088,   0.00000,   2.00000
474141409.87949,480138896.10912,18975107.86337,   0.00356,   0.00266,  -0.00063,481346968.78624,   0.00342,278298930.72797,   0.00234,   0.00140,  -0.00087,   0.00000,   2.00000
473740055.68001,480529781.37137,19031807.36274,   0.00356,   0.00267,  -0.00063,481327104.60745,   0.00343,278308409.74440,   0.00235,   0.00141,  -0.00087,   0.00000,   2.00000
473336175.58672,480920706.35136,19089458.59275,   0.00357,   0.00268,  -0.00062,481307643.25272,   0.00344,278317797.38980,   0.00235,   0.00142,  -0.00087,   0.00000,   2.00000
472921998.65146,481319952.66702,19144086.93369,   0.00357,   0.00269,  -0.00062,481287838.64313,   0.00345,278327092.93049,   0.00236,   0.00143,  -0.00087,   0.00000,   2.00000
472501300.90196,481723062.67233,19199211.18144,   0.00358,   0.00270,  -0.00062,481278404.80641,   0.00346,278336329.17359,   0.00237,   0.00143,  -0.00087,  -0.00000,   2.00000
472077934.52184,482126165.75617,19255316.13096,   0.00358,   0.00272,  -0.00061,481258817.55307,   0.00347,278345474.58710,   0.00238,   0.00144,  -0.00087,  -0.00000,   2.00000
471652309.99340,482529784.73396,19308436.49907,   0.00359,   0.00273,  -0.00061,481238673.00518,   0.00347,278354527.75869,   0.00238,   0.00145,  -0.00086,   0.00000,   2.00000
471220472.82786,482937747.84426,19358111.24680,   0.00359,   0.00274,  -0.00061,481228617.11716,   0.00348,278363520.59133,   0.00239,   0.00146,  -0.00086,   0.00000,   2.00000
470785319.85550,483345264.98871,19412789.18949,   0.00360,   0.00275,  -0.00061,481209352.80182,   0.00349,278372424.53181,   0.00240,   0.00147,  -0.00086,  -0.00000,   2.00000
470339906.80062,483761485.15567,19460528.39649,   0.00360,   0.00276,  -0.00060,481188891.37568,   0.00350,278381236.15355,   0.00240,   0.00147,  -0.00086,  -0.00000,   2.00000
469891061.39064,484177229.91921,19513295.04246,   0.00360,   0.00277,  -0.00060,481169532.66315,   0.00351,278389959.26899,   0.00241,   0.00148,  -0.00086,  -0.00000,   2.00000
469440147.62247,484594019.25611,19559162.74571,   0.00361,   0.00278,  -0.00060,481148632.27149,   0.00352,278398589.36245,   0.00242,   0.00149,  -0.00085,   0.00000,   2.00000
468981780.87333,485014089.39554,19609584.79094,   0.00361,   0.00279,  -0.00060,481139353.49790,   0.00352,278407163.15388,   0.00242,   0.00150,  -0.00085,  -0.00000,   2.00000
468512359.84809,485442277.61913,19657078.76836,   0.00362,   0.00280,  -0.00060,481119286.02973,   0.00353,278415647.12102,   0.00243,   0.00150,  -0.00085,  -0.00000,   2.00000
468044100.41162,485867325.61145,19702190.07941,   0.00362,   0.00281,  -0.00059,481088529.48245,   0.00354,278424008.14916,   0.00244,   0.00151,  -0.00085,   0.00000,   2.00000
467564796.36297,486299722.64798,19747400.90678,   0.00362,   0.00282,  -0.00059,481088881.56755,   0.00355,278432343.99641,   0.00244,   0.00152,  -0.00085,   0.00000,   2.00000
467086046.11927,486728535.31334,19794222.64242,   0.00363,   0.00283,  -0.00059,481058520.48009,   0.00356,278440558.71626,   0.00245,   0.00152,  -0.00085,   0.00000,   2.00000
466595882.87877,487165422.79727,19838155.09972,   0.00363,   0.00284,  -0.00059,481038319.57051,   0.00356,278448684.52514,   0.00246,   0.00153,  -0.00084,   0.00000,   2.00000
466103001.03894,487602046.35890,19882222.61571,   0.00363,   0.00285,  -0.00058,481038101.55963,   0.00357,278456784.25403,   0.00246,   0.00154,  -0.00084,   0.00000,   2.00000
465602418.54198,488043117.16865,19923931.63897,   0.00364,   0.00286,  -0.00058,481007631.61973,   0.00358,278464763.40187,   0.00247,   0.00155,  -0.00084,  -0.00000,   2.00000
465093545.03658,488488117.32358,19967269.22012,   0.00364,   0.00287,  -0.00058,480977606.41345,   0.00359,278472623.80107,   0.00247,   0.00155,  -0.00084,  -0.00000,   2.00000
464581816.63562,488932799.87271,20010751.74962,   0.00364,   0.00288,  -0.00058,480977244.70594,   0.00359,278480458.65947,   0.00248,   0.00156,  -0.00084,   0.00000,   2.00000
464062091.29264,489381931.97641,20051892.26648,   0.00364,   0.00289,  -0.00058,480946673.50124,   0.00360,278488173.60146,   0.00249,   0.00157,  -0.00084,   0.00000,   2.00000
463534669.27366,489834578.58421,20093677.73007,   0.00365,   0.00290,  -0.00057,480936565.36326,   0.00361,278495833.07145,   0.00249,   0.00157,  -0.00083,   0.00000,   2.00000
462999045.58667,490291642.33975,20133138.48278,   0.00365,   0.00291,  -0.00057,480905948.28755,   0.00362,278503373.12861,   0.00250,   0.00158,  -0.00083,   0.00000,   2.00000
462459428.12234,490748739.59201,20173776.74625,   0.00365,   0.00292,  -0.00057,480885434.98636,   0.00362,278510825.80390,   0.00250,   0.00159,  -0.00083,   0.00000,   2.00000
461911883.95411,491209283.96219,20215068.56199,   0.00365,   0.00293,  -0.00057,480875236.74215,   0.00363,278518223.69566,   0.00251,   0.00159,  -0.00083,   0.00000,   2.00000
461360679.46427,491670392.42381,20253564.87663,   0.00366,   0.00294,  -0.00056,480854155.56121,   0.00364,278525532.95665,   0.00251,   0.00160,  -0.00083,   0.00000,   2.00000
460796509.79021,492138754.32532,20293214.62344,   0.00366,   0.00295,  -0.00056,480834315.61788,   0.00365,278532757.81013,   0.00252,   0.00161,  -0.00083,   0.00000,   2.00000
460228510.67816,492607649.92930,20330083.38451,   0.00366,   0.00296,  -0.00056,480813173.52236,   0.00365,278539894.47646,   0.00253,   0.00161,  -0.00083,  -0.00000,   2.00000
459656109.62418,493076584.12954,20368159.42788,   0.00366,   0.00297,  -0.00056,480792486.55032,   0.00366,278546944.69756,   0.00253,   0.00162,  -0.00082,   0.00000,   2.00000
459070894.33132,493553212.82678,20403426.37528,   0.00366,   0.00298,  -0.00056,480772101.56542,   0.00367,278553909.73731,   0.00254,   0.00163,  -0.00082,   0.00000,   2.00000
458480613.29023,494029314.14867,20443883.02441,   0.00366,   0.00299,  -0.00055,480751878.05669,   0.00367,278560790.41884,   0.00254,   0.00163,  -0.00082,   0.00000,   2.00000
457882805.66840,494509724.86383,20477063.96836,   0.00366,   0.00300,  -0.00055,480740515.50907,   0.00368,278567614.77037,   0.00255,   0.00164,  -0.00082,   0.00000,   2.00000
457279761.39312,494989607.80450,20515450.48732,   0.00367,   0.00300,  -0.00055,480720246.39107,   0.00369,278574355.13343,   0.00255,   0.00164,  -0.00082,   0.00000,   2.00000
456667265.77386,495473875.23658,20551563.93486,   0.00367,   0.00301,  -0.00055,480689395.10840,   0.00369,278580978.67045,   0.00256,   0.00165,  -0.00082,  -0.00000,   2.00000
456040879.68796,495965115.17858,20588851.87709,   0.00367,   0.00302,  -0.00055,480669519.56092,   0.00370,278587520.17258,   0.00256,   0.00166,  -0.00081,   0.00000,   2.00000
455415071.32517,496453035.25408,20622904.09176,   0.00367,   0.00303,  -0.00055,480657601.75810,   0.00370,278594004.83374,   0.00256,   0.00166,  -0.00081,   0.00000,   2.00000
454775139.64593,496947866.07575,20658142.11148,   0.00367,   0.00304,  -0.00054,480637743.78740,   0.00371,278600408.01525,   0.00257,   0.00167,  -0.00081,  -0.00000,   2.00000
454125233.23646,497446981.80370,20691129.02026,   0.00367,   0.00305,  -0.00054,480606878.97121,   0.00372,278606695.51700,   0.00257,   0.00167,  -0.00081,   0.00000,   2.00000
453469473.41292,497945485.28521,20729333.83012,   0.00367,   0.00306,  -0.00054,480586452.87746,   0.00372,278612900.44859,   0.00258,   0.00168,  -0.00081,   0.00000,   2.00000
452809212.37592,498445030.15881,20760820.81790,   0.00367,   0.00307,  -0.00054,480564419.26990,   0.00373,278619018.03701,   0.00258,   0.00169,  -0.00081,   0.00000,   2.00000
452139111.14479,498946994.94490,20796992.13041,   0.00367,   0.00308,  -0.00054,480554476.04504,   0.00373,278625086.50677,   0.00259,   0.00169,  -0.00081,   0.00000,   2.00000
451454712.83648,499456188.77098,20830366.78749,   0.00367,   0.00309,  -0.00053,480534146.50313,   0.00374,278631073.48917,   0.00259,   0.00170,  -0.00081,   0.00000,   2.00000
450764526.41900,499965253.69008,20864991.07907,   0.00367,   0.00310,  -0.00053,480513153.85783,   0.00375,278636977.18392,   0.00259,   0.00170,  -0.00080,   0.00000,   2.00000
450063520.06699,500478521.39846,20897374.65880,   0.00367,   0.00311,  -0.00053,480482258.97933,   0.00375,278642766.81118,   0.00260,   0.00171,  -0.00080,   0.00000,   2.00000
449355995.08298,500991106.17179,20934987.63153,   0.00367,   0.00312,  -0.00053,480461721.90586,   0.00376,278648475.25099,   0.00260,   0.00171,  -0.00080,   0.00000,   2.00000
448639546.49698,501507541.55883,20965338.73700,   0.00367,   0.00313,  -0.00053,480450203.57129,   0.00376,278654131.07660,   0.00261,   0.00172,  -0.00080,   0.00000,   2.00000
447910855.63373,502027014.24360,21001414.73292,   0.00367,   0.00314,  -0.00053,480420370.11885,   0.00377,278659677.00041,   0.00261,   0.00172,  -0.00080,  -0.00000,   2.00000
447176255.76763,502546868.47177,21034762.28173,   0.00367,   0.00314,  -0.00052,480398740.54088,   0.00377,278665139.12644,   0.00261,   0.00173,  -0.00080,  -0.00000,   2.00000
446431420.98176,503069339.70253,21068808.96863,   0.00367,   0.00315,  -0.00052,480388280.62499,   0.00378,278670552.83028,   0.00262,   0.00173,  -0.00080,   0.00000,   2.00000
445674837.66311,503595889.86617,21100620.95339,   0.00367,   0.00316,  -0.00052,480357414.81833,   0.00378,278675854.17073,   0.00262,   0.00174,  -0.00080,  -0.00000,   2.00000
444901645.26227,504128081.21987,21137591.77031,   0.00367,   0.00317,  -0.00052,480338311.21471,   0.00379,278681080.50289,   0.00262,   0.00175,  -0.00079,   0.00000,   2.00000
444128188.94165,504657385.09211,21167374.17413,   0.00366,   0.00318,  -0.00052,480325354.61794,   0.00379,278686251.37129,   0.00263,   0.00175,  -0.00079,   0.00000,   2.00000
443341519.64654,505189559.65163,21202885.69012,   0.00366,   0.00319,  -0.00052,480295592.50148,   0.00380,278691314.12922,   0.00263,   0.00175,  -0.00079,   0.00000,   2.00000
442538726.96121,505728328.44818,21235590.01668,   0.00366,   0.00320,  -0.00052,480275514.59003,   0.00380,278696299.59488,   0.00263,   0.00176,  -0.00079,  -0.00000,   2.00000
441728613.95651,506266716.80450,21269553.23677,   0.00366,   0.00321,  -0.00051,480254426.36628,   0.00381,278701204.83477,   0.00264,   0.00176,  -0.00079,   0.00000,   2.00000
440911048.45462,506804732.02793,21304771.73464,   0.00366,   0.00322,  -0.00051,480233316.90639,   0.00381,278706030.03414,   0.00264,   0.00177,  -0.00079,   0.00000,   2.00000
440080507.84339,507346603.85674,21337749.61595,   0.00366,   0.00322,  -0.00051,480202558.41187,   0.00382,278710745.05048,   0.00264,   0.00177,  -0.00079,   0.00000,   2.00000
439238567.50063,507890591.20194,21371414.45474,   0.00365,   0.00323,  -0.00051,480192220.50764,   0.00382,278715414.57557,   0.00265,   0.00178,  -0.00079,   0.00000,   2.00000
438379164.62611,508440248.48726,21406241.60121,   0.00365,   0.00324,  -0.00051,480172892.47696,   0.00383,278720010.44912,   0.00265,   0.00178,  -0.00079,   0.00000,   2.00000
437515330.44290,508986883.55821,21442893.80524,   0.00365,   0.00325,  -0.00051,480141032.82232,   0.00383,278724493.35710,   0.00265,   0.00179,  -0.00079,   0.00000,   2.00000
436640161.68629,509536029.62164,21476239.32388,   0.00365,   0.00326,  -0.00051,480130229.01842,   0.00383,278728930.07163,   0.00266,   0.00179,  -0.00078,   0.00000,   2.00000
435750587.20932,510088217.45690,21511320.18551,   0.00365,   0.00327,  -0.00050,480100184.57297,   0.00384,278733260.01501,   0.00266,   0.00180,  -0.00078,  -0.00000,   2.00000
434848901.55094,510642175.80990,21547068.83656,   0.00364,   0.00328,  -0.00050,480090004.56653,   0.00384,278737546.24612,   0.00266,   0.00180,  -0.00078,  -0.00000,   2.00000
433932882.66423,511199625.30950,21580565.91870,   0.00364,   0.00328,  -0.00050,480059522.50564,   0.00385,278741724.75621,   0.00266,   0.00180,  -0.00078,   0.00000,   2.00000
433007527.72138,511755769.95158,21619289.46727,   0.00364,   0.00329,  -0.00050,480039077.57282,   0.00385,278745827.58436,   0.00267,   0.00181,  -0.00078,   0.00000,   2.00000
432073638.23521,512311769.45571,21655272.35379,   0.00363,   0.00330,  -0.00050,480017542.36826,   0.00385,278749851.49173,   0.00267,   0.00181,  -0.00078,   0.00000,   2.00000
431121249.43447,512873412.10090,21688412.91756,   0.00363,   0.00331,  -0.00050,479998058.94648,   0.00386,278753803.21408,   0.00267,   0.00182,  -0.00078,   0.00000,   2.00000
430159023.39993,513433611.05743,21726777.98307,   0.00363,   0.00332,  -0.00050,479977689.01123,   0.00386,278757680.15486,   0.00267,   0.00182,  -0.00078,   0.00000,   2.00000
429181392.92249,513997038.57775,21762876.20135,   0.00363,   0.00333,  -0.00049,479947404.01125,   0.00387,278761451.10526,   0.00267,   0.00182,  -0.00078,   0.00000,   2.00000
428190538.08984,514561699.08214,21799619.45062,   0.00362,   0.00333,  -0.00049,479937489.33152,   0.00387,278765180.94588,   0.00268,   0.00183,  -0.00078,  -0.00000,   2.00000
427183350.19570,515128830.04555,21838071.32843,   0.00362,   0.00334,  -0.00049,479907891.82830,   0.00387,278768807.36459,   0.00268,   0.00183,  -0.00078,  -0.00000,   2.00000
426166531.97827,515695474.97583,21873773.49838,   0.00361,   0.00335,  -0.00049,479886550.42846,   0.00388,278772356.82814,   0.00268,   0.00184,  -0.00077,   0.00000,   2.00000
425135517.17354,516262496.97041,21914088.15513,   0.00361,   0.00336,  -0.00049,479877339.84549,   0.00388,278775868.09772,   0.00268,   0.00184,  -0.00077,   0.00000,   2.00000
424087956.39217,516832367.01201,21952118.09422,   0.00361,   0.00337,  -0.00049,479847382.11563,   0.00388,278779275.33587,   0.00268,   0.00184,  -0.00077,   0.00000,   2.00000
423023573.95179,517404989.07029,21987866.09176,   0.00360,   0.00338,  -0.00049,479817484.49136,   0.00389,278782578.98819,   0.00269,   0.00185,  -0.00077,  -0.00000,   2.00000
421951097.70735,517974248.70406,22027741.38944,   0.00360,   0.00338,  -0.00049,479817126.63602,   0.00389,278785873.35501,   0.00269,   0.00185,  -0.00077,   0.00000,   2.00000
420864264.65125,518543552.32849,22069907.29534,   0.00359,   0.00339,  -0.00048,479776852.98607,   0.00389,278789031.31294,   0.00269,   0.00185,  -0.00077,  -0.00000,   2.00000
419756505.73664,519117330.80729,22109167.30763,   0.00359,   0.00340,  -0.00048,479758213.53442,   0.00390,278792122.16037,   0.00269,   0.00186,  -0.00077,   0.00000,   2.00000
418633906.85625,519691438.48641,22149027.91625,   0.00358,   0.00341,  -0.00048,479748855.85056,   0.00390,278795175.69144,   0.00269,   0.00186,  -0.00077,   0.00000,   2.00000
417502956.36749,520262023.64715,22190704.14893,   0.00358,   0.00342,  -0.00048,479717346.99829,   0.00390,278798121.25622,   0.00270,   0.00186,  -0.00077,   0.00000,   2.00000
416349906.55285,520836095.17494,22233437.87222,   0.00358,   0.00342,  -0.00048,479699561.95488,   0.00390,278801002.97207,   0.00270,   0.00187,  -0.00077,   0.00000,   2.00000
415185201.08706,521408971.74986,22273387.40791,   0.00357,   0.00343,  -0.00048,479678712.17828,   0.00391,278803811.17766,   0.00270,   0.00187,  -0.00077,   0.00000,   2.00000
413997897.74730,521985026.03797,22314385.37322,   0.00357,   0.00344,  -0.00048,479661172.52646,   0.00391,278806556.65468,   0.00270,   0.00187,  -0.00077,   0.00000,   2.00000
412797558.69366,522558439.35416,22360550.89515,   0.00356,   0.00345,  -0.00048,479641611.50209,   0.00391,278809233.06943,   0.00270,   0.00187,  -0.00077,   0.00000,   2.00000
411577797.33221,523133613.89861,22404380.67838,   0.00355,   0.00345,  -0.00047,479612568.48243,   0.00391,278811810.16070,   0.00270,   0.00188,  -0.00077,   0.00000,   2.00000
410345453.09116,523707208.33245,22445410.07769,   0.00355,   0.00346,  -0.00047,479591995.36928,   0.00392,278814315.30640,   0.00270,   0.00188,  -0.00077,  -0.00000,   2.00000
409096209.81702,524279560.13910,22490975.01221,   0.00354,   0.00347,  -0.00047,479583834.52619,   0.00392,278816788.55264,   0.00270,   0.00188,  -0.00076,   0.00000,   2.00000
407829397.07737,524851068.84238,22538796.98823,   0.00354,   0.00348,  -0.00047,479544422.99907,   0.00392,278819129.45611,   0.00271,   0.00188,  -0.00076,   0.00000,   2.00000
406546159.88937,525422320.20856,22583174.08306,   0.00353,   0.00349,  -0.00047,479535298.22959,   0.00392,278821435.76513,   0.00271,   0.00189,  -0.00076,   0.00000,   2.00000
405238485.27196,525995639.53363,22628544.80967,   0.00353,   0.00349,  -0.00047,479518627.92996,   0.00393,278823683.25956,   0.00271,   0.00189,  -0.00076,  -0.00000,   2.00000
403919659.63166,526564654.09572,22675701.58402,   0.00352,   0.00350,  -0.00047,479487776.67195,   0.00393,278825826.28067,   0.00271,   0.00189,  -0.00076,   0.97856,   1.00000
402583300.24431,527132339.25706,22723374.69302,   0.00351,   0.00351,  -0.00047,479479541.57900,   0.00393,278827938.05738,   0.00271,   0.00189,  -0.00076,   0.97179,   1.00000
401224717.94720,527700101.43367,22772650.06946,   0.00351,   0.00352,  -0.00047,479451966.93569,   0.00393,278829956.13367,   0.00271,   0.00190,  -0.00076,   0.90749,   1.00000
399848142.51529,528266179.09845,22822423.17353,   0.00350,   0.00352,  -0.00046,479444000.04618,   0.00393,278831944.13316,   0.00271,   0.00190,  -0.00076,   0.90035,   1.00000
398452145.21803,528831221.36937,22870443.22261,   0.00349,   0.00353,  -0.00046,479404794.32090,   0.00394,278833800.87643,   0.00271,   0.00190,  -0.00076,   0.80279,   1.00000
397037207.20623,529393613.00771,22922928.79330,   0.00349,   0.00354,  -0.00046,479397618.37346,   0.00394,278835630.47099,   0.00271,   0.00190,  -0.00076,   0.79664,   1.00000
395606962.55970,529953121.37467,22972551.45022,   0.00348,   0.00354,  -0.00046,479378053.60514,   0.00394,278837392.72495,   0.00271,   0.00190,  -0.00076,   0.75513,   1.00000
394150009.15116,530513191.04248,23023096.38326,   0.00347,   0.00355,  -0.00046,479362575.87238,   0.00394,278839101.04195,   0.00271,   0.00191,  -0.00076,   0.72497,   1.00000
392679607.86364,531068121.31212,23075396.18772,   0.00347,   0.00356,  -0.00046,479332432.00330,   0.00394,278840707.73131,   0.00272,   0.00191,  -0.00076,   0.65496,   1.00000
391181867.86335,531623188.22041,23128597.31830,   0.00346,   0.00357,  -0.00046,479317274.03695,   0.00394,278842261.78733,   0.00272,   0.00191,  -0.00076,   0.62577,   1.00000
389667238.74598,532174074.95696,23182889.49644,   0.00345,   0.00357,  -0.00046,479298786.74409,   0.00395,278843752.40866,   0.00272,   0.00191,  -0.00076,   0.58781,   1.00000
388132698.92019,532721836.88050,23237611.37922,   0.00344,   0.00358,  -0.00046,479291872.21818,   0.00395,278845217.50871,   0.00272,   0.00191,  -0.00076,   0.57965,   1.00000
386575401.70796,533266694.79578,23294515.41987,   0.00344,   0.00359,  -0.00046,479254352.95563,   0.00395,278846556.94527,   0.00272,   0.00191,  -0.00076,   0.49445,   1.00000
384998101.01145,533808680.68588,23347849.48878,   0.00343,   0.00359,  -0.00045,479247134.62506,   0.00395,278847870.15643,   0.00272,   0.00192,  -0.00076,   0.48494,   1.00000
383394137.14264,534347829.81736,23406673.14833,   0.00342,   0.00360,  -0.00045,479222029.09215,   0.00395,278849098.47267,   0.00272,   0.00192,  -0.00076,   0.43284,   1.00000
381771829.84326,534881908.16978,23466548.44590,   0.00341,   0.00361,  -0.00045,479204227.89123,   0.00395,278850265.97373,   0.00272,   0.00192,  -0.00076,   0.39884,   1.00000
380128755.97890,535412462.73302,23522822.08733,   0.00341,   0.00361,  -0.00045,479197506.00987,   0.00395,278851409.18766,   0.00272,   0.00192,  -0.00076,   0.38994,   1.00000
378460523.20167,535938477.62995,23585224.97350,   0.00340,   0.00362,  -0.00045,479161416.23237,   0.00395,278852431.32456,   0.00272,   0.00192,  -0.00076,   0.31780,   1.00000
376770955.98974,536460507.87559,23644004.29449,   0.00339,   0.00363,  -0.00045,479155021.60010,   0.00395,278853430.50387,   0.00272,   0.00192,  -0.00076,   0.30953,   1.00000
375061881.92606,536976696.83901,23703805.36749,   0.00338,   0.00364,  -0.00045,479137825.08946,   0.00396,278854371.02967,   0.00272,   0.00192,  -0.00076,   0.27947,   1.00000
373321978.47392,537490228.34180,23764380.40397,   0.00337,   0.00364,  -0.00045,479124892.86343,   0.00396,278855267.06939,   0.00272,   0.00192,  -0.00076,   0.25843,   1.00000
371563908.22101,537995862.48980,23830614.37756,   0.00336,   0.00365,  -0.00045,479097057.67131,   0.00396,278856069.20867,   0.00272,   0.00193,  -0.00076,   0.21095,   1.00000
369783457.89893,538496561.52457,23893179.87393,   0.00335,   0.00366,  -0.00045,479091383.39554,   0.00396,278856851.11547,   0.00272,   0.00193,  -0.00076,   0.20411,   1.00000
367973504.79070,538992870.07342,23957161.34128,   0.00334,   0.00366,  -0.00044,479067509.63079,   0.00396,278857552.24116,   0.00272,   0.00193,  -0.00076,   0.16708,   1.00000
366142454.80020,539482176.81580,24022114.93306,   0.00334,   0.00367,  -0.00044,479051208.70289,   0.00396,278858197.85006,   0.00272,   0.00193,  -0.00076,   0.14420,   1.00000
364278858.62717,539967287.59183,24087772.00031,   0.00333,   0.00367,  -0.00044,479039485.41545,   0.00396,278858803.24817,   0.00272,   0.00193,  -0.00076,   0.12903,   1.00000
362395700.43326,540444088.12276,24155067.61733,   0.00332,   0.00368,  -0.00044,479011923.47664,   0.00396,278859315.46112,   0.00272,   0.00193,  -0.00076,   0.09397,   1.00000
360488312.65595,540913878.52068,24222611.67894,   0.00331,   0.00369,  -0.00044,479007894.33713,   0.00396,278859813.34924,   0.00272,   0.00193,  -0.00075,   0.09031,   1.00000
358558149.47073,541374971.64305,24295065.33999,   0.00330,   0.00369,  -0.00044,478992988.91019,   0.00396,278860260.41008,   0.00272,   0.00193,  -0.00075,   0.07404,   1.00000
356596564.79774,541830575.02022,24364879.31921,   0.00329,   0.00370,  -0.00044,478969948.34045,   0.00396,278860629.28721,   0.00272,   0.00193,  -0.00075,   0.05124,   1.00000
354609918.04802,542278254.04814,24434898.38396,   0.00328,   0.00371,  -0.00044,478966625.03145,   0.00396,278860986.39861,   0.00272,   0.00193,  -0.00075,   0.04881,   1.00000
352590621.14488,542719027.08791,24506227.87920,   0.00327,   0.00371,  -0.00044,478944788.62536,   0.00396,278861269.26210,   0.00272,   0.00193,  -0.00075,   0.03112,   1.00000
350549487.39478,543149981.39103,24579140.61326,   0.00326,   0.00372,  -0.00044,478918417.64151,   0.00396,278861462.52172,   0.00272,   0.00193,  -0.00075,   0.01476,   1.00000
348482408.02981,543572071.88712,24652214.79870,   0.00325,   0.00373,  -0.00043,478915785.79073,   0.00396,278861646.57796,   0.00272,   0.00193,  -0.00075,   0.01359,   1.00000
346390964.12810,543984417.70493,24726144.62987,   0.00324,   0.00373,  -0.00043,478901610.46192,   0.00396,278861782.24357,   0.00272,   0.00193,  -0.00075,   0.00750,   1.00000
344263499.35499,544389023.43245,24800615.20055,   0.00323,   0.00374,  -0.00043,478892679.36349,   0.00396,278861887.33620,   0.00272,   0.00193,  -0.00075,   0.00457,   1.00000
342112675.20837,544782672.09844,24876625.82790,   0.00322,   0.00374,  -0.00043,478867215.88253,   0.00396,278861905.49656,   0.00272,   0.00193,  -0.00075,   0.00014,   1.00000
339934390.92043,545165387.95431,24956712.56151,   0.00321,   0.00375,  -0.00043,478866252.81944,   0.00396,278861920.34261,   0.00272,   0.00193,  -0.00075,   0.00009,   1.00000
337710704.54257,545520936.72475,25033045.06590,   0.00320,   0.00376,  -0.00043,478845812.88706,   0.00396,278861920.34261,   0.00272,   0.00193,  -0.00075,-16107.45555,   0.00000
335452869.41274,545850371.74370,25109377.57029,   0.00318,   0.00376,  -0.00043,478816901.31452,   0.00396,278861920.34261,   0.00272,   0.00193,  -0.00075,-45019.02809,   0.00000
333166911.78130,546167754.26194,25189727.57491,   0.00317,   0.00377,  -0.00043,478788001.12925,   0.00396,278861920.34261,   0.00272,   0.00193,  -0.00075,-73919.21336,   0.00000
330840779.14755,546444961.77788,25266060.07930,   0.00316,   0.00377,  -0.00043,478734333.27821,   0.00396,278861920.34261,   0.00272,   0.00193,  -0.00075,-127587.06440,   0.00000
328472462.76137,546704090.54278,25342392.58369,   0.00315,   0.00378,  -0.00043,478674203.37013,   0.00396,278861920.34261,   0.00272,   0.00193,  -0.00075,-187716.97248,   0.00000
326063971.37288,546923044.30537,25422742.58831,   0.00314,   0.00378,  -0.00042,478591242.58629,   0.00396,278861920.34261,   0.00272,   0.00193,  -0.00075,-270677.75632,   0.00000
323627357.48278,547129945.56727,25503092.59293,   0.00313,   0.00379,  -0.00042,478508984.82631,   0.00396,278861920.34261,   0.00272,   0.00193,  -0.00075,-352935.51630,   0.00000
321156594.84071,547310733.07767,25579425.09732,   0.00312,   0.00380,  -0.00042,478415161.29992,   0.00396,278861920.34261,   0.00272,   0.00193,  -0.00075,-446759.04269,   0.00000
318643648.44621,547473441.83702,25659775.10194,   0.00311,   0.00380,  -0.00042,478317134.80962,   0.00396,278861920.34261,   0.00272,   0.00193,  -0.00075,-544785.53299,   0.00000
316090527.04941,547595975.59407,25740125.10656,   0.00309,   0.00381,  -0.00042,478196962.93790,   0.00396,278861920.34261,   0.00272,   0.00193,  -0.00075,-664957.40471,   0.00000
313509283.15099,547706456.85042,25820475.11118,   0.00308,   0.00381,  -0.00042,478078932.43485,   0.00396,278861920.34261,   0.00272,   0.00193,  -0.00075,-782987.90776,   0.00000
310893890.50060,547790824.35527,25900825.11580,   0.00307,   0.00382,  -0.00042,477951395.08021,   0.00396,278861920.34261,   0.00272,   0.00193,  -0.00075,-910525.26240,   0.00000
308230287.84744,547843051.85827,25981175.12042,   0.00306,   0.00382,  -0.00042,477808709.24285,   0.00396,278861920.34261,   0.00272,   0.00193,  -0.00075,-1053211.09976,   0.00000
305532536.44232,547869165.60978,26061525.12504,   0.00304,   0.00383,  -0.00042,477657311.17514,   0.00396,278861920.34261,   0.00272,   0.00193,  -0.00075,-1204609.16747,   0.00000
302800636.28524,547869165.60978,26141875.12966,   0.00303,   0.00383,  -0.00041,477497548.59986,   0.00396,278861920.34261,   0.00272,   0.00193,  -0.00075,-1364371.74275,   0.00000
300034587.37619,547843051.85827,26226242.63451,   0.00302,   0.00384,  -0.00041,477330437.42082,   0.00396,278861920.34261,   0.00272,   0.00193,  -0.00075,-1531482.92179,   0.00000
297240415.96553,547804885.60608,26306592.63913,   0.00301,   0.00384,  -0.00041,477167073.42460,   0.00396,278861920.34261,   0.00272,   0.00193,  -0.00075,-1694846.91801,   0.00000
294398034.55209,547734579.35204,26390960.14398,   0.00299,   0.00385,  -0.00041,476991443.19431,   0.00396,278861920.34261,   0.00272,   0.00193,  -0.00075,-1870477.14830,   0.00000
291529539.38715,547630124.34603,26475327.64883,   0.00298,   0.00386,  -0.00041,476802575.96174,   0.00396,278861920.34261,   0.00272,   0.00193,  -0.00075,-2059344.38087,   0.00000
288618860.46979,547507590.58899,26555677.65345,   0.00297,   0.00386,  -0.00041,476613054.29456,   0.00396,278861920.34261,   0.00272,   0.00193,  -0.00075,-2248866.04805,   0.00000
285680059.05081,547373004.33125,26640045.15830,   0.00296,   0.00387,  -0.00041,476430294.82583,   0.00396,278861920.34261,   0.00272,   0.00193,  -0.00075,-2431625.51678,   0.00000
282687021.37871,547192216.82085,26728430.16338,   0.00294,   0.00387,  -0.00041,476225118.24512,   0.00396,278861920.34261,   0.00272,   0.00193,  -0.00075,-2636802.09749,   0.00000
279673896.20545,546991341.80930,26812797.66824,   0.00293,   0.00388,  -0.00041,476019531.98899,   0.00396,278861920.34261,   0.00272,   0.00193,  -0.00075,-2842388.35362,   0.00000
276618587.27977,546772388.04671,26897165.17309,   0.00292,   0.00388,  -0.00040,475815987.64327,   0.00396,278861920.34261,   0.00272,   0.00193,  -0.00075,-3045932.69934,   0.00000
273543190.85294,546533346.78297,26985550.17817,   0.00290,   0.00389,  -0.00040,475614087.86589,   0.00396,278861920.34261,   0.00272,   0.00193,  -0.00075,-3247832.47672,   0.00000
270413558.17298,546248104.26656,27073935.18325,   0.00289,   0.00389,  -0.00040,475390980.39145,   0.00396,278861920.34261,   0.00272,   0.00193,  -0.00075,-3470939.95116,   0.00000
267255802.99141,545950809.24947,27158302.68810,   0.00287,   0.00389,  -0.00040,475175913.37067,   0.00396,278861920.34261,   0.00272,   0.00193,  -0.00075,-3686006.97194,   0.00000
264063899.05788,545627400.48087,27246687.69318,   0.00286,   0.00390,  -0.00040,474958577.25503,   0.00396,278861920.34261,   0.00272,   0.00193,  -0.00075,-3903343.08758,   0.00000
260843872.62273,545291939.21159,27339090.19850,   0.00285,   0.00390,  -0.00040,474751557.42629,   0.00396,278861920.34261,   0.00272,   0.00193,  -0.00075,-4110362.91632,   0.00000
257569609.93446,544910276.68964,27427475.20358,   0.00283,   0.00391,  -0.00040,474524799.53704,   0.00396,278861920.34261,   0.00272,   0.00193,  -0.00075,-4337120.80557,   0.00000
254275259.74503,544508526.66654,27519877.70889,   0.00282,   0.00391,  -0.00040,474302042.25450,   0.00396,278861920.34261,   0.00272,   0.00193,  -0.00075,-4559878.08811,   0.00000
250938725.80318,544088697.89240,27608262.71398,   0.00280,   0.00392,  -0.00040,474084886.09024,   0.00396,278861920.34261,   0.00272,   0.00193,  -0.00075,-4777034.25237,   0.00000
247582104.36017,543648781.61710,27700665.21929,   0.00279,   0.00392,  -0.00039,473872522.23392,   0.00396,278861920.34261,   0.00272,   0.00193,  -0.00075,-4989398.10869,   0.00000
244171246.66405,543162664.08915,27793067.72460,   0.00277,   0.00393,  -0.00039,473643258.54647,   0.00396,278861920.34261,   0.00272,   0.00193,  -0.00075,-5218661.79614,   0.00000
240732266.46631,542664494.06051,27885470.22991,   0.00276,   0.00393,  -0.00039,473426575.08404,   0.00396,278861920.34261,   0.00272,   0.00193,  -0.00075,-5435345.25857,   0.00000
237273198.76741,542146236.53071,27981890.23546,   0.00275,   0.00394,  -0.00039,473215912.07378,   0.00396,278861920.34261,   0.00272,   0.00193,  -0.00075,-5646008.26883,   0.00000
233771947.31609,541609900.24987,28074292.74077,   0.00273,   0.00394,  -0.00039,473013640.47163,   0.00396,278861920.34261,   0.00272,   0.00193,  -0.00075,-5848279.87098,   0.00000
230230520.86246,541033388.96672,28170712.74632,   0.00272,   0.00394,  -0.00039,472801849.54961,   0.00396,278861920.34261,   0.00272,   0.00193,  -0.00075,-6060070.79300,   0.00000
226654945.65686,540430763.93207,28267132.75186,   0.00270,   0.00395,  -0.00039,472592490.36208,   0.00396,278861920.34261,   0.00272,   0.00193,  -0.00075,-6269429.98053,   0.00000
223051247.94965,539816086.39672,28363552.75740,   0.00269,   0.00395,  -0.00039,472398230.29469,   0.00396,278861920.34261,   0.00272,   0.00193,  -0.00075,-6463690.04792,   0.00000
219407375.24013,539161233.85907,28463990.26318,   0.00267,   0.00396,  -0.00038,472196015.95000,   0.00396,278861920.34261,   0.00272,   0.00193,  -0.00075,-6665904.39261,   0.00000
215735380.02899,538494328.82072,28560410.26872,   0.00265,   0.00396,  -0.00038,472009225.33452,   0.00396,278861920.34261,   0.00272,   0.00193,  -0.00075,-6852695.00809,   0.00000
212029236.06588,537801310.03087,28660847.77450,   0.00264,   0.00397,  -0.00038,471827699.14661,   0.00396,278861920.34261,   0.00272,   0.00193,  -0.00075,-7034221.19600,   0.00000
208288943.35082,537082177.48952,28761285.28027,   0.00262,   0.00397,  -0.00038,471651253.20533,   0.00396,278861920.34261,   0.00272,   0.00193,  -0.00075,-7210667.13728,   0.00000
204514501.88379,536336931.19667,28865740.28628,   0.00261,   0.00397,  -0.00038,471481174.39352,   0.00396,278861920.34261,   0.00272,   0.00193,  -0.00075,-7380745.94909,   0.00000
200705911.66479,535565571.15232,28966177.79206,   0.00259,   0.00398,  -0.00038,471316545.57648,   0.00396,278861920.34261,   0.00272,   0.00193,  -0.00075,-7545374.76613,   0.00000
196863172.69384,534768097.35646,29070632.79806,   0.00258,   0.00398,  -0.00038,471159407.72326,   0.00396,278861920.34261,   0.00272,   0.00193,  -0.00075,-7702512.61935,   0.00000
192986284.97091,533944509.80911,29175087.80407,   0.00256,   0.00399,  -0.00038,471009591.89661,   0.00396,278861920.34261,   0.00272,   0.00193,  -0.00075,-7852328.44600,   0.00000
189095335.99718,533114896.01141,29279542.81007,   0.00254,   0.00399,  -0.00037,470883077.78074,   0.00396,278861920.34261,   0.00272,   0.00193,  -0.00075,-7978842.56187,   0.00000
185150150.77034,532239080.96105,29383997.81608,   0.00253,   0.00399,  -0.00037,470749540.12691,   0.00396,278861920.34261,   0.00272,   0.00193,  -0.00075,-8112380.21570,   0.00000
181176843.04187,531351213.40999,29492470.32232,   0.00251,   0.00400,  -0.00037,470637910.15168,   0.00396,278861920.34261,   0.00272,   0.00193,  -0.00075,-8224010.19093,   0.00000
177169386.56144,530437232.10744,29600942.82855,   0.00249,   0.00400,  -0.00037,470535925.48025,   0.00396,278861920.34261,   0.00272,   0.00193,  -0.00075,-8325994.86236,   0.00000
