# sigma_xx, sigma_yy, sigma_xy, epsilon_xx, epsilon_yy, epsilon_xy, vonMises, epsPlastic, hardening, epsilonP__xx, epsilonP__yy, epsilonP__xy, yieldValue, iteration
   0.00000,   0.00000,   0.00000,   0.00000,   0.00000,   0.00000,   0.00000,   0.00000,274640135.82653,   0.00000,   0.00000,   0.00000,-474640135.82653,   0.00000
   0.00000,   0.00000,   0.00000,   0.00000,   0.00000,   0.00000,   0.00000,   0.00000,274640135.82653,   0.00000,   0.00000,   0.00000,-474640135.82653,   0.00000
-2028127.59458,-3346410.53105,608438.27837,  -0.00000,  -0.00001,   0.00001,3104095.49743,   0.00000,274640135.82653,   0.00000,   0.00000,   0.00000,-471536040.32910,   0.00000
-4030903.59422,-6667469.46717,1216876.55675,  -0.00001,  -0.00002,   0.00002,6186256.69570,   0.00000,274640135.82653,   0.00000,   0.00000,   0.00000,-468453879.13083,   0.00000
-6026074.11539,-9970782.28684,1815174.19715,  -0.00001,  -0.00003,   0.00002,9248241.33037,   0.00000,274640135.82653,   0.00000,   0.00000,   0.00000,-465391894.49616,   0.00000
-7978146.92517,-13241138.03310,2413471.83755,  -0.00001,  -0.00004,   0.00003,12280609.06545,   0.00000,274640135.82653,   0.00000,   0.00000,   0.00000,-462359526.76108,   0.00000
-9897262.66154,-16468396.06797,3006699.15896,  -0.00001,  -0.00006,   0.00004,15273917.48182,   0.00000,274640135.82653,   0.00000,   0.00000,   0.00000,-459366218.34471,   0.00000
-11816378.39791,-19695654.10284,3594856.16139,  -0.00002,  -0.00007,   0.00005,18264261.81840,   0.00000,274640135.82653,   0.00000,   0.00000,   0.00000,-456375874.00813,   0.00000
-13692396.42289,-22889955.06430,4177942.84483,  -0.00002,  -0.00008,   0.00005,21222135.68538,   0.00000,274640135.82653,   0.00000,   0.00000,   0.00000,-453418000.14115,   0.00000
-15560808.96939,-26066509.90930,4755959.20928,  -0.00002,  -0.00009,   0.00006,24162847.04743,   0.00000,274640135.82653,   0.00000,   0.00000,   0.00000,-450477288.77910,   0.00000
-17386123.80451,-29210107.68090,5328905.25475,  -0.00002,  -0.00010,   0.00007,27071180.92797,   0.00000,274640135.82653,   0.00000,   0.00000,   0.00000,-447568954.89856,   0.00000
-19196227.68267,-32318213.21959,5896780.98123,  -0.00002,  -0.00011,   0.00008,29948127.84655,   0.00000,274640135.82653,   0.00000,   0.00000,   0.00000,-444692007.97998,   0.00000
-20970839.32793,-35411107.80132,6464656.70772,  -0.00003,  -0.00012,   0.00008,32810019.27392,   0.00000,274640135.82653,   0.00000,   0.00000,   0.00000,-441830116.55261,   0.00000
-22730240.01623,-38468510.15014,7027462.11521,  -0.00003,  -0.00013,   0.00009,35640528.71283,   0.00000,274640135.82653,   0.00000,   0.00000,   0.00000,-438999607.11370,   0.00000
-24454148.47162,-41510701.54201,7580126.88473,  -0.00003,  -0.00014,   0.00010,38450095.34550,   0.00000,274640135.82653,   0.00000,   0.00000,   0.00000,-436190040.48102,   0.00000
-26162845.97005,-44517400.70097,8132791.65425,  -0.00003,  -0.00015,   0.00011,41231280.32418,   0.00000,274640135.82653,   0.00000,   0.00000,   0.00000,-433408855.50235,   0.00000
-27853797.35203,-47516494.38145,8680386.10479,  -0.00003,  -0.00016,   0.00011,44002088.23039,   0.00000,274640135.82653,   0.00000,   0.00000,   0.00000,-430638047.59613,   0.00000
-29494045.54414,-50464884.87207,9222910.23634,  -0.00004,  -0.00017,   0.00012,46726608.42172,   0.00000,274640135.82653,   0.00000,   0.00000,   0.00000,-427913527.40480,   0.00000
-31126688.25778,-53395529.24623,9765434.36789,  -0.00004,  -0.00018,   0.00013,49437014.44623,   0.00000,274640135.82653,   0.00000,   0.00000,   0.00000,-425203121.38030,   0.00000
-32733979.37648,-56300822.02547,10297817.86147,  -0.00004,  -0.00019,   0.00013,52119873.15436,   0.00000,274640135.82653,   0.00000,   0.00000,   0.00000,-422520262.67217,   0.00000
-34315918.90025,-59180763.20977,10830201.35504,  -0.00004,  -0.00020,   0.00014,54781224.31518,   0.00000,274640135.82653,   0.00000,   0.00000,   0.00000,-419858911.51135,   0.00000
-35854760.71263,-62027747.32065,11352444.21065,  -0.00004,  -0.00021,   0.00015,57407745.42147,   0.00000,274640135.82653,   0.00000,   0.00000,   0.00000,-417232390.40505,   0.00000
-37385997.04654,-64856985.31509,11874687.06625,  -0.00004,  -0.00022,   0.00015,60020186.90951,   0.00000,274640135.82653,   0.00000,   0.00000,   0.00000,-414619948.91702,   0.00000
-38884276.30703,-67643125.59814,12391859.60287,  -0.00005,  -0.00023,   0.00016,62593929.03333,   0.00000,274640135.82653,   0.00000,   0.00000,   0.00000,-412046206.79320,   0.00000
-40364809.45107,-70421660.40271,12903961.82050,  -0.00005,  -0.00024,   0.00017,65157561.99020,   0.00000,274640135.82653,   0.00000,   0.00000,   0.00000,-409482573.83633,   0.00000
-41812385.52170,-73157097.49590,13416064.03813,  -0.00005,  -0.00025,   0.00017,67685567.55851,   0.00000,274640135.82653,   0.00000,   0.00000,   0.00000,-406954568.26802,   0.00000
-43234609.99740,-75867182.99415,13918025.61779,  -0.00005,  -0.00026,   0.00018,70186232.26840,   0.00000,274640135.82653,   0.00000,   0.00000,   0.00000,-404453903.55813,   0.00000
-44631482.87817,-78551916.89747,14419987.19744,  -0.00005,  -0.00027,   0.00019,72665620.96644,   0.00000,274640135.82653,   0.00000,   0.00000,   0.00000,-401974514.86009,   0.00000
-46003004.16400,-81211299.20586,14916878.45812,  -0.00005,  -0.00028,   0.00019,75120753.21832,   0.00000,274640135.82653,   0.00000,   0.00000,   0.00000,-399519382.60820,   0.00000
-47331427.73845,-83837724.44084,15403629.08081,  -0.00005,  -0.00029,   0.00020,77541500.25392,   0.00000,274640135.82653,   0.00000,   0.00000,   0.00000,-397098635.57261,   0.00000
-48644640.35594,-86428657.44291,15895450.02250,  -0.00005,  -0.00030,   0.00021,79936968.28902,   0.00000,274640135.82653,   0.00000,   0.00000,   0.00000,-394703167.53751,   0.00000
-49932501.37849,-88994238.85005,16377130.32621,  -0.00005,  -0.00031,   0.00021,82305257.92147,   0.00000,274640135.82653,   0.00000,   0.00000,   0.00000,-392334877.90506,   0.00000
-51202616.28460,-91552214.77871,16853740.31094,  -0.00005,  -0.00032,   0.00022,84663739.04666,   0.00000,274640135.82653,   0.00000,   0.00000,   0.00000,-389976396.77987,   0.00000
-52432168.63881,-94049346.87954,17330350.29566,  -0.00006,  -0.00033,   0.00023,86972546.61552,   0.00000,274640135.82653,   0.00000,   0.00000,   0.00000,-387667589.21101,   0.00000
-53643974.87657,-96538873.50188,17801889.96140,  -0.00006,  -0.00033,   0.00023,89271625.34320,   0.00000,274640135.82653,   0.00000,   0.00000,   0.00000,-385368510.48333,   0.00000
-54830429.51940,-99003048.52929,18268359.30815,  -0.00006,  -0.00034,   0.00024,91546702.83642,   0.00000,274640135.82653,   0.00000,   0.00000,   0.00000,-383093432.99011,   0.00000
-55983927.08881,-101424125.84532,18729758.33592,  -0.00006,  -0.00035,   0.00024,93783495.73015,   0.00000,274640135.82653,   0.00000,   0.00000,   0.00000,-380856640.09638,   0.00000
-57112073.06330,-103819851.56641,19191157.36369,  -0.00006,  -0.00036,   0.00025,95999401.47548,   0.00000,274640135.82653,   0.00000,   0.00000,   0.00000,-378640734.35105,   0.00000
-58214867.44285,-106190225.69257,19642415.75348,  -0.00006,  -0.00037,   0.00026,98188382.21249,   0.00000,274640135.82653,   0.00000,   0.00000,   0.00000,-376451753.61404,   0.00000
-59292310.22747,-108535248.22380,20093674.14327,  -0.00006,  -0.00038,   0.00026,100356563.17621,   0.00000,274640135.82653,   0.00000,   0.00000,   0.00000,-374283572.65032,   0.00000
-60336795.93867,-110837173.04365,20539862.21408,  -0.00006,  -0.00039,   0.00027,102486612.78147,   0.00000,274640135.82653,   0.00000,   0.00000,   0.00000,-372153523.04506,   0.00000
-61381281.64988,-113139097.86349,20980979.96590,  -0.00006,  -0.00040,   0.00027,104614047.48772,   0.00000,274640135.82653,   0.00000,   0.00000,   0.00000,-370026088.33881,   0.00000
-62375064.17122,-115390319.49348,21417027.39874,  -0.00006,  -0.00040,   0.00028,106696593.51555,   0.00000,274640135.82653,   0.00000,   0.00000,   0.00000,-367943542.31098,   0.00000
-63343495.09764,-117616189.52852,21853074.83157,  -0.00006,  -0.00041,   0.00028,108758523.91594,   0.00000,274640135.82653,   0.00000,   0.00000,   0.00000,-365881611.91059,   0.00000
-64278968.95063,-119798961.85219,22284051.94542,  -0.00006,  -0.00042,   0.00029,110782490.82920,   0.00000,274640135.82653,   0.00000,   0.00000,   0.00000,-363857644.99733,   0.00000
-65189091.20870,-121956382.58092,22709958.74028,  -0.00006,  -0.00043,   0.00030,112782878.99874,   0.00000,274640135.82653,   0.00000,   0.00000,   0.00000,-361857256.82779,   0.00000
-66081467.35031,-124106197.83117,23130795.21615,  -0.00006,  -0.00044,   0.00030,114774082.74224,   0.00000,274640135.82653,   0.00000,   0.00000,   0.00000,-359866053.08429,   0.00000
-66933280.94004,-126195169.25359,23551631.69203,  -0.00006,  -0.00044,   0.00031,116716177.92527,   0.00000,274640135.82653,   0.00000,   0.00000,   0.00000,-357923957.90126,   0.00000
-67767348.41331,-128276535.19752,23962327.52993,  -0.00006,  -0.00045,   0.00031,118646119.87429,   0.00000,274640135.82653,   0.00000,   0.00000,   0.00000,-355994015.95224,   0.00000
-68568458.81317,-130314803.43007,24373023.36783,  -0.00006,  -0.00046,   0.00032,120541399.98174,   0.00000,274640135.82653,   0.00000,   0.00000,   0.00000,-354098735.84479,   0.00000
-69344217.61809,-132327720.06769,24778648.88675,  -0.00006,  -0.00047,   0.00032,122413349.43566,   0.00000,274640135.82653,   0.00000,   0.00000,   0.00000,-352226786.39087,   0.00000
-70094624.82808,-134315285.11037,25184274.40566,  -0.00006,  -0.00047,   0.00033,124265102.73444,   0.00000,274640135.82653,   0.00000,   0.00000,   0.00000,-350375033.09209,   0.00000
-70819680.44315,-136277498.55813,25579759.28661,  -0.00006,  -0.00048,   0.00033,126090551.22147,   0.00000,274640135.82653,   0.00000,   0.00000,   0.00000,-348549584.60506,   0.00000
-71511778.98480,-138196614.29450,25975244.16755,  -0.00006,  -0.00049,   0.00034,127881558.19683,   0.00000,274640135.82653,   0.00000,   0.00000,   0.00000,-346758577.62970,   0.00000
-72196272.04797,-140097983.91441,26365658.72950,  -0.00006,  -0.00050,   0.00034,129655846.43653,   0.00000,274640135.82653,   0.00000,   0.00000,   0.00000,-344984289.39000,   0.00000
-72830061.92127,-141948650.34446,26756073.29146,  -0.00005,  -0.00050,   0.00035,131389385.54456,   0.00000,274640135.82653,   0.00000,   0.00000,   0.00000,-343250750.28197,   0.00000
-73446105.67812,-143791711.29604,27136347.21544,  -0.00005,  -0.00051,   0.00035,133111192.14337,   0.00000,274640135.82653,   0.00000,   0.00000,   0.00000,-341528943.68316,   0.00000
-74029192.36156,-145591674.53622,27516621.13943,  -0.00005,  -0.00052,   0.00036,134798799.14997,   0.00000,274640135.82653,   0.00000,   0.00000,   0.00000,-339841336.67655,   0.00000
-74586927.45007,-147366286.18148,27891824.74442,  -0.00005,  -0.00053,   0.00036,136463530.71821,   0.00000,274640135.82653,   0.00000,   0.00000,   0.00000,-338176605.10832,   0.00000
-75111705.46517,-149097800.11535,28267028.34942,  -0.00005,  -0.00053,   0.00037,138094195.83920,   0.00000,274640135.82653,   0.00000,   0.00000,   0.00000,-336545939.98733,   0.00000
-75618737.36381,-150821708.57074,28632091.31644,  -0.00005,  -0.00054,   0.00037,139713363.73798,   0.00000,274640135.82653,   0.00000,   0.00000,   0.00000,-334926772.08855,   0.00000
-76085206.71057,-152484773.19829,28997154.28347,  -0.00005,  -0.00055,   0.00038,141284231.66842,   0.00000,274640135.82653,   0.00000,   0.00000,   0.00000,-333355904.15811,   0.00000
-76533929.94087,-154140232.34737,29357146.93151,  -0.00005,  -0.00055,   0.00038,142846848.56386,   0.00000,274640135.82653,   0.00000,   0.00000,   0.00000,-331793287.26267,   0.00000
-76967442.21421,-155760199.26354,29717139.57954,  -0.00005,  -0.00056,   0.00039,144381743.49236,   0.00000,274640135.82653,   0.00000,   0.00000,   0.00000,-330258392.33417,   0.00000
-77357856.77616,-157347209.10629,30072061.90859,  -0.00005,  -0.00057,   0.00039,145888060.08262,   0.00000,274640135.82653,   0.00000,   0.00000,   0.00000,-328752075.74391,   0.00000
-77722919.74319,-158908867.35412,30421913.91866,  -0.00004,  -0.00057,   0.00040,147371970.78397,   0.00000,274640135.82653,   0.00000,   0.00000,   0.00000,-327268165.04256,   0.00000
-78055025.63680,-160427427.89056,30766695.60974,  -0.00004,  -0.00058,   0.00040,148819179.96725,   0.00000,274640135.82653,   0.00000,   0.00000,   0.00000,-325820955.85928,   0.00000
-78369385.41396,-161938382.94852,31111477.30082,  -0.00004,  -0.00058,   0.00040,150261641.66232,   0.00000,274640135.82653,   0.00000,   0.00000,   0.00000,-324378494.16421,   0.00000
-78643182.63923,-163388494.17864,31451188.67291,  -0.00004,  -0.00059,   0.00041,151653192.59273,   0.00000,274640135.82653,   0.00000,   0.00000,   0.00000,-322986943.23380,   0.00000
-78916979.86450,-164838605.40876,31785829.72601,  -0.00004,  -0.00060,   0.00041,153042829.14994,   0.00000,274640135.82653,   0.00000,   0.00000,   0.00000,-321597306.67659,   0.00000
-79140073.89990,-166238013.44902,32115400.46013,  -0.00004,  -0.00060,   0.00042,154390208.83195,   0.00000,274640135.82653,   0.00000,   0.00000,   0.00000,-320249926.99458,   0.00000
-79337816.34037,-167612069.89435,32444971.19425,  -0.00003,  -0.00061,   0.00042,155718810.44243,   0.00000,274640135.82653,   0.00000,   0.00000,   0.00000,-318921325.38410,   0.00000
-79502601.70743,-168943028.62829,32769471.60938,  -0.00003,  -0.00061,   0.00043,157011194.16380,   0.00000,274640135.82653,   0.00000,   0.00000,   0.00000,-317628941.66273,   0.00000
-79642035.47956,-170248635.76730,33093972.02451,  -0.00003,  -0.00062,   0.00043,158284986.20812,   0.00000,274640135.82653,   0.00000,   0.00000,   0.00000,-316355149.61841,   0.00000
-79756117.65675,-171528891.31137,33408331.80167,  -0.00003,  -0.00062,   0.00043,159533915.90047,   0.00000,274640135.82653,   0.00000,   0.00000,   0.00000,-315106219.92606,   0.00000
-79854988.87699,-172773654.62255,33722691.57883,  -0.00003,  -0.00063,   0.00044,160755642.18409,   0.00000,274640135.82653,   0.00000,   0.00000,   0.00000,-313884493.64244,   0.00000
-79918367.86432,-174003206.97676,34037051.35599,  -0.00002,  -0.00064,   0.00044,161967811.15575,   0.00000,274640135.82653,   0.00000,   0.00000,   0.00000,-312672324.67078,   0.00000
-79941184.29976,-175171915.50313,34341270.49518,  -0.00002,  -0.00064,   0.00045,163126672.02078,   0.00000,274640135.82653,   0.00000,   0.00000,   0.00000,-311513463.80574,   0.00000
-79946254.61874,-176333018.55103,34650559.95335,  -0.00002,  -0.00065,   0.00045,164284985.84884,   0.00000,274640135.82653,   0.00000,   0.00000,   0.00000,-310355149.97769,   0.00000
-79936113.98077,-177458629.36602,34949708.77355,  -0.00002,  -0.00065,   0.00045,165409917.05762,   0.00000,274640135.82653,   0.00000,   0.00000,   0.00000,-309230218.76891,   0.00000
-79882875.63141,-178551283.10760,35248857.59375,  -0.00002,  -0.00066,   0.00046,166511532.51710,   0.00000,274640135.82653,   0.00000,   0.00000,   0.00000,-308128603.30943,   0.00000
-79796680.20864,-179600839.13779,35542936.09497,  -0.00001,  -0.00066,   0.00046,167577808.14950,   0.00000,274640135.82653,   0.00000,   0.00000,   0.00000,-307062327.67703,   0.00000
-79702879.30739,-180632649.05153,35831944.27719,  -0.00001,  -0.00067,   0.00047,168628423.87624,   0.00000,274640135.82653,   0.00000,   0.00000,   0.00000,-306011711.95029,   0.00000
-79565980.69476,-181631501.89186,36120952.45942,  -0.00001,  -0.00067,   0.00047,169656207.69678,   0.00000,274640135.82653,   0.00000,   0.00000,   0.00000,-304983928.12975,   0.00000
-79403730.48719,-182605003.13726,36404890.32266,  -0.00001,  -0.00068,   0.00047,170663321.33629,   0.00000,274640135.82653,   0.00000,   0.00000,   0.00000,-303976814.49024,   0.00000
-79226269.32267,-183543012.14975,36683757.86692,  -0.00000,  -0.00068,   0.00048,171640628.11770,   0.00000,274640135.82653,   0.00000,   0.00000,   0.00000,-302999507.70883,   0.00000
-78998104.96828,-184430317.97238,36962625.41117,   0.00000,  -0.00069,   0.00048,172581297.33351,   0.00000,274640135.82653,   0.00000,   0.00000,   0.00000,-302058838.49302,   0.00000
-78769940.61389,-185317623.79501,37241492.95543,   0.00000,  -0.00069,   0.00048,173524215.61543,   0.00000,274640135.82653,   0.00000,   0.00000,   0.00000,-301115920.21110,   0.00000
-78491073.06963,-186154226.42777,37510219.86171,   0.00001,  -0.00069,   0.00049,174424337.06912,   0.00000,274640135.82653,   0.00000,   0.00000,   0.00000,-300215798.75741,   0.00000
-78186853.93045,-186965477.46560,37778946.76799,   0.00001,  -0.00070,   0.00049,175307666.32278,   0.00000,274640135.82653,   0.00000,   0.00000,   0.00000,-299332469.50375,   0.00000
-77867423.83430,-187741236.27053,38042603.35528,   0.00001,  -0.00070,   0.00049,176161573.80446,   0.00000,274640135.82653,   0.00000,   0.00000,   0.00000,-298478562.02206,   0.00000
-77504896.02677,-188484038.00204,38306259.94258,   0.00001,  -0.00071,   0.00050,176994108.30303,   0.00000,274640135.82653,   0.00000,   0.00000,   0.00000,-297646027.52349,   0.00000
-77134762.74076,-189209093.61710,38564846.21089,   0.00002,  -0.00071,   0.00050,177811687.68036,   0.00000,274640135.82653,   0.00000,   0.00000,   0.00000,-296828448.14617,   0.00000
-76731672.38134,-189891051.52078,38823432.47920,   0.00002,  -0.00071,   0.00050,178598655.56343,   0.00000,274640135.82653,   0.00000,   0.00000,   0.00000,-296041480.26310,   0.00000
-76285484.31053,-190540052.35104,39076948.42852,   0.00002,  -0.00072,   0.00051,179361562.73776,   0.00000,274640135.82653,   0.00000,   0.00000,   0.00000,-295278573.08877,   0.00000
-75831690.76125,-191171307.06486,39325394.05885,   0.00003,  -0.00072,   0.00051,180109773.14538,   0.00000,274640135.82653,   0.00000,   0.00000,   0.00000,-294530362.68115,   0.00000
-75344940.13855,-191759464.06728,39573839.68919,   0.00003,  -0.00073,   0.00051,180827854.83974,   0.00000,274640135.82653,   0.00000,   0.00000,   0.00000,-293812280.98679,   0.00000
-74815091.80446,-192314663.99630,39817215.00054,   0.00003,  -0.00073,   0.00052,181522506.97555,   0.00000,274640135.82653,   0.00000,   0.00000,   0.00000,-293117628.85098,   0.00000
-74277637.99190,-192852117.80886,40055519.99290,   0.00004,  -0.00073,   0.00052,182202747.24094,   0.00000,274640135.82653,   0.00000,   0.00000,   0.00000,-292437388.58559,   0.00000
-73707227.10593,-193346473.91004,40293824.98526,   0.00004,  -0.00074,   0.00052,182853380.70242,   0.00000,274640135.82653,   0.00000,   0.00000,   0.00000,-291786755.12411,   0.00000
-73111464.62502,-193815478.41629,40527059.65864,   0.00005,  -0.00074,   0.00053,183485476.62706,   0.00000,274640135.82653,   0.00000,   0.00000,   0.00000,-291154659.19947,   0.00000
-72490350.54918,-194259131.32760,40760294.33202,   0.00005,  -0.00074,   0.00053,184102561.85528,   0.00000,274640135.82653,   0.00000,   0.00000,   0.00000,-290537573.97125,   0.00000
-71836279.39993,-194659686.52753,40988458.68641,   0.00005,  -0.00075,   0.00053,184687244.29204,   0.00000,274640135.82653,   0.00000,   0.00000,   0.00000,-289952891.53449,   0.00000
-71156856.65574,-195034890.13253,41216623.04080,   0.00006,  -0.00075,   0.00054,185257299.29686,   0.00000,274640135.82653,   0.00000,   0.00000,   0.00000,-289382836.52967,   0.00000
-70444476.83815,-195366996.02614,41439717.07620,   0.00006,  -0.00075,   0.00054,185795349.99790,   0.00000,274640135.82653,   0.00000,   0.00000,   0.00000,-288844785.82863,   0.00000
-69714350.90410,-195691496.44127,41657740.79262,   0.00006,  -0.00075,   0.00054,186329946.47502,   0.00000,274640135.82653,   0.00000,   0.00000,   0.00000,-288310189.35151,   0.00000
-68951267.89664,-195972899.14502,41875764.50903,   0.00007,  -0.00076,   0.00054,186836328.46445,   0.00000,274640135.82653,   0.00000,   0.00000,   0.00000,-287803807.36208,   0.00000
-68155227.81577,-196211204.13738,42093788.22545,   0.00007,  -0.00076,   0.00055,187314744.24395,   0.00000,274640135.82653,   0.00000,   0.00000,   0.00000,-287325391.58258,   0.00000
-67333836.13997,-196424157.53481,42306741.62288,   0.00008,  -0.00076,   0.00055,187776154.70405,   0.00000,274640135.82653,   0.00000,   0.00000,   0.00000,-286863981.12248,   0.00000
-66504838.98568,-196619364.81579,42514624.70133,   0.00008,  -0.00076,   0.00055,188224358.07041,   0.00000,274640135.82653,   0.00000,   0.00000,   0.00000,-286415777.75612,   0.00000
-65632744.12001,-196781615.02336,42722507.77977,   0.00009,  -0.00077,   0.00056,188655722.78240,   0.00000,274640135.82653,   0.00000,   0.00000,   0.00000,-285984413.04413,   0.00000
-64745438.29739,-196908372.99802,42925320.53923,   0.00009,  -0.00077,   0.00056,189060068.90153,   0.00000,274640135.82653,   0.00000,   0.00000,   0.00000,-285580066.92500,   0.00000
-63815034.76337,-197002173.89927,43128133.29869,   0.00009,  -0.00077,   0.00056,189448204.66960,   0.00000,274640135.82653,   0.00000,   0.00000,   0.00000,-285191931.15693,   0.00000
-62877025.75088,-197078228.68406,43325875.73916,   0.00010,  -0.00077,   0.00056,189823734.69699,   0.00000,274640135.82653,   0.00000,   0.00000,   0.00000,-284816401.12954,   0.00000
-61888313.54853,-197103580.27899,43518547.86064,   0.00010,  -0.00078,   0.00057,190166160.39278,   0.00000,274640135.82653,   0.00000,   0.00000,   0.00000,-284473975.43375,   0.00000
-60891995.86769,-197111185.75747,43716290.30111,   0.00011,  -0.00078,   0.00057,190503289.51470,   0.00000,274640135.82653,   0.00000,   0.00000,   0.00000,-284136846.31183,   0.00000
-59870326.59192,-197093439.64102,43903892.10361,   0.00011,  -0.00078,   0.00057,190821609.31314,   0.00000,274640135.82653,   0.00000,   0.00000,   0.00000,-283818526.51339,   0.00000
-58815700.24274,-197032595.81318,44091493.90611,   0.00012,  -0.00078,   0.00057,191114363.19426,   0.00000,274640135.82653,   0.00000,   0.00000,   0.00000,-283525772.63227,   0.00000
-57735722.29863,-196946400.39041,44279095.70861,   0.00012,  -0.00078,   0.00058,191395847.72337,   0.00000,274640135.82653,   0.00000,   0.00000,   0.00000,-283244288.10316,   0.00000
-56630392.75958,-196834853.37271,44461627.19212,   0.00013,  -0.00079,   0.00058,191662815.14369,   0.00000,274640135.82653,   0.00000,   0.00000,   0.00000,-282977320.68284,   0.00000
-55492106.14713,-196680208.64363,44639088.35665,   0.00013,  -0.00079,   0.00058,191901599.60144,   0.00000,274640135.82653,   0.00000,   0.00000,   0.00000,-282738536.22509,   0.00000
-54328467.93974,-196500212.31961,44821619.84016,   0.00014,  -0.00079,   0.00058,192133529.61016,   0.00000,274640135.82653,   0.00000,   0.00000,   0.00000,-282506606.21637,   0.00000
-53139478.13742,-196294864.40066,44994010.68570,   0.00014,  -0.00079,   0.00058,192348262.96132,   0.00000,274640135.82653,   0.00000,   0.00000,   0.00000,-282291872.86521,   0.00000
-51935277.37814,-196054024.24880,45166401.53124,   0.00015,  -0.00079,   0.00059,192541800.16784,   0.00000,274640135.82653,   0.00000,   0.00000,   0.00000,-282098335.65868,   0.00000
-50687978.90747,-195780227.02353,45338792.37678,   0.00015,  -0.00079,   0.00059,192723332.17282,   0.00000,274640135.82653,   0.00000,   0.00000,   0.00000,-281916803.65371,   0.00000
-49433074.95833,-195488683.68181,45506112.90333,   0.00016,  -0.00079,   0.00059,192894444.00564,   0.00000,274640135.82653,   0.00000,   0.00000,   0.00000,-281745691.82089,   0.00000
-48152819.41425,-195171788.74516,45673433.42988,   0.00016,  -0.00079,   0.00059,193056563.74531,   0.00000,274640135.82653,   0.00000,   0.00000,   0.00000,-281583572.08122,   0.00000
-46821860.68031,-194804190.61864,45835683.63745,   0.00017,  -0.00080,   0.00060,193190564.80740,   0.00000,274640135.82653,   0.00000,   0.00000,   0.00000,-281449571.01913,   0.00000
-45483296.46789,-194418846.37567,45997933.84501,   0.00017,  -0.00080,   0.00060,193318488.01657,   0.00000,274640135.82653,   0.00000,   0.00000,   0.00000,-281321647.80996,   0.00000
-44111775.18206,-193990404.42132,46155113.73359,   0.00018,  -0.00080,   0.00060,193421167.87268,   0.00000,274640135.82653,   0.00000,   0.00000,   0.00000,-281218967.95385,   0.00000
-42740253.89622,-193561962.46696,46312293.62217,   0.00018,  -0.00080,   0.00060,193531808.28568,   0.00000,274640135.82653,   0.00000,   0.00000,   0.00000,-281108327.54085,   0.00000
-41318029.42053,-193082817.32274,46464403.19177,   0.00019,  -0.00080,   0.00060,193616049.60758,   0.00000,274640135.82653,   0.00000,   0.00000,   0.00000,-281024086.21895,   0.00000
-39862847.87142,-192560574.46714,46616512.76136,   0.00019,  -0.00080,   0.00061,193679907.01053,   0.00000,274640135.82653,   0.00000,   0.00000,   0.00000,-280960228.81600,   0.00000
-38407666.32231,-192038331.61154,46768622.33095,   0.00020,  -0.00080,   0.00061,193752516.32700,   0.00000,274640135.82653,   0.00000,   0.00000,   0.00000,-280887619.49953,   0.00000
-36901781.58333,-191465385.56607,46915661.58156,   0.00021,  -0.00080,   0.00061,193800308.10080,   0.00000,274640135.82653,   0.00000,   0.00000,   0.00000,-280839827.72573,   0.00000
-35388291.36588,-190874693.40415,47057630.51318,   0.00021,  -0.00080,   0.00061,193840171.92499,   0.00000,274640135.82653,   0.00000,   0.00000,   0.00000,-280799963.90154,   0.00000
-33849449.55350,-190258649.64730,47204669.76379,   0.00022,  -0.00080,   0.00061,193878392.24591,   0.00000,274640135.82653,   0.00000,   0.00000,   0.00000,-280761743.58062,   0.00000
-32277650.66770,-189599508.17906,47341568.37642,   0.00022,  -0.00080,   0.00062,193890860.61910,   0.00000,274640135.82653,   0.00000,   0.00000,   0.00000,-280749275.20743,   0.00000
-30680500.18697,-188915015.11589,47483537.30804,   0.00023,  -0.00080,   0.00062,193902624.57540,   0.00000,274640135.82653,   0.00000,   0.00000,   0.00000,-280737511.25113,   0.00000
-29057998.11131,-188205170.45779,47620435.92067,   0.00023,  -0.00080,   0.00062,193906693.29708,   0.00000,274640135.82653,   0.00000,   0.00000,   0.00000,-280733442.52945,   0.00000
-27427890.55716,-187477579.68323,47752264.21432,   0.00024,  -0.00080,   0.00062,193904238.58082,   0.00000,274640135.82653,   0.00000,   0.00000,   0.00000,-280735897.24571,   0.00000
-25747079.81316,-186699285.71881,47884092.50797,   0.00025,  -0.00080,   0.00062,193884586.65478,   0.00000,274640135.82653,   0.00000,   0.00000,   0.00000,-280755549.17175,   0.00000
-24058663.59067,-185903245.63794,48015920.80162,   0.00025,  -0.00080,   0.00062,193862936.98527,   0.00000,274640135.82653,   0.00000,   0.00000,   0.00000,-280777198.84126,   0.00000
-22344895.77326,-185081853.96214,48142678.77628,   0.00026,  -0.00080,   0.00063,193835251.84069,   0.00000,274640135.82653,   0.00000,   0.00000,   0.00000,-280804883.98584,   0.00000
-20605776.36091,-184235110.69140,48269436.75094,   0.00027,  -0.00080,   0.00063,193805784.52392,   0.00000,274640135.82653,   0.00000,   0.00000,   0.00000,-280834351.30261,   0.00000
-18833699.87514,-183345269.70928,48396194.72560,   0.00027,  -0.00080,   0.00063,193761970.94445,   0.00000,274640135.82653,   0.00000,   0.00000,   0.00000,-280878164.88208,   0.00000
-17036271.79445,-182430077.13223,48517882.38128,   0.00028,  -0.00080,   0.00063,193713690.67236,   0.00000,274640135.82653,   0.00000,   0.00000,   0.00000,-280926445.15417,   0.00000
-15231238.23528,-181497138.43872,48639570.03695,   0.00028,  -0.00080,   0.00063,193665172.51478,   0.00000,274640135.82653,   0.00000,   0.00000,   0.00000,-280974963.31174,   0.00000
-13400853.08117,-180538848.15028,48756187.37364,   0.00029,  -0.00080,   0.00063,193612968.04932,   0.00000,274640135.82653,   0.00000,   0.00000,   0.00000,-281027167.77720,   0.00000
-11537510.85365,-179537460.15046,48872804.71033,   0.00030,  -0.00079,   0.00064,193548576.53730,   0.00000,274640135.82653,   0.00000,   0.00000,   0.00000,-281091559.28923,   0.00000
-9656422.50968,-178528466.67216,48989422.04701,   0.00030,  -0.00079,   0.00064,193498330.79721,   0.00000,274640135.82653,   0.00000,   0.00000,   0.00000,-281141805.02932,   0.00000
-7742377.09230,-177476375.48247,49100969.06472,   0.00031,  -0.00079,   0.00064,193433282.35533,   0.00000,274640135.82653,   0.00000,   0.00000,   0.00000,-281206853.47120,   0.00000
-5795374.60150,-176381186.58140,49212516.08242,   0.00032,  -0.00079,   0.00064,193358034.52462,   0.00000,274640135.82653,   0.00000,   0.00000,   0.00000,-281282101.30191,   0.00000
-3848372.11071,-175285997.68033,49318992.78113,   0.00032,  -0.00079,   0.00064,193293854.92730,   0.00000,274640135.82653,   0.00000,   0.00000,   0.00000,-281346280.89923,   0.00000
-1868412.54650,-174147711.06787,49430539.79884,   0.00033,  -0.00079,   0.00064,193224406.48565,   0.00000,274640135.82653,   0.00000,   0.00000,   0.00000,-281415729.34088,   0.00000
129293.13415,-173001818.97694,49531946.17856,   0.00034,  -0.00079,   0.00064,193163803.83017,   0.00000,274640135.82653,   0.00000,   0.00000,   0.00000,-281476331.99636,   0.00000
2159955.88822,-171812829.17462,49638422.87728,   0.00034,  -0.00079,   0.00065,193099303.17768,   0.00000,274640135.82653,   0.00000,   0.00000,   0.00000,-281540832.64885,   0.00000
4215970.23723,-170598487.77736,49739829.25701,   0.00035,  -0.00078,   0.00065,193036287.85153,   0.00000,274640135.82653,   0.00000,   0.00000,   0.00000,-281603847.97500,   0.00000
6287195.54319,-169348654.14720,49841235.63674,   0.00036,  -0.00078,   0.00065,192965462.97785,   0.00000,274640135.82653,   0.00000,   0.00000,   0.00000,-281674672.84868,   0.00000
8376166.96560,-168091215.03857,49937571.69748,   0.00037,  -0.00078,   0.00065,192909460.70609,   0.00000,274640135.82653,   0.00000,   0.00000,   0.00000,-281730675.12044,   0.00000
10498095.46143,-166790678.21854,50038978.07721,   0.00037,  -0.00078,   0.00065,192852334.16261,   0.00000,274640135.82653,   0.00000,   0.00000,   0.00000,-281787801.66392,   0.00000
12645375.55219,-165464789.80359,50130243.81896,   0.00038,  -0.00078,   0.00065,192795203.85989,   0.00000,274640135.82653,   0.00000,   0.00000,   0.00000,-281844931.96663,   0.00000
14800261.12143,-164121155.27218,50226579.87971,   0.00039,  -0.00078,   0.00065,192748450.75889,   0.00000,274640135.82653,   0.00000,   0.00000,   0.00000,-281891685.06763,   0.00000
16998244.40205,-162744563.66736,50317845.62146,   0.00039,  -0.00077,   0.00065,192709008.47732,   0.00000,274640135.82653,   0.00000,   0.00000,   0.00000,-281931127.34921,   0.00000
19203833.16115,-161350225.94609,50409111.36322,   0.00040,  -0.00077,   0.00066,192677089.88307,   0.00000,274640135.82653,   0.00000,   0.00000,   0.00000,-281963045.94346,   0.00000
21442378.99367,-159912790.51343,50500377.10497,   0.00041,  -0.00077,   0.00066,192643845.24313,   0.00000,274640135.82653,   0.00000,   0.00000,   0.00000,-281996290.58340,   0.00000
23688530.30466,-158457608.96432,50586572.52774,   0.00042,  -0.00077,   0.00066,192615139.95259,   0.00000,274640135.82653,   0.00000,   0.00000,   0.00000,-282024995.87394,   0.00000
25952427.73211,-156994821.93673,50672767.95051,   0.00042,  -0.00076,   0.00066,192609676.87545,   0.00000,274640135.82653,   0.00000,   0.00000,   0.00000,-282030458.95108,   0.00000
28249282.23297,-155488937.19776,50758963.37328,   0.00043,  -0.00076,   0.00066,192605034.97251,   0.00000,274640135.82653,   0.00000,   0.00000,   0.00000,-282035100.85402,   0.00000
30571488.32876,-153957700.86386,50840088.47707,   0.00044,  -0.00076,   0.00066,192609577.63847,   0.00000,274640135.82653,   0.00000,   0.00000,   0.00000,-282030558.18806,   0.00000
32926651.49796,-152383366.81856,50921213.58085,   0.00045,  -0.00076,   0.00066,192616818.71734,   0.00000,274640135.82653,   0.00000,   0.00000,   0.00000,-282023317.10919,   0.00000
35281814.66717,-150809032.77327,51002338.68463,   0.00045,  -0.00075,   0.00066,192646574.87369,   0.00000,274640135.82653,   0.00000,   0.00000,   0.00000,-281993560.95284,   0.00000
37662329.43130,-149209347.13305,51078393.46943,   0.00046,  -0.00075,   0.00066,192687463.92610,   0.00000,274640135.82653,   0.00000,   0.00000,   0.00000,-281952671.90043,   0.00000
40075801.26885,-147566563.78144,51159518.57321,   0.00047,  -0.00075,   0.00067,192737380.64933,   0.00000,274640135.82653,   0.00000,   0.00000,   0.00000,-281902755.17720,   0.00000
42489273.10639,-145923780.42984,51235573.35801,   0.00048,  -0.00075,   0.00067,192806989.79917,   0.00000,274640135.82653,   0.00000,   0.00000,   0.00000,-281833146.02736,   0.00000
44953448.13381,-144230293.88836,51306557.82382,   0.00049,  -0.00074,   0.00067,192883197.39434,   0.00000,274640135.82653,   0.00000,   0.00000,   0.00000,-281756938.43219,   0.00000
47425228.63970,-142519061.23044,51382612.60862,   0.00049,  -0.00074,   0.00067,192977596.69289,   0.00000,274640135.82653,   0.00000,   0.00000,   0.00000,-281662539.13364,   0.00000
49904614.62407,-140790082.45606,51453597.07443,   0.00050,  -0.00074,   0.00067,193082393.40322,   0.00000,274640135.82653,   0.00000,   0.00000,   0.00000,-281557742.42331,   0.00000
52409352.20337,-139035752.08675,51524581.54024,   0.00051,  -0.00073,   0.00067,193206629.71381,   0.00000,274640135.82653,   0.00000,   0.00000,   0.00000,-281433506.11272,   0.00000
54957187.49406,-137248464.64403,51595566.00605,   0.00052,  -0.00073,   0.00067,193355968.10951,   0.00000,274640135.82653,   0.00000,   0.00000,   0.00000,-281284167.71701,   0.00000
57494882.14677,-135451036.56334,51661480.15287,   0.00053,  -0.00073,   0.00067,193512562.27382,   0.00000,274640135.82653,   0.00000,   0.00000,   0.00000,-281127573.55271,   0.00000
60075674.51087,-133620651.40923,51727394.29969,   0.00053,  -0.00073,   0.00067,193695859.21249,   0.00000,274640135.82653,   0.00000,   0.00000,   0.00000,-280944276.61404,   0.00000
62664072.35345,-131772520.13867,51793308.44652,   0.00054,  -0.00072,   0.00067,193896431.53831,   0.00000,274640135.82653,   0.00000,   0.00000,   0.00000,-280743704.28822,   0.00000
65285427.26944,-129881291.15673,51859222.59334,   0.00055,  -0.00072,   0.00067,194110353.40168,   0.00000,274640135.82653,   0.00000,   0.00000,   0.00000,-280529782.42485,   0.00000
67906782.18543,-127990062.17479,51925136.74017,   0.00056,  -0.00071,   0.00068,194352359.98758,   0.00000,274640135.82653,   0.00000,   0.00000,   0.00000,-280287775.83894,   0.00000
70561094.17484,-126055735.48146,51985980.56800,   0.00057,  -0.00071,   0.00068,194605173.64232,   0.00000,274640135.82653,   0.00000,   0.00000,   0.00000,-280034962.18421,   0.00000
73233152.28069,-124113803.30965,52046824.39584,   0.00058,  -0.00071,   0.00068,194892769.52196,   0.00000,274640135.82653,   0.00000,   0.00000,   0.00000,-279747366.30457,   0.00000
75912815.86503,-122154125.02139,52107668.22368,   0.00058,  -0.00070,   0.00068,195200094.09662,   0.00000,274640135.82653,   0.00000,   0.00000,   0.00000,-279440041.72991,   0.00000
78643182.63923,-120143743.54327,52163441.73253,   0.00059,  -0.00070,   0.00068,195527055.96617,   0.00000,274640135.82653,   0.00000,   0.00000,   0.00000,-279113079.86036,   0.00000
81355803.29697,-118140967.54362,52224285.56037,   0.00060,  -0.00070,   0.00068,195881689.46051,   0.00000,274640135.82653,   0.00000,   0.00000,   0.00000,-278758446.36602,   0.00000
84119127.14459,-116087488.35411,52280059.06922,   0.00061,  -0.00069,   0.00068,196257800.92911,   0.00000,274640135.82653,   0.00000,   0.00000,   0.00000,-278382334.89742,   0.00000
86882450.99220,-114034009.16460,52335832.57807,   0.00062,  -0.00069,   0.00068,196664658.40148,   0.00000,274640135.82653,   0.00000,   0.00000,   0.00000,-277975477.42505,   0.00000
89678731.91322,-111937432.26371,52391606.08692,   0.00063,  -0.00068,   0.00068,197092140.49141,   0.00000,274640135.82653,   0.00000,   0.00000,   0.00000,-277547995.33512,   0.00000
92482618.31272,-109823109.24636,52447379.59577,   0.00063,  -0.00068,   0.00068,197542556.39798,   0.00000,274640135.82653,   0.00000,   0.00000,   0.00000,-277097579.42854,   0.00000
95304250.82868,-107701180.75053,52498082.78563,   0.00064,  -0.00068,   0.00068,198027702.59328,   0.00000,274640135.82653,   0.00000,   0.00000,   0.00000,-276612433.23325,   0.00000
98133488.82312,-105561506.13825,52548785.97550,   0.00065,  -0.00067,   0.00068,198536285.88255,   0.00000,274640135.82653,   0.00000,   0.00000,   0.00000,-276103849.94398,   0.00000
101013430.00742,-103371128.33611,52599489.16536,   0.00066,  -0.00067,   0.00068,199076101.61363,   0.00000,274640135.82653,   0.00000,   0.00000,   0.00000,-275564034.21289,   0.00000
103875625.07526,-101188356.01245,52650192.35523,   0.00067,  -0.00066,   0.00068,199640579.22561,   0.00000,274640135.82653,   0.00000,   0.00000,   0.00000,-274999556.60092,   0.00000
106788523.33297,-98954880.49892,52700895.54509,   0.00068,  -0.00066,   0.00069,200237997.96499,   0.00000,274640135.82653,   0.00000,   0.00000,   0.00000,-274402137.86154,   0.00000
109701421.59069,-96721404.98539,52746528.41597,   0.00069,  -0.00065,   0.00069,200864373.36253,   0.00000,274640135.82653,   0.00000,   0.00000,   0.00000,-273775762.46400,   0.00000
112639671.44333,-94462577.87693,52797231.60583,   0.00070,  -0.00065,   0.00069,201528536.27584,   0.00000,274640135.82653,   0.00000,   0.00000,   0.00000,-273111599.55069,   0.00000
115593132.25293,-92168258.53557,52842864.47671,   0.00071,  -0.00064,   0.00069,202207524.04957,   0.00000,274640135.82653,   0.00000,   0.00000,   0.00000,-272432611.77696,   0.00000
118564339.17899,-89866333.71572,52888497.34759,   0.00071,  -0.00064,   0.00069,202928515.46039,   0.00000,274640135.82653,   0.00000,   0.00000,   0.00000,-271711620.36614,   0.00000
121543151.58352,-87546662.77942,52934130.21847,   0.00072,  -0.00064,   0.00069,203676016.24015,   0.00000,274640135.82653,   0.00000,   0.00000,   0.00000,-270964119.58638,   0.00000
124547315.58299,-85201640.24819,52979763.08935,   0.00073,  -0.00063,   0.00069,204459176.33381,   0.00000,274640135.82653,   0.00000,   0.00000,   0.00000,-270180959.49272,   0.00000
127576831.17739,-82831266.12203,53020325.64124,   0.00074,  -0.00063,   0.00069,205274649.55082,   0.00000,274640135.82653,   0.00000,   0.00000,   0.00000,-269365486.27571,   0.00000
130613952.25027,-80443145.87942,53065958.51211,   0.00075,  -0.00062,   0.00069,206121540.15191,   0.00000,274640135.82653,   0.00000,   0.00000,   0.00000,-268518595.67462,   0.00000
133658678.80163,-78037279.52035,53106521.06401,   0.00076,  -0.00062,   0.00069,206992093.64240,   0.00000,274640135.82653,   0.00000,   0.00000,   0.00000,-267648042.18413,   0.00000
136738897.58589,-75616202.20432,53147083.61590,   0.00077,  -0.00061,   0.00069,207915487.08186,   0.00000,274640135.82653,   0.00000,   0.00000,   0.00000,-266724648.74467,   0.00000
139816581.21067,-73167238.13387,53187646.16779,   0.00078,  -0.00061,   0.00069,208851361.79755,   0.00000,274640135.82653,   0.00000,   0.00000,   0.00000,-265788774.02898,   0.00000
142929757.06834,-70703063.10646,53228208.71968,   0.00079,  -0.00060,   0.00069,209840741.59362,   0.00000,274640135.82653,   0.00000,   0.00000,   0.00000,-264799394.23290,   0.00000
146032792.28804,-68228747.44107,53268771.27157,   0.00080,  -0.00060,   0.00069,210848426.32163,   0.00000,274640135.82653,   0.00000,   0.00000,   0.00000,-263791709.50490,   0.00000
149186530.69761,-65703728.58582,53309333.82346,   0.00081,  -0.00059,   0.00069,211899427.63347,   0.00000,274640135.82653,   0.00000,   0.00000,   0.00000,-262740708.19306,   0.00000
152340269.10718,-63178709.73058,53344826.05637,   0.00082,  -0.00058,   0.00069,212980703.34662,   0.00000,274640135.82653,   0.00000,   0.00000,   0.00000,-261659432.47991,   0.00000
155501612.99523,-60635944.75887,53380318.28927,   0.00083,  -0.00058,   0.00069,214090709.27625,   0.00000,274640135.82653,   0.00000,   0.00000,   0.00000,-260549426.55028,   0.00000
158680702.99973,-58085574.30869,53420880.84117,   0.00084,  -0.00057,   0.00069,215248532.49730,   0.00000,274640135.82653,   0.00000,   0.00000,   0.00000,-259391603.32923,   0.00000
161892750.07764,-55492106.14713,53456373.07407,   0.00084,  -0.00057,   0.00069,216437421.69691,   0.00000,274640135.82653,   0.00000,   0.00000,   0.00000,-258202714.12962,   0.00000
165104797.15555,-52898637.98556,53491865.30698,   0.00085,  -0.00056,   0.00070,217659867.22631,   0.00000,274640135.82653,   0.00000,   0.00000,   0.00000,-256980268.60022,   0.00000
168332055.19042,-50269677.59109,53527357.53988,   0.00086,  -0.00056,   0.00070,218906951.57536,   0.00000,274640135.82653,   0.00000,   0.00000,   0.00000,-255733184.25117,   0.00000
171577059.34175,-47633111.71814,53562849.77279,   0.00087,  -0.00055,   0.00070,220198289.02050,   0.00000,274640135.82653,   0.00000,   0.00000,   0.00000,-254441846.80603,   0.00000
174829668.97155,-44978799.72874,53598342.00569,   0.00088,  -0.00055,   0.00070,221518579.45177,   0.00000,274640135.82653,   0.00000,   0.00000,   0.00000,-253121556.37476,   0.00000
178100024.71781,-42316882.26086,53633834.23860,   0.00089,  -0.00054,   0.00070,222882793.48303,   0.00000,274640135.82653,   0.00000,   0.00000,   0.00000,-251757342.34350,   0.00000
181403337.53747,-39611867.08159,53664256.15252,   0.00090,  -0.00053,   0.00070,224280077.00936,   0.00000,274640135.82653,   0.00000,   0.00000,   0.00000,-250360058.81717,   0.00000
184706650.35714,-36906851.90232,53699748.38542,   0.00091,  -0.00053,   0.00070,225713518.25616,   0.00000,274640135.82653,   0.00000,   0.00000,   0.00000,-248926617.57037,   0.00000
188017568.65529,-34184090.60660,53730170.29934,   0.00092,  -0.00052,   0.00070,227172096.38813,   0.00000,274640135.82653,   0.00000,   0.00000,   0.00000,-247468039.43840,   0.00000
191353838.54837,-31435977.71595,53765662.53224,   0.00093,  -0.00052,   0.00070,228674761.67958,   0.00000,274640135.82653,   0.00000,   0.00000,   0.00000,-245965374.14695,   0.00000
194697713.91993,-28670118.70884,53796084.44616,   0.00094,  -0.00051,   0.00070,230202602.47892,   0.00000,274640135.82653,   0.00000,   0.00000,   0.00000,-244437533.34761,   0.00000
198059335.40794,-25896654.22326,53826506.36008,   0.00095,  -0.00050,   0.00070,231773789.56158,   0.00000,274640135.82653,   0.00000,   0.00000,   0.00000,-242866346.26495,   0.00000
201436167.85291,-23087697.50477,53856928.27400,   0.00096,  -0.00050,   0.00070,233370895.73162,   0.00000,274640135.82653,   0.00000,   0.00000,   0.00000,-241269240.09491,   0.00000
204805394.81940,-20296486.90273,53887350.18792,   0.00097,  -0.00049,   0.00070,235001205.68225,   0.00000,274640135.82653,   0.00000,   0.00000,   0.00000,-239638930.14428,   0.00000
208207578.85930,-17462178.58931,53917772.10184,   0.00098,  -0.00049,   0.00070,236669516.30175,   0.00000,274640135.82653,   0.00000,   0.00000,   0.00000,-237970619.52478,   0.00000
211635114.49414,-14602518.68096,53948194.01576,   0.00099,  -0.00048,   0.00070,238378446.72790,   0.00000,274640135.82653,   0.00000,   0.00000,   0.00000,-236261689.09863,   0.00000
215062650.12898,-11742858.77260,53978615.92967,   0.00100,  -0.00047,   0.00070,240117391.02661,   0.00000,274640135.82653,   0.00000,   0.00000,   0.00000,-234522744.79992,   0.00000
218497791.24229,-8865452.74780,54009037.84359,   0.00101,  -0.00047,   0.00070,241884045.31988,   0.00000,274640135.82653,   0.00000,   0.00000,   0.00000,-232756090.50665,   0.00000
221950678.47206,-5980441.24451,54039459.75751,   0.00102,  -0.00046,   0.00070,243692474.18851,   0.00000,274640135.82653,   0.00000,   0.00000,   0.00000,-230947661.63802,   0.00000
225418776.65879,-3059937.50832,54069881.67143,   0.00103,  -0.00045,   0.00070,245526804.58468,   0.00000,274640135.82653,   0.00000,   0.00000,   0.00000,-229113331.24185,   0.00000
228886874.84551,-139433.77213,54100303.58535,   0.00104,  -0.00045,   0.00070,247389700.72085,   0.00000,274640135.82653,   0.00000,   0.00000,   0.00000,-227250435.10568,   0.00000
232372719.14869,2788675.44254,54125655.18028,   0.00105,  -0.00044,   0.00070,249290202.10582,   0.00000,274640135.82653,   0.00000,   0.00000,   0.00000,-225349933.72071,   0.00000
235873774.40883,5752276.89012,54156077.09420,   0.00106,  -0.00043,   0.00070,251219738.35762,   0.00000,274640135.82653,   0.00000,   0.00000,   0.00000,-223420397.46891,   0.00000
239392575.78542,8723483.81618,54186499.00812,   0.00107,  -0.00043,   0.00070,253189844.33576,   0.00000,274640135.82653,   0.00000,   0.00000,   0.00000,-221450291.49077,   0.00000
242918982.64050,11712436.85868,54211850.60305,   0.00108,  -0.00042,   0.00070,255183099.54958,   0.00000,274640135.82653,   0.00000,   0.00000,   0.00000,-219457036.27695,   0.00000
246445389.49557,14701389.90119,54242272.51697,   0.00109,  -0.00041,   0.00071,257206227.55240,   0.00000,274640135.82653,   0.00000,   0.00000,   0.00000,-217433908.27413,   0.00000
249997147.94557,17715694.53863,54272694.43089,   0.00110,  -0.00041,   0.00071,259268437.70065,   0.00000,274640135.82653,   0.00000,   0.00000,   0.00000,-215371698.12588,   0.00000
253556511.87405,20747745.29253,54298046.02582,   0.00111,  -0.00040,   0.00071,261353173.17665,   0.00000,274640135.82653,   0.00000,   0.00000,   0.00000,-213286962.64988,   0.00000
257123481.28102,23797542.16287,54328467.93974,   0.00112,  -0.00039,   0.00071,263466597.57596,   0.00000,274640135.82653,   0.00000,   0.00000,   0.00000,-211173538.25057,   0.00000
260708196.80443,26854944.51170,54353819.53467,   0.00113,  -0.00039,   0.00071,265615626.16089,   0.00000,274640135.82653,   0.00000,   0.00000,   0.00000,-209024509.66564,   0.00000
264292912.32785,29912346.86052,54384241.44859,   0.00114,  -0.00038,   0.00071,267792471.68083,   0.00000,274640135.82653,   0.00000,   0.00000,   0.00000,-206847664.14570,   0.00000
267910584.92467,33012846.92073,54409593.04352,   0.00115,  -0.00037,   0.00071,270004907.16544,   0.00000,274640135.82653,   0.00000,   0.00000,   0.00000,-204635228.66109,   0.00000
271510511.40505,36105741.50246,54440014.95744,   0.00116,  -0.00037,   0.00071,272230857.39604,   0.00000,274640135.82653,   0.00000,   0.00000,   0.00000,-202409278.43049,   0.00000
275128184.00188,39206241.56267,54470436.87136,   0.00118,  -0.00036,   0.00071,274494062.67866,   0.00000,274640135.82653,   0.00000,   0.00000,   0.00000,-200146073.14787,   0.00000
278771208.19364,42332093.21781,54495788.46629,   0.00119,  -0.00035,   0.00071,276791973.77080,   0.00000,274640135.82653,   0.00000,   0.00000,   0.00000,-197848162.05573,   0.00000
282404091.74742,45468085.51093,54526210.38021,   0.00120,  -0.00034,   0.00071,279102789.84415,   0.00000,274640135.82653,   0.00000,   0.00000,   0.00000,-195537345.98238,   0.00000
286054721.41766,48611683.28252,54551561.97514,   0.00121,  -0.00034,   0.00071,281447004.99322,   0.00000,274640135.82653,   0.00000,   0.00000,   0.00000,-193193130.83331,   0.00000
289730702.68283,51780632.64905,54581983.88906,   0.00122,  -0.00033,   0.00071,283831382.70397,   0.00000,274640135.82653,   0.00000,   0.00000,   0.00000,-190808753.12256,   0.00000
293396543.31003,54959722.65355,54607335.48399,   0.00123,  -0.00032,   0.00071,286221930.25445,   0.00000,274640135.82653,   0.00000,   0.00000,   0.00000,-188418205.57208,   0.00000
297080130.05368,58146418.13653,54637757.39791,   0.00124,  -0.00031,   0.00071,288650857.87692,   0.00000,274640135.82653,   0.00000,   0.00000,   0.00000,-185989277.94961,   0.00000
300771322.27581,61350859.73596,54668179.31183,   0.00125,  -0.00031,   0.00071,291102330.07681,   0.00000,274640135.82653,   0.00000,   0.00000,   0.00000,-183537805.74972,   0.00000
304462514.49794,64555301.33540,54693530.90676,   0.00126,  -0.00030,   0.00071,293571605.00517,   0.00000,274640135.82653,   0.00000,   0.00000,   0.00000,-181068530.82135,   0.00000
308179058.31501,67785094.52976,54723952.82068,   0.00127,  -0.00029,   0.00071,296079951.13030,   0.00000,274640135.82653,   0.00000,   0.00000,   0.00000,-178560184.69623,   0.00000
311895602.13207,71014887.72412,54754374.73460,   0.00128,  -0.00029,   0.00071,298608228.95304,   0.00000,274640135.82653,   0.00000,   0.00000,   0.00000,-176031906.87349,   0.00000
315619751.42761,74262427.03494,54779726.32953,   0.00129,  -0.00028,   0.00071,301155278.96649,   0.00000,274640135.82653,   0.00000,   0.00000,   0.00000,-173484856.86004,   0.00000
319343900.72315,77509966.34576,54810148.24345,   0.00130,  -0.00027,   0.00071,303724289.22566,   0.00000,274640135.82653,   0.00000,   0.00000,   0.00000,-170915846.60087,   0.00000
323093401.61363,80782857.25151,54840570.15737,   0.00131,  -0.00026,   0.00071,306328700.02023,   0.00000,274640135.82653,   0.00000,   0.00000,   0.00000,-168311435.80630,   0.00000
326825156.38765,84048142.67878,54870992.07129,   0.00132,  -0.00025,   0.00071,308937215.42272,   0.00000,274640135.82653,   0.00000,   0.00000,   0.00000,-165702920.40381,   0.00000
330600008.87306,87346385.17946,54901413.98521,   0.00133,  -0.00025,   0.00071,311595149.07673,   0.00000,274640135.82653,   0.00000,   0.00000,   0.00000,-163044986.74980,   0.00000
334364720.72049,90654768.31811,54931835.89913,   0.00134,  -0.00024,   0.00071,314259155.75585,   0.00000,274640135.82653,   0.00000,   0.00000,   0.00000,-160380980.07067,   0.00000
338129432.56793,93963151.45677,54962257.81304,   0.00136,  -0.00023,   0.00071,316940734.62991,   0.00000,274640135.82653,   0.00000,   0.00000,   0.00000,-157699401.19662,   0.00000
341911890.53181,97279140.07390,54992679.72696,   0.00137,  -0.00022,   0.00071,319653971.91219,   0.00000,274640135.82653,   0.00000,   0.00000,   0.00000,-154986163.91434,   0.00000
345701953.97418,100612874.80749,55023101.64088,   0.00138,  -0.00022,   0.00072,322386955.82364,   0.00000,274640135.82653,   0.00000,   0.00000,   0.00000,-152253180.00289,   0.00000
349492017.41655,103946609.54107,55053523.55480,   0.00139,  -0.00021,   0.00072,325136477.44947,   0.00000,274640135.82653,   0.00000,   0.00000,   0.00000,-149503658.37706,   0.00000
353289686.33739,107298090.39111,55083945.46872,   0.00140,  -0.00020,   0.00072,327905317.31016,   0.00000,274640135.82653,   0.00000,   0.00000,   0.00000,-146734818.51637,   0.00000
357087355.25824,110649571.24115,55119437.70162,   0.00141,  -0.00019,   0.00072,330692608.60177,   0.00000,274640135.82653,   0.00000,   0.00000,   0.00000,-143947527.22476,   0.00000
360910375.77402,114026403.68612,55149859.61554,   0.00142,  -0.00018,   0.00072,333510912.74988,   0.00000,274640135.82653,   0.00000,   0.00000,   0.00000,-141129223.07665,   0.00000
364733396.28979,117403236.13109,55185351.84845,   0.00143,  -0.00018,   0.00072,336347080.18585,   0.00000,274640135.82653,   0.00000,   0.00000,   0.00000,-138293055.64068,   0.00000
368564022.28405,120797814.69252,55215773.76237,   0.00144,  -0.00017,   0.00072,339199302.92826,   0.00000,274640135.82653,   0.00000,   0.00000,   0.00000,-135440832.89827,   0.00000
372394648.27831,124192393.25394,55251265.99527,   0.00145,  -0.00016,   0.00072,342068778.44385,   0.00000,274640135.82653,   0.00000,   0.00000,   0.00000,-132571357.38268,   0.00000
376225274.27257,127586971.81536,55281687.90919,   0.00146,  -0.00015,   0.00072,344950205.05561,   0.00000,274640135.82653,   0.00000,   0.00000,   0.00000,-129689930.77092,   0.00000
380063505.74531,130999296.49324,55317180.14210,   0.00147,  -0.00015,   0.00072,347851984.99127,   0.00000,274640135.82653,   0.00000,   0.00000,   0.00000,-126788150.83526,   0.00000
383919483.33450,134419226.64960,55352672.37500,   0.00148,  -0.00014,   0.00072,350782401.42363,   0.00000,274640135.82653,   0.00000,   0.00000,   0.00000,-123857734.40290,   0.00000
387765320.28571,137849297.44393,55388164.60791,   0.00150,  -0.00013,   0.00072,353715622.75853,   0.00000,274640135.82653,   0.00000,   0.00000,   0.00000,-120924513.06799,   0.00000
391628903.35338,141286973.71673,55423656.84081,   0.00151,  -0.00012,   0.00072,356677010.08311,   0.00000,274640135.82653,   0.00000,   0.00000,   0.00000,-117963125.74342,   0.00000
395492486.42105,144724649.98954,55459149.07372,   0.00152,  -0.00011,   0.00072,359651457.81334,   0.00000,274640135.82653,   0.00000,   0.00000,   0.00000,-114988678.01319,   0.00000
399363674.96720,148180072.37880,55494641.30662,   0.00153,  -0.00010,   0.00072,362642945.76435,   0.00000,274640135.82653,   0.00000,   0.00000,   0.00000,-111997190.06218,   0.00000
403234863.51335,151635494.76806,55530133.53953,   0.00154,  -0.00010,   0.00072,365647025.94491,   0.00000,274640135.82653,   0.00000,   0.00000,   0.00000,-108993109.88162,   0.00000
407113657.53798,155108663.27378,55570696.09142,   0.00155,  -0.00009,   0.00072,368670149.52064,   0.00000,274640135.82653,   0.00000,   0.00000,   0.00000,-105969986.30589,   0.00000
410992451.56261,158581831.77949,55606188.32432,   0.00156,  -0.00008,   0.00072,371703109.12813,   0.00000,274640135.82653,   0.00000,   0.00000,   0.00000,-102937026.69840,   0.00000
414871245.58724,162055000.28521,55646750.87621,   0.00157,  -0.00007,   0.00072,374750178.59878,   0.00000,274640135.82653,   0.00000,   0.00000,   0.00000,-99889957.22775,   0.00000
418775391.20680,165553520.38585,55682243.10912,   0.00158,  -0.00006,   0.00072,377826140.86415,   0.00000,274640135.82653,   0.00000,   0.00000,   0.00000,-96813994.96238,   0.00000
422661790.70991,169044435.00802,55722805.66101,   0.00159,  -0.00006,   0.00072,380900879.41019,   0.00000,274640135.82653,   0.00000,   0.00000,   0.00000,-93739256.41634,   0.00000
426565936.32947,172542955.10866,55763368.21290,   0.00160,  -0.00005,   0.00072,384001669.13000,   0.00000,274640135.82653,   0.00000,   0.00000,   0.00000,-90638466.69652,   0.00000
430459941.31106,176051615.84728,55803930.76479,   0.00162,  -0.00004,   0.00073,387103345.83548,   0.00000,274640135.82653,   0.00000,   0.00000,   0.00000,-87536789.99105,   0.00000
434371692.40910,179567882.06438,55844493.31669,   0.00163,  -0.00003,   0.00073,390230712.40255,   0.00000,274640135.82653,   0.00000,   0.00000,   0.00000,-84409423.42398,   0.00000
438265697.39069,183076542.80300,55885055.86858,   0.00164,  -0.00002,   0.00073,393353647.16107,   0.00000,274640135.82653,   0.00000,   0.00000,   0.00000,-81286488.66546,   0.00000
442177448.48873,186592809.02010,55925618.42047,   0.00165,  -0.00001,   0.00073,396501783.75172,   0.00000,274640135.82653,   0.00000,   0.00000,   0.00000,-78138352.07481,   0.00000
446096805.06525,190126821.35365,55971251.29135,   0.00166,  -0.00000,   0.00073,399667290.42761,   0.00000,274640135.82653,   0.00000,   0.00000,   0.00000,-74972845.39892,   0.00000
450016161.64177,193660833.68720,56011813.84324,   0.00167,   0.00000,   0.00073,402840575.26146,   0.00000,274640135.82653,   0.00000,   0.00000,   0.00000,-71799560.56507,   0.00000
453925377.58032,197204986.65872,56057446.71412,   0.00168,   0.00001,   0.00073,406016033.10834,   0.00000,274640135.82653,   0.00000,   0.00000,   0.00000,-68624102.71819,   0.00000
457844734.15684,200738998.99227,56103079.58499,   0.00169,   0.00002,   0.00073,409210605.06761,   0.00000,274640135.82653,   0.00000,   0.00000,   0.00000,-65429530.75892,   0.00000
461771696.21184,204290757.44228,56148712.45587,   0.00170,   0.00003,   0.00073,412419879.66820,   0.00000,274640135.82653,   0.00000,   0.00000,   0.00000,-62220256.15833,   0.00000
465706263.74532,207860262.00873,56194345.32675,   0.00171,   0.00004,   0.00073,415643837.86225,   0.00000,274640135.82653,   0.00000,   0.00000,   0.00000,-58996297.96428,   0.00000
469633225.80032,211412020.45874,56239978.19763,   0.00172,   0.00005,   0.00073,418871227.79211,   0.00000,274640135.82653,   0.00000,   0.00000,   0.00000,-55768908.03442,   0.00000
473550047.21735,214973919.54671,56285611.06851,   0.00174,   0.00005,   0.00073,422098014.20174,   0.00000,274640135.82653,   0.00000,   0.00000,   0.00000,-52542121.62479,   0.00000
477484614.75083,218543424.11317,56331243.93938,   0.00175,   0.00006,   0.00073,425348433.65072,   0.00000,274640135.82653,   0.00000,   0.00000,   0.00000,-49291702.17580,   0.00000
481419182.28431,222112928.67963,56381947.12925,   0.00176,   0.00007,   0.00073,428609297.08123,   0.00000,274640135.82653,   0.00000,   0.00000,   0.00000,-46030838.74530,   0.00000
485353749.81779,225682433.24608,56432650.31911,   0.00177,   0.00008,   0.00073,431878385.61357,   0.00000,274640135.82653,   0.00000,   0.00000,   0.00000,-42761750.21295,   0.00000
489278176.71329,229262078.45051,56483353.50898,   0.00178,   0.00009,   0.00073,435146424.50608,   0.00000,274640135.82653,   0.00000,   0.00000,   0.00000,-39493711.32045,   0.00000
493220349.72525,232849329.13342,56528986.37986,   0.00179,   0.00010,   0.00073,438435485.35208,   0.00000,274640135.82653,   0.00000,   0.00000,   0.00000,-36204650.47445,   0.00000
497144776.62076,236428974.33785,56584759.88871,   0.00180,   0.00011,   0.00074,441721251.86465,   0.00000,274640135.82653,   0.00000,   0.00000,   0.00000,-32918883.96188,   0.00000
501086949.63272,240016225.02076,56635463.07857,   0.00181,   0.00011,   0.00074,445027693.90432,   0.00000,274640135.82653,   0.00000,   0.00000,   0.00000,-29612441.92221,   0.00000
505018982.00671,243613616.34164,56686166.26844,   0.00182,   0.00012,   0.00074,448332722.50077,   0.00000,274640135.82653,   0.00000,   0.00000,   0.00000,-26307413.32576,   0.00000
508961155.01867,247200867.02455,56741939.77729,   0.00183,   0.00013,   0.00074,451655876.04089,   0.00000,274640135.82653,   0.00000,   0.00000,   0.00000,-22984259.78564,   0.00000
512893187.39265,250798258.34543,56792642.96715,   0.00184,   0.00014,   0.00074,454975474.97988,   0.00000,274640135.82653,   0.00000,   0.00000,   0.00000,-19664660.84665,   0.00000
516825219.76664,254395649.66631,56848416.47600,   0.00186,   0.00015,   0.00074,458304041.19645,   0.00000,274640135.82653,   0.00000,   0.00000,   0.00000,-16336094.63008,   0.00000
520757252.14063,257993040.98719,56904189.98485,   0.00187,   0.00016,   0.00074,461639511.16913,   0.00000,274640135.82653,   0.00000,   0.00000,   0.00000,-13000624.65740,   0.00000
524714636.10954,261615783.90300,56959963.49370,   0.00188,   0.00017,   0.00074,465003171.17971,   0.00000,274640135.82653,   0.00000,   0.00000,   0.00000,-9636964.64682,   0.00000
528628922.36708,265205569.74541,57020807.32154,   0.00189,   0.00018,   0.00074,468338888.67945,   0.00000,274640135.82653,   0.00000,   0.00000,   0.00000,-6301247.14708,   0.00000
532568560.21954,268820707.18274,57076580.83039,   0.00190,   0.00018,   0.00074,471700747.50937,   0.00000,274640135.82653,   0.00000,   0.00000,   0.00000,-2939388.31716,   0.00000
536005095.62996,271974181.76141,57129654.73634,   0.00191,   0.00019,   0.00074,474640140.66770,   0.00000,274640135.82653,   0.00000,   0.00000,   0.00000,  -1.59132,   0.00000
536026827.24747,272225456.01199,57078792.14417,   0.00191,   0.00019,   0.00074,474642261.58838,   0.00000,274642263.04937,   0.00000,   0.00000,   0.00000,  -1.46099,   1.00000
536190700.20357,274177782.11028,56682530.43995,   0.00192,   0.00020,   0.00074,474658902.78068,   0.00002,274658906.51454,   0.00002,   0.00000,   0.00001,  -3.73386,   1.00000
536343185.90576,276111063.74248,56290176.24200,   0.00193,   0.00021,   0.00074,474675464.73474,   0.00003,274675473.45481,   0.00003,   0.00000,   0.00001,  -8.72007,   1.00000
536486390.64540,278025728.30450,55897723.21543,   0.00194,   0.00022,   0.00075,474692110.57731,   0.00005,274692111.01225,   0.00004,   0.00000,   0.00002,  -0.43495,   1.00000
536618622.85136,279935914.19545,55508291.84784,   0.00195,   0.00023,   0.00075,474708699.17954,   0.00006,274708704.53935,   0.00006,   0.00000,   0.00002,  -5.35981,   1.00000
536740979.48943,281813285.87918,55121685.55108,   0.00196,   0.00024,   0.00075,474725256.03694,   0.00008,274725261.22474,   0.00007,   0.00000,   0.00003,  -5.18779,   1.00000
536851636.08855,283685497.04844,54740927.13525,   0.00197,   0.00025,   0.00075,474741850.36966,   0.00009,274741855.73869,   0.00009,   0.00000,   0.00004,  -5.36903,   1.00000
536952983.53875,285525259.62240,54362996.06042,   0.00199,   0.00025,   0.00075,474758408.46232,   0.00011,274758412.22111,   0.00010,   0.00000,   0.00004,  -3.75879,   1.00000
537043992.19895,287361132.78545,53988036.81202,   0.00200,   0.00026,   0.00075,474774919.93076,   0.00012,274774924.65378,   0.00011,   0.00000,   0.00005,  -4.72302,   1.00000
537126790.89152,289178593.25251,53613089.89691,   0.00201,   0.00027,   0.00075,474791500.26676,   0.00014,274791504.67620,   0.00013,   0.00000,   0.00005,  -4.40943,   1.00000
537199786.11203,290978370.60680,53242020.51343,   0.00202,   0.00028,   0.00075,474808005.56820,   0.00015,274808006.65692,   0.00014,   0.00000,   0.00006,  -1.08872,   1.00000
537262161.46116,292759377.26944,52877723.58321,   0.00203,   0.00029,   0.00075,474824502.58104,   0.00017,274824511.27150,   0.00016,   0.00001,   0.00006,  -8.69046,   1.00000
537317934.31652,294523565.11793,52510546.84417,   0.00204,   0.00030,   0.00075,474840996.46183,   0.00018,274841001.52304,   0.00017,   0.00001,   0.00007,  -5.06121,   1.00000
537363489.33301,296269234.89249,52150175.00205,   0.00205,   0.00031,   0.00075,474857485.59574,   0.00020,274857493.55266,   0.00018,   0.00001,   0.00008,  -7.95692,   1.00000
537400051.67766,297998039.59679,51793621.16553,   0.00206,   0.00032,   0.00075,474873902.04963,   0.00021,274873907.09999,   0.00020,   0.00001,   0.00008,  -5.05036,   1.00000
537429548.08580,299708886.91427,51437169.09250,   0.00207,   0.00033,   0.00076,474890378.39508,   0.00023,274890385.42018,   0.00021,   0.00001,   0.00009,  -7.02511,   1.00000
537449666.83017,301416751.86029,51083624.84985,   0.00208,   0.00033,   0.00076,474906811.90832,   0.00024,274906820.14648,   0.00022,   0.00001,   0.00009,  -8.23816,   1.00000
537461082.84049,303093032.61267,50737787.94235,   0.00209,   0.00034,   0.00076,474923216.79704,   0.00026,274923220.19916,   0.00024,   0.00001,   0.00010,  -3.40211,   1.00000
537463392.84909,304766649.12657,50394790.62373,   0.00210,   0.00035,   0.00076,474939571.49506,   0.00027,274939577.04087,   0.00025,   0.00001,   0.00010,  -5.54581,   1.00000
537460190.41585,306409125.93888,50052830.46354,   0.00211,   0.00036,   0.00076,474955954.88470,   0.00029,274955961.60527,   0.00027,   0.00001,   0.00011,  -6.72056,   1.00000
537449087.40162,308035920.16330,49714614.54822,   0.00212,   0.00037,   0.00076,474972266.74832,   0.00030,274972267.25364,   0.00028,   0.00002,   0.00011,  -0.50532,   1.00000
537430088.92501,309659476.96342,49377429.70780,   0.00214,   0.00038,   0.00076,474988593.13454,   0.00032,274988600.67217,   0.00029,   0.00002,   0.00012,  -7.53763,   1.00000
537405375.18228,311253349.57273,49043104.06613,   0.00215,   0.00039,   0.00076,475004884.14384,   0.00033,275004889.69712,   0.00031,   0.00002,   0.00012,  -5.55328,   1.00000
537370367.13228,312844345.49773,48716421.27415,   0.00216,   0.00040,   0.00076,475021140.88922,   0.00035,275021143.53692,   0.00032,   0.00002,   0.00013,  -2.64771,   1.00000
537330986.47950,314404916.43772,48390809.64072,   0.00217,   0.00041,   0.00076,475037417.45342,   0.00036,275037422.59429,   0.00034,   0.00002,   0.00014,  -5.14088,   1.00000
537283299.01503,315963783.69275,48067949.65923,   0.00218,   0.00041,   0.00077,475053655.16700,   0.00038,275053659.19595,   0.00035,   0.00002,   0.00014,  -4.02895,   1.00000
537229866.01544,317495027.15984,47749625.13884,   0.00219,   0.00042,   0.00077,475069774.25558,   0.00039,275069780.58083,   0.00036,   0.00003,   0.00015,  -6.32525,   1.00000
537171462.81709,319009373.61777,47431489.83767,   0.00220,   0.00043,   0.00077,475085958.25082,   0.00041,275085962.46730,   0.00038,   0.00003,   0.00015,  -4.21648,   1.00000
537103344.10718,320521528.28502,47120920.62545,   0.00221,   0.00044,   0.00077,475102106.00125,   0.00042,275102109.64154,   0.00039,   0.00003,   0.00016,  -3.64029,   1.00000
537031020.49271,322005403.32961,46813123.94908,   0.00222,   0.00045,   0.00077,475118208.56736,   0.00044,275118210.57008,   0.00040,   0.00003,   0.00016,  -2.00272,   1.00000
536951803.91304,323486819.83426,46506291.25886,   0.00223,   0.00046,   0.00077,475134334.96203,   0.00045,275134339.17287,   0.00042,   0.00003,   0.00017,  -4.21084,   1.00000
536867841.64771,324941842.11023,46203898.33659,   0.00224,   0.00047,   0.00077,475150350.28841,   0.00047,275150352.04039,   0.00043,   0.00004,   0.00017,  -1.75198,   1.00000
536778742.39988,326381968.68974,45903356.16838,   0.00225,   0.00048,   0.00077,475166349.19307,   0.00048,275166355.34401,   0.00045,   0.00004,   0.00018,  -6.15094,   1.00000
536683016.96305,327806433.24470,45609536.16220,   0.00226,   0.00048,   0.00077,475182346.22753,   0.00050,275182355.78007,   0.00046,   0.00004,   0.00018,  -9.55254,   1.00000
536581526.17259,329217936.53105,45319164.85408,   0.00227,   0.00049,   0.00078,475198275.71810,   0.00051,275198277.93206,   0.00047,   0.00004,   0.00019,  -2.21396,   1.00000
536473613.80623,330627426.89524,45029689.85567,   0.00228,   0.00050,   0.00078,475214227.58713,   0.00052,275214228.13030,   0.00049,   0.00004,   0.00019,  -0.54318,   1.00000
536362810.62227,332009989.75566,44742917.49094,   0.00229,   0.00051,   0.00078,475230125.99473,   0.00054,275230130.67263,   0.00050,   0.00005,   0.00020,  -4.67791,   1.00000
536248400.26089,333367783.94685,44460443.31897,   0.00230,   0.00052,   0.00078,475245913.58195,   0.00055,275245917.25348,   0.00051,   0.00005,   0.00020,  -3.67153,   1.00000
536127300.36890,334721266.78838,44182138.04900,   0.00231,   0.00053,   0.00078,475261805.18709,   0.00057,275261806.34405,   0.00053,   0.00005,   0.00021,  -1.15697,   1.00000
536000035.61669,336064554.15141,43908751.71219,   0.00232,   0.00054,   0.00078,475277545.41340,   0.00058,275277550.05435,   0.00054,   0.00005,   0.00021,  -4.64095,   1.00000
535871289.54191,337393037.95493,43630638.91822,   0.00233,   0.00055,   0.00078,475293337.46817,   0.00060,275293344.86913,   0.00055,   0.00006,   0.00022,  -7.40096,   1.00000
535736441.37623,338695876.66302,43366525.14648,   0.00234,   0.00056,   0.00078,475309030.34194,   0.00061,275309036.58506,   0.00057,   0.00006,   0.00022,  -6.24312,   1.00000
535597401.94321,339998358.67870,43098314.04326,   0.00235,   0.00056,   0.00079,475324749.32342,   0.00063,275324750.38290,   0.00058,   0.00006,   0.00023,  -1.05948,   1.00000
535454129.61553,341276545.18559,42839139.08639,   0.00236,   0.00057,   0.00079,475340346.77122,   0.00064,275340354.76919,   0.00059,   0.00006,   0.00023,  -7.99797,   1.00000
535308889.32903,342542549.78221,42576734.82115,   0.00237,   0.00058,   0.00079,475355938.82713,   0.00065,275355942.77676,   0.00061,   0.00007,   0.00023,  -3.94963,   1.00000
535156561.41145,343806632.65749,42320024.62848,   0.00238,   0.00059,   0.00079,475371564.15928,   0.00067,275371565.77134,   0.00062,   0.00007,   0.00024,  -1.61206,   1.00000
535001974.74865,345047979.04903,42067371.41761,   0.00239,   0.00060,   0.00079,475387065.31675,   0.00068,275387073.14800,   0.00063,   0.00007,   0.00024,  -7.83124,   1.00000
534844928.86059,346263909.72785,41822132.05969,   0.00240,   0.00061,   0.00079,475402533.78856,   0.00070,275402537.51893,   0.00065,   0.00008,   0.00025,  -3.73037,   1.00000
534683003.67240,347482350.63062,41574192.47109,   0.00241,   0.00062,   0.00079,475417954.95802,   0.00071,275417958.59038,   0.00066,   0.00008,   0.00025,  -3.63237,   1.00000
534517704.53471,348685171.87970,41331275.71288,   0.00242,   0.00063,   0.00079,475433434.80194,   0.00073,275433441.92158,   0.00067,   0.00008,   0.00026,  -7.11964,   1.00000
534349622.70444,349868604.41532,41093779.57513,   0.00243,   0.00063,   0.00080,475448734.39073,   0.00074,275448743.73496,   0.00069,   0.00008,   0.00026,  -9.34423,   1.00000
534179954.67499,351037657.71071,40856362.60992,   0.00244,   0.00064,   0.00080,475464097.61370,   0.00075,275464101.49612,   0.00070,   0.00009,   0.00027,  -3.88242,   1.00000
534002632.72390,352207879.93739,40625981.03047,   0.00245,   0.00065,   0.00080,475479419.42575,   0.00077,275479428.98693,   0.00071,   0.00009,   0.00027,  -9.56118,   1.00000
533824024.21982,353357036.65829,40399432.25357,   0.00246,   0.00066,   0.00080,475494638.53348,   0.00078,275494641.34525,   0.00072,   0.00009,   0.00028,  -2.81177,   1.00000
533646875.10763,354483897.47754,40170336.15716,   0.00247,   0.00067,   0.00080,475509794.26199,   0.00080,275509798.39017,   0.00074,   0.00010,   0.00028,  -4.12818,   1.00000
533463455.51735,355609925.00474,39946777.44514,   0.00248,   0.00068,   0.00080,475524986.52526,   0.00081,275524991.18267,   0.00075,   0.00010,   0.00028,  -4.65741,   1.00000
533275136.68753,356726159.52908,39731019.59684,   0.00249,   0.00069,   0.00080,475540108.26974,   0.00082,275540114.77057,   0.00076,   0.00010,   0.00029,  -6.50082,   1.00000
533088639.18806,357820591.32684,39512642.23325,   0.00250,   0.00070,   0.00081,475555178.07478,   0.00084,275555183.00033,   0.00078,   0.00011,   0.00029,  -4.92555,   1.00000
532898667.33714,358903086.10972,39300617.17799,   0.00251,   0.00070,   0.00081,475570240.98385,   0.00085,275570247.20613,   0.00079,   0.00011,   0.00030,  -6.22228,   1.00000
532704236.94439,359979899.14186,39092791.13926,   0.00252,   0.00071,   0.00081,475585169.35895,   0.00087,275585172.16377,   0.00080,   0.00011,   0.00030,  -2.80482,   1.00000
532509157.79981,361043214.75016,38884935.84186,   0.00253,   0.00072,   0.00081,475600149.86134,   0.00088,275600152.40743,   0.00081,   0.00012,   0.00031,  -2.54609,   1.00000
532313678.68625,362087316.91022,38680709.31784,   0.00254,   0.00073,   0.00081,475615009.99612,   0.00089,275615018.28088,   0.00083,   0.00012,   0.00031,  -8.28475,   1.00000
532112377.48923,363131214.98818,38481880.16839,   0.00255,   0.00074,   0.00081,475629911.51945,   0.00091,275629920.66428,   0.00084,   0.00012,   0.00031,  -9.14483,   1.00000
531912239.07995,364157139.37259,38281684.71848,   0.00256,   0.00075,   0.00082,475644694.08699,   0.00092,275644703.44235,   0.00085,   0.00013,   0.00032,  -9.35536,   1.00000
531709157.74975,365171936.57950,38087731.38689,   0.00257,   0.00076,   0.00082,475659473.48312,   0.00093,275659482.40579,   0.00086,   0.00013,   0.00032,  -8.92267,   1.00000
531506078.38083,366168406.28744,37897279.12346,   0.00258,   0.00076,   0.00082,475674143.46477,   0.00095,275674147.47107,   0.00088,   0.00013,   0.00033,  -4.00631,   1.00000
531297387.21829,367165056.55660,37712140.09329,   0.00259,   0.00077,   0.00082,475688841.28815,   0.00096,275688849.61167,   0.00089,   0.00014,   0.00033,  -8.32352,   1.00000
531090211.50887,368144593.93864,37525504.05212,   0.00260,   0.00078,   0.00082,475703431.67688,   0.00098,275703432.76548,   0.00090,   0.00014,   0.00033,  -1.08860,   1.00000
530880406.97372,369113551.46580,37345020.91259,   0.00261,   0.00079,   0.00082,475718004.41384,   0.00099,275718012.37582,   0.00091,   0.00015,   0.00034,  -7.96198,   1.00000
530668007.85332,370075838.31836,37167055.52442,   0.00262,   0.00080,   0.00083,475732511.85941,   0.00100,275732519.56585,   0.00093,   0.00015,   0.00034,  -7.70644,   1.00000
530457430.92429,371017830.94732,36991118.68263,   0.00263,   0.00081,   0.00083,475746970.62242,   0.00102,275746977.01041,   0.00094,   0.00015,   0.00035,  -6.38799,   1.00000
530244360.78238,371953533.92200,36817656.49734,   0.00264,   0.00082,   0.00083,475761357.39804,   0.00103,275761362.43991,   0.00095,   0.00016,   0.00035,  -5.04187,   1.00000
530028978.02713,372879197.35734,36650261.71973,   0.00265,   0.00082,   0.00083,475775743.93807,   0.00104,275775744.48678,   0.00096,   0.00016,   0.00035,  -0.54871,   1.00000
529812649.96143,373795764.07341,36483967.88060,   0.00266,   0.00083,   0.00083,475790114.15457,   0.00106,275790118.06084,   0.00098,   0.00016,   0.00036,  -3.90627,   1.00000
529592479.23140,374709465.44104,36321356.95292,   0.00267,   0.00084,   0.00083,475804356.50368,   0.00107,275804357.25001,   0.00099,   0.00017,   0.00036,  -0.74633,   1.00000
529376047.60625,375600571.15781,36159371.41827,   0.00268,   0.00085,   0.00084,475818603.48163,   0.00108,275818609.72517,   0.00100,   0.00017,   0.00037,  -6.24354,   1.00000
529156065.74846,376485259.11190,36004664.18928,   0.00268,   0.00086,   0.00084,475832787.07247,   0.00110,275832796.23259,   0.00101,   0.00018,   0.00037,  -9.16013,   1.00000
528938282.30991,377354847.09393,35848162.36788,   0.00269,   0.00087,   0.00084,475846860.56600,   0.00111,275846865.42376,   0.00102,   0.00018,   0.00037,  -4.85776,   1.00000
528715389.27990,378225643.92368,35696768.58024,   0.00270,   0.00087,   0.00084,475860966.96550,   0.00112,275860973.18368,   0.00103,   0.00018,   0.00038,  -6.21817,   1.00000
528493518.35629,379080778.22768,35548472.62970,   0.00271,   0.00088,   0.00084,475874965.57230,   0.00113,275874968.96566,   0.00105,   0.00019,   0.00038,  -3.39336,   1.00000
528271084.11692,379927679.59009,35401141.66571,   0.00272,   0.00089,   0.00084,475888952.74360,   0.00115,275888956.93849,   0.00106,   0.00019,   0.00038,  -4.19489,   1.00000
528048539.01695,380758492.05561,35261800.27960,   0.00273,   0.00090,   0.00085,475902833.63205,   0.00116,275902838.15418,   0.00107,   0.00020,   0.00039,  -4.52213,   1.00000
527826802.79462,381582214.89650,35118426.25741,   0.00274,   0.00091,   0.00085,475916706.54642,   0.00117,275916706.81189,   0.00108,   0.00020,   0.00039,  -0.26547,   1.00000
527601773.92009,382400509.82929,34982161.53859,   0.00275,   0.00092,   0.00085,475930508.90354,   0.00119,275930510.80500,   0.00109,   0.00020,   0.00039,  -1.90146,   1.00000
527374730.02495,383214320.92773,34848010.71703,   0.00276,   0.00092,   0.00085,475944244.78592,   0.00120,275944245.50921,   0.00110,   0.00021,   0.00040,  -0.72329,   1.00000
527149453.49309,384009382.03031,34720496.54072,   0.00277,   0.00093,   0.00085,475957933.61596,   0.00121,275957935.80773,   0.00112,   0.00021,   0.00040,  -2.19177,   1.00000
526925134.06660,384797768.39495,34588861.41016,   0.00277,   0.00094,   0.00086,475971608.15931,   0.00122,275971614.06322,   0.00113,   0.00022,   0.00041,  -5.90392,   1.00000
526697660.93792,385581245.97519,34464234.63445,   0.00278,   0.00095,   0.00086,475985223.86247,   0.00124,275985228.31402,   0.00114,   0.00022,   0.00041,  -4.45155,   1.00000
526471667.02452,386350658.32154,34342454.53701,   0.00279,   0.00096,   0.00086,475998723.49974,   0.00125,275998731.93754,   0.00115,   0.00022,   0.00041,  -8.43780,   1.00000
526245528.45521,387112891.60594,34221448.91341,   0.00280,   0.00096,   0.00086,476012228.36060,   0.00126,276012228.59668,   0.00116,   0.00023,   0.00042,  -0.23608,   1.00000
526017504.26953,387871428.16894,34102418.42822,   0.00281,   0.00097,   0.00086,476025654.55324,   0.00127,276025657.16611,   0.00117,   0.00023,   0.00042,  -2.61287,   1.00000
525791642.54398,388612100.50104,33989917.06273,   0.00282,   0.00098,   0.00086,476039037.02933,   0.00129,276039041.37814,   0.00118,   0.00024,   0.00042,  -4.34881,   1.00000
525563963.81039,389349384.23665,33879321.31070,   0.00283,   0.00099,   0.00087,476052352.80631,   0.00130,276052357.87293,   0.00120,   0.00024,   0.00043,  -5.06662,   1.00000
525335662.08066,390084182.70360,33765668.65862,   0.00284,   0.00100,   0.00087,476065600.73309,   0.00131,276065602.17440,   0.00121,   0.00025,   0.00043,  -1.44131,   1.00000
525108491.59709,390800686.72840,33663446.97137,   0.00284,   0.00100,   0.00087,476078804.98683,   0.00132,276078806.87951,   0.00122,   0.00025,   0.00043,  -1.89269,   1.00000
524880730.28798,391514985.74952,33558097.94744,   0.00285,   0.00101,   0.00087,476091935.73169,   0.00134,276091939.87001,   0.00123,   0.00025,   0.00044,  -4.13832,   1.00000
524656592.13546,392212967.30963,33454234.19731,   0.00286,   0.00102,   0.00087,476105019.85822,   0.00135,276105024.00601,   0.00124,   0.00026,   0.00044,  -4.14779,   1.00000
524429523.34881,392907348.78737,33357137.23670,   0.00287,   0.00103,   0.00088,476118044.03956,   0.00136,276118045.94034,   0.00125,   0.00026,   0.00044,  -1.90078,   1.00000
524202589.60857,393595442.61992,33260635.21310,   0.00288,   0.00104,   0.00088,476131060.41125,   0.00137,276131061.86398,   0.00126,   0.00027,   0.00045,  -1.45273,   1.00000
523973917.82264,394280908.35787,33165893.65058,   0.00289,   0.00104,   0.00088,476144010.23629,   0.00138,276144011.38239,   0.00127,   0.00027,   0.00045,  -1.14610,   1.00000
523745963.91488,394953310.14390,33078668.14771,   0.00290,   0.00105,   0.00088,476156848.78760,   0.00140,276156856.50863,   0.00128,   0.00028,   0.00045,  -7.72103,   1.00000
523523040.40506,395610897.83186,32987847.25394,   0.00290,   0.00106,   0.00088,476169644.63028,   0.00141,276169648.52038,   0.00129,   0.00028,   0.00046,  -3.89010,   1.00000
523293587.17654,396275059.57744,32902854.63943,   0.00291,   0.00107,   0.00089,476182420.21162,   0.00142,276182422.10465,   0.00130,   0.00028,   0.00046,  -1.89304,   1.00000
523069765.50142,396917823.18066,32821175.65577,   0.00292,   0.00108,   0.00089,476195037.73141,   0.00143,276195044.23744,   0.00131,   0.00029,   0.00046,  -6.50603,   1.00000
522842542.54964,397564477.52484,32739153.42604,   0.00293,   0.00108,   0.00089,476207698.73452,   0.00144,276207703.94246,   0.00132,   0.00029,   0.00047,  -5.20794,   1.00000
522617325.03214,398199609.78801,32659590.75192,   0.00294,   0.00109,   0.00089,476220252.99967,   0.00146,276220255.32264,   0.00133,   0.00030,   0.00047,  -2.32297,   1.00000
522391280.69132,398828350.63879,32585445.81800,   0.00294,   0.00110,   0.00090,476232804.82012,   0.00147,276232805.92626,   0.00135,   0.00030,   0.00047,  -1.10614,   1.00000
522168428.57531,399446692.15323,32508748.06628,   0.00295,   0.00111,   0.00090,476245243.79170,   0.00148,276245244.03852,   0.00136,   0.00031,   0.00048,  -0.24682,   1.00000
521942738.39101,400062580.83498,32438586.38791,   0.00296,   0.00111,   0.00090,476257616.66897,   0.00149,276257621.85307,   0.00137,   0.00031,   0.00048,  -5.18410,   1.00000
521721197.01612,400663755.04271,32369651.22061,   0.00297,   0.00112,   0.00090,476269945.61849,   0.00150,276269951.49603,   0.00138,   0.00032,   0.00048,  -5.87754,   1.00000
521497971.11863,401263529.82694,32302242.05044,   0.00298,   0.00113,   0.00090,476282208.44981,   0.00151,276282216.74682,   0.00139,   0.00032,   0.00048,  -8.29700,   1.00000
521274036.09512,401857343.07897,32240168.01131,   0.00298,   0.00114,   0.00091,476294479.32171,   0.00152,276294481.57957,   0.00140,   0.00032,   0.00049,  -2.25786,   1.00000
521052222.20974,402440560.69109,32180390.48456,   0.00299,   0.00114,   0.00091,476306631.59236,   0.00154,276306639.06754,   0.00141,   0.00033,   0.00049,  -7.47518,   1.00000
520829855.44989,403023468.04635,32117113.73170,   0.00300,   0.00115,   0.00091,476318723.65249,   0.00155,276318728.29106,   0.00142,   0.00033,   0.00049,  -4.63857,   1.00000
520608505.04166,403595203.43013,32061088.89039,   0.00301,   0.00116,   0.00091,476330713.38754,   0.00156,276330714.70859,   0.00143,   0.00034,   0.00050,  -1.32105,   1.00000
520386501.43088,404161311.87123,32010319.50581,   0.00302,   0.00117,   0.00092,476342699.58839,   0.00157,276342701.14821,   0.00144,   0.00034,   0.00050,  -1.55982,   1.00000
520166098.70866,404723487.13915,31954862.57020,   0.00302,   0.00117,   0.00092,476354672.12211,   0.00158,276354678.98692,   0.00145,   0.00035,   0.00050,  -6.86480,   1.00000
519944572.68638,405278712.02161,31907714.25201,   0.00303,   0.00118,   0.00092,476366490.24603,   0.00159,276366495.31547,   0.00145,   0.00035,   0.00051,  -5.06944,   1.00000
519728555.34032,405821026.62517,31856677.15993,   0.00304,   0.00119,   0.00092,476378257.93337,   0.00160,276378259.63849,   0.00146,   0.00036,   0.00051,  -1.70511,   1.00000
519509711.09900,406361944.38974,31811974.76219,   0.00305,   0.00120,   0.00092,476389964.90023,   0.00161,276389965.36342,   0.00147,   0.00036,   0.00051,  -0.46319,   1.00000
519291387.91357,406898415.09948,31767497.30834,   0.00305,   0.00120,   0.00093,476401663.21135,   0.00162,276401667.17851,   0.00148,   0.00036,   0.00051,  -3.96716,   1.00000
519074166.41059,407424526.64601,31730132.44893,   0.00306,   0.00121,   0.00093,476413258.12707,   0.00164,276413266.97958,   0.00149,   0.00037,   0.00052,  -8.85251,   1.00000
518856332.54860,407951120.94567,31689092.17869,   0.00307,   0.00122,   0.00093,476424793.77440,   0.00165,276424800.10928,   0.00150,   0.00037,   0.00052,  -6.33488,   1.00000
518641893.97037,408463618.92325,31654035.82898,   0.00308,   0.00122,   0.00093,476436282.39408,   0.00166,276436290.02206,   0.00151,   0.00038,   0.00052,  -7.62798,   1.00000
518426823.04131,408976775.10090,31615285.97290,   0.00308,   0.00123,   0.00094,476447711.85183,   0.00167,276447713.52881,   0.00152,   0.00038,   0.00053,  -1.67698,   1.00000
518212855.13376,409479995.09939,31583604.97896,   0.00309,   0.00124,   0.00094,476459027.13902,   0.00168,276459035.46777,   0.00153,   0.00039,   0.00053,  -8.32875,   1.00000
517998373.68027,409978389.61158,31557021.79290,   0.00310,   0.00125,   0.00094,476470348.38945,   0.00169,276470358.24005,   0.00154,   0.00039,   0.00053,  -9.85060,   1.00000
517787230.51094,410468745.24641,31527512.17087,   0.00310,   0.00125,   0.00094,476481567.49550,   0.00170,276481571.14734,   0.00155,   0.00040,   0.00053,  -3.65184,   1.00000
517574299.90035,410959235.87750,31499223.11920,   0.00311,   0.00126,   0.00095,476492721.71232,   0.00171,276492722.54610,   0.00156,   0.00040,   0.00054,  -0.83378,   1.00000
517362495.77264,411440207.55519,31477932.56508,   0.00312,   0.00127,   0.00095,476503771.75727,   0.00172,276503772.80358,   0.00157,   0.00040,   0.00054,  -1.04631,   1.00000
517151284.04586,411917432.57047,31456714.21426,   0.00313,   0.00127,   0.00095,476514813.28339,   0.00173,276514820.04682,   0.00158,   0.00041,   0.00054,  -6.76343,   1.00000
516944722.86045,412382150.87677,31436400.49929,   0.00313,   0.00128,   0.00095,476525812.50808,   0.00174,276525820.12577,   0.00158,   0.00041,   0.00054,  -7.61769,   1.00000
516733915.64576,412851367.44676,31418335.27080,   0.00314,   0.00129,   0.00096,476536696.25157,   0.00175,276536701.24589,   0.00159,   0.00042,   0.00055,  -4.99432,   1.00000
516527773.20509,413308228.02707,31401155.23192,   0.00315,   0.00129,   0.00096,476547532.59944,   0.00176,276547535.33385,   0.00160,   0.00042,   0.00055,  -2.73441,   1.00000
516318692.09372,413764833.01412,31390071.64387,   0.00315,   0.00130,   0.00096,476558308.31260,   0.00177,276558312.98750,   0.00161,   0.00043,   0.00055,  -4.67490,   1.00000
516111839.58489,414213335.73535,31380918.92433,   0.00316,   0.00131,   0.00096,476568985.55335,   0.00178,276568985.90902,   0.00162,   0.00043,   0.00055,  -0.35568,   1.00000
515906684.01204,414659290.47980,31366804.42314,   0.00317,   0.00132,   0.00097,476579650.74314,   0.00179,276579652.05574,   0.00163,   0.00043,   0.00056,  -1.31260,   1.00000
515702647.90873,415096481.94387,31359601.70670,   0.00317,   0.00132,   0.00097,476590211.14980,   0.00180,276590217.78735,   0.00164,   0.00044,   0.00056,  -6.63755,   1.00000
515498156.41596,415529584.39239,31357348.73697,   0.00318,   0.00133,   0.00097,476600776.37624,   0.00181,276600785.23752,   0.00164,   0.00044,   0.00056,  -8.86128,   1.00000
515294432.61307,415959900.30762,31353098.71072,   0.00319,   0.00134,   0.00097,476611183.80021,   0.00182,276611186.54539,   0.00165,   0.00045,   0.00057,  -2.74518,   1.00000
515091321.34614,416387046.79341,31348819.48861,   0.00319,   0.00134,   0.00098,476621583.00816,   0.00183,276621585.56236,   0.00166,   0.00045,   0.00057,  -2.55420,   1.00000
514891878.06767,416801636.26894,31350312.85691,   0.00320,   0.00135,   0.00098,476631932.59055,   0.00184,276631942.04079,   0.00167,   0.00046,   0.00057,  -9.45024,   1.00000
514687915.43274,417221472.99193,31353909.99823,   0.00321,   0.00136,   0.00098,476642172.52210,   0.00185,276642181.49215,   0.00168,   0.00046,   0.00057,  -8.97005,   1.00000
514489811.61391,417630573.80720,31353312.64369,   0.00321,   0.00136,   0.00098,476652365.80968,   0.00186,276652370.13143,   0.00169,   0.00046,   0.00058,  -4.32174,   1.00000
514291709.35015,418030681.40163,31364516.12024,   0.00322,   0.00137,   0.00099,476662456.89683,   0.00187,276662463.21108,   0.00169,   0.00047,   0.00058,  -6.31425,   1.00000
514095320.52229,418428780.49270,31370641.41841,   0.00323,   0.00137,   0.00099,476672546.23419,   0.00188,276672550.18229,   0.00170,   0.00047,   0.00058,  -3.94810,   1.00000
513898450.90800,418823902.03686,31379689.00284,   0.00323,   0.00138,   0.00099,476682471.82876,   0.00189,276682476.20508,   0.00171,   0.00048,   0.00058,  -4.37632,   1.00000
513701120.00352,419215400.51521,31393597.33914,   0.00324,   0.00139,   0.00099,476692401.67669,   0.00190,276692404.59482,   0.00172,   0.00048,   0.00059,  -2.91813,   1.00000
513509675.15831,419596555.38303,31403261.16746,   0.00324,   0.00139,   0.00100,476702275.38168,   0.00191,276702282.38436,   0.00173,   0.00049,   0.00059,  -7.00268,   1.00000
513312414.84842,419982585.98206,31419947.84910,   0.00325,   0.00140,   0.00100,476712042.77790,   0.00191,276712048.47600,   0.00173,   0.00049,   0.00059,  -5.69810,   1.00000
513119976.69267,420357546.78709,31437341.51675,   0.00326,   0.00141,   0.00100,476721766.16648,   0.00192,276721768.21881,   0.00174,   0.00049,   0.00059,  -2.05233,   1.00000
512929649.64438,420725751.80346,31456523.22769,   0.00326,   0.00141,   0.00100,476731381.18515,   0.00193,276731384.68430,   0.00175,   0.00050,   0.00060,  -3.49915,   1.00000
512739935.15630,421091449.72946,31475551.74076,   0.00327,   0.00142,   0.00101,476740997.37944,   0.00194,276740999.63011,   0.00176,   0.00050,   0.00060,  -2.25067,   1.00000
512547010.98492,421458014.81809,31500472.31015,   0.00327,   0.00142,   0.00101,476750553.47699,   0.00195,276750560.45678,   0.00176,   0.00051,   0.00060,  -6.97979,   1.00000
512357268.27409,421818855.17605,31522183.86624,   0.00328,   0.00143,   0.00101,476760007.56975,   0.00196,276760014.04348,   0.00177,   0.00051,   0.00060,  -6.47372,   1.00000
512168522.22116,422172349.29341,31550634.97049,   0.00329,   0.00144,   0.00101,476769364.68591,   0.00197,276769368.80818,   0.00178,   0.00052,   0.00060,  -4.12227,   1.00000
511982919.18595,422520303.67111,31575865.85475,   0.00329,   0.00144,   0.00102,476778611.07337,   0.00198,276778616.53658,   0.00179,   0.00052,   0.00061,  -5.46321,   1.00000
511796822.83993,422865110.43849,31605880.44815,   0.00330,   0.00145,   0.00102,476787861.12865,   0.00199,276787867.23983,   0.00179,   0.00052,   0.00061,  -6.11118,   1.00000
511608521.92491,423211900.58833,31636773.88032,   0.00330,   0.00146,   0.00102,476797057.42529,   0.00199,276797060.17401,   0.00180,   0.00053,   0.00061,  -2.74872,   1.00000
511429327.04919,423539957.29168,31669186.89244,   0.00331,   0.00146,   0.00103,476806154.37281,   0.00200,276806162.01751,   0.00181,   0.00053,   0.00061,  -7.64471,   1.00000
511243622.93258,423878370.76803,31701605.80274,   0.00332,   0.00147,   0.00103,476815243.74898,   0.00201,276815251.29566,   0.00182,   0.00054,   0.00062,  -7.54668,   1.00000
511063122.38319,424201607.44046,31741596.71348,   0.00332,   0.00147,   0.00103,476824189.48959,   0.00202,276824197.13577,   0.00182,   0.00054,   0.00062,  -7.64619,   1.00000
510881432.36765,424527930.24444,31777461.48911,   0.00333,   0.00148,   0.00103,476833079.37723,   0.00203,276833081.43232,   0.00183,   0.00054,   0.00062,  -2.05509,   1.00000
510700630.82659,424847425.95832,31820022.08146,   0.00333,   0.00148,   0.00104,476841863.35085,   0.00204,276841867.56288,   0.00184,   0.00055,   0.00062,  -4.21202,   1.00000
510520395.72005,425164913.81731,31862322.20538,   0.00334,   0.00149,   0.00104,476850648.59775,   0.00204,276850652.95185,   0.00184,   0.00055,   0.00062,  -4.35410,   1.00000
510343210.50499,425477443.44371,31901367.21611,   0.00334,   0.00150,   0.00104,476859323.69430,   0.00205,276859331.87436,   0.00185,   0.00055,   0.00063,  -8.18006,   1.00000
510165497.59104,425787164.18501,31945137.85744,   0.00335,   0.00150,   0.00104,476868010.17776,   0.00206,276868014.24204,   0.00186,   0.00056,   0.00063,  -4.06428,   1.00000
509991105.08576,426087372.88767,31992591.80465,   0.00335,   0.00151,   0.00105,476876487.39477,   0.00207,276876492.97405,   0.00186,   0.00056,   0.00063,  -5.57928,   1.00000
509811848.53065,426392952.86792,32043851.09475,   0.00336,   0.00151,   0.00105,476885014.26924,   0.00208,276885020.67331,   0.00187,   0.00057,   0.00063,  -6.40407,   1.00000
509639922.35311,426685731.39268,32092715.45476,   0.00336,   0.00152,   0.00105,476893392.66741,   0.00209,276893396.86311,   0.00188,   0.00057,   0.00064,  -4.19570,   1.00000
509468527.61824,426976752.88990,32141301.84090,   0.00337,   0.00152,   0.00106,476901772.24660,   0.00209,276901772.54967,   0.00188,   0.00057,   0.00064,  -0.30307,   1.00000
509297912.21757,427261422.49023,32196560.95516,   0.00337,   0.00153,   0.00106,476910045.71532,   0.00210,276910050.58181,   0.00189,   0.00058,   0.00064,  -4.86650,   1.00000
509125940.34698,427549617.72826,32247650.60386,   0.00338,   0.00153,   0.00106,476918263.95231,   0.00211,276918267.91143,   0.00190,   0.00058,   0.00064,  -3.95911,   1.00000
508954725.47513,427831543.42893,32305413.02952,   0.00338,   0.00154,   0.00106,476926383.76776,   0.00212,276926387.69708,   0.00190,   0.00059,   0.00064,  -3.92932,   1.00000
508788360.43264,428103828.63068,32363757.89044,   0.00339,   0.00154,   0.00107,476934457.98182,   0.00212,276934461.79985,   0.00191,   0.00059,   0.00065,  -3.81803,   1.00000
508616455.60036,428383205.18286,32423997.31888,   0.00339,   0.00155,   0.00107,476942416.58485,   0.00213,276942423.76155,   0.00192,   0.00059,   0.00065,  -7.17671,   1.00000
508452435.77516,428648670.25654,32483712.19481,   0.00340,   0.00156,   0.00107,476950391.70603,   0.00214,276950395.99091,   0.00192,   0.00060,   0.00065,  -4.28488,   1.00000
508287168.73795,428913356.59029,32546229.16447,   0.00340,   0.00156,   0.00108,476958204.46712,   0.00215,276958210.75394,   0.00193,   0.00060,   0.00065,  -6.28682,   1.00000
508122384.97536,429176544.47516,32608422.89249,   0.00341,   0.00157,   0.00108,476966018.51400,   0.00215,276966025.42395,   0.00193,   0.00060,   0.00065,  -6.90995,   1.00000
507959376.43663,429434681.75643,32672313.97623,   0.00341,   0.00157,   0.00108,476973732.12952,   0.00216,276973738.60938,   0.00194,   0.00061,   0.00066,  -6.47986,   1.00000
507797018.14473,429686925.70190,32742865.65441,   0.00342,   0.00158,   0.00108,476981353.83096,   0.00217,276981354.67027,   0.00195,   0.00061,   0.00066,  -0.83930,   1.00000
507637500.32415,429935144.05052,32810130.76707,   0.00342,   0.00158,   0.00109,476988859.45129,   0.00217,276988865.16232,   0.00195,   0.00061,   0.00066,  -5.71104,   1.00000
507477324.68490,430181095.70288,32882026.42115,   0.00343,   0.00159,   0.00109,476996374.80471,   0.00218,276996380.02962,   0.00196,   0.00062,   0.00066,  -5.22490,   1.00000
507319975.76509,430423117.53168,32950644.54343,   0.00343,   0.00159,   0.00109,477003781.20992,   0.00219,277003789.33970,   0.00196,   0.00062,   0.00066,  -8.12978,   1.00000
507158830.99055,430667291.68185,33025012.40011,   0.00344,   0.00160,   0.00110,477011142.54610,   0.00220,277011147.41051,   0.00197,   0.00062,   0.00067,  -4.86442,   1.00000
507002499.49336,430902299.69840,33099945.93222,   0.00344,   0.00160,   0.00110,477018451.06401,   0.00220,277018460.03446,   0.00197,   0.00063,   0.00067,  -8.97045,   1.00000
506847844.58404,431132608.34088,33176575.20588,   0.00345,   0.00160,   0.00110,477025665.65543,   0.00221,277025671.50778,   0.00198,   0.00063,   0.00067,  -5.85235,   1.00000
506694833.05476,431358260.13730,33254901.81037,   0.00345,   0.00161,   0.00110,477032772.78323,   0.00222,277032781.93491,   0.00199,   0.00063,   0.00067,  -9.15167,   1.00000
506542241.27541,431582737.63247,33332867.91585,   0.00345,   0.00161,   0.00111,477039887.90562,   0.00222,277039892.65927,   0.00199,   0.00064,   0.00067,  -4.75365,   1.00000
506388087.25893,431807023.57419,33413673.10800,   0.00346,   0.00162,   0.00111,477046840.93363,   0.00223,277046846.84538,   0.00200,   0.00064,   0.00068,  -5.91175,   1.00000
506238727.03326,432022371.50175,33495051.58260,   0.00346,   0.00162,   0.00111,477053747.77784,   0.00224,277053755.61488,   0.00200,   0.00064,   0.00068,  -7.83704,   1.00000
506089758.66853,432236619.73676,33576066.74012,   0.00347,   0.00163,   0.00112,477060655.96899,   0.00224,277060664.79487,   0.00201,   0.00065,   0.00068,  -8.82588,   1.00000
505939164.89702,432450818.77675,33659942.71012,   0.00347,   0.00163,   0.00112,477067414.89666,   0.00225,277067417.55224,   0.00201,   0.00065,   0.00068,  -2.65559,   1.00000
505792201.67639,432655237.62378,33749357.54047,   0.00347,   0.00164,   0.00112,477074122.24786,   0.00226,277074129.38366,   0.00202,   0.00065,   0.00068,  -7.13580,   1.00000
505647926.68753,432856248.58960,33835521.61675,   0.00348,   0.00164,   0.00112,477080727.57409,   0.00226,277080735.99050,   0.00202,   0.00066,   0.00068,  -8.41642,   1.00000
505502869.36025,433055320.12092,33926278.41167,   0.00348,   0.00165,   0.00113,477087341.48396,   0.00227,277087347.58004,   0.00203,   0.00066,   0.00069,  -6.09608,   1.00000
505357225.22411,433255463.12914,34014946.72087,   0.00349,   0.00165,   0.00113,477093798.49103,   0.00227,277093798.59164,   0.00203,   0.00066,   0.00069,  -0.10061,   1.00000
505215179.24161,433445961.23682,34109162.88073,   0.00349,   0.00165,   0.00113,477100203.96988,   0.00228,277100208.74758,   0.00204,   0.00067,   0.00069,  -4.77770,   1.00000
505074629.18435,433636499.64533,34198034.12369,   0.00349,   0.00166,   0.00114,477106609.91541,   0.00229,277106615.09160,   0.00204,   0.00067,   0.00069,  -5.17619,   1.00000
504935528.02888,433818617.47948,34295743.70347,   0.00350,   0.00166,   0.00114,477112818.69216,   0.00229,277112823.85762,   0.00205,   0.00067,   0.00069,  -5.16546,   1.00000
504796743.48364,433999871.90828,34393064.94417,   0.00350,   0.00167,   0.00114,477119028.94900,   0.00230,277119033.39549,   0.00205,   0.00068,   0.00070,  -4.44649,   1.00000
504659391.54739,434177018.84381,34492134.94617,   0.00351,   0.00167,   0.00115,477125137.81496,   0.00230,277125142.35741,   0.00206,   0.00068,   0.00070,  -4.54246,   1.00000
504522340.04610,434353330.42935,34590817.34593,   0.00351,   0.00167,   0.00115,477131242.44762,   0.00231,277131252.14894,   0.00206,   0.00068,   0.00070,  -9.70133,   1.00000
504384549.55488,434530998.18161,34687476.41327,   0.00351,   0.00168,   0.00115,477137195.66251,   0.00231,277137201.57537,   0.00207,   0.00068,   0.00070,  -5.91286,   1.00000
504254729.72760,434691586.15218,34790685.41189,   0.00352,   0.00168,   0.00115,477143054.65804,   0.00232,277143064.08873,   0.00207,   0.00069,   0.00070,  -9.43068,   1.00000
504120765.72860,434859080.84981,34892524.61684,   0.00352,   0.00169,   0.00116,477148969.01984,   0.00233,277148973.61971,   0.00207,   0.00069,   0.00070,  -4.59986,   1.00000
503989239.12178,435019416.73458,34998314.15987,   0.00352,   0.00169,   0.00116,477154678.51157,   0.00233,277154681.30233,   0.00208,   0.00069,   0.00071,  -2.79076,   1.00000
503857976.68968,435179032.51777,35103718.37931,   0.00353,   0.00169,   0.00116,477160389.52003,   0.00234,277160389.92829,   0.00208,   0.00070,   0.00071,  -0.40826,   1.00000
503734651.79028,435321718.62177,35215683.13571,   0.00353,   0.00170,   0.00117,477166005.48189,   0.00234,277166011.67365,   0.00209,   0.00070,   0.00071,  -6.19176,   1.00000
503601565.74367,435481226.67719,35323673.82089,   0.00353,   0.00170,   0.00117,477171556.14910,   0.00235,277171565.80841,   0.00209,   0.00070,   0.00071,  -9.65931,   1.00000
503477610.03952,435624853.52619,35433286.40028,   0.00354,   0.00170,   0.00117,477177021.71103,   0.00235,277177028.36620,   0.00210,   0.00070,   0.00071,  -6.65517,   1.00000
503354925.64199,435764702.04612,35544719.75397,   0.00354,   0.00171,   0.00117,477182385.28757,   0.00236,277182390.53985,   0.00210,   0.00071,   0.00071,  -5.25227,   1.00000
503232465.78443,435903944.55980,35655773.09689,   0.00354,   0.00171,   0.00118,477187750.36844,   0.00236,277187753.74801,   0.00210,   0.00071,   0.00071,  -3.37956,   1.00000
503107830.78164,436043882.67292,35769865.75168,   0.00355,   0.00172,   0.00118,477192953.59507,   0.00237,277192961.53913,   0.00211,   0.00071,   0.00072,  -7.94406,   1.00000
502986651.45921,436174651.90848,35889549.73610,   0.00355,   0.00172,   0.00118,477198124.72345,   0.00237,277198128.73453,   0.00211,   0.00071,   0.00072,  -4.01108,   1.00000
502871318.91167,436298317.54657,36004909.05631,   0.00355,   0.00172,   0.00119,477203243.20231,   0.00238,277203246.01676,   0.00212,   0.00072,   0.00072,  -2.81444,   1.00000
502752735.78860,436425893.37641,36121107.13345,   0.00356,   0.00172,   0.00119,477208303.60544,   0.00238,277208309.37591,   0.00212,   0.00072,   0.00072,  -5.77047,   1.00000
502638570.02938,436541263.01296,36245155.82780,   0.00356,   0.00173,   0.00119,477213227.14005,   0.00239,277213230.72183,   0.00212,   0.00072,   0.00072,  -3.58178,   1.00000
502522336.98306,436661611.69296,36365087.93174,   0.00356,   0.00173,   0.00120,477218092.25481,   0.00239,277218093.52076,   0.00213,   0.00072,   0.00072,  -1.26595,   1.00000
502410713.15380,436773921.99384,36485684.17562,   0.00356,   0.00173,   0.00120,477222905.40058,   0.00240,277222911.06374,   0.00213,   0.00073,   0.00072,  -5.66316,   1.00000
502294552.92082,436889167.72707,36612090.08777,   0.00357,   0.00174,   0.00120,477227669.99991,   0.00240,277227679.58347,   0.00213,   0.00073,   0.00073,  -9.58356,   1.00000
502185193.14349,436994376.80619,36736483.52012,   0.00357,   0.00174,   0.00120,477232286.96101,   0.00240,277232296.57677,   0.00214,   0.00073,   0.00073,  -9.61576,   1.00000
502075978.03891,437099151.07318,36860512.43314,   0.00357,   0.00174,   0.00121,477236905.47576,   0.00241,277236914.79468,   0.00214,   0.00073,   0.00073,  -9.31892,   1.00000
501971062.44897,437191869.87854,36992468.75669,   0.00358,   0.00175,   0.00121,477241384.87898,   0.00241,277241391.03231,   0.00214,   0.00074,   0.00073,  -6.15333,   1.00000
501864006.70774,437289691.66423,37120347.83462,   0.00358,   0.00175,   0.00121,477245806.25086,   0.00242,277245808.77463,   0.00215,   0.00074,   0.00073,  -2.52377,   1.00000
501756751.68203,437382989.50226,37255122.37237,   0.00358,   0.00175,   0.00122,477250124.92376,   0.00242,277250131.17180,   0.00215,   0.00074,   0.00073,  -6.24804,   1.00000
501650863.17273,437476960.41491,37384580.71198,   0.00358,   0.00175,   0.00122,477254444.95627,   0.00243,277254450.02733,   0.00215,   0.00074,   0.00073,  -5.07105,   1.00000
501553972.67359,437555559.69013,37515817.53736,   0.00359,   0.00176,   0.00122,477258667.58907,   0.00243,277258676.98036,   0.00216,   0.00074,   0.00074,  -9.39129,   1.00000
501448861.32160,437641650.63766,37654171.83277,   0.00359,   0.00176,   0.00123,477262797.08737,   0.00243,277262800.24176,   0.00216,   0.00075,   0.00074,  -3.15439,   1.00000
501353982.75743,437713478.22260,37789368.47996,   0.00359,   0.00176,   0.00123,477266821.11927,   0.00244,277266826.71348,   0.00216,   0.00075,   0.00074,  -5.59421,   1.00000
501259190.06044,437785003.91346,37924220.57948,   0.00359,   0.00176,   0.00123,477270854.24209,   0.00244,277270854.49187,   0.00217,   0.00075,   0.00074,  -0.24978,   1.00000
501160521.56861,437856535.82036,38067302.68886,   0.00360,   0.00177,   0.00123,477274724.95156,   0.00244,277274732.10846,   0.00217,   0.00075,   0.00074,  -7.15689,   1.00000
501067640.15046,437921371.12169,38206177.24017,   0.00360,   0.00177,   0.00124,477278550.98420,   0.00245,277278559.45450,   0.00217,   0.00075,   0.00074,  -8.47030,   1.00000
500979259.66496,437978451.12422,38345806.22784,   0.00360,   0.00177,   0.00124,477282332.20600,   0.00245,277282341.46045,   0.00217,   0.00076,   0.00074,  -9.25446,   1.00000
500886073.03259,438038617.06447,38491329.82801,   0.00360,   0.00177,   0.00124,477286070.27180,   0.00246,277286074.94212,   0.00218,   0.00076,   0.00074,  -4.67032,   1.00000
500799513.90647,438089107.19920,38635059.92843,   0.00360,   0.00178,   0.00125,477289650.64150,   0.00246,277289656.43934,   0.00218,   0.00076,   0.00074,  -5.79783,   1.00000
500709400.20192,438143792.08117,38779759.85142,   0.00361,   0.00178,   0.00125,477293180.31696,   0.00246,277293184.41815,   0.00218,   0.00076,   0.00075,  -4.10119,   1.00000
500622448.91608,438189646.85263,38930182.86290,   0.00361,   0.00178,   0.00125,477296664.85714,   0.00247,277296672.16250,   0.00219,   0.00076,   0.00075,  -7.30536,   1.00000
500542093.29914,438225892.55957,39078866.56609,   0.00361,   0.00178,   0.00126,477299997.81116,   0.00247,277300007.77114,   0.00219,   0.00076,   0.00075,  -9.95998,   1.00000
500461746.86055,438261932.35832,39227234.87132,   0.00361,   0.00178,   0.00126,477303338.60302,   0.00247,277303344.80228,   0.00219,   0.00077,   0.00075,  -6.19926,   1.00000
500377794.35348,438302197.56325,39376603.82323,   0.00362,   0.00179,   0.00126,477306628.25882,   0.00247,277306628.34446,   0.00219,   0.00077,   0.00075,  -0.08564,   1.00000
500299083.32436,438331757.40333,39529232.95028,   0.00362,   0.00179,   0.00126,477309759.66929,   0.00248,277309764.76927,   0.00220,   0.00077,   0.00075,  -5.09998,   1.00000
500224794.18229,438353669.89037,39682687.90154,   0.00362,   0.00179,   0.00127,477312850.73668,   0.00248,277312855.78800,   0.00220,   0.00077,   0.00075,  -5.05132,   1.00000
500151278.38030,438372373.81611,39838305.65765,   0.00362,   0.00179,   0.00127,477315836.75058,   0.00248,277315846.49002,   0.00220,   0.00077,   0.00075,  -9.73944,   1.00000
500074102.10851,438395334.38789,39994961.71486,   0.00362,   0.00179,   0.00127,477318776.59258,   0.00249,277318783.71102,   0.00220,   0.00077,   0.00075,  -7.11844,   1.00000
500005744.78421,438403201.52966,40153612.09876,   0.00362,   0.00180,   0.00128,477321621.47318,   0.00249,277321628.62810,   0.00220,   0.00078,   0.00075,  -7.15493,   1.00000
499933698.04189,438415339.57220,40313319.26789,   0.00363,   0.00180,   0.00128,477324419.60433,   0.00249,277324420.07016,   0.00221,   0.00078,   0.00076,  -0.46583,   1.00000
499866010.74992,438419844.86157,40473892.61800,   0.00363,   0.00180,   0.00128,477327160.48628,   0.00249,277327166.13836,   0.00221,   0.00078,   0.00076,  -5.65209,   1.00000
499799036.08192,438421167.36921,40636697.61932,   0.00363,   0.00180,   0.00129,477329805.47727,   0.00250,277329811.78524,   0.00221,   0.00078,   0.00076,  -6.30798,   1.00000
499732756.84226,438419305.58424,40801750.01166,   0.00363,   0.00180,   0.00129,477332353.76381,   0.00250,277332357.00097,   0.00221,   0.00078,   0.00076,  -3.23716,   1.00000
499670813.78104,438409834.33034,40967698.52140,   0.00363,   0.00180,   0.00129,477334854.43568,   0.00250,277334856.78222,   0.00221,   0.00078,   0.00076,  -2.34654,   1.00000
499610901.54013,438398353.26739,41130994.35034,   0.00363,   0.00180,   0.00129,477337248.35217,   0.00250,277337250.72342,   0.00222,   0.00078,   0.00076,  -2.37125,   1.00000
499553938.34795,438378104.96604,41300142.27666,   0.00364,   0.00181,   0.00130,477339603.07886,   0.00251,277339604.54891,   0.00222,   0.00078,   0.00076,  -1.47005,   1.00000
499497597.34393,438354671.34021,41471595.84024,   0.00364,   0.00181,   0.00130,477341850.56815,   0.00251,277341857.91825,   0.00222,   0.00079,   0.00076,  -7.35010,   1.00000
499443264.58548,438329245.37856,41640447.07703,   0.00364,   0.00181,   0.00130,477343998.72326,   0.00251,277344005.29338,   0.00222,   0.00079,   0.00076,  -6.57013,   1.00000
499391827.86078,438295037.03189,41815178.13073,   0.00364,   0.00181,   0.00131,477346105.98765,   0.00251,277346112.60890,   0.00222,   0.00079,   0.00076,  -6.62125,   1.00000
499341652.49540,438261893.31046,41984742.45891,   0.00364,   0.00181,   0.00131,477348207.08946,   0.00251,277348215.99585,   0.00222,   0.00079,   0.00076,  -8.90639,   1.00000
499291378.85612,438221306.25940,42164210.95925,   0.00364,   0.00181,   0.00131,477350118.95966,   0.00252,277350122.10561,   0.00223,   0.00079,   0.00076,  -3.14595,   1.00000
499242352.19451,438181781.31849,42338528.39525,   0.00364,   0.00181,   0.00131,477352018.39937,   0.00252,277352024.27158,   0.00223,   0.00079,   0.00076,  -5.87221,   1.00000
499201981.09560,438127189.68445,42515049.18888,   0.00364,   0.00181,   0.00132,477353830.43487,   0.00252,277353833.73273,   0.00223,   0.00079,   0.00076,  -3.29786,   1.00000
499162131.45913,438069388.98569,42693994.73650,   0.00365,   0.00181,   0.00132,477355532.78003,   0.00252,277355542.53544,   0.00223,   0.00079,   0.00077,  -9.75542,   1.00000
499118414.42981,438015862.18965,42874163.98424,   0.00365,   0.00181,   0.00132,477357189.46456,   0.00252,277357197.70380,   0.00223,   0.00079,   0.00077,  -8.23924,   1.00000
499078914.54486,437954721.03232,43055358.11854,   0.00365,   0.00181,   0.00133,477358801.54587,   0.00252,277358807.25869,   0.00223,   0.00079,   0.00077,  -5.71282,   1.00000
499047997.82470,437878470.55435,43238816.17995,   0.00365,   0.00181,   0.00133,477360315.44431,   0.00253,277360324.08139,   0.00223,   0.00079,   0.00077,  -8.63708,   1.00000
499009469.07990,437810865.46098,43424977.73810,   0.00365,   0.00181,   0.00133,477361731.48951,   0.00253,277361732.03786,   0.00223,   0.00080,   0.00077,  -0.54835,   1.00000
498979482.98776,437728111.72247,43613439.03976,   0.00365,   0.00181,   0.00133,477363041.67058,   0.00253,277363047.24712,   0.00223,   0.00080,   0.00077,  -5.57654,   1.00000
498949288.31287,437645224.03365,43801727.39638,   0.00365,   0.00182,   0.00134,477364363.28133,   0.00253,277364363.96470,   0.00224,   0.00080,   0.00077,  -0.68338,   1.00000
498920984.16825,437560301.45605,43987643.96913,   0.00365,   0.00182,   0.00134,477365570.69418,   0.00253,277365574.04155,   0.00224,   0.00080,   0.00077,  -3.34737,   1.00000
498899723.19045,437458950.92481,44180825.64447,   0.00365,   0.00182,   0.00134,477366687.23745,   0.00253,277366697.03972,   0.00224,   0.00080,   0.00077,  -9.80228,   1.00000
498874501.82996,437361815.47231,44375328.43799,   0.00366,   0.00182,   0.00135,477367759.40366,   0.00253,277367766.27666,   0.00224,   0.00080,   0.00077,  -6.87300,   1.00000
498851155.75909,437262620.11609,44567520.08377,   0.00366,   0.00182,   0.00135,477368728.21443,   0.00253,277368728.65244,   0.00224,   0.00080,   0.00077,  -0.43801,   1.00000
498836268.68101,437148190.29379,44762116.75284,   0.00366,   0.00182,   0.00135,477369597.28338,   0.00253,277369598.09179,   0.00224,   0.00080,   0.00077,  -0.80841,   1.00000
498821116.73101,437033586.87765,44956583.10194,   0.00366,   0.00182,   0.00135,477370468.07825,   0.00254,277370469.03865,   0.00224,   0.00080,   0.00077,  -0.96039,   1.00000
498804813.81216,436914327.13871,45158610.96527,   0.00366,   0.00182,   0.00136,477371241.67036,   0.00254,277371244.82557,   0.00224,   0.00080,   0.00077,  -3.15521,   1.00000
498794688.11871,436785392.11933,45359693.46992,   0.00366,   0.00182,   0.00136,477371858.82954,   0.00254,277371866.28943,   0.00224,   0.00080,   0.00077,  -7.45990,   1.00000
498784277.69731,436656258.68575,45560670.13277,   0.00366,   0.00181,   0.00136,477372486.98026,   0.00254,277372489.22102,   0.00224,   0.00080,   0.00077,  -2.24075,   1.00000
498775690.25587,436524973.82171,45759457.36721,   0.00366,   0.00181,   0.00137,477372999.49206,   0.00254,277373004.91865,   0.00224,   0.00080,   0.00077,  -5.42660,   1.00000
498773945.76790,436377025.27521,45965660.43876,   0.00366,   0.00181,   0.00137,477373430.60194,   0.00254,277373433.55263,   0.00224,   0.00080,   0.00077,  -2.95070,   1.00000
498771869.62171,436228831.53854,46171774.41143,   0.00366,   0.00181,   0.00137,477373857.43141,   0.00254,277373863.74006,   0.00224,   0.00080,   0.00077,  -6.30865,   1.00000
498775921.94259,436070843.10476,46377072.81620,   0.00366,   0.00181,   0.00137,477374132.48197,   0.00254,277374139.18480,   0.00224,   0.00080,   0.00077,  -6.70282,   1.00000
498774364.65476,435915598.11793,46588750.29651,   0.00366,   0.00181,   0.00138,477374365.65810,   0.00254,277374366.63845,   0.00224,   0.00080,   0.00077,  -0.98035,   1.00000
498782627.51808,435746166.88632,46798112.42864,   0.00366,   0.00181,   0.00138,477374489.68302,   0.00254,277374494.85548,   0.00224,   0.00080,   0.00077,  -5.17246,   1.00000
498786810.11780,435580756.72870,47008984.77087,   0.00366,   0.00181,   0.00138,477374565.02205,   0.00254,277374568.86681,   0.00224,   0.00080,   0.00077,  -3.84475,   1.00000
498794415.59628,435395690.08570,47227008.48729,   0.00366,   0.00181,   0.00139,477371457.22988,   0.00254,277374568.86681,   0.00224,   0.00080,   0.00077,-3111.63693,   0.00000
498794415.59628,435192877.32624,47439961.88472,   0.00366,   0.00181,   0.00139,477355823.82411,   0.00254,277374568.86681,   0.00224,   0.00080,   0.00077,-18745.04270,   0.00000
498769064.00135,434964712.97185,47647844.96316,   0.00366,   0.00181,   0.00139,477314245.92377,   0.00254,277374568.86681,   0.00224,   0.00080,   0.00077,-60322.94303,   0.00000
498725966.28996,434728943.13898,47860798.36059,   0.00366,   0.00181,   0.00139,477261143.68606,   0.00254,277374568.86681,   0.00224,   0.00080,   0.00077,-113425.18074,   0.00000
498667657.62162,434457681.07321,48073751.75802,   0.00366,   0.00181,   0.00140,477185678.81813,   0.00254,277374568.86681,   0.00224,   0.00080,   0.00077,-188890.04868,   0.00000
498601743.47479,434168672.89098,48281634.83647,   0.00367,   0.00180,   0.00140,477097711.83468,   0.00254,277374568.86681,   0.00224,   0.00080,   0.00077,-276857.03213,   0.00000
498510477.73304,433854313.11382,48494588.23390,   0.00367,   0.00180,   0.00140,476986913.64030,   0.00254,277374568.86681,   0.00224,   0.00080,   0.00077,-387655.22650,   0.00000
498411606.51280,433522207.22021,48702471.31234,   0.00367,   0.00180,   0.00141,476863634.63357,   0.00254,277374568.86681,   0.00224,   0.00080,   0.00077,-510934.23323,   0.00000
498287383.69763,433164749.73166,48910354.39078,   0.00367,   0.00180,   0.00141,476716011.48734,   0.00254,277374568.86681,   0.00224,   0.00080,   0.00077,-658557.37947,   0.00000
498155555.40399,432789546.12667,49123307.78822,   0.00367,   0.00180,   0.00141,476559051.95136,   0.00254,277374568.86681,   0.00224,   0.00080,   0.00077,-815516.91545,   0.00000
497990770.03693,432371244.81028,49326120.54767,   0.00367,   0.00180,   0.00141,476363316.95537,   0.00254,277374568.86681,   0.00224,   0.00080,   0.00077,-1011251.91144,   0.00000
497825984.66987,431952943.49390,49534003.62612,   0.00367,   0.00180,   0.00142,476169622.64026,   0.00254,277374568.86681,   0.00224,   0.00080,   0.00077,-1204946.22655,   0.00000
497645988.34585,431499149.94462,49741886.70456,   0.00367,   0.00179,   0.00142,475953769.87040,   0.00254,277374568.86681,   0.00224,   0.00080,   0.00077,-1420798.99640,   0.00000
497448245.90538,431037750.91685,49949769.78301,   0.00367,   0.00179,   0.00142,475724989.31771,   0.00254,277374568.86681,   0.00224,   0.00080,   0.00077,-1649579.54910,   0.00000
497235292.50795,430540859.65618,50152582.54246,   0.00367,   0.00179,   0.00142,475472504.21893,   0.00254,277374568.86681,   0.00224,   0.00080,   0.00077,-1902064.64788,   0.00000
497004592.99406,430036362.91703,50355395.30192,   0.00367,   0.00179,   0.00143,475207101.03271,   0.00254,277374568.86681,   0.00224,   0.00080,   0.00077,-2167467.83409,   0.00000
496758682.52322,429496373.94497,50563278.38036,   0.00367,   0.00179,   0.00143,474921263.35467,   0.00254,277374568.86681,   0.00224,   0.00080,   0.00077,-2453305.51214,   0.00000
496487420.45745,428931033.37798,50766091.13982,   0.00367,   0.00179,   0.00143,474609645.68797,   0.00254,277374568.86681,   0.00224,   0.00080,   0.00077,-2764923.17883,   0.00000
496208552.91319,428347946.69454,50963833.58029,   0.00367,   0.00178,   0.00143,474285687.79650,   0.00254,277374568.86681,   0.00224,   0.00080,   0.00077,-3088881.07031,   0.00000
495922079.89046,427747113.89465,51166646.33975,   0.00367,   0.00178,   0.00144,473952678.51472,   0.00254,277374568.86681,   0.00224,   0.00080,   0.00077,-3421890.35209,   0.00000
495602649.79431,427103183.38337,51369459.09921,   0.00367,   0.00178,   0.00144,473584322.27366,   0.00254,277374568.86681,   0.00224,   0.00080,   0.00077,-3790246.59314,   0.00000
495283219.69817,426459252.87209,51567201.53968,   0.00367,   0.00178,   0.00144,473214939.60582,   0.00254,277374568.86681,   0.00224,   0.00080,   0.00077,-4159629.26098,   0.00000
494938438.00709,425789970.76588,51770014.29914,   0.00366,   0.00177,   0.00145,472823155.85571,   0.00254,277374568.86681,   0.00224,   0.00080,   0.00077,-4551413.01109,   0.00000
494578445.35905,425085196.42676,51967756.73961,   0.00366,   0.00177,   0.00145,472407906.85879,   0.00254,277374568.86681,   0.00224,   0.00080,   0.00077,-4966662.00802,   0.00000
494210847.23253,424362675.97120,52165499.18008,   0.00366,   0.00177,   0.00145,471982121.02607,   0.00254,277374568.86681,   0.00224,   0.00080,   0.00077,-5392447.84074,   0.00000
493817897.51109,423614803.92070,52363241.62055,   0.00366,   0.00177,   0.00145,471532367.28287,   0.00254,277374568.86681,   0.00224,   0.00080,   0.00077,-5842201.58394,   0.00000
493417342.31116,422849185.75374,52560984.06102,   0.00366,   0.00176,   0.00146,471072135.97213,   0.00254,277374568.86681,   0.00224,   0.00080,   0.00077,-6302432.89467,   0.00000
493009181.63275,422065821.47034,52753656.18251,   0.00366,   0.00176,   0.00146,470599755.96174,   0.00254,277374568.86681,   0.00224,   0.00080,   0.00077,-6774812.90507,   0.00000
492575669.35941,421257105.59200,52951398.62298,   0.00366,   0.00176,   0.00146,470105190.51125,   0.00254,277374568.86681,   0.00224,   0.00080,   0.00077,-7269378.35555,   0.00000
492134551.60759,420430643.59721,53144070.74446,   0.00366,   0.00176,   0.00146,469598523.69725,   0.00254,277374568.86681,   0.00224,   0.00080,   0.00077,-7776045.16955,   0.00000
491660476.78235,419561083.89103,53336742.86595,   0.00366,   0.00175,   0.00147,469056872.26511,   0.00254,277374568.86681,   0.00224,   0.00080,   0.00077,-8317696.60169,   0.00000
491178796.47864,418673778.06841,53529414.98743,   0.00366,   0.00175,   0.00147,468504914.52082,   0.00254,277374568.86681,   0.00224,   0.00080,   0.00077,-8869654.34598,   0.00000
490689510.69645,417768726.12933,53722087.10892,   0.00366,   0.00175,   0.00147,467942689.39751,   0.00254,277374568.86681,   0.00224,   0.00080,   0.00077,-9431879.46929,   0.00000
490192619.43578,416845928.07379,53914759.23040,   0.00366,   0.00174,   0.00147,467370236.86367,   0.00254,277374568.86681,   0.00224,   0.00080,   0.00077,-10004332.00314,   0.00000
489670376.58017,415897778.42333,54102361.03290,   0.00366,   0.00174,   0.00148,466772336.82624,   0.00254,277374568.86681,   0.00224,   0.00080,   0.00077,-10602232.04057,   0.00000
489122782.12964,414924277.17793,54295033.15439,   0.00366,   0.00174,   0.00148,466152536.02139,   0.00254,277374568.86681,   0.00224,   0.00080,   0.00077,-11222032.84541,   0.00000
488577722.83860,413922889.17811,54482634.95689,   0.00366,   0.00173,   0.00148,465523274.76703,   0.00254,277374568.86681,   0.00224,   0.00080,   0.00077,-11851294.09977,   0.00000
488014917.43110,412913895.69981,54670236.75938,   0.00366,   0.00173,   0.00148,464881499.46321,   0.00254,277374568.86681,   0.00224,   0.00080,   0.00077,-12493069.40360,   0.00000
487436901.06665,411869409.98860,54857838.56188,   0.00366,   0.00173,   0.00149,464218635.89463,   0.00254,277374568.86681,   0.00224,   0.00080,   0.00077,-13155932.97218,   0.00000
486851279.22371,410807178.16094,55045440.36438,   0.00366,   0.00172,   0.00149,463545798.19378,   0.00254,277374568.86681,   0.00224,   0.00080,   0.00077,-13828770.67303,   0.00000
486240305.78585,409719594.73835,55227971.84789,   0.00366,   0.00172,   0.00149,462847692.95583,   0.00254,277374568.86681,   0.00224,   0.00080,   0.00077,-14526875.91097,   0.00000
485614121.39102,408596519.08285,55415573.65039,   0.00366,   0.00171,   0.00149,462130509.80448,   0.00254,277374568.86681,   0.00224,   0.00080,   0.00077,-15244059.06232,   0.00000
484970190.87974,407465837.94887,55598105.13390,   0.00366,   0.00171,   0.00149,461399130.70325,   0.00254,277374568.86681,   0.00224,   0.00080,   0.00077,-15975438.16356,   0.00000
484328795.52796,406307270.06047,55780636.61742,   0.00365,   0.00171,   0.00150,460660512.11629,   0.00254,277374568.86681,   0.00224,   0.00080,   0.00077,-16714056.75051,   0.00000
483662048.58124,405123350.57714,55963168.10093,   0.00365,   0.00170,   0.00150,459898625.02957,   0.00254,277374568.86681,   0.00224,   0.00080,   0.00077,-17475943.83723,   0.00000
482987696.15604,403921684.97735,56145699.58444,   0.00365,   0.00170,   0.00150,459127059.67288,   0.00254,277374568.86681,   0.00224,   0.00080,   0.00077,-18247509.19393,   0.00000
482287992.13591,402694667.78263,56323160.74896,   0.00365,   0.00169,   0.00150,458330443.41457,   0.00254,277374568.86681,   0.00224,   0.00080,   0.00077,-19044125.45224,   0.00000
481573077.15882,401432158.35501,56505692.23248,   0.00365,   0.00169,   0.00151,457515208.92782,   0.00254,277374568.86681,   0.00224,   0.00080,   0.00077,-19859359.93899,   0.00000
480858162.18174,400169648.92738,56683153.39700,   0.00365,   0.00168,   0.00151,456699482.97805,   0.00254,277374568.86681,   0.00224,   0.00080,   0.00077,-20675085.88876,   0.00000
480128036.24769,398871647.26685,56860614.56153,   0.00365,   0.00168,   0.00151,455863411.48667,   0.00254,277374568.86681,   0.00224,   0.00080,   0.00077,-21511157.38014,   0.00000
479372558.71871,397548294.01139,57038075.72605,   0.00365,   0.00168,   0.00151,455004373.00864,   0.00254,277374568.86681,   0.00224,   0.00080,   0.00077,-22370195.85817,   0.00000
478619616.34922,396197054.00150,57210466.57159,   0.00365,   0.00167,   0.00152,454136844.16140,   0.00254,277374568.86681,   0.00224,   0.00080,   0.00077,-23237724.70541,   0.00000
477831181.74683,394830603.03466,57387927.73612,   0.00365,   0.00167,   0.00152,453245620.44653,   0.00254,277374568.86681,   0.00224,   0.00080,   0.00077,-24128948.42028,   0.00000
477045282.30393,393436265.31339,57560318.58166,   0.00365,   0.00166,   0.00152,452346054.25804,   0.00254,277374568.86681,   0.00224,   0.00080,   0.00077,-25028514.60876,   0.00000
476251777.38255,392024181.47566,57732709.42720,   0.00365,   0.00166,   0.00152,451437369.22235,   0.00254,277374568.86681,   0.00224,   0.00080,   0.00077,-25937199.64446,   0.00000
475432920.86624,390586746.04300,57905100.27273,   0.00364,   0.00165,   0.00152,450506018.62549,   0.00254,277374568.86681,   0.00224,   0.00080,   0.00077,-26868550.24132,   0.00000
474606458.87145,389131564.49390,58077491.11827,   0.00364,   0.00165,   0.00153,449565675.23799,   0.00254,277374568.86681,   0.00224,   0.00080,   0.00077,-27808893.62882,   0.00000
473764785.91970,387640890.71188,58249881.96381,   0.00364,   0.00164,   0.00153,448605701.22770,   0.00254,277374568.86681,   0.00224,   0.00080,   0.00077,-28768867.63910,   0.00000
472897761.37302,386124865.33493,58417202.49037,   0.00364,   0.00164,   0.00153,447621300.38079,   0.00254,277374568.86681,   0.00224,   0.00080,   0.00077,-29753268.48602,   0.00000
472040877.46431,384598699.32002,58584523.01692,   0.00364,   0.00163,   0.00153,446641781.55277,   0.00254,277374568.86681,   0.00224,   0.00080,   0.00077,-30732787.31404,   0.00000
471158641.96067,383047181.71016,58751843.54347,   0.00364,   0.00163,   0.00154,445639940.67876,   0.00254,277374568.86681,   0.00224,   0.00080,   0.00077,-31734628.18805,   0.00000
470268800.97855,381477917.98386,58919164.07002,   0.00364,   0.00162,   0.00154,444629494.83494,   0.00254,277374568.86681,   0.00224,   0.00080,   0.00077,-32745074.03187,   0.00000
469346002.92302,379865556.54617,59086484.59658,   0.00364,   0.00161,   0.00154,443586258.67222,   0.00254,277374568.86681,   0.00224,   0.00080,   0.00077,-33788310.19459,   0.00000
468433345.50546,378243054.47051,59253805.12313,   0.00364,   0.00161,   0.00154,442548289.20865,   0.00254,277374568.86681,   0.00224,   0.00080,   0.00077,-34826279.65816,   0.00000
467495336.49297,376595200.79991,59416055.33069,   0.00364,   0.00160,   0.00154,441486282.55223,   0.00254,277374568.86681,   0.00224,   0.00080,   0.00077,-35888286.31458,   0.00000
466542116.52351,374911854.89642,59578305.53826,   0.00363,   0.00160,   0.00155,440405493.39377,   0.00254,277374568.86681,   0.00224,   0.00080,   0.00077,-36969075.47303,   0.00000
465581291.07558,373210762.87646,59740555.74583,   0.00363,   0.00159,   0.00155,439316588.92600,   0.00254,277374568.86681,   0.00224,   0.00080,   0.00077,-38057979.94081,   0.00000
464612860.14917,371491924.74006,59902805.95339,   0.00363,   0.00159,   0.00155,438219662.69274,   0.00254,277374568.86681,   0.00224,   0.00080,   0.00077,-39154906.17407,   0.00000
463636823.74428,369755340.48720,60059985.84197,   0.00363,   0.00158,   0.00155,437112720.27080,   0.00254,277374568.86681,   0.00224,   0.00080,   0.00077,-40261848.59601,   0.00000
462635435.74446,367993404.63941,60222236.04954,   0.00363,   0.00157,   0.00155,435986302.88410,   0.00254,277374568.86681,   0.00224,   0.00080,   0.00077,-41388265.98270,   0.00000
461618836.78768,366195976.55872,60379415.93812,   0.00363,   0.00157,   0.00156,434839630.89480,   0.00254,277374568.86681,   0.00224,   0.00080,   0.00077,-42534937.97201,   0.00000
460594632.35242,364380802.36157,60536595.82670,   0.00363,   0.00156,   0.00156,433685348.01670,   0.00254,277374568.86681,   0.00224,   0.00080,   0.00077,-43689220.85010,   0.00000
459562822.43867,362547882.04797,60693775.71528,   0.00363,   0.00156,   0.00156,432523559.85989,   0.00254,277374568.86681,   0.00224,   0.00080,   0.00077,-44851009.00692,   0.00000
458523407.04645,360697215.61792,60845885.28487,   0.00363,   0.00155,   0.00156,431352228.71223,   0.00254,277374568.86681,   0.00224,   0.00080,   0.00077,-46022340.15457,   0.00000
457468780.69727,358811056.95497,61003065.17345,   0.00362,   0.00154,   0.00157,430165462.42297,   0.00254,277374568.86681,   0.00224,   0.00080,   0.00077,-47209106.44383,   0.00000
456406548.86961,356907152.17556,61155174.74304,   0.00362,   0.00154,   0.00157,428969413.51029,   0.00254,277374568.86681,   0.00224,   0.00080,   0.00077,-48405155.35651,   0.00000
455318965.44702,354977895.80121,61307284.31264,   0.00362,   0.00153,   0.00157,427752554.47490,   0.00254,277374568.86681,   0.00224,   0.00080,   0.00077,-49622014.39190,   0.00000
454216171.06747,353013147.19397,61459393.88223,   0.00362,   0.00152,   0.00157,426518585.04076,   0.00254,277374568.86681,   0.00224,   0.00080,   0.00077,-50855983.82604,   0.00000
453105771.20944,351030652.47027,61606433.13284,   0.00362,   0.00152,   0.00157,425275677.86244,   0.00254,277374568.86681,   0.00224,   0.00080,   0.00077,-52098891.00436,   0.00000
451987765.87293,349030411.63012,61758542.70243,   0.00362,   0.00151,   0.00157,424028354.66189,   0.00254,277374568.86681,   0.00224,   0.00080,   0.00077,-53346214.20492,   0.00000
450862155.05794,347012424.67351,61905581.95304,   0.00362,   0.00150,   0.00158,422772325.66942,   0.00254,277374568.86681,   0.00224,   0.00080,   0.00077,-54602243.19739,   0.00000
449721333.28599,344958945.48400,62052621.20365,   0.00362,   0.00149,   0.00158,421499867.36024,   0.00254,277374568.86681,   0.00224,   0.00080,   0.00077,-55874701.50657,   0.00000
448572906.03556,342887720.17804,62199660.45425,   0.00362,   0.00149,   0.00158,420221242.77074,   0.00254,277374568.86681,   0.00224,   0.00080,   0.00077,-57153326.09607,   0.00000
447399127.19020,340791143.27715,62346699.70486,   0.00361,   0.00148,   0.00158,418922731.75684,   0.00254,277374568.86681,   0.00224,   0.00080,   0.00077,-58451837.10997,   0.00000
446235488.98281,338684425.73828,62488668.63648,   0.00361,   0.00147,   0.00158,417629911.11640,   0.00254,277374568.86681,   0.00224,   0.00080,   0.00077,-59744657.75041,   0.00000
445038893.70201,336534610.48803,62630637.56810,   0.00361,   0.00147,   0.00159,416307531.16701,   0.00254,277374568.86681,   0.00224,   0.00080,   0.00077,-61067037.69980,   0.00000
443852439.05918,334374654.59980,62772606.49972,   0.00361,   0.00146,   0.00159,414993483.89358,   0.00254,277374568.86681,   0.00224,   0.00080,   0.00077,-62381084.97322,   0.00000
442640632.82142,332189347.11664,62914575.43134,   0.00361,   0.00145,   0.00159,413660151.26333,   0.00254,277374568.86681,   0.00224,   0.00080,   0.00077,-63714417.60348,   0.00000
441413615.62670,329968547.40058,63056544.36296,   0.00361,   0.00144,   0.00159,412311770.56216,   0.00254,277374568.86681,   0.00224,   0.00080,   0.00077,-65062798.30465,   0.00000
440178992.95350,327730001.56807,63193442.97560,   0.00361,   0.00143,   0.00159,410956045.60563,   0.00254,277374568.86681,   0.00224,   0.00080,   0.00077,-66418523.26118,   0.00000
438936764.80182,325473709.61910,63335411.90722,   0.00361,   0.00143,   0.00160,409597809.10550,   0.00254,277374568.86681,   0.00224,   0.00080,   0.00077,-67776759.76131,   0.00000
437686931.17167,323199671.55368,63472310.51985,   0.00360,   0.00142,   0.00160,408232541.10989,   0.00254,277374568.86681,   0.00224,   0.00080,   0.00077,-69142027.75691,   0.00000
436421886.58455,320890141.25536,63609209.13248,   0.00360,   0.00141,   0.00160,406853117.80941,   0.00254,277374568.86681,   0.00224,   0.00080,   0.00077,-70521451.05740,   0.00000
435149236.51895,318562864.84058,63741037.42613,   0.00360,   0.00140,   0.00160,405467050.49396,   0.00254,277374568.86681,   0.00224,   0.00080,   0.00077,-71907518.37284,   0.00000
433861375.49639,316200096.19290,63877936.03876,   0.00360,   0.00139,   0.00160,404069743.30107,   0.00254,277374568.86681,   0.00224,   0.00080,   0.00077,-73304825.56573,   0.00000
432573514.47384,313837327.54521,64009764.33241,   0.00360,   0.00139,   0.00160,402675735.08387,   0.00254,277374568.86681,   0.00224,   0.00080,   0.00077,-74698833.78294,   0.00000
431252696.37787,311431461.18615,64141592.62606,   0.00360,   0.00138,   0.00161,401254554.47897,   0.00254,277374568.86681,   0.00224,   0.00080,   0.00077,-76120014.38784,   0.00000
429942018.91987,309015454.18911,64273420.91971,   0.00360,   0.00137,   0.00161,399843944.83255,   0.00254,277374568.86681,   0.00224,   0.00080,   0.00077,-77530624.03426,   0.00000
428616130.50492,306563954.95916,64400178.89437,   0.00360,   0.00136,   0.00161,398418296.27568,   0.00254,277374568.86681,   0.00224,   0.00080,   0.00077,-78956272.59113,   0.00000
427264890.49503,304087104.13428,64532007.18802,   0.00359,   0.00135,   0.00161,396978148.21066,   0.00254,277374568.86681,   0.00224,   0.00080,   0.00077,-80396420.65615,   0.00000
425923791.12312,301600112.67143,64658765.16268,   0.00359,   0.00134,   0.00161,395546846.97646,   0.00254,277374568.86681,   0.00224,   0.00080,   0.00077,-81827721.89034,   0.00000
424575086.27272,299095375.09213,64785523.13734,   0.00359,   0.00133,   0.00161,394113048.02812,   0.00254,277374568.86681,   0.00224,   0.00080,   0.00077,-83261520.83869,   0.00000
423193424.34892,296547539.80144,64912281.11200,   0.00359,   0.00133,   0.00162,392653742.68065,   0.00254,277374568.86681,   0.00224,   0.00080,   0.00077,-84720826.18616,   0.00000
421821903.06308,293989563.87278,65039039.08666,   0.00359,   0.00132,   0.00162,391206561.89834,   0.00254,277374568.86681,   0.00224,   0.00080,   0.00077,-86168006.96847,   0.00000
420425030.18232,291406236.34919,65160726.74233,   0.00359,   0.00131,   0.00162,389741049.67702,   0.00254,277374568.86681,   0.00224,   0.00080,   0.00077,-87633519.18978,   0.00000
419030692.46105,288795022.07117,65282414.39801,   0.00359,   0.00130,   0.00162,388279137.74576,   0.00254,277374568.86681,   0.00224,   0.00080,   0.00077,-89095431.12105,   0.00000
417628749.26130,286166061.67670,65404102.05368,   0.00359,   0.00129,   0.00162,386816109.20744,   0.00254,277374568.86681,   0.00224,   0.00080,   0.00077,-90558459.65937,   0.00000
416201454.46661,283511749.68730,65525789.70936,   0.00358,   0.00128,   0.00162,385338095.29263,   0.00254,277374568.86681,   0.00224,   0.00080,   0.00077,-92036473.57417,   0.00000
414784300.30990,280847297.05992,65647477.36503,   0.00358,   0.00127,   0.00163,383873604.58579,   0.00254,277374568.86681,   0.00224,   0.00080,   0.00077,-93500964.28101,   0.00000
413334189.07978,278139746.72116,65764094.70172,   0.00358,   0.00126,   0.00163,382383253.24511,   0.00254,277374568.86681,   0.00224,   0.00080,   0.00077,-94991315.62170,   0.00000
411894218.48763,275422055.74443,65880712.03841,   0.00358,   0.00125,   0.00163,380907086.13122,   0.00254,277374568.86681,   0.00224,   0.00080,   0.00077,-96467482.73559,   0.00000
410439036.93852,272668872.53479,65997329.37510,   0.00358,   0.00124,   0.00163,379422600.93471,   0.00254,277374568.86681,   0.00224,   0.00080,   0.00077,-97951967.93210,   0.00000
408958503.79448,269890337.73022,66113946.71179,   0.00358,   0.00123,   0.00163,377924682.13738,   0.00254,277374568.86681,   0.00224,   0.00080,   0.00077,-99449886.72943,   0.00000
407488111.28841,267101662.28767,66230564.04847,   0.00358,   0.00122,   0.00163,376441987.28778,   0.00254,277374568.86681,   0.00224,   0.00080,   0.00077,-100932581.57903,   0.00000
406010113.30386,264295240.72868,66342111.06618,   0.00358,   0.00121,   0.00163,374957961.43711,   0.00254,277374568.86681,   0.00224,   0.00080,   0.00077,-102416607.42970,   0.00000
404516904.36235,261453326.93678,66453658.08388,   0.00357,   0.00120,   0.00164,373467192.20260,   0.00254,277374568.86681,   0.00224,   0.00080,   0.00077,-103907376.66421,   0.00000
403016089.94237,258593667.02842,66565205.10158,   0.00357,   0.00119,   0.00164,371978526.80045,   0.00254,277374568.86681,   0.00224,   0.00080,   0.00077,-105396042.06636,   0.00000
401507670.04390,255716261.00361,66676752.11928,   0.00357,   0.00118,   0.00164,370492298.05406,   0.00254,277374568.86681,   0.00224,   0.00080,   0.00077,-106882270.81275,   0.00000
399984039.18847,252803362.74590,66783228.81800,   0.00357,   0.00117,   0.00164,368997914.11836,   0.00254,277374568.86681,   0.00224,   0.00080,   0.00077,-108376654.74845,   0.00000
398452802.85457,249872718.37174,66894775.83570,   0.00357,   0.00116,   0.00164,367509536.74614,   0.00254,277374568.86681,   0.00224,   0.00080,   0.00077,-109865032.12067,   0.00000
396913961.04218,246924327.88112,67001252.53441,   0.00357,   0.00115,   0.00164,366022002.94013,   0.00254,277374568.86681,   0.00224,   0.00080,   0.00077,-111352565.92668,   0.00000
395359908.27284,243940445.15760,67107729.23313,   0.00357,   0.00114,   0.00164,364530475.81805,   0.00254,277374568.86681,   0.00224,   0.00080,   0.00077,-112844093.04876,   0.00000
393823601.61994,240964167.91256,67214205.93184,   0.00357,   0.00113,   0.00165,363065602.03242,   0.00254,277374568.86681,   0.00224,   0.00080,   0.00077,-114308966.83438,   0.00000
392246732.41516,237927046.83968,67315612.31157,   0.00356,   0.00112,   0.00165,361572740.97312,   0.00254,277374568.86681,   0.00224,   0.00080,   0.00077,-115801827.89369,   0.00000
390669863.21038,234889925.76680,67422089.01029,   0.00356,   0.00111,   0.00165,360095846.04417,   0.00254,277374568.86681,   0.00224,   0.00080,   0.00077,-117278722.82263,   0.00000
389095529.16509,231824917.93949,67523495.39002,   0.00356,   0.00110,   0.00165,358628431.05873,   0.00254,277374568.86681,   0.00224,   0.00080,   0.00077,-118746137.80807,   0.00000
387513589.64132,228742163.99574,67624901.76975,   0.00356,   0.00109,   0.00165,357167250.30711,   0.00254,277374568.86681,   0.00224,   0.00080,   0.00077,-120207318.55969,   0.00000
385906298.52261,225634058.45705,67721237.83049,   0.00356,   0.00108,   0.00165,355695506.59983,   0.00254,277374568.86681,   0.00224,   0.00080,   0.00077,-121679062.26698,   0.00000
384301542.56340,222498066.16393,67822644.21022,   0.00356,   0.00106,   0.00165,354240664.26954,   0.00254,277374568.86681,   0.00224,   0.00080,   0.00077,-123133904.59727,   0.00000
382689181.12572,219344327.75436,67918980.27096,   0.00356,   0.00105,   0.00165,352790597.86074,   0.00254,277374568.86681,   0.00224,   0.00080,   0.00077,-124583971.00607,   0.00000
381069214.20955,216172843.22834,68020386.65069,   0.00356,   0.00104,   0.00166,351351601.19966,   0.00254,277374568.86681,   0.00224,   0.00080,   0.00077,-126022967.66714,   0.00000
379434036.33642,212965866.46942,68111652.39244,   0.00355,   0.00103,   0.00166,349908190.05866,   0.00254,277374568.86681,   0.00224,   0.00080,   0.00077,-127466378.80814,   0.00000
377808999.10126,209748749.07252,68207988.45319,   0.00355,   0.00102,   0.00166,348491322.21053,   0.00254,277374568.86681,   0.00224,   0.00080,   0.00077,-128883246.65627,   0.00000
376158610.27118,206506280.08069,68304324.51393,   0.00355,   0.00101,   0.00166,347069835.49193,   0.00254,277374568.86681,   0.00224,   0.00080,   0.00077,-130304733.37487,   0.00000
374510756.60058,203235924.33443,68395590.25569,   0.00355,   0.00100,   0.00166,345663099.35829,   0.00254,277374568.86681,   0.00224,   0.00080,   0.00077,-131711469.50852,   0.00000
372837551.33506,199940216.99325,68486855.99744,   0.00355,   0.00098,   0.00166,344252897.55194,   0.00254,277374568.86681,   0.00224,   0.00080,   0.00077,-133121671.31486,   0.00000
371174486.70750,196634369.01409,68578121.73920,   0.00355,   0.00097,   0.00166,342868473.34819,   0.00254,277374568.86681,   0.00224,   0.00080,   0.00077,-134506095.51862,   0.00000
369503816.60147,193310774.91847,68669387.48095,   0.00355,   0.00096,   0.00166,341495990.30018,   0.00254,277374568.86681,   0.00224,   0.00080,   0.00077,-135878578.56663,   0.00000
367817935.53848,189951688.58995,68760653.22271,   0.00355,   0.00095,   0.00167,340129566.55898,   0.00254,277374568.86681,   0.00224,   0.00080,   0.00077,-137245002.30783,   0.00000
366124448.99701,186574856.14498,68846848.64548,   0.00355,   0.00094,   0.00167,338773284.66298,   0.00254,277374568.86681,   0.00224,   0.00080,   0.00077,-138601284.20383,   0.00000
364441103.09351,183187883.06204,68933044.06825,   0.00354,   0.00092,   0.00167,337445132.78726,   0.00254,277374568.86681,   0.00224,   0.00080,   0.00077,-139929436.07954,   0.00000
362724800.11660,179757812.26771,69019239.49102,   0.00354,   0.00091,   0.00167,336110846.93364,   0.00254,277374568.86681,   0.00224,   0.00080,   0.00077,-141263721.93316,   0.00000
361018637.77766,176317600.83541,69105434.91379,   0.00354,   0.00090,   0.00167,334806058.07129,   0.00254,277374568.86681,   0.00224,   0.00080,   0.00077,-142568510.79551,   0.00000
359304869.96024,172859643.28665,69186560.01757,   0.00354,   0.00089,   0.00167,333513829.49294,   0.00254,277374568.86681,   0.00224,   0.00080,   0.00077,-143860739.37387,   0.00000
357583496.66434,169383939.62145,69272755.44034,   0.00354,   0.00088,   0.00167,332241054.98667,   0.00254,277374568.86681,   0.00224,   0.00080,   0.00077,-145133513.88014,   0.00000
355846912.41149,165872743.72333,69353880.54412,   0.00354,   0.00086,   0.00167,330976389.96688,   0.00254,277374568.86681,   0.00224,   0.00080,   0.00077,-146398178.89992,   0.00000
354120468.79660,162351407.18725,69435005.64791,   0.00354,   0.00085,   0.00167,329743823.96255,   0.00254,277374568.86681,   0.00224,   0.00080,   0.00077,-147630744.90426,   0.00000
352361068.10831,158786972.93978,69516130.75169,   0.00354,   0.00084,   0.00168,328509900.93316,   0.00254,277374568.86681,   0.00224,   0.00080,   0.00077,-148864667.93364,   0.00000
350619413.53646,155230144.17079,69592185.53649,   0.00354,   0.00082,   0.00168,327311603.15337,   0.00254,277374568.86681,   0.00224,   0.00080,   0.00077,-150062965.71344,   0.00000
348862548.00766,151637823.16889,69673310.64027,   0.00353,   0.00081,   0.00168,326131047.43261,   0.00254,277374568.86681,   0.00224,   0.00080,   0.00077,-151243521.43420,   0.00000
347098077.00038,148027756.05055,69749365.42507,   0.00353,   0.00080,   0.00168,324967789.29994,   0.00254,277374568.86681,   0.00224,   0.00080,   0.00077,-152406779.56686,   0.00000
345318395.03614,144382196.69929,69825420.20986,   0.00353,   0.00079,   0.00168,323820864.30696,   0.00254,277374568.86681,   0.00224,   0.00080,   0.00077,-153553704.55985,   0.00000
343548853.70987,140726496.71007,69901474.99466,   0.00353,   0.00077,   0.00168,322710371.30776,   0.00254,277374568.86681,   0.00224,   0.00080,   0.00077,-154664197.55905,   0.00000
341771706.90512,137053050.60439,69972459.46047,   0.00353,   0.00076,   0.00168,321619369.01877,   0.00254,277374568.86681,   0.00224,   0.00080,   0.00077,-155755199.84803,   0.00000
339969208.50544,133354252.90378,70048514.24527,   0.00353,   0.00075,   0.00168,320540890.89025,   0.00254,277374568.86681,   0.00224,   0.00080,   0.00077,-156833677.97656,   0.00000
338186991.38170,129635173.92722,70119498.71108,   0.00353,   0.00073,   0.00168,319507468.31606,   0.00254,277374568.86681,   0.00224,   0.00080,   0.00077,-157867100.55075,   0.00000
336387028.14152,125908489.47219,70190483.17689,   0.00353,   0.00072,   0.00168,318489104.39374,   0.00254,277374568.86681,   0.00224,   0.00080,   0.00077,-158885464.47307,   0.00000
334564248.46589,122128566.66780,70261467.64270,   0.00353,   0.00071,   0.00169,317488255.73612,   0.00254,277374568.86681,   0.00224,   0.00080,   0.00077,-159886313.13068,   0.00000
332759214.90672,118356249.34188,70327381.78952,   0.00353,   0.00069,   0.00169,316528965.72259,   0.00254,277374568.86681,   0.00224,   0.00080,   0.00077,-160845603.14422,   0.00000
330946575.86906,114566185.89951,70398366.25533,   0.00353,   0.00068,   0.00169,315600301.03195,   0.00254,277374568.86681,   0.00224,   0.00080,   0.00077,-161774267.83486,   0.00000
329118725.87445,110740630.22424,70464280.40215,   0.00352,   0.00066,   0.00169,314692631.33974,   0.00254,277374568.86681,   0.00224,   0.00080,   0.00077,-162681937.52707,   0.00000
327293411.03933,106887187.79455,70530194.54898,   0.00352,   0.00065,   0.00169,313824633.45642,   0.00254,277374568.86681,   0.00224,   0.00080,   0.00077,-163549935.41038,   0.00000
325450350.08776,103026139.88637,70596108.69580,   0.00352,   0.00064,   0.00169,312975804.60299,   0.00254,277374568.86681,   0.00224,   0.00080,   0.00077,-164398764.26382,   0.00000
323609824.29568,99137205.22377,70662022.84263,   0.00352,   0.00062,   0.00169,312168375.54959,   0.00254,277374568.86681,   0.00224,   0.00080,   0.00077,-165206193.31722,   0.00000
321769298.50360,95248270.56117,70727936.98945,   0.00352,   0.00061,   0.00169,311395357.24637,   0.00254,277374568.86681,   0.00224,   0.00080,   0.00077,-165979211.62043,   0.00000
319923702.39253,91313703.02769,70788780.81729,   0.00352,   0.00059,   0.00169,310659144.77153,   0.00254,277374568.86681,   0.00224,   0.00080,   0.00077,-166715424.09527,   0.00000
318060360.16502,87371530.01573,70849624.64512,   0.00352,   0.00058,   0.00169,309944776.69044,   0.00254,277374568.86681,   0.00224,   0.00080,   0.00077,-167429792.17637,   0.00000
316199553.09699,83401470.24934,70910468.47296,   0.00352,   0.00056,   0.00169,309275506.00586,   0.00254,277374568.86681,   0.00224,   0.00080,   0.00077,-168099062.86095,   0.00000
314338746.02897,79431410.48296,70971312.30080,   0.00352,   0.00055,   0.00169,308643172.23769,   0.00254,277374568.86681,   0.00224,   0.00080,   0.00077,-168731396.62912,   0.00000
312480474.12044,75433463.96215,71032156.12864,   0.00352,   0.00054,   0.00170,308057577.76960,   0.00254,277374568.86681,   0.00224,   0.00080,   0.00077,-169316991.09721,   0.00000
310589245.13849,71392419.72995,71087929.63749,   0.00352,   0.00052,   0.00170,307488731.92118,   0.00254,277374568.86681,   0.00224,   0.00080,   0.00077,-169885836.94563,   0.00000
308715762.27300,67358980.97624,71143703.14634,   0.00352,   0.00051,   0.00170,306972563.15194,   0.00254,277374568.86681,   0.00224,   0.00080,   0.00077,-170402005.71487,   0.00000
306844814.56700,63297655.46809,71199476.65519,   0.00352,   0.00049,   0.00170,306505909.38463,   0.00254,277374568.86681,   0.00224,   0.00080,   0.00077,-170868659.48217,   0.00000
304948515.26607,59210978.36502,71255250.16404,   0.00352,   0.00048,   0.00170,306063994.95838,   0.00254,277374568.86681,   0.00224,   0.00080,   0.00077,-171310573.90843,   0.00000
303062356.60312,55114160.62397,71311023.67289,   0.00351,   0.00046,   0.00170,305674862.52887,   0.00254,277374568.86681,   0.00224,   0.00080,   0.00077,-171699706.33794,   0.00000
301168592.46168,50999596.76648,71366797.18174,   0.00351,   0.00045,   0.00170,305325502.37633,   0.00254,277374568.86681,   0.00224,   0.00080,   0.00077,-172049066.49047,   0.00000
299259617.36329,46849540.67607,71417500.37161,   0.00351,   0.00043,   0.00170,305012131.73839,   0.00254,277374568.86681,   0.00224,   0.00080,   0.00077,-172362437.12842,   0.00000
297343036.78641,42681738.46922,71468203.56147,   0.00351,   0.00042,   0.00170,304740228.64281,   0.00254,277374568.86681,   0.00224,   0.00080,   0.00077,-172634340.22400,   0.00000
295436596.84751,38503795.62439,71518906.75133,   0.00351,   0.00040,   0.00170,304523819.68913,   0.00254,277374568.86681,   0.00224,   0.00080,   0.00077,-172850749.17767,   0.00000
293522551.43012,34308106.66310,71569609.94120,   0.00351,   0.00039,   0.00170,304350059.27348,   0.00254,277374568.86681,   0.00224,   0.00080,   0.00077,-173024509.59332,   0.00000
291618646.65072,30102277.06385,71620313.13106,   0.00351,   0.00037,   0.00170,304232813.18644,   0.00254,277374568.86681,   0.00224,   0.00080,   0.00077,-173141755.68037,   0.00000
289681784.79789,25853349.75321,71665946.00194,   0.00351,   0.00035,   0.00170,304142583.48133,   0.00254,277374568.86681,   0.00224,   0.00080,   0.00077,-173231985.38547,   0.00000
287755063.58305,21594281.80460,71711578.87282,   0.00351,   0.00034,   0.00170,304110304.53427,   0.00254,277374568.86681,   0.00224,   0.00080,   0.00077,-173264264.33254,   0.00000
285838483.00617,17325073.21801,71762282.06268,   0.00351,   0.00032,   0.00170,304139933.68712,   0.00254,277374568.86681,   0.00224,   0.00080,   0.00077,-173234635.17969,   0.00000
283896550.83436,13030513.03650,71807914.93356,   0.00351,   0.00031,   0.00171,304198714.79067,   0.00254,277374568.86681,   0.00224,   0.00080,   0.00077,-173175854.07614,   0.00000
281964759.30053,8725812.21701,71848477.48545,   0.00351,   0.00029,   0.00171,304313169.11319,   0.00254,277374568.86681,   0.00224,   0.00080,   0.00077,-173061399.75361,   0.00000
280025362.28821,4403365.28106,71894110.35633,   0.00351,   0.00028,   0.00171,304477960.62131,   0.00254,277374568.86681,   0.00224,   0.00080,   0.00077,-172896608.24550,   0.00000
278088500.43539,53031.59069,71934672.90822,   0.00351,   0.00026,   0.00171,304700280.45682,   0.00254,277374568.86681,   0.00224,   0.00080,   0.00077,-172674288.40999,   0.00000
276126286.98764,-4322653.69461,71980305.77910,   0.00351,   0.00024,   0.00171,304961478.34657,   0.00254,277374568.86681,   0.00224,   0.00080,   0.00077,-172413090.52023,   0.00000
274174214.17786,-8708479.61788,72020868.33099,   0.00351,   0.00023,   0.00171,305280189.85625,   0.00254,277374568.86681,   0.00224,   0.00080,   0.00077,-172094379.01056,   0.00000
272232282.00605,-13104446.17913,72061430.88288,   0.00351,   0.00021,   0.00171,305660178.34569,   0.00254,277374568.86681,   0.00224,   0.00080,   0.00077,-171714390.52112,   0.00000
270282744.35576,-17518158.85682,72101993.43478,   0.00351,   0.00020,   0.00171,306089196.49328,   0.00254,277374568.86681,   0.00224,   0.00080,   0.00077,-171285372.37352,   0.00000
268325601.22700,-21949617.65098,72137485.66768,   0.00351,   0.00018,   0.00171,306564037.12294,   0.00254,277374568.86681,   0.00224,   0.00080,   0.00077,-170810531.74386,   0.00000
266353247.14127,-26416568.67803,72178048.21957,   0.00351,   0.00016,   0.00171,307094510.11619,   0.00254,277374568.86681,   0.00224,   0.00080,   0.00077,-170280058.75061,   0.00000
264398639.17200,-30875914.22661,72213540.45248,   0.00351,   0.00015,   0.00171,307681488.64383,   0.00254,277374568.86681,   0.00224,   0.00080,   0.00077,-169693080.22298,   0.00000
262428820.24576,-35370752.00809,72249032.68538,   0.00351,   0.00013,   0.00171,308321339.97797,   0.00254,277374568.86681,   0.00224,   0.00080,   0.00077,-169053228.88884,   0.00000
260451395.84105,-39883335.90603,72284524.91829,   0.00351,   0.00011,   0.00171,309012035.71067,   0.00254,277374568.86681,   0.00224,   0.00080,   0.00077,-168362533.15614,   0.00000
258491717.55279,-44388314.32548,72320017.15119,   0.00351,   0.00010,   0.00171,309762581.25145,   0.00254,277374568.86681,   0.00224,   0.00080,   0.00077,-167611987.61536,   0.00000
256509222.82909,-48946531.09429,72350439.06511,   0.00351,   0.00008,   0.00171,310566802.88220,   0.00254,277374568.86681,   0.00224,   0.00080,   0.00077,-166807765.98461,   0.00000
254526728.10539,-53504747.86311,72385931.29802,   0.00351,   0.00006,   0.00171,311422816.96317,   0.00254,277374568.86681,   0.00224,   0.00080,   0.00077,-165951751.90364,   0.00000
252554374.01966,-58073105.26989,72416353.21194,   0.00351,   0.00005,   0.00171,312338276.19828,   0.00254,277374568.86681,   0.00224,   0.00080,   0.00077,-165036292.66852,   0.00000
250574414.45546,-62659208.79313,72446775.12585,   0.00351,   0.00003,   0.00171,313305144.95977,   0.00254,277374568.86681,   0.00224,   0.00080,   0.00077,-164069423.90703,   0.00000
248579243.93429,-67280804.54927,72477197.03977,   0.00351,   0.00001,   0.00171,314327521.82098,   0.00254,277374568.86681,   0.00224,   0.00080,   0.00077,-163047047.04583,   0.00000
246601819.52958,-71894794.82694,72507618.95369,   0.00351,  -0.00001,   0.00171,315408894.22547,   0.00254,277374568.86681,   0.00224,   0.00080,   0.00077,-161965674.64133,   0.00000
244609184.16791,-76544277.33750,72538040.86761,   0.00351,  -0.00002,   0.00172,316546070.45956,   0.00254,277374568.86681,   0.00224,   0.00080,   0.00077,-160828498.40724,   0.00000
242616548.80623,-81193759.84807,72563392.46254,   0.00351,  -0.00004,   0.00172,317727090.39186,   0.00254,277374568.86681,   0.00224,   0.00080,   0.00077,-159647478.47495,   0.00000
240626448.60406,-85871129.11307,72593814.37646,   0.00351,  -0.00006,   0.00172,318978665.55026,   0.00254,277374568.86681,   0.00224,   0.00080,   0.00077,-158395903.31655,   0.00000
238636348.40188,-90548498.37806,72619165.97139,   0.00351,  -0.00008,   0.00172,320273523.94861,   0.00254,277374568.86681,   0.00224,   0.00080,   0.00077,-157101044.91820,   0.00000
236648783.35919,-95253754.39748,72644517.56633,   0.00351,  -0.00009,   0.00172,321635332.75760,   0.00254,277374568.86681,   0.00224,   0.00080,   0.00077,-155739236.10921,   0.00000
234653612.83803,-99976756.53335,72669869.16126,   0.00351,  -0.00011,   0.00172,323048458.65131,   0.00254,277374568.86681,   0.00224,   0.00080,   0.00077,-154326110.21549,   0.00000
232650836.83838,-104717504.78568,72695220.75619,   0.00351,  -0.00013,   0.00172,324512816.65371,   0.00254,277374568.86681,   0.00224,   0.00080,   0.00077,-152861752.21310,   0.00000
230640455.36026,-109475999.15445,72715502.03214,   0.00351,  -0.00015,   0.00172,326024908.62357,   0.00254,277374568.86681,   0.00224,   0.00080,   0.00077,-151349660.24323,   0.00000
228640214.52010,-114244634.16120,72740853.62707,   0.00351,  -0.00016,   0.00172,327601582.95100,   0.00254,277374568.86681,   0.00224,   0.00080,   0.00077,-149772985.91581,   0.00000
226657719.79640,-119005663.68947,72761134.90301,   0.00351,  -0.00018,   0.00172,329229662.34122,   0.00254,277374568.86681,   0.00224,   0.00080,   0.00077,-148144906.52559,   0.00000
224642267.99929,-123809790.92913,72781416.17896,   0.00351,  -0.00020,   0.00172,330903805.90084,   0.00254,277374568.86681,   0.00224,   0.00080,   0.00077,-146470762.96596,   0.00000
222636956.84016,-128624058.80676,72801697.45491,   0.00351,  -0.00022,   0.00172,332638081.91649,   0.00254,277374568.86681,   0.00224,   0.00080,   0.00077,-144736486.95032,   0.00000
220641786.31899,-133448467.32236,72821978.73085,   0.00351,  -0.00024,   0.00172,334431938.17440,   0.00254,277374568.86681,   0.00224,   0.00080,   0.00077,-142942630.69241,   0.00000
218621264.20289,-138298227.43289,72837189.68781,   0.00351,  -0.00025,   0.00172,336262336.27333,   0.00254,277374568.86681,   0.00224,   0.00080,   0.00077,-141112232.59347,   0.00000
216628628.84122,-143150522.70292,72857470.96376,   0.00351,  -0.00027,   0.00172,338164412.17326,   0.00254,277374568.86681,   0.00224,   0.00080,   0.00077,-139210156.69355,   0.00000
214610641.88462,-148028169.56787,72872681.92072,   0.00351,  -0.00029,   0.00172,340102588.04464,   0.00254,277374568.86681,   0.00224,   0.00080,   0.00077,-137271980.82217,   0.00000
212610401.04446,-152898210.95435,72892963.19666,   0.00351,  -0.00031,   0.00172,342094939.66746,   0.00254,277374568.86681,   0.00224,   0.00080,   0.00077,-135279629.19934,   0.00000
210594949.24735,-157803744.57374,72908174.15362,   0.00351,  -0.00033,   0.00172,344139116.64439,   0.00254,277374568.86681,   0.00224,   0.00080,   0.00077,-133235452.22242,   0.00000
208589638.08821,-162719418.83109,72923385.11058,   0.00351,  -0.00035,   0.00172,346240222.03430,   0.00254,277374568.86681,   0.00224,   0.00080,   0.00077,-131134346.83251,   0.00000
206576721.45060,-167652839.20490,72933525.74855,   0.00351,  -0.00036,   0.00172,348385544.67417,   0.00254,277374568.86681,   0.00224,   0.00080,   0.00077,-128989024.19264,   0.00000
204581550.92943,-172578654.10023,72948736.70551,   0.00351,  -0.00038,   0.00172,350582324.29155,   0.00254,277374568.86681,   0.00224,   0.00080,   0.00077,-126792244.57525,   0.00000
202553423.33485,-177547566.70695,72958877.34348,   0.00351,  -0.00040,   0.00172,352821326.65013,   0.00254,277374568.86681,   0.00224,   0.00080,   0.00077,-124553242.21668,   0.00000
200560787.97318,-182501268.35670,72974088.30044,   0.00351,  -0.00042,   0.00172,355119125.78992,   0.00254,277374568.86681,   0.00224,   0.00080,   0.00077,-122255443.07689,   0.00000
198535195.53810,-187498067.71784,72984228.93842,   0.00351,  -0.00044,   0.00172,357458819.75950,   0.00254,277374568.86681,   0.00224,   0.00080,   0.00077,-119915749.10730,   0.00000
196527349.21947,-192487261.60050,72994369.57639,   0.00351,  -0.00046,   0.00172,359844258.14526,   0.00254,277374568.86681,   0.00224,   0.00080,   0.00077,-117530310.72154,   0.00000
194529643.53881,-197486596.12113,73004510.21436,   0.00351,  -0.00048,   0.00172,362282639.03326,   0.00254,277374568.86681,   0.00224,   0.00080,   0.00077,-115091929.83355,   0.00000
192506586.26322,-202511282.23670,73014650.85234,   0.00351,  -0.00050,   0.00172,364757150.07153,   0.00254,277374568.86681,   0.00224,   0.00080,   0.00077,-112617418.79527,   0.00000
190493669.62560,-207546108.99024,73019721.17132,   0.00351,  -0.00051,   0.00172,367280661.73199,   0.00254,277374568.86681,   0.00224,   0.00080,   0.00077,-110093907.13481,   0.00000
188490893.62595,-212591076.38175,73029861.80929,   0.00352,  -0.00053,   0.00172,369858549.78466,   0.00254,277374568.86681,   0.00224,   0.00080,   0.00077,-107516019.08214,   0.00000
186488117.62631,-217636043.77326,73034932.12828,   0.00352,  -0.00055,   0.00172,372467590.03830,   0.00254,277374568.86681,   0.00224,   0.00080,   0.00077,-104906978.82851,   0.00000
184470130.66970,-222716503.39768,73040002.44727,   0.00352,  -0.00057,   0.00172,375127895.99221,   0.00254,277374568.86681,   0.00224,   0.00080,   0.00077,-102246672.87459,   0.00000
182469889.82955,-227789357.54361,73050143.08524,   0.00352,  -0.00059,   0.00172,377831869.08225,   0.00254,277374568.86681,   0.00224,   0.00080,   0.00077,-99542699.78455,   0.00000
180454438.03244,-232897703.92245,73050143.08524,   0.00352,  -0.00061,   0.00172,380580529.18226,   0.00254,277374568.86681,   0.00224,   0.00080,   0.00077,-96794039.68455,   0.00000
178456732.35178,-237998444.82282,73055213.40423,   0.00352,  -0.00063,   0.00172,383371467.95797,   0.00254,277374568.86681,   0.00224,   0.00080,   0.00077,-94003100.90883,   0.00000
176451421.19264,-243116931.83963,73060283.72321,   0.00352,  -0.00065,   0.00172,386202912.85834,   0.00254,277374568.86681,   0.00224,   0.00080,   0.00077,-91171656.00847,   0.00000
174446110.03351,-248235418.85644,73060283.72321,   0.00352,  -0.00067,   0.00172,389062188.91824,   0.00254,277374568.86681,   0.00224,   0.00080,   0.00077,-88312379.94857,   0.00000
172443334.03386,-253381792.62768,73065354.04220,   0.00352,  -0.00069,   0.00172,391980452.67087,   0.00254,277374568.86681,   0.00224,   0.00080,   0.00077,-85394116.19593,   0.00000
170440558.03422,-258528166.39892,73065354.04220,   0.00352,  -0.00071,   0.00172,394925460.65952,   0.00254,277374568.86681,   0.00224,   0.00080,   0.00077,-82449108.20728,   0.00000
168447922.67254,-263684680.80814,73065354.04220,   0.00352,  -0.00073,   0.00172,397915931.01084,   0.00254,277374568.86681,   0.00224,   0.00080,   0.00077,-79458637.85597,   0.00000
166447681.83239,-268858941.33380,73065354.04220,   0.00352,  -0.00075,   0.00172,400944567.90355,   0.00254,277374568.86681,   0.00224,   0.00080,   0.00077,-76430000.96325,   0.00000
164439835.51376,-274050947.97592,73065354.04220,   0.00353,  -0.00077,   0.00172,404011029.90114,   0.00254,277374568.86681,   0.00224,   0.00080,   0.00077,-73363538.96567,   0.00000
162449735.31158,-279235349.13956,73065354.04220,   0.00353,  -0.00079,   0.00172,407111339.99581,   0.00254,277374568.86681,   0.00224,   0.00080,   0.00077,-70263228.87099,   0.00000
160452029.63092,-284437496.41965,73060283.72321,   0.00353,  -0.00081,   0.00172,410245697.06333,   0.00254,277374568.86681,   0.00224,   0.00080,   0.00077,-67128871.80347,   0.00000
158464464.58824,-289649784.33771,73060283.72321,   0.00353,  -0.00083,   0.00172,413425443.42414,   0.00254,277374568.86681,   0.00224,   0.00080,   0.00077,-63949125.44267,   0.00000
156469294.06707,-294879818.37223,73055213.40423,   0.00353,  -0.00085,   0.00172,416638424.65743,   0.00254,277374568.86681,   0.00224,   0.00080,   0.00077,-60736144.20937,   0.00000
154474123.54591,-300109852.40674,73050143.08524,   0.00353,  -0.00086,   0.00172,419876594.95287,   0.00254,277374568.86681,   0.00224,   0.00080,   0.00077,-57497973.91393,   0.00000
152489093.66271,-305350027.07923,73045072.76625,   0.00353,  -0.00088,   0.00172,423155833.66987,   0.00254,277374568.86681,   0.00224,   0.00080,   0.00077,-54218735.19693,   0.00000
150496458.30104,-310607947.86818,73040002.44727,   0.00353,  -0.00090,   0.00172,426469697.85301,   0.00254,277374568.86681,   0.00224,   0.00080,   0.00077,-50904871.01379,   0.00000
148513963.57734,-315876009.29509,73034932.12828,   0.00353,  -0.00093,   0.00172,429823629.75760,   0.00254,277374568.86681,   0.00224,   0.00080,   0.00077,-47550939.10921,   0.00000
146531468.85364,-321144070.72200,73024791.49031,   0.00354,  -0.00095,   0.00172,433198059.13398,   0.00254,277374568.86681,   0.00224,   0.00080,   0.00077,-44176509.73283,   0.00000
144559114.76792,-326422272.78689,73019721.17132,   0.00354,  -0.00097,   0.00172,436614007.64091,   0.00254,277374568.86681,   0.00224,   0.00080,   0.00077,-40760561.22589,   0.00000
142586760.68219,-331700474.85178,73009580.53335,   0.00354,  -0.00099,   0.00172,440049408.71857,   0.00254,277374568.86681,   0.00224,   0.00080,   0.00077,-37325160.14824,   0.00000
140606801.11798,-336996423.03312,72999439.89538,   0.00354,  -0.00101,   0.00172,443517311.23346,   0.00254,277374568.86681,   0.00224,   0.00080,   0.00077,-33857257.63335,   0.00000
138636982.19175,-342302511.85243,72989299.25740,   0.00354,  -0.00103,   0.00172,447022732.20705,   0.00254,277374568.86681,   0.00224,   0.00080,   0.00077,-30351836.65975,   0.00000
136659557.78704,-347626346.78820,72979158.61943,   0.00354,  -0.00105,   0.00172,450559926.44870,   0.00254,277374568.86681,   0.00224,   0.00080,   0.00077,-26814642.41811,   0.00000
134699879.49878,-352942576.24548,72969017.98146,   0.00354,  -0.00107,   0.00172,454122532.92429,   0.00254,277374568.86681,   0.00224,   0.00080,   0.00077,-23252035.94252,   0.00000
132740201.21052,-358258805.70277,72958877.34348,   0.00355,  -0.00109,   0.00172,457704787.15551,   0.00254,277374568.86681,   0.00224,   0.00080,   0.00077,-19669781.71129,   0.00000
130765311.96530,-363610527.39296,72943666.38653,   0.00355,  -0.00111,   0.00172,461326524.15670,   0.00254,277374568.86681,   0.00224,   0.00080,   0.00077,-16048044.71011,   0.00000
128808168.83653,-368954643.60467,72933525.74855,   0.00355,  -0.00113,   0.00172,464974561.62382,   0.00254,277374568.86681,   0.00224,   0.00080,   0.00077,-12400007.24298,   0.00000
126851025.70776,-374298759.81638,72918314.79159,   0.00355,  -0.00115,   0.00172,468638632.44848,   0.00254,277374568.86681,   0.00224,   0.00080,   0.00077,-8735936.41833,   0.00000
124904023.21697,-379653016.66607,72903103.83463,   0.00355,  -0.00117,   0.00172,472336961.21905,   0.00254,277374568.86681,   0.00224,   0.00080,   0.00077,-5037607.64775,   0.00000
122949415.24769,-385025019.63220,72887892.87767,   0.00355,  -0.00119,   0.00172,476064449.68773,   0.00254,277374568.86681,   0.00224,   0.00080,   0.00077,-1310119.17908,   0.00000
122271623.68848,-386902253.84595,72882569.90731,   0.00355,  -0.00120,   0.00172,477374567.57336,   0.00254,277374568.86681,   0.00224,   0.00080,   0.00077,  -8.43986,   0.00000
120277750.62362,-388504828.09504,72499429.34019,   0.00355,  -0.00121,   0.00172,477388444.91868,   0.00255,277388453.61523,   0.00225,   0.00079,   0.00078,  -8.69655,   1.00000
117214759.30221,-390950672.65237,71910420.92862,   0.00356,  -0.00123,   0.00172,477409931.98089,   0.00257,277409933.52533,   0.00226,   0.00078,   0.00078,  -1.54444,   1.00000
114166743.58831,-393365631.68631,71323152.85225,   0.00356,  -0.00125,   0.00172,477431476.90644,   0.00259,277431483.49394,   0.00227,   0.00076,   0.00079,  -6.58750,   1.00000
111140019.03401,-395749170.40801,70730603.80321,   0.00356,  -0.00127,   0.00172,477453175.69836,   0.00261,277453180.21696,   0.00228,   0.00074,   0.00080,  -4.51859,   1.00000
108128042.84676,-398100477.47670,70144702.27909,   0.00356,  -0.00129,   0.00172,477474949.16113,   0.00263,277474955.77679,   0.00229,   0.00073,   0.00081,  -6.61566,   1.00000
105137907.66968,-400420687.29771,69553724.99768,   0.00356,  -0.00131,   0.00172,477496870.85721,   0.00266,277496873.83721,   0.00230,   0.00071,   0.00081,  -2.98000,   1.00000
102152749.27427,-402718944.77361,68963119.88511,   0.00357,  -0.00134,   0.00172,477518916.66215,   0.00268,277518921.83504,   0.00232,   0.00070,   0.00082,  -5.17289,   1.00000
99194345.99777,-404979244.67471,68376439.62363,   0.00357,  -0.00136,   0.00172,477540962.32701,   0.00270,277540962.55121,   0.00233,   0.00068,   0.00083,  -0.22419,   1.00000
96247252.79706,-407215093.54593,67787975.20115,   0.00357,  -0.00138,   0.00172,477563219.77254,   0.00272,277563220.42404,   0.00234,   0.00066,   0.00084,  -0.65151,   1.00000
93327698.90301,-409415370.42331,67198854.25551,   0.00357,  -0.00140,   0.00172,477585445.10724,   0.00274,277585454.67614,   0.00235,   0.00065,   0.00084,  -9.56891,   1.00000
90419508.78562,-411589654.83319,66612924.43415,   0.00357,  -0.00142,   0.00172,477607905.13873,   0.00276,277607914.25593,   0.00236,   0.00063,   0.00085,  -9.11719,   1.00000
87539044.76374,-413729048.07020,66026467.28724,   0.00357,  -0.00144,   0.00172,477630336.53821,   0.00278,277630346.23983,   0.00237,   0.00061,   0.00086,  -9.70163,   1.00000
84681031.81496,-415835180.38655,65445120.05481,   0.00358,  -0.00146,   0.00172,477652926.03879,   0.00280,277652930.42476,   0.00238,   0.00060,   0.00087,  -4.38597,   1.00000
81829904.32160,-417922110.45170,64859954.26748,   0.00358,  -0.00148,   0.00172,477675612.69188,   0.00282,277675621.43476,   0.00239,   0.00058,   0.00087,  -8.74288,   1.00000
78995824.37414,-419980778.98528,64277508.92518,   0.00358,  -0.00150,   0.00172,477698353.88428,   0.00285,277698360.45914,   0.00240,   0.00056,   0.00088,  -6.57486,   1.00000
76195764.39736,-422001120.04484,63697380.25593,   0.00358,  -0.00152,   0.00172,477721159.78252,   0.00287,277721164.71556,   0.00241,   0.00054,   0.00089,  -4.93304,   1.00000
73402586.72846,-424001045.85658,63118413.35689,   0.00358,  -0.00155,   0.00171,477744076.34362,   0.00289,277744083.00839,   0.00242,   0.00053,   0.00089,  -6.66477,   1.00000
70644142.11777,-425964947.74541,62537157.22814,   0.00359,  -0.00157,   0.00171,477767043.58040,   0.00291,277767051.00980,   0.00243,   0.00051,   0.00090,  -7.42939,   1.00000
67902647.92722,-427900150.33312,61963666.88079,   0.00359,  -0.00159,   0.00171,477790068.48892,   0.00293,277790070.94626,   0.00245,   0.00049,   0.00091,  -2.45733,   1.00000
65185864.20190,-429807004.77503,61386358.32858,   0.00359,  -0.00161,   0.00171,477813200.17163,   0.00296,277813206.67075,   0.00246,   0.00047,   0.00092,  -6.49912,   1.00000
62469599.04252,-431697430.29757,60812546.39995,   0.00359,  -0.00163,   0.00171,477836357.87513,   0.00298,277836363.46473,   0.00247,   0.00046,   0.00092,  -5.58959,   1.00000
59804755.97276,-433539774.76335,60245901.84886,   0.00360,  -0.00165,   0.00171,477859594.06689,   0.00300,277859600.14877,   0.00248,   0.00044,   0.00093,  -6.08188,   1.00000
57148245.46580,-435366254.08449,59671235.12561,   0.00360,  -0.00167,   0.00171,477882918.31324,   0.00302,277882920.50621,   0.00249,   0.00042,   0.00094,  -2.19297,   1.00000
54509114.72003,-437165400.96133,59104649.44066,   0.00360,  -0.00169,   0.00171,477906276.51704,   0.00304,277906284.61929,   0.00250,   0.00040,   0.00094,  -8.10225,   1.00000
51887780.58151,-438939157.21373,58541350.89169,   0.00360,  -0.00172,   0.00171,477929674.19903,   0.00307,277929680.49700,   0.00251,   0.00038,   0.00095,  -6.29798,   1.00000
49301436.09818,-440677983.09813,57981046.69081,   0.00360,  -0.00174,   0.00171,477953113.95413,   0.00309,277953121.36003,   0.00252,   0.00036,   0.00096,  -7.40590,   1.00000
46740587.92731,-442390270.94146,57417409.82888,   0.00361,  -0.00176,   0.00171,477976665.32473,   0.00311,277976666.03563,   0.00253,   0.00035,   0.00096,  -0.71090,   1.00000
44180354.10161,-444087843.11450,56857537.63228,   0.00361,  -0.00178,   0.00171,478000222.81216,   0.00313,278000224.17553,   0.00254,   0.00033,   0.00097,  -1.36337,   1.00000
41672500.30565,-445741799.62257,56300562.29095,   0.00361,  -0.00180,   0.00171,478023832.49828,   0.00316,278023835.32850,   0.00255,   0.00031,   0.00098,  -2.83022,   1.00000
39155553.12881,-447387718.91821,55745837.95267,   0.00361,  -0.00182,   0.00171,478047526.21898,   0.00318,278047529.36813,   0.00256,   0.00029,   0.00098,  -3.14915,   1.00000
36673866.60613,-449000339.60667,55194400.47630,   0.00362,  -0.00184,   0.00171,478071251.54249,   0.00320,278071259.65160,   0.00257,   0.00027,   0.00099,  -8.10910,   1.00000
34236872.03181,-450574302.37253,54647842.89582,   0.00362,  -0.00186,   0.00171,478094949.03802,   0.00322,278094952.07070,   0.00258,   0.00025,   0.00100,  -3.03268,   1.00000
31808104.83412,-452131394.23133,54103365.86036,   0.00362,  -0.00189,   0.00171,478118728.51988,   0.00325,278118736.67691,   0.00259,   0.00023,   0.00100,  -8.15703,   1.00000
29387980.74340,-453673178.21114,53556186.86256,   0.00362,  -0.00191,   0.00171,478142593.91861,   0.00327,278142603.27277,   0.00261,   0.00021,   0.00101,  -9.35417,   1.00000
27012449.23811,-455177483.54647,53014012.62245,   0.00363,  -0.00193,   0.00171,478166424.18008,   0.00329,278166427.07938,   0.00262,   0.00019,   0.00102,  -2.89930,   1.00000
24645290.51020,-456665489.72012,52474070.61562,   0.00363,  -0.00195,   0.00171,478190336.33764,   0.00332,278190339.94630,   0.00263,   0.00018,   0.00102,  -3.60867,   1.00000
22305155.10793,-458126207.87857,51939379.99436,   0.00363,  -0.00197,   0.00171,478214194.68468,   0.00334,278214196.31756,   0.00264,   0.00016,   0.00103,  -1.63288,   1.00000
19990854.36266,-459561842.67032,51406766.76758,   0.00363,  -0.00199,   0.00171,478238143.99590,   0.00336,278238149.84662,   0.00265,   0.00014,   0.00104,  -5.85072,   1.00000
17694183.79497,-460976423.43446,50877953.84453,   0.00364,  -0.00201,   0.00171,478262111.42658,   0.00339,278262116.79799,   0.00266,   0.00012,   0.00104,  -5.37141,   1.00000
15432529.29464,-462361138.31751,50352768.06245,   0.00364,  -0.00204,   0.00170,478286097.17734,   0.00341,278286105.48340,   0.00267,   0.00010,   0.00105,  -8.30606,   1.00000
13188507.47558,-463726949.66771,49826560.62410,   0.00364,  -0.00206,   0.00170,478310093.29801,   0.00343,278310096.64706,   0.00268,   0.00008,   0.00106,  -3.34905,   1.00000
10979335.83694,-465063652.80289,49304065.51278,   0.00364,  -0.00208,   0.00170,478334098.33685,   0.00345,278334106.73371,   0.00269,   0.00006,   0.00106,  -8.39686,   1.00000
8778492.02175,-466385766.93450,48784043.47793,   0.00365,  -0.00210,   0.00170,478358190.00987,   0.00348,278358198.66501,   0.00270,   0.00004,   0.00107,  -8.65515,   1.00000
6603872.42329,-467683251.61738,48269352.70785,   0.00365,  -0.00212,   0.00170,478382218.24717,   0.00350,278382226.02500,   0.00271,   0.00002,   0.00107,  -7.77783,   1.00000
4463904.82857,-468952728.89708,47758420.89480,   0.00365,  -0.00214,   0.00170,478406259.40337,   0.00352,278406268.34223,   0.00272,  -0.00000,   0.00108,  -8.93885,   1.00000
2340949.12594,-470203441.30781,47251403.79112,   0.00366,  -0.00217,   0.00170,478430312.66440,   0.00355,278430316.83400,   0.00273,  -0.00002,   0.00109,  -4.16959,   1.00000
226359.12503,-471441847.27253,46742046.66548,   0.00366,  -0.00219,   0.00170,478454426.81793,   0.00357,278454435.90304,   0.00274,  -0.00004,   0.00109,  -9.08511,   1.00000
-1845145.63421,-472646999.15620,46242789.44066,   0.00366,  -0.00221,   0.00170,478478499.57184,   0.00359,278478501.17121,   0.00275,  -0.00006,   0.00110,  -1.59937,   1.00000
-3882297.70391,-473827022.93771,45742462.34276,   0.00366,  -0.00223,   0.00170,478502561.03997,   0.00362,278502568.56440,   0.00276,  -0.00008,   0.00110,  -7.52443,   1.00000
-5929004.67463,-475002788.39523,45244868.21650,   0.00367,  -0.00225,   0.00170,478526700.01433,   0.00364,278526705.79525,   0.00277,  -0.00010,   0.00111,  -5.78092,   1.00000
-7932924.21816,-476147874.26239,44752483.93112,   0.00367,  -0.00227,   0.00170,478550769.40916,   0.00366,278550777.87035,   0.00278,  -0.00012,   0.00112,  -8.46119,   1.00000
-9902798.00545,-477268805.59415,44259081.85786,   0.00367,  -0.00229,   0.00170,478574843.26509,   0.00369,278574849.07390,   0.00279,  -0.00014,   0.00112,  -5.80881,   1.00000
-11856544.96246,-478371767.52846,43774578.55359,   0.00368,  -0.00232,   0.00170,478598924.40217,   0.00371,278598928.14173,   0.00280,  -0.00016,   0.00113,  -3.73956,   1.00000
-13794048.12138,-479459624.99697,43289138.75998,   0.00368,  -0.00234,   0.00170,478622990.70363,   0.00373,278622999.64934,   0.00281,  -0.00018,   0.00113,  -8.94571,   1.00000
-15715536.12678,-480529999.50113,42812586.02026,   0.00368,  -0.00236,   0.00169,478647077.18148,   0.00376,278647077.60064,   0.00282,  -0.00020,   0.00114,  -0.41916,   1.00000
-17595082.36269,-481573090.51983,42336279.04429,   0.00369,  -0.00238,   0.00169,478671068.49564,   0.00378,278671077.86914,   0.00283,  -0.00022,   0.00114,  -9.37350,   1.00000
-19449611.27251,-482596772.16416,41862604.91115,   0.00369,  -0.00240,   0.00169,478695148.64034,   0.00380,278695153.26945,   0.00284,  -0.00024,   0.00115,  -4.62911,   1.00000
-21288478.82426,-483606483.55223,41388008.59262,   0.00369,  -0.00242,   0.00169,478719213.78383,   0.00383,278719218.67899,   0.00285,  -0.00026,   0.00115,  -4.89516,   1.00000
-23103732.23165,-484595740.37776,40923572.69893,   0.00370,  -0.00244,   0.00169,478743209.05507,   0.00385,278743214.02002,   0.00286,  -0.00028,   0.00116,  -4.96495,   1.00000
-24903591.63222,-485571544.30977,40458161.83993,   0.00370,  -0.00247,   0.00169,478767194.62620,   0.00387,278767198.52446,   0.00287,  -0.00031,   0.00117,  -3.89827,   1.00000
-26670612.83896,-486524803.66057,39996671.26657,   0.00370,  -0.00249,   0.00169,478791178.51982,   0.00389,278791181.51711,   0.00287,  -0.00033,   0.00117,  -2.99729,   1.00000
-28422591.06666,-487463909.93628,39539139.09427,   0.00371,  -0.00251,   0.00169,478815152.60316,   0.00392,278815159.39225,   0.00288,  -0.00035,   0.00118,  -6.78909,   1.00000
-30134059.52040,-488377161.97080,39086713.00749,   0.00371,  -0.00253,   0.00169,478839055.22815,   0.00394,278839060.44609,   0.00289,  -0.00037,   0.00118,  -5.21794,   1.00000
-31838816.22087,-489280851.68257,38637016.98494,   0.00371,  -0.00255,   0.00169,478863024.43281,   0.00396,278863028.87064,   0.00290,  -0.00039,   0.00119,  -4.43784,   1.00000
-33521033.80850,-490167266.38598,38192414.09572,   0.00371,  -0.00257,   0.00169,478886914.33252,   0.00399,278886917.00920,   0.00291,  -0.00041,   0.00119,  -2.67668,   1.00000
-35163337.56090,-491030093.09712,37747910.59029,   0.00372,  -0.00259,   0.00169,478910711.90886,   0.00401,278910719.86314,   0.00292,  -0.00043,   0.00120,  -7.95428,   1.00000
-36799298.35759,-491884013.86825,37306153.28238,   0.00372,  -0.00262,   0.00169,478934580.18112,   0.00403,278934588.80746,   0.00293,  -0.00045,   0.00120,  -8.62633,   1.00000
-38395766.04457,-492713861.58101,36869420.47825,   0.00373,  -0.00264,   0.00168,478958370.41150,   0.00406,278958377.36098,   0.00294,  -0.00047,   0.00121,  -6.94948,   1.00000
-39978414.41144,-493531530.18183,36436554.94526,   0.00373,  -0.00266,   0.00168,478982154.64940,   0.00408,278982157.45659,   0.00295,  -0.00049,   0.00121,  -2.80719,   1.00000
-41547314.00096,-494338304.12279,36002606.03063,   0.00373,  -0.00268,   0.00168,479005921.05170,   0.00410,279005922.82782,   0.00296,  -0.00051,   0.00121,  -1.77612,   1.00000
-43094946.17123,-495128490.67709,35578567.89259,   0.00374,  -0.00270,   0.00168,479029607.11418,   0.00413,279029611.45949,   0.00297,  -0.00053,   0.00122,  -4.34531,   1.00000
-44611514.82764,-495900648.87674,35153381.04544,   0.00374,  -0.00272,   0.00168,479053277.05587,   0.00415,279053285.24796,   0.00297,  -0.00055,   0.00122,  -8.19209,   1.00000
-46097261.63068,-496654019.19997,34732016.92581,   0.00374,  -0.00274,   0.00168,479076946.90263,   0.00417,279076949.34827,   0.00298,  -0.00057,   0.00123,  -2.44565,   1.00000
-47580107.08556,-497400388.24854,34315522.08623,   0.00375,  -0.00276,   0.00168,479100526.24785,   0.00419,279100529.74034,   0.00299,  -0.00059,   0.00123,  -3.49249,   1.00000
-49032404.94108,-498129515.18720,33897851.58563,   0.00375,  -0.00279,   0.00168,479124092.02579,   0.00422,279124093.98840,   0.00300,  -0.00061,   0.00124,  -1.96261,   1.00000
-50446962.96615,-498836186.12026,33489970.65645,   0.00375,  -0.00281,   0.00168,479147576.90282,   0.00424,279147579.00750,   0.00301,  -0.00064,   0.00124,  -2.10469,   1.00000
-51866734.03224,-499541058.30385,33080834.94162,   0.00376,  -0.00283,   0.00168,479171043.30560,   0.00426,279171048.34965,   0.00302,  -0.00066,   0.00125,  -5.04404,   1.00000
-53256456.93917,-500228405.87908,32675438.25214,   0.00376,  -0.00285,   0.00168,479194499.64655,   0.00429,279194505.81536,   0.00303,  -0.00068,   0.00125,  -6.16882,   1.00000
-54609069.32058,-500895251.60877,32274781.11369,   0.00376,  -0.00287,   0.00167,479217867.47432,   0.00431,279217877.19826,   0.00304,  -0.00070,   0.00125,  -9.72394,   1.00000
-55967381.34419,-501559790.59504,31877770.40127,   0.00377,  -0.00289,   0.00167,479241233.60411,   0.00433,279241238.25087,   0.00304,  -0.00072,   0.00126,  -4.64677,   1.00000
-57288943.21789,-502205327.32977,31480463.75700,   0.00377,  -0.00291,   0.00167,479264499.13109,   0.00435,279264507.40235,   0.00305,  -0.00074,   0.00126,  -8.27126,   1.00000
-58581301.65109,-502834473.24733,31086831.50948,   0.00378,  -0.00293,   0.00167,479287754.60164,   0.00438,279287763.04719,   0.00306,  -0.00076,   0.00127,  -8.44554,   1.00000
-59855118.90145,-503451500.83356,30697799.41173,   0.00378,  -0.00295,   0.00167,479310926.40678,   0.00440,279310932.93862,   0.00307,  -0.00078,   0.00127,  -6.53183,   1.00000
-61117726.25655,-504059783.00821,30312352.96112,   0.00378,  -0.00297,   0.00167,479334089.85836,   0.00442,279334090.62279,   0.00308,  -0.00080,   0.00128,  -0.76444,   1.00000
-62362116.08812,-504656339.06362,29931416.32997,   0.00379,  -0.00300,   0.00167,479357159.04672,   0.00444,279357162.40201,   0.00309,  -0.00082,   0.00128,  -3.35528,   1.00000
-63578007.05614,-505238391.06114,29549072.26351,   0.00379,  -0.00302,   0.00167,479380212.15551,   0.00447,279380214.57514,   0.00309,  -0.00084,   0.00128,  -2.41963,   1.00000
-64776160.10911,-505809210.17941,29171200.46083,   0.00379,  -0.00304,   0.00167,479403177.34297,   0.00449,279403180.60141,   0.00310,  -0.00086,   0.00129,  -3.25844,   1.00000
-65963762.41168,-506372025.82559,28796829.98645,   0.00380,  -0.00306,   0.00166,479426130.63802,   0.00451,279426134.01723,   0.00311,  -0.00088,   0.00129,  -3.37922,   1.00000
-67116373.85989,-506917056.45322,28426880.77686,   0.00380,  -0.00308,   0.00166,479448993.88624,   0.00453,279448998.29698,   0.00312,  -0.00090,   0.00129,  -4.41074,   1.00000
-68251958.51790,-507452463.44339,28056298.36139,   0.00381,  -0.00310,   0.00166,479471767.30730,   0.00456,279471771.62679,   0.00313,  -0.00092,   0.00130,  -4.31950,   1.00000
-69377561.93381,-507980443.73311,27689156.71676,   0.00381,  -0.00312,   0.00166,479494526.36913,   0.00458,279494532.17870,   0.00313,  -0.00094,   0.00130,  -5.80957,   1.00000
-70468845.23769,-508491395.88896,27326347.90868,   0.00381,  -0.00314,   0.00166,479517199.09793,   0.00460,279517203.00157,   0.00314,  -0.00096,   0.00130,  -3.90364,   1.00000
-71550541.08749,-508995324.76449,26966914.94286,   0.00382,  -0.00316,   0.00166,479539855.66241,   0.00462,279539860.90140,   0.00315,  -0.00098,   0.00131,  -5.23899,   1.00000
-72615927.93758,-509489504.75340,26611685.78579,   0.00382,  -0.00318,   0.00166,479562426.32535,   0.00464,279562432.29723,   0.00316,  -0.00100,   0.00131,  -5.97188,   1.00000
-73647691.59599,-509968228.22364,26255680.63624,   0.00383,  -0.00320,   0.00166,479584899.44537,   0.00467,279584909.23886,   0.00317,  -0.00103,   0.00132,  -9.79349,   1.00000
-74663683.10225,-510437678.04847,25903823.13871,   0.00383,  -0.00322,   0.00166,479607293.38517,   0.00469,279607299.72148,   0.00317,  -0.00105,   0.00132,  -6.33630,   1.00000
-75670790.20329,-510900787.19466,25555238.44138,   0.00383,  -0.00324,   0.00165,479629677.14581,   0.00471,279629677.25083,   0.00318,  -0.00107,   0.00132,  -0.10502,   1.00000
-76644910.77682,-511349067.61447,25205784.68323,   0.00384,  -0.00326,   0.00165,479651959.63276,   0.00473,279651960.18624,   0.00319,  -0.00109,   0.00132,  -0.55348,   1.00000
-77628060.32050,-511797951.30864,24859535.47861,   0.00384,  -0.00328,   0.00165,479674229.02360,   0.00475,279674234.51209,   0.00320,  -0.00111,   0.00133,  -5.48849,   1.00000
-78554301.81271,-512222244.64512,24518195.78311,   0.00385,  -0.00330,   0.00165,479696332.29253,   0.00478,279696340.30165,   0.00320,  -0.00113,   0.00133,  -8.00912,   1.00000
-79490022.81069,-512647497.38069,24179977.47358,   0.00385,  -0.00332,   0.00165,479718430.92418,   0.00480,279718437.77547,   0.00321,  -0.00115,   0.00133,  -6.85128,   1.00000
-80393502.03860,-513057931.01850,23845726.81871,   0.00385,  -0.00334,   0.00165,479740438.14369,   0.00482,279740444.39942,   0.00322,  -0.00117,   0.00134,  -6.25574,   1.00000
-81282646.61687,-513461115.30065,23510359.52320,   0.00386,  -0.00336,   0.00165,479762355.95873,   0.00484,279762361.12947,   0.00323,  -0.00119,   0.00134,  -5.17074,   1.00000
-82164087.68560,-513859010.08848,23178103.83169,   0.00386,  -0.00338,   0.00164,479784260.14519,   0.00486,279784265.18944,   0.00323,  -0.00121,   0.00134,  -5.04425,   1.00000
-83007386.65098,-514240084.18333,22850468.20322,   0.00387,  -0.00340,   0.00164,479805998.93247,   0.00488,279806004.99623,   0.00324,  -0.00123,   0.00135,  -6.06376,   1.00000
-83860985.84042,-514623403.50935,22520823.80452,   0.00387,  -0.00342,   0.00164,479827728.40398,   0.00490,279827733.79103,   0.00325,  -0.00125,   0.00135,  -5.38705,   1.00000
-84665751.39318,-514986372.14914,22195059.57353,   0.00387,  -0.00344,   0.00164,479849358.45686,   0.00493,279849366.41425,   0.00326,  -0.00127,   0.00135,  -7.95738,   1.00000
-85474687.45291,-515348571.52032,21872965.27964,   0.00388,  -0.00346,   0.00164,479870914.01082,   0.00495,279870918.76516,   0.00326,  -0.00128,   0.00135,  -4.75434,   1.00000
-86252778.06201,-515697261.22828,21554598.21266,   0.00388,  -0.00348,   0.00164,479892370.90641,   0.00497,279892380.21574,   0.00327,  -0.00130,   0.00136,  -9.30933,   1.00000
-87024264.33734,-516042226.88024,21234175.33824,   0.00389,  -0.00350,   0.00164,479913823.46480,   0.00499,279913826.03454,   0.00328,  -0.00132,   0.00136,  -2.56975,   1.00000
-87776443.71226,-516377887.68408,20918069.32690,   0.00389,  -0.00352,   0.00163,479935109.40583,   0.00501,279935113.47228,   0.00328,  -0.00134,   0.00136,  -4.06646,   1.00000
-88522218.70416,-516709315.11045,20604864.56603,   0.00390,  -0.00354,   0.00163,479956379.12094,   0.00503,279956388.98906,   0.00329,  -0.00136,   0.00137,  -9.86812,   1.00000
-89231588.90898,-517026128.86708,20290921.68479,   0.00390,  -0.00356,   0.00163,479977495.21481,   0.00505,279977497.23363,   0.00330,  -0.00138,   0.00137,  -2.01882,   1.00000
-89934954.14984,-517338981.31412,19979848.76705,   0.00390,  -0.00358,   0.00163,479998586.53012,   0.00507,279998593.90270,   0.00331,  -0.00140,   0.00137,  -7.37258,   1.00000
-90619832.96192,-517643177.90959,19672906.30934,   0.00391,  -0.00360,   0.00163,480019525.82610,   0.00509,280019532.80151,   0.00331,  -0.00142,   0.00137,  -6.97541,   1.00000
-91281461.67387,-517937407.22320,19368813.00692,   0.00391,  -0.00362,   0.00163,480040448.51594,   0.00511,280040454.15995,   0.00332,  -0.00144,   0.00137,  -5.64401,   1.00000
-91931349.78531,-518226303.24088,19063116.24995,   0.00392,  -0.00364,   0.00162,480061285.77125,   0.00513,280061288.11722,   0.00333,  -0.00146,   0.00138,  -2.34597,   1.00000
-92563368.52002,-518506984.29933,18761424.67442,   0.00392,  -0.00366,   0.00162,480081961.81329,   0.00515,280081964.93075,   0.00333,  -0.00148,   0.00138,  -3.11746,   1.00000
-93190116.36537,-518784266.07490,18462460.51152,   0.00393,  -0.00368,   0.00162,480102628.33631,   0.00517,280102630.75449,   0.00334,  -0.00150,   0.00138,  -2.41817,   1.00000
-93788042.81778,-519050331.17851,18161849.59444,   0.00393,  -0.00370,   0.00162,480123199.74047,   0.00519,280123203.37542,   0.00335,  -0.00152,   0.00138,  -3.63495,   1.00000
-94368690.98581,-519308606.43268,17865121.85482,   0.00394,  -0.00371,   0.00162,480143616.93495,   0.00521,280143619.43085,   0.00335,  -0.00154,   0.00139,  -2.49590,   1.00000
-94938406.27530,-519561522.73131,17571632.38469,   0.00394,  -0.00373,   0.00162,480163951.95066,   0.00523,280163952.08105,   0.00336,  -0.00155,   0.00139,  -0.13039,   1.00000
-95503481.61827,-519811997.69714,17275766.27267,   0.00394,  -0.00375,   0.00161,480184265.34509,   0.00525,280184271.65833,   0.00337,  -0.00157,   0.00139,  -6.31324,   1.00000
-96051695.16631,-520054994.75383,16983663.77430,   0.00395,  -0.00377,   0.00161,480204431.87513,   0.00527,280204435.18424,   0.00337,  -0.00159,   0.00139,  -3.30911,   1.00000
-96571871.29137,-520286819.78270,16694762.06945,   0.00395,  -0.00379,   0.00161,480224504.38448,   0.00529,280224509.01959,   0.00338,  -0.00161,   0.00139,  -4.63510,   1.00000
-97081785.26783,-520514246.06339,16403958.13101,   0.00396,  -0.00381,   0.00161,480244490.49171,   0.00531,280244497.59274,   0.00339,  -0.00163,   0.00140,  -7.10102,   1.00000
-97581496.38215,-520736799.53464,16116257.97078,   0.00396,  -0.00383,   0.00161,480264393.86952,   0.00533,280264403.68493,   0.00339,  -0.00165,   0.00140,  -9.81541,   1.00000
-98053660.84102,-520948554.19438,15831670.02217,   0.00397,  -0.00385,   0.00161,480284216.89664,   0.00535,280284220.41170,   0.00340,  -0.00167,   0.00140,  -3.51506,   1.00000
-98527459.60240,-521159995.22298,15545549.67438,   0.00397,  -0.00386,   0.00160,480303885.97724,   0.00537,280303886.93154,   0.00340,  -0.00168,   0.00140,  -0.95429,   1.00000
-98980005.19091,-521363004.21185,15261982.49861,   0.00398,  -0.00388,   0.00160,480323531.64771,   0.00539,280323537.20131,   0.00341,  -0.00170,   0.00140,  -5.55360,   1.00000
-99416917.63948,-521559348.62724,14981882.69419,   0.00398,  -0.00390,   0.00160,480343028.75552,   0.00541,280343033.01318,   0.00342,  -0.00172,   0.00141,  -4.25766,   1.00000
-99826962.43978,-521745816.37629,14699741.17884,   0.00399,  -0.00392,   0.00160,480362432.43386,   0.00543,280362437.82400,   0.00342,  -0.00174,   0.00141,  -5.39014,   1.00000
-100245222.56435,-521933976.36137,14420470.93319,   0.00399,  -0.00394,   0.00160,480381767.60669,   0.00545,280381768.69319,   0.00343,  -0.00176,   0.00141,  -1.08650,   1.00000
-100630797.72622,-522109769.49028,14144593.49068,   0.00400,  -0.00395,   0.00159,480400931.32590,   0.00547,280400938.52883,   0.00344,  -0.00177,   0.00141,  -7.20293,   1.00000
-101007440.42167,-522281930.66758,13866528.21436,   0.00400,  -0.00397,   0.00159,480420023.46003,   0.00549,280420025.35124,   0.00344,  -0.00179,   0.00141,  -1.89121,   1.00000
