# sigma_xx, sigma_yy, sigma_xy, epsilon_xx, epsilon_yy, epsilon_xy, vonMises, epsPlastic, hardening, epsilonP__xx, epsilonP__yy, epsilonP__xy, yieldValue, iteration
   0.00000,   0.00000,   0.00000,   0.00000,   0.00000,   0.00000,1181185.37500,   0.00000,274640576.00000,   0.00000,   0.00000,   0.00000,-473459392.00000,   0.00000
   0.00000,   0.00000,   0.00000,   0.00000,   0.00000,   0.00000,1181185.37500,   0.00000,274640576.00000,   0.00000,   0.00000,   0.00000,-473459392.00000,   0.00000
-2742756.02743,-3858914.80782,-605720.31375,  -0.00000,  -0.00001,  -0.00001,3216075.75000,   0.00000,274640576.00000,   0.00000,   0.00000,   0.00000,-471424512.00000,   0.00000
-5475303.28552,-7694009.15386,-1211440.62750,  -0.00001,  -0.00002,  -0.00002,6489950.00000,   0.00000,274640576.00000,   0.00000,   0.00000,   0.00000,-468150624.00000,   0.00000
-8197641.77428,-11505283.03813,-1817160.94125,  -0.00001,  -0.00004,  -0.00002,9890264.00000,   0.00000,274640576.00000,   0.00000,   0.00000,   0.00000,-464750304.00000,   0.00000
-10943800.72482,-15326765.69173,-2429687.10122,  -0.00002,  -0.00005,  -0.00003,13570311.00000,   0.00000,274640576.00000,   0.00000,   0.00000,   0.00000,-461070272.00000,   0.00000
-13693362.59847,-19110816.19111,-3035407.41497,  -0.00003,  -0.00006,  -0.00004,17261896.00000,   0.00000,274640576.00000,   0.00000,   0.00000,   0.00000,-457378688.00000,   0.00000
-16442924.47212,-22894866.69049,-3647933.57494,  -0.00003,  -0.00007,  -0.00005,20936378.00000,   0.00000,274640576.00000,   0.00000,   0.00000,   0.00000,-453704192.00000,   0.00000
-19206098.03821,-26665305.49742,-4253653.88869,  -0.00004,  -0.00008,  -0.00006,24559606.00000,   0.00000,274640576.00000,   0.00000,   0.00000,   0.00000,-450080976.00000,   0.00000
-21959062.83498,-30411923.84258,-4866180.04866,  -0.00004,  -0.00010,  -0.00006,28124550.00000,   0.00000,274640576.00000,   0.00000,   0.00000,   0.00000,-446516032.00000,   0.00000
-24725639.32418,-34144930.49530,-5478706.20863,  -0.00005,  -0.00011,  -0.00007,31651282.00000,   0.00000,274640576.00000,   0.00000,   0.00000,   0.00000,-442989296.00000,   0.00000
-27482007.04405,-37854116.68623,-6091232.36860,  -0.00005,  -0.00012,  -0.00008,35142224.00000,   0.00000,274640576.00000,   0.00000,   0.00000,   0.00000,-439498352.00000,   0.00000
-30251986.45637,-41549691.18473,-6703758.52858,  -0.00006,  -0.00013,  -0.00009,38624012.00000,   0.00000,274640576.00000,   0.00000,   0.00000,   0.00000,-436016560.00000,   0.00000
-33021965.86868,-45245265.68322,-7316284.68855,  -0.00006,  -0.00014,  -0.00010,42111904.00000,   0.00000,274640576.00000,   0.00000,   0.00000,   0.00000,-432528672.00000,   0.00000
-35795348.20411,-48903408.02750,-7928810.84852,  -0.00007,  -0.00015,  -0.00010,45585160.00000,   0.00000,274640576.00000,   0.00000,   0.00000,   0.00000,-429055424.00000,   0.00000
-38592551.00131,-52571759.14110,-8541337.00849,  -0.00007,  -0.00016,  -0.00011,49080032.00000,   0.00000,274640576.00000,   0.00000,   0.00000,   0.00000,-425560544.00000,   0.00000
-41355724.56740,-56206081.02360,-9160669.01468,  -0.00008,  -0.00018,  -0.00012,52552092.00000,   0.00000,274640576.00000,   0.00000,   0.00000,   0.00000,-422088480.00000,   0.00000
-44156330.28772,-59836999.98299,-9773195.17466,  -0.00008,  -0.00019,  -0.00013,56029432.00000,   0.00000,274640576.00000,   0.00000,   0.00000,   0.00000,-418611136.00000,   0.00000
-46946727.23870,-63444098.48059,-10392527.18085,  -0.00009,  -0.00020,  -0.00014,59490296.00000,   0.00000,274640576.00000,   0.00000,   0.00000,   0.00000,-415150272.00000,   0.00000
-49726915.42035,-67027376.51643,-11005053.34082,  -0.00010,  -0.00021,  -0.00014,62926236.00000,   0.00000,274640576.00000,   0.00000,   0.00000,   0.00000,-411714336.00000,   0.00000
-52520715.29444,-70597042.85982,-11617579.50079,  -0.00010,  -0.00022,  -0.00015,66353268.00000,   0.00000,274640576.00000,   0.00000,   0.00000,   0.00000,-408287312.00000,   0.00000
-55328126.86097,-74153097.51076,-12236911.50698,  -0.00011,  -0.00023,  -0.00016,69775448.00000,   0.00000,274640576.00000,   0.00000,   0.00000,   0.00000,-404865120.00000,   0.00000
-58135538.42751,-77709152.16171,-12849437.66696,  -0.00011,  -0.00024,  -0.00017,73191624.00000,   0.00000,274640576.00000,   0.00000,   0.00000,   0.00000,-401448960.00000,   0.00000
-60922532.45538,-81217565.88910,-13468769.67315,  -0.00012,  -0.00025,  -0.00018,76572280.00000,   0.00000,274640576.00000,   0.00000,   0.00000,   0.00000,-398068288.00000,   0.00000
-63733346.94503,-84736188.38582,-14081295.83312,  -0.00012,  -0.00026,  -0.00018,79960192.00000,   0.00000,274640576.00000,   0.00000,   0.00000,   0.00000,-394680384.00000,   0.00000
-66547564.35778,-88217378.72833,-14700627.83931,  -0.00013,  -0.00027,  -0.00019,83325840.00000,   0.00000,274640576.00000,   0.00000,   0.00000,   0.00000,-391314736.00000,   0.00000
-69361781.77054,-91698569.07083,-15313153.99929,  -0.00014,  -0.00028,  -0.00020,86685760.00000,   0.00000,274640576.00000,   0.00000,   0.00000,   0.00000,-387954816.00000,   0.00000
-72189610.87574,-95166147.72089,-15925680.15926,  -0.00014,  -0.00029,  -0.00021,90038656.00000,   0.00000,274640576.00000,   0.00000,   0.00000,   0.00000,-384601920.00000,   0.00000
-75007231.21161,-98609905.90918,-16545012.16545,  -0.00015,  -0.00030,  -0.00022,93376024.00000,   0.00000,274640576.00000,   0.00000,   0.00000,   0.00000,-381264544.00000,   0.00000
-77814642.77815,-102029843.63568,-17157538.32542,  -0.00016,  -0.00031,  -0.00022,96692024.00000,   0.00000,274640576.00000,   0.00000,   0.00000,   0.00000,-377948544.00000,   0.00000
-80635666.03713,-105436169.66975,-17776870.33161,  -0.00016,  -0.00032,  -0.00023,100008824.00000,   0.00000,274640576.00000,   0.00000,   0.00000,   0.00000,-374631744.00000,   0.00000
-83470300.98855,-108828884.01137,-18389396.49159,  -0.00017,  -0.00033,  -0.00024,103321416.00000,   0.00000,274640576.00000,   0.00000,   0.00000,   0.00000,-371319168.00000,   0.00000
-86294727.17064,-112197777.89121,-19001922.65156,  -0.00017,  -0.00034,  -0.00025,106621768.00000,   0.00000,274640576.00000,   0.00000,   0.00000,   0.00000,-368018816.00000,   0.00000
-89142973.81451,-115576880.54038,-19614448.81153,  -0.00018,  -0.00035,  -0.00025,109943096.00000,   0.00000,274640576.00000,   0.00000,   0.00000,   0.00000,-364697472.00000,   0.00000
-91970802.91971,-118908342.26601,-20226974.97150,  -0.00019,  -0.00036,  -0.00026,113235888.00000,   0.00000,274640576.00000,   0.00000,   0.00000,   0.00000,-361404688.00000,   0.00000
-94822452.48669,-122250012.76096,-20839501.13147,  -0.00019,  -0.00037,  -0.00027,116550208.00000,   0.00000,274640576.00000,   0.00000,   0.00000,   0.00000,-358090368.00000,   0.00000
-97653684.51500,-125544042.33236,-21452027.29144,  -0.00020,  -0.00038,  -0.00028,119834584.00000,   0.00000,274640576.00000,   0.00000,   0.00000,   0.00000,-354805984.00000,   0.00000
-100508737.00509,-128848280.67310,-22064553.45141,  -0.00021,  -0.00039,  -0.00029,123137336.00000,   0.00000,274640576.00000,   0.00000,   0.00000,   0.00000,-351503232.00000,   0.00000
-103343371.95651,-132104878.09028,-22677079.61139,  -0.00021,  -0.00040,  -0.00029,126405520.00000,   0.00000,274640576.00000,   0.00000,   0.00000,   0.00000,-348235056.00000,   0.00000
-106201827.36971,-135371684.27679,-23282799.92514,  -0.00022,  -0.00041,  -0.00030,129682832.00000,   0.00000,274640576.00000,   0.00000,   0.00000,   0.00000,-344957744.00000,   0.00000
-109050074.01358,-138614670.00153,-23895326.08511,  -0.00023,  -0.00042,  -0.00031,132941984.00000,   0.00000,274640576.00000,   0.00000,   0.00000,   0.00000,-341698592.00000,   0.00000
-111901723.58056,-141820223.57205,-24501046.39886,  -0.00023,  -0.00043,  -0.00032,136168528.00000,   0.00000,274640576.00000,   0.00000,   0.00000,   0.00000,-338472048.00000,   0.00000
-114753373.14753,-145025777.14257,-25113572.55883,  -0.00024,  -0.00044,  -0.00033,139391152.00000,   0.00000,274640576.00000,   0.00000,   0.00000,   0.00000,-335249424.00000,   0.00000
-117618634.40696,-148217719.02064,-25719292.87258,  -0.00025,  -0.00045,  -0.00033,142596800.00000,   0.00000,274640576.00000,   0.00000,   0.00000,   0.00000,-332043776.00000,   0.00000
-120473686.89704,-151385840.43694,-26325013.18633,  -0.00025,  -0.00045,  -0.00034,145775888.00000,   0.00000,274640576.00000,   0.00000,   0.00000,   0.00000,-328864688.00000,   0.00000
-123342351.07958,-154540350.16079,-26930733.50008,  -0.00026,  -0.00046,  -0.00035,148942880.00000,   0.00000,274640576.00000,   0.00000,   0.00000,   0.00000,-325697696.00000,   0.00000
-126200806.49278,-157671039.42286,-27536453.81383,  -0.00027,  -0.00047,  -0.00036,152085552.00000,   0.00000,274640576.00000,   0.00000,   0.00000,   0.00000,-322555024.00000,   0.00000
-129072873.59842,-160788116.99250,-28135368.28135,  -0.00027,  -0.00048,  -0.00037,155215344.00000,   0.00000,274640576.00000,   0.00000,   0.00000,   0.00000,-319425232.00000,   0.00000
-131934731.93473,-163881374.10035,-28741088.59510,  -0.00028,  -0.00049,  -0.00037,158328656.00000,   0.00000,274640576.00000,   0.00000,   0.00000,   0.00000,-316311920.00000,   0.00000
-134786381.50171,-166950810.74643,-29340003.06263,  -0.00029,  -0.00050,  -0.00038,161421568.00000,   0.00000,274640576.00000,   0.00000,   0.00000,   0.00000,-313219008.00000,   0.00000
-137675463.22291,-170016844.46940,-29938917.53016,  -0.00029,  -0.00051,  -0.00039,164530496.00000,   0.00000,274640576.00000,   0.00000,   0.00000,   0.00000,-310110080.00000,   0.00000
-140530515.71300,-173048848.96126,-30537831.99769,  -0.00030,  -0.00051,  -0.00040,167620368.00000,   0.00000,274640576.00000,   0.00000,   0.00000,   0.00000,-307020208.00000,   0.00000
-143433209.12664,-176101270.99178,-31136746.46521,  -0.00031,  -0.00052,  -0.00040,170754032.00000,   0.00000,274640576.00000,   0.00000,   0.00000,   0.00000,-303886544.00000,   0.00000
-146291664.53984,-179095843.32942,-31728855.08652,  -0.00032,  -0.00053,  -0.00041,173846896.00000,   0.00000,274640576.00000,   0.00000,   0.00000,   0.00000,-300793680.00000,   0.00000
-149163731.64548,-182076803.97461,-32327769.55405,  -0.00032,  -0.00054,  -0.00042,176941504.00000,   0.00000,274640576.00000,   0.00000,   0.00000,   0.00000,-297699072.00000,   0.00000
-152059619.21290,-185067973.38914,-32919878.17535,  -0.00033,  -0.00055,  -0.00043,180036880.00000,   0.00000,274640576.00000,   0.00000,   0.00000,   0.00000,-294603696.00000,   0.00000
-154935089.24166,-188011501.88011,-33511986.79666,  -0.00034,  -0.00055,  -0.00044,183093888.00000,   0.00000,274640576.00000,   0.00000,   0.00000,   0.00000,-291546688.00000,   0.00000
-157824170.96286,-190941418.67864,-34104095.41796,  -0.00035,  -0.00056,  -0.00044,186169744.00000,   0.00000,274640576.00000,   0.00000,   0.00000,   0.00000,-288470832.00000,   0.00000
-160713252.68406,-193871335.47717,-34689398.19305,  -0.00035,  -0.00057,  -0.00045,189262128.00000,   0.00000,274640576.00000,   0.00000,   0.00000,   0.00000,-285378448.00000,   0.00000
-163605737.32837,-196763820.12148,-35281506.81435,  -0.00036,  -0.00058,  -0.00046,192331440.00000,   0.00000,274640576.00000,   0.00000,   0.00000,   0.00000,-282309136.00000,   0.00000
-166498221.97267,-199656304.76579,-35866809.58944,  -0.00037,  -0.00058,  -0.00047,195383104.00000,   0.00000,274640576.00000,   0.00000,   0.00000,   0.00000,-279257472.00000,   0.00000
-169380497.84765,-202524968.94833,-36452112.36452,  -0.00038,  -0.00059,  -0.00047,198408848.00000,   0.00000,274640576.00000,   0.00000,   0.00000,   0.00000,-276231728.00000,   0.00000
-172266176.64574,-205356200.97664,-37037415.13960,  -0.00038,  -0.00060,  -0.00048,201411504.00000,   0.00000,274640576.00000,   0.00000,   0.00000,   0.00000,-273229072.00000,   0.00000
-175175675.90560,-208197641.77428,-37615912.06847,  -0.00039,  -0.00061,  -0.00049,204418384.00000,   0.00000,274640576.00000,   0.00000,   0.00000,   0.00000,-270222192.00000,   0.00000
-178064757.62680,-210991441.64838,-38194408.99733,  -0.00040,  -0.00061,  -0.00050,207374560.00000,   0.00000,274640576.00000,   0.00000,   0.00000,   0.00000,-267266016.00000,   0.00000
-180953839.34800,-213785241.52247,-38772905.92619,  -0.00041,  -0.00062,  -0.00050,210319344.00000,   0.00000,274640576.00000,   0.00000,   0.00000,   0.00000,-264321232.00000,   0.00000
-183856532.76164,-216565429.70412,-39351402.85505,  -0.00041,  -0.00063,  -0.00051,213272480.00000,   0.00000,274640576.00000,   0.00000,   0.00000,   0.00000,-261368096.00000,   0.00000
-186762629.09840,-219308185.73154,-39923093.93769,  -0.00042,  -0.00063,  -0.00052,216254560.00000,   0.00000,274640576.00000,   0.00000,   0.00000,   0.00000,-258386016.00000,   0.00000
-189668725.43515,-222050941.75897,-40494785.02033,  -0.00043,  -0.00064,  -0.00053,219268256.00000,   0.00000,274640576.00000,   0.00000,   0.00000,   0.00000,-255372320.00000,   0.00000
-192564613.00257,-224769877.32462,-41066476.10297,  -0.00044,  -0.00065,  -0.00053,222183952.00000,   0.00000,274640576.00000,   0.00000,   0.00000,   0.00000,-252456624.00000,   0.00000
-195474112.26243,-227475201.19783,-41638167.18561,  -0.00045,  -0.00065,  -0.00054,225118288.00000,   0.00000,274640576.00000,   0.00000,   0.00000,   0.00000,-249522288.00000,   0.00000
-198373402.75296,-230156704.60926,-42203052.42203,  -0.00045,  -0.00066,  -0.00055,228023600.00000,   0.00000,274640576.00000,   0.00000,   0.00000,   0.00000,-246616976.00000,   0.00000
-201276096.16661,-232800775.86647,-42767937.65845,  -0.00046,  -0.00067,  -0.00056,230914736.00000,   0.00000,274640576.00000,   0.00000,   0.00000,   0.00000,-243725840.00000,   0.00000
-204178789.58025,-235444847.12368,-43332822.89487,  -0.00047,  -0.00067,  -0.00056,233821744.00000,   0.00000,274640576.00000,   0.00000,   0.00000,   0.00000,-240818832.00000,   0.00000
-207095094.68634,-238075306.68845,-43890902.28506,  -0.00048,  -0.00068,  -0.00057,236734416.00000,   0.00000,274640576.00000,   0.00000,   0.00000,   0.00000,-237906160.00000,   0.00000
-210001191.02309,-240681945.79143,-44448981.67526,  -0.00049,  -0.00069,  -0.00058,239635136.00000,   0.00000,274640576.00000,   0.00000,   0.00000,   0.00000,-235005440.00000,   0.00000
-212920899.05229,-243274973.20198,-45007061.06546,  -0.00049,  -0.00069,  -0.00059,242533504.00000,   0.00000,274640576.00000,   0.00000,   0.00000,   0.00000,-232107072.00000,   0.00000
-215830398.31215,-245844180.15075,-45565140.45565,  -0.00050,  -0.00070,  -0.00059,245411968.00000,   0.00000,274640576.00000,   0.00000,   0.00000,   0.00000,-229228608.00000,   0.00000
-218729688.80268,-248389566.63774,-46116413.99963,  -0.00051,  -0.00070,  -0.00060,248265456.00000,   0.00000,274640576.00000,   0.00000,   0.00000,   0.00000,-226375120.00000,   0.00000
-221642590.98566,-250921341.43229,-46667687.54360,  -0.00052,  -0.00071,  -0.00061,251112640.00000,   0.00000,274640576.00000,   0.00000,   0.00000,   0.00000,-223527936.00000,   0.00000
-224569104.86108,-253439504.53439,-47212155.24135,  -0.00053,  -0.00072,  -0.00061,253950256.00000,   0.00000,274640576.00000,   0.00000,   0.00000,   0.00000,-220690320.00000,   0.00000
-227485409.96716,-255933847.17472,-47763428.78533,  -0.00054,  -0.00072,  -0.00062,256771824.00000,   0.00000,274640576.00000,   0.00000,   0.00000,   0.00000,-217868752.00000,   0.00000
-230401715.07325,-258428189.81505,-48301090.63686,  -0.00054,  -0.00073,  -0.00063,259583536.00000,   0.00000,274640576.00000,   0.00000,   0.00000,   0.00000,-215057040.00000,   0.00000
-233321423.10244,-260885100.30116,-48845558.33461,  -0.00055,  -0.00073,  -0.00063,262377904.00000,   0.00000,274640576.00000,   0.00000,   0.00000,   0.00000,-212262672.00000,   0.00000
-236230922.36231,-263318190.32549,-49383220.18614,  -0.00056,  -0.00074,  -0.00064,265149648.00000,   0.00000,274640576.00000,   0.00000,   0.00000,   0.00000,-209490928.00000,   0.00000
-239154033.31462,-265737668.65738,-49920882.03767,  -0.00057,  -0.00074,  -0.00065,267917424.00000,   0.00000,274640576.00000,   0.00000,   0.00000,   0.00000,-206723152.00000,   0.00000
-242066935.49759,-268133326.52749,-50451738.04298,  -0.00058,  -0.00075,  -0.00066,270663232.00000,   0.00000,274640576.00000,   0.00000,   0.00000,   0.00000,-203977344.00000,   0.00000
-244979837.68057,-270528984.39760,-50982594.04829,  -0.00059,  -0.00075,  -0.00066,273409056.00000,   0.00000,274640576.00000,   0.00000,   0.00000,   0.00000,-201231520.00000,   0.00000
-247896142.78665,-272887210.11349,-51513450.05360,  -0.00060,  -0.00076,  -0.00067,276139744.00000,   0.00000,274640576.00000,   0.00000,   0.00000,   0.00000,-198500832.00000,   0.00000
-250826059.58518,-275231824.13693,-52037500.21268,  -0.00060,  -0.00076,  -0.00068,278875392.00000,   0.00000,274640576.00000,   0.00000,   0.00000,   0.00000,-195765184.00000,   0.00000
-253755976.38371,-277576438.16038,-52561550.37177,  -0.00061,  -0.00077,  -0.00068,281628608.00000,   0.00000,274640576.00000,   0.00000,   0.00000,   0.00000,-193011968.00000,   0.00000
-256665475.64358,-279873411.26027,-53085600.53086,  -0.00062,  -0.00077,  -0.00069,284363872.00000,   0.00000,274640576.00000,   0.00000,   0.00000,   0.00000,-190276704.00000,   0.00000
-259598795.36522,-282180593.12950,-53602844.84372,  -0.00063,  -0.00078,  -0.00070,287111104.00000,   0.00000,274640576.00000,   0.00000,   0.00000,   0.00000,-187529472.00000,   0.00000
-262511697.54819,-284440134.07517,-54120089.15659,  -0.00064,  -0.00078,  -0.00070,289799680.00000,   0.00000,274640576.00000,   0.00000,   0.00000,   0.00000,-184840896.00000,   0.00000
-265424599.73117,-286699675.02084,-54630527.62323,  -0.00065,  -0.00079,  -0.00071,292435520.00000,   0.00000,274640576.00000,   0.00000,   0.00000,   0.00000,-182205056.00000,   0.00000
-268340904.83726,-288921783.81229,-55140966.08987,  -0.00066,  -0.00079,  -0.00072,294993504.00000,   0.00000,274640576.00000,   0.00000,   0.00000,   0.00000,-179647072.00000,   0.00000
-271281030.40512,-291154101.37308,-55651404.55651,  -0.00067,  -0.00080,  -0.00072,297524480.00000,   0.00000,274640576.00000,   0.00000,   0.00000,   0.00000,-177116096.00000,   0.00000
-274176917.97254,-293328569.24098,-56155037.17693,  -0.00068,  -0.00080,  -0.00073,300015424.00000,   0.00000,274640576.00000,   0.00000,   0.00000,   0.00000,-174625152.00000,   0.00000
-277120446.46351,-295523454.64754,-56658669.79736,  -0.00068,  -0.00080,  -0.00074,302587200.00000,   0.00000,274640576.00000,   0.00000,   0.00000,   0.00000,-172053376.00000,   0.00000
-280029945.72338,-297684310.82300,-57162302.41778,  -0.00069,  -0.00081,  -0.00074,305176800.00000,   0.00000,274640576.00000,   0.00000,   0.00000,   0.00000,-169463776.00000,   0.00000
-282953056.67568,-299831555.30601,-57659129.19198,  -0.00070,  -0.00081,  -0.00075,307784736.00000,   0.00000,274640576.00000,   0.00000,   0.00000,   0.00000,-166855840.00000,   0.00000
-285879570.55110,-301941367.63480,-58149150.11995,  -0.00071,  -0.00082,  -0.00076,310381280.00000,   0.00000,274640576.00000,   0.00000,   0.00000,   0.00000,-164259296.00000,   0.00000
-288806084.42652,-304051179.96359,-58639171.04793,  -0.00072,  -0.00082,  -0.00076,312985856.00000,   0.00000,274640576.00000,   0.00000,   0.00000,   0.00000,-161654720.00000,   0.00000
-291722389.53261,-306137171.83060,-59129191.97591,  -0.00073,  -0.00082,  -0.00077,315583360.00000,   0.00000,274640576.00000,   0.00000,   0.00000,   0.00000,-159057216.00000,   0.00000
-294652306.33114,-308209552.00517,-59612407.05766,  -0.00074,  -0.00083,  -0.00077,318185696.00000,   0.00000,274640576.00000,   0.00000,   0.00000,   0.00000,-156454880.00000,   0.00000
-297572014.36034,-310258111.71797,-60095622.13942,  -0.00075,  -0.00083,  -0.00078,320781024.00000,   0.00000,274640576.00000,   0.00000,   0.00000,   0.00000,-153859552.00000,   0.00000
-300481513.62020,-312282850.96898,-60578837.22117,  -0.00076,  -0.00083,  -0.00079,323367936.00000,   0.00000,274640576.00000,   0.00000,   0.00000,   0.00000,-151272640.00000,   0.00000
-303404624.57251,-314293978.52756,-61048440.61048,  -0.00077,  -0.00084,  -0.00079,325952704.00000,   0.00000,274640576.00000,   0.00000,   0.00000,   0.00000,-148687872.00000,   0.00000
-306317526.75548,-316281285.62435,-61524849.84602,  -0.00078,  -0.00084,  -0.00080,328529216.00000,   0.00000,274640576.00000,   0.00000,   0.00000,   0.00000,-146111360.00000,   0.00000
-309254249.40023,-318278801.49048,-61994453.23533,  -0.00079,  -0.00085,  -0.00081,331120160.00000,   0.00000,274640576.00000,   0.00000,   0.00000,   0.00000,-143520416.00000,   0.00000
-312170554.50632,-320228676.43306,-62464056.62464,  -0.00080,  -0.00085,  -0.00081,333679072.00000,   0.00000,274640576.00000,   0.00000,   0.00000,   0.00000,-140961504.00000,   0.00000
-315076650.84307,-322154730.91385,-62926854.16773,  -0.00081,  -0.00085,  -0.00082,336217440.00000,   0.00000,274640576.00000,   0.00000,   0.00000,   0.00000,-138423136.00000,   0.00000
-317996358.87227,-324067173.70221,-63389651.71082,  -0.00081,  -0.00085,  -0.00082,338755008.00000,   0.00000,274640576.00000,   0.00000,   0.00000,   0.00000,-135885568.00000,   0.00000
-320916066.90147,-325979616.49057,-63845643.40769,  -0.00082,  -0.00086,  -0.00083,341288192.00000,   0.00000,274640576.00000,   0.00000,   0.00000,   0.00000,-133352384.00000,   0.00000
-323839177.85378,-327854627.12470,-64301635.10455,  -0.00083,  -0.00086,  -0.00084,343805312.00000,   0.00000,274640576.00000,   0.00000,   0.00000,   0.00000,-130835264.00000,   0.00000
-326762288.80608,-329729637.75883,-64750820.95520,  -0.00084,  -0.00086,  -0.00084,346320384.00000,   0.00000,274640576.00000,   0.00000,   0.00000,   0.00000,-128320192.00000,   0.00000
-329675190.98906,-331580827.93119,-65200006.80585,  -0.00085,  -0.00087,  -0.00085,348822432.00000,   0.00000,274640576.00000,   0.00000,   0.00000,   0.00000,-125818144.00000,   0.00000
-332567675.63337,-333384377.18000,-65642386.81027,  -0.00086,  -0.00087,  -0.00085,351292896.00000,   0.00000,274640576.00000,   0.00000,   0.00000,   0.00000,-123347680.00000,   0.00000
-335483980.73946,-335198135.19814,-66084766.81469,  -0.00087,  -0.00087,  -0.00086,353785664.00000,   0.00000,274640576.00000,   0.00000,   0.00000,   0.00000,-120854912.00000,   0.00000
-338413897.53799,-336998281.52383,-66520340.97290,  -0.00088,  -0.00087,  -0.00086,356281152.00000,   0.00000,274640576.00000,   0.00000,   0.00000,   0.00000,-118359424.00000,   0.00000
-341309785.10541,-338764398.61841,-66955915.13110,  -0.00089,  -0.00088,  -0.00087,358751328.00000,   0.00000,274640576.00000,   0.00000,   0.00000,   0.00000,-115889248.00000,   0.00000
-344219284.36527,-340516904.02055,-67391489.28930,  -0.00090,  -0.00088,  -0.00088,361228256.00000,   0.00000,274640576.00000,   0.00000,   0.00000,   0.00000,-113412320.00000,   0.00000
-347142395.31758,-342255797.73025,-67820257.60128,  -0.00091,  -0.00088,  -0.00088,363707200.00000,   0.00000,274640576.00000,   0.00000,   0.00000,   0.00000,-110933376.00000,   0.00000
-350055297.50055,-343970870.97817,-68242220.06704,  -0.00092,  -0.00088,  -0.00089,366170752.00000,   0.00000,274640576.00000,   0.00000,   0.00000,   0.00000,-108469824.00000,   0.00000
-352957990.91420,-345662123.76431,-68664182.53280,  -0.00093,  -0.00088,  -0.00089,368621120.00000,   0.00000,274640576.00000,   0.00000,   0.00000,   0.00000,-106019456.00000,   0.00000
-355850475.55850,-347329556.08868,-69086144.99855,  -0.00094,  -0.00089,  -0.00090,371056736.00000,   0.00000,274640576.00000,   0.00000,   0.00000,   0.00000,-103583840.00000,   0.00000
-358766780.66459,-349007197.18238,-69501301.61809,  -0.00095,  -0.00089,  -0.00090,373504896.00000,   0.00000,274640576.00000,   0.00000,   0.00000,   0.00000,-101135680.00000,   0.00000
-361662668.23201,-350637197.35253,-69909652.39140,  -0.00096,  -0.00089,  -0.00091,375916096.00000,   0.00000,274640576.00000,   0.00000,   0.00000,   0.00000,-98724480.00000,   0.00000
-364582376.26121,-352277406.29200,-70318003.16472,  -0.00097,  -0.00089,  -0.00091,378342176.00000,   0.00000,274640576.00000,   0.00000,   0.00000,   0.00000,-96298400.00000,   0.00000
-367457846.28996,-353859765.53860,-70719548.09181,  -0.00098,  -0.00089,  -0.00092,380714688.00000,   0.00000,274640576.00000,   0.00000,   0.00000,   0.00000,-93925888.00000,   0.00000
-370357136.78049,-355452333.55452,-71121093.01890,  -0.00099,  -0.00090,  -0.00092,383102848.00000,   0.00000,274640576.00000,   0.00000,   0.00000,   0.00000,-91537728.00000,   0.00000
-373270038.96347,-357031289.87801,-71522637.94600,  -0.00100,  -0.00090,  -0.00093,385492256.00000,   0.00000,274640576.00000,   0.00000,   0.00000,   0.00000,-89148320.00000,   0.00000
-376172732.37711,-358586425.73971,-71917377.02687,  -0.00101,  -0.00090,  -0.00093,387864992.00000,   0.00000,274640576.00000,   0.00000,   0.00000,   0.00000,-86775584.00000,   0.00000
-379065217.02142,-360117741.13964,-72305310.26151,  -0.00102,  -0.00090,  -0.00094,390223424.00000,   0.00000,274640576.00000,   0.00000,   0.00000,   0.00000,-84417152.00000,   0.00000
-381947492.89640,-361625236.07779,-72693243.49616,  -0.00103,  -0.00090,  -0.00095,392573824.00000,   0.00000,274640576.00000,   0.00000,   0.00000,   0.00000,-82066752.00000,   0.00000
-384843380.46382,-363119119.32350,-73074370.88459,  -0.00104,  -0.00090,  -0.00095,394931744.00000,   0.00000,274640576.00000,   0.00000,   0.00000,   0.00000,-79708832.00000,   0.00000
-387729059.26191,-364589182.10743,-73455498.27302,  -0.00105,  -0.00090,  -0.00095,397285472.00000,   0.00000,274640576.00000,   0.00000,   0.00000,   0.00000,-77355104.00000,   0.00000
-390614738.05999,-366059244.89136,-73829819.81522,  -0.00106,  -0.00090,  -0.00096,399647840.00000,   0.00000,274640576.00000,   0.00000,   0.00000,   0.00000,-74992736.00000,   0.00000
-393503819.78119,-367491875.52107,-74204141.35743,  -0.00107,  -0.00090,  -0.00096,402007360.00000,   0.00000,274640576.00000,   0.00000,   0.00000,   0.00000,-72633216.00000,   0.00000
-396369081.04061,-368914297.38145,-74571657.05341,  -0.00108,  -0.00091,  -0.00097,404356032.00000,   0.00000,274640576.00000,   0.00000,   0.00000,   0.00000,-70284544.00000,   0.00000
-399261565.68492,-370309495.85694,-74939172.74939,  -0.00109,  -0.00091,  -0.00097,406714560.00000,   0.00000,274640576.00000,   0.00000,   0.00000,   0.00000,-67926016.00000,   0.00000
-402130229.86746,-371694485.56310,-75299882.59915,  -0.00110,  -0.00091,  -0.00098,409055680.00000,   0.00000,274640576.00000,   0.00000,   0.00000,   0.00000,-65584896.00000,   0.00000
-405012505.74243,-373065863.57681,-75660592.44891,  -0.00112,  -0.00091,  -0.00098,411398208.00000,   0.00000,274640576.00000,   0.00000,   0.00000,   0.00000,-63242368.00000,   0.00000
-407884572.84808,-374413421.12875,-76014496.45245,  -0.00113,  -0.00091,  -0.00099,413718176.00000,   0.00000,274640576.00000,   0.00000,   0.00000,   0.00000,-60922400.00000,   0.00000
-410756639.95372,-375760978.68069,-76361594.60977,  -0.00114,  -0.00091,  -0.00099,416028576.00000,   0.00000,274640576.00000,   0.00000,   0.00000,   0.00000,-58612000.00000,   0.00000
-413632109.98247,-377071104.07840,-76708692.76709,  -0.00115,  -0.00091,  -0.00100,418318240.00000,   0.00000,274640576.00000,   0.00000,   0.00000,   0.00000,-56322336.00000,   0.00000
-416497371.24190,-378357409.01434,-77055790.92440,  -0.00116,  -0.00091,  -0.00100,420585280.00000,   0.00000,274640576.00000,   0.00000,   0.00000,   0.00000,-54055296.00000,   0.00000
-419362632.50132,-379643713.95028,-77396083.23550,  -0.00117,  -0.00091,  -0.00101,422842272.00000,   0.00000,274640576.00000,   0.00000,   0.00000,   0.00000,-51798304.00000,   0.00000
-422217684.99141,-380906198.42445,-77729569.70037,  -0.00118,  -0.00091,  -0.00101,425075744.00000,   0.00000,274640576.00000,   0.00000,   0.00000,   0.00000,-49564832.00000,   0.00000
-425086349.17394,-382155071.20617,-78063056.16525,  -0.00119,  -0.00091,  -0.00101,427308832.00000,   0.00000,274640576.00000,   0.00000,   0.00000,   0.00000,-47331744.00000,   0.00000
-427944804.58714,-383380123.52611,-78389736.78390,  -0.00120,  -0.00091,  -0.00102,429523584.00000,   0.00000,274640576.00000,   0.00000,   0.00000,   0.00000,-45116992.00000,   0.00000
-430793051.23101,-384581355.38427,-78716417.40255,  -0.00121,  -0.00091,  -0.00102,431726336.00000,   0.00000,274640576.00000,   0.00000,   0.00000,   0.00000,-42914240.00000,   0.00000
-433631089.10554,-385758766.78066,-79036292.17498,  -0.00122,  -0.00091,  -0.00103,433915904.00000,   0.00000,274640576.00000,   0.00000,   0.00000,   0.00000,-40724672.00000,   0.00000
-436482738.67252,-386922566.48461,-79356166.94741,  -0.00123,  -0.00091,  -0.00103,436114688.00000,   0.00000,274640576.00000,   0.00000,   0.00000,   0.00000,-38525888.00000,   0.00000
-439334388.23950,-388086366.18856,-79669235.87362,  -0.00124,  -0.00091,  -0.00104,438317664.00000,   0.00000,274640576.00000,   0.00000,   0.00000,   0.00000,-36322912.00000,   0.00000
-442175829.03714,-389226345.43072,-79975498.95360,  -0.00125,  -0.00091,  -0.00104,440510240.00000,   0.00000,274640576.00000,   0.00000,   0.00000,   0.00000,-34130336.00000,   0.00000
-444996852.29612,-390318683.74934,-80281762.03359,  -0.00126,  -0.00091,  -0.00104,442680128.00000,   0.00000,274640576.00000,   0.00000,   0.00000,   0.00000,-31960448.00000,   0.00000
-447851904.78621,-391445051.29907,-80588025.11357,  -0.00127,  -0.00091,  -0.00105,444887584.00000,   0.00000,274640576.00000,   0.00000,   0.00000,   0.00000,-29752992.00000,   0.00000
-450686539.73763,-392523777.92524,-80887482.34734,  -0.00129,  -0.00091,  -0.00105,447066016.00000,   0.00000,274640576.00000,   0.00000,   0.00000,   0.00000,-27574560.00000,   0.00000
-453510965.91973,-393578684.08963,-81180133.73488,  -0.00130,  -0.00091,  -0.00106,449229728.00000,   0.00000,274640576.00000,   0.00000,   0.00000,   0.00000,-25410848.00000,   0.00000
-456335392.10182,-394633590.25403,-81472785.12242,  -0.00131,  -0.00091,  -0.00106,451397280.00000,   0.00000,274640576.00000,   0.00000,   0.00000,   0.00000,-23243296.00000,   0.00000
-459163221.20702,-395651064.26420,-81758630.66374,  -0.00132,  -0.00090,  -0.00106,453554112.00000,   0.00000,274640576.00000,   0.00000,   0.00000,   0.00000,-21086464.00000,   0.00000
-461967229.85044,-396658329.50504,-82044476.20506,  -0.00133,  -0.00090,  -0.00107,455698816.00000,   0.00000,274640576.00000,   0.00000,   0.00000,   0.00000,-18941760.00000,   0.00000
-464784850.18631,-397651983.05344,-82323515.90016,  -0.00134,  -0.00090,  -0.00107,457848192.00000,   0.00000,274640576.00000,   0.00000,   0.00000,   0.00000,-16792384.00000,   0.00000
-467592261.75285,-398621816.14006,-82595749.74903,  -0.00135,  -0.00090,  -0.00107,459984352.00000,   0.00000,274640576.00000,   0.00000,   0.00000,   0.00000,-14656224.00000,   0.00000
-470423493.78116,-399601857.99602,-82867983.59791,  -0.00136,  -0.00090,  -0.00108,462142432.00000,   0.00000,274640576.00000,   0.00000,   0.00000,   0.00000,-12498144.00000,   0.00000
-473210487.80903,-400524050.15909,-83133411.60056,  -0.00137,  -0.00090,  -0.00108,464253632.00000,   0.00000,274640576.00000,   0.00000,   0.00000,   0.00000,-10386944.00000,   0.00000
-476021302.29867,-401456451.09149,-83398839.60322,  -0.00138,  -0.00090,  -0.00108,466385088.00000,   0.00000,274640576.00000,   0.00000,   0.00000,   0.00000,-8255488.00000,   0.00000
-478821908.01899,-402365031.56211,-83664267.60587,  -0.00139,  -0.00090,  -0.00109,468503744.00000,   0.00000,274640576.00000,   0.00000,   0.00000,   0.00000,-6136832.00000,   0.00000
-481612304.96997,-403249791.57096,-83916083.91608,  -0.00140,  -0.00090,  -0.00109,470602016.00000,   0.00000,274640576.00000,   0.00000,   0.00000,   0.00000,-4038560.00000,   0.00000
-484392493.15162,-404110731.11803,-84167900.22629,  -0.00142,  -0.00089,  -0.00109,472686720.00000,   0.00000,274640576.00000,   0.00000,   0.00000,   0.00000,-1953856.00000,   0.00000
-486998919.57191,-404917861.94341,-84403978.01712,  -0.00143,  -0.00089,  -0.00110,474641312.00000,   0.00000,274640576.00000,   0.00000,   0.00000,   0.00000, 736.00000,   0.00000
-487038844.06426,-404864151.87772,-84392195.72724,  -0.00143,  -0.00089,  -0.00110,474641312.00000,   0.00000,274641056.00000,  -0.00000,  -0.00000,  -0.00000,-512.00000,   1.00000
-487711011.89680,-403999622.60723,-84204560.45368,  -0.00144,  -0.00089,  -0.00110,476711392.00000,   0.00001,274648480.00000,  -0.00001,  -0.00000,  -0.00001,  32.00000,   2.00000
-488378753.25370,-403139228.18862,-84010649.29348,  -0.00145,  -0.00089,  -0.00110,476720256.00000,   0.00001,274655904.00000,  -0.00001,  -0.00001,  -0.00001,   0.00000,   2.00000
-489042776.17391,-402267905.87990,-83819649.94147,  -0.00146,  -0.00089,  -0.00111,476718112.00000,   0.00002,274663296.00000,  -0.00002,  -0.00001,  -0.00002,  32.00000,   2.00000
-489706642.23366,-401388477.10735,-83625601.13204,  -0.00147,  -0.00089,  -0.00111,476712448.00000,   0.00003,274670624.00000,  -0.00003,  -0.00001,  -0.00002,  32.00000,   2.00000
-490362653.13073,-400510595.44975,-83431751.44469,  -0.00148,  -0.00088,  -0.00111,476724288.00000,   0.00003,274678016.00000,  -0.00003,  -0.00002,  -0.00003,  96.00000,   2.00000
-491018270.16890,-399624326.79395,-83234922.61204,  -0.00149,  -0.00088,  -0.00112,476718816.00000,   0.00004,274685344.00000,  -0.00004,  -0.00002,  -0.00003, 128.00000,   2.00000
-491675140.32181,-398722635.16099,-83037504.46190,  -0.00150,  -0.00088,  -0.00112,476734816.00000,   0.00005,274692672.00000,  -0.00004,  -0.00002,  -0.00004,  64.00000,   2.00000
-492326356.82644,-397816662.07280,-82840821.82018,  -0.00152,  -0.00088,  -0.00112,476711456.00000,   0.00005,274699936.00000,  -0.00005,  -0.00003,  -0.00004,  96.00000,   2.00000
-492982348.99501,-396898009.16343,-82637491.45312,  -0.00153,  -0.00088,  -0.00112,476724160.00000,   0.00006,274707200.00000,  -0.00006,  -0.00003,  -0.00005,  96.00000,   2.00000
-493629889.75730,-395980547.49476,-82434391.19695,  -0.00154,  -0.00087,  -0.00113,476736320.00000,   0.00007,274714496.00000,  -0.00006,  -0.00003,  -0.00006, -32.00000,   2.00000
-494281169.94794,-395041623.54408,-82231123.91234,  -0.00155,  -0.00087,  -0.00113,476717184.00000,   0.00007,274721696.00000,  -0.00007,  -0.00004,  -0.00006,   0.00000,   2.00000
-494924145.50344,-394103957.92878,-82028080.71227,  -0.00156,  -0.00087,  -0.00113,476729408.00000,   0.00008,274728896.00000,  -0.00008,  -0.00004,  -0.00007,   0.00000,   2.00000
-495562715.80895,-393170442.16615,-81819233.43290,  -0.00157,  -0.00087,  -0.00113,476738016.00000,   0.00009,274736096.00000,  -0.00008,  -0.00004,  -0.00007,  32.00000,   2.00000
-496206002.82260,-392208061.19422,-81612478.93586,  -0.00158,  -0.00086,  -0.00114,476740928.00000,   0.00009,274743296.00000,  -0.00009,  -0.00005,  -0.00008,   0.00000,   2.00000
-496840044.23177,-391253787.56563,-81403543.10307,  -0.00159,  -0.00086,  -0.00114,476731488.00000,   0.00010,274750464.00000,  -0.00010,  -0.00005,  -0.00008,  32.00000,   2.00000
-497474738.26732,-390283617.51325,-81193908.90485,  -0.00160,  -0.00086,  -0.00114,476748192.00000,   0.00011,274757632.00000,  -0.00010,  -0.00005,  -0.00009,   0.00000,   2.00000
-498104356.54541,-389308198.76651,-80984768.60330,  -0.00162,  -0.00086,  -0.00114,476724992.00000,   0.00011,274764704.00000,  -0.00011,  -0.00006,  -0.00009,  32.00000,   2.00000
-498738205.27638,-388319476.01775,-80768802.78864,  -0.00163,  -0.00085,  -0.00115,476738432.00000,   0.00012,274771808.00000,  -0.00012,  -0.00006,  -0.00010,  32.00000,   2.00000
-499364087.55231,-387332045.73473,-80553072.20243,  -0.00164,  -0.00085,  -0.00115,476750592.00000,   0.00013,274778912.00000,  -0.00012,  -0.00006,  -0.00010,  32.00000,   2.00000
-499989601.00762,-386335111.64482,-80334136.58942,  -0.00165,  -0.00085,  -0.00115,476745792.00000,   0.00013,274785984.00000,  -0.00013,  -0.00006,  -0.00011,  32.00000,   2.00000
-500611184.50893,-385325981.77370,-80118081.91790,  -0.00166,  -0.00084,  -0.00115,476744512.00000,   0.00014,274793024.00000,  -0.00013,  -0.00007,  -0.00011,  64.00000,   2.00000
-501228600.69896,-384320764.73178,-79896147.91899,  -0.00167,  -0.00084,  -0.00116,476753088.00000,   0.00015,274800064.00000,  -0.00014,  -0.00007,  -0.00012,  32.00000,   2.00000
-501849352.97327,-383292006.09408,-79673525.41281,  -0.00168,  -0.00084,  -0.00116,476735232.00000,   0.00015,274807008.00000,  -0.00015,  -0.00007,  -0.00012,  32.00000,   2.00000
-502462363.08292,-382264507.17339,-79451125.47801,  -0.00169,  -0.00083,  -0.00116,476747264.00000,   0.00016,274813984.00000,  -0.00015,  -0.00008,  -0.00013,  32.00000,   2.00000
-503072128.69284,-381234676.21012,-79225397.34568,  -0.00171,  -0.00083,  -0.00116,476777632.00000,   0.00016,274821056.00000,  -0.00016,  -0.00008,  -0.00013,  32.00000,   2.00000
-503684587.12645,-380187216.37611,-78996360.21519,  -0.00172,  -0.00083,  -0.00116,476738304.00000,   0.00017,274827968.00000,  -0.00017,  -0.00008,  -0.00014,  64.00000,   2.00000
-504285646.01281,-379138345.75365,-78773643.46637,  -0.00173,  -0.00082,  -0.00117,476753760.00000,   0.00018,274834880.00000,  -0.00017,  -0.00008,  -0.00014,  32.00000,   2.00000
-504890649.49635,-378075771.93022,-78543994.02223,  -0.00174,  -0.00082,  -0.00117,476767776.00000,   0.00018,274841824.00000,  -0.00018,  -0.00009,  -0.00015,   0.00000,   2.00000
-505490963.27416,-377006426.86032,-78314479.61944,  -0.00175,  -0.00082,  -0.00117,476745024.00000,   0.00019,274848672.00000,  -0.00019,  -0.00009,  -0.00015,  64.00000,   2.00000
-506091437.94350,-375937372.86176,-78075527.98662,  -0.00176,  -0.00081,  -0.00117,476772160.00000,   0.00020,274855616.00000,  -0.00019,  -0.00009,  -0.00016,  64.00000,   2.00000
-506683738.13515,-374858860.16739,-77842831.05808,  -0.00177,  -0.00081,  -0.00117,476752832.00000,   0.00020,274862432.00000,  -0.00020,  -0.00009,  -0.00016,  64.00000,   2.00000
-507276009.07972,-373763907.35500,-77609281.67732,  -0.00178,  -0.00081,  -0.00117,476770560.00000,   0.00021,274869312.00000,  -0.00021,  -0.00010,  -0.00017,  96.00000,   2.00000
-507864188.28698,-372672723.66138,-77369813.49787,  -0.00180,  -0.00080,  -0.00118,476779328.00000,   0.00021,274876192.00000,  -0.00021,  -0.00010,  -0.00017,  96.00000,   2.00000
-508447768.14976,-371574233.52831,-77130366.79085,  -0.00181,  -0.00080,  -0.00118,476756672.00000,   0.00022,274882976.00000,  -0.00022,  -0.00010,  -0.00017, -64.00000,   2.00000
-509031111.48210,-370459256.59697,-76890061.49492,  -0.00182,  -0.00080,  -0.00118,476774592.00000,   0.00023,274889792.00000,  -0.00023,  -0.00010,  -0.00018,  64.00000,   2.00000
-509606326.62567,-369334402.50317,-76655866.70848,  -0.00183,  -0.00079,  -0.00118,476755328.00000,   0.00023,274896512.00000,  -0.00023,  -0.00010,  -0.00018,  96.00000,   2.00000
-510184572.65249,-368212249.95671,-76406032.92229,  -0.00184,  -0.00079,  -0.00118,476779584.00000,   0.00024,274903296.00000,  -0.00024,  -0.00011,  -0.00019,   0.00000,   2.00000
-510755016.70132,-367074511.06298,-76165002.27646,  -0.00185,  -0.00078,  -0.00118,476782368.00000,   0.00025,274910080.00000,  -0.00024,  -0.00011,  -0.00019,  32.00000,   2.00000
-511324315.67460,-365931328.75814,-75917665.64180,  -0.00186,  -0.00078,  -0.00118,476756704.00000,   0.00025,274916736.00000,  -0.00025,  -0.00011,  -0.00020,  96.00000,   2.00000
-511885856.43451,-364783898.19543,-75673241.07287,  -0.00188,  -0.00078,  -0.00119,476791072.00000,   0.00026,274923520.00000,  -0.00026,  -0.00011,  -0.00020,  32.00000,   2.00000
-512446169.30945,-363630773.68008,-75422452.66822,  -0.00189,  -0.00077,  -0.00119,476765376.00000,   0.00026,274930176.00000,  -0.00026,  -0.00012,  -0.00021,   0.00000,   2.00000
-513005362.50932,-362460969.16840,-75170733.33100,  -0.00190,  -0.00077,  -0.00119,476783936.00000,   0.00027,274936864.00000,  -0.00027,  -0.00012,  -0.00021,   0.00000,   2.00000
-513556498.46967,-361292543.33399,-74919236.31628,  -0.00191,  -0.00076,  -0.00119,476796256.00000,   0.00028,274943584.00000,  -0.00028,  -0.00012,  -0.00022, -32.00000,   2.00000
-514103022.30044,-360115950.64233,-74667519.17390,  -0.00192,  -0.00076,  -0.00119,476773952.00000,   0.00028,274950208.00000,  -0.00028,  -0.00012,  -0.00022,  96.00000,   2.00000
-514651211.02575,-358924702.96849,-74408592.76909,  -0.00193,  -0.00075,  -0.00119,476789792.00000,   0.00029,274956896.00000,  -0.00029,  -0.00012,  -0.00022, -32.00000,   2.00000
-515191114.99230,-357722781.09131,-74155578.99881,  -0.00194,  -0.00075,  -0.00119,476770784.00000,   0.00029,274963456.00000,  -0.00030,  -0.00013,  -0.00023,  32.00000,   2.00000
-515722802.32246,-356522260.26570,-73902756.12071,  -0.00195,  -0.00074,  -0.00119,476783168.00000,   0.00030,274970048.00000,  -0.00030,  -0.00013,  -0.00023,   0.00000,   2.00000
-516256449.48384,-355324714.65549,-73634328.78817,  -0.00197,  -0.00074,  -0.00119,476808192.00000,   0.00031,274976704.00000,  -0.00031,  -0.00013,  -0.00024,   0.00000,   2.00000
-516781139.56719,-354098573.29403,-73380137.21477,  -0.00198,  -0.00073,  -0.00120,476780320.00000,   0.00031,274983264.00000,  -0.00032,  -0.00013,  -0.00024, 128.00000,   2.00000
-517300892.11990,-352876065.70446,-73119912.72778,  -0.00199,  -0.00073,  -0.00120,476789568.00000,   0.00032,274989824.00000,  -0.00032,  -0.00013,  -0.00025,  32.00000,   2.00000
-517818645.84044,-351641705.15877,-72855833.11335,  -0.00200,  -0.00072,  -0.00120,476786688.00000,   0.00032,274996352.00000,  -0.00033,  -0.00013,  -0.00025,  64.00000,   2.00000
-518331001.41527,-350406121.48376,-72588595.85583,  -0.00201,  -0.00072,  -0.00120,476818304.00000,   0.00033,275002976.00000,  -0.00034,  -0.00014,  -0.00025,  96.00000,   2.00000
-518838076.96475,-349161258.14286,-72320845.18625,  -0.00202,  -0.00072,  -0.00120,476796448.00000,   0.00034,275009504.00000,  -0.00034,  -0.00014,  -0.00026, -64.00000,   2.00000
-519334020.66049,-347920784.56346,-72056719.36080,  -0.00203,  -0.00071,  -0.00120,476789568.00000,   0.00034,275016000.00000,  -0.00035,  -0.00014,  -0.00026,  96.00000,   2.00000
-519833028.56361,-346649540.57133,-71787321.37647,  -0.00204,  -0.00071,  -0.00120,476794464.00000,   0.00035,275022496.00000,  -0.00035,  -0.00014,  -0.00027, -32.00000,   2.00000
-520326917.00695,-345382012.29484,-71511904.76060,  -0.00206,  -0.00070,  -0.00120,476803648.00000,   0.00035,275028992.00000,  -0.00036,  -0.00014,  -0.00027,  64.00000,   2.00000
-520808969.60478,-344114125.18859,-71242977.42182,  -0.00207,  -0.00069,  -0.00120,476819232.00000,   0.00036,275035520.00000,  -0.00037,  -0.00014,  -0.00027, -64.00000,   2.00000
-521289104.05615,-342838433.24739,-70967114.11279,  -0.00208,  -0.00069,  -0.00120,476794560.00000,   0.00037,275041952.00000,  -0.00037,  -0.00015,  -0.00028,  32.00000,   2.00000
-521765948.15941,-341545810.33984,-70690154.43567,  -0.00209,  -0.00068,  -0.00120,476814560.00000,   0.00037,275048448.00000,  -0.00038,  -0.00015,  -0.00028,  32.00000,   2.00000
-522234014.33501,-340241071.33333,-70418685.03625,  -0.00210,  -0.00068,  -0.00120,476796000.00000,   0.00038,275054848.00000,  -0.00039,  -0.00015,  -0.00029,   0.00000,   2.00000
-522696996.97756,-338940053.30736,-70141144.88921,  -0.00211,  -0.00067,  -0.00120,476805216.00000,   0.00038,275061280.00000,  -0.00039,  -0.00015,  -0.00029,  64.00000,   2.00000
-523151553.60484,-337640765.21979,-69863810.14674,  -0.00212,  -0.00067,  -0.00120,476817568.00000,   0.00039,275067712.00000,  -0.00040,  -0.00015,  -0.00029, 128.00000,   2.00000
-523603303.95459,-336328720.38207,-69582331.18428,  -0.00213,  -0.00066,  -0.00120,476815424.00000,   0.00040,275074144.00000,  -0.00041,  -0.00015,  -0.00030,  32.00000,   2.00000
-524049030.21154,-335002003.82979,-69302980.24888,  -0.00214,  -0.00066,  -0.00120,476816352.00000,   0.00040,275080544.00000,  -0.00041,  -0.00015,  -0.00030,  32.00000,   2.00000
-524491755.36618,-333662339.42075,-69019406.70549,  -0.00216,  -0.00065,  -0.00120,476814336.00000,   0.00041,275086944.00000,  -0.00042,  -0.00016,  -0.00030,   0.00000,   2.00000
-524929456.94251,-332326395.22214,-68729748.33538,  -0.00217,  -0.00065,  -0.00120,476823616.00000,   0.00041,275093344.00000,  -0.00043,  -0.00016,  -0.00031,  32.00000,   2.00000
-525355362.49609,-330975732.62415,-68451669.36399,  -0.00218,  -0.00064,  -0.00120,476808224.00000,   0.00042,275099680.00000,  -0.00043,  -0.00016,  -0.00031,  96.00000,   2.00000
-525779541.51370,-329630547.47457,-68161152.53837,  -0.00219,  -0.00063,  -0.00120,476814464.00000,   0.00043,275106016.00000,  -0.00044,  -0.00016,  -0.00032,  32.00000,   2.00000
-526197534.63846,-328270273.70138,-67872643.79730,  -0.00220,  -0.00063,  -0.00120,476815488.00000,   0.00043,275112352.00000,  -0.00045,  -0.00016,  -0.00032,  96.00000,   2.00000
-526607418.07267,-326911820.95031,-67584312.32569,  -0.00221,  -0.00062,  -0.00120,476827424.00000,   0.00044,275118688.00000,  -0.00045,  -0.00016,  -0.00032,  32.00000,   2.00000
-527014343.31075,-325539987.44453,-67291640.46053,  -0.00222,  -0.00062,  -0.00120,476825728.00000,   0.00044,275125024.00000,  -0.00046,  -0.00016,  -0.00033,  32.00000,   2.00000
-527415071.65229,-324152927.67550,-67000922.19140,  -0.00223,  -0.00061,  -0.00120,476826816.00000,   0.00045,275131328.00000,  -0.00047,  -0.00016,  -0.00033, -32.00000,   2.00000
-527809005.00570,-322771314.84085,-66707252.21990,  -0.00224,  -0.00060,  -0.00120,476816416.00000,   0.00045,275137600.00000,  -0.00047,  -0.00017,  -0.00033,  32.00000,   2.00000
-528196512.06815,-321374175.35927,-66415461.65561,  -0.00226,  -0.00060,  -0.00120,476817696.00000,   0.00046,275143840.00000,  -0.00048,  -0.00017,  -0.00034,  64.00000,   2.00000
-528579409.73806,-319980674.81740,-66117539.80620,  -0.00227,  -0.00059,  -0.00120,476826720.00000,   0.00047,275150112.00000,  -0.00049,  -0.00017,  -0.00034,  96.00000,   2.00000
-528956074.22023,-318571683.85697,-65821526.11039,  -0.00228,  -0.00059,  -0.00120,476827936.00000,   0.00047,275156384.00000,  -0.00049,  -0.00017,  -0.00034,  32.00000,   2.00000
-529329397.72918,-317148751.52669,-65521043.18505,  -0.00229,  -0.00058,  -0.00120,476826496.00000,   0.00048,275162624.00000,  -0.00050,  -0.00017,  -0.00035, -32.00000,   2.00000
-529692902.62576,-315729206.02196,-65223894.01503,  -0.00230,  -0.00057,  -0.00120,476818912.00000,   0.00048,275168800.00000,  -0.00050,  -0.00017,  -0.00035,  64.00000,   2.00000
-530050482.94539,-314310108.43352,-64923860.81889,  -0.00231,  -0.00057,  -0.00120,476850400.00000,   0.00049,275175104.00000,  -0.00051,  -0.00017,  -0.00035,  64.00000,   2.00000
-530404132.56152,-312860684.71667,-64624095.47414,  -0.00232,  -0.00056,  -0.00120,476819200.00000,   0.00049,275181248.00000,  -0.00052,  -0.00017,  -0.00036,  32.00000,   2.00000
-530751533.96552,-311432472.74850,-64316604.38457,  -0.00233,  -0.00055,  -0.00120,476838624.00000,   0.00050,275187456.00000,  -0.00052,  -0.00017,  -0.00036,  32.00000,   2.00000
-531091727.18579,-309971916.54263,-64015689.50041,  -0.00234,  -0.00055,  -0.00120,476810464.00000,   0.00051,275193568.00000,  -0.00053,  -0.00017,  -0.00036,  64.00000,   2.00000
-531425538.34449,-308512014.37538,-63711984.44069,  -0.00235,  -0.00054,  -0.00120,476842144.00000,   0.00051,275199776.00000,  -0.00054,  -0.00017,  -0.00037,  32.00000,   2.00000
-531752508.49890,-307056832.12725,-63405290.74577,  -0.00236,  -0.00053,  -0.00120,476831936.00000,   0.00052,275205920.00000,  -0.00054,  -0.00017,  -0.00037, -64.00000,   2.00000
-532072577.85476,-305585742.09353,-63100533.68340,  -0.00238,  -0.00053,  -0.00120,476834080.00000,   0.00052,275212032.00000,  -0.00055,  -0.00018,  -0.00037,  96.00000,   2.00000
-532385416.44423,-304119093.61877,-62792759.94404,  -0.00239,  -0.00052,  -0.00119,476823968.00000,   0.00053,275218144.00000,  -0.00056,  -0.00018,  -0.00038,   0.00000,   2.00000
-532692625.91304,-302635407.35069,-62483931.61708,  -0.00240,  -0.00051,  -0.00119,476846048.00000,   0.00053,275224288.00000,  -0.00056,  -0.00018,  -0.00038,-160.00000,   2.00000
-532993717.74811,-301138105.44116,-62173672.09615,  -0.00241,  -0.00051,  -0.00119,476826176.00000,   0.00054,275230336.00000,  -0.00057,  -0.00018,  -0.00038,  96.00000,   2.00000
-533286149.19591,-299642866.05660,-61863878.57863,  -0.00242,  -0.00050,  -0.00119,476839008.00000,   0.00054,275236416.00000,  -0.00058,  -0.00018,  -0.00039, 160.00000,   2.00000
-533570493.94693,-298131346.12890,-61556026.18192,  -0.00243,  -0.00049,  -0.00119,476842048.00000,   0.00055,275242528.00000,  -0.00058,  -0.00018,  -0.00039,  96.00000,   2.00000
-533847498.48545,-296624183.04873,-61245236.76772,  -0.00244,  -0.00049,  -0.00119,476832448.00000,   0.00056,275248544.00000,  -0.00059,  -0.00018,  -0.00039,  64.00000,   2.00000
-534118502.70672,-295120531.36295,-60928579.95167,  -0.00245,  -0.00048,  -0.00119,476842816.00000,   0.00056,275254624.00000,  -0.00060,  -0.00018,  -0.00040,   0.00000,   2.00000
-534379214.76361,-293580686.23889,-60621744.35628,  -0.00246,  -0.00047,  -0.00119,476839232.00000,   0.00057,275260640.00000,  -0.00060,  -0.00018,  -0.00040,  64.00000,   2.00000
-534636085.43361,-292064331.14532,-60301219.92840,  -0.00247,  -0.00047,  -0.00119,476856864.00000,   0.00057,275266720.00000,  -0.00061,  -0.00018,  -0.00040,  64.00000,   2.00000
-534880847.83240,-290511886.33903,-59993278.51833,  -0.00248,  -0.00046,  -0.00119,476833792.00000,   0.00058,275272704.00000,  -0.00061,  -0.00018,  -0.00041, -64.00000,   2.00000
-535119379.71064,-288981682.64864,-59678050.82672,  -0.00249,  -0.00045,  -0.00118,476853728.00000,   0.00058,275278752.00000,  -0.00062,  -0.00018,  -0.00041, -32.00000,   2.00000
-535353133.33856,-287417374.38607,-59359548.31840,  -0.00250,  -0.00044,  -0.00118,476845632.00000,   0.00059,275284736.00000,  -0.00063,  -0.00018,  -0.00041,   0.00000,   2.00000
-535576847.47617,-285874241.95449,-59042922.65036,  -0.00251,  -0.00044,  -0.00118,476848128.00000,   0.00059,275290720.00000,  -0.00063,  -0.00018,  -0.00041,   0.00000,   2.00000
-535793186.99978,-284295329.66484,-58729218.73754,  -0.00252,  -0.00043,  -0.00118,476842368.00000,   0.00060,275296640.00000,  -0.00064,  -0.00018,  -0.00042,  64.00000,   2.00000
-536004465.38609,-282738807.50472,-58408011.40228,  -0.00253,  -0.00042,  -0.00118,476861600.00000,   0.00061,275302656.00000,  -0.00065,  -0.00018,  -0.00042,   0.00000,   2.00000
-536207150.16294,-281165402.90336,-58091022.42121,  -0.00254,  -0.00042,  -0.00118,476845120.00000,   0.00061,275308576.00000,  -0.00065,  -0.00018,  -0.00042,  32.00000,   2.00000
-536402577.09459,-279575025.38456,-57775390.81584,  -0.00255,  -0.00041,  -0.00118,476848320.00000,   0.00062,275314496.00000,  -0.00066,  -0.00018,  -0.00043,  96.00000,   2.00000
-536593395.18813,-277988126.67006,-57453392.05155,  -0.00257,  -0.00040,  -0.00118,476858272.00000,   0.00062,275320416.00000,  -0.00067,  -0.00018,  -0.00043,   0.00000,   2.00000
-536776703.07656,-276384355.74708,-57132761.44017,  -0.00258,  -0.00039,  -0.00117,476861824.00000,   0.00063,275326336.00000,  -0.00067,  -0.00018,  -0.00043,  32.00000,   2.00000
-536953693.87828,-274784011.32701,-56808576.46049,  -0.00259,  -0.00039,  -0.00117,476852256.00000,   0.00063,275332224.00000,  -0.00068,  -0.00018,  -0.00043,  64.00000,   2.00000
-537122241.24953,-273166677.98354,-56485821.83695,  -0.00260,  -0.00038,  -0.00117,476856448.00000,   0.00064,275338112.00000,  -0.00068,  -0.00018,  -0.00044, -32.00000,   2.00000
-537281523.71361,-271551626.64971,-56166095.72126,  -0.00261,  -0.00037,  -0.00117,476849440.00000,   0.00064,275343936.00000,  -0.00069,  -0.00018,  -0.00044, 128.00000,   2.00000
-537434374.87013,-269920604.84070,-55841357.05231,  -0.00262,  -0.00036,  -0.00117,476851872.00000,   0.00065,275349760.00000,  -0.00070,  -0.00018,  -0.00044,  96.00000,   2.00000
-537578788.43111,-268292162.60691,-55516971.66768,  -0.00263,  -0.00036,  -0.00117,476865280.00000,   0.00065,275355616.00000,  -0.00070,  -0.00018,  -0.00044,  64.00000,   2.00000
-537717503.64451,-266667463.71785,-55186467.74745,  -0.00264,  -0.00035,  -0.00116,476876256.00000,   0.00066,275361504.00000,  -0.00071,  -0.00018,  -0.00045, 128.00000,   2.00000
-537845992.00064,-265024909.79324,-54860042.03389,  -0.00265,  -0.00034,  -0.00116,476861344.00000,   0.00067,275367328.00000,  -0.00072,  -0.00018,  -0.00045, 160.00000,   2.00000
-537964243.95868,-263364309.02269,-54537611.16769,  -0.00266,  -0.00033,  -0.00116,476846368.00000,   0.00067,275373088.00000,  -0.00072,  -0.00018,  -0.00045,   0.00000,   2.00000
-538078190.65547,-261708201.84209,-54206382.08778,  -0.00267,  -0.00032,  -0.00116,476877440.00000,   0.00068,275378912.00000,  -0.00073,  -0.00018,  -0.00045, 160.00000,   2.00000
-538182808.95229,-260053762.72126,-53878043.28540,  -0.00268,  -0.00032,  -0.00116,476871008.00000,   0.00068,275384704.00000,  -0.00074,  -0.00018,  -0.00046, 128.00000,   2.00000
-538277162.70578,-258380844.48031,-53553613.67132,  -0.00269,  -0.00031,  -0.00116,476856064.00000,   0.00069,275390432.00000,  -0.00074,  -0.00018,  -0.00046, -32.00000,   2.00000
-538366199.28138,-256711547.92861,-53223009.06825,  -0.00270,  -0.00030,  -0.00115,476867200.00000,   0.00069,275396192.00000,  -0.00075,  -0.00018,  -0.00046,  64.00000,   2.00000
-538446010.37083,-255024618.60538,-52893757.52975,  -0.00271,  -0.00029,  -0.00115,476872672.00000,   0.00070,275401952.00000,  -0.00075,  -0.00018,  -0.00046,  32.00000,   2.00000
-538516701.20147,-253339039.67322,-52567386.66655,  -0.00272,  -0.00028,  -0.00115,476865984.00000,   0.00070,275407680.00000,  -0.00076,  -0.00018,  -0.00047, -64.00000,   2.00000
-538580672.53984,-251636715.29191,-52235864.13864,  -0.00273,  -0.00028,  -0.00115,476869280.00000,   0.00071,275413376.00000,  -0.00077,  -0.00018,  -0.00047,   0.00000,   2.00000
-538636527.25890,-249936879.44473,-51904729.29489,  -0.00274,  -0.00027,  -0.00115,476882848.00000,   0.00071,275419104.00000,  -0.00077,  -0.00018,  -0.00047, -32.00000,   2.00000
-538686010.03383,-248239182.83754,-51569995.34916,  -0.00275,  -0.00026,  -0.00114,476873888.00000,   0.00072,275424800.00000,  -0.00078,  -0.00018,  -0.00047, 192.00000,   2.00000
-538723305.87897,-246522489.50808,-51243127.04594,  -0.00276,  -0.00025,  -0.00114,476881856.00000,   0.00072,275430528.00000,  -0.00079,  -0.00018,  -0.00048,  32.00000,   2.00000
-538754141.62975,-244807701.50916,-50912610.58289,  -0.00277,  -0.00024,  -0.00114,476872736.00000,   0.00073,275436160.00000,  -0.00079,  -0.00018,  -0.00048, -32.00000,   2.00000
-538777987.02781,-243075804.83754,-50576936.60279,  -0.00277,  -0.00023,  -0.00114,476876288.00000,   0.00073,275441824.00000,  -0.00080,  -0.00018,  -0.00048,   0.00000,   2.00000
-538793871.52523,-241346402.76793,-50241724.88306,  -0.00278,  -0.00023,  -0.00114,476889792.00000,   0.00074,275447488.00000,  -0.00080,  -0.00018,  -0.00048,  32.00000,   2.00000
-538799023.15673,-239597062.81259,-49910256.46995,  -0.00279,  -0.00022,  -0.00113,476875456.00000,   0.00074,275453088.00000,  -0.00081,  -0.00018,  -0.00049,  96.00000,   2.00000
-538795066.61056,-237848289.28333,-49581590.09130,  -0.00280,  -0.00021,  -0.00113,476868576.00000,   0.00075,275458656.00000,  -0.00082,  -0.00018,  -0.00049,   0.00000,   2.00000
-538785718.75230,-236102900.76141,-49246839.76873,  -0.00281,  -0.00020,  -0.00113,476879648.00000,   0.00075,275464256.00000,  -0.00082,  -0.00018,  -0.00049, -32.00000,   2.00000
-538766619.54205,-234339251.06705,-48913412.77044,  -0.00282,  -0.00019,  -0.00113,476885632.00000,   0.00076,275469856.00000,  -0.00083,  -0.00018,  -0.00049,  32.00000,   2.00000
-538738450.15732,-232576012.32338,-48582748.84927,  -0.00283,  -0.00018,  -0.00113,476878624.00000,   0.00076,275475424.00000,  -0.00083,  -0.00018,  -0.00049,  64.00000,   2.00000
-538702573.63434,-230795224.57588,-48246796.34877,  -0.00284,  -0.00018,  -0.00112,476882592.00000,   0.00077,275480960.00000,  -0.00084,  -0.00018,  -0.00050,   0.00000,   2.00000
-538658838.95040,-229017085.85808,-47911310.34951,  -0.00285,  -0.00017,  -0.00112,476895904.00000,   0.00077,275486560.00000,  -0.00085,  -0.00018,  -0.00050,  32.00000,   2.00000
-538606061.26152,-227239251.22675,-47578533.90749,  -0.00286,  -0.00016,  -0.00112,476888928.00000,   0.00078,275492096.00000,  -0.00085,  -0.00018,  -0.00050,  64.00000,   2.00000
-538544096.39813,-225441310.32226,-47242630.90325,  -0.00287,  -0.00015,  -0.00112,476872736.00000,   0.00079,275497568.00000,  -0.00086,  -0.00017,  -0.00050,   0.00000,   2.00000
-538474205.37400,-223646068.47157,-46907146.90268,  -0.00288,  -0.00014,  -0.00111,476885920.00000,   0.00079,275503072.00000,  -0.00086,  -0.00017,  -0.00050, -32.00000,   2.00000
-538393774.00390,-221832376.46246,-46572810.77339,  -0.00289,  -0.00013,  -0.00111,476892224.00000,   0.00080,275508576.00000,  -0.00087,  -0.00017,  -0.00051,  64.00000,   2.00000
-538304213.02464,-220018841.02636,-46241041.90250,  -0.00290,  -0.00012,  -0.00111,476885120.00000,   0.00080,275514048.00000,  -0.00088,  -0.00017,  -0.00051,   0.00000,   2.00000
-538207670.59751,-218206085.02400,-45905211.78375,  -0.00291,  -0.00012,  -0.00111,476875872.00000,   0.00081,275519456.00000,  -0.00088,  -0.00017,  -0.00051,   0.00000,   2.00000
-538100502.21546,-216374874.40341,-45570435.69016,  -0.00291,  -0.00011,  -0.00110,476882272.00000,   0.00081,275524896.00000,  -0.00089,  -0.00017,  -0.00051,  32.00000,   2.00000
-537985038.47408,-214546528.25867,-45235945.81129,  -0.00292,  -0.00010,  -0.00110,476895520.00000,   0.00082,275530368.00000,  -0.00089,  -0.00017,  -0.00051,  64.00000,   2.00000
-537859761.90237,-212697440.87529,-44897972.01631,  -0.00293,  -0.00009,  -0.00110,476879744.00000,   0.00082,275535744.00000,  -0.00090,  -0.00017,  -0.00052,  64.00000,   2.00000
-537724959.93705,-210848169.45179,-44562330.17017,  -0.00294,  -0.00008,  -0.00110,476872672.00000,   0.00083,275541088.00000,  -0.00091,  -0.00017,  -0.00052,   0.00000,   2.00000
-537583498.90591,-209005188.58603,-44224854.17571,  -0.00295,  -0.00007,  -0.00109,476905888.00000,   0.00083,275546560.00000,  -0.00091,  -0.00017,  -0.00052,  32.00000,   2.00000
-537431757.13342,-207158804.35372,-43891754.02394,  -0.00296,  -0.00006,  -0.00109,476878304.00000,   0.00084,275551904.00000,  -0.00092,  -0.00017,  -0.00052, -32.00000,   2.00000
-537270949.40180,-205294463.28699,-43552879.47040,  -0.00297,  -0.00005,  -0.00109,476883168.00000,   0.00084,275557280.00000,  -0.00092,  -0.00017,  -0.00052,   0.00000,   2.00000
-537098800.13243,-203411513.09765,-43214806.22280,  -0.00298,  -0.00004,  -0.00109,476890240.00000,   0.00085,275562624.00000,  -0.00093,  -0.00017,  -0.00052,  96.00000,   2.00000
-536920991.24886,-201549966.36358,-42878336.26953,  -0.00299,  -0.00003,  -0.00108,476889120.00000,   0.00085,275568000.00000,  -0.00094,  -0.00016,  -0.00053, -32.00000,   2.00000
-536730841.36001,-199666125.39476,-42544666.42769,  -0.00299,  -0.00003,  -0.00108,476875808.00000,   0.00085,275573248.00000,  -0.00094,  -0.00016,  -0.00053,  64.00000,   2.00000
-536531131.54803,-197764007.86869,-42205119.74225,  -0.00300,  -0.00002,  -0.00108,476881280.00000,   0.00086,275578560.00000,  -0.00095,  -0.00016,  -0.00053, -64.00000,   2.00000
-536324015.42744,-195865079.84829,-41865801.09807,  -0.00301,  -0.00001,  -0.00108,476894400.00000,   0.00086,275583872.00000,  -0.00095,  -0.00016,  -0.00053,  64.00000,   2.00000
-536107888.96771,-193965322.03914,-41528667.72862,  -0.00302,   0.00000,  -0.00107,476887360.00000,   0.00087,275589152.00000,  -0.00096,  -0.00016,  -0.00053, 128.00000,   2.00000
-535882917.06049,-192064613.13649,-41193730.28156,  -0.00303,   0.00001,  -0.00107,476880256.00000,   0.00087,275594400.00000,  -0.00096,  -0.00016,  -0.00053, -32.00000,   2.00000
-535648499.42612,-190145369.10115,-40852986.32624,  -0.00304,   0.00002,  -0.00107,476885920.00000,   0.00088,275599648.00000,  -0.00097,  -0.00016,  -0.00054,   0.00000,   2.00000
-535405333.65143,-188225005.43025,-40514489.55170,  -0.00304,   0.00003,  -0.00106,476878976.00000,   0.00088,275604832.00000,  -0.00098,  -0.00016,  -0.00054,  96.00000,   2.00000
-535154588.86107,-186307611.97117,-40176338.83558,  -0.00305,   0.00004,  -0.00106,476892192.00000,   0.00089,275610080.00000,  -0.00098,  -0.00016,  -0.00054,  32.00000,   2.00000
-534890577.69036,-184366698.31496,-39840958.92694,  -0.00306,   0.00005,  -0.00106,476879968.00000,   0.00089,275615232.00000,  -0.00099,  -0.00016,  -0.00054,   0.00000,   2.00000
-534619005.06816,-182428899.09374,-39506008.42277,  -0.00307,   0.00006,  -0.00106,476893472.00000,   0.00090,275620448.00000,  -0.00099,  -0.00015,  -0.00054,  64.00000,   2.00000
-534340001.01188,-180490240.50236,-39166729.00298,  -0.00308,   0.00007,  -0.00105,476885120.00000,   0.00090,275625600.00000,  -0.00100,  -0.00015,  -0.00054,  32.00000,   2.00000
-534046804.77162,-178527828.70453,-38830225.40017,  -0.00309,   0.00008,  -0.00105,476873472.00000,   0.00091,275630688.00000,  -0.00100,  -0.00015,  -0.00054,  32.00000,   2.00000
-533745357.83364,-176568771.79573,-38494246.80257,  -0.00309,   0.00009,  -0.00105,476887552.00000,   0.00091,275635840.00000,  -0.00101,  -0.00015,  -0.00055,  32.00000,   2.00000
-533437040.57366,-174613637.67976,-38152179.80321,  -0.00310,   0.00010,  -0.00104,476900160.00000,   0.00092,275640992.00000,  -0.00102,  -0.00015,  -0.00055, -64.00000,   2.00000
-533111928.40013,-172634430.71257,-37819577.61118,  -0.00311,   0.00011,  -0.00104,476891136.00000,   0.00092,275646112.00000,  -0.00102,  -0.00015,  -0.00055,  96.00000,   2.00000
-532777730.18261,-170654419.94362,-37482660.77854,  -0.00312,   0.00011,  -0.00104,476884128.00000,   0.00093,275651200.00000,  -0.00103,  -0.00015,  -0.00055,  64.00000,   2.00000
-532432542.20500,-168673189.34373,-37148096.03332,  -0.00313,   0.00012,  -0.00103,476879008.00000,   0.00093,275656256.00000,  -0.00103,  -0.00015,  -0.00055,  32.00000,   2.00000
-532074484.23954,-166678545.93611,-36812915.02702,  -0.00313,   0.00013,  -0.00103,476909920.00000,   0.00094,275661408.00000,  -0.00104,  -0.00015,  -0.00055,   0.00000,   2.00000
-531705018.51560,-164677797.82605,-36475097.17516,  -0.00314,   0.00014,  -0.00103,476883424.00000,   0.00094,275666432.00000,  -0.00104,  -0.00014,  -0.00055,  32.00000,   2.00000
-531324326.48530,-162680799.61586,-36144672.80978,  -0.00315,   0.00015,  -0.00103,476900672.00000,   0.00095,275671520.00000,  -0.00105,  -0.00014,  -0.00056,  64.00000,   2.00000
-530933923.01329,-160682727.06845,-35809909.93383,  -0.00316,   0.00016,  -0.00102,476894624.00000,   0.00095,275676576.00000,  -0.00105,  -0.00014,  -0.00056, -32.00000,   2.00000
-530528760.46999,-158665929.58017,-35476238.09793,  -0.00316,   0.00017,  -0.00102,476905984.00000,   0.00095,275681632.00000,  -0.00106,  -0.00014,  -0.00056, 128.00000,   2.00000
-530112378.65269,-156647337.30937,-35144841.72228,  -0.00317,   0.00018,  -0.00102,476901664.00000,   0.00096,275686688.00000,  -0.00106,  -0.00014,  -0.00056, -32.00000,   2.00000
-529687432.43423,-154632647.76610,-34814171.60087,  -0.00318,   0.00019,  -0.00101,476916992.00000,   0.00096,275691776.00000,  -0.00107,  -0.00014,  -0.00056,  32.00000,   2.00000
-529247719.15217,-152593082.79116,-34479296.03258,  -0.00319,   0.00020,  -0.00101,476906656.00000,   0.00097,275696800.00000,  -0.00108,  -0.00014,  -0.00056,  64.00000,   2.00000
-528797791.28410,-150550967.87088,-34146514.12189,  -0.00319,   0.00021,  -0.00101,476901440.00000,   0.00097,275701792.00000,  -0.00108,  -0.00013,  -0.00056, -32.00000,   2.00000
-528338917.80580,-148511939.06327,-33820988.94927,  -0.00320,   0.00022,  -0.00100,476917312.00000,   0.00098,275706816.00000,  -0.00109,  -0.00013,  -0.00056,  96.00000,   2.00000
-527873671.04541,-146470385.86994,-33483978.43752,  -0.00321,   0.00023,  -0.00100,476908448.00000,   0.00098,275711776.00000,  -0.00109,  -0.00013,  -0.00057,  64.00000,   2.00000
-527392000.71123,-144402178.85558,-33155761.31745,  -0.00322,   0.00024,  -0.00100,476899360.00000,   0.00099,275716704.00000,  -0.00110,  -0.00013,  -0.00057,   0.00000,   2.00000
-526903940.29240,-142336769.37745,-32827842.18432,  -0.00322,   0.00025,  -0.00099,476912576.00000,   0.00099,275721664.00000,  -0.00110,  -0.00013,  -0.00057, -64.00000,   2.00000
-526409272.92132,-140267839.50307,-32494844.50807,  -0.00323,   0.00026,  -0.00099,476903680.00000,   0.00100,275726560.00000,  -0.00111,  -0.00013,  -0.00057,   0.00000,   2.00000
-525901089.03871,-138178029.26884,-32168942.06642,  -0.00324,   0.00027,  -0.00099,476913696.00000,   0.00100,275731456.00000,  -0.00111,  -0.00013,  -0.00057, -96.00000,   2.00000
-525393618.44523,-136107546.73995,-31837572.17050,  -0.00324,   0.00028,  -0.00098,476907200.00000,   0.00101,275736320.00000,  -0.00112,  -0.00012,  -0.00057,  64.00000,   2.00000
-524872210.04902,-134009560.67155,-31507822.36672,  -0.00325,   0.00029,  -0.00098,476894976.00000,   0.00101,275741120.00000,  -0.00112,  -0.00012,  -0.00057,   0.00000,   2.00000
-524345941.81014,-131913894.02910,-31178054.11377,  -0.00326,   0.00030,  -0.00098,476906016.00000,   0.00101,275745952.00000,  -0.00113,  -0.00012,  -0.00057,  32.00000,   2.00000
-523805794.01663,-129790602.58105,-30849801.40838,  -0.00326,   0.00031,  -0.00097,476893280.00000,   0.00102,275750688.00000,  -0.00113,  -0.00012,  -0.00057, -64.00000,   2.00000
-523259841.37817,-127663169.54895,-30516107.73628,  -0.00327,   0.00032,  -0.00097,476882336.00000,   0.00102,275755392.00000,  -0.00114,  -0.00012,  -0.00057,   0.00000,   2.00000
-522707334.44888,-125538077.09782,-30189031.59466,  -0.00328,   0.00033,  -0.00097,476894560.00000,   0.00103,275760096.00000,  -0.00114,  -0.00012,  -0.00058,  32.00000,   2.00000
-522148437.75515,-123409036.64964,-29856489.32189,  -0.00328,   0.00034,  -0.00096,476883904.00000,   0.00103,275764768.00000,  -0.00115,  -0.00012,  -0.00058,  32.00000,   2.00000
-521583662.12247,-121282975.03809,-29523867.42548,  -0.00329,   0.00035,  -0.00096,476895200.00000,   0.00104,275769472.00000,  -0.00115,  -0.00011,  -0.00058,  64.00000,   2.00000
-521002900.73720,-119129758.23146,-29192699.19621,  -0.00330,   0.00036,  -0.00096,476883456.00000,   0.00104,275774112.00000,  -0.00116,  -0.00011,  -0.00058, -96.00000,   2.00000
-520412825.85053,-116972928.56733,-28862820.11082,  -0.00330,   0.00037,  -0.00095,476875072.00000,   0.00104,275778688.00000,  -0.00116,  -0.00011,  -0.00058, -32.00000,   2.00000
-519812799.69835,-114812622.77573,-28534253.54533,  -0.00331,   0.00038,  -0.00095,476867328.00000,   0.00105,275783264.00000,  -0.00117,  -0.00011,  -0.00058,  32.00000,   2.00000
-519205863.17116,-112656461.91918,-28199009.69865,  -0.00332,   0.00039,  -0.00095,476879136.00000,   0.00105,275787840.00000,  -0.00117,  -0.00011,  -0.00058, -32.00000,   2.00000
-518582042.53746,-110481007.62454,-27870787.98294,  -0.00332,   0.00040,  -0.00094,476890976.00000,   0.00106,275792480.00000,  -0.00118,  -0.00011,  -0.00058,   0.00000,   2.00000
-517952732.61226,-108318447.02459,-27538378.45125,  -0.00333,   0.00041,  -0.00094,476865856.00000,   0.00106,275796992.00000,  -0.00118,  -0.00010,  -0.00058, -32.00000,   2.00000
-517306913.21038,-106136867.27467,-27206353.40931,  -0.00334,   0.00042,  -0.00094,476877472.00000,   0.00107,275801536.00000,  -0.00119,  -0.00010,  -0.00058,  32.00000,   2.00000
-516640130.16088,-103928391.62455,-26882699.08589,  -0.00334,   0.00043,  -0.00093,476870624.00000,   0.00107,275806048.00000,  -0.00119,  -0.00010,  -0.00058, 128.00000,   2.00000
-515973269.37921,-101748088.98554,-26552489.68949,  -0.00335,   0.00044,  -0.00093,476886048.00000,   0.00107,275810624.00000,  -0.00120,  -0.00010,  -0.00059,   0.00000,   2.00000
-515286674.91958,-99540692.17688,-26223970.49001,  -0.00335,   0.00045,  -0.00093,476878112.00000,   0.00108,275815168.00000,  -0.00120,  -0.00010,  -0.00059, 160.00000,   2.00000
-514597619.52580,-97353185.91052,-25890154.19096,  -0.00336,   0.00046,  -0.00092,476873408.00000,   0.00108,275819680.00000,  -0.00121,  -0.00010,  -0.00059,  32.00000,   2.00000
-513890876.40119,-95146142.56959,-25563580.60233,  -0.00337,   0.00047,  -0.00092,476886368.00000,   0.00109,275824224.00000,  -0.00121,  -0.00009,  -0.00059,   0.00000,   2.00000
-513164715.55711,-92911260.35609,-25238638.94335,  -0.00337,   0.00049,  -0.00092,476878496.00000,   0.00109,275828704.00000,  -0.00122,  -0.00009,  -0.00059,   0.00000,   2.00000
-512436817.77674,-90695603.28875,-24908334.04757,  -0.00338,   0.00050,  -0.00091,476873056.00000,   0.00110,275833184.00000,  -0.00122,  -0.00009,  -0.00059, -64.00000,   2.00000
-511688839.77933,-88451502.94877,-24586315.37554,  -0.00338,   0.00051,  -0.00091,476865920.00000,   0.00110,275837600.00000,  -0.00123,  -0.00009,  -0.00059, -32.00000,   2.00000
-510943092.07169,-86234841.67949,-24257775.82379,  -0.00339,   0.00052,  -0.00091,476879680.00000,   0.00110,275842048.00000,  -0.00123,  -0.00009,  -0.00059,  96.00000,   2.00000
-510178358.00681,-83989486.24653,-23930688.77272,  -0.00339,   0.00053,  -0.00090,476871296.00000,   0.00111,275846464.00000,  -0.00124,  -0.00009,  -0.00059, 160.00000,   2.00000
-509406515.90209,-81747764.53600,-23603867.64560,  -0.00340,   0.00054,  -0.00090,476884384.00000,   0.00111,275850912.00000,  -0.00124,  -0.00008,  -0.00059,  32.00000,   2.00000
-508615676.35887,-79477178.93665,-23278418.73409,  -0.00341,   0.00055,  -0.00090,476876128.00000,   0.00112,275855328.00000,  -0.00125,  -0.00008,  -0.00059,  96.00000,   2.00000
-507823156.16176,-77225031.41173,-22954155.57587,  -0.00341,   0.00056,  -0.00089,476870688.00000,   0.00112,275859680.00000,  -0.00125,  -0.00008,  -0.00059, 128.00000,   2.00000
-507011225.64439,-74943812.73320,-22631190.62507,  -0.00342,   0.00057,  -0.00089,476862688.00000,   0.00112,275864000.00000,  -0.00126,  -0.00008,  -0.00059,   0.00000,   2.00000
-506201481.28325,-72690027.84937,-22308403.55631,  -0.00342,   0.00058,  -0.00088,476876704.00000,   0.00113,275868352.00000,  -0.00126,  -0.00008,  -0.00059,  64.00000,   2.00000
-505371916.33682,-70407075.59998,-21986889.20947,  -0.00343,   0.00059,  -0.00088,476869120.00000,   0.00113,275872672.00000,  -0.00126,  -0.00008,  -0.00060,   0.00000,   2.00000
-504523204.61661,-68094963.96691,-21659885.02061,  -0.00343,   0.00060,  -0.00088,476860768.00000,   0.00114,275876928.00000,  -0.00127,  -0.00007,  -0.00060, -32.00000,   2.00000
-503675646.74308,-65810431.34993,-21339857.83175,  -0.00344,   0.00061,  -0.00087,476875840.00000,   0.00114,275881216.00000,  -0.00127,  -0.00007,  -0.00060,  32.00000,   2.00000
-502817028.07385,-63520391.83798,-21021048.51691,  -0.00344,   0.00062,  -0.00087,476869504.00000,   0.00114,275885504.00000,  -0.00128,  -0.00007,  -0.00060,   0.00000,   2.00000
-501938552.63719,-61201076.22147,-20696730.81866,  -0.00345,   0.00063,  -0.00087,476861696.00000,   0.00115,275889696.00000,  -0.00128,  -0.00007,  -0.00060, -64.00000,   2.00000
-501052664.37299,-58885838.37837,-20372731.18765,  -0.00345,   0.00064,  -0.00086,476875200.00000,   0.00115,275893984.00000,  -0.00129,  -0.00007,  -0.00060,   0.00000,   2.00000
-500163755.35758,-56588829.29475,-20056668.02850,  -0.00346,   0.00065,  -0.00086,476870752.00000,   0.00116,275898208.00000,  -0.00129,  -0.00006,  -0.00060,  32.00000,   2.00000
-499254280.90428,-54262510.52457,-19735066.68198,  -0.00346,   0.00066,  -0.00086,476863584.00000,   0.00116,275902400.00000,  -0.00130,  -0.00006,  -0.00060, -64.00000,   2.00000
-498322935.12171,-51906888.19765,-19414665.19983,  -0.00347,   0.00067,  -0.00085,476857728.00000,   0.00116,275906528.00000,  -0.00130,  -0.00006,  -0.00060,  64.00000,   2.00000
-497393469.93273,-49579529.97202,-19094583.00521,  -0.00347,   0.00068,  -0.00085,476872096.00000,   0.00117,275910720.00000,  -0.00130,  -0.00006,  -0.00060,  96.00000,   2.00000
-496451478.04106,-47246701.16502,-18775655.73178,  -0.00348,   0.00070,  -0.00085,476866976.00000,   0.00117,275914880.00000,  -0.00131,  -0.00006,  -0.00060,  32.00000,   2.00000
-495486833.46971,-44884623.81045,-18457870.62302,  -0.00348,   0.00071,  -0.00084,476861824.00000,   0.00117,275919008.00000,  -0.00131,  -0.00006,  -0.00060, 128.00000,   2.00000
-494524010.14552,-42551154.64318,-18140414.94450,  -0.00348,   0.00072,  -0.00084,476876352.00000,   0.00118,275923200.00000,  -0.00132,  -0.00005,  -0.00060,  96.00000,   2.00000
-493537909.28678,-40188478.73669,-17824055.49770,  -0.00349,   0.00073,  -0.00083,476871808.00000,   0.00118,275927328.00000,  -0.00132,  -0.00005,  -0.00060, -96.00000,   2.00000
-492538661.20470,-37820374.52922,-17508768.43570,  -0.00349,   0.00074,  -0.00083,476867264.00000,   0.00119,275931456.00000,  -0.00133,  -0.00005,  -0.00060,  32.00000,   2.00000
-491526827.51160,-35446764.06148,-17187761.74487,  -0.00350,   0.00075,  -0.00083,476862240.00000,   0.00119,275935520.00000,  -0.00133,  -0.00005,  -0.00060,  32.00000,   2.00000
-490505837.42414,-33078256.15298,-16873845.14541,  -0.00350,   0.00076,  -0.00082,476877856.00000,   0.00119,275939648.00000,  -0.00133,  -0.00005,  -0.00060,  64.00000,   2.00000
-489471407.76157,-30704126.39287,-16560933.96921,  -0.00351,   0.00077,  -0.00082,476873632.00000,   0.00120,275943776.00000,  -0.00134,  -0.00004,  -0.00060,-160.00000,   2.00000
-488418829.22688,-28311302.22990,-16241550.81365,  -0.00351,   0.00078,  -0.00082,476888288.00000,   0.00120,275947904.00000,  -0.00134,  -0.00004,  -0.00061,  32.00000,   2.00000
-487357832.39788,-25925466.95040,-15930599.10432,  -0.00351,   0.00079,  -0.00081,476865280.00000,   0.00121,275951968.00000,  -0.00135,  -0.00004,  -0.00061, -64.00000,   2.00000
-486278608.21529,-23520750.87467,-15613143.37069,  -0.00352,   0.00080,  -0.00081,476879840.00000,   0.00121,275956032.00000,  -0.00135,  -0.00004,  -0.00061,   0.00000,   2.00000
-485196756.69307,-21133532.14495,-15303428.29495,  -0.00352,   0.00081,  -0.00081,476875168.00000,   0.00121,275960096.00000,  -0.00136,  -0.00004,  -0.00061, -32.00000,   2.00000
-484096994.67213,-18727222.67717,-14987204.75264,  -0.00353,   0.00082,  -0.00080,476889504.00000,   0.00122,275964192.00000,  -0.00136,  -0.00003,  -0.00061,   0.00000,   2.00000
-482978361.61003,-16302970.53656,-14679267.82424,  -0.00353,   0.00083,  -0.00080,476866400.00000,   0.00122,275968160.00000,  -0.00136,  -0.00003,  -0.00061,  96.00000,   2.00000
-481853361.99177,-13883094.00961,-14364842.67749,  -0.00353,   0.00085,  -0.00079,476879392.00000,   0.00122,275972192.00000,  -0.00137,  -0.00003,  -0.00061,  96.00000,   2.00000
-480721421.96968,-11467578.68138,-14050720.37350,  -0.00354,   0.00086,  -0.00079,476892864.00000,   0.00123,275976256.00000,  -0.00137,  -0.00003,  -0.00061,  32.00000,   2.00000
-479570956.63126,-9033344.09805,-13744818.83380,  -0.00354,   0.00087,  -0.00079,476869088.00000,   0.00123,275980224.00000,  -0.00138,  -0.00003,  -0.00061, -32.00000,   2.00000
-478414453.70725,-6603272.37603,-13432434.62862,  -0.00354,   0.00088,  -0.00078,476881568.00000,   0.00124,275984192.00000,  -0.00138,  -0.00002,  -0.00061,  64.00000,   2.00000
-477245672.81803,-4165765.81056,-13120911.18570,  -0.00355,   0.00089,  -0.00078,476875936.00000,   0.00124,275988128.00000,  -0.00138,  -0.00002,  -0.00061,  96.00000,   2.00000
-476069764.75865,-1732602.83745,-12816488.78168,  -0.00355,   0.00090,  -0.00078,476889504.00000,   0.00124,275992128.00000,  -0.00139,  -0.00002,  -0.00061,   0.00000,   2.00000
-474875860.96131,719820.26392,-12506643.77926,  -0.00355,   0.00091,  -0.00077,476864800.00000,   0.00125,275996000.00000,  -0.00139,  -0.00002,  -0.00061,  32.00000,   2.00000
-473663179.46385,3191337.12027,-12197086.12806,  -0.00356,   0.00092,  -0.00077,476879872.00000,   0.00125,275999904.00000,  -0.00140,  -0.00002,  -0.00061,  96.00000,   2.00000
-472455284.58012,5634428.67668,-11887932.14105,  -0.00356,   0.00093,  -0.00076,476891808.00000,   0.00125,276003872.00000,  -0.00140,  -0.00001,  -0.00061,   0.00000,   2.00000
-471227755.54466,8096610.97233,-11580100.54958,  -0.00356,   0.00094,  -0.00076,476868544.00000,   0.00126,276007712.00000,  -0.00140,  -0.00001,  -0.00061, -96.00000,   2.00000
-469980571.46644,10577175.12945,-11272596.39209,  -0.00357,   0.00095,  -0.00076,476884832.00000,   0.00126,276011584.00000,  -0.00141,  -0.00001,  -0.00061, -32.00000,   2.00000
-468718926.04994,13064398.95802,-10965928.49995,  -0.00357,   0.00096,  -0.00075,476881248.00000,   0.00126,276015456.00000,  -0.00141,  -0.00001,  -0.00061, -32.00000,   2.00000
-467454871.29066,15534648.09875,-10660145.89839,  -0.00357,   0.00098,  -0.00075,476875648.00000,   0.00127,276019296.00000,  -0.00142,  -0.00001,  -0.00061,  64.00000,   2.00000
-466170035.62846,18022494.77974,-10354727.43725,  -0.00358,   0.00099,  -0.00075,476893440.00000,   0.00127,276023200.00000,  -0.00142,  -0.00000,  -0.00061, -96.00000,   2.00000
-464882463.41946,20493202.62085,-10050194.88464,  -0.00358,   0.00100,  -0.00074,476888288.00000,   0.00128,276027040.00000,  -0.00142,  -0.00000,  -0.00061,  96.00000,   2.00000
-463566932.11800,22993758.38422,-9746429.58687,  -0.00358,   0.00101,  -0.00074,476888352.00000,   0.00128,276030912.00000,  -0.00143,  -0.00000,  -0.00061,   0.00000,   2.00000
-462235871.55205,25500754.98208,-9443469.27386,  -0.00358,   0.00102,  -0.00073,476886016.00000,   0.00128,276034720.00000,  -0.00143,   0.00000,  -0.00061,  64.00000,   2.00000
-460896260.86152,28001613.92407,-9140943.82836,  -0.00359,   0.00103,  -0.00073,476901824.00000,   0.00129,276038592.00000,  -0.00143,   0.00000,  -0.00061, -64.00000,   2.00000
-459554465.79471,30486038.73001,-8839251.86628,  -0.00359,   0.00104,  -0.00073,476896096.00000,   0.00129,276042432.00000,  -0.00144,   0.00001,  -0.00061,   0.00000,   2.00000
-458184905.90132,33001168.92564,-8538252.97369,  -0.00359,   0.00105,  -0.00072,476895776.00000,   0.00129,276046272.00000,  -0.00144,   0.00001,  -0.00061,  64.00000,   2.00000
-456808318.96682,35511100.50637,-8237657.12572,  -0.00359,   0.00106,  -0.00072,476910048.00000,   0.00130,276050144.00000,  -0.00145,   0.00001,  -0.00061,   0.00000,   2.00000
-455417778.34549,38029183.24714,-7937730.95867,  -0.00360,   0.00107,  -0.00072,476905728.00000,   0.00130,276053984.00000,  -0.00145,   0.00001,  -0.00061,   0.00000,   2.00000
-454026650.29819,40532297.21654,-7638454.71609,  -0.00360,   0.00108,  -0.00071,476897824.00000,   0.00130,276057760.00000,  -0.00145,   0.00001,  -0.00061,  32.00000,   2.00000
-452608368.14519,43066583.03254,-7339623.36369,  -0.00360,   0.00109,  -0.00071,476896736.00000,   0.00131,276061536.00000,  -0.00146,   0.00002,  -0.00061,   0.00000,   2.00000
-451182620.08508,45594415.28335,-7040891.79401,  -0.00360,   0.00111,  -0.00071,476911744.00000,   0.00131,276065344.00000,  -0.00146,   0.00002,  -0.00061,   0.00000,   2.00000
-449740175.44098,48127862.18554,-6742410.35405,  -0.00361,   0.00112,  -0.00070,476910912.00000,   0.00131,276069152.00000,  -0.00147,   0.00002,  -0.00061, -64.00000,   2.00000
-448294098.80123,50643983.97205,-6444172.26183,  -0.00361,   0.00113,  -0.00070,476906880.00000,   0.00132,276072928.00000,  -0.00147,   0.00002,  -0.00061, 160.00000,   2.00000
-446819110.19411,53191174.96413,-6139283.21598,  -0.00361,   0.00114,  -0.00069,476908160.00000,   0.00132,276076672.00000,  -0.00147,   0.00003,  -0.00061,  32.00000,   2.00000
-445340008.93978,55735981.76747,-5841117.48393,  -0.00361,   0.00115,  -0.00069,476919520.00000,   0.00132,276080480.00000,  -0.00148,   0.00003,  -0.00061,  32.00000,   2.00000
-443853685.64822,58296688.67527,-5542769.22987,  -0.00361,   0.00116,  -0.00069,476907168.00000,   0.00133,276084160.00000,  -0.00148,   0.00003,  -0.00061,  64.00000,   2.00000
-442384977.36730,60860381.86953,-5243535.31753,  -0.00361,   0.00117,  -0.00068,476877920.00000,   0.00133,276087680.00000,  -0.00148,   0.00003,  -0.00061, -64.00000,   2.00000
-440923504.48202,63458884.96575,-4943609.04570,  -0.00362,   0.00118,  -0.00068,476862048.00000,   0.00133,276091072.00000,  -0.00149,   0.00003,  -0.00061, -64.00000,   2.00000
-439435238.61134,66046335.68912,-4645946.27899,  -0.00362,   0.00119,  -0.00068,476869792.00000,   0.00134,276094528.00000,  -0.00149,   0.00004,  -0.00061,  32.00000,   2.00000
-437911243.79049,68597572.83603,-4351198.16442,  -0.00362,   0.00120,  -0.00067,476902880.00000,   0.00134,276098176.00000,  -0.00149,   0.00004,  -0.00062,  96.00000,   2.00000
-436352974.17482,71181272.41165,-4050852.35523,  -0.00362,   0.00121,  -0.00067,476909312.00000,   0.00134,276101856.00000,  -0.00150,   0.00004,  -0.00062, -96.00000,   2.00000
-434806770.29600,73739879.88796,-3757092.46411,  -0.00362,   0.00123,  -0.00066,476912992.00000,   0.00135,276105504.00000,  -0.00150,   0.00004,  -0.00062, 128.00000,   2.00000
-433232288.57601,76328985.15638,-3462732.18811,  -0.00362,   0.00124,  -0.00066,476912576.00000,   0.00135,276109152.00000,  -0.00150,   0.00004,  -0.00062,  32.00000,   2.00000
-431654496.44441,78900952.37798,-3167968.90104,  -0.00363,   0.00125,  -0.00066,476907104.00000,   0.00135,276112736.00000,  -0.00151,   0.00005,  -0.00062, 128.00000,   2.00000
-430067226.14986,81464161.56625,-2872902.04198,  -0.00363,   0.00126,  -0.00065,476924480.00000,   0.00136,276116416.00000,  -0.00151,   0.00005,  -0.00062,   0.00000,   2.00000
-428438414.35745,84070133.28549,-2578239.90668,  -0.00363,   0.00127,  -0.00065,476912128.00000,   0.00136,276120032.00000,  -0.00151,   0.00005,  -0.00062,  96.00000,   2.00000
-426824262.99613,86631131.82316,-2277086.55800,  -0.00363,   0.00128,  -0.00065,476941216.00000,   0.00136,276123776.00000,  -0.00152,   0.00005,  -0.00062,  96.00000,   2.00000
-425182939.54225,89213387.54207,-1983760.90973,  -0.00363,   0.00129,  -0.00064,476923648.00000,   0.00137,276127424.00000,  -0.00152,   0.00006,  -0.00062,  32.00000,   2.00000
-423533623.28632,91788483.95772,-1691287.83427,  -0.00363,   0.00130,  -0.00064,476939552.00000,   0.00137,276131136.00000,  -0.00153,   0.00006,  -0.00062,  96.00000,   2.00000
-421867093.02758,94371237.53371,-1399888.39302,  -0.00363,   0.00131,  -0.00063,476938080.00000,   0.00138,276134816.00000,  -0.00153,   0.00006,  -0.00062, -64.00000,   2.00000
-420183737.73854,96961999.26716,-1109565.26800,  -0.00363,   0.00132,  -0.00063,476936480.00000,   0.00138,276138496.00000,  -0.00153,   0.00006,  -0.00062,  64.00000,   2.00000
-418483313.78812,99560861.99801,-820274.22946,  -0.00363,   0.00133,  -0.00063,476935040.00000,   0.00138,276142112.00000,  -0.00154,   0.00006,  -0.00062, -64.00000,   2.00000
-416790938.42699,102131037.80244,-531909.73984,  -0.00363,   0.00134,  -0.00062,476944352.00000,   0.00139,276145792.00000,  -0.00154,   0.00007,  -0.00062,  64.00000,   2.00000
-415067073.35685,104731852.86117,-237638.78911,  -0.00364,   0.00135,  -0.00062,476948064.00000,   0.00139,276149472.00000,  -0.00154,   0.00007,  -0.00062,  32.00000,   2.00000
-413336510.74855,107326108.89808,49021.87134,  -0.00364,   0.00137,  -0.00062,476963136.00000,   0.00139,276153184.00000,  -0.00155,   0.00007,  -0.00062, -64.00000,   2.00000
-411604061.67501,109906425.58061,334925.35251,  -0.00364,   0.00138,  -0.00061,476956032.00000,   0.00140,276156864.00000,  -0.00155,   0.00007,  -0.00062,   0.00000,   2.00000
-409854869.77725,112494983.83017,620142.58222,  -0.00364,   0.00139,  -0.00061,476954688.00000,   0.00140,276160512.00000,  -0.00155,   0.00008,  -0.00062,  64.00000,   2.00000
-408073474.68588,115113599.94336,904714.84464,  -0.00364,   0.00140,  -0.00060,476959968.00000,   0.00140,276164160.00000,  -0.00156,   0.00008,  -0.00062,  32.00000,   2.00000
-406300170.35823,117702892.60605,1188661.47998,  -0.00364,   0.00141,  -0.00060,476970112.00000,   0.00141,276167840.00000,  -0.00156,   0.00008,  -0.00062, -32.00000,   2.00000
-404509318.87662,120299851.66823,1472025.39519,  -0.00364,   0.00142,  -0.00060,476969952.00000,   0.00141,276171520.00000,  -0.00156,   0.00008,  -0.00062, -96.00000,   2.00000
-402700741.86581,122904355.25048,1754819.70096,  -0.00364,   0.00143,  -0.00059,476970240.00000,   0.00141,276175168.00000,  -0.00157,   0.00009,  -0.00062,  96.00000,   2.00000
-400889285.02728,125494402.15207,2043869.20866,  -0.00364,   0.00144,  -0.00059,476964672.00000,   0.00142,276178784.00000,  -0.00157,   0.00009,  -0.00062,   0.00000,   2.00000
-399055192.78709,128098219.38817,2325426.57468,  -0.00364,   0.00145,  -0.00059,476987840.00000,   0.00142,276182496.00000,  -0.00157,   0.00009,  -0.00062,-128.00000,   2.00000
-397218324.35522,130687596.58680,2606439.84736,  -0.00364,   0.00146,  -0.00058,476982144.00000,   0.00142,276186144.00000,  -0.00158,   0.00009,  -0.00062,   0.00000,   2.00000
-395358692.57316,133290315.55303,2886713.74820,  -0.00364,   0.00147,  -0.00058,477005856.00000,   0.00143,276189888.00000,  -0.00158,   0.00010,  -0.00062,  64.00000,   2.00000
-393484784.58683,135894015.84714,3166561.47184,  -0.00364,   0.00148,  -0.00057,476984448.00000,   0.00143,276193504.00000,  -0.00158,   0.00010,  -0.00062,  32.00000,   2.00000
-391614826.55192,138473651.60828,3445571.27431,  -0.00364,   0.00149,  -0.00057,477017440.00000,   0.00143,276197280.00000,  -0.00159,   0.00010,  -0.00062, -32.00000,   2.00000
-389714857.95654,141075938.73511,3724150.41861,  -0.00364,   0.00150,  -0.00057,477002784.00000,   0.00144,276200960.00000,  -0.00159,   0.00010,  -0.00062, -64.00000,   2.00000
-387807652.43694,143669545.23443,4002042.88212,  -0.00364,   0.00152,  -0.00056,477019872.00000,   0.00144,276204736.00000,  -0.00159,   0.00011,  -0.00062, -32.00000,   2.00000
-385897363.17341,146248866.89768,4286300.00348,  -0.00364,   0.00153,  -0.00056,477014144.00000,   0.00144,276208416.00000,  -0.00160,   0.00011,  -0.00062, 192.00000,   2.00000
-383952573.20705,148856514.44754,4563228.57812,  -0.00364,   0.00154,  -0.00056,477022272.00000,   0.00145,276212160.00000,  -0.00160,   0.00011,  -0.00062,  64.00000,   2.00000
-382016697.20593,151434310.41017,4839672.16449,  -0.00364,   0.00155,  -0.00055,477031392.00000,   0.00145,276215904.00000,  -0.00160,   0.00011,  -0.00062, -96.00000,   2.00000
-380062430.86088,154019540.63785,5115790.11779,  -0.00364,   0.00156,  -0.00055,477032064.00000,   0.00145,276219680.00000,  -0.00161,   0.00012,  -0.00062, -32.00000,   2.00000
-378089580.66491,156612250.18633,5391642.69707,  -0.00364,   0.00157,  -0.00054,477032672.00000,   0.00146,276223392.00000,  -0.00161,   0.00012,  -0.00061,  96.00000,   2.00000
-376110547.81413,159196691.88570,5667097.46546,  -0.00364,   0.00158,  -0.00054,477048352.00000,   0.00146,276227200.00000,  -0.00161,   0.00012,  -0.00061,  96.00000,   2.00000
-374116857.03263,161784195.09988,5942693.66875,  -0.00364,   0.00159,  -0.00054,477025472.00000,   0.00146,276230848.00000,  -0.00162,   0.00012,  -0.00061, -32.00000,   2.00000
-372130051.32398,164347891.71884,6217790.67335,  -0.00364,   0.00160,  -0.00053,477055488.00000,   0.00147,276234656.00000,  -0.00162,   0.00013,  -0.00061,   0.00000,   2.00000
-370096561.98818,166956689.42772,6492911.79561,  -0.00363,   0.00161,  -0.00053,477048032.00000,   0.00147,276238400.00000,  -0.00163,   0.00013,  -0.00061,   0.00000,   2.00000
-368089782.42901,169516395.62008,6774784.62982,  -0.00363,   0.00162,  -0.00053,477047040.00000,   0.00148,276242112.00000,  -0.00163,   0.00013,  -0.00061,   0.00000,   2.00000
-366061885.35502,172089171.44204,7049503.48482,  -0.00363,   0.00163,  -0.00052,477069280.00000,   0.00148,276245920.00000,  -0.00163,   0.00013,  -0.00061,-128.00000,   2.00000
-364003231.04356,174686565.65268,7324382.23900,  -0.00363,   0.00164,  -0.00052,477054368.00000,   0.00148,276249632.00000,  -0.00164,   0.00014,  -0.00061,   0.00000,   2.00000
-361955474.11072,177255446.12511,7599103.72675,  -0.00363,   0.00165,  -0.00052,477061568.00000,   0.00149,276253376.00000,  -0.00164,   0.00014,  -0.00061,   0.00000,   2.00000
-359889359.13738,179832300.57057,7873731.93020,  -0.00363,   0.00166,  -0.00051,477062432.00000,   0.00149,276257088.00000,  -0.00164,   0.00014,  -0.00061,  64.00000,   2.00000
-357817685.70202,182400363.62996,8148014.03737,  -0.00363,   0.00167,  -0.00051,477078944.00000,   0.00149,276260864.00000,  -0.00165,   0.00014,  -0.00061,  32.00000,   2.00000
-355726826.51896,184975360.01566,8428900.05693,  -0.00363,   0.00168,  -0.00050,477081824.00000,   0.00150,276264640.00000,  -0.00165,   0.00015,  -0.00061, -64.00000,   2.00000
-353633132.20338,187536901.69169,8702862.33636,  -0.00363,   0.00169,  -0.00050,477076512.00000,   0.00150,276268384.00000,  -0.00165,   0.00015,  -0.00061,  32.00000,   2.00000
-351533190.33862,190088109.80972,8976291.88706,  -0.00363,   0.00170,  -0.00050,477095520.00000,   0.00150,276272160.00000,  -0.00166,   0.00015,  -0.00061,   0.00000,   2.00000
-349413205.98345,192644933.67440,9249336.70700,  -0.00362,   0.00171,  -0.00049,477100672.00000,   0.00151,276275968.00000,  -0.00166,   0.00016,  -0.00061,   0.00000,   2.00000
-347272729.53812,195206881.57383,9521922.37119,  -0.00362,   0.00172,  -0.00049,477107136.00000,   0.00151,276279744.00000,  -0.00166,   0.00016,  -0.00061, -32.00000,   2.00000
-345141855.59034,197737337.19238,9800692.35055,  -0.00362,   0.00173,  -0.00049,477119296.00000,   0.00151,276283584.00000,  -0.00167,   0.00016,  -0.00061,  32.00000,   2.00000
-342973930.40658,200292357.64479,10071905.00503,  -0.00362,   0.00174,  -0.00048,477135488.00000,   0.00152,276287456.00000,  -0.00167,   0.00016,  -0.00061,  64.00000,   2.00000
-340815776.60286,202815834.56170,10342366.00940,  -0.00362,   0.00175,  -0.00048,477147872.00000,   0.00152,276291392.00000,  -0.00167,   0.00017,  -0.00061,-128.00000,   2.00000
-338639289.27746,205341667.24130,10612564.50839,  -0.00362,   0.00176,  -0.00047,477131264.00000,   0.00152,276295200.00000,  -0.00168,   0.00017,  -0.00061,   0.00000,   2.00000
-336453993.19445,207858510.76288,10888047.45735,  -0.00361,   0.00177,  -0.00047,477176704.00000,   0.00153,276299168.00000,  -0.00168,   0.00017,  -0.00061,  32.00000,   2.00000
-334250480.60671,210378606.78488,11156389.42226,  -0.00361,   0.00178,  -0.00047,477159232.00000,   0.00153,276303072.00000,  -0.00168,   0.00018,  -0.00061,   0.00000,   2.00000
-332041290.55202,212887969.57024,11423547.46033,  -0.00361,   0.00179,  -0.00046,477179328.00000,   0.00154,276307008.00000,  -0.00169,   0.00018,  -0.00061,  96.00000,   2.00000
-329828009.34923,215383800.43829,11696717.30986,  -0.00361,   0.00180,  -0.00046,477175968.00000,   0.00154,276310944.00000,  -0.00169,   0.00018,  -0.00061,  64.00000,   2.00000
-327592709.33404,217886793.92808,11961320.53750,  -0.00361,   0.00181,  -0.00046,477206816.00000,   0.00154,276314944.00000,  -0.00169,   0.00018,  -0.00061,  64.00000,   2.00000
-325352631.51876,220373998.65299,12224798.97717,  -0.00361,   0.00182,  -0.00045,477206144.00000,   0.00155,276318944.00000,  -0.00170,   0.00019,  -0.00061,  64.00000,   2.00000
-323107143.24145,222851303.83014,12494809.55692,  -0.00360,   0.00183,  -0.00045,477202304.00000,   0.00155,276322912.00000,  -0.00170,   0.00019,  -0.00061, -64.00000,   2.00000
-320846583.18377,225362860.53921,12759641.09897,  -0.00360,   0.00184,  -0.00044,477207488.00000,   0.00155,276326816.00000,  -0.00170,   0.00019,  -0.00061, 128.00000,   2.00000
-318602704.21639,227892013.01372,13034164.93755,  -0.00360,   0.00185,  -0.00044,477161248.00000,   0.00156,276330496.00000,  -0.00171,   0.00020,  -0.00061,  96.00000,   2.00000
-316359847.76473,230401845.61154,13300105.94366,  -0.00360,   0.00186,  -0.00044,477181472.00000,   0.00156,276334272.00000,  -0.00171,   0.00020,  -0.00061,  32.00000,   2.00000
-314096415.32773,232861473.40507,13568693.31725,  -0.00360,   0.00187,  -0.00043,477222656.00000,   0.00156,276338176.00000,  -0.00171,   0.00020,  -0.00061,  32.00000,   2.00000
-311795480.09625,235298331.01025,13826448.17293,  -0.00359,   0.00188,  -0.00043,477266976.00000,   0.00157,276342304.00000,  -0.00172,   0.00021,  -0.00061, 128.00000,   2.00000
-309481610.74383,237714530.60035,14088148.84089,  -0.00359,   0.00189,  -0.00043,477299520.00000,   0.00157,276346560.00000,  -0.00172,   0.00021,  -0.00061,   0.00000,   2.00000
-307146917.33614,240140773.63862,14341925.20306,  -0.00359,   0.00190,  -0.00042,477299168.00000,   0.00158,276350784.00000,  -0.00172,   0.00021,  -0.00061,  32.00000,   2.00000
-304827092.71551,242546529.67283,14601933.59664,  -0.00359,   0.00191,  -0.00042,477294208.00000,   0.00158,276355008.00000,  -0.00173,   0.00022,  -0.00061,-128.00000,   2.00000
-302490417.84788,244967692.42469,14861716.83576,  -0.00358,   0.00192,  -0.00041,477285152.00000,   0.00158,276359168.00000,  -0.00173,   0.00022,  -0.00061,  32.00000,   2.00000
-300154099.11342,247385812.13691,15115031.15162,  -0.00358,   0.00193,  -0.00041,477265184.00000,   0.00159,276363200.00000,  -0.00173,   0.00022,  -0.00061,  64.00000,   2.00000
-297799141.36612,249817511.17659,15374167.84533,  -0.00358,   0.00194,  -0.00041,477283456.00000,   0.00159,276367360.00000,  -0.00174,   0.00023,  -0.00061, -64.00000,   2.00000
-295460118.32401,252225596.71194,15634154.72765,  -0.00358,   0.00195,  -0.00040,477255616.00000,   0.00160,276371360.00000,  -0.00174,   0.00023,  -0.00061, 160.00000,   2.00000
-293102053.52899,254645380.03794,15893278.69221,  -0.00357,   0.00196,  -0.00040,477275520.00000,   0.00160,276375424.00000,  -0.00174,   0.00023,  -0.00061,  96.00000,   2.00000
-290742596.76143,257057970.14889,16146168.42458,  -0.00357,   0.00197,  -0.00039,477260128.00000,   0.00160,276379424.00000,  -0.00175,   0.00023,  -0.00060,   0.00000,   2.00000
-288363817.57200,259479746.70510,16405993.00223,  -0.00357,   0.00198,  -0.00039,477258336.00000,   0.00161,276383424.00000,  -0.00175,   0.00024,  -0.00060, -32.00000,   2.00000
-285999242.68470,261875900.83237,16665955.47579,  -0.00356,   0.00199,  -0.00039,477257600.00000,   0.00161,276387424.00000,  -0.00175,   0.00024,  -0.00060,  32.00000,   2.00000
-283615309.27970,264280565.41036,16926106.04002,  -0.00356,   0.00200,  -0.00038,477256512.00000,   0.00161,276391392.00000,  -0.00176,   0.00024,  -0.00060, -32.00000,   2.00000
-281228606.73182,266676365.13195,17185961.96636,  -0.00356,   0.00201,  -0.00038,477268256.00000,   0.00162,276395424.00000,  -0.00176,   0.00025,  -0.00060, -64.00000,   2.00000
-278839274.61923,269062760.45891,17446389.62782,  -0.00356,   0.00202,  -0.00038,477256928.00000,   0.00162,276399360.00000,  -0.00176,   0.00025,  -0.00060,  32.00000,   2.00000
-276447167.77413,271439933.72884,17706418.78415,  -0.00355,   0.00203,  -0.00037,477269856.00000,   0.00163,276403392.00000,  -0.00177,   0.00025,  -0.00060, -32.00000,   2.00000
-274051728.87730,273807241.71119,17973625.01052,  -0.00355,   0.00204,  -0.00037,477260640.00000,   0.00163,276407328.00000,  -0.00177,   0.00026,  -0.00060, 128.00000,   2.00000
-271636912.74679,276182910.09256,18233911.47317,  -0.00355,   0.00205,  -0.00036,477261696.00000,   0.00163,276411264.00000,  -0.00177,   0.00026,  -0.00060, 128.00000,   2.00000
-269219456.65681,278549782.37401,18493473.76538,  -0.00354,   0.00206,  -0.00036,477275872.00000,   0.00164,276415264.00000,  -0.00177,   0.00026,  -0.00060,  64.00000,   2.00000
-266799050.49890,280908335.10237,18753102.14190,  -0.00354,   0.00206,  -0.00036,477266784.00000,   0.00164,276419168.00000,  -0.00178,   0.00027,  -0.00060,  32.00000,   2.00000
-264375775.78707,283258567.27865,19018504.71443,  -0.00354,   0.00207,  -0.00035,477281728.00000,   0.00164,276423136.00000,  -0.00178,   0.00027,  -0.00060,  64.00000,   2.00000
-261933141.84062,285618778.66177,19276472.12979,  -0.00353,   0.00208,  -0.00035,477283808.00000,   0.00165,276427104.00000,  -0.00178,   0.00027,  -0.00060, -32.00000,   2.00000
-259504672.69530,287954872.30805,19540460.16276,  -0.00353,   0.00209,  -0.00035,477286496.00000,   0.00165,276431008.00000,  -0.00179,   0.00028,  -0.00060, -64.00000,   2.00000
-257073858.64335,290285319.02844,19797353.82534,  -0.00353,   0.00210,  -0.00034,477275808.00000,   0.00166,276434880.00000,  -0.00179,   0.00028,  -0.00060,  96.00000,   2.00000
-254640330.84825,292608813.28419,20059565.51946,  -0.00352,   0.00211,  -0.00034,477290400.00000,   0.00166,276438784.00000,  -0.00179,   0.00028,  -0.00060, -64.00000,   2.00000
-252187019.83986,294942908.52064,20320760.90027,  -0.00352,   0.00212,  -0.00033,477292608.00000,   0.00166,276442656.00000,  -0.00180,   0.00029,  -0.00060,  32.00000,   2.00000
-249731045.92696,297271354.56656,20574714.51042,  -0.00352,   0.00213,  -0.00033,477281632.00000,   0.00167,276446464.00000,  -0.00180,   0.00029,  -0.00060, -96.00000,   2.00000
-247272280.45769,299592293.02095,20833790.28156,  -0.00351,   0.00214,  -0.00033,477296480.00000,   0.00167,276450304.00000,  -0.00180,   0.00029,  -0.00060,   0.00000,   2.00000
-244810940.58520,301905475.79173,21091159.18558,  -0.00351,   0.00215,  -0.00032,477310624.00000,   0.00167,276454208.00000,  -0.00181,   0.00030,  -0.00060,  64.00000,   2.00000
-242363016.81381,304194987.24133,21348705.26140,  -0.00350,   0.00216,  -0.00032,477288416.00000,   0.00168,276457984.00000,  -0.00181,   0.00030,  -0.00060, 128.00000,   2.00000
-239877377.23152,306508452.83398,21604466.51174,  -0.00350,   0.00216,  -0.00031,477304992.00000,   0.00168,276461792.00000,  -0.00181,   0.00030,  -0.00060,  64.00000,   2.00000
-237405710.81426,308796082.96206,21859252.36813,  -0.00350,   0.00217,  -0.00031,477307360.00000,   0.00168,276465600.00000,  -0.00181,   0.00030,  -0.00059,  32.00000,   2.00000
-234948080.95819,311057624.98948,22113177.50803,  -0.00349,   0.00218,  -0.00031,477309568.00000,   0.00169,276469440.00000,  -0.00182,   0.00031,  -0.00059,  32.00000,   2.00000
-232468736.82619,313324781.28429,22372977.45297,  -0.00349,   0.00219,  -0.00030,477315232.00000,   0.00169,276473248.00000,  -0.00182,   0.00031,  -0.00059, -32.00000,   2.00000
-229968787.48943,315598807.14590,22625324.49381,  -0.00349,   0.00220,  -0.00030,477318432.00000,   0.00169,276477088.00000,  -0.00182,   0.00031,  -0.00059, -96.00000,   2.00000
-227482343.10110,317846090.43419,22884025.96333,  -0.00348,   0.00221,  -0.00029,477321344.00000,   0.00170,276480896.00000,  -0.00183,   0.00032,  -0.00059,   0.00000,   2.00000
-224975564.91655,320101448.90479,23135701.45119,  -0.00348,   0.00222,  -0.00029,477323168.00000,   0.00170,276484704.00000,  -0.00183,   0.00032,  -0.00059,  64.00000,   2.00000
-222482871.49140,322332222.71870,23394199.13837,  -0.00347,   0.00222,  -0.00029,477323584.00000,   0.00171,276488512.00000,  -0.00183,   0.00032,  -0.00059,   0.00000,   2.00000
-220006078.50908,324541292.93130,23646217.44901,  -0.00347,   0.00223,  -0.00028,477320384.00000,   0.00171,276492288.00000,  -0.00184,   0.00033,  -0.00059,  64.00000,   2.00000
-217509184.21551,326758111.05768,23904807.91767,  -0.00347,   0.00224,  -0.00028,477323584.00000,   0.00171,276496064.00000,  -0.00184,   0.00033,  -0.00059, -32.00000,   2.00000
-214993618.15650,328971576.34919,24161565.63589,  -0.00346,   0.00225,  -0.00027,477336864.00000,   0.00172,276499872.00000,  -0.00184,   0.00033,  -0.00059,  64.00000,   2.00000
-212484580.45487,331124475.07828,24415329.35164,  -0.00346,   0.00226,  -0.00027,477374848.00000,   0.00172,276503840.00000,  -0.00184,   0.00034,  -0.00059,  96.00000,   2.00000
-209938377.98656,333335052.69904,24687152.34940,  -0.00345,   0.00227,  -0.00027,477305600.00000,   0.00172,276507616.00000,  -0.00185,   0.00034,  -0.00059, -96.00000,   2.00000
-207472556.79470,335607454.90221,24961270.50408,  -0.00345,   0.00227,  -0.00026,477189376.00000,   0.00173,276510816.00000,  -0.00185,   0.00034,  -0.00059, -32.00000,   2.00000
-204976598.89809,337784455.94416,25230840.70073,  -0.00344,   0.00228,  -0.00026,477310848.00000,   0.00173,276514496.00000,  -0.00185,   0.00035,  -0.00059, -32.00000,   2.00000
-202460092.37050,339913121.81898,25490040.93550,  -0.00344,   0.00229,  -0.00025,477353696.00000,   0.00173,276518400.00000,  -0.00186,   0.00035,  -0.00059,  96.00000,   2.00000
-199954520.34897,342000055.28453,25747601.59809,  -0.00343,   0.00230,  -0.00025,477374144.00000,   0.00174,276522336.00000,  -0.00186,   0.00035,  -0.00059,  32.00000,   2.00000
-197425524.04208,344080359.08878,26010538.64013,  -0.00343,   0.00231,  -0.00025,477394080.00000,   0.00174,276526368.00000,  -0.00186,   0.00036,  -0.00058,  96.00000,   2.00000
-194890347.24155,346144076.93470,26273404.37368,  -0.00343,   0.00231,  -0.00024,477396000.00000,   0.00174,276530368.00000,  -0.00186,   0.00036,  -0.00058, 128.00000,   2.00000
-192372896.10826,348176439.58037,26534927.03334,  -0.00342,   0.00232,  -0.00024,477425120.00000,   0.00175,276534464.00000,  -0.00187,   0.00036,  -0.00058, -96.00000,   2.00000
-189830537.01430,350218471.94986,26791343.14701,  -0.00342,   0.00233,  -0.00023,477407744.00000,   0.00175,276538496.00000,  -0.00187,   0.00037,  -0.00058,   0.00000,   2.00000
-187306813.44238,352236513.33452,27054076.07128,  -0.00341,   0.00234,  -0.00023,477428832.00000,   0.00176,276542592.00000,  -0.00187,   0.00037,  -0.00058, -32.00000,   2.00000
-184778195.78557,354251181.61273,27324895.67419,  -0.00341,   0.00235,  -0.00023,477416288.00000,   0.00176,276546592.00000,  -0.00188,   0.00037,  -0.00058,  96.00000,   2.00000
-182246012.78392,356263834.07721,27589952.52254,  -0.00340,   0.00235,  -0.00022,477401280.00000,   0.00176,276550528.00000,  -0.00188,   0.00038,  -0.00058, 160.00000,   2.00000
-179713472.93832,358268142.87276,27854030.65785,  -0.00340,   0.00236,  -0.00022,477412768.00000,   0.00177,276554464.00000,  -0.00188,   0.00038,  -0.00058,-160.00000,   2.00000
-177176078.97127,360263475.41319,28124528.21153,  -0.00339,   0.00237,  -0.00021,477405472.00000,   0.00177,276558368.00000,  -0.00188,   0.00038,  -0.00058,  64.00000,   2.00000
-174658796.58763,362228603.56158,28385449.50964,  -0.00339,   0.00238,  -0.00021,477431104.00000,   0.00177,276562400.00000,  -0.00189,   0.00039,  -0.00058,-160.00000,   2.00000
-172115298.77756,364194721.37575,28652122.36461,  -0.00338,   0.00238,  -0.00021,477422720.00000,   0.00178,276566336.00000,  -0.00189,   0.00039,  -0.00058, 192.00000,   2.00000
-169570698.06720,366141064.05908,28915507.96150,  -0.00338,   0.00239,  -0.00020,477446752.00000,   0.00178,276570368.00000,  -0.00189,   0.00040,  -0.00058,  96.00000,   2.00000
-167041084.08296,368054139.79301,29176439.50631,  -0.00337,   0.00240,  -0.00020,477456960.00000,   0.00179,276574432.00000,  -0.00190,   0.00040,  -0.00058, -32.00000,   2.00000
-164526534.15284,369934477.00743,29435027.34027,  -0.00337,   0.00241,  -0.00019,477466816.00000,   0.00179,276578528.00000,  -0.00190,   0.00040,  -0.00058, -32.00000,   2.00000
-161990310.06617,371811474.80591,29690972.49847,  -0.00336,   0.00241,  -0.00019,477483360.00000,   0.00179,276582656.00000,  -0.00190,   0.00041,  -0.00058,  64.00000,   2.00000
-159447570.74155,373673217.34500,29952412.00098,  -0.00336,   0.00242,  -0.00019,477484736.00000,   0.00180,276586752.00000,  -0.00190,   0.00041,  -0.00057,  96.00000,   2.00000
-156941731.10077,375492916.26380,30205412.67922,  -0.00335,   0.00243,  -0.00018,477495200.00000,   0.00180,276590880.00000,  -0.00191,   0.00041,  -0.00057,  64.00000,   2.00000
-154392371.55687,377329952.12467,30464339.28913,  -0.00335,   0.00244,  -0.00018,477499680.00000,   0.00180,276595040.00000,  -0.00191,   0.00042,  -0.00057, 128.00000,   2.00000
-151879614.96424,379129175.42207,30722612.27568,  -0.00334,   0.00244,  -0.00017,477505920.00000,   0.00181,276599168.00000,  -0.00191,   0.00042,  -0.00057, -96.00000,   2.00000
-149345157.07653,380936018.75748,30980628.46104,  -0.00334,   0.00245,  -0.00017,477510720.00000,   0.00181,276603328.00000,  -0.00191,   0.00043,  -0.00057, -32.00000,   2.00000
-146804610.93221,382740741.90608,31240012.20631,  -0.00333,   0.00246,  -0.00016,477497696.00000,   0.00182,276607392.00000,  -0.00192,   0.00043,  -0.00057, -96.00000,   2.00000
-144279535.96459,384529439.95731,31500585.71634,  -0.00333,   0.00246,  -0.00016,477489600.00000,   0.00182,276611392.00000,  -0.00192,   0.00043,  -0.00057, -32.00000,   2.00000
-141769555.14456,386301902.06088,31769250.54332,  -0.00332,   0.00247,  -0.00016,477481792.00000,   0.00182,276615360.00000,  -0.00192,   0.00044,  -0.00057,-160.00000,   2.00000
-139260382.71961,388072398.67831,32031570.19948,  -0.00332,   0.00248,  -0.00015,477486240.00000,   0.00183,276619328.00000,  -0.00193,   0.00044,  -0.00057,  64.00000,   2.00000
-136729567.64443,389853284.22549,32301395.69572,  -0.00331,   0.00248,  -0.00015,477487360.00000,   0.00183,276623296.00000,  -0.00193,   0.00044,  -0.00057, 192.00000,   2.00000
-134208654.99477,391621372.32029,32574168.06123,  -0.00331,   0.00249,  -0.00014,477456736.00000,   0.00183,276627072.00000,  -0.00193,   0.00045,  -0.00057,  32.00000,   2.00000
-131710037.73442,393367495.35060,32846426.19958,  -0.00330,   0.00250,  -0.00014,477472224.00000,   0.00184,276630944.00000,  -0.00193,   0.00045,  -0.00057, 128.00000,   2.00000
-129205927.73678,395108994.69165,33119993.44240,  -0.00329,   0.00250,  -0.00013,477460896.00000,   0.00184,276634720.00000,  -0.00194,   0.00045,  -0.00056,   0.00000,   2.00000
-126680483.68019,396854119.14355,33400141.67655,  -0.00329,   0.00251,  -0.00013,477468960.00000,   0.00185,276638528.00000,  -0.00194,   0.00046,  -0.00056,-160.00000,   2.00000
-124171632.40513,398576753.69104,33673869.03475,  -0.00328,   0.00252,  -0.00013,477466912.00000,   0.00185,276642304.00000,  -0.00194,   0.00046,  -0.00056, -64.00000,   2.00000
-121678435.81839,400273562.75856,33954361.16054,  -0.00328,   0.00252,  -0.00012,477469280.00000,   0.00185,276646080.00000,  -0.00194,   0.00046,  -0.00056, 160.00000,   2.00000
-119186074.48084,401955638.67824,34233571.53054,  -0.00327,   0.00253,  -0.00012,477487296.00000,   0.00186,276649920.00000,  -0.00195,   0.00047,  -0.00056, 128.00000,   2.00000
-116702770.00424,403616484.27407,34514193.17978,  -0.00327,   0.00254,  -0.00011,477467328.00000,   0.00186,276653632.00000,  -0.00195,   0.00047,  -0.00056,  64.00000,   2.00000
-114205228.96680,405273066.63483,34792178.96598,  -0.00326,   0.00254,  -0.00011,477501728.00000,   0.00186,276657472.00000,  -0.00195,   0.00048,  -0.00056, -32.00000,   2.00000
-111715897.17563,406908485.05541,35078259.53132,  -0.00325,   0.00255,  -0.00010,477482624.00000,   0.00187,276661216.00000,  -0.00195,   0.00048,  -0.00056,  32.00000,   2.00000
-109227664.75669,408531830.37178,35356235.00003,  -0.00325,   0.00255,  -0.00010,477498112.00000,   0.00187,276664992.00000,  -0.00196,   0.00048,  -0.00056,  96.00000,   2.00000
-106754518.29807,410131622.36072,35640784.96887,  -0.00324,   0.00256,  -0.00009,477498880.00000,   0.00187,276668736.00000,  -0.00196,   0.00049,  -0.00056, 160.00000,   2.00000
-104274409.59202,411724864.53711,35925695.42892,  -0.00324,   0.00257,  -0.00009,477491232.00000,   0.00188,276672448.00000,  -0.00196,   0.00049,  -0.00056,   0.00000,   2.00000
-101831951.40234,413283503.42634,36210241.33946,  -0.00323,   0.00257,  -0.00008,477493344.00000,   0.00188,276676160.00000,  -0.00196,   0.00049,  -0.00056,  96.00000,   2.00000
-99345344.72678,414862281.06843,36494425.17882,  -0.00323,   0.00258,  -0.00008,477495040.00000,   0.00188,276679840.00000,  -0.00196,   0.00050,  -0.00055, 160.00000,   2.00000
-96895877.14982,416406273.72940,36784965.48293,  -0.00322,   0.00258,  -0.00008,477497024.00000,   0.00189,276683520.00000,  -0.00197,   0.00050,  -0.00055, -64.00000,   2.00000
-94439601.15959,417947960.99994,37069357.99326,  -0.00321,   0.00259,  -0.00007,477484544.00000,   0.00189,276687136.00000,  -0.00197,   0.00050,  -0.00055,  32.00000,   2.00000
-91983621.66018,419479922.59414,37359203.47680,  -0.00321,   0.00260,  -0.00007,477497088.00000,   0.00189,276690784.00000,  -0.00197,   0.00051,  -0.00055,  64.00000,   2.00000
-89520332.63311,421007775.70426,37649475.59269,  -0.00320,   0.00260,  -0.00006,477486624.00000,   0.00190,276694368.00000,  -0.00197,   0.00051,  -0.00055,  64.00000,   2.00000
-87094444.65824,422501110.91784,37945995.54678,  -0.00320,   0.00261,  -0.00006,477487680.00000,   0.00190,276697952.00000,  -0.00198,   0.00051,  -0.00055,   0.00000,   2.00000
-84639048.35020,424005400.30506,38236566.93929,  -0.00319,   0.00261,  -0.00005,477471008.00000,   0.00190,276701440.00000,  -0.00198,   0.00052,  -0.00055, -32.00000,   2.00000
-82206958.45756,425484111.92803,38531896.16361,  -0.00318,   0.00262,  -0.00005,477489632.00000,   0.00191,276704992.00000,  -0.00198,   0.00052,  -0.00055,  64.00000,   2.00000
-79781688.91690,426947346.50116,38828806.80429,  -0.00318,   0.00262,  -0.00004,477464160.00000,   0.00191,276708416.00000,  -0.00198,   0.00052,  -0.00055,   0.00000,   2.00000
-77357612.14782,428399734.17269,39124073.18068,  -0.00317,   0.00263,  -0.00004,477477056.00000,   0.00191,276711872.00000,  -0.00198,   0.00053,  -0.00055,   0.00000,   2.00000
-74948896.32065,429831563.52544,39419092.18281,  -0.00317,   0.00263,  -0.00003,477473632.00000,   0.00192,276715328.00000,  -0.00199,   0.00053,  -0.00055,  32.00000,   2.00000
-72541131.20021,431250331.30928,39719027.71489,  -0.00316,   0.00264,  -0.00003,477489120.00000,   0.00192,276718816.00000,  -0.00199,   0.00053,  -0.00055, -64.00000,   2.00000
-70140213.24915,432654962.69553,40013982.90833,  -0.00315,   0.00264,  -0.00002,477462944.00000,   0.00192,276722176.00000,  -0.00199,   0.00054,  -0.00054, 128.00000,   2.00000
-67740248.54670,434046394.33775,40313877.50414,  -0.00315,   0.00265,  -0.00002,477478688.00000,   0.00193,276725568.00000,  -0.00199,   0.00054,  -0.00054,   0.00000,   2.00000
-65332570.85305,435431388.27383,40614035.87262,  -0.00314,   0.00265,  -0.00001,477471200.00000,   0.00193,276728928.00000,  -0.00199,   0.00054,  -0.00054, -32.00000,   2.00000
-62948959.55939,436790129.69711,40918895.09259,  -0.00313,   0.00266,  -0.00001,477490720.00000,   0.00193,276732352.00000,  -0.00200,   0.00055,  -0.00054, 160.00000,   2.00000
-60571385.21056,438135861.46560,41219132.07840,  -0.00313,   0.00266,  -0.00001,477463808.00000,   0.00194,276735648.00000,  -0.00200,   0.00055,  -0.00054,  64.00000,   2.00000
-58194855.90617,439469918.42932,41524638.13919,  -0.00312,   0.00267,  -0.00000,477478496.00000,   0.00194,276738976.00000,  -0.00200,   0.00055,  -0.00054, -64.00000,   2.00000
-55823657.58107,440790625.77474,41832444.62332,  -0.00312,   0.00267,   0.00000,477452640.00000,   0.00194,276742176.00000,  -0.00200,   0.00056,  -0.00054,  64.00000,   2.00000
-53453779.03793,442101782.49540,42139076.91530,  -0.00311,   0.00268,   0.00001,477464864.00000,   0.00195,276745408.00000,  -0.00200,   0.00056,  -0.00054,  96.00000,   2.00000
-51098332.55951,443393599.43038,42452888.91336,  -0.00310,   0.00268,   0.00001,477461184.00000,   0.00195,276748640.00000,  -0.00201,   0.00056,  -0.00054,   0.00000,   2.00000
-48744355.10838,444676307.48148,42765708.07968,  -0.00310,   0.00268,   0.00002,477472928.00000,   0.00195,276751872.00000,  -0.00201,   0.00057,  -0.00054, -32.00000,   2.00000
-46418414.49139,445933331.64074,43080892.46032,  -0.00309,   0.00269,   0.00002,477449696.00000,   0.00195,276754976.00000,  -0.00201,   0.00057,  -0.00054,  32.00000,   2.00000
-44070867.52173,447194420.93884,43395527.48494,  -0.00308,   0.00269,   0.00003,477458176.00000,   0.00196,276758112.00000,  -0.00201,   0.00057,  -0.00054, 128.00000,   2.00000
-41738106.16387,448437437.82545,43710919.55322,  -0.00308,   0.00270,   0.00003,477452864.00000,   0.00196,276761216.00000,  -0.00201,   0.00058,  -0.00053,  32.00000,   2.00000
-39419918.62178,449660912.03442,44033736.09315,  -0.00307,   0.00270,   0.00004,477449184.00000,   0.00196,276764288.00000,  -0.00201,   0.00058,  -0.00053,  32.00000,   2.00000
-37116582.69313,450866158.20737,44357319.82443,  -0.00306,   0.00271,   0.00004,477444000.00000,   0.00197,276767296.00000,  -0.00202,   0.00058,  -0.00053, -96.00000,   2.00000
-34804733.52764,452065936.05756,44681934.32104,  -0.00306,   0.00271,   0.00005,477435872.00000,   0.00197,276770272.00000,  -0.00202,   0.00058,  -0.00053,  96.00000,   2.00000
-32494850.76259,453254698.39554,45005551.64907,  -0.00305,   0.00271,   0.00005,477448832.00000,   0.00197,276773280.00000,  -0.00202,   0.00059,  -0.00053,   0.00000,   2.00000
-30212143.12860,454415851.61792,45338154.52249,  -0.00304,   0.00272,   0.00006,477427808.00000,   0.00197,276776192.00000,  -0.00202,   0.00059,  -0.00053,  32.00000,   2.00000
-27931289.30664,455566278.26524,45669664.41907,  -0.00304,   0.00272,   0.00006,477440224.00000,   0.00198,276779136.00000,  -0.00202,   0.00059,  -0.00053, -96.00000,   2.00000
-25641399.25753,456711948.22897,46002047.44355,  -0.00303,   0.00272,   0.00007,477431520.00000,   0.00198,276782016.00000,  -0.00202,   0.00060,  -0.00053,   0.00000,   2.00000
-23389145.61310,457828248.54241,46334768.68904,  -0.00303,   0.00273,   0.00007,477427648.00000,   0.00198,276784864.00000,  -0.00203,   0.00060,  -0.00053, 224.00000,   2.00000
-21127043.88348,458939009.69293,46674888.37577,  -0.00302,   0.00273,   0.00008,477419904.00000,   0.00199,276787680.00000,  -0.00203,   0.00060,  -0.00053, -64.00000,   2.00000
-18878662.41313,460034711.05940,47015582.58787,  -0.00301,   0.00273,   0.00009,477411776.00000,   0.00199,276790432.00000,  -0.00203,   0.00060,  -0.00053,  64.00000,   2.00000
-16607938.82181,461135224.68258,47355267.72893,  -0.00301,   0.00274,   0.00009,477419040.00000,   0.00199,276793216.00000,  -0.00203,   0.00061,  -0.00053,   0.00000,   2.00000
-14386384.45449,462202311.75714,47697047.24743,  -0.00300,   0.00274,   0.00010,477394048.00000,   0.00199,276795872.00000,  -0.00203,   0.00061,  -0.00052,-128.00000,   2.00000
-12142087.46924,463273406.33418,48044377.45097,  -0.00299,   0.00274,   0.00010,477402464.00000,   0.00200,276798528.00000,  -0.00203,   0.00061,  -0.00052,   0.00000,   2.00000
-9923120.95806,464323945.56521,48394033.37792,  -0.00299,   0.00275,   0.00011,477375008.00000,   0.00200,276801088.00000,  -0.00203,   0.00062,  -0.00052, -96.00000,   2.00000
-7705175.23780,465367888.42115,48742316.72940,  -0.00298,   0.00275,   0.00011,477383648.00000,   0.00200,276803648.00000,  -0.00204,   0.00062,  -0.00052,  64.00000,   2.00000
-5500196.45094,466396157.32540,49097646.62738,  -0.00297,   0.00275,   0.00012,477376576.00000,   0.00200,276806176.00000,  -0.00204,   0.00062,  -0.00052,  32.00000,   2.00000
-3308618.02989,467412276.59508,49446847.54497,  -0.00297,   0.00276,   0.00012,477365760.00000,   0.00201,276808640.00000,  -0.00204,   0.00062,  -0.00052, 128.00000,   2.00000
-1106423.22424,468423795.52778,49803264.77866,  -0.00296,   0.00276,   0.00013,477357504.00000,   0.00201,276811072.00000,  -0.00204,   0.00063,  -0.00052, -32.00000,   2.00000
1082714.44425,469418321.72427,50166690.44125,  -0.00295,   0.00276,   0.00013,477351648.00000,   0.00201,276813440.00000,  -0.00204,   0.00063,  -0.00052,  32.00000,   2.00000
3258399.99882,470399557.64573,50524010.37614,  -0.00294,   0.00276,   0.00014,477341920.00000,   0.00201,276815776.00000,  -0.00204,   0.00063,  -0.00052, -64.00000,   2.00000
5432724.24915,471369645.55343,50886340.64948,  -0.00294,   0.00277,   0.00014,477354912.00000,   0.00201,276818144.00000,  -0.00204,   0.00063,  -0.00052,   0.00000,   2.00000
7582102.03827,472317527.71320,51251236.92188,  -0.00293,   0.00277,   0.00015,477329280.00000,   0.00202,276820384.00000,  -0.00204,   0.00063,  -0.00052,  32.00000,   2.00000
9718456.24650,473247663.07521,51623262.29765,  -0.00292,   0.00277,   0.00016,477324128.00000,   0.00202,276822592.00000,  -0.00205,   0.00064,  -0.00052,  96.00000,   2.00000
11876710.18868,474181930.68512,51987395.81783,  -0.00292,   0.00277,   0.00016,477331648.00000,   0.00202,276824832.00000,  -0.00205,   0.00064,  -0.00052,  96.00000,   2.00000
14021984.31202,475098140.32526,52358685.34123,  -0.00291,   0.00278,   0.00017,477326592.00000,   0.00202,276827008.00000,  -0.00205,   0.00064,  -0.00051, 192.00000,   2.00000
16119175.81816,475981205.79032,52732645.82878,  -0.00290,   0.00278,   0.00017,477301792.00000,   0.00202,276829088.00000,  -0.00205,   0.00064,  -0.00051,  64.00000,   2.00000
18238575.04525,476864294.02285,53111852.94498,  -0.00290,   0.00278,   0.00018,477313696.00000,   0.00203,276831200.00000,  -0.00205,   0.00065,  -0.00051,  96.00000,   2.00000
20368788.13598,477743005.62814,53491889.17602,  -0.00289,   0.00278,   0.00018,477305056.00000,   0.00203,276833280.00000,  -0.00205,   0.00065,  -0.00051,  32.00000,   2.00000
22462234.91768,478594729.87523,53872524.32552,  -0.00288,   0.00278,   0.00019,477298592.00000,   0.00203,276835296.00000,  -0.00205,   0.00065,  -0.00051,  96.00000,   2.00000
24531439.33466,479423808.92467,54256063.85802,  -0.00288,   0.00279,   0.00019,477273312.00000,   0.00203,276837216.00000,  -0.00205,   0.00065,  -0.00051, -32.00000,   2.00000
26621348.43484,480248365.58673,54644546.93338,  -0.00287,   0.00279,   0.00020,477289056.00000,   0.00203,276839168.00000,  -0.00205,   0.00065,  -0.00051, -32.00000,   2.00000
28672161.36760,481038860.21646,55033197.08980,  -0.00286,   0.00279,   0.00021,477289632.00000,   0.00204,276841120.00000,  -0.00205,   0.00066,  -0.00051,  96.00000,   2.00000
30730382.03563,481811295.71024,55421617.75184,  -0.00285,   0.00279,   0.00021,477294656.00000,   0.00204,276843040.00000,  -0.00206,   0.00066,  -0.00051, -64.00000,   2.00000
32772803.52565,482551533.31059,55815951.34686,  -0.00285,   0.00279,   0.00022,477304352.00000,   0.00204,276845024.00000,  -0.00206,   0.00066,  -0.00051, -32.00000,   2.00000
34812758.01612,483274423.45217,56207723.81104,  -0.00284,   0.00279,   0.00022,477323936.00000,   0.00204,276847040.00000,  -0.00206,   0.00066,  -0.00051, -32.00000,   2.00000
36834382.72911,483984212.52813,56602800.90484,  -0.00283,   0.00279,   0.00023,477290528.00000,   0.00204,276848960.00000,  -0.00206,   0.00066,  -0.00051,  64.00000,   2.00000
38849207.82388,484697462.41175,57000250.45053,  -0.00283,   0.00280,   0.00023,477263936.00000,   0.00204,276850720.00000,  -0.00206,   0.00067,  -0.00051, -32.00000,   2.00000
40855855.39635,485413561.04689,57407151.87837,  -0.00282,   0.00280,   0.00024,477238048.00000,   0.00205,276852384.00000,  -0.00206,   0.00067,  -0.00051, -64.00000,   2.00000
42876039.75856,486138120.27201,57816510.04086,  -0.00281,   0.00280,   0.00025,477216384.00000,   0.00205,276853984.00000,  -0.00206,   0.00067,  -0.00050, -32.00000,   2.00000
44860798.45774,486840453.68967,58234012.83823,  -0.00281,   0.00280,   0.00025,477205024.00000,   0.00205,276855488.00000,  -0.00206,   0.00067,  -0.00050, -64.00000,   2.00000
46867400.97173,487546511.28931,58643726.83783,  -0.00280,   0.00280,   0.00026,477212512.00000,   0.00205,276857024.00000,  -0.00206,   0.00067,  -0.00050, -96.00000,   2.00000
48827986.44624,488218979.20311,59063321.92440,  -0.00279,   0.00280,   0.00026,477188736.00000,   0.00205,276858464.00000,  -0.00206,   0.00067,  -0.00050,   0.00000,   2.00000
50800549.07291,488883593.82557,59490315.66300,  -0.00278,   0.00280,   0.00027,477183872.00000,   0.00205,276859872.00000,  -0.00206,   0.00067,  -0.00050,   0.00000,   2.00000
52761644.46317,489536290.15791,59911898.78890,  -0.00278,   0.00280,   0.00028,477172768.00000,   0.00205,276861216.00000,  -0.00206,   0.00068,  -0.00050,   0.00000,   2.00000
54721223.05303,490178064.75049,60338587.53607,  -0.00277,   0.00280,   0.00028,477184736.00000,   0.00206,276862592.00000,  -0.00206,   0.00068,  -0.00050,  64.00000,   2.00000
56659943.48595,490799555.50065,60775524.08499,  -0.00276,   0.00280,   0.00029,477157984.00000,   0.00206,276863840.00000,  -0.00206,   0.00068,  -0.00050,  96.00000,   2.00000
58587881.01378,491411302.65999,61207320.03137,  -0.00276,   0.00280,   0.00030,477144512.00000,   0.00206,276865056.00000,  -0.00206,   0.00068,  -0.00050,   0.00000,   2.00000
60514589.31212,492013793.26204,61644388.60971,  -0.00275,   0.00280,   0.00030,477154624.00000,   0.00206,276866304.00000,  -0.00207,   0.00068,  -0.00050,  96.00000,   2.00000
62421077.17313,492599578.43360,62085467.35434,  -0.00274,   0.00280,   0.00031,477124224.00000,   0.00206,276867392.00000,  -0.00207,   0.00068,  -0.00050, 224.00000,   2.00000
64316882.01468,493171041.18453,62534425.90706,  -0.00274,   0.00280,   0.00031,477115328.00000,   0.00206,276868448.00000,  -0.00207,   0.00068,  -0.00050, -64.00000,   2.00000
66202153.91080,493730851.97891,62984856.32632,  -0.00273,   0.00280,   0.00032,477104000.00000,   0.00206,276869472.00000,  -0.00207,   0.00068,  -0.00050,  96.00000,   2.00000
68109989.26838,494292523.73491,63433886.55742,  -0.00272,   0.00280,   0.00033,477112832.00000,   0.00206,276870496.00000,  -0.00207,   0.00069,  -0.00050,   0.00000,   2.00000
69974108.99565,494824405.18861,63893492.56350,  -0.00271,   0.00280,   0.00033,477084384.00000,   0.00206,276871424.00000,  -0.00207,   0.00069,  -0.00050,-992.00000,   1.00000
71851782.72964,495356826.76657,64348128.92079,  -0.00271,   0.00280,   0.00034,477070880.00000,   0.00207,276872256.00000,  -0.00207,   0.00069,  -0.00050,-800.00000,   1.00000
73695052.27208,495862081.85845,64817181.98566,  -0.00270,   0.00280,   0.00035,477064608.00000,   0.00207,276873088.00000,  -0.00207,   0.00069,  -0.00050,-896.00000,   1.00000
75537265.67516,496362517.40543,65278553.78408,  -0.00269,   0.00280,   0.00035,477070016.00000,   0.00207,276873920.00000,  -0.00207,   0.00069,  -0.00050,-768.00000,   1.00000
77383888.46006,496852137.60471,65750437.01163,  -0.00269,   0.00280,   0.00036,477044064.00000,   0.00207,276874656.00000,  -0.00207,   0.00069,  -0.00050,-832.00000,   1.00000
79196752.71988,497320723.75445,66224069.00679,  -0.00268,   0.00280,   0.00036,477031648.00000,   0.00207,276875328.00000,  -0.00207,   0.00069,  -0.00050,-736.00000,   1.00000
81023192.81964,497783188.52299,66705460.66553,  -0.00267,   0.00280,   0.00037,477024672.00000,   0.00207,276875968.00000,  -0.00207,   0.00069,  -0.00050,-512.00000,   1.00000
82839783.83793,498233559.23738,67188450.85801,  -0.00266,   0.00280,   0.00038,477013472.00000,   0.00207,276876544.00000,  -0.00207,   0.00069,  -0.00050,-608.00000,   1.00000
84622943.64065,498663334.74060,67673318.30652,  -0.00266,   0.00280,   0.00038,477000544.00000,   0.00207,276877088.00000,  -0.00207,   0.00069,  -0.00050,-576.00000,   1.00000
86420170.31468,499090123.12411,68159664.42941,  -0.00265,   0.00280,   0.00039,476990400.00000,   0.00207,276877568.00000,  -0.00207,   0.00069,  -0.00049,-416.00000,   1.00000
88183926.78139,499493731.00937,68654349.37324,  -0.00264,   0.00279,   0.00040,476980000.00000,   0.00207,276877984.00000,  -0.00207,   0.00069,  -0.00049,-544.00000,   1.00000
89961895.76192,499894214.20423,69150534.00676,  -0.00264,   0.00279,   0.00040,476969920.00000,   0.00207,276878400.00000,  -0.00207,   0.00069,  -0.00049,-480.00000,   1.00000
91730221.08730,500280193.63670,69654864.16372,  -0.00263,   0.00279,   0.00041,476961024.00000,   0.00207,276878752.00000,  -0.00207,   0.00069,  -0.00049,-384.00000,   1.00000
93465637.71646,500646350.83004,70161314.13765,  -0.00262,   0.00279,   0.00042,476947264.00000,   0.00207,276879040.00000,  -0.00207,   0.00069,  -0.00049,-224.00000,   1.00000
95215487.71876,501009240.86975,70669309.11772,  -0.00261,   0.00279,   0.00042,476937280.00000,   0.00207,276879264.00000,  -0.00207,   0.00070,  -0.00049,-192.00000,   1.00000
96955916.20468,501357640.22237,71185516.30643,  -0.00261,   0.00279,   0.00043,476928256.00000,   0.00207,276879488.00000,  -0.00207,   0.00070,  -0.00049,-224.00000,   1.00000
98655703.82908,501682616.06353,71707134.57138,  -0.00260,   0.00279,   0.00044,476894560.00000,   0.00207,276879552.00000,  -0.00207,   0.00070,  -0.00049, -32.00000,   1.00000
100378211.27064,502008477.43187,72227245.05130,  -0.00259,   0.00278,   0.00045,476903776.00000,   0.00207,276879648.00000,  -0.00207,   0.00070,  -0.00049, -96.00000,   1.00000
102091540.42897,502320107.98325,72755677.56909,  -0.00259,   0.00278,   0.00045,476894432.00000,   0.00207,276879712.00000,  -0.00207,   0.00070,  -0.00049,-192.00000,   1.00000
103762375.67644,502588938.90902,73279727.72817,  -0.00258,   0.00278,   0.00046,476857184.00000,   0.00207,276879712.00000,  -0.00207,   0.00070,  -0.00049,-22528.00000,   0.00000
105457031.38570,502867978.60411,73817389.57970,  -0.00257,   0.00278,   0.00047,476850144.00000,   0.00207,276879712.00000,  -0.00207,   0.00070,  -0.00049,-29568.00000,   0.00000
107117657.86384,503112989.06810,74348245.58501,  -0.00256,   0.00278,   0.00047,476824928.00000,   0.00207,276879712.00000,  -0.00207,   0.00070,  -0.00049,-54784.00000,   0.00000
108781687.26510,503320567.37787,74892713.28277,  -0.00256,   0.00277,   0.00048,476776320.00000,   0.00207,276879712.00000,  -0.00207,   0.00070,  -0.00049,-103392.00000,   0.00000
110421896.20458,503517936.91831,75430375.13430,  -0.00255,   0.00277,   0.00049,476728800.00000,   0.00207,276879712.00000,  -0.00207,   0.00070,  -0.00049,-150912.00000,   0.00000
112065508.06717,503677874.30452,75974842.83205,  -0.00254,   0.00277,   0.00049,476654944.00000,   0.00207,276879712.00000,  -0.00207,   0.00070,  -0.00049,-224768.00000,   0.00000
113675090.69865,503803782.45963,76519310.52980,  -0.00254,   0.00277,   0.00050,476565760.00000,   0.00207,276879712.00000,  -0.00207,   0.00070,  -0.00049,-313952.00000,   0.00000
115284673.33013,503929690.61473,77063778.22755,  -0.00253,   0.00276,   0.00051,476483200.00000,   0.00207,276879712.00000,  -0.00207,   0.00070,  -0.00049,-396512.00000,   0.00000
116897658.88472,504018166.61562,77615051.77153,  -0.00252,   0.00276,   0.00052,476374592.00000,   0.00207,276879712.00000,  -0.00207,   0.00070,  -0.00049,-505120.00000,   0.00000
118476615.20820,504072613.38539,78166325.31550,  -0.00251,   0.00276,   0.00052,476250464.00000,   0.00207,276879712.00000,  -0.00207,   0.00070,  -0.00049,-629248.00000,   0.00000
120045362.76235,504103239.69339,78724404.70570,  -0.00251,   0.00276,   0.00053,476116896.00000,   0.00207,276879712.00000,  -0.00207,   0.00070,  -0.00049,-762816.00000,   0.00000
121603901.54717,504110045.53961,79282484.09589,  -0.00250,   0.00275,   0.00054,475970944.00000,   0.00207,276879712.00000,  -0.00207,   0.00070,  -0.00049,-908768.00000,   0.00000
123152231.56265,504093030.92406,79840563.48609,  -0.00249,   0.00275,   0.00054,475812384.00000,   0.00207,276879712.00000,  -0.00207,   0.00070,  -0.00049,-1067328.00000,   0.00000
124690352.80880,504052195.84673,80398642.87629,  -0.00249,   0.00275,   0.00055,475641120.00000,   0.00207,276879712.00000,  -0.00207,   0.00070,  -0.00049,-1238592.00000,   0.00000
126218265.28562,503987540.30762,80963528.11270,  -0.00248,   0.00274,   0.00056,475460864.00000,   0.00207,276879712.00000,  -0.00207,   0.00070,  -0.00049,-1418848.00000,   0.00000
127735968.99310,503899064.30673,81535219.19534,  -0.00247,   0.00274,   0.00057,475271872.00000,   0.00207,276879712.00000,  -0.00207,   0.00070,  -0.00049,-1607840.00000,   0.00000
129233255.16192,503762947.38230,82100104.43176,  -0.00246,   0.00274,   0.00057,475047616.00000,   0.00207,276879712.00000,  -0.00207,   0.00070,  -0.00049,-1832096.00000,   0.00000
130706720.86896,503616621.68852,82671795.51440,  -0.00246,   0.00273,   0.00058,474830656.00000,   0.00207,276879712.00000,  -0.00207,   0.00070,  -0.00049,-2049056.00000,   0.00000
132193798.26845,503456684.30231,83250292.44326,  -0.00245,   0.00273,   0.00059,474608512.00000,   0.00207,276879712.00000,  -0.00207,   0.00070,  -0.00049,-2271200.00000,   0.00000
133660458.12927,503249105.99254,83828789.37213,  -0.00244,   0.00272,   0.00060,474355008.00000,   0.00207,276879712.00000,  -0.00207,   0.00070,  -0.00049,-2524704.00000,   0.00000
135103297.52831,503031318.91344,84407286.30099,  -0.00244,   0.00272,   0.00060,474105344.00000,   0.00207,276879712.00000,  -0.00207,   0.00070,  -0.00049,-2774368.00000,   0.00000
136525719.38869,502765890.91079,84985783.22985,  -0.00243,   0.00272,   0.00061,473824224.00000,   0.00207,276879712.00000,  -0.00207,   0.00070,  -0.00049,-3055488.00000,   0.00000
137971961.71085,502510671.67746,85571086.00493,  -0.00242,   0.00271,   0.00062,473557984.00000,   0.00207,276879712.00000,  -0.00207,   0.00070,  -0.00049,-3321728.00000,   0.00000
139373966.03256,502197602.75126,86156388.78002,  -0.00242,   0.00271,   0.00063,473256896.00000,   0.00207,276879712.00000,  -0.00207,   0.00070,  -0.00049,-3622816.00000,   0.00000
140765761.58494,501860713.36327,86748497.40132,  -0.00241,   0.00270,   0.00063,472947776.00000,   0.00207,276879712.00000,  -0.00207,   0.00070,  -0.00049,-3931936.00000,   0.00000
142157557.13732,501523823.97529,87340606.02263,  -0.00240,   0.00270,   0.00064,472646304.00000,   0.00207,276879712.00000,  -0.00207,   0.00070,  -0.00049,-4233408.00000,   0.00000
143505114.68925,501129084.89442,87932714.64393,  -0.00239,   0.00270,   0.00065,472309952.00000,   0.00207,276879712.00000,  -0.00207,   0.00070,  -0.00049,-4569760.00000,   0.00000
144866283.93364,500720734.12110,88531629.11146,  -0.00239,   0.00269,   0.00066,471969536.00000,   0.00207,276879712.00000,  -0.00207,   0.00070,  -0.00049,-4910176.00000,   0.00000
146217244.40868,500288562.88601,89130543.57899,  -0.00238,   0.00269,   0.00066,471617632.00000,   0.00207,276879712.00000,  -0.00207,   0.00070,  -0.00049,-5262080.00000,   0.00000
147534175.65262,499822362.41981,89729458.04652,  -0.00237,   0.00268,   0.00067,471250176.00000,   0.00207,276879712.00000,  -0.00207,   0.00070,  -0.00049,-5629536.00000,   0.00000
148840898.12723,499332341.49184,90335178.36027,  -0.00237,   0.00268,   0.00068,470874784.00000,   0.00207,276879712.00000,  -0.00207,   0.00070,  -0.00049,-6004928.00000,   0.00000
150161232.29428,498828708.87141,90947704.52024,  -0.00236,   0.00267,   0.00069,470496160.00000,   0.00207,276879712.00000,  -0.00207,   0.00070,  -0.00049,-6383552.00000,   0.00000
151437328.46088,498267226.55811,91553424.83399,  -0.00235,   0.00267,   0.00070,470078336.00000,   0.00207,276879712.00000,  -0.00207,   0.00070,  -0.00049,-6801376.00000,   0.00000
152713424.62749,497705744.24480,92165950.99396,  -0.00235,   0.00266,   0.00070,469672544.00000,   0.00207,276879712.00000,  -0.00207,   0.00070,  -0.00049,-7207168.00000,   0.00000
153955491.56299,497110232.70038,92778477.15393,  -0.00234,   0.00266,   0.00071,469250688.00000,   0.00207,276879712.00000,  -0.00207,   0.00070,  -0.00049,-7629024.00000,   0.00000
155200961.42160,496477289.00175,93397809.16012,  -0.00233,   0.00265,   0.00072,468806528.00000,   0.00207,276879712.00000,  -0.00207,   0.00070,  -0.00049,-8073184.00000,   0.00000
156446431.28021,495844345.30311,94017141.16632,  -0.00233,   0.00265,   0.00073,468370144.00000,   0.00207,276879712.00000,  -0.00207,   0.00070,  -0.00049,-8509568.00000,   0.00000
157647663.13837,495153551.91159,94643279.01873,  -0.00232,   0.00264,   0.00074,467902528.00000,   0.00207,276879712.00000,  -0.00207,   0.00070,  -0.00049,-8977184.00000,   0.00000
158848894.99654,494462758.52006,95262611.02493,  -0.00231,   0.00264,   0.00074,467438816.00000,   0.00207,276879712.00000,  -0.00207,   0.00070,  -0.00049,-9440896.00000,   0.00000
160029709.31604,493724324.20499,95895554.72356,  -0.00231,   0.00263,   0.00075,466952544.00000,   0.00207,276879712.00000,  -0.00207,   0.00070,  -0.00049,-9927168.00000,   0.00000
161210523.63554,492985889.88991,96521692.57598,  -0.00230,   0.00262,   0.00076,466469888.00000,   0.00207,276879712.00000,  -0.00207,   0.00070,  -0.00049,-10409824.00000,   0.00000
162370920.41637,492199814.65128,97154636.27462,  -0.00229,   0.00262,   0.00077,465960896.00000,   0.00207,276879712.00000,  -0.00207,   0.00070,  -0.00049,-10918816.00000,   0.00000
163497287.96610,491379710.18154,97787579.97325,  -0.00228,   0.00261,   0.00078,465436000.00000,   0.00207,276879712.00000,  -0.00207,   0.00070,  -0.00049,-11443712.00000,   0.00000
164637267.20827,490545994.01936,98427329.51811,  -0.00228,   0.00261,   0.00079,464908832.00000,   0.00207,276879712.00000,  -0.00207,   0.00070,  -0.00049,-11970880.00000,   0.00000
165743217.21933,489678248.62606,99067079.06297,  -0.00227,   0.00260,   0.00079,464365856.00000,   0.00207,276879712.00000,  -0.00207,   0.00070,  -0.00049,-12513856.00000,   0.00000
166849167.23039,488810503.23277,99706828.60783,  -0.00226,   0.00259,   0.00080,463830880.00000,   0.00207,276879712.00000,  -0.00207,   0.00070,  -0.00049,-13048832.00000,   0.00000
167934699.70278,487895116.91592,100353383.99891,  -0.00226,   0.00259,   0.00081,463270272.00000,   0.00207,276879712.00000,  -0.00207,   0.00070,  -0.00049,-13609440.00000,   0.00000
168986202.94407,486945701.36797,100999939.38999,  -0.00225,   0.00258,   0.00082,462693888.00000,   0.00207,276879712.00000,  -0.00207,   0.00070,  -0.00049,-14185824.00000,   0.00000
170051317.87779,485982674.12757,101653300.62729,  -0.00224,   0.00258,   0.00083,462116384.00000,   0.00207,276879712.00000,  -0.00207,   0.00070,  -0.00049,-14763328.00000,   0.00000
171082403.58041,484985617.65606,102306661.86460,  -0.00224,   0.00257,   0.00084,461523328.00000,   0.00207,276879712.00000,  -0.00207,   0.00070,  -0.00049,-15356384.00000,   0.00000
172093071.74437,483940920.26100,102960023.10190,  -0.00223,   0.00256,   0.00084,460901024.00000,   0.00207,276879712.00000,  -0.00207,   0.00070,  -0.00049,-15978688.00000,   0.00000
173103739.90832,482896222.86594,103620190.18542,  -0.00222,   0.00256,   0.00085,460292032.00000,   0.00207,276879712.00000,  -0.00207,   0.00070,  -0.00049,-16587680.00000,   0.00000
174080378.84116,481817496.23976,104280357.26895,  -0.00222,   0.00255,   0.00086,459667904.00000,   0.00207,276879712.00000,  -0.00207,   0.00070,  -0.00049,-17211808.00000,   0.00000
175070629.46645,480725157.92115,104940524.35247,  -0.00221,   0.00254,   0.00087,459039360.00000,   0.00207,276879712.00000,  -0.00207,   0.00070,  -0.00049,-17840352.00000,   0.00000
176026850.86063,479598790.37142,105607497.28222,  -0.00220,   0.00253,   0.00088,458400192.00000,   0.00207,276879712.00000,  -0.00207,   0.00070,  -0.00049,-18479520.00000,   0.00000
176962654.71614,478424781.89814,106281276.05819,  -0.00220,   0.00253,   0.00089,457737504.00000,   0.00207,276879712.00000,  -0.00207,   0.00070,  -0.00049,-19142208.00000,   0.00000
177898458.57165,477250773.42487,106948248.98794,  -0.00219,   0.00252,   0.00090,457079456.00000,   0.00207,276879712.00000,  -0.00207,   0.00070,  -0.00049,-19800256.00000,   0.00000
178800233.19605,476042735.72048,107622027.76390,  -0.00219,   0.00251,   0.00091,456411424.00000,   0.00207,276879712.00000,  -0.00207,   0.00070,  -0.00049,-20468288.00000,   0.00000
179705410.74357,474797265.86187,108295806.53987,  -0.00218,   0.00251,   0.00091,455720640.00000,   0.00207,276879712.00000,  -0.00207,   0.00070,  -0.00049,-21159072.00000,   0.00000
180586767.82930,473541587.23393,108976391.16206,  -0.00217,   0.00250,   0.00092,455038816.00000,   0.00207,276879712.00000,  -0.00207,   0.00070,  -0.00049,-21840896.00000,   0.00000
181457916.14571,472262088.14421,109656975.78425,  -0.00217,   0.00249,   0.00093,454347456.00000,   0.00207,276879712.00000,  -0.00207,   0.00070,  -0.00049,-22532256.00000,   0.00000
182284826.46167,470924739.36161,110344366.25267,  -0.00216,   0.00248,   0.00094,453627392.00000,   0.00207,276879712.00000,  -0.00207,   0.00070,  -0.00049,-23252320.00000,   0.00000
183135557.23941,469597599.34833,111024950.87486,  -0.00215,   0.00248,   0.00095,452917408.00000,   0.00207,276879712.00000,  -0.00207,   0.00070,  -0.00049,-23962304.00000,   0.00000
183952258.78603,468236430.10395,111719147.18949,  -0.00215,   0.00247,   0.00096,452202464.00000,   0.00207,276879712.00000,  -0.00207,   0.00070,  -0.00049,-24677248.00000,   0.00000
184748542.79400,466827619.93602,112406537.65790,  -0.00214,   0.00246,   0.00097,451454720.00000,   0.00207,276879712.00000,  -0.00207,   0.00070,  -0.00049,-25424992.00000,   0.00000
185521006.34018,465408600.99875,113100733.97254,  -0.00213,   0.00245,   0.00098,450716576.00000,   0.00207,276879712.00000,  -0.00207,   0.00070,  -0.00049,-26163136.00000,   0.00000
186296872.80948,463952149.90726,113801736.13339,  -0.00213,   0.00244,   0.00099,449962784.00000,   0.00207,276879712.00000,  -0.00207,   0.00070,  -0.00049,-26916928.00000,   0.00000
187048918.81700,462485490.04644,114495932.44803,  -0.00212,   0.00244,   0.00099,449208960.00000,   0.00207,276879712.00000,  -0.00207,   0.00070,  -0.00049,-27670752.00000,   0.00000
187756726.82408,460960980.49274,115196934.60888,  -0.00212,   0.00243,   0.00100,448428768.00000,   0.00207,276879712.00000,  -0.00207,   0.00070,  -0.00049,-28450944.00000,   0.00000
188488355.29293,459446679.70836,115904742.61596,  -0.00211,   0.00242,   0.00101,447672512.00000,   0.00207,276879712.00000,  -0.00207,   0.00070,  -0.00049,-29207200.00000,   0.00000
189185954.53068,457898349.69288,116612550.62304,  -0.00210,   0.00241,   0.00102,446904160.00000,   0.00207,276879712.00000,  -0.00207,   0.00070,  -0.00049,-29975552.00000,   0.00000
189863136.22976,456302378.75384,117320358.63012,  -0.00210,   0.00240,   0.00103,446112416.00000,   0.00207,276879712.00000,  -0.00207,   0.00070,  -0.00049,-30767296.00000,   0.00000
190540317.92884,454706407.81481,118028166.63720,  -0.00209,   0.00239,   0.00104,445334272.00000,   0.00207,276879712.00000,  -0.00207,   0.00070,  -0.00049,-31545440.00000,   0.00000
191197082.08925,453062795.95222,118742780.49050,  -0.00208,   0.00238,   0.00105,444538816.00000,   0.00207,276879712.00000,  -0.00207,   0.00070,  -0.00049,-32340896.00000,   0.00000
191830025.78789,451408975.32029,119464200.19002,  -0.00208,   0.00238,   0.00106,443756896.00000,   0.00207,276879712.00000,  -0.00207,   0.00070,  -0.00049,-33122816.00000,   0.00000
192452760.71719,449731334.22659,120178814.04332,  -0.00207,   0.00237,   0.00107,442965120.00000,   0.00207,276879712.00000,  -0.00207,   0.00070,  -0.00049,-33914592.00000,   0.00000
193031257.64605,447995843.44001,120900233.74284,  -0.00207,   0.00236,   0.00108,442150048.00000,   0.00207,276879712.00000,  -0.00207,   0.00070,  -0.00049,-34729664.00000,   0.00000
193609754.57492,446260352.65342,121628459.28858,  -0.00206,   0.00235,   0.00109,441354400.00000,   0.00207,276879712.00000,  -0.00207,   0.00070,  -0.00049,-35525312.00000,   0.00000
194178042.73445,444501041.40506,122356684.83433,  -0.00205,   0.00234,   0.00110,440554464.00000,   0.00207,276879712.00000,  -0.00207,   0.00070,  -0.00049,-36325248.00000,   0.00000
194736122.12464,442717909.69492,123084910.38007,  -0.00205,   0.00233,   0.00111,439749760.00000,   0.00207,276879712.00000,  -0.00207,   0.00070,  -0.00049,-37129952.00000,   0.00000
195260172.28373,440900748.75367,123813135.92582,  -0.00204,   0.00232,   0.00112,438933024.00000,   0.00207,276879712.00000,  -0.00207,   0.00070,  -0.00049,-37946688.00000,   0.00000
195774013.67348,439059767.35065,124548167.31778,  -0.00204,   0.00231,   0.00113,438116416.00000,   0.00207,276879712.00000,  -0.00207,   0.00070,  -0.00049,-38763296.00000,   0.00000
196277646.29390,437194965.48585,125290004.55597,  -0.00203,   0.00230,   0.00113,437299776.00000,   0.00207,276879712.00000,  -0.00207,   0.00070,  -0.00049,-39579936.00000,   0.00000
196771070.14499,435306343.15927,126025035.94793,  -0.00202,   0.00229,   0.00114,436470848.00000,   0.00207,276879712.00000,  -0.00207,   0.00070,  -0.00049,-40408864.00000,   0.00000
197230464.76497,433383691.60158,126766873.18612,  -0.00202,   0.00228,   0.00115,435634112.00000,   0.00207,276879712.00000,  -0.00207,   0.00070,  -0.00049,-41245600.00000,   0.00000
197655830.15384,431427010.81278,127515516.27053,  -0.00201,   0.00227,   0.00116,434789088.00000,   0.00207,276879712.00000,  -0.00207,   0.00070,  -0.00049,-42090624.00000,   0.00000
198094807.23515,429456718.33154,128264159.35494,  -0.00201,   0.00226,   0.00117,433943968.00000,   0.00207,276879712.00000,  -0.00207,   0.00070,  -0.00049,-42935744.00000,   0.00000
198499755.08536,427452396.61919,129012802.43935,  -0.00200,   0.00225,   0.00118,433084160.00000,   0.00207,276879712.00000,  -0.00207,   0.00070,  -0.00049,-43795552.00000,   0.00000
198904702.93556,425448074.90684,129761445.52376,  -0.00200,   0.00224,   0.00119,432234944.00000,   0.00207,276879712.00000,  -0.00207,   0.00070,  -0.00049,-44644768.00000,   0.00000
199265412.78532,423385903.50160,130516894.45439,  -0.00199,   0.00223,   0.00120,431360192.00000,   0.00207,276879712.00000,  -0.00207,   0.00070,  -0.00049,-45519520.00000,   0.00000
199626122.63508,421323732.09636,131272343.38502,  -0.00198,   0.00222,   0.00121,430496704.00000,   0.00207,276879712.00000,  -0.00207,   0.00070,  -0.00049,-46383008.00000,   0.00000
199966414.94618,419213919.76757,132034598.16188,  -0.00198,   0.00221,   0.00122,429616288.00000,   0.00207,276879712.00000,  -0.00207,   0.00070,  -0.00049,-47263424.00000,   0.00000
200282886.79549,417093898.66945,132796852.93873,  -0.00197,   0.00220,   0.00123,428741984.00000,   0.00207,276879712.00000,  -0.00207,   0.00070,  -0.00049,-48137728.00000,   0.00000
200589149.87548,414950057.10955,133559107.71558,  -0.00197,   0.00219,   0.00124,427864160.00000,   0.00207,276879712.00000,  -0.00207,   0.00070,  -0.00049,-49015552.00000,   0.00000
200885204.18613,412782395.08787,134328168.33866,  -0.00196,   0.00218,   0.00125,426990240.00000,   0.00207,276879712.00000,  -0.00207,   0.00070,  -0.00049,-49889472.00000,   0.00000
201147229.26568,410580703.83509,135097228.96173,  -0.00196,   0.00217,   0.00126,426107936.00000,   0.00207,276879712.00000,  -0.00207,   0.00070,  -0.00049,-50771776.00000,   0.00000
201399045.57589,408355192.12053,135866289.58481,  -0.00195,   0.00216,   0.00127,425225152.00000,   0.00207,276879712.00000,  -0.00207,   0.00070,  -0.00049,-51654560.00000,   0.00000
201616832.65499,406095651.17485,136642156.05411,  -0.00195,   0.00215,   0.00128,424342048.00000,   0.00207,276879712.00000,  -0.00207,   0.00070,  -0.00049,-52537664.00000,   0.00000
201834619.73409,403836110.22918,137418022.52340,  -0.00194,   0.00214,   0.00129,423475968.00000,   0.00207,276879712.00000,  -0.00207,   0.00070,  -0.00049,-53403744.00000,   0.00000
202031989.27452,401528928.35996,138200694.83892,  -0.00193,   0.00213,   0.00130,422600128.00000,   0.00207,276879712.00000,  -0.00207,   0.00070,  -0.00049,-54279584.00000,   0.00000
202205538.35318,399211537.72140,138983367.15444,  -0.00193,   0.00212,   0.00131,421733888.00000,   0.00207,276879712.00000,  -0.00207,   0.00070,  -0.00049,-55145824.00000,   0.00000
202368878.66251,396870326.62106,139766039.46996,  -0.00192,   0.00211,   0.00132,420866944.00000,   0.00207,276879712.00000,  -0.00207,   0.00070,  -0.00049,-56012768.00000,   0.00000
202522010.20250,394505295.05895,140548711.78548,  -0.00192,   0.00210,   0.00133,419998432.00000,   0.00207,276879712.00000,  -0.00207,   0.00070,  -0.00049,-56881280.00000,   0.00000
202641112.51138,392106234.26573,141338189.94722,  -0.00191,   0.00208,   0.00134,419126976.00000,   0.00207,276879712.00000,  -0.00207,   0.00070,  -0.00049,-57752736.00000,   0.00000
202726185.58916,389673144.24140,142134473.95518,  -0.00191,   0.00207,   0.00135,418251776.00000,   0.00207,276879712.00000,  -0.00207,   0.00070,  -0.00049,-58627936.00000,   0.00000
202824870.35938,387226442.52462,142923952.11692,  -0.00190,   0.00206,   0.00136,417373696.00000,   0.00207,276879712.00000,  -0.00207,   0.00070,  -0.00049,-59506016.00000,   0.00000
202899734.66782,384769532.03852,143720236.12489,  -0.00190,   0.00205,   0.00137,416507456.00000,   0.00207,276879712.00000,  -0.00207,   0.00070,  -0.00049,-60372256.00000,   0.00000
202940569.74515,382278592.32130,144516520.13285,  -0.00189,   0.00204,   0.00138,415629664.00000,   0.00207,276879712.00000,  -0.00207,   0.00070,  -0.00049,-61250048.00000,   0.00000
202971196.05315,379763832.14230,145319609.98703,  -0.00189,   0.00203,   0.00140,414755712.00000,   0.00207,276879712.00000,  -0.00207,   0.00070,  -0.00049,-62124000.00000,   0.00000
202991613.59181,377225251.50153,146122699.84122,  -0.00188,   0.00202,   0.00141,413879392.00000,   0.00207,276879712.00000,  -0.00207,   0.00070,  -0.00049,-63000320.00000,   0.00000
202978001.89937,374652641.62965,146932595.54163,  -0.00188,   0.00200,   0.00142,413000896.00000,   0.00207,276879712.00000,  -0.00207,   0.00070,  -0.00049,-63878816.00000,   0.00000
202954181.43759,372056211.29600,147735685.39581,  -0.00187,   0.00199,   0.00143,412115744.00000,   0.00207,276879712.00000,  -0.00207,   0.00070,  -0.00049,-64763968.00000,   0.00000
202906540.51404,369449572.19301,148545581.09622,  -0.00187,   0.00198,   0.00144,411247872.00000,   0.00207,276879712.00000,  -0.00207,   0.00070,  -0.00049,-65631840.00000,   0.00000
202848690.82115,366819112.62824,149362282.64285,  -0.00186,   0.00197,   0.00145,410390880.00000,   0.00207,276879712.00000,  -0.00207,   0.00070,  -0.00049,-66488832.00000,   0.00000
202756811.89716,364154623.83237,150178984.18947,  -0.00186,   0.00196,   0.00146,409530592.00000,   0.00207,276879712.00000,  -0.00207,   0.00070,  -0.00049,-67349120.00000,   0.00000
202654724.20383,361466314.57471,150995685.73610,  -0.00185,   0.00195,   0.00147,408676896.00000,   0.00207,276879712.00000,  -0.00207,   0.00070,  -0.00049,-68202816.00000,   0.00000
202552636.51050,358778005.31706,151812387.28273,  -0.00185,   0.00193,   0.00148,407846944.00000,   0.00207,276879712.00000,  -0.00207,   0.00070,  -0.00049,-69032768.00000,   0.00000
202416519.58606,356055666.82830,152635894.67558,  -0.00184,   0.00192,   0.00149,407025056.00000,   0.00207,276879712.00000,  -0.00207,   0.00070,  -0.00049,-69854656.00000,   0.00000
202270193.89229,353309507.87776,153459402.06843,  -0.00184,   0.00191,   0.00150,406212832.00000,   0.00207,276879712.00000,  -0.00207,   0.00070,  -0.00049,-70666880.00000,   0.00000
202089838.96741,350529319.69611,154289715.30750,  -0.00183,   0.00190,   0.00151,405410720.00000,   0.00207,276879712.00000,  -0.00207,   0.00070,  -0.00049,-71468992.00000,   0.00000
201885663.58075,347738922.74513,155120028.54658,  -0.00183,   0.00188,   0.00152,404626496.00000,   0.00207,276879712.00000,  -0.00207,   0.00070,  -0.00049,-72253216.00000,   0.00000
201684891.11721,344911093.63993,155950341.78565,  -0.00183,   0.00187,   0.00153,403845728.00000,   0.00207,276879712.00000,  -0.00207,   0.00070,  -0.00049,-73033984.00000,   0.00000
201436477.73011,342062846.99606,156780655.02472,  -0.00182,   0.00186,   0.00154,403075168.00000,   0.00207,276879712.00000,  -0.00207,   0.00070,  -0.00049,-73804544.00000,   0.00000
201211884.80478,339224809.12153,157617774.11002,  -0.00182,   0.00185,   0.00156,402345728.00000,   0.00207,276879712.00000,  -0.00207,   0.00070,  -0.00049,-74533984.00000,   0.00000
200919233.41724,336318712.78478,158454893.19531,  -0.00181,   0.00183,   0.00157,401595904.00000,   0.00207,276879712.00000,  -0.00207,   0.00070,  -0.00049,-75283808.00000,   0.00000
200650402.49148,333422825.21736,159298818.12683,  -0.00181,   0.00182,   0.00158,400887104.00000,   0.00207,276879712.00000,  -0.00207,   0.00070,  -0.00049,-75992608.00000,   0.00000
200323721.87283,330482699.64949,160142743.05834,  -0.00180,   0.00181,   0.00159,400172288.00000,   0.00207,276879712.00000,  -0.00207,   0.00070,  -0.00049,-76707424.00000,   0.00000
200020861.71595,327552782.85096,160986667.98986,  -0.00180,   0.00180,   0.00160,399489344.00000,   0.00207,276879712.00000,  -0.00207,   0.00070,  -0.00049,-77390368.00000,   0.00000
199649943.09686,324554807.59021,161830592.92138,  -0.00180,   0.00178,   0.00161,398785216.00000,   0.00207,276879712.00000,  -0.00207,   0.00070,  -0.00049,-78094496.00000,   0.00000
199313053.70887,321590861.56057,162681323.69911,  -0.00179,   0.00177,   0.00162,398134880.00000,   0.00207,276879712.00000,  -0.00207,   0.00070,  -0.00049,-78744832.00000,   0.00000
198908105.85867,318558857.06872,163532054.47685,  -0.00179,   0.00176,   0.00163,397462624.00000,   0.00207,276879712.00000,  -0.00207,   0.00070,  -0.00049,-79417088.00000,   0.00000
198503158.00847,315526852.57686,164389591.10081,  -0.00178,   0.00174,   0.00164,396821792.00000,   0.00207,276879712.00000,  -0.00207,   0.00070,  -0.00049,-80057920.00000,   0.00000
198088001.38893,312471027.62322,165247127.72477,  -0.00178,   0.00173,   0.00165,396189856.00000,   0.00207,276879712.00000,  -0.00207,   0.00070,  -0.00049,-80689856.00000,   0.00000
197638815.53828,309381173.43848,166104664.34873,  -0.00177,   0.00172,   0.00167,395559840.00000,   0.00207,276879712.00000,  -0.00207,   0.00070,  -0.00049,-81319872.00000,   0.00000
197189629.68764,306291319.25373,166962200.97269,  -0.00177,   0.00170,   0.00168,394954432.00000,   0.00207,276879712.00000,  -0.00207,   0.00070,  -0.00049,-81925280.00000,   0.00000
196706414.60588,303167435.83788,167826543.44287,  -0.00177,   0.00169,   0.00169,394361888.00000,   0.00207,276879712.00000,  -0.00207,   0.00070,  -0.00049,-82517824.00000,   0.00000
196212990.75480,300019731.96025,168690885.91305,  -0.00176,   0.00168,   0.00170,393782816.00000,   0.00207,276879712.00000,  -0.00207,   0.00070,  -0.00049,-83096896.00000,   0.00000
195695746.44193,296861819.31328,169562034.22946,  -0.00176,   0.00166,   0.00171,393232864.00000,   0.00207,276879712.00000,  -0.00207,   0.00070,  -0.00049,-83646848.00000,   0.00000
195144472.89796,293669877.43521,170426376.69964,  -0.00176,   0.00165,   0.00172,392681408.00000,   0.00207,276879712.00000,  -0.00207,   0.00070,  -0.00049,-84198304.00000,   0.00000
194593199.35398,290477935.55714,171297525.01604,  -0.00175,   0.00164,   0.00173,392167968.00000,   0.00207,276879712.00000,  -0.00207,   0.00070,  -0.00049,-84711744.00000,   0.00000
194007896.57890,287251964.44795,172175479.17867,  -0.00175,   0.00162,   0.00174,391671744.00000,   0.00207,276879712.00000,  -0.00207,   0.00070,  -0.00049,-85207968.00000,   0.00000
193412385.03448,284002172.87700,173046627.49507,  -0.00174,   0.00161,   0.00176,391182528.00000,   0.00207,276879712.00000,  -0.00207,   0.00070,  -0.00049,-85697184.00000,   0.00000
192793053.02829,280742172.53670,173924581.65770,  -0.00174,   0.00160,   0.00177,390723456.00000,   0.00207,276879712.00000,  -0.00207,   0.00070,  -0.00049,-86156256.00000,   0.00000
192163512.25276,277458351.73463,174809341.66655,  -0.00174,   0.00158,   0.00178,390290176.00000,   0.00207,276879712.00000,  -0.00207,   0.00070,  -0.00049,-86589536.00000,   0.00000
191510151.01546,274164322.16323,175687295.82917,  -0.00173,   0.00157,   0.00179,389868800.00000,   0.00207,276879712.00000,  -0.00207,   0.00070,  -0.00049,-87010912.00000,   0.00000
190846581.00882,270846472.13005,176572055.83802,  -0.00173,   0.00156,   0.00180,389473568.00000,   0.00207,276879712.00000,  -0.00207,   0.00070,  -0.00049,-87406144.00000,   0.00000
190135370.07863,267508204.55821,177463621.69309,  -0.00173,   0.00154,   0.00181,389101216.00000,   0.00207,276879712.00000,  -0.00207,   0.00070,  -0.00049,-87778496.00000,   0.00000
189437770.84089,264156325.29392,178348381.70194,  -0.00172,   0.00153,   0.00182,388744384.00000,   0.00207,276879712.00000,  -0.00207,   0.00070,  -0.00049,-88135328.00000,   0.00000
188706142.37203,260770416.79852,179239947.55701,  -0.00172,   0.00151,   0.00184,388406208.00000,   0.00207,276879712.00000,  -0.00207,   0.00070,  -0.00049,-88473504.00000,   0.00000
187950693.44140,257374299.53379,180131513.41208,  -0.00172,   0.00150,   0.00185,388089376.00000,   0.00207,276879712.00000,  -0.00207,   0.00070,  -0.00049,-88790336.00000,   0.00000
187161215.27966,253944153.03795,181029885.11337,  -0.00171,   0.00149,   0.00186,387791360.00000,   0.00207,276879712.00000,  -0.00207,   0.00070,  -0.00049,-89088352.00000,   0.00000
186371737.11792,250514006.54211,181921450.96844,  -0.00171,   0.00147,   0.00187,387512896.00000,   0.00207,276879712.00000,  -0.00207,   0.00070,  -0.00049,-89366816.00000,   0.00000
185548229.72507,247049830.81516,182819822.66973,  -0.00171,   0.00146,   0.00188,387254048.00000,   0.00207,276879712.00000,  -0.00207,   0.00070,  -0.00049,-89625664.00000,   0.00000
184724722.33222,243585655.08821,183725000.21724,  -0.00171,   0.00144,   0.00189,387034720.00000,   0.00207,276879712.00000,  -0.00207,   0.00070,  -0.00049,-89844992.00000,   0.00000
183877394.47759,240111270.59193,184623371.91853,  -0.00170,   0.00143,   0.00191,386827968.00000,   0.00207,276879712.00000,  -0.00207,   0.00070,  -0.00049,-90051744.00000,   0.00000
183009649.08430,236589245.17210,185528549.46605,  -0.00170,   0.00142,   0.00192,386640384.00000,   0.00207,276879712.00000,  -0.00207,   0.00070,  -0.00049,-90239328.00000,   0.00000
182128291.99856,233080831.44471,186433727.01356,  -0.00170,   0.00140,   0.00193,386487872.00000,   0.00207,276879712.00000,  -0.00207,   0.00070,  -0.00049,-90391840.00000,   0.00000
181212905.68172,229538388.48620,187345710.40730,  -0.00169,   0.00139,   0.00194,386359520.00000,   0.00207,276879712.00000,  -0.00207,   0.00070,  -0.00049,-90520192.00000,   0.00000
180263490.13376,225961916.29659,188257693.80103,  -0.00169,   0.00137,   0.00195,386246528.00000,   0.00207,276879712.00000,  -0.00207,   0.00070,  -0.00049,-90633184.00000,   0.00000
179314074.58581,222385444.10698,189169677.19477,  -0.00169,   0.00136,   0.00197,386167968.00000,   0.00207,276879712.00000,  -0.00207,   0.00070,  -0.00049,-90711744.00000,   0.00000
178364659.03785,218808971.91737,190081660.58850,  -0.00169,   0.00134,   0.00198,386124128.00000,   0.00207,276879712.00000,  -0.00207,   0.00070,  -0.00049,-90755584.00000,   0.00000
177357393.79701,215188261.72732,191000449.82846,  -0.00168,   0.00133,   0.00199,386100416.00000,   0.00207,276879712.00000,  -0.00207,   0.00070,  -0.00049,-90779296.00000,   0.00000
176350128.55617,211567551.53726,191919239.06842,  -0.00168,   0.00131,   0.00200,386112512.00000,   0.00207,276879712.00000,  -0.00207,   0.00070,  -0.00049,-90767200.00000,   0.00000
175332654.54599,207923020.88543,192838028.30837,  -0.00168,   0.00130,   0.00201,386152928.00000,   0.00207,276879712.00000,  -0.00207,   0.00070,  -0.00049,-90726784.00000,   0.00000
174267539.61226,204258072.69494,193756817.54833,  -0.00168,   0.00129,   0.00202,386219136.00000,   0.00207,276879712.00000,  -0.00207,   0.00070,  -0.00049,-90660576.00000,   0.00000
173202424.67854,200593124.50444,194682412.63451,  -0.00167,   0.00127,   0.00204,386340672.00000,   0.00207,276879712.00000,  -0.00207,   0.00070,  -0.00049,-90539040.00000,   0.00000
172127100.97547,196904355.85217,195608007.72069,  -0.00167,   0.00126,   0.00205,386500192.00000,   0.00207,276879712.00000,  -0.00207,   0.00070,  -0.00049,-90379520.00000,   0.00000
170993927.57953,193171349.19946,196540408.65309,  -0.00167,   0.00124,   0.00206,386691520.00000,   0.00207,276879712.00000,  -0.00207,   0.00070,  -0.00049,-90188192.00000,   0.00000
169870962.95291,189462163.00852,197466003.73927,  -0.00167,   0.00123,   0.00207,386925152.00000,   0.00207,276879712.00000,  -0.00207,   0.00070,  -0.00049,-89954560.00000,   0.00000
168737789.55697,185729156.35580,198398404.67167,  -0.00166,   0.00121,   0.00209,387204800.00000,   0.00207,276879712.00000,  -0.00207,   0.00070,  -0.00049,-89674912.00000,   0.00000
167556975.23747,181975732.16442,199330805.60407,  -0.00166,   0.00120,   0.00210,387504384.00000,   0.00207,276879712.00000,  -0.00207,   0.00070,  -0.00049,-89375328.00000,   0.00000
166365952.14863,178198487.51127,200263206.53647,  -0.00166,   0.00118,   0.00211,387820448.00000,   0.00207,276879712.00000,  -0.00207,   0.00070,  -0.00049,-89059264.00000,   0.00000
165151108.59802,174411034.08878,201202413.31509,  -0.00166,   0.00117,   0.00212,388154272.00000,   0.00207,276879712.00000,  -0.00207,   0.00070,  -0.00049,-88725440.00000,   0.00000
163936265.04741,170623580.66629,202141620.09372,  -0.00166,   0.00115,   0.00213,388501888.00000,   0.00207,276879712.00000,  -0.00207,   0.00070,  -0.00049,-88377824.00000,   0.00000
162687392.26569,166802098.01269,203080826.87234,  -0.00166,   0.00114,   0.00215,388850112.00000,   0.00207,276879712.00000,  -0.00207,   0.00070,  -0.00049,-88029600.00000,   0.00000
161414699.02220,162970406.58975,204026839.49718,  -0.00165,   0.00112,   0.00216,389223680.00000,   0.00207,276879712.00000,  -0.00207,   0.00070,  -0.00049,-87656032.00000,   0.00000
160118185.31692,159128506.39749,204966046.27581,  -0.00165,   0.00111,   0.00217,389609952.00000,   0.00207,276879712.00000,  -0.00207,   0.00070,  -0.00049,-87269760.00000,   0.00000
158821671.61165,155286606.20522,205912058.90065,  -0.00165,   0.00109,   0.00218,390043616.00000,   0.00207,276879712.00000,  -0.00207,   0.00070,  -0.00049,-86836096.00000,   0.00000
157491128.67527,151410676.78185,206858071.52550,  -0.00165,   0.00108,   0.00220,390498528.00000,   0.00207,276879712.00000,  -0.00207,   0.00070,  -0.00049,-86381184.00000,   0.00000
156136765.27711,147524538.58914,207810889.99656,  -0.00165,   0.00106,   0.00221,390986880.00000,   0.00207,276879712.00000,  -0.00207,   0.00070,  -0.00049,-85892832.00000,   0.00000
154782401.87895,143638400.39643,208763708.46763,  -0.00165,   0.00105,   0.00222,391494912.00000,   0.00207,276879712.00000,  -0.00207,   0.00070,  -0.00049,-85384800.00000,   0.00000
153370188.78791,139708024.20328,209709721.09247,  -0.00165,   0.00103,   0.00223,391973600.00000,   0.00207,276879712.00000,  -0.00207,   0.00070,  -0.00049,-84906112.00000,   0.00000
151968184.46619,135801468.47191,210669345.40976,  -0.00164,   0.00102,   0.00224,392473632.00000,   0.00207,276879712.00000,  -0.00207,   0.00070,  -0.00049,-84406080.00000,   0.00000
150555971.37515,131871092.27876,211622163.88083,  -0.00164,   0.00100,   0.00226,392948384.00000,   0.00207,276879712.00000,  -0.00207,   0.00070,  -0.00049,-83931328.00000,   0.00000
149096117.36055,127920298.54695,212581788.19812,  -0.00164,   0.00099,   0.00227,393426368.00000,   0.00207,276879712.00000,  -0.00207,   0.00070,  -0.00049,-83453344.00000,   0.00000
147626054.57662,123945684.35335,213541412.51541,  -0.00164,   0.00097,   0.00228,393936672.00000,   0.00207,276879712.00000,  -0.00207,   0.00070,  -0.00049,-82943040.00000,   0.00000
146142380.10024,119984681.85221,214501036.83269,  -0.00164,   0.00096,   0.00229,394516064.00000,   0.00207,276879712.00000,  -0.00207,   0.00070,  -0.00049,-82363648.00000,   0.00000
144624676.39276,115989650.11995,215460661.14998,  -0.00164,   0.00094,   0.00231,395169888.00000,   0.00207,276879712.00000,  -0.00207,   0.00070,  -0.00049,-81709824.00000,   0.00000
143106972.68527,111994618.38769,216427091.31349,  -0.00164,   0.00093,   0.00232,395920352.00000,   0.00207,276879712.00000,  -0.00207,   0.00070,  -0.00049,-80959360.00000,   0.00000
141541628.05424,107979169.11677,217393521.47700,  -0.00164,   0.00091,   0.00233,396731712.00000,   0.00207,276879712.00000,  -0.00207,   0.00070,  -0.00049,-80148000.00000,   0.00000
139976283.42320,103963719.84584,218359951.64051,  -0.00164,   0.00090,   0.00234,397604480.00000,   0.00207,276879712.00000,  -0.00207,   0.00070,  -0.00049,-79275232.00000,   0.00000
138410938.79216,99948270.57492,219326381.80403,  -0.00164,   0.00088,   0.00236,398527104.00000,   0.00207,276879712.00000,  -0.00207,   0.00070,  -0.00049,-78352608.00000,   0.00000
136787744.46824,95888583.30355,220299617.81376,  -0.00164,   0.00087,   0.00237,399482560.00000,   0.00207,276879712.00000,  -0.00207,   0.00070,  -0.00049,-77397152.00000,   0.00000
135174758.91364,91852716.49396,221266047.97727,  -0.00163,   0.00085,   0.00238,400458400.00000,   0.00207,276879712.00000,  -0.00207,   0.00070,  -0.00049,-76421312.00000,   0.00000
133503923.66617,87772611.68393,222239283.98700,  -0.00163,   0.00083,   0.00240,401456256.00000,   0.00207,276879712.00000,  -0.00207,   0.00070,  -0.00049,-75423456.00000,   0.00000
131833088.41869,83692506.87390,223212519.99673,  -0.00163,   0.00082,   0.00241,402487520.00000,   0.00207,276879712.00000,  -0.00207,   0.00070,  -0.00049,-74392192.00000,   0.00000
130162253.17121,79612402.06387,224192561.85269,  -0.00163,   0.00080,   0.00242,403572192.00000,   0.00207,276879712.00000,  -0.00207,   0.00070,  -0.00049,-73307520.00000,   0.00000
128453985.76951,75535700.17695,225165797.86242,  -0.00163,   0.00079,   0.00243,404684352.00000,   0.00207,276879712.00000,  -0.00207,   0.00070,  -0.00049,-72195360.00000,   0.00000
126735509.59848,71435177.82825,226145839.71837,  -0.00163,   0.00077,   0.00245,405853984.00000,   0.00207,276879712.00000,  -0.00207,   0.00070,  -0.00049,-71025728.00000,   0.00000
124969392.50390,67314237.94089,227125881.57433,  -0.00163,   0.00076,   0.00246,407063168.00000,   0.00207,276879712.00000,  -0.00207,   0.00070,  -0.00049,-69816544.00000,   0.00000
123203275.40931,63193298.05352,228105923.43028,  -0.00163,   0.00074,   0.00247,408323872.00000,   0.00207,276879712.00000,  -0.00207,   0.00070,  -0.00049,-68555840.00000,   0.00000
121403129.08362,59038328.93505,229092771.13246,  -0.00163,   0.00073,   0.00248,409640768.00000,   0.00207,276879712.00000,  -0.00207,   0.00070,  -0.00049,-67238944.00000,   0.00000
119613191.52726,54907180.27835,230079618.83463,  -0.00163,   0.00071,   0.00250,411009280.00000,   0.00207,276879712.00000,  -0.00207,   0.00070,  -0.00049,-65870432.00000,   0.00000
117775613.04734,50755614.08299,231059660.69059,  -0.00163,   0.00070,   0.00251,412400960.00000,   0.00207,276879712.00000,  -0.00207,   0.00070,  -0.00049,-64478752.00000,   0.00000
115938034.56743,46604047.88763,232046508.39276,  -0.00163,   0.00068,   0.00252,413843040.00000,   0.00207,276879712.00000,  -0.00207,   0.00070,  -0.00049,-63036672.00000,   0.00000
114076635.62574,42442272.92293,233040161.94116,  -0.00163,   0.00067,   0.00254,415327808.00000,   0.00207,276879712.00000,  -0.00207,   0.00070,  -0.00049,-61551904.00000,   0.00000
112167595.76050,38260080.41957,234027009.64334,  -0.00163,   0.00065,   0.00255,416825888.00000,   0.00207,276879712.00000,  -0.00207,   0.00070,  -0.00049,-60053824.00000,   0.00000
110282376.35703,34088096.68555,235020663.19174,  -0.00164,   0.00064,   0.00256,418370240.00000,   0.00207,276879712.00000,  -0.00207,   0.00070,  -0.00049,-58509472.00000,   0.00000
108349516.03001,29895695.41285,236014316.74014,  -0.00164,   0.00062,   0.00257,419931552.00000,   0.00207,276879712.00000,  -0.00207,   0.00070,  -0.00049,-56948160.00000,   0.00000
106392835.24121,25693085.37083,237007970.28853,  -0.00164,   0.00060,   0.00259,421508736.00000,   0.00207,276879712.00000,  -0.00207,   0.00070,  -0.00049,-55370976.00000,   0.00000
104436154.45241,21490475.32880,238001623.83693,  -0.00164,   0.00059,   0.00260,423100704.00000,   0.00207,276879712.00000,  -0.00207,   0.00070,  -0.00049,-53779008.00000,   0.00000
102431832.74006,17267447.74811,238995277.38533,  -0.00164,   0.00057,   0.00261,424694368.00000,   0.00207,276879712.00000,  -0.00207,   0.00070,  -0.00049,-52185344.00000,   0.00000
100437719.79704,13068240.62919,239995736.77995,  -0.00164,   0.00056,   0.00263,426305312.00000,   0.00207,276879712.00000,  -0.00207,   0.00070,  -0.00049,-50574400.00000,   0.00000
98409577.62292,8835004.27917,240989390.32835,  -0.00164,   0.00054,   0.00264,427902528.00000,   0.00207,276879712.00000,  -0.00207,   0.00070,  -0.00049,-48977184.00000,   0.00000
96367823.75634,4615379.62159,241989849.72297,  -0.00164,   0.00053,   0.00265,429508064.00000,   0.00207,276879712.00000,  -0.00207,   0.00070,  -0.00049,-47371648.00000,   0.00000
94292040.65866,361725.73290,242990309.11759,  -0.00164,   0.00051,   0.00266,431116608.00000,   0.00207,276879712.00000,  -0.00207,   0.00070,  -0.00049,-45763104.00000,   0.00000
92226466.33031,-3868107.69402,243997574.35843,  -0.00164,   0.00050,   0.00268,432762944.00000,   0.00207,276879712.00000,  -0.00207,   0.00070,  -0.00049,-44116768.00000,   0.00000
90113251.07841,-8118358.65959,244998033.75305,  -0.00164,   0.00048,   0.00269,434444160.00000,   0.00207,276879712.00000,  -0.00207,   0.00070,  -0.00049,-42435552.00000,   0.00000
88000035.82651,-12368609.62517,246005298.99389,  -0.00165,   0.00047,   0.00270,436207200.00000,   0.00207,276879712.00000,  -0.00207,   0.00070,  -0.00049,-40672512.00000,   0.00000
85839179.65106,-16639278.12942,247005758.38851,  -0.00165,   0.00045,   0.00272,438011392.00000,   0.00207,276879712.00000,  -0.00207,   0.00070,  -0.00049,-38868320.00000,   0.00000
83688532.24494,-20886126.17189,248013023.62935,  -0.00165,   0.00044,   0.00273,439862368.00000,   0.00207,276879712.00000,  -0.00207,   0.00070,  -0.00049,-37017344.00000,   0.00000
81503855.60770,-25167003.44547,249020288.87020,  -0.00165,   0.00042,   0.00274,441731456.00000,   0.00207,276879712.00000,  -0.00207,   0.00070,  -0.00049,-35148256.00000,   0.00000
79305567.27803,-29434269.02660,250027554.11104,  -0.00165,   0.00041,   0.00276,443614656.00000,   0.00207,276879712.00000,  -0.00207,   0.00070,  -0.00049,-33265056.00000,   0.00000
77083458.48658,-33711743.37707,251041625.19810,  -0.00165,   0.00039,   0.00277,445531200.00000,   0.00207,276879712.00000,  -0.00207,   0.00070,  -0.00049,-31348512.00000,   0.00000
74837529.23335,-37999426.49687,252048890.43894,  -0.00166,   0.00038,   0.00278,447463616.00000,   0.00207,276879712.00000,  -0.00207,   0.00070,  -0.00049,-29416096.00000,   0.00000
72577988.28768,-42273497.92422,253062961.52601,  -0.00166,   0.00036,   0.00280,449434720.00000,   0.00207,276879712.00000,  -0.00207,   0.00070,  -0.00049,-27444992.00000,   0.00000
70294626.88023,-46557778.12091,254077032.61307,  -0.00166,   0.00035,   0.00281,451433504.00000,   0.00207,276879712.00000,  -0.00207,   0.00070,  -0.00049,-25446208.00000,   0.00000
67987445.01100,-50852267.08693,255091103.70013,  -0.00166,   0.00033,   0.00282,453456512.00000,   0.00207,276879712.00000,  -0.00207,   0.00070,  -0.00049,-23423200.00000,   0.00000
65680263.14178,-55146756.05296,256105174.78720,  -0.00166,   0.00032,   0.00284,455503392.00000,   0.00207,276879712.00000,  -0.00207,   0.00070,  -0.00049,-21376320.00000,   0.00000
63325440.34900,-59461662.55764,257119245.87426,  -0.00167,   0.00030,   0.00285,457564576.00000,   0.00207,276879712.00000,  -0.00207,   0.00070,  -0.00049,-19315136.00000,   0.00000
60980826.32555,-63752748.60055,258133316.96133,  -0.00167,   0.00029,   0.00286,459640000.00000,   0.00207,276879712.00000,  -0.00207,   0.00070,  -0.00049,-17239712.00000,   0.00000
58588571.37855,-68064252.18213,259154193.89461,  -0.00167,   0.00027,   0.00288,461736640.00000,   0.00207,276879712.00000,  -0.00207,   0.00070,  -0.00049,-15143072.00000,   0.00000
56206525.20088,-72351935.30193,260175070.82790,  -0.00167,   0.00026,   0.00289,463840032.00000,   0.00207,276879712.00000,  -0.00207,   0.00070,  -0.00049,-13039680.00000,   0.00000
53800658.56144,-76649827.19106,261189141.91496,  -0.00168,   0.00024,   0.00290,465907616.00000,   0.00207,276879712.00000,  -0.00207,   0.00070,  -0.00049,-10972096.00000,   0.00000
51347150.99844,-80968136.61886,262210018.84825,  -0.00168,   0.00023,   0.00291,467958336.00000,   0.00207,276879712.00000,  -0.00207,   0.00070,  -0.00049,-8921376.00000,   0.00000
48893643.43545,-85286446.04666,263230895.78153,  -0.00168,   0.00021,   0.00293,470134624.00000,   0.00207,276879712.00000,  -0.00207,   0.00070,  -0.00049,-6745088.00000,   0.00000
46426524.18001,-89591143.78201,264251772.71482,  -0.00168,   0.00020,   0.00294,472346912.00000,   0.00207,276879712.00000,  -0.00207,   0.00070,  -0.00049,-4532800.00000,   0.00000
43935584.46279,-93906050.28670,265272649.64810,  -0.00169,   0.00018,   0.00295,474553440.00000,   0.00207,276879712.00000,  -0.00207,   0.00070,  -0.00049,-2326272.00000,   0.00000
41431033.05313,-98207345.09895,266300332.42761,  -0.00169,   0.00017,   0.00297,476795744.00000,   0.00207,276879712.00000,  -0.00207,   0.00070,  -0.00049,-83968.00000,   0.00000
41337206.75321,-98367342.30217,266338216.53256,  -0.00169,   0.00017,   0.00297,476879328.00000,   0.00207,276879712.00000,  -0.00207,   0.00070,  -0.00049,-384.00000,   0.00000
39026282.20759,-101758062.02562,265893791.82892,  -0.00169,   0.00015,   0.00298,476879328.00000,   0.00208,276891456.00000,  -0.00207,   0.00069,  -0.00048,  96.00000,   2.00000
36593516.94363,-105226666.74999,265408931.80930,  -0.00170,   0.00014,   0.00299,479212608.00000,   0.00209,276904000.00000,  -0.00207,   0.00069,  -0.00046, 192.00000,   2.00000
34113131.21909,-108667529.15468,264923437.40985,  -0.00170,   0.00012,   0.00301,479229824.00000,   0.00211,276916480.00000,  -0.00207,   0.00068,  -0.00044, 256.00000,   2.00000
31576321.36210,-112101427.53200,264453409.66308,  -0.00170,   0.00011,   0.00302,479245920.00000,   0.00212,276928960.00000,  -0.00207,   0.00068,  -0.00042, 192.00000,   2.00000
28960043.59818,-115592272.94240,263999505.39521,  -0.00171,   0.00009,   0.00303,479255808.00000,   0.00213,276941312.00000,  -0.00206,   0.00068,  -0.00040, 224.00000,   2.00000
26285647.90917,-119107162.99119,263573096.30519,  -0.00171,   0.00008,   0.00305,479252928.00000,   0.00214,276953440.00000,  -0.00206,   0.00067,  -0.00038, 352.00000,   2.00000
23554673.24663,-122653997.99012,263177158.12692,  -0.00171,   0.00007,   0.00306,479249344.00000,   0.00215,276965344.00000,  -0.00206,   0.00067,  -0.00036, 256.00000,   2.00000
20758189.40786,-126261155.27114,262811354.43613,  -0.00172,   0.00005,   0.00307,479249600.00000,   0.00216,276976960.00000,  -0.00206,   0.00067,  -0.00034, 192.00000,   2.00000
17912346.36409,-129907119.30970,262479738.89202,  -0.00172,   0.00004,   0.00309,479244608.00000,   0.00217,276988320.00000,  -0.00206,   0.00066,  -0.00032, 128.00000,   2.00000
15020047.34345,-133600544.81118,262174198.58005,  -0.00173,   0.00002,   0.00310,479261728.00000,   0.00218,276999488.00000,  -0.00205,   0.00066,  -0.00031, 256.00000,   2.00000
12112682.99482,-137303317.79674,261882281.34276,  -0.00173,   0.00001,   0.00311,479269760.00000,   0.00220,277010464.00000,  -0.00205,   0.00066,  -0.00029, 160.00000,   2.00000
9195811.21884,-141012462.57054,261586300.47181,  -0.00173,  -0.00001,   0.00313,479311936.00000,   0.00221,277021472.00000,  -0.00205,   0.00065,  -0.00027, 288.00000,   2.00000
6289028.71600,-144685990.39357,261278582.70003,  -0.00174,  -0.00002,   0.00314,479374368.00000,   0.00222,277032608.00000,  -0.00205,   0.00065,  -0.00025, 224.00000,   2.00000
3386283.11487,-148339717.07472,260950631.45981,  -0.00174,  -0.00003,   0.00316,479437792.00000,   0.00223,277043936.00000,  -0.00205,   0.00065,  -0.00024, 288.00000,   2.00000
498789.56740,-151948980.57737,260603082.33719,  -0.00175,  -0.00005,   0.00317,479487520.00000,   0.00224,277055360.00000,  -0.00204,   0.00064,  -0.00022, 256.00000,   2.00000
-2384206.81978,-155526274.14341,260234021.02817,  -0.00175,  -0.00006,   0.00318,479564512.00000,   0.00225,277067008.00000,  -0.00204,   0.00064,  -0.00020, 224.00000,   2.00000
-5251337.82341,-159049001.10103,259845556.93253,  -0.00176,  -0.00008,   0.00320,479625952.00000,   0.00226,277078816.00000,  -0.00204,   0.00064,  -0.00018, 256.00000,   2.00000
-8101615.90148,-162514771.47231,259437475.09405,  -0.00176,  -0.00009,   0.00321,479687360.00000,   0.00227,277090816.00000,  -0.00204,   0.00063,  -0.00016, 224.00000,   2.00000
-10944968.41975,-165948679.24175,259005862.06019,  -0.00176,  -0.00010,   0.00322,479742272.00000,   0.00228,277102976.00000,  -0.00204,   0.00063,  -0.00014, 192.00000,   2.00000
-13796881.83753,-169335300.69184,258557031.15966,  -0.00177,  -0.00012,   0.00324,479808608.00000,   0.00229,277115328.00000,  -0.00204,   0.00063,  -0.00013, 192.00000,   2.00000
-16624574.27847,-172687374.78422,258089415.24815,  -0.00177,  -0.00013,   0.00325,479861440.00000,   0.00231,277127840.00000,  -0.00204,   0.00062,  -0.00011, 256.00000,   2.00000
-19449104.57442,-176001363.78259,257611715.99291,  -0.00178,  -0.00015,   0.00326,479905760.00000,   0.00232,277140480.00000,  -0.00203,   0.00062,  -0.00009, 192.00000,   2.00000
-22280603.61062,-179298412.85353,257127812.96685,  -0.00178,  -0.00016,   0.00328,479912928.00000,   0.00233,277153152.00000,  -0.00203,   0.00061,  -0.00007, 352.00000,   2.00000
-25137348.76637,-182609801.50844,256639619.83249,  -0.00179,  -0.00017,   0.00329,479921280.00000,   0.00234,277165824.00000,  -0.00203,   0.00061,  -0.00005, 320.00000,   2.00000
-28040939.41108,-185935161.65291,256155962.21770,  -0.00179,  -0.00019,   0.00330,479907808.00000,   0.00235,277178464.00000,  -0.00203,   0.00061,  -0.00003, 192.00000,   2.00000
-30947274.57350,-189260795.48025,255680889.88205,  -0.00180,  -0.00020,   0.00332,479880896.00000,   0.00237,277191008.00000,  -0.00203,   0.00060,  -0.00001, 192.00000,   2.00000
-33889326.79909,-192618758.68693,255212101.98871,  -0.00181,  -0.00021,   0.00333,479853504.00000,   0.00238,277203456.00000,  -0.00203,   0.00060,   0.00001, 256.00000,   2.00000
-36865673.99078,-195965188.15700,254757693.94231,  -0.00181,  -0.00023,   0.00334,479823840.00000,   0.00239,277215872.00000,  -0.00203,   0.00059,   0.00003, 288.00000,   2.00000
-39838672.28799,-199317607.92008,254306023.60851,  -0.00182,  -0.00024,   0.00336,479794336.00000,   0.00240,277228192.00000,  -0.00202,   0.00059,   0.00005, 224.00000,   2.00000
-42842785.99217,-202676304.54380,253852462.10858,  -0.00182,  -0.00025,   0.00337,479792256.00000,   0.00241,277240512.00000,  -0.00202,   0.00059,   0.00007, 384.00000,   2.00000
-45796891.69244,-205957641.91524,253398963.93583,  -0.00183,  -0.00027,   0.00338,479809664.00000,   0.00242,277252896.00000,  -0.00202,   0.00058,   0.00009, 384.00000,   2.00000
-48757594.73023,-209217999.69603,252929726.43683,  -0.00183,  -0.00028,   0.00340,479843040.00000,   0.00244,277265376.00000,  -0.00202,   0.00058,   0.00011, 288.00000,   2.00000
-51682232.21858,-212413320.86008,252444483.37403,  -0.00184,  -0.00029,   0.00341,479899488.00000,   0.00245,277278016.00000,  -0.00202,   0.00057,   0.00013, 160.00000,   2.00000
-54550198.52563,-215548261.73089,251937680.92375,  -0.00185,  -0.00030,   0.00342,479985248.00000,   0.00246,277290880.00000,  -0.00202,   0.00057,   0.00015, 224.00000,   2.00000
-57392403.34040,-218609329.40795,251413745.64210,  -0.00185,  -0.00032,   0.00344,480046208.00000,   0.00247,277303840.00000,  -0.00202,   0.00057,   0.00017, 320.00000,   2.00000
-60203897.02199,-221629057.40611,250866031.43142,  -0.00186,  -0.00033,   0.00345,480131488.00000,   0.00248,277316992.00000,  -0.00202,   0.00056,   0.00019, 256.00000,   2.00000
-62977937.86466,-224588248.28239,250300955.23092,  -0.00186,  -0.00034,   0.00346,480215232.00000,   0.00250,277330368.00000,  -0.00202,   0.00056,   0.00021, 160.00000,   2.00000
-65723297.30300,-227501957.45833,249718665.42373,  -0.00187,  -0.00036,   0.00348,480270048.00000,   0.00251,277343840.00000,  -0.00202,   0.00055,   0.00023, 192.00000,   2.00000
-68444014.50106,-230371685.30541,249122143.54894,  -0.00188,  -0.00037,   0.00349,480325344.00000,   0.00252,277357408.00000,  -0.00202,   0.00055,   0.00025, 288.00000,   2.00000
-71167631.52748,-233206834.43272,248513116.30519,  -0.00188,  -0.00038,   0.00351,480383296.00000,   0.00254,277371168.00000,  -0.00202,   0.00054,   0.00027, 224.00000,   2.00000
-73865719.84454,-236023478.21501,247890052.90241,  -0.00189,  -0.00039,   0.00352,480411296.00000,   0.00255,277384960.00000,  -0.00202,   0.00054,   0.00030, 192.00000,   2.00000
-76556972.40196,-238810087.95030,247259327.11871,  -0.00190,  -0.00041,   0.00353,480433376.00000,   0.00256,277398816.00000,  -0.00202,   0.00053,   0.00032, 288.00000,   2.00000
-79237026.52256,-241545802.80930,246629310.55451,  -0.00190,  -0.00042,   0.00355,480447424.00000,   0.00258,277412736.00000,  -0.00202,   0.00053,   0.00034, 256.00000,   2.00000
-81955064.28004,-244291374.27166,245988205.73002,  -0.00191,  -0.00043,   0.00356,480453600.00000,   0.00259,277426688.00000,  -0.00202,   0.00052,   0.00036, 256.00000,   2.00000
-84681779.46694,-247016167.14050,245345779.57710,  -0.00192,  -0.00044,   0.00357,480451168.00000,   0.00260,277440672.00000,  -0.00202,   0.00052,   0.00038, 256.00000,   2.00000
-87396893.58972,-249713279.21983,244705470.00564,  -0.00193,  -0.00045,   0.00359,480440576.00000,   0.00261,277454624.00000,  -0.00202,   0.00051,   0.00040, 192.00000,   2.00000
-90148541.81334,-252400407.68593,244064859.10112,  -0.00193,  -0.00047,   0.00360,480434112.00000,   0.00263,277468576.00000,  -0.00202,   0.00051,   0.00043, 384.00000,   2.00000
-92911484.01734,-255063187.80201,243427751.91042,  -0.00194,  -0.00048,   0.00361,480434240.00000,   0.00264,277482592.00000,  -0.00202,   0.00050,   0.00045, 320.00000,   2.00000
-95696547.22063,-257727348.75020,242787188.41646,  -0.00195,  -0.00049,   0.00363,480424736.00000,   0.00265,277496576.00000,  -0.00202,   0.00050,   0.00047, 352.00000,   2.00000
-98482372.25961,-260343860.62025,242154353.33844,  -0.00196,  -0.00050,   0.00364,480412640.00000,   0.00267,277510496.00000,  -0.00202,   0.00049,   0.00049, 224.00000,   2.00000
-101273290.70144,-262926482.65017,241523774.43994,  -0.00196,  -0.00051,   0.00365,480415136.00000,   0.00268,277524416.00000,  -0.00202,   0.00049,   0.00051, 384.00000,   2.00000
-104067333.82952,-265472541.20380,240893520.11258,  -0.00197,  -0.00052,   0.00367,480415808.00000,   0.00269,277538336.00000,  -0.00202,   0.00048,   0.00054, 224.00000,   2.00000
-106863879.57217,-267985280.78614,240260353.80333,  -0.00198,  -0.00054,   0.00368,480451840.00000,   0.00271,277552352.00000,  -0.00202,   0.00047,   0.00056, 256.00000,   2.00000
-109670140.72282,-270432319.54972,239631217.27418,  -0.00199,  -0.00055,   0.00369,480473344.00000,   0.00272,277566368.00000,  -0.00202,   0.00047,   0.00058, 224.00000,   2.00000
-112447503.12081,-272812052.10065,239004782.35063,  -0.00200,  -0.00056,   0.00371,480503552.00000,   0.00273,277580416.00000,  -0.00202,   0.00046,   0.00060, 192.00000,   2.00000
-115246090.12012,-275144638.41491,238376353.94987,  -0.00200,  -0.00057,   0.00372,480536800.00000,   0.00275,277594464.00000,  -0.00202,   0.00046,   0.00062, 288.00000,   2.00000
-118026184.23458,-277423682.21279,237747960.42403,  -0.00201,  -0.00058,   0.00373,480594016.00000,   0.00276,277608640.00000,  -0.00202,   0.00045,   0.00064, 288.00000,   2.00000
-120829549.20341,-279643703.93023,237124824.20278,  -0.00202,  -0.00059,   0.00375,480621856.00000,   0.00277,277622784.00000,  -0.00202,   0.00044,   0.00066, 320.00000,   2.00000
-123642504.18549,-281812208.29656,236507392.37113,  -0.00203,  -0.00060,   0.00376,480672512.00000,   0.00279,277636960.00000,  -0.00202,   0.00044,   0.00069, 320.00000,   2.00000
-126477451.49561,-283949164.78281,235893516.14807,  -0.00204,  -0.00061,   0.00377,480700448.00000,   0.00280,277651136.00000,  -0.00202,   0.00043,   0.00071, 416.00000,   2.00000
-129338992.30326,-286059652.12124,235285310.16432,  -0.00205,  -0.00062,   0.00379,480731552.00000,   0.00281,277665248.00000,  -0.00202,   0.00042,   0.00073, 320.00000,   2.00000
-132226552.45279,-288136574.05294,234689129.15542,  -0.00206,  -0.00064,   0.00380,480743904.00000,   0.00283,277679296.00000,  -0.00202,   0.00042,   0.00075, 384.00000,   2.00000
-135161718.22753,-290225132.00270,234093947.58831,  -0.00206,  -0.00065,   0.00381,480767328.00000,   0.00284,277693376.00000,  -0.00201,   0.00041,   0.00077, 256.00000,   2.00000
-138142533.17625,-292315090.38800,233506375.06971,  -0.00207,  -0.00066,   0.00383,480768736.00000,   0.00285,277707360.00000,  -0.00201,   0.00040,   0.00079, 320.00000,   2.00000
-141187189.94052,-294401444.82096,232931578.45386,  -0.00208,  -0.00067,   0.00384,480751648.00000,   0.00287,277721280.00000,  -0.00201,   0.00040,   0.00081, 224.00000,   2.00000
-144252467.45972,-296484400.52722,232369468.38995,  -0.00209,  -0.00068,   0.00385,480729536.00000,   0.00288,277735072.00000,  -0.00201,   0.00039,   0.00083, 320.00000,   2.00000
-147348770.76897,-298571640.50503,231813760.74900,  -0.00210,  -0.00069,   0.00387,480725056.00000,   0.00289,277748768.00000,  -0.00201,   0.00038,   0.00085, 320.00000,   2.00000
-150303537.03976,-300500406.65854,231274383.48523,  -0.00211,  -0.00070,   0.00388,480801888.00000,   0.00291,277762496.00000,  -0.00201,   0.00038,   0.00087, 224.00000,   2.00000
-153247245.29036,-302360621.31052,230677496.10861,  -0.00212,  -0.00071,   0.00389,480911136.00000,   0.00292,277776672.00000,  -0.00201,   0.00037,   0.00090, 256.00000,   2.00000
-156275914.73937,-304264089.81641,230076052.42918,  -0.00213,  -0.00072,   0.00391,480839200.00000,   0.00293,277790784.00000,  -0.00201,   0.00036,   0.00092,  64.00000,   2.00000
-159380072.83000,-306258073.39690,229509445.77666,  -0.00214,  -0.00073,   0.00392,480752128.00000,   0.00295,277804576.00000,  -0.00201,   0.00036,   0.00094, -32.00000,   1.00000
-162466501.71794,-308230297.08726,228958809.70038,  -0.00215,  -0.00074,   0.00393,480745728.00000,   0.00296,277818176.00000,  -0.00201,   0.00035,   0.00096,   0.00000,   2.00000
-165469157.97277,-310139420.09403,228396599.89059,  -0.00216,  -0.00075,   0.00395,480802400.00000,   0.00297,277831872.00000,  -0.00201,   0.00034,   0.00098, -64.00000,   2.00000
-168409308.53033,-311985256.27918,227814700.99053,  -0.00217,  -0.00075,   0.00396,480871712.00000,   0.00299,277845760.00000,  -0.00201,   0.00034,   0.00100, -32.00000,   2.00000
-171312938.68453,-313770568.90120,227216019.37507,  -0.00218,  -0.00076,   0.00397,480915392.00000,   0.00300,277859712.00000,  -0.00201,   0.00033,   0.00102,  64.00000,   2.00000
-174154973.49320,-315517012.04358,226600001.30599,  -0.00219,  -0.00077,   0.00399,480975776.00000,   0.00301,277873856.00000,  -0.00201,   0.00032,   0.00104, -64.00000,   2.00000
-176983917.27098,-317230447.02719,225972789.83683,  -0.00220,  -0.00078,   0.00400,480990944.00000,   0.00303,277888000.00000,  -0.00201,   0.00032,   0.00106, -32.00000,   2.00000
