# sigma_xx, sigma_yy, sigma_xy, epsilon_xx, epsilon_yy, epsilon_xy, vonMises, epsPlastic, hardening, epsilonP__xx, epsilonP__yy, epsilonP__xy, yieldValue, iteration
   0.00000,   0.00000,   0.00000,   0.00000,   0.00000,   0.00000,1181185.37500,   0.00000,274640576.00000,   0.00000,   0.00000,   0.00000,-473459392.00000,   0.00000
   0.00000,   0.00000,   0.00000,   0.00000,   0.00000,   0.00000,1181185.37500,   0.00000,274640576.00000,   0.00000,   0.00000,   0.00000,-473459392.00000,   0.00000
-1015198.97900,725142.12786,-371272.76946,  -0.00001,   0.00001,  -0.00000,1084645.25000,   0.00000,274640576.00000,   0.00000,   0.00000,   0.00000,-473555936.00000,   0.00000
-2010093.97842,1458985.96125,-748346.67595,  -0.00001,   0.00001,  -0.00001,2416639.75000,   0.00000,274640576.00000,   0.00000,   0.00000,   0.00000,-472223936.00000,   0.00000
-3004988.97784,2192829.79464,-1125420.58243,  -0.00002,   0.00002,  -0.00001,4230200.50000,   0.00000,274640576.00000,   0.00000,   0.00000,   0.00000,-470410368.00000,   0.00000
-3979579.99768,2935375.33357,-1508295.62594,  -0.00002,   0.00002,  -0.00002,6075698.50000,   0.00000,274640576.00000,   0.00000,   0.00000,   0.00000,-468564864.00000,   0.00000
-4933867.03794,3686622.57803,-1891170.66945,  -0.00003,   0.00003,  -0.00002,7864391.00000,   0.00000,274640576.00000,   0.00000,   0.00000,   0.00000,-466776192.00000,   0.00000
-5876551.80415,4426267.54844,-2279846.84998,  -0.00004,   0.00003,  -0.00003,9613306.00000,   0.00000,274640576.00000,   0.00000,   0.00000,   0.00000,-465027264.00000,   0.00000
-6790230.88525,5194918.20397,-2668523.03051,  -0.00004,   0.00004,  -0.00003,11338786.00000,   0.00000,274640576.00000,   0.00000,   0.00000,   0.00000,-463301792.00000,   0.00000
-7712611.67189,5943264.87992,-3063000.34807,  -0.00005,   0.00004,  -0.00004,13043223.00000,   0.00000,274640576.00000,   0.00000,   0.00000,   0.00000,-461597360.00000,   0.00000
-8594384.49936,6709014.96693,-3457477.66562,  -0.00005,   0.00005,  -0.00004,14697363.00000,   0.00000,274640576.00000,   0.00000,   0.00000,   0.00000,-459943216.00000,   0.00000
-9476157.32684,7474765.05395,-3857756.12020,  -0.00006,   0.00005,  -0.00005,16333532.00000,   0.00000,274640576.00000,   0.00000,   0.00000,   0.00000,-458307040.00000,   0.00000
-10346327.88026,8228912.86692,-4263835.71180,  -0.00006,   0.00006,  -0.00006,17939642.00000,   0.00000,274640576.00000,   0.00000,   0.00000,   0.00000,-456700928.00000,   0.00000
-11187492.74858,9012066.36501,-4664114.16638,  -0.00007,   0.00006,  -0.00006,19529226.00000,   0.00000,274640576.00000,   0.00000,   0.00000,   0.00000,-455111344.00000,   0.00000
-12037359.32243,9774915.88351,-5075994.89500,  -0.00007,   0.00007,  -0.00007,21115274.00000,   0.00000,274640576.00000,   0.00000,   0.00000,   0.00000,-453525296.00000,   0.00000
-12846617.93712,10555168.81309,-5482074.48660,  -0.00008,   0.00007,  -0.00007,22673226.00000,   0.00000,274640576.00000,   0.00000,   0.00000,   0.00000,-451967344.00000,   0.00000
-13655876.55180,11335421.74266,-5893955.21522,  -0.00008,   0.00008,  -0.00008,24234202.00000,   0.00000,274640576.00000,   0.00000,   0.00000,   0.00000,-450406368.00000,   0.00000
-14444831.18691,12124376.37777,-6311637.08087,  -0.00009,   0.00008,  -0.00008,25787600.00000,   0.00000,274640576.00000,   0.00000,   0.00000,   0.00000,-448852976.00000,   0.00000
-15213481.84244,12922032.71841,-6729318.94651,  -0.00009,   0.00009,  -0.00009,27329612.00000,   0.00000,274640576.00000,   0.00000,   0.00000,   0.00000,-447310960.00000,   0.00000
-15970530.22392,13708086.78501,-7152801.94918,  -0.00010,   0.00009,  -0.00009,28856588.00000,   0.00000,274640576.00000,   0.00000,   0.00000,   0.00000,-445783984.00000,   0.00000
-16707274.62583,14502842.55714,-7570483.81483,  -0.00010,   0.00010,  -0.00010,30367940.00000,   0.00000,274640576.00000,   0.00000,   0.00000,   0.00000,-444272640.00000,   0.00000
-17444019.02773,15297598.32927,-7999767.95452,  -0.00011,   0.00010,  -0.00010,31887518.00000,   0.00000,274640576.00000,   0.00000,   0.00000,   0.00000,-442753056.00000,   0.00000
-18140155.47047,16109757.51247,-8423250.95719,  -0.00011,   0.00011,  -0.00011,33382434.00000,   0.00000,274640576.00000,   0.00000,   0.00000,   0.00000,-441258144.00000,   0.00000
-18844993.61875,16901612.71609,-8858336.23390,  -0.00012,   0.00011,  -0.00012,34878144.00000,   0.00000,274640576.00000,   0.00000,   0.00000,   0.00000,-439762432.00000,   0.00000
-19529527.78745,17702169.62525,-9287620.37359,  -0.00012,   0.00012,  -0.00012,36359960.00000,   0.00000,274640576.00000,   0.00000,   0.00000,   0.00000,-438280608.00000,   0.00000
-20193757.97656,18511428.23994,-9722705.65031,  -0.00013,   0.00012,  -0.00013,37837488.00000,   0.00000,274640576.00000,   0.00000,   0.00000,   0.00000,-436803088.00000,   0.00000
-20837684.18610,19329388.56016,-10157790.92702,  -0.00013,   0.00013,  -0.00013,39306488.00000,   0.00000,274640576.00000,   0.00000,   0.00000,   0.00000,-435334080.00000,   0.00000
-21461306.41606,20156050.58591,-10598677.34076,  -0.00014,   0.00013,  -0.00014,40771840.00000,   0.00000,274640576.00000,   0.00000,   0.00000,   0.00000,-433868736.00000,   0.00000
-22073326.37197,20971110.33763,-11039563.75450,  -0.00014,   0.00014,  -0.00014,42220744.00000,   0.00000,274640576.00000,   0.00000,   0.00000,   0.00000,-432419840.00000,   0.00000
-22665042.34830,21794871.79487,-11480450.16823,  -0.00015,   0.00014,  -0.00015,43661564.00000,   0.00000,274640576.00000,   0.00000,   0.00000,   0.00000,-430979008.00000,   0.00000
-23256758.32463,22618633.25212,-11927137.71899,  -0.00015,   0.00015,  -0.00016,45108176.00000,   0.00000,274640576.00000,   0.00000,   0.00000,   0.00000,-429532400.00000,   0.00000
-23807866.34180,23459798.12043,-12373825.26975,  -0.00015,   0.00015,  -0.00016,46537828.00000,   0.00000,274640576.00000,   0.00000,   0.00000,   0.00000,-428102752.00000,   0.00000
-24367676.06451,24280659.00917,-12820512.82051,  -0.00016,   0.00016,  -0.00017,47959480.00000,   0.00000,274640576.00000,   0.00000,   0.00000,   0.00000,-426681088.00000,   0.00000
-24907181.80763,25110221.60343,-13267200.37127,  -0.00016,   0.00016,  -0.00017,49373004.00000,   0.00000,274640576.00000,   0.00000,   0.00000,   0.00000,-425267568.00000,   0.00000
-25406079.59160,25957187.60877,-13719689.05906,  -0.00017,   0.00017,  -0.00018,50774360.00000,   0.00000,274640576.00000,   0.00000,   0.00000,   0.00000,-423866208.00000,   0.00000
-25913679.08110,26783849.63453,-14172177.74684,  -0.00017,   0.00017,  -0.00018,52167076.00000,   0.00000,274640576.00000,   0.00000,   0.00000,   0.00000,-422473504.00000,   0.00000
-26392272.88549,27639517.34540,-14630467.57164,  -0.00017,   0.00018,  -0.00019,53565500.00000,   0.00000,274640576.00000,   0.00000,   0.00000,   0.00000,-421075072.00000,   0.00000
-26859264.41583,28483582.78223,-15088757.39645,  -0.00018,   0.00018,  -0.00020,54946652.00000,   0.00000,274640576.00000,   0.00000,   0.00000,   0.00000,-419693920.00000,   0.00000
-27314653.67212,29316045.94501,-15547047.22126,  -0.00018,   0.00019,  -0.00020,56310356.00000,   0.00000,274640576.00000,   0.00000,   0.00000,   0.00000,-418330224.00000,   0.00000
-27741037.24330,30177514.79290,-16005337.04606,  -0.00019,   0.00019,  -0.00021,57675412.00000,   0.00000,274640576.00000,   0.00000,   0.00000,   0.00000,-416965168.00000,   0.00000
-28155818.54043,31027381.36675,-16469428.00789,  -0.00019,   0.00020,  -0.00021,59027940.00000,   0.00000,274640576.00000,   0.00000,   0.00000,   0.00000,-415612640.00000,   0.00000
-28570599.83757,31877247.94060,-16927717.83270,  -0.00019,   0.00020,  -0.00022,60376184.00000,   0.00000,274640576.00000,   0.00000,   0.00000,   0.00000,-414264384.00000,   0.00000
-28953474.88108,32724213.94593,-17391808.79452,  -0.00020,   0.00021,  -0.00023,61704132.00000,   0.00000,274640576.00000,   0.00000,   0.00000,   0.00000,-412936448.00000,   0.00000
-29307344.23947,33600185.63638,-17861700.89338,  -0.00020,   0.00021,  -0.00023,63039032.00000,   0.00000,274640576.00000,   0.00000,   0.00000,   0.00000,-411601536.00000,   0.00000
-29649611.32382,34464555.05279,-18325791.85520,  -0.00020,   0.00021,  -0.00024,64352620.00000,   0.00000,274640576.00000,   0.00000,   0.00000,   0.00000,-410287952.00000,   0.00000
-30000580.11370,35308620.48962,-18795683.95405,  -0.00021,   0.00022,  -0.00024,65662772.00000,   0.00000,274640576.00000,   0.00000,   0.00000,   0.00000,-408977808.00000,   0.00000
-30302239.23889,36190393.31709,-19265576.05291,  -0.00021,   0.00022,  -0.00025,66967920.00000,   0.00000,274640576.00000,   0.00000,   0.00000,   0.00000,-407672656.00000,   0.00000
-30612600.06961,37051862.16498,-19735468.15176,  -0.00021,   0.00023,  -0.00026,68265016.00000,   0.00000,274640576.00000,   0.00000,   0.00000,   0.00000,-406375552.00000,   0.00000
-30891054.64671,37910430.44437,-20205360.25061,  -0.00021,   0.00023,  -0.00026,69538672.00000,   0.00000,274640576.00000,   0.00000,   0.00000,   0.00000,-405101904.00000,   0.00000
-31160807.51827,38789302.70333,-20675252.34946,  -0.00022,   0.00024,  -0.00027,70823752.00000,   0.00000,274640576.00000,   0.00000,   0.00000,   0.00000,-403816832.00000,   0.00000
-31398654.13621,39665274.39378,-21150945.58533,  -0.00022,   0.00024,  -0.00027,72091112.00000,   0.00000,274640576.00000,   0.00000,   0.00000,   0.00000,-402549472.00000,   0.00000
-31645202.45968,40520942.10465,-21626638.82121,  -0.00022,   0.00025,  -0.00028,73351032.00000,   0.00000,274640576.00000,   0.00000,   0.00000,   0.00000,-401289536.00000,   0.00000
-31862745.09804,41405615.50064,-22102332.05708,  -0.00023,   0.00025,  -0.00029,74615480.00000,   0.00000,274640576.00000,   0.00000,   0.00000,   0.00000,-400025088.00000,   0.00000
-32048381.48277,42287388.32811,-22578025.29296,  -0.00023,   0.00025,  -0.00029,75857848.00000,   0.00000,274640576.00000,   0.00000,   0.00000,   0.00000,-398782720.00000,   0.00000
-32234017.86750,43169161.15559,-23053718.52883,  -0.00023,   0.00026,  -0.00030,77103104.00000,   0.00000,274640576.00000,   0.00000,   0.00000,   0.00000,-397537472.00000,   0.00000
-32408051.97819,44039331.70901,-23529411.76471,  -0.00023,   0.00026,  -0.00031,78333992.00000,   0.00000,274640576.00000,   0.00000,   0.00000,   0.00000,-396306592.00000,   0.00000
-32541478.12971,44926905.67351,-24010906.13760,  -0.00024,   0.00027,  -0.00031,79559056.00000,   0.00000,274640576.00000,   0.00000,   0.00000,   0.00000,-395081520.00000,   0.00000
-32674904.28124,45814479.63801,-24486599.37348,  -0.00024,   0.00027,  -0.00032,80782096.00000,   0.00000,274640576.00000,   0.00000,   0.00000,   0.00000,-393858480.00000,   0.00000
-32796728.15872,46690451.32846,-24968093.74637,  -0.00024,   0.00028,  -0.00032,81996752.00000,   0.00000,274640576.00000,   0.00000,   0.00000,   0.00000,-392643824.00000,   0.00000
-32877944.07704,47583826.42998,-25449588.11927,  -0.00024,   0.00028,  -0.00033,83201552.00000,   0.00000,274640576.00000,   0.00000,   0.00000,   0.00000,-391439024.00000,   0.00000
-32959159.99536,48477201.53150,-25931082.49217,  -0.00024,   0.00028,  -0.00034,84409896.00000,   0.00000,274640576.00000,   0.00000,   0.00000,   0.00000,-390230688.00000,   0.00000
-33028773.63963,49358974.35897,-26406775.72804,  -0.00025,   0.00029,  -0.00034,85599208.00000,   0.00000,274640576.00000,   0.00000,   0.00000,   0.00000,-389041376.00000,   0.00000
-33057779.32475,50258150.59752,-26888270.10094,  -0.00025,   0.00029,  -0.00035,86784272.00000,   0.00000,274640576.00000,   0.00000,   0.00000,   0.00000,-387856304.00000,   0.00000
-33095486.71540,51137022.85648,-27369764.47384,  -0.00025,   0.00030,  -0.00036,87960712.00000,   0.00000,274640576.00000,   0.00000,   0.00000,   0.00000,-386679872.00000,   0.00000
-33112890.12646,52024596.82098,-27857059.98376,  -0.00025,   0.00030,  -0.00036,89137928.00000,   0.00000,274640576.00000,   0.00000,   0.00000,   0.00000,-385502656.00000,   0.00000
-33089685.57837,52929574.19654,-28338554.35665,  -0.00025,   0.00031,  -0.00037,90297896.00000,   0.00000,274640576.00000,   0.00000,   0.00000,   0.00000,-384342688.00000,   0.00000
-33075182.73582,53814247.59253,-28820048.72955,  -0.00026,   0.00031,  -0.00037,91446808.00000,   0.00000,274640576.00000,   0.00000,   0.00000,   0.00000,-383193760.00000,   0.00000
-33040375.91368,54707622.69405,-29301543.10245,  -0.00026,   0.00031,  -0.00038,92588744.00000,   0.00000,274640576.00000,   0.00000,   0.00000,   0.00000,-382051840.00000,   0.00000
-32985265.11196,55609699.50110,-29783037.47535,  -0.00026,   0.00032,  -0.00039,93723272.00000,   0.00000,274640576.00000,   0.00000,   0.00000,   0.00000,-380917312.00000,   0.00000
-32898248.05662,56508875.73964,-30264531.84824,  -0.00026,   0.00032,  -0.00039,94834128.00000,   0.00000,274640576.00000,   0.00000,   0.00000,   0.00000,-379806448.00000,   0.00000
-32811231.00128,57408051.97819,-30751827.35816,  -0.00026,   0.00033,  -0.00040,95950592.00000,   0.00000,274640576.00000,   0.00000,   0.00000,   0.00000,-378689984.00000,   0.00000
-32692307.69231,58304327.64822,-31233321.73106,  -0.00026,   0.00033,  -0.00041,97039024.00000,   0.00000,274640576.00000,   0.00000,   0.00000,   0.00000,-377601552.00000,   0.00000
-32573384.38334,59200603.31825,-31714816.10396,  -0.00026,   0.00033,  -0.00041,98128544.00000,   0.00000,274640576.00000,   0.00000,   0.00000,   0.00000,-376512032.00000,   0.00000
-32434157.09479,60105580.69382,-32196310.47685,  -0.00026,   0.00034,  -0.00042,99213280.00000,   0.00000,274640576.00000,   0.00000,   0.00000,   0.00000,-375427296.00000,   0.00000
-32263023.55262,61007657.50087,-32677804.84975,  -0.00027,   0.00034,  -0.00042,100277128.00000,   0.00000,274640576.00000,   0.00000,   0.00000,   0.00000,-374363456.00000,   0.00000
-32100591.71598,61889430.32834,-33159299.22265,  -0.00027,   0.00034,  -0.00043,101332496.00000,   0.00000,274640576.00000,   0.00000,   0.00000,   0.00000,-373308080.00000,   0.00000
-31888850.21464,62808910.54647,-33640793.59554,  -0.00027,   0.00035,  -0.00044,102387768.00000,   0.00000,274640576.00000,   0.00000,   0.00000,   0.00000,-372252800.00000,   0.00000
-31694512.12438,63687782.80543,-34122287.96844,  -0.00027,   0.00035,  -0.00044,103424232.00000,   0.00000,274640576.00000,   0.00000,   0.00000,   0.00000,-371216352.00000,   0.00000
-31450864.36942,64604362.45504,-34603782.34134,  -0.00027,   0.00036,  -0.00045,104461024.00000,   0.00000,274640576.00000,   0.00000,   0.00000,   0.00000,-370179552.00000,   0.00000
-31215918.31999,65500638.12507,-35085276.71424,  -0.00027,   0.00036,  -0.00046,105489272.00000,   0.00000,274640576.00000,   0.00000,   0.00000,   0.00000,-369151296.00000,   0.00000
-30949066.01694,66394013.22659,-35560969.95011,  -0.00027,   0.00036,  -0.00046,106491824.00000,   0.00000,274640576.00000,   0.00000,   0.00000,   0.00000,-368148752.00000,   0.00000
-30653208.02877,67316394.01323,-36042464.32301,  -0.00027,   0.00037,  -0.00047,107507200.00000,   0.00000,274640576.00000,   0.00000,   0.00000,   0.00000,-367133376.00000,   0.00000
-30374753.45168,68198166.84070,-36518157.55888,  -0.00027,   0.00037,  -0.00047,108498056.00000,   0.00000,274640576.00000,   0.00000,   0.00000,   0.00000,-366142528.00000,   0.00000
-30055690.91542,69097343.07924,-36999651.93178,  -0.00027,   0.00037,  -0.00048,109486688.00000,   0.00000,274640576.00000,   0.00000,   0.00000,   0.00000,-365153888.00000,   0.00000
-29736628.37916,69996519.31779,-37475345.16765,  -0.00027,   0.00038,  -0.00049,110472752.00000,   0.00000,274640576.00000,   0.00000,   0.00000,   0.00000,-364167824.00000,   0.00000
-29376957.88375,70913098.96740,-37951038.40353,  -0.00027,   0.00038,  -0.00049,111452944.00000,   0.00000,274640576.00000,   0.00000,   0.00000,   0.00000,-363187632.00000,   0.00000
-29014386.81982,71797772.36338,-38426731.63940,  -0.00027,   0.00038,  -0.00050,112413680.00000,   0.00000,274640576.00000,   0.00000,   0.00000,   0.00000,-362226896.00000,   0.00000
-28622810.07077,72711451.44448,-38902424.87528,  -0.00027,   0.00039,  -0.00051,113391992.00000,   0.00000,274640576.00000,   0.00000,   0.00000,   0.00000,-361248576.00000,   0.00000
-28219631.04769,73613528.25154,-39372316.97413,  -0.00027,   0.00039,  -0.00051,114366608.00000,   0.00000,274640576.00000,   0.00000,   0.00000,   0.00000,-360273968.00000,   0.00000
-27825153.73013,74495301.07901,-39848010.21000,  -0.00027,   0.00039,  -0.00052,115350880.00000,   0.00000,274640576.00000,   0.00000,   0.00000,   0.00000,-359289696.00000,   0.00000
-27390068.45342,75394477.31755,-40317902.30885,  -0.00027,   0.00040,  -0.00052,116312600.00000,   0.00000,274640576.00000,   0.00000,   0.00000,   0.00000,-358327968.00000,   0.00000
-26934679.19712,76302355.26163,-40787794.40770,  -0.00027,   0.00040,  -0.00053,117228768.00000,   0.00000,274640576.00000,   0.00000,   0.00000,   0.00000,-357411808.00000,   0.00000
-26467687.66678,77198630.93166,-41257686.50656,  -0.00027,   0.00040,  -0.00054,118133304.00000,   0.00000,274640576.00000,   0.00000,   0.00000,   0.00000,-356507264.00000,   0.00000
-25980392.15686,78103608.30723,-41727578.60541,  -0.00027,   0.00041,  -0.00054,119074032.00000,   0.00000,274640576.00000,   0.00000,   0.00000,   0.00000,-355566544.00000,   0.00000
-25481494.37290,78996983.40875,-42191669.56724,  -0.00027,   0.00041,  -0.00055,120004136.00000,   0.00000,274640576.00000,   0.00000,   0.00000,   0.00000,-354636448.00000,   0.00000
-24970994.31489,79878756.23622,-42661561.66609,  -0.00027,   0.00041,  -0.00055,120917032.00000,   0.00000,274640576.00000,   0.00000,   0.00000,   0.00000,-353723552.00000,   0.00000
-24440190.27729,80769230.76923,-43125652.62792,  -0.00027,   0.00042,  -0.00056,121813552.00000,   0.00000,274640576.00000,   0.00000,   0.00000,   0.00000,-352827024.00000,   0.00000
-23889082.26012,81668407.00777,-43589743.58974,  -0.00027,   0.00042,  -0.00057,122704600.00000,   0.00000,274640576.00000,   0.00000,   0.00000,   0.00000,-351935968.00000,   0.00000
-23326371.96891,82555980.97227,-44048033.41455,  -0.00027,   0.00042,  -0.00057,123576496.00000,   0.00000,274640576.00000,   0.00000,   0.00000,   0.00000,-351064080.00000,   0.00000
-22743357.69811,83452256.64230,-44512124.37638,  -0.00027,   0.00042,  -0.00058,124454120.00000,   0.00000,274640576.00000,   0.00000,   0.00000,   0.00000,-350186464.00000,   0.00000
-22148741.15327,84336930.03829,-44970414.20118,  -0.00027,   0.00043,  -0.00058,125314920.00000,   0.00000,274640576.00000,   0.00000,   0.00000,   0.00000,-349325664.00000,   0.00000
-21513516.64926,85239006.84534,-45428704.02599,  -0.00026,   0.00043,  -0.00059,126172744.00000,   0.00000,274640576.00000,   0.00000,   0.00000,   0.00000,-348467840.00000,   0.00000
-20886993.85079,86120779.67282,-45881192.71377,  -0.00026,   0.00043,  -0.00060,127018056.00000,   0.00000,274640576.00000,   0.00000,   0.00000,   0.00000,-347622528.00000,   0.00000
-20240167.07275,87011254.20582,-46333681.40155,  -0.00026,   0.00044,  -0.00060,127864480.00000,   0.00000,274640576.00000,   0.00000,   0.00000,   0.00000,-346776096.00000,   0.00000
-19581738.02065,87890126.46479,-46786170.08934,  -0.00026,   0.00044,  -0.00061,128701048.00000,   0.00000,274640576.00000,   0.00000,   0.00000,   0.00000,-345939520.00000,   0.00000
-18911706.69451,88757396.44970,-47238658.77712,  -0.00026,   0.00044,  -0.00061,129527856.00000,   0.00000,274640576.00000,   0.00000,   0.00000,   0.00000,-345112720.00000,   0.00000
-18192365.70368,89662373.82527,-47685346.32788,  -0.00026,   0.00044,  -0.00062,130357696.00000,   0.00000,274640576.00000,   0.00000,   0.00000,   0.00000,-344282880.00000,   0.00000
-17490428.12391,90526743.24168,-48132033.87864,  -0.00026,   0.00045,  -0.00063,131169888.00000,   0.00000,274640576.00000,   0.00000,   0.00000,   0.00000,-343470688.00000,   0.00000
-16768186.56457,91399814.36362,-48578721.42940,  -0.00025,   0.00045,  -0.00063,131983656.00000,   0.00000,274640576.00000,   0.00000,   0.00000,   0.00000,-342656928.00000,   0.00000
-16005337.04606,92290288.89662,-49019607.84314,  -0.00025,   0.00045,  -0.00064,132789816.00000,   0.00000,274640576.00000,   0.00000,   0.00000,   0.00000,-341850752.00000,   0.00000
-15251189.23309,93160459.45005,-49460494.25687,  -0.00025,   0.00045,  -0.00064,133589408.00000,   0.00000,274640576.00000,   0.00000,   0.00000,   0.00000,-341051168.00000,   0.00000
-14465135.16649,94027729.43497,-49901380.67061,  -0.00025,   0.00046,  -0.00065,134376720.00000,   0.00000,274640576.00000,   0.00000,   0.00000,   0.00000,-340263856.00000,   0.00000
-13679081.09990,94894999.41989,-50336465.94733,  -0.00025,   0.00046,  -0.00065,135162256.00000,   0.00000,274640576.00000,   0.00000,   0.00000,   0.00000,-339478320.00000,   0.00000
-12872723.05372,95770971.11034,-50771551.22404,  -0.00025,   0.00046,  -0.00066,135949920.00000,   0.00000,274640576.00000,   0.00000,   0.00000,   0.00000,-338690656.00000,   0.00000
-12034458.75392,96644042.23228,-51206636.50075,  -0.00024,   0.00046,  -0.00067,136725824.00000,   0.00000,274640576.00000,   0.00000,   0.00000,   0.00000,-337914752.00000,   0.00000
-11204896.15965,97496809.37464,-51635920.64045,  -0.00024,   0.00047,  -0.00067,137488512.00000,   0.00000,274640576.00000,   0.00000,   0.00000,   0.00000,-337152064.00000,   0.00000
-10334725.60622,98366979.92807,-52065204.78014,  -0.00024,   0.00047,  -0.00068,138251184.00000,   0.00000,274640576.00000,   0.00000,   0.00000,   0.00000,-336389392.00000,   0.00000
-9473256.75832,99216846.50191,-52488687.78281,  -0.00024,   0.00047,  -0.00068,139000656.00000,   0.00000,274640576.00000,   0.00000,   0.00000,   0.00000,-335639920.00000,   0.00000
-8571179.95127,100084116.48683,-52912170.78547,  -0.00023,   0.00047,  -0.00069,139750800.00000,   0.00000,274640576.00000,   0.00000,   0.00000,   0.00000,-334889776.00000,   0.00000
-7677804.84975,100931082.49217,-53335653.78814,  -0.00023,   0.00047,  -0.00069,140494256.00000,   0.00000,274640576.00000,   0.00000,   0.00000,   0.00000,-334146320.00000,   0.00000
-6764125.76865,101786750.20304,-53753335.65379,  -0.00023,   0.00048,  -0.00070,141234096.00000,   0.00000,274640576.00000,   0.00000,   0.00000,   0.00000,-333406480.00000,   0.00000
-5818540.43393,102639517.34540,-54171017.51943,  -0.00023,   0.00048,  -0.00070,141963664.00000,   0.00000,274640576.00000,   0.00000,   0.00000,   0.00000,-332676912.00000,   0.00000
-4872955.09920,103492284.48776,-54582898.24806,  -0.00022,   0.00048,  -0.00071,142691712.00000,   0.00000,274640576.00000,   0.00000,   0.00000,   0.00000,-331948864.00000,   0.00000
-3895463.51085,104342151.06161,-54994778.97668,  -0.00022,   0.00048,  -0.00071,143409968.00000,   0.00000,274640576.00000,   0.00000,   0.00000,   0.00000,-331230608.00000,   0.00000
-2926673.62803,105171713.65588,-55400858.56828,  -0.00022,   0.00048,  -0.00072,144115200.00000,   0.00000,274640576.00000,   0.00000,   0.00000,   0.00000,-330525376.00000,   0.00000
-1917275.78605,106018679.66121,-55806938.15988,  -0.00022,   0.00049,  -0.00073,144822832.00000,   0.00000,274640576.00000,   0.00000,   0.00000,   0.00000,-329817744.00000,   0.00000
-916579.64961,106845341.68697,-56213017.75148,  -0.00021,   0.00049,  -0.00073,145524368.00000,   0.00000,274640576.00000,   0.00000,   0.00000,   0.00000,-329116208.00000,   0.00000
124724.44599,107689407.12380,-56613296.20606,  -0.00021,   0.00049,  -0.00074,146222080.00000,   0.00000,274640576.00000,   0.00000,   0.00000,   0.00000,-328418496.00000,   0.00000
1157326.83606,108513168.58104,-57007773.52361,  -0.00021,   0.00049,  -0.00074,146906992.00000,   0.00000,274640576.00000,   0.00000,   0.00000,   0.00000,-327733584.00000,   0.00000
2210233.20571,109345631.74382,-57402250.84116,  -0.00020,   0.00049,  -0.00075,147596576.00000,   0.00000,274640576.00000,   0.00000,   0.00000,   0.00000,-327044000.00000,   0.00000
3295045.82898,110175194.33809,-57790927.02170,  -0.00020,   0.00049,  -0.00075,148271488.00000,   0.00000,274640576.00000,   0.00000,   0.00000,   0.00000,-326369088.00000,   0.00000
4371156.74672,110984452.95278,-58179603.20223,  -0.00020,   0.00050,  -0.00076,148940592.00000,   0.00000,274640576.00000,   0.00000,   0.00000,   0.00000,-325699984.00000,   0.00000
5467571.64404,111802413.27300,-58568279.38276,  -0.00019,   0.00050,  -0.00076,149614928.00000,   0.00000,274640576.00000,   0.00000,   0.00000,   0.00000,-325025648.00000,   0.00000
6584290.52094,112629075.29876,-58951154.42627,  -0.00019,   0.00050,  -0.00077,150288048.00000,   0.00000,274640576.00000,   0.00000,   0.00000,   0.00000,-324352528.00000,   0.00000
7724213.94593,113432532.77642,-59328228.33275,  -0.00019,   0.00050,  -0.00077,150935968.00000,   0.00000,274640576.00000,   0.00000,   0.00000,   0.00000,-323704608.00000,   0.00000
8872839.07646,114256294.23367,-59705302.23924,  -0.00018,   0.00050,  -0.00078,151602480.00000,   0.00000,274640576.00000,   0.00000,   0.00000,   0.00000,-323038096.00000,   0.00000
10024364.77550,115048149.43729,-60076575.00870,  -0.00018,   0.00050,  -0.00078,152244784.00000,   0.00000,274640576.00000,   0.00000,   0.00000,   0.00000,-322395792.00000,   0.00000
11196194.45411,115848706.34644,-60447847.77816,  -0.00017,   0.00051,  -0.00079,152894112.00000,   0.00000,274640576.00000,   0.00000,   0.00000,   0.00000,-321746464.00000,   0.00000
12388328.11231,116657964.96113,-60813319.41060,  -0.00017,   0.00051,  -0.00079,153544048.00000,   0.00000,274640576.00000,   0.00000,   0.00000,   0.00000,-321096528.00000,   0.00000
13592064.04455,117455621.30178,-61178791.04304,  -0.00017,   0.00051,  -0.00080,154190128.00000,   0.00000,274640576.00000,   0.00000,   0.00000,   0.00000,-320450448.00000,   0.00000
14807402.25084,118241675.36837,-61538461.53846,  -0.00016,   0.00051,  -0.00080,154826272.00000,   0.00000,274640576.00000,   0.00000,   0.00000,   0.00000,-319814304.00000,   0.00000
16043044.43671,119036431.14050,-61892330.89686,  -0.00016,   0.00051,  -0.00080,155465024.00000,   0.00000,274640576.00000,   0.00000,   0.00000,   0.00000,-319175552.00000,   0.00000
17290288.89662,119819584.63859,-62246200.25525,  -0.00015,   0.00051,  -0.00081,156102320.00000,   0.00000,274640576.00000,   0.00000,   0.00000,   0.00000,-318538256.00000,   0.00000
18549135.63058,120591135.86263,-62594268.47662,  -0.00015,   0.00051,  -0.00081,156731680.00000,   0.00000,274640576.00000,   0.00000,   0.00000,   0.00000,-317908896.00000,   0.00000
19807982.36454,121362687.08667,-62942336.69799,  -0.00015,   0.00051,  -0.00082,157371296.00000,   0.00000,274640576.00000,   0.00000,   0.00000,   0.00000,-317269280.00000,   0.00000
21098735.35213,122131337.74220,-63284603.78234,  -0.00014,   0.00051,  -0.00082,158003648.00000,   0.00000,274640576.00000,   0.00000,   0.00000,   0.00000,-316636928.00000,   0.00000
22409792.31929,122908690.10326,-63626870.86669,  -0.00014,   0.00052,  -0.00083,158646032.00000,   0.00000,274640576.00000,   0.00000,   0.00000,   0.00000,-315994544.00000,   0.00000
23712147.58093,123665738.48474,-63957535.67699,  -0.00013,   0.00052,  -0.00083,159269280.00000,   0.00000,274640576.00000,   0.00000,   0.00000,   0.00000,-315371296.00000,   0.00000
25055110.80172,124440190.27729,-64288200.48730,  -0.00013,   0.00052,  -0.00084,159900752.00000,   0.00000,274640576.00000,   0.00000,   0.00000,   0.00000,-314739824.00000,   0.00000
26389372.31697,125194338.09027,-64618865.29760,  -0.00012,   0.00052,  -0.00084,160524688.00000,   0.00000,274640576.00000,   0.00000,   0.00000,   0.00000,-314115888.00000,   0.00000
27735236.10628,125936883.62919,-64943728.97088,  -0.00012,   0.00052,  -0.00084,161135696.00000,   0.00000,274640576.00000,   0.00000,   0.00000,   0.00000,-313504880.00000,   0.00000
29101403.87516,126688130.87365,-65262791.50714,  -0.00011,   0.00052,  -0.00085,161746848.00000,   0.00000,274640576.00000,   0.00000,   0.00000,   0.00000,-312893728.00000,   0.00000
30479173.91809,127427775.84407,-65581854.04339,  -0.00011,   0.00052,  -0.00085,162354048.00000,   0.00000,274640576.00000,   0.00000,   0.00000,   0.00000,-312286528.00000,   0.00000
31877247.94060,128176122.52001,-65889314.30560,  -0.00010,   0.00052,  -0.00086,162956512.00000,   0.00000,274640576.00000,   0.00000,   0.00000,   0.00000,-311684064.00000,   0.00000
33286924.23715,128912866.92192,-66202575.70484,  -0.00010,   0.00052,  -0.00086,163563776.00000,   0.00000,274640576.00000,   0.00000,   0.00000,   0.00000,-311076800.00000,   0.00000
34708202.80775,129638009.04977,-66504234.83003,  -0.00009,   0.00052,  -0.00086,164155616.00000,   0.00000,274640576.00000,   0.00000,   0.00000,   0.00000,-310484960.00000,   0.00000
36129481.37835,130363151.17763,-66805893.95522,  -0.00009,   0.00052,  -0.00087,164756272.00000,   0.00000,274640576.00000,   0.00000,   0.00000,   0.00000,-309884304.00000,   0.00000
37582666.20258,131085392.73698,-67101751.94338,  -0.00008,   0.00052,  -0.00087,165351584.00000,   0.00000,274640576.00000,   0.00000,   0.00000,   0.00000,-309288992.00000,   0.00000
39035851.02680,131807634.29632,-67391808.79452,  -0.00008,   0.00052,  -0.00088,165949424.00000,   0.00000,274640576.00000,   0.00000,   0.00000,   0.00000,-308691152.00000,   0.00000
40512240.39912,132506671.30758,-67681865.64567,  -0.00007,   0.00052,  -0.00088,166537760.00000,   0.00000,274640576.00000,   0.00000,   0.00000,   0.00000,-308102816.00000,   0.00000
41997331.47697,133226012.29841,-67966121.35979,  -0.00007,   0.00052,  -0.00088,167141584.00000,   0.00000,274640576.00000,   0.00000,   0.00000,   0.00000,-307498992.00000,   0.00000
43494024.82887,133933751.01520,-68244575.93688,  -0.00006,   0.00052,  -0.00089,167739280.00000,   0.00000,274640576.00000,   0.00000,   0.00000,   0.00000,-306901296.00000,   0.00000
45002320.45481,134629887.45794,-68523030.51398,  -0.00006,   0.00052,  -0.00089,168338400.00000,   0.00000,274640576.00000,   0.00000,   0.00000,   0.00000,-306302176.00000,   0.00000
46501914.37522,135305719.92110,-68795683.95405,  -0.00005,   0.00052,  -0.00089,168928848.00000,   0.00000,274640576.00000,   0.00000,   0.00000,   0.00000,-305711728.00000,   0.00000
48042116.25479,135998955.79534,-69062536.25711,  -0.00005,   0.00053,  -0.00090,169529840.00000,   0.00000,274640576.00000,   0.00000,   0.00000,   0.00000,-305110736.00000,   0.00000
49573616.42882,136671887.68999,-69323587.42313,  -0.00004,   0.00053,  -0.00090,170122736.00000,   0.00000,274640576.00000,   0.00000,   0.00000,   0.00000,-304517840.00000,   0.00000
51125420.58243,137353521.29017,-69584638.58916,  -0.00004,   0.00053,  -0.00090,170730672.00000,   0.00000,274640576.00000,   0.00000,   0.00000,   0.00000,-303909904.00000,   0.00000
52688827.01009,138023552.61631,-69834087.48115,  -0.00003,   0.00053,  -0.00091,171327040.00000,   0.00000,274640576.00000,   0.00000,   0.00000,   0.00000,-303313536.00000,   0.00000
54272537.41733,138702285.64799,-70083536.37313,  -0.00002,   0.00053,  -0.00091,171939056.00000,   0.00000,274640576.00000,   0.00000,   0.00000,   0.00000,-302701520.00000,   0.00000
55867850.09862,139369416.40562,-70332985.26511,  -0.00002,   0.00053,  -0.00091,172554400.00000,   0.00000,274640576.00000,   0.00000,   0.00000,   0.00000,-302086176.00000,   0.00000
57474765.05395,140024944.88920,-70570831.88305,  -0.00001,   0.00053,  -0.00092,173158960.00000,   0.00000,274640576.00000,   0.00000,   0.00000,   0.00000,-301481616.00000,   0.00000
59072978.30375,140660169.39320,-70808678.50099,  -0.00001,   0.00052,  -0.00092,173762320.00000,   0.00000,274640576.00000,   0.00000,   0.00000,   0.00000,-300878256.00000,   0.00000
60700197.23866,141324399.58232,-71040723.98190,   0.00000,   0.00052,  -0.00092,174387264.00000,   0.00000,274640576.00000,   0.00000,   0.00000,   0.00000,-300253312.00000,   0.00000
62330316.74208,141956723.51781,-71266968.32579,   0.00001,   0.00052,  -0.00093,174995456.00000,   0.00000,274640576.00000,   0.00000,   0.00000,   0.00000,-299645120.00000,   0.00000
63980740.22508,142597749.15884,-71487411.53266,   0.00001,   0.00052,  -0.00093,175612064.00000,   0.00000,274640576.00000,   0.00000,   0.00000,   0.00000,-299028512.00000,   0.00000
65622462.00255,143218470.82028,-71702053.60251,   0.00002,   0.00052,  -0.00093,176219296.00000,   0.00000,274640576.00000,   0.00000,   0.00000,   0.00000,-298421280.00000,   0.00000
67304791.73918,143856595.89279,-71916695.67235,   0.00003,   0.00052,  -0.00093,176846272.00000,   0.00000,274640576.00000,   0.00000,   0.00000,   0.00000,-297794304.00000,   0.00000
68978419.77027,144474416.98573,-72125536.60517,   0.00003,   0.00052,  -0.00094,177462880.00000,   0.00000,274640576.00000,   0.00000,   0.00000,   0.00000,-297177696.00000,   0.00000
70663650.07541,145080635.80462,-72328576.40097,   0.00004,   0.00052,  -0.00094,178073728.00000,   0.00000,274640576.00000,   0.00000,   0.00000,   0.00000,-296566848.00000,   0.00000
72348880.38055,145686854.62351,-72525815.05975,   0.00005,   0.00052,  -0.00094,178685952.00000,   0.00000,274640576.00000,   0.00000,   0.00000,   0.00000,-295954624.00000,   0.00000
74066016.93932,146290172.87388,-72717252.58151,   0.00005,   0.00052,  -0.00095,179297616.00000,   0.00000,274640576.00000,   0.00000,   0.00000,   0.00000,-295342960.00000,   0.00000
75783153.49809,146893491.12426,-72908690.10326,   0.00006,   0.00052,  -0.00095,179917696.00000,   0.00000,274640576.00000,   0.00000,   0.00000,   0.00000,-294722880.00000,   0.00000
77503190.62536,147464903.12101,-73088525.35097,   0.00007,   0.00052,  -0.00095,180513296.00000,   0.00000,274640576.00000,   0.00000,   0.00000,   0.00000,-294127280.00000,   0.00000
79231929.45817,148056619.09734,-73268360.59868,   0.00007,   0.00052,  -0.00095,181131072.00000,   0.00000,274640576.00000,   0.00000,   0.00000,   0.00000,-293509504.00000,   0.00000
80992574.54461,148645434.50516,-73442394.70936,   0.00008,   0.00052,  -0.00095,181751584.00000,   0.00000,274640576.00000,   0.00000,   0.00000,   0.00000,-292888992.00000,   0.00000
82744517.92551,149213945.93340,-73610627.68303,   0.00009,   0.00052,  -0.00096,182364736.00000,   0.00000,274640576.00000,   0.00000,   0.00000,   0.00000,-292275840.00000,   0.00000
84508063.58046,149770855.08760,-73773059.51967,   0.00009,   0.00052,  -0.00096,182977312.00000,   0.00000,274640576.00000,   0.00000,   0.00000,   0.00000,-291663264.00000,   0.00000
86291913.21499,150336465.94733,-73929690.21928,   0.00010,   0.00052,  -0.00096,183602880.00000,   0.00000,274640576.00000,   0.00000,   0.00000,   0.00000,-291037696.00000,   0.00000
88067061.14398,150881772.82747,-74086320.91890,   0.00011,   0.00051,  -0.00096,184230256.00000,   0.00000,274640576.00000,   0.00000,   0.00000,   0.00000,-290410320.00000,   0.00000
89862513.05256,151435781.41316,-74231349.34447,   0.00011,   0.00051,  -0.00097,184864496.00000,   0.00000,274640576.00000,   0.00000,   0.00000,   0.00000,-289776080.00000,   0.00000
91669567.23518,151978187.72479,-74376377.77004,   0.00012,   0.00051,  -0.00097,185507120.00000,   0.00000,274640576.00000,   0.00000,   0.00000,   0.00000,-289133456.00000,   0.00000
93476621.41780,152520594.03643,-74515605.05859,   0.00013,   0.00051,  -0.00097,186156752.00000,   0.00000,274640576.00000,   0.00000,   0.00000,   0.00000,-288483824.00000,   0.00000
95295277.87446,153051398.07402,-74649031.21012,   0.00014,   0.00051,  -0.00097,186807232.00000,   0.00000,274640576.00000,   0.00000,   0.00000,   0.00000,-287833344.00000,   0.00000
97125536.60517,153570599.83757,-74770855.08760,   0.00014,   0.00051,  -0.00097,187451280.00000,   0.00000,274640576.00000,   0.00000,   0.00000,   0.00000,-287189296.00000,   0.00000
98955795.33589,154089801.60111,-74892678.96508,   0.00015,   0.00051,  -0.00097,188107536.00000,   0.00000,274640576.00000,   0.00000,   0.00000,   0.00000,-286533040.00000,   0.00000
100817960.32022,154606102.79615,-75014502.84256,   0.00016,   0.00051,  -0.00098,188777808.00000,   0.00000,274640576.00000,   0.00000,   0.00000,   0.00000,-285862768.00000,   0.00000
102651119.61945,155093398.30607,-75124724.44599,   0.00016,   0.00051,  -0.00098,189425232.00000,   0.00000,274640576.00000,   0.00000,   0.00000,   0.00000,-285215344.00000,   0.00000
104524886.87783,155598097.22706,-75229144.91240,   0.00017,   0.00050,  -0.00098,190091808.00000,   0.00000,274640576.00000,   0.00000,   0.00000,   0.00000,-284548768.00000,   0.00000
106398654.13621,156102796.14805,-75327764.24179,   0.00018,   0.00050,  -0.00098,190761808.00000,   0.00000,274640576.00000,   0.00000,   0.00000,   0.00000,-283878768.00000,   0.00000
108275321.96310,156575588.81541,-75426383.57118,   0.00019,   0.00050,  -0.00098,191424736.00000,   0.00000,274640576.00000,   0.00000,   0.00000,   0.00000,-283215840.00000,   0.00000
110151989.79000,157048381.48277,-75513400.62652,   0.00019,   0.00050,  -0.00098,192084096.00000,   0.00000,274640576.00000,   0.00000,   0.00000,   0.00000,-282556480.00000,   0.00000
112048961.59647,157529875.85567,-75594616.54484,   0.00020,   0.00050,  -0.00098,192754848.00000,   0.00000,274640576.00000,   0.00000,   0.00000,   0.00000,-281885728.00000,   0.00000
113957535.67699,157999767.95452,-75675832.46316,   0.00021,   0.00050,  -0.00098,193432112.00000,   0.00000,274640576.00000,   0.00000,   0.00000,   0.00000,-281208464.00000,   0.00000
115857408.05198,158449356.07379,-75751247.24446,   0.00022,   0.00050,  -0.00098,194101792.00000,   0.00000,274640576.00000,   0.00000,   0.00000,   0.00000,-280538784.00000,   0.00000
117777584.40654,158907645.89860,-75815059.75171,   0.00023,   0.00049,  -0.00099,194779424.00000,   0.00000,274640576.00000,   0.00000,   0.00000,   0.00000,-279861152.00000,   0.00000
119709363.03515,159354333.44936,-75878872.25896,   0.00023,   0.00049,  -0.00099,195467888.00000,   0.00000,274640576.00000,   0.00000,   0.00000,   0.00000,-279172688.00000,   0.00000
121641141.66377,159801021.00012,-75931082.49217,   0.00024,   0.00049,  -0.00099,196157904.00000,   0.00000,274640576.00000,   0.00000,   0.00000,   0.00000,-278482672.00000,   0.00000
123584522.56642,160236106.27683,-75983292.72537,   0.00025,   0.00049,  -0.00099,196858560.00000,   0.00000,274640576.00000,   0.00000,   0.00000,   0.00000,-277782016.00000,   0.00000
125519201.76355,160650887.57396,-76029701.82156,   0.00026,   0.00049,  -0.00099,197554224.00000,   0.00000,274640576.00000,   0.00000,   0.00000,   0.00000,-277086352.00000,   0.00000
127474184.94025,161074370.57663,-76070309.78072,   0.00027,   0.00048,  -0.00099,198265312.00000,   0.00000,274640576.00000,   0.00000,   0.00000,   0.00000,-276375264.00000,   0.00000
129420466.41142,161477549.59972,-76099315.46583,   0.00027,   0.00048,  -0.00099,198965296.00000,   0.00000,274640576.00000,   0.00000,   0.00000,   0.00000,-275675280.00000,   0.00000
131387051.86217,161889430.32834,-76128321.15095,   0.00028,   0.00048,  -0.00099,199695456.00000,   0.00000,274640576.00000,   0.00000,   0.00000,   0.00000,-274945120.00000,   0.00000
133365239.58696,162289708.78292,-76151525.69904,   0.00029,   0.00048,  -0.00099,200442336.00000,   0.00000,274640576.00000,   0.00000,   0.00000,   0.00000,-274198240.00000,   0.00000
135343427.31175,162689987.23750,-76168929.11011,   0.00030,   0.00048,  -0.00099,201203648.00000,   0.00000,274640576.00000,   0.00000,   0.00000,   0.00000,-273436928.00000,   0.00000
137312913.33101,163069961.71250,-76180531.38415,   0.00031,   0.00047,  -0.00099,201957184.00000,   0.00000,274640576.00000,   0.00000,   0.00000,   0.00000,-272683392.00000,   0.00000
139314305.60390,163447035.61898,-76180531.38415,   0.00032,   0.00047,  -0.00099,202711136.00000,   0.00000,274640576.00000,   0.00000,   0.00000,   0.00000,-271929440.00000,   0.00000
141295393.89720,163815407.81993,-76180531.38415,   0.00032,   0.00047,  -0.00099,203461504.00000,   0.00000,274640576.00000,   0.00000,   0.00000,   0.00000,-271179072.00000,   0.00000
143288084.46456,164172177.74684,-76174730.24713,   0.00033,   0.00047,  -0.00099,204212400.00000,   0.00000,274640576.00000,   0.00000,   0.00000,   0.00000,-270428176.00000,   0.00000
145301079.01149,164537649.37928,-76163127.97308,   0.00034,   0.00047,  -0.00099,204978464.00000,   0.00000,274640576.00000,   0.00000,   0.00000,   0.00000,-269662112.00000,   0.00000
147305371.85288,164882817.03214,-76139923.42499,   0.00035,   0.00046,  -0.00099,205733200.00000,   0.00000,274640576.00000,   0.00000,   0.00000,   0.00000,-268907376.00000,   0.00000
149329968.67386,165236686.39053,-76116718.87690,   0.00036,   0.00046,  -0.00099,206512368.00000,   0.00000,274640576.00000,   0.00000,   0.00000,   0.00000,-268128208.00000,   0.00000
151345863.78930,165570251.76935,-76087713.19179,   0.00037,   0.00046,  -0.00099,207287888.00000,   0.00000,274640576.00000,   0.00000,   0.00000,   0.00000,-267352688.00000,   0.00000
153373361.17879,165892214.87412,-76052906.36965,   0.00037,   0.00046,  -0.00099,208070608.00000,   0.00000,274640576.00000,   0.00000,   0.00000,   0.00000,-266569968.00000,   0.00000
155400858.56828,166214177.97888,-76006497.27347,   0.00038,   0.00045,  -0.00099,208854976.00000,   0.00000,274640576.00000,   0.00000,   0.00000,   0.00000,-265785600.00000,   0.00000
157439958.23181,166524538.80961,-75960088.17728,   0.00039,   0.00045,  -0.00099,209652960.00000,   0.00000,274640576.00000,   0.00000,   0.00000,   0.00000,-264987616.00000,   0.00000
159479057.89535,166834899.64033,-75902076.80705,   0.00040,   0.00045,  -0.00099,210452688.00000,   0.00000,274640576.00000,   0.00000,   0.00000,   0.00000,-264187888.00000,   0.00000
161509455.85335,167124956.49147,-75844065.43683,   0.00041,   0.00045,  -0.00099,211254880.00000,   0.00000,274640576.00000,   0.00000,   0.00000,   0.00000,-263385696.00000,   0.00000
163560157.79093,167423715.04815,-75780252.92957,   0.00042,   0.00044,  -0.00099,212075872.00000,   0.00000,274640576.00000,   0.00000,   0.00000,   0.00000,-262564704.00000,   0.00000
165622462.00255,167710871.33078,-75704838.14828,   0.00043,   0.00044,  -0.00098,212898096.00000,   0.00000,274640576.00000,   0.00000,   0.00000,   0.00000,-261742480.00000,   0.00000
167684766.21418,167998027.61341,-75623622.22996,   0.00044,   0.00044,  -0.00098,213728272.00000,   0.00000,274640576.00000,   0.00000,   0.00000,   0.00000,-260912304.00000,   0.00000
169738368.72027,168264879.91646,-75542406.31164,   0.00044,   0.00043,  -0.00098,214560752.00000,   0.00000,274640576.00000,   0.00000,   0.00000,   0.00000,-260079824.00000,   0.00000
171803573.50041,168520129.94547,-75449588.11927,   0.00045,   0.00043,  -0.00098,215395216.00000,   0.00000,274640576.00000,   0.00000,   0.00000,   0.00000,-259245360.00000,   0.00000
173868778.28054,168775379.97448,-75350968.78988,   0.00046,   0.00043,  -0.00098,216237520.00000,   0.00000,274640576.00000,   0.00000,   0.00000,   0.00000,-258403056.00000,   0.00000
175933983.06068,169030630.00348,-75252349.46049,   0.00047,   0.00043,  -0.00098,217093824.00000,   0.00000,274640576.00000,   0.00000,   0.00000,   0.00000,-257546752.00000,   0.00000
178010790.11486,169274277.75844,-75142127.85706,   0.00048,   0.00042,  -0.00098,217952592.00000,   0.00000,274640576.00000,   0.00000,   0.00000,   0.00000,-256687984.00000,   0.00000
180078895.46351,169497621.53382,-75026105.11660,   0.00049,   0.00042,  -0.00098,218808336.00000,   0.00000,274640576.00000,   0.00000,   0.00000,   0.00000,-255832240.00000,   0.00000
182167304.79174,169729667.01473,-74904281.23912,   0.00050,   0.00042,  -0.00097,219684384.00000,   0.00000,274640576.00000,   0.00000,   0.00000,   0.00000,-254956192.00000,   0.00000
184255714.11997,169961712.49565,-74776656.22462,   0.00051,   0.00041,  -0.00097,220568992.00000,   0.00000,274640576.00000,   0.00000,   0.00000,   0.00000,-254071584.00000,   0.00000
186326720.03713,170153150.01740,-74643230.07309,   0.00052,   0.00041,  -0.00097,221440112.00000,   0.00000,274640576.00000,   0.00000,   0.00000,   0.00000,-253200464.00000,   0.00000
188426731.63940,170373593.22427,-74498201.64752,   0.00053,   0.00041,  -0.00097,222337536.00000,   0.00000,274640576.00000,   0.00000,   0.00000,   0.00000,-252303040.00000,   0.00000
190518041.53614,170573732.45156,-74353173.22195,   0.00053,   0.00040,  -0.00097,223239088.00000,   0.00000,274640576.00000,   0.00000,   0.00000,   0.00000,-251401488.00000,   0.00000
192600649.72735,170753567.69927,-74202343.65936,   0.00054,   0.00040,  -0.00096,224138640.00000,   0.00000,274640576.00000,   0.00000,   0.00000,   0.00000,-250501936.00000,   0.00000
194703561.89813,170942104.65251,-74039911.82272,   0.00055,   0.00040,  -0.00096,225054512.00000,   0.00000,274640576.00000,   0.00000,   0.00000,   0.00000,-249586064.00000,   0.00000
196797772.36338,171110337.62617,-73877479.98608,   0.00056,   0.00039,  -0.00096,225975024.00000,   0.00000,274640576.00000,   0.00000,   0.00000,   0.00000,-248665552.00000,   0.00000
198891982.82863,171278570.59984,-73703445.87539,   0.00057,   0.00039,  -0.00096,226899488.00000,   0.00000,274640576.00000,   0.00000,   0.00000,   0.00000,-247741088.00000,   0.00000
200997795.56793,171435201.29945,-73529411.76471,   0.00058,   0.00039,  -0.00096,227841632.00000,   0.00000,274640576.00000,   0.00000,   0.00000,   0.00000,-246798944.00000,   0.00000
203103608.30723,171591831.99907,-73343775.37997,   0.00059,   0.00038,  -0.00095,228788096.00000,   0.00000,274640576.00000,   0.00000,   0.00000,   0.00000,-245852480.00000,   0.00000
205200719.34099,171728158.71911,-73152337.85822,   0.00060,   0.00038,  -0.00095,229734096.00000,   0.00000,274640576.00000,   0.00000,   0.00000,   0.00000,-244906480.00000,   0.00000
207318134.35433,171873187.14468,-72955099.19944,   0.00061,   0.00038,  -0.00095,230703152.00000,   0.00000,274640576.00000,   0.00000,   0.00000,   0.00000,-243937424.00000,   0.00000
209415245.38810,172009513.86472,-72752059.40364,   0.00062,   0.00037,  -0.00095,231668800.00000,   0.00000,274640576.00000,   0.00000,   0.00000,   0.00000,-242971776.00000,   0.00000
211515256.99037,172113934.33113,-72543218.47082,   0.00063,   0.00037,  -0.00094,232636400.00000,   0.00000,274640576.00000,   0.00000,   0.00000,   0.00000,-242004176.00000,   0.00000
213644274.27776,172247360.48265,-72328576.40097,   0.00064,   0.00037,  -0.00094,233637600.00000,   0.00000,274640576.00000,   0.00000,   0.00000,   0.00000,-241002976.00000,   0.00000
215744285.88003,172351780.94907,-72108133.19411,   0.00065,   0.00036,  -0.00094,234623424.00000,   0.00000,274640576.00000,   0.00000,   0.00000,   0.00000,-240017152.00000,   0.00000
217855899.75635,172444599.14143,-71881888.85021,   0.00065,   0.00036,  -0.00093,235618304.00000,   0.00000,274640576.00000,   0.00000,   0.00000,   0.00000,-239022272.00000,   0.00000
219967513.63267,172537417.33380,-71644042.23228,   0.00066,   0.00036,  -0.00093,236602768.00000,   0.00000,274640576.00000,   0.00000,   0.00000,   0.00000,-238037808.00000,   0.00000
222079127.50899,172630235.52616,-71406195.61434,   0.00067,   0.00035,  -0.00093,237557120.00000,   0.00000,274640576.00000,   0.00000,   0.00000,   0.00000,-237083456.00000,   0.00000
224182039.67978,172702749.73895,-71156746.72236,   0.00068,   0.00035,  -0.00093,238433232.00000,   0.00000,274640576.00000,   0.00000,   0.00000,   0.00000,-236207344.00000,   0.00000
226296554.12461,172763661.67769,-70901496.69335,   0.00069,   0.00034,  -0.00092,239280992.00000,   0.00000,274640576.00000,   0.00000,   0.00000,   0.00000,-235359584.00000,   0.00000
228411068.56944,172824573.61643,-70640445.52732,   0.00070,   0.00034,  -0.00092,240166016.00000,   0.00000,274640576.00000,   0.00000,   0.00000,   0.00000,-234474560.00000,   0.00000
230505279.03469,172876783.84963,-70379394.36129,   0.00071,   0.00034,  -0.00091,241110544.00000,   0.00000,274640576.00000,   0.00000,   0.00000,   0.00000,-233530032.00000,   0.00000
232631395.75357,172926093.51433,-70100939.78420,   0.00072,   0.00033,  -0.00091,242116624.00000,   0.00000,274640576.00000,   0.00000,   0.00000,   0.00000,-232523952.00000,   0.00000
234737208.49286,172966701.47349,-69822485.20710,   0.00073,   0.00033,  -0.00091,243146928.00000,   0.00000,274640576.00000,   0.00000,   0.00000,   0.00000,-231493648.00000,   0.00000
236834319.52663,172987005.45307,-69538229.49298,   0.00074,   0.00033,  -0.00090,244186896.00000,   0.00000,274640576.00000,   0.00000,   0.00000,   0.00000,-230453680.00000,   0.00000
238951734.53997,173016011.13818,-69248172.64184,   0.00075,   0.00032,  -0.00090,245255056.00000,   0.00000,274640576.00000,   0.00000,   0.00000,   0.00000,-229385520.00000,   0.00000
241069149.55331,173045016.82330,-68946513.51665,   0.00076,   0.00032,  -0.00090,246330048.00000,   0.00000,274640576.00000,   0.00000,   0.00000,   0.00000,-228310528.00000,   0.00000
243177862.86112,173053718.52883,-68644854.39146,   0.00077,   0.00031,  -0.00089,247411104.00000,   0.00000,274640576.00000,   0.00000,   0.00000,   0.00000,-227229472.00000,   0.00000
245286576.16893,173062420.23437,-68331592.99223,   0.00078,   0.00031,  -0.00089,248497680.00000,   0.00000,274640576.00000,   0.00000,   0.00000,   0.00000,-226142896.00000,   0.00000
247386587.77120,173050817.96032,-68018331.59299,   0.00079,   0.00030,  -0.00088,249589168.00000,   0.00000,274640576.00000,   0.00000,   0.00000,   0.00000,-225051408.00000,   0.00000
249486599.37348,173039215.68627,-67693467.91971,   0.00080,   0.00030,  -0.00088,250685280.00000,   0.00000,274640576.00000,   0.00000,   0.00000,   0.00000,-223955296.00000,   0.00000
251577909.27022,173007309.43265,-67362803.10941,   0.00081,   0.00030,  -0.00088,251781120.00000,   0.00000,274640576.00000,   0.00000,   0.00000,   0.00000,-222859456.00000,   0.00000
253689523.14654,172984104.88456,-67026337.16208,   0.00082,   0.00029,  -0.00087,252901056.00000,   0.00000,274640576.00000,   0.00000,   0.00000,   0.00000,-221739520.00000,   0.00000
255772131.33774,172931894.65135,-66684070.07774,   0.00083,   0.00029,  -0.00087,254005856.00000,   0.00000,274640576.00000,   0.00000,   0.00000,   0.00000,-220634720.00000,   0.00000
257883745.21406,172908690.10326,-66330200.71934,   0.00084,   0.00028,  -0.00086,255139824.00000,   0.00000,274640576.00000,   0.00000,   0.00000,   0.00000,-219500752.00000,   0.00000
259957651.69973,172836175.89047,-65976331.36095,   0.00085,   0.00028,  -0.00086,256254048.00000,   0.00000,274640576.00000,   0.00000,   0.00000,   0.00000,-218386528.00000,   0.00000
262060563.87052,172792667.36280,-65616660.86553,   0.00086,   0.00028,  -0.00085,257402736.00000,   0.00000,274640576.00000,   0.00000,   0.00000,   0.00000,-217237840.00000,   0.00000
264154774.33577,172728854.85555,-65245388.09607,   0.00087,   0.00027,  -0.00085,258547936.00000,   0.00000,274640576.00000,   0.00000,   0.00000,   0.00000,-216092640.00000,   0.00000
266240283.09549,172644738.36872,-64874115.32660,   0.00087,   0.00027,  -0.00084,259698464.00000,   0.00000,274640576.00000,   0.00000,   0.00000,   0.00000,-214942112.00000,   0.00000
268325791.85520,172560621.88189,-64491240.28310,   0.00088,   0.00026,  -0.00084,260854640.00000,   0.00000,274640576.00000,   0.00000,   0.00000,   0.00000,-213785936.00000,   0.00000
270390996.63534,172467803.68952,-64102564.10256,   0.00089,   0.00026,  -0.00083,262004880.00000,   0.00000,274640576.00000,   0.00000,   0.00000,   0.00000,-212635696.00000,   0.00000
272476505.39506,172383687.20269,-63708086.78501,   0.00090,   0.00025,  -0.00083,263180128.00000,   0.00000,274640576.00000,   0.00000,   0.00000,   0.00000,-211460448.00000,   0.00000
274553312.44924,172279266.73628,-63307808.33043,   0.00091,   0.00025,  -0.00082,264355520.00000,   0.00000,274640576.00000,   0.00000,   0.00000,   0.00000,-210285056.00000,   0.00000
276621417.79789,172154542.29029,-62901728.73883,   0.00092,   0.00024,  -0.00082,265530992.00000,   0.00000,274640576.00000,   0.00000,   0.00000,   0.00000,-209109584.00000,   0.00000
278698224.85207,172050121.82388,-62489848.01021,   0.00093,   0.00024,  -0.00081,266724624.00000,   0.00000,274640576.00000,   0.00000,   0.00000,   0.00000,-207915952.00000,   0.00000
280766330.20072,171925397.37789,-62072166.14456,   0.00094,   0.00023,  -0.00081,267918496.00000,   0.00000,274640576.00000,   0.00000,   0.00000,   0.00000,-206722080.00000,   0.00000
282825733.84383,171780368.95231,-61642882.00487,   0.00095,   0.00023,  -0.00080,269109280.00000,   0.00000,274640576.00000,   0.00000,   0.00000,   0.00000,-205531296.00000,   0.00000
284893839.19248,171655644.50632,-61213597.86518,   0.00096,   0.00023,  -0.00080,270322496.00000,   0.00000,274640576.00000,   0.00000,   0.00000,   0.00000,-204318080.00000,   0.00000
286932938.85602,171501914.37522,-60772711.45144,   0.00097,   0.00022,  -0.00079,271516960.00000,   0.00000,274640576.00000,   0.00000,   0.00000,   0.00000,-203123616.00000,   0.00000
288983640.79360,171336581.97007,-60326023.90068,   0.00098,   0.00022,  -0.00078,272728544.00000,   0.00000,274640576.00000,   0.00000,   0.00000,   0.00000,-201912032.00000,   0.00000
291034342.73118,171171249.56491,-59879336.34992,   0.00099,   0.00021,  -0.00078,273953664.00000,   0.00000,274640576.00000,   0.00000,   0.00000,   0.00000,-200686912.00000,   0.00000
293064740.68918,170997215.45423,-59421046.52512,   0.00100,   0.00021,  -0.00077,275168192.00000,   0.00000,274640576.00000,   0.00000,   0.00000,   0.00000,-199472384.00000,   0.00000
295115442.62675,170831883.04908,-58956955.56329,   0.00101,   0.00020,  -0.00077,276407552.00000,   0.00000,274640576.00000,   0.00000,   0.00000,   0.00000,-198233024.00000,   0.00000
297137138.87922,170637544.95881,-58487063.46444,   0.00102,   0.00020,  -0.00076,277631168.00000,   0.00000,274640576.00000,   0.00000,   0.00000,   0.00000,-197009408.00000,   0.00000
299179139.11127,170451908.57408,-58011370.22856,   0.00103,   0.00019,  -0.00075,278879136.00000,   0.00000,274640576.00000,   0.00000,   0.00000,   0.00000,-195761440.00000,   0.00000
301200835.36373,170257570.48381,-57529875.85567,   0.00104,   0.00019,  -0.00075,280119552.00000,   0.00000,274640576.00000,   0.00000,   0.00000,   0.00000,-194521024.00000,   0.00000
303213829.91066,170042928.41397,-57036779.20872,   0.00105,   0.00018,  -0.00074,281357888.00000,   0.00000,274640576.00000,   0.00000,   0.00000,   0.00000,-193282688.00000,   0.00000
305226824.45759,169828286.34412,-56543682.56178,   0.00106,   0.00018,  -0.00074,282610592.00000,   0.00000,274640576.00000,   0.00000,   0.00000,   0.00000,-192029984.00000,   0.00000
307239819.00453,169613644.27428,-56044784.77782,   0.00107,   0.00017,  -0.00073,283875008.00000,   0.00000,274640576.00000,   0.00000,   0.00000,   0.00000,-190765568.00000,   0.00000
309244111.84592,169378698.22485,-55534284.71981,   0.00108,   0.00017,  -0.00072,285140352.00000,   0.00000,274640576.00000,   0.00000,   0.00000,   0.00000,-189500224.00000,   0.00000
311228100.70774,169135050.46989,-55017983.52477,   0.00109,   0.00016,  -0.00072,286401088.00000,   0.00000,274640576.00000,   0.00000,   0.00000,   0.00000,-188239488.00000,   0.00000
313232393.54914,168900104.42047,-54501682.32974,   0.00110,   0.00016,  -0.00071,287692864.00000,   0.00000,274640576.00000,   0.00000,   0.00000,   0.00000,-186947712.00000,   0.00000
315216382.41095,168656456.66551,-53973778.86066,   0.00111,   0.00015,  -0.00070,288975904.00000,   0.00000,274640576.00000,   0.00000,   0.00000,   0.00000,-185664672.00000,   0.00000
317191669.56724,168392504.93097,-53440074.25455,   0.00111,   0.00015,  -0.00069,290262304.00000,   0.00000,274640576.00000,   0.00000,   0.00000,   0.00000,-184378272.00000,   0.00000
319166956.72352,168128553.19643,-52906369.64845,   0.00112,   0.00014,  -0.00069,291563200.00000,   0.00000,274640576.00000,   0.00000,   0.00000,   0.00000,-183077376.00000,   0.00000
321142243.87980,167864601.46189,-52361062.76830,   0.00113,   0.00014,  -0.00068,292871328.00000,   0.00000,274640576.00000,   0.00000,   0.00000,   0.00000,-181769248.00000,   0.00000
323108829.33055,167580345.74777,-51809954.75113,   0.00114,   0.00013,  -0.00067,294181312.00000,   0.00000,274640576.00000,   0.00000,   0.00000,   0.00000,-180459264.00000,   0.00000
325055110.80172,167287388.32811,-51253045.59694,   0.00115,   0.00013,  -0.00067,295482816.00000,   0.00000,274640576.00000,   0.00000,   0.00000,   0.00000,-179157760.00000,   0.00000
327001392.27289,166994430.90846,-50690335.30572,   0.00116,   0.00012,  -0.00066,296792192.00000,   0.00000,274640576.00000,   0.00000,   0.00000,   0.00000,-177848384.00000,   0.00000
328967977.72363,166710175.19434,-50121823.87748,   0.00117,   0.00012,  -0.00065,298126112.00000,   0.00000,274640576.00000,   0.00000,   0.00000,   0.00000,-176514464.00000,   0.00000
330893955.21522,166408516.06915,-49541710.17519,   0.00118,   0.00011,  -0.00064,299431328.00000,   0.00000,274640576.00000,   0.00000,   0.00000,   0.00000,-175209248.00000,   0.00000
332831534.98086,166095254.66992,-48961596.47291,   0.00119,   0.00011,  -0.00064,300757376.00000,   0.00000,274640576.00000,   0.00000,   0.00000,   0.00000,-173883200.00000,   0.00000
334748810.76691,165773291.56515,-48375681.63360,   0.00120,   0.00010,  -0.00063,302074944.00000,   0.00000,274640576.00000,   0.00000,   0.00000,   0.00000,-172565632.00000,   0.00000
336666086.55296,165451328.46038,-47783965.65727,   0.00121,   0.00010,  -0.00062,303400896.00000,   0.00000,274640576.00000,   0.00000,   0.00000,   0.00000,-171239680.00000,   0.00000
338574660.63348,165109061.37603,-47180647.40689,   0.00122,   0.00009,  -0.00061,304725632.00000,   0.00000,274640576.00000,   0.00000,   0.00000,   0.00000,-169914944.00000,   0.00000
340491936.41954,164787098.27126,-46577329.15651,   0.00123,   0.00009,  -0.00061,306068768.00000,   0.00000,274640576.00000,   0.00000,   0.00000,   0.00000,-168571808.00000,   0.00000
342380206.52048,164436129.48138,-45962408.63209,   0.00124,   0.00008,  -0.00060,307393440.00000,   0.00000,274640576.00000,   0.00000,   0.00000,   0.00000,-167247136.00000,   0.00000
344268476.62142,164085160.69150,-45347488.10767,   0.00125,   0.00008,  -0.00059,308729216.00000,   0.00000,274640576.00000,   0.00000,   0.00000,   0.00000,-165911360.00000,   0.00000
346148045.01682,163713887.92203,-44726766.44622,   0.00126,   0.00007,  -0.00058,310066272.00000,   0.00000,274640576.00000,   0.00000,   0.00000,   0.00000,-164574304.00000,   0.00000
348016011.13818,163354217.42662,-44094442.51073,   0.00126,   0.00006,  -0.00057,311398912.00000,   0.00000,274640576.00000,   0.00000,   0.00000,   0.00000,-163241664.00000,   0.00000
349875275.55401,162974242.95162,-43462118.57524,   0.00127,   0.00006,  -0.00057,312735360.00000,   0.00000,274640576.00000,   0.00000,   0.00000,   0.00000,-161905216.00000,   0.00000
351734539.96983,162594268.47662,-42818192.36570,   0.00128,   0.00005,  -0.00056,314077728.00000,   0.00000,274640576.00000,   0.00000,   0.00000,   0.00000,-160562848.00000,   0.00000
353593804.38566,162214294.00162,-42168465.01914,   0.00129,   0.00005,  -0.00055,315428384.00000,   0.00000,274640576.00000,   0.00000,   0.00000,   0.00000,-159212192.00000,   0.00000
355432764.82191,161825617.82109,-41518737.67258,   0.00130,   0.00004,  -0.00054,316772544.00000,   0.00000,274640576.00000,   0.00000,   0.00000,   0.00000,-157868032.00000,   0.00000
357263023.55262,161416637.66098,-40857408.05198,   0.00131,   0.00004,  -0.00053,318116288.00000,   0.00000,274640576.00000,   0.00000,   0.00000,   0.00000,-156524288.00000,   0.00000
359081680.00928,161019259.77492,-40196078.43137,   0.00132,   0.00003,  -0.00052,319459936.00000,   0.00000,274640576.00000,   0.00000,   0.00000,   0.00000,-155180640.00000,   0.00000
360911938.73999,160610279.61480,-39523146.53672,   0.00133,   0.00003,  -0.00051,320820768.00000,   0.00000,274640576.00000,   0.00000,   0.00000,   0.00000,-153819808.00000,   0.00000
362721893.49112,160192597.74916,-38850214.64207,   0.00134,   0.00002,  -0.00051,322175008.00000,   0.00000,274640576.00000,   0.00000,   0.00000,   0.00000,-152465568.00000,   0.00000
364511544.26268,159766214.17798,-38165680.47337,   0.00135,   0.00002,  -0.00050,323518912.00000,   0.00000,274640576.00000,   0.00000,   0.00000,   0.00000,-151121664.00000,   0.00000
366301195.03423,159339830.60680,-37481146.30468,   0.00136,   0.00001,  -0.00049,324873600.00000,   0.00000,274640576.00000,   0.00000,   0.00000,   0.00000,-149766976.00000,   0.00000
368082144.10024,158893143.05604,-36785009.86193,   0.00136,   0.00001,  -0.00048,326229248.00000,   0.00000,274640576.00000,   0.00000,   0.00000,   0.00000,-148411328.00000,   0.00000
369851490.89222,158458057.77932,-36088873.41919,   0.00137,  -0.00000,  -0.00047,327584960.00000,   0.00000,274640576.00000,   0.00000,   0.00000,   0.00000,-147055616.00000,   0.00000
371612135.97865,158002668.52303,-35381134.70240,   0.00138,  -0.00001,  -0.00046,328941952.00000,   0.00000,274640576.00000,   0.00000,   0.00000,   0.00000,-145698624.00000,   0.00000
373372781.06509,157547279.26674,-34673395.98561,   0.00139,  -0.00001,  -0.00045,330310304.00000,   0.00000,274640576.00000,   0.00000,   0.00000,   0.00000,-144330272.00000,   0.00000
375113122.17195,157083188.30491,-33954054.99478,   0.00140,  -0.00002,  -0.00044,331669440.00000,   0.00000,274640576.00000,   0.00000,   0.00000,   0.00000,-142971136.00000,   0.00000
376853463.27880,156619097.34308,-33234714.00394,   0.00141,  -0.00002,  -0.00043,333039776.00000,   0.00000,274640576.00000,   0.00000,   0.00000,   0.00000,-141600800.00000,   0.00000
378573500.40608,156146304.67572,-32503770.73906,   0.00142,  -0.00003,  -0.00042,334401440.00000,   0.00000,274640576.00000,   0.00000,   0.00000,   0.00000,-140239136.00000,   0.00000
380293537.53336,155673512.00835,-31772827.47418,   0.00143,  -0.00003,  -0.00041,335774816.00000,   0.00000,274640576.00000,   0.00000,   0.00000,   0.00000,-138865760.00000,   0.00000
382004872.95510,155180415.36141,-31036083.07228,   0.00144,  -0.00004,  -0.00040,337153312.00000,   0.00000,274640576.00000,   0.00000,   0.00000,   0.00000,-137487264.00000,   0.00000
383704606.10280,154698920.98851,-30293537.53336,   0.00144,  -0.00004,  -0.00039,338531328.00000,   0.00000,274640576.00000,   0.00000,   0.00000,   0.00000,-136109248.00000,   0.00000
385395637.54496,154197122.63604,-29539389.72039,   0.00145,  -0.00005,  -0.00038,339914656.00000,   0.00000,274640576.00000,   0.00000,   0.00000,   0.00000,-134725920.00000,   0.00000
387075066.71308,153706926.55761,-28785241.90741,   0.00146,  -0.00006,  -0.00037,341301056.00000,   0.00000,274640576.00000,   0.00000,   0.00000,   0.00000,-133339520.00000,   0.00000
388745794.17566,153196426.49959,-28025292.95742,   0.00147,  -0.00006,  -0.00036,342697504.00000,   0.00000,274640576.00000,   0.00000,   0.00000,   0.00000,-131943072.00000,   0.00000
390396217.65866,152677224.73605,-27259542.87040,   0.00148,  -0.00007,  -0.00035,344093632.00000,   0.00000,274640576.00000,   0.00000,   0.00000,   0.00000,-130546944.00000,   0.00000
392046641.14166,152158022.97250,-26493792.78339,   0.00149,  -0.00007,  -0.00034,345508192.00000,   0.00000,274640576.00000,   0.00000,   0.00000,   0.00000,-129132384.00000,   0.00000
393676760.64509,151630119.50342,-25716440.42232,   0.00150,  -0.00008,  -0.00033,346917120.00000,   0.00000,274640576.00000,   0.00000,   0.00000,   0.00000,-127723456.00000,   0.00000
395306880.14851,151102216.03434,-24933286.92424,   0.00150,  -0.00008,  -0.00032,348330336.00000,   0.00000,274640576.00000,   0.00000,   0.00000,   0.00000,-126310240.00000,   0.00000
396916695.67235,150565610.85973,-24144332.28913,   0.00151,  -0.00009,  -0.00031,349720256.00000,   0.00000,274640576.00000,   0.00000,   0.00000,   0.00000,-124920320.00000,   0.00000
398526511.19619,150029005.68511,-23355377.65402,   0.00152,  -0.00009,  -0.00030,351104960.00000,   0.00000,274640576.00000,   0.00000,   0.00000,   0.00000,-123535616.00000,   0.00000
400116022.74046,149483698.80497,-22554820.74487,   0.00153,  -0.00010,  -0.00029,352476416.00000,   0.00000,274640576.00000,   0.00000,   0.00000,   0.00000,-122164160.00000,   0.00000
401705534.28472,148938391.92482,-21754263.83571,   0.00154,  -0.00011,  -0.00028,353866912.00000,   0.00000,274640576.00000,   0.00000,   0.00000,   0.00000,-120773664.00000,   0.00000
403286344.12345,148372781.06509,-20947905.78953,   0.00155,  -0.00011,  -0.00027,355273376.00000,   0.00000,274640576.00000,   0.00000,   0.00000,   0.00000,-119367200.00000,   0.00000
404835247.70855,147810070.77387,-20135746.60633,   0.00155,  -0.00012,  -0.00026,356666176.00000,   0.00000,274640576.00000,   0.00000,   0.00000,   0.00000,-117974400.00000,   0.00000
406404455.27323,147256062.18819,-19317786.28611,   0.00156,  -0.00012,  -0.00025,358087904.00000,   0.00000,274640576.00000,   0.00000,   0.00000,   0.00000,-116552672.00000,   0.00000
407924353.17322,146664346.21186,-18494024.82887,   0.00157,  -0.00013,  -0.00024,359477312.00000,   0.00000,274640576.00000,   0.00000,   0.00000,   0.00000,-115163264.00000,   0.00000
409473256.75833,146101635.92064,-17664462.23460,   0.00158,  -0.00013,  -0.00023,360896128.00000,   0.00000,274640576.00000,   0.00000,   0.00000,   0.00000,-113744448.00000,   0.00000
410981552.38427,145521522.21835,-16834899.64033,   0.00159,  -0.00014,  -0.00022,362287584.00000,   0.00000,274640576.00000,   0.00000,   0.00000,   0.00000,-112352992.00000,   0.00000
412481146.30468,144921104.53649,-15993734.77202,   0.00159,  -0.00014,  -0.00021,363680576.00000,   0.00000,274640576.00000,   0.00000,   0.00000,   0.00000,-110960000.00000,   0.00000
413989441.93062,144340990.83420,-15152569.90370,   0.00160,  -0.00015,  -0.00020,365086656.00000,   0.00000,274640576.00000,   0.00000,   0.00000,   0.00000,-109553920.00000,   0.00000
415477433.57698,143752175.42638,-14305603.89836,   0.00161,  -0.00016,  -0.00019,366483136.00000,   0.00000,274640576.00000,   0.00000,   0.00000,   0.00000,-108157440.00000,   0.00000
416936419.53823,143134354.33345,-13452836.75600,   0.00162,  -0.00016,  -0.00017,367865344.00000,   0.00000,274640576.00000,   0.00000,   0.00000,   0.00000,-106775232.00000,   0.00000
418404107.20501,142536837.22010,-12594268.47662,   0.00163,  -0.00017,  -0.00016,369260352.00000,   0.00000,274640576.00000,   0.00000,   0.00000,   0.00000,-105380224.00000,   0.00000
419851490.89222,141930618.40121,-11729899.06022,   0.00163,  -0.00017,  -0.00015,370646112.00000,   0.00000,274640576.00000,   0.00000,   0.00000,   0.00000,-103994464.00000,   0.00000
421290172.87388,141304095.60274,-10859728.50679,   0.00164,  -0.00018,  -0.00014,372035840.00000,   0.00000,274640576.00000,   0.00000,   0.00000,   0.00000,-102604736.00000,   0.00000
422717252.58151,140689175.07832,-9989557.95336,   0.00165,  -0.00018,  -0.00013,373421440.00000,   0.00000,274640576.00000,   0.00000,   0.00000,   0.00000,-101219136.00000,   0.00000
424124028.30955,140065552.84836,-9113586.26291,   0.00166,  -0.00019,  -0.00012,374798208.00000,   0.00000,274640576.00000,   0.00000,   0.00000,   0.00000,-99842368.00000,   0.00000
425522102.33206,139421626.63882,-8231813.43543,   0.00166,  -0.00020,  -0.00011,376179232.00000,   0.00000,274640576.00000,   0.00000,   0.00000,   0.00000,-98461344.00000,   0.00000
426928878.06010,138798004.40886,-7344239.47094,   0.00167,  -0.00020,  -0.00010,377572832.00000,   0.00000,274640576.00000,   0.00000,   0.00000,   0.00000,-97067744.00000,   0.00000
428295045.82898,138156978.76784,-6456665.50644,   0.00168,  -0.00021,  -0.00008,378940704.00000,   0.00000,274640576.00000,   0.00000,   0.00000,   0.00000,-95699872.00000,   0.00000
429661213.59787,137515953.12681,-5557489.26790,   0.00169,  -0.00021,  -0.00007,380316832.00000,   0.00000,274640576.00000,   0.00000,   0.00000,   0.00000,-94323744.00000,   0.00000
431027381.36675,136874927.48579,-4658313.02935,   0.00169,  -0.00022,  -0.00006,381701760.00000,   0.00000,274640576.00000,   0.00000,   0.00000,   0.00000,-92938816.00000,   0.00000
432352941.17647,136216498.43369,-3753335.65379,   0.00170,  -0.00022,  -0.00005,383060320.00000,   0.00000,274640576.00000,   0.00000,   0.00000,   0.00000,-91580256.00000,   0.00000
433678500.98619,135558069.38160,-2848358.27822,   0.00171,  -0.00023,  -0.00004,384427680.00000,   0.00000,274640576.00000,   0.00000,   0.00000,   0.00000,-90212896.00000,   0.00000
435012762.50145,134919944.30908,-1931778.62861,   0.00172,  -0.00023,  -0.00003,385807328.00000,   0.00000,274640576.00000,   0.00000,   0.00000,   0.00000,-88833248.00000,   0.00000
436318018.33159,134252813.55146,-1015198.97900,   0.00172,  -0.00024,  -0.00001,387174624.00000,   0.00000,274640576.00000,   0.00000,   0.00000,   0.00000,-87465952.00000,   0.00000
437602970.18216,133576981.08829,-92818.19237,   0.00173,  -0.00025,  -0.00000,388533728.00000,   0.00000,274640576.00000,   0.00000,   0.00000,   0.00000,-86106848.00000,   0.00000
438876319.75867,132912750.89918,835363.73129,   0.00174,  -0.00025,   0.00001,389888928.00000,   0.00000,274640576.00000,   0.00000,   0.00000,   0.00000,-84751648.00000,   0.00000
440140967.62966,132228216.73048,1763545.65495,   0.00174,  -0.00026,   0.00002,391250112.00000,   0.00000,274640576.00000,   0.00000,   0.00000,   0.00000,-83390464.00000,   0.00000
441394013.22659,131555284.83583,2703329.85265,   0.00175,  -0.00026,   0.00004,392608032.00000,   0.00000,274640576.00000,   0.00000,   0.00000,   0.00000,-82032544.00000,   0.00000
442647058.82353,130882352.94118,3643114.05035,   0.00176,  -0.00027,   0.00005,393976736.00000,   0.00000,274640576.00000,   0.00000,   0.00000,   0.00000,-80663840.00000,   0.00000
443879800.44089,130200719.34099,4582898.24806,   0.00177,  -0.00027,   0.00006,395338784.00000,   0.00000,274640576.00000,   0.00000,   0.00000,   0.00000,-79301792.00000,   0.00000
445092238.07866,129510384.03527,5534284.71981,   0.00177,  -0.00028,   0.00007,396694656.00000,   0.00000,274640576.00000,   0.00000,   0.00000,   0.00000,-77945920.00000,   0.00000
446284371.73686,128811347.02402,6485671.19155,   0.00178,  -0.00028,   0.00008,398043552.00000,   0.00000,274640576.00000,   0.00000,   0.00000,   0.00000,-76597024.00000,   0.00000
447476505.39506,128112310.01276,7442858.80032,   0.00179,  -0.00029,   0.00010,399403008.00000,   0.00000,274640576.00000,   0.00000,   0.00000,   0.00000,-75237568.00000,   0.00000
448657036.77921,127424875.27555,8400046.40910,   0.00179,  -0.00030,   0.00011,400758208.00000,   0.00000,274640576.00000,   0.00000,   0.00000,   0.00000,-73882368.00000,   0.00000
449808562.47825,126708434.85323,9363035.15489,   0.00180,  -0.00030,   0.00012,402102592.00000,   0.00000,274640576.00000,   0.00000,   0.00000,   0.00000,-72537984.00000,   0.00000
450968789.88282,126012298.41049,10331825.03771,   0.00181,  -0.00031,   0.00013,403459776.00000,   0.00000,274640576.00000,   0.00000,   0.00000,   0.00000,-71180800.00000,   0.00000
452108713.30781,125307460.26221,11306416.05755,   0.00181,  -0.00031,   0.00015,404809216.00000,   0.00000,274640576.00000,   0.00000,   0.00000,   0.00000,-69831360.00000,   0.00000
453228332.75322,124593920.40840,12281007.07739,   0.00182,  -0.00032,   0.00016,406150208.00000,   0.00000,274640576.00000,   0.00000,   0.00000,   0.00000,-68490368.00000,   0.00000
454347952.19863,123880380.55459,13261399.23425,   0.00183,  -0.00032,   0.00017,407500608.00000,   0.00000,274640576.00000,   0.00000,   0.00000,   0.00000,-67139968.00000,   0.00000
455426963.68488,123149437.28971,14247592.52814,   0.00183,  -0.00033,   0.00019,408825632.00000,   0.00000,274640576.00000,   0.00000,   0.00000,   0.00000,-65814944.00000,   0.00000
456505975.17113,122418494.02483,15233785.82202,   0.00184,  -0.00033,   0.00020,410159936.00000,   0.00000,274640576.00000,   0.00000,   0.00000,   0.00000,-64480640.00000,   0.00000
457593688.36292,121707854.73953,16225780.25293,   0.00184,  -0.00034,   0.00021,411506720.00000,   0.00000,274640576.00000,   0.00000,   0.00000,   0.00000,-63133856.00000,   0.00000
458640793.59555,120979812.04316,17217774.68384,   0.00185,  -0.00034,   0.00022,412827904.00000,   0.00000,274640576.00000,   0.00000,   0.00000,   0.00000,-61812672.00000,   0.00000
459687898.82817,120251769.34679,18215570.25177,   0.00186,  -0.00035,   0.00024,414158720.00000,   0.00000,274640576.00000,   0.00000,   0.00000,   0.00000,-60481856.00000,   0.00000
460714700.08122,119515024.94489,19219166.95672,   0.00186,  -0.00035,   0.00025,415481984.00000,   0.00000,274640576.00000,   0.00000,   0.00000,   0.00000,-59158592.00000,   0.00000
461750203.03980,118798584.52257,20222763.66168,   0.00187,  -0.00036,   0.00026,416817312.00000,   0.00000,274640576.00000,   0.00000,   0.00000,   0.00000,-57823264.00000,   0.00000
462736396.33368,118044436.70960,21232161.50365,   0.00188,  -0.00037,   0.00028,418124864.00000,   0.00000,274640576.00000,   0.00000,   0.00000,   0.00000,-56515712.00000,   0.00000
463731291.33310,117310592.87620,22247360.48265,   0.00188,  -0.00037,   0.00029,419444800.00000,   0.00000,274640576.00000,   0.00000,   0.00000,   0.00000,-55195776.00000,   0.00000
464705882.35294,116568047.33728,23262559.46165,   0.00189,  -0.00038,   0.00030,420756544.00000,   0.00000,274640576.00000,   0.00000,   0.00000,   0.00000,-53884032.00000,   0.00000
465680473.37278,115825501.79835,24283559.57768,   0.00189,  -0.00038,   0.00032,422077440.00000,   0.00000,274640576.00000,   0.00000,   0.00000,   0.00000,-52563136.00000,   0.00000
466623158.13900,115085856.82794,25304559.69370,   0.00190,  -0.00039,   0.00033,423375456.00000,   0.00000,274640576.00000,   0.00000,   0.00000,   0.00000,-51265120.00000,   0.00000
467557141.19968,114325907.87794,26331360.94675,   0.00190,  -0.00039,   0.00034,424679808.00000,   0.00000,274640576.00000,   0.00000,   0.00000,   0.00000,-49960768.00000,   0.00000
468479521.98631,113577561.20200,27363963.33681,   0.00191,  -0.00040,   0.00036,425978944.00000,   0.00000,274640576.00000,   0.00000,   0.00000,   0.00000,-48661632.00000,   0.00000
469381598.79336,112820512.82051,28396565.72688,   0.00192,  -0.00040,   0.00037,427268832.00000,   0.00000,274640576.00000,   0.00000,   0.00000,   0.00000,-47371744.00000,   0.00000
470283675.60042,112063464.43903,29434969.25397,   0.00192,  -0.00041,   0.00038,428568096.00000,   0.00000,274640576.00000,   0.00000,   0.00000,   0.00000,-46072480.00000,   0.00000
471174150.13343,111318018.33159,30473372.78107,   0.00193,  -0.00041,   0.00040,429860448.00000,   0.00000,274640576.00000,   0.00000,   0.00000,   0.00000,-44780128.00000,   0.00000
472044320.68686,110563870.51862,31517577.44518,   0.00193,  -0.00042,   0.00041,431144896.00000,   0.00000,274640576.00000,   0.00000,   0.00000,   0.00000,-43495680.00000,   0.00000
472894187.26070,109801021.00012,32561782.10929,   0.00194,  -0.00042,   0.00042,432420416.00000,   0.00000,274640576.00000,   0.00000,   0.00000,   0.00000,-42220160.00000,   0.00000
473723749.85497,109029469.77608,33611787.91043,   0.00194,  -0.00043,   0.00044,433688256.00000,   0.00000,274640576.00000,   0.00000,   0.00000,   0.00000,-40952320.00000,   0.00000
474562014.15477,108278222.53162,34661793.71157,   0.00195,  -0.00043,   0.00045,434966880.00000,   0.00000,274640576.00000,   0.00000,   0.00000,   0.00000,-39673696.00000,   0.00000
475379974.47500,107518273.58162,35717600.64973,   0.00195,  -0.00044,   0.00046,436238400.00000,   0.00000,274640576.00000,   0.00000,   0.00000,   0.00000,-38402176.00000,   0.00000
476177630.81564,106749622.92609,36773407.58789,   0.00196,  -0.00044,   0.00048,437501536.00000,   0.00000,274640576.00000,   0.00000,   0.00000,   0.00000,-37139040.00000,   0.00000
476954983.17670,105972270.56503,37835015.66307,   0.00196,  -0.00045,   0.00049,438757888.00000,   0.00000,274640576.00000,   0.00000,   0.00000,   0.00000,-35882688.00000,   0.00000
477720733.26372,105206520.47801,38896623.73825,   0.00197,  -0.00045,   0.00051,440008320.00000,   0.00000,274640576.00000,   0.00000,   0.00000,   0.00000,-34632256.00000,   0.00000
478486483.35074,104440770.39100,39964032.95046,   0.00197,  -0.00046,   0.00052,441268896.00000,   0.00000,274640576.00000,   0.00000,   0.00000,   0.00000,-33371680.00000,   0.00000
479231929.45817,103666318.59845,41031442.16266,   0.00198,  -0.00046,   0.00053,442521024.00000,   0.00000,274640576.00000,   0.00000,   0.00000,   0.00000,-32119552.00000,   0.00000
479965773.29157,102903469.07994,42104652.51189,   0.00198,  -0.00047,   0.00055,443768672.00000,   0.00000,274640576.00000,   0.00000,   0.00000,   0.00000,-30871904.00000,   0.00000
480679313.14538,102131917.85590,43177862.86112,   0.00199,  -0.00047,   0.00056,445007712.00000,   0.00000,274640576.00000,   0.00000,   0.00000,   0.00000,-29632864.00000,   0.00000
481372549.01961,101351664.92633,44256874.34737,   0.00199,  -0.00048,   0.00058,446239616.00000,   0.00000,274640576.00000,   0.00000,   0.00000,   0.00000,-28400960.00000,   0.00000
482065784.89384,100571411.99675,45335885.83362,   0.00200,  -0.00048,   0.00059,447479904.00000,   0.00000,274640576.00000,   0.00000,   0.00000,   0.00000,-27160672.00000,   0.00000
482747418.49403,99802761.34122,46414897.31987,   0.00200,  -0.00049,   0.00060,448713248.00000,   0.00000,274640576.00000,   0.00000,   0.00000,   0.00000,-25927328.00000,   0.00000
483388444.13505,99016707.27463,47499709.94315,   0.00201,  -0.00049,   0.00062,449922720.00000,   0.00000,274640576.00000,   0.00000,   0.00000,   0.00000,-24717856.00000,   0.00000
484049773.75566,98239354.91356,48590323.70345,   0.00201,  -0.00050,   0.00063,451158720.00000,   0.00000,274640576.00000,   0.00000,   0.00000,   0.00000,-23481856.00000,   0.00000
484679197.12264,97464903.12101,49675136.32672,   0.00202,  -0.00050,   0.00065,452369376.00000,   0.00000,274640576.00000,   0.00000,   0.00000,   0.00000,-22271200.00000,   0.00000
485288316.51004,96681749.62293,50771551.22404,   0.00202,  -0.00051,   0.00066,453574784.00000,   0.00000,274640576.00000,   0.00000,   0.00000,   0.00000,-21065792.00000,   0.00000
485906137.60297,95918900.10442,51862164.98434,   0.00202,  -0.00051,   0.00067,454787904.00000,   0.00000,274640576.00000,   0.00000,   0.00000,   0.00000,-19852672.00000,   0.00000
486494953.01079,95127044.90080,52958579.88166,   0.00203,  -0.00052,   0.00069,455992352.00000,   0.00000,274640576.00000,   0.00000,   0.00000,   0.00000,-18648224.00000,   0.00000
487072166.14456,94346791.97123,54054994.77898,   0.00203,  -0.00052,   0.00070,457189568.00000,   0.00000,274640576.00000,   0.00000,   0.00000,   0.00000,-17451008.00000,   0.00000
487637777.00429,93578141.31570,55157210.81332,   0.00204,  -0.00053,   0.00072,458381664.00000,   0.00000,274640576.00000,   0.00000,   0.00000,   0.00000,-16258912.00000,   0.00000
488183083.88444,92800788.95464,56259426.84766,   0.00204,  -0.00053,   0.00073,459564480.00000,   0.00000,274640576.00000,   0.00000,   0.00000,   0.00000,-15076096.00000,   0.00000
488728390.76459,92023436.59357,57367444.01903,   0.00204,  -0.00053,   0.00075,460757056.00000,   0.00000,274640576.00000,   0.00000,   0.00000,   0.00000,-13883520.00000,   0.00000
489253393.66516,91237382.52698,58469660.05337,   0.00205,  -0.00054,   0.00076,461938240.00000,   0.00000,274640576.00000,   0.00000,   0.00000,   0.00000,-12702336.00000,   0.00000
489766794.29168,90462930.73442,59583478.36176,   0.00205,  -0.00054,   0.00077,463115744.00000,   0.00000,274640576.00000,   0.00000,   0.00000,   0.00000,-11524832.00000,   0.00000
490259890.93862,89679777.23634,60691495.53312,   0.00206,  -0.00055,   0.00079,464281984.00000,   0.00000,274640576.00000,   0.00000,   0.00000,   0.00000,-10358592.00000,   0.00000
490741385.31152,88908226.01230,61805313.84151,   0.00206,  -0.00055,   0.00080,465442560.00000,   0.00000,274640576.00000,   0.00000,   0.00000,   0.00000,-9198016.00000,   0.00000
491202575.70484,88127973.08272,62919132.14990,   0.00206,  -0.00056,   0.00082,466593408.00000,   0.00000,274640576.00000,   0.00000,   0.00000,   0.00000,-8047168.00000,   0.00000
491663766.09816,87347720.15315,64038751.59531,   0.00207,  -0.00056,   0.00083,467753856.00000,   0.00000,274640576.00000,   0.00000,   0.00000,   0.00000,-6886720.00000,   0.00000
492093050.23785,86570367.79209,65152569.90370,   0.00207,  -0.00057,   0.00085,468887424.00000,   0.00000,274640576.00000,   0.00000,   0.00000,   0.00000,-5753152.00000,   0.00000
492522334.37754,85793015.43102,66272189.34911,   0.00207,  -0.00057,   0.00086,470030400.00000,   0.00000,274640576.00000,   0.00000,   0.00000,   0.00000,-4610176.00000,   0.00000
492931314.53765,85006961.36443,67397609.93155,   0.00208,  -0.00057,   0.00088,471166880.00000,   0.00000,274640576.00000,   0.00000,   0.00000,   0.00000,-3473696.00000,   0.00000
493328692.42372,84232509.57188,68517229.37696,   0.00208,  -0.00058,   0.00089,472292704.00000,   0.00000,274640576.00000,   0.00000,   0.00000,   0.00000,-2347872.00000,   0.00000
493734772.01532,83478361.75890,69642649.95939,   0.00208,  -0.00058,   0.00091,473429888.00000,   0.00000,274640576.00000,   0.00000,   0.00000,   0.00000,-1210688.00000,   0.00000
494091541.94222,82686506.55529,70768070.54183,   0.00209,  -0.00059,   0.00092,474540320.00000,   0.00000,274640576.00000,   0.00000,   0.00000,   0.00000,-100256.00000,   0.00000
494124377.28420,82617187.50000,70869703.74318,   0.00209,  -0.00059,   0.00092,474640704.00000,   0.00000,274640576.00000,   0.00000,   0.00000,   0.00000, 128.00000,   0.00000
493431020.49264,81829003.72383,71730089.83326,   0.00209,  -0.00059,   0.00093,474640704.00000,   0.00000,274645088.00000,   0.00000,  -0.00000,   0.00000,  64.00000,   2.00000
492670260.89719,80977003.31550,72668910.75578,   0.00209,  -0.00060,   0.00095,475757792.00000,   0.00001,274649984.00000,   0.00001,  -0.00000,   0.00000,  96.00000,   2.00000
491897414.19781,80118307.39178,73612248.83264,   0.00210,  -0.00060,   0.00096,475757536.00000,   0.00001,274654880.00000,   0.00001,  -0.00001,   0.00001, -64.00000,   2.00000
491115411.37662,79253113.64777,74554904.31352,   0.00210,  -0.00060,   0.00098,475754432.00000,   0.00002,274659712.00000,   0.00002,  -0.00001,   0.00001,   0.00000,   2.00000
490328735.68821,78401319.90041,75502031.75127,   0.00210,  -0.00061,   0.00099,475755488.00000,   0.00002,274664544.00000,   0.00002,  -0.00001,   0.00001, -64.00000,   2.00000
489540091.56101,77550597.31554,76440550.27515,   0.00210,  -0.00061,   0.00101,475765536.00000,   0.00003,274669408.00000,   0.00003,  -0.00001,   0.00001,  32.00000,   2.00000
488746842.84480,76713219.94815,77383689.64648,   0.00211,  -0.00062,   0.00102,475766400.00000,   0.00003,274674208.00000,   0.00003,  -0.00001,   0.00002,  32.00000,   2.00000
487940164.95668,75861725.50876,78329365.80713,   0.00211,  -0.00062,   0.00104,475746592.00000,   0.00003,274678944.00000,   0.00004,  -0.00001,   0.00002, -32.00000,   2.00000
487128803.45777,75011091.95475,79271856.69049,   0.00211,  -0.00062,   0.00105,475759072.00000,   0.00004,274683680.00000,   0.00004,  -0.00002,   0.00002,  96.00000,   2.00000
486317270.45462,74181324.31688,80216158.32513,   0.00212,  -0.00063,   0.00107,475775712.00000,   0.00004,274688480.00000,   0.00005,  -0.00002,   0.00002, 160.00000,   2.00000
485502610.20964,73357804.05588,81157707.48263,   0.00212,  -0.00063,   0.00108,475753952.00000,   0.00005,274693152.00000,   0.00005,  -0.00002,   0.00003,   0.00000,   2.00000
484675722.09137,72527452.01229,82104243.00911,   0.00212,  -0.00064,   0.00110,475753056.00000,   0.00005,274697792.00000,   0.00006,  -0.00002,   0.00003,   0.00000,   2.00000
483843966.63104,71698111.83782,83047465.91392,   0.00212,  -0.00064,   0.00111,475765120.00000,   0.00006,274702464.00000,   0.00006,  -0.00002,   0.00003, -96.00000,   2.00000
483010587.08102,70882478.17945,83990198.02636,   0.00213,  -0.00064,   0.00113,475762560.00000,   0.00006,274707104.00000,   0.00007,  -0.00002,   0.00003, 128.00000,   2.00000
482167548.72682,70060363.18444,84932561.37469,   0.00213,  -0.00065,   0.00114,475758752.00000,   0.00006,274711712.00000,   0.00007,  -0.00003,   0.00004,  32.00000,   2.00000
481322403.28091,69252040.85069,85874331.72420,   0.00213,  -0.00065,   0.00116,475756160.00000,   0.00007,274716288.00000,   0.00007,  -0.00003,   0.00004, -96.00000,   2.00000
480464334.27800,68437151.91663,86820877.96232,   0.00213,  -0.00065,   0.00117,475755808.00000,   0.00007,274720864.00000,   0.00008,  -0.00003,   0.00004,  32.00000,   2.00000
479612000.21718,67644094.12411,87758523.71200,   0.00213,  -0.00066,   0.00119,475766048.00000,   0.00008,274725440.00000,   0.00008,  -0.00003,   0.00005,  32.00000,   2.00000
478746479.46076,66844586.03529,88700933.69746,   0.00214,  -0.00066,   0.00120,475765568.00000,   0.00008,274729984.00000,   0.00009,  -0.00003,   0.00005, -96.00000,   2.00000
477866105.28043,66031098.79260,89646255.40086,   0.00214,  -0.00067,   0.00122,475745728.00000,   0.00009,274734464.00000,   0.00009,  -0.00003,   0.00005, -32.00000,   2.00000
476988580.87376,65239493.91154,90587955.34931,   0.00214,  -0.00067,   0.00123,475758656.00000,   0.00009,274738944.00000,   0.00010,  -0.00004,   0.00005, 128.00000,   2.00000
476113897.39853,64469821.17321,91526052.86367,   0.00214,  -0.00067,   0.00125,475771392.00000,   0.00009,274743488.00000,   0.00010,  -0.00004,   0.00006, -64.00000,   2.00000
475224364.24322,63686131.85085,92467396.14296,   0.00214,  -0.00068,   0.00126,475751040.00000,   0.00010,274747904.00000,   0.00011,  -0.00004,   0.00006,  96.00000,   2.00000
474338126.44662,62924467.23929,93405314.44018,   0.00215,  -0.00068,   0.00128,475763424.00000,   0.00010,274752384.00000,   0.00011,  -0.00004,   0.00006,  32.00000,   2.00000
473436612.44205,62148681.69893,94346586.04928,   0.00215,  -0.00068,   0.00129,475743040.00000,   0.00011,274756736.00000,   0.00011,  -0.00004,   0.00006, -32.00000,   2.00000
472527465.05891,61374582.46314,95289746.43786,   0.00215,  -0.00069,   0.00131,475757568.00000,   0.00011,274761120.00000,   0.00012,  -0.00004,   0.00007, 224.00000,   2.00000
471619675.10167,60614694.19297,96227809.64197,   0.00215,  -0.00069,   0.00132,475750048.00000,   0.00011,274765504.00000,   0.00012,  -0.00005,   0.00007, -32.00000,   2.00000
470715415.75861,59876880.25645,97162479.77023,   0.00215,  -0.00069,   0.00134,475761600.00000,   0.00012,274769888.00000,   0.00013,  -0.00005,   0.00007,  96.00000,   2.00000
469792304.70381,59124546.44153,98105684.20844,   0.00215,  -0.00070,   0.00135,475744608.00000,   0.00012,274774208.00000,   0.00013,  -0.00005,   0.00008,   0.00000,   2.00000
468868072.57090,58374135.19024,99040559.99904,   0.00215,  -0.00070,   0.00137,475751936.00000,   0.00013,274778528.00000,   0.00013,  -0.00005,   0.00008,-128.00000,   2.00000
467938487.49031,57637476.45442,99980386.92072,   0.00216,  -0.00070,   0.00138,475751328.00000,   0.00013,274782816.00000,   0.00014,  -0.00005,   0.00008,  96.00000,   2.00000
467010095.85365,56914704.91512,100915121.82872,   0.00216,  -0.00071,   0.00140,475743872.00000,   0.00013,274787072.00000,   0.00014,  -0.00005,   0.00008,  96.00000,   2.00000
466067816.23583,56185250.85544,101854835.57920,   0.00216,  -0.00071,   0.00141,475742912.00000,   0.00014,274791328.00000,   0.00015,  -0.00006,   0.00009,   0.00000,   2.00000
465132657.35459,55477778.76153,102785995.56324,   0.00216,  -0.00071,   0.00143,475750720.00000,   0.00014,274795584.00000,   0.00015,  -0.00006,   0.00009,  96.00000,   2.00000
464177464.62545,54755166.51027,103725595.98416,   0.00216,  -0.00071,   0.00144,475734656.00000,   0.00015,274799744.00000,   0.00015,  -0.00006,   0.00009,  32.00000,   2.00000
463229394.36948,54054394.84435,104656623.01090,   0.00216,  -0.00072,   0.00146,475742464.00000,   0.00015,274803968.00000,   0.00016,  -0.00006,   0.00009, -64.00000,   2.00000
462270628.43525,53346678.05792,105587664.60462,   0.00216,  -0.00072,   0.00147,475738208.00000,   0.00015,274808128.00000,   0.00016,  -0.00006,   0.00010, -32.00000,   2.00000
461311933.27335,52660495.73527,106519915.00943,   0.00216,  -0.00072,   0.00149,475753728.00000,   0.00016,274812320.00000,   0.00017,  -0.00006,   0.00010,   0.00000,   2.00000
460339900.01654,51958848.35753,107450961.77236,   0.00216,  -0.00073,   0.00150,475730528.00000,   0.00016,274816416.00000,   0.00017,  -0.00006,   0.00010,  64.00000,   2.00000
459371430.98774,51278658.93221,108378329.05616,   0.00216,  -0.00073,   0.00152,475742112.00000,   0.00016,274820544.00000,   0.00017,  -0.00007,   0.00011,  32.00000,   2.00000
458388560.07328,50591072.83122,109310682.88851,   0.00216,  -0.00073,   0.00153,475741728.00000,   0.00017,274824672.00000,   0.00018,  -0.00007,   0.00011, -64.00000,   2.00000
457406769.99634,49916399.35670,110238276.58510,   0.00217,  -0.00073,   0.00155,475734240.00000,   0.00017,274828736.00000,   0.00018,  -0.00007,   0.00011,  32.00000,   2.00000
456422555.78014,49254474.60898,111166048.57991,   0.00217,  -0.00074,   0.00156,475730240.00000,   0.00018,274832768.00000,   0.00019,  -0.00007,   0.00011,  96.00000,   2.00000
455433910.33574,48593437.59419,112090371.92960,   0.00217,  -0.00074,   0.00158,475741312.00000,   0.00018,274836832.00000,   0.00019,  -0.00007,   0.00012, 128.00000,   2.00000
454434079.81855,47924729.40940,113014946.93702,   0.00217,  -0.00074,   0.00159,475737216.00000,   0.00018,274840864.00000,   0.00019,  -0.00007,   0.00012, -96.00000,   2.00000
453440535.54037,47288838.46142,113939853.71806,   0.00217,  -0.00074,   0.00160,475733088.00000,   0.00019,274844832.00000,   0.00020,  -0.00008,   0.00012,  32.00000,   2.00000
452427438.63228,46624856.90227,114865221.22486,   0.00217,  -0.00075,   0.00162,475728864.00000,   0.00019,274848800.00000,   0.00020,  -0.00008,   0.00013,   0.00000,   2.00000
451430833.62197,46002185.77006,115782399.40590,   0.00217,  -0.00075,   0.00163,475735776.00000,   0.00019,274852768.00000,   0.00020,  -0.00008,   0.00013, -32.00000,   2.00000
450410999.38516,45351306.40555,116704879.41789,   0.00217,  -0.00075,   0.00165,475735424.00000,   0.00020,274856736.00000,   0.00021,  -0.00008,   0.00013, -96.00000,   2.00000
449401022.15883,44733108.53345,117623108.10741,   0.00217,  -0.00075,   0.00166,475727168.00000,   0.00020,274860608.00000,   0.00021,  -0.00008,   0.00014, -64.00000,   2.00000
448380103.93484,44106958.48817,118541959.21132,   0.00217,  -0.00076,   0.00168,475722752.00000,   0.00020,274864480.00000,   0.00021,  -0.00008,   0.00014,  96.00000,   2.00000
447344023.24871,43472840.21934,119466021.56970,   0.00217,  -0.00076,   0.00169,475722976.00000,   0.00021,274868320.00000,   0.00022,  -0.00008,   0.00014,  64.00000,   2.00000
446325009.07820,42879972.69227,120382102.16962,   0.00217,  -0.00076,   0.00171,475729440.00000,   0.00021,274872192.00000,   0.00022,  -0.00009,   0.00014, 224.00000,   2.00000
445289798.19265,42258886.50487,121294105.72306,   0.00217,  -0.00076,   0.00172,475720768.00000,   0.00021,274875968.00000,   0.00022,  -0.00009,   0.00015,  32.00000,   2.00000
444264078.25594,41679056.89697,122207431.11324,   0.00217,  -0.00077,   0.00174,475735808.00000,   0.00022,274879840.00000,   0.00023,  -0.00009,   0.00015, 160.00000,   2.00000
443214799.33348,41062378.73949,123120631.37580,   0.00217,  -0.00077,   0.00175,475712480.00000,   0.00022,274883552.00000,   0.00023,  -0.00009,   0.00015,   0.00000,   2.00000
442174898.19513,40487036.52965,124035045.38955,   0.00217,  -0.00077,   0.00177,475727744.00000,   0.00023,274887360.00000,   0.00023,  -0.00009,   0.00016, 224.00000,   2.00000
441127147.11560,39903809.90789,124945335.78558,   0.00217,  -0.00077,   0.00178,475719456.00000,   0.00023,274891072.00000,   0.00024,  -0.00009,   0.00016,  32.00000,   2.00000
440083845.54472,39341703.29471,125852111.38187,   0.00217,  -0.00077,   0.00180,475730208.00000,   0.00023,274894848.00000,   0.00024,  -0.00009,   0.00016, -64.00000,   2.00000
439021281.59620,38763049.17181,126763371.78259,   0.00217,  -0.00078,   0.00181,475711872.00000,   0.00024,274898496.00000,   0.00024,  -0.00010,   0.00016, -96.00000,   2.00000
437967187.73872,38205584.24563,127666532.75770,   0.00217,  -0.00078,   0.00183,475718208.00000,   0.00024,274902176.00000,   0.00025,  -0.00010,   0.00017,   0.00000,   2.00000
436900945.22930,37640324.60351,128570043.28115,   0.00217,  -0.00078,   0.00184,475714784.00000,   0.00024,274905824.00000,   0.00025,  -0.00010,   0.00017,   0.00000,   2.00000
435838938.74639,37096330.69238,129469811.00479,   0.00217,  -0.00078,   0.00186,475725792.00000,   0.00025,274909536.00000,   0.00025,  -0.00010,   0.00017,-192.00000,   2.00000
434773651.95309,36564828.71549,130369968.06001,   0.00216,  -0.00078,   0.00187,475722464.00000,   0.00025,274913184.00000,   0.00026,  -0.00010,   0.00018, 160.00000,   2.00000
433695938.41147,36025535.54496,131270376.84105,   0.00216,  -0.00078,   0.00189,475719392.00000,   0.00025,274916800.00000,   0.00026,  -0.00010,   0.00018, 128.00000,   2.00000
432626529.86247,35507497.20998,132162503.26232,   0.00216,  -0.00079,   0.00190,475725856.00000,   0.00026,274920448.00000,   0.00026,  -0.00010,   0.00018, -64.00000,   2.00000
431536876.00140,34972801.86921,133059140.01623,   0.00216,  -0.00079,   0.00192,475708224.00000,   0.00026,274924000.00000,   0.00027,  -0.00011,   0.00019, -32.00000,   2.00000
430451408.05189,34459384.43923,133951902.57232,   0.00216,  -0.00079,   0.00193,475719552.00000,   0.00026,274927552.00000,   0.00027,  -0.00011,   0.00019, 160.00000,   2.00000
429370203.52216,33967209.34564,134840792.76138,   0.00216,  -0.00079,   0.00194,475730720.00000,   0.00027,274931200.00000,   0.00027,  -0.00011,   0.00019,  96.00000,   2.00000
428280717.41257,33467015.72182,135725738.21498,   0.00216,  -0.00079,   0.00196,475722720.00000,   0.00027,274934752.00000,   0.00028,  -0.00011,   0.00019, -32.00000,   2.00000
427187497.53073,32979101.45171,136611169.99697,   0.00216,  -0.00079,   0.00197,475719328.00000,   0.00027,274938304.00000,   0.00028,  -0.00011,   0.00020,   0.00000,   2.00000
426090624.25176,32503395.64752,137497193.09501,   0.00216,  -0.00080,   0.00199,475715840.00000,   0.00027,274941792.00000,   0.00028,  -0.00011,   0.00020, -64.00000,   2.00000
424993715.64495,32028391.30186,138375237.15230,   0.00216,  -0.00080,   0.00200,475721600.00000,   0.00028,274945312.00000,   0.00029,  -0.00011,   0.00020,  32.00000,   2.00000
423888987.19274,31565559.62234,139258315.25859,   0.00216,  -0.00080,   0.00202,475723040.00000,   0.00028,274948832.00000,   0.00029,  -0.00012,   0.00021, -96.00000,   2.00000
422780402.92041,31094288.96602,140133735.73116,   0.00215,  -0.00080,   0.00203,475709152.00000,   0.00028,274952256.00000,   0.00029,  -0.00012,   0.00021,  96.00000,   2.00000
421672392.30457,30644033.58852,141009970.57617,   0.00215,  -0.00080,   0.00205,475724448.00000,   0.00029,274955744.00000,   0.00029,  -0.00012,   0.00021, -32.00000,   2.00000
420565423.90450,30205581.73148,141883129.78102,   0.00215,  -0.00080,   0.00206,475715104.00000,   0.00029,274959168.00000,   0.00030,  -0.00012,   0.00022,  64.00000,   2.00000
419454500.52039,29767665.19517,142752878.92249,   0.00215,  -0.00080,   0.00208,475725312.00000,   0.00029,274962624.00000,   0.00030,  -0.00012,   0.00022, -32.00000,   2.00000
418340219.04330,29341549.29215,143623795.38126,   0.00215,  -0.00080,   0.00209,475720960.00000,   0.00030,274966048.00000,   0.00030,  -0.00012,   0.00022, -64.00000,   2.00000
417217750.67331,28906792.88748,144491575.07917,   0.00215,  -0.00081,   0.00210,475711744.00000,   0.00030,274969408.00000,   0.00031,  -0.00012,   0.00023,   0.00000,   2.00000
416100456.48107,28492732.17845,145356034.03896,   0.00215,  -0.00081,   0.00212,475721472.00000,   0.00030,274972800.00000,   0.00031,  -0.00012,   0.00023, -32.00000,   2.00000
414983658.44355,28090224.29766,146217352.58002,   0.00214,  -0.00081,   0.00213,475712032.00000,   0.00031,274976160.00000,   0.00031,  -0.00013,   0.00023, -32.00000,   2.00000
413862917.32799,27699345.06139,147079622.46845,   0.00214,  -0.00081,   0.00215,475708032.00000,   0.00031,274979456.00000,   0.00031,  -0.00013,   0.00023,   0.00000,   2.00000
412738115.78029,27308796.06984,147938259.95045,   0.00214,  -0.00081,   0.00216,475718208.00000,   0.00031,274982816.00000,   0.00032,  -0.00013,   0.00024,  32.00000,   2.00000
411600299.12522,26909605.01771,148797778.72365,   0.00214,  -0.00081,   0.00218,475714656.00000,   0.00032,274986112.00000,   0.00032,  -0.00013,   0.00024,  64.00000,   2.00000
410481099.71576,26551263.88166,149650085.81468,   0.00214,  -0.00081,   0.00219,475718176.00000,   0.00032,274989440.00000,   0.00032,  -0.00013,   0.00024,  64.00000,   2.00000
409344576.95629,26163949.02287,150499517.49180,   0.00214,  -0.00081,   0.00220,475708928.00000,   0.00032,274992672.00000,   0.00033,  -0.00013,   0.00025,  64.00000,   2.00000
408213555.97163,25808687.91865,151350684.64574,   0.00213,  -0.00081,   0.00222,475703392.00000,   0.00032,274995904.00000,   0.00033,  -0.00013,   0.00025, -32.00000,   2.00000
407079360.13613,25453934.98214,152198901.58132,   0.00213,  -0.00081,   0.00223,475712384.00000,   0.00033,274999168.00000,   0.00033,  -0.00013,   0.00025,-160.00000,   2.00000
405951120.83435,25119986.31291,153044242.56649,   0.00213,  -0.00081,   0.00225,475720896.00000,   0.00033,275002432.00000,   0.00033,  -0.00014,   0.00026,  64.00000,   2.00000
404814035.33262,24788649.74715,153891435.12812,   0.00213,  -0.00081,   0.00226,475697216.00000,   0.00033,275005568.00000,   0.00034,  -0.00014,   0.00026,  32.00000,   2.00000
403687089.73639,24466737.51448,154726496.22025,   0.00213,  -0.00081,   0.00227,475714976.00000,   0.00034,275008800.00000,   0.00034,  -0.00014,   0.00026,-128.00000,   2.00000
402546073.27827,24147568.83071,155566805.82337,   0.00213,  -0.00081,   0.00229,475697952.00000,   0.00034,275011936.00000,   0.00034,  -0.00014,   0.00027,  32.00000,   2.00000
401400689.70224,23828932.06934,156402935.77437,   0.00212,  -0.00081,   0.00230,475708704.00000,   0.00034,275015104.00000,   0.00034,  -0.00014,   0.00027, 128.00000,   2.00000
400259842.00947,23531061.13569,157235015.70855,   0.00212,  -0.00081,   0.00232,475719040.00000,   0.00034,275018304.00000,   0.00035,  -0.00014,   0.00027,   0.00000,   2.00000
399123343.28024,23244459.21141,158060394.19220,   0.00212,  -0.00081,   0.00233,475703968.00000,   0.00035,275021440.00000,   0.00035,  -0.00014,   0.00027,  96.00000,   2.00000
397968795.30577,22949123.41166,158890821.00060,   0.00212,  -0.00082,   0.00234,475705728.00000,   0.00035,275024544.00000,   0.00035,  -0.00014,   0.00028, -32.00000,   2.00000
396824836.37616,22673899.13926,159714812.43292,   0.00211,  -0.00082,   0.00236,475708064.00000,   0.00035,275027680.00000,   0.00035,  -0.00014,   0.00028,  32.00000,   2.00000
395691593.15646,22418630.99863,160532633.70479,   0.00211,  -0.00082,   0.00237,475709760.00000,   0.00036,275030784.00000,   0.00036,  -0.00015,   0.00028, -64.00000,   2.00000
394555029.65372,22174306.57480,161352993.60071,   0.00211,  -0.00082,   0.00238,475703424.00000,   0.00036,275033856.00000,   0.00036,  -0.00015,   0.00029, -64.00000,   2.00000
393406066.53195,21920593.56409,162175776.27907,   0.00211,  -0.00082,   0.00240,475697824.00000,   0.00036,275036864.00000,   0.00036,  -0.00015,   0.00029, 128.00000,   2.00000
392259049.71186,21666416.13127,162992484.83824,   0.00211,  -0.00082,   0.00241,475699456.00000,   0.00036,275039904.00000,   0.00036,  -0.00015,   0.00029,-128.00000,   2.00000
391132430.09160,21452451.83886,163803495.16402,   0.00210,  -0.00082,   0.00243,475700000.00000,   0.00037,275042912.00000,   0.00037,  -0.00015,   0.00030,   0.00000,   2.00000
389992831.57568,21229439.90416,164616434.72303,   0.00210,  -0.00082,   0.00244,475695040.00000,   0.00037,275045856.00000,   0.00037,  -0.00015,   0.00030,  32.00000,   2.00000
388840351.88498,20997635.46736,165431176.66448,   0.00210,  -0.00081,   0.00245,475690528.00000,   0.00037,275048800.00000,   0.00037,  -0.00015,   0.00030,  96.00000,   2.00000
387698385.99186,20786501.71294,166239140.61873,   0.00210,  -0.00081,   0.00247,475693408.00000,   0.00038,275051744.00000,   0.00037,  -0.00015,   0.00031,  64.00000,   2.00000
386566652.23934,20596336.34404,167039963.10740,   0.00209,  -0.00081,   0.00248,475697056.00000,   0.00038,275054688.00000,   0.00037,  -0.00015,   0.00031,  64.00000,   2.00000
385430131.94356,20418518.32594,167841689.27572,   0.00209,  -0.00081,   0.00249,475693920.00000,   0.00038,275057600.00000,   0.00038,  -0.00016,   0.00031,  96.00000,   2.00000
384279185.78195,20232962.12484,168643705.04310,   0.00209,  -0.00081,   0.00251,475692512.00000,   0.00038,275060480.00000,   0.00038,  -0.00016,   0.00031,   0.00000,   2.00000
383137792.52316,20068883.22259,169437733.58709,   0.00209,  -0.00081,   0.00252,475697792.00000,   0.00039,275063392.00000,   0.00038,  -0.00016,   0.00032,  32.00000,   2.00000
382005948.31437,19926187.67940,170223767.83116,   0.00208,  -0.00081,   0.00253,475703040.00000,   0.00039,275066304.00000,   0.00038,  -0.00016,   0.00032,  32.00000,   2.00000
380859077.17150,19775524.00497,171009840.02332,   0.00208,  -0.00081,   0.00255,475702112.00000,   0.00039,275069216.00000,   0.00039,  -0.00016,   0.00032, -32.00000,   2.00000
379721827.13685,19645825.74029,171788183.45474,   0.00208,  -0.00081,   0.00256,475706784.00000,   0.00039,275072128.00000,   0.00039,  -0.00016,   0.00033,-224.00000,   2.00000
378589930.88911,19537035.82539,172562632.71544,   0.00207,  -0.00081,   0.00257,475717056.00000,   0.00040,275075072.00000,   0.00039,  -0.00016,   0.00033,  64.00000,   2.00000
377447914.76837,19419327.70056,173334374.70392,   0.00207,  -0.00081,   0.00259,475708736.00000,   0.00040,275077952.00000,   0.00039,  -0.00016,   0.00033,  64.00000,   2.00000
376300507.48314,19313015.23411,174107400.48463,   0.00207,  -0.00081,   0.00260,475705344.00000,   0.00040,275080832.00000,   0.00039,  -0.00016,   0.00034,   0.00000,   2.00000
375154417.83572,19206609.46221,174873562.90379,   0.00207,  -0.00081,   0.00261,475708288.00000,   0.00040,275083680.00000,   0.00040,  -0.00016,   0.00034,  64.00000,   2.00000
374028111.83224,19140560.47394,175633517.84551,   0.00206,  -0.00081,   0.00263,475709632.00000,   0.00041,275086560.00000,   0.00040,  -0.00017,   0.00034,  32.00000,   2.00000
372898877.08837,19074450.55156,176390373.61706,   0.00206,  -0.00081,   0.00264,475718304.00000,   0.00041,275089440.00000,   0.00040,  -0.00017,   0.00034,  64.00000,   2.00000
371755462.56397,18999133.56037,177148893.01344,   0.00206,  -0.00081,   0.00265,475714496.00000,   0.00041,275092288.00000,   0.00040,  -0.00017,   0.00035,   0.00000,   2.00000
370616444.02965,18934443.30286,177902757.84384,   0.00205,  -0.00080,   0.00266,475697056.00000,   0.00042,275095072.00000,   0.00041,  -0.00017,   0.00035,  32.00000,   2.00000
369479026.84928,18890069.96274,178657208.27847,   0.00205,  -0.00080,   0.00268,475711072.00000,   0.00042,275097888.00000,   0.00041,  -0.00017,   0.00035,  32.00000,   2.00000
368357157.90763,18865367.09451,179402263.83067,   0.00205,  -0.00080,   0.00269,475705888.00000,   0.00042,275100672.00000,   0.00041,  -0.00017,   0.00036,-128.00000,   2.00000
367232643.99636,18840423.78208,180144453.37502,   0.00205,  -0.00080,   0.00270,475713920.00000,   0.00042,275103456.00000,   0.00041,  -0.00017,   0.00036,-128.00000,   2.00000
366107685.56065,18826243.35400,180885402.24418,   0.00204,  -0.00080,   0.00271,475702912.00000,   0.00043,275106208.00000,   0.00041,  -0.00017,   0.00036,  64.00000,   2.00000
364988908.40579,18832070.27733,181623505.10325,   0.00204,  -0.00080,   0.00273,475710912.00000,   0.00043,275108960.00000,   0.00042,  -0.00017,   0.00037, 128.00000,   2.00000
363871848.22608,18837425.84883,182355230.20413,   0.00204,  -0.00080,   0.00274,475712608.00000,   0.00043,275111712.00000,   0.00042,  -0.00017,   0.00037, -96.00000,   2.00000
362749421.57849,18853728.21969,183088825.79397,   0.00203,  -0.00080,   0.00275,475708544.00000,   0.00043,275114464.00000,   0.00042,  -0.00017,   0.00037,  64.00000,   2.00000
361633470.50571,18869386.79075,183812828.28193,   0.00203,  -0.00080,   0.00277,475703968.00000,   0.00044,275117152.00000,   0.00042,  -0.00018,   0.00038,  64.00000,   2.00000
360520586.64283,18916312.86337,184538541.79468,   0.00203,  -0.00079,   0.00278,475699680.00000,   0.00044,275119808.00000,   0.00042,  -0.00018,   0.00038, -32.00000,   2.00000
359395770.40941,18942667.06280,185260774.90560,   0.00202,  -0.00079,   0.00279,475708992.00000,   0.00044,275122496.00000,   0.00042,  -0.00018,   0.00038, 160.00000,   2.00000
358290391.18589,19009148.81521,185976646.04131,   0.00202,  -0.00079,   0.00280,475710816.00000,   0.00044,275125216.00000,   0.00043,  -0.00018,   0.00038,   0.00000,   2.00000
357186696.13648,19075186.21446,186685932.26438,   0.00202,  -0.00079,   0.00281,475712992.00000,   0.00045,275127904.00000,   0.00043,  -0.00018,   0.00039,  96.00000,   2.00000
356076689.39363,19152274.35145,187396475.55099,   0.00201,  -0.00079,   0.00283,475710112.00000,   0.00045,275130560.00000,   0.00043,  -0.00018,   0.00039,   0.00000,   2.00000
354989346.08883,19258186.27921,188095762.25112,   0.00201,  -0.00079,   0.00284,475724000.00000,   0.00045,275133280.00000,   0.00043,  -0.00018,   0.00039,  64.00000,   2.00000
353879339.59571,19345798.95204,188797896.88077,   0.00201,  -0.00078,   0.00285,475703104.00000,   0.00045,275135872.00000,   0.00043,  -0.00018,   0.00040,  32.00000,   2.00000
352792125.65975,19462264.93743,189488818.51334,   0.00200,  -0.00078,   0.00286,475716704.00000,   0.00045,275138528.00000,   0.00044,  -0.00018,   0.00040, -64.00000,   2.00000
351689559.03919,19569572.46396,190180885.98346,   0.00200,  -0.00078,   0.00288,475714400.00000,   0.00046,275141184.00000,   0.00044,  -0.00018,   0.00040, -96.00000,   2.00000
350597709.15961,19696820.79196,190866605.13872,   0.00200,  -0.00078,   0.00289,475716192.00000,   0.00046,275143808.00000,   0.00044,  -0.00018,   0.00041, -64.00000,   2.00000
349511801.04382,19844142.95421,191548940.49196,   0.00199,  -0.00078,   0.00290,475724960.00000,   0.00046,275146464.00000,   0.00044,  -0.00019,   0.00041,  96.00000,   2.00000
348436633.94355,20011407.45169,192225015.04658,   0.00199,  -0.00077,   0.00291,475726656.00000,   0.00046,275149120.00000,   0.00044,  -0.00019,   0.00041,   0.00000,   2.00000
347351270.45412,20169430.16256,192899798.47978,   0.00199,  -0.00077,   0.00292,475716704.00000,   0.00047,275151712.00000,   0.00045,  -0.00019,   0.00042,  64.00000,   2.00000
346276767.56593,20347428.62196,193568531.41253,   0.00198,  -0.00077,   0.00293,475718144.00000,   0.00047,275154304.00000,   0.00045,  -0.00019,   0.00042,  32.00000,   2.00000
345199563.84246,20525236.68863,194234059.57373,   0.00198,  -0.00077,   0.00295,475726368.00000,   0.00047,275156928.00000,   0.00045,  -0.00019,   0.00042, -96.00000,   2.00000
344142538.43573,20743306.04932,194894019.90801,   0.00198,  -0.00077,   0.00296,475726880.00000,   0.00047,275159520.00000,   0.00045,  -0.00019,   0.00042,  64.00000,   2.00000
343075327.93039,20952181.11755,195553061.01984,   0.00197,  -0.00076,   0.00297,475716160.00000,   0.00048,275162080.00000,   0.00045,  -0.00019,   0.00043,   0.00000,   2.00000
342018422.70558,21169735.39622,196204419.69975,   0.00197,  -0.00076,   0.00298,475735296.00000,   0.00048,275164704.00000,   0.00045,  -0.00019,   0.00043,  32.00000,   2.00000
340960197.21348,21398413.84094,196855096.78038,   0.00197,  -0.00076,   0.00299,475724256.00000,   0.00048,275167264.00000,   0.00046,  -0.00019,   0.00043,  32.00000,   2.00000
339913484.96268,21647083.58647,197500427.66069,   0.00196,  -0.00076,   0.00300,475724288.00000,   0.00048,275169792.00000,   0.00046,  -0.00019,   0.00044,   0.00000,   2.00000
338869422.89107,21895454.66520,198140341.55141,   0.00196,  -0.00075,   0.00302,475724352.00000,   0.00049,275172352.00000,   0.00046,  -0.00019,   0.00044, -96.00000,   2.00000
337828162.36725,22175360.65323,198782618.34624,   0.00195,  -0.00075,   0.00303,475719776.00000,   0.00049,275174848.00000,   0.00046,  -0.00019,   0.00044,   0.00000,   2.00000
336793629.05328,22443516.41720,199414647.26966,   0.00195,  -0.00075,   0.00304,475731264.00000,   0.00049,275177408.00000,   0.00046,  -0.00019,   0.00045,  64.00000,   2.00000
335766556.67666,22743125.77696,200046305.20503,   0.00195,  -0.00075,   0.00305,475719648.00000,   0.00049,275179872.00000,   0.00046,  -0.00020,   0.00045,   0.00000,   2.00000
334742302.06312,23042433.62344,200672704.92463,   0.00194,  -0.00074,   0.00306,475719520.00000,   0.00050,275182336.00000,   0.00047,  -0.00020,   0.00045, 160.00000,   2.00000
333724663.56816,23361821.33261,201296408.81888,   0.00194,  -0.00074,   0.00307,475726496.00000,   0.00050,275184832.00000,   0.00047,  -0.00020,   0.00046,  32.00000,   2.00000
332709860.20053,23680901.59431,201914832.19089,   0.00194,  -0.00074,   0.00308,475726496.00000,   0.00050,275187328.00000,   0.00047,  -0.00020,   0.00046, 128.00000,   2.00000
331706431.81885,24019972.64396,202527857.88260,   0.00193,  -0.00074,   0.00309,475726432.00000,   0.00050,275189792.00000,   0.00047,  -0.00020,   0.00046, 160.00000,   2.00000
330709572.43458,24379096.46909,203138044.18097,   0.00193,  -0.00073,   0.00311,475733472.00000,   0.00050,275192288.00000,   0.00047,  -0.00020,   0.00046, -32.00000,   2.00000
329707194.81437,24729022.74116,203745148.09674,   0.00193,  -0.00073,   0.00312,475715072.00000,   0.00051,275194688.00000,   0.00047,  -0.00020,   0.00047,  96.00000,   2.00000
328724503.89585,25107786.06403,204344495.04640,   0.00192,  -0.00073,   0.00313,475733472.00000,   0.00051,275197152.00000,   0.00048,  -0.00020,   0.00047, 160.00000,   2.00000
327739882.77979,25497715.31286,204943138.71559,   0.00192,  -0.00072,   0.00314,475722656.00000,   0.00051,275199584.00000,   0.00048,  -0.00020,   0.00047,   0.00000,   2.00000
326753016.31669,25887351.64778,205538727.46508,   0.00191,  -0.00072,   0.00315,475730432.00000,   0.00051,275202016.00000,   0.00048,  -0.00020,   0.00048,   0.00000,   2.00000
325795544.98757,26305647.76441,206121454.77646,   0.00191,  -0.00072,   0.00316,475733952.00000,   0.00052,275204448.00000,   0.00048,  -0.00020,   0.00048, -96.00000,   2.00000
324831212.35298,26735139.12329,206705915.46941,   0.00191,  -0.00071,   0.00317,475730912.00000,   0.00052,275206880.00000,   0.00048,  -0.00020,   0.00048,  64.00000,   2.00000
323869204.24513,27164236.07920,207284638.39751,   0.00190,  -0.00071,   0.00318,475731552.00000,   0.00052,275209280.00000,   0.00048,  -0.00020,   0.00049,  32.00000,   2.00000
322918509.32373,27613222.53332,207857832.22816,   0.00190,  -0.00071,   0.00319,475731744.00000,   0.00052,275211680.00000,   0.00048,  -0.00020,   0.00049,  96.00000,   2.00000
321974102.87328,28082108.07157,208427731.86281,   0.00190,  -0.00070,   0.00320,475739744.00000,   0.00052,275214112.00000,   0.00049,  -0.00020,   0.00049,  32.00000,   2.00000
321036953.10686,28550514.39390,208989642.92941,   0.00189,  -0.00070,   0.00321,475732512.00000,   0.00053,275216480.00000,   0.00049,  -0.00021,   0.00049,   0.00000,   2.00000
320106228.34396,29038770.01556,209548355.39412,   0.00189,  -0.00070,   0.00322,475740416.00000,   0.00053,275218912.00000,   0.00049,  -0.00021,   0.00050,  96.00000,   2.00000
319177832.52289,29526528.92663,210101399.41534,   0.00189,  -0.00069,   0.00323,475740992.00000,   0.00053,275221312.00000,   0.00049,  -0.00021,   0.00050, -96.00000,   2.00000
318260746.70897,30034072.17151,210649011.68518,   0.00188,  -0.00069,   0.00324,475741376.00000,   0.00053,275223680.00000,   0.00049,  -0.00021,   0.00050, 160.00000,   2.00000
317336084.27900,30552672.27286,211198058.53109,   0.00188,  -0.00069,   0.00325,475738976.00000,   0.00054,275226080.00000,   0.00049,  -0.00021,   0.00051,  32.00000,   2.00000
316432537.92249,31079409.96335,211734635.86577,   0.00187,  -0.00068,   0.00326,475741856.00000,   0.00054,275228448.00000,   0.00050,  -0.00021,   0.00051,  64.00000,   2.00000
315535343.00496,31625843.35175,212268012.76720,   0.00187,  -0.00068,   0.00327,475749728.00000,   0.00054,275230848.00000,   0.00050,  -0.00021,   0.00051,  32.00000,   2.00000
314649381.33870,32191964.10832,212796048.93894,   0.00187,  -0.00068,   0.00328,475749824.00000,   0.00054,275233216.00000,   0.00050,  -0.00021,   0.00052, 128.00000,   2.00000
313765877.87475,32757449.32557,213318742.66816,   0.00186,  -0.00067,   0.00329,475750048.00000,   0.00054,275235616.00000,   0.00050,  -0.00021,   0.00052, -64.00000,   2.00000
312893575.82515,33342581.81606,213836174.03794,   0.00186,  -0.00067,   0.00330,475749984.00000,   0.00055,275237984.00000,   0.00050,  -0.00021,   0.00052, -96.00000,   2.00000
312027742.69472,33947279.37947,214350578.60751,   0.00186,  -0.00067,   0.00331,475757664.00000,   0.00055,275240352.00000,   0.00050,  -0.00021,   0.00053,  32.00000,   2.00000
311169151.67824,34551346.19710,214857639.22641,   0.00185,  -0.00066,   0.00332,475749824.00000,   0.00055,275242688.00000,   0.00050,  -0.00021,   0.00053,  96.00000,   2.00000
310316984.32744,35174921.13810,215361701.57940,   0.00185,  -0.00066,   0.00333,475757440.00000,   0.00055,275245056.00000,   0.00050,  -0.00021,   0.00053,  64.00000,   2.00000
309467382.67457,35797760.60632,215860732.18907,   0.00184,  -0.00065,   0.00334,475757088.00000,   0.00055,275247424.00000,   0.00051,  -0.00021,   0.00053,  32.00000,   2.00000
308628991.04528,36440152.25430,216354732.07872,   0.00184,  -0.00065,   0.00335,475756800.00000,   0.00056,275249760.00000,   0.00051,  -0.00021,   0.00054,  32.00000,   2.00000
307815928.71756,37110637.84254,216838905.48786,   0.00184,  -0.00065,   0.00336,475766592.00000,   0.00056,275252128.00000,   0.00051,  -0.00021,   0.00054,  64.00000,   2.00000
306986532.44866,37771668.92523,217325060.53402,   0.00183,  -0.00064,   0.00337,475763712.00000,   0.00056,275254496.00000,   0.00051,  -0.00022,   0.00054,  32.00000,   2.00000
306172964.72271,38452351.55158,217804139.11647,   0.00183,  -0.00064,   0.00338,475755168.00000,   0.00056,275256800.00000,   0.00051,  -0.00022,   0.00055,   0.00000,   2.00000
305371678.93707,39140596.81989,218275797.40497,   0.00183,  -0.00063,   0.00339,475772512.00000,   0.00057,275259168.00000,   0.00051,  -0.00022,   0.00055,-128.00000,   2.00000
304581588.34613,39848327.18251,218742570.77675,   0.00182,  -0.00063,   0.00340,475772000.00000,   0.00057,275261536.00000,   0.00051,  -0.00022,   0.00055, -32.00000,   2.00000
303788205.17712,40567058.45464,219209141.58941,   0.00182,  -0.00063,   0.00341,475761600.00000,   0.00057,275263808.00000,   0.00052,  -0.00022,   0.00056,  96.00000,   2.00000
303011854.13824,41293437.14252,219666273.10846,   0.00182,  -0.00062,   0.00342,475770784.00000,   0.00057,275266144.00000,   0.00052,  -0.00022,   0.00056,  64.00000,   2.00000
302246555.90963,42039287.75395,220118487.42313,   0.00181,  -0.00062,   0.00342,475770272.00000,   0.00057,275268448.00000,   0.00052,  -0.00022,   0.00056,  64.00000,   2.00000
301487587.03996,42804374.83453,220567769.02909,   0.00181,  -0.00061,   0.00343,475777888.00000,   0.00058,275270784.00000,   0.00052,  -0.00022,   0.00057,  64.00000,   2.00000
300735988.06463,43568879.64067,221010447.61530,   0.00180,  -0.00061,   0.00344,475768736.00000,   0.00058,275273088.00000,   0.00052,  -0.00022,   0.00057,  64.00000,   2.00000
300005244.35374,44360985.66117,221445474.88959,   0.00180,  -0.00060,   0.00345,475786240.00000,   0.00058,275275424.00000,   0.00052,  -0.00022,   0.00057,  32.00000,   2.00000
299262649.21570,45143890.01668,221880636.34880,   0.00180,  -0.00060,   0.00346,475775232.00000,   0.00058,275277728.00000,   0.00052,  -0.00022,   0.00058,  64.00000,   2.00000
298545558.37988,45954610.86716,222306123.48011,   0.00179,  -0.00059,   0.00347,475784736.00000,   0.00058,275280064.00000,   0.00053,  -0.00022,   0.00058,   0.00000,   2.00000
297839542.25830,46784798.64210,222726767.62841,   0.00179,  -0.00059,   0.00348,475784160.00000,   0.00059,275282368.00000,   0.00053,  -0.00022,   0.00058,  32.00000,   2.00000
297136155.62621,47614175.26271,223142799.61063,   0.00179,  -0.00058,   0.00349,475783136.00000,   0.00059,275284672.00000,   0.00053,  -0.00022,   0.00058,  32.00000,   2.00000
296443719.50984,48463025.74688,223553908.63536,   0.00178,  -0.00058,   0.00349,475782720.00000,   0.00059,275286944.00000,   0.00053,  -0.00022,   0.00059,  32.00000,   2.00000
295749283.32130,49310727.12570,223962346.09705,   0.00178,  -0.00057,   0.00350,475789696.00000,   0.00059,275289248.00000,   0.00053,  -0.00022,   0.00059,  64.00000,   2.00000
295085148.51933,50186539.31492,224359259.97251,   0.00178,  -0.00057,   0.00351,475790848.00000,   0.00060,275291552.00000,   0.00053,  -0.00022,   0.00059,  64.00000,   2.00000
294412481.61961,51073192.27523,224757748.06063,   0.00177,  -0.00057,   0.00352,475789024.00000,   0.00060,275293824.00000,   0.00053,  -0.00022,   0.00060,  32.00000,   2.00000
293757235.90085,51967294.13592,225146974.63621,   0.00177,  -0.00056,   0.00353,475797536.00000,   0.00060,275296160.00000,   0.00053,  -0.00022,   0.00060,  32.00000,   2.00000
293127790.79406,52889101.59882,225526630.06831,   0.00177,  -0.00056,   0.00354,475806816.00000,   0.00060,275298496.00000,   0.00054,  -0.00022,   0.00060,   0.00000,   2.00000
292486104.16205,53801920.33951,225906346.49180,   0.00176,  -0.00055,   0.00354,475795968.00000,   0.00060,275300768.00000,   0.00054,  -0.00022,   0.00061, -96.00000,   2.00000
291855305.86982,54734233.51717,226281115.95428,   0.00176,  -0.00055,   0.00355,475795744.00000,   0.00061,275303040.00000,   0.00054,  -0.00023,   0.00061,-128.00000,   2.00000
291242167.92702,55673968.76894,226646782.94737,   0.00176,  -0.00054,   0.00356,475804128.00000,   0.00061,275305344.00000,   0.00054,  -0.00023,   0.00061,  64.00000,   2.00000
290639767.74339,56633185.81185,227007381.40271,   0.00175,  -0.00054,   0.00357,475803904.00000,   0.00061,275307616.00000,   0.00054,  -0.00023,   0.00062,  64.00000,   2.00000
290058533.24364,57619523.95226,227360113.02682,   0.00175,  -0.00053,   0.00358,475821376.00000,   0.00061,275309984.00000,   0.00054,  -0.00023,   0.00062, -32.00000,   2.00000
289469644.33319,58597497.48291,227711257.61664,   0.00175,  -0.00052,   0.00358,475802368.00000,   0.00061,275312224.00000,   0.00054,  -0.00023,   0.00062,  96.00000,   2.00000
288901957.00307,59602529.87284,228054529.63548,   0.00174,  -0.00052,   0.00359,475820000.00000,   0.00062,275314560.00000,   0.00054,  -0.00023,   0.00063, -64.00000,   2.00000
288341573.73398,60607355.44830,228391615.54120,   0.00174,  -0.00051,   0.00360,475810400.00000,   0.00062,275316832.00000,   0.00054,  -0.00023,   0.00063,   0.00000,   2.00000
287787294.20976,61631089.89534,228725393.74517,   0.00174,  -0.00051,   0.00361,475818496.00000,   0.00062,275319136.00000,   0.00055,  -0.00023,   0.00063, -64.00000,   2.00000
287250847.15882,62662121.53383,229050171.46898,   0.00173,  -0.00050,   0.00361,475826592.00000,   0.00062,275321472.00000,   0.00055,  -0.00023,   0.00064,  96.00000,   2.00000
286733091.22271,63732803.41790,229369285.04118,   0.00173,  -0.00050,   0.00362,475827712.00000,   0.00063,275323776.00000,   0.00055,  -0.00023,   0.00064,  32.00000,   2.00000
286210121.37238,64782525.92319,229684739.93213,   0.00173,  -0.00049,   0.00363,475825024.00000,   0.00063,275326080.00000,   0.00055,  -0.00023,   0.00064, 128.00000,   2.00000
285712855.73386,65859659.64562,229990461.25554,   0.00172,  -0.00049,   0.00363,475834464.00000,   0.00063,275328416.00000,   0.00055,  -0.00023,   0.00065, 160.00000,   2.00000
285211102.11495,66948245.73367,230295845.03904,   0.00172,  -0.00048,   0.00364,475824992.00000,   0.00063,275330688.00000,   0.00055,  -0.00023,   0.00065, -64.00000,   2.00000
284722583.90687,68043326.51827,230593893.42131,   0.00172,  -0.00048,   0.00365,475841312.00000,   0.00063,275333024.00000,   0.00055,  -0.00023,   0.00065, -32.00000,   2.00000
284264488.99333,69166422.71552,230880704.86930,   0.00171,  -0.00047,   0.00366,475842176.00000,   0.00064,275335360.00000,   0.00055,  -0.00023,   0.00065,  32.00000,   2.00000
283808970.88512,70288705.05530,231163170.76661,   0.00171,  -0.00046,   0.00366,475840640.00000,   0.00064,275337696.00000,   0.00056,  -0.00023,   0.00066,-160.00000,   2.00000
283359588.87491,71429640.61914,231442403.85621,   0.00171,  -0.00046,   0.00367,475849152.00000,   0.00064,275340032.00000,   0.00056,  -0.00023,   0.00066,  32.00000,   2.00000
282925066.85864,72590629.75785,231714833.92537,   0.00170,  -0.00045,   0.00368,475840992.00000,   0.00064,275342336.00000,   0.00056,  -0.00023,   0.00066, -64.00000,   2.00000
282503879.74314,73757867.20058,231980006.73881,   0.00170,  -0.00045,   0.00368,475857152.00000,   0.00064,275344672.00000,   0.00056,  -0.00023,   0.00067, -32.00000,   2.00000
282085380.97810,74924266.99824,232241045.31775,   0.00170,  -0.00044,   0.00369,475855808.00000,   0.00065,275347040.00000,   0.00056,  -0.00023,   0.00067,  96.00000,   2.00000
281677096.16372,76109916.48819,232496892.39784,   0.00169,  -0.00044,   0.00370,475856096.00000,   0.00065,275349344.00000,   0.00056,  -0.00023,   0.00067, -64.00000,   2.00000
281294592.08658,77322627.83718,232743167.17395,   0.00169,  -0.00043,   0.00370,475865344.00000,   0.00065,275351712.00000,   0.00056,  -0.00023,   0.00068,  64.00000,   2.00000
280914557.23496,78534431.86324,232985196.77310,   0.00169,  -0.00042,   0.00371,475864128.00000,   0.00065,275354080.00000,   0.00056,  -0.00023,   0.00068,  96.00000,   2.00000
280552337.10206,79753072.59214,233218377.34155,   0.00169,  -0.00042,   0.00372,475871840.00000,   0.00066,275356448.00000,   0.00056,  -0.00023,   0.00068, -32.00000,   2.00000
280208113.79917,81011006.32713,233445610.47261,   0.00168,  -0.00041,   0.00372,475873952.00000,   0.00066,275358816.00000,   0.00057,  -0.00023,   0.00069, -32.00000,   2.00000
279858625.61985,82247914.02947,233669601.39260,   0.00168,  -0.00041,   0.00373,475870880.00000,   0.00066,275361152.00000,   0.00057,  -0.00023,   0.00069,   0.00000,   2.00000
279519206.85660,83503975.77146,233888432.23578,   0.00168,  -0.00040,   0.00374,475871424.00000,   0.00066,275363488.00000,   0.00057,  -0.00023,   0.00069,  32.00000,   2.00000
279205284.72697,84786824.44473,234097521.74598,   0.00167,  -0.00039,   0.00374,475881216.00000,   0.00066,275365856.00000,   0.00057,  -0.00023,   0.00070,  96.00000,   2.00000
278904609.26768,86075318.45239,234299316.64825,   0.00167,  -0.00039,   0.00375,475897472.00000,   0.00067,275368288.00000,   0.00057,  -0.00023,   0.00070,  64.00000,   2.00000
278618478.97429,87383894.89100,234494474.87769,   0.00167,  -0.00038,   0.00375,475889664.00000,   0.00067,275370656.00000,   0.00057,  -0.00024,   0.00071,  32.00000,   2.00000
278329993.05533,88690391.22929,234686828.79381,   0.00167,  -0.00037,   0.00376,475896928.00000,   0.00067,275373056.00000,   0.00057,  -0.00024,   0.00071,-160.00000,   2.00000
278071548.09166,90024574.11330,234868036.69405,   0.00166,  -0.00037,   0.00377,475898048.00000,   0.00067,275375456.00000,   0.00057,  -0.00024,   0.00071,  32.00000,   2.00000
277810832.84799,91356633.95873,235046560.45584,   0.00166,  -0.00036,   0.00377,475905536.00000,   0.00067,275377888.00000,   0.00058,  -0.00024,   0.00072,  64.00000,   2.00000
277559748.31230,92707626.89429,235219676.67991,   0.00166,  -0.00036,   0.00378,475906560.00000,   0.00068,275380288.00000,   0.00058,  -0.00024,   0.00072,   0.00000,   2.00000
277338524.00078,94086226.41596,235381549.54881,   0.00166,  -0.00035,   0.00378,475907936.00000,   0.00068,275382688.00000,   0.00058,  -0.00024,   0.00072,  32.00000,   2.00000
277123048.79252,95450093.13329,235537359.42991,   0.00165,  -0.00034,   0.00379,475921984.00000,   0.00068,275385152.00000,   0.00058,  -0.00024,   0.00073,  96.00000,   2.00000
276909016.48705,96845362.58162,235691114.09774,   0.00165,  -0.00034,   0.00379,475916576.00000,   0.00068,275387584.00000,   0.00058,  -0.00024,   0.00073, 128.00000,   2.00000
276720858.01054,98234461.45450,235832856.72410,   0.00165,  -0.00033,   0.00380,475930752.00000,   0.00069,275390080.00000,   0.00058,  -0.00024,   0.00073,   0.00000,   2.00000
276534080.80270,99654977.07547,235972536.02194,   0.00165,  -0.00032,   0.00380,475925504.00000,   0.00069,275392512.00000,   0.00058,  -0.00024,   0.00074,  64.00000,   2.00000
276373290.61284,101069270.76019,236100332.57268,   0.00164,  -0.00032,   0.00381,475939584.00000,   0.00069,275395008.00000,   0.00058,  -0.00024,   0.00074, 160.00000,   2.00000
276206410.10647,102495098.25994,236227294.33750,   0.00164,  -0.00031,   0.00381,475932064.00000,   0.00069,275397440.00000,   0.00058,  -0.00024,   0.00074,   0.00000,   2.00000
276064601.35641,103947120.87568,236344299.73202,   0.00164,  -0.00030,   0.00382,475942240.00000,   0.00070,275399936.00000,   0.00059,  -0.00024,   0.00075, -64.00000,   2.00000
275940584.10312,105405439.63153,236452730.94457,   0.00164,  -0.00030,   0.00382,475949888.00000,   0.00070,275402432.00000,   0.00059,  -0.00024,   0.00075,  64.00000,   2.00000
275825973.91302,106882627.89839,236555705.40964,   0.00163,  -0.00029,   0.00383,475951168.00000,   0.00070,275404928.00000,   0.00059,  -0.00024,   0.00075,   0.00000,   2.00000
275724708.90138,108364712.45070,236651572.06095,   0.00163,  -0.00028,   0.00383,475967200.00000,   0.00070,275407488.00000,   0.00059,  -0.00024,   0.00076, 128.00000,   2.00000
275637443.37745,109867150.01667,236740635.48230,   0.00163,  -0.00028,   0.00384,475959968.00000,   0.00070,275410016.00000,   0.00059,  -0.00024,   0.00076,   0.00000,   2.00000
275552450.38345,111368745.90956,236825739.80384,   0.00163,  -0.00027,   0.00384,475958464.00000,   0.00071,275412512.00000,   0.00059,  -0.00024,   0.00077,-128.00000,   2.00000
275481025.21814,112875282.60941,236903884.32291,   0.00163,  -0.00026,   0.00385,475974240.00000,   0.00071,275415072.00000,   0.00059,  -0.00024,   0.00077,   0.00000,   2.00000
275439385.76104,114409533.86668,236970786.44778,   0.00162,  -0.00026,   0.00385,475975744.00000,   0.00071,275417632.00000,   0.00059,  -0.00024,   0.00077,  64.00000,   2.00000
275395664.15700,115941551.56379,237035219.30862,   0.00162,  -0.00025,   0.00386,475982624.00000,   0.00071,275420192.00000,   0.00059,  -0.00024,   0.00078,  64.00000,   2.00000
275366088.72439,117494227.72896,237092934.10394,   0.00162,  -0.00024,   0.00386,475975232.00000,   0.00072,275422720.00000,   0.00060,  -0.00024,   0.00078, -32.00000,   2.00000
275357320.60476,119071519.47335,237142150.17057,   0.00162,  -0.00023,   0.00387,475993856.00000,   0.00072,275425312.00000,   0.00060,  -0.00024,   0.00078,   0.00000,   2.00000
275364219.68448,120637115.20772,237183309.68930,   0.00162,  -0.00023,   0.00387,475989376.00000,   0.00072,275427872.00000,   0.00060,  -0.00024,   0.00079,   0.00000,   2.00000
275376150.51940,122220122.49990,237220421.88984,   0.00161,  -0.00022,   0.00388,475999392.00000,   0.00072,275430496.00000,   0.00060,  -0.00024,   0.00079,  32.00000,   2.00000
275413216.99005,123829067.58074,237247527.38853,   0.00161,  -0.00021,   0.00388,476009824.00000,   0.00073,275433120.00000,   0.00060,  -0.00024,   0.00080,   0.00000,   2.00000
275452634.18715,125437157.20216,237270814.37141,   0.00161,  -0.00021,   0.00388,476008512.00000,   0.00073,275435744.00000,   0.00060,  -0.00024,   0.00080,  64.00000,   2.00000
275521281.43854,127072521.70069,237282483.61448,   0.00161,  -0.00020,   0.00389,476010784.00000,   0.00073,275438336.00000,   0.00060,  -0.00024,   0.00080, 128.00000,   2.00000
275587261.31393,128704952.03404,237291380.53599,   0.00161,  -0.00019,   0.00389,476018848.00000,   0.00073,275440992.00000,   0.00060,  -0.00024,   0.00081, -32.00000,   2.00000
275670703.53650,130342957.10376,237291654.15152,   0.00161,  -0.00018,   0.00390,476027040.00000,   0.00074,275443648.00000,   0.00060,  -0.00024,   0.00081,   0.00000,   2.00000
275762366.35639,131998940.21843,237285757.38620,   0.00160,  -0.00018,   0.00390,476030432.00000,   0.00074,275446304.00000,   0.00061,  -0.00024,   0.00082,  64.00000,   2.00000
275870953.54938,133660048.24502,237270948.63767,   0.00160,  -0.00017,   0.00390,476039488.00000,   0.00074,275448992.00000,   0.00061,  -0.00024,   0.00082,  64.00000,   2.00000
276002977.41197,135345561.31279,237245181.40157,   0.00160,  -0.00016,   0.00391,476052416.00000,   0.00074,275451744.00000,   0.00061,  -0.00024,   0.00082, -64.00000,   2.00000
276135866.35089,137029087.72150,237214860.85631,   0.00160,  -0.00015,   0.00391,476052992.00000,   0.00075,275454464.00000,   0.00061,  -0.00024,   0.00083,   0.00000,   2.00000
276269536.09436,138710613.30619,237179938.05045,   0.00160,  -0.00015,   0.00391,476053664.00000,   0.00075,275457152.00000,   0.00061,  -0.00024,   0.00083,  64.00000,   2.00000
276441963.63877,140422908.94536,237129317.87379,   0.00160,  -0.00014,   0.00392,476075936.00000,   0.00075,275459968.00000,   0.00061,  -0.00024,   0.00084,   0.00000,   2.00000
276594931.28321,142124514.98030,237079975.01549,   0.00159,  -0.00013,   0.00392,476076480.00000,   0.00075,275462752.00000,   0.00061,  -0.00024,   0.00084,-128.00000,   2.00000
276791285.40940,143858819.25794,237013662.90210,   0.00159,  -0.00012,   0.00392,476089984.00000,   0.00076,275465568.00000,   0.00061,  -0.00024,   0.00084,  64.00000,   2.00000
276988329.34015,145591110.99325,236942617.72990,   0.00159,  -0.00012,   0.00393,476090784.00000,   0.00076,275468384.00000,   0.00062,  -0.00024,   0.00085,  32.00000,   2.00000
277186492.02066,147321651.43564,236867225.53936,   0.00159,  -0.00011,   0.00393,476091136.00000,   0.00076,275471200.00000,   0.00062,  -0.00024,   0.00085,  32.00000,   2.00000
277403204.79978,149074032.06959,236781982.48950,   0.00159,  -0.00010,   0.00393,476113024.00000,   0.00076,275474080.00000,   0.00062,  -0.00024,   0.00086,  32.00000,   2.00000
277641205.47254,150833326.91034,236686401.77591,   0.00159,  -0.00009,   0.00394,476113664.00000,   0.00077,275476960.00000,   0.00062,  -0.00024,   0.00086, -32.00000,   2.00000
277886918.63755,152610233.35821,236584355.76526,   0.00159,  -0.00009,   0.00394,476117984.00000,   0.00077,275479840.00000,   0.00062,  -0.00024,   0.00086,  64.00000,   2.00000
278144798.67000,154389693.95823,236474698.55079,   0.00159,  -0.00008,   0.00394,476135840.00000,   0.00077,275482816.00000,   0.00062,  -0.00024,   0.00087, -32.00000,   2.00000
278424226.02470,156176340.80607,236354925.75777,   0.00159,  -0.00007,   0.00395,476136032.00000,   0.00077,275485728.00000,   0.00062,  -0.00024,   0.00087, 160.00000,   2.00000
278706813.29451,157978444.63582,236230098.50771,   0.00158,  -0.00006,   0.00395,476148928.00000,   0.00078,275488704.00000,   0.00062,  -0.00024,   0.00088, -64.00000,   2.00000
279006618.46432,159785667.92680,236096827.14484,   0.00158,  -0.00006,   0.00395,476157440.00000,   0.00078,275491712.00000,   0.00063,  -0.00024,   0.00088, 192.00000,   2.00000
279318567.14023,161612990.48849,235955682.74533,   0.00158,  -0.00005,   0.00395,476153280.00000,   0.00078,275494688.00000,   0.00063,  -0.00024,   0.00089,  64.00000,   2.00000
279636741.82742,163424044.19697,235809822.20464,   0.00158,  -0.00004,   0.00396,476165632.00000,   0.00079,275497696.00000,   0.00063,  -0.00024,   0.00089, -32.00000,   2.00000
279984408.37254,165278198.28157,235650792.35666,   0.00158,  -0.00003,   0.00396,476183328.00000,   0.00079,275500768.00000,   0.00063,  -0.00024,   0.00090,  64.00000,   2.00000
280331772.57261,167114626.85945,235488852.53145,   0.00158,  -0.00002,   0.00396,476169536.00000,   0.00079,275503776.00000,   0.00063,  -0.00024,   0.00090,   0.00000,   2.00000
280697612.17239,168972651.17734,235317426.25672,   0.00158,  -0.00002,   0.00396,476191072.00000,   0.00079,275506848.00000,   0.00063,  -0.00024,   0.00090,   0.00000,   2.00000
281065009.95392,170829796.12565,235142282.09193,   0.00158,  -0.00001,   0.00397,476190144.00000,   0.00080,275509920.00000,   0.00063,  -0.00024,   0.00091,   0.00000,   2.00000
281471346.99463,172717390.01397,234951837.98201,   0.00158,  -0.00000,   0.00397,476211552.00000,   0.00080,275513056.00000,   0.00063,  -0.00024,   0.00091, -64.00000,   2.00000
281864235.82385,174598470.51003,234762504.47484,   0.00158,   0.00001,   0.00397,476201024.00000,   0.00080,275516160.00000,   0.00064,  -0.00024,   0.00092,-128.00000,   2.00000
282295035.94242,176493803.05789,234559288.96594,   0.00158,   0.00002,   0.00397,476208672.00000,   0.00081,275519232.00000,   0.00064,  -0.00024,   0.00092, 128.00000,   2.00000
282728555.30606,178404002.13418,234350952.40147,   0.00158,   0.00002,   0.00397,476221376.00000,   0.00081,275522400.00000,   0.00064,  -0.00024,   0.00093,  32.00000,   2.00000
283177791.17236,180317410.90431,234133571.07020,   0.00158,   0.00003,   0.00398,476231328.00000,   0.00081,275525568.00000,   0.00064,  -0.00024,   0.00093, -64.00000,   2.00000
283625177.72080,182225933.97206,233910472.20101,   0.00158,   0.00004,   0.00398,476234944.00000,   0.00081,275528736.00000,   0.00064,  -0.00024,   0.00094,  32.00000,   2.00000
284079621.84551,184130828.18961,233677351.13689,   0.00158,   0.00005,   0.00398,476259040.00000,   0.00082,275532032.00000,   0.00064,  -0.00024,   0.00094, 192.00000,   2.00000
284554938.49043,186054855.85381,233427660.40751,   0.00158,   0.00006,   0.00398,476273216.00000,   0.00082,275535328.00000,   0.00064,  -0.00024,   0.00095,   0.00000,   2.00000
285026392.60383,187972131.85718,233170510.57540,   0.00158,   0.00006,   0.00398,476281344.00000,   0.00082,275538656.00000,   0.00064,  -0.00024,   0.00095,   0.00000,   2.00000
285518399.29602,189910335.67639,232899960.03417,   0.00157,   0.00007,   0.00398,476300576.00000,   0.00083,275542048.00000,   0.00065,  -0.00024,   0.00096, 224.00000,   2.00000
286029760.16061,191855508.56819,232621102.25398,   0.00157,   0.00008,   0.00399,476308928.00000,   0.00083,275545472.00000,   0.00065,  -0.00023,   0.00096,  64.00000,   2.00000
286547898.43313,193804462.29876,232340526.12891,   0.00157,   0.00009,   0.00399,476303872.00000,   0.00083,275548832.00000,   0.00065,  -0.00023,   0.00097,  64.00000,   2.00000
287082920.08249,195759025.39668,232055189.37951,   0.00157,   0.00010,   0.00399,476316192.00000,   0.00084,275552256.00000,   0.00065,  -0.00023,   0.00097,-128.00000,   2.00000
287647204.48557,197740789.68465,231757905.94395,   0.00157,   0.00011,   0.00399,476319616.00000,   0.00084,275555680.00000,   0.00065,  -0.00023,   0.00098, -64.00000,   2.00000
288213021.74074,199720893.16984,231456287.93558,   0.00157,   0.00011,   0.00399,476319296.00000,   0.00084,275559072.00000,   0.00065,  -0.00023,   0.00098, -32.00000,   2.00000
288796307.67546,201719740.51503,231143908.88686,   0.00158,   0.00012,   0.00399,476342592.00000,   0.00085,275562560.00000,   0.00065,  -0.00023,   0.00099, 128.00000,   2.00000
289395079.21041,203706569.41800,230823485.36903,   0.00158,   0.00013,   0.00399,476337312.00000,   0.00085,275566016.00000,   0.00066,  -0.00023,   0.00099,  64.00000,   2.00000
289996318.76665,205706815.08341,230496970.01792,   0.00158,   0.00014,   0.00399,476350528.00000,   0.00085,275569536.00000,   0.00066,  -0.00023,   0.00100,  64.00000,   2.00000
290619235.64942,207713883.96887,230159855.48234,   0.00158,   0.00015,   0.00400,476349728.00000,   0.00085,275573056.00000,   0.00066,  -0.00023,   0.00100, -32.00000,   2.00000
291260383.74959,209740053.95663,229812369.42616,   0.00158,   0.00016,   0.00400,476371168.00000,   0.00086,275576640.00000,   0.00066,  -0.00023,   0.00101, -64.00000,   2.00000
291902356.57895,211749581.91058,229462219.21846,   0.00158,   0.00016,   0.00400,476355264.00000,   0.00086,275580160.00000,   0.00066,  -0.00023,   0.00101,  32.00000,   2.00000
292562078.27736,213777827.11055,229101650.41259,   0.00158,   0.00017,   0.00400,476377120.00000,   0.00086,275583776.00000,   0.00066,  -0.00023,   0.00102, -32.00000,   2.00000
293243705.90973,215827511.20491,228729056.78095,   0.00158,   0.00018,   0.00400,476390880.00000,   0.00087,275587424.00000,   0.00066,  -0.00023,   0.00102,  32.00000,   2.00000
293925297.91949,217860188.06899,228353735.54431,   0.00158,   0.00019,   0.00400,476375904.00000,   0.00087,275591008.00000,   0.00067,  -0.00023,   0.00103, 128.00000,   2.00000
294638924.62575,219915963.43060,227963255.35843,   0.00158,   0.00020,   0.00400,476407360.00000,   0.00087,275594720.00000,   0.00067,  -0.00023,   0.00104,  64.00000,   2.00000
295336993.19218,221963743.55166,227572727.28493,   0.00158,   0.00021,   0.00400,476399008.00000,   0.00088,275598400.00000,   0.00067,  -0.00023,   0.00104,  64.00000,   2.00000
296065590.93311,224019277.49945,227168629.64956,   0.00158,   0.00021,   0.00400,476417152.00000,   0.00088,275602144.00000,   0.00067,  -0.00023,   0.00105,-128.00000,   2.00000
296798586.56124,226089515.20410,226756654.30095,   0.00158,   0.00022,   0.00400,476424704.00000,   0.00089,275605920.00000,   0.00067,  -0.00023,   0.00105,-128.00000,   2.00000
297540654.62440,228143862.35921,226338716.27186,   0.00158,   0.00023,   0.00400,476428992.00000,   0.00089,275609664.00000,   0.00067,  -0.00023,   0.00106,  32.00000,   2.00000
298301562.32426,230217416.55781,225908135.65192,   0.00158,   0.00024,   0.00400,476446560.00000,   0.00089,275613504.00000,   0.00067,  -0.00023,   0.00106,  96.00000,   2.00000
299060459.70203,232287044.35833,225472642.91184,   0.00158,   0.00025,   0.00400,476449728.00000,   0.00090,275617312.00000,   0.00068,  -0.00022,   0.00107, 160.00000,   2.00000
299837098.96428,234374961.37671,225024167.97806,   0.00158,   0.00026,   0.00400,476468832.00000,   0.00090,275621216.00000,   0.00068,  -0.00022,   0.00107, -32.00000,   2.00000
300625938.06646,236463098.08876,224565885.46202,   0.00159,   0.00027,   0.00400,476482176.00000,   0.00090,275625120.00000,   0.00068,  -0.00022,   0.00108,   0.00000,   2.00000
301406792.30461,238528942.98783,224105836.69254,   0.00159,   0.00027,   0.00400,476480480.00000,   0.00091,275629024.00000,   0.00068,  -0.00022,   0.00109,  32.00000,   2.00000
302208665.79372,240629051.70698,223628900.33687,   0.00159,   0.00028,   0.00400,476508608.00000,   0.00091,275633024.00000,   0.00068,  -0.00022,   0.00109, 128.00000,   2.00000
303016787.59202,242710882.05964,223145274.06832,   0.00159,   0.00029,   0.00400,476517472.00000,   0.00091,275637024.00000,   0.00068,  -0.00022,   0.00110, -64.00000,   2.00000
303835734.21697,244791537.48770,222651530.50984,   0.00159,   0.00030,   0.00400,476533440.00000,   0.00092,275641088.00000,   0.00069,  -0.00022,   0.00110,   0.00000,   2.00000
304649914.93822,246879421.06302,222150180.98697,   0.00159,   0.00031,   0.00400,476556320.00000,   0.00092,275645216.00000,   0.00069,  -0.00022,   0.00111,   0.00000,   2.00000
305478989.98803,248968950.86837,221636626.56710,   0.00159,   0.00032,   0.00400,476565664.00000,   0.00093,275649376.00000,   0.00069,  -0.00022,   0.00112, -64.00000,   2.00000
306318127.25900,251056312.26465,221112597.34474,   0.00159,   0.00033,   0.00400,476583552.00000,   0.00093,275653536.00000,   0.00069,  -0.00022,   0.00112,  96.00000,   2.00000
307147740.40362,253133225.43804,220584433.71578,   0.00160,   0.00034,   0.00400,476600256.00000,   0.00093,275657760.00000,   0.00069,  -0.00022,   0.00113, 160.00000,   2.00000
307996434.78951,255228244.81514,220040183.53635,   0.00160,   0.00034,   0.00400,476617984.00000,   0.00094,275662048.00000,   0.00069,  -0.00022,   0.00113, -32.00000,   2.00000
308851129.98632,257304106.48455,219489070.42094,   0.00160,   0.00035,   0.00399,476628800.00000,   0.00094,275666336.00000,   0.00070,  -0.00021,   0.00114, -64.00000,   2.00000
309701303.11665,259386577.90681,218930457.85466,   0.00160,   0.00036,   0.00399,476652928.00000,   0.00094,275670688.00000,   0.00070,  -0.00021,   0.00115,  64.00000,   2.00000
310566840.37952,261470579.81883,218359322.13251,   0.00160,   0.00037,   0.00399,476663328.00000,   0.00095,275675072.00000,   0.00070,  -0.00021,   0.00115, 128.00000,   2.00000
311438814.83336,263548925.86719,217779813.38435,   0.00160,   0.00038,   0.00399,476688640.00000,   0.00095,275679520.00000,   0.00070,  -0.00021,   0.00116,-128.00000,   2.00000
312326499.31213,265642278.86709,217186422.14797,   0.00161,   0.00039,   0.00399,476713440.00000,   0.00096,275684064.00000,   0.00070,  -0.00021,   0.00117,  96.00000,   2.00000
313212582.61186,267717918.29700,216589398.60511,   0.00161,   0.00040,   0.00399,476705056.00000,   0.00096,275688512.00000,   0.00070,  -0.00021,   0.00117, -96.00000,   2.00000
314110384.37283,269805267.91070,215980657.17569,   0.00161,   0.00041,   0.00399,476736512.00000,   0.00097,275693088.00000,   0.00071,  -0.00021,   0.00118, 192.00000,   2.00000
315021030.65652,271892056.94153,215362074.93657,   0.00161,   0.00042,   0.00399,476751904.00000,   0.00097,275697728.00000,   0.00071,  -0.00021,   0.00119, -32.00000,   2.00000
315949550.96522,273982476.71372,214731729.06373,   0.00161,   0.00042,   0.00398,476759008.00000,   0.00097,275702336.00000,   0.00071,  -0.00021,   0.00119, -96.00000,   2.00000
316872385.78196,276065129.47066,214098551.31138,   0.00162,   0.00043,   0.00398,476770976.00000,   0.00098,275706976.00000,   0.00071,  -0.00020,   0.00120, -96.00000,   2.00000
317808777.00354,278147833.53733,213455951.77758,   0.00162,   0.00044,   0.00398,476784576.00000,   0.00098,275711648.00000,   0.00071,  -0.00020,   0.00121, -96.00000,   2.00000
318744223.47155,280226731.16808,212808582.73762,   0.00162,   0.00045,   0.00398,476788512.00000,   0.00099,275716352.00000,   0.00072,  -0.00020,   0.00121, 128.00000,   2.00000
319710456.59207,282324617.24721,212142959.77731,   0.00162,   0.00046,   0.00398,476820128.00000,   0.00099,275721120.00000,   0.00072,  -0.00020,   0.00122,  32.00000,   2.00000
320674917.19070,284417872.19851,211472465.84754,   0.00162,   0.00047,   0.00398,476824256.00000,   0.00100,275725920.00000,   0.00072,  -0.00020,   0.00123,   0.00000,   2.00000
321633495.62138,286490102.73450,210800958.72409,   0.00163,   0.00048,   0.00397,476820640.00000,   0.00100,275730688.00000,   0.00072,  -0.00020,   0.00123, -96.00000,   2.00000
322621122.97614,288579411.04298,210111061.62126,   0.00163,   0.00049,   0.00397,476853184.00000,   0.00100,275735552.00000,   0.00072,  -0.00020,   0.00124, -32.00000,   2.00000
323604839.01620,290662031.02538,209415798.73371,   0.00163,   0.00050,   0.00397,476859616.00000,   0.00101,275740416.00000,   0.00073,  -0.00020,   0.00125, 288.00000,   2.00000
324598079.68002,292740635.18176,208710319.82625,   0.00163,   0.00050,   0.00397,476876128.00000,   0.00101,275745344.00000,   0.00073,  -0.00019,   0.00126, 224.00000,   2.00000
325589639.00096,294827025.21020,207995268.18097,   0.00164,   0.00051,   0.00397,476891904.00000,   0.00102,275750304.00000,   0.00073,  -0.00019,   0.00126,  64.00000,   2.00000
326595758.37914,296891894.03283,207271533.00970,   0.00164,   0.00052,   0.00396,476918400.00000,   0.00102,275755360.00000,   0.00073,  -0.00019,   0.00127, 224.00000,   2.00000
327600914.05610,298952566.79278,206539880.06289,   0.00164,   0.00053,   0.00396,476919584.00000,   0.00103,275760384.00000,   0.00073,  -0.00019,   0.00128, 160.00000,   2.00000
328603487.96911,301020202.23857,205798412.76087,   0.00164,   0.00054,   0.00396,476936800.00000,   0.00103,275765472.00000,   0.00074,  -0.00019,   0.00128,   0.00000,   2.00000
329620846.12602,303066508.66241,205048639.52831,   0.00165,   0.00055,   0.00396,476963552.00000,   0.00104,275770624.00000,   0.00074,  -0.00019,   0.00129, 160.00000,   2.00000
330640654.57878,305124419.05166,204286741.68918,   0.00165,   0.00056,   0.00395,476973856.00000,   0.00104,275775808.00000,   0.00074,  -0.00018,   0.00130,  64.00000,   2.00000
331669777.25704,307178184.40777,203514871.73385,   0.00165,   0.00057,   0.00395,476991872.00000,   0.00105,275781024.00000,   0.00074,  -0.00018,   0.00131,-128.00000,   2.00000
332690356.88733,309221358.94987,202740310.62868,   0.00166,   0.00058,   0.00395,477006496.00000,   0.00105,275786272.00000,   0.00074,  -0.00018,   0.00131,  64.00000,   2.00000
333739590.84536,311268383.48772,201948888.92633,   0.00166,   0.00059,   0.00395,477026464.00000,   0.00106,275791584.00000,   0.00075,  -0.00018,   0.00132, 160.00000,   2.00000
334781214.46444,313305814.15375,201155092.35027,   0.00166,   0.00060,   0.00394,477040128.00000,   0.00106,275796928.00000,   0.00075,  -0.00018,   0.00133, 256.00000,   2.00000
335820074.09725,315338088.42242,200356402.16249,   0.00166,   0.00060,   0.00394,477046080.00000,   0.00107,275802272.00000,   0.00075,  -0.00018,   0.00134, 128.00000,   2.00000
336874778.58460,317372412.70927,199545808.34736,   0.00167,   0.00061,   0.00394,477054432.00000,   0.00107,275807616.00000,   0.00075,  -0.00017,   0.00134, 192.00000,   2.00000
337949246.31839,319402477.64177,198723578.36664,   0.00167,   0.00062,   0.00393,477086784.00000,   0.00108,275813088.00000,   0.00076,  -0.00017,   0.00135,  64.00000,   2.00000
339007443.05875,321424967.07269,197901335.84179,   0.00167,   0.00063,   0.00393,477081440.00000,   0.00108,275818496.00000,   0.00076,  -0.00017,   0.00136, 128.00000,   2.00000
340094196.96768,323451196.01833,197062386.19108,   0.00168,   0.00064,   0.00393,477099456.00000,   0.00109,275823968.00000,   0.00076,  -0.00017,   0.00137, 160.00000,   2.00000
341174980.95273,325481489.16530,196216802.71480,   0.00168,   0.00065,   0.00392,477120544.00000,   0.00109,275829536.00000,   0.00076,  -0.00017,   0.00137, 192.00000,   2.00000
342262821.55422,327493345.39341,195366084.44311,   0.00168,   0.00066,   0.00392,477126240.00000,   0.00110,275835072.00000,   0.00077,  -0.00016,   0.00138, 320.00000,   2.00000
343345789.91467,329497989.83276,194510300.81555,   0.00169,   0.00067,   0.00392,477131552.00000,   0.00110,275840640.00000,   0.00077,  -0.00016,   0.00139,  32.00000,   2.00000
344452521.26468,331513724.35395,193635979.31670,   0.00169,   0.00068,   0.00391,477166656.00000,   0.00111,275846304.00000,   0.00077,  -0.00016,   0.00140, 128.00000,   2.00000
345537761.46526,333504691.66891,192765660.81122,   0.00169,   0.00069,   0.00391,477153536.00000,   0.00111,275851904.00000,   0.00077,  -0.00016,   0.00141,  96.00000,   2.00000
346644944.60667,335504673.11741,191876602.58770,   0.00170,   0.00070,   0.00391,477190240.00000,   0.00112,275857664.00000,   0.00078,  -0.00016,   0.00141,-128.00000,   2.00000
347742915.42433,337480805.61936,190987014.45850,   0.00170,   0.00070,   0.00390,477188832.00000,   0.00112,275863360.00000,   0.00078,  -0.00015,   0.00142,  96.00000,   2.00000
348846140.18816,339448091.35923,190087850.24720,   0.00171,   0.00071,   0.00390,477208576.00000,   0.00113,275869120.00000,   0.00078,  -0.00015,   0.00143, 256.00000,   2.00000
349955147.17592,341418613.01513,189174475.41095,   0.00171,   0.00072,   0.00390,477240352.00000,   0.00113,275874976.00000,   0.00078,  -0.00015,   0.00144, 192.00000,   2.00000
351052683.52554,343362210.45442,188260418.40813,   0.00171,   0.00073,   0.00389,477244320.00000,   0.00114,275880800.00000,   0.00079,  -0.00015,   0.00144,  64.00000,   2.00000
352154549.53803,345306697.39493,187332254.08527,   0.00172,   0.00074,   0.00389,477280512.00000,   0.00114,275886720.00000,   0.00079,  -0.00014,   0.00145,  64.00000,   2.00000
353252297.90943,347219789.48780,186401581.18457,   0.00172,   0.00075,   0.00388,477305984.00000,   0.00115,275892704.00000,   0.00079,  -0.00014,   0.00146, 128.00000,   2.00000
354358145.89967,349136802.57787,185453532.57303,   0.00172,   0.00076,   0.00388,477340096.00000,   0.00116,275898752.00000,   0.00079,  -0.00014,   0.00147, 352.00000,   2.00000
355452490.93647,351026167.30868,184504334.13327,   0.00173,   0.00077,   0.00388,477350400.00000,   0.00116,275904800.00000,   0.00080,  -0.00014,   0.00148, 160.00000,   2.00000
356533463.88884,352898058.86452,183552568.60874,   0.00173,   0.00078,   0.00387,477376416.00000,   0.00117,275910880.00000,   0.00080,  -0.00013,   0.00149,  32.00000,   2.00000
357638074.68115,354778361.94921,182578676.27550,   0.00174,   0.00079,   0.00387,477420256.00000,   0.00117,275917056.00000,   0.00080,  -0.00013,   0.00149,-160.00000,   2.00000
358735774.08716,356636582.24876,181604127.15837,   0.00174,   0.00079,   0.00386,477425792.00000,   0.00118,275923232.00000,   0.00080,  -0.00013,   0.00150, 192.00000,   2.00000
359836190.62319,358482856.61745,180622890.60303,   0.00175,   0.00080,   0.00386,477457696.00000,   0.00118,275929472.00000,   0.00081,  -0.00013,   0.00151,  64.00000,   2.00000
360937786.09703,360338955.14055,179629187.78751,   0.00175,   0.00081,   0.00385,477474560.00000,   0.00119,275935712.00000,   0.00081,  -0.00012,   0.00152, 128.00000,   2.00000
362042013.16692,362171811.96872,178633858.48314,   0.00175,   0.00082,   0.00385,477492320.00000,   0.00120,275942016.00000,   0.00081,  -0.00012,   0.00153, 192.00000,   2.00000
363154161.63539,363998498.67588,177629361.85645,   0.00176,   0.00083,   0.00384,477513696.00000,   0.00120,275948352.00000,   0.00082,  -0.00012,   0.00154,   0.00000,   2.00000
364266295.13075,365822846.58512,176617322.41544,   0.00176,   0.00084,   0.00384,477517056.00000,   0.00121,275954656.00000,   0.00082,  -0.00011,   0.00154, 128.00000,   2.00000
365393316.49061,367636612.46047,175594890.91640,   0.00177,   0.00085,   0.00383,477555040.00000,   0.00121,275961088.00000,   0.00082,  -0.00011,   0.00155,  96.00000,   2.00000
366502538.17210,369442134.70113,174572684.17093,   0.00177,   0.00086,   0.00383,477553120.00000,   0.00122,275967488.00000,   0.00082,  -0.00011,   0.00156,  64.00000,   2.00000
367634868.40824,371245515.25866,173533866.12151,   0.00178,   0.00087,   0.00383,477578272.00000,   0.00123,275973952.00000,   0.00083,  -0.00010,   0.00157,  64.00000,   2.00000
368756406.77367,373036132.26790,172494094.74487,   0.00178,   0.00088,   0.00382,477593984.00000,   0.00123,275980416.00000,   0.00083,  -0.00010,   0.00158,  96.00000,   2.00000
369871052.02509,374817903.72837,171449976.71348,   0.00179,   0.00089,   0.00381,477603648.00000,   0.00124,275986912.00000,   0.00083,  -0.00010,   0.00159,  32.00000,   2.00000
371002607.39208,376579796.76446,170397306.04765,   0.00179,   0.00089,   0.00381,477624320.00000,   0.00124,275993440.00000,   0.00084,  -0.00010,   0.00159,  64.00000,   2.00000
372126992.16893,378343913.69761,169335830.55366,   0.00179,   0.00090,   0.00380,477645888.00000,   0.00125,276000032.00000,   0.00084,  -0.00009,   0.00160,-128.00000,   2.00000
373260233.11509,380102993.62886,168262374.08632,   0.00180,   0.00091,   0.00380,477661344.00000,   0.00126,276006656.00000,   0.00084,  -0.00009,   0.00161, -64.00000,   2.00000
374381027.97308,381835652.65405,167192645.85692,   0.00180,   0.00092,   0.00379,477666752.00000,   0.00126,276013248.00000,   0.00085,  -0.00009,   0.00162,  96.00000,   2.00000
375506366.41411,383558321.16823,166114241.06711,   0.00181,   0.00093,   0.00379,477688768.00000,   0.00127,276019904.00000,   0.00085,  -0.00008,   0.00163,   0.00000,   2.00000
376625286.27827,385271345.83629,165031694.04583,   0.00181,   0.00094,   0.00378,477699296.00000,   0.00127,276026560.00000,   0.00085,  -0.00008,   0.00164,  32.00000,   2.00000
377751083.55398,386986946.18522,163936043.37539,   0.00182,   0.00095,   0.00378,477732576.00000,   0.00128,276033280.00000,   0.00086,  -0.00008,   0.00165,  96.00000,   2.00000
378880970.79625,388678769.13198,162839917.46162,   0.00182,   0.00096,   0.00377,477748000.00000,   0.00129,276040064.00000,   0.00086,  -0.00007,   0.00165, -64.00000,   2.00000
380025182.66480,390356569.40249,161736595.06393,   0.00183,   0.00097,   0.00377,477751200.00000,   0.00129,276046816.00000,   0.00086,  -0.00007,   0.00166,   0.00000,   2.00000
381166349.25102,392036479.03438,160625147.43623,   0.00183,   0.00098,   0.00376,477774208.00000,   0.00130,276053600.00000,   0.00086,  -0.00007,   0.00167, -96.00000,   2.00000
382312477.09429,393703042.79873,159506051.58543,   0.00184,   0.00098,   0.00375,477800544.00000,   0.00131,276060416.00000,   0.00087,  -0.00006,   0.00168,  96.00000,   2.00000
383445819.09104,395339766.17779,158387838.84709,   0.00184,   0.00099,   0.00375,477808320.00000,   0.00131,276067232.00000,   0.00087,  -0.00006,   0.00169, -64.00000,   2.00000
384572920.88564,396964548.23572,157257156.07105,   0.00185,   0.00100,   0.00374,477854720.00000,   0.00132,276074176.00000,   0.00087,  -0.00005,   0.00170,  64.00000,   2.00000
385675856.01864,398550177.31396,156130515.07662,   0.00186,   0.00101,   0.00374,477872800.00000,   0.00133,276081120.00000,   0.00088,  -0.00005,   0.00171,   0.00000,   2.00000
386786188.92984,400116947.86996,154987700.53930,   0.00186,   0.00102,   0.00373,477913376.00000,   0.00133,276088128.00000,   0.00088,  -0.00005,   0.00171, 160.00000,   2.00000
387866983.67871,401664628.17154,153845081.91190,   0.00187,   0.00103,   0.00372,477922432.00000,   0.00134,276095168.00000,   0.00088,  -0.00004,   0.00172, 192.00000,   2.00000
388950389.87322,403189698.31472,152693991.54824,   0.00187,   0.00104,   0.00372,477969216.00000,   0.00135,276102336.00000,   0.00089,  -0.00004,   0.00173,   0.00000,   2.00000
390025759.07004,404695480.61086,151539807.76632,   0.00188,   0.00105,   0.00371,477966176.00000,   0.00135,276109408.00000,   0.00089,  -0.00003,   0.00174,  96.00000,   2.00000
391084872.60290,406195669.00377,150381412.58520,   0.00188,   0.00106,   0.00370,477996896.00000,   0.00136,276116608.00000,   0.00090,  -0.00003,   0.00175,   0.00000,   2.00000
392150916.08350,407679909.90707,149215804.99073,   0.00189,   0.00106,   0.00370,478001856.00000,   0.00136,276123776.00000,   0.00090,  -0.00003,   0.00176,   0.00000,   2.00000
393215652.45362,409150742.51550,148046476.47638,   0.00189,   0.00107,   0.00369,478028992.00000,   0.00137,276131008.00000,   0.00090,  -0.00002,   0.00177,  64.00000,   2.00000
394288147.91837,410617705.58589,146865640.46082,   0.00190,   0.00108,   0.00368,478044608.00000,   0.00138,276138272.00000,   0.00091,  -0.00002,   0.00177,  96.00000,   2.00000
395338841.09794,412074732.01271,145689509.64989,   0.00191,   0.00109,   0.00368,478046528.00000,   0.00139,276145504.00000,   0.00091,  -0.00001,   0.00178,  64.00000,   2.00000
396409958.47655,413517189.75286,144502158.47335,   0.00191,   0.00110,   0.00367,478061024.00000,   0.00139,276152768.00000,   0.00091,  -0.00001,   0.00179, -64.00000,   2.00000
397469185.45488,414958362.00043,143311330.84368,   0.00192,   0.00111,   0.00366,478087296.00000,   0.00140,276160064.00000,   0.00092,  -0.00000,   0.00180,  96.00000,   2.00000
398537592.44494,416385330.87456,142113533.96411,   0.00192,   0.00112,   0.00366,478090656.00000,   0.00141,276167360.00000,   0.00092,  -0.00000,   0.00181,  32.00000,   2.00000
399594594.98277,417799924.26028,140916735.61402,   0.00193,   0.00113,   0.00365,478105344.00000,   0.00141,276174688.00000,   0.00093,   0.00000,   0.00182,  32.00000,   2.00000
400655958.34110,419194767.82810,139717233.91196,   0.00193,   0.00113,   0.00364,478115200.00000,   0.00142,276182016.00000,   0.00093,   0.00001,   0.00182,  96.00000,   2.00000
401707453.91642,420589428.23006,138510608.58941,   0.00194,   0.00114,   0.00363,478139072.00000,   0.00143,276189376.00000,   0.00093,   0.00001,   0.00183,  96.00000,   2.00000
402765879.40543,421966511.84679,137297228.70841,   0.00195,   0.00115,   0.00363,478145600.00000,   0.00143,276196736.00000,   0.00094,   0.00002,   0.00184, -32.00000,   2.00000
403821237.77028,423326385.63642,136081339.11889,   0.00195,   0.00116,   0.00362,478175520.00000,   0.00144,276204160.00000,   0.00094,   0.00002,   0.00185,  64.00000,   2.00000
404866365.19152,424673966.95394,134862803.82375,   0.00196,   0.00117,   0.00361,478189248.00000,   0.00145,276211584.00000,   0.00094,   0.00003,   0.00186,   0.00000,   2.00000
405901123.78573,426008908.09775,133641781.65887,   0.00197,   0.00118,   0.00360,478203520.00000,   0.00145,276219040.00000,   0.00095,   0.00003,   0.00187, 192.00000,   2.00000
406951196.91979,427321800.87984,132410296.02344,   0.00197,   0.00119,   0.00360,478225056.00000,   0.00146,276226496.00000,   0.00095,   0.00004,   0.00188,   0.00000,   2.00000
407973906.57673,428627745.16395,131180397.94299,   0.00198,   0.00120,   0.00359,478245824.00000,   0.00147,276234016.00000,   0.00096,   0.00004,   0.00188,  64.00000,   2.00000
409007651.65683,429906969.49394,129944532.67285,   0.00198,   0.00120,   0.00358,478272704.00000,   0.00147,276241568.00000,   0.00096,   0.00005,   0.00189,  64.00000,   2.00000
410021623.46880,431165340.45739,128714221.66333,   0.00199,   0.00121,   0.00357,478262944.00000,   0.00148,276249056.00000,   0.00097,   0.00005,   0.00190, -32.00000,   2.00000
411042356.20125,432414542.72929,127469999.75514,   0.00200,   0.00122,   0.00357,478315968.00000,   0.00149,276256672.00000,   0.00097,   0.00006,   0.00191,  96.00000,   2.00000
412053520.70730,433641034.59565,126227599.03705,   0.00200,   0.00123,   0.00356,478318496.00000,   0.00150,276264256.00000,   0.00097,   0.00006,   0.00192, 128.00000,   2.00000
413053097.41678,434853718.79741,124983023.97484,   0.00201,   0.00124,   0.00355,478333856.00000,   0.00150,276271872.00000,   0.00098,   0.00006,   0.00192,  64.00000,   2.00000
414051138.24799,436050440.29515,123732634.18480,   0.00202,   0.00125,   0.00354,478361600.00000,   0.00151,276279520.00000,   0.00098,   0.00007,   0.00193, -64.00000,   2.00000
415040023.49260,437225121.26767,122484160.97675,   0.00202,   0.00125,   0.00353,478363552.00000,   0.00152,276287136.00000,   0.00099,   0.00007,   0.00194,  64.00000,   2.00000
416027537.15114,438384142.34102,121230100.76780,   0.00203,   0.00126,   0.00352,478391040.00000,   0.00152,276294816.00000,   0.00099,   0.00008,   0.00195, 128.00000,   2.00000
417013198.44634,439527028.34019,119970445.43832,   0.00204,   0.00127,   0.00352,478419040.00000,   0.00153,276302528.00000,   0.00100,   0.00009,   0.00196,  32.00000,   2.00000
417987486.54874,440656595.71895,118709022.33425,   0.00204,   0.00128,   0.00351,478434240.00000,   0.00154,276310272.00000,   0.00100,   0.00009,   0.00196, 128.00000,   2.00000
418952849.31107,441764545.48886,117449625.81093,   0.00205,   0.00129,   0.00350,478436128.00000,   0.00155,276317984.00000,   0.00100,   0.00010,   0.00197, 128.00000,   2.00000
419916555.26225,442856612.26733,116184960.14360,   0.00206,   0.00130,   0.00349,478463904.00000,   0.00155,276325728.00000,   0.00101,   0.00010,   0.00198,  96.00000,   2.00000
420878400.01840,443932629.63112,114915129.26792,   0.00206,   0.00131,   0.00348,478491776.00000,   0.00156,276333536.00000,   0.00101,   0.00011,   0.00199,  32.00000,   2.00000
421831586.10016,444987525.48729,113647504.98348,   0.00207,   0.00131,   0.00347,478493632.00000,   0.00157,276341312.00000,   0.00102,   0.00011,   0.00200, 160.00000,   2.00000
422769822.86146,446025529.82288,112383019.85966,   0.00208,   0.00132,   0.00346,478513120.00000,   0.00157,276349088.00000,   0.00102,   0.00012,   0.00200, 224.00000,   2.00000
423709244.77032,447050995.37901,111108931.28144,   0.00208,   0.00133,   0.00346,478537088.00000,   0.00158,276356928.00000,   0.00103,   0.00012,   0.00201,  64.00000,   2.00000
424649377.57161,448052716.31710,109833788.38085,   0.00209,   0.00134,   0.00345,478551616.00000,   0.00159,276364768.00000,   0.00103,   0.00013,   0.00202, -64.00000,   2.00000
425577671.99475,449041433.32749,108557365.09442,   0.00210,   0.00135,   0.00344,478567168.00000,   0.00160,276372640.00000,   0.00104,   0.00013,   0.00203,  32.00000,   2.00000
426494179.57543,450017414.27913,107279715.67886,   0.00210,   0.00135,   0.00343,478582848.00000,   0.00160,276380480.00000,   0.00104,   0.00014,   0.00203,  96.00000,   2.00000
427404501.77250,450973868.62732,106002223.96579,   0.00211,   0.00136,   0.00342,478615296.00000,   0.00161,276388416.00000,   0.00105,   0.00014,   0.00204, 128.00000,   2.00000
428318779.73377,451911207.80913,104718942.80510,   0.00212,   0.00137,   0.00341,478626048.00000,   0.00162,276396352.00000,   0.00105,   0.00015,   0.00205,  64.00000,   2.00000
429212292.39255,452840281.49810,103437558.13715,   0.00212,   0.00138,   0.00340,478628544.00000,   0.00163,276404224.00000,   0.00105,   0.00016,   0.00206,  64.00000,   2.00000
430115788.94002,453744283.11137,102151707.43092,   0.00213,   0.00139,   0.00339,478655488.00000,   0.00163,276412160.00000,   0.00106,   0.00016,   0.00206,  32.00000,   2.00000
430995797.43395,454637650.52287,100872387.50012,   0.00214,   0.00140,   0.00338,478660864.00000,   0.00164,276420096.00000,   0.00106,   0.00017,   0.00207, -32.00000,   2.00000
431885735.63944,455517196.55449,99580307.33080,   0.00215,   0.00140,   0.00337,478697312.00000,   0.00165,276428096.00000,   0.00107,   0.00017,   0.00208,   0.00000,   2.00000
432755421.69887,456389647.83041,98290010.67625,   0.00215,   0.00141,   0.00336,478698336.00000,   0.00166,276436032.00000,   0.00107,   0.00018,   0.00208,  32.00000,   2.00000
433625716.79112,457240232.33763,96998777.49648,   0.00216,   0.00142,   0.00335,478711232.00000,   0.00166,276444000.00000,   0.00108,   0.00018,   0.00209,   0.00000,   2.00000
434492946.55464,458064987.89719,95711900.44599,   0.00217,   0.00143,   0.00334,478728064.00000,   0.00167,276452000.00000,   0.00108,   0.00019,   0.00210,  32.00000,   2.00000
435346536.33182,458887487.91926,94416318.08171,   0.00218,   0.00144,   0.00333,478753120.00000,   0.00168,276460032.00000,   0.00109,   0.00020,   0.00211,-128.00000,   2.00000
436190471.52244,459690123.43239,93123797.09716,   0.00218,   0.00144,   0.00332,478754304.00000,   0.00169,276468032.00000,   0.00109,   0.00020,   0.00211,  64.00000,   2.00000
437030365.99300,460466178.29983,91836360.41662,   0.00219,   0.00145,   0.00331,478772384.00000,   0.00169,276476064.00000,   0.00110,   0.00021,   0.00212, -32.00000,   2.00000
437856379.35370,461240245.99549,90540606.47775,   0.00220,   0.00146,   0.00330,478799200.00000,   0.00170,276484128.00000,   0.00110,   0.00021,   0.00213,  96.00000,   2.00000
438685736.48410,461984923.32183,89247877.13733,   0.00220,   0.00147,   0.00329,478800960.00000,   0.00171,276492128.00000,   0.00111,   0.00022,   0.00213,   0.00000,   2.00000
439495890.65196,462722038.28777,87956884.44707,   0.00221,   0.00147,   0.00328,478835264.00000,   0.00172,276500224.00000,   0.00111,   0.00023,   0.00214,  96.00000,   2.00000
440308457.24080,463439577.89602,86660700.31870,   0.00222,   0.00148,   0.00327,478848672.00000,   0.00172,276508320.00000,   0.00112,   0.00023,   0.00215, -64.00000,   2.00000
441099806.39465,464148908.56335,85367167.25354,   0.00223,   0.00149,   0.00326,478853280.00000,   0.00173,276516352.00000,   0.00113,   0.00024,   0.00215, 224.00000,   2.00000
441895545.66084,464827461.96226,84076044.38439,   0.00223,   0.00150,   0.00325,478886688.00000,   0.00174,276524480.00000,   0.00113,   0.00024,   0.00216, -64.00000,   2.00000
442681042.23812,465496153.24486,82779788.73678,   0.00224,   0.00151,   0.00324,478901408.00000,   0.00175,276532608.00000,   0.00114,   0.00025,   0.00217,   0.00000,   2.00000
443455340.79959,466142669.40668,81491669.05427,   0.00225,   0.00151,   0.00323,478907616.00000,   0.00175,276540704.00000,   0.00114,   0.00026,   0.00217,  32.00000,   2.00000
444219713.58261,466779250.85459,80198485.11268,   0.00226,   0.00152,   0.00322,478922208.00000,   0.00176,276548800.00000,   0.00115,   0.00026,   0.00218, -32.00000,   2.00000
444979847.66189,467398989.77350,78902858.07409,   0.00227,   0.00153,   0.00321,478953216.00000,   0.00177,276556960.00000,   0.00115,   0.00027,   0.00218,  32.00000,   2.00000
445729476.71105,467996805.18005,77615157.13471,   0.00227,   0.00154,   0.00320,478959264.00000,   0.00178,276565088.00000,   0.00116,   0.00028,   0.00219,  32.00000,   2.00000
446477852.33403,468580637.37708,76319547.53647,   0.00228,   0.00154,   0.00319,478986592.00000,   0.00178,276573248.00000,   0.00116,   0.00028,   0.00220,  32.00000,   2.00000
447216488.70365,469143309.17531,75031852.60097,   0.00229,   0.00155,   0.00318,478991296.00000,   0.00179,276581408.00000,   0.00117,   0.00029,   0.00220, 128.00000,   2.00000
447945797.56385,469696509.94584,73738961.83450,   0.00230,   0.00156,   0.00317,479004672.00000,   0.00180,276589568.00000,   0.00117,   0.00030,   0.00221,  32.00000,   2.00000
448675509.41060,470227019.29316,72446461.89021,   0.00230,   0.00157,   0.00315,479019584.00000,   0.00181,276597728.00000,   0.00118,   0.00030,   0.00221, 192.00000,   2.00000
449390697.91035,470743125.91878,71159518.14334,   0.00231,   0.00157,   0.00314,479038208.00000,   0.00182,276605920.00000,   0.00119,   0.00031,   0.00222,  64.00000,   2.00000
450104319.68757,471245973.87166,69865102.57237,   0.00232,   0.00158,   0.00313,479064800.00000,   0.00182,276614176.00000,   0.00119,   0.00031,   0.00222,  64.00000,   2.00000
450808994.68414,471729589.81283,68578525.88322,   0.00233,   0.00159,   0.00312,479068320.00000,   0.00183,276622368.00000,   0.00120,   0.00032,   0.00223,  32.00000,   2.00000
451505778.69942,472206205.76386,67286345.29435,   0.00234,   0.00160,   0.00311,479081088.00000,   0.00184,276630592.00000,   0.00120,   0.00033,   0.00223, 128.00000,   2.00000
452195114.55915,472665214.56890,66001302.98277,   0.00234,   0.00160,   0.00310,479084160.00000,   0.00185,276638752.00000,   0.00121,   0.00033,   0.00224, -64.00000,   2.00000
452885316.76088,473113781.65029,64707974.90891,   0.00235,   0.00161,   0.00309,479109984.00000,   0.00185,276646976.00000,   0.00121,   0.00034,   0.00224,  96.00000,   2.00000
453577695.58423,473542217.27791,63414285.59125,   0.00236,   0.00162,   0.00307,479124544.00000,   0.00186,276655232.00000,   0.00122,   0.00035,   0.00225,   0.00000,   2.00000
454249132.15996,473962480.12372,62128532.76227,   0.00237,   0.00162,   0.00306,479128864.00000,   0.00187,276663424.00000,   0.00123,   0.00035,   0.00225,  32.00000,   2.00000
454921228.14091,474360838.12896,60838967.56279,   0.00238,   0.00163,   0.00305,479142592.00000,   0.00188,276671648.00000,   0.00123,   0.00036,   0.00226,  96.00000,   2.00000
455575474.94079,474741581.28615,59557403.00615,   0.00238,   0.00164,   0.00304,479162560.00000,   0.00188,276679904.00000,   0.00124,   0.00037,   0.00226,  64.00000,   2.00000
456227608.19621,475097675.55875,58273451.75583,   0.00239,   0.00165,   0.00303,479177856.00000,   0.00189,276688160.00000,   0.00124,   0.00037,   0.00227,  64.00000,   2.00000
456862220.99145,475436903.52094,56997589.94977,   0.00240,   0.00165,   0.00301,479197888.00000,   0.00190,276696448.00000,   0.00125,   0.00038,   0.00227,  64.00000,   2.00000
457489748.13833,475759396.30145,55720053.19775,   0.00241,   0.00166,   0.00300,479198688.00000,   0.00191,276704672.00000,   0.00125,   0.00039,   0.00228,  64.00000,   2.00000
458104838.32846,476070944.93963,54443581.86535,   0.00242,   0.00167,   0.00299,479215232.00000,   0.00192,276712960.00000,   0.00126,   0.00039,   0.00228,  96.00000,   2.00000
458713351.38145,476365403.91455,53171361.91447,   0.00242,   0.00167,   0.00298,479247264.00000,   0.00192,276721280.00000,   0.00127,   0.00040,   0.00229, -64.00000,   2.00000
459317701.34234,476646957.03377,51895918.80893,   0.00243,   0.00168,   0.00297,479246624.00000,   0.00193,276729568.00000,   0.00127,   0.00041,   0.00229, 160.00000,   2.00000
459921002.22723,476906530.28419,50626462.54684,   0.00244,   0.00169,   0.00295,479263680.00000,   0.00194,276737888.00000,   0.00128,   0.00041,   0.00230,   0.00000,   2.00000
460507678.61325,477164078.42736,49353633.39027,   0.00245,   0.00169,   0.00294,479263808.00000,   0.00195,276746144.00000,   0.00128,   0.00042,   0.00230,   0.00000,   2.00000
461093438.81413,477399918.60200,48087042.80050,   0.00246,   0.00170,   0.00293,479280768.00000,   0.00195,276754432.00000,   0.00129,   0.00043,   0.00230,  64.00000,   2.00000
461669154.21355,477628239.28551,46815596.80307,   0.00247,   0.00171,   0.00292,479295072.00000,   0.00196,276762752.00000,   0.00130,   0.00043,   0.00231, 128.00000,   2.00000
462243443.37526,477834458.82577,45550673.36678,   0.00247,   0.00171,   0.00290,479312384.00000,   0.00197,276771072.00000,   0.00130,   0.00044,   0.00231, -32.00000,   2.00000
462807409.07570,478032978.58357,44281185.13531,   0.00248,   0.00172,   0.00289,479327168.00000,   0.00198,276779392.00000,   0.00131,   0.00045,   0.00231,  32.00000,   2.00000
463364598.49882,478216262.39240,43014450.38247,   0.00249,   0.00173,   0.00288,479329312.00000,   0.00199,276787680.00000,   0.00132,   0.00045,   0.00232,  96.00000,   2.00000
463907973.03062,478388215.50906,41754586.90292,   0.00250,   0.00173,   0.00286,479347904.00000,   0.00199,276796000.00000,   0.00132,   0.00046,   0.00232,   0.00000,   2.00000
464452571.01166,478540923.13129,40490569.21075,   0.00251,   0.00174,   0.00285,479362912.00000,   0.00200,276804352.00000,   0.00133,   0.00047,   0.00233,  32.00000,   2.00000
464983300.51543,478682332.88790,39233742.87889,   0.00252,   0.00175,   0.00284,479381824.00000,   0.00201,276812704.00000,   0.00133,   0.00048,   0.00233,   0.00000,   2.00000
465508185.06320,478809468.02081,37974325.86905,   0.00252,   0.00175,   0.00283,479383488.00000,   0.00202,276821024.00000,   0.00134,   0.00048,   0.00233, -32.00000,   2.00000
466019178.96482,478925249.85562,36722304.62174,   0.00253,   0.00176,   0.00281,479402688.00000,   0.00202,276829376.00000,   0.00135,   0.00049,   0.00233,   0.00000,   2.00000
466530996.82335,479021382.85706,35466507.02751,   0.00254,   0.00177,   0.00280,479418976.00000,   0.00203,276837760.00000,   0.00135,   0.00050,   0.00234,   0.00000,   2.00000
467035460.99109,479101659.55113,34213835.24978,   0.00255,   0.00177,   0.00279,479422656.00000,   0.00204,276846080.00000,   0.00136,   0.00050,   0.00234, -32.00000,   2.00000
467526216.94960,479170781.01202,32968713.17832,   0.00256,   0.00178,   0.00277,479442144.00000,   0.00205,276854432.00000,   0.00137,   0.00051,   0.00234,   0.00000,   2.00000
468011392.67208,479225738.98234,31720928.56005,   0.00257,   0.00178,   0.00276,479444672.00000,   0.00206,276862784.00000,   0.00137,   0.00052,   0.00235, 128.00000,   2.00000
468489362.92321,479264047.89678,30479546.27619,   0.00258,   0.00179,   0.00274,479478336.00000,   0.00206,276871200.00000,   0.00138,   0.00052,   0.00235,  64.00000,   2.00000
468955622.10858,479293897.99976,29236332.61619,   0.00258,   0.00180,   0.00273,479466560.00000,   0.00207,276879520.00000,   0.00139,   0.00053,   0.00235,   0.00000,   2.00000
469421717.77400,479302221.79081,27998493.05509,   0.00259,   0.00180,   0.00272,479514176.00000,   0.00208,276887968.00000,   0.00139,   0.00054,   0.00235,  96.00000,   2.00000
469876345.13156,479302275.30244,26758468.90873,   0.00260,   0.00181,   0.00270,479502240.00000,   0.00209,276896320.00000,   0.00140,   0.00054,   0.00236,  32.00000,   2.00000
470324146.07957,479286708.20958,25526533.58710,   0.00261,   0.00181,   0.00269,479506336.00000,   0.00210,276904672.00000,   0.00140,   0.00055,   0.00236,  96.00000,   2.00000
470767782.56933,479257634.81551,24289340.00821,   0.00262,   0.00182,   0.00268,479536960.00000,   0.00210,276913088.00000,   0.00141,   0.00056,   0.00236,  96.00000,   2.00000
471205002.21964,479213433.40003,23060015.32378,   0.00263,   0.00183,   0.00266,479540288.00000,   0.00211,276921504.00000,   0.00142,   0.00057,   0.00236,  64.00000,   2.00000
471632000.83461,479161645.78851,21826167.71352,   0.00264,   0.00183,   0.00265,479556288.00000,   0.00212,276929920.00000,   0.00142,   0.00057,   0.00236, 128.00000,   2.00000
472053625.27889,479095869.49593,20594280.93161,   0.00265,   0.00184,   0.00263,479558272.00000,   0.00213,276938304.00000,   0.00143,   0.00058,   0.00237,  96.00000,   2.00000
472469693.50009,479015533.02127,19368597.71873,   0.00265,   0.00184,   0.00262,479589504.00000,   0.00214,276946752.00000,   0.00144,   0.00059,   0.00237,  32.00000,   2.00000
472874866.41346,478927706.13388,18139743.20157,   0.00266,   0.00185,   0.00260,479575936.00000,   0.00214,276955136.00000,   0.00144,   0.00059,   0.00237,  64.00000,   2.00000
473280171.65963,478819962.31596,16917891.54334,   0.00267,   0.00186,   0.00259,479591936.00000,   0.00215,276963552.00000,   0.00145,   0.00060,   0.00237,   0.00000,   2.00000
473674961.30326,478704981.19242,15691628.60287,   0.00268,   0.00186,   0.00258,479606848.00000,   0.00216,276971968.00000,   0.00146,   0.00061,   0.00237,  64.00000,   2.00000
474063291.83766,478575557.62035,14473146.09065,   0.00269,   0.00187,   0.00256,479608320.00000,   0.00217,276980384.00000,   0.00146,   0.00061,   0.00237, -64.00000,   2.00000
474452570.54198,478427600.61886,13250502.09433,   0.00270,   0.00187,   0.00255,479622784.00000,   0.00217,276988832.00000,   0.00147,   0.00062,   0.00237, 160.00000,   2.00000
474823526.42687,478276785.50453,12035840.99395,   0.00271,   0.00188,   0.00253,479624352.00000,   0.00218,276997216.00000,   0.00148,   0.00063,   0.00237,  64.00000,   2.00000
475188766.24238,478112450.48209,10822632.58777,   0.00272,   0.00188,   0.00252,479653952.00000,   0.00219,277005728.00000,   0.00149,   0.00063,   0.00238,  32.00000,   2.00000
475553669.48287,477928906.07807,9606530.12632,   0.00272,   0.00189,   0.00250,479640224.00000,   0.00220,277014144.00000,   0.00149,   0.00064,   0.00238, -32.00000,   2.00000
475906261.47282,477737233.82460,8398398.81578,   0.00273,   0.00189,   0.00249,479655968.00000,   0.00221,277022592.00000,   0.00150,   0.00065,   0.00238, 160.00000,   2.00000
476246753.54740,477537694.37575,7186842.36945,   0.00274,   0.00190,   0.00247,479671488.00000,   0.00221,277031040.00000,   0.00151,   0.00066,   0.00238,  32.00000,   2.00000
476592112.48831,477312709.46628,5983809.24175,   0.00275,   0.00190,   0.00246,479673216.00000,   0.00222,277039488.00000,   0.00151,   0.00066,   0.00238,  96.00000,   2.00000
476919549.15331,477085767.43484,4777766.55992,   0.00276,   0.00191,   0.00244,479674752.00000,   0.00223,277047936.00000,   0.00152,   0.00067,   0.00238, 160.00000,   2.00000
477240137.99926,476844836.39855,3579969.69355,   0.00277,   0.00192,   0.00243,479705664.00000,   0.00224,277056448.00000,   0.00153,   0.00068,   0.00238,  96.00000,   2.00000
477554458.79226,476590435.19185,2385003.36735,   0.00278,   0.00192,   0.00241,479707680.00000,   0.00225,277064960.00000,   0.00153,   0.00068,   0.00238,  64.00000,   2.00000
477862220.92914,476322241.52554,1187060.76837,   0.00279,   0.00193,   0.00240,479710432.00000,   0.00225,277073440.00000,   0.00154,   0.00069,   0.00238, -32.00000,   2.00000
478158046.09248,476046475.15944,-2370.37087,   0.00279,   0.00193,   0.00238,479727296.00000,   0.00226,277081952.00000,   0.00155,   0.00070,   0.00238, 128.00000,   2.00000
478447568.34566,475757012.09824,-1189114.60200,   0.00280,   0.00194,   0.00236,479730464.00000,   0.00227,277090432.00000,   0.00155,   0.00070,   0.00238,  32.00000,   2.00000
478731182.62195,475454183.91683,-2379028.47867,   0.00281,   0.00194,   0.00235,479733664.00000,   0.00228,277098912.00000,   0.00156,   0.00071,   0.00238,  96.00000,   2.00000
479008874.73342,475138310.91665,-3560394.31160,   0.00282,   0.00195,   0.00233,479765696.00000,   0.00229,277107456.00000,   0.00157,   0.00072,   0.00238,  64.00000,   2.00000
479275136.14167,474814775.86501,-4739471.63556,   0.00283,   0.00195,   0.00232,479755104.00000,   0.00229,277115968.00000,   0.00158,   0.00072,   0.00238,  32.00000,   2.00000
479541647.11797,474472521.77256,-5916024.48365,   0.00284,   0.00195,   0.00230,479773312.00000,   0.00230,277124480.00000,   0.00158,   0.00073,   0.00238, 128.00000,   2.00000
479796658.57035,474122931.96860,-7095834.83775,   0.00285,   0.00196,   0.00229,479791968.00000,   0.00231,277133056.00000,   0.00159,   0.00074,   0.00238, 160.00000,   2.00000
480046525.86222,473760475.02523,-8267685.02859,   0.00286,   0.00196,   0.00227,479796256.00000,   0.00232,277141600.00000,   0.00160,   0.00074,   0.00238,  96.00000,   2.00000
480291176.88262,473385063.46846,-9437484.01242,   0.00287,   0.00197,   0.00225,479800832.00000,   0.00233,277150112.00000,   0.00160,   0.00075,   0.00238, -32.00000,   2.00000
480525067.11926,473003004.34987,-10604942.41341,   0.00288,   0.00197,   0.00224,479819776.00000,   0.00233,277158688.00000,   0.00161,   0.00076,   0.00238,  32.00000,   2.00000
480753919.20583,472608120.04321,-11770509.20634,   0.00288,   0.00198,   0.00222,479824928.00000,   0.00234,277167232.00000,   0.00162,   0.00076,   0.00237,  64.00000,   2.00000
480983323.70538,472194875.46888,-12933785.87035,   0.00289,   0.00198,   0.00220,479844672.00000,   0.00235,277175808.00000,   0.00163,   0.00077,   0.00237, 128.00000,   2.00000
481196369.76503,471780686.22406,-14095305.91642,   0.00290,   0.00199,   0.00219,479849728.00000,   0.00236,277184384.00000,   0.00163,   0.00078,   0.00237,   0.00000,   2.00000
481404583.04465,471353921.51555,-15255134.89615,   0.00291,   0.00199,   0.00217,479855168.00000,   0.00237,277192928.00000,   0.00164,   0.00079,   0.00237,  64.00000,   2.00000
481613365.40146,470908957.03428,-16412714.24590,   0.00292,   0.00200,   0.00216,479875584.00000,   0.00238,277201504.00000,   0.00165,   0.00079,   0.00237, 192.00000,   2.00000
481811150.85271,470457450.94875,-17568013.97476,   0.00293,   0.00200,   0.00214,479895552.00000,   0.00238,277210144.00000,   0.00165,   0.00080,   0.00237, -64.00000,   2.00000
482004056.25869,469993538.14526,-18721697.17347,   0.00294,   0.00200,   0.00212,479901504.00000,   0.00239,277218752.00000,   0.00166,   0.00081,   0.00237, -64.00000,   2.00000
482186472.49284,469522701.11663,-19874529.11479,   0.00295,   0.00201,   0.00211,479893088.00000,   0.00240,277227296.00000,   0.00167,   0.00081,   0.00236,  64.00000,   2.00000
482364289.94898,469040812.98492,-21018556.61736,   0.00296,   0.00201,   0.00209,479927136.00000,   0.00241,277235904.00000,   0.00168,   0.00082,   0.00236, 224.00000,   2.00000
482536058.18408,468545553.57357,-22166743.75593,   0.00297,   0.00202,   0.00207,479934304.00000,   0.00242,277244544.00000,   0.00168,   0.00083,   0.00236, 192.00000,   2.00000
482702501.88445,468037700.04096,-23313340.99315,   0.00297,   0.00202,   0.00205,479940672.00000,   0.00242,277253152.00000,   0.00169,   0.00083,   0.00236,  96.00000,   2.00000
482864464.67411,467518142.47133,-24452644.08131,   0.00298,   0.00202,   0.00204,479945984.00000,   0.00243,277261760.00000,   0.00170,   0.00084,   0.00236, 128.00000,   2.00000
483014342.53949,466991573.06424,-25595183.25831,   0.00299,   0.00203,   0.00202,479967232.00000,   0.00244,277270400.00000,   0.00171,   0.00085,   0.00235, -32.00000,   2.00000
483164306.74836,466447143.65110,-26735121.36667,   0.00300,   0.00203,   0.00200,479988160.00000,   0.00245,277279072.00000,   0.00171,   0.00085,   0.00235,  96.00000,   2.00000
483298469.08602,465903040.92122,-27867726.70604,   0.00301,   0.00204,   0.00199,479992960.00000,   0.00246,277287744.00000,   0.00172,   0.00086,   0.00235,  32.00000,   2.00000
483426075.97766,465345522.06561,-29004391.41045,   0.00302,   0.00204,   0.00197,480000160.00000,   0.00247,277296416.00000,   0.00173,   0.00086,   0.00235,  64.00000,   2.00000
483554208.15840,464770895.53286,-30132546.77504,   0.00303,   0.00204,   0.00195,480020096.00000,   0.00247,277305120.00000,   0.00174,   0.00087,   0.00234,  96.00000,   2.00000
483670968.51039,464189133.98551,-31260121.65368,   0.00304,   0.00205,   0.00193,480011520.00000,   0.00248,277313760.00000,   0.00174,   0.00088,   0.00234,  32.00000,   2.00000
483776561.18333,463601959.89631,-32384835.55607,   0.00305,   0.00205,   0.00192,480031456.00000,   0.00249,277322432.00000,   0.00175,   0.00088,   0.00234, 256.00000,   2.00000
483879665.41496,462995303.98868,-33512074.03363,   0.00306,   0.00205,   0.00190,480053728.00000,   0.00250,277331200.00000,   0.00176,   0.00089,   0.00233, -96.00000,   2.00000
483972573.48021,462383014.18930,-34632927.19295,   0.00307,   0.00206,   0.00188,480043712.00000,   0.00251,277339872.00000,   0.00176,   0.00090,   0.00233, -32.00000,   2.00000
484063971.63153,461752631.03611,-35750325.89609,   0.00307,   0.00206,   0.00186,480064736.00000,   0.00251,277348608.00000,   0.00177,   0.00090,   0.00233, -32.00000,   2.00000
484137858.32784,461122101.26284,-36865507.20666,   0.00308,   0.00206,   0.00185,480070112.00000,   0.00252,277357344.00000,   0.00178,   0.00091,   0.00233,  64.00000,   2.00000
