# sigma_xx, sigma_yy, sigma_xy, epsilon_xx, epsilon_yy, epsilon_xy, vonMises, epsPlastic, hardening, epsilonP__xx, epsilonP__yy, epsilonP__xy, yieldValue, iteration
   0.00000,   0.00000,   0.00000,   0.00000,   0.00000,   0.00000,1181185.37500,   0.00000,274640576.00000,   0.00000,   0.00000,   0.00000,-473459392.00000,   0.00000
   0.00000,   0.00000,   0.00000,   0.00000,   0.00000,   0.00000,1181185.37500,   0.00000,274640576.00000,   0.00000,   0.00000,   0.00000,-473459392.00000,   0.00000
-456909.58314,1439051.67775,-444099.03408,  -0.00000,   0.00001,  -0.00001,2700386.25000,   0.00000,274640576.00000,   0.00000,   0.00000,   0.00000,-471940192.00000,   0.00000
-913819.16629,2878103.35551,-883927.88515,  -0.00001,   0.00001,  -0.00001,4759251.50000,   0.00000,274640576.00000,   0.00000,   0.00000,   0.00000,-469881312.00000,   0.00000
-1349377.83433,4338505.94836,-1323756.73621,  -0.00001,   0.00002,  -0.00002,6715457.50000,   0.00000,274640576.00000,   0.00000,   0.00000,   0.00000,-467925120.00000,   0.00000
-1784936.50238,5798908.54122,-1759315.40426,  -0.00002,   0.00003,  -0.00002,8605376.00000,   0.00000,274640576.00000,   0.00000,   0.00000,   0.00000,-466035200.00000,   0.00000
-2199144.25532,7280662.04918,-2194874.07230,  -0.00002,   0.00004,  -0.00003,10463554.00000,   0.00000,274640576.00000,   0.00000,   0.00000,   0.00000,-464177024.00000,   0.00000
-2613352.00827,8762415.55713,-2626162.55733,  -0.00003,   0.00004,  -0.00003,12317289.00000,   0.00000,274640576.00000,   0.00000,   0.00000,   0.00000,-462323280.00000,   0.00000
-3012614.12064,10250574.33962,-3057451.04235,  -0.00003,   0.00005,  -0.00004,14181273.00000,   0.00000,274640576.00000,   0.00000,   0.00000,   0.00000,-460459296.00000,   0.00000
-3399065.68396,11768624.40324,-3484469.34436,  -0.00004,   0.00006,  -0.00005,16071909.00000,   0.00000,274640576.00000,   0.00000,   0.00000,   0.00000,-458568672.00000,   0.00000
-3791922.52180,13271728.82630,-3911487.64636,  -0.00004,   0.00007,  -0.00005,17955842.00000,   0.00000,274640576.00000,   0.00000,   0.00000,   0.00000,-456684736.00000,   0.00000
-4148482.80397,14802589.43898,-4334235.76534,  -0.00005,   0.00008,  -0.00006,19834598.00000,   0.00000,274640576.00000,   0.00000,   0.00000,   0.00000,-454805984.00000,   0.00000
-4513583.45219,16341990.41771,-4756983.88433,  -0.00005,   0.00008,  -0.00006,21720254.00000,   0.00000,274640576.00000,   0.00000,   0.00000,   0.00000,-452920320.00000,   0.00000
-4855198.09379,17879256.30493,-5179732.00331,  -0.00006,   0.00009,  -0.00007,23583640.00000,   0.00000,274640576.00000,   0.00000,   0.00000,   0.00000,-451056928.00000,   0.00000
-5184002.18633,19446413.47328,-5598209.93928,  -0.00006,   0.00010,  -0.00007,25458586.00000,   0.00000,274640576.00000,   0.00000,   0.00000,   0.00000,-449181984.00000,   0.00000
-5512806.27888,21013570.64164,-6012417.69222,  -0.00007,   0.00011,  -0.00008,27328394.00000,   0.00000,274640576.00000,   0.00000,   0.00000,   0.00000,-447312176.00000,   0.00000
-5826664.73085,22587133.08452,-6426625.44517,  -0.00007,   0.00011,  -0.00008,29195098.00000,   0.00000,274640576.00000,   0.00000,   0.00000,   0.00000,-445445472.00000,   0.00000
-6134117.90829,24175641.16798,-6836563.01509,  -0.00008,   0.00012,  -0.00009,31070500.00000,   0.00000,274640576.00000,   0.00000,   0.00000,   0.00000,-443570080.00000,   0.00000
-6426625.44517,25770554.52597,-7246500.58502,  -0.00008,   0.00013,  -0.00009,32946798.00000,   0.00000,274640576.00000,   0.00000,   0.00000,   0.00000,-441693776.00000,   0.00000
-6719132.98204,27365467.88395,-7656438.15494,  -0.00008,   0.00014,  -0.00010,34828256.00000,   0.00000,274640576.00000,   0.00000,   0.00000,   0.00000,-439812320.00000,   0.00000
-6990289.60381,28981732.15704,-8062105.54184,  -0.00009,   0.00015,  -0.00010,36718780.00000,   0.00000,274640576.00000,   0.00000,   0.00000,   0.00000,-437921792.00000,   0.00000
-7240095.31049,30619347.34523,-8463502.74573,  -0.00009,   0.00015,  -0.00011,38618344.00000,   0.00000,274640576.00000,   0.00000,   0.00000,   0.00000,-436022240.00000,   0.00000
-7489901.01716,32256962.53341,-8864899.94961,  -0.00010,   0.00016,  -0.00012,40522920.00000,   0.00000,274640576.00000,   0.00000,   0.00000,   0.00000,-434117664.00000,   0.00000
-7739706.72383,33894577.72160,-9266297.15350,  -0.00010,   0.00017,  -0.00012,42431292.00000,   0.00000,274640576.00000,   0.00000,   0.00000,   0.00000,-432209280.00000,   0.00000
-7968161.51540,35553543.82489,-9663424.17436,  -0.00011,   0.00018,  -0.00013,44345788.00000,   0.00000,274640576.00000,   0.00000,   0.00000,   0.00000,-430294784.00000,   0.00000
-8181670.66640,37218915.20271,-10056281.01220,  -0.00011,   0.00019,  -0.00013,46255532.00000,   0.00000,274640576.00000,   0.00000,   0.00000,   0.00000,-428385040.00000,   0.00000
-8395179.81741,38884286.58052,-10449137.85005,  -0.00011,   0.00019,  -0.00014,48164796.00000,   0.00000,274640576.00000,   0.00000,   0.00000,   0.00000,-426475776.00000,   0.00000
-8602283.69388,40564603.59891,-10841994.68789,  -0.00012,   0.00020,  -0.00014,50082524.00000,   0.00000,274640576.00000,   0.00000,   0.00000,   0.00000,-424558048.00000,   0.00000
-8794441.92978,42251325.89183,-11230581.34272,  -0.00012,   0.00021,  -0.00015,51992088.00000,   0.00000,274640576.00000,   0.00000,   0.00000,   0.00000,-422648480.00000,   0.00000
-8965249.25058,43959399.09985,-11614897.81452,  -0.00013,   0.00022,  -0.00015,53902840.00000,   0.00000,274640576.00000,   0.00000,   0.00000,   0.00000,-420737728.00000,   0.00000
-9136056.57138,45667472.30786,-11999214.28632,  -0.00013,   0.00023,  -0.00016,55810412.00000,   0.00000,274640576.00000,   0.00000,   0.00000,   0.00000,-418830160.00000,   0.00000
-9285512.97709,47396896.43098,-12383530.75813,  -0.00013,   0.00023,  -0.00016,57721776.00000,   0.00000,274640576.00000,   0.00000,   0.00000,   0.00000,-416918800.00000,   0.00000
-9434969.38279,49126320.55410,-12763577.04691,  -0.00014,   0.00024,  -0.00017,59627484.00000,   0.00000,274640576.00000,   0.00000,   0.00000,   0.00000,-415013088.00000,   0.00000
-9569480.14792,50862149.95175,-13139353.15268,  -0.00014,   0.00025,  -0.00017,61525284.00000,   0.00000,274640576.00000,   0.00000,   0.00000,   0.00000,-413115296.00000,   0.00000
-9697585.63852,52612924.98997,-13515129.25844,  -0.00015,   0.00026,  -0.00018,63431288.00000,   0.00000,274640576.00000,   0.00000,   0.00000,   0.00000,-411209280.00000,   0.00000
-9810745.48855,54370105.30271,-13890905.36420,  -0.00015,   0.00027,  -0.00018,65333408.00000,   0.00000,274640576.00000,   0.00000,   0.00000,   0.00000,-409307168.00000,   0.00000
-9923905.33858,56127285.61546,-14262411.28695,  -0.00015,   0.00027,  -0.00019,67232488.00000,   0.00000,274640576.00000,   0.00000,   0.00000,   0.00000,-407408096.00000,   0.00000
-10015714.27351,57905816.84331,-14629647.02667,  -0.00016,   0.00028,  -0.00019,69136488.00000,   0.00000,274640576.00000,   0.00000,   0.00000,   0.00000,-405504096.00000,   0.00000
-10101117.93391,59699293.71173,-14996882.76640,  -0.00016,   0.00029,  -0.00019,71051432.00000,   0.00000,274640576.00000,   0.00000,   0.00000,   0.00000,-403589152.00000,   0.00000
-10177981.22828,61484230.21411,-15359848.32310,  -0.00017,   0.00030,  -0.00020,72952592.00000,   0.00000,274640576.00000,   0.00000,   0.00000,   0.00000,-401687984.00000,   0.00000
-10233493.60754,63290517.63159,-15722813.87980,  -0.00017,   0.00031,  -0.00020,74863064.00000,   0.00000,274640576.00000,   0.00000,   0.00000,   0.00000,-399777504.00000,   0.00000
-10289005.98680,65096805.04906,-16085779.43651,  -0.00017,   0.00032,  -0.00021,76775600.00000,   0.00000,274640576.00000,   0.00000,   0.00000,   0.00000,-397864976.00000,   0.00000
-10338113.09153,66918038.10711,-16440204.62717,  -0.00018,   0.00032,  -0.00021,78694808.00000,   0.00000,274640576.00000,   0.00000,   0.00000,   0.00000,-395945760.00000,   0.00000
-10357328.91512,68752081.71422,-16798900.00085,  -0.00018,   0.00033,  -0.00022,80614224.00000,   0.00000,274640576.00000,   0.00000,   0.00000,   0.00000,-394026352.00000,   0.00000
-10385085.10475,70594665.68737,-17153325.19152,  -0.00018,   0.00034,  -0.00022,82545352.00000,   0.00000,274640576.00000,   0.00000,   0.00000,   0.00000,-392095232.00000,   0.00000
-10404300.92834,72428709.29448,-17503480.19916,  -0.00019,   0.00035,  -0.00023,84463120.00000,   0.00000,274640576.00000,   0.00000,   0.00000,   0.00000,-390177456.00000,   0.00000
-10402165.83683,74284103.81669,-17853635.20680,  -0.00019,   0.00036,  -0.00023,86390456.00000,   0.00000,274640576.00000,   0.00000,   0.00000,   0.00000,-388250112.00000,   0.00000
-10393625.47079,76154443.97947,-18199520.03143,  -0.00020,   0.00037,  -0.00024,88326816.00000,   0.00000,274640576.00000,   0.00000,   0.00000,   0.00000,-386313760.00000,   0.00000
-10370139.46418,78031189.41678,-18545404.85605,  -0.00020,   0.00038,  -0.00024,90262192.00000,   0.00000,274640576.00000,   0.00000,   0.00000,   0.00000,-384378384.00000,   0.00000
-10346653.45757,79907934.85409,-18887019.49766,  -0.00020,   0.00038,  -0.00025,92195752.00000,   0.00000,274640576.00000,   0.00000,   0.00000,   0.00000,-382444832.00000,   0.00000
-10308221.81039,81791085.56593,-19228634.13926,  -0.00021,   0.00039,  -0.00025,94127992.00000,   0.00000,274640576.00000,   0.00000,   0.00000,   0.00000,-380512576.00000,   0.00000
-10248439.24811,83695587.19287,-19565978.59784,  -0.00021,   0.00040,  -0.00025,96066360.00000,   0.00000,274640576.00000,   0.00000,   0.00000,   0.00000,-378574208.00000,   0.00000
-10188656.68583,85600088.81981,-19903323.05643,  -0.00021,   0.00041,  -0.00026,98005296.00000,   0.00000,274640576.00000,   0.00000,   0.00000,   0.00000,-376635280.00000,   0.00000
-10122468.84901,87519536.08732,-20236397.33199,  -0.00022,   0.00042,  -0.00026,99952536.00000,   0.00000,274640576.00000,   0.00000,   0.00000,   0.00000,-374688032.00000,   0.00000
-10047740.64616,89430442.98879,-20569471.60755,  -0.00022,   0.00043,  -0.00027,101887712.00000,   0.00000,274640576.00000,   0.00000,   0.00000,   0.00000,-372752864.00000,   0.00000
-9951661.52821,91362700.80536,-20898275.70010,  -0.00022,   0.00044,  -0.00027,103829040.00000,   0.00000,274640576.00000,   0.00000,   0.00000,   0.00000,-370811536.00000,   0.00000
-9849177.13573,93309904.26250,-21222809.60962,  -0.00023,   0.00044,  -0.00028,105778736.00000,   0.00000,274640576.00000,   0.00000,   0.00000,   0.00000,-368861840.00000,   0.00000
-9738152.37721,95248567.35360,-21547343.51914,  -0.00023,   0.00045,  -0.00028,107716664.00000,   0.00000,274640576.00000,   0.00000,   0.00000,   0.00000,-366923904.00000,   0.00000
-9620722.34416,97202176.08527,-21871877.42867,  -0.00023,   0.00046,  -0.00028,109665736.00000,   0.00000,274640576.00000,   0.00000,   0.00000,   0.00000,-364974848.00000,   0.00000
-9496887.03658,99170730.45751,-22192141.15517,  -0.00024,   0.00047,  -0.00029,111623528.00000,   0.00000,274640576.00000,   0.00000,   0.00000,   0.00000,-363017056.00000,   0.00000
-9349565.72239,101137149.73824,-22508134.69865,  -0.00024,   0.00048,  -0.00029,113565104.00000,   0.00000,274640576.00000,   0.00000,   0.00000,   0.00000,-361075472.00000,   0.00000
-9210784.77424,103112109.38501,-22824128.24214,  -0.00024,   0.00049,  -0.00030,115520360.00000,   0.00000,274640576.00000,   0.00000,   0.00000,   0.00000,-359120224.00000,   0.00000
-9042112.54494,105099879.58084,-23140121.78562,  -0.00025,   0.00050,  -0.00030,117472792.00000,   0.00000,274640576.00000,   0.00000,   0.00000,   0.00000,-357167776.00000,   0.00000
-8867035.04112,107102595.41724,-23451845.14608,  -0.00025,   0.00050,  -0.00030,119434424.00000,   0.00000,274640576.00000,   0.00000,   0.00000,   0.00000,-355206144.00000,   0.00000
-8691957.53730,109105311.25364,-23759298.32353,  -0.00025,   0.00051,  -0.00031,121395072.00000,   0.00000,274640576.00000,   0.00000,   0.00000,   0.00000,-353245504.00000,   0.00000
-8501934.39291,111114432.36457,-24066751.50097,  -0.00026,   0.00052,  -0.00031,123355120.00000,   0.00000,274640576.00000,   0.00000,   0.00000,   0.00000,-351285456.00000,   0.00000
-8296965.60795,113129958.75003,-24369934.49539,  -0.00026,   0.00053,  -0.00032,125312544.00000,   0.00000,274640576.00000,   0.00000,   0.00000,   0.00000,-349328032.00000,   0.00000
-8085591.54845,115160430.77606,-24673117.48982,  -0.00026,   0.00054,  -0.00032,127282112.00000,   0.00000,274640576.00000,   0.00000,   0.00000,   0.00000,-347358464.00000,   0.00000
-7880622.76349,117175957.16152,-24976300.48424,  -0.00026,   0.00055,  -0.00032,129243024.00000,   0.00000,274640576.00000,   0.00000,   0.00000,   0.00000,-345397552.00000,   0.00000
-7647897.78890,119227780.10266,-25270943.11262,  -0.00027,   0.00056,  -0.00033,131220184.00000,   0.00000,274640576.00000,   0.00000,   0.00000,   0.00000,-343420384.00000,   0.00000
-7406632.44827,121271062.67775,-25569855.92402,  -0.00027,   0.00057,  -0.00033,133189616.00000,   0.00000,274640576.00000,   0.00000,   0.00000,   0.00000,-341450960.00000,   0.00000
-7158961.83310,123329290.89341,-25860228.36939,  -0.00027,   0.00058,  -0.00034,135166896.00000,   0.00000,274640576.00000,   0.00000,   0.00000,   0.00000,-339473680.00000,   0.00000
-6896345.57737,125393924.38360,-26150600.81475,  -0.00028,   0.00058,  -0.00034,137144656.00000,   0.00000,274640576.00000,   0.00000,   0.00000,   0.00000,-337495920.00000,   0.00000
-6633729.32164,127458557.87379,-26440973.26011,  -0.00028,   0.00059,  -0.00034,139125056.00000,   0.00000,274640576.00000,   0.00000,   0.00000,   0.00000,-335515520.00000,   0.00000
-6356167.42534,129529596.63851,-26727075.52246,  -0.00028,   0.00060,  -0.00035,141103776.00000,   0.00000,274640576.00000,   0.00000,   0.00000,   0.00000,-333536800.00000,   0.00000
-6072200.25450,131615581.04380,-27013177.78480,  -0.00028,   0.00061,  -0.00035,143095760.00000,   0.00000,274640576.00000,   0.00000,   0.00000,   0.00000,-331544816.00000,   0.00000
-5773287.44310,133707970.72363,-27295009.86412,  -0.00029,   0.00062,  -0.00035,145086560.00000,   0.00000,274640576.00000,   0.00000,   0.00000,   0.00000,-329554016.00000,   0.00000
-5474374.63170,135800360.40345,-27572571.76043,  -0.00029,   0.00063,  -0.00036,147077632.00000,   0.00000,274640576.00000,   0.00000,   0.00000,   0.00000,-327562944.00000,   0.00000
-5160516.17972,137899155.35780,-27850133.65673,  -0.00029,   0.00064,  -0.00036,149069664.00000,   0.00000,274640576.00000,   0.00000,   0.00000,   0.00000,-325570912.00000,   0.00000
-4825306.81265,140019301.22725,-28127695.55303,  -0.00029,   0.00065,  -0.00037,151073952.00000,   0.00000,274640576.00000,   0.00000,   0.00000,   0.00000,-323566624.00000,   0.00000
-4490097.44558,142139447.09670,-28400987.26631,  -0.00030,   0.00066,  -0.00037,153078336.00000,   0.00000,274640576.00000,   0.00000,   0.00000,   0.00000,-321562240.00000,   0.00000
-4154888.07850,144259592.96615,-28670008.79658,  -0.00030,   0.00066,  -0.00037,155082624.00000,   0.00000,274640576.00000,   0.00000,   0.00000,   0.00000,-319557952.00000,   0.00000
-3804733.07086,146386144.11014,-28939030.32684,  -0.00030,   0.00067,  -0.00038,157087712.00000,   0.00000,274640576.00000,   0.00000,   0.00000,   0.00000,-317552864.00000,   0.00000
-3439632.42265,148519100.52865,-29203781.67408,  -0.00031,   0.00068,  -0.00038,159091120.00000,   0.00000,274640576.00000,   0.00000,   0.00000,   0.00000,-315549456.00000,   0.00000
-3068126.49990,150667002.58773,-29468533.02133,  -0.00031,   0.00069,  -0.00038,161107552.00000,   0.00000,274640576.00000,   0.00000,   0.00000,   0.00000,-313533024.00000,   0.00000
-2681674.93659,152821309.92134,-29729014.18555,  -0.00031,   0.00070,  -0.00039,163121968.00000,   0.00000,274640576.00000,   0.00000,   0.00000,   0.00000,-311518608.00000,   0.00000
-2295223.37327,154975617.25496,-29989495.34977,  -0.00031,   0.00071,  -0.00039,165138064.00000,   0.00000,274640576.00000,   0.00000,   0.00000,   0.00000,-309502512.00000,   0.00000
-1893826.16939,157136329.86310,-30245706.33097,  -0.00032,   0.00072,  -0.00039,167152224.00000,   0.00000,274640576.00000,   0.00000,   0.00000,   0.00000,-307488352.00000,   0.00000
-1486023.69098,159311988.11181,-30501917.31218,  -0.00032,   0.00073,  -0.00040,169178928.00000,   0.00000,274640576.00000,   0.00000,   0.00000,   0.00000,-305461648.00000,   0.00000
-1063275.57199,161494051.63505,-30753858.11036,  -0.00032,   0.00074,  -0.00040,171203664.00000,   0.00000,274640576.00000,   0.00000,   0.00000,   0.00000,-303436912.00000,   0.00000
-640527.45301,163676115.15830,-31005798.90854,  -0.00032,   0.00075,  -0.00040,173229696.00000,   0.00000,274640576.00000,   0.00000,   0.00000,   0.00000,-301410880.00000,   0.00000
-202833.69345,165864583.95607,-31253469.52370,  -0.00032,   0.00076,  -0.00041,175253664.00000,   0.00000,274640576.00000,   0.00000,   0.00000,   0.00000,-299386912.00000,   0.00000
234860.06610,168053052.75384,-31496869.95585,  -0.00033,   0.00076,  -0.00041,177276544.00000,   0.00000,274640576.00000,   0.00000,   0.00000,   0.00000,-297364032.00000,   0.00000
687499.46623,170247926.82614,-31740270.38799,  -0.00033,   0.00077,  -0.00041,179299440.00000,   0.00000,274640576.00000,   0.00000,   0.00000,   0.00000,-295341136.00000,   0.00000
1161489.78145,172464151.81355,-31979400.63711,  -0.00033,   0.00078,  -0.00042,181330992.00000,   0.00000,274640576.00000,   0.00000,   0.00000,   0.00000,-293309584.00000,   0.00000
1620534.45611,174673971.52642,-32218530.88623,  -0.00033,   0.00079,  -0.00042,183364512.00000,   0.00000,274640576.00000,   0.00000,   0.00000,   0.00000,-291276064.00000,   0.00000
2109470.41190,176896601.78835,-32457661.13536,  -0.00034,   0.00080,  -0.00042,185396112.00000,   0.00000,274640576.00000,   0.00000,   0.00000,   0.00000,-289244464.00000,   0.00000
2598406.36770,179119232.05029,-32692521.20146,  -0.00034,   0.00081,  -0.00043,187425648.00000,   0.00000,274640576.00000,   0.00000,   0.00000,   0.00000,-287214928.00000,   0.00000
3087342.32349,181341862.31222,-32923111.08454,  -0.00034,   0.00082,  -0.00043,189452864.00000,   0.00000,274640576.00000,   0.00000,   0.00000,   0.00000,-285187712.00000,   0.00000
3597629.19439,183585843.48925,-33153700.96762,  -0.00034,   0.00083,  -0.00043,191489840.00000,   0.00000,274640576.00000,   0.00000,   0.00000,   0.00000,-283150736.00000,   0.00000
4116456.43132,185821284.30025,-33380020.66769,  -0.00034,   0.00084,  -0.00043,193511568.00000,   0.00000,274640576.00000,   0.00000,   0.00000,   0.00000,-281129008.00000,   0.00000
4641688.94279,188071670.75181,-33602070.18473,  -0.00035,   0.00085,  -0.00044,195541696.00000,   0.00000,274640576.00000,   0.00000,   0.00000,   0.00000,-279098880.00000,   0.00000
5181867.09482,190328462.47790,-33828389.88479,  -0.00035,   0.00086,  -0.00044,197572000.00000,   0.00000,274640576.00000,   0.00000,   0.00000,   0.00000,-277068576.00000,   0.00000
5722045.24686,192585254.20400,-34046169.21881,  -0.00035,   0.00087,  -0.00044,199596960.00000,   0.00000,274640576.00000,   0.00000,   0.00000,   0.00000,-275043616.00000,   0.00000
6262223.39889,194842045.93009,-34263948.55283,  -0.00035,   0.00087,  -0.00045,201621008.00000,   0.00000,274640576.00000,   0.00000,   0.00000,   0.00000,-273019568.00000,   0.00000
6817347.19150,197105242.93071,-34481727.88686,  -0.00035,   0.00088,  -0.00045,203643408.00000,   0.00000,274640576.00000,   0.00000,   0.00000,   0.00000,-270997168.00000,   0.00000
7393821.89921,199389790.84644,-34695237.03786,  -0.00036,   0.00089,  -0.00045,205674080.00000,   0.00000,274640576.00000,   0.00000,   0.00000,   0.00000,-268966496.00000,   0.00000
7970296.60691,201674338.76216,-34904476.00584,  -0.00036,   0.00090,  -0.00045,207702656.00000,   0.00000,274640576.00000,   0.00000,   0.00000,   0.00000,-266937920.00000,   0.00000
8555311.68066,203950346.31184,-35113714.97382,  -0.00036,   0.00091,  -0.00046,209720176.00000,   0.00000,274640576.00000,   0.00000,   0.00000,   0.00000,-264920400.00000,   0.00000
9146732.02893,206241299.50210,-35318683.75879,  -0.00036,   0.00092,  -0.00046,211748112.00000,   0.00000,274640576.00000,   0.00000,   0.00000,   0.00000,-262892464.00000,   0.00000
9753098.01778,208538657.96688,-35523652.54375,  -0.00036,   0.00093,  -0.00046,213777664.00000,   0.00000,274640576.00000,   0.00000,   0.00000,   0.00000,-260862912.00000,   0.00000
10359464.00663,210836016.43166,-35728621.32871,  -0.00036,   0.00094,  -0.00046,215809456.00000,   0.00000,274640576.00000,   0.00000,   0.00000,   0.00000,-258831120.00000,   0.00000
10980775.63604,213139780.17098,-35925049.74763,  -0.00037,   0.00095,  -0.00047,217839232.00000,   0.00000,274640576.00000,   0.00000,   0.00000,   0.00000,-256801344.00000,   0.00000
11608492.53999,215458489.55086,-36125748.34957,  -0.00037,   0.00096,  -0.00047,219885328.00000,   0.00000,274640576.00000,   0.00000,   0.00000,   0.00000,-254755248.00000,   0.00000
12229804.16941,217762253.29018,-36317906.58548,  -0.00037,   0.00097,  -0.00047,221917872.00000,   0.00000,274640576.00000,   0.00000,   0.00000,   0.00000,-252722704.00000,   0.00000
12887412.35449,220093773.21912,-36510064.82138,  -0.00037,   0.00098,  -0.00047,223962304.00000,   0.00000,274640576.00000,   0.00000,   0.00000,   0.00000,-250678272.00000,   0.00000
13523669.62448,222403942.23296,-36702223.05728,  -0.00037,   0.00099,  -0.00048,225995184.00000,   0.00000,274640576.00000,   0.00000,   0.00000,   0.00000,-248645392.00000,   0.00000
14196223.45014,224741867.43644,-36890111.11016,  -0.00037,   0.00099,  -0.00048,228034592.00000,   0.00000,274640576.00000,   0.00000,   0.00000,   0.00000,-246605984.00000,   0.00000
14853831.63522,227073387.36538,-37073728.98002,  -0.00038,   0.00100,  -0.00048,230067600.00000,   0.00000,274640576.00000,   0.00000,   0.00000,   0.00000,-244572976.00000,   0.00000
15541331.10145,229417717.84339,-37257346.84989,  -0.00038,   0.00101,  -0.00048,232092896.00000,   0.00000,274640576.00000,   0.00000,   0.00000,   0.00000,-242547680.00000,   0.00000
16213884.92711,231755643.04686,-37440964.71975,  -0.00038,   0.00102,  -0.00049,234108928.00000,   0.00000,274640576.00000,   0.00000,   0.00000,   0.00000,-240531648.00000,   0.00000
16916330.03391,234106378.79940,-37620312.40659,  -0.00038,   0.00103,  -0.00049,236111568.00000,   0.00000,274640576.00000,   0.00000,   0.00000,   0.00000,-238529008.00000,   0.00000
17603829.50013,236450709.27740,-37795389.91041,  -0.00038,   0.00104,  -0.00049,238100304.00000,   0.00000,274640576.00000,   0.00000,   0.00000,   0.00000,-236540272.00000,   0.00000
18306274.60693,238801445.02993,-37970467.41423,  -0.00038,   0.00105,  -0.00049,240077344.00000,   0.00000,274640576.00000,   0.00000,   0.00000,   0.00000,-234563232.00000,   0.00000
19023665.35430,241158586.05700,-38141274.73504,  -0.00038,   0.00106,  -0.00050,242042240.00000,   0.00000,274640576.00000,   0.00000,   0.00000,   0.00000,-232598336.00000,   0.00000
19747461.37619,243530672.72463,-38312082.05584,  -0.00039,   0.00107,  -0.00050,244011232.00000,   0.00000,274640576.00000,   0.00000,   0.00000,   0.00000,-230629344.00000,   0.00000
20479797.76413,245894219.02623,-38478619.19362,  -0.00039,   0.00108,  -0.00050,245963792.00000,   0.00000,274640576.00000,   0.00000,   0.00000,   0.00000,-228676784.00000,   0.00000
21218539.42660,248272710.96839,-38645156.33140,  -0.00039,   0.00109,  -0.00050,247929200.00000,   0.00000,274640576.00000,   0.00000,   0.00000,   0.00000,-226711376.00000,   0.00000
21965821.45511,250642662.54452,-38807423.28616,  -0.00039,   0.00110,  -0.00050,249887712.00000,   0.00000,274640576.00000,   0.00000,   0.00000,   0.00000,-224752864.00000,   0.00000
22719508.75815,253027559.76121,-38965420.05790,  -0.00039,   0.00111,  -0.00051,251866288.00000,   0.00000,274640576.00000,   0.00000,   0.00000,   0.00000,-222774288.00000,   0.00000
23488141.70175,255418862.25244,-39123416.82965,  -0.00039,   0.00112,  -0.00051,253859200.00000,   0.00000,274640576.00000,   0.00000,   0.00000,   0.00000,-220781376.00000,   0.00000
24250369.37083,257795219.10309,-39281413.60139,  -0.00039,   0.00113,  -0.00051,255856944.00000,   0.00000,274640576.00000,   0.00000,   0.00000,   0.00000,-218783632.00000,   0.00000
25019002.31444,260186521.59432,-39435140.19011,  -0.00039,   0.00114,  -0.00051,257881920.00000,   0.00000,274640576.00000,   0.00000,   0.00000,   0.00000,-216758656.00000,   0.00000
25817526.53919,262590634.63460,-39584596.59581,  -0.00039,   0.00114,  -0.00051,259923760.00000,   0.00000,274640576.00000,   0.00000,   0.00000,   0.00000,-214716816.00000,   0.00000
26601105.12337,264988342.40036,-39734053.00151,  -0.00040,   0.00115,  -0.00052,261984192.00000,   0.00000,274640576.00000,   0.00000,   0.00000,   0.00000,-212656384.00000,   0.00000
27399629.34811,267392455.44064,-39879239.22419,  -0.00040,   0.00116,  -0.00052,264061728.00000,   0.00000,274640576.00000,   0.00000,   0.00000,   0.00000,-210578848.00000,   0.00000
28206693.93890,269788028.11489,-40024425.44687,  -0.00040,   0.00117,  -0.00052,266141456.00000,   0.00000,274640576.00000,   0.00000,   0.00000,   0.00000,-208499120.00000,   0.00000
29020163.80422,272198546.42970,-40165341.48654,  -0.00040,   0.00118,  -0.00052,268234752.00000,   0.00000,274640576.00000,   0.00000,   0.00000,   0.00000,-206405824.00000,   0.00000
29833633.66954,274609064.74452,-40306257.52620,  -0.00040,   0.00119,  -0.00052,270317888.00000,   0.00000,274640576.00000,   0.00000,   0.00000,   0.00000,-204322688.00000,   0.00000
30662049.17543,277025988.33386,-40442903.38284,  -0.00040,   0.00120,  -0.00053,272382528.00000,   0.00000,274640576.00000,   0.00000,   0.00000,   0.00000,-202258048.00000,   0.00000
31505410.32189,279449317.19774,-40575279.05646,  -0.00040,   0.00121,  -0.00053,274433824.00000,   0.00000,274640576.00000,   0.00000,   0.00000,   0.00000,-200206752.00000,   0.00000
32348771.46835,281872646.06161,-40711924.91310,  -0.00040,   0.00122,  -0.00053,276485120.00000,   0.00000,274640576.00000,   0.00000,   0.00000,   0.00000,-198155456.00000,   0.00000
33192132.61480,284295974.92549,-40840030.40370,  -0.00040,   0.00123,  -0.00053,278537568.00000,   0.00000,274640576.00000,   0.00000,   0.00000,   0.00000,-196103008.00000,   0.00000
34050439.40183,286725709.06389,-40968135.89430,  -0.00040,   0.00124,  -0.00053,280594144.00000,   0.00000,274640576.00000,   0.00000,   0.00000,   0.00000,-194046432.00000,   0.00000
34915151.46339,289170388.84287,-41091971.20189,  -0.00041,   0.00125,  -0.00053,282659360.00000,   0.00000,274640576.00000,   0.00000,   0.00000,   0.00000,-191981216.00000,   0.00000
35788403.89099,291606528.25580,-41215806.50947,  -0.00041,   0.00126,  -0.00054,284708352.00000,   0.00000,274640576.00000,   0.00000,   0.00000,   0.00000,-189932224.00000,   0.00000
36661656.31859,294042667.66874,-41339641.81705,  -0.00041,   0.00127,  -0.00054,286754592.00000,   0.00000,274640576.00000,   0.00000,   0.00000,   0.00000,-187885984.00000,   0.00000
37549854.38676,296485212.35620,-41454936.75859,  -0.00041,   0.00128,  -0.00054,288803360.00000,   0.00000,274640576.00000,   0.00000,   0.00000,   0.00000,-185837216.00000,   0.00000
38438052.45493,298927757.04367,-41574501.88315,  -0.00041,   0.00129,  -0.00054,290862016.00000,   0.00000,274640576.00000,   0.00000,   0.00000,   0.00000,-183778560.00000,   0.00000
39341196.16367,301376707.00566,-41685526.64167,  -0.00041,   0.00129,  -0.00054,292919584.00000,   0.00000,274640576.00000,   0.00000,   0.00000,   0.00000,-181720992.00000,   0.00000
40244339.87241,303825656.96766,-41796551.40019,  -0.00041,   0.00130,  -0.00054,294978336.00000,   0.00000,274640576.00000,   0.00000,   0.00000,   0.00000,-179662240.00000,   0.00000
41147483.58115,306274606.92965,-41907576.15871,  -0.00041,   0.00131,  -0.00054,297045536.00000,   0.00000,274640576.00000,   0.00000,   0.00000,   0.00000,-177595040.00000,   0.00000
42065572.93046,308729962.16618,-42014330.73422,  -0.00041,   0.00132,  -0.00055,299124128.00000,   0.00000,274640576.00000,   0.00000,   0.00000,   0.00000,-175516448.00000,   0.00000
42998607.92034,311191722.67723,-42121085.30972,  -0.00041,   0.00133,  -0.00055,301211072.00000,   0.00000,274640576.00000,   0.00000,   0.00000,   0.00000,-173429504.00000,   0.00000
43931642.91022,313653483.18829,-42223569.70220,  -0.00041,   0.00134,  -0.00055,303286880.00000,   0.00000,274640576.00000,   0.00000,   0.00000,   0.00000,-171353696.00000,   0.00000
44864677.90009,316115243.69935,-42321783.91166,  -0.00041,   0.00135,  -0.00055,305338656.00000,   0.00000,274640576.00000,   0.00000,   0.00000,   0.00000,-169301920.00000,   0.00000
45812658.53054,318583409.48493,-42419998.12112,  -0.00041,   0.00136,  -0.00055,307378208.00000,   0.00000,274640576.00000,   0.00000,   0.00000,   0.00000,-167262368.00000,   0.00000
46760639.16099,321051575.27052,-42513942.14756,  -0.00041,   0.00137,  -0.00055,309426880.00000,   0.00000,274640576.00000,   0.00000,   0.00000,   0.00000,-165213696.00000,   0.00000
47723565.43201,323526146.33063,-42607886.17400,  -0.00041,   0.00138,  -0.00055,311496992.00000,   0.00000,274640576.00000,   0.00000,   0.00000,   0.00000,-163143584.00000,   0.00000
48680086.42850,325985771.75018,-42697560.01742,  -0.00041,   0.00139,  -0.00056,313570656.00000,   0.00000,274640576.00000,   0.00000,   0.00000,   0.00000,-161069920.00000,   0.00000
49657958.34009,328466748.08482,-42787233.86084,  -0.00041,   0.00140,  -0.00056,315668128.00000,   0.00000,274640576.00000,   0.00000,   0.00000,   0.00000,-158972448.00000,   0.00000
50635830.25168,330947724.41947,-42872637.52124,  -0.00041,   0.00141,  -0.00056,317769984.00000,   0.00000,274640576.00000,   0.00000,   0.00000,   0.00000,-156870592.00000,   0.00000
51613702.16327,333428700.75411,-42958041.18165,  -0.00042,   0.00142,  -0.00056,319875264.00000,   0.00000,274640576.00000,   0.00000,   0.00000,   0.00000,-154765312.00000,   0.00000
52600114.44090,335901136.72272,-43039174.65903,  -0.00042,   0.00143,  -0.00056,321969632.00000,   0.00000,274640576.00000,   0.00000,   0.00000,   0.00000,-152670944.00000,   0.00000
53607877.63364,338394923.60643,-43116037.95339,  -0.00042,   0.00144,  -0.00056,324077184.00000,   0.00000,274640576.00000,   0.00000,   0.00000,   0.00000,-150563392.00000,   0.00000
54600695.18580,340882305.21560,-43192901.24775,  -0.00042,   0.00144,  -0.00056,326184896.00000,   0.00000,274640576.00000,   0.00000,   0.00000,   0.00000,-148455680.00000,   0.00000
55616998.74457,343367551.73327,-43269764.54211,  -0.00042,   0.00145,  -0.00056,328282624.00000,   0.00000,274640576.00000,   0.00000,   0.00000,   0.00000,-146357952.00000,   0.00000
56618356.66277,345846392.97640,-43342357.65345,  -0.00042,   0.00146,  -0.00056,330377760.00000,   0.00000,274640576.00000,   0.00000,   0.00000,   0.00000,-144262816.00000,   0.00000
57641065.49607,348346585.13464,-43410680.58177,  -0.00042,   0.00147,  -0.00056,332483712.00000,   0.00000,274640576.00000,   0.00000,   0.00000,   0.00000,-142156864.00000,   0.00000
58672314.69541,350838236.92683,-43479003.51009,  -0.00042,   0.00148,  -0.00057,334576608.00000,   0.00000,274640576.00000,   0.00000,   0.00000,   0.00000,-140063968.00000,   0.00000
59703563.89475,353329888.71903,-43543056.25539,  -0.00042,   0.00149,  -0.00057,336664960.00000,   0.00000,274640576.00000,   0.00000,   0.00000,   0.00000,-137975616.00000,   0.00000
60741218.36862,355836486.15180,-43607109.00069,  -0.00042,   0.00150,  -0.00057,338762016.00000,   0.00000,274640576.00000,   0.00000,   0.00000,   0.00000,-135878560.00000,   0.00000
61787413.20853,358334543.21852,-43666891.56297,  -0.00042,   0.00151,  -0.00057,340841056.00000,   0.00000,274640576.00000,   0.00000,   0.00000,   0.00000,-133799520.00000,   0.00000
62833608.04844,360832600.28525,-43722403.94223,  -0.00042,   0.00152,  -0.00057,342912928.00000,   0.00000,274640576.00000,   0.00000,   0.00000,   0.00000,-131727648.00000,   0.00000
63894748.52892,363337062.62650,-43777916.32149,  -0.00042,   0.00153,  -0.00057,344980096.00000,   0.00000,274640576.00000,   0.00000,   0.00000,   0.00000,-129660480.00000,   0.00000
64955889.00940,365841524.96776,-43833428.70075,  -0.00042,   0.00154,  -0.00057,347044224.00000,   0.00000,274640576.00000,   0.00000,   0.00000,   0.00000,-127596352.00000,   0.00000
66010624.21535,368331041.66845,-43884670.89699,  -0.00042,   0.00155,  -0.00057,349097824.00000,   0.00000,274640576.00000,   0.00000,   0.00000,   0.00000,-125542752.00000,   0.00000
67086710.33640,370841909.28423,-43931642.91022,  -0.00042,   0.00156,  -0.00057,351172320.00000,   0.00000,274640576.00000,   0.00000,   0.00000,   0.00000,-123468256.00000,   0.00000
68177742.09803,373359182.17455,-43978614.92344,  -0.00042,   0.00157,  -0.00057,353248064.00000,   0.00000,274640576.00000,   0.00000,   0.00000,   0.00000,-121392512.00000,   0.00000
69247422.94455,375855104.14976,-44025586.93666,  -0.00042,   0.00158,  -0.00057,355294432.00000,   0.00000,274640576.00000,   0.00000,   0.00000,   0.00000,-119346144.00000,   0.00000
70353400.34674,378378782.31461,-44064018.58384,  -0.00042,   0.00158,  -0.00057,357341568.00000,   0.00000,274640576.00000,   0.00000,   0.00000,   0.00000,-117299008.00000,   0.00000
71438026.83383,380881109.56436,-44106720.41404,  -0.00042,   0.00159,  -0.00057,359383168.00000,   0.00000,274640576.00000,   0.00000,   0.00000,   0.00000,-115257408.00000,   0.00000
72537598.96149,383389842.08863,-44140881.87820,  -0.00042,   0.00160,  -0.00057,361434912.00000,   0.00000,274640576.00000,   0.00000,   0.00000,   0.00000,-113205664.00000,   0.00000
73637171.08915,385898574.61291,-44175043.34236,  -0.00042,   0.00161,  -0.00057,363495680.00000,   0.00000,274640576.00000,   0.00000,   0.00000,   0.00000,-111144896.00000,   0.00000
74758094.13191,388428658.05228,-44209204.80652,  -0.00042,   0.00162,  -0.00057,365574496.00000,   0.00000,274640576.00000,   0.00000,   0.00000,   0.00000,-109066080.00000,   0.00000
75866206.62562,390928850.21052,-44239096.08766,  -0.00042,   0.00163,  -0.00058,367629760.00000,   0.00000,274640576.00000,   0.00000,   0.00000,   0.00000,-107010816.00000,   0.00000
76995670.03442,393450393.28386,-44268987.36880,  -0.00042,   0.00164,  -0.00058,369700448.00000,   0.00000,274640576.00000,   0.00000,   0.00000,   0.00000,-104940128.00000,   0.00000
78125133.44322,395971936.35719,-44290338.28390,  -0.00042,   0.00165,  -0.00058,371769760.00000,   0.00000,274640576.00000,   0.00000,   0.00000,   0.00000,-102870816.00000,   0.00000
79254596.85202,398493479.43053,-44315959.38202,  -0.00042,   0.00166,  -0.00058,373843104.00000,   0.00000,274640576.00000,   0.00000,   0.00000,   0.00000,-100797472.00000,   0.00000
80392600.62686,401006482.13782,-44337310.29712,  -0.00042,   0.00167,  -0.00058,375905824.00000,   0.00000,274640576.00000,   0.00000,   0.00000,   0.00000,-98734752.00000,   0.00000
81537009.67623,403534430.48569,-44354391.02920,  -0.00042,   0.00168,  -0.00058,377981472.00000,   0.00000,274640576.00000,   0.00000,   0.00000,   0.00000,-96659104.00000,   0.00000
82689959.09165,406053838.46752,-44371471.76128,  -0.00042,   0.00169,  -0.00058,380048256.00000,   0.00000,274640576.00000,   0.00000,   0.00000,   0.00000,-94592320.00000,   0.00000
83842908.50706,408573246.44934,-44384282.31034,  -0.00042,   0.00170,  -0.00058,382114688.00000,   0.00000,274640576.00000,   0.00000,   0.00000,   0.00000,-92525888.00000,   0.00000
84995857.92247,411092654.43117,-44397092.85940,  -0.00041,   0.00170,  -0.00058,384181600.00000,   0.00000,274640576.00000,   0.00000,   0.00000,   0.00000,-90458976.00000,   0.00000
86163752.97845,413618467.68753,-44405633.22544,  -0.00041,   0.00171,  -0.00058,386248224.00000,   0.00000,274640576.00000,   0.00000,   0.00000,   0.00000,-88392352.00000,   0.00000
87331648.03443,416144280.94388,-44409903.40846,  -0.00041,   0.00172,  -0.00058,388312704.00000,   0.00000,274640576.00000,   0.00000,   0.00000,   0.00000,-86327872.00000,   0.00000
88493137.81589,418655148.55967,-44414173.59148,  -0.00041,   0.00173,  -0.00058,390363264.00000,   0.00000,274640576.00000,   0.00000,   0.00000,   0.00000,-84277312.00000,   0.00000
89675978.51244,421187367.09055,-44418443.77450,  -0.00041,   0.00174,  -0.00058,392425760.00000,   0.00000,274640576.00000,   0.00000,   0.00000,   0.00000,-82214816.00000,   0.00000
90852413.93446,423704639.98087,-44418443.77450,  -0.00041,   0.00175,  -0.00058,394472512.00000,   0.00000,274640576.00000,   0.00000,   0.00000,   0.00000,-80168064.00000,   0.00000
92050200.27158,426243263.78629,-44414173.59148,  -0.00041,   0.00176,  -0.00058,396529344.00000,   0.00000,274640576.00000,   0.00000,   0.00000,   0.00000,-78111232.00000,   0.00000
93241581.33418,428766941.95113,-44409903.40846,  -0.00041,   0.00177,  -0.00058,398571968.00000,   0.00000,274640576.00000,   0.00000,   0.00000,   0.00000,-76068608.00000,   0.00000
94432962.39677,431290620.11598,-44401363.04242,  -0.00041,   0.00178,  -0.00058,400611584.00000,   0.00000,274640576.00000,   0.00000,   0.00000,   0.00000,-74028992.00000,   0.00000
95639289.09993,433820703.55535,-44392822.67638,  -0.00041,   0.00179,  -0.00058,402651424.00000,   0.00000,274640576.00000,   0.00000,   0.00000,   0.00000,-71989152.00000,   0.00000
96839210.52856,436335841.35416,-44380012.12732,  -0.00041,   0.00180,  -0.00058,404677120.00000,   0.00000,274640576.00000,   0.00000,   0.00000,   0.00000,-69963456.00000,   0.00000
98045537.23173,438865924.79354,-44367201.57826,  -0.00041,   0.00181,  -0.00058,406715488.00000,   0.00000,274640576.00000,   0.00000,   0.00000,   0.00000,-67925088.00000,   0.00000
99260404.30093,441387467.86687,-44350120.84618,  -0.00041,   0.00181,  -0.00058,408742208.00000,   0.00000,274640576.00000,   0.00000,   0.00000,   0.00000,-65898368.00000,   0.00000
100481676.64466,443923956.58078,-44333040.11410,  -0.00041,   0.00182,  -0.00058,410781952.00000,   0.00000,274640576.00000,   0.00000,   0.00000,   0.00000,-63858624.00000,   0.00000
101711489.35443,446451904.92865,-44311689.19900,  -0.00041,   0.00183,  -0.00058,412809760.00000,   0.00000,274640576.00000,   0.00000,   0.00000,   0.00000,-61830816.00000,   0.00000
102941302.06421,448979853.27651,-44286068.10088,  -0.00041,   0.00184,  -0.00058,414835552.00000,   0.00000,274640576.00000,   0.00000,   0.00000,   0.00000,-59805024.00000,   0.00000
104164709.49945,451492855.98381,-44260447.00276,  -0.00041,   0.00185,  -0.00058,416847552.00000,   0.00000,274640576.00000,   0.00000,   0.00000,   0.00000,-57793024.00000,   0.00000
105409467.84979,454027209.60620,-44230555.72162,  -0.00041,   0.00186,  -0.00057,418871040.00000,   0.00000,274640576.00000,   0.00000,   0.00000,   0.00000,-55769536.00000,   0.00000
106647820.92560,456546617.58803,-44200664.44048,  -0.00041,   0.00187,  -0.00057,420883360.00000,   0.00000,274640576.00000,   0.00000,   0.00000,   0.00000,-53757216.00000,   0.00000
107892579.27595,459080971.21043,-44170773.15934,  -0.00040,   0.00188,  -0.00057,422911648.00000,   0.00000,274640576.00000,   0.00000,   0.00000,   0.00000,-51728928.00000,   0.00000
109145877.99233,461606784.46678,-44132341.51216,  -0.00040,   0.00189,  -0.00057,424931840.00000,   0.00000,274640576.00000,   0.00000,   0.00000,   0.00000,-49708736.00000,   0.00000
110399176.70871,464132597.72314,-44093909.86498,  -0.00040,   0.00190,  -0.00057,426957920.00000,   0.00000,274640576.00000,   0.00000,   0.00000,   0.00000,-47682656.00000,   0.00000
111652475.42510,466658410.97949,-44055478.21780,  -0.00040,   0.00191,  -0.00057,428989024.00000,   0.00000,274640576.00000,   0.00000,   0.00000,   0.00000,-45651552.00000,   0.00000
112914314.50752,469175683.86981,-44012776.38760,  -0.00040,   0.00191,  -0.00057,431013248.00000,   0.00000,274640576.00000,   0.00000,   0.00000,   0.00000,-43627328.00000,   0.00000
114182558.86447,471707902.40070,-43970074.55740,  -0.00040,   0.00192,  -0.00057,433053792.00000,   0.00000,274640576.00000,   0.00000,   0.00000,   0.00000,-41586784.00000,   0.00000
115444397.94690,474225175.29101,-43923102.54418,  -0.00040,   0.00193,  -0.00057,435084320.00000,   0.00000,274640576.00000,   0.00000,   0.00000,   0.00000,-39556256.00000,   0.00000
116721182.66989,476748853.45586,-43871860.34793,  -0.00040,   0.00194,  -0.00057,437118592.00000,   0.00000,274640576.00000,   0.00000,   0.00000,   0.00000,-37521984.00000,   0.00000
117997967.39288,479272531.62071,-43820618.15169,  -0.00040,   0.00195,  -0.00057,439155456.00000,   0.00000,274640576.00000,   0.00000,   0.00000,   0.00000,-35485120.00000,   0.00000
119289697.75645,481802615.06008,-43765105.77243,  -0.00040,   0.00196,  -0.00057,441195392.00000,   0.00000,274640576.00000,   0.00000,   0.00000,   0.00000,-33445184.00000,   0.00000
120581428.12001,484332698.49946,-43709593.39317,  -0.00040,   0.00197,  -0.00057,443237312.00000,   0.00000,274640576.00000,   0.00000,   0.00000,   0.00000,-31403264.00000,   0.00000
121866753.20904,486847836.29826,-43649810.83089,  -0.00039,   0.00198,  -0.00057,445267200.00000,   0.00000,274640576.00000,   0.00000,   0.00000,   0.00000,-29373376.00000,   0.00000
123158483.57261,489377919.73764,-43590028.26861,  -0.00039,   0.00199,  -0.00057,447311776.00000,   0.00000,274640576.00000,   0.00000,   0.00000,   0.00000,-27328800.00000,   0.00000
124458754.30221,491899462.81098,-43525975.52331,  -0.00039,   0.00200,  -0.00057,449346976.00000,   0.00000,274640576.00000,   0.00000,   0.00000,   0.00000,-25293600.00000,   0.00000
125752619.75728,494406060.24374,-43461922.77801,  -0.00039,   0.00200,  -0.00057,451372544.00000,   0.00000,274640576.00000,   0.00000,   0.00000,   0.00000,-23268032.00000,   0.00000
127052890.48689,496927603.31708,-43393599.84969,  -0.00039,   0.00201,  -0.00056,453413088.00000,   0.00000,274640576.00000,   0.00000,   0.00000,   0.00000,-21227488.00000,   0.00000
128368106.85706,499455551.66494,-43325276.92137,  -0.00039,   0.00202,  -0.00056,455459840.00000,   0.00000,274640576.00000,   0.00000,   0.00000,   0.00000,-19180736.00000,   0.00000
129676917.95270,501968554.37224,-43252683.81003,  -0.00039,   0.00203,  -0.00056,457497088.00000,   0.00000,274640576.00000,   0.00000,   0.00000,   0.00000,-17143488.00000,   0.00000
131000674.68892,504487962.35407,-43175820.51567,  -0.00039,   0.00204,  -0.00056,459539072.00000,   0.00000,274640576.00000,   0.00000,   0.00000,   0.00000,-15101504.00000,   0.00000
132309485.78456,507000965.06136,-43098957.22131,  -0.00039,   0.00205,  -0.00056,461581152.00000,   0.00000,274640576.00000,   0.00000,   0.00000,   0.00000,-13059424.00000,   0.00000
133633242.52077,509520373.04319,-43017823.74393,  -0.00039,   0.00206,  -0.00056,463624448.00000,   0.00000,274640576.00000,   0.00000,   0.00000,   0.00000,-11016128.00000,   0.00000
134965539.62303,512031240.65897,-42936690.26654,  -0.00038,   0.00207,  -0.00056,465655296.00000,   0.00000,274640576.00000,   0.00000,   0.00000,   0.00000,-8985280.00000,   0.00000
136289296.35924,514550648.64080,-42851286.60614,  -0.00038,   0.00208,  -0.00056,467691872.00000,   0.00000,274640576.00000,   0.00000,   0.00000,   0.00000,-6948704.00000,   0.00000
137621593.46150,517061516.25659,-42765882.94574,  -0.00038,   0.00208,  -0.00056,469716288.00000,   0.00000,274640576.00000,   0.00000,   0.00000,   0.00000,-4924288.00000,   0.00000
138953890.56375,519572383.87237,-42676209.10232,  -0.00038,   0.00209,  -0.00055,471743168.00000,   0.00000,274640576.00000,   0.00000,   0.00000,   0.00000,-2897408.00000,   0.00000
140301133.30657,522089656.76269,-42586535.25890,  -0.00038,   0.00210,  -0.00055,473781792.00000,   0.00000,274640576.00000,   0.00000,   0.00000,   0.00000,-858784.00000,   0.00000
140868108.52510,523147769.75013,-42546810.88053,  -0.00038,   0.00211,  -0.00055,474639936.00000,   0.00000,274640576.00000,   0.00000,   0.00000,   0.00000,-640.00000,   0.00000
141409215.58259,523342390.67670,-42379110.04790,  -0.00038,   0.00211,  -0.00055,474639936.00000,   0.00000,274645536.00000,  -0.00000,   0.00001,  -0.00000,  64.00000,   2.00000
142359173.34764,523683053.82293,-42082483.64770,  -0.00038,   0.00212,  -0.00055,476678880.00000,   0.00001,274654144.00000,  -0.00000,   0.00001,  -0.00000,   0.00000,   2.00000
143308443.76759,524023820.78380,-41787633.23469,  -0.00038,   0.00213,  -0.00055,476668896.00000,   0.00002,274662720.00000,  -0.00001,   0.00002,  -0.00001,   0.00000,   2.00000
144272381.21307,524369915.71921,-41493719.20784,  -0.00037,   0.00214,  -0.00055,476674080.00000,   0.00003,274671328.00000,  -0.00001,   0.00003,  -0.00001,  64.00000,   2.00000
145228241.93970,524715234.08641,-41198635.71138,  -0.00037,   0.00215,  -0.00055,476666368.00000,   0.00004,274679840.00000,  -0.00001,   0.00004,  -0.00001,  96.00000,   2.00000
146194324.14943,525063861.73250,-40900151.51739,  -0.00037,   0.00215,  -0.00055,476690368.00000,   0.00004,274688384.00000,  -0.00001,   0.00005,  -0.00001,  64.00000,   2.00000
147132207.77885,525401717.88346,-40605221.91571,  -0.00037,   0.00216,  -0.00054,476689696.00000,   0.00005,274696896.00000,  -0.00002,   0.00006,  -0.00002, 160.00000,   2.00000
148074976.27819,525737386.84307,-40307809.86861,  -0.00037,   0.00217,  -0.00054,476707456.00000,   0.00006,274705376.00000,  -0.00002,   0.00007,  -0.00002,  32.00000,   2.00000
149009631.69297,526065970.29941,-40012006.73815,  -0.00037,   0.00218,  -0.00054,476723840.00000,   0.00007,274713888.00000,  -0.00002,   0.00008,  -0.00002,  32.00000,   2.00000
149952666.96352,526392852.98162,-39713157.66707,  -0.00037,   0.00219,  -0.00054,476740416.00000,   0.00007,274722400.00000,  -0.00002,   0.00009,  -0.00002, 128.00000,   2.00000
150887554.66713,526713227.97373,-39416647.86234,  -0.00037,   0.00220,  -0.00054,476740704.00000,   0.00008,274730880.00000,  -0.00002,   0.00010,  -0.00003, 160.00000,   2.00000
151822971.28323,527031863.30109,-39115974.90987,  -0.00036,   0.00221,  -0.00054,476763488.00000,   0.00009,274739392.00000,  -0.00003,   0.00010,  -0.00003, -32.00000,   2.00000
152752051.92856,527346165.47995,-38817583.60044,  -0.00036,   0.00222,  -0.00054,476760480.00000,   0.00010,274747872.00000,  -0.00003,   0.00011,  -0.00003, -32.00000,   2.00000
153689514.41608,527661092.47422,-38517067.83587,  -0.00036,   0.00222,  -0.00053,476758496.00000,   0.00011,274756288.00000,  -0.00003,   0.00012,  -0.00003, -64.00000,   2.00000
154628138.32906,527975938.92841,-38212499.12587,  -0.00036,   0.00223,  -0.00053,476778656.00000,   0.00011,274764768.00000,  -0.00003,   0.00013,  -0.00004,-160.00000,   2.00000
155560212.49187,528287017.76251,-37910293.04786,  -0.00036,   0.00224,  -0.00053,476774688.00000,   0.00012,274773184.00000,  -0.00004,   0.00014,  -0.00004,  32.00000,   2.00000
156489203.27899,528596377.04311,-37605194.12548,  -0.00036,   0.00225,  -0.00053,476782432.00000,   0.00013,274781600.00000,  -0.00004,   0.00015,  -0.00004,-128.00000,   2.00000
157428974.05187,528906795.46347,-37301228.22347,  -0.00036,   0.00226,  -0.00053,476793856.00000,   0.00014,274790016.00000,  -0.00004,   0.00016,  -0.00004, 128.00000,   2.00000
158364730.90631,529213863.07074,-36998586.30367,  -0.00035,   0.00227,  -0.00053,476803520.00000,   0.00014,274798464.00000,  -0.00004,   0.00017,  -0.00004,  96.00000,   2.00000
159293026.32503,529517542.86597,-36694180.11330,  -0.00035,   0.00228,  -0.00052,476799488.00000,   0.00015,274806816.00000,  -0.00004,   0.00018,  -0.00005,-128.00000,   2.00000
160234920.58375,529823665.68336,-36385709.84022,  -0.00035,   0.00228,  -0.00052,476823840.00000,   0.00016,274815264.00000,  -0.00005,   0.00019,  -0.00005,  64.00000,   2.00000
161168709.34940,530124801.64825,-36079650.70767,  -0.00035,   0.00229,  -0.00052,476821280.00000,   0.00017,274823616.00000,  -0.00005,   0.00020,  -0.00005, -96.00000,   2.00000
162094681.48247,530422423.12489,-35771836.40924,  -0.00035,   0.00230,  -0.00052,476817664.00000,   0.00017,274831936.00000,  -0.00005,   0.00020,  -0.00005,  32.00000,   2.00000
163019481.26361,530718396.52280,-35460192.60186,  -0.00035,   0.00231,  -0.00052,476839840.00000,   0.00018,274840320.00000,  -0.00005,   0.00021,  -0.00006,  32.00000,   2.00000
163950333.49370,531012822.25874,-35150728.05657,  -0.00034,   0.00232,  -0.00051,476840224.00000,   0.00019,274848640.00000,  -0.00006,   0.00022,  -0.00006,   0.00000,   2.00000
164876329.64872,531303508.32722,-34842639.22143,  -0.00034,   0.00233,  -0.00051,476850592.00000,   0.00020,274856960.00000,  -0.00006,   0.00023,  -0.00006,  64.00000,   2.00000
165797691.62503,531591455.71546,-34531733.08794,  -0.00034,   0.00234,  -0.00051,476860192.00000,   0.00020,274865280.00000,  -0.00006,   0.00024,  -0.00006,  32.00000,   2.00000
166714160.10583,531875451.17259,-34222175.25668,  -0.00034,   0.00234,  -0.00051,476870560.00000,   0.00021,274873600.00000,  -0.00006,   0.00025,  -0.00006,  96.00000,   2.00000
167637014.73706,532159068.48616,-33910547.43097,  -0.00034,   0.00235,  -0.00051,476870048.00000,   0.00022,274881888.00000,  -0.00006,   0.00026,  -0.00007, -32.00000,   2.00000
168541147.43078,532436849.81081,-33596298.46400,  -0.00034,   0.00236,  -0.00050,476876512.00000,   0.00023,274890176.00000,  -0.00007,   0.00027,  -0.00007,  96.00000,   2.00000
169468781.94859,532717044.77780,-33282932.79124,  -0.00033,   0.00237,  -0.00050,476892736.00000,   0.00024,274898464.00000,  -0.00007,   0.00028,  -0.00007,-160.00000,   2.00000
170377755.64598,532991584.21352,-32966938.57222,  -0.00033,   0.00238,  -0.00050,476899168.00000,   0.00024,274906720.00000,  -0.00007,   0.00028,  -0.00007,   0.00000,   2.00000
171278926.94180,533261491.54542,-32653196.71861,  -0.00033,   0.00239,  -0.00050,476896672.00000,   0.00025,274914944.00000,  -0.00007,   0.00029,  -0.00007, -64.00000,   2.00000
172189637.57830,533531097.03776,-32340541.70070,  -0.00033,   0.00239,  -0.00050,476909728.00000,   0.00026,274923200.00000,  -0.00007,   0.00030,  -0.00008,  32.00000,   2.00000
173096133.70448,533798890.11061,-32020773.70770,  -0.00033,   0.00240,  -0.00049,476918176.00000,   0.00027,274931424.00000,  -0.00007,   0.00031,  -0.00008, -96.00000,   2.00000
174011943.85078,534065440.41622,-31706288.56534,  -0.00033,   0.00241,  -0.00049,476932128.00000,   0.00027,274939680.00000,  -0.00008,   0.00032,  -0.00008,  96.00000,   2.00000
174906562.02382,534326522.45597,-31385802.58740,  -0.00032,   0.00242,  -0.00049,476924544.00000,   0.00028,274947872.00000,  -0.00008,   0.00033,  -0.00008,   0.00000,   2.00000
175813471.98351,534586934.75806,-31069657.40423,  -0.00032,   0.00243,  -0.00049,476951392.00000,   0.00029,274956128.00000,  -0.00008,   0.00034,  -0.00008, -64.00000,   2.00000
176713467.94024,534845268.77786,-30747277.90552,  -0.00032,   0.00244,  -0.00048,476946752.00000,   0.00030,274964320.00000,  -0.00008,   0.00035,  -0.00008,  96.00000,   2.00000
177606089.05146,535099283.34213,-30427022.38424,  -0.00032,   0.00244,  -0.00048,476944064.00000,   0.00030,274972448.00000,  -0.00008,   0.00036,  -0.00009, 256.00000,   2.00000
178497211.38553,535350770.40520,-30107125.79324,  -0.00032,   0.00245,  -0.00048,476966848.00000,   0.00031,274980640.00000,  -0.00009,   0.00036,  -0.00009, -96.00000,   2.00000
179395383.35528,535602107.59178,-29784914.89996,  -0.00032,   0.00246,  -0.00048,476966208.00000,   0.00032,274988800.00000,  -0.00009,   0.00037,  -0.00009,   0.00000,   2.00000
180289201.28892,535850251.83761,-29463929.67037,  -0.00031,   0.00247,  -0.00047,476976032.00000,   0.00033,274996960.00000,  -0.00009,   0.00038,  -0.00009,   0.00000,   2.00000
181178873.39955,536095947.88137,-29139947.69484,  -0.00031,   0.00248,  -0.00047,476985216.00000,   0.00033,275005120.00000,  -0.00009,   0.00039,  -0.00009, -32.00000,   2.00000
182061675.08942,536338538.81158,-28813813.14761,  -0.00031,   0.00249,  -0.00047,476981280.00000,   0.00034,275013216.00000,  -0.00009,   0.00040,  -0.00009,-288.00000,   2.00000
182954264.74365,536581105.13538,-28488698.89851,  -0.00031,   0.00249,  -0.00047,476994368.00000,   0.00035,275021312.00000,  -0.00009,   0.00041,  -0.00010,-128.00000,   2.00000
183842500.79113,536820349.20983,-28164776.43308,  -0.00031,   0.00250,  -0.00046,477004288.00000,   0.00035,275029440.00000,  -0.00010,   0.00042,  -0.00010,  32.00000,   2.00000
184726681.86924,537057378.84684,-27837847.51870,  -0.00030,   0.00251,  -0.00046,477013568.00000,   0.00036,275037536.00000,  -0.00010,   0.00043,  -0.00010,  96.00000,   2.00000
185604104.97482,537291303.33471,-27508710.45121,  -0.00030,   0.00252,  -0.00046,477009696.00000,   0.00037,275045600.00000,  -0.00010,   0.00044,  -0.00010, -96.00000,   2.00000
186477410.66766,537522580.40095,-27180799.42011,  -0.00030,   0.00253,  -0.00046,477019392.00000,   0.00038,275053664.00000,  -0.00010,   0.00044,  -0.00010, 128.00000,   2.00000
187360297.51271,537753121.85907,-26853858.67904,  -0.00030,   0.00253,  -0.00045,477032960.00000,   0.00038,275061728.00000,  -0.00010,   0.00045,  -0.00010,  32.00000,   2.00000
188225267.46653,537978896.67033,-26524115.40429,  -0.00030,   0.00254,  -0.00045,477038624.00000,   0.00039,275069792.00000,  -0.00010,   0.00046,  -0.00011,-224.00000,   2.00000
189097567.06599,538204444.24249,-26191934.07248,  -0.00029,   0.00255,  -0.00045,477038464.00000,   0.00040,275077792.00000,  -0.00011,   0.00047,  -0.00011, -96.00000,   2.00000
189982037.34204,538430264.25517,-25860001.30717,  -0.00029,   0.00256,  -0.00045,477064736.00000,   0.00041,275085856.00000,  -0.00011,   0.00048,  -0.00011, 128.00000,   2.00000
190843451.42105,538649728.64329,-25526771.87034,  -0.00029,   0.00257,  -0.00044,477044832.00000,   0.00041,275093824.00000,  -0.00011,   0.00049,  -0.00011,  64.00000,   2.00000
191717051.88794,538869620.05656,-25193823.85736,  -0.00029,   0.00258,  -0.00044,477071104.00000,   0.00042,275101856.00000,  -0.00011,   0.00050,  -0.00011, 224.00000,   2.00000
192570248.85517,539083984.35175,-24858817.52880,  -0.00029,   0.00258,  -0.00044,477064128.00000,   0.00043,275109824.00000,  -0.00011,   0.00051,  -0.00011, -64.00000,   2.00000
193435502.38838,539298523.52806,-24524120.90660,  -0.00028,   0.00259,  -0.00043,477090528.00000,   0.00044,275117824.00000,  -0.00011,   0.00052,  -0.00012, -32.00000,   2.00000
194305419.35424,539511273.74467,-24191907.31237,  -0.00028,   0.00260,  -0.00043,477078368.00000,   0.00044,275125760.00000,  -0.00011,   0.00052,  -0.00012,  32.00000,   2.00000
195160006.20303,539720492.64668,-23851973.06135,  -0.00028,   0.00261,  -0.00043,477096256.00000,   0.00045,275133728.00000,  -0.00012,   0.00053,  -0.00012, -64.00000,   2.00000
196007850.98548,539925719.87558,-23518251.23956,  -0.00028,   0.00262,  -0.00043,477093952.00000,   0.00046,275141664.00000,  -0.00012,   0.00054,  -0.00012,   0.00000,   2.00000
196865021.86205,540129687.72278,-23181306.69298,  -0.00028,   0.00262,  -0.00042,477107168.00000,   0.00047,275149600.00000,  -0.00012,   0.00055,  -0.00012,-992.00000,   1.00000
197718518.26103,540332883.18741,-22841498.53865,  -0.00027,   0.00263,  -0.00042,477115456.00000,   0.00047,275157504.00000,  -0.00012,   0.00056,  -0.00012,-800.00000,   1.00000
198567703.67904,540533059.42504,-22502996.42481,  -0.00027,   0.00264,  -0.00042,477125760.00000,   0.00048,275165440.00000,  -0.00012,   0.00057,  -0.00012,-576.00000,   1.00000
199410452.47710,540730120.00616,-22162242.70326,  -0.00027,   0.00265,  -0.00041,477122656.00000,   0.00049,275173312.00000,  -0.00012,   0.00058,  -0.00012,-512.00000,   1.00000
200262658.52153,540926588.31947,-21822635.79391,  -0.00027,   0.00266,  -0.00041,477136544.00000,   0.00049,275181216.00000,  -0.00012,   0.00058,  -0.00013,-288.00000,   1.00000
201094813.54669,541117858.60072,-21480978.20648,  -0.00027,   0.00266,  -0.00041,477129504.00000,   0.00050,275189024.00000,  -0.00013,   0.00059,  -0.00013,-224.00000,   1.00000
201938663.91965,541309184.86643,-21139865.86438,  -0.00026,   0.00267,  -0.00040,477156288.00000,   0.00051,275196896.00000,  -0.00013,   0.00060,  -0.00013, 128.00000,   1.00000
202776116.50184,541497292.96296,-20796522.43417,  -0.00026,   0.00268,  -0.00040,477153216.00000,   0.00052,275204736.00000,  -0.00013,   0.00061,  -0.00013, 256.00000,   1.00000
203609293.27639,541682465.54695,-20454577.52903,  -0.00026,   0.00269,  -0.00040,477163392.00000,   0.00052,275212576.00000,  -0.00013,   0.00062,  -0.00013, 512.00000,   1.00000
204449877.11258,541866879.99678,-20110241.31536,  -0.00026,   0.00269,  -0.00039,477163840.00000,   0.00053,275220352.00000,  -0.00013,   0.00063,  -0.00013, 640.00000,   1.00000
205274586.57695,542046560.63997,-19766905.13185,  -0.00026,   0.00270,  -0.00039,477183296.00000,   0.00054,275228192.00000,  -0.00013,   0.00064,  -0.00013, 736.00000,   1.00000
206106827.94677,542225735.18901,-19421211.72226,  -0.00025,   0.00271,  -0.00039,477183488.00000,   0.00054,275236000.00000,  -0.00013,   0.00065,  -0.00013, 896.00000,   1.00000
206920743.22358,542398345.63951,-19077094.41617,  -0.00025,   0.00272,  -0.00038,477189984.00000,   0.00055,275243776.00000,  -0.00014,   0.00065,  -0.00014,   0.00000,   2.00000
207742529.37985,542571290.13498,-18730662.76285,  -0.00025,   0.00273,  -0.00038,477189152.00000,   0.00056,275251520.00000,  -0.00014,   0.00066,  -0.00014, -96.00000,   2.00000
208560125.84993,542741391.18098,-18385724.54831,  -0.00025,   0.00273,  -0.00038,477199040.00000,   0.00057,275259264.00000,  -0.00014,   0.00067,  -0.00014,  64.00000,   2.00000
209386938.41901,542910168.25259,-18042103.22744,  -0.00025,   0.00274,  -0.00037,477213056.00000,   0.00057,275267008.00000,  -0.00014,   0.00068,  -0.00014, -96.00000,   2.00000
210196162.75814,543074649.17561,-17695927.76203,  -0.00024,   0.00275,  -0.00037,477218272.00000,   0.00058,275274752.00000,  -0.00014,   0.00069,  -0.00014,-160.00000,   2.00000
211013018.56282,543238352.93873,-17347420.85019,  -0.00024,   0.00276,  -0.00037,477218528.00000,   0.00059,275282464.00000,  -0.00014,   0.00070,  -0.00014, -96.00000,   2.00000
211812215.49294,543397272.09635,-17000620.78736,  -0.00024,   0.00277,  -0.00036,477224160.00000,   0.00059,275290144.00000,  -0.00014,   0.00071,  -0.00014,  96.00000,   2.00000
212620938.82460,543555614.84486,-16650974.36394,  -0.00024,   0.00277,  -0.00036,477237536.00000,   0.00060,275297856.00000,  -0.00014,   0.00071,  -0.00014,  32.00000,   2.00000
213425480.05971,543710890.42110,-16302894.76336,  -0.00023,   0.00278,  -0.00036,477247072.00000,   0.00061,275305568.00000,  -0.00014,   0.00072,  -0.00014,  64.00000,   2.00000
214224111.97975,543862907.67368,-15956877.39331,  -0.00023,   0.00279,  -0.00035,477243424.00000,   0.00062,275313216.00000,  -0.00015,   0.00073,  -0.00015,  32.00000,   2.00000
215032314.48182,544014431.08736,-15608042.60445,  -0.00023,   0.00280,  -0.00035,477256672.00000,   0.00062,275320896.00000,  -0.00015,   0.00074,  -0.00015,   0.00000,   2.00000
215823155.64314,544161751.06411,-15256705.22325,  -0.00023,   0.00280,  -0.00035,477261504.00000,   0.00063,275328544.00000,  -0.00015,   0.00075,  -0.00015,   0.00000,   2.00000
216621669.83642,544307605.83470,-14907277.98611,  -0.00023,   0.00281,  -0.00034,477261920.00000,   0.00064,275336192.00000,  -0.00015,   0.00076,  -0.00015,  32.00000,   2.00000
217402824.15498,544448980.81203,-14559585.12196,  -0.00022,   0.00282,  -0.00034,477267104.00000,   0.00064,275343776.00000,  -0.00015,   0.00077,  -0.00015,  96.00000,   2.00000
218193556.11452,544589558.58084,-14209096.22655,  -0.00022,   0.00283,  -0.00033,477280064.00000,   0.00065,275351424.00000,  -0.00015,   0.00077,  -0.00015,-224.00000,   2.00000
218980424.67968,544727544.44823,-13860217.75011,  -0.00022,   0.00283,  -0.00033,477289056.00000,   0.00066,275359040.00000,  -0.00015,   0.00078,  -0.00015,-128.00000,   2.00000
219761845.94216,544862750.00917,-13509107.35868,  -0.00022,   0.00284,  -0.00033,477284800.00000,   0.00066,275366624.00000,  -0.00015,   0.00079,  -0.00015,-256.00000,   2.00000
220539715.81471,544996094.26667,-13155372.68131,  -0.00021,   0.00285,  -0.00032,477293376.00000,   0.00067,275374176.00000,  -0.00015,   0.00080,  -0.00015,  32.00000,   2.00000
221326814.69268,545127436.88832,-12807354.70122,  -0.00021,   0.00286,  -0.00032,477307232.00000,   0.00068,275381792.00000,  -0.00016,   0.00081,  -0.00015,-160.00000,   2.00000
222095437.83371,545254976.78319,-12457201.87750,  -0.00021,   0.00286,  -0.00032,477298336.00000,   0.00069,275389312.00000,  -0.00016,   0.00082,  -0.00015,  32.00000,   2.00000
222873667.11596,545381499.55922,-12104272.20626,  -0.00021,   0.00287,  -0.00031,477311200.00000,   0.00069,275396864.00000,  -0.00016,   0.00082,  -0.00015, -64.00000,   2.00000
223635001.85850,545504259.79656,-11753078.60533,  -0.00020,   0.00288,  -0.00031,477315424.00000,   0.00070,275404384.00000,  -0.00016,   0.00083,  -0.00015,   0.00000,   2.00000
224404502.99763,545625896.37175,-11399466.69395,  -0.00020,   0.00289,  -0.00030,477315232.00000,   0.00071,275411872.00000,  -0.00016,   0.00084,  -0.00016,  32.00000,   2.00000
225171824.30886,545745170.19570,-11047123.80256,  -0.00020,   0.00289,  -0.00030,477337120.00000,   0.00071,275419424.00000,  -0.00016,   0.00085,  -0.00016,   0.00000,   2.00000
225932567.47418,545861511.22275,-10697034.13136,  -0.00020,   0.00290,  -0.00030,477319488.00000,   0.00072,275426848.00000,  -0.00016,   0.00086,  -0.00016,  96.00000,   2.00000
226691250.86171,545975799.77012,-10343964.05916,  -0.00020,   0.00291,  -0.00029,477340992.00000,   0.00073,275434368.00000,  -0.00016,   0.00087,  -0.00016, -96.00000,   2.00000
227458304.51514,546089323.60560,-9988452.21798,  -0.00019,   0.00292,  -0.00029,477340512.00000,   0.00073,275441824.00000,  -0.00016,   0.00087,  -0.00016, 128.00000,   2.00000
228208454.54985,546198690.70164,-9634635.78666,  -0.00019,   0.00292,  -0.00028,477344672.00000,   0.00074,275449280.00000,  -0.00016,   0.00088,  -0.00016,-128.00000,   2.00000
228955163.64635,546305874.51956,-9282415.23477,  -0.00019,   0.00293,  -0.00028,477353024.00000,   0.00075,275456704.00000,  -0.00016,   0.00089,  -0.00016, -96.00000,   2.00000
229711632.88247,546412284.54656,-8927443.06350,  -0.00019,   0.00294,  -0.00028,477365888.00000,   0.00075,275464192.00000,  -0.00017,   0.00090,  -0.00016,-160.00000,   2.00000
230463179.39811,546516037.03149,-8574322.58897,  -0.00018,   0.00295,  -0.00027,477361248.00000,   0.00076,275471616.00000,  -0.00017,   0.00091,  -0.00016,-160.00000,   2.00000
231198138.26204,546616316.28585,-8222868.03334,  -0.00018,   0.00295,  -0.00027,477365472.00000,   0.00077,275479008.00000,  -0.00017,   0.00092,  -0.00016,   0.00000,   2.00000
231941509.28410,546715455.86225,-7868881.09186,  -0.00018,   0.00296,  -0.00026,477365216.00000,   0.00077,275486368.00000,  -0.00017,   0.00092,  -0.00016,   0.00000,   2.00000
232681529.24224,546812605.28995,-7512216.82031,  -0.00018,   0.00297,  -0.00026,477373280.00000,   0.00078,275493728.00000,  -0.00017,   0.00093,  -0.00016,  64.00000,   2.00000
233418054.42697,546907340.41079,-7157129.75854,  -0.00017,   0.00297,  -0.00025,477381984.00000,   0.00079,275501120.00000,  -0.00017,   0.00094,  -0.00016, 160.00000,   2.00000
234164151.87475,547000820.76469,-6803541.49818,  -0.00017,   0.00298,  -0.00025,477395072.00000,   0.00080,275508480.00000,  -0.00017,   0.00095,  -0.00016,-224.00000,   2.00000
234892602.53402,547091112.04178,-6447521.60873,  -0.00017,   0.00299,  -0.00025,477385632.00000,   0.00080,275515808.00000,  -0.00017,   0.00096,  -0.00016, -32.00000,   2.00000
235617649.35647,547179185.41133,-6093059.58574,  -0.00017,   0.00300,  -0.00024,477394080.00000,   0.00081,275523136.00000,  -0.00017,   0.00097,  -0.00016, 128.00000,   2.00000
236352303.56759,547266105.77064,-5740085.82588,  -0.00016,   0.00300,  -0.00024,477407424.00000,   0.00082,275530464.00000,  -0.00017,   0.00097,  -0.00016,  32.00000,   2.00000
237069317.45123,547349594.79013,-5384608.02602,  -0.00016,   0.00301,  -0.00023,477398080.00000,   0.00082,275537760.00000,  -0.00017,   0.00098,  -0.00016, -96.00000,   2.00000
237796026.79367,547432172.87974,-5026364.32715,  -0.00016,   0.00302,  -0.00023,477411040.00000,   0.00083,275545024.00000,  -0.00017,   0.00099,  -0.00016,-128.00000,   2.00000
238519361.66524,547512749.07265,-4669669.17647,  -0.00016,   0.00303,  -0.00022,477419552.00000,   0.00084,275552320.00000,  -0.00017,   0.00100,  -0.00016,  32.00000,   2.00000
239225098.49170,547589782.95011,-4314668.83757,  -0.00015,   0.00303,  -0.00022,477410656.00000,   0.00084,275559552.00000,  -0.00018,   0.00101,  -0.00016,   0.00000,   2.00000
239941613.25365,547666066.71017,-3956787.33818,  -0.00015,   0.00304,  -0.00022,477436864.00000,   0.00085,275566848.00000,  -0.00018,   0.00102,  -0.00016,  32.00000,   2.00000
240652452.80466,547739704.36630,-3600630.67098,  -0.00015,   0.00305,  -0.00021,477419392.00000,   0.00086,275574048.00000,  -0.00018,   0.00102,  -0.00016,-192.00000,   2.00000
241361035.97040,547811626.47427,-3245899.45360,  -0.00015,   0.00305,  -0.00021,477440928.00000,   0.00086,275581280.00000,  -0.00018,   0.00103,  -0.00016,   0.00000,   2.00000
242065182.17673,547881393.67101,-2888501.36842,  -0.00014,   0.00306,  -0.00020,477436832.00000,   0.00087,275588480.00000,  -0.00018,   0.00104,  -0.00016,  64.00000,   2.00000
242765833.92735,547948868.53977,-2532615.51777,  -0.00014,   0.00307,  -0.00020,477445568.00000,   0.00088,275595680.00000,  -0.00018,   0.00105,  -0.00016,  96.00000,   2.00000
243462054.12057,548014114.71658,-2174037.26578,  -0.00014,   0.00307,  -0.00019,477441120.00000,   0.00088,275602816.00000,  -0.00018,   0.00106,  -0.00016, -32.00000,   2.00000
244168723.74291,548078371.53057,-1816918.54939,  -0.00014,   0.00308,  -0.00019,477467904.00000,   0.00089,275610048.00000,  -0.00018,   0.00106,  -0.00016,   0.00000,   2.00000
244858025.90193,548139472.02129,-1461366.00069,  -0.00014,   0.00309,  -0.00018,477458720.00000,   0.00090,275617184.00000,  -0.00018,   0.00107,  -0.00017, -64.00000,   2.00000
245542960.33788,548198445.10762,-1103092.84680,  -0.00013,   0.00310,  -0.00018,477454624.00000,   0.00090,275624288.00000,  -0.00018,   0.00108,  -0.00017, -32.00000,   2.00000
246237273.13125,548256185.53285,-746338.37738,  -0.00013,   0.00310,  -0.00017,477468320.00000,   0.00091,275631392.00000,  -0.00018,   0.00109,  -0.00017, -32.00000,   2.00000
246915195.60649,548310932.87827,-386860.99081,  -0.00013,   0.00311,  -0.00017,477472416.00000,   0.00092,275638496.00000,  -0.00018,   0.00110,  -0.00017,  32.00000,   2.00000
247602385.12001,548364296.33410,-28938.83582,  -0.00013,   0.00312,  -0.00017,477486336.00000,   0.00092,275645600.00000,  -0.00018,   0.00110,  -0.00017,-256.00000,   2.00000
248285196.81080,548415618.30878,327453.44207,  -0.00012,   0.00312,  -0.00016,477482080.00000,   0.00093,275652672.00000,  -0.00018,   0.00111,  -0.00017, -96.00000,   2.00000
248951622.84192,548464004.44087,686556.55990,  -0.00012,   0.00313,  -0.00016,477486336.00000,   0.00093,275659744.00000,  -0.00018,   0.00112,  -0.00017,  64.00000,   2.00000
249627215.68907,548510907.81781,1044064.82680,  -0.00012,   0.00314,  -0.00015,477500544.00000,   0.00094,275666784.00000,  -0.00018,   0.00113,  -0.00016, -64.00000,   2.00000
250298415.88805,548555665.60087,1404300.96840,  -0.00012,   0.00314,  -0.00015,477496448.00000,   0.00095,275673824.00000,  -0.00018,   0.00114,  -0.00016,  64.00000,   2.00000
250965960.24557,548598223.91018,1762937.25770,  -0.00011,   0.00315,  -0.00014,477505696.00000,   0.00095,275680832.00000,  -0.00018,   0.00114,  -0.00016,  32.00000,   2.00000
251629779.18297,548638443.76075,2119968.44026,  -0.00011,   0.00316,  -0.00014,477514912.00000,   0.00096,275687872.00000,  -0.00019,   0.00115,  -0.00016, -64.00000,   2.00000
252289300.91974,548676666.54420,2475490.88335,  -0.00011,   0.00316,  -0.00013,477511008.00000,   0.00097,275694848.00000,  -0.00019,   0.00116,  -0.00016,  64.00000,   2.00000
252945076.03135,548712494.04656,2833668.93300,  -0.00011,   0.00317,  -0.00013,477520128.00000,   0.00097,275701824.00000,  -0.00019,   0.00117,  -0.00016, -32.00000,   2.00000
253597186.77430,548746154.17926,3194487.79976,  -0.00010,   0.00318,  -0.00012,477529376.00000,   0.00098,275708800.00000,  -0.00019,   0.00118,  -0.00016,-128.00000,   2.00000
254244973.47093,548777577.47118,3549563.11601,  -0.00010,   0.00318,  -0.00012,477525312.00000,   0.00099,275715712.00000,  -0.00019,   0.00118,  -0.00016,   0.00000,   2.00000
254889161.22162,548806939.38340,3907309.41726,  -0.00010,   0.00319,  -0.00011,477534496.00000,   0.00099,275722656.00000,  -0.00019,   0.00119,  -0.00016,-160.00000,   2.00000
255529056.94545,548833965.49329,4267873.15065,  -0.00010,   0.00320,  -0.00011,477530528.00000,   0.00100,275729536.00000,  -0.00019,   0.00120,  -0.00016,   0.00000,   2.00000
256166028.39595,548859107.29189,4622453.81585,  -0.00009,   0.00320,  -0.00010,477552640.00000,   0.00101,275736480.00000,  -0.00019,   0.00121,  -0.00016, 128.00000,   2.00000
256798637.85300,548881565.95065,4979915.91039,  -0.00009,   0.00321,  -0.00010,477548576.00000,   0.00101,275743360.00000,  -0.00019,   0.00121,  -0.00016,-128.00000,   2.00000
257427286.66442,548902208.18434,5340298.49144,  -0.00009,   0.00322,  -0.00009,477544192.00000,   0.00102,275750176.00000,  -0.00019,   0.00122,  -0.00016, -96.00000,   2.00000
258065055.94663,548921392.00256,5694862.53532,  -0.00009,   0.00322,  -0.00009,477558144.00000,   0.00102,275757056.00000,  -0.00019,   0.00123,  -0.00016,  32.00000,   2.00000
258686671.89569,548937806.22318,6052313.48136,  -0.00008,   0.00323,  -0.00008,477561792.00000,   0.00103,275763904.00000,  -0.00019,   0.00124,  -0.00016, -64.00000,   2.00000
259304865.60009,548952152.13355,6412595.98529,  -0.00008,   0.00324,  -0.00008,477570432.00000,   0.00104,275770720.00000,  -0.00019,   0.00125,  -0.00016, -32.00000,   2.00000
259931809.52782,548965064.89057,6767358.99336,  -0.00008,   0.00324,  -0.00007,477570752.00000,   0.00104,275777536.00000,  -0.00019,   0.00125,  -0.00016, -96.00000,   2.00000
260542916.70614,548975633.16738,7125116.49577,  -0.00008,   0.00325,  -0.00007,477573824.00000,   0.00105,275784352.00000,  -0.00019,   0.00126,  -0.00016, -64.00000,   2.00000
261150164.32952,548983754.88653,7486013.50945,  -0.00007,   0.00326,  -0.00006,477569152.00000,   0.00106,275791072.00000,  -0.00019,   0.00127,  -0.00016, -64.00000,   2.00000
261766960.65954,548990972.46537,7841229.03800,  -0.00007,   0.00326,  -0.00006,477581984.00000,   0.00106,275797856.00000,  -0.00019,   0.00128,  -0.00016,   0.00000,   2.00000
262367950.04030,548995537.47757,8199459.54991,  -0.00007,   0.00327,  -0.00005,477584928.00000,   0.00107,275804608.00000,  -0.00019,   0.00128,  -0.00016,   0.00000,   2.00000
262978192.38759,548998318.40883,8560462.56595,  -0.00007,   0.00328,  -0.00005,477598272.00000,   0.00108,275811360.00000,  -0.00019,   0.00129,  -0.00016, -64.00000,   2.00000
263572726.11576,548999376.71558,8916164.92023,  -0.00006,   0.00328,  -0.00004,477587040.00000,   0.00108,275818080.00000,  -0.00019,   0.00130,  -0.00016, -96.00000,   2.00000
264163773.03725,548998233.96776,9274923.81802,  -0.00006,   0.00329,  -0.00004,477581696.00000,   0.00109,275824736.00000,  -0.00019,   0.00131,  -0.00016,  96.00000,   2.00000
264764524.71836,548995465.26579,9631735.43025,  -0.00006,   0.00330,  -0.00003,477607552.00000,   0.00109,275831456.00000,  -0.00019,   0.00131,  -0.00016, -32.00000,   2.00000
265349365.56136,548990143.47007,9991585.53658,  -0.00005,   0.00330,  -0.00003,477596448.00000,   0.00110,275838112.00000,  -0.00019,   0.00132,  -0.00016,-160.00000,   2.00000
265943531.88162,548983722.29319,10345702.64384,  -0.00005,   0.00331,  -0.00002,477595424.00000,   0.00111,275844768.00000,  -0.00019,   0.00133,  -0.00016, -96.00000,   2.00000
266522185.15367,548974861.85589,10702525.06054,  -0.00005,   0.00332,  -0.00002,477597280.00000,   0.00111,275851392.00000,  -0.00019,   0.00134,  -0.00016, -64.00000,   2.00000
267110198.32951,548964275.28401,11061800.28028,  -0.00005,   0.00332,  -0.00001,477610080.00000,   0.00112,275858016.00000,  -0.00019,   0.00134,  -0.00016,  96.00000,   2.00000
267682981.58103,548951912.77970,11415355.23854,  -0.00004,   0.00333,  -0.00001,477611232.00000,   0.00112,275864640.00000,  -0.00019,   0.00135,  -0.00015,  32.00000,   2.00000
268264927.84621,548937913.12976,11771879.55377,  -0.00004,   0.00333,  -0.00000,477610752.00000,   0.00113,275871232.00000,  -0.00019,   0.00136,  -0.00015,   0.00000,   2.00000
268831721.20111,548922268.64661,12127176.66324,  -0.00004,   0.00334,   0.00000,477612224.00000,   0.00114,275877792.00000,  -0.00019,   0.00137,  -0.00015,  96.00000,   2.00000
269407635.31090,548904861.88538,12485670.03981,  -0.00004,   0.00335,   0.00001,477611872.00000,   0.00114,275884352.00000,  -0.00019,   0.00137,  -0.00015, -96.00000,   2.00000
269968640.37513,548886425.35566,12838883.11772,  -0.00003,   0.00335,   0.00002,477612864.00000,   0.00115,275890880.00000,  -0.00019,   0.00138,  -0.00015, -32.00000,   2.00000
270539091.65726,548866721.62989,13195031.19810,  -0.00003,   0.00336,   0.00002,477625728.00000,   0.00115,275897440.00000,  -0.00019,   0.00139,  -0.00015,  64.00000,   2.00000
271093976.89756,548844875.19213,13554804.36943,  -0.00003,   0.00337,   0.00003,477614912.00000,   0.00116,275903904.00000,  -0.00019,   0.00140,  -0.00015,  32.00000,   2.00000
271658908.36878,548823384.63134,13908925.07267,  -0.00003,   0.00337,   0.00003,477627424.00000,   0.00117,275910400.00000,  -0.00019,   0.00140,  -0.00015, 928.00000,   1.00000
272207670.24914,548798368.27929,14266502.07832,  -0.00002,   0.00338,   0.00004,477617952.00000,   0.00117,275916832.00000,  -0.00019,   0.00141,  -0.00015, 512.00000,   1.00000
272765862.98115,548772428.84792,14622435.29834,  -0.00002,   0.00338,   0.00004,477630656.00000,   0.00118,275923296.00000,  -0.00019,   0.00142,  -0.00015, 512.00000,   1.00000
273308677.64991,548744687.38317,14976970.98116,  -0.00002,   0.00339,   0.00005,477632992.00000,   0.00118,275929728.00000,  -0.00019,   0.00143,  -0.00015, 352.00000,   1.00000
273848309.32397,548715166.40648,15330295.39148,  -0.00002,   0.00340,   0.00005,477627840.00000,   0.00119,275936128.00000,  -0.00019,   0.00143,  -0.00015, 160.00000,   1.00000
274396892.12968,548683691.70515,15685918.30733,  -0.00001,   0.00340,   0.00006,477641632.00000,   0.00120,275942528.00000,  -0.00019,   0.00144,  -0.00015,  32.00000,   1.00000
274930111.13843,548650352.37553,16039939.55554,  -0.00001,   0.00341,   0.00006,477644128.00000,   0.00120,275948928.00000,  -0.00019,   0.00145,  -0.00015,-128.00000,   1.00000
275460313.57390,548615377.99113,16392645.36283,  -0.00001,   0.00341,   0.00007,477638944.00000,   0.00121,275955296.00000,  -0.00019,   0.00145,  -0.00014,-288.00000,   1.00000
275999636.72141,548578717.84423,16743309.03690,  -0.00001,   0.00342,   0.00007,477652544.00000,   0.00121,275961664.00000,  -0.00019,   0.00146,  -0.00014,-256.00000,   1.00000
276523536.74939,548539651.46161,17097153.60556,  -0.00000,   0.00343,   0.00008,477642400.00000,   0.00122,275967968.00000,  -0.00019,   0.00147,  -0.00014,-480.00000,   1.00000
277044511.51215,548498916.42333,17449211.65269,  -0.00000,   0.00343,   0.00009,477650304.00000,   0.00123,275974272.00000,  -0.00019,   0.00148,  -0.00014,-576.00000,   1.00000
277574761.14634,548456635.06818,17799284.41859,   0.00000,   0.00344,   0.00009,477663712.00000,   0.00123,275980608.00000,  -0.00019,   0.00148,  -0.00014,-544.00000,   1.00000
278090096.55895,548412681.27569,18148464.04812,   0.00000,   0.00344,   0.00010,477652864.00000,   0.00124,275986848.00000,  -0.00019,   0.00149,  -0.00014,-704.00000,   1.00000
278602670.62753,548366885.61145,18496569.71344,   0.00001,   0.00345,   0.00010,477647680.00000,   0.00124,275993088.00000,  -0.00019,   0.00150,  -0.00014,-704.00000,   1.00000
279112267.86837,548319257.27154,18846729.22799,   0.00001,   0.00346,   0.00011,477668736.00000,   0.00125,275999360.00000,  -0.00019,   0.00150,  -0.00014,-992.00000,   1.00000
279619362.62660,548270181.98242,19195932.66364,   0.00001,   0.00346,   0.00011,477663200.00000,   0.00126,276005568.00000,  -0.00019,   0.00151,  -0.00014,-768.00000,   1.00000
280123888.73871,548219384.11356,19544237.47931,   0.00001,   0.00347,   0.00012,477657824.00000,   0.00126,276011744.00000,  -0.00019,   0.00152,  -0.00014,-960.00000,   1.00000
280625913.57959,548167326.59231,19891099.15128,   0.00002,   0.00347,   0.00012,477665120.00000,   0.00127,276017920.00000,  -0.00019,   0.00153,  -0.00013,-864.00000,   1.00000
281125444.89135,548113992.45492,20236562.41067,   0.00002,   0.00348,   0.00013,477672416.00000,   0.00127,276024128.00000,  -0.00019,   0.00153,  -0.00013,-928.00000,   1.00000
281622320.15617,548058486.26102,20585531.63732,   0.00002,   0.00348,   0.00014,477667392.00000,   0.00128,276030240.00000,  -0.00019,   0.00154,  -0.00013,-960.00000,   1.00000
282117087.49404,548002486.37018,20928948.41135,   0.00002,   0.00349,   0.00014,477673920.00000,   0.00128,276036384.00000,  -0.00019,   0.00155,  -0.00013,-864.00000,   1.00000
282609339.32290,547944493.73833,21275969.60499,   0.00003,   0.00350,   0.00015,477668672.00000,   0.00129,276042464.00000,  -0.00019,   0.00155,  -0.00013,-928.00000,   1.00000
283099243.34390,547885401.67292,21621723.12472,   0.00003,   0.00350,   0.00015,477675712.00000,   0.00130,276048576.00000,  -0.00019,   0.00156,  -0.00013,-928.00000,   1.00000
283586405.68871,547824322.18415,21970435.03095,   0.00003,   0.00351,   0.00016,477683584.00000,   0.00130,276054656.00000,  -0.00019,   0.00157,  -0.00013,-832.00000,   1.00000
284071734.56173,547762620.59300,22314343.42067,   0.00003,   0.00351,   0.00016,477677120.00000,   0.00131,276060704.00000,  -0.00019,   0.00157,  -0.00013,-800.00000,   1.00000
284542841.56566,547700102.09198,22657312.32201,   0.00004,   0.00352,   0.00017,477678336.00000,   0.00131,276066752.00000,  -0.00019,   0.00158,  -0.00013,-768.00000,   1.00000
285023532.31792,547635413.50129,23003624.72913,   0.00004,   0.00352,   0.00017,477678912.00000,   0.00132,276072736.00000,  -0.00019,   0.00159,  -0.00012,-672.00000,   1.00000
285501924.30287,547569654.43609,23348627.41389,   0.00004,   0.00353,   0.00018,477686016.00000,   0.00132,276078752.00000,  -0.00019,   0.00159,  -0.00012,-704.00000,   1.00000
285966312.15815,547502695.86946,23693333.84418,   0.00004,   0.00353,   0.00019,477674560.00000,   0.00133,276084704.00000,  -0.00019,   0.00160,  -0.00012,-512.00000,   1.00000
286440465.81550,547434667.01029,24036340.43117,   0.00005,   0.00354,   0.00019,477687392.00000,   0.00133,276090656.00000,  -0.00019,   0.00161,  -0.00012,-416.00000,   1.00000
286900354.45706,547365579.77859,24378245.49235,   0.00005,   0.00355,   0.00020,477689024.00000,   0.00134,276096608.00000,  -0.00019,   0.00161,  -0.00012,-448.00000,   1.00000
287369919.58447,547294367.66267,24723318.94507,   0.00005,   0.00355,   0.00020,477689792.00000,   0.00135,276102496.00000,  -0.00019,   0.00162,  -0.00012,-160.00000,   1.00000
287825867.19848,547222547.56797,25063758.11171,   0.00005,   0.00356,   0.00021,477677952.00000,   0.00135,276108352.00000,  -0.00019,   0.00163,  -0.00012,-416.00000,   1.00000
288279021.70414,547149275.22253,25406082.89777,   0.00006,   0.00356,   0.00021,477698848.00000,   0.00136,276114272.00000,  -0.00019,   0.00163,  -0.00012,-256.00000,   1.00000
288742765.31073,547074809.30118,25743826.63333,   0.00006,   0.00357,   0.00022,477685792.00000,   0.00136,276120096.00000,  -0.00019,   0.00164,  -0.00011,-192.00000,   1.00000
289191792.33041,546999105.78508,26083741.70223,   0.00006,   0.00357,   0.00023,477700960.00000,   0.00137,276125952.00000,  -0.00019,   0.00165,  -0.00011,  32.00000,   1.00000
289639203.86825,546921529.93875,26423661.02181,   0.00006,   0.00358,   0.00023,477682880.00000,   0.00137,276131712.00000,  -0.00019,   0.00165,  -0.00011,   0.00000,   1.00000
290084158.47555,546843277.09425,26761126.40962,   0.00007,   0.00358,   0.00024,477703232.00000,   0.00138,276137536.00000,  -0.00019,   0.00166,  -0.00011, 288.00000,   1.00000
290527260.47115,546763564.81078,27097817.88136,   0.00007,   0.00359,   0.00024,477697984.00000,   0.00138,276143296.00000,  -0.00019,   0.00167,  -0.00011, 256.00000,   1.00000
290968484.65689,546682281.24072,27433770.77857,   0.00007,   0.00359,   0.00025,477692768.00000,   0.00139,276149024.00000,  -0.00019,   0.00167,  -0.00011, 224.00000,   1.00000
291407216.03410,546599173.47176,27772373.65611,   0.00007,   0.00360,   0.00025,477700960.00000,   0.00139,276154752.00000,  -0.00019,   0.00168,  -0.00011, 320.00000,   1.00000
291832766.40975,546515768.60166,28106529.77674,   0.00007,   0.00360,   0.00026,477688896.00000,   0.00140,276160416.00000,  -0.00019,   0.00169,  -0.00011, 320.00000,   1.00000
292267578.81178,546430061.17982,28443000.91186,   0.00008,   0.00361,   0.00027,477703072.00000,   0.00140,276166080.00000,  -0.00019,   0.00169,  -0.00010, 352.00000,   1.00000
292700665.67306,546344170.37434,28773830.85105,   0.00008,   0.00361,   0.00027,477709664.00000,   0.00141,276171776.00000,  -0.00019,   0.00170,  -0.00010, 352.00000,   1.00000
293119910.97094,546256438.14532,29108831.79881,   0.00008,   0.00362,   0.00028,477698816.00000,   0.00141,276177408.00000,  -0.00019,   0.00171,  -0.00010, 512.00000,   1.00000
293549192.10409,546168103.89442,29437859.38577,   0.00008,   0.00362,   0.00028,477711328.00000,   0.00142,276183040.00000,  -0.00019,   0.00171,  -0.00010, 512.00000,   1.00000
293964623.19460,546077827.13350,29771176.89982,   0.00009,   0.00363,   0.00029,477700384.00000,   0.00143,276188640.00000,  -0.00019,   0.00172,  -0.00010, 448.00000,   1.00000
294390214.84113,545985925.83532,30103763.47119,   0.00009,   0.00363,   0.00029,477700416.00000,   0.00143,276194176.00000,  -0.00019,   0.00172,  -0.00010, 512.00000,   1.00000
294802022.48178,545893458.82600,30435593.45331,   0.00009,   0.00364,   0.00030,477701280.00000,   0.00144,276199712.00000,  -0.00019,   0.00173,  -0.00010, 416.00000,   1.00000
295212206.60419,545800911.15882,30762055.87349,   0.00009,   0.00364,   0.00031,477707328.00000,   0.00144,276205248.00000,  -0.00018,   0.00174,  -0.00009, 416.00000,   1.00000
295620412.43945,545706153.26483,31092560.06850,   0.00010,   0.00365,   0.00031,477701952.00000,   0.00145,276210752.00000,  -0.00018,   0.00174,  -0.00009, 288.00000,   1.00000
296038292.05404,545610095.02632,31421489.01401,   0.00010,   0.00365,   0.00032,477714624.00000,   0.00145,276216256.00000,  -0.00018,   0.00175,  -0.00009, 416.00000,   1.00000
296442915.55546,545513112.73616,31750764.25011,   0.00010,   0.00366,   0.00032,477702272.00000,   0.00146,276221696.00000,  -0.00018,   0.00176,  -0.00009, 416.00000,   1.00000
296833917.72996,545415751.83527,32079429.27203,   0.00010,   0.00366,   0.00033,477702592.00000,   0.00146,276227136.00000,  -0.00018,   0.00176,  -0.00009, 320.00000,   1.00000
297235137.38129,545316686.49438,32407549.05064,   0.00011,   0.00367,   0.00033,477702144.00000,   0.00147,276232544.00000,  -0.00018,   0.00177,  -0.00009, 224.00000,   1.00000
297634256.33661,545216517.96152,32734577.20181,   0.00011,   0.00367,   0.00034,477708672.00000,   0.00147,276237952.00000,  -0.00018,   0.00177,  -0.00008, -32.00000,   1.00000
298032082.92663,545115398.64936,33061570.55634,   0.00011,   0.00368,   0.00035,477701760.00000,   0.00148,276243296.00000,  -0.00018,   0.00178,  -0.00008,   0.00000,   1.00000
298416883.17320,545013494.10112,33389003.16435,   0.00011,   0.00368,   0.00035,477688928.00000,   0.00148,276248608.00000,  -0.00018,   0.00179,  -0.00008, -64.00000,   1.00000
298811316.12650,544910153.38583,33714855.59112,   0.00012,   0.00369,   0.00036,477701248.00000,   0.00149,276253920.00000,  -0.00018,   0.00179,  -0.00008,   0.00000,   1.00000
299192272.08807,544806612.69934,34040123.17712,   0.00012,   0.00369,   0.00036,477701088.00000,   0.00149,276259200.00000,  -0.00018,   0.00180,  -0.00008, -64.00000,   1.00000
299571908.45125,544701812.28530,34365344.76472,   0.00012,   0.00370,   0.00037,477694240.00000,   0.00150,276264448.00000,  -0.00018,   0.00180,  -0.00008, -96.00000,   1.00000
299961198.95451,544595634.21212,34688947.19025,   0.00012,   0.00370,   0.00038,477706400.00000,   0.00150,276269728.00000,  -0.00018,   0.00181,  -0.00008, -96.00000,   1.00000
300337671.78764,544488843.02552,35013019.93578,   0.00012,   0.00371,   0.00038,477693280.00000,   0.00151,276274944.00000,  -0.00018,   0.00182,  -0.00007,-128.00000,   1.00000
300712850.91665,544380705.53632,35337040.91679,   0.00013,   0.00371,   0.00039,477686432.00000,   0.00151,276280096.00000,  -0.00018,   0.00182,  -0.00007,-256.00000,   1.00000
301086236.28042,544271882.56853,35659938.66144,   0.00013,   0.00372,   0.00039,477692192.00000,   0.00152,276285248.00000,  -0.00018,   0.00183,  -0.00007,-320.00000,   1.00000
301457747.94791,544162197.84977,35981688.50757,   0.00013,   0.00372,   0.00040,477698112.00000,   0.00152,276290432.00000,  -0.00018,   0.00183,  -0.00007,-224.00000,   1.00000
301828091.64323,544051292.02238,36303396.76645,   0.00013,   0.00372,   0.00040,477691136.00000,   0.00152,276295552.00000,  -0.00018,   0.00184,  -0.00007,-384.00000,   1.00000
302186379.20303,543940928.90703,36621447.65181,   0.00014,   0.00373,   0.00041,477676864.00000,   0.00153,276300608.00000,  -0.00018,   0.00184,  -0.00007,-480.00000,   1.00000
302553861.76970,543828091.70242,36941985.15306,   0.00014,   0.00373,   0.00042,477689824.00000,   0.00153,276305664.00000,  -0.00018,   0.00185,  -0.00006,-352.00000,   1.00000
302908745.02807,543714564.10291,37263048.32229,   0.00014,   0.00374,   0.00042,477676608.00000,   0.00154,276310688.00000,  -0.00018,   0.00186,  -0.00006,-608.00000,   1.00000
303273994.82362,543600930.47658,37578243.89446,   0.00014,   0.00374,   0.00043,477687456.00000,   0.00154,276315712.00000,  -0.00018,   0.00186,  -0.00006,-480.00000,   1.00000
303626156.58714,543485482.88229,37898175.11167,   0.00015,   0.00375,   0.00043,477675232.00000,   0.00155,276320672.00000,  -0.00018,   0.00187,  -0.00006,-448.00000,   1.00000
303977204.03237,543370455.59544,38212793.16759,   0.00015,   0.00375,   0.00044,477679904.00000,   0.00155,276325632.00000,  -0.00018,   0.00187,  -0.00006,-608.00000,   1.00000
304326730.76208,543253046.75396,38531614.93280,   0.00015,   0.00376,   0.00044,477673824.00000,   0.00156,276330560.00000,  -0.00018,   0.00188,  -0.00006,-576.00000,   1.00000
304675913.50054,543135581.32669,38846321.63214,   0.00015,   0.00376,   0.00045,477665664.00000,   0.00156,276335456.00000,  -0.00017,   0.00188,  -0.00005,-704.00000,   1.00000
305023420.75514,543017319.02769,39159902.51842,   0.00015,   0.00376,   0.00046,477671392.00000,   0.00157,276340320.00000,  -0.00017,   0.00189,  -0.00005,-704.00000,   1.00000
305369391.65910,542898525.62041,39472382.79299,   0.00016,   0.00377,   0.00046,477676864.00000,   0.00157,276345216.00000,  -0.00017,   0.00189,  -0.00005,-704.00000,   1.00000
305714443.58371,542778383.48120,39784957.39771,   0.00016,   0.00377,   0.00047,477669856.00000,   0.00158,276350048.00000,  -0.00017,   0.00190,  -0.00005,-768.00000,   1.00000
306047363.16051,542657866.15102,40098276.03245,   0.00016,   0.00378,   0.00047,477656256.00000,   0.00158,276354816.00000,  -0.00017,   0.00190,  -0.00005,-800.00000,   1.00000
306390060.13993,542535867.02681,40409892.35437,   0.00016,   0.00378,   0.00048,477668192.00000,   0.00158,276359616.00000,  -0.00017,   0.00191,  -0.00005,-800.00000,   1.00000
306720652.26015,542413443.14725,40722295.69302,   0.00017,   0.00378,   0.00048,477654624.00000,   0.00159,276364320.00000,  -0.00017,   0.00191,  -0.00004,-768.00000,   1.00000
307062461.81368,542290271.67632,41030113.42212,   0.00017,   0.00379,   0.00049,477652608.00000,   0.00159,276369024.00000,  -0.00017,   0.00192,  -0.00004,-800.00000,   1.00000
307390739.68930,542165871.98977,41341658.47066,   0.00017,   0.00379,   0.00050,477652928.00000,   0.00160,276373728.00000,  -0.00017,   0.00193,  -0.00004,-800.00000,   1.00000
307718218.33480,542042218.71675,41648024.39094,   0.00017,   0.00380,   0.00050,477657184.00000,   0.00160,276378400.00000,  -0.00017,   0.00193,  -0.00004,-704.00000,   1.00000
308045025.75668,541917361.27914,41954647.22766,   0.00018,   0.00380,   0.00051,477649888.00000,   0.00161,276383040.00000,  -0.00017,   0.00194,  -0.00004,-768.00000,   1.00000
308371093.59555,541791125.51645,42261532.14626,   0.00018,   0.00380,   0.00051,477642720.00000,   0.00161,276387648.00000,  -0.00017,   0.00194,  -0.00004,-960.00000,   1.00000
308696608.13508,541663844.40032,42568729.69058,   0.00018,   0.00381,   0.00052,477635232.00000,   0.00162,276392192.00000,  -0.00017,   0.00195,  -0.00003,-800.00000,   1.00000
309009371.10008,541536706.60914,42875591.42652,   0.00018,   0.00381,   0.00052,477634208.00000,   0.00162,276396704.00000,  -0.00017,   0.00195,  -0.00003,-864.00000,   1.00000
309331972.14454,541408143.29991,43180807.07946,   0.00018,   0.00382,   0.00053,477645920.00000,   0.00162,276401280.00000,  -0.00017,   0.00196,  -0.00003,-768.00000,   1.00000
309643391.48945,541280506.17373,43482901.53645,   0.00019,   0.00382,   0.00054,477630976.00000,   0.00163,276405760.00000,  -0.00017,   0.00196,  -0.00003,-896.00000,   1.00000
309965467.40260,541150745.68545,43784693.10778,   0.00019,   0.00382,   0.00054,477630016.00000,   0.00163,276410208.00000,  -0.00017,   0.00197,  -0.00003,-896.00000,   1.00000
310275095.24689,541019326.96343,44091696.57939,   0.00019,   0.00383,   0.00055,477617248.00000,   0.00164,276414624.00000,  -0.00017,   0.00197,  -0.00003,-960.00000,   1.00000
310584661.26575,540889936.10292,44389480.74272,   0.00019,   0.00383,   0.00055,477620128.00000,   0.00164,276419008.00000,  -0.00017,   0.00198,  -0.00002,-992.00000,   1.00000
310892744.71550,540759787.91469,44690584.21973,   0.00019,   0.00383,   0.00056,477626496.00000,   0.00164,276423392.00000,  -0.00017,   0.00198,  -0.00002,  64.00000,   2.00000
311200059.52299,540625484.52199,44993273.47221,   0.00020,   0.00384,   0.00056,477607264.00000,   0.00165,276427712.00000,  -0.00016,   0.00199,  -0.00002,-928.00000,   1.00000
311506350.42401,540493726.10234,45289642.66225,   0.00020,   0.00384,   0.00057,477622880.00000,   0.00165,276432064.00000,  -0.00016,   0.00199,  -0.00002,-960.00000,   1.00000
311802538.84178,540362201.09948,45588698.48725,   0.00020,   0.00385,   0.00057,477596096.00000,   0.00166,276436288.00000,  -0.00016,   0.00199,  -0.00002,   0.00000,   2.00000
312107359.22002,540226877.88742,45885913.94480,   0.00020,   0.00385,   0.00058,477608640.00000,   0.00166,276440576.00000,  -0.00016,   0.00200,  -0.00002,-992.00000,   1.00000
312412862.39484,540092506.47823,46183843.41405,   0.00021,   0.00385,   0.00059,477600128.00000,   0.00166,276444768.00000,  -0.00016,   0.00200,  -0.00001, -64.00000,   2.00000
312705309.51359,539957428.74668,46481495.88611,   0.00021,   0.00386,   0.00059,477599584.00000,   0.00167,276448960.00000,  -0.00016,   0.00201,  -0.00001,  96.00000,   2.00000
312998073.45122,539822461.54973,46775549.24324,   0.00021,   0.00386,   0.00060,477590688.00000,   0.00167,276453120.00000,  -0.00016,   0.00201,  -0.00001,  64.00000,   2.00000
313290431.72099,539686166.96150,47070143.26245,   0.00021,   0.00386,   0.00060,477583008.00000,   0.00168,276457216.00000,  -0.00016,   0.00202,  -0.00001,-128.00000,   2.00000
313581552.11233,539549462.72713,47363876.71583,   0.00021,   0.00387,   0.00061,477587808.00000,   0.00168,276461344.00000,  -0.00016,   0.00202,  -0.00001, -96.00000,   2.00000
313873063.37907,539412906.83836,47654061.70913,   0.00022,   0.00387,   0.00061,477578880.00000,   0.00168,276465408.00000,  -0.00016,   0.00203,  -0.00001,  96.00000,   2.00000
314163400.68543,539273446.44672,47948929.47027,   0.00022,   0.00387,   0.00062,477572480.00000,   0.00169,276469408.00000,  -0.00016,   0.00203,  -0.00000, -32.00000,   2.00000
314453402.24869,539135277.60229,48238856.99750,   0.00022,   0.00388,   0.00062,477575968.00000,   0.00169,276473440.00000,  -0.00016,   0.00204,  -0.00000, 256.00000,   2.00000
314731874.45983,538996499.53263,48530126.61721,   0.00022,   0.00388,   0.00063,477561824.00000,   0.00169,276477376.00000,  -0.00016,   0.00204,  -0.00000,  96.00000,   2.00000
315020853.19151,538857510.67179,48815650.48808,   0.00022,   0.00388,   0.00063,477571776.00000,   0.00170,276481344.00000,  -0.00016,   0.00204,   0.00000, 160.00000,   2.00000
315298809.72935,538716117.51399,49108191.78956,   0.00023,   0.00388,   0.00064,477545888.00000,   0.00170,276485216.00000,  -0.00016,   0.00205,   0.00000, -64.00000,   2.00000
315576297.24580,538575625.87057,49395779.47987,   0.00023,   0.00389,   0.00065,477549344.00000,   0.00171,276489088.00000,  -0.00016,   0.00205,   0.00000, -64.00000,   2.00000
315863650.97897,538433685.06994,49681753.47746,   0.00023,   0.00389,   0.00065,477560480.00000,   0.00171,276492960.00000,  -0.00016,   0.00206,   0.00001,  32.00000,   2.00000
316140553.38651,538292955.34712,49965089.28856,   0.00023,   0.00389,   0.00066,477544672.00000,   0.00171,276496768.00000,  -0.00016,   0.00206,   0.00001,  64.00000,   2.00000
316405384.57491,538150238.99260,50253997.36116,   0.00023,   0.00390,   0.00066,477531392.00000,   0.00172,276500544.00000,  -0.00016,   0.00207,   0.00001, -64.00000,   2.00000
316682032.30989,538006931.38343,50538732.88203,   0.00024,   0.00390,   0.00067,477528512.00000,   0.00172,276504256.00000,  -0.00016,   0.00207,   0.00001, 128.00000,   2.00000
316958208.26476,537864426.43623,50818538.28229,   0.00024,   0.00390,   0.00067,477531872.00000,   0.00172,276507968.00000,  -0.00015,   0.00207,   0.00001, -32.00000,   2.00000
317233498.27648,537719125.94276,51103182.13066,   0.00024,   0.00391,   0.00068,477525120.00000,   0.00173,276511680.00000,  -0.00015,   0.00208,   0.00001,   0.00000,   2.00000
317498480.84349,537574981.95519,51385286.01110,   0.00024,   0.00391,   0.00068,477509088.00000,   0.00173,276515296.00000,  -0.00015,   0.00208,   0.00002,   0.00000,   2.00000
317763187.03890,537431891.90560,51662512.45600,   0.00024,   0.00391,   0.00069,477511968.00000,   0.00173,276518880.00000,  -0.00015,   0.00209,   0.00002,-128.00000,   2.00000
318038099.42137,537285020.12757,51943802.75803,   0.00025,   0.00391,   0.00069,477511872.00000,   0.00174,276522496.00000,  -0.00015,   0.00209,   0.00002,  96.00000,   2.00000
318302722.33716,537139184.01420,52222603.89291,   0.00025,   0.00392,   0.00070,477495680.00000,   0.00174,276526016.00000,  -0.00015,   0.00209,   0.00002,   0.00000,   2.00000
318566284.40369,536992866.90037,52500638.01365,   0.00025,   0.00392,   0.00070,477500000.00000,   0.00174,276529536.00000,  -0.00015,   0.00210,   0.00002, 128.00000,   2.00000
318819763.83517,536847820.83586,52776259.79518,   0.00025,   0.00392,   0.00071,477483584.00000,   0.00175,276532992.00000,  -0.00015,   0.00210,   0.00002, -96.00000,   2.00000
319084353.10972,536700523.26785,53051903.58260,   0.00025,   0.00392,   0.00071,477481920.00000,   0.00175,276536416.00000,  -0.00015,   0.00210,   0.00002,  32.00000,   2.00000
319348884.75507,536551622.30806,53328383.31948,   0.00026,   0.00393,   0.00072,477473856.00000,   0.00175,276539808.00000,  -0.00015,   0.00211,   0.00003, -96.00000,   2.00000
319601588.44886,536403529.63203,53605010.45396,   0.00026,   0.00393,   0.00072,477471168.00000,   0.00176,276543200.00000,  -0.00015,   0.00211,   0.00003,  32.00000,   2.00000
319866015.91790,536254251.75826,53877548.26589,   0.00026,   0.00393,   0.00073,477468224.00000,   0.00176,276546528.00000,  -0.00015,   0.00212,   0.00003, -64.00000,   2.00000
320120594.88702,536106428.51494,54147814.45360,   0.00026,   0.00393,   0.00073,477451552.00000,   0.00176,276549792.00000,  -0.00015,   0.00212,   0.00003, -32.00000,   2.00000
320373459.80044,535956722.24024,54421476.19529,   0.00026,   0.00394,   0.00074,477456992.00000,   0.00177,276553088.00000,  -0.00015,   0.00212,   0.00003, 128.00000,   2.00000
320627257.80761,535807031.12713,54691983.76399,   0.00027,   0.00394,   0.00074,477447296.00000,   0.00177,276556320.00000,  -0.00015,   0.00213,   0.00003, 128.00000,   2.00000
320882024.69188,535657380.30207,54959366.63634,   0.00027,   0.00394,   0.00075,477437216.00000,   0.00177,276559488.00000,  -0.00015,   0.00213,   0.00004,   0.00000,   2.00000
321137087.34079,535506479.82339,55227758.30061,   0.00027,   0.00394,   0.00075,477428512.00000,   0.00177,276562656.00000,  -0.00015,   0.00213,   0.00004,   0.00000,   2.00000
321391272.79564,535355188.64392,55495491.60811,   0.00027,   0.00395,   0.00076,477432352.00000,   0.00178,276565792.00000,  -0.00015,   0.00214,   0.00004,  64.00000,   2.00000
321645588.18422,535202280.80457,55764216.04008,   0.00027,   0.00395,   0.00076,477423872.00000,   0.00178,276568896.00000,  -0.00015,   0.00214,   0.00004, -96.00000,   2.00000
321890260.64373,535050839.46700,56030832.92510,   0.00028,   0.00395,   0.00077,477406880.00000,   0.00178,276571904.00000,  -0.00014,   0.00214,   0.00004, -96.00000,   2.00000
322145871.17532,534899581.99703,56291850.59916,   0.00028,   0.00395,   0.00077,477415968.00000,   0.00179,276574976.00000,  -0.00014,   0.00215,   0.00004,  64.00000,   2.00000
322391100.10086,534745216.91024,56560604.95540,   0.00028,   0.00395,   0.00078,477389408.00000,   0.00179,276577888.00000,  -0.00014,   0.00215,   0.00004, 128.00000,   2.00000
322637286.98586,534593719.34763,56820619.94685,   0.00028,   0.00396,   0.00078,477390080.00000,   0.00179,276580832.00000,  -0.00014,   0.00215,   0.00005,  64.00000,   2.00000
322882879.68944,534439066.65699,57085802.27093,   0.00028,   0.00396,   0.00079,477382784.00000,   0.00179,276583744.00000,  -0.00014,   0.00216,   0.00005, -64.00000,   2.00000
323128569.06880,534285670.80185,57346329.45893,   0.00029,   0.00396,   0.00079,477384736.00000,   0.00180,276586624.00000,  -0.00014,   0.00216,   0.00005, -64.00000,   2.00000
323375604.17530,534132632.85176,57603960.97336,   0.00029,   0.00396,   0.00080,477374240.00000,   0.00180,276589472.00000,  -0.00014,   0.00216,   0.00005,  96.00000,   2.00000
323621977.97824,533976239.98808,57866781.62267,   0.00029,   0.00396,   0.00080,477366944.00000,   0.00180,276592256.00000,  -0.00014,   0.00216,   0.00005, -32.00000,   2.00000
323870696.97998,533821969.40696,58122698.73625,   0.00029,   0.00397,   0.00081,477354848.00000,   0.00180,276595008.00000,  -0.00014,   0.00217,   0.00005,  96.00000,   2.00000
324108894.03004,533667144.15260,58380741.26462,   0.00029,   0.00397,   0.00081,477339168.00000,   0.00181,276597696.00000,  -0.00014,   0.00217,   0.00005,   0.00000,   2.00000
324357187.18327,533510871.62096,58637297.70998,   0.00030,   0.00397,   0.00082,477349216.00000,   0.00181,276600416.00000,  -0.00014,   0.00217,   0.00006, -32.00000,   2.00000
324595099.70647,533354240.29224,58896037.26720,   0.00030,   0.00397,   0.00082,477333248.00000,   0.00181,276603040.00000,  -0.00014,   0.00218,   0.00006,  96.00000,   2.00000
324835267.78210,533199403.12046,59147912.52779,   0.00030,   0.00397,   0.00083,477321088.00000,   0.00181,276605632.00000,  -0.00014,   0.00218,   0.00006, -64.00000,   2.00000
325074987.81803,533041405.28860,59405106.24581,   0.00030,   0.00397,   0.00083,477313280.00000,   0.00182,276608192.00000,  -0.00014,   0.00218,   0.00006, -64.00000,   2.00000
325314958.00205,532884792.01312,59657755.07746,   0.00030,   0.00397,   0.00084,477314880.00000,   0.00182,276610752.00000,  -0.00014,   0.00218,   0.00006, -32.00000,   2.00000
325557569.23837,532727276.98091,59909449.84293,   0.00030,   0.00398,   0.00084,477291648.00000,   0.00182,276613184.00000,  -0.00014,   0.00219,   0.00006, -64.00000,   2.00000
325799419.12527,532569282.82565,60160648.91967,   0.00031,   0.00398,   0.00085,477294816.00000,   0.00182,276615648.00000,  -0.00014,   0.00219,   0.00006,  64.00000,   2.00000
326040524.43579,532410844.56110,60411357.67865,   0.00031,   0.00398,   0.00085,477297856.00000,   0.00183,276618112.00000,  -0.00014,   0.00219,   0.00006,   0.00000,   2.00000
326284339.26013,532251504.52505,60661181.73991,   0.00031,   0.00398,   0.00085,477274464.00000,   0.00183,276620480.00000,  -0.00014,   0.00220,   0.00007,  32.00000,   2.00000
326517734.77967,532094787.30359,60907520.84804,   0.00031,   0.00398,   0.00086,477268960.00000,   0.00183,276622816.00000,  -0.00014,   0.00220,   0.00007,  96.00000,   2.00000
326763549.54588,531934024.21094,61156033.83491,   0.00031,   0.00398,   0.00086,477253920.00000,   0.00183,276625088.00000,  -0.00014,   0.00220,   0.00007,   0.00000,   2.00000
326997935.39294,531774022.31571,61405105.39717,   0.00032,   0.00398,   0.00087,477249984.00000,   0.00184,276627328.00000,  -0.00014,   0.00220,   0.00007,  32.00000,   2.00000
327233913.48268,531614299.06458,61651556.16367,   0.00032,   0.00399,   0.00087,477238624.00000,   0.00184,276629536.00000,  -0.00014,   0.00220,   0.00007,  96.00000,   2.00000
327470140.54160,531455832.54306,61893531.71706,   0.00032,   0.00399,   0.00088,477239904.00000,   0.00184,276631744.00000,  -0.00013,   0.00221,   0.00007, -64.00000,   2.00000
327708190.88693,531294577.19245,62138787.23352,   0.00032,   0.00399,   0.00088,477217824.00000,   0.00184,276633856.00000,  -0.00013,   0.00221,   0.00007, -64.00000,   2.00000
327946675.34753,531134887.89445,62379627.11562,   0.00032,   0.00399,   0.00089,477218880.00000,   0.00184,276635968.00000,  -0.00013,   0.00221,   0.00007, 128.00000,   2.00000
328185661.98080,530973421.81791,62621899.60906,   0.00032,   0.00399,   0.00089,477209312.00000,   0.00185,276638016.00000,  -0.00013,   0.00221,   0.00008,  32.00000,   2.00000
328425160.36862,530810170.48754,62865615.20110,   0.00033,   0.00399,   0.00089,477199584.00000,   0.00185,276640032.00000,  -0.00013,   0.00222,   0.00008, -64.00000,   2.00000
328666188.69827,530650421.66875,63100934.29592,   0.00033,   0.00399,   0.00090,477198656.00000,   0.00185,276642048.00000,  -0.00013,   0.00222,   0.00008,  32.00000,   2.00000
328897330.28687,530487026.12630,63344674.26611,   0.00033,   0.00399,   0.00090,477171456.00000,   0.00185,276643968.00000,  -0.00013,   0.00222,   0.00008,  32.00000,   2.00000
329140527.59756,530325619.04611,63578945.04087,   0.00033,   0.00399,   0.00091,477177600.00000,   0.00185,276645888.00000,  -0.00013,   0.00222,   0.00008, -32.00000,   2.00000
329373718.34464,530163786.47274,63815797.34714,   0.00033,   0.00399,   0.00091,477160544.00000,   0.00185,276647744.00000,  -0.00013,   0.00222,   0.00008,   0.00000,   2.00000
329607544.12778,530000234.02050,64054178.02047,   0.00033,   0.00399,   0.00091,477150624.00000,   0.00186,276649536.00000,  -0.00013,   0.00223,   0.00008, -32.00000,   2.00000
329853618.45715,529835445.09818,64289005.31397,   0.00034,   0.00400,   0.00092,477145952.00000,   0.00186,276651328.00000,  -0.00013,   0.00223,   0.00008, -64.00000,   2.00000
330090950.56898,529672365.18032,64522502.21116,   0.00034,   0.00400,   0.00092,477127232.00000,   0.00186,276653024.00000,  -0.00013,   0.00223,   0.00008,  96.00000,   2.00000
330327544.54207,529508640.10803,64755619.83386,   0.00034,   0.00400,   0.00093,477129728.00000,   0.00186,276654752.00000,  -0.00013,   0.00223,   0.00008, 128.00000,   2.00000
330567169.05069,529343731.43670,64988243.04747,   0.00034,   0.00400,   0.00093,477105568.00000,   0.00186,276656384.00000,  -0.00013,   0.00223,   0.00009, -96.00000,   2.00000
330806102.27796,529178239.90167,65220509.21984,   0.00034,   0.00400,   0.00093,477107616.00000,   0.00186,276657984.00000,  -0.00013,   0.00224,   0.00009, -32.00000,   2.00000
331046876.86985,529013004.28677,65450401.85439,   0.00034,   0.00400,   0.00094,477095744.00000,   0.00187,276659584.00000,  -0.00013,   0.00224,   0.00009,-128.00000,   2.00000
331277782.80287,528847270.56056,65683013.72690,   0.00035,   0.00400,   0.00094,477078624.00000,   0.00187,276661088.00000,  -0.00013,   0.00224,   0.00009, -32.00000,   2.00000
331521027.51919,528680292.60903,65912150.35854,   0.00035,   0.00400,   0.00095,477073568.00000,   0.00187,276662560.00000,  -0.00013,   0.00224,   0.00009, -32.00000,   2.00000
331764779.09744,528514806.42099,66136985.16605,   0.00035,   0.00400,   0.00095,477073856.00000,   0.00187,276664032.00000,  -0.00013,   0.00224,   0.00009,   0.00000,   2.00000
331999952.26982,528347289.23374,66366534.05895,   0.00035,   0.00400,   0.00095,477044384.00000,   0.00187,276665408.00000,  -0.00013,   0.00224,   0.00009, -32.00000,   2.00000
332246261.34818,528180057.99346,66590693.79668,   0.00035,   0.00400,   0.00096,477051456.00000,   0.00187,276666784.00000,  -0.00013,   0.00224,   0.00009,   0.00000,   2.00000
332483913.39355,528014265.28381,66813679.58856,   0.00036,   0.00400,   0.00096,477032384.00000,   0.00187,276668096.00000,  -0.00013,   0.00225,   0.00009,  64.00000,   2.00000
332722182.77852,527846341.87421,67038322.04946,   0.00036,   0.00400,   0.00096,477022048.00000,   0.00187,276669376.00000,  -0.00013,   0.00225,   0.00009, -64.00000,   2.00000
332962457.35145,527678683.29293,67260718.83022,   0.00036,   0.00400,   0.00097,477009664.00000,   0.00188,276670592.00000,  -0.00013,   0.00225,   0.00009,   0.00000,   2.00000
333215156.81499,527509778.36879,67479719.34276,   0.00036,   0.00400,   0.00097,477004480.00000,   0.00188,276671808.00000,  -0.00013,   0.00225,   0.00009, 160.00000,   2.00000
333456648.54159,527341472.70326,67699557.63914,   0.00036,   0.00400,   0.00098,476999328.00000,   0.00188,276672992.00000,  -0.00013,   0.00225,   0.00010,  32.00000,   2.00000
333699743.35432,527168842.70062,67922999.27275,   0.00036,   0.00400,   0.00098,476976384.00000,   0.00188,276674080.00000,  -0.00013,   0.00225,   0.00010,-992.00000,   1.00000
333945158.46967,527000699.45137,68138390.09421,   0.00037,   0.00400,   0.00098,476973504.00000,   0.00188,276675168.00000,  -0.00013,   0.00225,   0.00010,-864.00000,   1.00000
334181007.41088,526832092.33520,68356730.93443,   0.00037,   0.00400,   0.00099,476955744.00000,   0.00188,276676160.00000,  -0.00013,   0.00225,   0.00010,-896.00000,   1.00000
334430528.17612,526660419.18322,68573704.37126,   0.00037,   0.00400,   0.00099,476938304.00000,   0.00188,276677120.00000,  -0.00013,   0.00226,   0.00010,-992.00000,   1.00000
334679690.59519,526488527.71286,68790486.60848,   0.00037,   0.00400,   0.00099,476939552.00000,   0.00188,276678048.00000,  -0.00013,   0.00226,   0.00010,-768.00000,   1.00000
334929289.47184,526317791.67390,69003017.99375,   0.00037,   0.00400,   0.00100,476939520.00000,   0.00188,276679008.00000,  -0.00013,   0.00226,   0.00010,-960.00000,   1.00000
335171993.70854,526147152.35023,69216657.45540,   0.00037,   0.00400,   0.00100,476907520.00000,   0.00188,276679840.00000,  -0.00013,   0.00226,   0.00010,-800.00000,   1.00000
335426006.00066,525973098.32272,69430941.85921,   0.00038,   0.00400,   0.00100,476903776.00000,   0.00189,276680640.00000,  -0.00013,   0.00226,   0.00010,-768.00000,   1.00000
335670143.45576,525801703.65288,69642211.79081,   0.00038,   0.00400,   0.00101,476896416.00000,   0.00189,276681408.00000,  -0.00013,   0.00226,   0.00010,-704.00000,   1.00000
335928211.77791,525627433.24437,69852251.67235,   0.00038,   0.00400,   0.00101,476878528.00000,   0.00189,276682112.00000,  -0.00013,   0.00226,   0.00010,-608.00000,   1.00000
336175427.90531,525454083.65383,70063304.58496,   0.00038,   0.00400,   0.00101,476872640.00000,   0.00189,276682816.00000,  -0.00013,   0.00226,   0.00010,-704.00000,   1.00000
336436287.82356,525281240.26435,70267107.42757,   0.00038,   0.00400,   0.00102,476865184.00000,   0.00189,276683456.00000,  -0.00012,   0.00226,   0.00010,-576.00000,   1.00000
336686527.10104,525105690.04903,70477967.98363,   0.00038,   0.00400,   0.00102,476848928.00000,   0.00189,276684064.00000,  -0.00012,   0.00226,   0.00010,-512.00000,   1.00000
336940043.98860,524931997.42877,70682811.28206,   0.00038,   0.00399,   0.00102,476834304.00000,   0.00189,276684608.00000,  -0.00012,   0.00226,   0.00010,-512.00000,   1.00000
337204941.10531,524754851.42129,70888362.58704,   0.00039,   0.00399,   0.00102,476830272.00000,   0.00189,276685120.00000,  -0.00012,   0.00226,   0.00010,-352.00000,   1.00000
337461566.25076,524578868.71915,71093092.46528,   0.00039,   0.00399,   0.00103,476810336.00000,   0.00189,276685568.00000,  -0.00012,   0.00226,   0.00010,-480.00000,   1.00000
337720433.52809,524402851.31764,71295828.10741,   0.00039,   0.00399,   0.00103,476797248.00000,   0.00189,276685984.00000,  -0.00012,   0.00226,   0.00010,-352.00000,   1.00000
337978830.69971,524226210.59560,71498401.25825,   0.00039,   0.00399,   0.00103,476798272.00000,   0.00189,276686400.00000,  -0.00012,   0.00226,   0.00010,-416.00000,   1.00000
338240976.41049,524047952.48076,71701121.53098,   0.00039,   0.00399,   0.00104,476772960.00000,   0.00189,276686688.00000,  -0.00012,   0.00227,   0.00010,-288.00000,   1.00000
338503848.71496,523871062.43393,71899740.56380,   0.00039,   0.00399,   0.00104,476772032.00000,   0.00189,276687008.00000,  -0.00012,   0.00227,   0.00010,-256.00000,   1.00000
338769028.47777,523694102.71673,72096415.19093,   0.00040,   0.00399,   0.00104,476758816.00000,   0.00189,276687264.00000,  -0.00012,   0.00227,   0.00010,-224.00000,   1.00000
339036669.81771,523513167.22243,72297197.26825,   0.00040,   0.00399,   0.00104,476735456.00000,   0.00189,276687424.00000,  -0.00012,   0.00227,   0.00010,-256.00000,   1.00000
339305149.83721,523333723.78203,72493921.99522,   0.00040,   0.00399,   0.00105,476734272.00000,   0.00189,276687616.00000,  -0.00012,   0.00227,   0.00010,-224.00000,   1.00000
339575910.32902,523154040.58483,72688719.63358,   0.00040,   0.00398,   0.00105,476721056.00000,   0.00189,276687712.00000,  -0.00012,   0.00227,   0.00010,-160.00000,   1.00000
339849074.75557,522974282.57310,72881631.73562,   0.00040,   0.00398,   0.00105,476707584.00000,   0.00189,276687808.00000,  -0.00012,   0.00227,   0.00010, -96.00000,   1.00000
340123286.29417,522792127.34777,73076566.87192,   0.00040,   0.00398,   0.00105,476696224.00000,   0.00189,276687840.00000,  -0.00012,   0.00227,   0.00010,   0.00000,   1.00000
340398368.70171,522611446.19127,73267466.97112,   0.00041,   0.00398,   0.00106,476694912.00000,   0.00189,276687840.00000,  -0.00012,   0.00227,   0.00010, -64.00000,   1.00000
340650309.49989,522402207.22329,73455355.02400,   0.00041,   0.00398,   0.00106,476661984.00000,   0.00189,276687840.00000,  -0.00012,   0.00227,   0.00010,-25856.00000,   0.00000
340910790.66412,522184427.88927,73643243.07688,   0.00041,   0.00398,   0.00106,476631872.00000,   0.00189,276687840.00000,  -0.00012,   0.00227,   0.00010,-55968.00000,   0.00000
341171271.82834,521966648.55524,73822590.76372,   0.00041,   0.00398,   0.00106,476598400.00000,   0.00189,276687840.00000,  -0.00012,   0.00227,   0.00010,-89440.00000,   0.00000
341418942.44350,521718977.94008,74001938.45057,   0.00041,   0.00397,   0.00107,476541344.00000,   0.00189,276687840.00000,  -0.00012,   0.00227,   0.00010,-146496.00000,   0.00000
341666613.05867,521471307.32492,74177015.95439,   0.00041,   0.00397,   0.00107,476482976.00000,   0.00189,276687840.00000,  -0.00012,   0.00227,   0.00010,-204864.00000,   0.00000
341892932.75873,521202285.79466,74347823.27519,   0.00042,   0.00397,   0.00107,476403680.00000,   0.00189,276687840.00000,  -0.00012,   0.00227,   0.00010,-284160.00000,   0.00000
342127792.82483,520924723.89835,74518630.59599,   0.00042,   0.00397,   0.00107,476320160.00000,   0.00189,276687840.00000,  -0.00012,   0.00227,   0.00010,-367680.00000,   0.00000
342349842.34187,520617270.72091,74685167.73377,   0.00042,   0.00397,   0.00108,476211200.00000,   0.00189,276687840.00000,  -0.00012,   0.00227,   0.00010,-476640.00000,   0.00000
342556946.21834,520303412.26894,74843164.50551,   0.00042,   0.00397,   0.00108,476091360.00000,   0.00189,276687840.00000,  -0.00012,   0.00227,   0.00010,-596480.00000,   0.00000
342772590.46086,519981013.45092,75005431.46028,   0.00042,   0.00396,   0.00108,475969408.00000,   0.00189,276687840.00000,  -0.00012,   0.00227,   0.00010,-718432.00000,   0.00000
342981829.42884,519643668.99234,75159158.04900,   0.00042,   0.00396,   0.00108,475832032.00000,   0.00189,276687840.00000,  -0.00012,   0.00227,   0.00010,-855808.00000,   0.00000
343191068.39682,519306324.53376,75308614.45470,   0.00042,   0.00396,   0.00108,475693120.00000,   0.00189,276687840.00000,  -0.00012,   0.00227,   0.00010,-994720.00000,   0.00000
343372551.17517,518932683.51950,75458070.86040,   0.00043,   0.00396,   0.00109,475523360.00000,   0.00189,276687840.00000,  -0.00012,   0.00227,   0.00010,-1164480.00000,   0.00000
343562574.31956,518550502.13921,75603257.08308,   0.00043,   0.00396,   0.00109,475347456.00000,   0.00189,276687840.00000,  -0.00012,   0.00227,   0.00010,-1340384.00000,   0.00000
343746192.18943,518153375.11835,75744173.12274,   0.00043,   0.00395,   0.00109,475158272.00000,   0.00189,276687840.00000,  -0.00012,   0.00227,   0.00010,-1529568.00000,   0.00000
343929810.05929,517756248.09748,75880818.97939,   0.00043,   0.00395,   0.00109,474967424.00000,   0.00189,276687840.00000,  -0.00012,   0.00227,   0.00010,-1720416.00000,   0.00000
344100617.38009,517329229.79548,76017464.83603,   0.00043,   0.00395,   0.00109,474753184.00000,   0.00189,276687840.00000,  -0.00012,   0.00227,   0.00010,-1934656.00000,   0.00000
344256479.06032,516895806.21894,76145570.32663,   0.00043,   0.00395,   0.00109,474528128.00000,   0.00189,276687840.00000,  -0.00012,   0.00227,   0.00010,-2159712.00000,   0.00000
344420881.10659,516453842.27637,76273675.81723,   0.00044,   0.00394,   0.00110,474298944.00000,   0.00189,276687840.00000,  -0.00012,   0.00227,   0.00010,-2388896.00000,   0.00000
344572472.60381,515981987.05265,76397511.12481,   0.00044,   0.00394,   0.00110,474044384.00000,   0.00189,276687840.00000,  -0.00012,   0.00227,   0.00010,-2643456.00000,   0.00000
344724064.10102,515510131.82894,76517076.24937,   0.00044,   0.00394,   0.00110,473788288.00000,   0.00189,276687840.00000,  -0.00012,   0.00227,   0.00010,-2899552.00000,   0.00000
344869250.32370,515023330.96465,76632371.19091,   0.00044,   0.00394,   0.00110,473518656.00000,   0.00189,276687840.00000,  -0.00012,   0.00227,   0.00010,-3169184.00000,   0.00000
345008031.27185,514521584.45980,76747666.13245,   0.00044,   0.00393,   0.00110,473237792.00000,   0.00189,276687840.00000,  -0.00012,   0.00227,   0.00010,-3450048.00000,   0.00000
345140406.94547,514004892.31437,76854420.70796,   0.00044,   0.00393,   0.00110,472941216.00000,   0.00189,276687840.00000,  -0.00012,   0.00227,   0.00010,-3746624.00000,   0.00000
345266377.34456,513473254.52838,76961175.28346,   0.00045,   0.00393,   0.00110,472633376.00000,   0.00189,276687840.00000,  -0.00012,   0.00227,   0.00010,-4054464.00000,   0.00000
345385942.46912,512926671.10181,77063659.67594,   0.00045,   0.00393,   0.00111,472312032.00000,   0.00189,276687840.00000,  -0.00012,   0.00227,   0.00010,-4375808.00000,   0.00000
345499102.31915,512365142.03468,77161873.88540,   0.00045,   0.00392,   0.00111,471977280.00000,   0.00189,276687840.00000,  -0.00012,   0.00227,   0.00010,-4710560.00000,   0.00000
345605856.89466,511788667.32697,77255817.91184,   0.00045,   0.00392,   0.00111,471629088.00000,   0.00189,276687840.00000,  -0.00012,   0.00227,   0.00010,-5058752.00000,   0.00000
345706206.19563,511197246.97869,77345491.75526,   0.00045,   0.00392,   0.00111,471267488.00000,   0.00189,276687840.00000,  -0.00012,   0.00227,   0.00010,-5420352.00000,   0.00000
345806555.49660,510605826.63042,77435165.59868,   0.00045,   0.00392,   0.00111,470906368.00000,   0.00189,276687840.00000,  -0.00012,   0.00227,   0.00010,-5781472.00000,   0.00000
345909039.88908,509990920.27553,77516299.07606,   0.00046,   0.00391,   0.00111,470525376.00000,   0.00189,276687840.00000,  -0.00012,   0.00227,   0.00010,-6162464.00000,   0.00000
345996578.64099,509369608.64611,77597432.55344,   0.00046,   0.00391,   0.00111,470137408.00000,   0.00189,276687840.00000,  -0.00012,   0.00227,   0.00010,-6550432.00000,   0.00000
346071306.84384,508718405.73556,77674295.84780,   0.00046,   0.00391,   0.00111,469724128.00000,   0.00189,276687840.00000,  -0.00012,   0.00227,   0.00010,-6963712.00000,   0.00000
346160980.68726,508073608.09953,77746888.95914,   0.00046,   0.00390,   0.00112,469316896.00000,   0.00189,276687840.00000,  -0.00012,   0.00227,   0.00010,-7370944.00000,   0.00000
346222898.34105,507392513.90783,77815211.88747,   0.00046,   0.00390,   0.00112,468876896.00000,   0.00189,276687840.00000,  -0.00012,   0.00227,   0.00010,-7810944.00000,   0.00000
346299761.63541,506717824.99067,77879264.63277,   0.00046,   0.00390,   0.00112,468442784.00000,   0.00189,276687840.00000,  -0.00012,   0.00227,   0.00010,-8245056.00000,   0.00000
346370219.65524,506028190.43293,77939047.19505,   0.00047,   0.00389,   0.00112,467995488.00000,   0.00189,276687840.00000,  -0.00012,   0.00227,   0.00010,-8692352.00000,   0.00000
346419326.75997,505317204.96009,77998829.75733,   0.00047,   0.00389,   0.00112,467529312.00000,   0.00189,276687840.00000,  -0.00012,   0.00227,   0.00010,-9158528.00000,   0.00000
346476974.23074,504597679.12121,78050071.95357,   0.00047,   0.00389,   0.00112,467055200.00000,   0.00189,276687840.00000,  -0.00012,   0.00227,   0.00010,-9632640.00000,   0.00000
346528216.42699,503863207.64177,78101314.14981,   0.00047,   0.00388,   0.00112,466569952.00000,   0.00189,276687840.00000,  -0.00012,   0.00227,   0.00010,-10117888.00000,   0.00000
346573053.34870,503113790.52175,78144015.98001,   0.00047,   0.00388,   0.00112,466069280.00000,   0.00189,276687840.00000,  -0.00012,   0.00227,   0.00010,-10618560.00000,   0.00000
346611484.99588,502349427.76116,78186717.81021,   0.00047,   0.00388,   0.00112,465557408.00000,   0.00189,276687840.00000,  -0.00012,   0.00227,   0.00010,-11130432.00000,   0.00000
346643511.36853,501570119.36000,78225149.45739,   0.00048,   0.00387,   0.00112,465032384.00000,   0.00189,276687840.00000,  -0.00012,   0.00227,   0.00010,-11655456.00000,   0.00000
346669132.46665,500775865.31828,78259310.92155,   0.00048,   0.00387,   0.00112,464494048.00000,   0.00189,276687840.00000,  -0.00012,   0.00227,   0.00010,-12193792.00000,   0.00000
346694753.56477,499981611.27655,78289202.20269,   0.00048,   0.00387,   0.00112,463954368.00000,   0.00189,276687840.00000,  -0.00012,   0.00227,   0.00010,-12733472.00000,   0.00000
346722509.75440,499163871.22821,78314823.30081,   0.00048,   0.00386,   0.00112,463397312.00000,   0.00189,276687840.00000,  -0.00012,   0.00227,   0.00010,-13290528.00000,   0.00000
346735320.30346,498339725.90534,78340444.39893,   0.00048,   0.00386,   0.00112,462833504.00000,   0.00189,276687840.00000,  -0.00012,   0.00227,   0.00010,-13854336.00000,   0.00000
346750265.94403,497492094.57586,78357525.13101,   0.00048,   0.00385,   0.00112,462250080.00000,   0.00189,276687840.00000,  -0.00012,   0.00227,   0.00010,-14437760.00000,   0.00000
346765211.58460,496644463.24638,78370335.68007,   0.00049,   0.00385,   0.00112,461665568.00000,   0.00189,276687840.00000,  -0.00012,   0.00227,   0.00010,-15022272.00000,   0.00000
346758806.31007,495775481.00180,78383146.22913,   0.00049,   0.00385,   0.00112,461062496.00000,   0.00189,276687840.00000,  -0.00012,   0.00227,   0.00010,-15625344.00000,   0.00000
346754536.12705,494883012.75061,78387416.41215,   0.00049,   0.00384,   0.00112,460439904.00000,   0.00189,276687840.00000,  -0.00012,   0.00227,   0.00010,-16247936.00000,   0.00000
346750265.94403,493990544.49942,78391686.59517,   0.00049,   0.00384,   0.00112,459818496.00000,   0.00189,276687840.00000,  -0.00012,   0.00227,   0.00010,-16869344.00000,   0.00000
346739590.48648,493083130.60767,78391686.59517,   0.00049,   0.00383,   0.00112,459184096.00000,   0.00189,276687840.00000,  -0.00012,   0.00227,   0.00010,-17503744.00000,   0.00000
346737455.39497,492167176.34987,78387416.41215,   0.00049,   0.00383,   0.00112,458544480.00000,   0.00189,276687840.00000,  -0.00012,   0.00227,   0.00010,-18143360.00000,   0.00000
346713969.38836,491229871.17697,78374605.86309,   0.00050,   0.00383,   0.00112,457881888.00000,   0.00189,276687840.00000,  -0.00012,   0.00227,   0.00010,-18805952.00000,   0.00000
346684078.10722,490277620.36350,78361795.31403,   0.00050,   0.00382,   0.00112,457208832.00000,   0.00189,276687840.00000,  -0.00012,   0.00227,   0.00010,-19479008.00000,   0.00000
346669132.46665,489331774.82456,78344714.58195,   0.00050,   0.00382,   0.00112,456542240.00000,   0.00189,276687840.00000,  -0.00012,   0.00227,   0.00010,-20145600.00000,   0.00000
346641376.27702,488356038.00448,78323363.66685,   0.00050,   0.00381,   0.00112,455851136.00000,   0.00189,276687840.00000,  -0.00012,   0.00227,   0.00010,-20836704.00000,   0.00000
346607214.81286,487365355.54383,78297742.56873,   0.00050,   0.00381,   0.00112,455147136.00000,   0.00189,276687840.00000,  -0.00012,   0.00227,   0.00010,-21540704.00000,   0.00000
346573053.34870,486374673.08318,78267851.28759,   0.00050,   0.00380,   0.00112,454442240.00000,   0.00189,276687840.00000,  -0.00012,   0.00227,   0.00010,-22245600.00000,   0.00000
346526081.33548,485354099.34139,78237960.00645,   0.00051,   0.00380,   0.00112,453714752.00000,   0.00189,276687840.00000,  -0.00012,   0.00227,   0.00010,-22973088.00000,   0.00000
346479109.32226,484333525.59959,78199528.35927,   0.00051,   0.00379,   0.00112,452983904.00000,   0.00189,276687840.00000,  -0.00012,   0.00227,   0.00010,-23703936.00000,   0.00000
346440677.67507,483304411.49176,78156826.52907,   0.00051,   0.00379,   0.00112,452248096.00000,   0.00189,276687840.00000,  -0.00012,   0.00227,   0.00010,-24439744.00000,   0.00000
346380895.11279,482253946.46883,78109854.51585,   0.00051,   0.00379,   0.00112,451491584.00000,   0.00189,276687840.00000,  -0.00012,   0.00227,   0.00010,-25196256.00000,   0.00000
346329652.91655,481194941.07986,78062882.50263,   0.00051,   0.00378,   0.00112,450732256.00000,   0.00189,276687840.00000,  -0.00012,   0.00227,   0.00010,-25955584.00000,   0.00000
346272005.44578,480120990.05032,78007370.12337,   0.00052,   0.00378,   0.00112,449957824.00000,   0.00189,276687840.00000,  -0.00012,   0.00227,   0.00010,-26730016.00000,   0.00000
346207952.70048,479032093.38021,77951857.74411,   0.00052,   0.00377,   0.00112,449172768.00000,   0.00189,276687840.00000,  -0.00012,   0.00227,   0.00010,-27515072.00000,   0.00000
346137494.68065,477928251.06953,77887804.99881,   0.00052,   0.00377,   0.00112,448372544.00000,   0.00189,276687840.00000,  -0.00012,   0.00227,   0.00010,-28315296.00000,   0.00000
346075577.02686,476815868.39281,77823752.25351,   0.00052,   0.00376,   0.00112,447569568.00000,   0.00189,276687840.00000,  -0.00012,   0.00227,   0.00010,-29118272.00000,   0.00000
345998713.73250,475697080.44156,77751159.14216,   0.00052,   0.00376,   0.00112,446755392.00000,   0.00189,276687840.00000,  -0.00012,   0.00227,   0.00010,-29932448.00000,   0.00000
345923985.52965,474554806.48369,77678566.03082,   0.00052,   0.00375,   0.00111,445926752.00000,   0.00189,276687840.00000,  -0.00012,   0.00227,   0.00010,-30761088.00000,   0.00000
345849257.32680,473412532.52583,77601702.73646,   0.00053,   0.00375,   0.00111,445097056.00000,   0.00189,276687840.00000,  -0.00012,   0.00227,   0.00010,-31590784.00000,   0.00000
345768123.84942,472255312.92740,77516299.07606,   0.00053,   0.00374,   0.00111,444252224.00000,   0.00189,276687840.00000,  -0.00012,   0.00227,   0.00010,-32435616.00000,   0.00000
345680585.09751,471083147.68840,77430895.41566,   0.00053,   0.00374,   0.00111,443396960.00000,   0.00189,276687840.00000,  -0.00012,   0.00227,   0.00010,-33290880.00000,   0.00000
345601586.71164,469902442.08336,77341221.57224,   0.00053,   0.00373,   0.00111,442536800.00000,   0.00189,276687840.00000,  -0.00012,   0.00227,   0.00010,-34151040.00000,   0.00000
345501237.41066,468700385.56321,77243007.36278,   0.00053,   0.00373,   0.00111,441653856.00000,   0.00189,276687840.00000,  -0.00012,   0.00227,   0.00010,-35033984.00000,   0.00000
345409428.47573,467489788.67703,77144793.15332,   0.00054,   0.00372,   0.00111,440768576.00000,   0.00189,276687840.00000,  -0.00012,   0.00227,   0.00010,-35919264.00000,   0.00000
345311214.26627,466264246.15028,77042308.76084,   0.00054,   0.00371,   0.00111,439870464.00000,   0.00189,276687840.00000,  -0.00012,   0.00227,   0.00010,-36817376.00000,   0.00000
345227945.69738,465045108.89805,76935554.18534,   0.00054,   0.00371,   0.00110,438979680.00000,   0.00189,276687840.00000,  -0.00012,   0.00227,   0.00010,-37708160.00000,   0.00000
345116920.93886,463789675.09016,76824529.42681,   0.00054,   0.00370,   0.00110,438056448.00000,   0.00189,276687840.00000,  -0.00012,   0.00227,   0.00010,-38631392.00000,   0.00000
345020841.82091,462540646.55680,76704964.30225,   0.00054,   0.00370,   0.00110,437138272.00000,   0.00189,276687840.00000,  -0.00012,   0.00227,   0.00010,-39549568.00000,   0.00000
344918357.42843,461276672.38287,76585399.17769,   0.00055,   0.00369,   0.00110,436209952.00000,   0.00189,276687840.00000,  -0.00012,   0.00227,   0.00010,-40477888.00000,   0.00000
344809467.76142,459997752.56836,76461563.87011,   0.00055,   0.00369,   0.00110,435269120.00000,   0.00189,276687840.00000,  -0.00012,   0.00227,   0.00010,-41418720.00000,   0.00000
344694172.81988,458703887.11329,76333458.37951,   0.00055,   0.00368,   0.00110,434315776.00000,   0.00189,276687840.00000,  -0.00012,   0.00227,   0.00010,-42372064.00000,   0.00000
344587418.24438,457401481.29218,76201082.70589,   0.00055,   0.00368,   0.00110,433358464.00000,   0.00189,276687840.00000,  -0.00012,   0.00227,   0.00010,-43329376.00000,   0.00000
344465718.02830,456092670.19653,76064436.84925,   0.00055,   0.00367,   0.00109,432392064.00000,   0.00189,276687840.00000,  -0.00012,   0.00227,   0.00010,-44295776.00000,   0.00000
344346152.90374,454760373.09428,75923520.80959,   0.00056,   0.00366,   0.00109,431409984.00000,   0.00189,276687840.00000,  -0.00012,   0.00227,   0.00010,-45277856.00000,   0.00000
344241533.41975,453434481.26655,75778334.58690,   0.00056,   0.00366,   0.00109,430435616.00000,   0.00189,276687840.00000,  -0.00012,   0.00227,   0.00010,-46252224.00000,   0.00000
344115563.02066,452087238.52373,75628878.18120,   0.00056,   0.00365,   0.00109,429440480.00000,   0.00189,276687840.00000,  -0.00012,   0.00227,   0.00010,-47247360.00000,   0.00000
343998132.98761,450731455.41487,75475151.59248,   0.00056,   0.00365,   0.00109,428441536.00000,   0.00189,276687840.00000,  -0.00012,   0.00227,   0.00010,-48246304.00000,   0.00000
343874297.68003,449360726.66543,75317154.82074,   0.00056,   0.00364,   0.00108,427430336.00000,   0.00189,276687840.00000,  -0.00012,   0.00227,   0.00010,-49257504.00000,   0.00000
343744057.09792,447975052.27543,75154887.86598,   0.00057,   0.00363,   0.00108,426406752.00000,   0.00189,276687840.00000,  -0.00012,   0.00227,   0.00010,-50281088.00000,   0.00000
343628762.15638,446595783.15995,74988350.72820,   0.00057,   0.00363,   0.00108,425390880.00000,   0.00189,276687840.00000,  -0.00012,   0.00227,   0.00010,-51296960.00000,   0.00000
343485711.02520,445180217.48881,74817543.40739,   0.00057,   0.00362,   0.00108,424342624.00000,   0.00189,276687840.00000,  -0.00012,   0.00227,   0.00010,-52345216.00000,   0.00000
343357605.53460,443771057.09219,74642465.90357,   0.00057,   0.00362,   0.00107,423301856.00000,   0.00189,276687840.00000,  -0.00012,   0.00227,   0.00010,-53385984.00000,   0.00000
343238040.41004,442353356.32954,74463118.21673,   0.00058,   0.00361,   0.00107,422256992.00000,   0.00189,276687840.00000,  -0.00012,   0.00227,   0.00010,-54430848.00000,   0.00000
343103529.64491,440929250.29236,74279500.34687,   0.00058,   0.00360,   0.00107,421202688.00000,   0.00189,276687840.00000,  -0.00012,   0.00227,   0.00010,-55485152.00000,   0.00000
342971153.97129,439481658.24856,74091612.29399,   0.00058,   0.00360,   0.00107,420132608.00000,   0.00189,276687840.00000,  -0.00012,   0.00227,   0.00010,-56555232.00000,   0.00000
342832373.02314,438019120.56419,73899454.05808,   0.00058,   0.00359,   0.00107,419049952.00000,   0.00189,276687840.00000,  -0.00012,   0.00227,   0.00010,-57637888.00000,   0.00000
342708537.71556,436562988.15436,73703025.63916,   0.00058,   0.00358,   0.00106,417974528.00000,   0.00189,276687840.00000,  -0.00012,   0.00227,   0.00010,-58713312.00000,   0.00000
342563351.49287,435085504.82942,73502327.03722,   0.00059,   0.00358,   0.00106,416877760.00000,   0.00189,276687840.00000,  -0.00012,   0.00227,   0.00010,-59810080.00000,   0.00000
342426705.63623,433599481.13845,73297358.25226,   0.00059,   0.00357,   0.00106,415776672.00000,   0.00189,276687840.00000,  -0.00012,   0.00227,   0.00010,-60911168.00000,   0.00000
342290059.77959,432113457.44747,73088119.28428,   0.00059,   0.00357,   0.00105,414674752.00000,   0.00189,276687840.00000,  -0.00012,   0.00227,   0.00010,-62013088.00000,   0.00000
342155549.01446,430603947.74989,72874610.13327,   0.00059,   0.00356,   0.00105,413557280.00000,   0.00189,276687840.00000,  -0.00012,   0.00227,   0.00010,-63130560.00000,   0.00000
342021038.24933,429094438.05230,72656830.79925,   0.00060,   0.00355,   0.00105,412439232.00000,   0.00189,276687840.00000,  -0.00012,   0.00227,   0.00010,-64248608.00000,   0.00000
341880122.20967,427569982.71415,72434781.28221,   0.00060,   0.00355,   0.00105,411309344.00000,   0.00189,276687840.00000,  -0.00012,   0.00227,   0.00010,-65378496.00000,   0.00000
341747746.53605,426036987.00995,72208461.58215,   0.00060,   0.00354,   0.00104,410176864.00000,   0.00189,276687840.00000,  -0.00012,   0.00227,   0.00010,-66510976.00000,   0.00000
341594019.94732,424482640.39065,71977871.69906,   0.00060,   0.00353,   0.00104,409024800.00000,   0.00189,276687840.00000,  -0.00012,   0.00227,   0.00010,-67663040.00000,   0.00000
341455238.99917,422934699.04589,71743011.63296,   0.00060,   0.00352,   0.00104,407882464.00000,   0.00189,276687840.00000,  -0.00012,   0.00227,   0.00010,-68805376.00000,   0.00000
341324998.41706,421378217.33508,71503881.38384,   0.00061,   0.00352,   0.00103,406739040.00000,   0.00189,276687840.00000,  -0.00012,   0.00227,   0.00010,-69948800.00000,   0.00000
341188352.56042,419806789.98371,71260480.95170,   0.00061,   0.00351,   0.00103,405586208.00000,   0.00189,276687840.00000,  -0.00012,   0.00227,   0.00010,-71101632.00000,   0.00000
341045301.42925,418220416.99176,71012810.33653,   0.00061,   0.00350,   0.00103,404424448.00000,   0.00189,276687840.00000,  -0.00012,   0.00227,   0.00010,-72263392.00000,   0.00000
340902250.29808,416634043.99981,70760869.53835,   0.00061,   0.00350,   0.00102,403265120.00000,   0.00189,276687840.00000,  -0.00012,   0.00227,   0.00010,-73422720.00000,   0.00000
340761334.25842,415024185.00126,70504658.55715,   0.00062,   0.00349,   0.00102,402095008.00000,   0.00189,276687840.00000,  -0.00012,   0.00227,   0.00010,-74592832.00000,   0.00000
340620418.21875,413414326.00270,70244177.39293,   0.00062,   0.00348,   0.00102,400927776.00000,   0.00189,276687840.00000,  -0.00012,   0.00227,   0.00010,-75760064.00000,   0.00000
340479502.17909,411804467.00414,69979426.04568,   0.00062,   0.00348,   0.00101,399763680.00000,   0.00189,276687840.00000,  -0.00012,   0.00227,   0.00010,-76924160.00000,   0.00000
340340721.23094,410171121.99898,69710404.51542,   0.00062,   0.00347,   0.00101,398588992.00000,   0.00189,276687840.00000,  -0.00012,   0.00227,   0.00010,-78098848.00000,   0.00000
340201940.28279,408537776.99381,69437112.80214,   0.00063,   0.00346,   0.00101,397416960.00000,   0.00189,276687840.00000,  -0.00012,   0.00227,   0.00010,-79270880.00000,   0.00000
340071699.70068,406895891.62260,69159550.90584,   0.00063,   0.00345,   0.00100,396245376.00000,   0.00189,276687840.00000,  -0.00012,   0.00227,   0.00010,-80442464.00000,   0.00000
339935053.84404,405239060.61083,68877718.82651,   0.00063,   0.00345,   0.00100,395065088.00000,   0.00189,276687840.00000,  -0.00012,   0.00227,   0.00010,-81622752.00000,   0.00000
339798407.98740,403582229.59905,68591616.56417,   0.00064,   0.00344,   0.00100,393886816.00000,   0.00189,276687840.00000,  -0.00012,   0.00227,   0.00010,-82801024.00000,   0.00000
339655356.85622,401910452.94670,68301244.11881,   0.00064,   0.00343,   0.00099,392699232.00000,   0.00189,276687840.00000,  -0.00012,   0.00227,   0.00010,-83988608.00000,   0.00000
339520846.09109,400230135.92831,68006601.49042,   0.00064,   0.00343,   0.00099,391511104.00000,   0.00189,276687840.00000,  -0.00012,   0.00227,   0.00010,-85176736.00000,   0.00000
339394875.69200,398541278.54389,67707688.67902,   0.00064,   0.00342,   0.00098,390322592.00000,   0.00189,276687840.00000,  -0.00012,   0.00227,   0.00010,-86365248.00000,   0.00000
339253959.65234,396846015.88493,67404505.68460,   0.00065,   0.00341,   0.00098,389125952.00000,   0.00189,276687840.00000,  -0.00012,   0.00227,   0.00010,-87561888.00000,   0.00000
339121583.97872,395142212.85993,67097052.50715,   0.00065,   0.00340,   0.00098,387928512.00000,   0.00189,276687840.00000,  -0.00012,   0.00227,   0.00010,-88759328.00000,   0.00000
339004153.94567,393444815.10946,66781058.96367,   0.00065,   0.00340,   0.00097,386738976.00000,   0.00189,276687840.00000,  -0.00012,   0.00227,   0.00010,-89948864.00000,   0.00000
338873913.36356,391717526.07786,66465065.42019,   0.00065,   0.00339,   0.00097,385530752.00000,   0.00189,276687840.00000,  -0.00012,   0.00227,   0.00010,-91157088.00000,   0.00000
338743672.78144,389990237.04625,66144801.69368,   0.00066,   0.00338,   0.00096,384323552.00000,   0.00189,276687840.00000,  -0.00012,   0.00227,   0.00010,-92364288.00000,   0.00000
338628377.83990,388269353.28917,65820267.78416,   0.00066,   0.00337,   0.00096,383127040.00000,   0.00189,276687840.00000,  -0.00012,   0.00227,   0.00010,-93560800.00000,   0.00000
338500272.34930,386518578.25095,65491463.69162,   0.00066,   0.00336,   0.00096,381910016.00000,   0.00189,276687840.00000,  -0.00012,   0.00227,   0.00010,-94777824.00000,   0.00000
338372166.85870,384767803.21273,65158389.41605,   0.00067,   0.00336,   0.00095,380694624.00000,   0.00189,276687840.00000,  -0.00012,   0.00227,   0.00010,-95993216.00000,   0.00000
338259007.00867,383023433.44905,64821044.95747,   0.00067,   0.00335,   0.00095,379490848.00000,   0.00189,276687840.00000,  -0.00012,   0.00227,   0.00010,-97196992.00000,   0.00000
338147982.25015,381255577.67875,64479430.31587,   0.00067,   0.00334,   0.00094,378277024.00000,   0.00189,276687840.00000,  -0.00012,   0.00227,   0.00010,-98410816.00000,   0.00000
338022011.85106,379481316.63392,64133545.49124,   0.00067,   0.00333,   0.00094,377056416.00000,   0.00189,276687840.00000,  -0.00012,   0.00227,   0.00010,-99631424.00000,   0.00000
337925932.73311,377719866.13815,63783390.48360,   0.00068,   0.00333,   0.00093,375858112.00000,   0.00189,276687840.00000,  -0.00012,   0.00227,   0.00010,-100829728.00000,   0.00000
337802097.42553,375922119.08671,63428965.29294,   0.00068,   0.00332,   0.00093,374631936.00000,   0.00189,276687840.00000,  -0.00012,   0.00227,   0.00010,-102055904.00000,   0.00000
337693207.75851,374130777.30980,63070269.91925,   0.00068,   0.00331,   0.00092,373419104.00000,   0.00189,276687840.00000,  -0.00012,   0.00227,   0.00010,-103268736.00000,   0.00000
337599263.73207,372345840.80742,62707304.36255,   0.00069,   0.00330,   0.00092,372219776.00000,   0.00189,276687840.00000,  -0.00012,   0.00227,   0.00010,-104468064.00000,   0.00000
337498914.43110,370545958.66448,62340068.62282,   0.00069,   0.00329,   0.00091,371013760.00000,   0.00189,276687840.00000,  -0.00012,   0.00227,   0.00010,-105674080.00000,   0.00000
337392159.85560,368731130.88096,61968562.70008,   0.00069,   0.00329,   0.00091,369801408.00000,   0.00189,276687840.00000,  -0.00012,   0.00227,   0.00010,-106886432.00000,   0.00000
337300350.92067,366922708.37197,61592786.59432,   0.00070,   0.00328,   0.00091,368603072.00000,   0.00189,276687840.00000,  -0.00012,   0.00227,   0.00010,-108084768.00000,   0.00000
337195731.43668,365084394.58184,61212740.30553,   0.00070,   0.00327,   0.00090,367387680.00000,   0.00189,276687840.00000,  -0.00012,   0.00227,   0.00010,-109300160.00000,   0.00000
337112462.86779,363267431.70681,60828423.83373,   0.00070,   0.00326,   0.00090,366197184.00000,   0.00189,276687840.00000,  -0.00012,   0.00227,   0.00010,-110490656.00000,   0.00000
337022789.02437,361435523.19121,60439837.17891,   0.00070,   0.00325,   0.00089,365000224.00000,   0.00189,276687840.00000,  -0.00012,   0.00227,   0.00010,-111687616.00000,   0.00000
336941655.54699,359595074.30957,60046980.34106,   0.00071,   0.00325,   0.00089,363806816.00000,   0.00189,276687840.00000,  -0.00012,   0.00227,   0.00010,-112881024.00000,   0.00000
336854116.79508,357739679.78736,59649853.32020,   0.00071,   0.00324,   0.00088,362607136.00000,   0.00189,276687840.00000,  -0.00012,   0.00227,   0.00010,-114080704.00000,   0.00000
336787928.95826,355905636.18025,59248456.11631,   0.00071,   0.00323,   0.00087,361432128.00000,   0.00189,276687840.00000,  -0.00012,   0.00227,   0.00010,-115255712.00000,   0.00000
336708930.57239,354041701.29200,58842788.72941,   0.00072,   0.00322,   0.00087,360240544.00000,   0.00189,276687840.00000,  -0.00012,   0.00227,   0.00010,-116447296.00000,   0.00000
336644877.82709,352184171.67829,58432851.15948,   0.00072,   0.00321,   0.00086,359063456.00000,   0.00189,276687840.00000,  -0.00012,   0.00227,   0.00010,-117624384.00000,   0.00000
336574419.80726,350311696.42400,58022913.58956,   0.00072,   0.00320,   0.00086,357882944.00000,   0.00189,276687840.00000,  -0.00012,   0.00227,   0.00010,-118804896.00000,   0.00000
336503961.78743,348439221.16971,57604435.65360,   0.00073,   0.00320,   0.00085,356705248.00000,   0.00189,276687840.00000,  -0.00012,   0.00227,   0.00010,-119982592.00000,   0.00000
336456989.77421,346564610.82391,57181687.53461,   0.00073,   0.00319,   0.00085,355542432.00000,   0.00189,276687840.00000,  -0.00012,   0.00227,   0.00010,-121145408.00000,   0.00000
336395072.12042,344683595.20358,56754669.23261,   0.00073,   0.00318,   0.00084,354375232.00000,   0.00189,276687840.00000,  -0.00012,   0.00227,   0.00010,-122312608.00000,   0.00000
336341694.83267,342794039.21721,56323380.74758,   0.00074,   0.00317,   0.00084,353213472.00000,   0.00189,276687840.00000,  -0.00012,   0.00227,   0.00010,-123474368.00000,   0.00000
336303263.18549,340910888.50537,55892092.26256,   0.00074,   0.00316,   0.00083,352069760.00000,   0.00189,276687840.00000,  -0.00012,   0.00227,   0.00010,-124618080.00000,   0.00000
336258426.26378,339012792.15296,55452263.41149,   0.00074,   0.00315,   0.00083,350919808.00000,   0.00189,276687840.00000,  -0.00012,   0.00227,   0.00010,-125768032.00000,   0.00000
336222129.70811,337106155.43451,55008164.37741,   0.00075,   0.00314,   0.00082,349775968.00000,   0.00189,276687840.00000,  -0.00012,   0.00227,   0.00010,-126911872.00000,   0.00000
336192238.42697,335214464.35663,54564065.34332,   0.00075,   0.00314,   0.00081,348650720.00000,   0.00189,276687840.00000,  -0.00012,   0.00227,   0.00010,-128037120.00000,   0.00000
336164482.23734,333299287.27214,54111425.94320,   0.00076,   0.00313,   0.00081,347519456.00000,   0.00189,276687840.00000,  -0.00012,   0.00227,   0.00010,-129168384.00000,   0.00000
336136726.04771,331384110.18765,53654516.36005,   0.00076,   0.00312,   0.00080,346394848.00000,   0.00189,276687840.00000,  -0.00012,   0.00227,   0.00010,-130292992.00000,   0.00000
336123915.49865,329475338.37769,53197606.77691,   0.00076,   0.00311,   0.00080,345289152.00000,   0.00189,276687840.00000,  -0.00012,   0.00227,   0.00010,-131398688.00000,   0.00000
336104699.67506,327551620.92716,52732156.82773,   0.00077,   0.00310,   0.00079,344178112.00000,   0.00189,276687840.00000,  -0.00012,   0.00227,   0.00010,-132509728.00000,   0.00000
336100429.49204,325634308.75116,52266706.87854,   0.00077,   0.00309,   0.00078,343086336.00000,   0.00189,276687840.00000,  -0.00012,   0.00227,   0.00010,-133601504.00000,   0.00000
336089754.03449,323702050.93459,51792716.56332,   0.00077,   0.00308,   0.00078,341989472.00000,   0.00189,276687840.00000,  -0.00012,   0.00227,   0.00010,-134698368.00000,   0.00000
336087618.94298,321761252.75198,51318726.24809,   0.00078,   0.00307,   0.00077,340902080.00000,   0.00189,276687840.00000,  -0.00012,   0.00227,   0.00010,-135785760.00000,   0.00000
336106834.76657,319841805.48447,50840465.74985,   0.00078,   0.00307,   0.00077,339842464.00000,   0.00189,276687840.00000,  -0.00012,   0.00227,   0.00010,-136845376.00000,   0.00000
336119645.31563,317907412.57639,50353664.88556,   0.00079,   0.00306,   0.00076,338778528.00000,   0.00189,276687840.00000,  -0.00012,   0.00227,   0.00010,-137909312.00000,   0.00000
336140996.23073,315964479.30227,49866864.02128,   0.00079,   0.00305,   0.00075,337724736.00000,   0.00189,276687840.00000,  -0.00012,   0.00227,   0.00010,-138963104.00000,   0.00000
336162347.14583,314021546.02815,49375792.97397,   0.00079,   0.00304,   0.00075,336678432.00000,   0.00189,276687840.00000,  -0.00012,   0.00227,   0.00010,-140009408.00000,   0.00000
336192238.42697,312070072.38799,48880451.74365,   0.00080,   0.00303,   0.00074,335640864.00000,   0.00189,276687840.00000,  -0.00012,   0.00227,   0.00010,-141046976.00000,   0.00000
336222129.70811,310118598.74783,48380840.33030,   0.00080,   0.00302,   0.00073,334610976.00000,   0.00189,276687840.00000,  -0.00012,   0.00227,   0.00010,-142076864.00000,   0.00000
336266966.62982,308173530.38220,47876958.73393,   0.00081,   0.00301,   0.00073,333599904.00000,   0.00189,276687840.00000,  -0.00012,   0.00227,   0.00010,-143087936.00000,   0.00000
336320343.91757,306219921.65053,47368806.95455,   0.00081,   0.00300,   0.00072,332598176.00000,   0.00189,276687840.00000,  -0.00012,   0.00227,   0.00010,-144089664.00000,   0.00000
336373721.20532,304266312.91886,46856384.99214,   0.00081,   0.00299,   0.00071,331604576.00000,   0.00189,276687840.00000,  -0.00012,   0.00227,   0.00010,-145083264.00000,   0.00000
336442044.13364,302319109.46172,46339692.84672,   0.00082,   0.00299,   0.00071,330630464.00000,   0.00189,276687840.00000,  -0.00012,   0.00227,   0.00010,-146057376.00000,   0.00000
336503961.78743,300356960.36401,45818730.51827,   0.00082,   0.00298,   0.00070,329655264.00000,   0.00189,276687840.00000,  -0.00012,   0.00227,   0.00010,-147032576.00000,   0.00000
336574419.80726,298386270.90026,45293498.00681,   0.00083,   0.00297,   0.00069,328690272.00000,   0.00189,276687840.00000,  -0.00012,   0.00227,   0.00010,-147997568.00000,   0.00000
336666228.74219,296436932.35161,44768265.49534,   0.00083,   0.00296,   0.00069,327757152.00000,   0.00189,276687840.00000,  -0.00012,   0.00227,   0.00010,-148930688.00000,   0.00000
336751632.40259,294472648.16239,44234492.61784,   0.00083,   0.00295,   0.00068,326822080.00000,   0.00189,276687840.00000,  -0.00012,   0.00227,   0.00010,-149865760.00000,   0.00000
336845576.42904,292499823.60713,43700719.74033,   0.00084,   0.00294,   0.00067,325900160.00000,   0.00189,276687840.00000,  -0.00012,   0.00227,   0.00010,-150787680.00000,   0.00000
336945925.73001,290541944.69244,43158406.49679,   0.00084,   0.00293,   0.00067,324996384.00000,   0.00189,276687840.00000,  -0.00012,   0.00227,   0.00010,-151691456.00000,   0.00000
337054815.39702,288575525.41171,42616093.25324,   0.00085,   0.00292,   0.00066,324106560.00000,   0.00189,276687840.00000,  -0.00012,   0.00227,   0.00010,-152581280.00000,   0.00000
337172245.43007,286600565.76494,42069509.82667,   0.00085,   0.00291,   0.00065,323230048.00000,   0.00189,276687840.00000,  -0.00012,   0.00227,   0.00010,-153457792.00000,   0.00000
337289675.46312,284625606.11817,41518656.21709,   0.00086,   0.00290,   0.00064,322365024.00000,   0.00189,276687840.00000,  -0.00012,   0.00227,   0.00010,-154322816.00000,   0.00000
337422051.13674,282657051.74593,40959262.24146,   0.00086,   0.00289,   0.00064,321522048.00000,   0.00189,276687840.00000,  -0.00012,   0.00227,   0.00010,-155165792.00000,   0.00000
337554426.81036,280688497.37368,40399868.26584,   0.00086,   0.00289,   0.00063,320694368.00000,   0.00189,276687840.00000,  -0.00012,   0.00227,   0.00010,-155993472.00000,   0.00000
337710288.49059,278717807.90993,39836204.10719,   0.00087,   0.00288,   0.00062,319894848.00000,   0.00189,276687840.00000,  -0.00012,   0.00227,   0.00010,-156792992.00000,   0.00000
337851204.53026,276740713.17165,39272539.94855,   0.00087,   0.00287,   0.00061,319101152.00000,   0.00189,276687840.00000,  -0.00012,   0.00227,   0.00010,-157586688.00000,   0.00000
338022011.85106,274776428.98243,38700335.42386,   0.00088,   0.00286,   0.00061,318345376.00000,   0.00189,276687840.00000,  -0.00012,   0.00227,   0.00010,-158342464.00000,   0.00000
338192819.17186,272812144.79321,38123860.71615,   0.00088,   0.00285,   0.00060,317606304.00000,   0.00189,276687840.00000,  -0.00012,   0.00227,   0.00010,-159081536.00000,   0.00000
338372166.85870,270839320.23795,37547386.00845,   0.00089,   0.00284,   0.00059,316887680.00000,   0.00189,276687840.00000,  -0.00012,   0.00227,   0.00010,-159800160.00000,   0.00000
338551514.54554,268866495.68269,36962370.93470,   0.00089,   0.00283,   0.00058,316182528.00000,   0.00189,276687840.00000,  -0.00012,   0.00227,   0.00010,-160505312.00000,   0.00000
338754348.23900,266891536.03592,36377355.86096,   0.00090,   0.00282,   0.00058,315507168.00000,   0.00189,276687840.00000,  -0.00012,   0.00227,   0.00010,-161180672.00000,   0.00000
338948641.56641,264925116.75519,35788070.60419,   0.00090,   0.00281,   0.00057,314841376.00000,   0.00189,276687840.00000,  -0.00012,   0.00227,   0.00010,-161846464.00000,   0.00000
339166420.90043,262956562.38295,35194515.16440,   0.00091,   0.00280,   0.00056,314201152.00000,   0.00189,276687840.00000,  -0.00012,   0.00227,   0.00010,-162486688.00000,   0.00000
339384200.23445,260988008.01071,34596689.54160,   0.00091,   0.00279,   0.00055,313571392.00000,   0.00189,276687840.00000,  -0.00012,   0.00227,   0.00010,-163116448.00000,   0.00000
339616925.20904,259025858.91300,33994593.73577,   0.00092,   0.00278,   0.00055,312963680.00000,   0.00189,276687840.00000,  -0.00012,   0.00227,   0.00010,-163724160.00000,   0.00000
339858190.54968,257055169.44925,33388227.74692,   0.00092,   0.00277,   0.00054,312369504.00000,   0.00189,276687840.00000,  -0.00012,   0.00227,   0.00010,-164318336.00000,   0.00000
340099455.89031,255084479.98550,32781861.75808,   0.00093,   0.00276,   0.00053,311787680.00000,   0.00189,276687840.00000,  -0.00012,   0.00227,   0.00010,-164900160.00000,   0.00000
340355666.87151,253120195.79628,32166955.40319,   0.00093,   0.00275,   0.00052,311228704.00000,   0.00189,276687840.00000,  -0.00012,   0.00227,   0.00010,-165459136.00000,   0.00000
340611877.85271,251155911.60706,31552049.04831,   0.00094,   0.00274,   0.00051,310685760.00000,   0.00189,276687840.00000,  -0.00012,   0.00227,   0.00010,-166002080.00000,   0.00000
340897980.11506,249204437.96690,30932872.51040,   0.00094,   0.00274,   0.00051,310185440.00000,   0.00189,276687840.00000,  -0.00012,   0.00227,   0.00010,-166502400.00000,   0.00000
341184082.37740,247252964.32674,30309425.78947,   0.00095,   0.00273,   0.00050,309708448.00000,   0.00189,276687840.00000,  -0.00012,   0.00227,   0.00010,-166979392.00000,   0.00000
341463779.36521,245286545.04601,29681708.88553,   0.00095,   0.00272,   0.00049,309251584.00000,   0.00189,276687840.00000,  -0.00012,   0.00227,   0.00010,-167436256.00000,   0.00000
341773367.63417,243332936.31434,29049721.79856,   0.00096,   0.00271,   0.00048,308850304.00000,   0.00189,276687840.00000,  -0.00012,   0.00227,   0.00010,-167837536.00000,   0.00000
342082955.90312,241379327.58267,28413464.52857,   0.00096,   0.00270,   0.00047,308479552.00000,   0.00189,276687840.00000,  -0.00012,   0.00227,   0.00010,-168208288.00000,   0.00000
342407489.81264,239432124.12553,27777207.25859,   0.00097,   0.00269,   0.00047,308147776.00000,   0.00189,276687840.00000,  -0.00012,   0.00227,   0.00010,-168540064.00000,   0.00000
342746969.36274,237491325.94292,27132409.62256,   0.00097,   0.00268,   0.00046,307846176.00000,   0.00189,276687840.00000,  -0.00012,   0.00227,   0.00010,-168841664.00000,   0.00000
343080043.63830,235535582.11974,26487611.98653,   0.00098,   0.00267,   0.00045,307551360.00000,   0.00189,276687840.00000,  -0.00012,   0.00227,   0.00010,-169136480.00000,   0.00000
343434468.82896,233601189.21166,25838544.16749,   0.00098,   0.00266,   0.00044,307285472.00000,   0.00189,276687840.00000,  -0.00012,   0.00227,   0.00010,-169402368.00000,   0.00000
343797434.38567,231658255.93754,25185206.16542,   0.00099,   0.00265,   0.00043,307032576.00000,   0.00189,276687840.00000,  -0.00012,   0.00227,   0.00010,-169655264.00000,   0.00000
344160399.94237,229715322.66342,24531868.16335,   0.00099,   0.00264,   0.00042,306789632.00000,   0.00189,276687840.00000,  -0.00012,   0.00227,   0.00010,-169898208.00000,   0.00000
344553256.78022,227785199.93836,23869989.79525,   0.00100,   0.00263,   0.00041,306580832.00000,   0.00189,276687840.00000,  -0.00012,   0.00227,   0.00010,-170107008.00000,   0.00000
344952518.89259,225870022.85387,23208111.42714,   0.00101,   0.00262,   0.00041,306392832.00000,   0.00189,276687840.00000,  -0.00012,   0.00227,   0.00010,-170295008.00000,   0.00000
345338970.45590,223924954.48824,22541962.87601,   0.00101,   0.00261,   0.00040,306203616.00000,   0.00189,276687840.00000,  -0.00012,   0.00227,   0.00010,-170484224.00000,   0.00000
345761718.57489,222007642.31224,21871544.14187,   0.00102,   0.00260,   0.00039,306062528.00000,   0.00189,276687840.00000,  -0.00012,   0.00227,   0.00010,-170625312.00000,   0.00000
346184466.69387,220090330.13624,21196855.22470,   0.00102,   0.00259,   0.00038,305938016.00000,   0.00189,276687840.00000,  -0.00012,   0.00227,   0.00010,-170749824.00000,   0.00000
346622160.45343,218179423.23477,20517896.12451,   0.00103,   0.00258,   0.00037,305843840.00000,   0.00189,276687840.00000,  -0.00012,   0.00227,   0.00010,-170844000.00000,   0.00000
347074799.85355,216274921.60783,19838937.02432,   0.00103,   0.00257,   0.00036,305781984.00000,   0.00189,276687840.00000,  -0.00012,   0.00227,   0.00010,-170905856.00000,   0.00000
347535979.61972,214361879.61485,19155707.74112,   0.00104,   0.00256,   0.00035,305745184.00000,   0.00189,276687840.00000,  -0.00012,   0.00227,   0.00010,-170942656.00000,   0.00000
348003564.66041,212463783.26244,18463938.09187,   0.00105,   0.00255,   0.00034,305735136.00000,   0.00189,276687840.00000,  -0.00012,   0.00227,   0.00010,-170952704.00000,   0.00000
348486095.34168,210572092.18456,17776438.62564,   0.00105,   0.00254,   0.00034,305760064.00000,   0.00189,276687840.00000,  -0.00012,   0.00227,   0.00010,-170927776.00000,   0.00000
348977166.38898,208671860.74064,17080398.79338,   0.00106,   0.00254,   0.00033,305811680.00000,   0.00189,276687840.00000,  -0.00012,   0.00227,   0.00010,-170876160.00000,   0.00000
349489588.35139,206792980.21182,16380088.77809,   0.00106,   0.00253,   0.00032,305904480.00000,   0.00189,276687840.00000,  -0.00012,   0.00227,   0.00010,-170783360.00000,   0.00000
349995605.03926,204899154.04243,15679778.76280,   0.00107,   0.00252,   0.00031,306013088.00000,   0.00189,276687840.00000,  -0.00012,   0.00227,   0.00010,-170674752.00000,   0.00000
350522972.64224,203026678.78814,14975198.56449,   0.00108,   0.00251,   0.00030,306163072.00000,   0.00189,276687840.00000,  -0.00012,   0.00227,   0.00010,-170524768.00000,   0.00000
351058880.61125,201145663.16781,14266348.18317,   0.00108,   0.00250,   0.00029,306341216.00000,   0.00189,276687840.00000,  -0.00012,   0.00227,   0.00010,-170346624.00000,   0.00000
351616139.49537,199285998.46258,13557497.80184,   0.00109,   0.00249,   0.00028,306560704.00000,   0.00189,276687840.00000,  -0.00012,   0.00227,   0.00010,-170127136.00000,   0.00000
352188344.02005,197432739.03188,12840107.05447,   0.00109,   0.00248,   0.00027,306813920.00000,   0.00189,276687840.00000,  -0.00012,   0.00227,   0.00010,-169873920.00000,   0.00000
352754143.27021,195564533.96061,12122716.30710,   0.00110,   0.00247,   0.00026,307082144.00000,   0.00189,276687840.00000,  -0.00012,   0.00227,   0.00010,-169605696.00000,   0.00000
353341293.43547,193717679.80444,11401055.37672,   0.00111,   0.00246,   0.00025,307389696.00000,   0.00189,276687840.00000,  -0.00012,   0.00227,   0.00010,-169298144.00000,   0.00000
353943389.24129,191877230.92280,10679394.44633,   0.00111,   0.00245,   0.00024,307730528.00000,   0.00189,276687840.00000,  -0.00012,   0.00227,   0.00010,-168957312.00000,   0.00000
354560430.68769,190043187.31570,9949193.14990,   0.00112,   0.00244,   0.00023,308103072.00000,   0.00189,276687840.00000,  -0.00012,   0.00227,   0.00010,-168584768.00000,   0.00000
355192417.77466,188215548.98312,9218991.85347,   0.00113,   0.00243,   0.00022,308507872.00000,   0.00189,276687840.00000,  -0.00012,   0.00227,   0.00010,-168179968.00000,   0.00000
355824404.86162,186387910.65054,8484520.37403,   0.00113,   0.00242,   0.00021,308930624.00000,   0.00189,276687840.00000,  -0.00012,   0.00227,   0.00010,-167757216.00000,   0.00000
356471337.58916,184566677.59249,7750048.89458,   0.00114,   0.00241,   0.00021,309384544.00000,   0.00189,276687840.00000,  -0.00012,   0.00227,   0.00010,-167303296.00000,   0.00000
357133215.95727,182751849.80897,7007037.04909,   0.00114,   0.00240,   0.00020,309869024.00000,   0.00189,276687840.00000,  -0.00012,   0.00227,   0.00010,-166818816.00000,   0.00000
357810039.96594,180943427.29998,6264025.20360,   0.00115,   0.00239,   0.00019,310384192.00000,   0.00189,276687840.00000,  -0.00012,   0.00227,   0.00010,-166303648.00000,   0.00000
358508214.88972,179156355.70609,5516743.17510,   0.00116,   0.00238,   0.00018,310935584.00000,   0.00189,276687840.00000,  -0.00012,   0.00227,   0.00010,-165752256.00000,   0.00000
359199984.53897,177354338.47163,4765190.96357,   0.00116,   0.00237,   0.00017,311499008.00000,   0.00189,276687840.00000,  -0.00012,   0.00227,   0.00010,-165188832.00000,   0.00000
359928050.74388,175580077.42681,4013638.75204,   0.00117,   0.00236,   0.00016,312112576.00000,   0.00189,276687840.00000,  -0.00012,   0.00227,   0.00010,-164575264.00000,   0.00000
360656116.94880,173805816.38198,3257816.35749,   0.00118,   0.00235,   0.00015,312744320.00000,   0.00189,276687840.00000,  -0.00012,   0.00227,   0.00010,-163943520.00000,   0.00000
361399128.79429,172037960.61168,2497723.77992,   0.00118,   0.00234,   0.00014,313408352.00000,   0.00189,276687840.00000,  -0.00012,   0.00227,   0.00010,-163279488.00000,   0.00000
362142140.63978,170270104.84138,1737631.20236,   0.00119,   0.00233,   0.00013,314092288.00000,   0.00189,276687840.00000,  -0.00012,   0.00227,   0.00010,-162595552.00000,   0.00000
362915043.76641,168515059.62014,968998.25875,   0.00120,   0.00233,   0.00012,314822944.00000,   0.00189,276687840.00000,  -0.00012,   0.00227,   0.00010,-161864896.00000,   0.00000
363709297.80813,166781365.31400,204635.49816,   0.00121,   0.00232,   0.00011,315593792.00000,   0.00189,276687840.00000,  -0.00012,   0.00227,   0.00010,-161094048.00000,   0.00000
364497146.57533,165032725.36730,-568267.62847,   0.00121,   0.00231,   0.00010,316381696.00000,   0.00189,276687840.00000,  -0.00012,   0.00227,   0.00010,-160306144.00000,   0.00000
365306346.25763,163305436.33569,-1341170.75509,   0.00122,   0.00230,   0.00009,317210368.00000,   0.00189,276687840.00000,  -0.00012,   0.00227,   0.00010,-159477472.00000,   0.00000
366130491.58050,161584552.57861,-2118344.06474,   0.00123,   0.00229,   0.00008,318074400.00000,   0.00189,276687840.00000,  -0.00012,   0.00227,   0.00010,-158613440.00000,   0.00000
366969582.54394,159870074.09606,-2899787.55741,   0.00123,   0.00228,   0.00007,318971328.00000,   0.00189,276687840.00000,  -0.00012,   0.00227,   0.00010,-157716512.00000,   0.00000
367830024.42248,158176946.52862,-3685501.23310,   0.00124,   0.00227,   0.00006,319901504.00000,   0.00189,276687840.00000,  -0.00012,   0.00227,   0.00010,-156786336.00000,   0.00000
368684061.02649,156468873.32060,-4471214.90879,   0.00125,   0.00226,   0.00005,320837088.00000,   0.00189,276687840.00000,  -0.00012,   0.00227,   0.00010,-155850752.00000,   0.00000
369574394.18616,154788556.30221,-5256928.58448,   0.00126,   0.00225,   0.00004,321813568.00000,   0.00189,276687840.00000,  -0.00012,   0.00227,   0.00010,-154874272.00000,   0.00000
370464727.34584,153108239.28382,-6051182.62620,   0.00126,   0.00224,   0.00003,322803936.00000,   0.00189,276687840.00000,  -0.00012,   0.00227,   0.00010,-153883904.00000,   0.00000
371376411.42062,151449273.18054,-6845436.66793,   0.00127,   0.00223,   0.00002,323831744.00000,   0.00189,276687840.00000,  -0.00012,   0.00227,   0.00010,-152856096.00000,   0.00000
372296635.86144,149781766.71121,-7643960.89268,   0.00128,   0.00222,   0.00001,324891680.00000,   0.00189,276687840.00000,  -0.00012,   0.00227,   0.00010,-151796160.00000,   0.00000
373238211.21736,148135611.15698,-8442485.11743,   0.00129,   0.00221,  -0.00001,325993312.00000,   0.00189,276687840.00000,  -0.00012,   0.00227,   0.00010,-150694528.00000,   0.00000
374201137.48838,146510806.51785,-9245279.52520,   0.00129,   0.00220,  -0.00002,327135616.00000,   0.00189,276687840.00000,  -0.00012,   0.00227,   0.00010,-149552224.00000,   0.00000
375157658.48487,144871056.23816,-10052344.11599,   0.00130,   0.00219,  -0.00003,328295584.00000,   0.00189,276687840.00000,  -0.00012,   0.00227,   0.00010,-148392256.00000,   0.00000
376150476.03703,143259062.14809,-10863678.88979,   0.00131,   0.00218,  -0.00004,329505696.00000,   0.00189,276687840.00000,  -0.00012,   0.00227,   0.00010,-147182144.00000,   0.00000
377143293.58919,141647068.05802,-11675013.66360,   0.00132,   0.00218,  -0.00005,330734336.00000,   0.00189,276687840.00000,  -0.00012,   0.00227,   0.00010,-145953504.00000,   0.00000
378166002.42249,140047884.51702,-12486348.43741,   0.00132,   0.00217,  -0.00006,332006144.00000,   0.00189,276687840.00000,  -0.00012,   0.00227,   0.00010,-144681696.00000,   0.00000
379195116.53032,138463646.61658,-13306223.57726,   0.00133,   0.00216,  -0.00007,333299008.00000,   0.00189,276687840.00000,  -0.00012,   0.00227,   0.00010,-143388832.00000,   0.00000
380239176.27872,136885813.99068,-14126098.71711,   0.00134,   0.00215,  -0.00008,334620512.00000,   0.00189,276687840.00000,  -0.00012,   0.00227,   0.00010,-142067328.00000,   0.00000
381283236.02713,135307981.36477,-14945973.85696,   0.00135,   0.00214,  -0.00009,335957568.00000,   0.00189,276687840.00000,  -0.00012,   0.00227,   0.00010,-140730272.00000,   0.00000
382363592.33120,133757904.92849,-15770119.17982,   0.00136,   0.00213,  -0.00010,337339328.00000,   0.00189,276687840.00000,  -0.00012,   0.00227,   0.00010,-139348512.00000,   0.00000
383458894.27584,132214233.76675,-16598534.68571,   0.00136,   0.00212,  -0.00011,338749472.00000,   0.00189,276687840.00000,  -0.00012,   0.00227,   0.00010,-137938368.00000,   0.00000
384554196.22048,130670562.60500,-17431220.37462,   0.00137,   0.00211,  -0.00012,340174976.00000,   0.00189,276687840.00000,  -0.00012,   0.00227,   0.00010,-136512864.00000,   0.00000
385685794.72079,129154647.63288,-18263906.06353,   0.00138,   0.00210,  -0.00013,341644192.00000,   0.00189,276687840.00000,  -0.00012,   0.00227,   0.00010,-135043648.00000,   0.00000
386817393.22110,127638732.66077,-19096591.75244,   0.00139,   0.00209,  -0.00014,343128256.00000,   0.00189,276687840.00000,  -0.00012,   0.00227,   0.00010,-133559584.00000,   0.00000
387963937.36198,126129222.96318,-19933547.62437,   0.00140,   0.00208,  -0.00015,344640640.00000,   0.00189,276687840.00000,  -0.00012,   0.00227,   0.00010,-132047200.00000,   0.00000
389131832.41797,124641064.18070,-20774773.67932,   0.00140,   0.00207,  -0.00017,346184416.00000,   0.00189,276687840.00000,  -0.00012,   0.00227,   0.00010,-130503424.00000,   0.00000
390314673.11452,123159310.67274,-21620269.91729,   0.00141,   0.00207,  -0.00018,347756640.00000,   0.00189,276687840.00000,  -0.00012,   0.00227,   0.00010,-128931200.00000,   0.00000
391518864.72617,121698908.07989,-22465766.15525,   0.00142,   0.00206,  -0.00019,349359392.00000,   0.00189,276687840.00000,  -0.00012,   0.00227,   0.00010,-127328448.00000,   0.00000
392738001.97839,120244910.76156,-23311262.39322,   0.00143,   0.00205,  -0.00020,350989568.00000,   0.00189,276687840.00000,  -0.00012,   0.00227,   0.00010,-125698272.00000,   0.00000
393957139.23062,118790913.44324,-24161028.81421,   0.00144,   0.00204,  -0.00021,352634848.00000,   0.00189,276687840.00000,  -0.00012,   0.00227,   0.00010,-124052992.00000,   0.00000
395212573.03851,117364672.31454,-25015065.41822,   0.00145,   0.00203,  -0.00022,354323424.00000,   0.00189,276687840.00000,  -0.00012,   0.00227,   0.00010,-122364416.00000,   0.00000
396468006.84640,115938431.18585,-25869102.02223,   0.00145,   0.00202,  -0.00023,356025504.00000,   0.00189,276687840.00000,  -0.00012,   0.00227,   0.00010,-120662336.00000,   0.00000
397744791.56940,114533540.97225,-26727408.80926,   0.00146,   0.00201,  -0.00024,357757152.00000,   0.00189,276687840.00000,  -0.00012,   0.00227,   0.00010,-118930688.00000,   0.00000
399051467.57353,113141461.30772,-27589985.77931,   0.00147,   0.00200,  -0.00025,359527904.00000,   0.00189,276687840.00000,  -0.00012,   0.00227,   0.00010,-117159936.00000,   0.00000
400364548.85219,111764327.28375,-28452562.74936,   0.00148,   0.00199,  -0.00027,361313408.00000,   0.00189,276687840.00000,  -0.00012,   0.00227,   0.00010,-115374432.00000,   0.00000
401692575.77143,110393598.53432,-29315139.71940,   0.00149,   0.00199,  -0.00028,363123744.00000,   0.00189,276687840.00000,  -0.00012,   0.00227,   0.00010,-113564096.00000,   0.00000
403041953.60576,109044220.69999,-30181986.87247,   0.00150,   0.00198,  -0.00029,364961408.00000,   0.00189,276687840.00000,  -0.00012,   0.00227,   0.00010,-111726432.00000,   0.00000
404391331.44010,107694842.86565,-31053104.20856,   0.00151,   0.00197,  -0.00030,366811680.00000,   0.00189,276687840.00000,  -0.00012,   0.00227,   0.00010,-109876160.00000,   0.00000
405770600.55557,106358275.58038,-31924221.54465,   0.00151,   0.00196,  -0.00031,368698208.00000,   0.00189,276687840.00000,  -0.00012,   0.00227,   0.00010,-107989632.00000,   0.00000
407171220.58614,105043059.21021,-32795338.88074,   0.00152,   0.00195,  -0.00032,370610848.00000,   0.00189,276687840.00000,  -0.00012,   0.00227,   0.00010,-106076992.00000,   0.00000
408578245.89125,103742788.48060,-33674996.58287,   0.00153,   0.00194,  -0.00033,372538656.00000,   0.00189,276687840.00000,  -0.00012,   0.00227,   0.00010,-104149184.00000,   0.00000
410015162.47749,102455328.30006,-34550384.10198,   0.00154,   0.00193,  -0.00034,374501088.00000,   0.00189,276687840.00000,  -0.00012,   0.00227,   0.00010,-102186752.00000,   0.00000
411452079.06374,101167868.11952,-35430041.80411,   0.00155,   0.00192,  -0.00036,376475424.00000,   0.00189,276687840.00000,  -0.00012,   0.00227,   0.00010,-100212416.00000,   0.00000
412916751.83961,99916704.49464,-36313969.68926,   0.00156,   0.00192,  -0.00037,378477984.00000,   0.00189,276687840.00000,  -0.00012,   0.00227,   0.00010,-98209856.00000,   0.00000
414389964.98153,98657000.50373,-37197897.57441,   0.00157,   0.00191,  -0.00038,380501632.00000,   0.00189,276687840.00000,  -0.00012,   0.00227,   0.00010,-96186208.00000,   0.00000
415884529.03854,97418647.42792,-38086095.64258,   0.00158,   0.00190,  -0.00039,382551680.00000,   0.00189,276687840.00000,  -0.00012,   0.00227,   0.00010,-94136160.00000,   0.00000
417400444.01066,96201645.26720,-38974293.71074,   0.00159,   0.00189,  -0.00040,384626016.00000,   0.00189,276687840.00000,  -0.00012,   0.00227,   0.00010,-92061824.00000,   0.00000
418931304.62335,94991048.38102,-39866761.96193,   0.00160,   0.00188,  -0.00041,386724640.00000,   0.00189,276687840.00000,  -0.00012,   0.00227,   0.00010,-89963200.00000,   0.00000
420483516.15113,93801802.40994,-40759230.21312,   0.00161,   0.00187,  -0.00043,388847648.00000,   0.00189,276687840.00000,  -0.00012,   0.00227,   0.00010,-87840192.00000,   0.00000
422042132.95345,92627502.07943,-41655968.64733,   0.00162,   0.00186,  -0.00044,390983712.00000,   0.00189,276687840.00000,  -0.00012,   0.00227,   0.00010,-85704128.00000,   0.00000
423630641.03690,91466012.29797,-42552707.08154,   0.00163,   0.00186,  -0.00045,393155136.00000,   0.00189,276687840.00000,  -0.00012,   0.00227,   0.00010,-83532704.00000,   0.00000
425219149.12036,90304522.51652,-43449445.51575,   0.00163,   0.00185,  -0.00046,395337760.00000,   0.00189,276687840.00000,  -0.00012,   0.00227,   0.00010,-81350080.00000,   0.00000
426843953.75949,89170788.92470,-44350454.13298,   0.00164,   0.00184,  -0.00047,397561120.00000,   0.00189,276687840.00000,  -0.00012,   0.00227,   0.00010,-79126720.00000,   0.00000
428475163.67314,88052000.97345,-45255732.93323,   0.00165,   0.00183,  -0.00048,399804672.00000,   0.00189,276687840.00000,  -0.00012,   0.00227,   0.00010,-76883168.00000,   0.00000
430121319.22737,86939618.29673,-46161011.73348,   0.00166,   0.00182,  -0.00050,402085024.00000,   0.00189,276687840.00000,  -0.00012,   0.00227,   0.00010,-74602816.00000,   0.00000
431788825.69670,85848586.53511,-47066290.53373,   0.00167,   0.00181,  -0.00051,404413984.00000,   0.00189,276687840.00000,  -0.00012,   0.00227,   0.00010,-72273856.00000,   0.00000
433477683.08113,84778905.68859,-47975839.51700,   0.00168,   0.00181,  -0.00052,406800448.00000,   0.00189,276687840.00000,  -0.00012,   0.00227,   0.00010,-69887392.00000,   0.00000
435181486.10612,83715630.11659,-48885388.50027,   0.00169,   0.00180,  -0.00053,409229824.00000,   0.00189,276687840.00000,  -0.00012,   0.00227,   0.00010,-67458016.00000,   0.00000
436891694.40565,82667300.18517,-49799207.66656,   0.00170,   0.00179,  -0.00054,411658048.00000,   0.00189,276687840.00000,  -0.00012,   0.00227,   0.00010,-65029792.00000,   0.00000
438638199.26085,81646726.44338,-50713026.83285,   0.00171,   0.00178,  -0.00055,414073824.00000,   0.00189,276687840.00000,  -0.00012,   0.00227,   0.00010,-62614016.00000,   0.00000
440399649.75662,80632557.97612,-51631116.18216,   0.00172,   0.00177,  -0.00057,416453760.00000,   0.00189,276687840.00000,  -0.00012,   0.00227,   0.00010,-60234080.00000,   0.00000
442167505.52692,79633335.14943,-52549205.53147,   0.00173,   0.00177,  -0.00058,418790752.00000,   0.00189,276687840.00000,  -0.00012,   0.00227,   0.00010,-57897088.00000,   0.00000
443950306.93778,78640517.59727,-53467294.88077,   0.00174,   0.00176,  -0.00059,421106496.00000,   0.00189,276687840.00000,  -0.00012,   0.00227,   0.00010,-55581344.00000,   0.00000
445769404.90432,77675456.23474,-54389654.41310,   0.00175,   0.00175,  -0.00060,423425760.00000,   0.00189,276687840.00000,  -0.00012,   0.00227,   0.00010,-53262080.00000,   0.00000
447594908.14539,76725340.51278,-55312013.94543,   0.00176,   0.00174,  -0.00061,425732288.00000,   0.00189,276687840.00000,  -0.00012,   0.00227,   0.00010,-50955552.00000,   0.00000
449441762.30156,75796575.70592,-56234373.47776,   0.00177,   0.00173,  -0.00063,428047008.00000,   0.00189,276687840.00000,  -0.00012,   0.00227,   0.00010,-48640832.00000,   0.00000
451303562.09830,74874216.17359,-57161003.19311,   0.00178,   0.00173,  -0.00064,430378752.00000,   0.00189,276687840.00000,  -0.00012,   0.00227,   0.00010,-46309088.00000,   0.00000
453171767.16957,73966802.28183,-58091903.09148,   0.00179,   0.00172,  -0.00065,432724064.00000,   0.00189,276687840.00000,  -0.00012,   0.00227,   0.00010,-43963776.00000,   0.00000
455069863.52198,73072198.93913,-59018532.80683,   0.00180,   0.00171,  -0.00066,435108320.00000,   0.00189,276687840.00000,  -0.00012,   0.00227,   0.00010,-41579520.00000,   0.00000
456995716.06402,72213892.15211,-59953702.88822,   0.00181,   0.00170,  -0.00067,437531392.00000,   0.00189,276687840.00000,  -0.00012,   0.00227,   0.00010,-39156448.00000,   0.00000
458921568.60606,71355585.36508,-60884602.78659,   0.00183,   0.00170,  -0.00069,439979456.00000,   0.00189,276687840.00000,  -0.00012,   0.00227,   0.00010,-36708384.00000,   0.00000
460862366.78867,70503683.85258,-61819772.86798,   0.00184,   0.00169,  -0.00070,442472128.00000,   0.00189,276687840.00000,  -0.00012,   0.00227,   0.00010,-34215712.00000,   0.00000
462845866.80148,69694484.17028,-62754942.94937,   0.00185,   0.00168,  -0.00071,445024000.00000,   0.00189,276687840.00000,  -0.00012,   0.00227,   0.00010,-31663840.00000,   0.00000
464829366.81429,68885284.48798,-63694383.21378,   0.00186,   0.00167,  -0.00072,447607328.00000,   0.00189,276687840.00000,  -0.00012,   0.00227,   0.00010,-29080512.00000,   0.00000
466834217.74220,68097435.72078,-64629553.29517,   0.00187,   0.00167,  -0.00074,450226144.00000,   0.00189,276687840.00000,  -0.00012,   0.00227,   0.00010,-26461696.00000,   0.00000
468860419.58521,67330937.86868,-65573263.74260,   0.00188,   0.00166,  -0.00075,452881472.00000,   0.00189,276687840.00000,  -0.00012,   0.00227,   0.00010,-23806368.00000,   0.00000
470886621.42822,66564440.01659,-66512704.00701,   0.00189,   0.00165,  -0.00076,455554816.00000,   0.00189,276687840.00000,  -0.00012,   0.00227,   0.00010,-21133024.00000,   0.00000
472949119.82691,65825698.35412,-67456414.45444,   0.00190,   0.00164,  -0.00077,458276064.00000,   0.00189,276687840.00000,  -0.00012,   0.00227,   0.00010,-18411776.00000,   0.00000
475032969.14069,65108307.60675,-68400124.90187,   0.00191,   0.00164,  -0.00078,461029920.00000,   0.00189,276687840.00000,  -0.00012,   0.00227,   0.00010,-15657920.00000,   0.00000
477123223.72900,64405862.49995,-69348105.53232,   0.00192,   0.00163,  -0.00080,463800608.00000,   0.00189,276687840.00000,  -0.00012,   0.00227,   0.00010,-12887232.00000,   0.00000
479234829.23241,63724768.30826,-70296086.16277,   0.00193,   0.00162,  -0.00081,466592544.00000,   0.00189,276687840.00000,  -0.00012,   0.00227,   0.00010,-10095296.00000,   0.00000
481361380.37639,63050079.39109,-71244066.79322,   0.00194,   0.00161,  -0.00082,469395424.00000,   0.00189,276687840.00000,  -0.00012,   0.00227,   0.00010,-7292416.00000,   0.00000
483509282.43547,62396741.38902,-72196317.60669,   0.00195,   0.00161,  -0.00083,472201120.00000,   0.00189,276687840.00000,  -0.00012,   0.00227,   0.00010,-4486720.00000,   0.00000
485678535.40966,61764754.30206,-73144298.23714,   0.00197,   0.00160,  -0.00085,474992768.00000,   0.00189,276687840.00000,  -0.00012,   0.00227,   0.00010,-1695072.00000,   0.00000
487015573.91630,61392051.56044,-73725506.00903,   0.00197,   0.00160,  -0.00085,476687936.00000,   0.00189,276687840.00000,  -0.00012,   0.00227,   0.00010,  96.00000,   0.00000
486816651.81997,61118897.34041,-73920261.68299,   0.00198,   0.00159,  -0.00086,476687936.00000,   0.00190,276692512.00000,  -0.00012,   0.00226,   0.00010, -64.00000,   2.00000
486306601.28333,60423077.35484,-74420563.33236,   0.00199,   0.00159,  -0.00087,479434240.00000,   0.00191,276704448.00000,  -0.00011,   0.00226,   0.00010, 224.00000,   2.00000
485817829.50210,59773582.50629,-74909433.85311,   0.00200,   0.00158,  -0.00088,479471104.00000,   0.00192,276716512.00000,  -0.00009,   0.00225,   0.00009,  96.00000,   2.00000
485328051.47157,59128210.43643,-75398833.10153,   0.00201,   0.00157,  -0.00090,479487552.00000,   0.00193,276728576.00000,  -0.00008,   0.00225,   0.00008, 192.00000,   2.00000
484846617.98883,58507707.47461,-75886688.65906,   0.00202,   0.00157,  -0.00091,479515968.00000,   0.00194,276740736.00000,  -0.00007,   0.00224,   0.00008, 160.00000,   2.00000
484377691.82072,57911949.06421,-76365214.23177,   0.00203,   0.00156,  -0.00092,479540384.00000,   0.00195,276752960.00000,  -0.00006,   0.00224,   0.00007, 128.00000,   2.00000
483911199.91004,57325748.27342,-76842297.65889,   0.00204,   0.00155,  -0.00093,479568416.00000,   0.00196,276765248.00000,  -0.00005,   0.00223,   0.00007, 320.00000,   2.00000
483461129.69430,56778685.28293,-77313893.29067,   0.00206,   0.00155,  -0.00095,479594944.00000,   0.00198,276777600.00000,  -0.00003,   0.00223,   0.00006,  32.00000,   2.00000
483011958.26984,56234643.20775,-77782172.93331,   0.00207,   0.00154,  -0.00096,479609312.00000,   0.00199,276789952.00000,  -0.00002,   0.00222,   0.00005, 128.00000,   2.00000
482575222.04265,55720578.89340,-78247017.20751,   0.00208,   0.00153,  -0.00097,479648800.00000,   0.00200,276802432.00000,  -0.00001,   0.00222,   0.00005, 352.00000,   2.00000
482153426.08732,55238894.69717,-78704568.68988,   0.00209,   0.00153,  -0.00098,479661952.00000,   0.00201,276814944.00000,   0.00000,   0.00221,   0.00004, 256.00000,   2.00000
481727922.33054,54750843.88964,-79160785.29996,   0.00210,   0.00152,  -0.00100,479689280.00000,   0.00202,276827488.00000,   0.00002,   0.00221,   0.00003, 128.00000,   2.00000
481319310.48159,54301001.79780,-79611668.97897,   0.00211,   0.00151,  -0.00101,479715424.00000,   0.00203,276840096.00000,   0.00003,   0.00220,   0.00003, 224.00000,   2.00000
480915651.34866,53868016.79047,-80063197.52239,   0.00213,   0.00151,  -0.00102,479731968.00000,   0.00205,276852736.00000,   0.00004,   0.00220,   0.00002, 288.00000,   2.00000
480526420.90683,53464150.64417,-80507386.60928,   0.00214,   0.00150,  -0.00103,479769344.00000,   0.00206,276865504.00000,   0.00006,   0.00219,   0.00001, 224.00000,   2.00000
480140020.33141,53062000.53543,-80944571.57392,   0.00215,   0.00149,  -0.00105,479781600.00000,   0.00207,276878240.00000,   0.00007,   0.00219,   0.00001, 352.00000,   2.00000
479762115.54019,52682515.49030,-81380375.91052,   0.00216,   0.00149,  -0.00106,479809760.00000,   0.00208,276891072.00000,   0.00008,   0.00218,  -0.00000, 224.00000,   2.00000
479399148.87497,52340407.61282,-81814796.94472,   0.00217,   0.00148,  -0.00107,479837728.00000,   0.00209,276903936.00000,   0.00009,   0.00218,  -0.00001, 224.00000,   2.00000
479042590.56371,52005801.71332,-82240152.73374,   0.00219,   0.00147,  -0.00108,479861344.00000,   0.00211,276916864.00000,   0.00011,   0.00217,  -0.00002, 160.00000,   2.00000
478691107.73985,51687231.25679,-82666338.38084,   0.00220,   0.00147,  -0.00110,479877856.00000,   0.00212,276929824.00000,   0.00012,   0.00217,  -0.00002, 224.00000,   2.00000
478350308.41003,51390866.09597,-83087333.74236,   0.00221,   0.00146,  -0.00111,479903840.00000,   0.00213,276942816.00000,   0.00013,   0.00216,  -0.00003, 224.00000,   2.00000
478017886.87326,51107976.91654,-83501086.91157,   0.00222,   0.00146,  -0.00112,479940640.00000,   0.00214,276955936.00000,   0.00015,   0.00216,  -0.00004, 224.00000,   2.00000
477694759.80659,50849517.50413,-83913952.24145,   0.00223,   0.00145,  -0.00113,479944032.00000,   0.00216,276968992.00000,   0.00016,   0.00215,  -0.00004, 320.00000,   2.00000
477386182.75885,50619252.21249,-84319548.24631,   0.00225,   0.00144,  -0.00115,479981024.00000,   0.00217,276982176.00000,   0.00017,   0.00214,  -0.00005, 256.00000,   2.00000
477086195.64094,50410792.86914,-84723880.63178,   0.00226,   0.00144,  -0.00116,480008864.00000,   0.00218,276995424.00000,   0.00019,   0.00214,  -0.00006, 256.00000,   2.00000
476786957.57000,50202968.57823,-85125341.76584,   0.00227,   0.00143,  -0.00117,480023200.00000,   0.00219,277008672.00000,   0.00020,   0.00213,  -0.00007, 320.00000,   2.00000
476506680.27113,50031826.44184,-85517854.19159,   0.00228,   0.00143,  -0.00119,480046784.00000,   0.00221,277021952.00000,   0.00021,   0.00213,  -0.00007, 256.00000,   2.00000
476225055.61391,49861178.51868,-85911421.84868,   0.00229,   0.00142,  -0.00120,480063072.00000,   0.00222,277035264.00000,   0.00023,   0.00212,  -0.00008,  96.00000,   2.00000
475955873.78551,49718456.60595,-86301581.70360,   0.00231,   0.00141,  -0.00121,480101952.00000,   0.00223,277048672.00000,   0.00024,   0.00212,  -0.00009, 128.00000,   2.00000
475702286.38915,49605965.61763,-86685167.13922,   0.00232,   0.00141,  -0.00122,480114176.00000,   0.00224,277062080.00000,   0.00025,   0.00211,  -0.00010, 352.00000,   2.00000
475453000.21541,49500094.19615,-87063791.51751,   0.00233,   0.00140,  -0.00124,480139552.00000,   0.00226,277075552.00000,   0.00027,   0.00211,  -0.00010, 256.00000,   2.00000
475212469.30478,49415713.24184,-87441335.95036,   0.00234,   0.00140,  -0.00125,480167136.00000,   0.00227,277089088.00000,   0.00028,   0.00210,  -0.00011, 352.00000,   2.00000
474982596.16537,49352781.80027,-87813950.45665,   0.00236,   0.00139,  -0.00126,480192544.00000,   0.00228,277102688.00000,   0.00029,   0.00209,  -0.00012, 192.00000,   2.00000
474768083.91834,49319862.47139,-88180129.47038,   0.00237,   0.00139,  -0.00127,480204416.00000,   0.00229,277116256.00000,   0.00031,   0.00209,  -0.00013, 224.00000,   2.00000
474555878.62849,49293341.46276,-88545319.76481,   0.00238,   0.00138,  -0.00129,480231808.00000,   0.00231,277129888.00000,   0.00032,   0.00208,  -0.00014, 256.00000,   2.00000
474354563.44693,49288121.53891,-88905739.77805,   0.00240,   0.00138,  -0.00130,480256864.00000,   0.00232,277143584.00000,   0.00033,   0.00208,  -0.00014, 192.00000,   2.00000
474159899.79664,49297857.19256,-89263630.73453,   0.00241,   0.00137,  -0.00131,480270688.00000,   0.00233,277157280.00000,   0.00035,   0.00207,  -0.00015, 288.00000,   2.00000
473973781.64375,49328770.26402,-89620580.56251,   0.00242,   0.00137,  -0.00133,480297952.00000,   0.00235,277171040.00000,   0.00036,   0.00207,  -0.00016, 224.00000,   2.00000
473800884.18295,49380837.02948,-89969092.65963,   0.00243,   0.00136,  -0.00134,480320544.00000,   0.00236,277184832.00000,   0.00037,   0.00206,  -0.00017, 288.00000,   2.00000
473638769.23547,49453960.48528,-90312974.95144,   0.00245,   0.00136,  -0.00135,480345536.00000,   0.00237,277198688.00000,   0.00039,   0.00205,  -0.00018, 544.00000,   2.00000
473480820.62592,49541756.69763,-90658249.91010,   0.00246,   0.00135,  -0.00136,480361568.00000,   0.00239,277212576.00000,   0.00040,   0.00205,  -0.00019, 288.00000,   2.00000
473336084.69448,49650499.17867,-90995216.57904,   0.00247,   0.00135,  -0.00138,480383744.00000,   0.00240,277226464.00000,   0.00042,   0.00204,  -0.00019, 352.00000,   2.00000
473199594.06646,49780059.39293,-91331382.31732,   0.00249,   0.00134,  -0.00139,480410784.00000,   0.00241,277240448.00000,   0.00043,   0.00204,  -0.00020, 128.00000,   2.00000
473072258.19816,49924117.71925,-91661625.56979,   0.00250,   0.00134,  -0.00140,480421856.00000,   0.00243,277254400.00000,   0.00044,   0.00203,  -0.00021, 384.00000,   2.00000
472952974.85950,50088837.27620,-91991099.22533,   0.00251,   0.00133,  -0.00142,480448896.00000,   0.00244,277268416.00000,   0.00046,   0.00203,  -0.00022, 192.00000,   2.00000
472844423.39817,50274139.53739,-92316146.02349,   0.00252,   0.00133,  -0.00143,480473120.00000,   0.00245,277282496.00000,   0.00047,   0.00202,  -0.00023, 192.00000,   2.00000
472742514.07812,50473655.30649,-92639116.63944,   0.00254,   0.00132,  -0.00144,480486368.00000,   0.00247,277296576.00000,   0.00049,   0.00201,  -0.00024, 448.00000,   2.00000
472650772.82796,50693570.37689,-92957606.39445,   0.00255,   0.00132,  -0.00145,480511168.00000,   0.00248,277310688.00000,   0.00050,   0.00201,  -0.00025, 352.00000,   2.00000
472572068.65599,50933793.50350,-93268028.86213,   0.00256,   0.00131,  -0.00147,480532640.00000,   0.00249,277324864.00000,   0.00051,   0.00200,  -0.00025, 352.00000,   2.00000
472497401.49419,51187899.73369,-93580201.63671,   0.00258,   0.00131,  -0.00148,480548256.00000,   0.00251,277339040.00000,   0.00053,   0.00200,  -0.00026, 384.00000,   2.00000
472432964.86968,51462079.40449,-93887999.82153,   0.00259,   0.00130,  -0.00149,480572480.00000,   0.00252,277353248.00000,   0.00054,   0.00199,  -0.00027, 352.00000,   2.00000
472385283.18197,51771076.41727,-94191488.11904,   0.00260,   0.00130,  -0.00151,480596672.00000,   0.00253,277367520.00000,   0.00056,   0.00198,  -0.00028, 384.00000,   2.00000
472337238.52887,52078690.08345,-94492985.76893,   0.00262,   0.00129,  -0.00152,480609728.00000,   0.00255,277381792.00000,   0.00057,   0.00198,  -0.00029, 256.00000,   2.00000
472299570.26011,52406013.34840,-94790210.14361,   0.00263,   0.00129,  -0.00153,480633696.00000,   0.00256,277396128.00000,   0.00058,   0.00197,  -0.00030, 224.00000,   2.00000
472267759.70269,52746661.17154,-95085448.79090,   0.00264,   0.00129,  -0.00154,480646688.00000,   0.00257,277410464.00000,   0.00060,   0.00197,  -0.00031, -64.00000,   2.00000
472246473.90806,53106770.47844,-95376474.27516,   0.00266,   0.00128,  -0.00156,480670496.00000,   0.00259,277424832.00000,   0.00061,   0.00196,  -0.00032, 352.00000,   2.00000
472241100.39724,53501040.83303,-95663086.34284,   0.00267,   0.00128,  -0.00157,480694848.00000,   0.00260,277439264.00000,   0.00063,   0.00195,  -0.00033, 192.00000,   2.00000
