# sigma_xx, sigma_yy, sigma_xy, epsilon_xx, epsilon_yy, epsilon_xy, vonMises, epsPlastic, hardening, epsilonP__xx, epsilonP__yy, epsilonP__xy, yieldValue, iteration
   0.00000,   0.00000,   0.00000,   0.00000,   0.00000,   0.00000,   0.00000,   0.00000,274640135.82653,   0.00000,   0.00000,   0.00000,-474640135.82653,   0.00000
   0.00000,   0.00000,   0.00000,   0.00000,   0.00000,   0.00000,   0.00000,   0.00000,274640135.82653,   0.00000,   0.00000,   0.00000,-474640135.82653,   0.00000
-2226361.94284,-2944682.80292,-359160.43004,  -0.00000,  -0.00001,  -0.00000,2731099.27094,   0.00000,274640135.82653,   0.00000,   0.00000,   0.00000,-471909036.55559,   0.00000
-4452723.88568,-5889365.60585,-713993.62598,  -0.00001,  -0.00002,  -0.00001,5460496.22568,   0.00000,274640135.82653,   0.00000,   0.00000,   0.00000,-469179639.60085,   0.00000
-6657449.65804,-8812412.23828,-1068826.82193,  -0.00001,  -0.00003,  -0.00001,8169407.98898,   0.00000,274640135.82653,   0.00000,   0.00000,   0.00000,-466470727.83755,   0.00000
-8862175.43040,-11735458.87072,-1419332.78377,  -0.00002,  -0.00004,  -0.00002,10876624.92000,   0.00000,274640135.82653,   0.00000,   0.00000,   0.00000,-463763510.90653,   0.00000
-11045265.03227,-14636869.33268,-1765511.51152,  -0.00002,  -0.00005,  -0.00002,13561667.12336,   0.00000,274640135.82653,   0.00000,   0.00000,   0.00000,-461078468.70317,   0.00000
-13228354.63414,-17538279.79463,-2107363.00518,  -0.00003,  -0.00005,  -0.00003,16245029.27643,   0.00000,274640135.82653,   0.00000,   0.00000,   0.00000,-458395106.55010,   0.00000
-15411444.23602,-20439690.25658,-2449214.49883,  -0.00003,  -0.00006,  -0.00003,18928400.87324,   0.00000,274640135.82653,   0.00000,   0.00000,   0.00000,-455711734.95329,   0.00000
-17572897.66740,-23319464.54805,-2782411.52429,  -0.00003,  -0.00007,  -0.00004,21587937.29718,   0.00000,274640135.82653,   0.00000,   0.00000,   0.00000,-453052198.52935,   0.00000
-19719205.77945,-26192747.98838,-3115608.54975,  -0.00004,  -0.00008,  -0.00004,24238976.59037,   0.00000,274640135.82653,   0.00000,   0.00000,   0.00000,-450401159.23616,   0.00000
-21859023.04036,-29050886.10936,-3448805.57521,  -0.00004,  -0.00009,  -0.00004,26878051.69460,   0.00000,274640135.82653,   0.00000,   0.00000,   0.00000,-447762084.13193,   0.00000
-23998840.30126,-31909024.23035,-3773348.13247,  -0.00005,  -0.00010,  -0.00005,29513811.25595,   0.00000,274640135.82653,   0.00000,   0.00000,   0.00000,-445126324.57058,   0.00000
-26123512.24283,-34760671.50019,-4097890.68974,  -0.00005,  -0.00011,  -0.00005,32141086.97378,   0.00000,274640135.82653,   0.00000,   0.00000,   0.00000,-442499048.85275,   0.00000
-28226548.01391,-37590682.59954,-4418106.01291,  -0.00006,  -0.00012,  -0.00006,34746240.17118,   0.00000,274640135.82653,   0.00000,   0.00000,   0.00000,-439893895.65535,   0.00000
-30344729.10433,-40427184.55004,-4733994.10198,  -0.00006,  -0.00012,  -0.00006,37358265.10840,   0.00000,274640135.82653,   0.00000,   0.00000,   0.00000,-437281870.71813,   0.00000
-32426128.70492,-43235559.47891,-5045554.95695,  -0.00006,  -0.00013,  -0.00007,39939685.58240,   0.00000,274640135.82653,   0.00000,   0.00000,   0.00000,-434700450.24413,   0.00000
-34507528.30552,-46043934.40779,-5357115.81193,  -0.00007,  -0.00014,  -0.00007,42521137.15669,   0.00000,274640135.82653,   0.00000,   0.00000,   0.00000,-432118998.66984,   0.00000
-36588927.90612,-48852309.33666,-5660022.19871,  -0.00007,  -0.00015,  -0.00007,45099353.67992,   0.00000,274640135.82653,   0.00000,   0.00000,   0.00000,-429540782.14661,   0.00000
-38648691.33623,-51639048.09504,-5962928.58549,  -0.00008,  -0.00016,  -0.00008,47657114.38380,   0.00000,274640135.82653,   0.00000,   0.00000,   0.00000,-426983021.44273,   0.00000
-40701963.91519,-54410641.53409,-6261507.73818,  -0.00008,  -0.00017,  -0.00008,50201267.39284,   0.00000,274640135.82653,   0.00000,   0.00000,   0.00000,-424438868.43369,   0.00000
-42746582.02597,-57190889.44133,-6560086.89086,  -0.00008,  -0.00018,  -0.00009,52749002.67681,   0.00000,274640135.82653,   0.00000,   0.00000,   0.00000,-421891133.14972,   0.00000
-44784709.28560,-59955992.02923,-6850011.57535,  -0.00009,  -0.00019,  -0.00009,55281529.18284,   0.00000,274640135.82653,   0.00000,   0.00000,   0.00000,-419358606.64369,   0.00000
-46801200.37474,-62699458.44665,-7139936.25984,  -0.00009,  -0.00019,  -0.00009,57793603.42853,   0.00000,274640135.82653,   0.00000,   0.00000,   0.00000,-416846532.39800,   0.00000
-48817691.46388,-65442924.86407,-7425533.71024,  -0.00009,  -0.00020,  -0.00010,60304117.21238,   0.00000,274640135.82653,   0.00000,   0.00000,   0.00000,-414336018.61415,   0.00000
-50819037.23369,-68179900.43034,-7706803.92653,  -0.00010,  -0.00021,  -0.00010,62804625.22600,   0.00000,274640135.82653,   0.00000,   0.00000,   0.00000,-411835510.60053,   0.00000
-52813892.15234,-70901730.67728,-7983746.90873,  -0.00010,  -0.00022,  -0.00010,65291553.08320,   0.00000,274640135.82653,   0.00000,   0.00000,   0.00000,-409348582.74333,   0.00000
-54793601.75166,-73617070.07307,-8260689.89093,  -0.00011,  -0.00023,  -0.00011,67770084.63752,   0.00000,274640135.82653,   0.00000,   0.00000,   0.00000,-406870051.18901,   0.00000
-56751675.18050,-76310773.29837,-8528978.40494,  -0.00011,  -0.00024,  -0.00011,70225016.59724,   0.00000,274640135.82653,   0.00000,   0.00000,   0.00000,-404415119.22929,   0.00000
-58724893.92867,-79010967.37482,-8797266.91894,  -0.00011,  -0.00024,  -0.00011,72688452.79603,   0.00000,274640135.82653,   0.00000,   0.00000,   0.00000,-401951683.03050,   0.00000
-60667822.03817,-81698179.74898,-9061228.19885,  -0.00012,  -0.00025,  -0.00012,75133508.80075,   0.00000,274640135.82653,   0.00000,   0.00000,   0.00000,-399506627.02578,   0.00000
-62604259.29652,-84370246.80380,-9325189.47876,  -0.00012,  -0.00026,  -0.00012,77566568.16198,   0.00000,274640135.82653,   0.00000,   0.00000,   0.00000,-397073567.66455,   0.00000
-64540696.55487,-87042313.85862,-9580496.29048,  -0.00012,  -0.00027,  -0.00012,79996575.39534,   0.00000,274640135.82653,   0.00000,   0.00000,   0.00000,-394643560.43119,   0.00000
-66455497.64274,-89692744.74295,-9835803.10219,  -0.00013,  -0.00028,  -0.00013,82406156.97645,   0.00000,274640135.82653,   0.00000,   0.00000,   0.00000,-392233978.85008,   0.00000
-68355153.41127,-92336684.77614,-10082455.44572,  -0.00013,  -0.00029,  -0.00013,84804303.09489,   0.00000,274640135.82653,   0.00000,   0.00000,   0.00000,-389835832.73164,   0.00000
-70248318.32865,-94965479.48999,-10329107.78924,  -0.00013,  -0.00030,  -0.00013,87190450.69551,   0.00000,274640135.82653,   0.00000,   0.00000,   0.00000,-387449685.13102,   0.00000
-72147974.09718,-97609419.52318,-10571432.89866,  -0.00014,  -0.00030,  -0.00014,89587234.88965,   0.00000,274640135.82653,   0.00000,   0.00000,   0.00000,-385052900.93688,   0.00000
-74019502.84407,-100216578.06655,-10813758.00809,  -0.00014,  -0.00031,  -0.00014,91951509.62439,   0.00000,274640135.82653,   0.00000,   0.00000,   0.00000,-382688626.20214,   0.00000
-75882377.12278,-102832391.07811,-11047428.64932,  -0.00014,  -0.00032,  -0.00014,94316523.32282,   0.00000,274640135.82653,   0.00000,   0.00000,   0.00000,-380323612.50371,   0.00000
-77738760.55034,-105433058.77033,-11281099.29055,  -0.00015,  -0.00033,  -0.00015,96669535.36324,   0.00000,274640135.82653,   0.00000,   0.00000,   0.00000,-377970600.46329,   0.00000
-79573507.80741,-108012090.29207,-11510442.69768,  -0.00015,  -0.00034,  -0.00015,99000630.08475,   0.00000,274640135.82653,   0.00000,   0.00000,   0.00000,-375639505.74178,   0.00000
-81408255.06449,-110591121.81380,-11735458.87072,  -0.00015,  -0.00034,  -0.00015,101330316.04073,   0.00000,274640135.82653,   0.00000,   0.00000,   0.00000,-373309819.78580,   0.00000
-83227857.00222,-113163662.48439,-11956147.80966,  -0.00016,  -0.00035,  -0.00016,103650229.04126,   0.00000,274640135.82653,   0.00000,   0.00000,   0.00000,-370989906.78527,   0.00000
-85040968.08881,-115721057.83565,-12172509.51451,  -0.00016,  -0.00036,  -0.00016,105956635.73897,   0.00000,274640135.82653,   0.00000,   0.00000,   0.00000,-368683500.08756,   0.00000
-86838933.85606,-118271962.33575,-12384543.98525,  -0.00016,  -0.00037,  -0.00016,108253301.02530,   0.00000,274640135.82653,   0.00000,   0.00000,   0.00000,-366386834.80123,   0.00000
-88615263.45283,-120801230.66538,-12596578.45600,  -0.00017,  -0.00038,  -0.00016,110529592.11288,   0.00000,274640135.82653,   0.00000,   0.00000,   0.00000,-364110543.71365,   0.00000
-90391593.04960,-123330498.99500,-12804285.69265,  -0.00017,  -0.00038,  -0.00017,112804525.60486,   0.00000,274640135.82653,   0.00000,   0.00000,   0.00000,-361835610.22167,   0.00000
-92167922.64636,-125859767.32462,-13007665.69520,  -0.00017,  -0.00039,  -0.00017,115078111.72158,   0.00000,274640135.82653,   0.00000,   0.00000,   0.00000,-359562024.10495,   0.00000
-93907470.75331,-128360908.63262,-13206718.46366,  -0.00018,  -0.00040,  -0.00017,117321523.56973,   0.00000,274640135.82653,   0.00000,   0.00000,   0.00000,-357318612.25680,   0.00000
-95662164.17959,-130868540.79175,-13401443.99802,  -0.00018,  -0.00041,  -0.00017,119571956.96742,   0.00000,274640135.82653,   0.00000,   0.00000,   0.00000,-355068178.85911,   0.00000
-97386566.96719,-133363191.24860,-13596169.53238,  -0.00018,  -0.00042,  -0.00018,121805863.27446,   0.00000,274640135.82653,   0.00000,   0.00000,   0.00000,-352834272.55207,   0.00000
-99119624.22299,-135849187.23726,-13782240.59854,  -0.00019,  -0.00042,  -0.00018,124033187.72378,   0.00000,274640135.82653,   0.00000,   0.00000,   0.00000,-350606948.10275,   0.00000
-100815899.98897,-138307056.20428,-13968311.66471,  -0.00019,  -0.00043,  -0.00018,126231843.57644,   0.00000,274640135.82653,   0.00000,   0.00000,   0.00000,-348408292.25009,   0.00000
-102518666.60609,-140780070.49064,-14150055.49678,  -0.00019,  -0.00044,  -0.00018,128441396.56012,   0.00000,274640135.82653,   0.00000,   0.00000,   0.00000,-346198739.26641,   0.00000
-104199797.05272,-143231448.60652,-14327472.09475,  -0.00019,  -0.00045,  -0.00019,130629196.84841,   0.00000,274640135.82653,   0.00000,   0.00000,   0.00000,-344010938.97812,   0.00000
-105874436.64821,-145667681.40306,-14500561.45862,  -0.00020,  -0.00046,  -0.00019,132803557.49138,   0.00000,274640135.82653,   0.00000,   0.00000,   0.00000,-341836578.33515,   0.00000
-107549076.24370,-148103914.19960,-14673650.82250,  -0.00020,  -0.00046,  -0.00019,134978080.17324,   0.00000,274640135.82653,   0.00000,   0.00000,   0.00000,-339662055.65328,   0.00000
-109193425.20051,-150527165.29385,-14838085.71818,  -0.00020,  -0.00047,  -0.00019,137133370.10955,   0.00000,274640135.82653,   0.00000,   0.00000,   0.00000,-337506765.71698,   0.00000
-110831283.30618,-152935271.06876,-15002520.61386,  -0.00021,  -0.00048,  -0.00020,139276649.20994,   0.00000,274640135.82653,   0.00000,   0.00000,   0.00000,-335363486.61659,   0.00000
-112469141.41185,-155343376.84367,-15162628.27545,  -0.00021,  -0.00049,  -0.00020,141418712.23479,   0.00000,274640135.82653,   0.00000,   0.00000,   0.00000,-333221423.59174,   0.00000
-114091854.19817,-157744991.76744,-15318408.70293,  -0.00021,  -0.00050,  -0.00020,143551300.78280,   0.00000,274640135.82653,   0.00000,   0.00000,   0.00000,-331088835.04373,   0.00000
-115692930.81402,-160124970.52072,-15469861.89632,  -0.00021,  -0.00050,  -0.00020,145662222.86448,   0.00000,274640135.82653,   0.00000,   0.00000,   0.00000,-328977912.96205,   0.00000
-117287516.57872,-162489803.95466,-15616987.85562,  -0.00022,  -0.00051,  -0.00020,147759748.53887,   0.00000,274640135.82653,   0.00000,   0.00000,   0.00000,-326880387.28766,   0.00000
-118873447.87522,-164863291.85679,-15759786.58081,  -0.00022,  -0.00052,  -0.00020,149860089.08226,   0.00000,274640135.82653,   0.00000,   0.00000,   0.00000,-324780046.74427,   0.00000
-120452888.32058,-167221634.43959,-15902585.30601,  -0.00022,  -0.00053,  -0.00021,151948416.01585,   0.00000,274640135.82653,   0.00000,   0.00000,   0.00000,-322691719.81068,   0.00000
-122002038.12726,-169566995.32010,-16041056.79711,  -0.00022,  -0.00053,  -0.00021,154019124.43079,   0.00000,274640135.82653,   0.00000,   0.00000,   0.00000,-320621011.39574,   0.00000
-123559842.40213,-171903701.73241,-16175201.05411,  -0.00023,  -0.00054,  -0.00021,156084702.69943,   0.00000,274640135.82653,   0.00000,   0.00000,   0.00000,-318555433.12710,   0.00000
-125102501.35767,-174233917.29357,-16305018.07702,  -0.00023,  -0.00055,  -0.00021,158140936.35145,   0.00000,274640135.82653,   0.00000,   0.00000,   0.00000,-316499199.47508,   0.00000
-126623524.14272,-176542496.68426,-16430507.86583,  -0.00023,  -0.00056,  -0.00021,160175596.38380,   0.00000,274640135.82653,   0.00000,   0.00000,   0.00000,-314464539.44273,   0.00000
-128129401.60843,-178844585.22379,-16551670.42054,  -0.00023,  -0.00056,  -0.00022,162200964.59609,   0.00000,274640135.82653,   0.00000,   0.00000,   0.00000,-312439171.23043,   0.00000
-129635279.07414,-181146673.76333,-16672832.97525,  -0.00024,  -0.00057,  -0.00022,164226591.84112,   0.00000,274640135.82653,   0.00000,   0.00000,   0.00000,-310413543.98541,   0.00000
-131134665.68871,-183433616.98353,-16789668.29587,  -0.00024,  -0.00058,  -0.00022,166238880.01969,   0.00000,274640135.82653,   0.00000,   0.00000,   0.00000,-308401255.80684,   0.00000
-132603761.66460,-185707578.50144,-16897849.14829,  -0.00024,  -0.00059,  -0.00022,168232430.75896,   0.00000,274640135.82653,   0.00000,   0.00000,   0.00000,-306407705.06756,   0.00000
-134072857.64049,-187981540.01934,-17006030.00071,  -0.00024,  -0.00059,  -0.00022,170226271.35385,   0.00000,274640135.82653,   0.00000,   0.00000,   0.00000,-304413864.47268,   0.00000
-135535462.76523,-190240356.21791,-17114210.85314,  -0.00025,  -0.00060,  -0.00022,172208097.14895,   0.00000,274640135.82653,   0.00000,   0.00000,   0.00000,-302432038.67758,   0.00000
-136982922.57064,-192492681.56533,-17213737.23736,  -0.00025,  -0.00061,  -0.00022,174179452.53950,   0.00000,274640135.82653,   0.00000,   0.00000,   0.00000,-300460683.28703,   0.00000
-138415237.05670,-194738516.06161,-17308936.38750,  -0.00025,  -0.00062,  -0.00023,176141668.71925,   0.00000,274640135.82653,   0.00000,   0.00000,   0.00000,-298498467.10728,   0.00000
-139841060.69162,-196969205.23855,-17404135.53763,  -0.00025,  -0.00062,  -0.00023,178091884.38824,   0.00000,274640135.82653,   0.00000,   0.00000,   0.00000,-296548251.43829,   0.00000
-141251739.00720,-199193403.56434,-17495007.45366,  -0.00025,  -0.00063,  -0.00023,180032988.64733,   0.00000,274640135.82653,   0.00000,   0.00000,   0.00000,-294607147.17920,   0.00000
-142640781.15230,-201395965.71965,-17581552.13560,  -0.00026,  -0.00064,  -0.00023,181952693.05841,   0.00000,274640135.82653,   0.00000,   0.00000,   0.00000,-292687442.76812,   0.00000
-144036314.14854,-203613673.19430,-17663769.58344,  -0.00026,  -0.00065,  -0.00023,183883797.48012,   0.00000,274640135.82653,   0.00000,   0.00000,   0.00000,-290756338.34641,   0.00000
-145403720.12315,-205794599.17912,-17741659.79718,  -0.00026,  -0.00065,  -0.00023,185781210.16973,   0.00000,274640135.82653,   0.00000,   0.00000,   0.00000,-288858925.65680,   0.00000
-146777616.94891,-207990670.48329,-17815222.77683,  -0.00026,  -0.00066,  -0.00023,187690061.99559,   0.00000,274640135.82653,   0.00000,   0.00000,   0.00000,-286950073.83094,   0.00000
-148129877.60418,-210165105.61697,-17888785.75648,  -0.00026,  -0.00067,  -0.00023,189578814.35918,   0.00000,274640135.82653,   0.00000,   0.00000,   0.00000,-285061321.46735,   0.00000
-149466992.94012,-212333049.89950,-17958021.50203,  -0.00027,  -0.00067,  -0.00023,191458599.17148,   0.00000,274640135.82653,   0.00000,   0.00000,   0.00000,-283181536.65505,   0.00000
-150797617.42491,-214485848.86269,-18022930.01348,  -0.00027,  -0.00068,  -0.00023,193325176.37995,   0.00000,274640135.82653,   0.00000,   0.00000,   0.00000,-281314959.44658,   0.00000
-152113096.59036,-216632156.97474,-18083511.29084,  -0.00027,  -0.00069,  -0.00024,195182830.98976,   0.00000,274640135.82653,   0.00000,   0.00000,   0.00000,-279457304.83677,   0.00000
-153413430.43647,-218771974.23565,-18139765.33409,  -0.00027,  -0.00070,  -0.00024,197031600.40340,   0.00000,274640135.82653,   0.00000,   0.00000,   0.00000,-277608535.42313,   0.00000
-154707273.43143,-220896646.17721,-18191692.14326,  -0.00027,  -0.00070,  -0.00024,198867201.65429,   0.00000,274640135.82653,   0.00000,   0.00000,   0.00000,-275772934.17224,   0.00000
-155985971.10706,-223014827.26763,-18243618.95242,  -0.00027,  -0.00071,  -0.00024,200695144.08239,   0.00000,274640135.82653,   0.00000,   0.00000,   0.00000,-273944991.74414,   0.00000
-157264668.78268,-225133008.35805,-18291218.52749,  -0.00028,  -0.00072,  -0.00024,202522308.73130,   0.00000,274640135.82653,   0.00000,   0.00000,   0.00000,-272117827.09523,   0.00000
-158528221.13897,-227244698.59733,-18334490.86845,  -0.00028,  -0.00072,  -0.00024,204340678.21263,   0.00000,274640135.82653,   0.00000,   0.00000,   0.00000,-270299457.61390,   0.00000
-159770137.32477,-229334752.66612,-18373435.97533,  -0.00028,  -0.00073,  -0.00024,206137890.94443,   0.00000,274640135.82653,   0.00000,   0.00000,   0.00000,-268502244.88210,   0.00000
-161005562.65943,-231409661.41557,-18408053.84810,  -0.00028,  -0.00074,  -0.00024,207921978.64134,   0.00000,274640135.82653,   0.00000,   0.00000,   0.00000,-266718157.18519,   0.00000
-162232333.52590,-233493224.63321,-18442671.72088,  -0.00028,  -0.00075,  -0.00024,209710900.32889,   0.00000,274640135.82653,   0.00000,   0.00000,   0.00000,-264929235.49764,   0.00000
-163437468.22187,-235555151.68037,-18468635.12546,  -0.00028,  -0.00075,  -0.00024,211477585.89239,   0.00000,274640135.82653,   0.00000,   0.00000,   0.00000,-263162549.93414,   0.00000
-164642602.91785,-237617078.72753,-18494598.53004,  -0.00029,  -0.00076,  -0.00024,213244739.63851,   0.00000,274640135.82653,   0.00000,   0.00000,   0.00000,-261395396.18802,   0.00000
-165826101.44335,-239657369.60421,-18516234.70052,  -0.00029,  -0.00077,  -0.00024,214990828.37258,   0.00000,274640135.82653,   0.00000,   0.00000,   0.00000,-259649307.45395,   0.00000
-166994454.64950,-241691169.62974,-18533543.63691,  -0.00029,  -0.00077,  -0.00024,216728311.51924,   0.00000,274640135.82653,   0.00000,   0.00000,   0.00000,-257911824.30729,   0.00000
-168162807.85566,-243724969.65527,-18546525.33920,  -0.00029,  -0.00078,  -0.00024,218465183.36813,   0.00000,274640135.82653,   0.00000,   0.00000,   0.00000,-256174952.45840,   0.00000
-169316015.74248,-245752278.82966,-18559507.04149,  -0.00029,  -0.00079,  -0.00024,220194606.95184,   0.00000,274640135.82653,   0.00000,   0.00000,   0.00000,-254445528.87469,   0.00000
-170462732.77815,-247764442.68470,-18568161.50969,  -0.00029,  -0.00079,  -0.00024,221910991.62799,   0.00000,274640135.82653,   0.00000,   0.00000,   0.00000,-252729144.19854,   0.00000
-171579159.17514,-249763624.83746,-18572488.74378,  -0.00029,  -0.00080,  -0.00024,223610946.57342,   0.00000,274640135.82653,   0.00000,   0.00000,   0.00000,-251029189.25311,   0.00000
-172704240.04033,-251754152.52202,-18572488.74378,  -0.00029,  -0.00081,  -0.00024,225305814.98508,   0.00000,274640135.82653,   0.00000,   0.00000,   0.00000,-249334320.84145,   0.00000
-173805521.11798,-253746843.82363,-18568161.50969,  -0.00030,  -0.00082,  -0.00024,226996800.33932,   0.00000,274640135.82653,   0.00000,   0.00000,   0.00000,-247643335.48721,   0.00000
-174900311.34449,-255724389.80590,-18563834.27559,  -0.00030,  -0.00082,  -0.00024,228675872.98096,   0.00000,274640135.82653,   0.00000,   0.00000,   0.00000,-245964262.84557,   0.00000
-175973465.40052,-257680299.61769,-18550852.57330,  -0.00030,  -0.00083,  -0.00024,230333029.41730,   0.00000,274640135.82653,   0.00000,   0.00000,   0.00000,-244307106.40923,   0.00000
-177053110.30769,-259651354.74881,-18537870.87101,  -0.00030,  -0.00084,  -0.00024,232003249.77881,   0.00000,274640135.82653,   0.00000,   0.00000,   0.00000,-242636886.04772,   0.00000
-178111119.04437,-261600773.70946,-18520561.93462,  -0.00030,  -0.00084,  -0.00024,233652653.79936,   0.00000,274640135.82653,   0.00000,   0.00000,   0.00000,-240987482.02717,   0.00000
-179153982.46172,-263543701.81895,-18498925.76414,  -0.00030,  -0.00085,  -0.00024,235293772.18712,   0.00000,274640135.82653,   0.00000,   0.00000,   0.00000,-239346363.63941,   0.00000
-180190355.02792,-265471484.60911,-18477289.59365,  -0.00030,  -0.00086,  -0.00024,236922989.21027,   0.00000,274640135.82653,   0.00000,   0.00000,   0.00000,-237717146.61626,   0.00000
-181211582.27478,-267392776.54812,-18451326.18907,  -0.00030,  -0.00086,  -0.00024,238543959.65507,   0.00000,274640135.82653,   0.00000,   0.00000,   0.00000,-236096176.17146,   0.00000
-182217664.20231,-269307577.63599,-18421035.55039,  -0.00030,  -0.00087,  -0.00024,240156728.87293,   0.00000,274640135.82653,   0.00000,   0.00000,   0.00000,-234483406.95360,   0.00000
-183223746.12983,-271222378.72386,-18386417.67762,  -0.00030,  -0.00088,  -0.00024,241769147.46819,   0.00000,274640135.82653,   0.00000,   0.00000,   0.00000,-232870988.35834,   0.00000
-184214682.73801,-273130688.96058,-18347472.57074,  -0.00031,  -0.00088,  -0.00024,243373434.50891,   0.00000,274640135.82653,   0.00000,   0.00000,   0.00000,-231266701.31762,   0.00000
-185183983.17571,-275017363.02681,-18308527.46387,  -0.00031,  -0.00089,  -0.00024,244958064.56809,   0.00000,274640135.82653,   0.00000,   0.00000,   0.00000,-229682071.25844,   0.00000
-186153283.61341,-276904037.09305,-18260927.88881,  -0.00031,  -0.00090,  -0.00024,246541435.60441,   0.00000,274640135.82653,   0.00000,   0.00000,   0.00000,-228098700.22212,   0.00000
-187100947.88063,-278769074.98880,-18213328.31374,  -0.00031,  -0.00090,  -0.00024,248105178.66930,   0.00000,274640135.82653,   0.00000,   0.00000,   0.00000,-226534957.15723,   0.00000
-188033466.82851,-280627622.03341,-18165728.73868,  -0.00031,  -0.00091,  -0.00024,249661857.99740,   0.00000,274640135.82653,   0.00000,   0.00000,   0.00000,-224978277.82913,   0.00000
-188972476.62753,-282501314.39736,-18109474.69542,  -0.00031,  -0.00092,  -0.00024,251229926.05979,   0.00000,274640135.82653,   0.00000,   0.00000,   0.00000,-223410209.76674,   0.00000
-189883359.40492,-284338225.27148,-18053220.65216,  -0.00031,  -0.00092,  -0.00023,252765851.00721,   0.00000,274640135.82653,   0.00000,   0.00000,   0.00000,-221874284.81932,   0.00000
-190785587.71412,-286183790.61380,-17992639.37480,  -0.00031,  -0.00093,  -0.00023,254306439.19887,   0.00000,274640135.82653,   0.00000,   0.00000,   0.00000,-220333696.62766,   0.00000
-191681325.17217,-288014210.63677,-17927730.86335,  -0.00031,  -0.00094,  -0.00023,255834284.22894,   0.00000,274640135.82653,   0.00000,   0.00000,   0.00000,-218805851.59759,   0.00000
-192561917.31088,-289838139.80861,-17858495.11780,  -0.00031,  -0.00094,  -0.00023,257354286.76905,   0.00000,274640135.82653,   0.00000,   0.00000,   0.00000,-217285849.05747,   0.00000
-193442509.44960,-291662068.98044,-17789259.37225,  -0.00031,  -0.00095,  -0.00023,258875061.86636,   0.00000,274640135.82653,   0.00000,   0.00000,   0.00000,-215765073.96017,   0.00000
-194286320.09849,-293457871.13064,-17715696.39260,  -0.00031,  -0.00096,  -0.00023,260367786.24871,   0.00000,274640135.82653,   0.00000,   0.00000,   0.00000,-214272349.57782,   0.00000
-195151766.91786,-295275309.45133,-17637806.17886,  -0.00031,  -0.00096,  -0.00023,261880695.65454,   0.00000,274640135.82653,   0.00000,   0.00000,   0.00000,-212759440.17199,   0.00000
-195980432.24741,-297064620.75039,-17555588.73102,  -0.00031,  -0.00097,  -0.00023,263365643.22716,   0.00000,274640135.82653,   0.00000,   0.00000,   0.00000,-211274492.59937,   0.00000
-196802606.72582,-298838786.73010,-17473371.28318,  -0.00031,  -0.00098,  -0.00023,264838800.70928,   0.00000,274640135.82653,   0.00000,   0.00000,   0.00000,-209801335.11725,   0.00000
-197616126.73603,-300621607.17802,-17386826.60124,  -0.00031,  -0.00098,  -0.00023,266316938.70753,   0.00000,274640135.82653,   0.00000,   0.00000,   0.00000,-208323197.11900,   0.00000
-198408010.57576,-302382791.45544,-17295954.68520,  -0.00031,  -0.00099,  -0.00022,267774855.59592,   0.00000,274640135.82653,   0.00000,   0.00000,   0.00000,-206865280.23061,   0.00000
-199199894.41549,-304143975.73287,-17200755.53507,  -0.00031,  -0.00100,  -0.00022,269232810.09115,   0.00000,274640135.82653,   0.00000,   0.00000,   0.00000,-205407325.73538,   0.00000
-199976632.93588,-305898669.15915,-17105556.38494,  -0.00031,  -0.00100,  -0.00022,270684066.41953,   0.00000,274640135.82653,   0.00000,   0.00000,   0.00000,-203956069.40700,   0.00000
-200753371.45627,-307653362.58544,-17006030.00071,  -0.00031,  -0.00101,  -0.00022,272135394.70538,   0.00000,274640135.82653,   0.00000,   0.00000,   0.00000,-202504741.12114,   0.00000
-201493328.48683,-309379928.99009,-16902176.38239,  -0.00031,  -0.00101,  -0.00022,273559062.95856,   0.00000,274640135.82653,   0.00000,   0.00000,   0.00000,-201081072.86797,   0.00000
-202233285.51740,-311106495.39474,-16798322.76406,  -0.00031,  -0.00102,  -0.00022,274983664.02667,   0.00000,274640135.82653,   0.00000,   0.00000,   0.00000,-199656471.79986,   0.00000
-202973242.54796,-312833061.79939,-16685814.67755,  -0.00031,  -0.00103,  -0.00022,276407615.75967,   0.00000,274640135.82653,   0.00000,   0.00000,   0.00000,-198232520.06686,   0.00000
-203698054.25919,-314553137.35290,-16573306.59103,  -0.00031,  -0.00103,  -0.00022,277825007.80474,   0.00000,274640135.82653,   0.00000,   0.00000,   0.00000,-196815128.02179,   0.00000
-204401229.79993,-316251576.73592,-16460798.50451,  -0.00031,  -0.00104,  -0.00021,279223181.31364,   0.00000,274640135.82653,   0.00000,   0.00000,   0.00000,-195416954.51289,   0.00000
-205089260.02133,-317943525.26780,-16339635.94980,  -0.00031,  -0.00105,  -0.00021,280613325.80436,   0.00000,274640135.82653,   0.00000,   0.00000,   0.00000,-194026810.02217,   0.00000
-205777290.24274,-319635473.79968,-16218473.39508,  -0.00031,  -0.00105,  -0.00021,282004475.61101,   0.00000,274640135.82653,   0.00000,   0.00000,   0.00000,-192635660.21552,   0.00000
-206450175.14480,-321320931.48041,-16092983.60627,  -0.00031,  -0.00106,  -0.00021,283388435.90908,   0.00000,274640135.82653,   0.00000,   0.00000,   0.00000,-191251699.91745,   0.00000
-207107914.72752,-322999898.31000,-15967493.81746,  -0.00031,  -0.00107,  -0.00021,284765991.35307,   0.00000,274640135.82653,   0.00000,   0.00000,   0.00000,-189874144.47346,   0.00000
-207759163.45910,-324663719.82025,-15837676.79456,  -0.00031,  -0.00107,  -0.00021,286131148.51780,   0.00000,274640135.82653,   0.00000,   0.00000,   0.00000,-188508987.30873,   0.00000
-208395266.87134,-326321050.47935,-15703532.53755,  -0.00031,  -0.00108,  -0.00020,287489227.00237,   0.00000,274640135.82653,   0.00000,   0.00000,   0.00000,-187150908.82416,   0.00000
-209031370.28359,-327978381.13845,-15565061.04646,  -0.00031,  -0.00108,  -0.00020,288847667.81162,   0.00000,274640135.82653,   0.00000,   0.00000,   0.00000,-185792468.01491,   0.00000
-209637183.05715,-329622730.09526,-15426589.55536,  -0.00031,  -0.00109,  -0.00020,290192438.05231,   0.00000,274640135.82653,   0.00000,   0.00000,   0.00000,-184447697.77422,   0.00000
-210236504.97956,-331251933.73274,-15283790.83016,  -0.00031,  -0.00110,  -0.00020,291524897.04728,   0.00000,274640135.82653,   0.00000,   0.00000,   0.00000,-183115238.77925,   0.00000
-210842317.75313,-332896282.68955,-15136664.87086,  -0.00031,  -0.00110,  -0.00020,292870534.60634,   0.00000,274640135.82653,   0.00000,   0.00000,   0.00000,-181769601.22019,   0.00000
-211426494.35620,-334518995.47588,-14989538.91157,  -0.00031,  -0.00111,  -0.00019,294197214.75783,   0.00000,274640135.82653,   0.00000,   0.00000,   0.00000,-180442921.06870,   0.00000
-211995525.63994,-336135217.41106,-14838085.71818,  -0.00031,  -0.00112,  -0.00019,295517057.94678,   0.00000,274640135.82653,   0.00000,   0.00000,   0.00000,-179123077.87975,   0.00000
-212542920.75320,-337729803.17576,-14682305.29069,  -0.00031,  -0.00112,  -0.00019,296817358.97519,   0.00000,274640135.82653,   0.00000,   0.00000,   0.00000,-177822776.85134,   0.00000
-213096806.71760,-339339534.25979,-14526524.86321,  -0.00031,  -0.00113,  -0.00019,298131610.49257,   0.00000,274640135.82653,   0.00000,   0.00000,   0.00000,-176508525.33395,   0.00000
-213629056.51151,-340927629.17335,-14366417.20162,  -0.00031,  -0.00113,  -0.00019,299426378.58142,   0.00000,274640135.82653,   0.00000,   0.00000,   0.00000,-175213757.24511,   0.00000
-214146160.98609,-342509233.23575,-14201982.30594,  -0.00031,  -0.00114,  -0.00018,300714490.20849,   0.00000,274640135.82653,   0.00000,   0.00000,   0.00000,-173925645.61804,   0.00000
-214663265.46067,-344090837.29816,-14037547.41026,  -0.00031,  -0.00115,  -0.00018,302003836.58681,   0.00000,274640135.82653,   0.00000,   0.00000,   0.00000,-172636299.23972,   0.00000
-215165224.61590,-345665950.50942,-13868785.28048,  -0.00030,  -0.00115,  -0.00018,303286598.71091,   0.00000,274640135.82653,   0.00000,   0.00000,   0.00000,-171353537.11562,   0.00000
-215667183.77114,-347241063.72069,-13700023.15070,  -0.00030,  -0.00116,  -0.00018,304570615.93381,   0.00000,274640135.82653,   0.00000,   0.00000,   0.00000,-170069519.89272,   0.00000
-216132361.43656,-348788049.91032,-13522606.55273,  -0.00030,  -0.00117,  -0.00018,305827564.51366,   0.00000,274640135.82653,   0.00000,   0.00000,   0.00000,-168812571.31287,   0.00000
-216597539.10197,-350335036.09995,-13349517.18886,  -0.00030,  -0.00117,  -0.00017,307086394.37666,   0.00000,274640135.82653,   0.00000,   0.00000,   0.00000,-167553741.44986,   0.00000
-217069207.61853,-351897167.60892,-13167773.35679,  -0.00030,  -0.00118,  -0.00017,308358215.22504,   0.00000,274640135.82653,   0.00000,   0.00000,   0.00000,-166281920.60149,   0.00000
-217497603.79412,-353416026.77692,-12986029.52472,  -0.00030,  -0.00118,  -0.00017,309591452.66141,   0.00000,274640135.82653,   0.00000,   0.00000,   0.00000,-165048683.16512,   0.00000
-217932490.82085,-354950031.26427,-12799958.45855,  -0.00030,  -0.00119,  -0.00017,310838330.37312,   0.00000,274640135.82653,   0.00000,   0.00000,   0.00000,-163801805.45341,   0.00000
-218367377.84759,-356484035.75161,-12613887.39239,  -0.00030,  -0.00120,  -0.00016,312086567.77828,   0.00000,274640135.82653,   0.00000,   0.00000,   0.00000,-162553568.04825,   0.00000
-218780628.70384,-357996404.06847,-12423489.09212,  -0.00030,  -0.00120,  -0.00016,313315718.90005,   0.00000,274640135.82653,   0.00000,   0.00000,   0.00000,-161324416.92648,   0.00000
-219178734.24075,-359502281.53418,-12228763.55777,  -0.00030,  -0.00121,  -0.00016,314538679.53368,   0.00000,274640135.82653,   0.00000,   0.00000,   0.00000,-160101456.29285,   0.00000
-219561694.45833,-361001668.14874,-12034038.02341,  -0.00030,  -0.00121,  -0.00016,315756010.76149,   0.00000,274640135.82653,   0.00000,   0.00000,   0.00000,-158884125.06503,   0.00000
-219944654.67590,-362501054.76331,-11834985.25495,  -0.00029,  -0.00122,  -0.00015,316974284.67212,   0.00000,274640135.82653,   0.00000,   0.00000,   0.00000,-157665851.15441,   0.00000
-220312469.57414,-363993950.52673,-11635932.48649,  -0.00029,  -0.00123,  -0.00015,318186987.31063,   0.00000,274640135.82653,   0.00000,   0.00000,   0.00000,-156453148.51590,   0.00000
-220665139.15303,-365480355.43901,-11432552.48394,  -0.00029,  -0.00123,  -0.00015,319393691.43347,   0.00000,274640135.82653,   0.00000,   0.00000,   0.00000,-155246444.39306,   0.00000
-221011317.88078,-366951615.03195,-11224845.24729,  -0.00029,  -0.00124,  -0.00015,320588555.35053,   0.00000,274640135.82653,   0.00000,   0.00000,   0.00000,-154051580.47600,   0.00000
-221342351.28919,-368416383.77374,-11017138.01064,  -0.00029,  -0.00124,  -0.00014,321777953.96677,   0.00000,274640135.82653,   0.00000,   0.00000,   0.00000,-152862181.85976,   0.00000
-221664730.22941,-369889806.98372,-10809430.77399,  -0.00029,  -0.00125,  -0.00014,322974811.77245,   0.00000,274640135.82653,   0.00000,   0.00000,   0.00000,-151665324.05408,   0.00000
-221974127.46733,-371332939.55503,-10593069.06915,  -0.00029,  -0.00126,  -0.00014,324146570.77126,   0.00000,274640135.82653,   0.00000,   0.00000,   0.00000,-150493565.05527,   0.00000
-222274870.23707,-372784726.59453,-10376707.36430,  -0.00028,  -0.00126,  -0.00013,325325870.10270,   0.00000,274640135.82653,   0.00000,   0.00000,   0.00000,-149314265.72383,   0.00000
-222575613.00680,-374236513.63403,-10160345.65946,  -0.00028,  -0.00127,  -0.00013,326506735.12570,   0.00000,274640135.82653,   0.00000,   0.00000,   0.00000,-148133400.70083,   0.00000
-222839574.28671,-375660173.65190,-9939656.72052,  -0.00028,  -0.00127,  -0.00013,327662141.68037,   0.00000,274640135.82653,   0.00000,   0.00000,   0.00000,-146977994.14616,   0.00000
-223110026.41776,-377098978.98911,-9714640.54748,  -0.00028,  -0.00128,  -0.00013,328831694.64225,   0.00000,274640135.82653,   0.00000,   0.00000,   0.00000,-145808441.18428,   0.00000
-223373987.69767,-378522639.00699,-9489624.37444,  -0.00028,  -0.00129,  -0.00012,329989960.79311,   0.00000,274640135.82653,   0.00000,   0.00000,   0.00000,-144650175.03342,   0.00000
-223622803.65824,-379939808.17371,-9264608.20141,  -0.00028,  -0.00129,  -0.00012,331143035.44125,   0.00000,274640135.82653,   0.00000,   0.00000,   0.00000,-143497100.38528,   0.00000
-223856474.29947,-381350486.48929,-9030937.56018,  -0.00027,  -0.00130,  -0.00012,332290253.77398,   0.00000,274640135.82653,   0.00000,   0.00000,   0.00000,-142349882.05255,   0.00000
-224074999.62137,-382754673.95373,-8801594.15304,  -0.00027,  -0.00130,  -0.00011,333432746.81169,   0.00000,274640135.82653,   0.00000,   0.00000,   0.00000,-141207389.01484,   0.00000
-224293524.94326,-384158861.41816,-8563596.27771,  -0.00027,  -0.00131,  -0.00011,334576264.12453,   0.00000,274640135.82653,   0.00000,   0.00000,   0.00000,-140063871.70200,   0.00000
-224490414.09467,-385541412.71212,-8329925.63648,  -0.00027,  -0.00132,  -0.00011,335702157.46907,   0.00000,274640135.82653,   0.00000,   0.00000,   0.00000,-138937978.35746,   0.00000
-224693794.09722,-386939109.32541,-8087600.52706,  -0.00027,  -0.00132,  -0.00011,336842079.79300,   0.00000,274640135.82653,   0.00000,   0.00000,   0.00000,-137798056.03353,   0.00000
-224860392.60995,-388308678.91707,-7845275.41763,  -0.00027,  -0.00133,  -0.00010,337957437.15890,   0.00000,274640135.82653,   0.00000,   0.00000,   0.00000,-136682698.66763,   0.00000
-225026991.12268,-389678248.50873,-7602950.30821,  -0.00026,  -0.00133,  -0.00010,339074586.02326,   0.00000,274640135.82653,   0.00000,   0.00000,   0.00000,-135565549.80326,   0.00000
-225193589.63541,-391047818.10039,-7356297.96469,  -0.00026,  -0.00134,  -0.00010,340193227.93975,   0.00000,274640135.82653,   0.00000,   0.00000,   0.00000,-134446907.88677,   0.00000
-225345042.82880,-392410896.84090,-7109645.62116,  -0.00026,  -0.00135,  -0.00009,341307033.49692,   0.00000,274640135.82653,   0.00000,   0.00000,   0.00000,-133333102.32961,   0.00000
-225481350.70285,-393767484.73027,-6858666.04354,  -0.00026,  -0.00135,  -0.00009,342415786.91035,   0.00000,274640135.82653,   0.00000,   0.00000,   0.00000,-132224348.91618,   0.00000
-225611167.72576,-395108927.30030,-6607686.46593,  -0.00026,  -0.00136,  -0.00009,343513408.07773,   0.00000,274640135.82653,   0.00000,   0.00000,   0.00000,-131126727.74880,   0.00000
-225717184.96113,-396452533.48738,-6352379.65421,  -0.00025,  -0.00136,  -0.00008,344612488.52541,   0.00000,274640135.82653,   0.00000,   0.00000,   0.00000,-130027647.30112,   0.00000
-225831856.66470,-397787485.20627,-6092745.60840,  -0.00025,  -0.00137,  -0.00008,345706796.54352,   0.00000,274640135.82653,   0.00000,   0.00000,   0.00000,-128933339.28301,   0.00000
-225916237.72959,-399109455.22286,-5837438.79668,  -0.00025,  -0.00138,  -0.00008,346790173.19850,   0.00000,274640135.82653,   0.00000,   0.00000,   0.00000,-127849962.62803,   0.00000
-226000618.79448,-400431425.23946,-5573477.51677,  -0.00025,  -0.00138,  -0.00007,347875045.21136,   0.00000,274640135.82653,   0.00000,   0.00000,   0.00000,-126765090.61517,   0.00000
-226069854.54003,-401746904.40491,-5309516.23686,  -0.00025,  -0.00139,  -0.00007,348955388.23460,   0.00000,274640135.82653,   0.00000,   0.00000,   0.00000,-125684747.59193,   0.00000
-226139090.28558,-403062383.57036,-5045554.95695,  -0.00024,  -0.00139,  -0.00007,350037691.29929,   0.00000,274640135.82653,   0.00000,   0.00000,   0.00000,-124602444.52723,   0.00000
-226193180.71179,-404371371.88466,-4781593.67705,  -0.00024,  -0.00140,  -0.00006,351115515.91933,   0.00000,274640135.82653,   0.00000,   0.00000,   0.00000,-123524619.90720,   0.00000
-226232125.81866,-405673869.34782,-4508977.92894,  -0.00024,  -0.00140,  -0.00006,352188577.06961,   0.00000,274640135.82653,   0.00000,   0.00000,   0.00000,-122451558.75692,   0.00000
-226264580.07439,-406961221.49164,-4240689.41494,  -0.00024,  -0.00141,  -0.00006,353250812.37979,   0.00000,274640135.82653,   0.00000,   0.00000,   0.00000,-121389323.44674,   0.00000
-226288379.86192,-408257228.10365,-3968073.66683,  -0.00023,  -0.00142,  -0.00005,354321556.31685,   0.00000,274640135.82653,   0.00000,   0.00000,   0.00000,-120318579.50968,   0.00000
-226290543.47897,-409531598.54518,-3691130.68463,  -0.00023,  -0.00142,  -0.00005,355374852.24137,   0.00000,274640135.82653,   0.00000,   0.00000,   0.00000,-119265283.58516,   0.00000
-226292707.09601,-410805968.98671,-3414187.70243,  -0.00023,  -0.00143,  -0.00004,356430229.72211,   0.00000,274640135.82653,   0.00000,   0.00000,   0.00000,-118209906.10442,   0.00000
-226279725.39372,-412073848.57710,-3137244.72023,  -0.00023,  -0.00143,  -0.00004,357481384.71918,   0.00000,274640135.82653,   0.00000,   0.00000,   0.00000,-117158751.10735,   0.00000
-226266743.69143,-413341728.16748,-2855974.50394,  -0.00022,  -0.00144,  -0.00004,358534526.16458,   0.00000,274640135.82653,   0.00000,   0.00000,   0.00000,-116105609.66195,   0.00000
-226223471.35046,-414596626.05557,-2574704.28764,  -0.00022,  -0.00145,  -0.00003,359577280.53444,   0.00000,274640135.82653,   0.00000,   0.00000,   0.00000,-115062855.29209,   0.00000
-226195344.32884,-415858014.79481,-2289106.83725,  -0.00022,  -0.00145,  -0.00003,360628334.22659,   0.00000,274640135.82653,   0.00000,   0.00000,   0.00000,-114011801.59994,   0.00000
-226130435.81738,-417091276.51242,-2003509.38685,  -0.00022,  -0.00146,  -0.00003,361656075.52194,   0.00000,274640135.82653,   0.00000,   0.00000,   0.00000,-112984060.30459,   0.00000
-226072018.15707,-418339683.54937,-1717911.93646,  -0.00021,  -0.00146,  -0.00002,362699056.18138,   0.00000,274640135.82653,   0.00000,   0.00000,   0.00000,-111941079.64515,   0.00000
-225991964.32628,-419566454.41583,-1427987.25197,  -0.00021,  -0.00147,  -0.00002,363724961.82563,   0.00000,274640135.82653,   0.00000,   0.00000,   0.00000,-110915174.00090,   0.00000
-225911910.49549,-420793225.28230,-1138062.56748,  -0.00021,  -0.00147,  -0.00001,364753086.15465,   0.00000,274640135.82653,   0.00000,   0.00000,   0.00000,-109887049.67188,   0.00000
-225816711.34536,-422013505.29762,-843810.64889,  -0.00020,  -0.00148,  -0.00001,365777281.84787,   0.00000,274640135.82653,   0.00000,   0.00000,   0.00000,-108862853.97866,   0.00000
-225712857.72703,-423242439.78113,-553885.96440,  -0.00020,  -0.00149,  -0.00001,366810736.96092,   0.00000,274640135.82653,   0.00000,   0.00000,   0.00000,-107829398.86561,   0.00000
-225596022.40642,-424441083.62596,-255306.81172,  -0.00020,  -0.00149,  -0.00000,367820301.40817,   0.00000,274640135.82653,   0.00000,   0.00000,   0.00000,-106819834.41836,   0.00000
-225470532.61761,-425648381.93899,43272.34097,  -0.00020,  -0.00150,   0.00000,368839184.95738,   0.00000,274640135.82653,   0.00000,   0.00000,   0.00000,-105800950.86914,   0.00000
-225329897.50946,-426849189.40087,341851.49365,  -0.00019,  -0.00150,   0.00000,369854376.33134,   0.00000,274640135.82653,   0.00000,   0.00000,   0.00000,-104785759.49519,   0.00000
-225189262.40131,-428049996.86276,640430.64634,  -0.00019,  -0.00151,   0.00001,370871906.59968,   0.00000,274640135.82653,   0.00000,   0.00000,   0.00000,-103768229.22685,   0.00000
-225026991.12268,-429229168.15415,943337.03312,  -0.00019,  -0.00151,   0.00001,371872756.42414,   0.00000,274640135.82653,   0.00000,   0.00000,   0.00000,-102767379.40239,   0.00000
-224871210.69519,-430423484.76489,1246243.41990,  -0.00018,  -0.00152,   0.00002,372889054.37668,   0.00000,274640135.82653,   0.00000,   0.00000,   0.00000,-101751081.44985,   0.00000
-224693794.09722,-431596165.20514,1553477.04078,  -0.00018,  -0.00153,   0.00002,373888768.11237,   0.00000,274640135.82653,   0.00000,   0.00000,   0.00000,-100751367.71416,   0.00000
-224501232.17991,-432762354.79425,1856383.42756,  -0.00018,  -0.00153,   0.00002,374884936.43152,   0.00000,274640135.82653,   0.00000,   0.00000,   0.00000,-99755199.39501,   0.00000
-224308670.26260,-433928544.38336,2167944.28253,  -0.00017,  -0.00154,   0.00003,375883660.66278,   0.00000,274640135.82653,   0.00000,   0.00000,   0.00000,-98756475.16374,   0.00000
-224100963.02595,-435088243.12132,2475177.90341,  -0.00017,  -0.00154,   0.00003,376878901.19209,   0.00000,274640135.82653,   0.00000,   0.00000,   0.00000,-97761234.63444,   0.00000
-223878110.46996,-436241451.00814,2786738.75839,  -0.00017,  -0.00155,   0.00004,377870874.64322,   0.00000,274640135.82653,   0.00000,   0.00000,   0.00000,-96769261.18331,   0.00000
-223655257.91397,-437394658.89495,3098299.61336,  -0.00016,  -0.00155,   0.00004,378865339.08308,   0.00000,274640135.82653,   0.00000,   0.00000,   0.00000,-95774796.74345,   0.00000
-223417260.03864,-438541375.93063,3409860.46834,  -0.00016,  -0.00156,   0.00004,379856524.63469,   0.00000,274640135.82653,   0.00000,   0.00000,   0.00000,-94783611.19184,   0.00000
-223157625.99283,-439666456.79581,3725748.55741,  -0.00016,  -0.00157,   0.00005,380831511.49799,   0.00000,274640135.82653,   0.00000,   0.00000,   0.00000,-93808624.32854,   0.00000
-222904482.79816,-440806682.98034,4041636.64648,  -0.00015,  -0.00157,   0.00005,381822156.25640,   0.00000,274640135.82653,   0.00000,   0.00000,   0.00000,-92817979.57013,   0.00000
-222644848.75235,-441931763.84553,4361851.96965,  -0.00015,  -0.00158,   0.00006,382802376.04950,   0.00000,274640135.82653,   0.00000,   0.00000,   0.00000,-91837759.77703,   0.00000
-222354924.06786,-443043863.00842,4677740.05872,  -0.00015,  -0.00158,   0.00006,383773678.15530,   0.00000,274640135.82653,   0.00000,   0.00000,   0.00000,-90866457.67122,   0.00000
-222064999.38337,-444155962.17132,4997955.38189,  -0.00014,  -0.00159,   0.00006,384747745.79167,   0.00000,274640135.82653,   0.00000,   0.00000,   0.00000,-89892390.03486,   0.00000
-221775074.69888,-445268061.33422,5318170.70506,  -0.00014,  -0.00159,   0.00007,385724411.28032,   0.00000,274640135.82653,   0.00000,   0.00000,   0.00000,-88915724.54621,   0.00000
-221470004.69505,-446373669.64597,5642713.26232,  -0.00014,  -0.00160,   0.00007,386698277.54915,   0.00000,274640135.82653,   0.00000,   0.00000,   0.00000,-87941858.27738,   0.00000
-221149789.37188,-447472787.10657,5967255.81959,  -0.00013,  -0.00160,   0.00008,387669235.75122,   0.00000,274640135.82653,   0.00000,   0.00000,   0.00000,-86970900.07531,   0.00000
-220829574.04871,-448571904.56718,6291798.37685,  -0.00013,  -0.00161,   0.00008,388642859.07015,   0.00000,274640135.82653,   0.00000,   0.00000,   0.00000,-85997276.75638,   0.00000
-220487722.55506,-449649385.85730,6616340.93412,  -0.00013,  -0.00162,   0.00009,389600519.59087,   0.00000,274640135.82653,   0.00000,   0.00000,   0.00000,-85039616.23566,   0.00000
-220137216.59321,-450735521.61562,6945210.72548,  -0.00012,  -0.00162,   0.00009,390568751.03293,   0.00000,274640135.82653,   0.00000,   0.00000,   0.00000,-84071384.79360,   0.00000
-219780219.78022,-451806512.05459,7269753.28275,  -0.00012,  -0.00163,   0.00009,391526350.02316,   0.00000,274640135.82653,   0.00000,   0.00000,   0.00000,-83113785.80337,   0.00000
-219414568.49903,-452886156.96176,7598623.07411,  -0.00012,  -0.00163,   0.00010,392494612.12369,   0.00000,274640135.82653,   0.00000,   0.00000,   0.00000,-82145523.70284,   0.00000
-219042426.36670,-453950656.54959,7931820.09957,  -0.00011,  -0.00164,   0.00010,393452755.96864,   0.00000,274640135.82653,   0.00000,   0.00000,   0.00000,-81187379.85789,   0.00000
-218639993.59569,-455002174.43513,8260689.89093,  -0.00011,  -0.00164,   0.00011,394402674.97587,   0.00000,274640135.82653,   0.00000,   0.00000,   0.00000,-80237460.85066,   0.00000
-218252706.14402,-456060183.17182,8593886.91639,  -0.00010,  -0.00165,   0.00011,395361012.17635,   0.00000,274640135.82653,   0.00000,   0.00000,   0.00000,-79279123.65018,   0.00000
-217850273.37301,-457111701.05736,8927083.94185,  -0.00010,  -0.00166,   0.00012,396316815.56302,   0.00000,274640135.82653,   0.00000,   0.00000,   0.00000,-78323320.26351,   0.00000
-217426204.43152,-458141582.77242,9260280.96731,  -0.00010,  -0.00166,   0.00012,397257016.57118,   0.00000,274640135.82653,   0.00000,   0.00000,   0.00000,-77383119.25535,   0.00000
-216993481.02183,-459180118.95567,9593477.99277,  -0.00009,  -0.00167,   0.00012,398207941.25921,   0.00000,274640135.82653,   0.00000,   0.00000,   0.00000,-76432194.56732,   0.00000
-216560757.61215,-460218655.13891,9931002.25233,  -0.00009,  -0.00167,   0.00013,399162054.89563,   0.00000,274640135.82653,   0.00000,   0.00000,   0.00000,-75478080.93090,   0.00000
-216121543.35131,-461242046.00283,10268526.51188,  -0.00008,  -0.00168,   0.00013,400105900.44506,   0.00000,274640135.82653,   0.00000,   0.00000,   0.00000,-74534235.38147,   0.00000
-215667183.77114,-462258946.01559,10606050.77144,  -0.00008,  -0.00168,   0.00014,401047437.60049,   0.00000,274640135.82653,   0.00000,   0.00000,   0.00000,-73592698.22604,   0.00000
-215197678.87163,-463269355.17721,10943575.03099,  -0.00008,  -0.00169,   0.00014,401986731.14287,   0.00000,274640135.82653,   0.00000,   0.00000,   0.00000,-72653404.68366,   0.00000
-214719519.50393,-464288418.80702,11281099.29055,  -0.00007,  -0.00169,   0.00015,402936981.79796,   0.00000,274640135.82653,   0.00000,   0.00000,   0.00000,-71703154.02857,   0.00000
-214228378.43393,-465277191.79816,11622950.78420,  -0.00007,  -0.00170,   0.00015,403864289.04720,   0.00000,274640135.82653,   0.00000,   0.00000,   0.00000,-70775846.77933,   0.00000
-213743728.21508,-466281110.10864,11960475.04376,  -0.00006,  -0.00170,   0.00016,404807301.08825,   0.00000,274640135.82653,   0.00000,   0.00000,   0.00000,-69832834.73828,   0.00000
-213243932.67689,-467278537.56796,12302326.53741,  -0.00006,  -0.00171,   0.00016,405748610.84588,   0.00000,274640135.82653,   0.00000,   0.00000,   0.00000,-68891524.98065,   0.00000
-212728991.81936,-468269474.17615,12644178.03107,  -0.00005,  -0.00172,   0.00016,406687911.03088,   0.00000,274640135.82653,   0.00000,   0.00000,   0.00000,-67952224.79565,   0.00000
-212207560.11069,-469245265.46499,12986029.52472,  -0.00005,  -0.00172,   0.00017,407617082.24764,   0.00000,274640135.82653,   0.00000,   0.00000,   0.00000,-67023053.57889,   0.00000
-211670983.08268,-470214565.90269,13332208.25247,  -0.00005,  -0.00173,   0.00017,408544742.92602,   0.00000,274640135.82653,   0.00000,   0.00000,   0.00000,-66095392.90051,   0.00000
-211125751.58647,-471192520.80859,13674059.74612,  -0.00004,  -0.00173,   0.00018,409483258.85326,   0.00000,274640135.82653,   0.00000,   0.00000,   0.00000,-65156876.97327,   0.00000
-210574029.23912,-472155330.39514,14020238.47387,  -0.00004,  -0.00174,   0.00018,410412144.95078,   0.00000,274640135.82653,   0.00000,   0.00000,   0.00000,-64227990.87575,   0.00000
-210022306.89177,-473118139.98170,14366417.20162,  -0.00003,  -0.00174,   0.00019,411344092.47030,   0.00000,274640135.82653,   0.00000,   0.00000,   0.00000,-63296043.35623,   0.00000
-209433803.05459,-474052822.54662,14708268.69527,  -0.00003,  -0.00175,   0.00019,412255879.83152,   0.00000,274640135.82653,   0.00000,   0.00000,   0.00000,-62384255.99501,   0.00000
-208866935.38790,-475009141.28203,15054447.42302,  -0.00002,  -0.00175,   0.00020,413189165.56542,   0.00000,274640135.82653,   0.00000,   0.00000,   0.00000,-61450970.26111,   0.00000
-208269777.08254,-475952478.31515,15404953.38487,  -0.00002,  -0.00176,   0.00020,414116508.80656,   0.00000,274640135.82653,   0.00000,   0.00000,   0.00000,-60523627.01997,   0.00000
-207666127.92602,-476880670.02893,15751132.11262,  -0.00001,  -0.00176,   0.00020,415033403.95183,   0.00000,274640135.82653,   0.00000,   0.00000,   0.00000,-59606731.87470,   0.00000
-207062478.76951,-477808861.74271,16097310.84037,  -0.00001,  -0.00177,   0.00021,415953436.61572,   0.00000,274640135.82653,   0.00000,   0.00000,   0.00000,-58686699.21081,   0.00000
-206450175.14480,-478745707.92468,16447816.80222,  -0.00001,  -0.00178,   0.00021,416885577.17367,   0.00000,274640135.82653,   0.00000,   0.00000,   0.00000,-57754558.65285,   0.00000
-205816235.34961,-479660917.93617,16793995.52997,  -0.00000,  -0.00178,   0.00022,417802620.15990,   0.00000,274640135.82653,   0.00000,   0.00000,   0.00000,-56837515.66663,   0.00000
-205175804.70327,-480560982.62832,17144501.49181,   0.00000,  -0.00179,   0.00022,418710262.99194,   0.00000,274640135.82653,   0.00000,   0.00000,   0.00000,-55929872.83459,   0.00000
-204526719.58874,-481469701.78866,17495007.45366,   0.00001,  -0.00179,   0.00023,419629669.98939,   0.00000,274640135.82653,   0.00000,   0.00000,   0.00000,-55010465.83714,   0.00000
-203877634.47421,-482378420.94901,17841186.18141,   0.00001,  -0.00180,   0.00023,420551760.45839,   0.00000,274640135.82653,   0.00000,   0.00000,   0.00000,-54088375.36814,   0.00000
-203206913.18919,-483265503.93886,18191692.14326,   0.00002,  -0.00180,   0.00024,421459984.51577,   0.00000,274640135.82653,   0.00000,   0.00000,   0.00000,-53180151.31076,   0.00000
-202527537.43598,-484161241.39692,18542198.10510,   0.00002,  -0.00181,   0.00024,422380120.83966,   0.00000,274640135.82653,   0.00000,   0.00000,   0.00000,-52260014.98687,   0.00000
-201841670.83163,-485041833.53563,18892704.06695,   0.00003,  -0.00181,   0.00025,423290431.09965,   0.00000,274640135.82653,   0.00000,   0.00000,   0.00000,-51349704.72688,   0.00000
-201155804.22727,-485922425.67435,19243210.02880,   0.00003,  -0.00182,   0.00025,424204017.44397,   0.00000,274640135.82653,   0.00000,   0.00000,   0.00000,-50436118.38256,   0.00000
-200454792.30358,-486796526.96191,19593715.99064,   0.00004,  -0.00182,   0.00025,425116486.19215,   0.00000,274640135.82653,   0.00000,   0.00000,   0.00000,-49523649.63438,   0.00000
-199732144.20940,-487648992.07900,19948549.18659,   0.00004,  -0.00183,   0.00026,426015403.40768,   0.00000,274640135.82653,   0.00000,   0.00000,   0.00000,-48624732.41885,   0.00000
-199015986.96637,-488516602.51542,20299055.14843,   0.00005,  -0.00183,   0.00026,426930175.93291,   0.00000,274640135.82653,   0.00000,   0.00000,   0.00000,-47709959.89362,   0.00000
-198278193.55285,-489362576.78136,20649561.11028,   0.00005,  -0.00184,   0.00027,427830876.63029,   0.00000,274640135.82653,   0.00000,   0.00000,   0.00000,-46809259.19624,   0.00000
-197546890.99048,-490223696.36664,21004394.30623,   0.00006,  -0.00185,   0.00027,428748683.09162,   0.00000,274640135.82653,   0.00000,   0.00000,   0.00000,-45891452.73491,   0.00000
-196793952.25763,-491063179.78143,21354900.26807,   0.00006,  -0.00185,   0.00028,429651879.45733,   0.00000,274640135.82653,   0.00000,   0.00000,   0.00000,-44988256.36919,   0.00000
-196041013.52477,-491902663.19622,21705406.22992,   0.00007,  -0.00186,   0.00028,430558458.71804,   0.00000,274640135.82653,   0.00000,   0.00000,   0.00000,-44081677.10849,   0.00000
-195266438.62143,-492720510.44053,22060239.42586,   0.00007,  -0.00186,   0.00029,431451812.65328,   0.00000,274640135.82653,   0.00000,   0.00000,   0.00000,-43188323.17325,   0.00000
-194483209.24990,-493547012.15304,22410745.38771,   0.00008,  -0.00187,   0.00029,432356900.68809,   0.00000,274640135.82653,   0.00000,   0.00000,   0.00000,-42283235.13844,   0.00000
-193693489.02722,-494358368.54620,22765578.58365,   0.00008,  -0.00187,   0.00030,433253022.74125,   0.00000,274640135.82653,   0.00000,   0.00000,   0.00000,-41387113.08528,   0.00000
-192910259.65568,-495184870.25870,23116084.54550,   0.00009,  -0.00188,   0.00030,434164994.22285,   0.00000,274640135.82653,   0.00000,   0.00000,   0.00000,-40475141.60368,   0.00000
-192105394.11366,-495989735.80072,23466590.50735,   0.00009,  -0.00188,   0.00031,435063259.08427,   0.00000,274640135.82653,   0.00000,   0.00000,   0.00000,-39576876.74226,   0.00000
-191285383.25231,-496788110.49160,23821423.70329,   0.00010,  -0.00189,   0.00031,435961696.87597,   0.00000,274640135.82653,   0.00000,   0.00000,   0.00000,-38678438.95056,   0.00000
-190458881.53980,-497571339.86313,24171929.66514,   0.00010,  -0.00189,   0.00031,436849847.75687,   0.00000,274640135.82653,   0.00000,   0.00000,   0.00000,-37790288.06966,   0.00000
-189623725.35911,-498363223.70286,24526762.86108,   0.00011,  -0.00190,   0.00032,437751362.29073,   0.00000,274640135.82653,   0.00000,   0.00000,   0.00000,-36888773.53580,   0.00000
-188782078.32726,-499139962.22325,24877268.82293,   0.00011,  -0.00190,   0.00032,438642600.59113,   0.00000,274640135.82653,   0.00000,   0.00000,   0.00000,-35997535.23540,   0.00000
-187931776.82723,-499925355.21183,25227774.78477,   0.00012,  -0.00191,   0.00033,439546556.23829,   0.00000,274640135.82653,   0.00000,   0.00000,   0.00000,-35093579.58824,   0.00000
-187074984.47605,-500695602.88107,25582607.98072,   0.00013,  -0.00191,   0.00033,440441737.25731,   0.00000,274640135.82653,   0.00000,   0.00000,   0.00000,-34198398.56922,   0.00000
-186196555.95438,-501444214.37983,25933113.94256,   0.00013,  -0.00192,   0.00034,441322842.21393,   0.00000,274640135.82653,   0.00000,   0.00000,   0.00000,-33317293.61260,   0.00000
-185324618.28386,-502207971.19793,26283619.90441,   0.00014,  -0.00192,   0.00034,442220585.16228,   0.00000,274640135.82653,   0.00000,   0.00000,   0.00000,-32419550.66425,   0.00000
-184431044.44286,-502950091.84554,26638453.10036,   0.00014,  -0.00193,   0.00035,443105874.31308,   0.00000,274640135.82653,   0.00000,   0.00000,   0.00000,-31534261.51345,   0.00000
-183543961.45300,-503707357.81250,26988959.06220,   0.00015,  -0.00193,   0.00035,444007044.95330,   0.00000,274640135.82653,   0.00000,   0.00000,   0.00000,-30633090.87323,   0.00000
-182635242.29266,-504442987.60897,27339465.02405,   0.00015,  -0.00194,   0.00036,444895078.92734,   0.00000,274640135.82653,   0.00000,   0.00000,   0.00000,-29745056.89919,   0.00000
-181720032.28117,-505163472.08609,27689970.98590,   0.00016,  -0.00194,   0.00036,445773692.23317,   0.00000,274640135.82653,   0.00000,   0.00000,   0.00000,-28866443.59336,   0.00000
-180796167.80148,-505892611.03142,28040476.94774,   0.00016,  -0.00195,   0.00036,446665364.49191,   0.00000,274640135.82653,   0.00000,   0.00000,   0.00000,-27974771.33462,   0.00000
-179865812.47066,-506606604.65740,28390982.90959,   0.00017,  -0.00195,   0.00037,447547648.36858,   0.00000,274640135.82653,   0.00000,   0.00000,   0.00000,-27092487.45795,   0.00000
-178926802.67163,-507329252.75158,28741488.87144,   0.00018,  -0.00196,   0.00037,448443073.15732,   0.00000,274640135.82653,   0.00000,   0.00000,   0.00000,-26197062.66921,   0.00000
-177981302.02147,-508036755.52642,29091994.83328,   0.00018,  -0.00196,   0.00038,449329142.27975,   0.00000,274640135.82653,   0.00000,   0.00000,   0.00000,-25310993.54678,   0.00000
-177014165.20082,-508722622.13077,29438173.56103,   0.00019,  -0.00197,   0.00038,450201542.49173,   0.00000,274640135.82653,   0.00000,   0.00000,   0.00000,-24438593.33480,   0.00000
-176038373.91197,-509417143.20332,29788679.52288,   0.00019,  -0.00197,   0.00039,451088090.76472,   0.00000,274640135.82653,   0.00000,   0.00000,   0.00000,-23552045.06181,   0.00000
-175056091.77198,-510096518.95653,30134858.25063,   0.00020,  -0.00198,   0.00039,451964511.80196,   0.00000,274640135.82653,   0.00000,   0.00000,   0.00000,-22675624.02457,   0.00000
-174073809.63199,-510775894.70974,30485364.21248,   0.00020,  -0.00198,   0.00040,452845528.02199,   0.00000,274640135.82653,   0.00000,   0.00000,   0.00000,-21794607.80454,   0.00000
-173076382.17266,-511448779.61180,30831542.94023,   0.00021,  -0.00199,   0.00040,453726058.22321,   0.00000,274640135.82653,   0.00000,   0.00000,   0.00000,-20914077.60332,   0.00000
-172078954.71333,-512121664.51387,31177721.66798,   0.00022,  -0.00199,   0.00041,454610334.45062,   0.00000,274640135.82653,   0.00000,   0.00000,   0.00000,-20029801.37591,   0.00000
-171059891.08352,-512772913.24545,31528227.62982,   0.00022,  -0.00200,   0.00041,455482991.57907,   0.00000,274640135.82653,   0.00000,   0.00000,   0.00000,-19157144.24746,   0.00000
-170040827.45370,-513424161.97703,31874406.35757,   0.00023,  -0.00200,   0.00041,456358540.08400,   0.00000,274640135.82653,   0.00000,   0.00000,   0.00000,-18281595.74253,   0.00000
-169006618.50455,-514068919.85746,32216257.85123,   0.00023,  -0.00201,   0.00042,457233751.43155,   0.00000,274640135.82653,   0.00000,   0.00000,   0.00000,-17406384.39497,   0.00000
-167972409.55540,-514713677.73790,32562436.57898,   0.00024,  -0.00201,   0.00042,458113676.47063,   0.00000,274640135.82653,   0.00000,   0.00000,   0.00000,-16526459.35590,   0.00000
-166916564.43576,-515336799.44784,32908615.30673,   0.00025,  -0.00202,   0.00043,458981305.87340,   0.00000,274640135.82653,   0.00000,   0.00000,   0.00000,-15658829.95313,   0.00000
-165860719.31612,-515959921.15779,33250466.80038,   0.00025,  -0.00202,   0.00043,459851840.72593,   0.00000,274640135.82653,   0.00000,   0.00000,   0.00000,-14788295.10060,   0.00000
-164789728.87715,-516576552.01660,33596645.52813,   0.00026,  -0.00203,   0.00044,460724085.17233,   0.00000,274640135.82653,   0.00000,   0.00000,   0.00000,-13916050.65420,   0.00000
-163718738.43817,-517193182.87540,33938497.02178,   0.00026,  -0.00203,   0.00044,461599245.05970,   0.00000,274640135.82653,   0.00000,   0.00000,   0.00000,-13040890.76683,   0.00000
-162626111.82871,-517788177.56372,34280348.51543,   0.00027,  -0.00204,   0.00045,462462320.50649,   0.00000,274640135.82653,   0.00000,   0.00000,   0.00000,-12177815.32004,   0.00000
-161533485.21925,-518383172.25204,34622200.00909,   0.00028,  -0.00204,   0.00045,463329288.76631,   0.00000,274640135.82653,   0.00000,   0.00000,   0.00000,-11310847.06022,   0.00000
-160425713.29045,-518971676.08922,34964051.50274,   0.00028,  -0.00205,   0.00045,464197224.72879,   0.00000,274640135.82653,   0.00000,   0.00000,   0.00000,-10442911.09774,   0.00000
-159311450.51051,-519545034.60705,35305902.99639,   0.00029,  -0.00205,   0.00046,465056156.32846,   0.00000,274640135.82653,   0.00000,   0.00000,   0.00000,-9583979.49807,   0.00000
-158203678.58171,-520133538.44423,35643427.25595,   0.00029,  -0.00206,   0.00046,465930922.25710,   0.00000,274640135.82653,   0.00000,   0.00000,   0.00000,-8709213.56943,   0.00000
-157074270.48242,-520700406.11092,35980951.51551,   0.00030,  -0.00206,   0.00047,466793840.53110,   0.00000,274640135.82653,   0.00000,   0.00000,   0.00000,-7846295.29543,   0.00000
-155923226.21265,-521245637.60713,36322803.00916,   0.00031,  -0.00207,   0.00047,467646024.02605,   0.00000,274640135.82653,   0.00000,   0.00000,   0.00000,-6994111.80048,   0.00000
-154778672.79403,-521806014.42267,36660327.26871,   0.00031,  -0.00207,   0.00048,468514088.00336,   0.00000,274640135.82653,   0.00000,   0.00000,   0.00000,-6126047.82317,   0.00000
-153627628.52426,-522351245.91888,36993524.29417,   0.00032,  -0.00208,   0.00048,469372188.89799,   0.00000,274640135.82653,   0.00000,   0.00000,   0.00000,-5267946.92854,   0.00000
-152461438.93515,-522889986.56394,37331048.55373,   0.00033,  -0.00208,   0.00049,470232591.61085,   0.00000,274640135.82653,   0.00000,   0.00000,   0.00000,-4407544.21568,   0.00000
-151288758.49490,-523413581.88966,37668572.81329,   0.00033,  -0.00209,   0.00049,471084110.64629,   0.00000,274640135.82653,   0.00000,   0.00000,   0.00000,-3556025.18024,   0.00000
-150107423.58645,-523945831.68358,38001769.83875,   0.00034,  -0.00209,   0.00049,471948850.82401,   0.00000,274640135.82653,   0.00000,   0.00000,   0.00000,-2691285.00252,   0.00000
-148919597.82686,-524462936.15815,38334966.86420,   0.00035,  -0.00210,   0.00050,472804735.11400,   0.00000,274640135.82653,   0.00000,   0.00000,   0.00000,-1835400.71253,   0.00000
-147710135.89679,-524958404.46224,38668163.88966,   0.00035,  -0.00210,   0.00050,473649252.18426,   0.00000,274640135.82653,   0.00000,   0.00000,   0.00000,-990883.64227,   0.00000
-146500673.96671,-525453872.76634,39001360.91512,   0.00036,  -0.00211,   0.00051,474497831.22671,   0.00000,274640135.82653,   0.00000,   0.00000,   0.00000,-142304.59982,   0.00000
-146298158.85304,-525536835.12954,39056427.63655,   0.00036,  -0.00211,   0.00051,474640135.88407,   0.00000,274640135.82653,   0.00000,   0.00000,   0.00000,  -6.42905,   0.00000
-145146571.36050,-525188518.22548,39266565.74045,   0.00036,  -0.00211,   0.00051,474643849.29165,   0.00000,274643857.38002,   0.00000,  -0.00000,   0.00000,709240.50185,   1.00000
-143750554.96463,-524763520.73634,39518417.09027,   0.00037,  -0.00211,   0.00052,474648336.43989,   0.00001,274648337.27703,   0.00000,  -0.00001,   0.00000,852955.53690,   1.00000
-142337684.46206,-524330032.55606,39770845.95317,   0.00038,  -0.00212,   0.00052,474652754.43613,   0.00001,274652761.82643,   0.00000,  -0.00001,   0.00000,841613.87578,   1.00000
-140930539.47949,-523894812.91746,40021304.93565,   0.00038,  -0.00212,   0.00052,474657274.13692,   0.00002,274657278.53077,   0.00000,  -0.00001,   0.00000,858339.17214,   1.00000
-139517130.46641,-523453528.07527,40273306.46615,   0.00039,  -0.00213,   0.00053,474661678.69294,   0.00002,274661685.07817,   0.00000,  -0.00002,   0.00000,836617.77423,   1.00000
-138109739.21843,-523011761.81185,40519110.38193,   0.00040,  -0.00213,   0.00053,474666177.37832,   0.00002,274666177.91186,   0.00001,  -0.00002,   0.00001,852214.02563,   1.00000
-136670626.00023,-522557175.16203,40765719.70925,   0.00040,  -0.00214,   0.00054,474670598.18842,   0.00003,274670604.35813,   0.00001,  -0.00003,   0.00001,838826.16119,   1.00000
-135243877.41459,-522101968.09359,41012512.53174,   0.00041,  -0.00214,   0.00054,474674999.81257,   0.00003,274675000.16774,   0.00001,  -0.00003,   0.00001,832250.39223,   1.00000
-133808352.82336,-521640965.07413,41257513.12253,   0.00042,  -0.00215,   0.00055,474679471.42696,   0.00004,274679477.07512,   0.00001,  -0.00003,   0.00001,846809.39874,   1.00000
-132370434.45253,-521175198.31567,41502911.50570,   0.00042,  -0.00215,   0.00055,474683902.00211,   0.00004,274683911.66586,   0.00001,  -0.00004,   0.00001,838022.92152,   1.00000
-130915512.52164,-520701596.59055,41744703.90450,   0.00043,  -0.00215,   0.00055,474688285.75654,   0.00004,274688286.75075,   0.00001,  -0.00004,   0.00001,826017.24086,   1.00000
-129462397.14192,-520224739.96496,41985696.79421,   0.00044,  -0.00216,   0.00056,474692686.54871,   0.00005,274692687.43108,   0.00001,  -0.00004,   0.00001,830080.36384,   1.00000
-127996330.01656,-519740325.08773,42226084.25485,   0.00044,  -0.00216,   0.00056,474697101.76244,   0.00005,274697102.90611,   0.00001,  -0.00005,   0.00001,832097.83502,   1.00000
-126532309.77630,-519253872.96384,42461457.74665,   0.00045,  -0.00217,   0.00057,474701531.78685,   0.00006,274701538.06439,   0.00001,  -0.00005,   0.00001,835034.49962,   1.00000
-125050935.56072,-518758070.36502,42697454.39738,   0.00046,  -0.00217,   0.00057,474705917.23790,   0.00006,274705920.93376,   0.00002,  -0.00006,   0.00002,824430.37238,   1.00000
-123586246.41429,-518263432.95428,42932461.95448,   0.00046,  -0.00218,   0.00057,474710335.65338,   0.00006,274710340.09767,   0.00002,  -0.00006,   0.00002,830499.54907,   1.00000
-122089277.56063,-517754825.94242,43168281.85590,   0.00047,  -0.00218,   0.00058,474714693.79436,   0.00007,274714697.31946,   0.00002,  -0.00006,   0.00002,818103.47477,   1.00000
-120609032.60399,-517247418.97146,43403111.94914,   0.00048,  -0.00219,   0.00058,474719086.13395,   0.00007,274719090.84023,   0.00002,  -0.00007,   0.00002,824166.12855,   1.00000
-119116014.47735,-516733442.08684,43633116.91683,   0.00049,  -0.00219,   0.00059,474723491.71172,   0.00008,274723494.36639,   0.00002,  -0.00007,   0.00002,825294.52041,   1.00000
-117605431.27399,-516209708.44238,43863753.02976,   0.00049,  -0.00219,   0.00059,474727839.56251,   0.00008,274727847.13756,   0.00002,  -0.00007,   0.00002,815031.98926,   1.00000
-116096770.71547,-515682631.27009,44093583.84584,   0.00050,  -0.00220,   0.00059,474732219.85537,   0.00008,274732226.60976,   0.00002,  -0.00008,   0.00002,819287.23928,   1.00000
-114585513.04995,-515151593.37398,44319676.05745,   0.00051,  -0.00220,   0.00060,474736553.66838,   0.00009,274736558.56753,   0.00002,  -0.00008,   0.00002,809669.49120,   1.00000
-113061290.95270,-514612490.93564,44545139.05693,   0.00051,  -0.00221,   0.00060,474740905.14102,   0.00009,274740908.27355,   0.00002,  -0.00009,   0.00002,812253.19465,   1.00000
-111539028.13775,-514070024.46799,44769797.63326,   0.00052,  -0.00221,   0.00061,474745277.24970,   0.00010,274745284.98398,   0.00003,  -0.00009,   0.00002,816557.14177,   1.00000
-110013915.79898,-513522248.89993,44994932.76085,   0.00053,  -0.00221,   0.00061,474749618.48931,   0.00010,274749620.85454,   0.00003,  -0.00009,   0.00003,808218.78919,   1.00000
-108471132.76006,-512965523.61196,45216512.35514,   0.00053,  -0.00222,   0.00061,474753896.89015,   0.00010,274753901.06121,   0.00003,  -0.00010,   0.00003,797125.41869,   1.00000
-106935230.70485,-512407448.75044,45436002.16567,   0.00054,  -0.00222,   0.00062,474758274.52739,   0.00011,274758276.25476,   0.00003,  -0.00010,   0.00003,814093.59190,   1.00000
-105381603.52939,-511840293.32655,45651942.63244,   0.00055,  -0.00223,   0.00062,474762590.11392,   0.00011,274762596.30842,   0.00003,  -0.00010,   0.00003,803115.51146,   1.00000
-103824850.26243,-511266330.79344,45872571.19541,   0.00056,  -0.00223,   0.00063,474766878.22592,   0.00012,274766882.93450,   0.00003,  -0.00011,   0.00003,796193.20894,   1.00000
-102270251.20712,-510690245.05649,46088201.13331,   0.00056,  -0.00223,   0.00063,474771184.75955,   0.00012,274771190.41948,   0.00003,  -0.00011,   0.00003,799361.76323,   1.00000
-100717682.24019,-510110778.17471,46303030.48772,   0.00057,  -0.00224,   0.00063,474775519.75579,   0.00012,274775525.40254,   0.00003,  -0.00011,   0.00003,803761.14269,   1.00000
-99132228.95994,-509516840.31132,46514459.56268,   0.00058,  -0.00224,   0.00064,474779795.43356,   0.00013,274779799.01495,   0.00004,  -0.00012,   0.00003,791685.39215,   1.00000
-97563823.32821,-508924561.61318,46724946.37805,   0.00058,  -0.00225,   0.00064,474784103.42077,   0.00013,274784107.83205,   0.00004,  -0.00012,   0.00003,797511.90540,   1.00000
-95977294.47440,-508321432.14573,46936083.16152,   0.00059,  -0.00225,   0.00065,474788364.81137,   0.00014,274788370.01745,   0.00004,  -0.00012,   0.00004,788190.83015,   1.00000
-94392840.96379,-507714832.67808,47146412.46813,   0.00060,  -0.00225,   0.00065,474792656.76341,   0.00014,274792660.44836,   0.00004,  -0.00013,   0.00004,792726.64251,   1.00000
-92805324.31467,-507103793.28392,47353077.15358,   0.00061,  -0.00226,   0.00065,474796898.82614,   0.00014,274796904.37322,   0.00004,  -0.00013,   0.00004,783456.55109,   1.00000
-91204876.14130,-506483989.71600,47559063.24525,   0.00061,  -0.00226,   0.00066,474801163.86892,   0.00015,274801170.34700,   0.00004,  -0.00014,   0.00004,786846.26357,   1.00000
-89601182.28684,-505858325.29380,47765575.94260,   0.00062,  -0.00227,   0.00066,474805395.77354,   0.00015,274805397.15689,   0.00004,  -0.00014,   0.00004,778957.10390,   1.00000
-87984681.59166,-505225091.08065,47967213.81136,   0.00063,  -0.00227,   0.00066,474809634.36293,   0.00015,274809639.77549,   0.00004,  -0.00014,   0.00004,781195.93747,   1.00000
-86364876.69547,-504585888.86752,48169385.48444,   0.00064,  -0.00227,   0.00067,474813839.51016,   0.00016,274813843.60841,   0.00004,  -0.00015,   0.00004,773394.08133,   1.00000
-84747208.87350,-503943150.58100,48370748.62629,   0.00064,  -0.00228,   0.00067,474818071.42810,   0.00016,274818076.39806,   0.00005,  -0.00015,   0.00004,778059.29212,   1.00000
-83116754.14855,-503292732.34633,48567229.59645,   0.00065,  -0.00228,   0.00068,474822322.90160,   0.00017,274822325.73933,   0.00005,  -0.00015,   0.00004,780443.71165,   1.00000
-81492402.04179,-502639254.79288,48765506.15495,   0.00066,  -0.00228,   0.00068,474826468.92035,   0.00017,274826473.91340,   0.00005,  -0.00016,   0.00005,761221.69246,   1.00000
-79845682.23899,-501973614.69381,48961814.51226,   0.00067,  -0.00229,   0.00068,474830701.33552,   0.00017,274830709.31967,   0.00005,  -0.00016,   0.00005,776570.25075,   1.00000
-78210689.99815,-501308794.02142,49154400.66018,   0.00067,  -0.00229,   0.00069,474834895.11980,   0.00018,274834903.84257,   0.00005,  -0.00016,   0.00005,768435.37609,   1.00000
-76557126.45610,-500632123.10428,49347632.37653,   0.00068,  -0.00230,   0.00069,474839052.73486,   0.00018,274839055.69955,   0.00005,  -0.00017,   0.00005,759990.14511,   1.00000
-74905770.53699,-499951842.06790,49540051.60569,   0.00069,  -0.00230,   0.00069,474843227.83907,   0.00019,274843237.30667,   0.00005,  -0.00017,   0.00005,764795.08076,   1.00000
-73235860.10486,-499260876.70967,49728934.96733,   0.00070,  -0.00230,   0.00070,474847360.12178,   0.00019,274847369.71761,   0.00006,  -0.00017,   0.00005,755171.30804,   1.00000
-71568188.08128,-498566269.60968,49917005.79270,   0.00070,  -0.00231,   0.00070,474851522.67342,   0.00019,274851532.20042,   0.00006,  -0.00018,   0.00005,760041.23677,   1.00000
-69896983.22091,-497866647.54127,50101469.25046,   0.00071,  -0.00231,   0.00070,474855643.27603,   0.00020,274855649.65023,   0.00006,  -0.00018,   0.00005,751208.60162,   1.00000
-68212871.58080,-497156135.68785,50289358.38235,   0.00072,  -0.00231,   0.00071,474859800.53235,   0.00020,274859801.51105,   0.00006,  -0.00018,   0.00005,756871.00120,   1.00000
-66525170.65700,-496440483.04882,50473635.99759,   0.00073,  -0.00232,   0.00071,474863904.16337,   0.00020,274863908.85725,   0.00006,  -0.00019,   0.00006,748143.87374,   1.00000
-64839815.12903,-495722549.11426,50652933.34288,   0.00073,  -0.00232,   0.00071,474868032.04171,   0.00021,274868039.04245,   0.00006,  -0.00019,   0.00006,751697.42540,   1.00000
-63150739.83520,-494998071.10303,50832806.08957,   0.00074,  -0.00232,   0.00072,474872124.31887,   0.00021,274872132.14609,   0.00006,  -0.00019,   0.00006,744351.65599,   1.00000
-61448861.16952,-494263891.84137,51011916.81404,   0.00075,  -0.00233,   0.00072,474876248.10835,   0.00022,274876253.38849,   0.00006,  -0.00020,   0.00006,748871.47393,   1.00000
-59743218.31870,-493523047.08277,51191597.00071,   0.00076,  -0.00233,   0.00072,474880336.29559,   0.00022,274880338.09230,   0.00007,  -0.00020,   0.00006,741643.73474,   1.00000
-58033801.29825,-492776865.82305,51367685.40464,   0.00076,  -0.00233,   0.00073,474884369.27262,   0.00022,274884378.67417,   0.00007,  -0.00020,   0.00006,733044.63920,   1.00000
-56311603.11547,-492020812.48216,51542994.90717,   0.00077,  -0.00234,   0.00073,474888446.70722,   0.00023,274888448.50207,   0.00007,  -0.00021,   0.00006,737773.71305,   1.00000
-54585575.26803,-491259308.36301,51714716.06672,   0.00078,  -0.00234,   0.00074,474892468.56679,   0.00023,274892474.63337,   0.00007,  -0.00021,   0.00006,729275.71594,   1.00000
-52861919.95580,-490494069.52098,51885620.57815,   0.00079,  -0.00234,   0.00074,474896524.98539,   0.00023,274896532.07364,   0.00007,  -0.00021,   0.00006,734373.69007,   1.00000
-51119221.30887,-489715633.09039,52057126.10821,   0.00079,  -0.00234,   0.00074,474900544.73534,   0.00024,274900552.69596,   0.00007,  -0.00022,   0.00006,727140.42657,   1.00000
-49378952.76281,-488934812.96059,52223647.91436,   0.00080,  -0.00235,   0.00074,474904591.96762,   0.00024,274904597.21804,   0.00007,  -0.00022,   0.00007,730901.28323,   1.00000
-47628313.98341,-488143738.17219,52392154.13528,   0.00081,  -0.00235,   0.00075,474908533.95546,   0.00024,274908539.21170,   0.00008,  -0.00022,   0.00007,711822.99780,   1.00000
-45886529.68483,-487353551.75249,52554277.64817,   0.00082,  -0.00235,   0.00075,474912572.04895,   0.00025,274912572.22919,   0.00008,  -0.00023,   0.00007,727711.70947,   1.00000
-44125594.32683,-486548417.96470,52721144.13091,   0.00083,  -0.00236,   0.00075,474916571.72876,   0.00025,274916577.96182,   0.00008,  -0.00023,   0.00007,722229.63714,   1.00000
-42360601.99636,-485738929.71827,52880280.77873,   0.00083,  -0.00236,   0.00076,474920527.30444,   0.00026,274920532.88038,   0.00008,  -0.00023,   0.00007,712530.40197,   1.00000
-40591520.38467,-484920809.01035,53044156.26019,   0.00084,  -0.00236,   0.00076,474924454.17620,   0.00026,274924461.18462,   0.00008,  -0.00024,   0.00007,707198.65840,   1.00000
-38809772.83442,-484093661.92054,53203035.37361,   0.00085,  -0.00237,   0.00076,474928411.28772,   0.00026,274928414.54750,   0.00008,  -0.00024,   0.00007,711178.44682,   1.00000
-37023892.47894,-483259162.93985,53362492.81196,   0.00086,  -0.00237,   0.00077,474932330.76807,   0.00027,274932333.85347,   0.00008,  -0.00024,   0.00007,704524.13350,   1.00000
-35240504.62732,-482422192.74826,53516964.98451,   0.00087,  -0.00237,   0.00077,474936269.75629,   0.00027,274936277.93004,   0.00008,  -0.00025,   0.00007,708447.96930,   1.00000
-33452925.08537,-481577829.94287,53672024.63755,   0.00087,  -0.00237,   0.00077,474940181.60972,   0.00027,274940187.94693,   0.00009,  -0.00025,   0.00008,701815.21068,   1.00000
-31645994.23611,-480719235.60719,53827633.16183,   0.00088,  -0.00238,   0.00078,474944056.23205,   0.00028,274944065.83964,   0.00009,  -0.00025,   0.00008,695531.74565,   1.00000
-29841586.64246,-479858124.41657,53978252.54696,   0.00089,  -0.00238,   0.00078,474947962.73922,   0.00028,274947968.93733,   0.00009,  -0.00025,   0.00008,699545.85445,   1.00000
-28032865.51606,-478990844.89149,54125308.40720,   0.00090,  -0.00238,   0.00078,474951820.85256,   0.00028,274951830.51402,   0.00009,  -0.00026,   0.00008,691601.22691,   1.00000
-26226780.52263,-478118245.93889,54275677.82406,   0.00090,  -0.00238,   0.00079,474955731.01705,   0.00029,274955733.73750,   0.00009,  -0.00026,   0.00008,698564.25364,   1.00000
-24394274.59849,-477228719.12594,54423847.59775,   0.00091,  -0.00239,   0.00079,474959522.62604,   0.00029,274959531.72249,   0.00009,  -0.00026,   0.00008,679233.10106,   1.00000
-22586462.14801,-476345973.05908,54569811.38341,   0.00092,  -0.00239,   0.00079,474963426.98715,   0.00029,274963427.31791,   0.00009,  -0.00027,   0.00008,696206.25441,   1.00000
-20736989.09822,-475439063.74938,54713507.09724,   0.00093,  -0.00239,   0.00079,474967214.60597,   0.00030,274967221.50188,   0.00010,  -0.00027,   0.00008,677592.46431,   1.00000
-18905275.63197,-474535163.49602,54856422.47787,   0.00094,  -0.00239,   0.00080,474971045.47453,   0.00030,274971046.85280,   0.00010,  -0.00027,   0.00008,682684.14702,   1.00000
-17069052.65816,-473624802.41517,54995776.42550,   0.00094,  -0.00240,   0.00080,474974826.28319,   0.00031,274974831.57997,   0.00010,  -0.00028,   0.00009,674960.73602,   1.00000
-15213267.14704,-472699372.44486,55135630.93205,   0.00095,  -0.00240,   0.00080,474978580.32614,   0.00031,274978588.12080,   0.00010,  -0.00028,   0.00009,669463.90511,   1.00000
-13360177.50058,-471769894.25713,55274631.73110,   0.00096,  -0.00240,   0.00081,474982370.91765,   0.00031,274982379.44027,   0.00010,  -0.00028,   0.00009,675193.91529,   1.00000
-11487421.24750,-470826565.90769,55409972.61030,   0.00097,  -0.00240,   0.00081,474986134.64845,   0.00032,274986135.21696,   0.00010,  -0.00028,   0.00009,668410.95318,   1.00000
-9625227.88831,-469882289.75177,55545976.36331,   0.00098,  -0.00241,   0.00081,474989845.77061,   0.00032,274989855.66782,   0.00010,  -0.00029,   0.00009,661663.21856,   1.00000
-7750698.80535,-468926684.91517,55681021.92737,   0.00099,  -0.00241,   0.00081,474993608.66181,   0.00032,274993615.91696,   0.00011,  -0.00029,   0.00009,668288.79515,   1.00000
-5871505.84810,-467964251.91634,55812493.86029,   0.00099,  -0.00241,   0.00082,474997330.75401,   0.00033,274997337.03243,   0.00011,  -0.00029,   0.00009,660889.49651,   1.00000
-3987602.31702,-466994931.40094,55940396.05191,   0.00100,  -0.00241,   0.00082,475001011.14340,   0.00033,275001019.14692,   0.00011,  -0.00030,   0.00009,653524.78528,   1.00000
-2106611.56061,-466020092.97651,56071575.59601,   0.00101,  -0.00242,   0.00082,475004743.47549,   0.00033,275004745.41844,   0.00011,  -0.00030,   0.00009,660928.73141,   1.00000
-205821.11599,-465030834.99709,56199053.48027,   0.00102,  -0.00242,   0.00083,475008428.90546,   0.00034,275008438.88089,   0.00011,  -0.00030,   0.00009,654667.83092,   1.00000
1684719.22545,-464042016.47203,56323089.54951,   0.00103,  -0.00242,   0.00083,475012087.30523,   0.00034,275012087.83330,   0.00011,  -0.00030,   0.00010,646366.80274,   1.00000
3594994.05337,-463037154.92142,56447551.12719,   0.00103,  -0.00242,   0.00083,475015709.97512,   0.00034,275015713.49937,   0.00011,  -0.00031,   0.00010,641819.57734,   1.00000
5517416.34659,-462020539.79590,56570993.84185,   0.00104,  -0.00242,   0.00083,475019381.48662,   0.00035,275019382.28856,   0.00012,  -0.00031,   0.00010,649033.30721,   1.00000
7437296.52783,-460999777.37490,56692424.12542,   0.00105,  -0.00243,   0.00084,475022939.46987,   0.00035,275022941.37044,   0.00012,  -0.00031,   0.00010,629219.54766,   1.00000
9361634.71218,-459971676.04419,56811396.13256,   0.00106,  -0.00243,   0.00084,475026603.43190,   0.00035,275026609.73758,   0.00012,  -0.00032,   0.00010,648122.20173,   1.00000
11283417.51790,-458937942.19549,56932501.17894,   0.00107,  -0.00243,   0.00084,475030175.65791,   0.00036,275030176.91872,   0.00012,  -0.00032,   0.00010,629850.79252,   1.00000
13217426.99790,-457893702.60483,57048428.18420,   0.00107,  -0.00243,   0.00084,475033777.03427,   0.00036,275033779.84771,   0.00012,  -0.00032,   0.00010,635761.65572,   1.00000
15164012.16426,-456835910.12950,57166319.05910,   0.00108,  -0.00243,   0.00085,475037288.48517,   0.00036,275037289.77708,   0.00012,  -0.00032,   0.00010,618963.66738,   1.00000
17122770.15207,-455767427.55336,57279007.49586,   0.00109,  -0.00243,   0.00085,475040832.22416,   0.00037,275040836.76298,   0.00012,  -0.00033,   0.00010,625105.56905,   1.00000
19063552.36079,-454702484.50704,57390987.55909,   0.00110,  -0.00244,   0.00085,475044407.84678,   0.00037,275044413.12423,   0.00013,  -0.00033,   0.00011,629896.46972,   1.00000
21032027.37551,-453615825.98597,57504730.85955,   0.00111,  -0.00244,   0.00085,475047899.10518,   0.00037,275047906.12224,   0.00013,  -0.00033,   0.00011,614833.25444,   1.00000
22997651.31898,-452526241.68716,57613443.58468,   0.00112,  -0.00244,   0.00086,475051427.47471,   0.00038,275051428.46701,   0.00013,  -0.00034,   0.00011,619629.09351,   1.00000
24968162.22105,-451427434.95836,57722674.77465,   0.00112,  -0.00244,   0.00086,475054915.91423,   0.00038,275054924.48655,   0.00013,  -0.00034,   0.00011,614619.95589,   1.00000
26943801.98333,-450320778.98895,57828297.30011,   0.00113,  -0.00244,   0.00086,475058377.73739,   0.00038,275058385.32189,   0.00013,  -0.00034,   0.00011,608072.64148,   1.00000
28916339.54381,-449209785.36845,57933017.92780,   0.00114,  -0.00244,   0.00086,475061882.64496,   0.00039,275061884.67135,   0.00013,  -0.00034,   0.00011,614482.75169,   1.00000
30916783.47624,-448076312.67769,58039443.01176,   0.00115,  -0.00244,   0.00087,475065299.36272,   0.00039,275065304.09076,   0.00013,  -0.00035,   0.00011,600088.08435,   1.00000
32899432.56923,-446947931.98947,58141052.80151,   0.00116,  -0.00245,   0.00087,475068738.16964,   0.00039,275068743.38153,   0.00014,  -0.00035,   0.00011,603224.89355,   1.00000
34901929.33465,-445801920.23916,58242933.62713,   0.00117,  -0.00245,   0.00087,475072164.86565,   0.00039,275072168.10211,   0.00014,  -0.00035,   0.00011,600322.83863,   1.00000
36901454.15850,-444652895.04842,58339770.13790,   0.00117,  -0.00245,   0.00087,475075614.14606,   0.00040,275075623.29888,   0.00014,  -0.00035,   0.00011,605314.03299,   1.00000
38914209.30331,-443489028.64439,58438513.66313,   0.00118,  -0.00245,   0.00087,475078981.57622,   0.00040,275078990.00395,   0.00014,  -0.00036,   0.00011,589475.67224,   1.00000
40923724.74360,-442320707.71592,58536330.36066,   0.00119,  -0.00245,   0.00088,475082389.20048,   0.00040,275082396.60137,   0.00014,  -0.00036,   0.00012,596125.21754,   1.00000
42961637.59370,-441130408.32425,58631654.90011,   0.00120,  -0.00245,   0.00088,475085715.48303,   0.00041,275085718.28685,   0.00014,  -0.00036,   0.00012,580943.19529,   1.00000
44981470.83709,-439943891.25855,58726303.92525,   0.00121,  -0.00245,   0.00088,475089065.13110,   0.00041,275089068.63536,   0.00014,  -0.00036,   0.00012,585630.87599,   1.00000
47021414.90422,-438740518.74310,58817033.21599,   0.00122,  -0.00245,   0.00088,475092397.75296,   0.00041,275092398.90594,   0.00015,  -0.00037,   0.00012,581803.37262,   1.00000
49057997.32270,-437532611.05472,58906819.71434,   0.00122,  -0.00246,   0.00089,475095765.84723,   0.00042,275095770.12202,   0.00015,  -0.00037,   0.00012,588633.46290,   1.00000
51108098.80438,-436309153.56168,58998466.19307,   0.00123,  -0.00246,   0.00089,475099046.10934,   0.00042,275099055.63347,   0.00015,  -0.00037,   0.00012,573352.07892,   1.00000
53155096.80962,-435082535.02217,59085042.99625,   0.00124,  -0.00246,   0.00089,475102365.58561,   0.00042,275102373.17847,   0.00015,  -0.00037,   0.00012,578635.43298,   1.00000
55215726.97921,-433840132.71596,59173466.92980,   0.00125,  -0.00246,   0.00089,475105602.10019,   0.00043,275105605.85134,   0.00015,  -0.00038,   0.00012,563535.38830,   1.00000
57273228.71779,-432594514.50373,59256814.19128,   0.00126,  -0.00246,   0.00089,475108862.64310,   0.00043,275108871.01031,   0.00015,  -0.00038,   0.00012,568895.99150,   1.00000
59350517.48341,-431330011.45149,59340288.67322,   0.00127,  -0.00246,   0.00090,475112125.36571,   0.00043,275112129.12805,   0.00015,  -0.00038,   0.00012,567377.02446,   1.00000
61418277.14439,-430063713.88395,59424502.29561,   0.00127,  -0.00246,   0.00090,475115343.42236,   0.00043,275115352.57466,   0.00016,  -0.00038,   0.00013,561044.17428,   1.00000
63497463.20452,-428785550.83023,59503311.21921,   0.00128,  -0.00246,   0.00090,475118620.25058,   0.00044,275118623.44087,   0.00016,  -0.00039,   0.00013,569013.93486,   1.00000
65575882.44713,-427499709.97067,59584255.25635,   0.00129,  -0.00246,   0.00090,475121794.42150,   0.00044,275121796.96560,   0.00016,  -0.00039,   0.00013,551801.59251,   1.00000
67665657.82005,-426201878.12854,59659773.74229,   0.00130,  -0.00246,   0.00090,475125013.47031,   0.00044,275125018.97004,   0.00016,  -0.00039,   0.00013,559948.73570,   1.00000
69769358.39486,-424887419.18843,59737077.85792,   0.00131,  -0.00246,   0.00091,475128151.54994,   0.00045,275128159.60890,   0.00016,  -0.00039,   0.00013,545533.78345,   1.00000
71869414.09237,-423568235.76065,59813392.54411,   0.00132,  -0.00246,   0.00091,475131339.46577,   0.00045,275131343.73968,   0.00016,  -0.00040,   0.00013,552820.30914,   1.00000
73974989.93611,-422239653.57938,59885981.45203,   0.00133,  -0.00246,   0.00091,475134497.41990,   0.00045,275134499.99065,   0.00017,  -0.00040,   0.00013,547716.29375,   1.00000
76085739.48264,-420900225.06032,59958953.64996,   0.00133,  -0.00246,   0.00091,475137635.26895,   0.00045,275137638.14653,   0.00017,  -0.00040,   0.00013,544314.11441,   1.00000
78216135.93746,-419540964.05404,60031926.79202,   0.00134,  -0.00246,   0.00091,475140773.05494,   0.00046,275140775.39855,   0.00017,  -0.00040,   0.00013,543896.78350,   1.00000
80337607.94424,-418180974.44119,60101521.52804,   0.00135,  -0.00246,   0.00091,475143869.24293,   0.00046,275143869.30006,   0.00017,  -0.00040,   0.00013,536131.49540,   1.00000
82469708.63054,-416807248.34090,60169725.32512,   0.00136,  -0.00246,   0.00092,475147024.58713,   0.00046,275147025.00481,   0.00017,  -0.00041,   0.00013,546586.12900,   1.00000
84601961.62729,-415426418.15118,60235920.53092,   0.00137,  -0.00246,   0.00092,475150070.04431,   0.00047,275150075.99911,   0.00017,  -0.00041,   0.00014,528201.84901,   1.00000
86753799.99549,-414025341.28267,60302063.47214,   0.00138,  -0.00246,   0.00092,475153126.12418,   0.00047,275153128.76300,   0.00017,  -0.00041,   0.00014,528269.33818,   1.00000
88887361.57659,-412628480.35763,60367581.76204,   0.00138,  -0.00246,   0.00092,475156203.33110,   0.00047,275156208.96810,   0.00018,  -0.00041,   0.00014,532775.91736,   1.00000
91049979.97253,-411206065.84164,60430265.58675,   0.00139,  -0.00246,   0.00092,475159218.04599,   0.00047,275159221.72929,   0.00018,  -0.00042,   0.00014,520879.41223,   1.00000
93208610.16189,-409778744.81132,60491908.91131,   0.00140,  -0.00246,   0.00093,475162272.40428,   0.00048,275162280.75497,   0.00018,  -0.00042,   0.00014,528640.81892,   1.00000
95372821.01786,-408341304.17903,60549752.98290,   0.00141,  -0.00246,   0.00093,475165313.93197,   0.00048,275165315.82331,   0.00018,  -0.00042,   0.00014,524280.44481,   1.00000
97527936.87488,-406901524.63145,60608333.52774,   0.00142,  -0.00246,   0.00093,475168313.02818,   0.00048,275168317.51501,   0.00018,  -0.00042,   0.00014,518291.44624,   1.00000
99702477.30706,-405440944.54207,60666778.95955,   0.00143,  -0.00246,   0.00093,475171320.97052,   0.00049,275171324.93777,   0.00018,  -0.00042,   0.00014,519061.06664,   1.00000
101882609.88433,-403970006.70803,60721397.68711,   0.00144,  -0.00246,   0.00093,475174300.15328,   0.00049,275174309.73857,   0.00018,  -0.00043,   0.00014,514936.21251,   1.00000
104067892.29658,-402487316.51903,60776294.82527,   0.00144,  -0.00246,   0.00093,475177279.45479,   0.00049,275177281.84964,   0.00019,  -0.00043,   0.00014,512542.33602,   1.00000
106258311.05012,-400992784.76320,60831456.57077,   0.00145,  -0.00246,   0.00093,475180235.78129,   0.00049,275180241.85910,   0.00019,  -0.00043,   0.00014,510242.93454,   1.00000
108454329.94980,-399487675.73538,60882766.03580,   0.00146,  -0.00246,   0.00094,475183171.57167,   0.00050,275183180.49183,   0.00019,  -0.00043,   0.00015,506351.76071,   1.00000
110669559.54802,-397961189.95813,60933849.83272,   0.00147,  -0.00246,   0.00094,475186123.42915,   0.00050,275186129.17274,   0.00019,  -0.00044,   0.00015,507883.38466,   1.00000
112876281.54824,-396433345.99297,60981533.84877,   0.00148,  -0.00246,   0.00094,475189033.05990,   0.00050,275189036.30773,   0.00019,  -0.00044,   0.00015,500534.77575,   1.00000
115088115.51743,-394893377.70723,61029448.91091,   0.00149,  -0.00246,   0.00094,475191929.29187,   0.00050,275191933.09595,   0.00019,  -0.00044,   0.00015,498560.35939,   1.00000
117295553.63823,-393348405.08112,61076273.95304,   0.00149,  -0.00246,   0.00094,475194873.02561,   0.00051,275194878.79961,   0.00019,  -0.00044,   0.00015,506785.32926,   1.00000
119517593.34625,-391784005.98766,61124623.98000,   0.00150,  -0.00246,   0.00094,475197751.40915,   0.00051,275197756.06276,   0.00020,  -0.00044,   0.00015,494825.20589,   1.00000
121759142.32332,-390199021.02808,61168554.36999,   0.00151,  -0.00246,   0.00095,475200630.27894,   0.00051,275200637.60988,   0.00020,  -0.00045,   0.00015,495375.29102,   1.00000
123992312.66537,-388612451.27147,61209073.17639,   0.00152,  -0.00246,   0.00095,475203471.54074,   0.00051,275203478.34376,   0.00020,  -0.00045,   0.00015,488182.80061,   1.00000
126220397.96033,-387019526.03153,61252587.25791,   0.00153,  -0.00246,   0.00095,475206375.50691,   0.00052,275206378.90925,   0.00020,  -0.00045,   0.00015,498290.08399,   1.00000
128463669.53093,-385407950.07687,61293461.84027,   0.00154,  -0.00246,   0.00095,475209203.71787,   0.00052,275209203.96216,   0.00020,  -0.00045,   0.00015,485149.77588,   1.00000
130726286.61417,-383775366.03360,61329850.78256,   0.00155,  -0.00245,   0.00095,475212030.43773,   0.00052,275212036.49643,   0.00020,  -0.00045,   0.00015,486260.08646,   1.00000
132970378.21925,-382147320.89246,61365643.21912,   0.00155,  -0.00245,   0.00095,475214895.22813,   0.00053,275214896.15062,   0.00020,  -0.00046,   0.00015,490755.26102,   1.00000
135229153.48767,-380498935.84466,61402859.85664,   0.00156,  -0.00245,   0.00095,475217683.51447,   0.00053,275217692.17755,   0.00021,  -0.00046,   0.00016,479667.21345,   1.00000
137492878.66822,-378837723.87488,61440203.86574,   0.00157,  -0.00245,   0.00095,475220472.90919,   0.00053,275220482.73427,   0.00021,  -0.00046,   0.00016,478568.97750,   1.00000
139765979.45175,-377162868.34025,61471724.04179,   0.00158,  -0.00245,   0.00096,475223331.22771,   0.00053,275223340.93845,   0.00021,  -0.00046,   0.00016,490012.82424,   1.00000
142040088.50449,-375477045.69114,61505184.07115,   0.00159,  -0.00245,   0.00096,475226108.69728,   0.00054,275226112.43241,   0.00021,  -0.00046,   0.00016,475001.79999,   1.00000
144319647.90812,-373779433.22995,61534631.64097,   0.00160,  -0.00245,   0.00096,475228865.23300,   0.00054,275228870.30050,   0.00021,  -0.00047,   0.00016,472518.38523,   1.00000
146594202.07010,-372076642.00275,61562909.94961,   0.00161,  -0.00245,   0.00096,475231671.60062,   0.00054,275231681.19655,   0.00021,  -0.00047,   0.00016,481453.59938,   1.00000
148883454.78536,-370352759.81178,61592521.27248,   0.00161,  -0.00244,   0.00096,475234430.79095,   0.00054,275234432.67522,   0.00021,  -0.00047,   0.00016,471142.51559,   1.00000
151178091.78198,-368616865.89699,61618086.10220,   0.00162,  -0.00244,   0.00096,475237171.57669,   0.00055,275237172.13273,   0.00022,  -0.00047,   0.00016,468948.22366,   1.00000
153466948.77167,-366874522.37129,61646565.17550,   0.00163,  -0.00244,   0.00096,475239971.01954,   0.00055,275239975.50764,   0.00022,  -0.00047,   0.00016,479747.60507,   1.00000
155771702.97142,-365113169.99155,61668113.91626,   0.00164,  -0.00244,   0.00096,475242695.30077,   0.00055,275242702.11546,   0.00022,  -0.00048,   0.00016,466477.83265,   1.00000
158080529.02495,-363337130.51533,61693794.64637,   0.00165,  -0.00244,   0.00097,475245434.24193,   0.00055,275245438.00059,   0.00022,  -0.00048,   0.00016,467938.28299,   1.00000
160394628.75451,-361548789.45054,61715380.50358,   0.00166,  -0.00244,   0.00097,475248158.88030,   0.00056,275248164.08582,   0.00022,  -0.00048,   0.00016,466135.34504,   1.00000
162713340.39946,-359746853.42329,61736966.32010,   0.00166,  -0.00243,   0.00097,475250882.10526,   0.00056,275250890.79023,   0.00022,  -0.00048,   0.00016,466114.84455,   1.00000
165037269.94019,-357932480.14771,61754436.30295,   0.00167,  -0.00243,   0.00097,475253607.42427,   0.00056,275253608.74701,   0.00022,  -0.00048,   0.00017,464508.34072,   1.00000
167365727.68354,-356104367.00090,61771881.23290,   0.00168,  -0.00243,   0.00097,475256319.73462,   0.00056,275256328.56324,   0.00023,  -0.00048,   0.00017,464702.56448,   1.00000
169698680.03440,-354262471.12141,61789291.06679,   0.00169,  -0.00243,   0.00097,475259049.00076,   0.00057,275259050.66433,   0.00023,  -0.00049,   0.00017,464986.53876,   1.00000
172023609.82440,-352418015.23331,61803208.14031,   0.00170,  -0.00243,   0.00097,475261726.37284,   0.00057,275261736.01112,   0.00023,  -0.00049,   0.00017,458592.53953,   1.00000
174366101.03232,-350549563.21187,61816408.56975,   0.00171,  -0.00243,   0.00097,475264451.77235,   0.00057,275264454.44482,   0.00023,  -0.00049,   0.00017,464143.18636,   1.00000
176699900.43487,-348677265.51918,61830210.09788,   0.00172,  -0.00242,   0.00097,475267138.61472,   0.00057,275267146.56008,   0.00023,  -0.00049,   0.00017,459541.47411,   1.00000
179051071.21539,-346780797.74020,61843251.11158,   0.00172,  -0.00242,   0.00097,475269864.62553,   0.00058,275269873.70607,   0.00023,  -0.00049,   0.00017,465418.24731,   1.00000
181404424.70648,-344872750.90142,61853952.78215,   0.00173,  -0.00242,   0.00097,475272508.16341,   0.00058,275272512.08745,   0.00023,  -0.00050,   0.00017,450179.21486,   1.00000
183751833.57350,-342959386.48555,61863371.01337,   0.00174,  -0.00242,   0.00098,475275207.90333,   0.00058,275275209.16488,   0.00024,  -0.00050,   0.00017,460103.19087,   1.00000
186117025.77955,-341022758.71828,61867863.13936,   0.00175,  -0.00241,   0.00098,475277927.42030,   0.00058,275277934.27961,   0.00024,  -0.00050,   0.00017,464789.90272,   1.00000
188483744.37553,-339073058.43324,61874087.86791,   0.00176,  -0.00241,   0.00098,475280578.99299,   0.00059,275280582.14831,   0.00024,  -0.00050,   0.00017,451532.34730,   1.00000
190844293.14285,-337118034.74798,61879005.96416,   0.00177,  -0.00241,   0.00098,475283284.74928,   0.00059,275283289.91533,   0.00024,  -0.00050,   0.00017,461660.10467,   1.00000
193219174.79417,-335139491.67726,61884914.69115,   0.00177,  -0.00241,   0.00098,475285948.04774,   0.00059,275285953.82793,   0.00024,  -0.00050,   0.00017,454101.21212,   1.00000
195586088.72493,-333157872.84968,61887270.27877,   0.00178,  -0.00240,   0.00098,475288580.01292,   0.00059,275288583.74462,   0.00024,  -0.00051,   0.00018,448232.05542,   1.00000
197969628.78777,-331151397.82285,61888703.38135,   0.00179,  -0.00240,   0.00098,475291254.20169,   0.00060,275291256.31008,   0.00025,  -0.00051,   0.00018,455427.90222,   1.00000
200357016.38806,-329130282.33809,61889926.27543,   0.00180,  -0.00240,   0.00098,475293937.54100,   0.00060,275293939.33435,   0.00025,  -0.00051,   0.00018,457138.51217,   1.00000
202736403.07377,-327105940.96350,61887574.38126,   0.00181,  -0.00240,   0.00098,475296584.49046,   0.00060,275296589.40387,   0.00025,  -0.00051,   0.00018,451453.77999,   1.00000
205132071.28455,-325056519.97049,61884236.99507,   0.00182,  -0.00239,   0.00098,475299275.65303,   0.00060,275299285.12241,   0.00025,  -0.00051,   0.00018,459160.77302,   1.00000
207518950.76704,-323002673.95857,61881417.40413,   0.00183,  -0.00239,   0.00098,475301954.30537,   0.00061,275301958.43429,   0.00025,  -0.00052,   0.00018,455288.09530,   1.00000
209909480.08555,-320934002.74893,61878342.71313,   0.00183,  -0.00239,   0.00098,475304640.73035,   0.00061,275304644.28827,   0.00025,  -0.00052,   0.00018,457365.89360,   1.00000
212304367.55299,-318851552.27138,61870893.52232,   0.00184,  -0.00238,   0.00099,475307328.38024,   0.00061,275307333.42669,   0.00025,  -0.00052,   0.00018,457869.30735,   1.00000
214713180.47664,-316744467.77646,61864252.72665,   0.00185,  -0.00238,   0.00099,475309980.02181,   0.00061,275309987.01915,   0.00026,  -0.00052,   0.00018,451763.48105,   1.00000
217114969.48906,-314632078.48658,61856217.25517,   0.00186,  -0.00238,   0.00099,475312701.01825,   0.00062,275312704.91188,   0.00026,  -0.00052,   0.00018,462664.71015,   1.00000
219519170.19501,-312506352.41914,61845644.31823,   0.00187,  -0.00237,   0.00099,475315340.28742,   0.00062,275315342.82481,   0.00026,  -0.00052,   0.00018,449007.36159,   1.00000
221938830.90851,-310355028.46124,61833934.04857,   0.00188,  -0.00237,   0.00099,475318026.94538,   0.00062,275318033.49439,   0.00026,  -0.00053,   0.00018,457941.66950,   1.00000
224349579.17491,-308198951.79032,61822685.92546,   0.00188,  -0.00237,   0.00099,475320698.24702,   0.00062,275320704.31203,   0.00026,  -0.00053,   0.00018,454525.32820,   1.00000
226764312.12111,-306028698.27578,61806974.13889,   0.00189,  -0.00236,   0.00099,475323375.00966,   0.00063,275323382.58587,   0.00026,  -0.00053,   0.00019,455759.14110,   1.00000
229181294.80410,-303842110.92541,61794997.03366,   0.00190,  -0.00236,   0.00099,475326085.57995,   0.00063,275326088.84939,   0.00027,  -0.00053,   0.00019,460494.39172,   1.00000
231602092.72232,-301641239.89272,61778522.98459,   0.00191,  -0.00236,   0.00099,475328798.91120,   0.00063,275328804.05832,   0.00027,  -0.00053,   0.00019,461987.30560,   1.00000
234026629.02231,-299426031.85771,61757540.35701,   0.00192,  -0.00235,   0.00099,475331524.19720,   0.00063,275331528.89943,   0.00027,  -0.00053,   0.00019,463604.05157,   1.00000
236441314.04050,-297204882.29748,61741098.05779,   0.00193,  -0.00235,   0.00099,475334239.79814,   0.00064,275334245.20631,   0.00027,  -0.00054,   0.00019,462130.52841,   1.00000
238881917.63331,-294948484.39068,61720291.16975,   0.00193,  -0.00235,   0.00099,475336955.85032,   0.00064,275336964.51706,   0.00027,  -0.00054,   0.00019,462621.87280,   1.00000
241313413.64939,-292687029.57751,61699886.37507,   0.00194,  -0.00234,   0.00099,475339662.83529,   0.00064,275339666.76634,   0.00027,  -0.00054,   0.00019,459710.85886,   1.00000
243736941.05530,-290420420.70662,61678004.81117,   0.00195,  -0.00234,   0.00099,475342435.50717,   0.00064,275342437.54274,   0.00027,  -0.00054,   0.00019,471361.54655,   1.00000
246174383.72953,-288128753.37950,61652549.16388,   0.00196,  -0.00233,   0.00099,475345174.03862,   0.00065,275345175.39611,   0.00028,  -0.00054,   0.00019,465756.80573,   1.00000
248602671.43614,-285831949.74582,61627480.69349,   0.00197,  -0.00233,   0.00099,475347890.66449,   0.00065,275347896.92202,   0.00028,  -0.00054,   0.00019,462972.93826,   1.00000
251044773.71333,-283508911.04023,61601019.82244,   0.00198,  -0.00233,   0.00099,475350679.38870,   0.00065,275350683.30557,   0.00028,  -0.00055,   0.00019,474011.28319,   1.00000
253488179.00326,-281169985.28930,61575906.33063,   0.00198,  -0.00232,   0.00099,475353407.27152,   0.00065,275353409.46162,   0.00028,  -0.00055,   0.00019,463772.68492,   1.00000
255924025.13777,-278826949.73695,61545162.79411,   0.00199,  -0.00232,   0.00099,475356193.84411,   0.00066,275356196.54377,   0.00028,  -0.00055,   0.00019,474148.23266,   1.00000
258372456.19702,-276457302.49711,61514835.82678,   0.00200,  -0.00231,   0.00100,475358962.87482,   0.00066,275358965.99862,   0.00028,  -0.00055,   0.00020,471163.63501,   1.00000
260812189.10913,-274082627.59471,61482969.92954,   0.00201,  -0.00231,   0.00100,475361800.74859,   0.00066,275361807.21547,   0.00029,  -0.00055,   0.00020,483388.67732,   1.00000
263253121.96385,-271691730.86489,61452397.66994,   0.00202,  -0.00230,   0.00100,475364587.17932,   0.00066,275364590.62160,   0.00029,  -0.00056,   0.00020,473578.29629,   1.00000
265707806.72002,-269275267.96254,61416182.10909,   0.00202,  -0.00230,   0.00100,475367428.01448,   0.00067,275367435.76972,   0.00029,  -0.00056,   0.00020,484107.71031,   1.00000
268152032.30314,-266852450.39148,61384385.26615,   0.00203,  -0.00230,   0.00100,475370274.49064,   0.00067,275370278.04305,   0.00029,  -0.00056,   0.00020,483653.73356,   1.00000
270598679.26377,-264414572.67323,61347842.30369,   0.00204,  -0.00229,   0.00100,475373136.46302,   0.00067,275373140.97664,   0.00029,  -0.00056,   0.00020,487205.33345,   1.00000
273036727.56366,-261972167.45343,61307492.02123,   0.00205,  -0.00229,   0.00100,475375977.69235,   0.00067,275375981.69118,   0.00030,  -0.00056,   0.00020,483466.47321,   1.00000
275496560.28879,-259491008.31103,61270551.55712,   0.00206,  -0.00228,   0.00100,475378859.23243,   0.00068,275378865.86567,   0.00030,  -0.00056,   0.00020,490905.72219,   1.00000
277947630.13219,-257005183.91517,61229765.83762,   0.00206,  -0.00228,   0.00100,475381724.64859,   0.00068,275381729.47049,   0.00030,  -0.00057,   0.00020,487456.81920,   1.00000
280389159.70724,-254514587.41994,61187380.42193,   0.00207,  -0.00227,   0.00100,475384658.94419,   0.00068,275384668.05437,   0.00030,  -0.00057,   0.00020,500272.55264,   1.00000
282842183.95710,-251996487.78337,61145180.05263,   0.00208,  -0.00227,   0.00100,475387596.56300,   0.00068,275387599.67277,   0.00030,  -0.00057,   0.00020,499153.58315,   1.00000
285285364.49855,-249472766.78107,61103224.56341,   0.00209,  -0.00226,   0.00100,475390515.17906,   0.00069,275390521.50839,   0.00030,  -0.00057,   0.00020,497549.26884,   1.00000
287730250.34720,-246933756.14132,61056416.39828,   0.00210,  -0.00226,   0.00100,475393464.73299,   0.00069,275393469.13405,   0.00031,  -0.00057,   0.00021,502014.28674,   1.00000
290186246.22804,-244366942.26493,61009714.26931,   0.00211,  -0.00225,   0.00100,475396404.44116,   0.00069,275396413.47186,   0.00031,  -0.00057,   0.00021,501525.45875,   1.00000
292632089.26079,-241795540.04701,60961366.33417,   0.00211,  -0.00225,   0.00100,475399433.59837,   0.00070,275399435.16615,   0.00031,  -0.00058,   0.00021,514792.70699,   1.00000
295088732.44872,-239196201.05187,60913072.53632,   0.00212,  -0.00224,   0.00100,475402454.35655,   0.00070,275402455.96154,   0.00031,  -0.00058,   0.00021,514727.48175,   1.00000
297535196.27101,-236591101.70602,60864967.10478,   0.00213,  -0.00224,   0.00100,475405463.75759,   0.00070,275405469.61134,   0.00031,  -0.00058,   0.00021,513597.68130,   1.00000
299972201.86256,-233982423.52654,60811086.56747,   0.00214,  -0.00223,   0.00100,475408544.24439,   0.00070,275408551.75254,   0.00032,  -0.00058,   0.00021,525369.86224,   1.00000
302430145.47023,-231333713.98168,60758022.51322,   0.00215,  -0.00223,   0.00100,475411590.92359,   0.00071,275411597.92147,   0.00032,  -0.00058,   0.00021,519343.58692,   1.00000
304867218.60264,-228691122.55424,60704297.66966,   0.00215,  -0.00222,   0.00100,475414673.97689,   0.00071,275414676.23204,   0.00032,  -0.00059,   0.00021,524938.90237,   1.00000
307303956.42640,-226032264.78194,60649701.32966,   0.00216,  -0.00222,   0.00100,475417789.33840,   0.00071,275417796.43041,   0.00032,  -0.00059,   0.00021,532194.86906,   1.00000
309750676.30557,-223345061.40898,60595015.59148,   0.00217,  -0.00221,   0.00100,475420918.23149,   0.00071,275420922.37112,   0.00032,  -0.00059,   0.00021,533300.77164,   1.00000
312187270.87477,-220654476.55807,60534503.50671,   0.00218,  -0.00220,   0.00100,475424113.09138,   0.00072,275424119.45129,   0.00033,  -0.00059,   0.00021,545569.26648,   1.00000
314623729.44490,-217945882.33001,60474911.96381,   0.00218,  -0.00220,   0.00100,475427270.99036,   0.00072,275427275.73748,   0.00033,  -0.00059,   0.00021,538746.60331,   1.00000
317059247.39077,-215220984.40956,60414376.71245,   0.00219,  -0.00219,   0.00100,475430470.80144,   0.00072,275430477.43686,   0.00033,  -0.00059,   0.00022,546641.19417,   1.00000
319493657.24079,-212479803.61314,60352880.86622,   0.00220,  -0.00219,   0.00100,475433722.18775,   0.00073,275433725.36524,   0.00033,  -0.00060,   0.00022,554690.80256,   1.00000
321926778.00261,-209722355.52373,60290405.38700,   0.00221,  -0.00218,   0.00100,475437017.84319,   0.00073,275437020.43916,   0.00033,  -0.00060,   0.00022,562904.88507,   1.00000
324360427.99262,-206947349.75504,60224647.39664,   0.00222,  -0.00217,   0.00100,475440267.77169,   0.00073,275440268.98414,   0.00034,  -0.00060,   0.00022,555124.19519,   1.00000
326781027.01919,-204167800.06530,60161249.42916,   0.00222,  -0.00217,   0.00100,475443604.84861,   0.00074,275443610.44810,   0.00034,  -0.00060,   0.00022,571174.00916,   1.00000
329211366.42762,-201360230.54267,60093444.34186,   0.00223,  -0.00216,   0.00100,475446957.11412,   0.00074,275446957.51397,   0.00034,  -0.00060,   0.00022,572321.70253,   1.00000
331630486.74033,-198546738.87233,60025685.97826,   0.00224,  -0.00216,   0.00100,475450300.07025,   0.00074,275450304.24508,   0.00034,  -0.00061,   0.00022,572451.09504,   1.00000
334048689.18141,-195717740.64580,59952752.82469,   0.00225,  -0.00215,   0.00100,475453691.93368,   0.00074,275453692.39143,   0.00035,  -0.00061,   0.00022,579740.21084,   1.00000
336463555.84610,-192871838.80449,59882862.02453,   0.00226,  -0.00214,   0.00100,475457134.57252,   0.00075,275457142.09194,   0.00035,  -0.00061,   0.00022,590475.97642,   1.00000
338877261.27256,-190007280.07502,59813688.75627,   0.00226,  -0.00214,   0.00100,475460559.32187,   0.00075,275460560.17721,   0.00035,  -0.00061,   0.00022,585285.82747,   1.00000
341279274.54756,-187140052.30671,59738592.35244,   0.00227,  -0.00213,   0.00100,475464049.06349,   0.00075,275464054.51918,   0.00035,  -0.00061,   0.00023,598567.11500,   1.00000
343688835.44157,-184243847.36118,59663056.08600,   0.00228,  -0.00212,   0.00100,475467564.63406,   0.00076,275467571.32311,   0.00036,  -0.00062,   0.00023,602651.39019,   1.00000
346076443.86858,-181354684.73776,59586837.83827,   0.00229,  -0.00212,   0.00100,475471118.76612,   0.00076,275471121.87328,   0.00036,  -0.00062,   0.00023,608683.98586,   1.00000
348471272.26003,-178436515.39441,59510136.36063,   0.00229,  -0.00211,   0.00100,475474695.58615,   0.00076,275474696.88459,   0.00036,  -0.00062,   0.00023,613135.29696,   1.00000
350862859.29617,-175502325.31489,59432258.57988,   0.00230,  -0.00210,   0.00100,475478327.55789,   0.00077,275478328.69401,   0.00036,  -0.00062,   0.00023,623144.85860,   1.00000
353262268.78531,-172539697.21997,59349705.20189,   0.00231,  -0.00210,   0.00100,475481971.35351,   0.00077,275481978.91399,   0.00037,  -0.00062,   0.00023,626577.69414,   1.00000
355639359.74948,-169584350.69087,59266455.34505,   0.00232,  -0.00209,   0.00100,475485661.50095,   0.00077,275485663.80037,   0.00037,  -0.00063,   0.00023,632823.11721,   1.00000
358021611.55152,-166599292.50841,59186731.30975,   0.00232,  -0.00208,   0.00100,475489382.92968,   0.00078,275489387.99015,   0.00037,  -0.00063,   0.00023,639869.87138,   1.00000
360382617.64786,-163622292.61021,59102189.06337,   0.00233,  -0.00208,   0.00100,475493135.71744,   0.00078,275493137.24345,   0.00037,  -0.00063,   0.00023,644490.15736,   1.00000
362749587.77322,-160616208.58153,59017009.31856,   0.00234,  -0.00207,   0.00100,475496914.29926,   0.00078,275496918.38299,   0.00038,  -0.00063,   0.00023,650291.44651,   1.00000
365112208.14093,-157594369.53016,58930555.27405,   0.00235,  -0.00206,   0.00100,475500756.17775,   0.00079,275500761.23277,   0.00038,  -0.00063,   0.00024,661240.84036,   1.00000
367463343.94050,-154567381.03098,58839870.28573,   0.00235,  -0.00206,   0.00100,475504597.37231,   0.00079,275504601.87997,   0.00038,  -0.00064,   0.00024,661209.30975,   1.00000
369808628.73494,-151524179.96815,58752014.21365,   0.00236,  -0.00205,   0.00100,475508512.79292,   0.00080,275508514.75747,   0.00038,  -0.00064,   0.00024,674007.95600,   1.00000
372160092.25325,-148452471.93204,58659281.82681,   0.00237,  -0.00204,   0.00100,475512450.28016,   0.00080,275512455.65769,   0.00039,  -0.00064,   0.00024,679208.03857,   1.00000
374487438.01991,-145388093.97910,58569969.37273,   0.00238,  -0.00203,   0.00100,475516432.81320,   0.00080,275516441.12691,   0.00039,  -0.00064,   0.00024,687272.49199,   1.00000
376820587.71826,-142295239.96223,58475738.10568,   0.00238,  -0.00203,   0.00100,475520454.27861,   0.00081,275520456.60989,   0.00039,  -0.00064,   0.00024,692856.58186,   1.00000
379140489.02974,-139196779.33272,58381342.51489,   0.00239,  -0.00202,   0.00100,475524481.22826,   0.00081,275524482.01123,   0.00039,  -0.00065,   0.00024,694981.42007,   1.00000
381462346.76898,-136073255.89917,58284354.55401,   0.00240,  -0.00201,   0.00100,475528626.32930,   0.00081,275528631.46132,   0.00040,  -0.00065,   0.00024,716831.36177,   1.00000
383763121.17792,-132953951.73503,58188397.01693,   0.00241,  -0.00200,   0.00100,475532731.35627,   0.00082,275532734.68403,   0.00040,  -0.00065,   0.00024,709287.26048,   1.00000
386066572.26885,-129810334.14836,58085688.20178,   0.00241,  -0.00200,   0.00100,475536952.66139,   0.00082,275536954.42992,   0.00040,  -0.00065,   0.00025,729899.05631,   1.00000
388364674.52244,-126646961.94878,57987404.77353,   0.00242,  -0.00199,   0.00100,475541162.13150,   0.00083,275541171.74110,   0.00041,  -0.00065,   0.00025,729946.58327,   1.00000
390640559.34650,-123492571.50190,57884284.84126,   0.00243,  -0.00198,   0.00100,475545413.52440,   0.00083,275545415.48225,   0.00041,  -0.00066,   0.00025,735018.85077,   1.00000
392925359.67093,-120299334.38200,57783094.93864,   0.00244,  -0.00197,   0.00100,475549771.88257,   0.00083,275549774.34095,   0.00041,  -0.00066,   0.00025,755473.41627,   1.00000
395197191.31407,-117101302.42800,57677528.68744,   0.00244,  -0.00196,   0.00100,475554132.37412,   0.00084,275554137.99673,   0.00042,  -0.00066,   0.00025,756832.07646,   1.00000
397454787.09518,-113898036.59069,57571718.09823,   0.00245,  -0.00196,   0.00100,475558512.25916,   0.00084,275558515.59042,   0.00042,  -0.00066,   0.00025,759794.03086,   1.00000
399705059.61678,-110680157.21759,57464409.41286,   0.00246,  -0.00195,   0.00100,475562956.68557,   0.00085,275562966.29708,   0.00042,  -0.00067,   0.00025,773041.74196,   1.00000
401947774.46087,-107447797.77781,57355589.54887,   0.00246,  -0.00194,   0.00100,475567489.20248,   0.00085,275567490.81760,   0.00043,  -0.00067,   0.00025,786457.73886,   1.00000
404175862.82386,-104210404.48595,57246497.28814,   0.00247,  -0.00193,   0.00100,475572025.03527,   0.00085,275572030.64487,   0.00043,  -0.00067,   0.00026,789714.97889,   1.00000
406405279.98578,-100944551.49642,57136287.97462,   0.00248,  -0.00192,   0.00100,475576617.38319,   0.00086,275576625.66344,   0.00043,  -0.00067,   0.00026,799936.50199,   1.00000
408610524.60291,-97687999.80162,57025365.71019,   0.00249,  -0.00192,   0.00100,475581252.75393,   0.00086,275581256.80709,   0.00044,  -0.00067,   0.00026,806868.09356,   1.00000
410817880.26626,-94403538.07980,56909151.09495,   0.00249,  -0.00191,   0.00100,475585927.65879,   0.00087,275585936.31710,   0.00044,  -0.00068,   0.00026,815954.38538,   1.00000
413015254.87617,-91104756.19137,56795482.80168,   0.00250,  -0.00190,   0.00100,475590698.03766,   0.00087,275590702.54771,   0.00044,  -0.00068,   0.00026,831768.83174,   1.00000
415198548.98993,-87801660.88792,56677350.75778,   0.00251,  -0.00189,   0.00100,475595474.33123,   0.00088,275595477.96503,   0.00045,  -0.00068,   0.00026,834078.89583,   1.00000
417372734.65775,-84484887.96381,56557610.07743,   0.00251,  -0.00188,   0.00100,475600330.56093,   0.00088,275600332.35657,   0.00045,  -0.00068,   0.00026,848607.59519,   1.00000
419530045.52267,-81163210.08282,56441664.91964,   0.00252,  -0.00187,   0.00100,475605209.81663,   0.00088,275605214.33185,   0.00045,  -0.00069,   0.00026,854174.87686,   1.00000
421679143.02264,-77828484.16620,56319949.25723,   0.00253,  -0.00186,   0.00100,475610167.22404,   0.00089,275610167.51938,   0.00046,  -0.00069,   0.00027,867416.86577,   1.00000
423827315.57787,-74466017.20224,56196926.94646,   0.00253,  -0.00186,   0.00100,475615177.54923,   0.00089,275615185.46744,   0.00046,  -0.00069,   0.00027,879558.17777,   1.00000
425950549.08554,-71113793.87555,56073195.11913,   0.00254,  -0.00185,   0.00100,475620238.34894,   0.00090,275620239.87480,   0.00047,  -0.00069,   0.00027,886781.00190,   1.00000
428066463.31455,-67742805.40725,55949415.75965,   0.00255,  -0.00184,   0.00100,475625292.84752,   0.00090,275625299.19165,   0.00047,  -0.00070,   0.00027,888481.09356,   1.00000
430163231.50566,-64373552.52313,55823637.10907,   0.00256,  -0.00183,   0.00100,475630456.09059,   0.00091,275630456.29637,   0.00047,  -0.00070,   0.00027,906534.80242,   1.00000
432259334.43089,-60977317.29106,55692333.75148,   0.00256,  -0.00182,   0.00100,475635667.42868,   0.00091,275635673.47813,   0.00048,  -0.00070,   0.00027,917999.23399,   1.00000
434337496.34704,-57576875.40707,55564768.14806,   0.00257,  -0.00181,   0.00100,475640918.76592,   0.00092,275640921.42360,   0.00048,  -0.00070,   0.00027,924343.55886,   1.00000
436404498.98589,-54164074.21966,55435477.64446,   0.00258,  -0.00180,   0.00100,475646250.78841,   0.00092,275646254.25870,   0.00048,  -0.00071,   0.00028,940256.73023,   1.00000
438461381.55994,-50739381.07588,55300310.64388,   0.00258,  -0.00179,   0.00100,475651658.36920,   0.00093,275651664.11310,   0.00049,  -0.00071,   0.00028,954833.47329,   1.00000
440499856.84252,-47310855.63043,55168860.36653,   0.00259,  -0.00178,   0.00100,475657098.68926,   0.00093,275657105.85891,   0.00049,  -0.00071,   0.00028,961480.09830,   1.00000
442530840.34658,-43864324.11242,55033085.07549,   0.00260,  -0.00177,   0.00100,475662549.66853,   0.00094,275662550.55807,   0.00050,  -0.00071,   0.00028,963051.64277,   1.00000
444540067.58031,-40420642.10887,54899437.09769,   0.00260,  -0.00177,   0.00100,475668098.09829,   0.00094,275668103.01597,   0.00050,  -0.00071,   0.00028,983185.63777,   1.00000
446546542.45971,-36950903.18682,54760103.44658,   0.00261,  -0.00176,   0.00099,475673720.81746,   0.00095,275673723.53085,   0.00051,  -0.00072,   0.00028,996359.31314,   1.00000
448527111.65637,-33492878.98420,54620083.54062,   0.00262,  -0.00175,   0.00099,475679374.87686,   0.00095,275679380.05814,   0.00051,  -0.00072,   0.00028,1003883.44165,   1.00000
450496742.96603,-30016742.08258,54483965.61337,   0.00262,  -0.00174,   0.00099,475685055.78564,   0.00096,275685059.61576,   0.00051,  -0.00072,   0.00029,1009138.38437,   1.00000
452446682.70195,-26544739.34190,54341689.16469,   0.00263,  -0.00173,   0.00099,475690824.67185,   0.00096,275690829.99334,   0.00052,  -0.00072,   0.00029,1026480.80750,   1.00000
454391408.09709,-23047097.85866,54197803.28900,   0.00264,  -0.00172,   0.00099,475696677.89966,   0.00097,275696680.64855,   0.00052,  -0.00073,   0.00029,1042015.98530,   1.00000
456317817.83214,-19546828.50466,54053426.97056,   0.00264,  -0.00171,   0.00099,475702548.24443,   0.00097,275702558.02152,   0.00053,  -0.00073,   0.00029,1048046.00142,   1.00000
458230490.92955,-16036228.27722,53907218.31272,   0.00265,  -0.00170,   0.00099,475708520.78734,   0.00098,275708526.47786,   0.00053,  -0.00073,   0.00029,1065614.77185,   1.00000
460124580.79384,-12523268.68103,53760509.86085,   0.00266,  -0.00169,   0.00099,475714518.51157,   0.00099,275714522.17315,   0.00054,  -0.00073,   0.00029,1071830.57129,   1.00000
462004485.92680,-9000391.40118,53611953.58913,   0.00266,  -0.00168,   0.00099,475720609.14704,   0.00099,275720609.84299,   0.00054,  -0.00074,   0.00030,1089672.09562,   1.00000
463865523.09262,-5475432.11481,53462886.75338,   0.00267,  -0.00167,   0.00099,475726716.54317,   0.00100,275726725.34834,   0.00055,  -0.00074,   0.00030,1096072.10573,   1.00000
465711949.86609,-1940985.03454,53311960.41778,   0.00267,  -0.00166,   0.00099,475732932.39678,   0.00100,275732933.54512,   0.00055,  -0.00074,   0.00030,1114166.47274,   1.00000
467552234.76892,1617600.30160,53155131.99163,   0.00268,  -0.00165,   0.00099,475739214.69994,   0.00101,275739221.31533,   0.00056,  -0.00074,   0.00030,1129971.72656,   1.00000
469360160.68108,5155489.63214,53003163.29252,   0.00269,  -0.00164,   0.00099,475745482.39875,   0.00101,275745486.86399,   0.00056,  -0.00075,   0.00030,1127515.61845,   1.00000
471156927.17973,8709525.14874,52847961.96943,   0.00269,  -0.00163,   0.00099,475751903.83692,   0.00102,275751911.45161,   0.00057,  -0.00075,   0.00030,1157738.04866,   1.00000
472935436.80465,12264764.11427,52688077.85554,   0.00270,  -0.00162,   0.00099,475758353.46847,   0.00103,275758357.21372,   0.00057,  -0.00075,   0.00031,1163199.35755,   1.00000
474700009.89247,15836347.03261,52531897.89954,   0.00271,  -0.00161,   0.00099,475764832.74511,   0.00103,275764836.44702,   0.00058,  -0.00075,   0.00031,1170916.14309,   1.00000
476441420.36451,19400943.08765,52373734.30377,   0.00271,  -0.00160,   0.00099,475771410.32781,   0.00104,275771414.88412,   0.00058,  -0.00076,   0.00031,1190569.37441,   1.00000
478171183.75625,22981427.90851,52210934.12771,   0.00272,  -0.00159,   0.00099,475778010.57175,   0.00104,275778012.28984,   0.00059,  -0.00076,   0.00031,1195773.88629,   1.00000
479876131.56023,26554481.79955,52050323.85668,   0.00273,  -0.00158,   0.00099,475784708.43866,   0.00105,275784716.51521,   0.00059,  -0.00076,   0.00031,1216945.86610,   1.00000
481568996.27732,30143121.81043,51885049.80212,   0.00273,  -0.00157,   0.00099,475791433.54207,   0.00106,275791441.14884,   0.00060,  -0.00076,   0.00031,1222513.13879,   1.00000
483236782.05573,33723797.47366,51721980.60733,   0.00274,  -0.00155,   0.00099,475798268.71437,   0.00106,275798272.10637,   0.00060,  -0.00077,   0.00032,1243759.20357,   1.00000
484892027.60962,37319741.41546,51554219.11734,   0.00274,  -0.00154,   0.00099,475805116.59741,   0.00107,275805124.98960,   0.00061,  -0.00077,   0.00032,1249706.03666,   1.00000
486528489.13279,40922286.28563,51388687.11322,   0.00275,  -0.00153,   0.00099,475812082.25930,   0.00108,275812083.17276,   0.00062,  -0.00077,   0.00032,1270934.75077,   1.00000
488142124.70785,44515989.76213,51217053.82798,   0.00276,  -0.00152,   0.00099,475819122.39978,   0.00108,275819131.82429,   0.00062,  -0.00077,   0.00032,1289528.48863,   1.00000
489736564.26214,48118001.80122,51050384.04632,   0.00276,  -0.00151,   0.00099,475826149.68617,   0.00109,275826153.55767,   0.00063,  -0.00078,   0.00032,1286708.26656,   1.00000
491311190.43142,51717063.14282,50876262.85249,   0.00277,  -0.00150,   0.00099,475833322.67764,   0.00110,275833331.37996,   0.00063,  -0.00078,   0.00033,1317488.01770,   1.00000
492867685.69282,55324236.77238,50702924.88464,   0.00277,  -0.00149,   0.00099,475840475.37960,   0.00110,275840475.81708,   0.00064,  -0.00078,   0.00033,1313576.65060,   1.00000
494407356.64282,58942790.00239,50530441.60576,   0.00278,  -0.00148,   0.00099,475847784.88944,   0.00111,275847792.95618,   0.00064,  -0.00078,   0.00033,1347618.73930,   1.00000
495917694.61634,62539046.48232,50354626.02059,   0.00279,  -0.00147,   0.00099,475855059.33898,   0.00112,275855066.63222,   0.00065,  -0.00079,   0.00033,1341925.24312,   1.00000
497415318.71112,66155155.83077,50176830.78493,   0.00279,  -0.00146,   0.00099,475862437.11013,   0.00112,275862441.30973,   0.00066,  -0.00079,   0.00033,1362949.22618,   1.00000
498886589.19332,69760501.85784,50001324.85861,   0.00280,  -0.00145,   0.00099,475869914.08050,   0.00113,275869919.56252,   0.00066,  -0.00079,   0.00034,1384536.76586,   1.00000
500343107.06242,73379289.43548,49821009.85267,   0.00280,  -0.00143,   0.00099,475877423.60925,   0.00114,275877426.33926,   0.00067,  -0.00079,   0.00034,1392326.42647,   1.00000
501780091.73232,77001869.16764,49638753.81318,   0.00281,  -0.00142,   0.00099,475885029.16155,   0.00114,275885032.82729,   0.00068,  -0.00080,   0.00034,1413398.61780,   1.00000
503189127.65841,80607249.36376,49456018.64889,   0.00281,  -0.00141,   0.00098,475892665.09911,   0.00115,275892668.02142,   0.00068,  -0.00080,   0.00034,1421349.84396,   1.00000
504582564.14210,84230808.19393,49275423.91200,   0.00282,  -0.00140,   0.00098,475900407.76626,   0.00116,275900414.63590,   0.00069,  -0.00080,   0.00034,1444787.19470,   1.00000
505949353.04783,87836879.59057,49090191.98021,   0.00283,  -0.00139,   0.00098,475908177.81280,   0.00116,275908181.97387,   0.00069,  -0.00080,   0.00035,1451396.27105,   1.00000
507293646.86127,91440278.86441,48904405.22068,   0.00283,  -0.00138,   0.00098,475915978.67632,   0.00117,275915982.00167,   0.00070,  -0.00080,   0.00035,1460294.88019,   1.00000
508622896.96208,95061056.71636,48716569.83285,   0.00284,  -0.00137,   0.00098,475923878.67348,   0.00118,275923887.80667,   0.00071,  -0.00081,   0.00035,1482972.62334,   1.00000
509922725.28600,98663559.14460,48532476.39608,   0.00284,  -0.00135,   0.00098,475931819.16758,   0.00119,275931827.44437,   0.00071,  -0.00081,   0.00035,1492236.18318,   1.00000
511203287.70284,102267981.94517,48342291.32154,   0.00285,  -0.00134,   0.00098,475939853.64001,   0.00119,275939859.44814,   0.00072,  -0.00081,   0.00035,1512599.06618,   1.00000
512462982.62270,105873811.91740,48150201.97749,   0.00285,  -0.00133,   0.00098,475947989.82984,   0.00120,275947990.98344,   0.00073,  -0.00081,   0.00036,1534431.69074,   1.00000
513702312.29295,109485865.26436,47958754.52694,   0.00286,  -0.00132,   0.00098,475956095.24980,   0.00121,275956097.23908,   0.00074,  -0.00082,   0.00036,1532782.77631,   1.00000
514917547.85128,113088602.86096,47764213.70857,   0.00286,  -0.00131,   0.00098,475964355.22077,   0.00122,275964361.72627,   0.00074,  -0.00082,   0.00036,1565918.98408,   1.00000
516107481.54901,116682408.13056,47570488.78210,   0.00287,  -0.00130,   0.00098,475972590.89739,   0.00122,275972592.73494,   0.00075,  -0.00082,   0.00036,1562828.03146,   1.00000
517274580.05473,120276253.29638,47379047.73399,   0.00288,  -0.00128,   0.00098,475980926.46230,   0.00123,275980930.10589,   0.00076,  -0.00082,   0.00037,1586349.19578,   1.00000
518416881.61401,123855352.33672,47181740.37416,   0.00288,  -0.00127,   0.00098,475989344.19737,   0.00124,275989350.20481,   0.00076,  -0.00082,   0.00037,1605492.58950,   1.00000
519540090.69589,127444401.06123,46983710.21919,   0.00289,  -0.00126,   0.00098,475997807.34159,   0.00125,275997812.98007,   0.00077,  -0.00083,   0.00037,1617109.26171,   1.00000
520641277.18658,131032641.05053,46783810.32285,   0.00289,  -0.00125,   0.00098,476006371.45572,   0.00126,276006375.18329,   0.00078,  -0.00083,   0.00037,1639679.34538,   1.00000
521714418.54888,134600801.57069,46583621.33708,   0.00290,  -0.00124,   0.00098,476014950.08899,   0.00126,276014959.22233,   0.00079,  -0.00083,   0.00037,1647466.59952,   1.00000
522767920.13125,138178176.83360,46382696.71853,   0.00290,  -0.00122,   0.00098,476023583.89604,   0.00127,276023587.12261,   0.00079,  -0.00083,   0.00038,1659576.89156,   1.00000
523794992.89005,141739159.45929,46180167.63345,   0.00291,  -0.00121,   0.00098,476032294.62680,   0.00128,276032302.15722,   0.00080,  -0.00083,   0.00038,1680093.37923,   1.00000
524796819.99816,145293958.38014,45981330.94912,   0.00291,  -0.00120,   0.00098,476041046.22045,   0.00129,276041055.88034,   0.00081,  -0.00084,   0.00038,1691366.35492,   1.00000
525781237.11235,148861247.49371,45776219.43254,   0.00292,  -0.00119,   0.00098,476049909.39613,   0.00130,276049914.21294,   0.00082,  -0.00084,   0.00038,1715518.49798,   1.00000
526737669.09136,152407493.07107,45570886.14356,   0.00292,  -0.00117,   0.00098,476058783.47471,   0.00130,276058792.07355,   0.00082,  -0.00084,   0.00039,1723274.60106,   1.00000
527667720.89139,155936246.33009,45364034.16442,   0.00293,  -0.00116,   0.00098,476067746.93512,   0.00131,276067754.09106,   0.00083,  -0.00084,   0.00039,1743663.91312,   1.00000
528577190.21276,159472663.22681,45156449.15207,   0.00293,  -0.00115,   0.00098,476076757.24169,   0.00132,276076761.47652,   0.00084,  -0.00084,   0.00039,1756629.73571,   1.00000
529463584.24934,163005385.08260,44947085.19256,   0.00294,  -0.00114,   0.00098,476085862.60908,   0.00133,276085866.53473,   0.00085,  -0.00085,   0.00039,1779912.09861,   1.00000
530322277.25046,166516366.66293,44737576.52306,   0.00294,  -0.00112,   0.00098,476094981.70644,   0.00134,276094988.41015,   0.00085,  -0.00085,   0.00040,1787473.12296,   1.00000
531159894.96701,170034214.39168,44527330.68898,   0.00295,  -0.00111,   0.00098,476104150.54160,   0.00135,276104156.63279,   0.00086,  -0.00085,   0.00040,1800916.29339,   1.00000
531969733.53635,173532805.70508,44319841.07704,   0.00295,  -0.00110,   0.00098,476113407.27094,   0.00136,276113412.38212,   0.00087,  -0.00085,   0.00040,1822541.87426,   1.00000
532756499.78090,177023779.98472,44107737.45584,   0.00296,  -0.00109,   0.00098,476122688.85935,   0.00136,276122692.75489,   0.00088,  -0.00085,   0.00040,1831893.82433,   1.00000
533519857.61625,180509514.45006,43893924.61447,   0.00296,  -0.00107,   0.00098,476132064.33118,   0.00137,276132069.13331,   0.00089,  -0.00085,   0.00041,1855445.70279,   1.00000
534255925.32721,183972700.31874,43680059.60577,   0.00297,  -0.00106,   0.00098,476141455.64901,   0.00138,276141459.12060,   0.00090,  -0.00086,   0.00041,1862783.02818,   1.00000
534971265.46948,187444157.85508,43464178.37996,   0.00297,  -0.00105,   0.00098,476150956.38480,   0.00139,276150961.29467,   0.00090,  -0.00086,   0.00041,1889805.42325,   1.00000
535659401.91608,190892677.00398,43248278.09335,   0.00298,  -0.00103,   0.00097,476160469.24839,   0.00140,276160476.08642,   0.00091,  -0.00086,   0.00041,1897122.69126,   1.00000
536323959.67058,194334708.52981,43030736.84840,   0.00298,  -0.00102,   0.00097,476170075.93622,   0.00141,276170085.23923,   0.00092,  -0.00086,   0.00042,1920844.83651,   1.00000
536964007.16192,197767469.87161,42812857.42065,   0.00299,  -0.00101,   0.00097,476179720.58860,   0.00142,276179723.71870,   0.00093,  -0.00086,   0.00042,1931690.35619,   1.00000
537578230.08698,201190393.69435,42598837.59677,   0.00299,  -0.00100,   0.00097,476189389.96938,   0.00143,276189397.35728,   0.00094,  -0.00086,   0.00042,1943767.25622,   1.00000
538167793.76712,204592435.17659,42379388.07964,   0.00300,  -0.00098,   0.00097,476199135.78380,   0.00144,276199139.56722,   0.00095,  -0.00086,   0.00042,1962664.23032,   1.00000
538735017.02888,207998412.50178,42159251.64170,   0.00300,  -0.00097,   0.00097,476208921.97879,   0.00144,276208929.69664,   0.00095,  -0.00087,   0.00043,1977523.34953,   1.00000
539276360.90119,211382560.13293,41937941.90876,   0.00301,  -0.00096,   0.00097,476218789.30104,   0.00145,276218792.91199,   0.00096,  -0.00087,   0.00043,1997573.42769,   1.00000
539793236.00678,214756421.09406,41716357.65229,   0.00301,  -0.00094,   0.00097,476228682.49563,   0.00146,276228684.16635,   0.00097,  -0.00087,   0.00043,2008602.77116,   1.00000
540284509.11204,218108035.89833,41493658.01206,   0.00301,  -0.00093,   0.00097,476238641.82446,   0.00147,276238646.61044,   0.00098,  -0.00087,   0.00043,2028476.18052,   1.00000
540753152.12879,221462536.05693,41270306.66461,   0.00302,  -0.00092,   0.00097,476248649.97115,   0.00148,276248657.09349,   0.00099,  -0.00087,   0.00044,2043771.01971,   1.00000
541195716.88648,224792653.27301,41047133.86672,   0.00302,  -0.00090,   0.00097,476258670.68108,   0.00149,276258673.85457,   0.00100,  -0.00087,   0.00044,2050604.85467,   1.00000
541614551.97737,228113282.98954,40822497.32820,   0.00303,  -0.00089,   0.00097,476268777.14981,   0.00150,276268780.92067,   0.00101,  -0.00087,   0.00044,2074739.32627,   1.00000
542008374.66522,231423606.18869,40600621.30890,   0.00303,  -0.00088,   0.00097,476278975.40320,   0.00151,276278983.32022,   0.00102,  -0.00087,   0.00044,2100049.57954,   1.00000
542377816.93686,234709572.71865,40374776.89749,   0.00304,  -0.00086,   0.00097,476289178.95980,   0.00152,276289184.38820,   0.00103,  -0.00087,   0.00045,2105561.74567,   1.00000
542723124.22825,237983965.57453,40148766.41583,   0.00304,  -0.00085,   0.00097,476299408.42285,   0.00153,276299411.18665,   0.00104,  -0.00087,   0.00045,2116717.87141,   1.00000
543044798.41967,241247706.01027,39921377.55381,   0.00305,  -0.00084,   0.00097,476309716.49096,   0.00154,276309726.39627,   0.00104,  -0.00087,   0.00045,2140951.40280,   1.00000
543342365.79018,244499419.73932,39693851.40725,   0.00305,  -0.00082,   0.00097,476320065.79449,   0.00155,276320066.93255,   0.00105,  -0.00088,   0.00045,2152220.84438,   1.00000
543614917.85930,247725957.37419,39466653.99399,   0.00305,  -0.00081,   0.00097,476330403.43756,   0.00156,276330409.24560,   0.00106,  -0.00088,   0.00046,2158613.42445,   1.00000
543864497.93929,250941914.50231,39236942.00581,   0.00306,  -0.00080,   0.00097,476340897.97541,   0.00157,276340900.54893,   0.00107,  -0.00088,   0.00046,2195875.48605,   1.00000
544089736.58852,254144556.46898,39008346.58510,   0.00306,  -0.00078,   0.00097,476351346.76946,   0.00158,276351354.12914,   0.00108,  -0.00088,   0.00046,2194161.14485,   1.00000
544291571.16620,257335167.79579,38778479.72873,   0.00307,  -0.00077,   0.00097,476361891.52932,   0.00159,276361893.82480,   0.00109,  -0.00088,   0.00046,2218519.22487,   1.00000
544469047.79714,260500173.83259,38549031.03177,   0.00307,  -0.00075,   0.00097,476372424.01170,   0.00160,276372432.82741,   0.00110,  -0.00088,   0.00047,2224665.76376,   1.00000
544623343.79917,263652697.97075,38318362.75764,   0.00307,  -0.00074,   0.00097,476383048.14615,   0.00161,276383056.71025,   0.00111,  -0.00088,   0.00047,2248973.43644,   1.00000
544754141.70978,266779866.36506,38086991.79177,   0.00308,  -0.00073,   0.00097,476393736.01235,   0.00162,276393739.59851,   0.00112,  -0.00088,   0.00047,2267916.26319,   1.00000
544861181.65030,269893507.15615,37856795.95081,   0.00308,  -0.00071,   0.00097,476404374.71181,   0.00163,276404383.93283,   0.00113,  -0.00088,   0.00047,2266186.54974,   1.00000
544945331.89625,272993982.08589,37625448.86326,   0.00309,  -0.00070,   0.00097,476415108.95818,   0.00164,276415111.65903,   0.00114,  -0.00088,   0.00048,2290493.05805,   1.00000
545006609.58251,276080937.61720,37392977.11356,   0.00309,  -0.00068,   0.00097,476425919.77698,   0.00165,276425922.41200,   0.00115,  -0.00088,   0.00048,2314856.90768,   1.00000
545044705.94574,279141847.20708,37161062.93674,   0.00309,  -0.00067,   0.00097,476436722.04112,   0.00166,276436728.71069,   0.00116,  -0.00088,   0.00048,2320546.66252,   1.00000
545060228.01458,282188842.90081,36928078.98433,   0.00310,  -0.00066,   0.00097,476447614.34888,   0.00167,276447616.77035,   0.00117,  -0.00088,   0.00049,2344838.19745,   1.00000
545053035.07032,285209736.93866,36695700.89419,   0.00310,  -0.00064,   0.00097,476458493.18310,   0.00168,276458499.06266,   0.00118,  -0.00088,   0.00049,2350329.53998,   1.00000
545023172.08859,288216615.51835,36463432.72813,   0.00311,  -0.00063,   0.00096,476469398.08856,   0.00169,276469402.14367,   0.00119,  -0.00088,   0.00049,2361598.49671,   1.00000
544971083.72749,291208953.73019,36230163.53767,   0.00311,  -0.00061,   0.00096,476480379.42412,   0.00170,276480385.66598,   0.00120,  -0.00088,   0.00049,2385875.67911,   1.00000
544896926.59436,294175097.79017,35997562.45477,   0.00311,  -0.00060,   0.00096,476491359.43208,   0.00171,276491361.82206,   0.00121,  -0.00088,   0.00050,2391136.19678,   1.00000
544800861.18270,297126340.95696,35764013.94410,   0.00312,  -0.00059,   0.00096,476502411.83298,   0.00172,276502417.31113,   0.00122,  -0.00087,   0.00050,2415345.26591,   1.00000
544684079.93989,300062910.67025,35525329.16495,   0.00312,  -0.00057,   0.00096,476513540.11633,   0.00173,276513547.17301,   0.00123,  -0.00087,   0.00050,2438608.63312,   1.00000
544544352.37983,302973314.80761,35292721.21149,   0.00312,  -0.00056,   0.00096,476524608.18465,   0.00174,276524613.69770,   0.00124,  -0.00087,   0.00050,2431695.19664,   1.00000
544383571.02269,305867463.50421,35058152.28717,   0.00313,  -0.00054,   0.00096,476535809.47628,   0.00175,276535816.81531,   0.00125,  -0.00087,   0.00051,2468770.07386,   1.00000
544201430.32797,308736164.34264,34825447.82505,   0.00313,  -0.00053,   0.00096,476546943.29459,   0.00176,276546951.47219,   0.00126,  -0.00087,   0.00051,2460702.04159,   1.00000
543999240.45862,311589638.94827,34587698.12051,   0.00314,  -0.00051,   0.00096,476558156.34680,   0.00177,276558158.78728,   0.00127,  -0.00087,   0.00051,2483853.22001,   1.00000
543774950.41138,314426505.63988,34353404.37660,   0.00314,  -0.00050,   0.00096,476569444.89575,   0.00178,276569446.99712,   0.00128,  -0.00087,   0.00052,2508923.51703,   1.00000
543530406.84455,317237038.61983,34119954.55128,   0.00314,  -0.00048,   0.00096,476580716.21231,   0.00179,276580723.87460,   0.00129,  -0.00087,   0.00052,2513523.52697,   1.00000
543266291.34546,320031789.56962,33881542.40644,   0.00315,  -0.00047,   0.00096,476592071.86310,   0.00180,276592072.11107,   0.00130,  -0.00087,   0.00052,2536626.20730,   1.00000
542981369.93298,322799706.03471,33648268.52291,   0.00315,  -0.00046,   0.00096,476603409.17525,   0.00181,276603412.21717,   0.00131,  -0.00087,   0.00052,2541961.62962,   1.00000
542677031.85457,325541516.41293,33415899.39471,   0.00315,  -0.00044,   0.00096,476614732.18479,   0.00182,276614739.46419,   0.00132,  -0.00086,   0.00053,2546200.59027,   1.00000
542352304.11133,328278052.69143,33178081.34375,   0.00316,  -0.00043,   0.00096,476626162.34563,   0.00183,276626167.54651,   0.00133,  -0.00086,   0.00053,2576096.81619,   1.00000
542009083.48576,330986860.64291,32940212.82313,   0.00316,  -0.00041,   0.00096,476637636.34330,   0.00184,276637638.83451,   0.00134,  -0.00086,   0.00053,2593072.56836,   1.00000
541646121.65070,333668996.08548,32707570.87854,   0.00316,  -0.00040,   0.00096,476649093.12982,   0.00186,276649100.05960,   0.00135,  -0.00086,   0.00053,2597980.29714,   1.00000
541264112.93762,336336270.96213,32471122.01379,   0.00317,  -0.00038,   0.00096,476660565.87712,   0.00187,276660574.17467,   0.00136,  -0.00086,   0.00054,2608104.35549,   1.00000
540863522.60683,338975317.69000,32238933.23754,   0.00317,  -0.00037,   0.00096,476672086.59204,   0.00188,276672093.47476,   0.00137,  -0.00086,   0.00054,2625559.17553,   1.00000
540444239.66494,341599442.71090,32002972.22047,   0.00317,  -0.00035,   0.00096,476683621.55038,   0.00189,276683625.41408,   0.00138,  -0.00085,   0.00054,2635641.05963,   1.00000
540007921.84937,344195876.38155,31767093.96710,   0.00318,  -0.00034,   0.00096,476695187.55863,   0.00190,276695197.50143,   0.00139,  -0.00085,   0.00054,2651994.62607,   1.00000
539553019.24220,346774841.93504,31530766.64902,   0.00318,  -0.00032,   0.00096,476706834.80057,   0.00191,276706840.99214,   0.00140,  -0.00085,   0.00055,2675574.55784,   1.00000
539080180.06600,349330072.42655,31296517.70947,   0.00318,  -0.00031,   0.00096,476718405.09632,   0.00192,276718413.27395,   0.00141,  -0.00085,   0.00055,2666342.48872,   1.00000
538588984.58707,351865072.54151,31065134.63650,   0.00319,  -0.00029,   0.00096,476730111.52153,   0.00193,276730115.06068,   0.00142,  -0.00084,   0.00055,2703352.80434,   1.00000
538082095.11673,354375072.27319,30830641.21448,   0.00319,  -0.00028,   0.00096,476741792.69393,   0.00194,276741796.33095,   0.00143,  -0.00084,   0.00056,2705743.14427,   1.00000
537556635.28446,356869473.09364,30596737.87602,   0.00319,  -0.00026,   0.00096,476753484.39050,   0.00195,276753493.45579,   0.00144,  -0.00084,   0.00056,2716523.28667,   1.00000
537016820.05306,359336830.56206,30358839.06737,   0.00320,  -0.00025,   0.00096,476765223.21837,   0.00196,276765223.88718,   0.00145,  -0.00084,   0.00056,2731361.21244,   1.00000
536457870.85908,361788001.31661,30125828.42819,   0.00320,  -0.00023,   0.00095,476776971.79090,   0.00198,276776973.64094,   0.00146,  -0.00083,   0.00056,2742920.81879,   1.00000
535884196.96442,364211603.10249,29893108.34324,   0.00320,  -0.00022,   0.00095,476788753.76444,   0.00199,276788759.48063,   0.00147,  -0.00083,   0.00057,2758364.60824,   1.00000
535296179.17179,366607760.44835,29660712.24943,   0.00320,  -0.00020,   0.00095,476800576.32890,   0.00200,276800580.63606,   0.00148,  -0.00083,   0.00057,2773614.70356,   1.00000
534691530.89153,368988988.61474,29424755.38006,   0.00321,  -0.00019,   0.00095,476812403.79111,   0.00201,276812413.64961,   0.00149,  -0.00083,   0.00057,2783361.89242,   1.00000
534068571.81536,371354071.99020,29193754.96047,   0.00321,  -0.00017,   0.00095,476824258.30179,   0.00202,276824265.66446,   0.00150,  -0.00082,   0.00057,2794759.10026,   1.00000
533435556.84811,373683189.41639,28959474.35400,   0.00321,  -0.00016,   0.00095,476836106.64015,   0.00203,276836114.50455,   0.00152,  -0.00082,   0.00058,2800856.44693,   1.00000
532784738.08704,375996393.31522,28730182.53164,   0.00322,  -0.00014,   0.00095,476847979.08276,   0.00204,276847982.00310,   0.00153,  -0.00082,   0.00058,2812067.27122,   1.00000
532119155.42225,378292033.66474,28496504.25701,   0.00322,  -0.00013,   0.00095,476859909.31243,   0.00205,276859914.15633,   0.00154,  -0.00081,   0.00058,2834182.67668,   1.00000
531440933.46065,380560527.63284,28263316.53968,   0.00322,  -0.00011,   0.00095,476871873.87359,   0.00206,276871879.37708,   0.00155,  -0.00081,   0.00058,2848777.45728,   1.00000
530748325.67095,382804296.96105,28035744.72254,   0.00323,  -0.00010,   0.00095,476883826.78497,   0.00208,276883828.42696,   0.00156,  -0.00081,   0.00059,2851572.82192,   1.00000
530041706.66261,385030515.49337,27803858.44787,   0.00323,  -0.00008,   0.00095,476895838.46724,   0.00209,276895841.45814,   0.00157,  -0.00080,   0.00059,2873472.63699,   1.00000
529322023.61664,387232820.91641,27573369.19856,   0.00323,  -0.00007,   0.00095,476907825.44337,   0.00210,276907834.92134,   0.00158,  -0.00080,   0.00059,2875330.45131,   1.00000
528589557.12023,389411460.01016,27344282.90680,   0.00323,  -0.00005,   0.00095,476919808.06269,   0.00211,276919808.66621,   0.00159,  -0.00079,   0.00059,2877063.17475,   1.00000
527845181.57900,391569556.76390,27110145.57591,   0.00324,  -0.00004,   0.00095,476931892.08632,   0.00212,276931897.17939,   0.00160,  -0.00079,   0.00060,2911091.14905,   1.00000
527086221.57179,393706733.33618,26882537.09100,   0.00324,  -0.00002,   0.00095,476943911.55027,   0.00213,276943917.93122,   0.00161,  -0.00079,   0.00060,2901099.95819,   1.00000
526318245.23560,395814462.69434,26654752.55832,   0.00324,  -0.00001,   0.00095,476956012.86028,   0.00214,276956020.13599,   0.00162,  -0.00078,   0.00060,2927025.75516,   1.00000
525536160.80917,397907951.57668,26423612.37001,   0.00324,   0.00001,   0.00095,476968131.94487,   0.00216,276968134.89453,   0.00163,  -0.00078,   0.00060,2936293.45726,   1.00000
524741697.35723,399977939.47208,26198216.59556,   0.00325,   0.00002,   0.00095,476980227.89630,   0.00217,276980232.62184,   0.00164,  -0.00077,   0.00061,2938274.02614,   1.00000
523938361.52343,402022549.07912,25969259.18439,   0.00325,   0.00004,   0.00095,476992356.59673,   0.00218,276992357.30618,   0.00165,  -0.00077,   0.00061,2950866.31024,   1.00000
523123960.07303,404044694.27291,25741814.35851,   0.00325,   0.00005,   0.00095,477004460.22804,   0.00219,277004461.71873,   0.00166,  -0.00076,   0.00061,2951869.30787,   1.00000
522298914.90843,406045724.29742,25513795.61725,   0.00325,   0.00007,   0.00095,477016673.53604,   0.00220,277016681.58914,   0.00167,  -0.00076,   0.00061,2985924.12079,   1.00000
521461496.35710,408027977.95438,25288077.44638,   0.00326,   0.00008,   0.00095,477028828.91883,   0.00221,277028831.54898,   0.00168,  -0.00076,   0.00062,2974630.88147,   1.00000
520613984.23324,409989072.54475,25061837.63011,   0.00326,   0.00010,   0.00094,477041091.26143,   0.00222,277041096.56176,   0.00169,  -0.00075,   0.00062,3008539.29359,   1.00000
519757885.75865,411924212.75856,24838456.39305,   0.00326,   0.00011,   0.00094,477053252.47486,   0.00224,277053255.28926,   0.00170,  -0.00075,   0.00062,2988055.16416,   1.00000
518893042.98346,413838908.31572,24610347.66827,   0.00326,   0.00013,   0.00094,477065518.86375,   0.00225,277065525.64956,   0.00171,  -0.00074,   0.00062,3021037.95173,   1.00000
518014278.28835,415739033.13934,24387544.90221,   0.00327,   0.00015,   0.00094,477077811.28169,   0.00226,277077815.49368,   0.00172,  -0.00074,   0.00063,3031300.90255,   1.00000
517132365.83983,417607512.85674,24161899.41290,   0.00327,   0.00016,   0.00094,477090085.44206,   0.00227,277090093.62516,   0.00173,  -0.00073,   0.00063,3033755.36013,   1.00000
516237647.45103,419462290.30636,23937318.84517,   0.00327,   0.00018,   0.00094,477102380.41027,   0.00228,277102388.71505,   0.00174,  -0.00073,   0.00063,3043210.63430,   1.00000
515339001.23035,421284915.06478,23718460.61158,   0.00327,   0.00019,   0.00094,477114676.58068,   0.00229,277114676.75643,   0.00175,  -0.00072,   0.00063,3046591.13306,   1.00000
514425639.78737,423102281.73382,23491586.56803,   0.00328,   0.00021,   0.00094,477127007.85121,   0.00231,277127014.54129,   0.00176,  -0.00071,   0.00064,3064013.50035,   1.00000
513508900.55997,424887899.07224,23270489.20592,   0.00328,   0.00022,   0.00094,477139336.90502,   0.00232,277139344.84277,   0.00177,  -0.00071,   0.00064,3067101.14736,   1.00000
512586138.72259,426649678.95652,23050349.99824,   0.00328,   0.00024,   0.00094,477151697.62436,   0.00233,277151702.37358,   0.00178,  -0.00070,   0.00064,3078720.85074,   1.00000
511652140.90720,428398921.40593,22827054.49449,   0.00328,   0.00025,   0.00094,477164067.28471,   0.00234,277164075.16203,   0.00179,  -0.00070,   0.00064,3087291.13949,   1.00000
510711924.84005,430124039.67116,22609032.43222,   0.00329,   0.00027,   0.00094,477176475.21540,   0.00235,277176477.61911,   0.00180,  -0.00069,   0.00064,3099350.71328,   1.00000
509764575.75770,431830134.49361,22388398.77010,   0.00329,   0.00029,   0.00094,477188855.32160,   0.00236,277188857.60947,   0.00181,  -0.00069,   0.00065,3098285.25268,   1.00000
508812168.48077,433513064.78884,22168796.54743,   0.00329,   0.00030,   0.00094,477201261.73119,   0.00238,277201264.51471,   0.00182,  -0.00068,   0.00065,3109461.49797,   1.00000
507851121.65559,435179534.49746,21949712.92849,   0.00329,   0.00032,   0.00094,477213729.88327,   0.00239,277213736.68648,   0.00183,  -0.00067,   0.00065,3130176.50439,   1.00000
506889430.40620,436816747.15147,21732221.17471,   0.00329,   0.00033,   0.00094,477226195.22148,   0.00240,277226196.76189,   0.00184,  -0.00067,   0.00065,3131374.94693,   1.00000
505917475.14504,438442224.85675,21511640.20333,   0.00330,   0.00035,   0.00094,477238666.48741,   0.00241,277238673.30348,   0.00185,  -0.00066,   0.00066,3139658.52873,   1.00000
504938044.57135,440048672.36800,21297047.80125,   0.00330,   0.00036,   0.00093,477251128.34001,   0.00242,277251132.59262,   0.00186,  -0.00065,   0.00066,3139335.47873,   1.00000
503962162.38066,441623293.56376,21079182.83090,   0.00330,   0.00038,   0.00093,477263617.29540,   0.00243,277263622.85401,   0.00187,  -0.00065,   0.00066,3151046.00166,   1.00000
502971919.25432,443192249.68646,20862022.71858,   0.00330,   0.00039,   0.00093,477276164.59741,   0.00245,277276171.57801,   0.00188,  -0.00064,   0.00066,3169631.54096,   1.00000
501982280.64354,444733262.81164,20646515.22780,   0.00330,   0.00041,   0.00093,477288700.22252,   0.00246,277288707.29541,   0.00189,  -0.00063,   0.00066,3170053.27445,   1.00000
500986521.12267,446256747.75903,20432739.53192,   0.00331,   0.00043,   0.00093,477301219.58161,   0.00247,277301223.51797,   0.00190,  -0.00063,   0.00067,3168714.81510,   1.00000
499988414.85847,447759394.13593,20215844.96273,   0.00331,   0.00044,   0.00093,477313755.80463,   0.00248,277313763.48040,   0.00191,  -0.00062,   0.00067,3178215.59893,   1.00000
498983589.44869,449246727.04271,19999641.19278,   0.00331,   0.00046,   0.00093,477326363.01943,   0.00249,277326368.80914,   0.00192,  -0.00061,   0.00067,3198192.07028,   1.00000
497976589.09079,450710866.10537,19789967.28168,   0.00331,   0.00047,   0.00093,477338911.83694,   0.00251,277338917.48952,   0.00193,  -0.00061,   0.00067,3187076.71261,   1.00000
496964366.64737,452160967.96168,19572430.28477,   0.00331,   0.00049,   0.00093,477351520.03663,   0.00252,277351527.39922,   0.00194,  -0.00060,   0.00067,3205823.26062,   1.00000
495949521.25764,453589973.85738,19360406.70726,   0.00332,   0.00050,   0.00093,477364156.25955,   0.00253,277364165.12986,   0.00194,  -0.00059,   0.00068,3215971.22386,   1.00000
494933575.23686,454997217.72042,19150629.57871,   0.00332,   0.00052,   0.00093,477376740.30126,   0.00254,277376743.88349,   0.00195,  -0.00059,   0.00068,3203912.74842,   1.00000
493912389.18959,456390350.70950,18937312.03770,   0.00332,   0.00053,   0.00093,477389376.98209,   0.00255,277389386.21921,   0.00196,  -0.00058,   0.00068,3222970.96592,   1.00000
492889746.88805,457763550.45525,18725253.65149,   0.00332,   0.00055,   0.00093,477402048.13892,   0.00257,277402053.98728,   0.00197,  -0.00057,   0.00068,3232223.13517,   1.00000
491865850.11588,459117040.68332,18514461.34371,   0.00332,   0.00057,   0.00093,477414739.90042,   0.00258,277414747.08995,   0.00198,  -0.00056,   0.00068,3241346.98865,   1.00000
490837319.87632,460455205.69975,18305452.01038,   0.00333,   0.00058,   0.00092,477427419.26969,   0.00259,277427421.54036,   0.00199,  -0.00056,   0.00069,3239139.14656,   1.00000
489812539.35449,461769381.96407,18093907.37690,   0.00333,   0.00060,   0.00092,477440070.27573,   0.00260,277440078.69649,   0.00200,  -0.00055,   0.00069,3237159.68004,   1.00000
488782917.16772,463069738.96662,17883200.64974,   0.00333,   0.00061,   0.00092,477452795.56605,   0.00261,277452801.47283,   0.00201,  -0.00054,   0.00069,3256303.33727,   1.00000
487752793.26394,464351268.98841,17673807.43543,   0.00333,   0.00063,   0.00092,477465548.75819,   0.00263,277465549.22557,   0.00202,  -0.00053,   0.00069,3264960.26962,   1.00000
486718517.27758,465618363.99945,17466213.56001,   0.00333,   0.00064,   0.00092,477478273.91386,   0.00264,277478278.65189,   0.00203,  -0.00053,   0.00069,3262414.93187,   1.00000
485684072.99868,466867046.39668,17259931.48544,   0.00334,   0.00066,   0.00092,477491031.15932,   0.00265,277491033.02440,   0.00204,  -0.00052,   0.00070,3270864.23681,   1.00000
484650099.62417,468097981.26368,17050692.88996,   0.00334,   0.00068,   0.00092,477503805.49229,   0.00266,277503810.39886,   0.00204,  -0.00051,   0.00070,3278729.70014,   1.00000
483616489.81084,469310362.73516,16843713.25820,   0.00334,   0.00069,   0.00092,477516520.71809,   0.00267,277516528.41029,   0.00205,  -0.00050,   0.00070,3265350.56698,   1.00000
482578999.21750,470509794.22320,16637634.03904,   0.00334,   0.00071,   0.00092,477529312.11257,   0.00269,277529312.37419,   0.00206,  -0.00049,   0.00070,3284060.89655,   1.00000
481542414.72634,471692071.45380,16428630.34873,   0.00334,   0.00072,   0.00092,477542111.27724,   0.00270,277542119.30841,   0.00207,  -0.00049,   0.00070,3291644.44792,   1.00000
480510236.76460,472851984.70518,16225720.00918,   0.00334,   0.00074,   0.00092,477554907.75339,   0.00271,277554910.95963,   0.00208,  -0.00048,   0.00070,3289297.23122,   1.00000
479475086.71162,473999843.74156,16019456.14772,   0.00335,   0.00075,   0.00091,477567757.90527,   0.00272,277567766.83609,   0.00209,  -0.00047,   0.00071,3307312.51833,   1.00000
478441248.46502,475130961.56066,15811159.42935,   0.00335,   0.00077,   0.00091,477580555.21593,   0.00273,277580561.37568,   0.00210,  -0.00046,   0.00071,3292952.43329,   1.00000
477403830.31466,476249427.10183,15608129.65304,   0.00335,   0.00078,   0.00091,477593419.61982,   0.00275,277593423.74702,   0.00211,  -0.00045,   0.00071,3311732.34456,   1.00000
476372253.01392,477347423.75531,15402622.39419,   0.00335,   0.00080,   0.00091,477606261.48799,   0.00276,277606266.81658,   0.00211,  -0.00044,   0.00071,3308002.30500,   1.00000
475342030.45247,478429219.76899,15198528.28521,   0.00335,   0.00082,   0.00091,477619129.93175,   0.00277,277619133.89144,   0.00212,  -0.00043,   0.00071,3315341.34356,   1.00000
474313307.39278,479495029.90017,14995847.95470,   0.00335,   0.00083,   0.00091,477632023.76530,   0.00278,277632024.86009,   0.00213,  -0.00043,   0.00071,3322571.79726,   1.00000
473282043.78148,480549669.94975,14790698.47880,   0.00336,   0.00085,   0.00091,477644891.74168,   0.00280,277644896.52837,   0.00214,  -0.00042,   0.00072,3318588.80209,   1.00000
472252498.19545,481588672.23092,14586987.18446,   0.00336,   0.00086,   0.00091,477657783.66385,   0.00281,277657792.10895,   0.00215,  -0.00041,   0.00072,3325663.21076,   1.00000
471229021.44874,482608190.56553,14385106.03838,   0.00336,   0.00088,   0.00091,477670665.52211,   0.00282,277670668.98310,   0.00216,  -0.00040,   0.00072,3321674.38070,   1.00000
470203309.62290,483616613.43133,14184267.71619,   0.00336,   0.00089,   0.00091,477683607.94047,   0.00283,277683611.93205,   0.00216,  -0.00039,   0.00072,3339472.97647,   1.00000
469184275.18501,484606444.58583,13980970.20503,   0.00336,   0.00091,   0.00090,477696524.31814,   0.00284,277696534.28720,   0.00217,  -0.00038,   0.00072,3334842.90965,   1.00000
468163264.61106,485585489.37910,13778758.25089,   0.00336,   0.00092,   0.00090,477709518.85864,   0.00286,277709522.60912,   0.00218,  -0.00037,   0.00072,3352488.42691,   1.00000
467143891.26816,486550256.04431,13578743.62581,   0.00337,   0.00094,   0.00090,477722444.24482,   0.00287,277722450.66156,   0.00219,  -0.00036,   0.00073,3337464.96314,   1.00000
466136416.97155,487493031.57844,13375918.72687,   0.00337,   0.00096,   0.00090,477735392.90218,   0.00288,277735398.24634,   0.00220,  -0.00035,   0.00073,3342987.83528,   1.00000
465122289.43253,488429744.90997,13174558.78837,   0.00337,   0.00097,   0.00090,477748370.64935,   0.00289,277748371.01929,   0.00221,  -0.00034,   0.00073,3349899.73705,   1.00000
464114950.92251,489348759.47960,12975037.68538,   0.00337,   0.00099,   0.00090,477761316.34214,   0.00291,277761323.75127,   0.00221,  -0.00033,   0.00073,3345053.16638,   1.00000
463106483.57224,490258105.24313,12772352.55485,   0.00337,   0.00100,   0.00090,477774336.57602,   0.00292,277774341.02754,   0.00222,  -0.00033,   0.00073,3362002.66953,   1.00000
462104996.71798,491150231.09196,12571526.19443,   0.00337,   0.00102,   0.00090,477787328.60887,   0.00293,277787337.83269,   0.00223,  -0.00032,   0.00073,3356925.61848,   1.00000
461101207.24400,492033221.14452,12372518.02261,   0.00338,   0.00103,   0.00090,477800313.27375,   0.00294,277800316.99482,   0.00224,  -0.00031,   0.00073,3352517.26866,   1.00000
460110104.51444,492895674.98598,12170741.14849,   0.00338,   0.00105,   0.00089,477813305.57444,   0.00296,277813314.03170,   0.00224,  -0.00030,   0.00074,3357229.21520,   1.00000
459117911.17871,493748743.04090,11970149.36227,   0.00338,   0.00106,   0.00089,477826369.61011,   0.00297,277826376.74028,   0.00225,  -0.00029,   0.00074,3374230.71779,   1.00000
458127662.94260,494589774.33762,11771710.78430,   0.00338,   0.00108,   0.00089,477839368.95609,   0.00298,277839378.15314,   0.00226,  -0.00028,   0.00074,3358370.02313,   1.00000
457145057.84652,495415210.63242,11570816.95298,   0.00338,   0.00109,   0.00089,477852352.85780,   0.00299,277852356.62881,   0.00227,  -0.00027,   0.00074,3352379.02886,   1.00000
456167036.90261,496227535.61866,11370839.42708,   0.00338,   0.00111,   0.00089,477865437.20786,   0.00301,277865440.40388,   0.00227,  -0.00026,   0.00074,3379453.96620,   1.00000
455191004.87952,497028557.47979,11172996.47960,   0.00338,   0.00113,   0.00089,477878454.09855,   0.00302,277878462.40863,   0.00228,  -0.00025,   0.00074,3363314.07466,   1.00000
454218674.43062,497817953.67837,10972386.20879,   0.00339,   0.00114,   0.00089,477891502.28458,   0.00303,277891504.77619,   0.00229,  -0.00024,   0.00074,3368353.61350,   1.00000
453249812.64430,498595552.32256,10773321.12395,   0.00339,   0.00116,   0.00088,477904561.73442,   0.00304,277904568.67059,   0.00230,  -0.00023,   0.00074,3373631.69346,   1.00000
452284505.11271,499361536.85944,10575795.87096,   0.00339,   0.00117,   0.00088,477917644.43655,   0.00306,277917653.92940,   0.00230,  -0.00022,   0.00075,3378819.31513,   1.00000
451332887.04848,500109170.59941,10375555.03056,   0.00339,   0.00119,   0.00088,477930746.10206,   0.00307,277930754.10622,   0.00231,  -0.00021,   0.00075,3382320.55630,   1.00000
450379190.45410,500849756.92554,10177133.74566,   0.00339,   0.00120,   0.00088,477943833.83096,   0.00308,277943835.98791,   0.00232,  -0.00020,   0.00075,3377195.16140,   1.00000
449433526.22108,501576548.53378,9976261.91922,   0.00339,   0.00122,   0.00088,477956890.37703,   0.00309,277956893.20213,   0.00233,  -0.00019,   0.00075,3370387.05640,   1.00000
448491605.03401,502292528.43350,9776961.85721,   0.00340,   0.00123,   0.00088,477969966.19227,   0.00311,277969970.99171,   0.00233,  -0.00018,   0.00075,3375211.32021,   1.00000
447553486.97012,502997854.08957,9579226.71216,   0.00340,   0.00125,   0.00088,477983060.51027,   0.00312,277983069.24395,   0.00234,  -0.00017,   0.00075,3379961.12813,   1.00000
446619468.41140,503692956.86696,9378764.63875,   0.00340,   0.00126,   0.00087,477996179.27492,   0.00313,277996186.79561,   0.00235,  -0.00016,   0.00075,3384381.76626,   1.00000
445693388.27447,504374835.53008,9180152.01987,   0.00340,   0.00128,   0.00087,478009275.25846,   0.00314,278009279.78182,   0.00236,  -0.00015,   0.00075,3377453.43880,   1.00000
444775476.31149,505044010.56275,8979083.19392,   0.00340,   0.00129,   0.00087,478022340.88180,   0.00316,278022346.88265,   0.00236,  -0.00014,   0.00075,3370156.85456,   1.00000
443857501.76518,505706079.66558,8779355.10070,   0.00340,   0.00131,   0.00087,478035474.58749,   0.00317,278035478.59346,   0.00237,  -0.00013,   0.00075,3386157.68765,   1.00000
442947545.07209,506355549.11074,8581465.94220,   0.00340,   0.00132,   0.00087,478048582.32354,   0.00318,278048585.00078,   0.00238,  -0.00012,   0.00076,3378943.03250,   1.00000
442041826.90635,506995638.48713,8380867.48426,   0.00341,   0.00134,   0.00087,478061703.89254,   0.00319,278061709.95527,   0.00238,  -0.00011,   0.00076,3383000.88128,   1.00000
441144159.21788,507623556.40948,8182109.74946,   0.00341,   0.00135,   0.00086,478074803.77266,   0.00321,278074809.04398,   0.00239,  -0.00010,   0.00076,3375589.39233,   1.00000
440250769.63309,508242433.51877,7980654.48721,   0.00341,   0.00137,   0.00086,478087922.26212,   0.00322,278087926.31956,   0.00240,  -0.00008,   0.00076,3379504.83343,   1.00000
439371756.28487,508845587.45975,7780851.99395,   0.00341,   0.00138,   0.00086,478101053.78609,   0.00323,278101055.13495,   0.00240,  -0.00007,   0.00076,3381696.69397,   1.00000
438490517.13599,509443810.95707,7582840.66266,   0.00341,   0.00140,   0.00086,478114158.37633,   0.00324,278114164.57323,   0.00241,  -0.00006,   0.00076,3375875.92058,   1.00000
437613618.27448,510033446.99580,7382133.87782,   0.00341,   0.00141,   0.00086,478127285.85036,   0.00326,278127291.75220,   0.00242,  -0.00005,   0.00076,3379595.79412,   1.00000
436751259.80626,510607956.48966,7183081.43639,   0.00341,   0.00143,   0.00086,478140429.04330,   0.00327,278140429.49388,   0.00242,  -0.00004,   0.00076,3381464.75833,   1.00000
435893252.76746,511174238.58821,6981350.58145,   0.00342,   0.00144,   0.00085,478153580.12161,   0.00328,278153584.46609,   0.00243,  -0.00003,   0.00076,3385018.89238,   1.00000
435036831.18589,511733654.74083,6781615.25678,   0.00342,   0.00146,   0.00085,478166666.79048,   0.00329,278166674.05831,   0.00244,  -0.00002,   0.00076,3367288.62282,   1.00000
434191329.45219,512281190.49716,6579046.97669,   0.00342,   0.00147,   0.00085,478179808.36784,   0.00331,278179818.20373,   0.00244,  -0.00001,   0.00076,3380405.35165,   1.00000
433353930.18132,512818333.19600,6378310.17922,   0.00342,   0.00149,   0.00085,478192931.80497,   0.00332,278192933.95064,   0.00245,   0.00000,   0.00076,3372183.20347,   1.00000
432520885.71029,513347820.64903,6174913.12819,   0.00342,   0.00150,   0.00085,478206060.32607,   0.00333,278206066.30074,   0.00246,   0.00001,   0.00077,3375502.63566,   1.00000
431695918.83115,513867254.28904,5973344.87961,   0.00342,   0.00152,   0.00084,478219162.53495,   0.00334,278219169.78643,   0.00246,   0.00002,   0.00077,3367125.50723,   1.00000
430881895.69847,514375312.55347,5773277.26267,   0.00343,   0.00153,   0.00084,478232320.76336,   0.00336,278232327.28342,   0.00247,   0.00003,   0.00077,3380038.46378,   1.00000
430069308.89619,514877717.39538,5570848.63102,   0.00343,   0.00155,   0.00084,478245411.16654,   0.00337,278245417.51071,   0.00247,   0.00004,   0.00077,3361775.80365,   1.00000
429267739.10282,515369041.31482,5369939.10850,   0.00343,   0.00156,   0.00084,478258555.75147,   0.00338,278258561.26196,   0.00248,   0.00005,   0.00077,3374530.98883,   1.00000
428463697.28413,515857226.45917,5166502.99742,   0.00343,   0.00158,   0.00084,478271681.91392,   0.00339,278271683.70971,   0.00249,   0.00007,   0.00077,3368048.17135,   1.00000
427678443.05393,516330296.82812,4960612.59735,   0.00343,   0.00159,   0.00083,478284760.01086,   0.00341,278284766.16721,   0.00249,   0.00008,   0.00077,3356784.16891,   1.00000
426893610.42385,516798756.68862,4756259.98612,   0.00343,   0.00161,   0.00083,478297907.64483,   0.00342,278297910.73359,   0.00250,   0.00009,   0.00077,3371697.03187,   1.00000
426127460.33174,517252410.04613,4553742.55065,   0.00344,   0.00162,   0.00083,478311009.71808,   0.00343,278311014.87471,   0.00251,   0.00010,   0.00077,3360322.11071,   1.00000
425354861.00687,517705594.84175,4348563.05879,   0.00344,   0.00164,   0.00083,478324136.31162,   0.00344,278324143.58473,   0.00251,   0.00011,   0.00077,3365577.42306,   1.00000
424600950.72349,518144346.54375,4145211.92173,   0.00344,   0.00165,   0.00082,478337221.42615,   0.00346,278337231.13488,   0.00252,   0.00012,   0.00077,3354004.46929,   1.00000
423851289.64146,518576990.90518,3939231.89697,   0.00344,   0.00167,   0.00082,478350329.25385,   0.00347,278350333.05985,   0.00252,   0.00013,   0.00077,3356662.55874,   1.00000
423105860.79286,519003587.98020,3730647.01476,   0.00344,   0.00168,   0.00082,478363446.66800,   0.00348,278363449.36104,   0.00253,   0.00014,   0.00077,3359304.82399,   1.00000
422368268.30287,519422083.23127,3523875.86779,   0.00344,   0.00169,   0.00082,478376527.33826,   0.00349,278376533.60127,   0.00254,   0.00015,   0.00077,3350047.36848,   1.00000
421645638.51973,519828969.34178,3318817.83367,   0.00345,   0.00171,   0.00082,478389619.24975,   0.00351,278389621.74385,   0.00254,   0.00017,   0.00077,3350020.88033,   1.00000
420927161.22942,520230213.89487,3111147.51971,   0.00345,   0.00172,   0.00081,478402718.53940,   0.00352,278402723.56995,   0.00255,   0.00018,   0.00077,3352482.32758,   1.00000
420216486.47012,520623935.25096,2900974.58820,   0.00345,   0.00174,   0.00081,478415785.24832,   0.00353,278415792.05975,   0.00255,   0.00019,   0.00077,3342916.05900,   1.00000
419513494.56316,521010188.42895,2692600.59966,   0.00345,   0.00175,   0.00081,478428818.12292,   0.00355,278428827.28613,   0.00256,   0.00020,   0.00077,3333370.63438,   1.00000
418821803.16135,521387406.51702,2485870.44054,   0.00345,   0.00177,   0.00081,478441903.88211,   0.00356,278441912.07153,   0.00256,   0.00021,   0.00077,3345014.30494,   1.00000
418126849.42124,521763056.16501,2276594.80087,   0.00345,   0.00178,   0.00080,478454966.34331,   0.00357,278454973.81140,   0.00257,   0.00022,   0.00077,3338071.85343,   1.00000
417457857.05491,522122549.18843,2064768.65201,   0.00346,   0.00179,   0.00080,478468022.01653,   0.00358,278468026.19721,   0.00258,   0.00023,   0.00077,3334680.84819,   1.00000
416785388.78169,522480664.50040,1854716.90132,   0.00346,   0.00181,   0.00080,478481053.04006,   0.00360,278481055.32898,   0.00258,   0.00024,   0.00077,3327712.86244,   1.00000
416124282.28766,522830274.12688,1642051.22442,   0.00346,   0.00182,   0.00080,478494127.72820,   0.00361,278494132.86186,   0.00259,   0.00026,   0.00077,3339051.12328,   1.00000
415474206.15538,523171422.53372,1431213.62794,   0.00346,   0.00184,   0.00079,478507123.24204,   0.00362,278507128.19029,   0.00259,   0.00027,   0.00077,3317060.89172,   1.00000
414827979.55138,523507921.25229,1217801.50083,   0.00346,   0.00185,   0.00079,478520127.16481,   0.00363,278520135.54545,   0.00260,   0.00028,   0.00077,3319115.94967,   1.00000
414193074.49061,523836257.56249,1006106.73405,   0.00347,   0.00186,   0.00079,478533190.48513,   0.00365,278533190.60246,   0.00260,   0.00029,   0.00077,3330294.96341,   1.00000
413569028.62976,524156588.76719,791899.75298,   0.00347,   0.00188,   0.00079,478546153.50992,   0.00366,278546162.46464,   0.00261,   0.00030,   0.00077,3308083.51935,   1.00000
412948716.51876,524472585.08474,575142.65552,   0.00347,   0.00189,   0.00078,478559135.83084,   0.00367,278559145.75688,   0.00261,   0.00031,   0.00078,3310007.93268,   1.00000
412339695.98821,524780768.85319,360141.63309,   0.00347,   0.00191,   0.00078,478572174.97719,   0.00368,278572175.98099,   0.00262,   0.00032,   0.00078,3321003.65281,   1.00000
411741332.98603,525081342.45191,146905.43067,   0.00347,   0.00192,   0.00078,478585117.14907,   0.00370,278585122.18416,   0.00262,   0.00033,   0.00078,3298628.84584,   1.00000
411146574.13682,525377865.78612,-73184.60282,   0.00348,   0.00193,   0.00077,478598071.14645,   0.00371,278598079.28540,   0.00263,   0.00035,   0.00078,3300437.04507,   1.00000
410566532.61477,525665225.89036,-291489.47464,   0.00348,   0.00195,   0.00077,478611024.94829,   0.00372,278611034.89030,   0.00263,   0.00036,   0.00078,3299113.79200,   1.00000
409990018.17737,525948733.15429,-508021.83176,   0.00348,   0.00196,   0.00077,478623994.91034,   0.00373,278624000.97802,   0.00264,   0.00037,   0.00077,3300841.86080,   1.00000
409431609.58083,526221670.39147,-727114.29190,   0.00348,   0.00198,   0.00077,478636908.20331,   0.00375,278636917.20908,   0.00264,   0.00038,   0.00077,3287239.76079,   1.00000
408876595.16142,526490953.99255,-948725.86233,   0.00348,   0.00199,   0.00076,478649836.82991,   0.00376,278649843.51022,   0.00265,   0.00039,   0.00077,3288890.78762,   1.00000
408324975.15033,526756645.49146,-1168542.77632,   0.00349,   0.00200,   0.00076,478662773.98292,   0.00377,278662779.78090,   0.00266,   0.00040,   0.00077,3290510.30259,   1.00000
407791328.99017,527012137.74704,-1390923.25473,   0.00349,   0.00202,   0.00076,478675657.71508,   0.00378,278675665.31697,   0.00266,   0.00041,   0.00077,3276724.17631,   1.00000
407260966.85541,527264258.69788,-1611509.15033,   0.00349,   0.00203,   0.00075,478688555.03746,   0.00380,278688560.30517,   0.00267,   0.00043,   0.00077,3278244.73816,   1.00000
406745062.60800,527508023.42741,-1834620.78400,   0.00349,   0.00204,   0.00075,478701445.81079,   0.00381,278701451.88533,   0.00267,   0.00044,   0.00077,3276518.58034,   1.00000
406235695.82073,527746969.46205,-2060285.73360,   0.00349,   0.00206,   0.00075,478714300.29877,   0.00382,278714304.71036,   0.00268,   0.00045,   0.00077,3265818.59891,   1.00000
405740727.98597,527977854.43427,-2284153.83522,   0.00350,   0.00207,   0.00074,478727152.12028,   0.00383,278727153.32535,   0.00268,   0.00046,   0.00077,3263926.18329,   1.00000
405240882.58177,528209024.54613,-2510568.94264,   0.00350,   0.00208,   0.00074,478739975.45864,   0.00385,278739975.98208,   0.00269,   0.00047,   0.00077,3256483.03657,   1.00000
404766614.06797,528427322.99847,-2739504.68735,   0.00350,   0.00210,   0.00074,478752779.52413,   0.00386,278752781.07316,   0.00269,   0.00048,   0.00077,3251227.10059,   1.00000
404295290.63903,528642782.46689,-2966606.87080,   0.00350,   0.00211,   0.00073,478765588.12694,   0.00387,278765594.41800,   0.00269,   0.00049,   0.00077,3252520.28979,   1.00000
403830177.15310,528853865.88042,-3196277.49316,   0.00351,   0.00212,   0.00073,478778363.81672,   0.00388,278778368.02534,   0.00270,   0.00050,   0.00077,3241645.15634,   1.00000
403375937.33453,529058881.47977,-3424039.60467,   0.00351,   0.00214,   0.00073,478791182.88949,   0.00389,278791184.43012,   0.00270,   0.00052,   0.00077,3251733.11612,   1.00000
402939089.81650,529254862.46751,-3654409.60865,   0.00351,   0.00215,   0.00072,478803938.07153,   0.00391,278803947.17132,   0.00271,   0.00053,   0.00077,3237374.68014,   1.00000
402496882.21011,529451534.59467,-3887318.68292,   0.00351,   0.00216,   0.00072,478816676.25243,   0.00392,278816683.16057,   0.00271,   0.00054,   0.00077,3229828.11339,   1.00000
402076797.22240,529637600.67885,-4118320.40415,   0.00352,   0.00218,   0.00072,478829437.72999,   0.00393,278829447.67259,   0.00272,   0.00055,   0.00077,3236342.58028,   1.00000
401662552.81938,529819719.20316,-4351903.53259,   0.00352,   0.00219,   0.00071,478842163.38766,   0.00394,278842171.41836,   0.00272,   0.00056,   0.00077,3225300.29502,   1.00000
401254086.48258,529997940.17956,-4588060.94089,   0.00352,   0.00220,   0.00071,478854852.85077,   0.00396,278854854.32753,   0.00273,   0.00057,   0.00077,3214251.05785,   1.00000
400859520.19233,530169162.82097,-4822390.09450,   0.00352,   0.00221,   0.00071,478867524.73372,   0.00397,278867530.35282,   0.00273,   0.00058,   0.00077,3211825.00731,   1.00000
400478691.85526,530333376.42586,-5059201.00432,   0.00353,   0.00223,   0.00070,478880196.38271,   0.00398,278880199.61478,   0.00274,   0.00060,   0.00077,3209461.52706,   1.00000
400100136.58883,530495337.92859,-5298431.80020,   0.00353,   0.00224,   0.00070,478892875.11512,   0.00399,278892875.96604,   0.00274,   0.00061,   0.00077,3210601.08223,   1.00000
399738572.93064,530649169.09478,-5535986.27794,   0.00353,   0.00225,   0.00070,478905488.79820,   0.00401,278905496.18208,   0.00275,   0.00062,   0.00077,3195758.90488,   1.00000
399379157.50036,530800885.99825,-5775963.03364,   0.00353,   0.00227,   0.00069,478918120.99637,   0.00402,278918123.15171,   0.00275,   0.00063,   0.00077,3196847.06285,   1.00000
399033253.89545,530945858.14480,-6018394.61539,   0.00354,   0.00228,   0.00069,478930737.99759,   0.00403,278930742.74052,   0.00276,   0.00064,   0.00077,3194373.68939,   1.00000
398692731.97249,531087604.14921,-6259108.76895,   0.00354,   0.00229,   0.00068,478943315.35308,   0.00404,278943319.67342,   0.00276,   0.00065,   0.00077,3182982.79926,   1.00000
398365606.26680,531222756.65628,-6502284.92929,   0.00354,   0.00230,   0.00068,478955882.15995,   0.00405,278955888.83197,   0.00276,   0.00066,   0.00077,3180441.33769,   1.00000
398051795.13818,531351405.71245,-6747907.86778,   0.00354,   0.00232,   0.00068,478968443.48460,   0.00407,278968449.96887,   0.00277,   0.00067,   0.00076,3177863.91012,   1.00000
397743131.41451,531477049.76419,-6991821.06775,   0.00355,   0.00233,   0.00067,478980963.76667,   0.00408,278980967.87801,   0.00277,   0.00069,   0.00076,3166389.91490,   1.00000
397447655.87326,531596313.98076,-7238188.33604,   0.00355,   0.00234,   0.00067,478993471.19321,   0.00409,278993477.45874,   0.00278,   0.00070,   0.00076,3163762.56324,   1.00000
397165285.37583,531709280.64960,-7486994.69222,   0.00355,   0.00235,   0.00067,479005970.85941,   0.00410,279005978.48704,   0.00278,   0.00071,   0.00076,3161102.61859,   1.00000
396884654.61206,531820783.04584,-7733866.25807,   0.00356,   0.00237,   0.00066,479018480.45065,   0.00411,279018484.50383,   0.00279,   0.00072,   0.00076,3161868.67866,   1.00000
396620204.56051,531924753.97426,-7983419.81063,   0.00356,   0.00238,   0.00066,479030928.85507,   0.00413,279030932.97742,   0.00279,   0.00073,   0.00076,3146854.90347,   1.00000
396360359.25625,532025788.99014,-8235579.83560,   0.00356,   0.00239,   0.00065,479043334.16538,   0.00414,279043338.32123,   0.00280,   0.00074,   0.00076,3135485.65574,   1.00000
396110208.38318,532122064.31733,-8489904.40934,   0.00356,   0.00240,   0.00065,479055781.89530,   0.00415,279055783.41370,   0.00280,   0.00075,   0.00076,3145078.14012,   1.00000
395876183.68008,532211249.41546,-8742604.76862,   0.00357,   0.00241,   0.00064,479068166.22866,   0.00416,279068169.58359,   0.00280,   0.00076,   0.00076,3129769.03091,   1.00000
395651689.53941,532295798.75089,-8997458.46280,   0.00357,   0.00243,   0.00064,479080585.56895,   0.00417,279080595.15732,   0.00281,   0.00078,   0.00076,3139311.44854,   1.00000
395434638.77839,532376310.15426,-9255192.76232,   0.00357,   0.00244,   0.00064,479092925.26444,   0.00419,279092928.26056,   0.00281,   0.00079,   0.00076,3115559.56706,   1.00000
395227193.79815,532452540.28441,-9510751.29238,   0.00358,   0.00245,   0.00063,479105293.45439,   0.00420,279105299.62675,   0.00282,   0.00080,   0.00076,3124839.23567,   1.00000
395027031.46798,532524807.00998,-9769224.64871,   0.00358,   0.00246,   0.00063,479117569.31459,   0.00421,279117578.36424,   0.00282,   0.00081,   0.00075,3101067.90465,   1.00000
394844529.51846,532589464.58522,-10029591.74051,   0.00358,   0.00247,   0.00062,479129921.66909,   0.00422,279129930.15281,   0.00283,   0.00082,   0.00075,3119173.37299,   1.00000
394669101.66148,532650259.86317,-10292871.59517,   0.00359,   0.00249,   0.00062,479142180.56403,   0.00423,279142189.07154,   0.00283,   0.00083,   0.00075,3095388.33298,   1.00000
394494654.89512,532710126.42156,-10554147.72150,   0.00359,   0.00250,   0.00061,479154447.07679,   0.00425,279154451.75073,   0.00283,   0.00084,   0.00075,3095999.97362,   1.00000
394343940.80303,532759914.33769,-10817919.99012,   0.00359,   0.00251,   0.00061,479166680.84300,   0.00426,279166689.42296,   0.00284,   0.00085,   0.00075,3089391.04029,   1.00000
394193809.73247,532808553.62437,-11083975.40044,   0.00360,   0.00252,   0.00061,479178927.29907,   0.00427,279178931.75354,   0.00284,   0.00086,   0.00075,3090266.43253,   1.00000
394059082.37775,532850678.85017,-11348456.65920,   0.00360,   0.00253,   0.00060,479191109.27589,   0.00428,279191113.66955,   0.00285,   0.00088,   0.00075,3074747.16943,   1.00000
393936305.94872,532887303.03525,-11615331.21243,   0.00360,   0.00254,   0.00060,479203279.40608,   0.00429,279203285.13586,   0.00285,   0.00089,   0.00075,3071854.06011,   1.00000
393822290.91811,532919753.86261,-11884225.82193,   0.00361,   0.00255,   0.00059,479215491.20353,   0.00431,279215495.00925,   0.00286,   0.00090,   0.00075,3081303.02264,   1.00000
393714757.59837,532948592.22174,-12156102.97372,   0.00361,   0.00257,   0.00059,479227606.69793,   0.00432,279227611.49128,   0.00286,   0.00091,   0.00074,3057494.03528,   1.00000
393618956.75099,532972016.66826,-12430335.34298,   0.00362,   0.00258,   0.00058,479239714.75344,   0.00433,279239717.42292,   0.00286,   0.00092,   0.00074,3054606.11135,   1.00000
393535058.17142,532990439.29499,-12702624.80866,   0.00362,   0.00259,   0.00058,479251809.47824,   0.00434,279251811.36651,   0.00287,   0.00093,   0.00074,3051378.34798,   1.00000
393462710.85022,533003519.61998,-12977274.48185,   0.00362,   0.00260,   0.00057,479263889.72406,   0.00435,279263894.58767,   0.00287,   0.00094,   0.00074,3048481.64056,   1.00000
393393682.07667,533014791.94454,-13250265.35287,   0.00363,   0.00261,   0.00057,479275927.33298,   0.00436,279275931.70769,   0.00288,   0.00095,   0.00074,3036664.94515,   1.00000
393344230.23509,533017266.96833,-13529624.36939,   0.00363,   0.00262,   0.00056,479287988.55665,   0.00438,279287993.37496,   0.00288,   0.00096,   0.00074,3042696.34504,   1.00000
393297912.02076,533017994.21792,-13807309.17533,   0.00363,   0.00263,   0.00056,479300000.96450,   0.00439,279300008.85122,   0.00288,   0.00097,   0.00074,3030883.36427,   1.00000
393265929.78891,533012201.12512,-14087761.38114,   0.00364,   0.00264,   0.00055,479311959.24875,   0.00440,279311964.48339,   0.00289,   0.00099,   0.00074,3015652.73838,   1.00000
393241993.90227,533002476.03586,-14370112.06132,   0.00364,   0.00265,   0.00055,479323950.12076,   0.00441,279323958.23887,   0.00289,   0.00100,   0.00073,3025130.61504,   1.00000
393232511.69364,532986714.71881,-14650938.64276,   0.00365,   0.00266,   0.00054,479335886.20170,   0.00442,279335890.51405,   0.00290,   0.00101,   0.00073,3009524.80223,   1.00000
393222469.26628,532970167.25271,-14933964.75803,   0.00365,   0.00268,   0.00054,479347821.74853,   0.00443,279347826.96589,   0.00290,   0.00102,   0.00073,3010454.70610,   1.00000
393234884.67274,532944072.84134,-15219454.42968,   0.00365,   0.00269,   0.00053,479359733.03869,   0.00445,279359737.42570,   0.00290,   0.00103,   0.00073,3003819.59719,   1.00000
393249630.27503,532915933.14799,-15507579.24064,   0.00366,   0.00270,   0.00053,479371593.73291,   0.00446,279371603.11099,   0.00291,   0.00104,   0.00073,2992430.59673,   1.00000
393275118.29356,532882670.28534,-15798004.85342,   0.00366,   0.00271,   0.00052,479383452.61204,   0.00447,279383457.92944,   0.00291,   0.00105,   0.00073,2989611.14736,   1.00000
393311579.80078,532844765.48678,-16086438.58547,   0.00367,   0.00272,   0.00052,479395292.97747,   0.00448,279395300.19869,   0.00292,   0.00106,   0.00073,2986382.02298,   1.00000
393358605.83745,532801775.23058,-16377178.04635,   0.00367,   0.00273,   0.00051,479407130.59476,   0.00449,279407131.56348,   0.00292,   0.00107,   0.00072,2983585.60410,   1.00000
393419169.03830,532752386.44100,-16670712.22490,   0.00368,   0.00274,   0.00051,479418903.03453,   0.00450,279418903.16780,   0.00292,   0.00108,   0.00072,2968480.04705,   1.00000
393490428.83092,532698427.49147,-16962252.22897,   0.00368,   0.00275,   0.00050,479430655.63675,   0.00452,279430662.14577,   0.00293,   0.00109,   0.00072,2965270.25931,   1.00000
393568522.69301,532640225.35633,-17259849.14780,   0.00368,   0.00276,   0.00049,479442459.82167,   0.00453,279442461.07628,   0.00293,   0.00110,   0.00072,2975320.96747,   1.00000
393660238.22869,532576155.86622,-17555950.33411,   0.00369,   0.00277,   0.00049,479454192.53845,   0.00454,279454198.52824,   0.00294,   0.00111,   0.00072,2959812.26651,   1.00000
393762034.84980,532507048.75029,-17854325.39774,   0.00369,   0.00278,   0.00048,479465920.34914,   0.00455,279465925.25660,   0.00294,   0.00112,   0.00072,2957112.66486,   1.00000
393868485.75880,532434660.06786,-18155889.08884,   0.00370,   0.00279,   0.00048,479477556.21603,   0.00456,279477558.54350,   0.00294,   0.00113,   0.00071,2933547.66599,   1.00000
393990575.89371,532356008.58601,-18454489.64330,   0.00370,   0.00280,   0.00047,479489257.36808,   0.00457,279489262.18075,   0.00295,   0.00115,   0.00071,2951308.80655,   1.00000
394117154.76840,532274081.06546,-18756313.84025,   0.00371,   0.00281,   0.00047,479500866.10658,   0.00458,279500872.44143,   0.00295,   0.00116,   0.00071,2927779.02983,   1.00000
394261890.09808,532184018.16611,-19059996.50244,   0.00371,   0.00282,   0.00046,479512503.16649,   0.00460,279512506.24638,   0.00296,   0.00117,   0.00071,2933760.20870,   1.00000
394407823.99389,532092010.52400,-19366326.77695,   0.00372,   0.00283,   0.00046,479524088.12723,   0.00461,279524095.77787,   0.00296,   0.00118,   0.00071,2922616.46865,   1.00000
394571714.71828,531991854.63604,-19674474.27493,   0.00372,   0.00284,   0.00045,479535700.41125,   0.00462,279535709.10609,   0.00296,   0.00119,   0.00071,2928665.41677,   1.00000
394737055.11173,531890358.06777,-19980985.29468,   0.00373,   0.00285,   0.00044,479547267.13619,   0.00463,279547276.13317,   0.00297,   0.00120,   0.00070,2917034.00954,   1.00000
394923258.16001,531779334.80110,-20289914.92698,   0.00373,   0.00286,   0.00044,479558813.05492,   0.00464,279558818.29219,   0.00297,   0.00121,   0.00070,2910840.16225,   1.00000
395110303.94899,531666368.13899,-20601499.39099,   0.00374,   0.00287,   0.00043,479570312.16849,   0.00465,279570316.47686,   0.00298,   0.00122,   0.00070,2899805.12072,   1.00000
395306535.92608,531548332.93563,-20915294.85520,   0.00374,   0.00288,   0.00043,479581803.34443,   0.00466,279581804.89794,   0.00298,   0.00123,   0.00070,2897399.56404,   1.00000
395520197.88231,531422091.96001,-21230838.67693,   0.00375,   0.00289,   0.00042,479593308.24954,   0.00467,279593317.81509,   0.00298,   0.00124,   0.00070,2903645.76294,   1.00000
395746360.58457,531290027.63291,-21544943.85562,   0.00375,   0.00289,   0.00041,479604768.89282,   0.00469,279604770.02685,   0.00299,   0.00125,   0.00069,2888441.31065,   1.00000
395973009.35306,531155990.24593,-21861710.34223,   0.00376,   0.00290,   0.00041,479616177.11867,   0.00470,279616178.70260,   0.00299,   0.00126,   0.00069,2877534.24302,   1.00000
396216776.93210,531013718.40328,-22180197.72283,   0.00376,   0.00291,   0.00040,479627608.62520,   0.00471,279627612.27585,   0.00300,   0.00127,   0.00069,2883904.47842,   1.00000
396460871.34877,530869462.80608,-22501332.20930,   0.00377,   0.00292,   0.00039,479638998.73516,   0.00472,279639002.56575,   0.00300,   0.00128,   0.00069,2873059.11719,   1.00000
396721877.00235,530716932.53870,-22824144.25494,   0.00378,   0.00293,   0.00039,479650411.47150,   0.00473,279650418.15784,   0.00300,   0.00129,   0.00069,2879528.07062,   1.00000
396994948.43856,530558495.73647,-23145532.02557,   0.00378,   0.00294,   0.00038,479661767.06465,   0.00474,279661773.78659,   0.00301,   0.00130,   0.00068,2864511.06718,   1.00000
397276362.08540,530394900.02550,-23469082.70727,   0.00379,   0.00295,   0.00038,479673112.67514,   0.00475,279673120.75764,   0.00301,   0.00131,   0.00068,2862428.75526,   1.00000
397569164.62499,530224653.07366,-23795495.62191,   0.00379,   0.00296,   0.00037,479684404.41325,   0.00476,279684410.64025,   0.00302,   0.00132,   0.00068,2848133.91525,   1.00000
397866964.52640,530050694.74620,-24123322.78664,   0.00380,   0.00297,   0.00036,479695740.65797,   0.00477,279695740.86809,   0.00302,   0.00133,   0.00068,2858410.79409,   1.00000
398176484.01234,529870736.89053,-24449743.20040,   0.00380,   0.00297,   0.00036,479707007.52119,   0.00479,279707011.84240,   0.00303,   0.00134,   0.00067,2843568.65922,   1.00000
398493969.44305,529685552.92287,-24778302.81598,   0.00381,   0.00298,   0.00035,479718274.60306,   0.00480,279718274.85763,   0.00303,   0.00135,   0.00067,2841667.52046,   1.00000
398821937.18357,529492825.86256,-25113993.03254,   0.00382,   0.00299,   0.00034,479729479.62532,   0.00481,279729484.44443,   0.00303,   0.00136,   0.00067,2828269.70722,   1.00000
399163772.12639,529294689.42341,-25441951.71565,   0.00382,   0.00300,   0.00034,479740762.44841,   0.00482,279740764.02403,   0.00304,   0.00137,   0.00067,2846056.66195,   1.00000
399507648.99707,529092115.63204,-25777604.58050,   0.00383,   0.00301,   0.00033,479751952.47736,   0.00483,279751956.13842,   0.00304,   0.00138,   0.00067,2824075.33037,   1.00000
399870439.57917,528879460.95649,-26115562.25362,   0.00383,   0.00302,   0.00032,479763126.87541,   0.00484,279763127.33033,   0.00305,   0.00139,   0.00066,2818902.07669,   1.00000
400229829.52854,528666980.54990,-26451108.92754,   0.00384,   0.00303,   0.00032,479774301.89187,   0.00485,279774302.83107,   0.00305,   0.00140,   0.00066,2820073.69598,   1.00000
400607929.74497,528444326.79335,-26788963.44370,   0.00385,   0.00303,   0.00031,479785449.79984,   0.00486,279785457.95485,   0.00305,   0.00141,   0.00066,2815025.70195,   1.00000
400993231.36847,528216262.64802,-27128883.12577,   0.00385,   0.00304,   0.00030,479796597.11957,   0.00487,279796606.75479,   0.00306,   0.00142,   0.00066,2813519.32594,   1.00000
401396943.19195,527977930.26180,-27471081.98846,   0.00386,   0.00305,   0.00030,479807726.70345,   0.00488,279807735.83494,   0.00306,   0.00143,   0.00065,2808648.15755,   1.00000
401800068.03487,527738151.91563,-27811663.93357,   0.00386,   0.00306,   0.00029,479818811.91562,   0.00490,279818821.46473,   0.00307,   0.00144,   0.00065,2797772.02368,   1.00000
402218181.78479,527489661.58278,-28153691.99955,   0.00387,   0.00306,   0.00028,479829935.87572,   0.00491,279829936.21374,   0.00307,   0.00145,   0.00065,2805226.62821,   1.00000
402634963.39685,527238850.04901,-28498363.60107,   0.00388,   0.00307,   0.00028,479841008.92225,   0.00492,279841010.95344,   0.00307,   0.00146,   0.00065,2795193.56125,   1.00000
403069726.69775,526977556.22901,-28845290.42539,   0.00388,   0.00308,   0.00027,479852062.74788,   0.00493,279852067.32326,   0.00308,   0.00147,   0.00064,2790630.27021,   1.00000
403511017.17376,526710654.73760,-29194218.06518,   0.00389,   0.00309,   0.00026,479863115.74302,   0.00494,279863119.04023,   0.00308,   0.00148,   0.00064,2789518.71974,   1.00000
403962606.92644,526437261.11565,-29541767.82907,   0.00390,   0.00310,   0.00025,479874105.82533,   0.00495,279874115.08612,   0.00309,   0.00149,   0.00064,2775529.91852,   1.00000
404424621.46897,526155790.17461,-29894021.80616,   0.00390,   0.00310,   0.00025,479885185.56917,   0.00496,279885193.31655,   0.00309,   0.00150,   0.00064,2796325.10269,   1.00000
404891990.27836,525869259.37560,-30246436.74518,   0.00391,   0.00311,   0.00024,479896125.74010,   0.00497,279896133.42579,   0.00309,   0.00151,   0.00063,2761505.69100,   1.00000
405370166.18429,525575472.74612,-30599249.36934,   0.00392,   0.00312,   0.00023,479907152.10446,   0.00498,279907153.17679,   0.00310,   0.00152,   0.00063,2781652.58441,   1.00000
405858234.87346,525275020.26246,-30950690.00065,   0.00393,   0.00312,   0.00022,479918114.69669,   0.00499,279918118.45813,   0.00310,   0.00153,   0.00063,2767946.97102,   1.00000
406359386.73799,524964543.63515,-31307643.16130,   0.00393,   0.00313,   0.00022,479929118.53138,   0.00500,279929119.41851,   0.00311,   0.00154,   0.00062,2776983.31920,   1.00000
406862296.39120,524650588.78097,-31663901.17768,   0.00394,   0.00314,   0.00021,479940030.72456,   0.00501,279940031.44378,   0.00311,   0.00155,   0.00062,2754547.87055,   1.00000
407378707.42727,524327416.24926,-32021387.63922,   0.00395,   0.00315,   0.00020,479950969.78177,   0.00502,279950976.62842,   0.00312,   0.00155,   0.00062,2762922.15023,   1.00000
407900598.18717,523998303.80289,-32380780.63524,   0.00395,   0.00315,   0.00019,479961918.99268,   0.00504,279961920.02630,   0.00312,   0.00156,   0.00062,2762469.30907,   1.00000
408428573.05151,523664155.23373,-32737833.39914,   0.00396,   0.00316,   0.00019,479972853.69927,   0.00505,279972858.49880,   0.00312,   0.00157,   0.00061,2761213.87973,   1.00000
408968471.17813,523320184.46622,-33098742.05399,   0.00397,   0.00317,   0.00018,479983697.93817,   0.00506,279983700.25707,   0.00313,   0.00158,   0.00061,2736780.30897,   1.00000
409517231.56467,522967731.08286,-33464037.33082,   0.00398,   0.00317,   0.00017,479994623.56893,   0.00507,279994628.24619,   0.00313,   0.00159,   0.00061,2758491.96982,   1.00000
410075044.52179,522608192.34160,-33827936.87942,   0.00398,   0.00318,   0.00016,480005494.80264,   0.00508,280005504.70530,   0.00314,   0.00160,   0.00060,2745431.27744,   1.00000
410638497.64757,522243496.74953,-34189460.46324,   0.00399,   0.00319,   0.00016,480016373.00856,   0.00509,280016377.52644,   0.00314,   0.00161,   0.00060,2744465.00037,   1.00000
411213670.73942,521868225.75757,-34556294.12334,   0.00400,   0.00319,   0.00015,480027282.23813,   0.00510,280027290.19822,   0.00315,   0.00162,   0.00060,2754441.34919,   1.00000
