# sigma_xx, sigma_yy, sigma_xy, epsilon_xx, epsilon_yy, epsilon_xy, vonMises, epsPlastic, hardening, epsilonP__xx, epsilonP__yy, epsilonP__xy, yieldValue, iteration
   0.00000,   0.00000,   0.00000,   0.00000,   0.00000,   0.00000,1181185.37500,   0.00000,274640576.00000,   0.00000,   0.00000,   0.00000,-473459392.00000,   0.00000
   0.00000,   0.00000,   0.00000,   0.00000,   0.00000,   0.00000,1181185.37500,   0.00000,274640576.00000,   0.00000,   0.00000,   0.00000,-473459392.00000,   0.00000
-1850439.07348,-222252.46632,334627.30883,  -0.00001,   0.00000,   0.00000,1425582.37500,   0.00000,274640576.00000,   0.00000,   0.00000,   0.00000,-473215008.00000,   0.00000
-3683397.61591,-437013.27646,674249.05511,  -0.00002,   0.00001,   0.00001,3411669.75000,   0.00000,274640576.00000,   0.00000,   0.00000,   0.00000,-471228896.00000,   0.00000
-5498875.62727,-644282.43044,1018865.23884,  -0.00002,   0.00001,   0.00001,5088836.50000,   0.00000,274640576.00000,   0.00000,   0.00000,   0.00000,-469551744.00000,   0.00000
-7296873.10758,-844059.92825,1363481.42257,  -0.00003,   0.00001,   0.00002,6800271.50000,   0.00000,274640576.00000,   0.00000,   0.00000,   0.00000,-467840304.00000,   0.00000
-9069898.40066,-1018865.23884,1713092.04374,  -0.00004,   0.00001,   0.00002,8509966.00000,   0.00000,274640576.00000,   0.00000,   0.00000,   0.00000,-466130608.00000,   0.00000
-10832934.81885,-1203659.42432,2067697.10235,  -0.00005,   0.00002,   0.00003,10214458.00000,   0.00000,274640576.00000,   0.00000,   0.00000,   0.00000,-464426112.00000,   0.00000
-12588479.58087,-1370973.07873,2427296.59841,  -0.00005,   0.00002,   0.00003,11928640.00000,   0.00000,274640576.00000,   0.00000,   0.00000,   0.00000,-462711936.00000,   0.00000
-14309063.28077,-1523303.42082,2786896.09447,  -0.00006,   0.00002,   0.00004,13637561.00000,   0.00000,274640576.00000,   0.00000,   0.00000,   0.00000,-461003008.00000,   0.00000
-16029646.98068,-1675633.76290,3151490.02798,  -0.00007,   0.00002,   0.00004,15382040.00000,   0.00000,274640576.00000,   0.00000,   0.00000,   0.00000,-459258528.00000,   0.00000
-17715269.61846,-1812980.79264,3521078.39893,  -0.00008,   0.00003,   0.00005,17136660.00000,   0.00000,274640576.00000,   0.00000,   0.00000,   0.00000,-457503920.00000,   0.00000
-19393400.60008,-1932847.29133,3890666.76989,  -0.00008,   0.00003,   0.00005,18918984.00000,   0.00000,274640576.00000,   0.00000,   0.00000,   0.00000,-455721600.00000,   0.00000
-21061542.70681,-2062702.66491,4265249.57828,  -0.00009,   0.00003,   0.00006,20709550.00000,   0.00000,274640576.00000,   0.00000,   0.00000,   0.00000,-453931024.00000,   0.00000
-22704712.62631,-2167585.85126,4644826.82412,  -0.00010,   0.00003,   0.00006,22498960.00000,   0.00000,274640576.00000,   0.00000,   0.00000,   0.00000,-452141616.00000,   0.00000
-24330402.01476,-2264977.38144,5029398.50741,  -0.00011,   0.00004,   0.00007,24280200.00000,   0.00000,274640576.00000,   0.00000,   0.00000,   0.00000,-450360384.00000,   0.00000
-25938610.87214,-2354877.25546,5413970.19070,  -0.00011,   0.00004,   0.00007,26045056.00000,   0.00000,274640576.00000,   0.00000,   0.00000,   0.00000,-448595520.00000,   0.00000
-27536830.85464,-2454766.00436,5803536.31143,  -0.00012,   0.00004,   0.00008,27793346.00000,   0.00000,274640576.00000,   0.00000,   0.00000,   0.00000,-446847232.00000,   0.00000
-29102586.99374,-2512202.03498,6198096.86961,  -0.00013,   0.00005,   0.00008,29522656.00000,   0.00000,274640576.00000,   0.00000,   0.00000,   0.00000,-445117920.00000,   0.00000
-30658354.25795,-2579626.94050,6597651.86524,  -0.00013,   0.00005,   0.00009,31232900.00000,   0.00000,274640576.00000,   0.00000,   0.00000,   0.00000,-443407680.00000,   0.00000
-32214121.52215,-2647051.84601,6997206.86086,  -0.00014,   0.00005,   0.00009,32934568.00000,   0.00000,274640576.00000,   0.00000,   0.00000,   0.00000,-441706016.00000,   0.00000
-33734927.72425,-2699493.43918,7401756.29393,  -0.00015,   0.00005,   0.00010,34604140.00000,   0.00000,274640576.00000,   0.00000,   0.00000,   0.00000,-440036432.00000,   0.00000
-35230761.73911,-2726962.84513,7811300.16444,  -0.00015,   0.00006,   0.00010,36256544.00000,   0.00000,274640576.00000,   0.00000,   0.00000,   0.00000,-438384032.00000,   0.00000
-36734087.41015,-2771912.78214,8220844.03496,  -0.00016,   0.00006,   0.00011,37903188.00000,   0.00000,274640576.00000,   0.00000,   0.00000,   0.00000,-436737392.00000,   0.00000
-38212440.89395,-2791890.53192,8640376.78036,  -0.00017,   0.00006,   0.00011,39538440.00000,   0.00000,274640576.00000,   0.00000,   0.00000,   0.00000,-435102144.00000,   0.00000
-39655833.31564,-2796884.96937,9054915.08832,  -0.00017,   0.00006,   0.00012,41141056.00000,   0.00000,274640576.00000,   0.00000,   0.00000,   0.00000,-433499520.00000,   0.00000
-41106717.39350,-2819359.93787,9479442.27117,  -0.00018,   0.00007,   0.00012,42747832.00000,   0.00000,274640576.00000,   0.00000,   0.00000,   0.00000,-431892736.00000,   0.00000
-42532629.28413,-2816862.71915,9903969.45402,  -0.00019,   0.00007,   0.00013,44340932.00000,   0.00000,274640576.00000,   0.00000,   0.00000,   0.00000,-430299648.00000,   0.00000
-43941060.64371,-2806873.84426,10333491.07432,  -0.00019,   0.00007,   0.00013,45924208.00000,   0.00000,274640576.00000,   0.00000,   0.00000,   0.00000,-428716368.00000,   0.00000
-45332011.47222,-2789393.31320,10768007.13206,  -0.00020,   0.00008,   0.00014,47498576.00000,   0.00000,274640576.00000,   0.00000,   0.00000,   0.00000,-427142000.00000,   0.00000
-46705481.76968,-2764421.12597,11207517.62724,  -0.00021,   0.00008,   0.00015,49064752.00000,   0.00000,274640576.00000,   0.00000,   0.00000,   0.00000,-425575824.00000,   0.00000
-48061471.53608,-2731957.28258,11647028.12243,  -0.00021,   0.00008,   0.00015,50619656.00000,   0.00000,274640576.00000,   0.00000,   0.00000,   0.00000,-424020928.00000,   0.00000
-49399980.77142,-2692001.78301,12091533.05506,  -0.00022,   0.00008,   0.00016,52167092.00000,   0.00000,274640576.00000,   0.00000,   0.00000,   0.00000,-422473488.00000,   0.00000
-50721009.47570,-2644554.62728,12536037.98769,  -0.00023,   0.00009,   0.00016,53703664.00000,   0.00000,274640576.00000,   0.00000,   0.00000,   0.00000,-420936912.00000,   0.00000
-52024557.64892,-2589615.81539,12990531.79521,  -0.00023,   0.00009,   0.00017,55236380.00000,   0.00000,274640576.00000,   0.00000,   0.00000,   0.00000,-419404192.00000,   0.00000
-53310625.29108,-2527185.34732,13445025.60273,  -0.00024,   0.00009,   0.00017,56758316.00000,   0.00000,274640576.00000,   0.00000,   0.00000,   0.00000,-417882256.00000,   0.00000
-54579212.40219,-2457263.22309,13899519.41026,  -0.00024,   0.00010,   0.00018,58269128.00000,   0.00000,274640576.00000,   0.00000,   0.00000,   0.00000,-416371456.00000,   0.00000
-55847799.51329,-2387341.09885,14364002.09267,  -0.00025,   0.00010,   0.00019,59788704.00000,   0.00000,274640576.00000,   0.00000,   0.00000,   0.00000,-414851872.00000,   0.00000
-57081425.56228,-2302435.66228,14828484.77508,  -0.00026,   0.00010,   0.00019,61284140.00000,   0.00000,274640576.00000,   0.00000,   0.00000,   0.00000,-413356432.00000,   0.00000
-58315051.61127,-2217530.22571,15297961.89494,  -0.00026,   0.00010,   0.00020,62784268.00000,   0.00000,274640576.00000,   0.00000,   0.00000,   0.00000,-411856304.00000,   0.00000
-59513716.59814,-2117641.47681,15767439.01480,  -0.00027,   0.00011,   0.00020,64260048.00000,   0.00000,274640576.00000,   0.00000,   0.00000,   0.00000,-410380528.00000,   0.00000
-60712381.58501,-2017752.72790,16246905.00955,  -0.00027,   0.00011,   0.00021,65743768.00000,   0.00000,274640576.00000,   0.00000,   0.00000,   0.00000,-408896800.00000,   0.00000
-61868593.85360,-1885400.13560,16721376.56685,  -0.00028,   0.00011,   0.00022,67199904.00000,   0.00000,274640576.00000,   0.00000,   0.00000,   0.00000,-407440672.00000,   0.00000
-63032297.77835,-1770528.07436,17205836.99904,  -0.00028,   0.00011,   0.00022,68663072.00000,   0.00000,274640576.00000,   0.00000,   0.00000,   0.00000,-405977504.00000,   0.00000
-64178521.17204,-1648164.35695,17690297.43124,  -0.00029,   0.00012,   0.00023,70113904.00000,   0.00000,274640576.00000,   0.00000,   0.00000,   0.00000,-404526672.00000,   0.00000
-65289783.50362,-1510817.32720,18179752.30087,  -0.00029,   0.00012,   0.00024,71543936.00000,   0.00000,274640576.00000,   0.00000,   0.00000,   0.00000,-403096640.00000,   0.00000
-66408537.49137,-1390950.82851,18674201.60796,  -0.00030,   0.00012,   0.00024,72976936.00000,   0.00000,274640576.00000,   0.00000,   0.00000,   0.00000,-401663648.00000,   0.00000
-67502319.29189,-1246112.14260,19173645.35249,  -0.00030,   0.00013,   0.00025,74402536.00000,   0.00000,274640576.00000,   0.00000,   0.00000,   0.00000,-400238048.00000,   0.00000
-68578620.56135,-1093781.80052,19673089.09702,  -0.00031,   0.00013,   0.00026,75815976.00000,   0.00000,274640576.00000,   0.00000,   0.00000,   0.00000,-398824608.00000,   0.00000
-69637441.29975,-933959.80227,20172532.84155,  -0.00032,   0.00013,   0.00026,77217352.00000,   0.00000,274640576.00000,   0.00000,   0.00000,   0.00000,-397423232.00000,   0.00000
-70678781.50710,-766646.14785,20681965.46097,  -0.00032,   0.00013,   0.00027,78614864.00000,   0.00000,274640576.00000,   0.00000,   0.00000,   0.00000,-396025712.00000,   0.00000
-71710132.83955,-609321.36833,21191398.08039,  -0.00033,   0.00014,   0.00028,79999616.00000,   0.00000,274640576.00000,   0.00000,   0.00000,   0.00000,-394640960.00000,   0.00000
-72716511.98478,-427024.40157,21705825.13725,  -0.00033,   0.00014,   0.00028,81378040.00000,   0.00000,274640576.00000,   0.00000,   0.00000,   0.00000,-393262528.00000,   0.00000
-73705410.59895,-237235.77865,22225246.63156,  -0.00033,   0.00014,   0.00029,82749232.00000,   0.00000,274640576.00000,   0.00000,   0.00000,   0.00000,-391891344.00000,   0.00000
-74684320.33822,-57436.03062,22744668.12587,  -0.00034,   0.00015,   0.00030,84108336.00000,   0.00000,274640576.00000,   0.00000,   0.00000,   0.00000,-390532240.00000,   0.00000
-75645749.54644,129855.37358,23269084.05763,  -0.00034,   0.00015,   0.00030,85460688.00000,   0.00000,274640576.00000,   0.00000,   0.00000,   0.00000,-389179888.00000,   0.00000
-76582206.56744,342118.96500,23793499.98939,  -0.00035,   0.00015,   0.00031,86803632.00000,   0.00000,274640576.00000,   0.00000,   0.00000,   0.00000,-387836944.00000,   0.00000
-77526155.24460,536902.02537,24322910.35859,  -0.00035,   0.00015,   0.00032,88150976.00000,   0.00000,274640576.00000,   0.00000,   0.00000,   0.00000,-386489600.00000,   0.00000
-78435142.85964,746668.39807,24857315.16523,  -0.00036,   0.00016,   0.00032,89480496.00000,   0.00000,274640576.00000,   0.00000,   0.00000,   0.00000,-385160080.00000,   0.00000
-79326649.94363,963926.42694,25396714.40933,  -0.00036,   0.00016,   0.00033,90804048.00000,   0.00000,274640576.00000,   0.00000,   0.00000,   0.00000,-383836528.00000,   0.00000
-80218157.02761,1181184.45581,25936113.65342,  -0.00037,   0.00016,   0.00034,92129832.00000,   0.00000,274640576.00000,   0.00000,   0.00000,   0.00000,-382510752.00000,   0.00000
-81074703.04948,1413425.79702,26480507.33496,  -0.00037,   0.00016,   0.00034,93438200.00000,   0.00000,274640576.00000,   0.00000,   0.00000,   0.00000,-381202368.00000,   0.00000
-81938740.72751,1628186.60717,27029895.45394,  -0.00038,   0.00017,   0.00035,94751824.00000,   0.00000,274640576.00000,   0.00000,   0.00000,   0.00000,-379888752.00000,   0.00000
-82760325.68727,1875411.26071,27579283.57292,  -0.00038,   0.00017,   0.00036,96045568.00000,   0.00000,274640576.00000,   0.00000,   0.00000,   0.00000,-378595008.00000,   0.00000
-83589402.30318,2105155.38319,28133666.12935,  -0.00038,   0.00017,   0.00037,97344640.00000,   0.00000,274640576.00000,   0.00000,   0.00000,   0.00000,-377295936.00000,   0.00000
-84393506.73188,2359871.69290,28693043.12322,  -0.00039,   0.00018,   0.00037,98640248.00000,   0.00000,274640576.00000,   0.00000,   0.00000,   0.00000,-376000320.00000,   0.00000
-85170141.75462,2612090.78389,29252420.11709,  -0.00039,   0.00018,   0.00038,99913472.00000,   0.00000,274640576.00000,   0.00000,   0.00000,   0.00000,-374727104.00000,   0.00000
-85946776.77736,2864309.87488,29816791.54841,  -0.00040,   0.00018,   0.00039,101193672.00000,   0.00000,274640576.00000,   0.00000,   0.00000,   0.00000,-373446912.00000,   0.00000
-86705931.26905,3124020.62203,30381162.97973,  -0.00040,   0.00018,   0.00039,102464608.00000,   0.00000,274640576.00000,   0.00000,   0.00000,   0.00000,-372175968.00000,   0.00000
-87447605.22968,3391223.02536,30950528.84849,  -0.00040,   0.00019,   0.00040,103730896.00000,   0.00000,274640576.00000,   0.00000,   0.00000,   0.00000,-370909680.00000,   0.00000
-88179290.31541,3648436.55379,31524889.15470,  -0.00041,   0.00019,   0.00041,104990992.00000,   0.00000,274640576.00000,   0.00000,   0.00000,   0.00000,-369649584.00000,   0.00000
-88886003.21392,3930622.26945,32104243.89836,  -0.00041,   0.00019,   0.00042,106247968.00000,   0.00000,274640576.00000,   0.00000,   0.00000,   0.00000,-368392608.00000,   0.00000
-89582727.23754,4202819.11022,32683598.64201,  -0.00042,   0.00019,   0.00042,107494136.00000,   0.00000,274640576.00000,   0.00000,   0.00000,   0.00000,-367146432.00000,   0.00000
-90261970.73010,4482507.60715,33267947.82311,  -0.00042,   0.00020,   0.00043,108735824.00000,   0.00000,274640576.00000,   0.00000,   0.00000,   0.00000,-365904752.00000,   0.00000
-90923733.69160,4769687.76026,33852297.00421,  -0.00042,   0.00020,   0.00044,109968256.00000,   0.00000,274640576.00000,   0.00000,   0.00000,   0.00000,-364672320.00000,   0.00000
-91568016.12204,5064359.56953,34441640.62276,  -0.00043,   0.00020,   0.00045,111196136.00000,   0.00000,274640576.00000,   0.00000,   0.00000,   0.00000,-363444448.00000,   0.00000
-92194818.02143,5366523.03497,35035978.67875,  -0.00043,   0.00020,   0.00046,112419488.00000,   0.00000,274640576.00000,   0.00000,   0.00000,   0.00000,-362221088.00000,   0.00000
-92804139.38975,5676178.15658,35635311.17218,  -0.00043,   0.00021,   0.00046,113638336.00000,   0.00000,274640576.00000,   0.00000,   0.00000,   0.00000,-361002240.00000,   0.00000
-93420952.41425,5968352.74713,36234643.66562,  -0.00044,   0.00021,   0.00047,114857760.00000,   0.00000,274640576.00000,   0.00000,   0.00000,   0.00000,-359782816.00000,   0.00000
-94002804.37663,6275510.65001,36833976.15905,  -0.00044,   0.00021,   0.00048,116056544.00000,   0.00000,274640576.00000,   0.00000,   0.00000,   0.00000,-358584032.00000,   0.00000
-94584656.33900,6582668.55290,37438303.08993,  -0.00044,   0.00021,   0.00049,117262264.00000,   0.00000,274640576.00000,   0.00000,   0.00000,   0.00000,-357378304.00000,   0.00000
-95131547.23926,6904809.76812,38047624.45826,  -0.00045,   0.00022,   0.00049,118452376.00000,   0.00000,274640576.00000,   0.00000,   0.00000,   0.00000,-356188192.00000,   0.00000
-95685929.79569,7209470.45228,38661940.26403,  -0.00045,   0.00022,   0.00050,119647736.00000,   0.00000,274640576.00000,   0.00000,   0.00000,   0.00000,-354992832.00000,   0.00000
-96197859.63383,7546594.97984,39276256.06980,  -0.00045,   0.00022,   0.00051,120824688.00000,   0.00000,274640576.00000,   0.00000,   0.00000,   0.00000,-353815888.00000,   0.00000
-96717281.12814,7866238.97634,39895566.31302,  -0.00046,   0.00022,   0.00052,122006904.00000,   0.00000,274640576.00000,   0.00000,   0.00000,   0.00000,-352633664.00000,   0.00000
-97219222.09140,8193374.62901,40514876.55624,  -0.00046,   0.00023,   0.00053,123180320.00000,   0.00000,274640576.00000,   0.00000,   0.00000,   0.00000,-351460256.00000,   0.00000
-97711174.17976,8510521.40678,41139181.23690,  -0.00046,   0.00023,   0.00053,124347952.00000,   0.00000,274640576.00000,   0.00000,   0.00000,   0.00000,-350292624.00000,   0.00000
-98160673.54983,8860132.02795,41768480.35500,  -0.00046,   0.00023,   0.00054,125502944.00000,   0.00000,274640576.00000,   0.00000,   0.00000,   0.00000,-349137632.00000,   0.00000
-98617664.57608,9192262.11807,42397779.47311,  -0.00047,   0.00023,   0.00055,126658432.00000,   0.00000,274640576.00000,   0.00000,   0.00000,   0.00000,-347982144.00000,   0.00000
-99057175.07126,9531883.86435,43032073.02866,  -0.00047,   0.00024,   0.00056,127810544.00000,   0.00000,274640576.00000,   0.00000,   0.00000,   0.00000,-346830032.00000,   0.00000
-99496685.56645,9871505.61063,43666366.58422,  -0.00047,   0.00024,   0.00057,128965064.00000,   0.00000,274640576.00000,   0.00000,   0.00000,   0.00000,-345675520.00000,   0.00000
-99901234.99952,10226110.66924,44305654.57721,  -0.00047,   0.00024,   0.00058,130105696.00000,   0.00000,274640576.00000,   0.00000,   0.00000,   0.00000,-344534880.00000,   0.00000
-100295795.55770,10570726.85297,44949937.00766,  -0.00048,   0.00024,   0.00058,131241504.00000,   0.00000,274640576.00000,   0.00000,   0.00000,   0.00000,-343399072.00000,   0.00000
-100672875.58482,10922834.69286,45594219.43810,  -0.00048,   0.00025,   0.00059,132369328.00000,   0.00000,274640576.00000,   0.00000,   0.00000,   0.00000,-342271248.00000,   0.00000
-101049955.61194,11274942.53275,46243496.30599,  -0.00048,   0.00025,   0.00060,133505208.00000,   0.00000,274640576.00000,   0.00000,   0.00000,   0.00000,-341135360.00000,   0.00000
-101392074.57694,11642033.68498,46897767.61132,  -0.00048,   0.00025,   0.00061,134628016.00000,   0.00000,274640576.00000,   0.00000,   0.00000,   0.00000,-340012560.00000,   0.00000
-101741685.19811,11991644.30615,47552038.91666,  -0.00049,   0.00025,   0.00062,135751760.00000,   0.00000,274640576.00000,   0.00000,   0.00000,   0.00000,-338888816.00000,   0.00000
-102073815.28822,12348746.58349,48206310.22199,  -0.00049,   0.00026,   0.00063,136867936.00000,   0.00000,274640576.00000,   0.00000,   0.00000,   0.00000,-337772640.00000,   0.00000
-102370984.31622,12720832.17317,48865575.96477,  -0.00049,   0.00026,   0.00064,137971824.00000,   0.00000,274640576.00000,   0.00000,   0.00000,   0.00000,-336668752.00000,   0.00000
-102668153.34421,13092917.76284,49529836.14499,  -0.00049,   0.00026,   0.00064,139084144.00000,   0.00000,274640576.00000,   0.00000,   0.00000,   0.00000,-335556432.00000,   0.00000
-102955333.49732,13455014.47763,50199090.76266,  -0.00049,   0.00026,   0.00065,140192544.00000,   0.00000,274640576.00000,   0.00000,   0.00000,   0.00000,-334448032.00000,   0.00000
-103225033.11936,13824602.84858,50863350.94289,  -0.00050,   0.00026,   0.00066,141288448.00000,   0.00000,274640576.00000,   0.00000,   0.00000,   0.00000,-333352128.00000,   0.00000
-103477252.21035,14201682.87570,51537599.99800,  -0.00050,   0.00027,   0.00067,142388384.00000,   0.00000,274640576.00000,   0.00000,   0.00000,   0.00000,-332252192.00000,   0.00000
-103719482.42645,14568774.02793,52211849.05312,  -0.00050,   0.00027,   0.00068,143479168.00000,   0.00000,274640576.00000,   0.00000,   0.00000,   0.00000,-331161408.00000,   0.00000
-103954220.98638,14953345.71121,52891092.54568,  -0.00050,   0.00027,   0.00069,144581024.00000,   0.00000,274640576.00000,   0.00000,   0.00000,   0.00000,-330059552.00000,   0.00000
-104161490.14036,15335420.17578,53570336.03824,  -0.00050,   0.00027,   0.00070,145663920.00000,   0.00000,274640576.00000,   0.00000,   0.00000,   0.00000,-328976656.00000,   0.00000
-104358770.41945,15707505.76545,54254573.96824,  -0.00051,   0.00027,   0.00071,146743344.00000,   0.00000,274640576.00000,   0.00000,   0.00000,   0.00000,-327897232.00000,   0.00000
-104548559.04237,16097071.88619,54938811.89825,  -0.00051,   0.00028,   0.00071,147828560.00000,   0.00000,274640576.00000,   0.00000,   0.00000,   0.00000,-326812016.00000,   0.00000
-104728358.79040,16476649.13203,55628044.26570,  -0.00051,   0.00028,   0.00072,148910512.00000,   0.00000,274640576.00000,   0.00000,   0.00000,   0.00000,-325730064.00000,   0.00000
-104873197.47631,16871209.69021,56317276.63315,  -0.00051,   0.00028,   0.00073,149976256.00000,   0.00000,274640576.00000,   0.00000,   0.00000,   0.00000,-324664320.00000,   0.00000
-105025527.81839,17248289.71733,57011503.43805,  -0.00051,   0.00028,   0.00074,151048672.00000,   0.00000,274640576.00000,   0.00000,   0.00000,   0.00000,-323591904.00000,   0.00000
-105160377.62942,17632861.40062,57710724.68039,  -0.00051,   0.00029,   0.00075,152120416.00000,   0.00000,274640576.00000,   0.00000,   0.00000,   0.00000,-322520160.00000,   0.00000
-105295227.44044,18017433.08390,58409945.92273,  -0.00051,   0.00029,   0.00076,153195632.00000,   0.00000,274640576.00000,   0.00000,   0.00000,   0.00000,-321444944.00000,   0.00000
-105395116.18934,18416988.07953,59109167.16507,  -0.00052,   0.00029,   0.00077,154255216.00000,   0.00000,274640576.00000,   0.00000,   0.00000,   0.00000,-320385360.00000,   0.00000
-105485016.06336,18806554.20026,59813382.84486,  -0.00052,   0.00029,   0.00078,155311808.00000,   0.00000,274640576.00000,   0.00000,   0.00000,   0.00000,-319328768.00000,   0.00000
-105574915.93737,19196120.32099,60522592.96209,  -0.00052,   0.00029,   0.00079,156377904.00000,   0.00000,274640576.00000,   0.00000,   0.00000,   0.00000,-318262672.00000,   0.00000
-105637346.40544,19583189.22300,61231803.07932,  -0.00052,   0.00030,   0.00080,157426128.00000,   0.00000,274640576.00000,   0.00000,   0.00000,   0.00000,-317214448.00000,   0.00000
-105692285.21734,19987738.65607,61946007.63400,  -0.00052,   0.00030,   0.00081,158486336.00000,   0.00000,274640576.00000,   0.00000,   0.00000,   0.00000,-316154240.00000,   0.00000
-105737235.15435,20382299.21425,62660212.18867,  -0.00052,   0.00030,   0.00081,159538352.00000,   0.00000,274640576.00000,   0.00000,   0.00000,   0.00000,-315102224.00000,   0.00000
-105772196.21646,20766870.89754,63379411.18080,  -0.00052,   0.00030,   0.00082,160588000.00000,   0.00000,274640576.00000,   0.00000,   0.00000,   0.00000,-314052576.00000,   0.00000
-105782185.09135,21176414.76805,64098610.17292,  -0.00052,   0.00030,   0.00083,161634784.00000,   0.00000,274640576.00000,   0.00000,   0.00000,   0.00000,-313005792.00000,   0.00000
-105782185.09135,21575969.76368,64822803.60249,  -0.00052,   0.00030,   0.00084,162679680.00000,   0.00000,274640576.00000,   0.00000,   0.00000,   0.00000,-311960896.00000,   0.00000
-105772196.21646,21965535.88441,65546997.03206,  -0.00052,   0.00031,   0.00085,163716544.00000,   0.00000,274640576.00000,   0.00000,   0.00000,   0.00000,-310924032.00000,   0.00000
-105754715.68541,22372582.53620,66276184.89907,  -0.00052,   0.00031,   0.00086,164766096.00000,   0.00000,274640576.00000,   0.00000,   0.00000,   0.00000,-309874480.00000,   0.00000
-105727246.27946,22769640.31310,67005372.76608,  -0.00053,   0.00031,   0.00087,165807856.00000,   0.00000,274640576.00000,   0.00000,   0.00000,   0.00000,-308832720.00000,   0.00000
-105672307.46756,23164200.87128,67739555.07054,  -0.00053,   0.00031,   0.00088,166839280.00000,   0.00000,274640576.00000,   0.00000,   0.00000,   0.00000,-307801296.00000,   0.00000
-105617368.65566,23558761.42946,68473737.37500,  -0.00053,   0.00031,   0.00089,167874672.00000,   0.00000,274640576.00000,   0.00000,   0.00000,   0.00000,-306765904.00000,   0.00000
-105544949.31270,23960813.64380,69212914.11690,  -0.00053,   0.00031,   0.00090,168911664.00000,   0.00000,274640576.00000,   0.00000,   0.00000,   0.00000,-305728912.00000,   0.00000
-105472529.96975,24362865.85815,69952090.85881,  -0.00053,   0.00032,   0.00091,169952672.00000,   0.00000,274640576.00000,   0.00000,   0.00000,   0.00000,-304687904.00000,   0.00000
-105372641.22084,24762420.85377,70696262.03815,  -0.00053,   0.00032,   0.00092,170983936.00000,   0.00000,274640576.00000,   0.00000,   0.00000,   0.00000,-303656640.00000,   0.00000
-105272752.47193,25161975.84940,71440433.21750,  -0.00053,   0.00032,   0.00093,172019488.00000,   0.00000,274640576.00000,   0.00000,   0.00000,   0.00000,-302621088.00000,   0.00000
-105145394.31708,25559033.62630,72189598.83430,  -0.00053,   0.00032,   0.00094,173045584.00000,   0.00000,274640576.00000,   0.00000,   0.00000,   0.00000,-301594992.00000,   0.00000
-105018036.16222,25956091.40320,72938764.45109,  -0.00053,   0.00032,   0.00095,174076064.00000,   0.00000,274640576.00000,   0.00000,   0.00000,   0.00000,-300564512.00000,   0.00000
-104873197.47631,26360640.83627,73687930.06789,  -0.00053,   0.00032,   0.00096,175102432.00000,   0.00000,274640576.00000,   0.00000,   0.00000,   0.00000,-299538144.00000,   0.00000
-104718369.91551,26755201.39445,74442090.12213,  -0.00053,   0.00033,   0.00097,176128032.00000,   0.00000,274640576.00000,   0.00000,   0.00000,   0.00000,-298512544.00000,   0.00000
-104563542.35470,27149761.95263,75201244.61381,  -0.00053,   0.00033,   0.00098,177164384.00000,   0.00000,274640576.00000,   0.00000,   0.00000,   0.00000,-297476192.00000,   0.00000
-104373753.73178,27559305.82314,75960399.10550,  -0.00053,   0.00033,   0.00099,178188416.00000,   0.00000,274640576.00000,   0.00000,   0.00000,   0.00000,-296452160.00000,   0.00000
-104191456.76503,27951369.16260,76719553.59718,  -0.00053,   0.00033,   0.00100,179213824.00000,   0.00000,274640576.00000,   0.00000,   0.00000,   0.00000,-295426752.00000,   0.00000
-103991679.26722,28350924.15822,77483702.52631,  -0.00053,   0.00033,   0.00101,180241536.00000,   0.00000,274640576.00000,   0.00000,   0.00000,   0.00000,-294399040.00000,   0.00000
-103781912.89451,28740490.27895,78247851.45544,  -0.00053,   0.00033,   0.00102,181262064.00000,   0.00000,274640576.00000,   0.00000,   0.00000,   0.00000,-293378512.00000,   0.00000
-103554665.99075,29137548.05585,79016994.82202,  -0.00053,   0.00033,   0.00103,182284624.00000,   0.00000,274640576.00000,   0.00000,   0.00000,   0.00000,-292355952.00000,   0.00000
-103327419.08699,29534605.83275,79786138.18859,  -0.00053,   0.00034,   0.00104,183310144.00000,   0.00000,274640576.00000,   0.00000,   0.00000,   0.00000,-291330432.00000,   0.00000
-103072702.77728,29929166.39093,80560275.99261,  -0.00053,   0.00034,   0.00105,184325392.00000,   0.00000,274640576.00000,   0.00000,   0.00000,   0.00000,-290315184.00000,   0.00000
-102817986.46757,30323726.94911,81334413.79663,  -0.00053,   0.00034,   0.00106,185341104.00000,   0.00000,274640576.00000,   0.00000,   0.00000,   0.00000,-289299472.00000,   0.00000
-102545789.62680,30725779.16346,82108551.60065,  -0.00053,   0.00034,   0.00107,186346096.00000,   0.00000,274640576.00000,   0.00000,   0.00000,   0.00000,-288294480.00000,   0.00000
-102263603.91114,31117842.50291,82887683.84212,  -0.00053,   0.00034,   0.00108,187339808.00000,   0.00000,274640576.00000,   0.00000,   0.00000,   0.00000,-287300768.00000,   0.00000
-101988909.85165,31492425.31131,83666816.08359,  -0.00053,   0.00034,   0.00109,188320016.00000,   0.00000,274640576.00000,   0.00000,   0.00000,   0.00000,-286320560.00000,   0.00000
-101689243.60494,31891980.30693,84450942.76250,  -0.00052,   0.00034,   0.00110,189291600.00000,   0.00000,274640576.00000,   0.00000,   0.00000,   0.00000,-285348976.00000,   0.00000
-101362107.95227,32289038.08383,85235069.44141,  -0.00052,   0.00034,   0.00111,190247920.00000,   0.00000,274640576.00000,   0.00000,   0.00000,   0.00000,-284392656.00000,   0.00000
-101042463.95577,32668615.32968,86019196.12032,  -0.00052,   0.00035,   0.00112,191225984.00000,   0.00000,274640576.00000,   0.00000,   0.00000,   0.00000,-283414592.00000,   0.00000
-100722819.95927,33048192.57552,86808317.23668,  -0.00052,   0.00035,   0.00113,192244960.00000,   0.00000,274640576.00000,   0.00000,   0.00000,   0.00000,-282395616.00000,   0.00000
-100368214.90065,33442753.13370,87597438.35303,  -0.00052,   0.00035,   0.00114,193279424.00000,   0.00000,274640576.00000,   0.00000,   0.00000,   0.00000,-281361152.00000,   0.00000
-100021101.49821,33819833.16082,88391553.90684,  -0.00052,   0.00035,   0.00115,194336128.00000,   0.00000,274640576.00000,   0.00000,   0.00000,   0.00000,-280304448.00000,   0.00000
-99663999.22087,34186924.31305,89185669.46064,  -0.00052,   0.00035,   0.00116,195390368.00000,   0.00000,274640576.00000,   0.00000,   0.00000,   0.00000,-279250208.00000,   0.00000
-99281924.75630,34578987.65250,89979785.01444,  -0.00052,   0.00035,   0.00117,196442992.00000,   0.00000,274640576.00000,   0.00000,   0.00000,   0.00000,-278197584.00000,   0.00000
-98907341.94791,34953570.46090,90778895.00569,  -0.00052,   0.00035,   0.00118,197499152.00000,   0.00000,274640576.00000,   0.00000,   0.00000,   0.00000,-277141424.00000,   0.00000
-98505289.73356,35325656.05057,91578004.99693,  -0.00052,   0.00035,   0.00119,198538480.00000,   0.00000,274640576.00000,   0.00000,   0.00000,   0.00000,-276102096.00000,   0.00000
-98103237.51921,35697741.64025,92377114.98818,  -0.00052,   0.00035,   0.00120,199578576.00000,   0.00000,274640576.00000,   0.00000,   0.00000,   0.00000,-275062000.00000,   0.00000
-97683704.77381,36077318.88609,93181219.41687,  -0.00051,   0.00035,   0.00121,200620272.00000,   0.00000,274640576.00000,   0.00000,   0.00000,   0.00000,-274020304.00000,   0.00000
-97271663.68457,36439415.60087,93985323.84557,  -0.00051,   0.00036,   0.00122,201661296.00000,   0.00000,274640576.00000,   0.00000,   0.00000,   0.00000,-272979280.00000,   0.00000
-96824661.53322,36816495.62799,94789428.27426,  -0.00051,   0.00036,   0.00123,202691888.00000,   0.00000,274640576.00000,   0.00000,   0.00000,   0.00000,-271948688.00000,   0.00000
-96385151.03803,37176095.12406,95598527.14040,  -0.00051,   0.00036,   0.00124,203730016.00000,   0.00000,274640576.00000,   0.00000,   0.00000,   0.00000,-270910560.00000,   0.00000
-95928160.01179,37543186.27628,96407626.00654,  -0.00051,   0.00036,   0.00125,204765376.00000,   0.00000,274640576.00000,   0.00000,   0.00000,   0.00000,-269875200.00000,   0.00000
-95471168.98554,37910277.42851,97221719.31012,  -0.00051,   0.00036,   0.00126,205812336.00000,   0.00000,274640576.00000,   0.00000,   0.00000,   0.00000,-268828240.00000,   0.00000
-94986708.55335,38274871.36202,98035812.61370,  -0.00051,   0.00036,   0.00127,206847616.00000,   0.00000,274640576.00000,   0.00000,   0.00000,   0.00000,-267792960.00000,   0.00000
-94509739.77732,38621984.76447,98849905.91728,  -0.00051,   0.00036,   0.00129,207884864.00000,   0.00000,274640576.00000,   0.00000,   0.00000,   0.00000,-266755712.00000,   0.00000
-94015290.47024,38976589.82308,99663999.22087,  -0.00050,   0.00036,   0.00130,208920640.00000,   0.00000,274640576.00000,   0.00000,   0.00000,   0.00000,-265719936.00000,   0.00000
-93520841.16315,39331194.88170,100483086.96190,  -0.00050,   0.00036,   0.00131,209968944.00000,   0.00000,274640576.00000,   0.00000,   0.00000,   0.00000,-264671632.00000,   0.00000
-93016402.98118,39675811.06543,101302174.70292,  -0.00050,   0.00036,   0.00132,211013216.00000,   0.00000,274640576.00000,   0.00000,   0.00000,   0.00000,-263627360.00000,   0.00000
-92494484.26815,40027918.90532,102121262.44395,  -0.00050,   0.00036,   0.00133,212056768.00000,   0.00000,274640576.00000,   0.00000,   0.00000,   0.00000,-262583808.00000,   0.00000
-91962576.68022,40370037.87032,102940350.18498,  -0.00050,   0.00036,   0.00134,213096752.00000,   0.00000,274640576.00000,   0.00000,   0.00000,   0.00000,-261543824.00000,   0.00000
-91430669.09230,40712156.83532,103764432.36346,  -0.00050,   0.00036,   0.00135,214149632.00000,   0.00000,274640576.00000,   0.00000,   0.00000,   0.00000,-260490944.00000,   0.00000
-90888772.62948,41044286.92544,104588514.54193,  -0.00049,   0.00036,   0.00136,215199184.00000,   0.00000,274640576.00000,   0.00000,   0.00000,   0.00000,-259441392.00000,   0.00000
-90329395.63561,41383908.67172,105417591.15785,  -0.00049,   0.00036,   0.00137,216255920.00000,   0.00000,274640576.00000,   0.00000,   0.00000,   0.00000,-258384656.00000,   0.00000
-89752538.11068,41731022.07416,106246667.77377,  -0.00049,   0.00036,   0.00138,217312592.00000,   0.00000,274640576.00000,   0.00000,   0.00000,   0.00000,-257327984.00000,   0.00000
-89183172.24192,42060654.94555,107070749.95224,  -0.00049,   0.00037,   0.00139,218364720.00000,   0.00000,274640576.00000,   0.00000,   0.00000,   0.00000,-256275856.00000,   0.00000
-88603817.49826,42380298.94205,107904821.00560,  -0.00049,   0.00037,   0.00140,219428400.00000,   0.00000,274640576.00000,   0.00000,   0.00000,   0.00000,-255212176.00000,   0.00000
-88024462.75461,42699942.93855,108733897.62152,  -0.00048,   0.00037,   0.00141,220490480.00000,   0.00000,274640576.00000,   0.00000,   0.00000,   0.00000,-254150096.00000,   0.00000
-87410146.94884,43034570.24739,109567968.67489,  -0.00048,   0.00037,   0.00142,221554160.00000,   0.00000,274640576.00000,   0.00000,   0.00000,   0.00000,-253086416.00000,   0.00000
-86803322.79923,43351717.02516,110402039.72825,  -0.00048,   0.00037,   0.00144,222620528.00000,   0.00000,274640576.00000,   0.00000,   0.00000,   0.00000,-252020048.00000,   0.00000
-86196498.64963,43668863.80294,111236110.78162,  -0.00048,   0.00037,   0.00145,223692304.00000,   0.00000,274640576.00000,   0.00000,   0.00000,   0.00000,-250948272.00000,   0.00000
-85562205.09408,43983513.36199,112070181.83498,  -0.00048,   0.00037,   0.00146,224755248.00000,   0.00000,274640576.00000,   0.00000,   0.00000,   0.00000,-249885328.00000,   0.00000
-84927911.53852,44298162.92105,112909247.32579,  -0.00047,   0.00037,   0.00147,225831056.00000,   0.00000,274640576.00000,   0.00000,   0.00000,   0.00000,-248809520.00000,   0.00000
-84301109.63914,44595331.94904,113748312.81660,  -0.00047,   0.00037,   0.00148,226909120.00000,   0.00000,274640576.00000,   0.00000,   0.00000,   0.00000,-247731456.00000,   0.00000
-83656827.20870,44899992.63320,114587378.30741,  -0.00047,   0.00037,   0.00149,227986944.00000,   0.00000,274640576.00000,   0.00000,   0.00000,   0.00000,-246653632.00000,   0.00000
-83002555.90336,45194664.44248,115426443.79822,  -0.00047,   0.00037,   0.00150,229061472.00000,   0.00000,274640576.00000,   0.00000,   0.00000,   0.00000,-245579104.00000,   0.00000
-82330804.06697,45496827.90792,116270503.72647,  -0.00046,   0.00037,   0.00151,230143584.00000,   0.00000,274640576.00000,   0.00000,   0.00000,   0.00000,-244496992.00000,   0.00000
-81666543.88675,45781510.84230,117109569.21728,  -0.00046,   0.00037,   0.00152,231220144.00000,   0.00000,274640576.00000,   0.00000,   0.00000,   0.00000,-243420432.00000,   0.00000
-80984803.17546,46073685.43285,117953629.14554,  -0.00046,   0.00037,   0.00153,232304416.00000,   0.00000,274640576.00000,   0.00000,   0.00000,   0.00000,-242336160.00000,   0.00000
-80285581.93312,46373351.67957,118797689.07379,  -0.00046,   0.00037,   0.00154,233389024.00000,   0.00000,274640576.00000,   0.00000,   0.00000,   0.00000,-241251552.00000,   0.00000
-79601344.00312,46638056.86417,119641749.00205,  -0.00045,   0.00037,   0.00156,234472624.00000,   0.00000,274640576.00000,   0.00000,   0.00000,   0.00000,-240167952.00000,   0.00000
-78892133.88588,46927734.23599,120490803.36775,  -0.00045,   0.00037,   0.00157,235567520.00000,   0.00000,274640576.00000,   0.00000,   0.00000,   0.00000,-239073056.00000,   0.00000
-78190415.42482,47199931.07676,121334863.29600,  -0.00045,   0.00037,   0.00158,236657072.00000,   0.00000,274640576.00000,   0.00000,   0.00000,   0.00000,-237983504.00000,   0.00000
-77478708.08887,47462139.04264,122183917.66170,  -0.00045,   0.00037,   0.00159,237752128.00000,   0.00000,274640576.00000,   0.00000,   0.00000,   0.00000,-236888448.00000,   0.00000
-76749520.22185,47731838.66469,123032972.02740,  -0.00044,   0.00037,   0.00160,238847984.00000,   0.00000,274640576.00000,   0.00000,   0.00000,   0.00000,-235792592.00000,   0.00000
-76002851.82378,48009029.94290,123882026.39310,  -0.00044,   0.00037,   0.00161,239945184.00000,   0.00000,274640576.00000,   0.00000,   0.00000,   0.00000,-234695392.00000,   0.00000
-75263675.08188,48268740.69006,124731080.75880,  -0.00044,   0.00037,   0.00162,241045184.00000,   0.00000,274640576.00000,   0.00000,   0.00000,   0.00000,-233595392.00000,   0.00000
-74531989.99614,48510970.90615,125580135.12451,  -0.00043,   0.00037,   0.00163,242147920.00000,   0.00000,274640576.00000,   0.00000,   0.00000,   0.00000,-232492656.00000,   0.00000
-73782824.37935,48760692.77842,126434183.92765,  -0.00043,   0.00037,   0.00164,243260064.00000,   0.00000,274640576.00000,   0.00000,   0.00000,   0.00000,-231380512.00000,   0.00000
-73016178.23149,49017906.30685,127283238.29335,  -0.00043,   0.00037,   0.00165,244366336.00000,   0.00000,274640576.00000,   0.00000,   0.00000,   0.00000,-230274240.00000,   0.00000
-72239543.20875,49265130.96039,128137287.09650,  -0.00042,   0.00037,   0.00167,245478976.00000,   0.00000,274640576.00000,   0.00000,   0.00000,   0.00000,-229161600.00000,   0.00000
-71470399.84218,49494875.08288,128986341.46220,  -0.00042,   0.00036,   0.00168,246586896.00000,   0.00000,274640576.00000,   0.00000,   0.00000,   0.00000,-228053680.00000,   0.00000
-70701256.47560,49724619.20536,129840390.26534,  -0.00042,   0.00036,   0.00169,247708736.00000,   0.00000,274640576.00000,   0.00000,   0.00000,   0.00000,-226931840.00000,   0.00000
-69914632.57797,49961854.98401,130694439.06849,  -0.00042,   0.00036,   0.00170,248832704.00000,   0.00000,274640576.00000,   0.00000,   0.00000,   0.00000,-225807872.00000,   0.00000
-69118019.80544,50189101.88777,131548487.87163,  -0.00041,   0.00036,   0.00171,249955456.00000,   0.00000,274640576.00000,   0.00000,   0.00000,   0.00000,-224685120.00000,   0.00000
-68328898.68909,50398868.26047,132402536.67478,  -0.00041,   0.00036,   0.00172,251081200.00000,   0.00000,274640576.00000,   0.00000,   0.00000,   0.00000,-223559376.00000,   0.00000
-67522297.04167,50616126.28935,133261579.91537,  -0.00041,   0.00036,   0.00173,252216896.00000,   0.00000,274640576.00000,   0.00000,   0.00000,   0.00000,-222423680.00000,   0.00000
-66698214.86320,50840875.97438,134115628.71851,  -0.00040,   0.00036,   0.00174,253346656.00000,   0.00000,274640576.00000,   0.00000,   0.00000,   0.00000,-221293920.00000,   0.00000
-65881624.34089,51048145.12836,134969677.52166,  -0.00040,   0.00036,   0.00175,254478992.00000,   0.00000,274640576.00000,   0.00000,   0.00000,   0.00000,-220161584.00000,   0.00000
-65047553.28753,51262905.93851,135828720.76225,  -0.00040,   0.00036,   0.00177,255621312.00000,   0.00000,274640576.00000,   0.00000,   0.00000,   0.00000,-219019264.00000,   0.00000
-64220973.89033,51460186.21760,136682769.56540,  -0.00039,   0.00036,   0.00178,256757904.00000,   0.00000,274640576.00000,   0.00000,   0.00000,   0.00000,-217882672.00000,   0.00000
-63384405.61824,51647477.62180,137536818.36854,  -0.00039,   0.00036,   0.00179,257893312.00000,   0.00000,274640576.00000,   0.00000,   0.00000,   0.00000,-216747264.00000,   0.00000
-62547837.34616,51834769.02600,138395861.60913,  -0.00039,   0.00036,   0.00180,259041984.00000,   0.00000,274640576.00000,   0.00000,   0.00000,   0.00000,-215598592.00000,   0.00000
-61693788.54301,52029552.08636,139254904.84972,  -0.00038,   0.00036,   0.00181,260192496.00000,   0.00000,274640576.00000,   0.00000,   0.00000,   0.00000,-214448080.00000,   0.00000
-60847231.39603,52206854.61567,140108953.65287,  -0.00038,   0.00036,   0.00182,261336992.00000,   0.00000,274640576.00000,   0.00000,   0.00000,   0.00000,-213303584.00000,   0.00000
-59990685.37416,52374168.27009,140967996.89346,  -0.00038,   0.00036,   0.00183,262488224.00000,   0.00000,274640576.00000,   0.00000,   0.00000,   0.00000,-212152352.00000,   0.00000
-59116658.82124,52548973.58067,141822045.69661,  -0.00037,   0.00035,   0.00184,263633152.00000,   0.00000,274640576.00000,   0.00000,   0.00000,   0.00000,-211007424.00000,   0.00000
-58242632.26831,52723778.89126,142681088.93720,  -0.00037,   0.00035,   0.00185,264791440.00000,   0.00000,274640576.00000,   0.00000,   0.00000,   0.00000,-209849136.00000,   0.00000
-57376097.37155,52881103.67079,143540132.17779,  -0.00036,   0.00035,   0.00187,265951648.00000,   0.00000,274640576.00000,   0.00000,   0.00000,   0.00000,-208688928.00000,   0.00000
-56492081.94374,53045920.10648,144394180.98093,  -0.00036,   0.00035,   0.00188,267106032.00000,   0.00000,274640576.00000,   0.00000,   0.00000,   0.00000,-207534544.00000,   0.00000
-55598077.64103,53200747.66729,145253224.22152,  -0.00036,   0.00035,   0.00189,268267712.00000,   0.00000,274640576.00000,   0.00000,   0.00000,   0.00000,-206372864.00000,   0.00000
-54711564.99449,53338094.69703,146107273.02467,  -0.00035,   0.00035,   0.00190,269423648.00000,   0.00000,274640576.00000,   0.00000,   0.00000,   0.00000,-205216928.00000,   0.00000
-53807571.81689,53482933.38294,146966316.26526,  -0.00035,   0.00035,   0.00191,270590432.00000,   0.00000,274640576.00000,   0.00000,   0.00000,   0.00000,-204050144.00000,   0.00000
-52903578.63929,53627772.06886,147825359.50585,  -0.00035,   0.00035,   0.00192,271762784.00000,   0.00000,274640576.00000,   0.00000,   0.00000,   0.00000,-202877792.00000,   0.00000
-51989596.58680,53762621.87988,148679408.30900,  -0.00034,   0.00035,   0.00193,272927008.00000,   0.00000,274640576.00000,   0.00000,   0.00000,   0.00000,-201713568.00000,   0.00000
-51083106.19048,53879991.15985,149533457.11214,  -0.00034,   0.00034,   0.00194,274094080.00000,   0.00000,274640576.00000,   0.00000,   0.00000,   0.00000,-200546496.00000,   0.00000
-50159135.26310,54004852.09598,150392500.35273,  -0.00033,   0.00034,   0.00196,275272800.00000,   0.00000,274640576.00000,   0.00000,   0.00000,   0.00000,-199367776.00000,   0.00000
-49235164.33572,54129713.03211,151246549.15588,  -0.00033,   0.00034,   0.00197,276449152.00000,   0.00000,274640576.00000,   0.00000,   0.00000,   0.00000,-198191424.00000,   0.00000
-48318685.06451,54237093.43718,152100597.95902,  -0.00033,   0.00034,   0.00198,277628960.00000,   0.00000,274640576.00000,   0.00000,   0.00000,   0.00000,-197011616.00000,   0.00000
-47374736.38735,54341976.62354,152954646.76217,  -0.00032,   0.00034,   0.00199,278806496.00000,   0.00000,274640576.00000,   0.00000,   0.00000,   0.00000,-195834080.00000,   0.00000
-46448268.24125,54439368.15372,153813690.00276,  -0.00032,   0.00034,   0.00200,280001312.00000,   0.00000,274640576.00000,   0.00000,   0.00000,   0.00000,-194639264.00000,   0.00000
-45504319.56409,54544251.34007,154667738.80590,  -0.00031,   0.00034,   0.00201,281191296.00000,   0.00000,274640576.00000,   0.00000,   0.00000,   0.00000,-193449280.00000,   0.00000
-44550382.01203,54639145.65153,155516793.17161,  -0.00031,   0.00034,   0.00202,282373888.00000,   0.00000,274640576.00000,   0.00000,   0.00000,   0.00000,-192266688.00000,   0.00000
-43603936.11615,54716559.43193,156370841.97475,  -0.00031,   0.00033,   0.00203,283567840.00000,   0.00000,274640576.00000,   0.00000,   0.00000,   0.00000,-191072736.00000,   0.00000
-42640009.68921,54801464.86850,157224890.77790,  -0.00030,   0.00033,   0.00204,284765472.00000,   0.00000,274640576.00000,   0.00000,   0.00000,   0.00000,-189875104.00000,   0.00000
-41676083.26227,54886370.30507,158073945.14360,  -0.00030,   0.00033,   0.00205,285960864.00000,   0.00000,274640576.00000,   0.00000,   0.00000,   0.00000,-188679712.00000,   0.00000
-40719648.49149,54953795.21058,158927993.94674,  -0.00029,   0.00033,   0.00207,287167296.00000,   0.00000,274640576.00000,   0.00000,   0.00000,   0.00000,-187473280.00000,   0.00000
-39753224.84583,55011231.24121,159777048.31244,  -0.00029,   0.00033,   0.00208,288366336.00000,   0.00000,274640576.00000,   0.00000,   0.00000,   0.00000,-186274240.00000,   0.00000
-38786801.20016,55068667.27183,160626102.67814,  -0.00028,   0.00033,   0.00209,289570880.00000,   0.00000,274640576.00000,   0.00000,   0.00000,   0.00000,-185069696.00000,   0.00000
-37810388.67961,55116114.42756,161475157.04384,  -0.00028,   0.00032,   0.00210,290776032.00000,   0.00000,274640576.00000,   0.00000,   0.00000,   0.00000,-183864544.00000,   0.00000
-36833976.15905,55163561.58329,162324211.40954,  -0.00028,   0.00032,   0.00211,291986816.00000,   0.00000,274640576.00000,   0.00000,   0.00000,   0.00000,-182653760.00000,   0.00000
-35840083.10744,55218500.39518,163173265.77524,  -0.00027,   0.00032,   0.00212,293200960.00000,   0.00000,274640576.00000,   0.00000,   0.00000,   0.00000,-181439616.00000,   0.00000
-34853681.71199,55255958.67602,164017325.70350,  -0.00027,   0.00032,   0.00213,294409600.00000,   0.00000,274640576.00000,   0.00000,   0.00000,   0.00000,-180230976.00000,   0.00000
-33857291.44166,55283428.08197,164866380.06920,  -0.00026,   0.00032,   0.00214,295627328.00000,   0.00000,274640576.00000,   0.00000,   0.00000,   0.00000,-179013248.00000,   0.00000
-32860901.17132,55310897.48792,165710439.99745,  -0.00026,   0.00032,   0.00215,296842048.00000,   0.00000,274640576.00000,   0.00000,   0.00000,   0.00000,-177798528.00000,   0.00000
-31864510.90098,55338366.89387,166554499.92571,  -0.00025,   0.00031,   0.00217,298062240.00000,   0.00000,274640576.00000,   0.00000,   0.00000,   0.00000,-176578336.00000,   0.00000
-30858131.75576,55355847.42493,167398559.85396,  -0.00025,   0.00031,   0.00218,299283424.00000,   0.00000,274640576.00000,   0.00000,   0.00000,   0.00000,-175357152.00000,   0.00000
-29841763.73564,55363339.08110,168237625.34477,  -0.00024,   0.00031,   0.00219,300497376.00000,   0.00000,274640576.00000,   0.00000,   0.00000,   0.00000,-174143200.00000,   0.00000
-28842876.24658,55363339.08110,169081685.27303,  -0.00024,   0.00031,   0.00220,301726624.00000,   0.00000,274640576.00000,   0.00000,   0.00000,   0.00000,-172913952.00000,   0.00000
-27833999.88263,55353350.20621,169920750.76384,  -0.00023,   0.00031,   0.00221,302948800.00000,   0.00000,274640576.00000,   0.00000,   0.00000,   0.00000,-171691776.00000,   0.00000
-26807642.98762,55350852.98749,170759816.25465,  -0.00023,   0.00030,   0.00222,304174816.00000,   0.00000,274640576.00000,   0.00000,   0.00000,   0.00000,-170465760.00000,   0.00000
-25781286.09261,55348355.76876,171593887.30801,  -0.00023,   0.00030,   0.00223,305397984.00000,   0.00000,274640576.00000,   0.00000,   0.00000,   0.00000,-169242592.00000,   0.00000
-24762420.85377,55328378.01898,172432952.79882,  -0.00022,   0.00030,   0.00224,306632160.00000,   0.00000,274640576.00000,   0.00000,   0.00000,   0.00000,-168008416.00000,   0.00000
-23733566.74004,55298411.39431,173267023.85218,  -0.00022,   0.00030,   0.00225,307859360.00000,   0.00000,274640576.00000,   0.00000,   0.00000,   0.00000,-166781216.00000,   0.00000
-22704712.62631,55268444.76964,174101094.90555,  -0.00021,   0.00030,   0.00226,309091904.00000,   0.00000,274640576.00000,   0.00000,   0.00000,   0.00000,-165548672.00000,   0.00000
-21675858.51258,55238478.14497,174935165.95891,  -0.00021,   0.00029,   0.00227,310329664.00000,   0.00000,274640576.00000,   0.00000,   0.00000,   0.00000,-164310912.00000,   0.00000
-20637015.52396,55198522.64540,175764242.57483,  -0.00020,   0.00029,   0.00228,311560480.00000,   0.00000,274640576.00000,   0.00000,   0.00000,   0.00000,-163080096.00000,   0.00000
-19588183.66045,55148578.27095,176593319.19075,  -0.00020,   0.00029,   0.00230,312792704.00000,   0.00000,274640576.00000,   0.00000,   0.00000,   0.00000,-161847872.00000,   0.00000
-18556832.32799,55091142.24033,177422395.80667,  -0.00019,   0.00029,   0.00231,314031168.00000,   0.00000,274640576.00000,   0.00000,   0.00000,   0.00000,-160609408.00000,   0.00000
-17508000.46448,55041197.86588,178251472.42259,  -0.00019,   0.00028,   0.00232,315273568.00000,   0.00000,274640576.00000,   0.00000,   0.00000,   0.00000,-159367008.00000,   0.00000
-16449179.72608,54981264.61653,179075554.60106,  -0.00018,   0.00028,   0.00233,316509024.00000,   0.00000,274640576.00000,   0.00000,   0.00000,   0.00000,-158131552.00000,   0.00000
-15415331.17490,54896359.17996,179899636.77954,  -0.00018,   0.00028,   0.00234,317748128.00000,   0.00000,274640576.00000,   0.00000,   0.00000,   0.00000,-156892448.00000,   0.00000
-14364002.09267,54818945.39956,180718724.52057,  -0.00017,   0.00028,   0.00235,318982880.00000,   0.00000,274640576.00000,   0.00000,   0.00000,   0.00000,-155657696.00000,   0.00000
-13295192.47938,54749023.27533,181542806.69904,  -0.00017,   0.00028,   0.00236,320230624.00000,   0.00000,274640576.00000,   0.00000,   0.00000,   0.00000,-154409952.00000,   0.00000
-12233874.52225,54661620.62003,182361894.44007,  -0.00016,   0.00027,   0.00237,321473120.00000,   0.00000,274640576.00000,   0.00000,   0.00000,   0.00000,-153167456.00000,   0.00000
-11180048.22129,54556737.43368,183175987.74365,  -0.00016,   0.00027,   0.00238,322710944.00000,   0.00000,274640576.00000,   0.00000,   0.00000,   0.00000,-151929632.00000,   0.00000
-10101249.73311,54476826.43456,183995075.48468,  -0.00015,   0.00027,   0.00239,323965152.00000,   0.00000,274640576.00000,   0.00000,   0.00000,   0.00000,-150675424.00000,   0.00000
-9054915.08832,54354462.71715,184809168.78826,  -0.00015,   0.00026,   0.00240,325214400.00000,   0.00000,274640576.00000,   0.00000,   0.00000,   0.00000,-149426176.00000,   0.00000
-7973619.38141,54247082.31207,185618267.65440,  -0.00014,   0.00026,   0.00241,326462176.00000,   0.00000,274640576.00000,   0.00000,   0.00000,   0.00000,-148178400.00000,   0.00000
-6909804.20557,54132210.25083,186432360.95798,  -0.00014,   0.00026,   0.00242,327728128.00000,   0.00000,274640576.00000,   0.00000,   0.00000,   0.00000,-146912448.00000,   0.00000
-5836000.15483,54007349.31470,187236465.38668,  -0.00013,   0.00026,   0.00243,328984288.00000,   0.00000,274640576.00000,   0.00000,   0.00000,   0.00000,-145656288.00000,   0.00000
-4762196.10409,53882488.37857,188045564.25281,  -0.00013,   0.00025,   0.00244,330259584.00000,   0.00000,274640576.00000,   0.00000,   0.00000,   0.00000,-144380992.00000,   0.00000
-3678403.17846,53747638.56755,188849668.68151,  -0.00012,   0.00025,   0.00246,331534144.00000,   0.00000,274640576.00000,   0.00000,   0.00000,   0.00000,-143106432.00000,   0.00000
-2594610.25283,53612788.75652,189653773.11020,  -0.00012,   0.00025,   0.00247,332817440.00000,   0.00000,274640576.00000,   0.00000,   0.00000,   0.00000,-141823136.00000,   0.00000
-1518308.98337,53460458.41444,190452883.10145,  -0.00011,   0.00025,   0.00248,334095680.00000,   0.00000,274640576.00000,   0.00000,   0.00000,   0.00000,-140544896.00000,   0.00000
-442007.71391,53308128.07236,191251993.09269,  -0.00011,   0.00024,   0.00249,335376064.00000,   0.00000,274640576.00000,   0.00000,   0.00000,   0.00000,-139264512.00000,   0.00000
644282.43044,53145808.85539,192046108.64649,  -0.00010,   0.00024,   0.00250,336643680.00000,   0.00000,274640576.00000,   0.00000,   0.00000,   0.00000,-137996896.00000,   0.00000
1730572.57479,52983489.63842,192845218.63774,  -0.00010,   0.00024,   0.00251,337914848.00000,   0.00000,274640576.00000,   0.00000,   0.00000,   0.00000,-136725728.00000,   0.00000
2834343.25021,52828662.07761,193634339.75410,  -0.00009,   0.00023,   0.00252,339163072.00000,   0.00000,274640576.00000,   0.00000,   0.00000,   0.00000,-135477504.00000,   0.00000
3930622.26945,52656353.98575,194423460.87046,  -0.00008,   0.00023,   0.00253,340404544.00000,   0.00000,274640576.00000,   0.00000,   0.00000,   0.00000,-134236032.00000,   0.00000
5019409.63252,52466565.36283,195212581.98681,  -0.00008,   0.00023,   0.00254,341642144.00000,   0.00000,274640576.00000,   0.00000,   0.00000,   0.00000,-132998432.00000,   0.00000
6108196.99560,52276776.73991,195996708.66572,  -0.00007,   0.00023,   0.00255,342873056.00000,   0.00000,274640576.00000,   0.00000,   0.00000,   0.00000,-131767520.00000,   0.00000
7214464.88973,52094479.77315,196780835.34463,  -0.00007,   0.00022,   0.00256,344108512.00000,   0.00000,274640576.00000,   0.00000,   0.00000,   0.00000,-130532064.00000,   0.00000
8313241.12769,51894702.27534,197564962.02355,  -0.00006,   0.00022,   0.00257,345349088.00000,   0.00000,274640576.00000,   0.00000,   0.00000,   0.00000,-129291488.00000,   0.00000
9404525.70949,51677444.24647,198339099.82757,  -0.00006,   0.00022,   0.00258,346578720.00000,   0.00000,274640576.00000,   0.00000,   0.00000,   0.00000,-128061856.00000,   0.00000
10503301.94746,51477666.74866,199118232.06903,  -0.00005,   0.00021,   0.00259,347827648.00000,   0.00000,274640576.00000,   0.00000,   0.00000,   0.00000,-126812928.00000,   0.00000
11604575.40414,51250419.84490,199892369.87305,  -0.00005,   0.00021,   0.00260,349072768.00000,   0.00000,274640576.00000,   0.00000,   0.00000,   0.00000,-125567808.00000,   0.00000
12713340.51700,51040653.47220,200661513.23963,  -0.00004,   0.00021,   0.00261,350319616.00000,   0.00000,274640576.00000,   0.00000,   0.00000,   0.00000,-124320960.00000,   0.00000
13832094.50475,50820898.22460,201430656.60620,  -0.00004,   0.00020,   0.00262,351572224.00000,   0.00000,274640576.00000,   0.00000,   0.00000,   0.00000,-123068352.00000,   0.00000
14925876.30526,50576170.78978,202194805.53533,  -0.00003,   0.00020,   0.00263,352820928.00000,   0.00000,274640576.00000,   0.00000,   0.00000,   0.00000,-121819648.00000,   0.00000
16037138.63684,50338935.01113,202958954.46447,  -0.00003,   0.00020,   0.00264,354076320.00000,   0.00000,274640576.00000,   0.00000,   0.00000,   0.00000,-120564256.00000,   0.00000
17140909.31225,50084218.70142,203723103.39360,  -0.00002,   0.00019,   0.00265,355335360.00000,   0.00000,274640576.00000,   0.00000,   0.00000,   0.00000,-119305216.00000,   0.00000
18269652.17489,49854474.57894,204477263.44783,  -0.00001,   0.00019,   0.00266,356585024.00000,   0.00000,274640576.00000,   0.00000,   0.00000,   0.00000,-118055552.00000,   0.00000
19365931.19413,49582277.73817,205236417.93952,  -0.00001,   0.00019,   0.00267,357843872.00000,   0.00000,274640576.00000,   0.00000,   0.00000,   0.00000,-116796704.00000,   0.00000
20479690.74443,49317572.55357,205985583.55631,  -0.00000,   0.00018,   0.00268,359090720.00000,   0.00000,274640576.00000,   0.00000,   0.00000,   0.00000,-115549856.00000,   0.00000
21610930.82579,49060359.02514,206739743.61055,   0.00000,   0.00018,   0.00269,360351168.00000,   0.00000,274640576.00000,   0.00000,   0.00000,   0.00000,-114289408.00000,   0.00000
22724690.37609,48795653.84054,207483914.78990,   0.00001,   0.00018,   0.00270,361597984.00000,   0.00000,274640576.00000,   0.00000,   0.00000,   0.00000,-113042592.00000,   0.00000
23840947.14512,48503479.24999,208228085.96925,   0.00001,   0.00017,   0.00271,362846272.00000,   0.00000,274640576.00000,   0.00000,   0.00000,   0.00000,-111794304.00000,   0.00000
24964695.57031,48228785.19049,208972257.14860,   0.00002,   0.00017,   0.00272,364100608.00000,   0.00000,274640576.00000,   0.00000,   0.00000,   0.00000,-110539968.00000,   0.00000
26080952.33933,47936610.59994,209711433.89050,   0.00003,   0.00017,   0.00273,365348608.00000,   0.00000,274640576.00000,   0.00000,   0.00000,   0.00000,-109291968.00000,   0.00000
27197209.10836,47644436.00939,210445616.19496,   0.00003,   0.00016,   0.00274,366592608.00000,   0.00000,274640576.00000,   0.00000,   0.00000,   0.00000,-108047968.00000,   0.00000
28323454.75227,47342272.54395,211179798.49942,   0.00004,   0.00016,   0.00275,367840192.00000,   0.00000,274640576.00000,   0.00000,   0.00000,   0.00000,-106800384.00000,   0.00000
29449700.39618,47040109.07851,211908986.36643,   0.00004,   0.00016,   0.00275,369083744.00000,   0.00000,274640576.00000,   0.00000,   0.00000,   0.00000,-105556832.00000,   0.00000
30568454.38393,46720465.08201,212633179.79600,   0.00005,   0.00015,   0.00276,370321792.00000,   0.00000,274640576.00000,   0.00000,   0.00000,   0.00000,-104318784.00000,   0.00000
31687208.37168,46400821.08552,213357373.22557,   0.00005,   0.00015,   0.00277,371564544.00000,   0.00000,274640576.00000,   0.00000,   0.00000,   0.00000,-103076032.00000,   0.00000
32815951.23431,46071188.21413,214076572.21769,   0.00006,   0.00015,   0.00278,372803232.00000,   0.00000,274640576.00000,   0.00000,   0.00000,   0.00000,-101837344.00000,   0.00000
33952185.75312,45759035.87380,214795771.20982,   0.00007,   0.00014,   0.00279,374048352.00000,   0.00000,274640576.00000,   0.00000,   0.00000,   0.00000,-100592224.00000,   0.00000
35073436.95959,45411922.47135,215509975.76449,   0.00007,   0.00014,   0.00280,375287040.00000,   0.00000,274640576.00000,   0.00000,   0.00000,   0.00000,-99353536.00000,   0.00000
36202179.82222,45082289.59996,216219185.88172,   0.00008,   0.00013,   0.00281,376524160.00000,   0.00000,274640576.00000,   0.00000,   0.00000,   0.00000,-98116416.00000,   0.00000
37315939.37252,44717695.66645,216928395.99896,   0.00008,   0.00013,   0.00282,377763232.00000,   0.00000,274640576.00000,   0.00000,   0.00000,   0.00000,-96877344.00000,   0.00000
38454671.11005,44378073.92017,217632611.67874,   0.00009,   0.00013,   0.00283,379001632.00000,   0.00000,274640576.00000,   0.00000,   0.00000,   0.00000,-95638944.00000,   0.00000
39585911.19141,44020971.64283,218331832.92108,   0.00009,   0.00012,   0.00284,380235360.00000,   0.00000,274640576.00000,   0.00000,   0.00000,   0.00000,-94405216.00000,   0.00000
40717151.27277,43663869.36549,219031054.16343,   0.00010,   0.00012,   0.00285,381474112.00000,   0.00000,274640576.00000,   0.00000,   0.00000,   0.00000,-93166464.00000,   0.00000
41840899.69796,43289286.55710,219725280.96832,   0.00011,   0.00012,   0.00286,382707712.00000,   0.00000,274640576.00000,   0.00000,   0.00000,   0.00000,-91932864.00000,   0.00000
42964648.12315,42914703.74870,220414513.33577,   0.00011,   0.00011,   0.00287,383937632.00000,   0.00000,274640576.00000,   0.00000,   0.00000,   0.00000,-90702944.00000,   0.00000
44105877.07940,42547612.59647,221103745.70322,   0.00012,   0.00011,   0.00287,385173408.00000,   0.00000,274640576.00000,   0.00000,   0.00000,   0.00000,-89467168.00000,   0.00000
45239614.37948,42163040.91318,221787983.63323,   0.00012,   0.00010,   0.00288,386403424.00000,   0.00000,274640576.00000,   0.00000,   0.00000,   0.00000,-88237152.00000,   0.00000
46373351.67957,41778469.22990,222467227.12579,   0.00013,   0.00010,   0.00289,387629184.00000,   0.00000,274640576.00000,   0.00000,   0.00000,   0.00000,-87011392.00000,   0.00000
47499597.32348,41376417.01555,223141476.18090,   0.00014,   0.00010,   0.00290,388848960.00000,   0.00000,274640576.00000,   0.00000,   0.00000,   0.00000,-85791616.00000,   0.00000
48643323.49845,40981856.45737,223815725.23602,   0.00014,   0.00009,   0.00291,390074016.00000,   0.00000,274640576.00000,   0.00000,   0.00000,   0.00000,-84566560.00000,   0.00000
49769569.14237,40579804.24302,224484979.85369,   0.00015,   0.00009,   0.00292,391292800.00000,   0.00000,274640576.00000,   0.00000,   0.00000,   0.00000,-83347776.00000,   0.00000
50905803.66117,40167763.15379,225149240.03391,   0.00015,   0.00008,   0.00293,392507168.00000,   0.00000,274640576.00000,   0.00000,   0.00000,   0.00000,-82133408.00000,   0.00000
52042038.17998,39755722.06455,225813500.21414,   0.00016,   0.00008,   0.00294,393725440.00000,   0.00000,274640576.00000,   0.00000,   0.00000,   0.00000,-80915136.00000,   0.00000
53178272.69878,39343680.97531,226467771.51947,   0.00017,   0.00008,   0.00294,394930560.00000,   0.00000,274640576.00000,   0.00000,   0.00000,   0.00000,-79710016.00000,   0.00000
54324496.09248,38921651.01119,227127037.26225,   0.00017,   0.00007,   0.00295,396148992.00000,   0.00000,274640576.00000,   0.00000,   0.00000,   0.00000,-78491584.00000,   0.00000
55453238.95511,38492129.39089,227776314.13014,   0.00018,   0.00007,   0.00296,397352864.00000,   0.00000,274640576.00000,   0.00000,   0.00000,   0.00000,-77287712.00000,   0.00000
56591970.69264,38052618.89570,228420596.56058,   0.00018,   0.00006,   0.00297,398553440.00000,   0.00000,274640576.00000,   0.00000,   0.00000,   0.00000,-76087136.00000,   0.00000
57730702.43017,37613108.40052,229064878.99102,   0.00019,   0.00006,   0.00298,399758624.00000,   0.00000,274640576.00000,   0.00000,   0.00000,   0.00000,-74881952.00000,   0.00000
58869434.16770,37173597.90533,229704166.98402,   0.00020,   0.00005,   0.00299,400960160.00000,   0.00000,274640576.00000,   0.00000,   0.00000,   0.00000,-73680416.00000,   0.00000
60000674.24906,36716606.87909,230338460.53957,   0.00020,   0.00005,   0.00299,402156704.00000,   0.00000,274640576.00000,   0.00000,   0.00000,   0.00000,-72483872.00000,   0.00000
61139405.98658,36277096.38390,230967759.65768,   0.00021,   0.00005,   0.00300,403350528.00000,   0.00000,274640576.00000,   0.00000,   0.00000,   0.00000,-71290048.00000,   0.00000
62280634.94283,35810116.48277,231597058.77579,   0.00021,   0.00004,   0.00301,404548992.00000,   0.00000,274640576.00000,   0.00000,   0.00000,   0.00000,-70091584.00000,   0.00000
63411875.02419,35353125.45652,232221363.45645,   0.00022,   0.00004,   0.00302,405742816.00000,   0.00000,274640576.00000,   0.00000,   0.00000,   0.00000,-68897760.00000,   0.00000
64553103.98044,34886145.55539,232840673.69967,   0.00023,   0.00003,   0.00303,406933536.00000,   0.00000,274640576.00000,   0.00000,   0.00000,   0.00000,-67707040.00000,   0.00000
65694332.93669,34419165.65425,233454989.50544,   0.00023,   0.00003,   0.00303,408120288.00000,   0.00000,274640576.00000,   0.00000,   0.00000,   0.00000,-66520288.00000,   0.00000
66828070.23677,33934705.22206,234064310.87376,   0.00024,   0.00002,   0.00304,409302112.00000,   0.00000,274640576.00000,   0.00000,   0.00000,   0.00000,-65338464.00000,   0.00000
67961807.53686,33450244.78987,234668637.80465,   0.00024,   0.00002,   0.00305,410479712.00000,   0.00000,274640576.00000,   0.00000,   0.00000,   0.00000,-64160864.00000,   0.00000
69113025.36800,32973276.01384,235272964.73553,   0.00025,   0.00002,   0.00306,411663872.00000,   0.00000,274640576.00000,   0.00000,   0.00000,   0.00000,-62976704.00000,   0.00000
70239271.01191,32471335.05059,235872297.22896,   0.00026,   0.00001,   0.00307,412840608.00000,   0.00000,274640576.00000,   0.00000,   0.00000,   0.00000,-61799968.00000,   0.00000
71390488.84305,31994366.27456,236466635.28495,   0.00026,   0.00001,   0.00307,414016000.00000,   0.00000,274640576.00000,   0.00000,   0.00000,   0.00000,-60624576.00000,   0.00000
72526723.36186,31482436.43642,237055978.90350,   0.00027,   0.00000,   0.00308,415185504.00000,   0.00000,274640576.00000,   0.00000,   0.00000,   0.00000,-59455072.00000,   0.00000
73670449.53683,30987987.12933,237640328.08460,   0.00027,  -0.00000,   0.00309,416351328.00000,   0.00000,274640576.00000,   0.00000,   0.00000,   0.00000,-58289248.00000,   0.00000
74806684.05563,30476057.29119,238219682.82825,   0.00028,  -0.00001,   0.00310,417511872.00000,   0.00000,274640576.00000,   0.00000,   0.00000,   0.00000,-57128704.00000,   0.00000
75942918.57444,29964127.45305,238799037.57190,   0.00029,  -0.00001,   0.00310,418676704.00000,   0.00000,274640576.00000,   0.00000,   0.00000,   0.00000,-55963872.00000,   0.00000
77079153.09324,29452197.61491,239368403.44067,   0.00029,  -0.00002,   0.00311,419828320.00000,   0.00000,274640576.00000,   0.00000,   0.00000,   0.00000,-54812256.00000,   0.00000
78225376.48694,28930278.90187,239937769.30943,   0.00030,  -0.00002,   0.00312,420985824.00000,   0.00000,274640576.00000,   0.00000,   0.00000,   0.00000,-53654752.00000,   0.00000
79371599.88063,28408360.18884,240502140.74075,   0.00031,  -0.00003,   0.00313,422138976.00000,   0.00000,274640576.00000,   0.00000,   0.00000,   0.00000,-52501600.00000,   0.00000
80500342.74327,27878949.81964,241061517.73462,   0.00031,  -0.00003,   0.00313,423285120.00000,   0.00000,274640576.00000,   0.00000,   0.00000,   0.00000,-51355456.00000,   0.00000
81646566.13696,27357031.10660,241615900.29105,   0.00032,  -0.00003,   0.00314,424429632.00000,   0.00000,274640576.00000,   0.00000,   0.00000,   0.00000,-50210944.00000,   0.00000
82785297.87449,26817631.86251,242165288.41003,   0.00032,  -0.00004,   0.00315,425569056.00000,   0.00000,274640576.00000,   0.00000,   0.00000,   0.00000,-49071520.00000,   0.00000
83924029.61202,26278232.61842,242709682.09157,   0.00033,  -0.00004,   0.00316,426704192.00000,   0.00000,274640576.00000,   0.00000,   0.00000,   0.00000,-47936384.00000,   0.00000
85072750.22444,25728844.49944,243249081.33566,   0.00034,  -0.00005,   0.00316,427836960.00000,   0.00000,274640576.00000,   0.00000,   0.00000,   0.00000,-46803616.00000,   0.00000
86211481.96196,25189445.25535,243788480.57975,   0.00034,  -0.00005,   0.00317,428972000.00000,   0.00000,274640576.00000,   0.00000,   0.00000,   0.00000,-45668576.00000,   0.00000
87360202.57438,24640057.13636,244317890.94896,   0.00035,  -0.00006,   0.00318,430096608.00000,   0.00000,274640576.00000,   0.00000,   0.00000,   0.00000,-44543968.00000,   0.00000
88491442.65574,24083177.36121,244847301.31816,   0.00036,  -0.00006,   0.00318,431222496.00000,   0.00000,274640576.00000,   0.00000,   0.00000,   0.00000,-43418080.00000,   0.00000
89640163.26816,23533789.24223,245366722.81247,   0.00036,  -0.00007,   0.00319,432338624.00000,   0.00000,274640576.00000,   0.00000,   0.00000,   0.00000,-42301952.00000,   0.00000
90781392.22441,22966920.59219,245886144.30678,   0.00037,  -0.00007,   0.00320,433458688.00000,   0.00000,274640576.00000,   0.00000,   0.00000,   0.00000,-41181888.00000,   0.00000
91922621.18066,22400051.94215,246395576.92620,   0.00037,  -0.00008,   0.00320,434566240.00000,   0.00000,274640576.00000,   0.00000,   0.00000,   0.00000,-40074336.00000,   0.00000
93063850.13691,21833183.29211,246905009.54562,   0.00038,  -0.00008,   0.00321,435678144.00000,   0.00000,274640576.00000,   0.00000,   0.00000,   0.00000,-38962432.00000,   0.00000
94205079.09316,21266314.64207,247409447.72759,   0.00039,  -0.00009,   0.00322,436785856.00000,   0.00000,274640576.00000,   0.00000,   0.00000,   0.00000,-37854720.00000,   0.00000
95338816.39324,20681965.46097,247903897.03468,   0.00039,  -0.00009,   0.00322,437880672.00000,   0.00000,274640576.00000,   0.00000,   0.00000,   0.00000,-36759904.00000,   0.00000
96490034.22438,20105107.93604,248398346.34176,   0.00040,  -0.00010,   0.00323,438982752.00000,   0.00000,274640576.00000,   0.00000,   0.00000,   0.00000,-35657824.00000,   0.00000
97623771.52446,19520758.75494,248887801.21140,   0.00041,  -0.00010,   0.00324,440077408.00000,   0.00000,274640576.00000,   0.00000,   0.00000,   0.00000,-34563168.00000,   0.00000
98774989.35561,18943901.23001,249372261.64359,   0.00041,  -0.00011,   0.00324,441170912.00000,   0.00000,274640576.00000,   0.00000,   0.00000,   0.00000,-33469664.00000,   0.00000
99908726.65569,18359552.04891,249846733.20090,   0.00042,  -0.00011,   0.00325,442248288.00000,   0.00000,274640576.00000,   0.00000,   0.00000,   0.00000,-32392288.00000,   0.00000
101052452.83066,17765213.99292,250321204.75820,   0.00043,  -0.00012,   0.00325,443332352.00000,   0.00000,274640576.00000,   0.00000,   0.00000,   0.00000,-31308224.00000,   0.00000
102196179.00563,17170875.93693,250790681.87806,   0.00043,  -0.00012,   0.00326,444411680.00000,   0.00000,274640576.00000,   0.00000,   0.00000,   0.00000,-30228896.00000,   0.00000
103339905.18061,16576537.88094,251255164.56047,   0.00044,  -0.00013,   0.00327,445486080.00000,   0.00000,274640576.00000,   0.00000,   0.00000,   0.00000,-29154496.00000,   0.00000
104483631.35558,15982199.82494,251714652.80544,   0.00044,  -0.00013,   0.00327,446555488.00000,   0.00000,274640576.00000,   0.00000,   0.00000,   0.00000,-28085088.00000,   0.00000
105619865.87438,15370381.23790,252164152.17551,   0.00045,  -0.00014,   0.00328,447611168.00000,   0.00000,274640576.00000,   0.00000,   0.00000,   0.00000,-27029408.00000,   0.00000
106763592.04935,14776043.18191,252613651.54559,   0.00046,  -0.00014,   0.00328,448670400.00000,   0.00000,274640576.00000,   0.00000,   0.00000,   0.00000,-25970176.00000,   0.00000
107917307.09922,14171716.25103,253058156.47822,   0.00046,  -0.00015,   0.00329,449727808.00000,   0.00000,274640576.00000,   0.00000,   0.00000,   0.00000,-24912768.00000,   0.00000
109053541.61802,13559897.66398,253497666.97341,   0.00047,  -0.00015,   0.00330,450776960.00000,   0.00000,274640576.00000,   0.00000,   0.00000,   0.00000,-23863616.00000,   0.00000
110199765.01172,12938090.20204,253927188.59370,   0.00048,  -0.00016,   0.00330,451816064.00000,   0.00000,274640576.00000,   0.00000,   0.00000,   0.00000,-22824512.00000,   0.00000
111335999.53052,12326271.61499,254356710.21400,   0.00048,  -0.00016,   0.00331,452856000.00000,   0.00000,274640576.00000,   0.00000,   0.00000,   0.00000,-21784576.00000,   0.00000
112482222.92422,11704464.15305,254781237.39685,   0.00049,  -0.00017,   0.00331,453894944.00000,   0.00000,274640576.00000,   0.00000,   0.00000,   0.00000,-20745632.00000,   0.00000
113635937.97408,11100137.22217,255195775.70481,   0.00050,  -0.00017,   0.00332,454921376.00000,   0.00000,274640576.00000,   0.00000,   0.00000,   0.00000,-19719200.00000,   0.00000
114782161.36778,10478329.76023,255610314.01277,   0.00050,  -0.00018,   0.00332,455952768.00000,   0.00000,274640576.00000,   0.00000,   0.00000,   0.00000,-18687808.00000,   0.00000
115928384.76147,9856522.29829,256014863.44584,   0.00051,  -0.00018,   0.00333,456972352.00000,   0.00000,274640576.00000,   0.00000,   0.00000,   0.00000,-17668224.00000,   0.00000
117067116.49900,9217234.30529,256419412.87891,   0.00051,  -0.00019,   0.00333,457997184.00000,   0.00000,274640576.00000,   0.00000,   0.00000,   0.00000,-16643392.00000,   0.00000
118213339.89269,8595426.84335,256813973.43708,   0.00052,  -0.00019,   0.00334,459010976.00000,   0.00000,274640576.00000,   0.00000,   0.00000,   0.00000,-15629600.00000,   0.00000
119359563.28639,7973619.38141,257203539.55782,   0.00053,  -0.00020,   0.00334,460022080.00000,   0.00000,274640576.00000,   0.00000,   0.00000,   0.00000,-14618496.00000,   0.00000
120498295.02392,7334331.38842,257588111.24111,   0.00053,  -0.00020,   0.00335,461031072.00000,   0.00000,274640576.00000,   0.00000,   0.00000,   0.00000,-13609504.00000,   0.00000
121654507.29250,6702535.05159,257972682.92439,   0.00054,  -0.00021,   0.00335,462049888.00000,   0.00000,274640576.00000,   0.00000,   0.00000,   0.00000,-12590688.00000,   0.00000
122793239.03003,6063247.05859,258347265.73279,   0.00055,  -0.00021,   0.00336,463054624.00000,   0.00000,274640576.00000,   0.00000,   0.00000,   0.00000,-11585952.00000,   0.00000
123949451.29862,5431450.72176,258716854.10374,   0.00055,  -0.00022,   0.00336,464061152.00000,   0.00000,274640576.00000,   0.00000,   0.00000,   0.00000,-10579424.00000,   0.00000
125088183.03614,4792162.72876,259076453.59980,   0.00056,  -0.00022,   0.00337,465053312.00000,   0.00000,274640576.00000,   0.00000,   0.00000,   0.00000,-9587264.00000,   0.00000
126244395.30473,4160366.39193,259436053.09586,   0.00057,  -0.00023,   0.00337,466055648.00000,   0.00000,274640576.00000,   0.00000,   0.00000,   0.00000,-8584928.00000,   0.00000
127393115.91715,3511089.52404,259790658.15448,   0.00057,  -0.00023,   0.00338,467055840.00000,   0.00000,274640576.00000,   0.00000,   0.00000,   0.00000,-7584736.00000,   0.00000
128549328.18573,2879293.18721,260140268.77565,   0.00058,  -0.00024,   0.00338,468053504.00000,   0.00000,274640576.00000,   0.00000,   0.00000,   0.00000,-6587072.00000,   0.00000
129698048.79815,2230016.31932,260479890.52193,   0.00059,  -0.00024,   0.00339,469040416.00000,   0.00000,274640576.00000,   0.00000,   0.00000,   0.00000,-5600160.00000,   0.00000
130846769.41057,1580739.45144,260819512.26821,   0.00059,  -0.00025,   0.00339,470032608.00000,   0.00000,274640576.00000,   0.00000,   0.00000,   0.00000,-4607968.00000,   0.00000
131995490.02299,931462.58355,261149145.13960,   0.00060,  -0.00025,   0.00339,471013312.00000,   0.00000,274640576.00000,   0.00000,   0.00000,   0.00000,-3627264.00000,   0.00000
133151702.29157,299666.24672,261473783.57354,   0.00061,  -0.00026,   0.00340,471989888.00000,   0.00000,274640576.00000,   0.00000,   0.00000,   0.00000,-2650688.00000,   0.00000
134300422.90399,-349610.62117,261793427.57004,   0.00061,  -0.00026,   0.00340,472962432.00000,   0.00000,274640576.00000,   0.00000,   0.00000,   0.00000,-1678144.00000,   0.00000
135449143.51641,-998887.48906,262108077.12910,   0.00062,  -0.00027,   0.00341,473929856.00000,   0.00000,274640576.00000,   0.00000,   0.00000,   0.00000,-710720.00000,   0.00000
136291691.45676,-1491141.97500,262336689.69935,   0.00062,  -0.00027,   0.00341,474639840.00000,   0.00000,274640576.00000,   0.00000,   0.00000,   0.00000,-736.00000,   0.00000
136519386.22803,-1659518.71331,262279792.57920,   0.00062,  -0.00027,   0.00341,474639840.00000,   0.00000,274641760.00000,   0.00000,  -0.00000,   0.00000, -32.00000,   2.00000
137414373.72072,-2276230.57015,262057751.93870,   0.00063,  -0.00028,   0.00342,475600768.00000,   0.00001,274646304.00000,   0.00000,  -0.00000,   0.00001,  32.00000,   2.00000
138297400.33603,-2899437.90560,261836215.11386,   0.00064,  -0.00028,   0.00342,475586752.00000,   0.00001,274650720.00000,   0.00000,  -0.00000,   0.00002, 128.00000,   2.00000
139196523.68006,-3513484.04206,261611499.06258,   0.00064,  -0.00029,   0.00342,475597248.00000,   0.00001,274655200.00000,   0.00000,  -0.00000,   0.00002,  64.00000,   2.00000
140076395.80469,-4151579.79623,261387336.66620,   0.00065,  -0.00029,   0.00343,475582848.00000,   0.00002,274659584.00000,   0.00001,  -0.00000,   0.00003,  32.00000,   2.00000
140980113.95303,-4763098.89215,261160415.42893,   0.00066,  -0.00030,   0.00343,475592448.00000,   0.00002,274664000.00000,   0.00001,  -0.00000,   0.00004, 128.00000,   2.00000
141880681.07114,-5391156.47034,260931558.81677,   0.00066,  -0.00031,   0.00343,475582272.00000,   0.00003,274668320.00000,   0.00001,  -0.00000,   0.00004,  32.00000,   2.00000
142790973.04044,-6000637.64115,260701917.90506,   0.00067,  -0.00031,   0.00344,475579264.00000,   0.00003,274672640.00000,   0.00001,  -0.00000,   0.00005, 224.00000,   2.00000
143681429.89521,-6634419.52630,260472485.83313,   0.00068,  -0.00032,   0.00344,475565184.00000,   0.00003,274676832.00000,   0.00001,  -0.00001,   0.00005,  96.00000,   2.00000
144595100.15324,-7241746.41566,260240199.39169,   0.00068,  -0.00032,   0.00344,475574752.00000,   0.00004,274681088.00000,   0.00001,  -0.00001,   0.00006,  32.00000,   2.00000
145502440.53388,-7865486.95726,260006170.56926,   0.00069,  -0.00033,   0.00345,475573312.00000,   0.00004,274685312.00000,   0.00001,  -0.00001,   0.00007,   0.00000,   2.00000
146413148.44126,-8488534.86879,259770115.70825,   0.00070,  -0.00033,   0.00345,475563328.00000,   0.00004,274689440.00000,   0.00001,  -0.00001,   0.00007,  64.00000,   2.00000
147332231.43475,-9093124.07161,259532621.64521,   0.00070,  -0.00034,   0.00345,475561344.00000,   0.00005,274693568.00000,   0.00002,  -0.00001,   0.00008,  64.00000,   2.00000
148260398.62448,-9706467.37643,259290666.53639,   0.00071,  -0.00034,   0.00346,475565024.00000,   0.00005,274697696.00000,   0.00002,  -0.00001,   0.00009, 128.00000,   2.00000
149172445.56114,-10326434.70910,259048943.92221,   0.00072,  -0.00035,   0.00346,475560032.00000,   0.00006,274701760.00000,   0.00002,  -0.00001,   0.00009, -32.00000,   2.00000
150092159.11446,-10927911.18514,258805507.95409,   0.00072,  -0.00035,   0.00346,475558560.00000,   0.00006,274705824.00000,   0.00002,  -0.00001,   0.00010, -64.00000,   2.00000
151006349.51815,-11546147.69873,258559028.02994,   0.00073,  -0.00036,   0.00347,475550880.00000,   0.00006,274709824.00000,   0.00002,  -0.00001,   0.00010, 160.00000,   2.00000
151933810.20314,-12155149.35585,258308139.99179,   0.00074,  -0.00036,   0.00347,475563520.00000,   0.00007,274713856.00000,   0.00002,  -0.00001,   0.00011,  64.00000,   2.00000
152854592.35929,-12753725.68929,258057102.37022,   0.00074,  -0.00037,   0.00347,475550208.00000,   0.00007,274717824.00000,   0.00002,  -0.00001,   0.00012,   0.00000,   2.00000
153783037.29394,-13360863.49782,257800603.94183,   0.00075,  -0.00037,   0.00347,475555872.00000,   0.00007,274721760.00000,   0.00002,  -0.00001,   0.00012,  96.00000,   2.00000
154694483.60475,-13974567.32516,257543893.54341,   0.00076,  -0.00038,   0.00348,475551904.00000,   0.00008,274725696.00000,   0.00002,  -0.00001,   0.00013,   0.00000,   2.00000
155628833.90865,-14561933.21346,257282428.35967,   0.00076,  -0.00038,   0.00348,475556416.00000,   0.00008,274729632.00000,   0.00003,  -0.00001,   0.00013, -32.00000,   2.00000
156554457.18035,-15165553.56219,257017780.15140,   0.00077,  -0.00039,   0.00348,475557824.00000,   0.00008,274733536.00000,   0.00003,  -0.00001,   0.00014,  64.00000,   2.00000
157473195.25952,-15758826.53943,256752645.29388,   0.00078,  -0.00039,   0.00348,475545152.00000,   0.00009,274737376.00000,   0.00003,  -0.00002,   0.00015,   0.00000,   2.00000
158399248.33831,-16360609.33194,256481730.17783,   0.00078,  -0.00040,   0.00349,475551488.00000,   0.00009,274741216.00000,   0.00003,  -0.00002,   0.00015, -96.00000,   2.00000
159332141.33763,-16943861.51754,256208566.05192,   0.00079,  -0.00040,   0.00349,475551360.00000,   0.00010,274745056.00000,   0.00003,  -0.00002,   0.00016,  64.00000,   2.00000
160264089.41266,-17526024.10975,255932566.06089,   0.00080,  -0.00041,   0.00349,475552256.00000,   0.00010,274748864.00000,   0.00003,  -0.00002,   0.00016,   0.00000,   2.00000
161187384.99098,-18124542.71412,255653282.78694,   0.00080,  -0.00042,   0.00349,475554048.00000,   0.00010,274752672.00000,   0.00003,  -0.00002,   0.00017, 128.00000,   2.00000
162120225.24383,-18705178.97605,255371106.21641,   0.00081,  -0.00042,   0.00349,475545856.00000,   0.00011,274756416.00000,   0.00003,  -0.00002,   0.00017, 160.00000,   2.00000
163049800.17557,-19284310.72227,255086858.66390,   0.00082,  -0.00043,   0.00350,475554496.00000,   0.00011,274760192.00000,   0.00004,  -0.00002,   0.00018,  64.00000,   2.00000
163981288.63191,-19863092.52061,254799194.72844,   0.00082,  -0.00043,   0.00350,475546944.00000,   0.00011,274763904.00000,   0.00004,  -0.00002,   0.00018, -64.00000,   2.00000
164928248.45374,-20433209.89668,254506446.59973,   0.00083,  -0.00044,   0.00350,475552064.00000,   0.00012,274767648.00000,   0.00004,  -0.00002,   0.00019,   0.00000,   2.00000
165858784.90831,-21010370.35127,254213582.07186,   0.00084,  -0.00044,   0.00350,475547680.00000,   0.00012,274771328.00000,   0.00004,  -0.00002,   0.00020, -64.00000,   2.00000
166791625.35505,-21587416.61723,253917528.72235,   0.00084,  -0.00045,   0.00350,475539744.00000,   0.00012,274774944.00000,   0.00004,  -0.00002,   0.00020,  96.00000,   2.00000
167729423.91347,-22145814.17742,253620244.68413,   0.00085,  -0.00045,   0.00350,475546592.00000,   0.00013,274778592.00000,   0.00004,  -0.00002,   0.00021,  64.00000,   2.00000
168677662.03519,-22713752.83819,253316578.06006,   0.00086,  -0.00046,   0.00350,475544640.00000,   0.00013,274782208.00000,   0.00004,  -0.00002,   0.00021,  96.00000,   2.00000
169617728.15056,-23271628.54832,253013607.18052,   0.00086,  -0.00046,   0.00351,475538400.00000,   0.00013,274785760.00000,   0.00004,  -0.00003,   0.00022,   0.00000,   2.00000
170565679.86639,-23838539.89375,252705027.88486,   0.00087,  -0.00047,   0.00351,475544032.00000,   0.00014,274789344.00000,   0.00005,  -0.00003,   0.00022,   0.00000,   2.00000
171508284.83855,-24396155.55124,252396503.57710,   0.00088,  -0.00047,   0.00351,475529696.00000,   0.00014,274792832.00000,   0.00005,  -0.00003,   0.00023,-128.00000,   2.00000
172464012.94577,-24944868.95489,252083765.53586,   0.00088,  -0.00048,   0.00351,475541952.00000,   0.00014,274796352.00000,   0.00005,  -0.00003,   0.00023,   0.00000,   2.00000
173422369.49212,-25493880.69340,251767816.19846,   0.00089,  -0.00048,   0.00351,475533696.00000,   0.00015,274799808.00000,   0.00005,  -0.00003,   0.00024,   0.00000,   2.00000
174380669.34960,-26042585.46976,251449428.80104,   0.00090,  -0.00049,   0.00351,475533088.00000,   0.00015,274803264.00000,   0.00005,  -0.00003,   0.00024,-224.00000,   2.00000
175323315.85233,-26598977.44113,251131500.31944,   0.00090,  -0.00049,   0.00351,475527232.00000,   0.00015,274806688.00000,   0.00005,  -0.00003,   0.00025, -32.00000,   2.00000
176289543.11845,-27129823.61810,250809073.39208,   0.00091,  -0.00050,   0.00351,475530624.00000,   0.00015,274810080.00000,   0.00005,  -0.00003,   0.00025,  32.00000,   2.00000
177247709.33446,-27677813.79916,250483461.89845,   0.00092,  -0.00050,   0.00351,475531392.00000,   0.00016,274813472.00000,   0.00005,  -0.00003,   0.00026, -64.00000,   2.00000
178216530.88952,-28208911.38137,250155315.82974,   0.00092,  -0.00051,   0.00351,475521568.00000,   0.00016,274816832.00000,   0.00006,  -0.00003,   0.00026,   0.00000,   2.00000
179185227.07132,-28739810.80545,249824651.67173,   0.00093,  -0.00051,   0.00352,475520864.00000,   0.00016,274820128.00000,   0.00006,  -0.00003,   0.00027,  32.00000,   2.00000
180153782.76582,-29270522.75597,249491463.90096,   0.00094,  -0.00052,   0.00352,475520192.00000,   0.00017,274823424.00000,   0.00006,  -0.00003,   0.00027,   0.00000,   2.00000
181122185.68362,-29801054.15545,249155747.63246,   0.00094,  -0.00052,   0.00352,475519616.00000,   0.00017,274826720.00000,   0.00006,  -0.00003,   0.00028, -32.00000,   2.00000
182116782.02146,-30306741.20419,248814514.49652,   0.00095,  -0.00053,   0.00352,475515360.00000,   0.00017,274829952.00000,   0.00006,  -0.00003,   0.00028,  32.00000,   2.00000
183084801.98498,-30836868.92547,248473633.94126,   0.00096,  -0.00053,   0.00352,475518656.00000,   0.00018,274833184.00000,   0.00006,  -0.00004,   0.00029, -32.00000,   2.00000
184063442.41220,-31350134.26791,248129953.56452,   0.00096,  -0.00054,   0.00352,475508992.00000,   0.00018,274836384.00000,   0.00006,  -0.00004,   0.00029,  32.00000,   2.00000
185057325.47120,-31855168.69640,247780704.16001,   0.00097,  -0.00054,   0.00352,475514016.00000,   0.00018,274839552.00000,   0.00006,  -0.00004,   0.00030, -64.00000,   2.00000
186043602.58639,-32350613.03881,247432450.88796,   0.00098,  -0.00055,   0.00352,475506656.00000,   0.00018,274842688.00000,   0.00007,  -0.00004,   0.00030,  96.00000,   2.00000
187024467.91492,-32863877.17869,247079735.15900,   0.00098,  -0.00055,   0.00352,475500096.00000,   0.00019,274845792.00000,   0.00007,  -0.00004,   0.00030, -32.00000,   2.00000
188025737.87292,-33350783.23924,246723128.10861,   0.00099,  -0.00056,   0.00352,475511328.00000,   0.00019,274848928.00000,   0.00007,  -0.00004,   0.00031, -32.00000,   2.00000
189029690.60092,-33838106.63874,246362788.27198,   0.00100,  -0.00056,   0.00352,475503328.00000,   0.00019,274852000.00000,   0.00007,  -0.00004,   0.00031,  64.00000,   2.00000
190018082.06456,-34333160.16682,246002569.64905,   0.00100,  -0.00057,   0.00352,475497344.00000,   0.00020,274855040.00000,   0.00007,  -0.00004,   0.00032,   0.00000,   2.00000
191021657.96195,-34819855.93857,245636623.11275,   0.00101,  -0.00057,   0.00352,475502688.00000,   0.00020,274858080.00000,   0.00007,  -0.00004,   0.00032,  64.00000,   2.00000
192033137.13402,-35288844.66696,245268604.72998,   0.00102,  -0.00058,   0.00351,475500960.00000,   0.00020,274861120.00000,   0.00007,  -0.00004,   0.00033,   0.00000,   2.00000
193024060.48917,-35783650.93204,244898931.76564,   0.00102,  -0.00058,   0.00351,475488736.00000,   0.00020,274864064.00000,   0.00007,  -0.00004,   0.00033,  64.00000,   2.00000
194038208.84300,-36252681.08150,244524173.11782,   0.00103,  -0.00059,   0.00351,475492640.00000,   0.00021,274867040.00000,   0.00008,  -0.00004,   0.00033, -64.00000,   2.00000
195057462.85605,-36703214.50112,244148432.09286,   0.00104,  -0.00059,   0.00351,475498560.00000,   0.00021,274870016.00000,   0.00008,  -0.00004,   0.00034,   0.00000,   2.00000
196071516.03488,-37171448.27005,243767960.55680,   0.00104,  -0.00060,   0.00351,475492192.00000,   0.00021,274872960.00000,   0.00008,  -0.00005,   0.00034, -64.00000,   2.00000
197096684.38906,-37622735.87821,243384407.82974,   0.00105,  -0.00060,   0.00351,475482752.00000,   0.00021,274875808.00000,   0.00008,  -0.00005,   0.00035,  96.00000,   2.00000
198118744.73083,-38072788.37828,242998884.09354,   0.00106,  -0.00061,   0.00351,475490304.00000,   0.00022,274878720.00000,   0.00008,  -0.00005,   0.00035,   0.00000,   2.00000
199152036.23277,-38505898.96413,242610277.46492,   0.00106,  -0.00061,   0.00351,475480832.00000,   0.00022,274881536.00000,   0.00008,  -0.00005,   0.00036,  32.00000,   2.00000
200189243.10205,-38946931.03772,242215881.70413,   0.00107,  -0.00062,   0.00351,475495808.00000,   0.00022,274884448.00000,   0.00008,  -0.00005,   0.00036,  32.00000,   2.00000
201222553.98847,-39379163.77402,241821335.16382,   0.00108,  -0.00062,   0.00351,475480448.00000,   0.00022,274887232.00000,   0.00008,  -0.00005,   0.00036, -96.00000,   2.00000
202258932.04064,-39811792.97393,241422682.24238,   0.00108,  -0.00063,   0.00351,475472896.00000,   0.00023,274890016.00000,   0.00009,  -0.00005,   0.00037, -32.00000,   2.00000
203300521.10817,-40225867.09561,241023057.80000,   0.00109,  -0.00063,   0.00350,475478528.00000,   0.00023,274892768.00000,   0.00009,  -0.00005,   0.00037,   0.00000,   2.00000
204357228.25311,-40631330.97031,240617389.32259,   0.00110,  -0.00064,   0.00350,475484512.00000,   0.00023,274895552.00000,   0.00009,  -0.00005,   0.00038, 128.00000,   2.00000
205402001.38723,-41045397.26493,240210587.51071,   0.00110,  -0.00064,   0.00350,475470944.00000,   0.00024,274898272.00000,   0.00009,  -0.00005,   0.00038, 128.00000,   2.00000
206461746.43923,-41450851.27988,239797573.21996,   0.00111,  -0.00064,   0.00350,475476928.00000,   0.00024,274900992.00000,   0.00009,  -0.00005,   0.00038, -64.00000,   2.00000
207529887.61475,-41838646.51702,239382554.34476,   0.00112,  -0.00065,   0.00350,475474912.00000,   0.00024,274903680.00000,   0.00009,  -0.00005,   0.00039,   0.00000,   2.00000
208583024.74621,-42234259.34634,238967448.04524,   0.00112,  -0.00065,   0.00350,475468928.00000,   0.00024,274906336.00000,   0.00009,  -0.00005,   0.00039, 128.00000,   2.00000
209659437.16671,-42604023.35396,238547114.78148,   0.00113,  -0.00066,   0.00350,475473120.00000,   0.00024,274909024.00000,   0.00009,  -0.00006,   0.00039,-128.00000,   2.00000
210735922.44894,-42973448.21743,238123725.24900,   0.00114,  -0.00066,   0.00349,475473056.00000,   0.00025,274911648.00000,   0.00010,  -0.00006,   0.00040,  64.00000,   2.00000
211800656.30047,-43351710.57534,237699082.63209,   0.00114,  -0.00067,   0.00349,475459360.00000,   0.00025,274914240.00000,   0.00010,  -0.00006,   0.00040, -64.00000,   2.00000
212880355.99453,-43721487.32200,237268280.67567,   0.00115,  -0.00067,   0.00349,475465440.00000,   0.00025,274916832.00000,   0.00010,  -0.00006,   0.00040,   0.00000,   2.00000
213968250.88740,-44073726.74594,236835149.72448,   0.00116,  -0.00068,   0.00349,475463904.00000,   0.00025,274919392.00000,   0.00010,  -0.00006,   0.00041,-128.00000,   2.00000
215056192.93624,-44425767.10710,236398919.88707,   0.00117,  -0.00068,   0.00349,475463616.00000,   0.00026,274921952.00000,   0.00010,  -0.00006,   0.00041, -32.00000,   2.00000
216152480.97825,-44760382.19709,235960522.17670,   0.00117,  -0.00069,   0.00348,475461696.00000,   0.00026,274924480.00000,   0.00010,  -0.00006,   0.00042,  64.00000,   2.00000
217248708.83484,-45094836.57593,235518897.57429,   0.00118,  -0.00069,   0.00348,475461760.00000,   0.00026,274927008.00000,   0.00010,  -0.00006,   0.00042,  64.00000,   2.00000
218362880.23934,-45421822.21699,235069676.91431,   0.00119,  -0.00069,   0.00348,475460640.00000,   0.00026,274929504.00000,   0.00010,  -0.00006,   0.00042, 128.00000,   2.00000
219467250.12051,-45738803.02757,234622512.58843,   0.00119,  -0.00070,   0.00348,475459840.00000,   0.00027,274932000.00000,   0.00010,  -0.00006,   0.00043,   0.00000,   2.00000
220574865.55075,-46056711.04063,234170904.29363,   0.00120,  -0.00070,   0.00347,475452224.00000,   0.00027,274934432.00000,   0.00011,  -0.00006,   0.00043,  32.00000,   2.00000
221696991.09823,-46366270.13600,233712805.64947,   0.00121,  -0.00071,   0.00347,475458848.00000,   0.00027,274936896.00000,   0.00011,  -0.00006,   0.00043,   0.00000,   2.00000
222812754.75410,-46666947.41075,233255637.91804,   0.00121,  -0.00071,   0.00347,475450240.00000,   0.00027,274939296.00000,   0.00011,  -0.00006,   0.00044,  32.00000,   2.00000
223928397.48570,-46967679.96614,232795190.12429,   0.00122,  -0.00072,   0.00347,475450240.00000,   0.00027,274941696.00000,   0.00011,  -0.00007,   0.00044,  96.00000,   2.00000
225066737.67124,-47242869.22263,232329087.13597,   0.00123,  -0.00072,   0.00346,475454752.00000,   0.00028,274944096.00000,   0.00011,  -0.00007,   0.00044,  96.00000,   2.00000
226204870.09963,-47518128.37669,231859636.35940,   0.00123,  -0.00072,   0.00346,475454688.00000,   0.00028,274946496.00000,   0.00011,  -0.00007,   0.00045,   0.00000,   2.00000
227340089.85175,-47785603.96353,231389748.08391,   0.00124,  -0.00073,   0.00346,475438752.00000,   0.00028,274948800.00000,   0.00011,  -0.00007,   0.00045, 128.00000,   2.00000
228481111.98527,-48062047.20277,230912183.06110,   0.00125,  -0.00073,   0.00345,475447424.00000,   0.00028,274951136.00000,   0.00011,  -0.00007,   0.00045, 128.00000,   2.00000
229635362.83407,-48303189.46725,230434568.33824,   0.00125,  -0.00074,   0.00345,475450816.00000,   0.00029,274953472.00000,   0.00012,  -0.00007,   0.00045,  32.00000,   2.00000
230792714.68834,-48545408.15650,229952098.18940,   0.00126,  -0.00074,   0.00345,475443456.00000,   0.00029,274955776.00000,   0.00012,  -0.00007,   0.00046,  64.00000,   2.00000
231935404.91757,-48796135.53355,229469405.42657,   0.00127,  -0.00074,   0.00344,475436864.00000,   0.00029,274958016.00000,   0.00012,  -0.00007,   0.00046, -96.00000,   2.00000
233100664.64777,-49021377.81631,228980959.60954,   0.00127,  -0.00075,   0.00344,475441312.00000,   0.00029,274960288.00000,   0.00012,  -0.00007,   0.00046,-256.00000,   2.00000
234265805.28304,-49246762.30682,228489149.54690,   0.00128,  -0.00075,   0.00344,475441376.00000,   0.00029,274962560.00000,   0.00012,  -0.00007,   0.00047, -32.00000,   2.00000
235430661.37252,-49472234.44586,227993781.38711,   0.00129,  -0.00076,   0.00343,475441536.00000,   0.00030,274964800.00000,   0.00012,  -0.00007,   0.00047, -32.00000,   2.00000
236621356.33398,-49673098.56742,227491008.51492,   0.00130,  -0.00076,   0.00343,475439200.00000,   0.00030,274967008.00000,   0.00012,  -0.00007,   0.00047, -32.00000,   2.00000
237802789.34837,-49864266.95862,226990606.43476,   0.00130,  -0.00076,   0.00343,475437568.00000,   0.00030,274969216.00000,   0.00012,  -0.00007,   0.00048, 160.00000,   2.00000
238987447.22116,-50056413.41141,226485062.57818,   0.00131,  -0.00077,   0.00342,475430464.00000,   0.00030,274971392.00000,   0.00012,  -0.00007,   0.00048,   0.00000,   2.00000
240168739.85495,-50247645.16143,225977677.66567,   0.00132,  -0.00077,   0.00342,475437376.00000,   0.00030,274973568.00000,   0.00013,  -0.00008,   0.00048,  96.00000,   2.00000
241375909.20381,-50414130.98462,225462709.90768,   0.00132,  -0.00078,   0.00342,475435360.00000,   0.00031,274975744.00000,   0.00013,  -0.00008,   0.00048,   0.00000,   2.00000
242577599.90919,-50571840.64053,224948650.63002,   0.00133,  -0.00078,   0.00341,475426048.00000,   0.00031,274977856.00000,   0.00013,  -0.00008,   0.00049, -64.00000,   2.00000
243790038.13017,-50720041.49677,224429365.41248,   0.00134,  -0.00078,   0.00341,475440288.00000,   0.00031,274980032.00000,   0.00013,  -0.00008,   0.00049, -32.00000,   2.00000
244992024.14565,-50877631.09237,223908357.71047,   0.00134,  -0.00079,   0.00340,475426048.00000,   0.00031,274982112.00000,   0.00013,  -0.00008,   0.00049, 128.00000,   2.00000
246216527.99274,-51009401.88295,223381325.79590,   0.00135,  -0.00079,   0.00340,475431232.00000,   0.00031,274984224.00000,   0.00013,  -0.00008,   0.00050, -64.00000,   2.00000
247449752.02120,-51123885.37982,222851851.10998,   0.00136,  -0.00079,   0.00340,475429152.00000,   0.00032,274986304.00000,   0.00013,  -0.00008,   0.00050,  96.00000,   2.00000
248668933.58549,-51246749.50373,222322081.89783,   0.00136,  -0.00080,   0.00339,475422368.00000,   0.00032,274988352.00000,   0.00013,  -0.00008,   0.00050,   0.00000,   2.00000
249910448.98126,-51343820.92305,221786280.62351,   0.00137,  -0.00080,   0.00339,475427744.00000,   0.00032,274990400.00000,   0.00013,  -0.00008,   0.00050, -32.00000,   2.00000
251151436.56852,-51440796.41967,221246616.18824,   0.00138,  -0.00081,   0.00338,475428736.00000,   0.00032,274992448.00000,   0.00014,  -0.00008,   0.00051, -32.00000,   2.00000
252391629.16176,-51537768.94983,220703047.93834,   0.00139,  -0.00081,   0.00338,475430304.00000,   0.00032,274994496.00000,   0.00014,  -0.00008,   0.00051,  96.00000,   2.00000
253642309.10789,-51618534.77758,220154355.00711,   0.00139,  -0.00081,   0.00337,475423456.00000,   0.00032,274996512.00000,   0.00014,  -0.00008,   0.00051, 128.00000,   2.00000
254895873.04274,-51681183.70852,219603819.08409,   0.00140,  -0.00082,   0.00337,475431328.00000,   0.00033,274998528.00000,   0.00014,  -0.00008,   0.00051,   0.00000,   2.00000
256146440.78037,-51743977.36955,219048351.08479,   0.00141,  -0.00082,   0.00336,475435584.00000,   0.00033,275000576.00000,   0.00014,  -0.00008,   0.00052, 160.00000,   2.00000
257401562.51189,-51789754.10368,218488401.84432,   0.00141,  -0.00082,   0.00336,475438784.00000,   0.00033,275002624.00000,   0.00014,  -0.00009,   0.00052, -64.00000,   2.00000
258677571.76360,-51810962.31022,217918309.13961,   0.00142,  -0.00083,   0.00336,475443904.00000,   0.00033,275004672.00000,   0.00014,  -0.00009,   0.00052, -32.00000,   2.00000
259931384.36902,-51839973.14504,217347563.64566,   0.00143,  -0.00083,   0.00335,475450176.00000,   0.00033,275006752.00000,   0.00014,  -0.00009,   0.00052,  64.00000,   2.00000
261180610.64762,-51869090.44500,216770953.28106,   0.00143,  -0.00083,   0.00335,475456672.00000,   0.00034,275008832.00000,   0.00014,  -0.00009,   0.00053,   0.00000,   2.00000
262448807.91906,-51872271.16689,216186387.49576,   0.00144,  -0.00084,   0.00334,475467392.00000,   0.00034,275010944.00000,   0.00015,  -0.00009,   0.00053,  96.00000,   2.00000
263716618.49938,-51867212.55011,215600287.02773,   0.00145,  -0.00084,   0.00334,475451456.00000,   0.00034,275012992.00000,   0.00015,  -0.00009,   0.00053,  64.00000,   2.00000
264999408.47726,-51851767.50514,215010492.33353,   0.00145,  -0.00084,   0.00333,475461248.00000,   0.00034,275015040.00000,   0.00015,  -0.00009,   0.00054, 160.00000,   2.00000
266287914.41511,-51826785.97949,214425449.12277,   0.00146,  -0.00085,   0.00333,475439840.00000,   0.00034,275017024.00000,   0.00015,  -0.00009,   0.00054, -32.00000,   2.00000
267604167.47579,-51792342.15763,213839396.75047,   0.00147,  -0.00085,   0.00332,475430720.00000,   0.00035,275018944.00000,   0.00015,  -0.00009,   0.00054, -64.00000,   2.00000
268947451.18894,-51741859.26427,213256302.52987,   0.00148,  -0.00085,   0.00331,475401856.00000,   0.00035,275020736.00000,   0.00015,  -0.00009,   0.00054,  96.00000,   2.00000
270304272.24173,-51674145.14879,212677967.85912,   0.00148,  -0.00085,   0.00331,475392960.00000,   0.00035,275022464.00000,   0.00015,  -0.00009,   0.00054,  32.00000,   2.00000
271643428.60108,-51616245.00298,212098710.79560,   0.00149,  -0.00086,   0.00330,475388256.00000,   0.00035,275024160.00000,   0.00015,  -0.00009,   0.00055,  32.00000,   2.00000
272992252.57568,-51532723.57873,211507306.38719,   0.00150,  -0.00086,   0.00330,475409664.00000,   0.00035,275025952.00000,   0.00015,  -0.00009,   0.00055,  32.00000,   2.00000
274338166.67960,-51431884.68067,210906868.67472,   0.00150,  -0.00086,   0.00329,475423840.00000,   0.00035,275027776.00000,   0.00016,  -0.00009,   0.00055, -32.00000,   2.00000
275678065.24418,-51331063.05684,210299149.38212,   0.00151,  -0.00087,   0.00329,475432736.00000,   0.00036,275029664.00000,   0.00016,  -0.00010,   0.00055,  32.00000,   2.00000
277037637.16217,-51204625.33532,209683659.60732,   0.00152,  -0.00087,   0.00328,475442016.00000,   0.00036,275031584.00000,   0.00016,  -0.00010,   0.00056, -96.00000,   2.00000
278384092.82071,-51087384.19036,209067851.77903,   0.00153,  -0.00087,   0.00328,475434112.00000,   0.00036,275033440.00000,   0.00016,  -0.00010,   0.00056,   0.00000,   2.00000
279739315.62542,-50953451.80232,208449228.56240,   0.00153,  -0.00087,   0.00327,475431776.00000,   0.00036,275035264.00000,   0.00016,  -0.00010,   0.00056,  64.00000,   2.00000
281102911.30255,-50802716.70107,207827573.01642,   0.00154,  -0.00088,   0.00326,475429792.00000,   0.00036,275037088.00000,   0.00016,  -0.00010,   0.00056, -96.00000,   2.00000
282483861.03199,-50625369.56179,207201266.96254,   0.00155,  -0.00088,   0.00326,475443040.00000,   0.00036,275038976.00000,   0.00016,  -0.00010,   0.00057,   0.00000,   2.00000
283854702.46943,-50457857.89233,206572158.93236,   0.00155,  -0.00088,   0.00325,475429408.00000,   0.00037,275040800.00000,   0.00016,  -0.00010,   0.00057,   0.00000,   2.00000
285224500.56634,-50290377.12916,205938628.80824,   0.00156,  -0.00089,   0.00325,475430752.00000,   0.00037,275042592.00000,   0.00016,  -0.00010,   0.00057,  32.00000,   2.00000
286619784.38368,-50078837.44322,205301102.59697,   0.00157,  -0.00089,   0.00324,475442560.00000,   0.00037,275044448.00000,   0.00017,  -0.00010,   0.00057,  64.00000,   2.00000
288014114.57107,-49867338.45753,204659261.89596,   0.00157,  -0.00089,   0.00323,475444000.00000,   0.00037,275046304.00000,   0.00017,  -0.00010,   0.00057, 224.00000,   2.00000
289406929.06225,-49648486.33228,204015261.65842,   0.00158,  -0.00089,   0.00323,475428448.00000,   0.00037,275048096.00000,   0.00017,  -0.00010,   0.00058,   0.00000,   2.00000
290807558.95168,-49420214.48298,203365399.60818,   0.00159,  -0.00089,   0.00322,475444832.00000,   0.00037,275049920.00000,   0.00017,  -0.00010,   0.00058, -32.00000,   2.00000
292215905.83837,-49175129.58719,202712037.67022,   0.00160,  -0.00090,   0.00322,475444192.00000,   0.00038,275051776.00000,   0.00017,  -0.00010,   0.00058, -32.00000,   2.00000
293620347.00302,-48921748.17713,202059101.60917,   0.00160,  -0.00090,   0.00321,475433888.00000,   0.00038,275053536.00000,   0.00017,  -0.00010,   0.00058,  64.00000,   2.00000
295035308.29933,-48658000.10404,201401157.75219,   0.00161,  -0.00090,   0.00320,475447168.00000,   0.00038,275055392.00000,   0.00017,  -0.00011,   0.00058,  32.00000,   2.00000
296476027.36892,-48359343.30725,200740385.82508,   0.00162,  -0.00090,   0.00320,475430944.00000,   0.00038,275057152.00000,   0.00017,  -0.00011,   0.00059, -32.00000,   2.00000
297920005.74356,-48057877.96831,200080837.36697,   0.00162,  -0.00091,   0.00319,475428448.00000,   0.00038,275058880.00000,   0.00017,  -0.00011,   0.00059,  32.00000,   2.00000
299373136.45951,-47756707.38876,199417828.96904,   0.00163,  -0.00091,   0.00318,475414240.00000,   0.00038,275060576.00000,   0.00018,  -0.00011,   0.00059,  32.00000,   2.00000
300841500.39114,-47421426.10654,198756474.16743,   0.00164,  -0.00091,   0.00318,475413120.00000,   0.00039,275062240.00000,   0.00018,  -0.00011,   0.00059, 128.00000,   2.00000
302317071.51854,-47079620.83042,198085719.59117,   0.00165,  -0.00091,   0.00317,475427552.00000,   0.00039,275063968.00000,   0.00018,  -0.00011,   0.00059,-128.00000,   2.00000
303771753.58763,-46749258.03438,197411082.75215,   0.00165,  -0.00091,   0.00316,475430464.00000,   0.00039,275065696.00000,   0.00018,  -0.00011,   0.00060,  64.00000,   2.00000
305231742.23724,-46385707.45767,196732785.90618,   0.00166,  -0.00092,   0.00316,475444320.00000,   0.00039,275067456.00000,   0.00018,  -0.00011,   0.00060,  32.00000,   2.00000
306689034.82828,-46024152.92288,196044993.28228,   0.00167,  -0.00092,   0.00315,475447808.00000,   0.00039,275069216.00000,   0.00018,  -0.00011,   0.00060,   0.00000,   2.00000
308159125.45508,-45636235.51197,195350630.72430,   0.00167,  -0.00092,   0.00314,475467584.00000,   0.00039,275071072.00000,   0.00018,  -0.00011,   0.00060,   0.00000,   2.00000
309623965.79604,-45239774.17906,194655771.54878,   0.00168,  -0.00092,   0.00314,475460160.00000,   0.00039,275072864.00000,   0.00018,  -0.00011,   0.00061, 128.00000,   2.00000
311108451.09853,-44817082.53184,193953410.88244,   0.00169,  -0.00092,   0.00313,475469472.00000,   0.00040,275074688.00000,   0.00018,  -0.00011,   0.00061,   0.00000,   2.00000
312580699.16597,-44402777.44355,193250534.53185,   0.00169,  -0.00093,   0.00312,475461664.00000,   0.00040,275076480.00000,   0.00019,  -0.00011,   0.00061,  32.00000,   2.00000
314073243.10437,-43962175.52790,192540537.33710,   0.00170,  -0.00093,   0.00311,475469728.00000,   0.00040,275078304.00000,   0.00019,  -0.00011,   0.00061,   0.00000,   2.00000
315558642.89770,-43512004.27884,191833417.46612,   0.00171,  -0.00093,   0.00311,475465888.00000,   0.00040,275080096.00000,   0.00019,  -0.00011,   0.00061,  64.00000,   2.00000
317055209.57173,-43052828.85025,191118235.67711,   0.00172,  -0.00093,   0.00310,475476416.00000,   0.00040,275081920.00000,   0.00019,  -0.00012,   0.00062, -32.00000,   2.00000
318559700.48181,-42576289.63102,190399475.51340,   0.00172,  -0.00093,   0.00309,475475904.00000,   0.00040,275083744.00000,   0.00019,  -0.00012,   0.00062,  32.00000,   2.00000
320076878.18414,-42064415.49079,189680422.04608,   0.00173,  -0.00093,   0.00309,475479808.00000,   0.00041,275085568.00000,   0.00019,  -0.00012,   0.00062, -64.00000,   2.00000
321576024.96783,-41579312.33953,188957053.17487,   0.00174,  -0.00093,   0.00308,475468672.00000,   0.00041,275087360.00000,   0.00019,  -0.00012,   0.00062, -64.00000,   2.00000
323098919.09032,-41050189.92964,188229424.16513,   0.00174,  -0.00094,   0.00307,475482464.00000,   0.00041,275089184.00000,   0.00019,  -0.00012,   0.00062, -32.00000,   2.00000
324628852.39514,-40503947.87137,187497860.59254,   0.00175,  -0.00094,   0.00306,475483072.00000,   0.00041,275091008.00000,   0.00020,  -0.00012,   0.00063,   0.00000,   2.00000
326152717.09555,-39956932.94805,186763896.14651,   0.00176,  -0.00094,   0.00306,475492320.00000,   0.00041,275092864.00000,   0.00020,  -0.00012,   0.00063, -32.00000,   2.00000
327686749.19122,-39393631.83404,186023032.71544,   0.00177,  -0.00094,   0.00305,475487680.00000,   0.00041,275094688.00000,   0.00020,  -0.00012,   0.00063,  32.00000,   2.00000
329223270.09155,-38812468.48492,185280554.79532,   0.00177,  -0.00094,   0.00304,475495104.00000,   0.00042,275096544.00000,   0.00020,  -0.00012,   0.00063, -32.00000,   2.00000
330757027.94135,-38231457.02447,184532889.80966,   0.00178,  -0.00094,   0.00303,475498976.00000,   0.00042,275098400.00000,   0.00020,  -0.00012,   0.00063,  96.00000,   2.00000
332312785.79035,-37606632.10384,183780460.43751,   0.00179,  -0.00094,   0.00303,475514336.00000,   0.00042,275100320.00000,   0.00020,  -0.00012,   0.00064, -64.00000,   2.00000
333854496.16664,-36990815.80602,183026624.31652,   0.00179,  -0.00094,   0.00302,475508896.00000,   0.00042,275102208.00000,   0.00020,  -0.00012,   0.00064,  64.00000,   2.00000
335401851.94284,-36357979.49487,182268225.39608,   0.00180,  -0.00094,   0.00301,475511200.00000,   0.00042,275104128.00000,   0.00020,  -0.00012,   0.00064, -32.00000,   2.00000
336954800.19229,-35708128.20412,181505232.73437,   0.00181,  -0.00094,   0.00300,475513440.00000,   0.00043,275106016.00000,   0.00021,  -0.00013,   0.00064,-128.00000,   2.00000
338520598.85247,-35031819.25203,180736742.00881,   0.00182,  -0.00095,   0.00299,475531200.00000,   0.00043,275107968.00000,   0.00021,  -0.00013,   0.00064,   0.00000,   2.00000
340081156.84411,-34347279.37811,179967487.34387,   0.00182,  -0.00095,   0.00299,475523840.00000,   0.00043,275109920.00000,   0.00021,  -0.00013,   0.00065,-128.00000,   2.00000
341634998.29957,-33662303.88163,179195875.84224,   0.00183,  -0.00095,   0.00298,475533504.00000,   0.00043,275111872.00000,   0.00021,  -0.00013,   0.00065, -32.00000,   2.00000
343209228.62004,-32952332.66556,178413158.36933,   0.00184,  -0.00095,   0.00297,475540256.00000,   0.00043,275113856.00000,   0.00021,  -0.00013,   0.00065,  64.00000,   2.00000
344774676.54574,-32233381.99446,177632538.05050,   0.00184,  -0.00095,   0.00296,475538336.00000,   0.00043,275115808.00000,   0.00021,  -0.00013,   0.00065,  64.00000,   2.00000
346352892.77067,-31488053.70218,176846574.66316,   0.00185,  -0.00095,   0.00295,475556160.00000,   0.00044,275117856.00000,   0.00021,  -0.00013,   0.00066,   0.00000,   2.00000
347937202.03121,-30725763.17187,176056264.52517,   0.00186,  -0.00095,   0.00295,475558368.00000,   0.00044,275119904.00000,   0.00022,  -0.00013,   0.00066,   0.00000,   2.00000
349517053.11499,-29955167.65575,175265342.80026,   0.00187,  -0.00095,   0.00294,475550624.00000,   0.00044,275121888.00000,   0.00022,  -0.00013,   0.00066,   0.00000,   2.00000
351104675.05968,-29176109.23509,174465551.29730,   0.00187,  -0.00095,   0.00293,475564832.00000,   0.00044,275123936.00000,   0.00022,  -0.00013,   0.00066, -96.00000,   2.00000
352692990.59729,-28370804.16596,173668829.62552,   0.00188,  -0.00095,   0.00292,475560672.00000,   0.00044,275125952.00000,   0.00022,  -0.00013,   0.00066, 224.00000,   2.00000
354288769.68397,-27557001.49138,172863173.33820,   0.00189,  -0.00095,   0.00291,475575232.00000,   0.00045,275128000.00000,   0.00022,  -0.00013,   0.00067,  32.00000,   2.00000
355886567.25555,-26725486.99451,172056048.11514,   0.00190,  -0.00095,   0.00290,475583168.00000,   0.00045,275130112.00000,   0.00022,  -0.00014,   0.00067, -96.00000,   2.00000
357490282.59902,-25876907.76630,171244545.67230,   0.00190,  -0.00095,   0.00290,475585792.00000,   0.00045,275132224.00000,   0.00023,  -0.00014,   0.00067, -32.00000,   2.00000
359085649.65164,-25019268.26535,170435332.82188,   0.00191,  -0.00095,   0.00289,475584000.00000,   0.00045,275134304.00000,   0.00023,  -0.00014,   0.00067,  32.00000,   2.00000
360696529.69854,-24135843.14850,169617753.22406,   0.00192,  -0.00095,   0.00288,475597504.00000,   0.00045,275136416.00000,   0.00023,  -0.00014,   0.00067,  32.00000,   2.00000
362304013.15324,-23252584.28023,168794974.97053,   0.00192,  -0.00095,   0.00287,475602624.00000,   0.00045,275138560.00000,   0.00023,  -0.00014,   0.00068,  64.00000,   2.00000
363921443.82709,-22334323.57797,167971208.62880,   0.00193,  -0.00095,   0.00286,475609888.00000,   0.00046,275140736.00000,   0.00023,  -0.00014,   0.00068,  64.00000,   2.00000
365535016.07198,-21416227.71508,167142095.56313,   0.00194,  -0.00095,   0.00285,475615424.00000,   0.00046,275142912.00000,   0.00023,  -0.00014,   0.00068,-160.00000,   2.00000
367158311.32677,-20463183.29161,166311971.69279,   0.00195,  -0.00095,   0.00285,475623040.00000,   0.00046,275145120.00000,   0.00023,  -0.00014,   0.00068,-160.00000,   2.00000
368777694.09184,-19510385.82331,165476541.09774,   0.00195,  -0.00095,   0.00284,475628640.00000,   0.00046,275147328.00000,   0.00024,  -0.00014,   0.00069,  32.00000,   2.00000
370401542.42758,-18540532.38831,164636258.17885,   0.00196,  -0.00095,   0.00283,475633024.00000,   0.00047,275149568.00000,   0.00024,  -0.00014,   0.00069, -96.00000,   2.00000
372026085.00932,-17553141.80461,163794323.39063,   0.00197,  -0.00095,   0.00282,475642400.00000,   0.00047,275151808.00000,   0.00024,  -0.00014,   0.00069,  96.00000,   2.00000
373651119.11724,-16548264.44786,162950685.59355,   0.00197,  -0.00095,   0.00281,475651968.00000,   0.00047,275154112.00000,   0.00024,  -0.00015,   0.00069, -64.00000,   2.00000
375280495.19200,-15526508.93049,162102211.08725,   0.00198,  -0.00095,   0.00280,475656384.00000,   0.00047,275156384.00000,   0.00024,  -0.00015,   0.00069,  64.00000,   2.00000
376905278.31940,-14505215.76648,161248241.48421,   0.00199,  -0.00095,   0.00279,475662528.00000,   0.00047,275158720.00000,   0.00025,  -0.00015,   0.00070,   0.00000,   2.00000
378538812.82191,-13449311.51218,160393036.52800,   0.00200,  -0.00095,   0.00278,475670592.00000,   0.00048,275161056.00000,   0.00025,  -0.00015,   0.00070, -96.00000,   2.00000
380172517.30327,-12376230.36640,159536120.32210,   0.00200,  -0.00095,   0.00278,475680288.00000,   0.00048,275163424.00000,   0.00025,  -0.00015,   0.00070,  32.00000,   2.00000
381801618.92883,-11303862.75195,158673753.18935,   0.00201,  -0.00095,   0.00277,475686240.00000,   0.00048,275165824.00000,   0.00025,  -0.00015,   0.00070,  96.00000,   2.00000
383452201.61377,-10189095.54315,157803089.62599,   0.00202,  -0.00095,   0.00276,475700768.00000,   0.00048,275168256.00000,   0.00025,  -0.00015,   0.00071, 128.00000,   2.00000
385085115.17429,-9083210.03628,156933985.09685,   0.00202,  -0.00094,   0.00275,475700864.00000,   0.00048,275170688.00000,   0.00025,  -0.00015,   0.00071,  96.00000,   2.00000
386717930.11728,-7960439.79414,156063215.67272,   0.00203,  -0.00094,   0.00274,475710656.00000,   0.00049,275173152.00000,   0.00026,  -0.00015,   0.00071,  96.00000,   2.00000
388353781.57024,-6821221.43660,155187313.14380,   0.00204,  -0.00094,   0.00273,475716256.00000,   0.00049,275175648.00000,   0.00026,  -0.00015,   0.00071, -32.00000,   2.00000
390000475.73029,-5648196.14502,154306570.92724,   0.00205,  -0.00094,   0.00272,475721472.00000,   0.00049,275178144.00000,   0.00026,  -0.00016,   0.00072, -64.00000,   2.00000
391633061.46619,-4475333.54797,153426806.92343,   0.00205,  -0.00094,   0.00271,475739520.00000,   0.00049,275180704.00000,   0.00026,  -0.00016,   0.00072,  32.00000,   2.00000
393279601.96431,-3278054.69754,152534428.40877,   0.00206,  -0.00094,   0.00270,475753728.00000,   0.00050,275183296.00000,   0.00027,  -0.00016,   0.00072, -64.00000,   2.00000
394911956.36337,-2072011.47513,151647190.56958,   0.00207,  -0.00094,   0.00269,475759104.00000,   0.00050,275185920.00000,   0.00027,  -0.00016,   0.00072,   0.00000,   2.00000
396546653.86916,-849627.95566,150754612.01112,   0.00208,  -0.00094,   0.00269,475765600.00000,   0.00050,275188576.00000,   0.00027,  -0.00016,   0.00073, -96.00000,   2.00000
398175785.46910,371637.04588,149856523.78569,   0.00208,  -0.00094,   0.00268,475772928.00000,   0.00050,275191232.00000,   0.00027,  -0.00016,   0.00073, -32.00000,   2.00000
399820314.05880,1635097.24203,148953357.38232,   0.00209,  -0.00093,   0.00267,475794752.00000,   0.00051,275193952.00000,   0.00027,  -0.00016,   0.00073,  96.00000,   2.00000
401454509.25736,2906837.64190,148052029.10377,   0.00210,  -0.00093,   0.00266,475795200.00000,   0.00051,275196704.00000,   0.00028,  -0.00016,   0.00073, -64.00000,   2.00000
403090231.61034,4194788.91714,147145351.84010,   0.00210,  -0.00093,   0.00265,475802816.00000,   0.00051,275199456.00000,   0.00028,  -0.00016,   0.00074,   0.00000,   2.00000
404723493.88001,5499233.75095,146236780.70587,   0.00211,  -0.00093,   0.00264,475815328.00000,   0.00051,275202240.00000,   0.00028,  -0.00016,   0.00074,  64.00000,   2.00000
406349904.75585,6802490.32002,145322553.31760,   0.00212,  -0.00093,   0.00263,475823808.00000,   0.00052,275205056.00000,   0.00028,  -0.00017,   0.00074,-128.00000,   2.00000
407986552.34271,8148002.75095,144406716.95989,   0.00213,  -0.00093,   0.00262,475851744.00000,   0.00052,275207968.00000,   0.00029,  -0.00017,   0.00074,-160.00000,   2.00000
409620581.58009,9501401.08823,143485679.56368,   0.00213,  -0.00092,   0.00261,475842816.00000,   0.00052,275210848.00000,   0.00029,  -0.00017,   0.00075,  96.00000,   2.00000
411240957.13882,10854084.33709,142566352.65579,   0.00214,  -0.00092,   0.00260,475859968.00000,   0.00052,275213760.00000,   0.00029,  -0.00017,   0.00075,  32.00000,   2.00000
412871369.28094,12240489.49712,141642065.75190,   0.00215,  -0.00092,   0.00259,475866336.00000,   0.00053,275216736.00000,   0.00029,  -0.00017,   0.00075, -32.00000,   2.00000
414492296.61811,13625960.38162,140716132.28853,   0.00215,  -0.00092,   0.00258,475878464.00000,   0.00053,275219712.00000,   0.00030,  -0.00017,   0.00075, -32.00000,   2.00000
416123170.65812,15045216.31032,139785250.44846,   0.00216,  -0.00092,   0.00257,475884992.00000,   0.00053,275222720.00000,   0.00030,  -0.00017,   0.00076,  32.00000,   2.00000
417752072.70094,16471524.58199,138849207.98260,   0.00217,  -0.00091,   0.00256,475908992.00000,   0.00054,275225792.00000,   0.00030,  -0.00017,   0.00076, 128.00000,   2.00000
419379481.27798,17923831.21808,137915517.35537,   0.00218,  -0.00091,   0.00255,475908224.00000,   0.00054,275228896.00000,   0.00030,  -0.00018,   0.00076,  32.00000,   2.00000
421000717.42519,19375013.25736,136976642.13418,   0.00218,  -0.00091,   0.00254,475916128.00000,   0.00054,275231968.00000,   0.00031,  -0.00018,   0.00076, 128.00000,   2.00000
422627524.25960,20860091.62656,136036505.75890,   0.00219,  -0.00091,   0.00254,475927872.00000,   0.00054,275235104.00000,   0.00031,  -0.00018,   0.00077,  64.00000,   2.00000
424243888.72688,22344068.60869,135094847.73333,   0.00220,  -0.00090,   0.00253,475940544.00000,   0.00055,275238304.00000,   0.00031,  -0.00018,   0.00077, -64.00000,   2.00000
425857465.54075,23844287.72336,134151837.30253,   0.00221,  -0.00090,   0.00252,475953248.00000,   0.00055,275241504.00000,   0.00031,  -0.00018,   0.00077,  64.00000,   2.00000
427478861.84215,25377947.94766,133203666.24314,   0.00221,  -0.00090,   0.00251,475962080.00000,   0.00055,275244736.00000,   0.00032,  -0.00018,   0.00077, -32.00000,   2.00000
429088721.41767,26910085.29385,132253929.53427,   0.00222,  -0.00090,   0.00250,475975968.00000,   0.00056,275248032.00000,   0.00032,  -0.00018,   0.00078,  64.00000,   2.00000
430701953.87679,28475443.06347,131302710.53298,   0.00223,  -0.00089,   0.00249,475989664.00000,   0.00056,275251360.00000,   0.00032,  -0.00018,   0.00078,  32.00000,   2.00000
432306364.68884,30038820.54097,130346036.26847,   0.00223,  -0.00089,   0.00248,476000320.00000,   0.00056,275254720.00000,   0.00033,  -0.00019,   0.00078, 128.00000,   2.00000
433913219.04556,31635051.47027,129387743.46589,   0.00224,  -0.00089,   0.00247,476015008.00000,   0.00056,275258144.00000,   0.00033,  -0.00019,   0.00079,  64.00000,   2.00000
435507034.37886,33229024.53934,128427732.86157,   0.00225,  -0.00089,   0.00246,476030336.00000,   0.00057,275261600.00000,   0.00033,  -0.00019,   0.00079, 128.00000,   2.00000
437095329.44279,34838048.84573,127466062.63834,   0.00226,  -0.00088,   0.00245,476045600.00000,   0.00057,275265088.00000,   0.00033,  -0.00019,   0.00079,  64.00000,   2.00000
438685399.83523,36479429.75970,126502705.62748,   0.00226,  -0.00088,   0.00244,476060896.00000,   0.00057,275268672.00000,   0.00034,  -0.00019,   0.00079,-128.00000,   2.00000
440259454.30821,38110577.66346,125537260.08320,   0.00227,  -0.00088,   0.00243,476059616.00000,   0.00058,275272192.00000,   0.00034,  -0.00019,   0.00080, -32.00000,   2.00000
441841803.69657,39781423.23871,124566728.99930,   0.00228,  -0.00087,   0.00242,476087520.00000,   0.00058,275275840.00000,   0.00034,  -0.00019,   0.00080,   0.00000,   2.00000
443411055.19999,41449435.45268,123594564.39607,   0.00228,  -0.00087,   0.00241,476102656.00000,   0.00058,275279520.00000,   0.00035,  -0.00020,   0.00080, -64.00000,   2.00000
444985800.46386,43149530.19081,122616872.49016,   0.00229,  -0.00087,   0.00240,476113856.00000,   0.00059,275283232.00000,   0.00035,  -0.00020,   0.00081,  32.00000,   2.00000
446538535.27880,44839360.72513,121645088.62112,   0.00230,  -0.00086,   0.00239,476119648.00000,   0.00059,275286944.00000,   0.00035,  -0.00020,   0.00081, 160.00000,   2.00000
448095641.50575,46551205.95692,120664444.46480,   0.00231,  -0.00086,   0.00238,476143104.00000,   0.00059,275290752.00000,   0.00036,  -0.00020,   0.00081,  64.00000,   2.00000
449649433.75528,48287849.83879,119685800.16400,   0.00231,  -0.00086,   0.00237,476144608.00000,   0.00060,275294560.00000,   0.00036,  -0.00020,   0.00081, 128.00000,   2.00000
451204115.47919,50046388.57743,118702383.10696,   0.00232,  -0.00085,   0.00236,476171808.00000,   0.00060,275298464.00000,   0.00036,  -0.00020,   0.00082,  96.00000,   2.00000
452741311.30076,51794930.78156,117721233.02650,   0.00233,  -0.00085,   0.00235,476172576.00000,   0.00061,275302336.00000,   0.00037,  -0.00020,   0.00082, 192.00000,   2.00000
454289837.56816,53582896.41089,116731372.64475,   0.00233,  -0.00085,   0.00234,476196128.00000,   0.00061,275306304.00000,   0.00037,  -0.00021,   0.00082, 128.00000,   2.00000
455817189.36356,55360861.24635,115747838.22426,   0.00234,  -0.00084,   0.00233,476200672.00000,   0.00061,275310272.00000,   0.00038,  -0.00021,   0.00083, -64.00000,   2.00000
457350021.88187,57171103.61148,114759105.15002,   0.00235,  -0.00084,   0.00232,476211296.00000,   0.00062,275314272.00000,   0.00038,  -0.00021,   0.00083, -32.00000,   2.00000
458870411.07613,58978581.03917,113769482.30546,   0.00236,  -0.00084,   0.00231,476225216.00000,   0.00062,275318336.00000,   0.00038,  -0.00021,   0.00083, -96.00000,   2.00000
460397571.95145,60825161.73709,112775531.05192,   0.00236,  -0.00083,   0.00230,476253088.00000,   0.00062,275322496.00000,   0.00039,  -0.00021,   0.00084,-192.00000,   2.00000
461913146.67485,62679245.52319,111783979.46241,   0.00237,  -0.00083,   0.00229,476255232.00000,   0.00063,275326624.00000,   0.00039,  -0.00021,   0.00084, -32.00000,   2.00000
463415347.09277,64530330.12109,110791804.11243,   0.00238,  -0.00082,   0.00228,476270048.00000,   0.00063,275330816.00000,   0.00039,  -0.00021,   0.00084, 192.00000,   2.00000
464916665.01536,66413116.62376,109798538.39658,   0.00238,  -0.00082,   0.00227,476286912.00000,   0.00064,275335072.00000,   0.00040,  -0.00022,   0.00084, -64.00000,   2.00000
466413903.96756,68310181.46299,108800508.85924,   0.00239,  -0.00082,   0.00226,476299616.00000,   0.00064,275339328.00000,   0.00040,  -0.00022,   0.00085, -32.00000,   2.00000
467892674.40834,70203552.71615,107806089.78826,   0.00240,  -0.00081,   0.00225,476319584.00000,   0.00064,275343680.00000,   0.00041,  -0.00022,   0.00085,  96.00000,   2.00000
469367573.50435,72121408.20024,106809771.24372,   0.00241,  -0.00081,   0.00224,476321440.00000,   0.00065,275348032.00000,   0.00041,  -0.00022,   0.00085,   0.00000,   2.00000
470838154.23606,74059462.77079,105809703.13614,   0.00241,  -0.00080,   0.00223,476352800.00000,   0.00065,275352480.00000,   0.00042,  -0.00022,   0.00086, -64.00000,   2.00000
472298748.47485,76010621.87727,104808972.35770,   0.00242,  -0.00080,   0.00222,476371968.00000,   0.00066,275356992.00000,   0.00042,  -0.00022,   0.00086, -32.00000,   2.00000
473741340.06240,77967762.07830,103814899.25477,   0.00243,  -0.00079,   0.00221,476381344.00000,   0.00066,275361504.00000,   0.00042,  -0.00023,   0.00086, 128.00000,   2.00000
475181325.84440,79944293.25892,102812888.73791,   0.00243,  -0.00079,   0.00220,476411168.00000,   0.00066,275366144.00000,   0.00043,  -0.00023,   0.00087,  32.00000,   2.00000
476606110.03423,81926545.00385,101813185.86905,   0.00244,  -0.00079,   0.00219,476418176.00000,   0.00067,275370784.00000,   0.00043,  -0.00023,   0.00087,  96.00000,   2.00000
478013991.43505,83903504.90087,100812991.18562,   0.00245,  -0.00078,   0.00218,476437472.00000,   0.00067,275375456.00000,   0.00044,  -0.00023,   0.00087,  64.00000,   2.00000
479422294.58787,85916115.59364,99808828.99682,   0.00246,  -0.00078,   0.00217,476472576.00000,   0.00068,275380256.00000,   0.00044,  -0.00023,   0.00088, 128.00000,   2.00000
480818986.41132,87934203.78441,98802456.71628,   0.00246,  -0.00077,   0.00216,476476576.00000,   0.00068,275385056.00000,   0.00045,  -0.00023,   0.00088, 192.00000,   2.00000
482208929.92908,89980831.30892,97799232.06261,   0.00247,  -0.00077,   0.00215,476501120.00000,   0.00069,275389920.00000,   0.00045,  -0.00024,   0.00088,  32.00000,   2.00000
483582789.28736,92021395.33706,96795294.99768,   0.00248,  -0.00076,   0.00214,476520032.00000,   0.00069,275394848.00000,   0.00046,  -0.00024,   0.00088, -64.00000,   2.00000
484947571.74071,94073174.50723,95790444.27216,   0.00248,  -0.00076,   0.00213,476539488.00000,   0.00070,275399808.00000,   0.00046,  -0.00024,   0.00089, 128.00000,   2.00000
486302806.84155,96135954.60318,94784523.19600,   0.00249,  -0.00075,   0.00212,476559200.00000,   0.00070,275404832.00000,   0.00047,  -0.00024,   0.00089,  96.00000,   2.00000
487644977.09309,98203569.03402,93780458.22850,   0.00250,  -0.00075,   0.00211,476564448.00000,   0.00070,275409856.00000,   0.00047,  -0.00024,   0.00089,  64.00000,   2.00000
488981882.16116,100287886.97901,92772594.39435,   0.00251,  -0.00074,   0.00210,476597472.00000,   0.00071,275414976.00000,   0.00048,  -0.00024,   0.00090, 160.00000,   2.00000
490307820.44364,102376978.04651,91762143.36436,   0.00251,  -0.00074,   0.00209,476600064.00000,   0.00071,275420096.00000,   0.00048,  -0.00025,   0.00090,   0.00000,   2.00000
491630315.48544,104498948.29067,90752062.16790,   0.00252,  -0.00073,   0.00208,476637792.00000,   0.00072,275425344.00000,   0.00049,  -0.00025,   0.00090, -96.00000,   2.00000
492932427.89390,106607591.35514,89744286.97133,   0.00253,  -0.00073,   0.00207,476642144.00000,   0.00072,275430560.00000,   0.00049,  -0.00025,   0.00091,  96.00000,   2.00000
494222771.00584,108725650.96458,88735707.01332,   0.00253,  -0.00072,   0.00206,476662560.00000,   0.00073,275435840.00000,   0.00050,  -0.00025,   0.00091,  96.00000,   2.00000
495509958.20956,110875598.47924,87723335.25131,   0.00254,  -0.00071,   0.00205,476699168.00000,   0.00073,275441280.00000,   0.00050,  -0.00025,   0.00091, -96.00000,   2.00000
496775235.25298,113011527.53735,86713474.19377,   0.00255,  -0.00071,   0.00204,476704640.00000,   0.00074,275446688.00000,   0.00051,  -0.00025,   0.00092,   0.00000,   2.00000
498024072.55675,115150667.96555,85705782.97192,   0.00255,  -0.00070,   0.00203,476712064.00000,   0.00074,275452096.00000,   0.00051,  -0.00026,   0.00092,   0.00000,   2.00000
499268237.52010,117320993.04942,84694504.70268,   0.00256,  -0.00070,   0.00202,476749856.00000,   0.00075,275457632.00000,   0.00052,  -0.00026,   0.00092,-192.00000,   2.00000
500494291.56492,119482914.55131,83683295.17947,   0.00257,  -0.00069,   0.00201,476769216.00000,   0.00075,275463232.00000,   0.00052,  -0.00026,   0.00093,  64.00000,   2.00000
501706964.27075,121665168.48515,82678439.19321,   0.00258,  -0.00069,   0.00200,476781152.00000,   0.00076,275468864.00000,   0.00053,  -0.00026,   0.00093, -96.00000,   2.00000
502908371.90530,123845260.73566,81666698.35448,   0.00258,  -0.00068,   0.00199,476811008.00000,   0.00076,275474560.00000,   0.00054,  -0.00026,   0.00093, -64.00000,   2.00000
504100526.04622,126046881.01661,80657045.02262,   0.00259,  -0.00067,   0.00198,476819168.00000,   0.00077,275480288.00000,   0.00054,  -0.00026,   0.00094,  64.00000,   2.00000
505274185.78630,128240896.97438,79652416.62558,   0.00260,  -0.00067,   0.00197,476838848.00000,   0.00077,275486048.00000,   0.00055,  -0.00027,   0.00094,  32.00000,   2.00000
506444746.09881,130462328.64572,78643070.24057,   0.00260,  -0.00066,   0.00196,476858240.00000,   0.00078,275491872.00000,   0.00055,  -0.00027,   0.00094, -32.00000,   2.00000
507601709.64479,132693008.38196,77638707.17883,   0.00261,  -0.00065,   0.00195,476880384.00000,   0.00079,275497760.00000,   0.00056,  -0.00027,   0.00095,  64.00000,   2.00000
508741984.98269,134915885.31052,76635386.38825,   0.00262,  -0.00065,   0.00194,476898496.00000,   0.00079,275503712.00000,   0.00057,  -0.00027,   0.00095, -32.00000,   2.00000
509874186.04168,137164230.74169,75632355.22492,   0.00262,  -0.00064,   0.00193,476922848.00000,   0.00080,275509728.00000,   0.00057,  -0.00027,   0.00095,  96.00000,   2.00000
510989745.69176,139415505.50078,74632539.97282,   0.00263,  -0.00064,   0.00192,476931744.00000,   0.00080,275515712.00000,   0.00058,  -0.00027,   0.00095, 224.00000,   2.00000
512087656.31730,141661498.37422,73631488.34197,   0.00264,  -0.00063,   0.00191,476967968.00000,   0.00081,275521856.00000,   0.00058,  -0.00028,   0.00096, -32.00000,   2.00000
513172048.58963,143926302.93169,72633077.71023,   0.00264,  -0.00062,   0.00191,476981056.00000,   0.00081,275527968.00000,   0.00059,  -0.00028,   0.00096, -64.00000,   2.00000
514238302.58537,146196932.90517,71639910.52961,   0.00265,  -0.00062,   0.00190,477008480.00000,   0.00082,275534176.00000,   0.00060,  -0.00028,   0.00096,  32.00000,   2.00000
515291185.80575,148474242.87472,70642612.39855,   0.00266,  -0.00061,   0.00189,477031328.00000,   0.00082,275540448.00000,   0.00060,  -0.00028,   0.00097, -32.00000,   2.00000
516322344.90914,150740640.48109,69650847.94967,   0.00267,  -0.00060,   0.00188,477054816.00000,   0.00083,275546784.00000,   0.00061,  -0.00028,   0.00097,   0.00000,   2.00000
517343819.28148,153030443.23473,68659036.91092,   0.00267,  -0.00060,   0.00187,477081216.00000,   0.00084,275553184.00000,   0.00062,  -0.00028,   0.00097, 160.00000,   2.00000
518351493.45511,155326859.18311,67667564.09635,   0.00268,  -0.00059,   0.00186,477104064.00000,   0.00084,275559648.00000,   0.00062,  -0.00029,   0.00098,  64.00000,   2.00000
519343828.05448,157625794.57241,66678637.66864,   0.00269,  -0.00058,   0.00185,477111744.00000,   0.00085,275566080.00000,   0.00063,  -0.00029,   0.00098,   0.00000,   2.00000
520321248.66469,159930954.40755,65694789.13196,   0.00269,  -0.00058,   0.00184,477135584.00000,   0.00085,275572608.00000,   0.00064,  -0.00029,   0.00098, -32.00000,   2.00000
521287881.32196,162243039.59704,64706694.69532,   0.00270,  -0.00057,   0.00183,477155104.00000,   0.00086,275579168.00000,   0.00064,  -0.00029,   0.00099,  32.00000,   2.00000
522235418.17288,164544184.96534,63724330.75136,   0.00271,  -0.00056,   0.00182,477175776.00000,   0.00087,275585792.00000,   0.00065,  -0.00029,   0.00099,  64.00000,   2.00000
523173325.13264,166867735.81783,62742120.70632,   0.00271,  -0.00055,   0.00181,477201568.00000,   0.00087,275592480.00000,   0.00066,  -0.00029,   0.00099,   0.00000,   2.00000
524097038.58655,169196566.11088,61760664.63030,   0.00272,  -0.00055,   0.00180,477224512.00000,   0.00088,275599232.00000,   0.00067,  -0.00029,   0.00099, -96.00000,   2.00000
525004387.92197,171526588.33381,60782159.26011,   0.00273,  -0.00054,   0.00179,477233248.00000,   0.00089,275605952.00000,   0.00067,  -0.00030,   0.00100,  32.00000,   2.00000
525896000.21622,173864239.80458,59807331.88080,   0.00273,  -0.00053,   0.00178,477273952.00000,   0.00089,275612832.00000,   0.00068,  -0.00030,   0.00100,-160.00000,   2.00000
526770591.49017,176202570.09405,58835683.99729,   0.00274,  -0.00052,   0.00177,477283616.00000,   0.00090,275619680.00000,   0.00069,  -0.00030,   0.00100, 128.00000,   2.00000
527628816.36828,178544765.49969,57865210.17485,   0.00275,  -0.00052,   0.00176,477308448.00000,   0.00090,275626624.00000,   0.00069,  -0.00030,   0.00101,-128.00000,   2.00000
528467857.51931,180874446.44626,56896571.91582,   0.00275,  -0.00051,   0.00175,477329344.00000,   0.00091,275633600.00000,   0.00070,  -0.00030,   0.00101,   0.00000,   2.00000
529294063.00832,183224144.60786,55928779.80643,   0.00276,  -0.00050,   0.00174,477358112.00000,   0.00092,275640640.00000,   0.00071,  -0.00030,   0.00101,  32.00000,   2.00000
530100944.98458,185573609.44014,54969014.39682,   0.00277,  -0.00049,   0.00173,477370016.00000,   0.00092,275647712.00000,   0.00072,  -0.00030,   0.00102, 192.00000,   2.00000
530893034.36467,187929508.41996,54008776.87630,   0.00277,  -0.00049,   0.00172,477409600.00000,   0.00093,275654880.00000,   0.00073,  -0.00031,   0.00102, -32.00000,   2.00000
531668242.28497,190285528.03037,53051904.66135,   0.00278,  -0.00048,   0.00171,477419680.00000,   0.00094,275662048.00000,   0.00073,  -0.00031,   0.00102,  96.00000,   2.00000
532427239.07666,192644382.09053,52096569.86849,   0.00279,  -0.00047,   0.00170,477444992.00000,   0.00094,275669312.00000,   0.00074,  -0.00031,   0.00102,   0.00000,   2.00000
533165400.87370,194989232.26905,51148176.12528,   0.00279,  -0.00046,   0.00169,477468096.00000,   0.00095,275676576.00000,   0.00075,  -0.00031,   0.00103, 224.00000,   2.00000
533888797.10856,197349770.02120,50202745.85509,   0.00280,  -0.00045,   0.00168,477483648.00000,   0.00096,275683904.00000,   0.00076,  -0.00031,   0.00103, 128.00000,   2.00000
534596673.99308,199715173.21311,49257420.69378,   0.00281,  -0.00045,   0.00167,477524576.00000,   0.00096,275691328.00000,   0.00076,  -0.00031,   0.00103, -64.00000,   2.00000
535286762.94103,202079795.90803,48315691.83477,   0.00281,  -0.00044,   0.00166,477536032.00000,   0.00097,275698752.00000,   0.00077,  -0.00031,   0.00103,  32.00000,   2.00000
535955689.15275,204429651.35836,47381212.47441,   0.00282,  -0.00043,   0.00165,477559776.00000,   0.00098,275706208.00000,   0.00078,  -0.00031,   0.00104, -32.00000,   2.00000
536610280.80215,206796986.35883,46448253.67135,   0.00283,  -0.00042,   0.00164,477590688.00000,   0.00098,275713760.00000,   0.00079,  -0.00032,   0.00104,-160.00000,   2.00000
537247933.52581,209165551.75530,45517360.80042,   0.00283,  -0.00041,   0.00163,477617536.00000,   0.00099,275721376.00000,   0.00080,  -0.00032,   0.00104, 128.00000,   2.00000
537863619.41356,211516400.25981,44595407.15789,   0.00284,  -0.00040,   0.00162,477625984.00000,   0.00100,275728960.00000,   0.00081,  -0.00032,   0.00105,  64.00000,   2.00000
538465178.66531,213885987.69661,43673530.16497,   0.00285,  -0.00040,   0.00162,477672032.00000,   0.00101,275736704.00000,   0.00081,  -0.00032,   0.00105, -32.00000,   2.00000
539046531.57245,216237975.95207,42755762.10130,   0.00285,  -0.00039,   0.00161,477678944.00000,   0.00101,275744416.00000,   0.00082,  -0.00032,   0.00105,  64.00000,   2.00000
539612615.79460,218605665.42263,41839655.21783,   0.00286,  -0.00038,   0.00160,477710144.00000,   0.00102,275752224.00000,   0.00083,  -0.00032,   0.00105,  32.00000,   2.00000
540157007.71697,220954826.65630,40932448.82094,   0.00287,  -0.00037,   0.00159,477718336.00000,   0.00103,275760000.00000,   0.00084,  -0.00032,   0.00106,   0.00000,   2.00000
540686478.90957,223320761.43133,40025514.25672,   0.00287,  -0.00036,   0.00158,477764576.00000,   0.00103,275767936.00000,   0.00085,  -0.00032,   0.00106,-160.00000,   2.00000
541194487.73046,225667687.56657,39127473.03879,   0.00288,  -0.00035,   0.00157,477772576.00000,   0.00104,275775840.00000,   0.00086,  -0.00032,   0.00106,  32.00000,   2.00000
541688389.48090,228030754.57155,38224936.32405,   0.00289,  -0.00034,   0.00156,477818400.00000,   0.00105,275783904.00000,   0.00087,  -0.00033,   0.00106, -96.00000,   2.00000
542160623.05067,230372878.80435,37332637.97084,   0.00289,  -0.00034,   0.00155,477811520.00000,   0.00106,275791872.00000,   0.00088,  -0.00033,   0.00106, 128.00000,   2.00000
542614324.91429,232714169.69488,36446154.43989,   0.00290,  -0.00033,   0.00154,477854784.00000,   0.00106,275799936.00000,   0.00088,  -0.00033,   0.00107,  96.00000,   2.00000
543051824.25699,235053860.20205,35557111.07091,   0.00291,  -0.00032,   0.00153,477881024.00000,   0.00107,275808096.00000,   0.00089,  -0.00033,   0.00107,   0.00000,   2.00000
543469048.61328,237389238.95783,34681468.74011,   0.00291,  -0.00031,   0.00152,477895808.00000,   0.00108,275816256.00000,   0.00090,  -0.00033,   0.00107,   0.00000,   2.00000
543870353.84467,239723133.75424,33803348.84564,   0.00292,  -0.00030,   0.00151,477922272.00000,   0.00109,275824448.00000,   0.00091,  -0.00033,   0.00107, -96.00000,   2.00000
544253806.36755,242054900.60060,32932643.92982,   0.00293,  -0.00029,   0.00150,477950976.00000,   0.00109,275832704.00000,   0.00092,  -0.00033,   0.00108, -64.00000,   2.00000
544621053.74558,244385245.01343,32064538.47433,   0.00293,  -0.00028,   0.00149,477978560.00000,   0.00110,275841024.00000,   0.00093,  -0.00033,   0.00108, 320.00000,   2.00000
544971436.67918,246713152.40306,31200192.85734,   0.00294,  -0.00027,   0.00149,477991616.00000,   0.00111,275849344.00000,   0.00094,  -0.00033,   0.00108,  64.00000,   2.00000
545303962.57862,249024708.12432,30343890.56924,   0.00294,  -0.00026,   0.00148,478014336.00000,   0.00112,275857696.00000,   0.00095,  -0.00033,   0.00108, 128.00000,   2.00000
545621626.33974,251350235.81019,29489965.00408,   0.00295,  -0.00025,   0.00147,478047872.00000,   0.00113,275866144.00000,   0.00096,  -0.00033,   0.00108, -32.00000,   2.00000
545921925.29949,253659555.17600,28644267.85618,   0.00296,  -0.00024,   0.00146,478070656.00000,   0.00113,275874592.00000,   0.00097,  -0.00033,   0.00109, -96.00000,   2.00000
546207348.79264,255982467.37715,27801199.46282,   0.00296,  -0.00023,   0.00145,478104224.00000,   0.00114,275883136.00000,   0.00098,  -0.00033,   0.00109,  32.00000,   2.00000
546475599.37635,258288141.02094,26962663.03987,   0.00297,  -0.00022,   0.00144,478111552.00000,   0.00115,275891680.00000,   0.00099,  -0.00033,   0.00109, -32.00000,   2.00000
546726580.72959,260591159.75666,26132380.95486,   0.00298,  -0.00021,   0.00143,478140800.00000,   0.00116,275900256.00000,   0.00100,  -0.00033,   0.00109,  64.00000,   2.00000
546961071.47311,262905582.42585,25305254.45623,   0.00298,  -0.00020,   0.00142,478175776.00000,   0.00117,275908896.00000,   0.00101,  -0.00033,   0.00109, 288.00000,   2.00000
547176102.06220,265200705.06230,24487131.78098,   0.00299,  -0.00019,   0.00141,478200256.00000,   0.00117,275917600.00000,   0.00102,  -0.00033,   0.00110, 128.00000,   2.00000
547373236.14387,267476405.75404,23669166.97511,   0.00299,  -0.00018,   0.00140,478207680.00000,   0.00118,275926272.00000,   0.00103,  -0.00033,   0.00110,  96.00000,   2.00000
547550112.91653,269760230.22482,22864729.81004,   0.00300,  -0.00017,   0.00140,478245536.00000,   0.00119,275935008.00000,   0.00104,  -0.00033,   0.00110, -32.00000,   2.00000
547708987.85336,272038446.97969,22059409.63182,   0.00301,  -0.00016,   0.00139,478274912.00000,   0.00120,275943840.00000,   0.00105,  -0.00033,   0.00110,-128.00000,   2.00000
547847550.68261,274310059.48086,21267998.57076,   0.00301,  -0.00015,   0.00138,478306400.00000,   0.00121,275952704.00000,   0.00106,  -0.00033,   0.00110, -32.00000,   2.00000
547968454.89802,276562237.49540,20475801.40800,   0.00302,  -0.00014,   0.00137,478328768.00000,   0.00121,275961632.00000,   0.00107,  -0.00033,   0.00110,   0.00000,   2.00000
548071275.40269,278809604.31176,19692874.80002,   0.00303,  -0.00013,   0.00136,478342496.00000,   0.00122,275970528.00000,   0.00108,  -0.00033,   0.00110,   0.00000,   2.00000
548157784.78504,281053329.66413,18913255.63606,   0.00303,  -0.00012,   0.00135,478369408.00000,   0.00123,275979520.00000,   0.00109,  -0.00033,   0.00111,   0.00000,   2.00000
548228315.50159,283294165.68712,18142235.62785,   0.00304,  -0.00011,   0.00134,478380448.00000,   0.00124,275988480.00000,   0.00110,  -0.00033,   0.00111, -32.00000,   2.00000
548285103.45152,285532656.75047,17373353.63879,   0.00304,  -0.00010,   0.00133,478420256.00000,   0.00125,275997536.00000,   0.00111,  -0.00033,   0.00111, 160.00000,   2.00000
548327170.48029,287768612.05740,16612663.61680,   0.00305,  -0.00009,   0.00133,478430144.00000,   0.00126,276006624.00000,   0.00112,  -0.00033,   0.00111,  96.00000,   2.00000
548355542.72976,290001271.73170,15854675.29665,   0.00306,  -0.00008,   0.00132,478454688.00000,   0.00126,276015744.00000,   0.00113,  -0.00033,   0.00111,  64.00000,   2.00000
548369604.50704,292215092.20113,15104877.86903,   0.00306,  -0.00007,   0.00131,478474112.00000,   0.00127,276024896.00000,   0.00114,  -0.00033,   0.00111, 256.00000,   2.00000
548367624.17166,294422560.69325,14358944.64449,   0.00307,  -0.00006,   0.00130,478486496.00000,   0.00128,276034016.00000,   0.00115,  -0.00033,   0.00111, -32.00000,   2.00000
548349244.47537,296621090.19973,13616266.92229,   0.00307,  -0.00005,   0.00129,478530464.00000,   0.00129,276043264.00000,   0.00116,  -0.00033,   0.00111, 128.00000,   2.00000
548312055.67710,298810316.43398,12883088.66331,   0.00308,  -0.00004,   0.00128,478546720.00000,   0.00130,276052512.00000,   0.00117,  -0.00033,   0.00112,  96.00000,   2.00000
548256072.75807,300990296.30228,12154535.95409,   0.00309,  -0.00003,   0.00127,478562976.00000,   0.00131,276061760.00000,   0.00118,  -0.00033,   0.00112, -96.00000,   2.00000
548181817.96005,303159764.96433,11434738.46251,   0.00309,  -0.00002,   0.00127,478609184.00000,   0.00132,276071104.00000,   0.00119,  -0.00033,   0.00112,  96.00000,   2.00000
548090636.61846,305308057.28229,10719680.02817,   0.00310,  -0.00001,   0.00126,478617696.00000,   0.00132,276080448.00000,   0.00120,  -0.00033,   0.00112, 224.00000,   2.00000
547982052.00761,307448204.35235,10013678.87161,   0.00310,   0.00000,   0.00125,478647680.00000,   0.00133,276089824.00000,   0.00121,  -0.00033,   0.00112, 128.00000,   2.00000
547857571.45363,309581189.30500,9311772.99407,   0.00311,   0.00001,   0.00124,478676448.00000,   0.00134,276099296.00000,   0.00122,  -0.00033,   0.00112,   0.00000,   2.00000
547717082.60797,311708275.94423,8619294.77539,   0.00312,   0.00002,   0.00123,478690528.00000,   0.00135,276108736.00000,   0.00123,  -0.00033,   0.00112,  64.00000,   2.00000
547561268.05024,313828392.81417,7931062.10205,   0.00312,   0.00004,   0.00122,478718976.00000,   0.00136,276118208.00000,   0.00124,  -0.00032,   0.00112,   0.00000,   2.00000
547391871.84757,315928502.79780,7247385.15919,   0.00313,   0.00005,   0.00122,478740256.00000,   0.00137,276127744.00000,   0.00125,  -0.00032,   0.00112, -64.00000,   2.00000
547207287.10580,318020980.67612,6573281.28037,   0.00313,   0.00006,   0.00121,478769696.00000,   0.00138,276137312.00000,   0.00126,  -0.00032,   0.00112,  64.00000,   2.00000
547007067.45809,320106645.84430,5909089.88321,   0.00314,   0.00007,   0.00120,478785120.00000,   0.00139,276146880.00000,   0.00128,  -0.00032,   0.00112, 128.00000,   2.00000
546791822.58134,322182045.98753,5249572.73628,   0.00315,   0.00008,   0.00119,478831072.00000,   0.00140,276156544.00000,   0.00129,  -0.00032,   0.00112, -32.00000,   2.00000
546562150.77301,324238784.76800,4595253.38009,   0.00315,   0.00009,   0.00118,478825024.00000,   0.00140,276166144.00000,   0.00130,  -0.00032,   0.00112,   0.00000,   2.00000
546315572.10331,326296966.70225,3950355.30910,   0.00316,   0.00010,   0.00117,478880192.00000,   0.00141,276175840.00000,   0.00131,  -0.00032,   0.00112, 128.00000,   2.00000
546054988.39215,328335098.45388,3314671.54010,   0.00316,   0.00011,   0.00117,478889632.00000,   0.00142,276185536.00000,   0.00132,  -0.00032,   0.00112,  96.00000,   2.00000
545779772.20658,330365039.85994,2682071.93358,   0.00317,   0.00013,   0.00116,478921088.00000,   0.00143,276195296.00000,   0.00133,  -0.00031,   0.00112,  32.00000,   2.00000
545492440.50574,332376129.06428,2050974.00303,   0.00318,   0.00014,   0.00115,478942336.00000,   0.00144,276205056.00000,   0.00134,  -0.00031,   0.00112, -64.00000,   2.00000
545192967.69429,334385734.18729,1424127.91426,   0.00318,   0.00015,   0.00114,478953152.00000,   0.00145,276214816.00000,   0.00135,  -0.00031,   0.00112,  64.00000,   2.00000
544882118.59723,336405081.26678,798901.42261,   0.00319,   0.00016,   0.00113,478997728.00000,   0.00146,276224704.00000,   0.00136,  -0.00031,   0.00112, -64.00000,   2.00000
544568328.81373,338403227.68000,170298.94055,   0.00319,   0.00017,   0.00113,478983776.00000,   0.00147,276234528.00000,   0.00137,  -0.00031,   0.00112, 128.00000,   2.00000
544246439.85963,340412505.93603,-457539.90235,   0.00320,   0.00018,   0.00112,478995392.00000,   0.00148,276244320.00000,   0.00139,  -0.00030,   0.00112,  32.00000,   2.00000
543917456.44759,342392999.17320,-1070159.13684,   0.00320,   0.00019,   0.00111,479030656.00000,   0.00149,276254176.00000,   0.00140,  -0.00030,   0.00113, -32.00000,   2.00000
543567980.19745,344348833.14132,-1660619.70631,   0.00321,   0.00021,   0.00110,479061376.00000,   0.00150,276264064.00000,   0.00141,  -0.00030,   0.00112,  32.00000,   2.00000
543189266.06140,346278532.91240,-2237708.50324,   0.00321,   0.00022,   0.00110,479099904.00000,   0.00150,276273952.00000,   0.00142,  -0.00030,   0.00112, -64.00000,   2.00000
542788553.16621,348175964.11666,-2810486.46236,   0.00322,   0.00023,   0.00109,479150720.00000,   0.00151,276283968.00000,   0.00143,  -0.00030,   0.00112, -32.00000,   2.00000
542373322.93084,350068356.82915,-3378880.84425,   0.00323,   0.00024,   0.00108,479167744.00000,   0.00152,276293984.00000,   0.00144,  -0.00029,   0.00112,  64.00000,   2.00000
541950077.95929,351956305.86101,-3941707.86829,   0.00323,   0.00025,   0.00107,479195520.00000,   0.00153,276304032.00000,   0.00145,  -0.00029,   0.00112, -64.00000,   2.00000
541520227.69306,353826328.72604,-4501501.30778,   0.00324,   0.00027,   0.00106,479216960.00000,   0.00154,276314080.00000,   0.00146,  -0.00029,   0.00112, -96.00000,   2.00000
541077388.78757,355690051.75298,-5056882.95892,   0.00324,   0.00028,   0.00106,479235136.00000,   0.00155,276324128.00000,   0.00147,  -0.00029,   0.00112, -32.00000,   2.00000
540620882.18950,357544129.54613,-5597453.48987,   0.00325,   0.00029,   0.00105,479268384.00000,   0.00156,276334240.00000,   0.00149,  -0.00028,   0.00112,   0.00000,   2.00000
540150309.92071,359388586.74746,-6138331.77682,   0.00325,   0.00030,   0.00104,479300384.00000,   0.00157,276344384.00000,   0.00150,  -0.00028,   0.00112,   0.00000,   2.00000
539669207.00450,361216281.71552,-6665256.60304,   0.00326,   0.00031,   0.00103,479306208.00000,   0.00158,276354528.00000,   0.00151,  -0.00028,   0.00112,  64.00000,   2.00000
539176567.38188,363032932.33214,-7192756.35437,   0.00326,   0.00033,   0.00103,479349536.00000,   0.00159,276364768.00000,   0.00152,  -0.00027,   0.00112,  96.00000,   2.00000
538673862.20066,364836718.24101,-7706956.29965,   0.00327,   0.00034,   0.00102,479338176.00000,   0.00160,276374912.00000,   0.00153,  -0.00027,   0.00112,  64.00000,   2.00000
538160615.63035,366629752.01330,-8216926.42903,   0.00328,   0.00035,   0.00101,479379520.00000,   0.00161,276385152.00000,   0.00154,  -0.00027,   0.00112,  96.00000,   2.00000
537635600.93472,368417924.90210,-8723222.47412,   0.00328,   0.00036,   0.00100,479391168.00000,   0.00162,276395392.00000,   0.00155,  -0.00026,   0.00112,  96.00000,   2.00000
537102944.79163,370187382.85949,-9220764.77039,   0.00329,   0.00038,   0.00100,479407872.00000,   0.00163,276405664.00000,   0.00156,  -0.00026,   0.00112, -32.00000,   2.00000
536559957.01103,371948798.22136,-9709351.04847,   0.00329,   0.00039,   0.00099,479433568.00000,   0.00164,276415968.00000,   0.00158,  -0.00026,   0.00112, -32.00000,   2.00000
536006272.08569,373701552.88632,-10193914.54728,   0.00330,   0.00040,   0.00098,479459680.00000,   0.00165,276426336.00000,   0.00159,  -0.00025,   0.00112,   0.00000,   2.00000
535444192.10535,375438031.04858,-10675015.88304,   0.00330,   0.00041,   0.00098,479461760.00000,   0.00166,276436640.00000,   0.00160,  -0.00025,   0.00111,  32.00000,   2.00000
534871956.94557,377165601.20409,-11147074.71470,   0.00331,   0.00043,   0.00097,479487808.00000,   0.00167,276447008.00000,   0.00161,  -0.00025,   0.00111,  64.00000,   2.00000
534288637.15039,378887250.43129,-11610493.40887,   0.00331,   0.00044,   0.00096,479499168.00000,   0.00168,276457376.00000,   0.00162,  -0.00024,   0.00111,  96.00000,   2.00000
533698330.92613,380588975.57095,-12070114.19259,   0.00332,   0.00045,   0.00095,479516288.00000,   0.00169,276467776.00000,   0.00163,  -0.00024,   0.00111,   0.00000,   2.00000
533101770.82883,382271113.20025,-12520992.37251,   0.00332,   0.00046,   0.00095,479532800.00000,   0.00170,276478144.00000,   0.00164,  -0.00024,   0.00111, 160.00000,   2.00000
532495566.81681,383943630.23268,-12962858.03470,   0.00333,   0.00048,   0.00094,479559264.00000,   0.00171,276488608.00000,   0.00165,  -0.00023,   0.00111, -64.00000,   2.00000
531878412.62668,385609633.71610,-13401154.37368,   0.00333,   0.00049,   0.00093,479571904.00000,   0.00172,276499040.00000,   0.00167,  -0.00023,   0.00111,  96.00000,   2.00000
531251436.25599,387265368.13622,-13835404.08564,   0.00334,   0.00050,   0.00093,479599232.00000,   0.00172,276509536.00000,   0.00168,  -0.00022,   0.00111,  96.00000,   2.00000
530618971.31532,388901285.48185,-14261005.79634,   0.00334,   0.00051,   0.00092,479616544.00000,   0.00173,276520032.00000,   0.00169,  -0.00022,   0.00110, 160.00000,   2.00000
529979483.14293,390520814.79440,-14678518.04645,   0.00335,   0.00053,   0.00091,479619872.00000,   0.00174,276530496.00000,   0.00170,  -0.00022,   0.00110,  32.00000,   2.00000
529331082.38011,392130311.42863,-15092086.23982,   0.00335,   0.00054,   0.00091,479647616.00000,   0.00175,276541024.00000,   0.00171,  -0.00021,   0.00110,  32.00000,   2.00000
528673946.88916,393729687.77910,-15496751.68773,   0.00336,   0.00055,   0.00090,479675328.00000,   0.00176,276551584.00000,   0.00172,  -0.00021,   0.00110,  64.00000,   2.00000
528012272.31527,395309587.62037,-15892955.92070,   0.00337,   0.00057,   0.00089,479693344.00000,   0.00177,276562144.00000,   0.00173,  -0.00020,   0.00110, 192.00000,   2.00000
527343879.62921,396873340.76703,-16286253.67031,   0.00337,   0.00058,   0.00088,479697984.00000,   0.00178,276572704.00000,   0.00174,  -0.00020,   0.00110,  96.00000,   2.00000
526663328.25684,398436337.41468,-16675283.47665,   0.00338,   0.00059,   0.00088,479736768.00000,   0.00179,276583296.00000,   0.00176,  -0.00019,   0.00109, 128.00000,   2.00000
525980515.69617,399974317.82262,-17056946.61402,   0.00338,   0.00060,   0.00087,479731392.00000,   0.00180,276593856.00000,   0.00177,  -0.00019,   0.00109, 160.00000,   2.00000
525291886.94215,401498791.48808,-17429266.57693,   0.00339,   0.00062,   0.00086,479774016.00000,   0.00181,276604512.00000,   0.00178,  -0.00018,   0.00109, -64.00000,   2.00000
524593254.42223,403016822.19240,-17798420.58310,   0.00339,   0.00063,   0.00086,479789536.00000,   0.00182,276615168.00000,   0.00179,  -0.00018,   0.00109,  32.00000,   2.00000
523889329.46662,404519912.57581,-18159957.39980,   0.00340,   0.00064,   0.00085,479794464.00000,   0.00183,276625760.00000,   0.00180,  -0.00017,   0.00109,  64.00000,   2.00000
523180136.90871,406009403.69182,-18512198.12250,   0.00340,   0.00066,   0.00085,479837664.00000,   0.00184,276636480.00000,   0.00181,  -0.00017,   0.00109, 160.00000,   2.00000
522465265.85849,407483793.96168,-18861869.08216,   0.00341,   0.00067,   0.00084,479843616.00000,   0.00185,276647136.00000,   0.00182,  -0.00016,   0.00108, 160.00000,   2.00000
521742682.26252,408948006.05018,-19207835.50674,   0.00341,   0.00068,   0.00083,479873824.00000,   0.00186,276657856.00000,   0.00183,  -0.00016,   0.00108,  64.00000,   2.00000
521015978.61417,410398451.45479,-19541421.97217,   0.00341,   0.00070,   0.00083,479878624.00000,   0.00187,276668544.00000,   0.00184,  -0.00015,   0.00108,  32.00000,   2.00000
520286067.45866,411830329.59302,-19871901.83396,   0.00342,   0.00071,   0.00082,479898624.00000,   0.00188,276679232.00000,   0.00186,  -0.00015,   0.00108,  96.00000,   2.00000
519548868.25958,413252310.12395,-20198747.27703,   0.00342,   0.00072,   0.00081,479929024.00000,   0.00189,276689984.00000,   0.00187,  -0.00014,   0.00108, -32.00000,   2.00000
518807384.07068,414660765.10507,-20518275.12051,   0.00343,   0.00074,   0.00081,479934560.00000,   0.00190,276700704.00000,   0.00188,  -0.00014,   0.00107,  32.00000,   2.00000
518061928.31256,416055916.25638,-20828569.39633,   0.00343,   0.00075,   0.00080,479978304.00000,   0.00191,276711488.00000,   0.00189,  -0.00013,   0.00107, -32.00000,   2.00000
517305105.74949,417449847.96196,-21136727.58499,   0.00344,   0.00076,   0.00079,479981344.00000,   0.00192,276722272.00000,   0.00190,  -0.00013,   0.00107, 128.00000,   2.00000
516553004.94166,418813852.70660,-21436784.32217,   0.00344,   0.00078,   0.00079,480003904.00000,   0.00193,276733056.00000,   0.00191,  -0.00012,   0.00107,  32.00000,   2.00000
515792032.09273,420172855.71000,-21734036.54083,   0.00345,   0.00079,   0.00078,480020768.00000,   0.00194,276743840.00000,   0.00192,  -0.00012,   0.00106, 160.00000,   2.00000
515025253.13499,421523051.16501,-22022811.41759,   0.00345,   0.00080,   0.00078,480050592.00000,   0.00195,276754656.00000,   0.00193,  -0.00011,   0.00106,   0.00000,   2.00000
514257375.31342,422856651.46184,-22303752.00356,   0.00346,   0.00082,   0.00077,480069504.00000,   0.00196,276765504.00000,   0.00194,  -0.00010,   0.00106, 128.00000,   2.00000
513484852.69525,424177347.73189,-22582567.02951,   0.00346,   0.00083,   0.00076,480075584.00000,   0.00197,276776320.00000,   0.00195,  -0.00010,   0.00106, 128.00000,   2.00000
512707090.27887,425489804.83138,-22852987.19491,   0.00347,   0.00084,   0.00076,480104992.00000,   0.00199,276787168.00000,   0.00196,  -0.00009,   0.00105, 128.00000,   2.00000
511927550.69487,426785399.71670,-23120580.70161,   0.00347,   0.00086,   0.00075,480124256.00000,   0.00200,276798048.00000,   0.00198,  -0.00009,   0.00105,  32.00000,   2.00000
511145387.18894,428070178.39526,-23376338.08557,   0.00348,   0.00087,   0.00075,480128032.00000,   0.00201,276808896.00000,   0.00199,  -0.00008,   0.00105,  32.00000,   2.00000
510356574.02893,429345707.31578,-23633659.27080,   0.00348,   0.00089,   0.00074,480158464.00000,   0.00202,276819776.00000,   0.00200,  -0.00007,   0.00105, -32.00000,   2.00000
509568254.07250,430606494.81381,-23878455.49234,   0.00349,   0.00090,   0.00073,480175392.00000,   0.00203,276830688.00000,   0.00201,  -0.00007,   0.00104, 128.00000,   2.00000
508774749.05177,431854830.75495,-24126351.74037,   0.00349,   0.00091,   0.00073,480180864.00000,   0.00204,276841568.00000,   0.00202,  -0.00006,   0.00104, -96.00000,   2.00000
507980562.68147,433092081.39214,-24360348.71595,   0.00350,   0.00093,   0.00072,480221504.00000,   0.00205,276852512.00000,   0.00203,  -0.00005,   0.00104, 192.00000,   2.00000
507179274.35623,434322505.29496,-24593481.06281,   0.00350,   0.00094,   0.00072,480212064.00000,   0.00206,276863392.00000,   0.00204,  -0.00005,   0.00104,   0.00000,   2.00000
506380989.81365,435533755.54302,-24818388.04273,   0.00350,   0.00095,   0.00071,480241728.00000,   0.00207,276874336.00000,   0.00205,  -0.00004,   0.00103,-160.00000,   2.00000
505574811.39415,436742115.05245,-25040997.64025,   0.00351,   0.00097,   0.00071,480256000.00000,   0.00208,276885280.00000,   0.00206,  -0.00003,   0.00103,  32.00000,   2.00000
504768728.05311,437936057.05556,-25256195.12838,   0.00351,   0.00098,   0.00070,480271808.00000,   0.00209,276896256.00000,   0.00207,  -0.00003,   0.00103, -64.00000,   2.00000
503963361.05876,439116093.71655,-25464004.15986,   0.00352,   0.00099,   0.00069,480287104.00000,   0.00210,276907200.00000,   0.00208,  -0.00002,   0.00103, -32.00000,   2.00000
503150232.64478,440293063.29508,-25669474.76614,   0.00352,   0.00101,   0.00069,480301216.00000,   0.00211,276918176.00000,   0.00209,  -0.00001,   0.00102,  32.00000,   2.00000
502337962.03829,441455149.83704,-25867624.90645,   0.00353,   0.00102,   0.00068,480316640.00000,   0.00212,276929184.00000,   0.00210,  -0.00001,   0.00102,  64.00000,   2.00000
501522536.63728,442605346.93953,-26064428.22596,   0.00353,   0.00104,   0.00068,480319744.00000,   0.00213,276940128.00000,   0.00211,   0.00000,   0.00102,   0.00000,   2.00000
500711595.21346,443734253.87742,-26253453.97758,   0.00354,   0.00105,   0.00067,480348672.00000,   0.00214,276951136.00000,   0.00212,   0.00001,   0.00101,-128.00000,   2.00000
499894208.73133,444857758.42436,-26435922.49174,   0.00354,   0.00106,   0.00067,480362496.00000,   0.00215,276962144.00000,   0.00213,   0.00001,   0.00101,  32.00000,   2.00000
499078560.91846,445961208.46583,-26618290.72434,   0.00354,   0.00108,   0.00066,480354304.00000,   0.00216,276973088.00000,   0.00214,   0.00002,   0.00101,  96.00000,   2.00000
498259172.99996,447057575.36671,-26791437.07830,   0.00355,   0.00109,   0.00066,480406048.00000,   0.00217,276984192.00000,   0.00215,   0.00003,   0.00101,   0.00000,   2.00000
497443030.00583,448136823.45807,-26959267.69048,   0.00355,   0.00111,   0.00065,480397024.00000,   0.00218,276995200.00000,   0.00216,   0.00004,   0.00100,   0.00000,   2.00000
496628378.52244,449201232.85441,-27124809.98493,   0.00356,   0.00112,   0.00065,480413568.00000,   0.00219,277006208.00000,   0.00217,   0.00004,   0.00100,  64.00000,   2.00000
495807776.65796,450263391.62186,-27283112.82624,   0.00356,   0.00113,   0.00064,480428096.00000,   0.00220,277017248.00000,   0.00218,   0.00005,   0.00100, -64.00000,   2.00000
494988853.83387,451311504.89811,-27438995.01454,   0.00357,   0.00115,   0.00064,480445376.00000,   0.00221,277028288.00000,   0.00219,   0.00006,   0.00099,  32.00000,   2.00000
494172269.49925,452346464.78585,-27587690.76608,   0.00357,   0.00116,   0.00063,480462208.00000,   0.00222,277039328.00000,   0.00220,   0.00007,   0.00099,  32.00000,   2.00000
493357956.38645,453368601.89315,-27729484.02482,   0.00357,   0.00118,   0.00063,480478784.00000,   0.00223,277050368.00000,   0.00221,   0.00007,   0.00099, 192.00000,   2.00000
492536175.82448,454388365.32635,-27869619.84700,   0.00358,   0.00119,   0.00062,480494912.00000,   0.00224,277061440.00000,   0.00222,   0.00008,   0.00098, -96.00000,   2.00000
491721299.67784,455389554.97496,-28004141.81167,   0.00358,   0.00120,   0.00062,480499328.00000,   0.00225,277072480.00000,   0.00223,   0.00009,   0.00098,  32.00000,   2.00000
490899745.64877,456389739.36514,-28132469.24010,   0.00359,   0.00122,   0.00061,480514144.00000,   0.00226,277083520.00000,   0.00224,   0.00010,   0.00098,  64.00000,   2.00000
490083549.04409,457372569.87808,-28258654.57654,   0.00359,   0.00123,   0.00061,480543520.00000,   0.00227,277094624.00000,   0.00225,   0.00011,   0.00097,  96.00000,   2.00000
489265381.52163,458348597.12176,-28379764.80628,   0.00359,   0.00125,   0.00060,480545664.00000,   0.00228,277105696.00000,   0.00226,   0.00011,   0.00097,  64.00000,   2.00000
488444473.39179,459317202.09044,-28500783.77040,   0.00360,   0.00126,   0.00060,480548512.00000,   0.00230,277116736.00000,   0.00227,   0.00012,   0.00097,  64.00000,   2.00000
487630305.87323,460269769.41414,-28614966.15665,   0.00360,   0.00127,   0.00059,480575968.00000,   0.00231,277127808.00000,   0.00228,   0.00013,   0.00096,   0.00000,   2.00000
486809949.89830,461222102.33955,-28723362.94041,   0.00361,   0.00129,   0.00059,480589472.00000,   0.00232,277138912.00000,   0.00229,   0.00014,   0.00096,  96.00000,   2.00000
485991724.71069,462161112.79501,-28832595.81119,   0.00361,   0.00130,   0.00058,480579968.00000,   0.00233,277149920.00000,   0.00230,   0.00015,   0.00096, 128.00000,   2.00000
485176074.83767,463090162.77357,-28934129.62367,   0.00361,   0.00132,   0.00058,480618912.00000,   0.00234,277161024.00000,   0.00231,   0.00015,   0.00095, 192.00000,   2.00000
484363670.76327,464007030.07050,-29031608.51544,   0.00362,   0.00133,   0.00057,480608352.00000,   0.00235,277172064.00000,   0.00232,   0.00016,   0.00095, 192.00000,   2.00000
483548583.96390,464917706.88119,-29127205.30506,   0.00362,   0.00134,   0.00057,480635456.00000,   0.00236,277183168.00000,   0.00233,   0.00017,   0.00095,  96.00000,   2.00000
482732126.46202,465822114.28777,-29217837.45758,   0.00363,   0.00136,   0.00056,480636832.00000,   0.00237,277194208.00000,   0.00234,   0.00018,   0.00094,  64.00000,   2.00000
481923547.31339,466710714.62919,-29301631.33471,   0.00363,   0.00137,   0.00056,480663392.00000,   0.00238,277205312.00000,   0.00235,   0.00019,   0.00094,   0.00000,   2.00000
481117558.40749,467586734.78851,-29386278.21724,   0.00363,   0.00139,   0.00056,480653408.00000,   0.00239,277216352.00000,   0.00236,   0.00020,   0.00094, 128.00000,   2.00000
480305318.39959,468462106.75203,-29465029.46675,   0.00364,   0.00140,   0.00055,480666944.00000,   0.00240,277227392.00000,   0.00237,   0.00021,   0.00093,  64.00000,   2.00000
479500450.45139,469320970.26252,-29541824.96159,   0.00364,   0.00141,   0.00055,480694016.00000,   0.00241,277238496.00000,   0.00238,   0.00021,   0.00093, -96.00000,   2.00000
478694366.92103,470173893.79583,-29613655.20534,   0.00365,   0.00143,   0.00054,480695200.00000,   0.00242,277249568.00000,   0.00238,   0.00022,   0.00093, -64.00000,   2.00000
477887106.65911,471020968.13276,-29680544.49191,   0.00365,   0.00144,   0.00054,480696288.00000,   0.00243,277260608.00000,   0.00239,   0.00023,   0.00092, 128.00000,   2.00000
477088394.61265,471852584.08749,-29740618.84844,   0.00365,   0.00146,   0.00053,480722272.00000,   0.00244,277271680.00000,   0.00240,   0.00024,   0.00092, 160.00000,   2.00000
476287426.48051,472677483.43058,-29800690.41184,   0.00366,   0.00147,   0.00053,480724256.00000,   0.00245,277282752.00000,   0.00241,   0.00025,   0.00092,   0.00000,   2.00000
475489486.27874,473491219.15783,-29859820.19625,   0.00366,   0.00148,   0.00053,480738368.00000,   0.00246,277293792.00000,   0.00242,   0.00026,   0.00091,  96.00000,   2.00000
474691285.78874,474300415.76435,-29909186.68399,   0.00366,   0.00150,   0.00052,480738304.00000,   0.00247,277304832.00000,   0.00243,   0.00027,   0.00091,  64.00000,   2.00000
473896048.57101,475098499.40242,-29957679.54595,   0.00367,   0.00151,   0.00052,480752352.00000,   0.00248,277315872.00000,   0.00244,   0.00028,   0.00091, 160.00000,   2.00000
473108645.54091,475880569.99787,-30006258.82505,   0.00367,   0.00153,   0.00051,480754048.00000,   0.00249,277326912.00000,   0.00245,   0.00028,   0.00090,  32.00000,   2.00000
472320573.79367,476658015.81261,-30048149.17532,   0.00368,   0.00154,   0.00051,480779328.00000,   0.00250,277337984.00000,   0.00246,   0.00029,   0.00090,   0.00000,   2.00000
471531407.86074,477430617.20039,-30085311.31834,   0.00368,   0.00156,   0.00051,480780032.00000,   0.00251,277348992.00000,   0.00246,   0.00030,   0.00090, 128.00000,   2.00000
470750968.81706,478188504.53846,-30117789.31037,   0.00368,   0.00157,   0.00050,480780448.00000,   0.00253,277360000.00000,   0.00247,   0.00031,   0.00089,  96.00000,   2.00000
469969064.85033,478941072.80302,-30148600.60863,   0.00369,   0.00158,   0.00050,480806368.00000,   0.00254,277371072.00000,   0.00248,   0.00032,   0.00089,  64.00000,   2.00000
469190702.08974,479684242.27457,-30175765.90882,   0.00369,   0.00160,   0.00049,480794528.00000,   0.00255,277382048.00000,   0.00249,   0.00033,   0.00089, 192.00000,   2.00000
468410899.78885,480422183.95051,-30201316.52271,   0.00369,   0.00161,   0.00049,480820544.00000,   0.00256,277393088.00000,   0.00250,   0.00034,   0.00088, 128.00000,   2.00000
467641206.60841,481147414.07408,-30217480.13392,   0.00370,   0.00163,   0.00049,480819712.00000,   0.00257,277404096.00000,   0.00251,   0.00035,   0.00088, 192.00000,   2.00000
466873838.08607,481861793.50678,-30237990.65211,   0.00370,   0.00164,   0.00048,480834112.00000,   0.00258,277415104.00000,   0.00252,   0.00036,   0.00088,  64.00000,   2.00000
466106159.57219,482573275.23476,-30249149.66681,   0.00370,   0.00165,   0.00048,480833568.00000,   0.00259,277426080.00000,   0.00252,   0.00037,   0.00087, 128.00000,   2.00000
465346559.99305,483270490.63943,-30260835.05921,   0.00371,   0.00167,   0.00048,480834432.00000,   0.00260,277437056.00000,   0.00253,   0.00038,   0.00087,  96.00000,   2.00000
464585831.00682,483963156.36232,-30271104.98447,   0.00371,   0.00168,   0.00047,480860160.00000,   0.00261,277448064.00000,   0.00254,   0.00039,   0.00087, 128.00000,   2.00000
463829189.01518,484648449.71294,-30273119.46463,   0.00371,   0.00170,   0.00047,480847168.00000,   0.00262,277458976.00000,   0.00255,   0.00039,   0.00086,  64.00000,   2.00000
463071489.10697,485329317.34821,-30273826.50736,   0.00372,   0.00171,   0.00047,480872768.00000,   0.00263,277469984.00000,   0.00256,   0.00040,   0.00086,  32.00000,   2.00000
462323002.95922,485997651.88905,-30270345.14605,   0.00372,   0.00172,   0.00046,480872608.00000,   0.00264,277480928.00000,   0.00257,   0.00041,   0.00086,  64.00000,   2.00000
461578030.89683,486657091.18562,-30266609.64919,   0.00373,   0.00174,   0.00046,480885760.00000,   0.00265,277491872.00000,   0.00257,   0.00042,   0.00085,  64.00000,   2.00000
460836260.64885,487309068.06538,-30259688.32139,   0.00373,   0.00175,   0.00046,480873504.00000,   0.00266,277502752.00000,   0.00258,   0.00043,   0.00085, 128.00000,   2.00000
460093403.13240,487956843.11460,-30251578.60126,   0.00373,   0.00177,   0.00045,480899328.00000,   0.00267,277513696.00000,   0.00259,   0.00044,   0.00085,  96.00000,   2.00000
459354475.64513,488598251.45894,-30235456.59214,   0.00374,   0.00178,   0.00045,480886048.00000,   0.00268,277524576.00000,   0.00260,   0.00045,   0.00084, -32.00000,   2.00000
458625466.43366,489226767.70602,-30218333.04278,   0.00374,   0.00179,   0.00045,480910912.00000,   0.00269,277535488.00000,   0.00261,   0.00046,   0.00084,   0.00000,   2.00000
457894023.87262,489851799.57489,-30202072.52925,   0.00374,   0.00181,   0.00044,480912480.00000,   0.00270,277546368.00000,   0.00261,   0.00047,   0.00084, 192.00000,   2.00000
457171604.65016,490465202.17784,-30181851.60229,   0.00375,   0.00182,   0.00044,480912064.00000,   0.00271,277557216.00000,   0.00262,   0.00048,   0.00083, 160.00000,   2.00000
456442824.41130,491080377.03096,-30156654.13679,   0.00375,   0.00183,   0.00044,480925216.00000,   0.00272,277568096.00000,   0.00263,   0.00049,   0.00083,  32.00000,   2.00000
455729634.92200,491679764.26364,-30126699.07790,   0.00375,   0.00185,   0.00043,480936256.00000,   0.00273,277578944.00000,   0.00264,   0.00050,   0.00083,  64.00000,   2.00000
455018493.53368,492271989.99792,-30098746.32199,   0.00375,   0.00186,   0.00043,480925056.00000,   0.00274,277589728.00000,   0.00264,   0.00051,   0.00082, 128.00000,   2.00000
454300828.47244,492866108.40052,-30065895.94615,   0.00376,   0.00188,   0.00043,480938528.00000,   0.00275,277600544.00000,   0.00265,   0.00052,   0.00082, 128.00000,   2.00000
453597959.54861,493443877.77318,-30033268.65866,   0.00376,   0.00189,   0.00043,480950432.00000,   0.00276,277611360.00000,   0.00266,   0.00053,   0.00082, 128.00000,   2.00000
452894128.60874,494020779.82735,-29991921.04850,   0.00376,   0.00190,   0.00042,480950240.00000,   0.00277,277622144.00000,   0.00267,   0.00054,   0.00081, 160.00000,   2.00000
452197673.57324,494585232.96536,-29956659.40742,   0.00377,   0.00192,   0.00042,480951552.00000,   0.00278,277632896.00000,   0.00267,   0.00055,   0.00081,  32.00000,   2.00000
451500187.55863,495149049.54538,-29912706.48269,   0.00377,   0.00193,   0.00042,480951392.00000,   0.00279,277643616.00000,   0.00268,   0.00056,   0.00081,  96.00000,   2.00000
450813091.17972,495701067.03274,-29868120.96959,   0.00377,   0.00194,   0.00041,480976096.00000,   0.00280,277654368.00000,   0.00269,   0.00057,   0.00080, 224.00000,   2.00000
450128365.32675,496247549.72681,-29820782.65917,   0.00378,   0.00196,   0.00041,480964352.00000,   0.00281,277665056.00000,   0.00270,   0.00058,   0.00080, 128.00000,   2.00000
449440695.45573,496791658.41123,-29774619.23748,   0.00378,   0.00197,   0.00041,480966016.00000,   0.00282,277675712.00000,   0.00270,   0.00059,   0.00080,   0.00000,   2.00000
448764396.43226,497325232.88016,-29722986.65656,   0.00378,   0.00199,   0.00041,480989888.00000,   0.00284,277686400.00000,   0.00271,   0.00060,   0.00079,  64.00000,   2.00000
448090463.72957,497853806.80738,-29668669.00193,   0.00379,   0.00200,   0.00040,480977952.00000,   0.00285,277697056.00000,   0.00272,   0.00061,   0.00079,  64.00000,   2.00000
447420962.05600,498376465.92972,-29609819.49619,   0.00379,   0.00201,   0.00040,480990464.00000,   0.00286,277707680.00000,   0.00273,   0.00062,   0.00079,  64.00000,   2.00000
446755366.29187,498892684.25696,-29551390.74983,   0.00379,   0.00203,   0.00040,481003648.00000,   0.00287,277718336.00000,   0.00273,   0.00063,   0.00078, 192.00000,   2.00000
446091717.30362,499403954.11566,-29490303.62672,   0.00380,   0.00204,   0.00040,480992096.00000,   0.00288,277728896.00000,   0.00274,   0.00064,   0.00078,  32.00000,   2.00000
445436492.98484,499905407.95333,-29430641.60187,   0.00380,   0.00205,   0.00039,480992224.00000,   0.00289,277739424.00000,   0.00275,   0.00065,   0.00078, 128.00000,   2.00000
444781062.00925,500404810.21142,-29365517.68236,   0.00380,   0.00207,   0.00039,481017824.00000,   0.00290,277750016.00000,   0.00275,   0.00066,   0.00077,  96.00000,   2.00000
444139210.29135,500891880.72287,-29297930.43660,   0.00380,   0.00208,   0.00039,481004160.00000,   0.00291,277760544.00000,   0.00276,   0.00067,   0.00077,   0.00000,   2.00000
443489531.40778,501380945.91738,-29230706.48395,   0.00381,   0.00209,   0.00039,481019328.00000,   0.00292,277771040.00000,   0.00277,   0.00068,   0.00077, 128.00000,   2.00000
442848680.03635,501861180.21123,-29160039.83183,   0.00381,   0.00211,   0.00038,481018880.00000,   0.00293,277781536.00000,   0.00277,   0.00069,   0.00076, 160.00000,   2.00000
442216745.15930,502332926.49487,-29085967.32339,   0.00381,   0.00212,   0.00038,481018304.00000,   0.00294,277791968.00000,   0.00278,   0.00070,   0.00076,  96.00000,   2.00000
441588383.91554,502798770.00321,-29012436.82881,   0.00382,   0.00213,   0.00038,481031488.00000,   0.00295,277802432.00000,   0.00279,   0.00071,   0.00076, 128.00000,   2.00000
440961645.78821,503260863.45874,-28936343.65748,   0.00382,   0.00215,   0.00038,481019552.00000,   0.00296,277812832.00000,   0.00279,   0.00072,   0.00075,  32.00000,   2.00000
440339256.67540,503718161.21401,-28855915.30187,   0.00382,   0.00216,   0.00038,481032032.00000,   0.00297,277823200.00000,   0.00280,   0.00073,   0.00075, 128.00000,   2.00000
439721175.33537,504170696.16171,-28771186.01789,   0.00382,   0.00217,   0.00037,481044256.00000,   0.00298,277833600.00000,   0.00281,   0.00074,   0.00075,  96.00000,   2.00000
439108079.24872,504615467.50358,-28689802.16841,   0.00383,   0.00219,   0.00037,481019936.00000,   0.00299,277843872.00000,   0.00281,   0.00075,   0.00075, -32.00000,   2.00000
438501548.29565,505053761.04998,-28607265.39604,   0.00383,   0.00220,   0.00037,481057408.00000,   0.00299,277854240.00000,   0.00282,   0.00076,   0.00074, 192.00000,   2.00000
437896874.37596,505489517.61674,-28517290.77281,   0.00383,   0.00221,   0.00037,481044640.00000,   0.00300,277864544.00000,   0.00283,   0.00077,   0.00074,  32.00000,   2.00000
437292703.48353,505921315.56059,-28429733.58794,   0.00384,   0.00223,   0.00037,481033216.00000,   0.00301,277874752.00000,   0.00283,   0.00078,   0.00074, 128.00000,   2.00000
436704508.84921,506341146.23122,-28338071.32336,   0.00384,   0.00224,   0.00037,481043200.00000,   0.00302,277884960.00000,   0.00284,   0.00079,   0.00073,  96.00000,   2.00000
436112071.43048,506760224.07560,-28247865.45029,   0.00384,   0.00225,   0.00036,481044960.00000,   0.00303,277895168.00000,   0.00285,   0.00080,   0.00073,  32.00000,   2.00000
435523735.45629,507175160.99985,-28153424.67638,   0.00384,   0.00226,   0.00036,481056960.00000,   0.00304,277905344.00000,   0.00285,   0.00081,   0.00073, 128.00000,   2.00000
434943881.17547,507582988.60036,-28055724.24105,   0.00385,   0.00228,   0.00036,481055488.00000,   0.00305,277915520.00000,   0.00286,   0.00082,   0.00072,   0.00000,   2.00000
434364033.57407,507987259.90668,-27960450.12116,   0.00385,   0.00229,   0.00036,481043808.00000,   0.00306,277925600.00000,   0.00286,   0.00083,   0.00072,  32.00000,   2.00000
433788134.36889,508387595.06411,-27860972.67401,   0.00385,   0.00230,   0.00036,481055552.00000,   0.00307,277935680.00000,   0.00287,   0.00084,   0.00072,  32.00000,   2.00000
433220531.32037,508781092.82231,-27758256.27481,   0.00385,   0.00232,   0.00036,481053920.00000,   0.00308,277945728.00000,   0.00288,   0.00085,   0.00072,  32.00000,   2.00000
432660513.26743,509167107.63444,-27657226.45191,   0.00386,   0.00233,   0.00035,481052928.00000,   0.00309,277955744.00000,   0.00288,   0.00086,   0.00071, 192.00000,   2.00000
432104850.68754,509550140.83778,-27547120.88717,   0.00386,   0.00234,   0.00035,481063616.00000,   0.00310,277965760.00000,   0.00289,   0.00087,   0.00071, -32.00000,   2.00000
431548264.94207,509929447.90628,-27444411.71668,   0.00386,   0.00235,   0.00035,481052256.00000,   0.00311,277975680.00000,   0.00289,   0.00088,   0.00071,   0.00000,   2.00000
431000443.68213,510303193.14778,-27333564.65886,   0.00387,   0.00237,   0.00035,481049280.00000,   0.00312,277985600.00000,   0.00290,   0.00089,   0.00071,  96.00000,   2.00000
430455526.38623,510672546.26471,-27223524.01242,   0.00387,   0.00238,   0.00035,481061312.00000,   0.00313,277995488.00000,   0.00291,   0.00090,   0.00070,  32.00000,   2.00000
429910908.55958,511040225.99850,-27111049.70522,   0.00387,   0.00239,   0.00035,481048096.00000,   0.00314,278005344.00000,   0.00291,   0.00091,   0.00070,  96.00000,   2.00000
429373415.96581,511400797.23786,-27000298.16507,   0.00387,   0.00240,   0.00035,481046528.00000,   0.00315,278015136.00000,   0.00292,   0.00091,   0.00070,  64.00000,   2.00000
428839536.35480,511758212.11442,-26885456.59375,   0.00388,   0.00242,   0.00034,481057536.00000,   0.00316,278024928.00000,   0.00292,   0.00092,   0.00069,  64.00000,   2.00000
428313471.46430,512109692.28911,-26767451.00630,   0.00388,   0.00243,   0.00034,481054848.00000,   0.00317,278034688.00000,   0.00293,   0.00093,   0.00069,  96.00000,   2.00000
427795138.86276,512455345.77828,-26646298.99111,   0.00388,   0.00244,   0.00034,481052160.00000,   0.00318,278044416.00000,   0.00293,   0.00094,   0.00069,  32.00000,   2.00000
427275970.88636,512798932.60150,-26527651.88210,   0.00388,   0.00245,   0.00034,481039136.00000,   0.00319,278054048.00000,   0.00294,   0.00095,   0.00069,  64.00000,   2.00000
426760120.57842,513139527.88905,-26404956.28350,   0.00389,   0.00247,   0.00034,481049920.00000,   0.00319,278063712.00000,   0.00294,   0.00096,   0.00068,  96.00000,   2.00000
426251082.58128,513473594.82784,-26284031.42523,   0.00389,   0.00248,   0.00034,481047808.00000,   0.00320,278073312.00000,   0.00295,   0.00097,   0.00068,   0.00000,   2.00000
425742419.61559,513807629.27632,-26155769.35840,   0.00389,   0.00249,   0.00034,481032896.00000,   0.00321,278082848.00000,   0.00296,   0.00098,   0.00068,   0.00000,   2.00000
425247896.26349,514130245.36702,-26033513.57501,   0.00389,   0.00250,   0.00034,481042144.00000,   0.00322,278092384.00000,   0.00296,   0.00099,   0.00068,   0.00000,   2.00000
424749199.53851,514455492.55828,-25903023.43366,   0.00390,   0.00251,   0.00034,481040896.00000,   0.00323,278101888.00000,   0.00297,   0.00100,   0.00067,  96.00000,   2.00000
424249046.91463,514778905.35340,-25775025.69641,   0.00390,   0.00253,   0.00034,481027584.00000,   0.00324,278111296.00000,   0.00297,   0.00101,   0.00067, 192.00000,   2.00000
423768606.55945,515090378.07017,-25644073.89114,   0.00390,   0.00254,   0.00034,481021280.00000,   0.00325,278120672.00000,   0.00298,   0.00102,   0.00067,  64.00000,   2.00000
423278870.01995,515406367.80834,-25508969.14099,   0.00390,   0.00255,   0.00034,481034016.00000,   0.00326,278130048.00000,   0.00298,   0.00103,   0.00067, 160.00000,   2.00000
422808000.55036,515709642.95242,-25375850.12765,   0.00390,   0.00256,   0.00033,481028480.00000,   0.00327,278139392.00000,   0.00299,   0.00104,   0.00066, -32.00000,   2.00000
422327886.17992,516016681.02843,-25240955.71349,   0.00391,   0.00257,   0.00033,481003136.00000,   0.00328,278148608.00000,   0.00299,   0.00105,   0.00066,   0.00000,   2.00000
421859031.06817,516317354.33807,-25101431.73401,   0.00391,   0.00259,   0.00033,481023584.00000,   0.00329,278157888.00000,   0.00300,   0.00106,   0.00066, 128.00000,   2.00000
421400707.32848,516609966.76063,-24964562.58494,   0.00391,   0.00260,   0.00033,481006816.00000,   0.00329,278167072.00000,   0.00300,   0.00107,   0.00066,  32.00000,   2.00000
420937690.29560,516905729.45547,-24819481.10226,   0.00391,   0.00261,   0.00033,481005088.00000,   0.00330,278176192.00000,   0.00301,   0.00108,   0.00066, 192.00000,   2.00000
420480080.83765,517194953.52985,-24681127.86889,   0.00392,   0.00262,   0.00033,481002688.00000,   0.00331,278185312.00000,   0.00301,   0.00109,   0.00065,   0.00000,   2.00000
420022029.72479,517485168.44393,-24535390.50687,   0.00392,   0.00263,   0.00033,480986816.00000,   0.00332,278194336.00000,   0.00302,   0.00110,   0.00065, 192.00000,   2.00000
419578325.79950,517765638.31188,-24390808.05632,   0.00392,   0.00264,   0.00033,480994112.00000,   0.00333,278203360.00000,   0.00302,   0.00111,   0.00065,  96.00000,   2.00000
419128906.02043,518048385.78903,-24242927.56856,   0.00392,   0.00266,   0.00033,480992864.00000,   0.00334,278212352.00000,   0.00303,   0.00112,   0.00065,  32.00000,   2.00000
418689870.14806,518323716.06154,-24097676.02371,   0.00393,   0.00267,   0.00033,480975360.00000,   0.00335,278221248.00000,   0.00303,   0.00112,   0.00064, -32.00000,   2.00000
418257715.22885,518595045.07018,-23949297.60047,   0.00393,   0.00268,   0.00033,480970912.00000,   0.00335,278230112.00000,   0.00304,   0.00113,   0.00064,  64.00000,   2.00000
417828072.41321,518864544.85606,-23796985.41068,   0.00393,   0.00269,   0.00033,480980032.00000,   0.00336,278238976.00000,   0.00304,   0.00114,   0.00064, 128.00000,   2.00000
417400677.07929,519131656.50590,-23642974.75984,   0.00393,   0.00270,   0.00033,480951072.00000,   0.00337,278247712.00000,   0.00304,   0.00115,   0.00064, -32.00000,   2.00000
416975217.56201,519396321.43088,-23489977.09014,   0.00393,   0.00271,   0.00033,480960928.00000,   0.00338,278256480.00000,   0.00305,   0.00116,   0.00064,  96.00000,   2.00000
416560395.87338,519654588.42171,-23334633.00839,   0.00394,   0.00272,   0.00033,480942336.00000,   0.00339,278265120.00000,   0.00305,   0.00117,   0.00063, -96.00000,   2.00000
416148178.79050,519911471.47541,-23175386.66528,   0.00394,   0.00273,   0.00033,480951200.00000,   0.00340,278273792.00000,   0.00306,   0.00118,   0.00063,  64.00000,   2.00000
415737243.61025,520165295.72559,-23019316.02410,   0.00394,   0.00274,   0.00033,480922688.00000,   0.00340,278282336.00000,   0.00306,   0.00119,   0.00063,  32.00000,   2.00000
415329357.80190,520418438.48736,-22854400.53442,   0.00394,   0.00275,   0.00033,480930784.00000,   0.00341,278290848.00000,   0.00307,   0.00120,   0.00063, -64.00000,   2.00000
414930838.77378,520664016.78189,-22696999.78362,   0.00394,   0.00277,   0.00033,480913376.00000,   0.00342,278299328.00000,   0.00307,   0.00121,   0.00063,   0.00000,   2.00000
414535240.31874,520908930.54931,-22530745.90723,   0.00395,   0.00278,   0.00033,480921312.00000,   0.00343,278307776.00000,   0.00308,   0.00121,   0.00062,   0.00000,   2.00000
414149390.14291,521147055.70931,-22367050.86506,   0.00395,   0.00279,   0.00033,480903104.00000,   0.00344,278316128.00000,   0.00308,   0.00122,   0.00062,   0.00000,   2.00000
413761225.28121,521385715.58622,-22200779.26692,   0.00395,   0.00280,   0.00033,480887328.00000,   0.00344,278324416.00000,   0.00308,   0.00123,   0.00062, 128.00000,   2.00000
413374778.47064,521622332.23602,-22035540.74165,   0.00395,   0.00281,   0.00033,480896480.00000,   0.00345,278332736.00000,   0.00309,   0.00124,   0.00062,   0.00000,   2.00000
412999044.82965,521853768.46292,-21862939.38621,   0.00395,   0.00282,   0.00033,480876736.00000,   0.00346,278340928.00000,   0.00309,   0.00125,   0.00062,  64.00000,   2.00000
412629054.96170,522081154.83323,-21692134.45190,   0.00396,   0.00283,   0.00033,480871936.00000,   0.00347,278349088.00000,   0.00310,   0.00126,   0.00061,  64.00000,   2.00000
412255922.66235,522308427.13355,-21523648.67408,   0.00396,   0.00284,   0.00033,480856768.00000,   0.00348,278357184.00000,   0.00310,   0.00127,   0.00061, 160.00000,   2.00000
411898070.60214,522528816.57127,-21346480.65498,   0.00396,   0.00285,   0.00033,480860960.00000,   0.00348,278365248.00000,   0.00311,   0.00127,   0.00061,  96.00000,   2.00000
411536975.14359,522749195.04837,-21171632.29496,   0.00396,   0.00286,   0.00033,480845536.00000,   0.00349,278373248.00000,   0.00311,   0.00128,   0.00061,  32.00000,   2.00000
411173122.87397,522970254.93593,-20994133.86392,   0.00396,   0.00287,   0.00034,480829408.00000,   0.00350,278381184.00000,   0.00311,   0.00129,   0.00061,   0.00000,   2.00000
410827629.58515,523181277.40845,-20818556.89293,   0.00397,   0.00288,   0.00034,480820864.00000,   0.00351,278389056.00000,   0.00312,   0.00130,   0.00061, -32.00000,   2.00000
410475776.92037,523395876.30864,-20634651.05942,   0.00397,   0.00289,   0.00034,480817952.00000,   0.00351,278396864.00000,   0.00312,   0.00131,   0.00060,   0.00000,   2.00000
410133324.23078,523604441.44041,-20453189.44897,   0.00397,   0.00290,   0.00034,480798848.00000,   0.00352,278404608.00000,   0.00312,   0.00132,   0.00060,  32.00000,   2.00000
409792229.14716,523811162.90833,-20272745.56799,   0.00397,   0.00291,   0.00034,480807520.00000,   0.00353,278412384.00000,   0.00313,   0.00132,   0.00060, -32.00000,   2.00000
409461455.51814,524013274.72978,-20084809.25806,   0.00397,   0.00292,   0.00034,480787008.00000,   0.00354,278420032.00000,   0.00313,   0.00133,   0.00060, -32.00000,   2.00000
409131150.32890,524213592.84133,-19899779.41913,   0.00398,   0.00293,   0.00034,480757184.00000,   0.00354,278427552.00000,   0.00314,   0.00134,   0.00060,  32.00000,   2.00000
408811007.96773,524408092.49957,-19715240.10122,   0.00398,   0.00294,   0.00034,480776032.00000,   0.00355,278435136.00000,   0.00314,   0.00135,   0.00060,   0.00000,   2.00000
408488376.18067,524604339.08773,-19522994.27573,   0.00398,   0.00295,   0.00034,480758752.00000,   0.00356,278442624.00000,   0.00314,   0.00136,   0.00060,  96.00000,   2.00000
408165900.88375,524798558.43757,-19333578.74603,   0.00398,   0.00296,   0.00034,480728896.00000,   0.00357,278450016.00000,   0.00315,   0.00136,   0.00059, -32.00000,   2.00000
407858152.16566,524985752.14694,-19140377.61289,   0.00398,   0.00297,   0.00034,480732768.00000,   0.00357,278457376.00000,   0.00315,   0.00137,   0.00059, -32.00000,   2.00000
407547269.07650,525173980.32802,-18944374.38663,   0.00398,   0.00297,   0.00035,480715936.00000,   0.00358,278464640.00000,   0.00315,   0.00138,   0.00059,  96.00000,   2.00000
407254463.70186,525352469.28098,-18750179.01952,   0.00399,   0.00298,   0.00035,480706368.00000,   0.00359,278471872.00000,   0.00316,   0.00139,   0.00059,  96.00000,   2.00000
406945465.86534,525537830.99139,-18552966.84747,   0.00399,   0.00299,   0.00035,480693152.00000,   0.00359,278479040.00000,   0.00316,   0.00140,   0.00059,  32.00000,   2.00000
406655071.12048,525714151.32849,-18352590.40449,   0.00399,   0.00300,   0.00035,480682752.00000,   0.00360,278486176.00000,   0.00316,   0.00140,   0.00059,-160.00000,   2.00000
406369990.99000,525886970.22182,-18153838.66660,   0.00399,   0.00301,   0.00035,480676416.00000,   0.00361,278493216.00000,   0.00317,   0.00141,   0.00059,  32.00000,   2.00000
406085806.26300,526059273.50663,-17947871.17289,   0.00399,   0.00302,   0.00035,480644736.00000,   0.00361,278500160.00000,   0.00317,   0.00142,   0.00059, -64.00000,   2.00000
405802966.27968,526229914.99040,-17742900.18834,   0.00400,   0.00303,   0.00035,480652320.00000,   0.00362,278507104.00000,   0.00317,   0.00143,   0.00058, -96.00000,   2.00000
405529247.32148,526395041.85620,-17540142.48482,   0.00400,   0.00304,   0.00035,480631776.00000,   0.00363,278513984.00000,   0.00318,   0.00143,   0.00058,   0.00000,   2.00000
405252546.15103,526561721.16274,-17329511.89834,   0.00400,   0.00305,   0.00036,480613760.00000,   0.00363,278520768.00000,   0.00318,   0.00144,   0.00058,  32.00000,   2.00000
404993982.95203,526718986.69165,-17120643.85740,   0.00400,   0.00305,   0.00036,480603296.00000,   0.00364,278527488.00000,   0.00318,   0.00145,   0.00058,  64.00000,   2.00000
