# sigma_xx, sigma_yy, sigma_xy, epsilon_xx, epsilon_yy, epsilon_xy, vonMises, epsPlastic, hardening, epsilonP__xx, epsilonP__yy, epsilonP__xy, yieldValue, iteration
   0.00000,   0.00000,   0.00000,   0.00000,   0.00000,   0.00000,   0.00000,   0.00000,274640135.82653,   0.00000,   0.00000,   0.00000,-474640135.82653,   0.00000
   0.00000,   0.00000,   0.00000,   0.00000,   0.00000,   0.00000,   0.00000,   0.00000,274640135.82653,   0.00000,   0.00000,   0.00000,-474640135.82653,   0.00000
4821801.33976,2660741.50731,-852248.94801,   0.00002,   0.00000,  -0.00001,4436071.61487,   0.00000,274640135.82653,   0.00000,   0.00000,   0.00000,-470204064.21166,   0.00000
9651212.04512,5339238.20104,-1699424.98561,   0.00003,   0.00001,  -0.00002,8876225.22893,   0.00000,274640135.82653,   0.00000,   0.00000,   0.00000,-465763910.59760,   0.00000
14455258.19846,7992370.34275,-2546601.02321,   0.00005,   0.00001,  -0.00003,13294969.97634,   0.00000,274640135.82653,   0.00000,   0.00000,   0.00000,-461345165.85019,   0.00000
19249158.53099,10655648.30527,-3398849.97121,   0.00007,   0.00001,  -0.00004,17709241.22763,   0.00000,274640135.82653,   0.00000,   0.00000,   0.00000,-456930894.59890,   0.00000
24025303.67710,13311316.90218,-4246026.00881,   0.00008,   0.00001,  -0.00006,22106201.71202,   0.00000,274640135.82653,   0.00000,   0.00000,   0.00000,-452533934.11451,   0.00000
28783693.63679,15959376.13348,-5093202.04641,   0.00010,   0.00002,  -0.00007,26488771.84663,   0.00000,274640135.82653,   0.00000,   0.00000,   0.00000,-448151363.97990,   0.00000
33542083.59649,18607435.36478,-5935305.17361,   0.00012,   0.00002,  -0.00008,30868420.96445,   0.00000,274640135.82653,   0.00000,   0.00000,   0.00000,-443771714.86208,   0.00000
38282718.36977,21247885.23048,-6782481.21121,   0.00013,   0.00002,  -0.00009,35236607.39141,   0.00000,274640135.82653,   0.00000,   0.00000,   0.00000,-439403528.43512,   0.00000
43013207.32224,23898480.91698,-7629657.24881,   0.00015,   0.00002,  -0.00010,39597450.53813,   0.00000,274640135.82653,   0.00000,   0.00000,   0.00000,-435042685.28840,   0.00000
47718331.72268,26523712.05146,-8471760.37600,   0.00017,   0.00003,  -0.00011,43933943.19660,   0.00000,274640135.82653,   0.00000,   0.00000,   0.00000,-430706192.62993,   0.00000
52405700.93671,29141333.82033,-9318936.41360,   0.00018,   0.00003,  -0.00012,48258994.29177,   0.00000,274640135.82653,   0.00000,   0.00000,   0.00000,-426381141.53476,   0.00000
57082924.32993,31769101.41002,-10161039.54080,   0.00020,   0.00003,  -0.00013,52573786.39862,   0.00000,274640135.82653,   0.00000,   0.00000,   0.00000,-422066349.42791,   0.00000
61760147.72315,34396868.99970,-11003142.66800,   0.00021,   0.00004,  -0.00014,56888594.45310,   0.00000,274640135.82653,   0.00000,   0.00000,   0.00000,-417751541.37343,   0.00000
66419615.92995,37017027.22377,-11845245.79519,   0.00023,   0.00004,  -0.00015,61189039.03104,   0.00000,274640135.82653,   0.00000,   0.00000,   0.00000,-413451096.79549,   0.00000
71061328.95034,39629576.08224,-12687348.92239,   0.00025,   0.00004,  -0.00016,65475124.27280,   0.00000,274640135.82653,   0.00000,   0.00000,   0.00000,-409165011.55373,   0.00000
75685286.78431,42234515.57510,-13529452.04958,   0.00026,   0.00004,  -0.00018,69746854.66940,   0.00000,274640135.82653,   0.00000,   0.00000,   0.00000,-404893281.15713,   0.00000
80291489.43186,44831845.70236,-14366482.26637,   0.00028,   0.00005,  -0.00019,74001279.96849,   0.00000,274640135.82653,   0.00000,   0.00000,   0.00000,-400638855.85804,   0.00000
84879936.89299,47421566.46400,-15208585.39357,   0.00029,   0.00005,  -0.00020,78244311.56990,   0.00000,274640135.82653,   0.00000,   0.00000,   0.00000,-396395824.25663,   0.00000
89475993.71974,50029042.41207,-16045615.61036,   0.00031,   0.00005,  -0.00021,82491488.00381,   0.00000,274640135.82653,   0.00000,   0.00000,   0.00000,-392148647.82272,   0.00000
94028930.80804,52603544.44250,-16882645.82715,   0.00033,   0.00006,  -0.00022,86702876.92199,   0.00000,274640135.82653,   0.00000,   0.00000,   0.00000,-387937258.90453,   0.00000
98589477.26195,55195801.65935,-17719676.04394,   0.00034,   0.00006,  -0.00023,90921378.52155,   0.00000,274640135.82653,   0.00000,   0.00000,   0.00000,-383718757.30498,   0.00000
103132268.52944,57780449.51059,-18556706.26073,   0.00036,   0.00006,  -0.00024,95125550.53579,   0.00000,274640135.82653,   0.00000,   0.00000,   0.00000,-379514585.29074,   0.00000
107657304.61051,60357487.99623,-19393736.47752,   0.00037,   0.00006,  -0.00025,99315397.42738,   0.00000,274640135.82653,   0.00000,   0.00000,   0.00000,-375324738.39914,   0.00000
112156976.13957,62909161.92984,-20230766.69431,   0.00039,   0.00007,  -0.00026,103483816.80765,   0.00000,274640135.82653,   0.00000,   0.00000,   0.00000,-371156319.01888,   0.00000
116646501.84781,65470981.68426,-21062724.00070,   0.00040,   0.00007,  -0.00027,107642045.11718,   0.00000,274640135.82653,   0.00000,   0.00000,   0.00000,-366998090.70935,   0.00000
121125881.73524,68042947.25949,-21899754.21749,   0.00042,   0.00007,  -0.00028,111796053.68521,   0.00000,274640135.82653,   0.00000,   0.00000,   0.00000,-362844082.14132,   0.00000
125579897.07065,70589548.28269,-22731711.52388,   0.00043,   0.00008,  -0.00030,115925660.63577,   0.00000,274640135.82653,   0.00000,   0.00000,   0.00000,-358714475.19076,   0.00000
130033912.40606,73136149.30590,-23563668.83026,   0.00045,   0.00008,  -0.00031,120055297.86139,   0.00000,274640135.82653,   0.00000,   0.00000,   0.00000,-354584837.96514,   0.00000
134460026.73424,75685286.78431,-24395626.13665,   0.00046,   0.00008,  -0.00032,124163422.40928,   0.00000,274640135.82653,   0.00000,   0.00000,   0.00000,-350476713.41725,   0.00000
138878531.69681,78216669.07630,-25227583.44304,   0.00048,   0.00009,  -0.00033,128264455.83734,   0.00000,274640135.82653,   0.00000,   0.00000,   0.00000,-346375679.98919,   0.00000
143269135.65216,80750587.82349,-26059540.74942,   0.00049,   0.00009,  -0.00034,132344001.51005,   0.00000,274640135.82653,   0.00000,   0.00000,   0.00000,-342296134.31647,   0.00000
147659739.60751,83284506.57069,-26886425.14540,   0.00051,   0.00009,  -0.00035,136420595.04859,   0.00000,274640135.82653,   0.00000,   0.00000,   0.00000,-338219540.77794,   0.00000
152007223.82442,85785451.40025,-27718382.45179,   0.00052,   0.00009,  -0.00036,140464435.47071,   0.00000,274640135.82653,   0.00000,   0.00000,   0.00000,-334175700.35582,   0.00000
156362317.40693,88304151.41623,-28545266.84777,   0.00054,   0.00010,  -0.00037,144512464.81997,   0.00000,274640135.82653,   0.00000,   0.00000,   0.00000,-330127671.00656,   0.00000
160699655.80303,90815242.06660,-29372151.24375,   0.00055,   0.00010,  -0.00038,148546219.17475,   0.00000,274640135.82653,   0.00000,   0.00000,   0.00000,-326093916.65178,   0.00000
165026848.37832,93336478.53778,-30199035.63973,   0.00057,   0.00010,  -0.00039,152572865.47877,   0.00000,274640135.82653,   0.00000,   0.00000,   0.00000,-322067270.34776,   0.00000
169310921.21516,95824741.09134,-31025920.03571,   0.00058,   0.00011,  -0.00040,156563779.33851,   0.00000,274640135.82653,   0.00000,   0.00000,   0.00000,-318076356.48802,   0.00000
173594994.05201,98313003.64489,-31852804.43169,   0.00060,   0.00011,  -0.00041,160554747.08996,   0.00000,274640135.82653,   0.00000,   0.00000,   0.00000,-314085388.73657,   0.00000
177861311.70244,100793656.83283,-32674615.91727,   0.00061,   0.00011,  -0.00042,164528438.32815,   0.00000,274640135.82653,   0.00000,   0.00000,   0.00000,-310111697.49838,   0.00000
182117483.53206,103284455.84158,-33501500.31325,   0.00063,   0.00011,  -0.00044,168498080.13865,   0.00000,274640135.82653,   0.00000,   0.00000,   0.00000,-306142055.68787,   0.00000
186355900.17527,105767645.48473,-34323311.79883,   0.00064,   0.00012,  -0.00045,172450458.90432,   0.00000,274640135.82653,   0.00000,   0.00000,   0.00000,-302189676.92221,   0.00000
190568952.26645,108225470.57585,-35150196.19481,   0.00066,   0.00012,  -0.00046,176384444.86608,   0.00000,274640135.82653,   0.00000,   0.00000,   0.00000,-298255690.96045,   0.00000
194771858.53682,110693441.48778,-35972007.68039,   0.00067,   0.00012,  -0.00047,180308356.84892,   0.00000,274640135.82653,   0.00000,   0.00000,   0.00000,-294331778.97761,   0.00000
198957009.62077,113153803.03411,-36793819.16596,   0.00068,   0.00013,  -0.00048,184218044.51761,   0.00000,274640135.82653,   0.00000,   0.00000,   0.00000,-290422091.30892,   0.00000
203124405.51831,115606555.21483,-37610557.74113,   0.00070,   0.00013,  -0.00049,188110470.42781,   0.00000,274640135.82653,   0.00000,   0.00000,   0.00000,-286529665.39872,   0.00000
207274046.22943,118051698.02994,-38432369.22671,   0.00071,   0.00013,  -0.00050,191991722.59836,   0.00000,274640135.82653,   0.00000,   0.00000,   0.00000,-282648413.22817,   0.00000
211405931.75414,120489231.47944,-39249107.80188,   0.00073,   0.00014,  -0.00051,195855717.36822,   0.00000,274640135.82653,   0.00000,   0.00000,   0.00000,-278784418.45831,   0.00000
215520062.09242,122919155.56333,-40070919.28746,   0.00074,   0.00014,  -0.00052,199708556.76959,   0.00000,274640135.82653,   0.00000,   0.00000,   0.00000,-274931579.05694,   0.00000
219624046.60990,125359225.46804,-40887657.86263,   0.00075,   0.00014,  -0.00053,203551365.94618,   0.00000,274640135.82653,   0.00000,   0.00000,   0.00000,-271088769.88035,   0.00000
223702666.57535,127773930.82072,-41704396.43780,   0.00077,   0.00015,  -0.00054,207372759.62290,   0.00000,274640135.82653,   0.00000,   0.00000,   0.00000,-267267376.20363,   0.00000
227745776.16797,130173417.44219,-42521135.01297,   0.00078,   0.00015,  -0.00055,211165697.84768,   0.00000,274640135.82653,   0.00000,   0.00000,   0.00000,-263474437.97885,   0.00000
231796495.12620,132590659.25007,-43337873.58815,   0.00080,   0.00015,  -0.00056,214965955.05788,   0.00000,274640135.82653,   0.00000,   0.00000,   0.00000,-259674180.76865,   0.00000
235829458.89801,135000291.69235,-44154612.16332,   0.00081,   0.00015,  -0.00057,218752042.33594,   0.00000,274640135.82653,   0.00000,   0.00000,   0.00000,-255888093.49059,   0.00000
239837058.11780,137384559.58260,-44966277.82808,   0.00082,   0.00016,  -0.00058,222513643.36225,   0.00000,274640135.82653,   0.00000,   0.00000,   0.00000,-252126492.46428,   0.00000
243834511.51677,139778973.29366,-45777943.49285,   0.00084,   0.00016,  -0.00060,226268320.89266,   0.00000,274640135.82653,   0.00000,   0.00000,   0.00000,-248371814.93387,   0.00000
247796454.54292,142158168.27351,-46594682.06802,   0.00085,   0.00016,  -0.00061,229997675.63932,   0.00000,274640135.82653,   0.00000,   0.00000,   0.00000,-244642460.18721,   0.00000
251758397.56906,144537363.25336,-47406347.73279,   0.00086,   0.00017,  -0.00062,233724047.92263,   0.00000,274640135.82653,   0.00000,   0.00000,   0.00000,-240916087.90390,   0.00000
255702585.40879,146908948.86760,-48218013.39756,   0.00088,   0.00017,  -0.00063,237436273.22928,   0.00000,274640135.82653,   0.00000,   0.00000,   0.00000,-237203862.59725,   0.00000
259618872.24129,149283070.93704,-49024606.15192,   0.00089,   0.00017,  -0.00064,241124299.05734,   0.00000,274640135.82653,   0.00000,   0.00000,   0.00000,-233515836.76919,   0.00000
263527549.70818,151639437.82007,-49836271.81669,   0.00090,   0.00018,  -0.00065,244808253.60983,   0.00000,274640135.82653,   0.00000,   0.00000,   0.00000,-229831882.21670,   0.00000
267400716.80224,153980585.97188,-50647937.48145,   0.00092,   0.00018,  -0.00066,248463852.20684,   0.00000,274640135.82653,   0.00000,   0.00000,   0.00000,-226176283.61969,   0.00000
271281493.26191,156339489.31011,-51454530.23581,   0.00093,   0.00018,  -0.00067,252123740.32143,   0.00000,274640135.82653,   0.00000,   0.00000,   0.00000,-222516395.50509,   0.00000
275119149.98313,158665418.73071,-52261122.99018,   0.00094,   0.00019,  -0.00068,255748004.06671,   0.00000,274640135.82653,   0.00000,   0.00000,   0.00000,-218892131.75982,   0.00000
278964416.06997,161009103.33772,-53067715.74454,   0.00096,   0.00019,  -0.00069,259379670.86753,   0.00000,274640135.82653,   0.00000,   0.00000,   0.00000,-215260464.95900,   0.00000
282774171.78397,163337569.21352,-53874308.49890,   0.00097,   0.00019,  -0.00070,262983024.61914,   0.00000,274640135.82653,   0.00000,   0.00000,   0.00000,-211657111.20738,   0.00000
286558562.94594,165640670.53730,-54680901.25326,   0.00098,   0.00019,  -0.00071,266564986.64439,   0.00000,274640135.82653,   0.00000,   0.00000,   0.00000,-208075149.18214,   0.00000
290332808.28711,167953917.68188,-55487494.00762,   0.00099,   0.00020,  -0.00072,270140169.95424,   0.00000,274640135.82653,   0.00000,   0.00000,   0.00000,-204499965.87229,   0.00000
294089298.44186,170259555.46086,-56289013.85158,   0.00101,   0.00020,  -0.00073,273698150.71790,   0.00000,274640135.82653,   0.00000,   0.00000,   0.00000,-200941985.10863,   0.00000
297828033.41019,172557583.87423,-57095606.60594,   0.00102,   0.00020,  -0.00074,277245191.59639,   0.00000,274640135.82653,   0.00000,   0.00000,   0.00000,-197394944.23014,   0.00000
301549013.19210,174848002.92200,-57897126.44990,   0.00103,   0.00021,  -0.00075,280775035.38718,   0.00000,274640135.82653,   0.00000,   0.00000,   0.00000,-193865100.43935,   0.00000
305259847.15321,177148567.79057,-58698646.29386,   0.00104,   0.00021,  -0.00076,284298149.58470,   0.00000,274640135.82653,   0.00000,   0.00000,   0.00000,-190341986.24183,   0.00000
308927561.37587,179416158.74151,-59500166.13782,   0.00106,   0.00021,  -0.00077,287785699.98359,   0.00000,274640135.82653,   0.00000,   0.00000,   0.00000,-186854435.84294,   0.00000
312595275.59854,181683749.69245,-60301685.98177,   0.00107,   0.00022,  -0.00078,291273392.91237,   0.00000,274640135.82653,   0.00000,   0.00000,   0.00000,-183366742.91416,   0.00000
316235088.81398,183953877.09860,-61098132.91533,   0.00108,   0.00022,  -0.00079,294737061.07658,   0.00000,274640135.82653,   0.00000,   0.00000,   0.00000,-179903074.74995,   0.00000
319867292.66381,186206249.31833,-61899652.75928,   0.00109,   0.00022,  -0.00080,298196687.42275,   0.00000,274640135.82653,   0.00000,   0.00000,   0.00000,-176443448.40378,   0.00000
323471595.50642,188461157.99326,-62696099.69284,   0.00110,   0.00023,  -0.00082,301632313.34630,   0.00000,274640135.82653,   0.00000,   0.00000,   0.00000,-173007822.48023,   0.00000
327058143.16260,190708457.30258,-63492546.62639,   0.00112,   0.00023,  -0.00083,305053931.61903,   0.00000,274640135.82653,   0.00000,   0.00000,   0.00000,-169586204.20750,   0.00000
330644690.81879,192955756.61190,-64288993.55994,   0.00113,   0.00023,  -0.00084,308475709.20338,   0.00000,274640135.82653,   0.00000,   0.00000,   0.00000,-166164426.62315,   0.00000
334195728.10215,195187837.19001,-65085440.49349,   0.00114,   0.00024,  -0.00085,311869329.67981,   0.00000,274640135.82653,   0.00000,   0.00000,   0.00000,-162770806.14672,   0.00000
337729010.19909,197412308.40252,-65881887.42705,   0.00115,   0.00024,  -0.00086,315248964.46113,   0.00000,274640135.82653,   0.00000,   0.00000,   0.00000,-159391171.36540,   0.00000
341226781.92319,199621560.88380,-66678334.36060,   0.00116,   0.00024,  -0.00087,318600474.36843,   0.00000,274640135.82653,   0.00000,   0.00000,   0.00000,-156039661.45810,   0.00000
344724553.64730,201830813.36509,-67469708.38375,   0.00117,   0.00025,  -0.00088,321948975.31993,   0.00000,274640135.82653,   0.00000,   0.00000,   0.00000,-152691160.50660,   0.00000
348204570.18498,204032456.48077,-68266155.31730,   0.00119,   0.00025,  -0.00089,325286698.26482,   0.00000,274640135.82653,   0.00000,   0.00000,   0.00000,-149353437.56171,   0.00000
351649076.34984,206218880.86524,-69057529.34045,   0.00120,   0.00025,  -0.00090,328593134.15935,   0.00000,274640135.82653,   0.00000,   0.00000,   0.00000,-146047001.66718,   0.00000
355101191.88030,208423060.43612,-69848903.36359,   0.00121,   0.00026,  -0.00091,331907154.67349,   0.00000,274640135.82653,   0.00000,   0.00000,   0.00000,-142732981.15304,   0.00000
358510187.67232,210594266.08937,-70640277.38674,   0.00122,   0.00026,  -0.00092,335185703.87768,   0.00000,274640135.82653,   0.00000,   0.00000,   0.00000,-139454431.94885,   0.00000
361909037.64353,212775617.56343,-71426578.49948,   0.00123,   0.00026,  -0.00093,338454523.26658,   0.00000,274640135.82653,   0.00000,   0.00000,   0.00000,-136185612.55995,   0.00000
365290132.42833,214949359.67188,-72217952.52263,   0.00124,   0.00027,  -0.00094,341712636.60072,   0.00000,274640135.82653,   0.00000,   0.00000,   0.00000,-132927499.22581,   0.00000
368645862.66110,217097737.22831,-73009326.54578,   0.00125,   0.00027,  -0.00095,344949419.81760,   0.00000,274640135.82653,   0.00000,   0.00000,   0.00000,-129690716.00893,   0.00000
371991447.07306,219256260.60555,-73795627.65852,   0.00127,   0.00027,  -0.00096,348176499.54053,   0.00000,274640135.82653,   0.00000,   0.00000,   0.00000,-126463636.28600,   0.00000
375319276.29860,221407174.61719,-74581928.77127,   0.00128,   0.00028,  -0.00097,351389680.96169,   0.00000,274640135.82653,   0.00000,   0.00000,   0.00000,-123250454.86484,   0.00000
378629350.33773,223550479.26321,-75368229.88401,   0.00129,   0.00028,  -0.00098,354588972.20925,   0.00000,274640135.82653,   0.00000,   0.00000,   0.00000,-120051163.61728,   0.00000
381903914.00402,225678565.17802,-76154530.99675,   0.00130,   0.00028,  -0.00099,357760289.49299,   0.00000,274640135.82653,   0.00000,   0.00000,   0.00000,-116879846.33354,   0.00000
385168331.84951,227816796.91364,-76940832.10949,   0.00131,   0.00029,  -0.00100,360925194.62944,   0.00000,274640135.82653,   0.00000,   0.00000,   0.00000,-113714941.19709,   0.00000
388425140.32938,229937273.46284,-77722060.31183,   0.00132,   0.00029,  -0.00101,364079630.89552,   0.00000,274640135.82653,   0.00000,   0.00000,   0.00000,-110560504.93101,   0.00000
391646438.43643,232042531.28083,-78508361.42457,   0.00133,   0.00029,  -0.00102,367209377.00712,   0.00000,274640135.82653,   0.00000,   0.00000,   0.00000,-107430758.81941,   0.00000
394857590.72266,234157934.91963,-79289589.62691,   0.00134,   0.00030,  -0.00103,370329494.47186,   0.00000,274640135.82653,   0.00000,   0.00000,   0.00000,-104310641.35467,   0.00000
398043378.45687,236247974.00641,-80070817.82925,   0.00135,   0.00030,  -0.00104,373428309.36061,   0.00000,274640135.82653,   0.00000,   0.00000,   0.00000,-101211826.46592,   0.00000
401201265.18386,238340549.54838,-80857118.94199,   0.00136,   0.00030,  -0.00105,376509978.31601,   0.00000,274640135.82653,   0.00000,   0.00000,   0.00000,-98130157.51052,   0.00000
404359151.91084,240433125.09036,-81633274.23393,   0.00137,   0.00031,  -0.00106,379585367.48459,   0.00000,274640135.82653,   0.00000,   0.00000,   0.00000,-95054768.34194,   0.00000
407491674.08580,242500336.08031,-82414502.43627,   0.00138,   0.00031,  -0.00107,382642731.75905,   0.00000,274640135.82653,   0.00000,   0.00000,   0.00000,-91997404.06748,   0.00000
410596295.25353,244570083.52547,-83195730.63860,   0.00139,   0.00031,  -0.00108,385679740.19340,   0.00000,274640135.82653,   0.00000,   0.00000,   0.00000,-88960395.63313,   0.00000
413683161.23485,246632221.60502,-83971885.93054,   0.00140,   0.00032,  -0.00109,388699686.65712,   0.00000,274640135.82653,   0.00000,   0.00000,   0.00000,-85940449.16941,   0.00000
416752272.02975,248686750.31896,-84753114.13287,   0.00141,   0.00032,  -0.00110,391709150.86669,   0.00000,274640135.82653,   0.00000,   0.00000,   0.00000,-82930984.95984,   0.00000
419803627.63823,250733669.66729,-85529269.42481,   0.00142,   0.00032,  -0.00111,394701561.39886,   0.00000,274640135.82653,   0.00000,   0.00000,   0.00000,-79938574.42767,   0.00000
422844837.42590,252790734.83644,-86305424.71674,   0.00143,   0.00033,  -0.00112,397687734.27000,   0.00000,274640135.82653,   0.00000,   0.00000,   0.00000,-76952401.55653,   0.00000
425860682.66155,254822435.45356,-87081580.00867,   0.00144,   0.00033,  -0.00113,400652646.38854,   0.00000,274640135.82653,   0.00000,   0.00000,   0.00000,-73987489.43799,   0.00000
428858772.71079,256846526.70507,-87857735.30061,   0.00145,   0.00033,  -0.00114,403603820.53463,   0.00000,274640135.82653,   0.00000,   0.00000,   0.00000,-71036315.29190,   0.00000
431828961.75279,258873154.41178,-88628817.68214,   0.00146,   0.00034,  -0.00115,406531473.27051,   0.00000,274640135.82653,   0.00000,   0.00000,   0.00000,-68108662.55602,   0.00000
434799150.79480,260899782.11850,-89404972.97407,   0.00147,   0.00034,  -0.00116,409462747.64766,   0.00000,274640135.82653,   0.00000,   0.00000,   0.00000,-65177388.17887,   0.00000
437726220.09836,262893435.90758,-90176055.35560,   0.00148,   0.00034,  -0.00117,412355447.75701,   0.00000,274640135.82653,   0.00000,   0.00000,   0.00000,-62284688.06952,   0.00000
440643143.58112,264897235.51747,-90947137.73713,   0.00149,   0.00035,  -0.00118,415242002.17850,   0.00000,274640135.82653,   0.00000,   0.00000,   0.00000,-59398133.64803,   0.00000
443542311.87746,266893425.76176,-91718220.11866,   0.00150,   0.00035,  -0.00119,418114878.66182,   0.00000,274640135.82653,   0.00000,   0.00000,   0.00000,-56525257.16471,   0.00000
446423724.98738,268882006.64044,-92489302.50018,   0.00151,   0.00035,  -0.00120,420974087.05406,   0.00000,274640135.82653,   0.00000,   0.00000,   0.00000,-53666048.77246,   0.00000
449287382.91089,270862978.15351,-93260384.88171,   0.00152,   0.00036,  -0.00121,423819637.29860,   0.00000,274640135.82653,   0.00000,   0.00000,   0.00000,-50820498.52793,   0.00000
452115530.46156,272828730.93537,-94026394.35284,   0.00153,   0.00036,  -0.00122,426634212.64747,   0.00000,274640135.82653,   0.00000,   0.00000,   0.00000,-48005923.17906,   0.00000
454943678.01223,274794483.71723,-94797476.73436,   0.00153,   0.00036,  -0.00123,429452477.12702,   0.00000,274640135.82653,   0.00000,   0.00000,   0.00000,-45187658.69951,   0.00000
457743924.55568,276762772.95429,-95563486.20549,   0.00154,   0.00037,  -0.00124,432247376.84017,   0.00000,274640135.82653,   0.00000,   0.00000,   0.00000,-42392758.98636,   0.00000
460536561.73352,278713307.00493,-96329495.67661,   0.00155,   0.00037,  -0.00125,435035032.25540,   0.00000,274640135.82653,   0.00000,   0.00000,   0.00000,-39605103.57113,   0.00000
463301297.90413,280666377.51077,-97095505.14774,   0.00156,   0.00037,  -0.00126,437802720.96637,   0.00000,274640135.82653,   0.00000,   0.00000,   0.00000,-36837414.86016,   0.00000
466040669.52272,282594083.46459,-97861514.61886,   0.00157,   0.00038,  -0.00127,440549218.50784,   0.00000,274640135.82653,   0.00000,   0.00000,   0.00000,-34090917.31869,   0.00000
468769895.32049,284531935.23923,-98627524.08998,   0.00158,   0.00038,  -0.00128,443289743.79823,   0.00000,274640135.82653,   0.00000,   0.00000,   0.00000,-31350392.02830,   0.00000
471481365.93186,286462177.64825,-99393533.56111,   0.00159,   0.00038,  -0.00129,446016706.39094,   0.00000,274640135.82653,   0.00000,   0.00000,   0.00000,-28623429.43559,   0.00000
474157326.17038,288377201.32606,-100154470.12183,   0.00160,   0.00039,  -0.00130,448712793.61367,   0.00000,274640135.82653,   0.00000,   0.00000,   0.00000,-25927342.21286,   0.00000
476833286.40891,290292225.00387,-100915406.68254,   0.00160,   0.00039,  -0.00131,451409261.28667,   0.00000,274640135.82653,   0.00000,   0.00000,   0.00000,-23230874.53986,   0.00000
479473736.27461,292192029.95046,-101681416.15367,   0.00161,   0.00039,  -0.00132,454081680.98563,   0.00000,274640135.82653,   0.00000,   0.00000,   0.00000,-20558454.84089,   0.00000
482114186.14030,294091834.89706,-102442352.71439,   0.00162,   0.00040,  -0.00133,456751088.76490,   0.00000,274640135.82653,   0.00000,   0.00000,   0.00000,-17889047.06163,   0.00000
484719125.63316,295976421.11244,-103203289.27511,   0.00163,   0.00040,  -0.00134,459393074.94895,   0.00000,274640135.82653,   0.00000,   0.00000,   0.00000,-15247060.87758,   0.00000
487313919.30521,297871153.14863,-103959152.92542,   0.00164,   0.00041,  -0.00135,462025797.08150,   0.00000,274640135.82653,   0.00000,   0.00000,   0.00000,-12614338.74503,   0.00000
489883348.42524,299740520.63279,-104720089.48614,   0.00164,   0.00041,  -0.00136,464640803.51728,   0.00000,274640135.82653,   0.00000,   0.00000,   0.00000,-9999332.30925,   0.00000
492442631.72446,301620033.93777,-105475953.13645,   0.00165,   0.00041,  -0.00137,467246570.01344,   0.00000,274640135.82653,   0.00000,   0.00000,   0.00000,-7393565.81309,   0.00000
494984159.83726,303491937.87714,-106236889.69717,   0.00166,   0.00042,  -0.00138,469842317.33243,   0.00000,274640135.82653,   0.00000,   0.00000,   0.00000,-4797818.49410,   0.00000
497500323.39804,305338477.26448,-106992753.34749,   0.00167,   0.00042,  -0.00139,472413499.06732,   0.00000,274640135.82653,   0.00000,   0.00000,   0.00000,-2226636.75921,   0.00000
499671763.03170,306952115.89133,-107652375.17300,   0.00167,   0.00042,  -0.00140,474640146.79418,   0.00000,274640135.82653,   0.00000,   0.00000,   0.00000,  -8.50044,   0.00000
499653881.27121,307001976.78986,-107665275.25085,   0.00168,   0.00042,  -0.00140,474641886.10552,   0.00000,274641893.01772,   0.00000,   0.00000,  -0.00000,324917.58336,   1.00000
499514444.00166,307392148.12816,-107765536.41669,   0.00168,   0.00043,  -0.00141,474655693.16290,   0.00001,274655697.53407,   0.00001,   0.00000,  -0.00001,2551993.89575,   1.00000
499368444.83101,307780392.94080,-107872134.26214,   0.00169,   0.00043,  -0.00142,474669347.91518,   0.00003,274669353.18824,   0.00002,   0.00000,  -0.00002,2524729.91486,   1.00000
499226390.99944,308168080.45357,-107973790.05144,   0.00170,   0.00043,  -0.00143,474682983.33616,   0.00004,274682991.09857,   0.00003,   0.00000,  -0.00003,2521723.36347,   1.00000
499073857.27322,308565182.18162,-108083963.37459,   0.00171,   0.00044,  -0.00144,474696535.05480,   0.00005,274696540.98172,   0.00004,   0.00001,  -0.00003,2505678.08489,   1.00000
498922114.36430,308948796.91421,-108194712.29645,   0.00171,   0.00044,  -0.00145,474709948.95459,   0.00006,274709956.97243,   0.00005,   0.00001,  -0.00004,2481121.66501,   1.00000
498766915.82956,309343508.54286,-108306223.00088,   0.00172,   0.00044,  -0.00146,474723339.15458,   0.00008,274723341.50562,   0.00005,   0.00001,  -0.00005,2475511.74704,   1.00000
498608954.17481,309722828.18649,-108422476.24334,   0.00173,   0.00045,  -0.00147,474736604.97292,   0.00009,274736611.21136,   0.00006,   0.00001,  -0.00006,2454423.11561,   1.00000
498447511.73335,310113274.91462,-108539459.04341,   0.00174,   0.00045,  -0.00148,474749847.29126,   0.00010,274749850.00632,   0.00007,   0.00001,  -0.00007,2448860.49508,   1.00000
498282931.83511,310501588.49756,-108659164.33420,   0.00174,   0.00046,  -0.00149,474763011.13619,   0.00011,274763016.21447,   0.00008,   0.00001,  -0.00008,2435560.59224,   1.00000
498119175.92119,310876653.17454,-108779455.72335,   0.00175,   0.00046,  -0.00150,474776046.76245,   0.00012,274776048.94342,   0.00009,   0.00002,  -0.00008,2410979.67079,   1.00000
497944729.82556,311261256.05899,-108908160.70504,   0.00176,   0.00046,  -0.00151,474788988.74708,   0.00014,274788996.00963,   0.00010,   0.00002,  -0.00009,2395183.24482,   1.00000
497773892.02362,311658570.41923,-109029807.56852,   0.00176,   0.00047,  -0.00152,474801968.54193,   0.00015,274801968.75684,   0.00011,   0.00002,  -0.00010,2400046.94987,   1.00000
497596679.25126,312041057.57743,-109159766.87903,   0.00177,   0.00047,  -0.00153,474814750.07690,   0.00016,274814752.89701,   0.00011,   0.00002,  -0.00011,2365193.84083,   1.00000
497419914.96713,312421129.96338,-109288834.02682,   0.00178,   0.00047,  -0.00154,474827537.19852,   0.00017,274827539.81933,   0.00012,   0.00002,  -0.00012,2365739.75447,   1.00000
497236344.23820,312799663.22211,-109424169.63584,   0.00178,   0.00048,  -0.00155,474840180.50836,   0.00018,274840180.81580,   0.00013,   0.00002,  -0.00012,2338737.48229,   1.00000
497049136.83102,313189331.43580,-109560118.71308,   0.00179,   0.00048,  -0.00156,474852791.64399,   0.00019,274852793.06153,   0.00014,   0.00002,  -0.00013,2333407.30730,   1.00000
496866404.80867,313565524.79141,-109693063.79598,   0.00180,   0.00048,  -0.00157,474865341.25476,   0.00021,274865346.94431,   0.00015,   0.00003,  -0.00014,2322598.58716,   1.00000
496672752.29726,313951279.82036,-109834353.70886,   0.00180,   0.00049,  -0.00158,474877814.28877,   0.00022,274877817.10155,   0.00016,   0.00003,  -0.00015,2307059.95616,   1.00000
496479445.77832,314337131.67806,-109974153.33373,   0.00181,   0.00049,  -0.00159,474890188.05750,   0.00023,274890197.48758,   0.00016,   0.00003,  -0.00016,2290398.80184,   1.00000
496282901.23799,314721054.64307,-110116610.62539,   0.00182,   0.00050,  -0.00160,474902501.59877,   0.00024,274902507.20585,   0.00017,   0.00003,  -0.00016,2277259.15787,   1.00000
496083091.36348,315103062.79711,-110261712.59620,   0.00182,   0.00050,  -0.00160,474914737.63646,   0.00025,274914746.55193,   0.00018,   0.00003,  -0.00017,2264145.60568,   1.00000
495880023.77960,315483190.18376,-110409455.57774,   0.00183,   0.00050,  -0.00161,474926913.39270,   0.00026,274926915.63288,   0.00019,   0.00003,  -0.00018,2251040.80687,   1.00000
495673670.39918,315861450.03462,-110559827.01780,   0.00183,   0.00051,  -0.00162,474939011.78921,   0.00027,274939014.74122,   0.00020,   0.00004,  -0.00019,2237962.11041,   1.00000
495467625.78462,316239959.30396,-110708706.62745,   0.00184,   0.00051,  -0.00163,474951020.01788,   0.00028,274951024.69991,   0.00020,   0.00004,  -0.00019,2221342.61475,   1.00000
495257754.77280,316629611.71592,-110858125.59077,   0.00185,   0.00051,  -0.00164,474963004.99455,   0.00029,274963007.79919,   0.00021,   0.00004,  -0.00020,2216249.53954,   1.00000
495041458.28671,317002329.44287,-111016391.70666,   0.00185,   0.00052,  -0.00165,474974888.31501,   0.00031,274974897.62510,   0.00022,   0.00004,  -0.00021,2198796.99645,   1.00000
494824922.32175,317388321.17301,-111171040.07093,   0.00186,   0.00052,  -0.00166,474986735.86622,   0.00032,274986741.86913,   0.00023,   0.00004,  -0.00022,2190203.53644,   1.00000
494601206.62979,317773008.71589,-111331922.54981,   0.00186,   0.00052,  -0.00167,474998437.95390,   0.00033,274998442.98607,   0.00023,   0.00004,  -0.00022,2163534.61184,   1.00000
494381558.72614,318157461.70553,-111487677.17819,   0.00187,   0.00053,  -0.00168,475010126.94134,   0.00034,275010129.58848,   0.00024,   0.00005,  -0.00023,2160669.28920,   1.00000
494154887.93430,318537990.74231,-111650157.13238,   0.00188,   0.00053,  -0.00169,475021759.98630,   0.00035,275021766.64851,   0.00025,   0.00005,  -0.00024,2151278.26946,   1.00000
493924823.91049,318916753.61954,-111815235.85424,   0.00188,   0.00054,  -0.00170,475033332.45996,   0.00036,275033334.98214,   0.00026,   0.00005,  -0.00025,2138331.59271,   1.00000
493691086.43453,319296466.69300,-111982439.55317,   0.00189,   0.00054,  -0.00171,475044738.14158,   0.00037,275044741.55988,   0.00026,   0.00005,  -0.00025,2108176.37316,   1.00000
493457793.55289,319673875.16817,-112148599.14331,   0.00189,   0.00054,  -0.00172,475056144.31934,   0.00038,275056153.56567,   0.00027,   0.00005,  -0.00026,2108910.26237,   1.00000
493221054.29744,320049578.71200,-112317361.64686,   0.00190,   0.00055,  -0.00173,475067489.70873,   0.00039,275067497.22292,   0.00028,   0.00005,  -0.00027,2096003.54358,   1.00000
492976332.20488,320437003.56903,-112490196.27855,   0.00190,   0.00055,  -0.00174,475078742.34137,   0.00040,275078742.77616,   0.00028,   0.00005,  -0.00028,2077592.12261,   1.00000
492732035.26010,320822075.54131,-112661955.27147,   0.00191,   0.00056,  -0.00175,475089988.30235,   0.00041,275089994.24758,   0.00029,   0.00006,  -0.00028,2078383.93128,   1.00000
492488475.31790,321194795.83340,-112834394.60368,   0.00191,   0.00056,  -0.00176,475101106.84791,   0.00042,275101114.41636,   0.00030,   0.00006,  -0.00029,2053823.40833,   1.00000
492237132.95004,321576488.82446,-113011327.17790,   0.00192,   0.00056,  -0.00177,475112223.10943,   0.00043,275112230.45944,   0.00031,   0.00006,  -0.00030,2052729.51515,   1.00000
491981897.44535,321959287.56229,-113190409.96681,   0.00192,   0.00057,  -0.00178,475123179.59858,   0.00044,275123185.85731,   0.00031,   0.00006,  -0.00031,2022729.57716,   1.00000
491727088.83100,322339788.31155,-113368404.98163,   0.00193,   0.00057,  -0.00179,475134137.94668,   0.00045,275134147.55243,   0.00032,   0.00006,  -0.00031,2023545.03783,   1.00000
491468695.14666,322718637.83162,-113548983.19026,   0.00193,   0.00057,  -0.00180,475145035.15144,   0.00046,275145042.02197,   0.00033,   0.00006,  -0.00032,2010780.77682,   1.00000
491206690.65077,323095849.54690,-113732136.67900,   0.00194,   0.00058,  -0.00180,475155863.53985,   0.00047,275155869.49963,   0.00033,   0.00007,  -0.00033,1998042.62338,   1.00000
490940412.30671,323484153.32812,-113915642.89336,   0.00194,   0.00058,  -0.00181,475166669.04163,   0.00048,275166674.40487,   0.00034,   0.00007,  -0.00033,1993505.80481,   1.00000
490674789.42518,323860296.94313,-114099877.31258,   0.00195,   0.00059,  -0.00182,475177339.43868,   0.00049,275177348.43246,   0.00035,   0.00007,  -0.00034,1968974.54334,   1.00000
490404841.70967,324247544.98646,-114284464.88010,   0.00195,   0.00059,  -0.00183,475187994.34223,   0.00050,275188000.17170,   0.00035,   0.00007,  -0.00035,1964484.13182,   1.00000
490128175.30364,324618244.91938,-114477918.03289,   0.00196,   0.00059,  -0.00184,475198554.56414,   0.00051,275198561.04328,   0.00036,   0.00007,  -0.00035,1947284.48177,   1.00000
489850817.24045,325002293.50373,-114667627.17195,   0.00196,   0.00060,  -0.00185,475209079.26905,   0.00052,275209080.29882,   0.00037,   0.00007,  -0.00036,1939202.15834,   1.00000
489573384.60128,325386973.00234,-114855852.86045,   0.00197,   0.00060,  -0.00186,475219507.42847,   0.00053,275219513.43595,   0.00037,   0.00008,  -0.00037,1922916.96846,   1.00000
489288497.69554,325767809.00940,-115050705.89386,   0.00197,   0.00061,  -0.00187,475229894.13145,   0.00054,275229900.59412,   0.00038,   0.00008,  -0.00037,1913995.54615,   1.00000
488999827.54619,326147070.37290,-115248115.27679,   0.00198,   0.00061,  -0.00188,475240219.16346,   0.00055,275240222.03477,   0.00039,   0.00008,  -0.00038,1901428.29109,   1.00000
488715253.40840,326526346.95888,-115440340.06508,   0.00198,   0.00061,  -0.00189,475250527.73968,   0.00056,275250530.84286,   0.00039,   0.00008,  -0.00039,1898661.95368,   1.00000
488421913.63737,326917361.16409,-115636568.45653,   0.00198,   0.00062,  -0.00190,475260740.54549,   0.00057,275260745.81291,   0.00040,   0.00008,  -0.00040,1880929.60940,   1.00000
488129666.22513,327293501.67773,-115833941.91809,   0.00199,   0.00062,  -0.00191,475270918.38106,   0.00058,275270923.44668,   0.00041,   0.00008,  -0.00040,1873585.93991,   1.00000
487828564.27996,327681397.58266,-116035303.59894,   0.00199,   0.00062,  -0.00192,475281007.16215,   0.00059,275281007.81319,   0.00041,   0.00009,  -0.00041,1855942.64544,   1.00000
487528553.94009,328054463.03281,-116237805.76908,   0.00200,   0.00063,  -0.00193,475291054.10971,   0.00060,275291055.03876,   0.00042,   0.00009,  -0.00042,1848607.46257,   1.00000
487223899.53820,328438572.15327,-116440561.47360,   0.00200,   0.00063,  -0.00194,475301078.41754,   0.00060,275301082.52536,   0.00042,   0.00009,  -0.00042,1844477.03631,   1.00000
486919010.36146,328823454.86377,-116641859.77406,   0.00200,   0.00064,  -0.00194,475311020.54200,   0.00061,275311024.77305,   0.00043,   0.00009,  -0.00043,1828313.91601,   1.00000
486610134.22979,329206810.80947,-116845731.87442,   0.00201,   0.00064,  -0.00195,475320893.49504,   0.00062,275320902.25469,   0.00044,   0.00009,  -0.00044,1815899.35217,   1.00000
486297260.74553,329588662.53861,-117052176.81520,   0.00201,   0.00064,  -0.00196,475330710.98848,   0.00063,275330715.08727,   0.00044,   0.00009,  -0.00044,1803504.13787,   1.00000
485980351.39812,329969014.93827,-117261186.03674,   0.00202,   0.00065,  -0.00197,475340459.23571,   0.00064,275340463.53794,   0.00045,   0.00009,  -0.00045,1791142.16520,   1.00000
485658629.20096,330360334.33921,-117470408.47433,   0.00202,   0.00065,  -0.00198,475350184.71218,   0.00065,275350193.40060,   0.00045,   0.00010,  -0.00045,1787195.79857,   1.00000
485338019.70696,330736926.89417,-117680804.29926,   0.00202,   0.00066,  -0.00199,475359882.76594,   0.00066,275359886.17540,   0.00046,   0.00010,  -0.00046,1779846.10042,   1.00000
485011823.85908,331127602.02417,-117891151.09923,   0.00203,   0.00066,  -0.00200,475369463.09167,   0.00067,275369467.38059,   0.00047,   0.00010,  -0.00047,1758830.43996,   1.00000
484686730.42504,331503593.64341,-118102689.94114,   0.00203,   0.00066,  -0.00201,475379009.24992,   0.00068,275379011.48308,   0.00047,   0.00010,  -0.00047,1751473.22988,   1.00000
484352962.49832,331888178.64993,-118318416.76957,   0.00203,   0.00067,  -0.00202,475388552.76687,   0.00068,275388558.45255,   0.00048,   0.00010,  -0.00048,1751428.22014,   1.00000
484022515.59283,332276043.33738,-118528731.13707,   0.00204,   0.00067,  -0.00203,475398000.12648,   0.00069,275398000.27573,   0.00048,   0.00010,  -0.00049,1731612.45640,   1.00000
483684087.48460,332660046.74372,-118745613.24535,   0.00204,   0.00068,  -0.00204,475407397.95313,   0.00070,275407399.32684,   0.00049,   0.00011,  -0.00049,1723196.53352,   1.00000
483341415.14701,333042590.24523,-118965059.59269,   0.00204,   0.00068,  -0.00205,475416732.82699,   0.00071,275416735.10063,   0.00049,   0.00011,  -0.00050,1711012.04937,   1.00000
483002821.48160,333425300.06009,-119179329.17290,   0.00205,   0.00068,  -0.00206,475426054.29581,   0.00072,275426059.26303,   0.00050,   0.00011,  -0.00051,1708319.66625,   1.00000
482656180.25937,333804173.60221,-119400159.68566,   0.00205,   0.00069,  -0.00206,475435339.10536,   0.00073,275435341.08601,   0.00050,   0.00011,  -0.00051,1699970.82573,   1.00000
482303549.61101,334197145.29012,-119620938.45455,   0.00205,   0.00069,  -0.00207,475444511.16234,   0.00074,275444513.05809,   0.00051,   0.00011,  -0.00052,1679271.68951,   1.00000
481952008.80358,334575540.80828,-119842938.39330,   0.00206,   0.00070,  -0.00208,475453643.33033,   0.00074,275453648.16204,   0.00052,   0.00011,  -0.00052,1671919.62553,   1.00000
481603744.91892,334966446.52066,-120057343.15837,   0.00206,   0.00070,  -0.00209,475462815.88239,   0.00075,275462818.22944,   0.00052,   0.00012,  -0.00053,1677758.92088,   1.00000
481242584.21006,335354270.04784,-120282087.36304,   0.00206,   0.00070,  -0.00210,475471868.12053,   0.00076,275471874.36458,   0.00053,   0.00012,  -0.00054,1656306.74834,   1.00000
480886313.42315,335730043.07860,-120504120.39202,   0.00207,   0.00071,  -0.00211,475480866.74036,   0.00077,275480872.38188,   0.00053,   0.00012,  -0.00054,1645078.05106,   1.00000
480524765.43403,336116687.89406,-120726289.79150,   0.00207,   0.00071,  -0.00212,475489849.11143,   0.00078,275489854.68570,   0.00054,   0.00012,  -0.00055,1641607.63585,   1.00000
480154937.46036,336499451.43767,-120954993.61217,   0.00207,   0.00072,  -0.00213,475498794.07215,   0.00079,275498795.95155,   0.00054,   0.00012,  -0.00056,1633481.78980,   1.00000
479787335.42653,336897950.11071,-121175910.69727,   0.00207,   0.00072,  -0.00214,475507676.31044,   0.00079,275507679.59996,   0.00055,   0.00012,  -0.00056,1622371.55442,   1.00000
479417029.79356,337279489.53252,-121402050.29204,   0.00208,   0.00073,  -0.00215,475516545.32598,   0.00080,275516547.47184,   0.00055,   0.00013,  -0.00057,1618871.50266,   1.00000
479037296.96632,337660478.57830,-121634585.05497,   0.00208,   0.00073,  -0.00215,475525272.27531,   0.00081,275525281.44592,   0.00056,   0.00013,  -0.00057,1593781.31333,   1.00000
478660788.31636,338053906.13854,-121859462.22218,   0.00208,   0.00073,  -0.00216,475534047.27811,   0.00082,275534051.52794,   0.00056,   0.00013,  -0.00058,1599765.72512,   1.00000
478280476.78524,338433766.89079,-122089453.23074,   0.00208,   0.00074,  -0.00217,475542710.41369,   0.00083,275542712.55367,   0.00057,   0.00013,  -0.00059,1579244.70373,   1.00000
477899564.31493,338823546.65642,-122315709.45724,   0.00209,   0.00074,  -0.00218,475551429.76820,   0.00084,275551431.33584,   0.00057,   0.00013,  -0.00059,1589156.10105,   1.00000
477513954.33329,339211920.21513,-122544572.03907,   0.00209,   0.00075,  -0.00219,475560084.98281,   0.00084,275560088.59165,   0.00058,   0.00013,  -0.00060,1577313.58427,   1.00000
477128292.16068,339589338.65844,-122774665.78345,   0.00209,   0.00075,  -0.00220,475568607.66379,   0.00085,275568615.22306,   0.00058,   0.00014,  -0.00060,1552880.84536,   1.00000
476733200.53109,339974976.77709,-123008741.23726,   0.00209,   0.00075,  -0.00221,475577146.00904,   0.00086,275577149.87298,   0.00059,   0.00014,  -0.00061,1553692.76642,   1.00000
476342160.39248,340360918.92007,-123237682.18134,   0.00210,   0.00076,  -0.00222,475585673.03086,   0.00087,275585673.51176,   0.00059,   0.00014,  -0.00062,1551062.33750,   1.00000
475940385.31418,340758404.41702,-123470513.49331,   0.00210,   0.00076,  -0.00223,475594109.89148,   0.00087,275594112.22731,   0.00060,   0.00014,  -0.00062,1534972.18175,   1.00000
475539678.07136,341141559.98018,-123704680.31253,   0.00210,   0.00077,  -0.00224,475602507.93058,   0.00088,275602513.93435,   0.00060,   0.00014,  -0.00063,1527586.70915,   1.00000
475139193.00046,341522495.30408,-123937623.34998,   0.00210,   0.00077,  -0.00224,475610920.98321,   0.00089,275610926.46324,   0.00061,   0.00014,  -0.00063,1528904.38569,   1.00000
474736767.93028,341916673.89236,-124166718.38404,   0.00211,   0.00078,  -0.00225,475619297.24114,   0.00090,275619304.39408,   0.00061,   0.00015,  -0.00064,1521990.19064,   1.00000
474326447.24744,342294893.30424,-124404922.76827,   0.00211,   0.00078,  -0.00226,475627592.04606,   0.00091,275627595.39693,   0.00062,   0.00015,  -0.00064,1505534.87717,   1.00000
473914116.47851,342686352.44287,-124639260.73584,   0.00211,   0.00078,  -0.00227,475635850.15359,   0.00091,275635852.29361,   0.00062,   0.00015,  -0.00065,1498696.72398,   1.00000
473501966.05069,343075542.12532,-124872369.24945,   0.00211,   0.00079,  -0.00228,475644112.29839,   0.00092,275644120.35156,   0.00063,   0.00015,  -0.00066,1500070.24391,   1.00000
473088649.80225,343465993.92157,-125104249.47023,   0.00211,   0.00079,  -0.00229,475652305.72492,   0.00093,275652305.83912,   0.00063,   0.00015,  -0.00066,1484464.10981,   1.00000
472666399.96391,343852457.16745,-125342634.08121,   0.00212,   0.00080,  -0.00230,475660448.91509,   0.00094,275660453.33096,   0.00064,   0.00015,  -0.00067,1476904.20565,   1.00000
472248186.05629,344239305.89579,-125575924.24370,   0.00212,   0.00080,  -0.00231,475668581.50133,   0.00094,275668589.93429,   0.00064,   0.00015,  -0.00067,1474281.21564,   1.00000
471824858.12039,344624822.88937,-125811867.02294,   0.00212,   0.00080,  -0.00231,475676659.90535,   0.00095,275676666.40439,   0.00064,   0.00016,  -0.00068,1462734.31337,   1.00000
471396373.55269,345009008.18490,-126050455.25374,   0.00212,   0.00081,  -0.00232,475684678.36899,   0.00096,275684682.98500,   0.00065,   0.00016,  -0.00068,1451226.34182,   1.00000
470968055.02402,345390962.44937,-126287813.66490,   0.00212,   0.00081,  -0.00233,475692707.14185,   0.00097,275692711.05277,   0.00065,   0.00016,  -0.00069,1452641.92784,   1.00000
470533619.01914,345783440.48728,-126525148.13613,   0.00212,   0.00082,  -0.00234,475700725.27348,   0.00097,275700728.46157,   0.00066,   0.00016,  -0.00070,1450054.08731,   1.00000
470104118.12389,346164489.20919,-126760092.07264,   0.00213,   0.00082,  -0.00235,475708678.04550,   0.00098,275708685.87520,   0.00066,   0.00016,  -0.00070,1438547.88578,   1.00000
469663006.90282,346556968.37730,-126998898.78799,   0.00213,   0.00083,  -0.00236,475716559.97320,   0.00099,275716561.73456,   0.00067,   0.00016,  -0.00071,1423152.84273,   1.00000
469227492.28854,346946256.32126,-127232588.51647,   0.00213,   0.00083,  -0.00237,475724518.20777,   0.00099,275724520.39351,   0.00067,   0.00017,  -0.00071,1437462.52915,   1.00000
468781145.42965,347335115.47736,-127472830.33882,   0.00213,   0.00083,  -0.00238,475732339.55277,   0.00100,275732348.72353,   0.00068,   0.00017,  -0.00072,1413252.67930,   1.00000
468339745.83120,347712673.39102,-127710738.34037,   0.00213,   0.00084,  -0.00238,475740111.55888,   0.00101,275740116.65469,   0.00068,   0.00017,  -0.00072,1401693.57861,   1.00000
467893689.66395,348097065.95231,-127948524.86819,   0.00213,   0.00084,  -0.00239,475747965.47139,   0.00102,275747968.57976,   0.00068,   0.00017,  -0.00073,1416182.69582,   1.00000
467445171.35026,348494589.19673,-128182435.42691,   0.00214,   0.00085,  -0.00240,475755782.11125,   0.00102,275755788.34789,   0.00069,   0.00017,  -0.00074,1409737.54391,   1.00000
466992112.52349,348879033.36448,-128421766.48407,   0.00214,   0.00085,  -0.00241,475763498.59475,   0.00103,275763499.37101,   0.00069,   0.00017,  -0.00074,1389477.21296,   1.00000
466539179.80852,349261237.21418,-128659871.63140,   0.00214,   0.00086,  -0.00242,475771220.93775,   0.00104,275771222.36850,   0.00070,   0.00018,  -0.00075,1390969.42542,   1.00000
466084622.82062,349644897.20381,-128896864.12095,   0.00214,   0.00086,  -0.00243,475778860.89733,   0.00105,275778863.59166,   0.00070,   0.00018,  -0.00075,1375588.12439,   1.00000
465629263.76245,350037996.57894,-129129879.29930,   0.00214,   0.00086,  -0.00244,475786562.30349,   0.00105,275786566.72932,   0.00071,   0.00018,  -0.00076,1386088.71293,   1.00000
465165347.84773,350415336.66333,-129372155.10682,   0.00214,   0.00087,  -0.00244,475794178.80839,   0.00106,275794184.14055,   0.00071,   0.00018,  -0.00076,1369985.14242,   1.00000
464702689.99688,350808584.44561,-129606760.58002,   0.00214,   0.00087,  -0.00245,475801741.59973,   0.00107,275801747.11851,   0.00071,   0.00018,  -0.00077,1359555.85491,   1.00000
464236228.51438,351196771.68225,-129843934.75944,   0.00214,   0.00088,  -0.00246,475809337.58653,   0.00107,275809345.35029,   0.00072,   0.00018,  -0.00077,1365231.69200,   1.00000
463770831.80814,351571108.12993,-130082695.91265,   0.00215,   0.00088,  -0.00247,475816904.46883,   0.00108,275816905.27179,   0.00072,   0.00019,  -0.00078,1357688.37018,   1.00000
463302709.23779,351958572.25455,-130317580.15730,   0.00215,   0.00089,  -0.00248,475824434.00871,   0.00109,275824434.10528,   0.00073,   0.00019,  -0.00078,1351460.00145,   1.00000
462828832.01468,352344718.94624,-130555173.62204,   0.00215,   0.00089,  -0.00249,475831896.84530,   0.00109,275831904.76495,   0.00073,   0.00019,  -0.00079,1340355.91844,   1.00000
462355072.65910,352728626.62115,-130791557.47284,   0.00215,   0.00089,  -0.00250,475839386.74703,   0.00110,275839387.61348,   0.00073,   0.00019,  -0.00080,1341894.78545,   1.00000
461885337.97241,353113125.14751,-131022976.32171,   0.00215,   0.00090,  -0.00250,475846856.04370,   0.00111,275846859.25041,   0.00074,   0.00019,  -0.00080,1339247.10514,   1.00000
461405863.87656,353493499.78275,-131260883.75636,   0.00215,   0.00090,  -0.00251,475854295.74589,   0.00112,275854296.20011,   0.00074,   0.00019,  -0.00081,1332372.12914,   1.00000
460924445.78478,353875435.58375,-131497758.83896,   0.00215,   0.00091,  -0.00252,475861651.47794,   0.00112,275861651.80722,   0.00074,   0.00020,  -0.00081,1317149.75484,   1.00000
460448184.96182,354265679.96421,-131726634.88202,   0.00215,   0.00091,  -0.00253,475869134.02046,   0.00113,275869140.92419,   0.00075,   0.00020,  -0.00082,1340416.20537,   1.00000
459960933.76128,354644088.83282,-131965059.65515,   0.00215,   0.00092,  -0.00254,475876449.28858,   0.00114,275876450.88287,   0.00075,   0.00020,  -0.00082,1307702.85384,   1.00000
459476751.13766,355034596.61835,-132195658.07164,   0.00215,   0.00092,  -0.00255,475883791.14579,   0.00114,275883800.90236,   0.00076,   0.00020,  -0.00083,1314230.42055,   1.00000
458993621.16171,355411417.63500,-132427962.10414,   0.00216,   0.00093,  -0.00256,475891102.99639,   0.00115,275891111.78694,   0.00076,   0.00020,  -0.00083,1306596.08497,   1.00000
458503545.20282,355798408.03450,-132660122.47741,   0.00216,   0.00093,  -0.00256,475898414.52695,   0.00116,275898416.40588,   0.00076,   0.00020,  -0.00084,1304847.13685,   1.00000
458014503.11933,356171738.51857,-132893995.28050,   0.00216,   0.00093,  -0.00257,475905676.04211,   0.00116,275905681.94279,   0.00077,   0.00021,  -0.00084,1297217.16908,   1.00000
457518453.89426,356555213.23879,-133127705.74296,   0.00216,   0.00094,  -0.00258,475912937.37590,   0.00117,275912941.63985,   0.00077,   0.00021,  -0.00085,1295533.14870,   1.00000
457026438.54928,356939364.94776,-133356510.28508,   0.00216,   0.00094,  -0.00259,475920188.21277,   0.00118,275920189.86390,   0.00078,   0.00021,  -0.00085,1292864.26517,   1.00000
456534523.35845,357321281.64743,-133584137.82945,   0.00216,   0.00095,  -0.00260,475927446.12227,   0.00118,275927450.41596,   0.00078,   0.00021,  -0.00086,1294437.19709,   1.00000
456036452.80346,357701922.17265,-133814538.40386,   0.00216,   0.00095,  -0.00261,475934646.48803,   0.00119,275934653.62878,   0.00078,   0.00021,  -0.00087,1283582.50760,   1.00000
455538490.18917,358080341.27386,-134043760.27763,   0.00216,   0.00096,  -0.00261,475941863.91660,   0.00120,275941869.24689,   0.00079,   0.00022,  -0.00087,1285164.58081,   1.00000
455038250.06790,358460446.94756,-134272062.10445,   0.00216,   0.00096,  -0.00262,475948995.73218,   0.00120,275949003.57700,   0.00079,   0.00022,  -0.00088,1270065.63370,   1.00000
454538112.47279,358838342.77763,-134499197.75489,   0.00216,   0.00097,  -0.00263,475956144.53313,   0.00121,275956150.26345,   0.00079,   0.00022,  -0.00088,1271647.06156,   1.00000
454031692.73437,359214979.88314,-134729119.53957,   0.00216,   0.00097,  -0.00264,475963235.30659,   0.00122,275963239.91929,   0.00080,   0.00022,  -0.00089,1260874.38320,   1.00000
453531791.18243,359588465.83124,-134953918.41120,   0.00216,   0.00097,  -0.00265,475970408.38547,   0.00122,275970411.39906,   0.00080,   0.00022,  -0.00089,1274808.39150,   1.00000
453024621.71951,359971942.75752,-135178517.53697,   0.00216,   0.00098,  -0.00265,475977572.02397,   0.00123,275977578.37165,   0.00080,   0.00022,  -0.00090,1273390.28280,   1.00000
452515987.43008,360345912.31201,-135405244.02887,   0.00216,   0.00098,  -0.00266,475984610.47085,   0.00124,275984611.50467,   0.00081,   0.00023,  -0.00090,1249004.05236,   1.00000
452007450.97797,360717692.04266,-135630813.11098,   0.00216,   0.00099,  -0.00267,475991656.42348,   0.00124,275991657.08606,   0.00081,   0.00023,  -0.00091,1250599.44911,   1.00000
451498075.48693,361098472.00813,-135852204.84938,   0.00217,   0.00099,  -0.00268,475998758.57966,   0.00125,275998767.86756,   0.00081,   0.00023,  -0.00091,1261558.92931,   1.00000
450987161.00836,361469846.28005,-136075786.57492,   0.00217,   0.00100,  -0.00269,476005744.16291,   0.00126,276005744.39473,   0.00082,   0.00023,  -0.00092,1237148.84412,   1.00000
450482000.01843,361849253.43613,-136291227.10838,   0.00217,   0.00100,  -0.00270,476012851.63316,   0.00126,276012855.25665,   0.00082,   0.00023,  -0.00092,1260379.11408,   1.00000
449964663.94066,362217216.23885,-136516511.73207,   0.00217,   0.00100,  -0.00270,476019785.81052,   0.00127,276019787.29469,   0.00083,   0.00023,  -0.00093,1228080.00554,   1.00000
449453149.86461,362593191.87306,-136733633.48426,   0.00217,   0.00101,  -0.00271,476026852.27467,   0.00128,276026853.82409,   0.00083,   0.00024,  -0.00093,1251311.56611,   1.00000
448935079.41065,362967913.07763,-136953585.50834,   0.00217,   0.00101,  -0.00272,476033860.47541,   0.00128,276033863.80221,   0.00083,   0.00024,  -0.00094,1240700.05506,   1.00000
448422032.39546,363332427.96556,-137171843.08954,   0.00217,   0.00102,  -0.00273,476040807.25845,   0.00129,276040807.94878,   0.00084,   0.00024,  -0.00094,1228462.47176,   1.00000
447908173.50954,363705876.56330,-137385900.08541,   0.00217,   0.00102,  -0.00274,476047810.94341,   0.00129,276047817.72026,   0.00084,   0.00024,  -0.00095,1239484.67142,   1.00000
447387680.96608,364078093.62908,-137602808.17623,   0.00217,   0.00103,  -0.00274,476054765.54224,   0.00130,276054770.97991,   0.00084,   0.00024,  -0.00096,1228908.49082,   1.00000
446871274.08810,364451229.55819,-137814973.51841,   0.00217,   0.00103,  -0.00275,476061707.98921,   0.00131,276061711.54367,   0.00085,   0.00024,  -0.00096,1226097.47998,   1.00000
446354996.33211,364822197.50510,-138026034.92182,   0.00217,   0.00104,  -0.00276,476068657.71918,   0.00131,276068664.24701,   0.00085,   0.00025,  -0.00097,1227670.69334,   1.00000
445838867.46127,365191014.01695,-138236000.35371,   0.00217,   0.00104,  -0.00277,476075623.97470,   0.00132,276075628.98435,   0.00085,   0.00025,  -0.00097,1229230.42729,   1.00000
445315991.55354,365558616.29043,-138448835.67975,   0.00217,   0.00105,  -0.00278,476082531.60183,   0.00133,276082537.37270,   0.00086,   0.00025,  -0.00098,1218711.80239,   1.00000
444797218.14546,365927199.36947,-138656965.13592,   0.00217,   0.00105,  -0.00278,476089426.60716,   0.00133,276089432.73658,   0.00086,   0.00025,  -0.00098,1215856.90846,   1.00000
444274632.10559,366290504.99618,-138867609.40713,   0.00217,   0.00105,  -0.00279,476096358.16641,   0.00134,276096365.36424,   0.00086,   0.00025,  -0.00099,1221853.66793,   1.00000
443749182.13807,366655757.30635,-139077530.90943,   0.00217,   0.00106,  -0.00280,476103210.86376,   0.00135,276103216.56766,   0.00087,   0.00026,  -0.00099,1206943.22284,   1.00000
443234857.71601,367021104.92281,-139278808.55839,   0.00217,   0.00106,  -0.00281,476110116.33276,   0.00135,276110122.66101,   0.00087,   0.00026,  -0.00100,1216073.51711,   1.00000
442709699.12706,367382110.13975,-139486584.21833,   0.00217,   0.00107,  -0.00282,476116992.59528,   0.00136,276116997.76355,   0.00087,   0.00026,  -0.00100,1210057.78597,   1.00000
442188669.09909,367744174.61197,-139689698.95841,   0.00217,   0.00107,  -0.00282,476123855.61461,   0.00137,276123859.42145,   0.00087,   0.00026,  -0.00101,1207149.56434,   1.00000
441667807.64573,368104135.02457,-139891752.94179,   0.00217,   0.00108,  -0.00283,476130725.59385,   0.00137,276130732.91386,   0.00088,   0.00026,  -0.00101,1208685.51133,   1.00000
441143952.18598,368466115.83878,-140093144.85878,   0.00217,   0.00108,  -0.00284,476137516.05300,   0.00138,276137524.71226,   0.00088,   0.00026,  -0.00102,1193786.17933,   1.00000
440626518.06706,368835925.54215,-140286322.73737,   0.00217,   0.00109,  -0.00285,476144448.48835,   0.00138,276144450.80778,   0.00088,   0.00027,  -0.00102,1216880.54238,   1.00000
440099024.20902,369190494.04176,-140489202.54585,   0.00217,   0.00109,  -0.00285,476151282.59977,   0.00139,276151291.60528,   0.00089,   0.00027,  -0.00103,1201343.13577,   1.00000
439579654.65114,369549422.91973,-140683908.77721,   0.00217,   0.00109,  -0.00286,476158091.00176,   0.00140,276158092.76869,   0.00089,   0.00027,  -0.00103,1193876.27626,   1.00000
439056506.47211,369903060.01552,-140881147.69944,   0.00217,   0.00110,  -0.00287,476164927.04935,   0.00140,276164931.21328,   0.00089,   0.00027,  -0.00104,1199887.95103,   1.00000
438536617.13331,370268645.95327,-141070569.46535,   0.00217,   0.00110,  -0.00288,476171809.35430,   0.00141,276171810.52349,   0.00090,   0.00027,  -0.00104,1206558.89214,   1.00000
438017834.43599,370621373.12385,-141262215.39108,   0.00217,   0.00111,  -0.00289,476178637.42548,   0.00142,276178646.13025,   0.00090,   0.00028,  -0.00105,1198377.54319,   1.00000
437491930.63727,370972977.39041,-141456818.96079,   0.00217,   0.00111,  -0.00289,476185415.69998,   0.00142,276185425.60396,   0.00090,   0.00028,  -0.00105,1188018.28903,   1.00000
436970200.21320,371325801.30046,-141646865.31142,   0.00217,   0.00112,  -0.00290,476192188.30726,   0.00143,276192190.62516,   0.00091,   0.00028,  -0.00106,1184991.28712,   1.00000
436455173.70225,371686391.57319,-141828680.66707,   0.00217,   0.00112,  -0.00291,476199084.11777,   0.00144,276199089.78265,   0.00091,   0.00028,  -0.00106,1207999.83840,   1.00000
435933854.34516,372035137.55403,-142016750.73622,   0.00217,   0.00113,  -0.00292,476205869.28589,   0.00144,276205877.22472,   0.00091,   0.00028,  -0.00107,1187941.68983,   1.00000
435416730.05598,372385158.02272,-142200303.90840,   0.00217,   0.00113,  -0.00292,476212648.08438,   0.00145,276212649.77384,   0.00092,   0.00029,  -0.00108,1184859.16563,   1.00000
434894975.80443,372740540.99647,-142383117.50082,   0.00217,   0.00114,  -0.00293,476219506.92096,   0.00145,276219515.24781,   0.00092,   0.00029,  -0.00108,1200621.28314,   1.00000
434378327.98589,373086541.16314,-142564727.08239,   0.00217,   0.00114,  -0.00294,476226306.81288,   0.00146,276226309.85945,   0.00092,   0.00029,  -0.00109,1187757.36335,   1.00000
433858330.12938,373434749.00774,-142745812.14502,   0.00217,   0.00114,  -0.00295,476233016.94357,   0.00147,276233022.27380,   0.00092,   0.00029,  -0.00109,1172915.44994,   1.00000
433346147.21183,373780084.26959,-142921981.15431,   0.00217,   0.00115,  -0.00295,476239806.57689,   0.00147,276239812.53968,   0.00093,   0.00029,  -0.00110,1186054.15580,   1.00000
432829394.16046,374130739.22130,-143097403.68053,   0.00217,   0.00115,  -0.00296,476246694.58796,   0.00148,276246695.79528,   0.00093,   0.00029,  -0.00110,1201834.62775,   1.00000
432314062.00239,374476340.01441,-143272141.76645,   0.00217,   0.00116,  -0.00297,476253408.99485,   0.00149,276253414.35492,   0.00093,   0.00030,  -0.00111,1172625.71485,   1.00000
431802704.58744,374815775.39915,-143445499.64873,   0.00217,   0.00116,  -0.00298,476260233.21933,   0.00149,276260236.60287,   0.00094,   0.00030,  -0.00111,1190264.54158,   1.00000
431287013.87129,375168040.77987,-143615041.23249,   0.00217,   0.00117,  -0.00298,476267029.46284,   0.00150,276267032.69026,   0.00094,   0.00030,  -0.00112,1185261.37722,   1.00000
430780187.74716,375506907.60540,-143783055.15540,   0.00217,   0.00117,  -0.00299,476273841.92888,   0.00150,276273849.56260,   0.00094,   0.00030,  -0.00112,1188442.50389,   1.00000
430269870.63800,375848099.41555,-143950629.01898,   0.00217,   0.00118,  -0.00300,476280582.30725,   0.00151,276280583.67005,   0.00095,   0.00030,  -0.00113,1173588.91912,   1.00000
429755882.32346,376184003.16643,-144120789.26274,   0.00217,   0.00118,  -0.00301,476287350.37404,   0.00152,276287354.68114,   0.00095,   0.00031,  -0.00113,1179569.29184,   1.00000
429253948.57412,376520500.61013,-144282606.19111,   0.00217,   0.00118,  -0.00301,476294173.26697,   0.00152,276294175.89475,   0.00095,   0.00031,  -0.00114,1187895.62193,   1.00000
428748438.86716,376859352.36246,-144444010.82445,   0.00217,   0.00119,  -0.00302,476300906.03036,   0.00153,276300914.24013,   0.00095,   0.00031,  -0.00114,1173047.17561,   1.00000
428238428.31155,377203382.18487,-144604635.13573,   0.00217,   0.00119,  -0.00303,476307737.68858,   0.00154,276307746.08192,   0.00096,   0.00031,  -0.00115,1188903.96490,   1.00000
427733535.49806,377538436.34867,-144764294.32794,   0.00217,   0.00120,  -0.00304,476314497.87010,   0.00154,276314504.49807,   0.00096,   0.00031,  -0.00115,1175718.99907,   1.00000
427240819.95128,377874161.84708,-144915674.08254,   0.00217,   0.00120,  -0.00304,476321311.15742,   0.00155,276321312.21485,   0.00096,   0.00032,  -0.00116,1183915.24260,   1.00000
426736554.63739,378205486.25277,-145073633.84351,   0.00217,   0.00121,  -0.00305,476328089.09060,   0.00156,276328090.19896,   0.00097,   0.00032,  -0.00116,1178337.02159,   1.00000
426244526.13967,378537511.69958,-145223328.59014,   0.00217,   0.00121,  -0.00306,476334910.56993,   0.00156,276334917.23790,   0.00097,   0.00032,  -0.00117,1186476.76980,   1.00000
425744858.17194,378868563.20461,-145376143.23738,   0.00217,   0.00122,  -0.00306,476341682.83381,   0.00157,276341687.76781,   0.00097,   0.00032,  -0.00117,1176268.59514,   1.00000
425249463.35164,379201202.87559,-145524662.45634,   0.00217,   0.00122,  -0.00307,476348435.98684,   0.00157,276348441.07762,   0.00097,   0.00032,  -0.00118,1172901.83463,   1.00000
424758525.96971,379527732.95861,-145671885.26407,   0.00217,   0.00123,  -0.00308,476355287.07227,   0.00158,276355296.48710,   0.00098,   0.00033,  -0.00119,1190249.93056,   1.00000
424268594.84920,379849864.68742,-145818772.64929,   0.00217,   0.00123,  -0.00309,476361979.28111,   0.00159,276361984.09575,   0.00098,   0.00033,  -0.00119,1160756.31560,   1.00000
423782344.57556,380176254.13470,-145960931.03761,   0.00217,   0.00123,  -0.00309,476368823.09907,   0.00159,276368831.06615,   0.00098,   0.00033,  -0.00120,1188048.43241,   1.00000
423300407.19794,380504317.07070,-146098856.51150,   0.00217,   0.00124,  -0.00310,476375655.66335,   0.00160,276375660.05481,   0.00099,   0.00033,  -0.00120,1184589.19513,   1.00000
422810690.58323,380831434.41564,-146239939.97754,   0.00217,   0.00124,  -0.00311,476382430.26309,   0.00161,276382432.45045,   0.00099,   0.00033,  -0.00121,1174422.47213,   1.00000
422330351.37765,381145666.92990,-146379782.72652,   0.00217,   0.00125,  -0.00311,476389214.87249,   0.00161,276389221.55770,   0.00099,   0.00034,  -0.00121,1176962.79114,   1.00000
421853503.35466,381471914.18588,-146511947.90528,   0.00217,   0.00125,  -0.00312,476396041.97717,   0.00162,276396050.19118,   0.00099,   0.00034,  -0.00122,1183487.19414,   1.00000
421377876.55171,381786180.53812,-146646855.31868,   0.00217,   0.00126,  -0.00313,476402826.36624,   0.00163,276402829.42590,   0.00100,   0.00034,  -0.00122,1174596.93534,   1.00000
420905739.18465,382112453.61516,-146774095.23363,   0.00217,   0.00126,  -0.00314,476409643.94182,   0.00163,276409648.11188,   0.00100,   0.00034,  -0.00123,1181121.70466,   1.00000
420430903.34100,382423295.40210,-146907540.96082,   0.00217,   0.00127,  -0.00314,476416442.38969,   0.00164,276416444.23501,   0.00100,   0.00035,  -0.00123,1176883.58551,   1.00000
419967884.46857,382745328.80448,-147029403.58233,   0.00217,   0.00127,  -0.00315,476423342.45053,   0.00164,276423344.86099,   0.00101,   0.00035,  -0.00124,1194683.38376,   1.00000
419501675.62672,383059803.12773,-147154565.46530,   0.00217,   0.00127,  -0.00316,476430097.45439,   0.00165,276430103.04956,   0.00101,   0.00035,  -0.00124,1169722.99039,   1.00000
419035875.70281,383372615.97376,-147279028.75806,   0.00217,   0.00128,  -0.00316,476436863.48276,   0.00166,276436869.32271,   0.00101,   0.00035,  -0.00125,1170820.41499,   1.00000
418578870.34592,383682963.01378,-147398884.33443,   0.00217,   0.00128,  -0.00317,476443699.59830,   0.00166,276443708.53470,   0.00101,   0.00035,  -0.00125,1183148.55529,   1.00000
418122307.34580,383991687.13749,-147518069.15947,   0.00217,   0.00129,  -0.00318,476450555.30343,   0.00167,276450555.45110,   0.00102,   0.00036,  -0.00126,1184203.97572,   1.00000
417670075.07385,384302309.07461,-147633162.58445,   0.00217,   0.00129,  -0.00318,476457379.17897,   0.00168,276457382.81432,   0.00102,   0.00036,  -0.00127,1180548.49144,   1.00000
417218279.06877,384611315.42020,-147747601.70739,   0.00217,   0.00130,  -0.00319,476464213.38776,   0.00168,276464217.72980,   0.00102,   0.00036,  -0.00127,1181583.79197,   1.00000
416766924.81084,384918713.49100,-147861389.94457,   0.00217,   0.00130,  -0.00320,476471057.87979,   0.00169,276471060.16022,   0.00102,   0.00036,  -0.00128,1182616.42579,   1.00000
416328414.46516,385227262.96355,-147967221.05783,   0.00217,   0.00131,  -0.00321,476477945.70769,   0.00170,276477947.17553,   0.00103,   0.00036,  -0.00128,1190081.24342,   1.00000
415882617.15644,385524964.56943,-148079891.64060,   0.00217,   0.00131,  -0.00321,476484712.49322,   0.00170,276484718.00202,   0.00103,   0.00037,  -0.00129,1169738.85699,   1.00000
415448923.58202,385833941.33849,-148181070.33411,   0.00217,   0.00131,  -0.00322,476491586.07456,   0.00171,276491591.88783,   0.00103,   0.00037,  -0.00129,1187315.33090,   1.00000
415012582.31329,386127760.56312,-148288626.27691,   0.00217,   0.00132,  -0.00323,476498438.60286,   0.00171,276498441.17141,   0.00104,   0.00037,  -0.00130,1182820.38046,   1.00000
414583696.04293,386437221.94408,-148385199.72419,   0.00217,   0.00132,  -0.00323,476505297.19815,   0.00172,276505301.41005,   0.00104,   0.00037,  -0.00130,1184501.91464,   1.00000
414160772.96793,386730769.04303,-148484285.21425,   0.00217,   0.00133,  -0.00324,476512191.05016,   0.00173,276512201.00016,   0.00104,   0.00037,  -0.00131,1191068.92542,   1.00000
413733580.52944,387027205.29747,-148583295.85939,   0.00217,   0.00133,  -0.00325,476519012.54134,   0.00173,276519015.32430,   0.00104,   0.00038,  -0.00131,1176140.46804,   1.00000
413315509.12451,387321368.62717,-148677849.37889,   0.00217,   0.00134,  -0.00325,476525899.29293,   0.00174,276525900.34323,   0.00105,   0.00038,  -0.00132,1188136.84350,   1.00000
412901788.26275,387617652.21043,-148768458.39020,   0.00217,   0.00134,  -0.00326,476532760.60645,   0.00175,276532764.09007,   0.00105,   0.00038,  -0.00132,1184274.18078,   1.00000
412488539.50357,387912471.46836,-148858531.75055,   0.00217,   0.00134,  -0.00327,476539630.41500,   0.00175,276539634.00063,   0.00105,   0.00038,  -0.00133,1185148.32300,   1.00000
412084494.63379,388205064.57713,-148944196.56332,   0.00217,   0.00135,  -0.00327,476546572.85522,   0.00176,276546573.90407,   0.00105,   0.00039,  -0.00134,1197049.01803,   1.00000
411676053.81364,388500592.49251,-149029833.80140,   0.00217,   0.00135,  -0.00328,476553425.04031,   0.00177,276553428.22542,   0.00106,   0.00039,  -0.00134,1182114.47984,   1.00000
411273754.62696,388780396.92882,-149118088.30652,   0.00217,   0.00136,  -0.00328,476560318.83843,   0.00177,276560320.35834,   0.00106,   0.00039,  -0.00135,1188450.22674,   1.00000
410878914.39305,389075944.48242,-149195443.12304,   0.00217,   0.00136,  -0.00329,476567216.59001,   0.00178,276567222.50730,   0.00106,   0.00039,  -0.00135,1190028.22723,   1.00000
410494125.12177,389359441.98277,-149272080.97559,   0.00217,   0.00137,  -0.00330,476574129.38845,   0.00179,276574134.09000,   0.00106,   0.00039,  -0.00136,1191512.43615,   1.00000
410100987.85935,389642336.51097,-149352117.06461,   0.00217,   0.00137,  -0.00330,476580977.53164,   0.00179,276580987.43866,   0.00107,   0.00040,  -0.00136,1181313.78429,   1.00000
409716436.40265,389932960.36478,-149424178.80563,   0.00217,   0.00137,  -0.00331,476587960.94315,   0.00180,276587969.51989,   0.00107,   0.00040,  -0.00137,1203373.27043,   1.00000
409345853.95496,390215248.41396,-149492192.23654,   0.00217,   0.00138,  -0.00332,476594923.15349,   0.00180,276594932.59593,   0.00107,   0.00040,  -0.00137,1199984.87021,   1.00000
408967630.66624,390487150.41351,-149567284.86342,   0.00217,   0.00138,  -0.00332,476601773.98416,   0.00181,276601777.19074,   0.00107,   0.00040,  -0.00138,1179436.31955,   1.00000
408601899.91068,390770459.46119,-149631051.60636,   0.00217,   0.00139,  -0.00333,476608715.03549,   0.00182,276608722.34728,   0.00108,   0.00041,  -0.00138,1196659.07508,   1.00000
408232815.39050,391048803.81915,-149697783.08938,   0.00218,   0.00139,  -0.00334,476615697.57771,   0.00182,276615699.96639,   0.00108,   0.00041,  -0.00139,1202146.25783,   1.00000
407872658.60401,391323372.64268,-149761012.17985,   0.00218,   0.00140,  -0.00334,476622560.88742,   0.00183,276622566.60321,   0.00108,   0.00041,  -0.00140,1182928.47537,   1.00000
407517365.79232,391602036.52888,-149819703.73715,   0.00218,   0.00140,  -0.00335,476629582.54224,   0.00184,276629588.86513,   0.00109,   0.00041,  -0.00140,1209651.69306,   1.00000
407167150.35710,391873329.11590,-149878310.32567,   0.00218,   0.00140,  -0.00336,476636519.16682,   0.00184,276636527.42682,   0.00109,   0.00042,  -0.00141,1195153.23344,   1.00000
406821264.65246,392147055.91439,-149933175.38257,   0.00218,   0.00141,  -0.00336,476643435.76705,   0.00185,276643442.32699,   0.00109,   0.00042,  -0.00141,1191012.21578,   1.00000
406484877.94558,392418804.84269,-149983840.03618,   0.00218,   0.00141,  -0.00337,476650418.25069,   0.00186,276650424.27581,   0.00109,   0.00042,  -0.00142,1202506.62263,   1.00000
406140677.26700,392680360.20228,-150041678.40134,   0.00218,   0.00142,  -0.00337,476657280.81081,   0.00186,276657286.85469,   0.00110,   0.00042,  -0.00142,1181870.56420,   1.00000
405814336.40123,392948960.98403,-150087804.76379,   0.00218,   0.00142,  -0.00338,476664333.82660,   0.00187,276664339.53951,   0.00110,   0.00042,  -0.00143,1214568.74919,   1.00000
405483239.46333,393220784.37527,-150134074.04798,   0.00218,   0.00143,  -0.00339,476671297.48739,   0.00188,276671305.16413,   0.00110,   0.00043,  -0.00143,1199539.88573,   1.00000
405166268.43912,393484688.86859,-150176523.72126,   0.00218,   0.00143,  -0.00339,476678242.85264,   0.00188,276678248.70059,   0.00110,   0.00043,  -0.00144,1195714.96136,   1.00000
404845949.13852,393743747.54240,-150222033.75827,   0.00218,   0.00143,  -0.00340,476685219.35429,   0.00189,276685223.53895,   0.00111,   0.00043,  -0.00145,1201070.10562,   1.00000
404539052.09069,394004633.50507,-150260052.27686,   0.00218,   0.00144,  -0.00340,476692232.85382,   0.00190,276692236.45203,   0.00111,   0.00043,  -0.00145,1207618.85070,   1.00000
404236440.05557,394268088.12854,-150294428.24102,   0.00218,   0.00144,  -0.00341,476699215.32726,   0.00190,276699224.55384,   0.00111,   0.00044,  -0.00146,1203347.84460,   1.00000
403935025.21351,394520796.50988,-150332247.25100,   0.00218,   0.00145,  -0.00342,476706145.62659,   0.00191,276706154.89475,   0.00111,   0.00044,  -0.00146,1193394.65189,   1.00000
403633356.70470,394782038.84638,-150366084.75819,   0.00218,   0.00145,  -0.00342,476713146.10638,   0.00192,276713148.94412,   0.00112,   0.00044,  -0.00147,1204376.54774,   1.00000
403345864.17675,395035546.82472,-150396202.96373,   0.00218,   0.00145,  -0.00343,476720115.98711,   0.00192,276720119.55808,   0.00112,   0.00044,  -0.00147,1200361.44254,   1.00000
403068019.76727,395287261.25258,-150422270.55217,   0.00218,   0.00146,  -0.00343,476727146.56246,   0.00193,276727155.13538,   0.00112,   0.00045,  -0.00148,1211577.73804,   1.00000
402781426.14986,395538655.95660,-150451923.08549,   0.00218,   0.00146,  -0.00344,476734124.16570,   0.00194,276734130.84043,   0.00112,   0.00045,  -0.00148,1201292.63552,   1.00000
402517538.03151,395791270.46976,-150470375.95725,   0.00219,   0.00147,  -0.00345,476741200.82212,   0.00194,276741205.55161,   0.00113,   0.00045,  -0.00149,1218407.30981,   1.00000
402244851.31802,396043570.17921,-150492434.17367,   0.00219,   0.00147,  -0.00345,476748215.64480,   0.00195,276748220.22059,   0.00113,   0.00045,  -0.00150,1208119.70295,   1.00000
401986378.12393,396288299.20298,-150510863.88911,   0.00219,   0.00147,  -0.00346,476755206.20002,   0.00196,276755210.23389,   0.00113,   0.00046,  -0.00150,1203937.97076,   1.00000
401727611.59531,396541558.49279,-150525370.11274,   0.00219,   0.00148,  -0.00346,476762256.77071,   0.00196,276762263.32006,   0.00113,   0.00046,  -0.00151,1214876.45375,   1.00000
401479280.08383,396783560.14021,-150539645.60922,   0.00219,   0.00148,  -0.00347,476769317.97298,   0.00197,276769319.18275,   0.00114,   0.00046,  -0.00151,1215440.21962,   1.00000
401235156.64184,397028322.33594,-150550396.30254,   0.00219,   0.00149,  -0.00348,476776345.93082,   0.00198,276776348.85624,   0.00114,   0.00046,  -0.00152,1211020.94307,   1.00000
400992167.76353,397262618.32303,-150564733.64559,   0.00219,   0.00149,  -0.00348,476783310.40956,   0.00198,276783319.01830,   0.00114,   0.00047,  -0.00152,1200841.88791,   1.00000
400761978.02910,397508492.14860,-150568026.87776,   0.00219,   0.00149,  -0.00349,476790380.48266,   0.00199,276790385.86938,   0.00114,   0.00047,  -0.00153,1217621.68883,   1.00000
400542229.75016,397743211.75998,-150571157.74917,   0.00219,   0.00150,  -0.00349,476797449.70566,   0.00199,276797454.60545,   0.00115,   0.00047,  -0.00153,1218069.38565,   1.00000
400313537.37666,397977743.46823,-150577950.00564,   0.00219,   0.00150,  -0.00350,476804458.13964,   0.00200,276804462.77631,   0.00115,   0.00047,  -0.00154,1207741.26488,   1.00000
400098369.89057,398214392.98508,-150577479.67793,   0.00220,   0.00151,  -0.00350,476811504.71412,   0.00201,276811505.99084,   0.00115,   0.00048,  -0.00155,1213917.42055,   1.00000
399892934.87742,398449403.86308,-150573125.22100,   0.00220,   0.00151,  -0.00351,476818606.39997,   0.00201,276818611.95575,   0.00115,   0.00048,  -0.00155,1224878.14181,   1.00000
399692366.93794,398677858.75168,-150569088.03220,   0.00220,   0.00151,  -0.00351,476825625.41207,   0.00202,276825629.38322,   0.00116,   0.00048,  -0.00156,1209768.65692,   1.00000
399492161.58123,398905454.41676,-150564964.88960,   0.00220,   0.00152,  -0.00352,476832646.14896,   0.00203,276832647.61296,   0.00116,   0.00048,  -0.00156,1210056.62161,   1.00000
399304744.13003,399144625.30909,-150549868.49715,   0.00220,   0.00152,  -0.00353,476839760.12019,   0.00203,276839761.67512,   0.00116,   0.00049,  -0.00157,1226769.83352,   1.00000
399128509.49431,399363402.93511,-150538486.45121,   0.00220,   0.00153,  -0.00353,476846812.55520,   0.00204,276846814.69395,   0.00116,   0.00049,  -0.00157,1216421.42337,   1.00000
398942470.33228,399591477.70456,-150527045.16164,   0.00220,   0.00153,  -0.00354,476853862.75570,   0.00205,276853868.21993,   0.00117,   0.00049,  -0.00158,1216681.87879,   1.00000
398770673.59176,399812386.20832,-150512202.15276,   0.00220,   0.00153,  -0.00354,476860890.31752,   0.00205,276860894.10461,   0.00117,   0.00049,  -0.00159,1212104.80963,   1.00000
398607888.25216,400041112.72760,-150489786.22963,   0.00220,   0.00154,  -0.00355,476868036.84993,   0.00206,276868043.21886,   0.00117,   0.00050,  -0.00159,1233580.59410,   1.00000
398446137.27266,400259664.54379,-150471127.24402,   0.00221,   0.00154,  -0.00355,476875126.76480,   0.00207,276875130.75216,   0.00117,   0.00050,  -0.00160,1223165.01454,   1.00000
398298606.77718,400471132.04843,-150449108.22905,   0.00221,   0.00155,  -0.00356,476882182.84622,   0.00207,276882190.10546,   0.00118,   0.00050,  -0.00160,1218516.69651,   1.00000
398154377.30247,400694950.94537,-150419946.74579,   0.00221,   0.00155,  -0.00356,476889278.90376,   0.00208,276889283.08536,   0.00118,   0.00050,  -0.00161,1224569.53853,   1.00000
398011142.33173,400908657.81441,-150394570.70535,   0.00221,   0.00155,  -0.00357,476896308.60000,   0.00209,276896314.16631,   0.00118,   0.00051,  -0.00161,1214112.46074,   1.00000
397877638.06929,401120875.75404,-150365450.08811,   0.00221,   0.00156,  -0.00357,476903397.92938,   0.00209,276903406.18566,   0.00118,   0.00051,  -0.00162,1224876.46612,   1.00000
397757601.61437,401335397.55702,-150329245.04566,   0.00221,   0.00156,  -0.00358,476910527.82155,   0.00210,276910531.01958,   0.00119,   0.00051,  -0.00162,1230823.74118,   1.00000
397638523.53520,401539888.13406,-150296861.05889,   0.00221,   0.00156,  -0.00358,476917590.61321,   0.00211,276917593.50996,   0.00119,   0.00051,  -0.00163,1220313.85787,   1.00000
397522665.07874,401756724.54508,-150257360.03454,   0.00222,   0.00157,  -0.00359,476924683.62173,   0.00211,276924689.41645,   0.00119,   0.00052,  -0.00164,1226370.65287,   1.00000
397417248.19120,401962808.22260,-150217957.71041,   0.00222,   0.00157,  -0.00359,476931776.76801,   0.00212,276931783.80182,   0.00119,   0.00052,  -0.00164,1226393.22440,   1.00000
397321526.04332,402167448.17058,-150174878.20546,   0.00222,   0.00158,  -0.00360,476938936.68417,   0.00213,276938938.29534,   0.00120,   0.00052,  -0.00165,1237091.98969,   1.00000
397230453.20061,402365931.67117,-150132289.73979,   0.00222,   0.00158,  -0.00360,476946000.92347,   0.00213,276946002.22456,   0.00120,   0.00052,  -0.00165,1221733.57600,   1.00000
397139543.04691,402563742.70374,-150089766.97052,   0.00222,   0.00158,  -0.00361,476953055.56662,   0.00214,276953065.23680,   0.00120,   0.00053,  -0.00166,1221863.65448,   1.00000
397061289.81649,402773156.14611,-150036432.09429,   0.00222,   0.00159,  -0.00361,476960215.49659,   0.00215,276960222.18468,   0.00120,   0.00053,  -0.00166,1238459.21723,   1.00000
396984676.39015,402963437.91787,-149990778.76733,   0.00223,   0.00159,  -0.00362,476967249.12093,   0.00215,276967254.09424,   0.00121,   0.00053,  -0.00167,1217136.13282,   1.00000
396920681.92891,403165328.93498,-149934323.95129,   0.00223,   0.00159,  -0.00362,476974378.14141,   0.00216,276974379.83713,   0.00121,   0.00053,  -0.00168,1233733.42600,   1.00000
396867059.60623,403356587.56144,-149878049.73203,   0.00223,   0.00160,  -0.00363,476981494.63667,   0.00217,276981503.05108,   0.00121,   0.00054,  -0.00168,1233644.51560,   1.00000
396804013.66142,403547992.90030,-149825615.77551,   0.00223,   0.00160,  -0.00363,476988563.77418,   0.00217,276988563.98514,   0.00121,   0.00054,  -0.00169,1223205.12851,   1.00000
396763827.79733,403741021.91297,-149762476.15470,   0.00223,   0.00160,  -0.00364,476995715.20370,   0.00218,276995717.33519,   0.00122,   0.00054,  -0.00169,1239594.53389,   1.00000
396728173.91565,403928047.10081,-149699895.69421,   0.00224,   0.00161,  -0.00364,477002778.82427,   0.00219,277002779.36497,   0.00122,   0.00054,  -0.00170,1224151.43669,   1.00000
396688077.74673,404119830.11958,-149637029.77826,   0.00224,   0.00161,  -0.00365,477009928.17276,   0.00219,277009929.34812,   0.00122,   0.00055,  -0.00170,1239777.44581,   1.00000
396666526.88502,404299500.02591,-149571428.82030,   0.00224,   0.00161,  -0.00365,477016957.49065,   0.00220,277016959.03986,   0.00122,   0.00055,  -0.00171,1219310.16616,   1.00000
396650032.19583,404483164.75555,-149501848.83805,   0.00224,   0.00162,  -0.00366,477024136.39840,   0.00221,277024137.08683,   0.00123,   0.00055,  -0.00172,1245451.19060,   1.00000
396641713.62183,404664683.86929,-149429463.49174,   0.00224,   0.00162,  -0.00366,477031189.10825,   0.00221,277031196.09980,   0.00123,   0.00055,  -0.00172,1225211.87573,   1.00000
396629673.25470,404841838.89786,-149360629.43932,   0.00225,   0.00163,  -0.00367,477038278.15593,   0.00222,277038280.60880,   0.00123,   0.00056,  -0.00173,1230044.55215,   1.00000
396630844.86750,405021424.84301,-149284865.97457,   0.00225,   0.00163,  -0.00367,477045391.32496,   0.00223,277045396.21513,   0.00123,   0.00056,  -0.00173,1235874.21754,   1.00000
396645193.83809,405203433.66849,-149202195.38454,   0.00225,   0.00163,  -0.00368,477052537.23568,   0.00223,277052542.69347,   0.00124,   0.00056,  -0.00174,1241698.93379,   1.00000
396660250.50316,405375762.86092,-149123518.95590,   0.00225,   0.00164,  -0.00368,477059622.60219,   0.00224,277059624.83210,   0.00124,   0.00056,  -0.00174,1230969.19815,   1.00000
396684745.38461,405546735.32186,-149041330.44595,   0.00225,   0.00164,  -0.00369,477066759.32374,   0.00225,277066765.23353,   0.00124,   0.00057,  -0.00175,1241552.81849,   1.00000
396713625.70695,405711876.16907,-148959747.45942,   0.00226,   0.00164,  -0.00369,477073806.64663,   0.00225,277073813.83538,   0.00124,   0.00057,  -0.00176,1226046.21401,   1.00000
396754794.79382,405888552.57612,-148867482.12337,   0.00226,   0.00165,  -0.00370,477080953.94701,   0.00226,277080955.16272,   0.00124,   0.00057,  -0.00176,1242681.24655,   1.00000
396792911.09046,406051792.65567,-148782624.24842,   0.00226,   0.00165,  -0.00370,477088050.13742,   0.00227,277088059.34429,   0.00125,   0.00057,  -0.00177,1236682.19408,   1.00000
396848605.94783,406212227.78170,-148691290.23524,   0.00226,   0.00165,  -0.00370,477095098.59507,   0.00228,277095104.68766,   0.00125,   0.00058,  -0.00177,1226937.60640,   1.00000
396899586.14954,406377411.27086,-148599781.86792,   0.00227,   0.00166,  -0.00371,477102233.31749,   0.00228,277102236.87034,   0.00125,   0.00058,  -0.00178,1242560.79115,   1.00000
396968085.72437,406539765.09655,-148501801.90923,   0.00227,   0.00166,  -0.00371,477109300.76669,   0.00229,277109310.25582,   0.00125,   0.00058,  -0.00178,1232835.70951,   1.00000
397042186.47324,406696980.84723,-148403782.25385,   0.00227,   0.00166,  -0.00372,477116465.15688,   0.00230,277116468.43781,   0.00126,   0.00059,  -0.00179,1248148.73674,   1.00000
397120541.00296,406848443.90478,-148306390.31991,   0.00227,   0.00166,  -0.00372,477123529.57458,   0.00230,277123534.67039,   0.00126,   0.00059,  -0.00179,1232637.69815,   1.00000
397211814.35450,407002359.98476,-148202149.08140,   0.00228,   0.00167,  -0.00373,477130623.22270,   0.00231,277130631.30767,   0.00126,   0.00059,  -0.00180,1238488.18527,   1.00000
397302780.61968,407155783.08498,-148098167.22528,   0.00228,   0.00167,  -0.00373,477137724.17310,   0.00232,277137725.06632,   0.00126,   0.00059,  -0.00181,1238543.00336,   1.00000
397397099.39328,407312483.18553,-147991025.96947,   0.00228,   0.00167,  -0.00374,477144784.63339,   0.00232,277144788.95574,   0.00127,   0.00060,  -0.00181,1233885.64427,   1.00000
397510954.63398,407457946.12300,-147880580.30451,   0.00228,   0.00168,  -0.00374,477151902.30139,   0.00233,277151908.38979,   0.00127,   0.00060,  -0.00182,1244163.60053,   1.00000
397614930.62783,407603798.08426,-147774082.28888,   0.00229,   0.00168,  -0.00374,477158958.37859,   0.00234,277158964.65133,   0.00127,   0.00060,  -0.00182,1233683.82859,   1.00000
397742077.41653,407742216.54732,-147660863.91710,   0.00229,   0.00168,  -0.00375,477166041.58387,   0.00234,277166049.41887,   0.00127,   0.00060,  -0.00183,1239253.43173,   1.00000
397871586.22762,407892930.97130,-147540720.42584,   0.00229,   0.00169,  -0.00375,477173162.86479,   0.00235,277173166.19657,   0.00128,   0.00061,  -0.00183,1245475.69760,   1.00000
397998757.75135,408021412.69554,-147431855.82237,   0.00229,   0.00169,  -0.00376,477180181.20474,   0.00236,277180182.83213,   0.00128,   0.00061,  -0.00184,1228521.03758,   1.00000
398141410.82011,408165083.83861,-147308952.93499,   0.00230,   0.00169,  -0.00376,477187257.99438,   0.00236,277187264.95445,   0.00128,   0.00061,  -0.00185,1240607.49146,   1.00000
398293948.99024,408298408.36897,-147186461.57604,   0.00230,   0.00170,  -0.00376,477194339.92556,   0.00237,277194342.07587,   0.00128,   0.00061,  -0.00185,1240363.63087,   1.00000
398445963.29741,408431260.81545,-147064263.22537,   0.00230,   0.00170,  -0.00377,477201410.17916,   0.00238,277201416.13465,   0.00129,   0.00062,  -0.00186,1240449.29902,   1.00000
398610576.74761,408566510.01343,-146935263.69703,   0.00231,   0.00170,  -0.00377,477208516.22383,   0.00238,277208520.39504,   0.00129,   0.00062,  -0.00186,1246403.34274,   1.00000
398775541.55642,408692331.01611,-146810345.72946,   0.00231,   0.00170,  -0.00378,477215550.02294,   0.00239,277215559.54470,   0.00129,   0.00062,  -0.00187,1235611.81830,   1.00000
398953052.07592,408820554.11134,-146678630.38643,   0.00231,   0.00171,  -0.00378,477222628.59867,   0.00240,277222628.90269,   0.00129,   0.00063,  -0.00187,1241588.45027,   1.00000
399130877.51201,408939367.50907,-146550992.53416,   0.00232,   0.00171,  -0.00378,477229625.35594,   0.00240,277229633.23544,   0.00130,   0.00063,  -0.00188,1230806.11225,   1.00000
399321186.06524,409060578.72455,-146416557.06300,   0.00232,   0.00171,  -0.00379,477236666.42950,   0.00241,277236667.85025,   0.00130,   0.00063,  -0.00188,1236806.97432,   1.00000
399520239.81056,409180373.73294,-146278775.31764,   0.00232,   0.00172,  -0.00379,477243752.76398,   0.00242,277243759.44480,   0.00130,   0.00063,  -0.00189,1247512.69125,   1.00000
399723222.56190,409294561.86281,-146141634.53784,   0.00232,   0.00172,  -0.00380,477250755.70087,   0.00242,277250759.29708,   0.00130,   0.00064,  -0.00190,1232063.24099,   1.00000
399933927.72377,409416243.67763,-145997394.58940,   0.00233,   0.00172,  -0.00380,477257874.11464,   0.00243,277257877.92444,   0.00131,   0.00064,  -0.00190,1253690.29266,   1.00000
400149490.58787,409523395.42457,-145857553.54256,   0.00233,   0.00172,  -0.00380,477264838.35613,   0.00244,277264843.08889,   0.00131,   0.00064,  -0.00191,1227359.30341,   1.00000
400372695.44837,409638026.73035,-145710622.32930,   0.00233,   0.00173,  -0.00381,477271917.94901,   0.00244,277271927.00829,   0.00131,   0.00064,  -0.00191,1249010.93814,   1.00000
400596112.58921,409743304.91069,-145567789.07227,   0.00234,   0.00173,  -0.00381,477278943.47039,   0.00245,277278945.76351,   0.00131,   0.00065,  -0.00192,1238241.40171,   1.00000
400832738.55664,409842004.22014,-145421915.77534,   0.00234,   0.00173,  -0.00381,477285931.65754,   0.00246,277285933.33876,   0.00132,   0.00065,  -0.00192,1233462.58319,   1.00000
401080508.29993,409951888.45443,-145265503.61437,   0.00234,   0.00173,  -0.00382,477293005.19353,   0.00246,277293013.27824,   0.00132,   0.00065,  -0.00193,1250531.73469,   1.00000
401329427.08705,410043540.89125,-145116940.50710,   0.00235,   0.00174,  -0.00382,477299962.69898,   0.00247,277299966.39589,   0.00132,   0.00065,  -0.00193,1228868.67717,   1.00000
401580095.66068,410147382.46382,-144961490.58275,   0.00235,   0.00174,  -0.00382,477306950.23631,   0.00248,277306951.81311,   0.00132,   0.00066,  -0.00194,1235338.46922,   1.00000
401840199.76557,410240854.78015,-144806479.03495,   0.00235,   0.00174,  -0.00383,477313929.35156,   0.00248,277313932.45940,   0.00133,   0.00066,  -0.00195,1235252.46793,   1.00000
402112308.05252,410336577.58796,-144644684.10278,   0.00236,   0.00175,  -0.00383,477320941.10696,   0.00249,277320943.86967,   0.00133,   0.00066,  -0.00195,1241486.69806,   1.00000
402393750.24600,410421917.87238,-144483331.94273,   0.00236,   0.00175,  -0.00383,477327943.68136,   0.00250,277327950.57890,   0.00133,   0.00067,  -0.00196,1241440.26654,   1.00000
402664923.33652,410507872.01811,-144325978.46682,   0.00237,   0.00175,  -0.00384,477334889.61152,   0.00250,277334893.89766,   0.00133,   0.00067,  -0.00196,1230979.95138,   1.00000
402957253.39685,410594980.26732,-144158189.38697,   0.00237,   0.00175,  -0.00384,477341922.60977,   0.00251,277341928.36995,   0.00134,   0.00067,  -0.00197,1247956.82384,   1.00000
403253228.77150,410676489.18662,-143990994.43046,   0.00237,   0.00176,  -0.00384,477348870.81825,   0.00251,277348872.10197,   0.00134,   0.00067,  -0.00197,1232674.57655,   1.00000
403557338.98075,410756452.78206,-143820513.03771,   0.00238,   0.00176,  -0.00385,477355871.65627,   0.00252,277355872.86438,   0.00134,   0.00068,  -0.00198,1243626.12803,   1.00000
403863962.75100,410839657.83782,-143646892.38926,   0.00238,   0.00176,  -0.00385,477362840.68920,   0.00253,277362844.58886,   0.00134,   0.00068,  -0.00198,1239305.29939,   1.00000
404170556.83407,410913539.71451,-143477352.47636,   0.00238,   0.00176,  -0.00385,477369745.58101,   0.00253,277369751.71586,   0.00135,   0.00068,  -0.00199,1228637.20508,   1.00000
404499116.86191,410979617.18832,-143301090.79433,   0.00239,   0.00176,  -0.00386,477376682.45730,   0.00254,277376689.01401,   0.00135,   0.00068,  -0.00199,1234849.41769,   1.00000
404825335.38046,411054068.13795,-143121487.61677,   0.00239,   0.00177,  -0.00386,477383680.86700,   0.00255,277383684.56672,   0.00135,   0.00069,  -0.00200,1246088.88113,   1.00000
405151458.17668,411119197.61249,-142945960.53695,   0.00240,   0.00177,  -0.00386,477390614.91885,   0.00255,277390615.67255,   0.00135,   0.00069,  -0.00201,1235459.44278,   1.00000
405490249.99063,411177584.11711,-142767332.18640,   0.00240,   0.00177,  -0.00387,477397507.91402,   0.00256,277397517.17190,   0.00136,   0.00069,  -0.00201,1231028.85033,   1.00000
405831416.17450,411239214.03185,-142585544.96481,   0.00240,   0.00177,  -0.00387,477404388.11708,   0.00257,277404390.07050,   0.00136,   0.00069,  -0.00202,1226799.18101,   1.00000
406180378.60862,411299198.68820,-142400483.86716,   0.00241,   0.00178,  -0.00387,477411311.11486,   0.00257,277411320.33354,   0.00136,   0.00070,  -0.00202,1237915.00966,   1.00000
406541895.44410,411352399.96876,-142212320.03343,   0.00241,   0.00178,  -0.00388,477418220.47387,   0.00258,277418221.20127,   0.00136,   0.00070,  -0.00203,1233569.16992,   1.00000
406902016.49794,411405099.81395,-142024520.53199,   0.00242,   0.00178,  -0.00388,477425110.11488,   0.00259,277425119.27021,   0.00137,   0.00070,  -0.00203,1233954.72042,   1.00000
407273428.65713,411459805.04600,-141829923.45089,   0.00242,   0.00178,  -0.00388,477432040.04466,   0.00259,277432049.33391,   0.00137,   0.00070,  -0.00204,1240604.24825,   1.00000
407644606.40162,411505185.04135,-141639382.55297,   0.00242,   0.00178,  -0.00389,477438914.75853,   0.00260,277438915.43354,   0.00137,   0.00071,  -0.00204,1230067.00808,   1.00000
408026969.77738,411552525.76674,-141442029.18196,   0.00243,   0.00179,  -0.00389,477445810.95156,   0.00261,277445813.87477,   0.00137,   0.00071,  -0.00205,1236793.30825,   1.00000
408409059.46291,411590535.95992,-141248717.26716,   0.00243,   0.00179,  -0.00389,477452642.52780,   0.00261,277452648.60209,   0.00138,   0.00071,  -0.00205,1226280.29870,   1.00000
408802257.95389,411630491.48600,-141048590.26462,   0.00244,   0.00179,  -0.00389,477459514.21452,   0.00262,277459515.81690,   0.00138,   0.00072,  -0.00206,1233056.49137,   1.00000
409204083.58733,411659870.33762,-140848863.38597,   0.00244,   0.00179,  -0.00390,477466373.50823,   0.00263,277466379.93739,   0.00138,   0.00072,  -0.00207,1233439.16620,   1.00000
409607948.51247,411692395.83136,-140645944.15543,   0.00245,   0.00180,  -0.00390,477473211.20395,   0.00263,277473216.41626,   0.00138,   0.00072,  -0.00207,1229426.91394,   1.00000
410010217.50762,411724404.49483,-140443399.89327,   0.00245,   0.00180,  -0.00390,477480048.58621,   0.00264,277480050.29039,   0.00139,   0.00072,  -0.00208,1229913.51415,   1.00000
410424660.48483,411749445.91658,-140237670.09507,   0.00245,   0.00180,  -0.00390,477486852.11496,   0.00265,277486856.45364,   0.00139,   0.00073,  -0.00208,1225885.61214,   1.00000
410849934.76506,411776318.04840,-140025113.98537,   0.00246,   0.00180,  -0.00391,477493695.49117,   0.00265,277493695.69781,   0.00139,   0.00073,  -0.00209,1232841.58559,   1.00000
411274775.50047,411793817.29470,-139816564.01241,   0.00246,   0.00180,  -0.00391,477500464.79711,   0.00266,277500471.97086,   0.00140,   0.00073,  -0.00209,1222455.20569,   1.00000
411706736.30472,411809497.91216,-139604764.97675,   0.00247,   0.00180,  -0.00391,477507304.79993,   0.00266,277507306.31091,   0.00140,   0.00073,  -0.00210,1233926.74994,   1.00000
412141866.02320,411819438.03297,-139393366.07390,   0.00247,   0.00181,  -0.00391,477514049.14576,   0.00267,277514053.21555,   0.00140,   0.00074,  -0.00210,1219119.07587,   1.00000
412584009.70652,411827525.90676,-139178713.25664,   0.00248,   0.00181,  -0.00392,477520854.92174,   0.00268,277520858.41405,   0.00140,   0.00074,  -0.00211,1230651.93781,   1.00000
413027954.35554,411838671.36076,-138960833.02565,   0.00248,   0.00181,  -0.00392,477527630.29612,   0.00268,277527636.84689,   0.00141,   0.00074,  -0.00211,1226820.50572,   1.00000
413483766.76826,411842697.53125,-138739709.79715,   0.00249,   0.00181,  -0.00392,477534380.14792,   0.00269,277534388.83209,   0.00141,   0.00074,  -0.00212,1223053.08809,   1.00000
413937698.35225,411846157.86506,-138518959.39128,   0.00249,   0.00181,  -0.00392,477541130.72700,   0.00270,277541138.72661,   0.00141,   0.00075,  -0.00212,1223694.57952,   1.00000
414403415.88363,411842458.08066,-138294943.73614,   0.00250,   0.00181,  -0.00393,477547855.53738,   0.00270,277547862.59704,   0.00141,   0.00075,  -0.00213,1220007.62309,   1.00000
414867196.53182,411838186.64652,-138071297.19647,   0.00250,   0.00182,  -0.00393,477554581.32891,   0.00271,277554584.52079,   0.00142,   0.00075,  -0.00213,1220686.42259,   1.00000
415341284.34159,411835524.51462,-137840784.13552,   0.00251,   0.00182,  -0.00393,477561337.79300,   0.00272,277561340.91518,   0.00142,   0.00075,  -0.00214,1228007.68539,   1.00000
415814771.65121,411823440.30133,-137614221.98316,   0.00251,   0.00182,  -0.00393,477568029.49061,   0.00272,277568035.40312,   0.00142,   0.00076,  -0.00214,1217792.32962,   1.00000
416299884.20238,411804116.47117,-137384351.60678,   0.00252,   0.00182,  -0.00394,477574704.23773,   0.00273,277574704.69574,   0.00142,   0.00076,  -0.00215,1214261.92961,   1.00000
416791496.54722,411782773.34992,-137151228.30095,   0.00252,   0.00182,  -0.00394,477581431.73529,   0.00274,277581433.12601,   0.00143,   0.00076,  -0.00215,1226096.46244,   1.00000
417276071.82018,411765813.24396,-136918442.73435,   0.00253,   0.00182,  -0.00394,477588069.25243,   0.00274,277588075.17368,   0.00143,   0.00076,  -0.00216,1211409.30099,   1.00000
417777061.95536,411736536.87153,-136682353.92216,   0.00253,   0.00183,  -0.00394,477594771.99637,   0.00275,277594777.37799,   0.00143,   0.00077,  -0.00217,1223458.83445,   1.00000
418279487.68224,411710185.00883,-136442979.15516,   0.00254,   0.00183,  -0.00394,477601445.43214,   0.00275,277601454.24189,   0.00143,   0.00077,  -0.00217,1219919.99658,   1.00000
418781215.08580,411674383.56798,-136207508.95506,   0.00254,   0.00183,  -0.00395,477608063.28176,   0.00276,277608070.00421,   0.00144,   0.00077,  -0.00218,1209823.94349,   1.00000
419292810.02630,411640020.85713,-135965126.89371,   0.00255,   0.00183,  -0.00395,477614712.33642,   0.00277,277614721.56082,   0.00144,   0.00077,  -0.00218,1217464.09771,   1.00000
419805776.90528,411608545.82119,-135719448.28989,   0.00255,   0.00183,  -0.00395,477621341.53438,   0.00277,277621348.07794,   0.00144,   0.00078,  -0.00219,1213992.64636,   1.00000
420326380.63306,411566073.54729,-135474048.04817,   0.00256,   0.00183,  -0.00395,477627966.25554,   0.00278,277627974.82625,   0.00145,   0.00078,  -0.00219,1215140.37585,   1.00000
420849813.90081,411517627.25175,-135228845.10630,   0.00256,   0.00183,  -0.00395,477634513.20001,   0.00279,277634517.50501,   0.00145,   0.00078,  -0.00220,1200823.81499,   1.00000
421379267.17947,411467007.54361,-134980387.04904,   0.00257,   0.00184,  -0.00396,477641113.87324,   0.00279,277641120.21109,   0.00145,   0.00078,  -0.00220,1212953.18561,   1.00000
421906370.28865,411415738.91290,-134732286.98729,   0.00257,   0.00184,  -0.00396,477647717.36240,   0.00280,277647721.92139,   0.00145,   0.00079,  -0.00221,1213887.80698,   1.00000
422448138.12027,411360384.72135,-134477056.86764,   0.00258,   0.00184,  -0.00396,477654271.79997,   0.00280,277654277.82367,   0.00146,   0.00079,  -0.00221,1206601.45111,   1.00000
422987477.44690,411304348.78442,-134222183.37357,   0.00258,   0.00184,  -0.00396,477660829.43791,   0.00281,277660832.92519,   0.00146,   0.00079,  -0.00222,1207592.09718,   1.00000
423534175.71904,411237195.14443,-133967540.95516,   0.00259,   0.00184,  -0.00396,477667382.48542,   0.00282,277667389.37922,   0.00146,   0.00079,  -0.00222,1208972.85442,   1.00000
424081995.14879,411172834.75405,-133709546.10802,   0.00259,   0.00184,  -0.00396,477673916.70136,   0.00282,277673922.01086,   0.00146,   0.00080,  -0.00223,1205727.43894,   1.00000
424637085.29868,411097321.50032,-133451769.04514,   0.00260,   0.00184,  -0.00397,477680455.49670,   0.00283,277680456.33548,   0.00147,   0.00080,  -0.00223,1207188.73635,   1.00000
425193216.52554,411024560.92597,-133190619.48338,   0.00260,   0.00184,  -0.00397,477686957.41846,   0.00284,277686967.25352,   0.00147,   0.00080,  -0.00224,1204010.60657,   1.00000
425752024.14560,410945673.94835,-132929548.80723,   0.00261,   0.00184,  -0.00397,477693390.51512,   0.00284,277693396.03064,   0.00147,   0.00080,  -0.00224,1189966.68020,   1.00000
426316340.42347,410864450.88151,-132665222.87227,   0.00261,   0.00185,  -0.00397,477699878.66815,   0.00285,277699885.80766,   0.00148,   0.00081,  -0.00225,1202417.38938,   1.00000
426881637.78618,410785945.59887,-132397516.14773,   0.00262,   0.00185,  -0.00397,477706348.49251,   0.00285,277706352.46406,   0.00148,   0.00081,  -0.00225,1199311.10963,   1.00000
427453973.91140,410696158.62121,-132129990.49307,   0.00262,   0.00185,  -0.00397,477712813.94702,   0.00286,277712821.77097,   0.00148,   0.00081,  -0.00226,1200971.91725,   1.00000
428028892.78735,410600162.46308,-131862481.20121,   0.00263,   0.00185,  -0.00397,477719201.41827,   0.00287,277719209.95703,   0.00148,   0.00081,  -0.00226,1187072.16831,   1.00000
428609080.63646,410501767.85220,-131591717.26391,   0.00264,   0.00185,  -0.00398,477725653.75164,   0.00287,277725659.59399,   0.00149,   0.00082,  -0.00227,1199674.30072,   1.00000
429190108.76798,410406028.83732,-131317541.00807,   0.00264,   0.00185,  -0.00398,477732079.24922,   0.00288,277732086.81548,   0.00149,   0.00082,  -0.00227,1196696.69588,   1.00000
429781556.83882,410302306.43282,-131039760.66769,   0.00265,   0.00185,  -0.00398,477738486.89128,   0.00288,277738494.98696,   0.00149,   0.00082,  -0.00228,1194353.00073,   1.00000
430371903.02975,410188892.84468,-130765697.66873,   0.00265,   0.00185,  -0.00398,477744839.19319,   0.00289,277744845.48714,   0.00149,   0.00082,  -0.00228,1184784.78322,   1.00000
430959439.07020,410074729.81570,-130491954.94833,   0.00266,   0.00185,  -0.00398,477751187.89763,   0.00290,277751196.51392,   0.00150,   0.00083,  -0.00228,1186056.54222,   1.00000
431555541.70004,409961454.85782,-130211190.72349,   0.00266,   0.00185,  -0.00398,477757579.61830,   0.00290,277757587.22760,   0.00150,   0.00083,  -0.00229,1194679.77716,   1.00000
432154092.72049,409841815.70929,-129930342.91088,   0.00267,   0.00185,  -0.00398,477763893.31866,   0.00291,277763898.48639,   0.00150,   0.00083,  -0.00229,1181028.08870,   1.00000
432749759.40764,409721398.86405,-129649817.47835,   0.00268,   0.00185,  -0.00398,477770203.85162,   0.00291,277770210.46573,   0.00151,   0.00083,  -0.00230,1182356.90158,   1.00000
433355585.70456,409592821.75775,-129365599.00046,   0.00268,   0.00185,  -0.00399,477776496.63609,   0.00292,277776505.08201,   0.00151,   0.00084,  -0.00230,1180309.27370,   1.00000
433969690.71261,409465002.92073,-129074339.30050,   0.00269,   0.00186,  -0.00399,477782833.09105,   0.00293,277782840.23237,   0.00151,   0.00084,  -0.00231,1189152.22944,   1.00000
434574942.91799,409329183.20817,-128790301.58998,   0.00269,   0.00186,  -0.00399,477789054.04122,   0.00293,277789057.24479,   0.00151,   0.00084,  -0.00231,1168174.68825,   1.00000
435192426.79285,409188967.74337,-128499439.94533,   0.00270,   0.00186,  -0.00399,477795393.41692,   0.00294,277795398.76709,   0.00152,   0.00084,  -0.00232,1192805.09644,   1.00000
435804658.86545,409044068.30586,-128211964.77758,   0.00271,   0.00186,  -0.00399,477801594.38039,   0.00294,277801600.66907,   0.00152,   0.00085,  -0.00232,1167747.00336,   1.00000
436424965.21896,408899841.60800,-127917421.44046,   0.00271,   0.00186,  -0.00399,477807839.72800,   0.00295,277807843.89000,   0.00152,   0.00085,  -0.00233,1176763.21897,   1.00000
437044020.66535,408745779.29418,-127626483.66179,   0.00272,   0.00186,  -0.00399,477814030.00858,   0.00296,277814031.39140,   0.00153,   0.00085,  -0.00233,1167475.02766,   1.00000
437671002.47856,408592328.81002,-127328464.78774,   0.00272,   0.00186,  -0.00399,477820256.21907,   0.00296,277820260.68047,   0.00153,   0.00085,  -0.00234,1176600.85233,   1.00000
438300238.27424,408432274.19168,-127030198.93402,   0.00273,   0.00186,  -0.00399,477826404.35538,   0.00297,277826413.17127,   0.00153,   0.00085,  -0.00234,1163323.40189,   1.00000
438926311.65601,408271377.75080,-126732238.16261,   0.00274,   0.00186,  -0.00399,477832560.14291,   0.00297,277832567.35664,   0.00153,   0.00086,  -0.00235,1164874.49748,   1.00000
439558462.31669,408098719.29529,-126434282.06312,   0.00274,   0.00186,  -0.00399,477838721.74644,   0.00298,277838728.52229,   0.00154,   0.00086,  -0.00235,1167425.34406,   1.00000
440190946.12975,407928465.69824,-126132778.17278,   0.00275,   0.00186,  -0.00399,477844868.23791,   0.00299,277844870.30262,   0.00154,   0.00086,  -0.00236,1164996.95996,   1.00000
440825642.70274,407751518.11545,-125830953.32547,   0.00275,   0.00186,  -0.00400,477850927.79848,   0.00299,277850936.38903,   0.00154,   0.00086,  -0.00236,1151858.71714,   1.00000
441464355.26876,407571806.29085,-125525876.51520,   0.00276,   0.00186,  -0.00400,477857056.65069,   0.00300,277857066.59541,   0.00155,   0.00087,  -0.00236,1165279.88310,   1.00000
442103314.90107,407394442.35990,-125217238.78965,   0.00277,   0.00186,  -0.00400,477863170.73298,   0.00300,277863177.85026,   0.00155,   0.00087,  -0.00237,1162940.38568,   1.00000
442744439.93240,407210304.05468,-124908240.94897,   0.00277,   0.00186,  -0.00400,477869206.77824,   0.00301,277869214.09711,   0.00155,   0.00087,  -0.00237,1149912.62454,   1.00000
443391342.42175,407014239.26031,-124599195.63098,   0.00278,   0.00186,  -0.00400,477875258.01246,   0.00302,277875258.70548,   0.00155,   0.00087,  -0.00238,1152755.47215,   1.00000
444038387.42241,406820459.71739,-124286551.08158,   0.00278,   0.00186,  -0.00400,477881277.50025,   0.00302,277881285.11188,   0.00156,   0.00087,  -0.00238,1150531.51288,   1.00000
444684019.70297,406616663.40104,-123977375.20299,   0.00279,   0.00186,  -0.00400,477887250.99323,   0.00303,277887258.15925,   0.00156,   0.00088,  -0.00239,1141573.98722,   1.00000
445336836.60776,406413176.20340,-123661055.36094,   0.00280,   0.00186,  -0.00400,477893272.00155,   0.00303,277893275.47483,   0.00156,   0.00088,  -0.00239,1151300.40478,   1.00000
445986193.26800,406208775.54606,-123345026.40917,   0.00280,   0.00186,  -0.00400,477899293.84558,   0.00304,277899295.56767,   0.00157,   0.00088,  -0.00240,1153096.60237,   1.00000
446639614.38374,405988292.51645,-123031674.04267,   0.00281,   0.00186,  -0.00400,477905181.84745,   0.00304,277905186.77323,   0.00157,   0.00088,  -0.00240,1129632.49332,   1.00000
447294495.54313,405774081.76420,-122711931.98383,   0.00282,   0.00186,  -0.00400,477911197.52647,   0.00305,277911198.89564,   0.00157,   0.00089,  -0.00240,1154090.61280,   1.00000
447954897.45919,405556007.03707,-122387772.06352,   0.00282,   0.00186,  -0.00400,477917111.75401,   0.00306,277917117.92126,   0.00157,   0.00089,  -0.00241,1137486.29961,   1.00000
448610269.31953,405324688.04163,-122070933.53671,   0.00283,   0.00186,  -0.00400,477923003.68819,   0.00306,277923005.15377,   0.00158,   0.00089,  -0.00241,1132613.35146,   1.00000
449269131.10057,405098659.89784,-121746502.41862,   0.00283,   0.00186,  -0.00400,477928850.37637,   0.00307,277928855.33172,   0.00158,   0.00089,  -0.00242,1126733.66072,   1.00000
449933262.40065,404860430.07372,-121421930.84837,   0.00284,   0.00186,  -0.00400,477934713.33103,   0.00307,277934716.30393,   0.00158,   0.00089,  -0.00242,1130065.88686,   1.00000
450587040.60644,404623310.14620,-121101132.33878,   0.00285,   0.00186,  -0.00400,477940516.33878,   0.00308,277940518.38268,   0.00159,   0.00090,  -0.00243,1119937.87731,   1.00000
451254176.22616,404384219.86033,-120769645.97699,   0.00285,   0.00186,  -0.00400,477946422.71900,   0.00308,277946429.08982,   0.00159,   0.00090,  -0.00243,1142185.16533,   1.00000
451916543.40360,404140045.25417,-120441057.63418,   0.00286,   0.00186,  -0.00400,477952205.94719,   0.00309,277952206.16478,   0.00159,   0.00090,  -0.00243,1117617.92322,   1.00000
452583973.72618,403883556.31143,-120112285.87711,   0.00287,   0.00186,  -0.00400,477957988.89687,   0.00309,277957995.09272,   0.00159,   0.00090,  -0.00244,1121149.90254,   1.00000
453251202.92510,403629154.38261,-119779809.44184,   0.00287,   0.00186,  -0.00400,477963759.83005,   0.00310,277963768.26628,   0.00160,   0.00090,  -0.00244,1119352.11209,   1.00000
453920322.36077,403367518.86218,-119446659.93326,   0.00288,   0.00186,  -0.00400,477969469.56995,   0.00311,277969471.34849,   0.00160,   0.00091,  -0.00245,1107010.50721,   1.00000
454585714.79616,403104901.51012,-119113760.01801,   0.00289,   0.00186,  -0.00400,477975174.46441,   0.00311,277975178.71964,   0.00160,   0.00091,  -0.00245,1109078.80050,   1.00000
455255988.85787,402829882.65975,-118780644.28360,   0.00289,   0.00186,  -0.00400,477980896.63933,   0.00312,277980898.84157,   0.00161,   0.00091,  -0.00245,1112797.14689,   1.00000
455923011.95388,402562009.95641,-118443281.64415,   0.00290,   0.00186,  -0.00400,477986520.21957,   0.00312,277986521.72805,   0.00161,   0.00091,  -0.00246,1095117.29645,   1.00000
456592694.00454,402291022.50506,-118102696.29052,   0.00291,   0.00185,  -0.00400,477992211.10844,   0.00313,277992211.83690,   0.00161,   0.00091,  -0.00246,1109466.02401,   1.00000
457267071.52468,402007531.44951,-117761878.38631,   0.00291,   0.00185,  -0.00400,477997911.51147,   0.00313,277997915.40911,   0.00162,   0.00092,  -0.00247,1113346.21582,   1.00000
457936888.59506,401718768.71000,-117423742.29372,   0.00292,   0.00185,  -0.00400,478003478.85711,   0.00314,278003487.85843,   0.00162,   0.00092,  -0.00247,1088966.77637,   1.00000
458612640.18269,401429821.49256,-117078369.36832,   0.00293,   0.00185,  -0.00400,478009099.03259,   0.00314,278009108.89499,   0.00162,   0.00092,  -0.00248,1099711.50551,   1.00000
459280445.67875,401132613.75948,-116739651.70828,   0.00293,   0.00185,  -0.00400,478014617.79276,   0.00315,278014618.35063,   0.00162,   0.00092,  -0.00248,1079094.67380,   1.00000
459954079.88212,400835174.50373,-116393681.63932,   0.00294,   0.00185,  -0.00400,478020173.44779,   0.00315,278020176.87518,   0.00163,   0.00092,  -0.00248,1089936.50860,   1.00000
460632159.92285,400525101.11176,-116047424.94825,   0.00294,   0.00185,  -0.00400,478025747.69431,   0.00316,278025750.21352,   0.00163,   0.00093,  -0.00249,1094077.95386,   1.00000
461307049.78304,400222007.25727,-115696779.89204,   0.00295,   0.00185,  -0.00400,478031223.33027,   0.00316,278031228.20618,   0.00163,   0.00093,  -0.00249,1076591.48926,   1.00000
461976773.50698,399905504.73831,-115353312.12382,   0.00296,   0.00185,  -0.00399,478036669.14479,   0.00317,278036677.23646,   0.00164,   0.00093,  -0.00249,1072090.75934,   1.00000
462655519.61735,399591581.63217,-114998535.58573,   0.00296,   0.00185,  -0.00399,478042153.65335,   0.00317,278042157.43624,   0.00164,   0.00093,  -0.00250,1079465.85503,   1.00000
463332467.28951,399267090.30837,-114646869.97947,   0.00297,   0.00185,  -0.00399,478047584.42657,   0.00318,278047590.44246,   0.00164,   0.00093,  -0.00250,1071382.74066,   1.00000
464005420.36081,398941568.51267,-114295430.75926,   0.00298,   0.00185,  -0.00399,478053021.63231,   0.00318,278053029.19248,   0.00164,   0.00094,  -0.00251,1073726.12295,   1.00000
464680037.34678,398608329.06485,-113943007.96270,   0.00298,   0.00185,  -0.00399,478058397.12597,   0.00319,278058402.62409,   0.00165,   0.00094,  -0.00251,1062032.11733,   1.00000
465354065.05077,398276891.78204,-113586730.79715,   0.00299,   0.00184,  -0.00399,478063755.18317,   0.00320,278063763.65475,   0.00165,   0.00094,  -0.00251,1060784.67241,   1.00000
466026321.51209,397934835.40037,-113233509.39645,   0.00300,   0.00184,  -0.00399,478069075.52650,   0.00320,278069078.25087,   0.00165,   0.00094,  -0.00252,1052784.53651,   1.00000
466703761.47560,397592318.69080,-112873003.15322,   0.00300,   0.00184,  -0.00399,478074436.37270,   0.00321,278074444.11620,   0.00166,   0.00094,  -0.00252,1064149.51702,   1.00000
467382764.00221,397241933.50764,-112511439.61536,   0.00301,   0.00184,  -0.00399,478079743.44853,   0.00321,278079745.91745,   0.00166,   0.00095,  -0.00253,1052652.03169,   1.00000
468051927.49639,396892722.15242,-112153490.17483,   0.00302,   0.00184,  -0.00399,478084984.27905,   0.00322,278084990.83262,   0.00166,   0.00095,  -0.00253,1042528.53625,   1.00000
468728389.52348,396533341.99892,-111791036.33752,   0.00302,   0.00184,  -0.00399,478090229.02674,   0.00322,278090235.61891,   0.00167,   0.00095,  -0.00253,1043686.49501,   1.00000
469400728.38433,396172897.96731,-111428793.07146,   0.00303,   0.00184,  -0.00398,478095481.88167,   0.00323,278095487.01648,   0.00167,   0.00095,  -0.00254,1046185.81614,   1.00000
470074605.32407,395804461.27837,-111065405.51007,   0.00304,   0.00184,  -0.00398,478100672.57937,   0.00323,278100675.56861,   0.00167,   0.00095,  -0.00254,1034837.13329,   1.00000
470747720.49864,395437696.20024,-110698098.98686,   0.00305,   0.00184,  -0.00398,478105847.27990,   0.00324,278105853.22727,   0.00167,   0.00095,  -0.00254,1033837.82926,   1.00000
471418972.70228,395060128.65906,-110333736.24287,   0.00305,   0.00183,  -0.00398,478110984.11523,   0.00324,278110986.30842,   0.00168,   0.00096,  -0.00255,1026092.86803,   1.00000
472089442.12703,394684209.90250,-109965436.51257,   0.00306,   0.00183,  -0.00398,478116105.27899,   0.00325,278116108.84402,   0.00168,   0.00096,  -0.00255,1025143.24613,   1.00000
472766826.95270,394297861.97798,-109592543.54599,   0.00307,   0.00183,  -0.00398,478121223.48669,   0.00325,278121233.38962,   0.00168,   0.00096,  -0.00255,1026708.80795,   1.00000
473434581.36820,393912708.98612,-109223213.81250,   0.00307,   0.00183,  -0.00398,478126299.18066,   0.00325,278126301.58159,   0.00169,   0.00096,  -0.00256,1016570.53127,   1.00000
474109155.11451,393517055.52135,-108849259.51039,   0.00308,   0.00183,  -0.00398,478131372.24103,   0.00326,278131372.44423,   0.00169,   0.00096,  -0.00256,1018261.43432,   1.00000
474776444.81870,393112757.28375,-108481513.54206,   0.00309,   0.00183,  -0.00397,478136331.51957,   0.00326,278136336.45606,   0.00169,   0.00096,  -0.00256,997907.07292,   1.00000
475448153.14988,392707742.73568,-108106438.23188,   0.00309,   0.00183,  -0.00397,478141351.99583,   0.00327,278141354.60432,   0.00169,   0.00097,  -0.00257,1009927.18535,   1.00000
476113686.85431,392306567.78904,-107730716.70105,   0.00310,   0.00182,  -0.00397,478146297.21037,   0.00327,278146299.65069,   0.00170,   0.00097,  -0.00257,996337.49907,   1.00000
476782497.76081,391892099.00367,-107354488.77138,   0.00311,   0.00182,  -0.00397,478151265.18178,   0.00328,278151265.73882,   0.00170,   0.00097,  -0.00257,1001698.32225,   1.00000
477445189.93439,391481451.37326,-106977584.81103,   0.00311,   0.00182,  -0.00397,478156157.76659,   0.00328,278156159.02250,   0.00170,   0.00097,  -0.00258,988118.28157,   1.00000
478114375.11205,391060058.52059,-106595964.36993,   0.00312,   0.00182,  -0.00397,478161048.61011,   0.00329,278161057.03995,   0.00171,   0.00097,  -0.00258,990180.18627,   1.00000
478781554.59890,390627590.01295,-106217120.27482,   0.00313,   0.00182,  -0.00397,478165908.66170,   0.00329,278165913.20368,   0.00171,   0.00097,  -0.00258,982812.98764,   1.00000
479442675.81832,390198893.97290,-105837544.16942,   0.00313,   0.00182,  -0.00396,478170693.05137,   0.00330,278170697.17665,   0.00171,   0.00097,  -0.00259,969277.67659,   1.00000
480104497.88094,389766761.79595,-105454837.77890,   0.00314,   0.00181,  -0.00396,478175543.55760,   0.00330,278175553.40047,   0.00172,   0.00098,  -0.00259,985003.67636,   1.00000
480762667.86311,389328378.31453,-105073948.39546,   0.00315,   0.00181,  -0.00396,478180282.98205,   0.00331,278180287.80258,   0.00172,   0.00098,  -0.00259,961358.95360,   1.00000
481424721.40710,388889092.35644,-104685716.18816,   0.00315,   0.00181,  -0.00396,478185072.02886,   0.00331,278185078.25691,   0.00172,   0.00098,  -0.00260,973826.02178,   1.00000
482084727.49642,388438606.26212,-104300193.16612,   0.00316,   0.00181,  -0.00396,478189822.72176,   0.00332,278189827.94647,   0.00172,   0.00098,  -0.00260,966605.41505,   1.00000
482741132.25451,387981741.31448,-103916389.11161,   0.00317,   0.00181,  -0.00395,478194453.17312,   0.00332,278194456.86790,   0.00173,   0.00098,  -0.00260,943058.54874,   1.00000
483397970.29066,387521413.00865,-103529466.02220,   0.00317,   0.00180,  -0.00395,478199152.79445,   0.00332,278199158.85554,   0.00173,   0.00098,  -0.00261,958987.46257,   1.00000
484052191.78281,387067262.29331,-103137472.76083,   0.00318,   0.00180,  -0.00395,478203772.56041,   0.00333,278203773.41762,   0.00173,   0.00099,  -0.00261,942205.15781,   1.00000
484701126.97792,386599324.35018,-102752368.43031,   0.00319,   0.00180,  -0.00395,478208364.14095,   0.00333,278208364.23370,   0.00174,   0.00099,  -0.00261,938365.82662,   1.00000
485359169.52827,386122673.44932,-102358115.90446,   0.00319,   0.00180,  -0.00395,478212937.87387,   0.00334,278212947.69906,   0.00174,   0.00099,  -0.00262,937879.82139,   1.00000
486008135.05488,385647181.50674,-101967245.92684,   0.00320,   0.00180,  -0.00394,478217467.47277,   0.00334,278217476.48608,   0.00174,   0.00099,  -0.00262,927694.48616,   1.00000
486655936.87848,385172977.86244,-101572251.11057,   0.00321,   0.00179,  -0.00394,478221992.34202,   0.00335,278221998.84457,   0.00174,   0.00099,  -0.00262,927388.40137,   1.00000
487308520.47087,384674785.87518,-101179035.58682,   0.00321,   0.00179,  -0.00394,478226490.24409,   0.00335,278226498.25369,   0.00175,   0.00099,  -0.00262,923667.51419,   1.00000
487952997.30332,384190436.08012,-100782469.42881,   0.00322,   0.00179,  -0.00394,478230971.77480,   0.00336,278230975.85177,   0.00175,   0.00099,  -0.00263,920186.36245,   1.00000
488598576.54077,383697021.51146,-100384159.89402,   0.00323,   0.00179,  -0.00394,478235395.44233,   0.00336,278235399.45523,   0.00175,   0.00099,  -0.00263,910069.03563,   1.00000
489237617.93453,383194432.05807,-99991567.59162,   0.00323,   0.00179,  -0.00393,478239719.37198,   0.00336,278239720.70931,   0.00176,   0.00100,  -0.00263,889949.93081,   1.00000
489879812.20349,382690719.70097,-99591598.26749,   0.00324,   0.00178,  -0.00393,478244099.58416,   0.00337,278244100.93345,   0.00176,   0.00100,  -0.00264,903054.19271,   1.00000
490520696.91053,382188176.57862,-99187453.19583,   0.00325,   0.00178,  -0.00393,478248469.21051,   0.00337,278248475.95945,   0.00176,   0.00100,  -0.00264,902945.48594,   1.00000
491159413.08336,381674051.29038,-98785793.87589,   0.00325,   0.00178,  -0.00393,478252806.24680,   0.00338,278252813.58005,   0.00176,   0.00100,  -0.00264,896171.06667,   1.00000
491794865.20942,381152969.92894,-98385439.28324,   0.00326,   0.00178,  -0.00392,478257029.69272,   0.00338,278257034.49793,   0.00177,   0.00100,  -0.00264,872974.19316,   1.00000
492425840.43918,380630688.49687,-97985189.82092,   0.00327,   0.00177,  -0.00392,478261262.23075,   0.00338,278261265.98158,   0.00177,   0.00100,  -0.00265,876066.99990,   1.00000
493057816.45954,380099055.34312,-97583026.07361,   0.00327,   0.00177,  -0.00392,478265441.89583,   0.00339,278265445.78415,   0.00177,   0.00100,  -0.00265,866261.44166,   1.00000
493688430.67778,379568507.61941,-97176626.73066,   0.00328,   0.00177,  -0.00392,478269618.57140,   0.00339,278269621.39785,   0.00177,   0.00101,  -0.00265,866293.97804,   1.00000
494314527.45766,379036748.85448,-96770337.81666,   0.00329,   0.00177,  -0.00391,478273804.93000,   0.00340,278273807.82001,   0.00178,   0.00101,  -0.00266,869433.41826,   1.00000
494944666.40798,378497766.51149,-96357730.08237,   0.00329,   0.00176,  -0.00391,478277918.91073,   0.00340,278277928.65240,   0.00178,   0.00101,  -0.00266,856698.67500,   1.00000
495569439.93859,377944730.62195,-95951836.39769,   0.00330,   0.00176,  -0.00391,478282025.01051,   0.00340,278282028.65819,   0.00178,   0.00101,  -0.00266,853236.89624,   1.00000
496191891.99559,377397242.43088,-95540417.14082,   0.00331,   0.00176,  -0.00390,478286038.31100,   0.00341,278286046.00616,   0.00179,   0.00101,  -0.00266,836887.97318,   1.00000
496812117.68147,376837892.06016,-95131313.33639,   0.00331,   0.00176,  -0.00390,478290023.23044,   0.00341,278290028.23824,   0.00179,   0.00101,  -0.00267,830409.05646,   1.00000
497427790.65335,376277299.74954,-94722288.23441,   0.00332,   0.00175,  -0.00390,478294013.13286,   0.00342,278294021.97516,   0.00179,   0.00101,  -0.00267,833634.69568,   1.00000
498045093.96113,375719880.70914,-94304594.65736,   0.00333,   0.00175,  -0.00390,478297993.73242,   0.00342,278297998.24582,   0.00179,   0.00101,  -0.00267,830838.43421,   1.00000
498660099.10445,375150498.97912,-93889177.94100,   0.00333,   0.00175,  -0.00389,478301933.43373,   0.00342,278301940.12271,   0.00180,   0.00101,  -0.00267,824473.67439,   1.00000
499272792.29792,374569133.69332,-93476013.23285,   0.00334,   0.00175,  -0.00389,478305838.25286,   0.00343,278305847.92568,   0.00180,   0.00102,  -0.00267,818146.32085,   1.00000
499880215.05693,373990953.49651,-93061578.32165,   0.00335,   0.00174,  -0.00389,478309686.83329,   0.00343,278309688.62768,   0.00180,   0.00102,  -0.00268,804894.35356,   1.00000
500488383.27989,373402865.65953,-92644947.88052,   0.00335,   0.00174,  -0.00388,478313479.25623,   0.00343,278313481.60515,   0.00180,   0.00102,  -0.00268,795667.20597,   1.00000
501094973.93980,372815620.65490,-92223965.11928,   0.00336,   0.00174,  -0.00388,478317264.39945,   0.00344,278317272.76819,   0.00181,   0.00102,  -0.00268,796059.96403,   1.00000
501693349.28876,372229357.33756,-91806076.08015,   0.00337,   0.00173,  -0.00388,478321006.24364,   0.00344,278321011.20831,   0.00181,   0.00102,  -0.00268,785751.04365,   1.00000
502296009.30138,371630804.71623,-91382913.70820,   0.00337,   0.00173,  -0.00387,478324760.58124,   0.00345,278324767.65492,   0.00181,   0.00102,  -0.00269,790296.94302,   1.00000
502892739.55399,371022312.18482,-90964904.53242,   0.00338,   0.00173,  -0.00387,478328420.85181,   0.00345,278328426.58746,   0.00181,   0.00102,  -0.00269,770508.69814,   1.00000
503490846.79357,370416668.32355,-90538068.79693,   0.00339,   0.00173,  -0.00387,478332065.28581,   0.00345,278332070.68130,   0.00182,   0.00102,  -0.00269,768120.90624,   1.00000
504081320.83385,369807653.97674,-90115724.16837,   0.00339,   0.00172,  -0.00386,478335739.31862,   0.00346,278335741.11984,   0.00182,   0.00102,  -0.00269,774403.36330,   1.00000
504671936.58385,369192684.06846,-89689562.10205,   0.00340,   0.00172,  -0.00386,478339280.58829,   0.00346,278339287.39492,   0.00182,   0.00102,  -0.00270,748906.63931,   1.00000
505260151.47203,368565382.11546,-89265464.64720,   0.00341,   0.00172,  -0.00386,478342795.80704,   0.00346,278342802.05517,   0.00182,   0.00102,  -0.00270,742913.43336,   1.00000
505846671.98808,367938766.73587,-88836933.50279,   0.00341,   0.00171,  -0.00385,478346310.99479,   0.00347,278346316.40798,   0.00183,   0.00103,  -0.00270,743536.13973,   1.00000
506428524.30624,367310818.09229,-88408434.97467,   0.00342,   0.00171,  -0.00385,478349836.28558,   0.00347,278349843.91485,   0.00183,   0.00103,  -0.00270,747001.06409,   1.00000
507007601.20994,366674643.05897,-87980429.50449,   0.00342,   0.00171,  -0.00385,478353256.78062,   0.00347,278353262.00732,   0.00183,   0.00103,  -0.00270,724489.11918,   1.00000
507587140.21380,366027968.61282,-87549937.50685,   0.00343,   0.00170,  -0.00384,478356628.01216,   0.00348,278356636.32523,   0.00183,   0.00103,  -0.00271,715849.78028,   1.00000
508164901.91200,365381886.31863,-87114971.48997,   0.00344,   0.00170,  -0.00384,478360005.36893,   0.00348,278360011.14253,   0.00184,   0.00103,  -0.00271,716603.88800,   1.00000
508734808.80459,364736598.17185,-86682921.83626,   0.00344,   0.00170,  -0.00384,478363329.50450,   0.00348,278363334.39517,   0.00184,   0.00103,  -0.00271,706281.97907,   1.00000
509302240.23600,364078744.83599,-86252815.28881,   0.00345,   0.00169,  -0.00383,478366625.52818,   0.00349,278366627.63707,   0.00184,   0.00103,  -0.00271,700513.72043,   1.00000
509872909.76516,363412113.66892,-85815626.17407,   0.00346,   0.00169,  -0.00383,478369858.70805,   0.00349,278369865.53039,   0.00184,   0.00103,  -0.00271,689337.90541,   1.00000
510438836.50860,362744073.51178,-85378426.53783,   0.00346,   0.00169,  -0.00382,478373110.66223,   0.00349,278373117.56855,   0.00185,   0.00103,  -0.00271,692947.55122,   1.00000
510997039.31875,362076774.12050,-84944083.70119,   0.00347,   0.00168,  -0.00382,478376313.20528,   0.00349,278376318.35465,   0.00185,   0.00103,  -0.00272,682608.48230,   1.00000
511558384.37772,361400509.39272,-84502576.12866,   0.00347,   0.00168,  -0.00382,478379456.32665,   0.00350,278379464.87253,   0.00185,   0.00103,  -0.00272,671606.36231,   1.00000
512112069.00411,360724929.81810,-84063887.86406,   0.00348,   0.00168,  -0.00381,478382553.81013,   0.00350,278382560.34547,   0.00185,   0.00103,  -0.00272,661268.48850,   1.00000
512668872.32097,360036291.36872,-83619672.71505,   0.00349,   0.00167,  -0.00381,478385674.17271,   0.00350,278385680.32607,   0.00186,   0.00104,  -0.00272,667063.13749,   1.00000
513218042.20727,359348306.25477,-83178251.80106,   0.00349,   0.00167,  -0.00380,478388748.36968,   0.00351,278388749.48197,   0.00186,   0.00104,  -0.00272,656742.92441,   1.00000
513764550.98790,358651333.12548,-82736885.38129,   0.00350,   0.00167,  -0.00380,478391709.88621,   0.00351,278391712.92465,   0.00186,   0.00104,  -0.00273,634635.16627,   1.00000
514311190.47259,357943222.67433,-82292729.97781,   0.00351,   0.00166,  -0.00380,478394634.74228,   0.00351,278394636.56452,   0.00186,   0.00104,  -0.00273,626614.71109,   1.00000
514850987.56023,357245144.10522,-81846728.52733,   0.00351,   0.00166,  -0.00379,478397615.00944,   0.00352,278397617.48454,   0.00187,   0.00104,  -0.00273,639403.51872,   1.00000
515390195.19181,356526340.71382,-81402454.57349,   0.00352,   0.00166,  -0.00379,478400442.54044,   0.00352,278400451.44462,   0.00187,   0.00104,  -0.00273,608349.65216,   1.00000
515925355.97643,355819381.40410,-80951787.87761,   0.00352,   0.00165,  -0.00378,478403323.55631,   0.00352,278403330.53306,   0.00187,   0.00104,  -0.00273,618528.63050,   1.00000
516457776.78248,355099338.43849,-80502823.99893,   0.00353,   0.00165,  -0.00378,478406181.51011,   0.00352,278406182.91935,   0.00187,   0.00104,  -0.00273,613271.50731,   1.00000
516987541.68850,354369894.73539,-80053690.78660,   0.00354,   0.00164,  -0.00378,478408925.55835,   0.00353,278408931.47696,   0.00187,   0.00104,  -0.00273,591393.01135,   1.00000
517515231.28355,353640648.86544,-79599900.43686,   0.00354,   0.00164,  -0.00377,478411677.74235,   0.00353,278411683.77100,   0.00188,   0.00104,  -0.00274,592647.49416,   1.00000
518040080.06990,352898173.21598,-79147742.80935,   0.00355,   0.00164,  -0.00377,478414404.97138,   0.00353,278414410.32611,   0.00188,   0.00104,  -0.00274,587540.72715,   1.00000
518560291.83651,352157813.12137,-78693606.81102,   0.00355,   0.00163,  -0.00376,478417071.73350,   0.00353,278417075.30030,   0.00188,   0.00104,  -0.00274,574696.58343,   1.00000
519077865.41559,351407757.03351,-78239142.41780,   0.00356,   0.00163,  -0.00376,478419631.57369,   0.00354,278419637.66081,   0.00188,   0.00104,  -0.00274,552965.86690,   1.00000
519590614.82699,350656119.28077,-77784568.89393,   0.00356,   0.00163,  -0.00375,478422208.79620,   0.00354,278422216.08736,   0.00188,   0.00104,  -0.00274,556827.85951,   1.00000
520101205.16497,349904568.73749,-77325289.86855,   0.00357,   0.00162,  -0.00375,478424794.82578,   0.00354,278424799.10402,   0.00189,   0.00104,  -0.00274,558221.02865,   1.00000
520611498.93581,349141218.53681,-76862938.40034,   0.00358,   0.00162,  -0.00374,478427344.62135,   0.00354,278427346.21018,   0.00189,   0.00104,  -0.00274,550852.19402,   1.00000
521114573.01441,348378151.20852,-76403111.77611,   0.00358,   0.00161,  -0.00374,478429837.48936,   0.00355,278429843.85417,   0.00189,   0.00104,  -0.00275,540524.02397,   1.00000
521615028.37459,347605047.13225,-75942775.00937,   0.00359,   0.00161,  -0.00373,478432236.91906,   0.00355,278432240.22363,   0.00189,   0.00105,  -0.00275,518961.10932,   1.00000
522115075.71898,346819934.57546,-75479264.90321,   0.00359,   0.00161,  -0.00373,478434594.48626,   0.00355,278434601.82988,   0.00189,   0.00105,  -0.00275,511769.37865,   1.00000
522608363.29114,346045160.37862,-75014040.57412,   0.00360,   0.00160,  -0.00372,478437016.08758,   0.00355,278437020.43360,   0.00190,   0.00105,  -0.00275,524473.04295,   1.00000
523100823.55436,345248097.24843,-74549757.73364,   0.00360,   0.00160,  -0.00372,478439291.22734,   0.00356,278439298.68369,   0.00190,   0.00105,  -0.00275,494352.13376,   1.00000
523590912.65061,344450895.25319,-74080672.87064,   0.00361,   0.00159,  -0.00371,478441577.12409,   0.00356,278441583.17124,   0.00190,   0.00105,  -0.00275,496025.02046,   1.00000
524073938.88551,343653792.65065,-73613988.39860,   0.00362,   0.00159,  -0.00371,478443814.63096,   0.00356,278443818.73824,   0.00190,   0.00105,  -0.00275,485709.33188,   1.00000
524554593.46078,342856529.52082,-73142495.62601,   0.00362,   0.00159,  -0.00370,478446055.36768,   0.00356,278446060.67027,   0.00190,   0.00105,  -0.00275,487396.70503,   1.00000
525032558.32266,342048680.97166,-72670220.70117,   0.00363,   0.00158,  -0.00370,478448196.09036,   0.00356,278448203.48934,   0.00190,   0.00105,  -0.00276,466133.47215,   1.00000
525507311.65299,341226913.34584,-72199265.88332,   0.00363,   0.00158,  -0.00369,478450316.20695,   0.00357,278450324.44735,   0.00191,   0.00105,  -0.00276,461649.32415,   1.00000
525977601.55552,340406599.69624,-71725954.27324,   0.00364,   0.00157,  -0.00369,478452381.26920,   0.00357,278452386.29198,   0.00191,   0.00105,  -0.00276,449049.09788,   1.00000
526447103.19521,339573732.11630,-71249240.66034,   0.00364,   0.00157,  -0.00368,478454415.06609,   0.00357,278454416.36460,   0.00191,   0.00105,  -0.00276,442387.55975,   1.00000
526909655.36578,338740751.97255,-70774796.83433,   0.00365,   0.00156,  -0.00368,478456397.89351,   0.00357,278456398.14344,   0.00191,   0.00105,  -0.00276,432106.41327,   1.00000
527369670.84284,337907424.74200,-70295466.31742,   0.00365,   0.00156,  -0.00367,478458386.71035,   0.00357,278458387.55582,   0.00191,   0.00105,  -0.00276,434012.93450,   1.00000
527826905.83814,337063008.15343,-69815104.06260,   0.00366,   0.00155,  -0.00367,478460275.87648,   0.00358,278460279.77027,   0.00191,   0.00105,  -0.00276,413030.41530,   1.00000
528279107.69741,336216766.35656,-69334528.18371,   0.00366,   0.00155,  -0.00366,478462189.39479,   0.00358,278462190.22137,   0.00192,   0.00105,  -0.00276,417236.08276,   1.00000
528728495.65835,335359268.07179,-68852837.15807,   0.00367,   0.00155,  -0.00366,478463999.73692,   0.00358,278464004.09679,   0.00192,   0.00105,  -0.00276,396346.20170,   1.00000
529175210.11552,334501284.59960,-68366206.44646,   0.00367,   0.00154,  -0.00365,478465818.41269,   0.00358,278465826.51584,   0.00192,   0.00105,  -0.00276,398414.88461,   1.00000
529616682.73379,333630502.94654,-67883092.41135,   0.00368,   0.00154,  -0.00365,478467559.61396,   0.00358,278467562.91572,   0.00192,   0.00105,  -0.00276,379800.24915,   1.00000
530055412.94354,332759170.88997,-67395012.05892,   0.00368,   0.00153,  -0.00364,478469298.71891,   0.00358,278469308.31252,   0.00192,   0.00105,  -0.00277,381948.30637,   1.00000
530489726.72301,331888802.67388,-66904319.34457,   0.00369,   0.00153,  -0.00364,478470992.96294,   0.00359,278470996.14354,   0.00192,   0.00105,  -0.00277,369536.44670,   1.00000
530920417.51756,331003917.74519,-66414699.14495,   0.00369,   0.00152,  -0.00363,478472655.30853,   0.00359,278472665.27893,   0.00192,   0.00105,  -0.00277,365604.86945,   1.00000
531348161.86568,330107252.48795,-65923713.44593,   0.00370,   0.00152,  -0.00362,478474234.85354,   0.00359,278474239.71578,   0.00193,   0.00105,  -0.00277,345020.61392,   1.00000
531769994.45383,329224017.39520,-65428722.35954,   0.00370,   0.00151,  -0.00362,478475788.16044,   0.00359,278475794.67804,   0.00193,   0.00105,  -0.00277,340904.89461,   1.00000
532191850.22362,328314687.69456,-64931269.39390,   0.00371,   0.00151,  -0.00361,478477280.27146,   0.00359,278477284.92988,   0.00193,   0.00105,  -0.00277,326859.20387,   1.00000
532607040.81059,327416067.65592,-64432262.93039,   0.00371,   0.00150,  -0.00361,478478827.00409,   0.00359,278478832.04752,   0.00193,   0.00105,  -0.00277,339475.55902,   1.00000
533016829.64286,326492675.53595,-63939992.22184,   0.00372,   0.00150,  -0.00360,478480182.30784,   0.00359,278480191.14337,   0.00193,   0.00105,  -0.00277,298329.86588,   1.00000
533425982.51993,325581152.36127,-63434410.82745,   0.00372,   0.00149,  -0.00360,478481653.71625,   0.00360,278481655.28955,   0.00193,   0.00105,  -0.00277,321527.09248,   1.00000
533828343.23863,324657411.47674,-62934209.32038,   0.00373,   0.00149,  -0.00359,478482968.23529,   0.00360,278482968.87064,   0.00193,   0.00105,  -0.00277,288573.08335,   1.00000
534228971.90346,323719905.86458,-62430119.20584,   0.00373,   0.00149,  -0.00358,478484251.28884,   0.00360,278484256.90971,   0.00193,   0.00105,  -0.00277,283059.40614,   1.00000
534624276.84127,322780282.60862,-61925700.29350,   0.00374,   0.00148,  -0.00358,478485558.95787,   0.00360,278485565.29787,   0.00194,   0.00105,  -0.00277,287631.12279,   1.00000
535015089.09194,321840993.41012,-61418356.25409,   0.00374,   0.00148,  -0.00357,478486808.89589,   0.00360,278486818.09127,   0.00194,   0.00105,  -0.00277,275501.42623,   1.00000
535402674.95765,320888995.71522,-60909220.18395,   0.00375,   0.00147,  -0.00357,478487977.44852,   0.00360,278487979.22733,   0.00194,   0.00105,  -0.00277,255435.67978,   1.00000
535784882.36685,319934816.48453,-60399731.35362,   0.00375,   0.00147,  -0.00356,478489155.15338,   0.00360,278489161.08874,   0.00194,   0.00105,  -0.00277,260072.35634,   1.00000
536162602.03320,318980803.60004,-59887233.15930,   0.00376,   0.00146,  -0.00355,478490285.49588,   0.00360,278490287.72522,   0.00194,   0.00105,  -0.00277,248000.06695,   1.00000
536539375.39520,317999537.64818,-59371822.57779,   0.00376,   0.00146,  -0.00355,478491351.99796,   0.00361,278491355.19628,   0.00194,   0.00105,  -0.00277,235041.70379,   1.00000
536910398.96369,317031381.09777,-58852217.68480,   0.00377,   0.00145,  -0.00354,478492401.59709,   0.00361,278492403.76109,   0.00194,   0.00106,  -0.00278,230946.19316,   1.00000
537275893.24863,316048917.98087,-58335410.52331,   0.00377,   0.00145,  -0.00353,478493364.28766,   0.00361,278493370.81387,   0.00194,   0.00106,  -0.00278,213044.20637,   1.00000
537637984.89016,315065262.33367,-57813401.71977,   0.00378,   0.00144,  -0.00353,478494344.61800,   0.00361,278494350.78075,   0.00194,   0.00106,  -0.00278,215944.85965,   1.00000
537994497.99770,314067138.94257,-57294115.67722,   0.00378,   0.00144,  -0.00352,478495247.58360,   0.00361,278495249.69844,   0.00194,   0.00106,  -0.00278,198133.95685,   1.00000
538346401.05802,313068763.26879,-56771625.15856,   0.00378,   0.00143,  -0.00351,478496090.21054,   0.00361,278496094.61496,   0.00194,   0.00106,  -0.00278,186270.33075,   1.00000
538695773.03137,312055770.76092,-56244929.23866,   0.00379,   0.00142,  -0.00351,478496908.54099,   0.00361,278496918.28084,   0.00195,   0.00106,  -0.00278,181617.39492,   1.00000
539037528.07131,311054721.72369,-55718783.83493,   0.00379,   0.00142,  -0.00350,478497729.25178,   0.00361,278497731.05363,   0.00195,   0.00106,  -0.00278,179259.47119,   1.00000
539377583.17292,310025568.10186,-55189405.32146,   0.00380,   0.00141,  -0.00350,478498484.67990,   0.00361,278498488.58484,   0.00195,   0.00106,  -0.00278,167102.81790,   1.00000
539712899.56635,308995886.41556,-54656702.54659,   0.00380,   0.00141,  -0.00349,478499186.38221,   0.00361,278499193.00050,   0.00195,   0.00106,  -0.00278,155409.23538,   1.00000
540043492.85294,307965618.13429,-54120645.80492,   0.00380,   0.00140,  -0.00348,478499844.23906,   0.00361,278499844.32997,   0.00195,   0.00106,  -0.00278,143726.38784,   1.00000
540368383.02940,306932882.45492,-53584138.11830,   0.00381,   0.00140,  -0.00347,478500509.81459,   0.00361,278500518.18389,   0.00195,   0.00106,  -0.00278,148710.17304,   1.00000
540689372.48538,305885944.48295,-53045186.58337,   0.00381,   0.00139,  -0.00347,478501102.02096,   0.00361,278501105.12382,   0.00195,   0.00106,  -0.00278,129550.34881,   1.00000
541005378.06683,304822927.40093,-52506708.04802,   0.00382,   0.00139,  -0.00346,478501678.42406,   0.00362,278501681.11969,   0.00195,   0.00106,  -0.00278,127148.01543,   1.00000
541315630.53450,303759796.34325,-51966617.54370,   0.00382,   0.00138,  -0.00345,478502129.63337,   0.00362,278502137.05051,   0.00195,   0.00106,  -0.00278,100648.41262,   1.00000
541621933.39379,302695003.13905,-51421164.13646,   0.00382,   0.00138,  -0.00345,478502601.03077,   0.00362,278502608.58658,   0.00195,   0.00106,  -0.00278,104102.32839,   1.00000
541924904.16665,301614850.08580,-50871245.94314,   0.00383,   0.00137,  -0.00344,478503053.08509,   0.00362,278503062.66541,   0.00195,   0.00106,  -0.00278,100252.88351,   1.00000
542221105.01407,300532733.37598,-50322639.73622,   0.00383,   0.00137,  -0.00343,478503462.87060,   0.00362,278503472.38198,   0.00195,   0.00106,  -0.00278,90462.41455,   1.00000
542510586.92847,299448621.54305,-49775322.98425,   0.00384,   0.00136,  -0.00343,478503829.43068,   0.00362,278503837.59139,   0.00195,   0.00106,  -0.00278,80638.86193,   1.00000
542797517.70435,298350392.14166,-49220349.98656,   0.00384,   0.00136,  -0.00342,478504104.49115,   0.00362,278504111.09606,   0.00195,   0.00106,  -0.00278,60391.36792,   1.00000
543078441.11474,297249450.43768,-48664844.26039,   0.00384,   0.00135,  -0.00341,478504401.25862,   0.00362,278504408.56518,   0.00195,   0.00106,  -0.00278,65683.34945,   1.00000
543354859.84930,296133300.08667,-48106478.54772,   0.00385,   0.00134,  -0.00341,478504615.66379,   0.00362,278504622.29292,   0.00195,   0.00106,  -0.00278,47190.85594,   1.00000
543624459.81398,295014873.62086,-47549277.16348,   0.00385,   0.00134,  -0.00340,478504784.64970,   0.00362,278504792.11650,   0.00195,   0.00106,  -0.00278,37493.67960,   1.00000
543889689.50466,293894489.61759,-46986623.03430,   0.00385,   0.00133,  -0.00339,478504974.79579,   0.00362,278504979.38023,   0.00195,   0.00106,  -0.00278,41346.38980,   1.00000
544150204.83629,292758568.67756,-46420975.66590,   0.00386,   0.00133,  -0.00338,478505079.16778,   0.00362,278505083.89825,   0.00195,   0.00106,  -0.00278,23073.39946,   1.00000
544405499.64770,291620965.60575,-45851499.11843,   0.00386,   0.00132,  -0.00338,478505128.55493,   0.00362,278505138.21129,   0.00195,   0.00106,  -0.00278,11982.20539,   1.00000
544654596.36563,290480515.44262,-45281448.95509,   0.00386,   0.00132,  -0.00337,478505214.35190,   0.00362,278505217.30970,   0.00195,   0.00106,  -0.00278,17459.95072,   1.00000
544897138.04353,289323448.90159,-44713192.88011,   0.00387,   0.00131,  -0.00336,478505212.83428,   0.00362,278505221.14221,   0.00195,   0.00106,  -0.00278, 837.72327,   1.00000
545115273.19094,288141460.77728,-44134881.09396,   0.00387,   0.00130,  -0.00335,478486692.14847,   0.00362,278505221.14221,   0.00195,   0.00106,  -0.00278,-18528.99374,   0.00000
545341017.70395,286977227.83938,-43556569.30782,   0.00387,   0.00130,  -0.00335,478480747.35622,   0.00362,278505221.14221,   0.00195,   0.00106,  -0.00278,-24473.78598,   0.00000
545541397.66494,285787630.34945,-42973184.61127,   0.00388,   0.00129,  -0.00334,478456985.23240,   0.00362,278505221.14221,   0.00195,   0.00106,  -0.00278,-48235.90980,   0.00000
545716413.07390,284572668.30750,-42389799.91472,   0.00388,   0.00129,  -0.00333,478416885.83148,   0.00362,278505221.14221,   0.00195,   0.00106,  -0.00278,-88335.31073,   0.00000
545873673.29645,283350096.89995,-41801342.30776,   0.00388,   0.00128,  -0.00332,478366013.67978,   0.00362,278505221.14221,   0.00195,   0.00106,  -0.00278,-139207.46243,   0.00000
546030933.51900,282127525.49239,-41207811.79040,   0.00389,   0.00128,  -0.00332,478319575.32777,   0.00362,278505221.14221,   0.00195,   0.00106,  -0.00278,-185645.81444,   0.00000
546170438.55513,280897344.71923,-40614281.27304,   0.00389,   0.00127,  -0.00331,478263734.56235,   0.00362,278505221.14221,   0.00195,   0.00106,  -0.00278,-241486.57986,   0.00000
546302334.22566,279649408.75965,-40015677.84527,   0.00389,   0.00126,  -0.00330,478205678.39587,   0.00362,278505221.14221,   0.00195,   0.00106,  -0.00278,-299542.74634,   0.00000
546391110.15774,278368498.88244,-39412001.50710,   0.00390,   0.00126,  -0.00329,478115164.87196,   0.00362,278505221.14221,   0.00195,   0.00106,  -0.00278,-390056.27025,   0.00000
546487495.45543,277105344.19165,-38808325.16893,   0.00390,   0.00125,  -0.00328,478037244.62783,   0.00362,278505221.14221,   0.00195,   0.00106,  -0.00278,-467976.51438,   0.00000
546576271.38752,275824434.31444,-38199575.92036,   0.00390,   0.00125,  -0.00328,477957394.48730,   0.00362,278505221.14221,   0.00195,   0.00106,  -0.00278,-547826.65491,   0.00000
546621927.58116,274510550.51960,-37585753.76138,   0.00390,   0.00124,  -0.00327,477845324.81773,   0.00362,278505221.14221,   0.00195,   0.00106,  -0.00278,-659896.32448,   0.00000
546675193.14041,273214421.91117,-36971931.60240,   0.00391,   0.00123,  -0.00326,477745864.91937,   0.00362,278505221.14221,   0.00195,   0.00106,  -0.00278,-759356.22283,   0.00000
546695484.78203,271875173.56431,-36353036.53301,   0.00391,   0.00123,  -0.00325,477623034.47934,   0.00362,278505221.14221,   0.00195,   0.00106,  -0.00278,-882186.66287,   0.00000
546705630.60284,270546071.03825,-35729068.55322,   0.00391,   0.00122,  -0.00324,477496452.06225,   0.00362,278505221.14221,   0.00195,   0.00106,  -0.00278,-1008769.07996,   0.00000
546708167.05804,269199213.32578,-35105100.57343,   0.00392,   0.00121,  -0.00324,477369597.01178,   0.00362,278505221.14221,   0.00195,   0.00106,  -0.00278,-1135624.13043,   0.00000
546692948.32683,267844746.24770,-34476059.68324,   0.00392,   0.00121,  -0.00323,477232595.17411,   0.00362,278505221.14221,   0.00195,   0.00106,  -0.00278,-1272625.96810,   0.00000
546652365.04359,266464914.61760,-33847018.79304,   0.00392,   0.00120,  -0.00322,477080229.30802,   0.00362,278505221.14221,   0.00195,   0.00106,  -0.00278,-1424991.83419,   0.00000
546619391.12596,265102838.17391,-33212904.99244,   0.00392,   0.00120,  -0.00321,476939422.51454,   0.00362,278505221.14221,   0.00195,   0.00106,  -0.00278,-1565798.62767,   0.00000
546535688.10428,263690032.62617,-32573718.28144,   0.00393,   0.00119,  -0.00320,476760757.21315,   0.00362,278505221.14221,   0.00195,   0.00106,  -0.00278,-1744463.92905,   0.00000
546459594.44821,262294982.26486,-31929458.66003,   0.00393,   0.00118,  -0.00320,476593755.14429,   0.00362,278505221.14221,   0.00195,   0.00106,  -0.00278,-1911465.99792,   0.00000
546375891.42653,260882176.71712,-31285199.03862,   0.00393,   0.00118,  -0.00319,476426997.59391,   0.00362,278505221.14221,   0.00195,   0.00106,  -0.00278,-2078223.54830,   0.00000
546256678.03201,259454152.43817,-30635866.50681,   0.00393,   0.00117,  -0.00318,476235153.10124,   0.00362,278505221.14221,   0.00195,   0.00106,  -0.00278,-2270068.04097,   0.00000
546129855.27189,258008372.97281,-29986533.97500,   0.00393,   0.00117,  -0.00317,476043738.12949,   0.00362,278505221.14221,   0.00195,   0.00106,  -0.00278,-2461483.01272,   0.00000
545985277.32536,256554984.14183,-29332128.53278,   0.00394,   0.00116,  -0.00316,475842684.16250,   0.00362,278505221.14221,   0.00195,   0.00106,  -0.00278,-2662536.97971,   0.00000
545840699.37882,255101595.31086,-28672650.18016,   0.00394,   0.00115,  -0.00315,475647371.94316,   0.00362,278505221.14221,   0.00195,   0.00106,  -0.00278,-2857849.19905,   0.00000
545653001.69384,253615232.56226,-28013171.82753,   0.00394,   0.00115,  -0.00314,475422112.34833,   0.00362,278505221.14221,   0.00195,   0.00106,  -0.00278,-3083108.79388,   0.00000
545465304.00887,252128869.81365,-27348620.56450,   0.00394,   0.00114,  -0.00314,475202751.87442,   0.00362,278505221.14221,   0.00195,   0.00106,  -0.00278,-3302469.26779,   0.00000
545259851.13747,250634897.69944,-26678996.39107,   0.00394,   0.00113,  -0.00313,474974016.91368,   0.00362,278505221.14221,   0.00195,   0.00106,  -0.00278,-3531204.22852,   0.00000
545054398.26608,249140925.58523,-26009372.21764,   0.00395,   0.00113,  -0.00312,474752148.93860,   0.00362,278505221.14221,   0.00195,   0.00106,  -0.00278,-3753072.20361,   0.00000
544805825.65624,247613979.55339,-25334675.13380,   0.00395,   0.00112,  -0.00311,474499809.54373,   0.00362,278505221.14221,   0.00195,   0.00106,  -0.00278,-4005411.59847,   0.00000
544557253.04641,246087033.52154,-24659978.04996,   0.00395,   0.00111,  -0.00310,474254461.74003,   0.00362,278505221.14221,   0.00195,   0.00106,  -0.00278,-4250759.40218,   0.00000
544301071.07097,244542332.30328,-23980208.05572,   0.00395,   0.00111,  -0.00309,474009605.38543,   0.00362,278505221.14221,   0.00195,   0.00106,  -0.00278,-4495615.75678,   0.00000
544009378.72269,242982412.35381,-23295365.15107,   0.00395,   0.00110,  -0.00308,473740401.25258,   0.00362,278505221.14221,   0.00195,   0.00106,  -0.00278,-4764819.88963,   0.00000
543717686.37442,241422492.40434,-22610522.24643,   0.00396,   0.00109,  -0.00307,473478373.79864,   0.00362,278505221.14221,   0.00195,   0.00106,  -0.00278,-5026847.34356,   0.00000
543400629.47412,239837207.90284,-21915533.52097,   0.00396,   0.00109,  -0.00306,473201133.23016,   0.00362,278505221.14221,   0.00195,   0.00106,  -0.00278,-5304087.91205,   0.00000
543073426.75301,238262069.22215,-21225617.70592,   0.00396,   0.00108,  -0.00306,472922131.66496,   0.00362,278505221.14221,   0.00195,   0.00106,  -0.00278,-5583089.47724,   0.00000
542738614.66629,236669175.35505,-20530628.98046,   0.00396,   0.00107,  -0.00305,472644181.41527,   0.00362,278505221.14221,   0.00195,   0.00106,  -0.00278,-5861039.72694,   0.00000
542360682.84113,235043307.57031,-19830567.34460,   0.00396,   0.00107,  -0.00304,472336714.78940,   0.00362,278505221.14221,   0.00195,   0.00106,  -0.00278,-6168506.35280,   0.00000
541982751.01598,233417439.78557,-19125432.79834,   0.00396,   0.00106,  -0.00303,472036146.90400,   0.00362,278505221.14221,   0.00195,   0.00106,  -0.00278,-6469074.23820,   0.00000
541604819.19082,231791572.00084,-18420298.25207,   0.00397,   0.00105,  -0.00302,471743153.35885,   0.00362,278505221.14221,   0.00195,   0.00106,  -0.00278,-6762067.78335,   0.00000
541191376.99283,230150485.48489,-17710090.79540,   0.00397,   0.00105,  -0.00301,471426384.80799,   0.00362,278505221.14221,   0.00195,   0.00106,  -0.00278,-7078836.33422,   0.00000
540770325.42923,228491643.78252,-16999883.33873,   0.00397,   0.00104,  -0.00300,471111943.89203,   0.00362,278505221.14221,   0.00195,   0.00106,  -0.00278,-7393277.25017,   0.00000
540339128.04482,226842947.90096,-16284602.97165,   0.00397,   0.00103,  -0.00299,470794584.20690,   0.00362,278505221.14221,   0.00195,   0.00106,  -0.00278,-7710636.93531,   0.00000
539892711.92920,225158741.64657,-15564249.69417,   0.00397,   0.00103,  -0.00298,470473987.90754,   0.00362,278505221.14221,   0.00195,   0.00106,  -0.00278,-8031233.23466,   0.00000
539418394.80635,223477071.84738,-14843896.41669,   0.00397,   0.00102,  -0.00297,470135710.94684,   0.00362,278505221.14221,   0.00195,   0.00106,  -0.00278,-8369510.19537,   0.00000
538936468.31790,221777646.86178,-14118470.22880,   0.00397,   0.00101,  -0.00296,469799716.24489,   0.00362,278505221.14221,   0.00195,   0.00106,  -0.00278,-8705504.89732,   0.00000
538436786.64303,220070612.51056,-13393044.04092,   0.00397,   0.00101,  -0.00295,469456339.98545,   0.00362,278505221.14221,   0.00195,   0.00106,  -0.00278,-9048881.15675,   0.00000
537937104.96815,218363578.15935,-12657472.03222,   0.00397,   0.00100,  -0.00294,469120181.72030,   0.00362,278505221.14221,   0.00195,   0.00106,  -0.00278,-9385039.42191,   0.00000
537412058.74126,216631179.25611,-11926972.93393,   0.00398,   0.00099,  -0.00294,468772160.78276,   0.00362,278505221.14221,   0.00195,   0.00106,  -0.00278,-9733060.35945,   0.00000
536869257.32794,214891170.98727,-11186328.01483,   0.00398,   0.00099,  -0.00293,468416217.97418,   0.00362,278505221.14221,   0.00195,   0.00106,  -0.00278,-10089003.16802,   0.00000
536308700.72822,213143553.35282,-10445683.09573,   0.00398,   0.00098,  -0.00292,468053193.05760,   0.00362,278505221.14221,   0.00195,   0.00106,  -0.00278,-10452028.08461,   0.00000
535722779.57646,211370571.16634,-9705038.17663,   0.00398,   0.00097,  -0.00291,467678252.97361,   0.00362,278505221.14221,   0.00195,   0.00106,  -0.00278,-10826968.16860,   0.00000
535144467.79032,209615344.16629,-8959320.34713,   0.00398,   0.00097,  -0.00290,467316285.17015,   0.00362,278505221.14221,   0.00195,   0.00106,  -0.00278,-11188935.97206,   0.00000
534540791.45214,207834752.61420,-8208529.60722,   0.00398,   0.00096,  -0.00289,466942318.53814,   0.00362,278505221.14221,   0.00195,   0.00106,  -0.00278,-11562902.60407,   0.00000
533911750.56195,206028796.51010,-7457738.86731,   0.00398,   0.00095,  -0.00288,466556835.31129,   0.00362,278505221.14221,   0.00195,   0.00106,  -0.00278,-11948385.83092,   0.00000
533290319.03736,204240595.59241,-6701875.21700,   0.00398,   0.00095,  -0.00287,466184510.97964,   0.00362,278505221.14221,   0.00195,   0.00106,  -0.00278,-12320710.16256,   0.00000
532643522.96075,202427030.12269,-5940938.65628,   0.00398,   0.00094,  -0.00286,465800668.59726,   0.00362,278505221.14221,   0.00195,   0.00106,  -0.00278,-12704552.54495,   0.00000
531978971.69772,200605855.28737,-5180002.09556,   0.00398,   0.00093,  -0.00285,465410287.97928,   0.00362,278505221.14221,   0.00195,   0.00106,  -0.00278,-13094933.16293,   0.00000
531306811.06909,198766925.26564,-4413992.62444,   0.00398,   0.00092,  -0.00284,465024135.77333,   0.00362,278505221.14221,   0.00195,   0.00106,  -0.00278,-13481085.36888,   0.00000
530606749.43323,196930531.69910,-3647983.15331,   0.00398,   0.00092,  -0.00283,464620717.26692,   0.00362,278505221.14221,   0.00195,   0.00106,  -0.00278,-13884503.87528,   0.00000
529899078.43176,195076382.94615,-2876900.77178,   0.00398,   0.00091,  -0.00282,464221781.73085,   0.00362,278505221.14221,   0.00195,   0.00106,  -0.00278,-14283439.41135,   0.00000
529173652.24387,193214624.82759,-2105818.39026,   0.00398,   0.00090,  -0.00281,463816623.46526,   0.00362,278505221.14221,   0.00195,   0.00106,  -0.00278,-14688597.67694,   0.00000
528440616.69038,191335111.52261,-1329663.09832,   0.00398,   0.00090,  -0.00280,463416303.07296,   0.00362,278505221.14221,   0.00195,   0.00106,  -0.00278,-15088918.06924,   0.00000
527697435.31608,189465744.03845,-548434.89598,   0.00398,   0.00089,  -0.00279,463014218.50346,   0.00362,278505221.14221,   0.00195,   0.00106,  -0.00278,-15491002.63874,   0.00000
526928889.38975,187571012.00226,232793.30635,   0.00398,   0.00088,  -0.00278,462601898.56850,   0.00362,278505221.14221,   0.00195,   0.00106,  -0.00278,-15903322.57371,   0.00000
526142588.27701,185668670.60046,1019094.41910,   0.00398,   0.00087,  -0.00277,462183728.82437,   0.00362,278505221.14221,   0.00195,   0.00106,  -0.00278,-16321492.31783,   0.00000
525356287.16427,183766329.19866,1810468.44225,   0.00398,   0.00087,  -0.00276,461775193.34033,   0.00362,278505221.14221,   0.00195,   0.00106,  -0.00278,-16730027.80188,   0.00000
524544621.49950,181838623.24484,2601842.46539,   0.00398,   0.00086,  -0.00275,461356892.00046,   0.00362,278505221.14221,   0.00195,   0.00106,  -0.00278,-17148329.14175,   0.00000
523732955.83473,179910917.29102,3393216.48854,   0.00398,   0.00085,  -0.00274,460948383.70747,   0.00362,278505221.14221,   0.00195,   0.00106,  -0.00278,-17556837.43473,   0.00000
522885779.79713,177967992.60598,4194736.33250,   0.00398,   0.00085,  -0.00273,460519272.07474,   0.00362,278505221.14221,   0.00195,   0.00106,  -0.00278,-17985949.06747,   0.00000
522038603.75953,176025067.92095,4991183.26605,   0.00398,   0.00084,  -0.00272,460099971.09197,   0.00362,278505221.14221,   0.00195,   0.00106,  -0.00278,-18405250.05023,   0.00000
521173672.53552,174074533.87031,5797776.02041,   0.00398,   0.00083,  -0.00270,459675666.95941,   0.00362,278505221.14221,   0.00195,   0.00106,  -0.00278,-18829554.18280,   0.00000
520301131.94589,172106244.63325,6604368.77477,   0.00398,   0.00082,  -0.00269,459257668.97140,   0.00362,278505221.14221,   0.00195,   0.00106,  -0.00278,-19247552.17081,   0.00000
519410836.16985,170130346.03058,7410961.52914,   0.00398,   0.00082,  -0.00268,458834581.44946,   0.00362,278505221.14221,   0.00195,   0.00106,  -0.00278,-19670639.69275,   0.00000
518502785.20739,168146838.06231,8222627.19390,   0.00398,   0.00081,  -0.00267,458406728.08431,   0.00362,278505221.14221,   0.00195,   0.00106,  -0.00278,-20098493.05790,   0.00000
517569369.69291,166137965.54201,9039365.76907,   0.00398,   0.00080,  -0.00266,457970615.13992,   0.00362,278505221.14221,   0.00195,   0.00106,  -0.00278,-20534606.00229,   0.00000
516643563.54404,164146848.20813,9856104.34425,   0.00398,   0.00080,  -0.00265,457548658.94668,   0.00362,278505221.14221,   0.00195,   0.00106,  -0.00278,-20956562.19552,   0.00000
515692392.84314,162130366.32222,10672842.91942,   0.00398,   0.00079,  -0.00264,457118400.29336,   0.00362,278505221.14221,   0.00195,   0.00106,  -0.00278,-21386820.84884,   0.00000
514723466.95582,160106275.07071,11499727.31540,   0.00398,   0.00078,  -0.00263,456684290.23916,   0.00362,278505221.14221,   0.00195,   0.00106,  -0.00278,-21820930.90305,   0.00000
513754541.06851,158082183.81920,12326611.71138,   0.00398,   0.00077,  -0.00262,456261001.59806,   0.00362,278505221.14221,   0.00195,   0.00106,  -0.00278,-22244219.54414,   0.00000
512767859.99477,156050483.20208,13153496.10736,   0.00398,   0.00077,  -0.00261,455833305.72489,   0.00362,278505221.14221,   0.00195,   0.00106,  -0.00278,-22671915.41732,   0.00000
511773569.55543,154001027.39854,13985453.41375,   0.00398,   0.00076,  -0.00260,455413686.82762,   0.00362,278505221.14221,   0.00195,   0.00106,  -0.00278,-23091534.31459,   0.00000
510743768.74326,151936352.86379,14817410.72013,   0.00398,   0.00075,  -0.00259,454974696.15596,   0.00362,278505221.14221,   0.00195,   0.00106,  -0.00278,-23530524.98625,   0.00000
509713967.93109,149871678.32904,15654440.93692,   0.00398,   0.00074,  -0.00258,454547407.63838,   0.00362,278505221.14221,   0.00195,   0.00106,  -0.00278,-23957813.50382,   0.00000
508684167.11892,147807003.79429,16496544.06412,   0.00398,   0.00074,  -0.00257,454131938.45715,   0.00362,278505221.14221,   0.00195,   0.00106,  -0.00278,-24373282.68506,   0.00000
507636611.12033,145734719.89393,17338647.19132,   0.00398,   0.00073,  -0.00255,453712622.99174,   0.00362,278505221.14221,   0.00195,   0.00106,  -0.00278,-24792598.15047,   0.00000
506563690.56971,143637071.44155,18185823.22892,   0.00398,   0.00072,  -0.00254,453287136.79454,   0.00362,278505221.14221,   0.00195,   0.00106,  -0.00278,-25218084.34766,   0.00000
505480624.19829,141549568.80998,19032999.26652,   0.00398,   0.00071,  -0.00253,452861063.30348,   0.00362,278505221.14221,   0.00195,   0.00106,  -0.00278,-25644157.83873,   0.00000
504389948.46126,139444310.99199,19885248.21452,   0.00398,   0.00071,  -0.00252,452444357.27720,   0.00362,278505221.14221,   0.00195,   0.00106,  -0.00278,-26060863.86501,   0.00000
503281517.53781,137331443.80839,20737497.16253,   0.00397,   0.00070,  -0.00251,452024297.21621,   0.00362,278505221.14221,   0.00195,   0.00106,  -0.00278,-26480923.92599,   0.00000
502173086.61436,135218576.62479,21594819.02094,   0.00397,   0.00069,  -0.00250,451616818.79509,   0.00362,278505221.14221,   0.00195,   0.00106,  -0.00278,-26888402.34711,   0.00000
501021535.95248,133072735.52357,22452140.87935,   0.00397,   0.00068,  -0.00249,451188344.23407,   0.00362,278505221.14221,   0.00195,   0.00106,  -0.00278,-27316876.90813,   0.00000
499895349.84261,130952258.97436,23314535.64816,   0.00397,   0.00068,  -0.00248,450790563.70953,   0.00362,278505221.14221,   0.00195,   0.00106,  -0.00278,-27714657.43268,   0.00000
498726043.99431,128798808.50753,24182003.32738,   0.00397,   0.00067,  -0.00247,450372942.84604,   0.00362,278505221.14221,   0.00195,   0.00106,  -0.00278,-28132278.29616,   0.00000
497556738.14600,126645358.04069,25044398.09620,   0.00397,   0.00066,  -0.00245,449966852.96551,   0.00362,278505221.14221,   0.00195,   0.00106,  -0.00278,-28538368.17669,   0.00000
496387432.29770,124491907.57386,25916938.68582,   0.00397,   0.00065,  -0.00244,449574868.94241,   0.00362,278505221.14221,   0.00195,   0.00106,  -0.00278,-28930352.19980,   0.00000
495182616.07656,122323238.37581,26789479.27545,   0.00397,   0.00065,  -0.00243,449165320.70589,   0.00362,278505221.14221,   0.00195,   0.00106,  -0.00278,-29339900.43631,   0.00000
493977799.85542,120154569.17776,27662019.86507,   0.00397,   0.00064,  -0.00242,448768380.73592,   0.00362,278505221.14221,   0.00195,   0.00106,  -0.00278,-29736840.40629,   0.00000
492765374.26868,117968144.79330,28539633.36510,   0.00396,   0.00063,  -0.00241,448382774.26894,   0.00362,278505221.14221,   0.00195,   0.00106,  -0.00278,-30122446.87327,   0.00000
491542802.86112,115791866.22964,29422319.77553,   0.00396,   0.00062,  -0.00240,447998262.89551,   0.00362,278505221.14221,   0.00195,   0.00106,  -0.00278,-30506958.24670,   0.00000
490294866.90154,113590223.11396,30305006.18597,   0.00396,   0.00062,  -0.00239,447609508.58298,   0.00362,278505221.14221,   0.00195,   0.00106,  -0.00278,-30895712.55923,   0.00000
489046930.94196,111388579.99828,31187692.59640,   0.00396,   0.00061,  -0.00237,447233819.98246,   0.00362,278505221.14221,   0.00195,   0.00106,  -0.00278,-31271401.15974,   0.00000
487781239.79597,109179327.51699,32075451.91724,   0.00396,   0.00060,  -0.00236,446857404.06164,   0.00362,278505221.14221,   0.00195,   0.00106,  -0.00278,-31647817.08056,   0.00000
486497793.46355,106962465.67010,32968284.14848,   0.00396,   0.00059,  -0.00235,446480449.57679,   0.00362,278505221.14221,   0.00195,   0.00106,  -0.00278,-32024771.56541,   0.00000
485214347.13114,104745603.82320,33861116.37973,   0.00396,   0.00059,  -0.00234,446116868.11384,   0.00362,278505221.14221,   0.00195,   0.00106,  -0.00278,-32388353.02837,   0.00000
483930900.79873,102528741.97631,34759021.52137,   0.00395,   0.00058,  -0.00233,445767878.99997,   0.00362,278505221.14221,   0.00195,   0.00106,  -0.00278,-32737342.14224,   0.00000
482604334.72788,100278906.21178,35656926.66302,   0.00395,   0.00057,  -0.00232,445400962.46724,   0.00362,278505221.14221,   0.00195,   0.00106,  -0.00278,-33104258.67496,   0.00000
481303133.20905,98054434.99928,36554831.80467,   0.00395,   0.00056,  -0.00230,445064308.44821,   0.00362,278505221.14221,   0.00195,   0.00106,  -0.00278,-33440912.69400,   0.00000
479958811.95178,95796989.86915,37457809.85672,   0.00395,   0.00056,  -0.00229,444711341.82724,   0.00362,278505221.14221,   0.00195,   0.00106,  -0.00278,-33793879.31497,   0.00000
478614490.69451,93539544.73902,38365860.81918,   0.00395,   0.00055,  -0.00228,444373619.15046,   0.00362,278505221.14221,   0.00195,   0.00106,  -0.00278,-34131601.99175,   0.00000
477270169.43724,91282099.60888,39273911.78164,   0.00395,   0.00054,  -0.00227,444049922.45989,   0.00362,278505221.14221,   0.00195,   0.00106,  -0.00278,-34455298.68232,   0.00000
475908092.99355,89017045.11314,40181962.74410,   0.00394,   0.00053,  -0.00226,443725574.54312,   0.00362,278505221.14221,   0.00195,   0.00106,  -0.00278,-34779646.59909,   0.00000
474528261.36344,86744381.25180,41095086.61696,   0.00394,   0.00053,  -0.00225,443402093.50552,   0.00362,278505221.14221,   0.00195,   0.00106,  -0.00278,-35103127.63669,   0.00000
473148429.73334,84471717.39045,42008210.48982,   0.00394,   0.00052,  -0.00223,443092898.16417,   0.00362,278505221.14221,   0.00195,   0.00106,  -0.00278,-35412322.97804,   0.00000
471750842.91682,82191444.16349,42926407.27309,   0.00394,   0.00051,  -0.00222,442784865.98557,   0.00362,278505221.14221,   0.00195,   0.00106,  -0.00278,-35720355.15664,   0.00000
470345646.73469,79893415.75012,43849676.96676,   0.00394,   0.00050,  -0.00221,442491635.50505,   0.00362,278505221.14221,   0.00195,   0.00106,  -0.00278,-36013585.63716,   0.00000
468930304.73176,77605533.15756,44772946.66044,   0.00394,   0.00049,  -0.00220,442199630.73030,   0.00362,278505221.14221,   0.00195,   0.00106,  -0.00278,-36305590.41190,   0.00000
467507353.36321,75299895.37858,45696216.35411,   0.00393,   0.00049,  -0.00219,441921234.45584,   0.00362,278505221.14221,   0.00195,   0.00106,  -0.00278,-36583986.68636,   0.00000
466074256.17386,73004403.42041,46624558.95819,   0.00393,   0.00048,  -0.00217,441645707.16733,   0.00362,278505221.14221,   0.00195,   0.00106,  -0.00278,-36859513.97487,   0.00000
464633549.61890,70691156.27583,47552901.56226,   0.00393,   0.00047,  -0.00216,441384104.24588,   0.00362,278505221.14221,   0.00195,   0.00106,  -0.00278,-37121116.89633,   0.00000
463175087.87752,68370299.76564,48486317.07674,   0.00393,   0.00046,  -0.00215,441124709.29345,   0.00362,278505221.14221,   0.00195,   0.00106,  -0.00278,-37380511.84876,   0.00000
461716626.13614,66049443.25544,49419732.59123,   0.00392,   0.00046,  -0.00214,440880455.01585,   0.00362,278505221.14221,   0.00195,   0.00106,  -0.00278,-37624766.12635,   0.00000
460240409.20835,63720977.37964,50353148.10571,   0.00392,   0.00045,  -0.00213,440636978.80975,   0.00362,278505221.14221,   0.00195,   0.00106,  -0.00278,-37868242.33246,   0.00000
458746437.09413,61384902.13824,51291636.53059,   0.00392,   0.00044,  -0.00211,440396174.53352,   0.00362,278505221.14221,   0.00195,   0.00106,  -0.00278,-38109046.60869,   0.00000
457270220.16634,59056436.26244,52235197.86589,   0.00392,   0.00043,  -0.00210,440186909.15484,   0.00362,278505221.14221,   0.00195,   0.00106,  -0.00278,-38318311.98737,   0.00000
455758492.86571,56712751.65542,53178759.20118,   0.00392,   0.00043,  -0.00209,439964502.07868,   0.00362,278505221.14221,   0.00195,   0.00106,  -0.00278,-38540719.06353,   0.00000
454246765.56508,54369067.04841,54122320.53647,   0.00391,   0.00042,  -0.00208,439757687.10198,   0.00362,278505221.14221,   0.00195,   0.00106,  -0.00278,-38747534.04023,   0.00000
452735038.26445,52025382.44139,55070954.78217,   0.00391,   0.00041,  -0.00206,439568392.81507,   0.00362,278505221.14221,   0.00195,   0.00106,  -0.00278,-38936828.32714,   0.00000
451205555.77741,49674088.46877,56019589.02786,   0.00391,   0.00040,  -0.00205,439380617.45925,   0.00362,278505221.14221,   0.00195,   0.00106,  -0.00278,-39124603.68296,   0.00000
449676073.29036,47322794.49615,56973296.18396,   0.00391,   0.00039,  -0.00204,439210608.70248,   0.00362,278505221.14221,   0.00195,   0.00106,  -0.00278,-39294612.43972,   0.00000
448138981.43771,44953745.33711,57927003.34006,   0.00390,   0.00039,  -0.00203,439056344.22538,   0.00362,278505221.14221,   0.00195,   0.00106,  -0.00278,-39448876.91682,   0.00000
446573988.57783,42587232.63328,58880710.49617,   0.00390,   0.00038,  -0.00201,438890035.79911,   0.00362,278505221.14221,   0.00195,   0.00106,  -0.00278,-39615185.34310,   0.00000
445026750.90437,40228329.29505,59839490.56267,   0.00390,   0.00037,  -0.00200,438755898.77549,   0.00362,278505221.14221,   0.00195,   0.00106,  -0.00278,-39749322.36672,   0.00000
443461758.04449,37861816.59121,60803343.53958,   0.00390,   0.00036,  -0.00199,438625945.43868,   0.00362,278505221.14221,   0.00195,   0.00106,  -0.00278,-39879275.70352,   0.00000
441871400.63259,35469939.33535,61767196.51649,   0.00389,   0.00036,  -0.00198,438498414.15394,   0.00362,278505221.14221,   0.00195,   0.00106,  -0.00278,-40006806.98827,   0.00000
440306407.77271,33103426.63152,62731049.49340,   0.00389,   0.00035,  -0.00196,438401040.63175,   0.00362,278505221.14221,   0.00195,   0.00106,  -0.00278,-40104180.51046,   0.00000
438698295.17439,30703940.01005,63694902.47031,   0.00389,   0.00034,  -0.00195,438292461.47478,   0.00362,278505221.14221,   0.00195,   0.00106,  -0.00278,-40212759.66743,   0.00000
437115547.12810,28329817.94061,64663828.35763,   0.00389,   0.00033,  -0.00194,438216166.23544,   0.00362,278505221.14221,   0.00195,   0.00106,  -0.00278,-40289054.90676,   0.00000
435515043.89539,25948086.50556,65637827.15535,   0.00388,   0.00032,  -0.00193,438144779.35958,   0.00362,278505221.14221,   0.00195,   0.00106,  -0.00278,-40360441.78262,   0.00000
433889176.11065,23540990.51848,66611825.95307,   0.00388,   0.00032,  -0.00191,438076728.97574,   0.00362,278505221.14221,   0.00195,   0.00106,  -0.00278,-40428492.16647,   0.00000
432270917.69152,21151649.71782,67585824.75079,   0.00388,   0.00031,  -0.00190,438024915.56437,   0.00362,278505221.14221,   0.00195,   0.00106,  -0.00278,-40480305.57784,   0.00000
430652659.27239,18762308.91717,68559823.54851,   0.00388,   0.00030,  -0.00189,437989779.74380,   0.00362,278505221.14221,   0.00195,   0.00106,  -0.00278,-40515441.39840,   0.00000
429009036.30124,16347603.56449,69538895.25663,   0.00387,   0.00029,  -0.00188,437960844.80228,   0.00362,278505221.14221,   0.00195,   0.00106,  -0.00278,-40544376.33993,   0.00000
427373022.69569,13950653.39822,70523039.87516,   0.00387,   0.00029,  -0.00186,437950551.78252,   0.00362,278505221.14221,   0.00195,   0.00106,  -0.00278,-40554669.35969,   0.00000
425737009.09015,11553703.23196,71507184.49369,   0.00387,   0.00028,  -0.00185,437957169.38093,   0.00362,278505221.14221,   0.00195,   0.00106,  -0.00278,-40548051.76128,   0.00000
424083240.29818,9149143.70008,72491329.11222,   0.00386,   0.00027,  -0.00184,437967215.00055,   0.00362,278505221.14221,   0.00195,   0.00106,  -0.00278,-40538006.14166,   0.00000
422421862.14062,6726828.98180,73475473.73075,   0.00386,   0.00026,  -0.00182,437995269.30959,   0.00362,278505221.14221,   0.00195,   0.00106,  -0.00278,-40509951.83262,   0.00000
420750338.16224,4314660.08432,74464691.25969,   0.00386,   0.00026,  -0.00181,438028582.85613,   0.00362,278505221.14221,   0.00195,   0.00106,  -0.00278,-40476638.28608,   0.00000
419078814.18386,1902491.18684,75458981.69903,   0.00386,   0.00025,  -0.00180,438081672.72445,   0.00362,278505221.14221,   0.00195,   0.00106,  -0.00278,-40423548.41776,   0.00000
417407290.20548,-509677.71064,76448199.22796,   0.00385,   0.00024,  -0.00179,438149324.28993,   0.00362,278505221.14221,   0.00195,   0.00106,  -0.00278,-40355896.85228,   0.00000
415718011.04068,-2929455.97373,77442489.66730,   0.00385,   0.00023,  -0.00177,438223563.54304,   0.00362,278505221.14221,   0.00195,   0.00106,  -0.00278,-40281657.59917,   0.00000
414028731.87589,-5349234.23681,78441853.01705,   0.00385,   0.00022,  -0.00176,438317823.85330,   0.00362,278505221.14221,   0.00195,   0.00106,  -0.00278,-40187397.28891,   0.00000
412339452.71109,-7769012.49990,79436143.45639,   0.00384,   0.00022,  -0.00175,438426681.26072,   0.00362,278505221.14221,   0.00195,   0.00106,  -0.00278,-40078539.88149,   0.00000
410650173.54629,-10188790.76299,80435506.80613,   0.00384,   0.00021,  -0.00173,438555603.60271,   0.00362,278505221.14221,   0.00195,   0.00106,  -0.00278,-39949617.53950,   0.00000
408943139.19508,-12616178.39168,81439943.06628,   0.00384,   0.00020,  -0.00172,438691636.15003,   0.00362,278505221.14221,   0.00195,   0.00106,  -0.00278,-39813584.99217,   0.00000
407236104.84387,-15043566.02037,82444379.32643,   0.00384,   0.00019,  -0.00171,438845148.36520,   0.00362,278505221.14221,   0.00195,   0.00106,  -0.00278,-39660072.77701,   0.00000
405518924.67185,-17460807.82826,83448815.58658,   0.00383,   0.00019,  -0.00170,439001458.49399,   0.00362,278505221.14221,   0.00195,   0.00106,  -0.00278,-39503762.64822,   0.00000
403794135.13422,-19895804.82256,84453251.84673,   0.00383,   0.00018,  -0.00168,439176970.20895,   0.00362,278505221.14221,   0.00195,   0.00106,  -0.00278,-39328250.93326,   0.00000
402076954.96219,-22313046.63044,85462761.01728,   0.00383,   0.00017,  -0.00167,439371098.46779,   0.00362,278505221.14221,   0.00195,   0.00106,  -0.00278,-39134122.67442,   0.00000
400352165.42456,-24748043.62474,86472270.18783,   0.00382,   0.00016,  -0.00166,439584594.14871,   0.00362,278505221.14221,   0.00195,   0.00106,  -0.00278,-38920626.99349,   0.00000
398617230.06612,-27172894.79823,87486852.26879,   0.00382,   0.00016,  -0.00164,439803927.14750,   0.00362,278505221.14221,   0.00195,   0.00106,  -0.00278,-38701293.99471,   0.00000
396882294.70769,-29597745.97172,88501434.34975,   0.00382,   0.00015,  -0.00163,440040811.06685,   0.00362,278505221.14221,   0.00195,   0.00106,  -0.00278,-38464410.07536,   0.00000
395139749.98364,-32040352.33163,89516016.43071,   0.00381,   0.00014,  -0.00162,440297370.64539,   0.00362,278505221.14221,   0.00195,   0.00106,  -0.00278,-38207850.49682,   0.00000
393404814.62520,-34465203.50512,90530598.51167,   0.00381,   0.00013,  -0.00160,440569339.85416,   0.00362,278505221.14221,   0.00195,   0.00106,  -0.00278,-37935881.28804,   0.00000
391652124.08034,-36897664.04422,91550253.50303,   0.00381,   0.00012,  -0.00159,440849429.11894,   0.00362,278505221.14221,   0.00195,   0.00106,  -0.00278,-37655792.02327,   0.00000
389907042.90109,-39312369.39690,92569908.49439,   0.00380,   0.00012,  -0.00158,441144758.63195,   0.00362,278505221.14221,   0.00195,   0.00106,  -0.00278,-37360462.51026,   0.00000
388154352.35624,-41744829.93600,93594636.39616,   0.00380,   0.00011,  -0.00156,441463177.84601,   0.00362,278505221.14221,   0.00195,   0.00106,  -0.00278,-37042043.29620,   0.00000
386401661.81138,-44177290.47510,94614291.38753,   0.00380,   0.00010,  -0.00155,441795934.90945,   0.00362,278505221.14221,   0.00195,   0.00106,  -0.00278,-36709286.23276,   0.00000
384638825.44572,-46599605.19339,95639019.28929,   0.00379,   0.00009,  -0.00154,442134631.85337,   0.00362,278505221.14221,   0.00195,   0.00106,  -0.00278,-36370589.28884,   0.00000
382893744.26647,-49014310.54607,96668820.10147,   0.00379,   0.00009,  -0.00152,442506358.44444,   0.00362,278505221.14221,   0.00195,   0.00106,  -0.00278,-35998862.69777,   0.00000
381123298.53520,-51454380.45077,97693548.00324,   0.00379,   0.00008,  -0.00151,442882685.50462,   0.00362,278505221.14221,   0.00195,   0.00106,  -0.00278,-35622535.63758,   0.00000
379360462.16953,-53876695.16906,98723348.81541,   0.00378,   0.00007,  -0.00150,443277165.35291,   0.00362,278505221.14221,   0.00195,   0.00106,  -0.00278,-35228055.78930,   0.00000
377579870.61745,-56306619.25296,99753149.62758,   0.00378,   0.00006,  -0.00148,443677036.43697,   0.00362,278505221.14221,   0.00195,   0.00106,  -0.00278,-34828184.70524,   0.00000
375824643.61739,-58711178.78483,100788023.35016,   0.00378,   0.00006,  -0.00147,444106912.87133,   0.00362,278505221.14221,   0.00195,   0.00106,  -0.00278,-34398308.27088,   0.00000
374044052.06531,-61141102.86873,101822897.07274,   0.00377,   0.00005,  -0.00146,444545116.17501,   0.00362,278505221.14221,   0.00195,   0.00106,  -0.00278,-33960104.96720,   0.00000
372271069.87883,-63553271.76620,102857770.79531,   0.00377,   0.00004,  -0.00144,444997725.08921,   0.00362,278505221.14221,   0.00195,   0.00106,  -0.00278,-33507496.05300,   0.00000
370490478.32675,-65983195.85010,103892644.51789,   0.00377,   0.00003,  -0.00143,445470725.42668,   0.00362,278505221.14221,   0.00195,   0.00106,  -0.00278,-33034495.71553,   0.00000
368717496.14028,-68395364.74758,104932591.15087,   0.00376,   0.00003,  -0.00142,445961468.70907,   0.00362,278505221.14221,   0.00195,   0.00106,  -0.00278,-32543752.43314,   0.00000
366926758.76738,-70815143.01067,105972537.78386,   0.00376,   0.00002,  -0.00140,446457767.28462,   0.00362,278505221.14221,   0.00195,   0.00106,  -0.00278,-32047453.85759,   0.00000
365161385.94652,-73209556.72173,107012484.41684,   0.00376,   0.00001,  -0.00139,446979636.71962,   0.00362,278505221.14221,   0.00195,   0.00106,  -0.00278,-31525584.42259,   0.00000
363370648.57362,-75629334.98481,108052431.04982,   0.00375,   0.00000,  -0.00138,447510322.36923,   0.00362,278505221.14221,   0.00195,   0.00106,  -0.00278,-30994898.77297,   0.00000
361587520.56634,-78031358.06148,109097450.59321,   0.00375,  -0.00000,  -0.00136,448058427.36849,   0.00362,278505221.14221,   0.00195,   0.00106,  -0.00278,-30446793.77372,   0.00000
359814538.37986,-80443526.95896,110142470.13660,   0.00375,  -0.00001,  -0.00135,448638501.20211,   0.00362,278505221.14221,   0.00195,   0.00106,  -0.00278,-29866719.94010,   0.00000
358031410.37258,-82845550.03563,111187489.67998,   0.00374,  -0.00002,  -0.00133,449220612.48394,   0.00362,278505221.14221,   0.00195,   0.00106,  -0.00278,-29284608.65827,   0.00000
356238136.54448,-85237427.29149,112232509.22337,   0.00374,  -0.00003,  -0.00132,449804690.48449,   0.00362,278505221.14221,   0.00195,   0.00106,  -0.00278,-28700530.65772,   0.00000
354455008.53720,-87639450.36816,113282601.67716,   0.00374,  -0.00003,  -0.00131,450424368.78418,   0.00362,278505221.14221,   0.00195,   0.00106,  -0.00278,-28080852.35803,   0.00000
352679489.89552,-90023718.25841,114332694.13096,   0.00373,  -0.00004,  -0.00129,451057098.73323,   0.00362,278505221.14221,   0.00195,   0.00106,  -0.00278,-27448122.40898,   0.00000
350878606.70182,-92433350.70069,115382786.58475,   0.00373,  -0.00005,  -0.00128,451699201.44892,   0.00362,278505221.14221,   0.00195,   0.00106,  -0.00278,-26806019.69329,   0.00000
349103088.06014,-94817618.59094,116432879.03854,   0.00373,  -0.00006,  -0.00127,452365246.57029,   0.00362,278505221.14221,   0.00195,   0.00106,  -0.00278,-26139974.57191,   0.00000
347317423.59766,-97191740.66039,117488044.40274,   0.00372,  -0.00006,  -0.00125,453036790.86911,   0.00362,278505221.14221,   0.00195,   0.00106,  -0.00278,-25468430.27309,   0.00000
345541904.95598,-99576008.55064,118543209.76693,   0.00372,  -0.00007,  -0.00124,453739739.26418,   0.00362,278505221.14221,   0.00195,   0.00106,  -0.00278,-24765481.87803,   0.00000
343756240.49349,-101950130.62008,119598375.13113,   0.00372,  -0.00008,  -0.00123,454444154.58169,   0.00362,278505221.14221,   0.00195,   0.00106,  -0.00278,-24061066.56051,   0.00000
341970576.03100,-104324252.68953,120653540.49533,   0.00371,  -0.00009,  -0.00121,455164893.04275,   0.00362,278505221.14221,   0.00195,   0.00106,  -0.00278,-23340328.09946,   0.00000
340202666.75493,-106690765.39336,121713778.76993,   0.00371,  -0.00009,  -0.00120,455916646.57008,   0.00362,278505221.14221,   0.00195,   0.00106,  -0.00278,-22588574.57213,   0.00000
338417002.29245,-109064887.46280,122768944.13413,   0.00371,  -0.00010,  -0.00118,456669760.68033,   0.00362,278505221.14221,   0.00195,   0.00106,  -0.00278,-21835460.46188,   0.00000
336638947.19557,-111421254.34583,123829182.40873,   0.00370,  -0.00011,  -0.00117,457438749.66510,   0.00362,278505221.14221,   0.00195,   0.00106,  -0.00278,-21066471.47711,   0.00000
334860892.09869,-113777621.22886,124889420.68333,   0.00370,  -0.00011,  -0.00116,458223681.28572,   0.00362,278505221.14221,   0.00195,   0.00106,  -0.00278,-20281539.85648,   0.00000
333082837.00181,-116133988.11188,125949658.95793,   0.00369,  -0.00012,  -0.00114,459024473.75651,   0.00362,278505221.14221,   0.00195,   0.00106,  -0.00278,-19480747.38570,   0.00000
331312391.27053,-118472599.80849,127014970.14294,   0.00369,  -0.00013,  -0.00113,459840739.58122,   0.00362,278505221.14221,   0.00195,   0.00106,  -0.00278,-18664481.56098,   0.00000
329541945.53926,-120811211.50510,128080281.32794,   0.00369,  -0.00014,  -0.00111,460672638.40239,   0.00362,278505221.14221,   0.00195,   0.00106,  -0.00278,-17832582.73982,   0.00000
327771499.80799,-123149823.20171,129140519.60255,   0.00368,  -0.00014,  -0.00110,461515827.14199,   0.00362,278505221.14221,   0.00195,   0.00106,  -0.00278,-16989394.00022,   0.00000
326018809.26313,-125480825.53271,130205830.78755,   0.00368,  -0.00015,  -0.00109,462388890.44665,   0.00362,278505221.14221,   0.00195,   0.00106,  -0.00278,-16116330.69556,   0.00000
324255972.89747,-127801682.04291,131276214.88296,   0.00368,  -0.00016,  -0.00107,463266660.16823,   0.00362,278505221.14221,   0.00195,   0.00106,  -0.00278,-15238560.97397,   0.00000
322493136.53180,-130122538.55310,132341526.06797,   0.00367,  -0.00016,  -0.00106,464155321.31722,   0.00362,278505221.14221,   0.00195,   0.00106,  -0.00278,-14349899.82499,   0.00000
320730300.16614,-132443395.06329,133411910.16338,   0.00367,  -0.00017,  -0.00105,465063438.16145,   0.00362,278505221.14221,   0.00195,   0.00106,  -0.00278,-13441782.98076,   0.00000
318967463.80047,-134764251.57348,134477221.34839,   0.00367,  -0.00018,  -0.00103,465982217.67100,   0.00362,278505221.14221,   0.00195,   0.00106,  -0.00278,-12523003.47121,   0.00000
317212236.80041,-137067352.89726,135547605.44380,   0.00366,  -0.00019,  -0.00102,466915371.38509,   0.00362,278505221.14221,   0.00195,   0.00106,  -0.00278,-11589849.75711,   0.00000
315474764.98677,-139362844.85543,136617989.53921,   0.00366,  -0.00019,  -0.00100,467873076.58757,   0.00362,278505221.14221,   0.00195,   0.00106,  -0.00278,-10632144.55464,   0.00000
313727147.35232,-141648190.99279,137688373.63462,   0.00366,  -0.00020,  -0.00099,468830545.70663,   0.00362,278505221.14221,   0.00195,   0.00106,  -0.00278,-9674675.43557,   0.00000
311989675.53868,-143943682.95096,138763830.64044,   0.00365,  -0.00021,  -0.00098,469821760.37935,   0.00362,278505221.14221,   0.00195,   0.00106,  -0.00278,-8683460.76286,   0.00000
310242057.90423,-146229029.08832,139834214.73585,   0.00365,  -0.00021,  -0.00096,470808115.03503,   0.00362,278505221.14221,   0.00195,   0.00106,  -0.00278,-7697106.10718,   0.00000
308519804.82180,-148489010.67365,140909671.74167,   0.00365,  -0.00022,  -0.00095,471817616.90337,   0.00362,278505221.14221,   0.00195,   0.00106,  -0.00278,-6687604.23884,   0.00000
306779796.55296,-150756601.62459,141985128.74748,   0.00364,  -0.00023,  -0.00093,472831689.33374,   0.00362,278505221.14221,   0.00195,   0.00106,  -0.00278,-5673531.80847,   0.00000
305057543.47053,-153016583.20993,143055512.84289,   0.00364,  -0.00023,  -0.00092,473864623.93179,   0.00362,278505221.14221,   0.00195,   0.00106,  -0.00278,-4640597.21041,   0.00000
303335290.38810,-155276564.79527,144136042.75911,   0.00364,  -0.00024,  -0.00091,474920591.58228,   0.00362,278505221.14221,   0.00195,   0.00106,  -0.00278,-3584629.55993,   0.00000
301620646.67128,-157518791.19418,145211499.76493,   0.00363,  -0.00025,  -0.00089,475980296.58011,   0.00362,278505221.14221,   0.00195,   0.00106,  -0.00278,-2524924.56210,   0.00000
299906002.95446,-159761017.59310,146286956.77075,   0.00363,  -0.00026,  -0.00088,477053563.79397,   0.00362,278505221.14221,   0.00195,   0.00106,  -0.00278,-1451657.34824,   0.00000
298216723.78967,-161977879.44000,147362413.77656,   0.00363,  -0.00026,  -0.00086,478143914.83201,   0.00362,278505221.14221,   0.00195,   0.00106,  -0.00278,-361306.31020,   0.00000
297653641.91997,-162714217.26960,147717255.30983,   0.00362,  -0.00026,  -0.00086,478505223.54635,   0.00362,278505221.14221,   0.00195,   0.00106,  -0.00278,  -1.80127,   0.00000
296060588.08882,-163949092.00075,148213377.01491,   0.00362,  -0.00027,  -0.00085,478509829.11559,   0.00362,278509835.22944,   0.00196,   0.00105,  -0.00278,743411.84158,   1.00000
293721096.21825,-165738159.08175,148947727.01674,   0.00362,  -0.00028,  -0.00084,478516760.06228,   0.00363,278516768.21263,   0.00196,   0.00105,  -0.00277,1115758.73912,   1.00000
291358247.48935,-167547501.97837,149673891.90508,   0.00362,  -0.00028,  -0.00082,478523732.01434,   0.00364,278523738.77723,   0.00196,   0.00105,  -0.00277,1120568.37653,   1.00000
289013412.63636,-169320418.81275,150396962.57683,   0.00361,  -0.00029,  -0.00081,478530843.35050,   0.00364,278530847.27681,   0.00197,   0.00104,  -0.00276,1141492.99146,   1.00000
286677029.23332,-171069688.88019,151116196.12589,   0.00361,  -0.00030,  -0.00079,478538004.69589,   0.00365,278538007.07431,   0.00197,   0.00104,  -0.00276,1148483.43030,   1.00000
284327438.59473,-172826447.82249,151827988.40977,   0.00361,  -0.00030,  -0.00078,478545283.99018,   0.00366,278545289.28307,   0.00197,   0.00104,  -0.00275,1166863.99200,   1.00000
281997493.93094,-174544069.71708,152537827.35278,   0.00360,  -0.00031,  -0.00077,478552583.75435,   0.00366,278552585.11025,   0.00198,   0.00103,  -0.00275,1167805.19396,   1.00000
279667491.18942,-176258226.99084,153237459.02716,   0.00360,  -0.00032,  -0.00075,478560049.42062,   0.00367,278560056.74974,   0.00198,   0.00103,  -0.00274,1194689.59580,   1.00000
277343860.85295,-177946985.47184,153936888.91783,   0.00360,  -0.00032,  -0.00074,478567600.32240,   0.00368,278567606.59101,   0.00199,   0.00103,  -0.00274,1205937.61441,   1.00000
275021296.83418,-179629607.05649,154627243.54053,   0.00359,  -0.00033,  -0.00072,478575208.57327,   0.00369,278575209.66705,   0.00199,   0.00102,  -0.00273,1213201.45115,   1.00000
272705382.33212,-181286875.83752,155317433.27567,   0.00359,  -0.00034,  -0.00071,478582886.16386,   0.00369,278582889.62555,   0.00199,   0.00102,  -0.00273,1224215.28275,   1.00000
270390781.19406,-182938082.07063,155998600.49974,   0.00359,  -0.00034,  -0.00070,478590615.68449,   0.00370,278590621.36984,   0.00200,   0.00102,  -0.00272,1231229.43054,   1.00000
268083112.59842,-184563997.84075,156679650.45116,   0.00358,  -0.00035,  -0.00068,478598426.83681,   0.00371,278598428.50719,   0.00200,   0.00101,  -0.00272,1241993.92867,   1.00000
265790279.97440,-186173039.05455,157349042.47165,   0.00358,  -0.00036,  -0.00067,478606332.04535,   0.00372,278606337.82225,   0.00201,   0.00101,  -0.00271,1257011.02682,   1.00000
263504718.30153,-187756905.46619,158018399.78100,   0.00358,  -0.00036,  -0.00065,478614319.26916,   0.00372,278614320.33467,   0.00201,   0.00101,  -0.00271,1267409.05819,   1.00000
261218337.41804,-189332883.33559,158682282.41443,   0.00357,  -0.00037,  -0.00064,478622379.10054,   0.00373,278622382.81473,   0.00201,   0.00100,  -0.00270,1278866.22942,   1.00000
258944751.55321,-190890082.85215,159338034.72633,   0.00357,  -0.00037,  -0.00063,478630568.49486,   0.00374,278630575.68624,   0.00202,   0.00100,  -0.00270,1298310.39377,   1.00000
256667982.84225,-192435153.52568,159993090.77502,   0.00357,  -0.00038,  -0.00061,478638748.63969,   0.00375,278638756.92118,   0.00202,   0.00100,  -0.00269,1295237.41538,   1.00000
254407013.71656,-193963615.89211,160636711.03350,   0.00356,  -0.00039,  -0.00060,478647026.52569,   0.00376,278647034.37693,   0.00203,   0.00099,  -0.00269,1309256.61096,   1.00000
252153996.87675,-195467096.31992,161280438.53651,   0.00356,  -0.00039,  -0.00058,478655380.25099,   0.00376,278655381.07572,   0.00203,   0.00099,  -0.00268,1318995.48227,   1.00000
249914552.66736,-196951985.77891,161916180.63604,   0.00356,  -0.00040,  -0.00057,478663853.25754,   0.00377,278663853.78019,   0.00204,   0.00098,  -0.00267,1337690.76851,   1.00000
247685959.49113,-198414173.04753,162548767.91112,   0.00355,  -0.00041,  -0.00055,478672361.08988,   0.00378,278672361.15394,   0.00204,   0.00098,  -0.00267,1341953.84254,   1.00000
245457472.36077,-199868740.79225,163176063.54052,   0.00355,  -0.00041,  -0.00054,478680941.06634,   0.00379,278680943.21419,   0.00204,   0.00098,  -0.00266,1352526.01406,   1.00000
243237442.22880,-201298522.39964,163803573.30936,   0.00355,  -0.00042,  -0.00053,478689584.20041,   0.00380,278689591.43381,   0.00205,   0.00097,  -0.00266,1361735.18443,   1.00000
241034298.53543,-202712145.34877,164419950.50890,   0.00354,  -0.00042,  -0.00051,478698325.75138,   0.00380,278698328.22300,   0.00205,   0.00097,  -0.00265,1374489.58520,   1.00000
238817575.85283,-204129073.61821,165033678.19689,   0.00354,  -0.00043,  -0.00050,478707080.13630,   0.00381,278707089.87259,   0.00206,   0.00096,  -0.00264,1377202.55149,   1.00000
236640393.97058,-205501986.24846,165639335.32383,   0.00354,  -0.00044,  -0.00048,478715971.75960,   0.00382,278715976.92328,   0.00206,   0.00096,  -0.00264,1395732.90165,   1.00000
234460549.92348,-206863489.48624,166244688.28723,   0.00354,  -0.00044,  -0.00047,478724836.84057,   0.00383,278724845.28139,   0.00206,   0.00096,  -0.00263,1391614.67792,   1.00000
232295676.71874,-208206870.90014,166842379.57027,   0.00353,  -0.00045,  -0.00046,478733827.24380,   0.00384,278733830.84130,   0.00207,   0.00095,  -0.00262,1408836.51830,   1.00000
230142464.29292,-209528190.20495,167437307.29003,   0.00353,  -0.00045,  -0.00044,478742839.12304,   0.00385,278742843.10975,   0.00207,   0.00095,  -0.00262,1411855.77256,   1.00000
228004556.20558,-210831546.38002,168024674.59945,   0.00353,  -0.00046,  -0.00043,478751966.66829,   0.00386,278751970.10617,   0.00208,   0.00094,  -0.00261,1428667.54982,   1.00000
225861625.14031,-212121420.55792,168615078.13625,   0.00352,  -0.00047,  -0.00041,478761102.50259,   0.00387,278761110.18013,   0.00208,   0.00094,  -0.00261,1429542.92362,   1.00000
223736769.21196,-213395803.61988,169194785.29967,   0.00352,  -0.00047,  -0.00040,478770325.60831,   0.00387,278770329.04207,   0.00209,   0.00094,  -0.00260,1440720.02408,   1.00000
221638400.19899,-214637739.48820,169769458.36536,   0.00352,  -0.00048,  -0.00039,478779606.74915,   0.00388,278779615.76376,   0.00209,   0.00093,  -0.00259,1450176.25432,   1.00000
219541417.96964,-215872766.71523,170339241.58101,   0.00351,  -0.00048,  -0.00037,478788962.47332,   0.00389,278788967.57237,   0.00209,   0.00093,  -0.00259,1459207.16765,   1.00000
217456599.60429,-217086275.46210,170906580.24582,   0.00351,  -0.00049,  -0.00036,478798333.85484,   0.00390,278798340.01069,   0.00210,   0.00092,  -0.00258,1461294.05856,   1.00000
215387963.46874,-218282277.77055,171466639.21732,   0.00351,  -0.00050,  -0.00034,478807819.44291,   0.00391,278807820.48157,   0.00210,   0.00092,  -0.00257,1477019.26649,   1.00000
213331645.40923,-219456967.02897,172024372.11767,   0.00351,  -0.00050,  -0.00033,478817314.84023,   0.00392,278817319.39771,   0.00211,   0.00091,  -0.00257,1478771.82289,   1.00000
211277034.69735,-220624988.71075,172577339.14117,   0.00350,  -0.00051,  -0.00031,478826877.25754,   0.00393,278826880.65186,   0.00211,   0.00091,  -0.00256,1487366.47626,   1.00000
209249650.79749,-221761198.35632,173125667.26629,   0.00350,  -0.00051,  -0.00030,478836494.81946,   0.00394,278836501.84880,   0.00212,   0.00090,  -0.00255,1495583.31012,   1.00000
207237149.94604,-222878950.25184,173668769.09088,   0.00350,  -0.00052,  -0.00029,478846097.70667,   0.00395,278846102.77812,   0.00212,   0.00090,  -0.00254,1491346.88134,   1.00000
205224181.10936,-223987743.01426,174210306.01665,   0.00350,  -0.00052,  -0.00027,478855789.18764,   0.00396,278855799.16270,   0.00212,   0.00090,  -0.00254,1505076.69921,   1.00000
203238751.04179,-225065092.65995,174747415.48581,   0.00349,  -0.00053,  -0.00026,478865546.73654,   0.00397,278865551.42495,   0.00213,   0.00089,  -0.00253,1512669.84361,   1.00000
201270371.90745,-226125590.87840,175277613.08692,   0.00349,  -0.00053,  -0.00024,478875403.60734,   0.00398,278875403.64579,   0.00213,   0.00089,  -0.00252,1527102.28264,   1.00000
199302020.42120,-227178687.61647,175805195.51461,   0.00349,  -0.00054,  -0.00023,478885187.90991,   0.00399,278885189.64485,   0.00214,   0.00088,  -0.00252,1515774.37915,   1.00000
