# sigma_xx, sigma_yy, sigma_xy, epsilon_xx, epsilon_yy, epsilon_xy, vonMises, epsPlastic, hardening, epsilonP__xx, epsilonP__yy, epsilonP__xy, yieldValue, iteration
   0.00000,   0.00000,   0.00000,   0.00000,   0.00000,   0.00000,   0.00000,   0.00000,274640135.82653,   0.00000,   0.00000,   0.00000,-474640135.82653,   0.00000
   0.00000,   0.00000,   0.00000,   0.00000,   0.00000,   0.00000,   0.00000,   0.00000,274640135.82653,   0.00000,   0.00000,   0.00000,-474640135.82653,   0.00000
241090066.98778,133037075.36569,-42612447.40026,   0.00084,   0.00014,  -0.00055,221803580.74336,   0.00000,274640135.82653,   0.00000,   0.00000,   0.00000,-252836555.08317,   0.00000
482560602.25592,266961910.05223,-84971249.28028,   0.00168,   0.00027,  -0.00110,443811261.44668,   0.00000,274640135.82653,   0.00000,   0.00000,   0.00000,-30828874.37985,   0.00000
516077670.29865,285472392.19198,-90881862.12414,   0.00179,   0.00029,  -0.00118,474640137.34315,   0.00000,274640135.82653,   0.00000,   0.00000,   0.00000,  -5.06782,   0.00000
516077670.29865,285472392.19198,-90881862.12414,   0.00251,   0.00041,  -0.00166,664748498.81699,   0.00000,274640135.82653,   0.00000,   0.00000,   0.00000,  -5.06782,   0.00000
518444838.66381,295039365.06959,-88460812.12694,   0.00334,   0.00055,  -0.00221,475760010.40578,   0.00103,275760017.61992,   0.00084,   0.00010,  -0.00059,  -7.21414,   2.00000
520318734.58528,301698444.22547,-86816266.51734,   0.00417,   0.00069,  -0.00276,476849427.47033,   0.00204,276849431.43637,   0.00167,   0.00021,  -0.00116,  -3.96603,   2.00000
521818836.12536,306396993.62535,-85849952.67494,   0.00499,   0.00082,  -0.00331,477913105.02523,   0.00305,277913108.97768,   0.00250,   0.00033,  -0.00172,  -3.95245,   2.00000
523261086.40871,309814483.56775,-85099150.28404,   0.00582,   0.00096,  -0.00386,478956064.43427,   0.00405,278956066.14650,   0.00332,   0.00046,  -0.00228,  -1.71223,   2.00000
524405822.74514,312313327.59496,-84887356.44923,   0.00664,   0.00110,  -0.00441,479978899.39616,   0.00505,279978904.93143,   0.00414,   0.00059,  -0.00283,  -5.53527,   2.00000
525424283.65959,314689287.70404,-84834887.92301,   0.00746,   0.00124,  -0.00496,480983894.44383,   0.00605,280983895.78695,   0.00496,   0.00072,  -0.00338,  -1.34311,   2.00000
526502415.46203,316176389.46097,-84830883.48806,   0.00827,   0.00138,  -0.00551,481968366.55196,   0.00704,281968367.62297,   0.00577,   0.00085,  -0.00393,  -1.07101,   2.00000
527396087.82882,317382359.85803,-85119310.17538,   0.00908,   0.00152,  -0.00606,482936716.10822,   0.00802,282936721.21973,   0.00658,   0.00099,  -0.00448,  -5.11150,   2.00000
528326694.10089,318944590.76618,-85246962.19433,   0.00989,   0.00166,  -0.00660,483889388.31908,   0.00901,283889396.30122,   0.00739,   0.00112,  -0.00502,  -7.98214,   2.00000
529279384.98425,320203440.94998,-85380300.15066,   0.01070,   0.00180,  -0.00715,484829060.21722,   0.00999,284829063.19968,   0.00820,   0.00126,  -0.00557,  -2.98246,   2.00000
530170287.31350,321308324.74592,-85605514.08897,   0.01150,   0.00195,  -0.00770,485753392.55805,   0.01097,285753398.13873,   0.00900,   0.00140,  -0.00611,  -5.58068,   2.00000
531014348.44346,322306894.31633,-85892479.49059,   0.01230,   0.00209,  -0.00825,486663067.21547,   0.01195,286663069.27017,   0.00980,   0.00154,  -0.00666,  -2.05469,   2.00000
531821503.06108,323231070.96813,-86221089.60578,   0.01310,   0.00223,  -0.00879,487558643.89575,   0.01292,287558648.70601,   0.01059,   0.00168,  -0.00720,  -4.81027,   2.00000
532696574.51809,324161489.78617,-86422935.87065,   0.01390,   0.00237,  -0.00934,488439728.41839,   0.01389,288439738.06618,   0.01139,   0.00182,  -0.00774,  -9.64780,   2.00000
533415817.48091,324975693.24136,-86848926.03110,   0.01469,   0.00251,  -0.00989,489308357.09503,   0.01486,289308360.88538,   0.01218,   0.00196,  -0.00828,  -3.79036,   2.00000
534265540.22649,326206721.65414,-86976104.18059,   0.01548,   0.00266,  -0.01043,490167329.03273,   0.01583,290167334.37273,   0.01297,   0.00210,  -0.00883,  -5.34000,   2.00000
535013645.90801,326901778.36992,-87336326.93529,   0.01626,   0.00280,  -0.01097,491009535.26112,   0.01679,291009542.81099,   0.01375,   0.00224,  -0.00936,  -7.54988,   2.00000
535774613.76987,327988344.68591,-87573093.23339,   0.01705,   0.00294,  -0.01152,491843575.02191,   0.01775,291843578.60003,   0.01453,   0.00238,  -0.00991,  -3.57811,   2.00000
536496912.51206,328960943.92353,-87866656.78715,   0.01783,   0.00309,  -0.01206,492665563.17126,   0.01871,292665572.57393,   0.01531,   0.00252,  -0.01045,  -9.40267,   2.00000
537188422.05975,329853879.22180,-88199065.89289,   0.01861,   0.00323,  -0.01261,493475960.12005,   0.01966,293475964.39180,   0.01609,   0.00267,  -0.01099,  -4.27175,   2.00000
537887515.73289,330255918.75222,-88610301.07443,   0.01938,   0.00338,  -0.01315,494273984.87879,   0.02062,294273989.04313,   0.01686,   0.00281,  -0.01152,  -4.16434,   2.00000
538621493.43036,331248951.35131,-88816111.66273,   0.02015,   0.00352,  -0.01369,495061694.29180,   0.02157,295061700.23125,   0.01763,   0.00295,  -0.01206,  -5.93945,   2.00000
539173336.70627,332524182.37661,-89192254.50128,   0.02092,   0.00367,  -0.01423,495840519.44325,   0.02252,295840525.47271,   0.01840,   0.00309,  -0.01260,  -6.02947,   2.00000
539865851.82943,333244785.38294,-89477536.83684,   0.02169,   0.00382,  -0.01478,496606920.83692,   0.02346,296606924.78907,   0.01916,   0.00324,  -0.01314,  -3.95215,   2.00000
540594934.71619,333901833.13798,-89712313.45357,   0.02245,   0.00396,  -0.01532,497365635.60668,   0.02441,297365638.72484,   0.01993,   0.00338,  -0.01368,  -3.11816,   2.00000
541152412.44704,335057892.48427,-90045029.63620,   0.02321,   0.00411,  -0.01586,498113099.67970,   0.02535,298113104.40266,   0.02068,   0.00352,  -0.01421,  -4.72295,   2.00000
541816901.91599,335576078.88231,-90364719.41935,   0.02397,   0.00425,  -0.01640,498852098.37180,   0.02628,298852107.84770,   0.02144,   0.00367,  -0.01475,  -9.47589,   2.00000
542320582.61932,336633310.31905,-90756554.46872,   0.02472,   0.00440,  -0.01694,499580507.53079,   0.02722,299580513.46966,   0.02219,   0.00381,  -0.01529,  -5.93887,   2.00000
543008578.52315,337578553.79802,-90906224.00960,   0.02547,   0.00455,  -0.01748,500301279.61797,   0.02815,300301287.54283,   0.02294,   0.00396,  -0.01582,  -7.92485,   2.00000
543488418.00428,337993901.82742,-91446596.61513,   0.02622,   0.00470,  -0.01802,501010186.79815,   0.02908,301010188.78129,   0.02369,   0.00410,  -0.01635,  -1.98314,   2.00000
544118117.63848,338928260.58789,-91644896.68295,   0.02696,   0.00484,  -0.01855,501713310.43346,   0.03001,301713318.14292,   0.02443,   0.00425,  -0.01689,  -7.70946,   2.00000
544699374.62544,339778000.02254,-91912668.71410,   0.02770,   0.00499,  -0.01909,502407653.10984,   0.03093,302407656.24142,   0.02517,   0.00439,  -0.01742,  -3.13157,   2.00000
545206561.00475,341004487.20716,-92173323.56210,   0.02844,   0.00514,  -0.01963,503094559.13386,   0.03185,303094564.16931,   0.02591,   0.00454,  -0.01796,  -5.03545,   2.00000
545648907.60832,341674093.41059,-92635723.53297,   0.02918,   0.00529,  -0.02017,503769741.52680,   0.03277,303769748.47874,   0.02664,   0.00469,  -0.01849,  -6.95194,   2.00000
546173440.92704,342279307.51837,-92991656.27236,   0.02991,   0.00544,  -0.02070,504439321.61632,   0.03369,304439330.41241,   0.02737,   0.00483,  -0.01902,  -8.79609,   2.00000
546772730.16031,342958878.03832,-93212573.55244,   0.03064,   0.00559,  -0.02124,505100386.06136,   0.03460,305100394.91956,   0.02810,   0.00498,  -0.01955,  -8.85820,   2.00000
547172946.87565,343998789.91726,-93598430.89513,   0.03136,   0.00574,  -0.02178,505755443.32665,   0.03551,305755444.63557,   0.02882,   0.00513,  -0.02009,  -1.30893,   2.00000
547679379.34816,344980861.58436,-93839566.00206,   0.03208,   0.00589,  -0.02231,506402197.57178,   0.03642,306402200.84563,   0.02955,   0.00527,  -0.02062,  -3.27385,   2.00000
548084616.62064,345353642.41845,-94353622.07702,   0.03280,   0.00604,  -0.02285,507041107.40806,   0.03732,307041108.64219,   0.03026,   0.00542,  -0.02115,  -1.23413,   2.00000
548549785.87700,346304563.50997,-94628835.39614,   0.03352,   0.00619,  -0.02338,507673392.64256,   0.03823,307673402.41134,   0.03098,   0.00557,  -0.02168,  -9.76879,   2.00000
548986630.46115,347157366.91055,-94951824.39684,   0.03423,   0.00634,  -0.02392,508298486.71251,   0.03913,308298492.47062,   0.03169,   0.00572,  -0.02221,  -5.75811,   2.00000
549507274.55728,348006391.08798,-95150284.51797,   0.03494,   0.00650,  -0.02445,508915886.43482,   0.04002,308915894.94913,   0.03240,   0.00587,  -0.02274,  -8.51432,   2.00000
549870006.57871,348720068.11497,-95578571.72310,   0.03564,   0.00665,  -0.02498,509527029.71516,   0.04092,309527031.48515,   0.03311,   0.00602,  -0.02326,  -1.76998,   2.00000
550333123.63343,349469398.44863,-95851824.89255,   0.03635,   0.00680,  -0.02551,510130903.55647,   0.04181,310130907.45519,   0.03381,   0.00617,  -0.02379,  -3.89872,   2.00000
550648721.07656,350110057.99216,-96333730.88367,   0.03705,   0.00695,  -0.02605,510728865.62148,   0.04270,310728874.13323,   0.03451,   0.00632,  -0.02432,  -8.51175,   2.00000
551032264.39479,351246221.81703,-96586046.15434,   0.03774,   0.00711,  -0.02658,511320894.06949,   0.04358,311320900.67336,   0.03520,   0.00647,  -0.02485,  -6.60388,   2.00000
551434905.86267,351786677.42611,-96954136.57215,   0.03843,   0.00726,  -0.02711,511905442.69759,   0.04446,311905447.74539,   0.03589,   0.00662,  -0.02537,  -5.04780,   2.00000
551713374.29811,352400149.43962,-97447547.45109,   0.03912,   0.00741,  -0.02764,512481912.52636,   0.04534,312481919.34389,   0.03658,   0.00677,  -0.02590,  -6.81752,   2.00000
552045598.49888,353390624.20379,-97765700.95175,   0.03981,   0.00756,  -0.02817,513055488.52188,   0.04622,313055494.16982,   0.03727,   0.00692,  -0.02642,  -5.64795,   2.00000
552361777.16308,354266004.40621,-98121806.35871,   0.04049,   0.00772,  -0.02870,513623015.07595,   0.04709,313623019.94594,   0.03795,   0.00707,  -0.02695,  -4.86999,   2.00000
552816305.66977,354686820.13808,-98407712.68304,   0.04117,   0.00787,  -0.02923,514183026.13181,   0.04796,314183033.06822,   0.03863,   0.00722,  -0.02747,  -6.93640,   2.00000
553171358.69841,355596445.94307,-98681144.31086,   0.04184,   0.00803,  -0.02976,514738302.46878,   0.04883,314738302.93875,   0.03930,   0.00737,  -0.02800,  -0.46998,   2.00000
553287667.64883,356401250.05898,-99269935.23480,   0.04251,   0.00818,  -0.03029,515286559.06029,   0.04970,315286568.04104,   0.03997,   0.00752,  -0.02852,  -8.98075,   2.00000
553646544.82920,357152815.33564,-99557641.39835,   0.04318,   0.00834,  -0.03081,515830766.62729,   0.05056,315830771.43623,   0.04064,   0.00767,  -0.02905,  -4.80894,   2.00000
553968014.57738,357855487.71119,-99894617.53355,   0.04385,   0.00849,  -0.03134,516369461.78425,   0.05142,316369466.30644,   0.04131,   0.00783,  -0.02957,  -4.52219,   2.00000
554228576.44443,359092866.57442,-100148901.88752,   0.04451,   0.00865,  -0.03187,516901229.60503,   0.05228,316901233.47732,   0.04197,   0.00798,  -0.03009,  -3.87229,   2.00000
554505519.49902,359572609.17491,-100580054.25407,   0.04517,   0.00880,  -0.03239,517429104.24215,   0.05313,317429112.55322,   0.04263,   0.00813,  -0.03061,  -8.31108,   2.00000
554659165.40025,360136009.66395,-101127491.58626,   0.04582,   0.00896,  -0.03292,517950099.26824,   0.05398,317950103.93992,   0.04328,   0.00829,  -0.03113,  -4.67169,   2.00000
554991702.76197,361155039.47885,-101322522.27331,   0.04647,   0.00912,  -0.03345,518468381.78778,   0.05483,318468388.69112,   0.04393,   0.00844,  -0.03165,  -6.90334,   2.00000
555223903.00709,361665181.28458,-101765655.25483,   0.04712,   0.00927,  -0.03397,518978687.47934,   0.05567,318978690.90776,   0.04458,   0.00859,  -0.03217,  -3.42842,   2.00000
555495480.77591,362573668.61867,-102045512.04922,   0.04777,   0.00943,  -0.03449,519486977.27683,   0.05652,319486978.25688,   0.04523,   0.00875,  -0.03269,  -0.98006,   2.00000
555631856.92641,363445881.01972,-102486557.12319,   0.04841,   0.00959,  -0.03502,519988502.05687,   0.05735,319988510.55362,   0.04587,   0.00890,  -0.03321,  -8.49675,   2.00000
555816966.48759,363788499.88595,-103003668.41098,   0.04904,   0.00974,  -0.03554,520484408.55939,   0.05819,320484410.54692,   0.04650,   0.00906,  -0.03373,  -1.98753,   2.00000
555942378.50151,364632624.46811,-103445101.44350,   0.04968,   0.00990,  -0.03607,520976791.75981,   0.05902,320976799.48400,   0.04714,   0.00921,  -0.03425,  -7.72420,   2.00000
556183856.13125,365471006.80976,-103737239.17409,   0.05031,   0.01006,  -0.03659,521464005.60569,   0.05985,321464011.91810,   0.04777,   0.00937,  -0.03477,  -6.31241,   2.00000
556275284.54956,366157987.68280,-104242798.21181,   0.05093,   0.01022,  -0.03711,521947227.49848,   0.06068,321947237.33024,   0.04840,   0.00952,  -0.03528,  -9.83175,   2.00000
556487650.47307,366882030.22296,-104582999.41970,   0.05155,   0.01038,  -0.03763,522425517.68923,   0.06151,322425518.05372,   0.04902,   0.00968,  -0.03580,  -0.36449,   2.00000
556621521.31284,368002468.36224,-104895967.40502,   0.05217,   0.01054,  -0.03815,522900308.71682,   0.06233,322900309.82959,   0.04964,   0.00983,  -0.03632,  -1.11276,   2.00000
556680031.95766,368585378.47987,-105436163.07277,   0.05279,   0.01070,  -0.03868,523368008.56448,   0.06314,323368009.53676,   0.05026,   0.00999,  -0.03683,  -0.97228,   2.00000
556854628.93042,369097835.28583,-105853580.86318,   0.05340,   0.01086,  -0.03920,523833364.16410,   0.06396,323833366.02112,   0.05087,   0.01015,  -0.03735,  -1.85701,   2.00000
556958020.80105,370198983.61315,-106174605.30791,   0.05401,   0.01102,  -0.03971,524293211.49903,   0.06477,324293211.83907,   0.05148,   0.01030,  -0.03786,  -0.34004,   2.00000
557092340.11956,370570961.57947,-106661963.12051,   0.05461,   0.01117,  -0.04023,524750218.62722,   0.06558,324750219.38840,   0.05208,   0.01046,  -0.03837,  -0.76118,   2.00000
557159636.48341,371568959.91830,-107035732.98917,   0.05521,   0.01134,  -0.04075,525201932.85448,   0.06639,325201939.82505,   0.05269,   0.01062,  -0.03889,  -6.97057,   2.00000
557218571.11116,372445657.44474,-107444319.35303,   0.05581,   0.01150,  -0.04127,525649609.49895,   0.06719,325649613.67265,   0.05328,   0.01077,  -0.03940,  -4.17370,   2.00000
557385714.50107,373172455.89704,-107765852.03376,   0.05641,   0.01166,  -0.04179,526095007.77093,   0.06800,326095013.05119,   0.05388,   0.01093,  -0.03991,  -5.28026,   2.00000
557396686.16648,373911157.36242,-108251440.17105,   0.05700,   0.01182,  -0.04231,526534806.26860,   0.06879,326534810.57208,   0.05447,   0.01109,  -0.04042,  -4.30348,   2.00000
557406568.18727,374596403.81241,-108744708.75777,   0.05759,   0.01198,  -0.04282,526970859.86947,   0.06959,326970867.05688,   0.05506,   0.01125,  -0.04094,  -7.18741,   2.00000
557292594.13264,375302739.37787,-109359814.12211,   0.05817,   0.01214,  -0.04334,527401603.41158,   0.07038,327401612.25269,   0.05564,   0.01141,  -0.04145,  -8.84110,   2.00000
557446791.27469,375981371.65202,-109673866.95968,   0.05875,   0.01231,  -0.04386,527829876.95561,   0.07117,327829880.48506,   0.05623,   0.01157,  -0.04196,  -3.52945,   2.00000
557432747.39065,376542824.47464,-110204204.68745,   0.05932,   0.01247,  -0.04437,528255019.43860,   0.07196,328255021.79664,   0.05680,   0.01172,  -0.04247,  -2.35804,   2.00000
557412875.73484,377236864.11711,-110689694.99819,   0.05989,   0.01263,  -0.04489,528674480.33697,   0.07274,328674484.20761,   0.05738,   0.01188,  -0.04297,  -3.87064,   2.00000
557459438.82607,378271413.99215,-110995561.56602,   0.06046,   0.01279,  -0.04540,529092962.03405,   0.07352,329092970.85496,   0.05795,   0.01204,  -0.04349,  -8.82091,   2.00000
557406185.06388,378793531.69545,-111552006.81612,   0.06103,   0.01296,  -0.04592,529505323.90776,   0.07430,329505325.16774,   0.05851,   0.01220,  -0.04399,  -1.25998,   2.00000
557421568.95430,379842676.45923,-111867204.39905,   0.06159,   0.01312,  -0.04643,529914689.34882,   0.07507,329914691.16576,   0.05908,   0.01236,  -0.04450,  -1.81694,   2.00000
557288754.60317,380677085.40370,-112400666.11426,   0.06215,   0.01329,  -0.04694,530321100.61434,   0.07584,330321110.06474,   0.05963,   0.01252,  -0.04501,  -9.45039,   2.00000
557219311.77602,380987743.37672,-113013244.62528,   0.06270,   0.01345,  -0.04746,530723350.00653,   0.07661,330723357.67494,   0.06019,   0.01268,  -0.04551,  -7.66842,   2.00000
557215537.63169,381879222.49966,-113371929.13099,   0.06325,   0.01361,  -0.04797,531122813.12729,   0.07738,331122819.77896,   0.06074,   0.01284,  -0.04602,  -6.65167,   2.00000
557185425.36721,382678339.54591,-113778822.14324,   0.06380,   0.01378,  -0.04848,531518934.28688,   0.07814,331518938.60837,   0.06129,   0.01301,  -0.04653,  -4.32149,   2.00000
557133130.63331,383408206.49879,-114222589.51192,   0.06434,   0.01394,  -0.04899,531911800.51503,   0.07890,331911807.32686,   0.06184,   0.01317,  -0.04703,  -6.81183,   2.00000
556927159.14719,384147997.04986,-114816022.99994,   0.06488,   0.01411,  -0.04950,532299961.44719,   0.07966,332299967.83902,   0.06238,   0.01333,  -0.04753,  -6.39183,   2.00000
556682512.81739,385276435.46033,-115322276.43696,   0.06541,   0.01427,  -0.05001,532686004.98242,   0.08041,332686007.76981,   0.06291,   0.01349,  -0.04804,  -2.78739,   2.00000
556778612.84729,385832345.53303,-115638444.24693,   0.06595,   0.01444,  -0.05052,533069014.11518,   0.08117,333069016.93393,   0.06345,   0.01365,  -0.04854,  -2.81875,   2.00000
556544419.34042,386356602.69890,-116301643.48206,   0.06648,   0.01460,  -0.05103,533447955.16572,   0.08191,333447957.49422,   0.06398,   0.01382,  -0.04904,  -2.32850,   2.00000
556398642.15732,387408822.38055,-116700723.93655,   0.06700,   0.01477,  -0.05154,533824389.49755,   0.08266,333824395.92461,   0.06451,   0.01398,  -0.04955,  -6.42706,   2.00000
556296854.60028,387885826.21605,-117223984.68748,   0.06752,   0.01494,  -0.05205,534196899.38026,   0.08340,334196901.29850,   0.06503,   0.01414,  -0.05005,  -1.91824,   2.00000
555843659.59645,388791196.23268,-117965693.07508,   0.06804,   0.01511,  -0.05256,534566516.98064,   0.08414,334566522.33768,   0.06555,   0.01430,  -0.05055,  -5.35704,   2.00000
555852641.86109,389713206.91391,-118221166.67197,   0.06855,   0.01527,  -0.05306,534933790.50464,   0.08488,334933795.68946,   0.06606,   0.01447,  -0.05105,  -5.18482,   2.00000
556409901.25118,392954886.55615,-117174296.75805,   0.06906,   0.01544,  -0.05357,535304566.50029,   0.08563,335304571.64766,   0.06658,   0.01462,  -0.05157,  -5.14738,   1.00000
556557367.12004,395983168.22158,-116577950.39993,   0.06957,   0.01561,  -0.05408,535670307.59552,   0.08637,335670315.61180,   0.06709,   0.01477,  -0.05209,  -8.01627,   1.00000
556728864.04951,398445443.07402,-116117811.09452,   0.07007,   0.01577,  -0.05458,536031490.14228,   0.08710,336031498.01095,   0.06759,   0.01493,  -0.05260,  -7.86866,   1.00000
556669326.37432,400323528.45911,-116077345.87888,   0.07056,   0.01594,  -0.05509,536389492.92816,   0.08784,336389501.08456,   0.06809,   0.01509,  -0.05311,  -8.15640,   1.00000
556687047.43427,401927354.39430,-116039354.12038,   0.07106,   0.01611,  -0.05559,536743616.54768,   0.08856,336743618.74948,   0.06859,   0.01525,  -0.05361,  -2.20180,   1.00000
556574279.32156,403689119.42517,-116066987.94185,   0.07155,   0.01628,  -0.05610,537095419.73493,   0.08929,337095424.50320,   0.06909,   0.01541,  -0.05412,  -4.76826,   1.00000
556485292.96308,404683667.16704,-116334113.98805,   0.07204,   0.01645,  -0.05660,537443132.71945,   0.09001,337443138.64976,   0.06958,   0.01558,  -0.05462,  -5.93031,   1.00000
556349741.14403,405542467.27360,-116689980.41441,   0.07252,   0.01662,  -0.05711,537788002.03254,   0.09072,337788003.24995,   0.07006,   0.01574,  -0.05512,  -1.21740,   1.00000
556081727.27719,406873771.33288,-116996817.45703,   0.07300,   0.01679,  -0.05761,538129026.85961,   0.09144,338129031.23692,   0.07055,   0.01591,  -0.05561,  -4.37731,   1.00000
555836466.98890,407854992.77905,-117402406.86647,   0.07348,   0.01696,  -0.05811,538469284.50333,   0.09215,338469287.81323,   0.07103,   0.01607,  -0.05611,  -3.30989,   1.00000
555605326.02839,408399044.89128,-117942537.06755,   0.07395,   0.01713,  -0.05861,538803953.06875,   0.09285,338803961.31235,   0.07150,   0.01624,  -0.05661,  -8.24360,   1.00000
555285032.73742,409357843.47039,-118411407.85319,   0.07442,   0.01730,  -0.05912,539137100.01211,   0.09356,339137102.11053,   0.07197,   0.01641,  -0.05710,  -2.09842,   1.00000
554958814.16727,410191827.75508,-118923440.82325,   0.07488,   0.01747,  -0.05962,539467705.24162,   0.09426,339467709.07325,   0.07244,   0.01657,  -0.05760,  -3.83163,   1.00000
554624992.85942,410931012.94711,-119469641.66814,   0.07535,   0.01764,  -0.06012,539795846.43223,   0.09496,339795855.70871,   0.07291,   0.01674,  -0.05809,  -9.27648,   1.00000
554282253.29476,411598008.75547,-120043150.41449,   0.07580,   0.01782,  -0.06062,540121596.74343,   0.09565,340121603.87604,   0.07337,   0.01691,  -0.05858,  -7.13261,   1.00000
553889866.91167,412349750.27962,-120621606.94994,   0.07626,   0.01799,  -0.06112,540443030.40118,   0.09634,340443035.46483,   0.07382,   0.01707,  -0.05908,  -5.06365,   1.00000
553535407.35975,412886315.28377,-121238703.11345,   0.07671,   0.01816,  -0.06162,540764117.91423,   0.09703,340764118.30989,   0.07428,   0.01724,  -0.05957,  -0.39566,   1.00000
553060359.36162,413978990.72198,-121751975.23176,   0.07715,   0.01833,  -0.06212,541081904.05708,   0.09772,341081910.74612,   0.07473,   0.01741,  -0.06006,  -6.68904,   1.00000
552835252.07718,414428372.81660,-122262734.24486,   0.07760,   0.01850,  -0.06261,541397826.68177,   0.09841,341397828.36887,   0.07517,   0.01758,  -0.06055,  -1.68710,   1.00000
552319634.31648,415365577.61596,-122854699.71197,   0.07804,   0.01868,  -0.06311,541711001.64865,   0.09909,341711002.44672,   0.07562,   0.01775,  -0.06104,  -0.79807,   1.00000
551882016.21337,415747703.79259,-123572588.80564,   0.07847,   0.01885,  -0.06361,542021020.01287,   0.09977,342021022.94061,   0.07605,   0.01792,  -0.06153,  -2.92774,   1.00000
551370653.45344,416578891.78009,-124182020.55199,   0.07890,   0.01903,  -0.06411,542329897.27271,   0.10044,342329900.88486,   0.07649,   0.01809,  -0.06202,  -3.61215,   1.00000
550864666.13610,417318519.55450,-124811706.06018,   0.07933,   0.01920,  -0.06461,542636605.95518,   0.10112,342636611.37293,   0.07692,   0.01826,  -0.06251,  -5.41775,   1.00000
550308461.12155,418134439.81350,-125446087.77717,   0.07975,   0.01938,  -0.06510,542939273.62112,   0.10179,342939279.29759,   0.07735,   0.01843,  -0.06300,  -5.67647,   1.00000
549945621.35965,418810854.92545,-125951699.87358,   0.08018,   0.01955,  -0.06560,543241212.46002,   0.10246,343241217.53673,   0.07777,   0.01860,  -0.06348,  -5.07671,   1.00000
549221596.48696,419390137.22861,-126809051.66698,   0.08059,   0.01972,  -0.06609,543540187.37051,   0.10312,343540188.47903,   0.07819,   0.01877,  -0.06397,  -1.10852,   1.00000
548860134.28490,419977423.30537,-127331900.42654,   0.08101,   0.01990,  -0.06659,543838079.52381,   0.10379,343838083.37641,   0.07861,   0.01894,  -0.06446,  -3.85260,   1.00000
548261170.30297,420583278.78807,-128048267.75109,   0.08142,   0.02007,  -0.06708,544132521.76475,   0.10445,344132531.38519,   0.07902,   0.01911,  -0.06494,  -9.62044,   1.00000
547736621.52700,421683837.46382,-128501668.59790,   0.08182,   0.02025,  -0.06757,544425404.76395,   0.10511,344425411.65227,   0.07943,   0.01929,  -0.06543,  -6.88832,   1.00000
547123039.76961,422102694.11694,-129284025.18218,   0.08222,   0.02043,  -0.06807,544715773.06815,   0.10576,344715775.23006,   0.07984,   0.01946,  -0.06591,  -2.16191,   1.00000
546580828.88150,423057950.51931,-129790626.15173,   0.08262,   0.02061,  -0.06856,545004666.63067,   0.10641,345004670.55626,   0.08024,   0.01963,  -0.06640,  -3.92558,   1.00000
545881222.60255,423798961.05656,-130506003.80193,   0.08302,   0.02078,  -0.06905,545292054.47034,   0.10707,345292058.50347,   0.08064,   0.01980,  -0.06688,  -4.03313,   1.00000
545393926.59251,424136022.81769,-131185081.63475,   0.08341,   0.02096,  -0.06955,545576087.31714,   0.10771,345576093.91757,   0.08104,   0.01998,  -0.06737,  -6.60042,   1.00000
544597343.47492,424981295.92885,-131920612.64071,   0.08380,   0.02114,  -0.07004,545857882.36356,   0.10836,345857887.37820,   0.08143,   0.02015,  -0.06785,  -5.01464,   1.00000
544030677.82792,425681975.53016,-132511012.06871,   0.08418,   0.02131,  -0.07053,546139152.57998,   0.10900,346139159.82565,   0.08182,   0.02032,  -0.06833,  -7.24567,   1.00000
543224387.02221,426377111.56494,-133291717.53644,   0.08456,   0.02149,  -0.07102,546417218.56417,   0.10964,346417220.75755,   0.08220,   0.02050,  -0.06881,  -2.19339,   1.00000
542787281.17340,427064063.56845,-133763252.22353,   0.08494,   0.02167,  -0.07151,546694272.86215,   0.11028,346694276.09377,   0.08259,   0.02067,  -0.06929,  -3.23163,   1.00000
541868137.71287,428079680.76978,-134493053.98476,   0.08531,   0.02185,  -0.07200,546969557.70442,   0.11092,346969563.72154,   0.08296,   0.02084,  -0.06978,  -6.01712,   1.00000
541185542.80495,428640345.46996,-135194896.34114,   0.08568,   0.02203,  -0.07249,547241591.49731,   0.11155,347241594.67046,   0.08334,   0.02102,  -0.07026,  -3.17315,   1.00000
540418719.00479,429605160.25924,-135798812.18411,   0.08605,   0.02221,  -0.07297,547512801.09131,   0.11218,347512806.28525,   0.08371,   0.02119,  -0.07074,  -5.19395,   1.00000
539707151.75609,430023934.83640,-136561227.96776,   0.08641,   0.02239,  -0.07346,547781259.33947,   0.11281,347781264.90020,   0.08408,   0.02137,  -0.07121,  -5.56073,   1.00000
538909906.35086,430875302.57793,-137214239.72100,   0.08677,   0.02257,  -0.07395,548048982.59205,   0.11344,348048985.30199,   0.08444,   0.02154,  -0.07169,  -2.70995,   1.00000
538103881.75804,431636941.14739,-137899185.29616,   0.08713,   0.02275,  -0.07444,548314944.99111,   0.11406,348314951.93959,   0.08480,   0.02172,  -0.07217,  -6.94847,   1.00000
537492023.78811,432005342.29341,-138576872.74136,   0.08748,   0.02293,  -0.07492,548577719.80427,   0.11468,348577726.78454,   0.08516,   0.02190,  -0.07265,  -6.98027,   1.00000
536386118.18550,432758713.02934,-139475082.16530,   0.08783,   0.02311,  -0.07541,548839048.28939,   0.11530,348839051.81916,   0.08551,   0.02207,  -0.07312,  -3.52977,   1.00000
535638684.60105,433929334.23667,-139925209.27916,   0.08817,   0.02330,  -0.07590,549100466.51531,   0.11592,349100472.83175,   0.08586,   0.02225,  -0.07360,  -6.31644,   1.00000
534679850.18739,434570237.37677,-140731638.39855,   0.08851,   0.02348,  -0.07638,549357867.08905,   0.11653,349357872.68075,   0.08621,   0.02243,  -0.07408,  -5.59171,   1.00000
533962375.37938,435111993.94835,-141388074.26557,   0.08885,   0.02366,  -0.07687,549614951.02241,   0.11715,349614956.07850,   0.08655,   0.02260,  -0.07455,  -5.05609,   1.00000
532951851.96217,435680594.47120,-142241125.37049,   0.08918,   0.02384,  -0.07735,549869157.58321,   0.11776,349869159.45383,   0.08689,   0.02278,  -0.07503,  -1.87062,   1.00000
531883795.35063,436644991.83376,-142968837.69321,   0.08951,   0.02402,  -0.07783,550122796.13443,   0.11837,350122800.04637,   0.08723,   0.02296,  -0.07550,  -3.91194,   1.00000
531281218.73589,437132479.21840,-143536207.76596,   0.08984,   0.02421,  -0.07832,550374590.87463,   0.11897,350374591.32892,   0.08756,   0.02314,  -0.07598,  -0.45429,   1.00000
530136649.21257,437970344.14218,-144348101.61186,   0.09017,   0.02439,  -0.07880,550624991.99109,   0.11958,350624997.40917,   0.08789,   0.02332,  -0.07645,  -5.41808,   1.00000
529155922.27518,438837549.15385,-145017867.77599,   0.09049,   0.02458,  -0.07928,550873345.24158,   0.12018,350873349.68439,   0.08822,   0.02349,  -0.07692,  -4.44280,   1.00000
528154966.96467,439613745.92867,-145727666.67921,   0.09080,   0.02476,  -0.07976,551120122.82987,   0.12078,351120126.89126,   0.08854,   0.02367,  -0.07740,  -4.06138,   1.00000
527133020.64996,440316651.56659,-146470974.41894,   0.09112,   0.02494,  -0.08025,551365366.67195,   0.12137,351365371.52800,   0.08886,   0.02385,  -0.07787,  -4.85605,   1.00000
526089402.37095,440960277.02376,-147242565.83831,   0.09143,   0.02513,  -0.08073,551609115.38433,   0.12197,351609120.50429,   0.08918,   0.02403,  -0.07834,  -5.11996,   1.00000
525023497.20042,441555709.34094,-148038254.58976,   0.09173,   0.02531,  -0.08121,551851401.01580,   0.12256,351851406.25942,   0.08949,   0.02421,  -0.07881,  -5.24362,   1.00000
524085056.55085,442233286.40711,-148702912.44258,   0.09204,   0.02550,  -0.08169,552091693.19753,   0.12315,352091701.70282,   0.08980,   0.02439,  -0.07928,  -8.50529,   1.00000
523040396.76243,443282249.13788,-149280643.96649,   0.09234,   0.02569,  -0.08216,552331438.14966,   0.12374,352331439.41647,   0.09010,   0.02457,  -0.07975,  -1.26681,   1.00000
521865794.55840,443658963.78772,-150206525.30232,   0.09263,   0.02587,  -0.08265,552569223.50003,   0.12433,352569227.09598,   0.09041,   0.02475,  -0.08022,  -3.59595,   1.00000
520771354.76582,444583962.94728,-150845905.41085,   0.09293,   0.02606,  -0.08312,552806089.78283,   0.12492,352806094.75021,   0.09071,   0.02494,  -0.08069,  -4.96739,   1.00000
519360475.23183,445455354.42460,-151701125.81978,   0.09321,   0.02625,  -0.08360,553040293.44616,   0.12550,353040297.05326,   0.09100,   0.02512,  -0.08116,  -3.60710,   1.00000
518402680.91481,446310193.25078,-152256507.04703,   0.09350,   0.02644,  -0.08408,553273765.23100,   0.12608,353273768.64827,   0.09129,   0.02530,  -0.08162,  -3.41727,   1.00000
517223621.42265,446951795.77750,-153032730.71437,   0.09378,   0.02662,  -0.08456,553506283.52584,   0.12666,353506286.08513,   0.09158,   0.02548,  -0.08209,  -2.55929,   1.00000
516010569.99815,447543773.82041,-153839878.80667,   0.09406,   0.02681,  -0.08503,553737433.21252,   0.12724,353737439.70221,   0.09187,   0.02566,  -0.08256,  -6.48969,   1.00000
514622682.32237,448269674.57833,-154688242.12125,   0.09434,   0.02700,  -0.08551,553965541.09768,   0.12781,353965545.97711,   0.09215,   0.02585,  -0.08302,  -4.87943,   1.00000
513523763.97035,448882340.76717,-155392168.57445,   0.09461,   0.02719,  -0.08598,554193504.98460,   0.12838,354193508.47524,   0.09243,   0.02603,  -0.08349,  -3.49063,   1.00000
512361524.20473,449451021.40160,-156143625.53483,   0.09488,   0.02737,  -0.08646,554420090.84189,   0.12895,354420100.09498,   0.09271,   0.02621,  -0.08395,  -9.25310,   1.00000
510788720.49058,450446844.53215,-156957491.92863,   0.09515,   0.02757,  -0.08693,554645176.82872,   0.12952,354645181.20445,   0.09298,   0.02640,  -0.08442,  -4.37573,   1.00000
509533605.42567,451279335.45940,-157633838.71920,   0.09541,   0.02776,  -0.08741,554870100.24697,   0.13009,354870109.58331,   0.09325,   0.02658,  -0.08488,  -9.33635,   1.00000
508431419.02898,451741118.68404,-158360482.48268,   0.09567,   0.02795,  -0.08788,555092150.36416,   0.13066,355092151.63715,   0.09352,   0.02677,  -0.08535,  -1.27299,   1.00000
507044724.40622,452468564.22526,-159136985.57901,   0.09593,   0.02814,  -0.08835,555314412.06554,   0.13122,355314414.17860,   0.09379,   0.02695,  -0.08581,  -2.11307,   1.00000
505458131.41249,453304359.68724,-159970109.96665,   0.09618,   0.02833,  -0.08883,555533706.23396,   0.13178,355533714.91507,   0.09404,   0.02713,  -0.08627,  -8.68111,   1.00000
504183042.18231,454008051.77088,-160665899.57052,   0.09643,   0.02852,  -0.08930,555752898.53882,   0.13234,355752903.67131,   0.09430,   0.02732,  -0.08673,  -5.13249,   1.00000
502841260.00148,454647825.29974,-161415849.11813,   0.09668,   0.02871,  -0.08977,555970791.96536,   0.13290,355970792.85079,   0.09456,   0.02751,  -0.08720,  -0.88543,   1.00000
501438843.64743,455233824.53973,-162211403.27642,   0.09692,   0.02890,  -0.09024,556187418.42643,   0.13346,356187425.39839,   0.09481,   0.02769,  -0.08766,  -6.97196,   1.00000
499938164.24239,456188785.89809,-162895680.34735,   0.09716,   0.02910,  -0.09071,556403810.46758,   0.13402,356403810.58833,   0.09506,   0.02788,  -0.08812,  -0.12075,   1.00000
498592898.05823,456758388.31215,-163642172.66356,   0.09740,   0.02929,  -0.09118,556617370.16447,   0.13457,356617375.39037,   0.09530,   0.02807,  -0.08858,  -5.22590,   1.00000
497130333.78601,457698701.55202,-164285983.04722,   0.09763,   0.02948,  -0.09165,556830687.52898,   0.13512,356830690.73483,   0.09555,   0.02825,  -0.08904,  -3.20586,   1.00000
495491763.07906,457976357.07231,-165292902.70589,   0.09786,   0.02967,  -0.09212,557042322.76995,   0.13567,357042323.24087,   0.09578,   0.02844,  -0.08950,  -0.47092,   1.00000
493931615.61402,458811686.86593,-166008270.58306,   0.09809,   0.02987,  -0.09259,557253304.03461,   0.13622,357253306.61725,   0.09602,   0.02863,  -0.08996,  -2.58265,   1.00000
492472879.63195,459698378.74224,-166634615.81910,   0.09832,   0.03006,  -0.09305,557462499.02342,   0.13677,357462503.47068,   0.09625,   0.02881,  -0.09041,  -4.44726,   1.00000
490780101.30693,460340751.22218,-167475695.42616,   0.09854,   0.03026,  -0.09352,557671014.33510,   0.13731,357671021.36454,   0.09648,   0.02900,  -0.09087,  -7.02944,   1.00000
489041977.26384,460921324.43351,-168352482.95899,   0.09875,   0.03045,  -0.09399,557878411.96358,   0.13786,357878418.13221,   0.09671,   0.02919,  -0.09133,  -6.16863,   1.00000
487777863.77255,461562865.79973,-168949419.77919,   0.09897,   0.03065,  -0.09445,558085203.28568,   0.13840,358085207.97007,   0.09693,   0.02938,  -0.09178,  -4.68439,   1.00000
485991752.83801,462587482.77806,-169633943.04666,   0.09918,   0.03084,  -0.09492,558290681.77245,   0.13894,358290687.33634,   0.09716,   0.02957,  -0.09224,  -5.56389,   1.00000
484561643.03896,463044486.08217,-170372267.13446,   0.09939,   0.03104,  -0.09538,558495043.16978,   0.13948,358495050.77614,   0.09737,   0.02976,  -0.09269,  -7.60636,   1.00000
482619439.50236,463909213.04202,-171174385.46216,   0.09960,   0.03124,  -0.09585,558698208.04040,   0.14002,358698216.69895,   0.09759,   0.02995,  -0.09315,  -8.65855,   1.00000
481051067.01534,464233451.98758,-172014298.15863,   0.09980,   0.03143,  -0.09631,558900336.29537,   0.14055,358900339.23040,   0.09780,   0.03014,  -0.09360,  -2.93503,   1.00000
479355348.40897,464952541.48297,-172733460.39223,   0.10000,   0.03163,  -0.09678,559102381.84145,   0.14109,359102386.63003,   0.09801,   0.03033,  -0.09406,  -4.78858,   1.00000
477735508.14627,465744582.74800,-173371501.93634,   0.10020,   0.03183,  -0.09724,559302726.83796,   0.14163,359302730.36472,   0.09822,   0.03052,  -0.09451,  -3.52676,   1.00000
476016808.25978,466446309.26320,-174082847.86872,   0.10040,   0.03202,  -0.09770,559501913.82811,   0.14216,359501918.49933,   0.09842,   0.03071,  -0.09496,  -4.67122,   1.00000
474208638.27016,467070736.32513,-174856286.29533,   0.10059,   0.03222,  -0.09816,559700000.05694,   0.14269,359700000.93648,   0.09862,   0.03091,  -0.09542,  -0.87954,   1.00000
472318613.29511,467628526.26698,-175682492.04615,   0.10077,   0.03242,  -0.09862,559897015.54360,   0.14322,359897021.06945,   0.09882,   0.03110,  -0.09587,  -5.52585,   1.00000
470330265.99210,468531562.15602,-176387352.59747,   0.10096,   0.03262,  -0.09909,560094013.58973,   0.14374,360094018.37351,   0.09902,   0.03129,  -0.09632,  -4.78378,   1.00000
468702695.30940,468895369.96824,-177155533.41713,   0.10114,   0.03282,  -0.09955,560289933.79023,   0.14427,360289938.47710,   0.09921,   0.03148,  -0.09677,  -4.68687,   1.00000
466678752.90142,469813133.31412,-177839758.96918,   0.10132,   0.03302,  -0.10001,560484229.12957,   0.14480,360484236.08057,   0.09940,   0.03168,  -0.09722,  -6.95101,   1.00000
465013514.37241,470191329.28127,-178593645.81079,   0.10150,   0.03322,  -0.10046,560677450.22938,   0.14532,360677453.91677,   0.09958,   0.03187,  -0.09767,  -3.68738,   1.00000
463042529.59713,470780476.54374,-179374171.18686,   0.10168,   0.03342,  -0.10093,560871231.59743,   0.14584,360871234.85237,   0.09977,   0.03206,  -0.09812,  -3.25493,   1.00000
461294543.28281,471621326.30227,-179933794.79449,   0.10185,   0.03362,  -0.10138,561062829.18583,   0.14636,361062834.27857,   0.09995,   0.03226,  -0.09857,  -5.09274,   1.00000
459262037.62617,472194808.34245,-180718512.12010,   0.10201,   0.03382,  -0.10184,561253907.12489,   0.14689,361253915.70174,   0.10013,   0.03245,  -0.09902,  -8.57684,   1.00000
457136784.84309,472699495.13629,-181557021.34029,   0.10218,   0.03402,  -0.10230,561444014.43875,   0.14740,361444015.39062,   0.10030,   0.03265,  -0.09946,  -0.95186,   1.00000
455511976.81776,473294412.35084,-182139816.91082,   0.10234,   0.03422,  -0.10275,561633534.53399,   0.14792,361633543.74116,   0.10048,   0.03284,  -0.09991,  -9.20717,   1.00000
453568912.43500,473655982.48391,-182943979.08428,   0.10251,   0.03442,  -0.10321,561822585.58754,   0.14844,361822589.09273,   0.10065,   0.03304,  -0.10036,  -3.50519,   1.00000
451211833.88090,474550526.18960,-183655379.21779,   0.10266,   0.03463,  -0.10367,562010144.65641,   0.14895,362010152.48047,   0.10082,   0.03323,  -0.10081,  -7.82406,   1.00000
449236380.63536,474913752.48384,-184442613.88591,   0.10282,   0.03483,  -0.10412,562196670.35304,   0.14947,362196673.69309,   0.10098,   0.03343,  -0.10125,  -3.34004,   1.00000
447725413.63917,475790830.38277,-184809828.32222,   0.10297,   0.03503,  -0.10457,562383616.30591,   0.14998,362383621.06373,   0.10114,   0.03363,  -0.10170,  -4.75782,   1.00000
445412559.80773,476390201.45556,-185592900.41085,   0.10312,   0.03524,  -0.10503,562569077.91705,   0.15050,362569082.54772,   0.10130,   0.03382,  -0.10214,  -4.63067,   1.00000
443618657.34097,476675066.39138,-186311731.63622,   0.10327,   0.03544,  -0.10548,562752932.60509,   0.15100,362752940.79172,   0.10146,   0.03402,  -0.10258,  -8.18663,   1.00000
441651040.01171,477322805.70981,-186918271.14665,   0.10341,   0.03564,  -0.10593,562936860.31066,   0.15151,362936867.79535,   0.10162,   0.03422,  -0.10303,  -7.48469,   1.00000
439379785.95068,477711134.19994,-187739774.71929,   0.10355,   0.03585,  -0.10639,563120393.15281,   0.15202,363120399.17791,   0.10177,   0.03442,  -0.10347,  -6.02510,   1.00000
437302837.20665,478777745.48080,-188165791.24302,   0.10369,   0.03606,  -0.10684,563302875.44876,   0.15253,363302883.30320,   0.10192,   0.03461,  -0.10392,  -7.85444,   1.00000
435394371.80112,479126692.17654,-188850493.18985,   0.10383,   0.03626,  -0.10729,563484788.90997,   0.15304,363484795.22214,   0.10207,   0.03481,  -0.10436,  -6.31217,   1.00000
432836343.13635,479423512.23059,-189768098.63971,   0.10396,   0.03647,  -0.10774,563664863.15512,   0.15354,363664868.56851,   0.10221,   0.03501,  -0.10480,  -5.41339,   1.00000
430822058.44013,480240575.14288,-190246585.23270,   0.10410,   0.03667,  -0.10819,563845468.63546,   0.15405,363845469.55050,   0.10235,   0.03521,  -0.10524,  -0.91504,   1.00000
428627800.72995,480544967.30514,-191008531.21312,   0.10422,   0.03688,  -0.10864,564024025.78403,   0.15455,364024033.74279,   0.10249,   0.03541,  -0.10568,  -7.95876,   1.00000
426775336.42972,481198760.20007,-191485493.62467,   0.10435,   0.03709,  -0.10908,564203646.42112,   0.15506,364203649.66658,   0.10263,   0.03561,  -0.10612,  -3.24546,   1.00000
424720347.66535,481753753.23202,-192062407.27945,   0.10448,   0.03729,  -0.10953,564382260.33625,   0.15556,364382268.80372,   0.10277,   0.03581,  -0.10656,  -8.46747,   1.00000
422619716.59672,482007958.37691,-192780579.29283,   0.10460,   0.03750,  -0.10998,564558309.90766,   0.15606,364558312.33954,   0.10290,   0.03601,  -0.10700,  -2.43187,   1.00000
420202089.57479,482428374.14542,-193508172.02379,   0.10472,   0.03771,  -0.11043,564735123.13075,   0.15656,364735130.32861,   0.10303,   0.03621,  -0.10744,  -7.19787,   1.00000
418290409.62398,482966409.65555,-194011720.39626,   0.10484,   0.03791,  -0.11087,564911360.53622,   0.15706,364911361.86277,   0.10316,   0.03642,  -0.10788,  -1.32655,   1.00000
415678341.53751,483786553.85257,-194580574.95820,   0.10495,   0.03812,  -0.11132,565086826.42717,   0.15755,365086827.55691,   0.10328,   0.03662,  -0.10831,  -1.12974,   1.00000
413425940.40239,484099983.03008,-195265570.36793,   0.10506,   0.03833,  -0.11176,565261213.90705,   0.15805,365261218.86485,   0.10341,   0.03682,  -0.10875,  -4.95780,   1.00000
411502578.20027,484371172.58600,-195863560.03085,   0.10517,   0.03854,  -0.11221,565435602.71410,   0.15855,365435609.25828,   0.10353,   0.03702,  -0.10919,  -6.54417,   1.00000
409520505.06197,485153997.42258,-196225399.05744,   0.10528,   0.03875,  -0.11265,565609544.58862,   0.15904,365609547.45710,   0.10365,   0.03723,  -0.10962,  -2.86849,   1.00000
407139347.69383,485239583.87180,-197019103.22257,   0.10539,   0.03896,  -0.11309,565782074.34287,   0.15954,365782077.61040,   0.10376,   0.03743,  -0.11006,  -3.26753,   1.00000
404751452.29653,485855382.54115,-197548064.87263,   0.10549,   0.03917,  -0.11354,565954267.58308,   0.16003,365954270.27343,   0.10388,   0.03763,  -0.11049,  -2.69035,   1.00000
402707118.59590,486384697.38880,-198012277.43127,   0.10559,   0.03938,  -0.11398,566126402.18221,   0.16053,366126411.99401,   0.10399,   0.03784,  -0.11093,  -9.81179,   1.00000
400573770.01572,486997531.55253,-198448003.39173,   0.10569,   0.03959,  -0.11442,566297036.81991,   0.16102,366297041.25190,   0.10410,   0.03804,  -0.11136,  -4.43198,   1.00000
398069633.21233,487312401.41231,-199111983.51659,   0.10579,   0.03980,  -0.11486,566467374.61724,   0.16151,366467377.17021,   0.10421,   0.03825,  -0.11180,  -2.55297,   1.00000
396061609.15762,487767136.30715,-199567758.78229,   0.10588,   0.04001,  -0.11530,566637107.54410,   0.16200,366637115.33814,   0.10431,   0.03845,  -0.11223,  -7.79403,   1.00000
393799856.75042,488128057.14253,-200121987.36644,   0.10597,   0.04022,  -0.11574,566805961.37504,   0.16249,366805968.51415,   0.10442,   0.03866,  -0.11266,  -7.13911,   1.00000
391311546.08367,488403582.25638,-200760784.14748,   0.10606,   0.04044,  -0.11617,566973986.81795,   0.16297,366973993.61053,   0.10452,   0.03886,  -0.11309,  -6.79258,   1.00000
389169094.34438,488640252.99607,-201322195.09899,   0.10615,   0.04065,  -0.11661,567142023.51847,   0.16346,367142024.14340,   0.10462,   0.03907,  -0.11352,  -0.62493,   1.00000
386820645.64501,489188209.93446,-201770280.97282,   0.10624,   0.04086,  -0.11705,567310282.19034,   0.16395,367310288.14069,   0.10471,   0.03927,  -0.11395,  -5.95035,   1.00000
384892961.75792,489467287.45184,-202238825.88443,   0.10632,   0.04107,  -0.11749,567476811.53562,   0.16444,367476817.68617,   0.10481,   0.03948,  -0.11438,  -6.15055,   1.00000
382166362.50244,490005046.80168,-202752474.67693,   0.10640,   0.04129,  -0.11792,567642780.39828,   0.16492,367642787.92246,   0.10490,   0.03969,  -0.11481,  -7.52418,   1.00000
380375284.85885,490512049.31749,-203058981.96749,   0.10649,   0.04150,  -0.11836,567809490.80152,   0.16541,367809492.57749,   0.10499,   0.03989,  -0.11524,  -1.77597,   1.00000
377706175.06192,490859205.02241,-203626223.45378,   0.10656,   0.04172,  -0.11879,567974539.61100,   0.16589,367974545.78294,   0.10508,   0.04010,  -0.11567,  -6.17193,   1.00000
375479955.73511,490965989.57852,-204202341.50203,   0.10664,   0.04193,  -0.11922,568137924.16278,   0.16637,368137926.81200,   0.10517,   0.04031,  -0.11610,  -2.64921,   1.00000
373476815.99836,491249419.60060,-204635927.79340,   0.10671,   0.04214,  -0.11966,568302950.97274,   0.16686,368302954.08258,   0.10525,   0.04052,  -0.11652,  -3.10984,   1.00000
371368787.75940,492014033.33549,-204842607.54979,   0.10679,   0.04236,  -0.12009,568467599.78377,   0.16734,368467602.91628,   0.10534,   0.04073,  -0.11695,  -3.13251,   1.00000
368911788.11003,492243143.94690,-205374049.70035,   0.10686,   0.04257,  -0.12052,568630303.99537,   0.16782,368630308.53985,   0.10542,   0.04094,  -0.11738,  -4.54448,   1.00000
366784202.75757,492440441.80415,-205845083.02758,   0.10692,   0.04279,  -0.12095,568792985.08680,   0.16830,368792989.95403,   0.10550,   0.04115,  -0.11781,  -4.86724,   1.00000
364490864.74447,492746152.28583,-206283035.98991,   0.10699,   0.04300,  -0.12138,568954271.22058,   0.16878,368954280.56856,   0.10558,   0.04135,  -0.11823,  -9.34798,   1.00000
362571187.79304,493389374.79415,-206471544.61728,   0.10706,   0.04322,  -0.12181,569116566.20043,   0.16926,369116566.68161,   0.10565,   0.04156,  -0.11865,  -0.48118,   1.00000
360122067.61593,493316355.34398,-207108735.27674,   0.10712,   0.04343,  -0.12224,569277532.35343,   0.16974,369277536.12051,   0.10572,   0.04177,  -0.11908,  -3.76708,   1.00000
357732485.22240,493951321.70976,-207365402.11117,   0.10718,   0.04365,  -0.12267,569437648.28668,   0.17022,369437652.74805,   0.10580,   0.04198,  -0.11950,  -4.46136,   1.00000
355530912.05500,494306669.37956,-207719493.30379,   0.10724,   0.04387,  -0.12310,569598257.99904,   0.17070,369598267.07283,   0.10587,   0.04220,  -0.11992,  -9.07379,   1.00000
353547089.58098,494239629.80603,-208240641.00938,   0.10730,   0.04408,  -0.12353,569757726.80366,   0.17118,369757731.54591,   0.10593,   0.04241,  -0.12035,  -4.74224,   1.00000
351426208.87778,494685107.58620,-208516076.69348,   0.10735,   0.04430,  -0.12395,569916912.12438,   0.17165,369916915.11359,   0.10600,   0.04262,  -0.12077,  -2.98921,   1.00000
348979034.09246,495000221.77787,-208901063.35929,   0.10741,   0.04452,  -0.12438,570075301.46690,   0.17213,370075303.84088,   0.10607,   0.04283,  -0.12119,  -2.37398,   1.00000
346850939.54962,495272402.62159,-209246067.85082,   0.10746,   0.04474,  -0.12480,570233618.45459,   0.17260,370233627.61157,   0.10613,   0.04304,  -0.12161,  -9.15698,   1.00000
345127616.00551,495707101.24870,-209435569.86247,   0.10751,   0.04495,  -0.12523,570391238.74575,   0.17308,370391247.17938,   0.10619,   0.04325,  -0.12203,  -8.43362,   1.00000
342893245.22746,495814821.97727,-209864405.83313,   0.10756,   0.04517,  -0.12565,570548655.66610,   0.17355,370548658.21604,   0.10625,   0.04347,  -0.12245,  -2.54995,   1.00000
340453674.35154,496025075.91138,-210260060.74320,   0.10761,   0.04539,  -0.12607,570704739.84280,   0.17402,370704745.18309,   0.10631,   0.04368,  -0.12287,  -5.34030,   1.00000
339037237.99982,496663776.06561,-210277849.86085,   0.10766,   0.04561,  -0.12649,570862472.73819,   0.17450,370862481.96365,   0.10636,   0.04389,  -0.12329,  -9.22546,   1.00000
336475917.58362,496684644.59537,-210769925.77979,   0.10770,   0.04583,  -0.12692,571017637.72260,   0.17497,371017646.55463,   0.10642,   0.04411,  -0.12370,  -8.83203,   1.00000
334453673.30587,497272147.75758,-210882681.14674,   0.10774,   0.04605,  -0.12734,571173237.90241,   0.17544,371173240.99385,   0.10647,   0.04432,  -0.12412,  -3.09144,   1.00000
332600132.09156,497412367.92383,-211197178.86163,   0.10779,   0.04627,  -0.12775,571327609.54885,   0.17591,371327613.55279,   0.10652,   0.04453,  -0.12453,  -4.00394,   1.00000
330449534.67463,497821889.17260,-211402864.32812,   0.10782,   0.04649,  -0.12817,571482309.27695,   0.17638,371482312.76721,   0.10657,   0.04475,  -0.12495,  -3.49026,   1.00000
328476896.57676,497806438.32948,-211799515.79964,   0.10786,   0.04670,  -0.12859,571635821.43483,   0.17685,371635827.60318,   0.10662,   0.04496,  -0.12536,  -6.16835,   1.00000
326217908.44004,498075018.16635,-212075151.85280,   0.10790,   0.04693,  -0.12901,571789705.16800,   0.17732,371789712.25003,   0.10667,   0.04518,  -0.12578,  -7.08204,   1.00000
324363146.24839,498508692.28849,-212205989.47804,   0.10794,   0.04715,  -0.12943,571942886.11673,   0.17779,371942891.13806,   0.10672,   0.04539,  -0.12619,  -5.02134,   1.00000
322746538.91490,498890422.51822,-212329855.98915,   0.10797,   0.04737,  -0.12984,572095908.15660,   0.17826,372095912.24246,   0.10676,   0.04561,  -0.12661,  -4.08587,   1.00000
320695324.48018,499130585.93227,-212571529.33987,   0.10801,   0.04759,  -0.13026,572248156.83467,   0.17872,372248163.30194,   0.10680,   0.04583,  -0.12702,  -6.46727,   1.00000
318903334.31636,499341769.62861,-212792792.91460,   0.10804,   0.04781,  -0.13067,572400299.07847,   0.17919,372400301.27572,   0.10684,   0.04604,  -0.12743,  -2.19725,   1.00000
316804932.70314,499628881.00945,-212998655.16538,   0.10807,   0.04803,  -0.13108,572551108.11685,   0.17966,372551113.47643,   0.10688,   0.04626,  -0.12784,  -5.35957,   1.00000
314969297.53559,499880607.27395,-213188584.51580,   0.10810,   0.04825,  -0.13150,572701801.89820,   0.18012,372701807.83322,   0.10692,   0.04647,  -0.12825,  -5.93502,   1.00000
312711452.27365,499998213.34713,-213485101.87415,   0.10812,   0.04847,  -0.13191,572851782.28758,   0.18059,372851788.85344,   0.10696,   0.04669,  -0.12866,  -6.56587,   1.00000
311388213.97060,500207729.22262,-213635194.85316,   0.10815,   0.04869,  -0.13232,573002260.20215,   0.18105,373002262.25115,   0.10700,   0.04691,  -0.12907,  -2.04900,   1.00000
309693357.96488,500660590.20788,-213685649.76932,   0.10818,   0.04892,  -0.13273,573153045.81300,   0.18152,373153054.02759,   0.10703,   0.04713,  -0.12948,  -8.21459,   1.00000
307548123.54890,500782222.61427,-213947412.32204,   0.10820,   0.04914,  -0.13314,573301435.22510,   0.18198,373301442.75988,   0.10706,   0.04734,  -0.12989,  -7.53477,   1.00000
305666191.44405,500888732.26671,-214186842.34676,   0.10823,   0.04936,  -0.13355,573449737.88283,   0.18244,373449738.11289,   0.10710,   0.04756,  -0.13029,  -0.23006,   1.00000
304137270.65132,501354623.40263,-214196536.02121,   0.10825,   0.04958,  -0.13396,573598970.66399,   0.18290,373598976.42759,   0.10713,   0.04778,  -0.13070,  -5.76360,   1.00000
302122700.66065,501485588.32373,-214420543.67404,   0.10827,   0.04980,  -0.13437,573745806.00866,   0.18336,373745815.83125,   0.10716,   0.04799,  -0.13110,  -9.82259,   1.00000
301145104.23185,502087560.01167,-214301502.46945,   0.10829,   0.05003,  -0.13477,573894139.20169,   0.18383,373894148.64947,   0.10718,   0.04821,  -0.13151,  -9.44777,   1.00000
298833663.05461,502019970.59543,-214644573.84717,   0.10831,   0.05025,  -0.13518,574040087.06516,   0.18428,374040094.47989,   0.10721,   0.04843,  -0.13191,  -7.41474,   1.00000
297598210.72384,502447857.65160,-214631775.85909,   0.10833,   0.05047,  -0.13558,574187564.20777,   0.18475,374187572.00735,   0.10724,   0.04865,  -0.13232,  -7.79958,   1.00000
295847897.12698,502709644.31684,-214742105.42625,   0.10835,   0.05070,  -0.13599,574334300.83508,   0.18521,374334310.07500,   0.10726,   0.04887,  -0.13272,  -9.23992,   1.00000
294288086.21405,502777419.43445,-214939676.91432,   0.10836,   0.05092,  -0.13639,574479243.10613,   0.18566,374479252.11344,   0.10729,   0.04909,  -0.13312,  -9.00731,   1.00000
293049428.75309,503210069.19934,-214911688.34240,   0.10838,   0.05114,  -0.13679,574625112.11484,   0.18612,374625117.18973,   0.10731,   0.04931,  -0.13352,  -5.07489,   1.00000
291289579.45849,503472028.14557,-215006427.29140,   0.10839,   0.05137,  -0.13719,574770248.19342,   0.18658,374770256.64087,   0.10733,   0.04953,  -0.13393,  -8.44745,   1.00000
289847031.53501,503908720.98680,-214979065.12823,   0.10841,   0.05159,  -0.13759,574914645.11161,   0.18703,374914654.87006,   0.10735,   0.04975,  -0.13433,  -9.75844,   1.00000
288582955.50821,504297564.46072,-214963725.73901,   0.10842,   0.05182,  -0.13799,575058852.87854,   0.18749,375058861.20327,   0.10737,   0.04997,  -0.13472,  -8.32472,   1.00000
287476297.47725,504645898.20428,-214958886.92764,   0.10843,   0.05204,  -0.13839,575202867.72606,   0.18795,375202872.61204,   0.10739,   0.05019,  -0.13512,  -4.88598,   1.00000
285824985.69387,504830291.16362,-215071142.03760,   0.10844,   0.05226,  -0.13879,575346176.64990,   0.18840,375346181.59149,   0.10741,   0.05041,  -0.13552,  -4.94159,   1.00000
284473415.67296,505200314.93360,-215058814.52761,   0.10845,   0.05249,  -0.13919,575488752.59513,   0.18886,375488759.45005,   0.10742,   0.05063,  -0.13592,  -6.85492,   1.00000
283188439.73623,505327205.75052,-215177015.17825,   0.10846,   0.05271,  -0.13959,575631738.09491,   0.18931,375631739.58436,   0.10744,   0.05085,  -0.13631,  -1.48944,   1.00000
281471027.44173,505516187.97169,-215275567.30086,   0.10847,   0.05294,  -0.13998,575773483.58867,   0.18976,375773485.37458,   0.10745,   0.05107,  -0.13671,  -1.78591,   1.00000
280747034.43019,506024832.19088,-215145700.11694,   0.10848,   0.05316,  -0.14037,575914988.50608,   0.19021,375914995.69311,   0.10747,   0.05129,  -0.13710,  -7.18702,   1.00000
279328864.26987,506142486.87564,-215264417.32779,   0.10848,   0.05338,  -0.14077,576056363.14485,   0.19067,376056367.54702,   0.10748,   0.05151,  -0.13750,  -4.40217,   1.00000
278178415.70115,506456127.61713,-215257295.08462,   0.10849,   0.05361,  -0.14116,576197002.96141,   0.19112,376197011.33001,   0.10749,   0.05173,  -0.13789,  -8.36860,   1.00000
277168826.78271,506739445.40065,-215259398.94637,   0.10850,   0.05383,  -0.14155,576337464.51458,   0.19157,376337469.70626,   0.10751,   0.05195,  -0.13828,  -5.19168,   1.00000
275685093.53952,507063265.24671,-215251571.88703,   0.10850,   0.05406,  -0.14194,576476677.45718,   0.19201,376476682.73625,   0.10752,   0.05217,  -0.13867,  -5.27907,   1.00000
275221695.91771,507855597.22016,-214938768.16258,   0.10851,   0.05428,  -0.14233,576617232.62592,   0.19247,376617241.34483,   0.10753,   0.05239,  -0.13906,  -8.71891,   1.00000
273885205.51327,507857279.59010,-215105105.24968,   0.10851,   0.05451,  -0.14272,576756574.08753,   0.19291,376756579.25793,   0.10754,   0.05262,  -0.13945,  -5.17040,   1.00000
272896378.66050,508274798.95226,-215017876.82507,   0.10851,   0.05473,  -0.14311,576894630.58742,   0.19336,376894632.77204,   0.10755,   0.05284,  -0.13984,  -2.18462,   1.00000
271934999.36005,508445649.53875,-215070292.00954,   0.10852,   0.05496,  -0.14350,577033054.98481,   0.19381,377033059.04396,   0.10755,   0.05306,  -0.14023,  -4.05915,   1.00000
271334651.54125,509171067.49991,-214790858.03740,   0.10852,   0.05519,  -0.14388,577171770.81036,   0.19426,377171778.38355,   0.10756,   0.05328,  -0.14062,  -7.57319,   1.00000
270663270.09405,509460052.31463,-214763332.08986,   0.10852,   0.05541,  -0.14427,577309183.51580,   0.19470,377309192.93484,   0.10757,   0.05350,  -0.14101,  -9.41904,   1.00000
269375078.41841,509580841.66043,-214846170.20058,   0.10852,   0.05563,  -0.14466,577445944.16018,   0.19515,377445953.74488,   0.10757,   0.05372,  -0.14139,  -9.58470,   1.00000
268331206.51534,509898644.34329,-214805660.26501,   0.10852,   0.05586,  -0.14504,577581994.61340,   0.19559,377581997.94131,   0.10758,   0.05394,  -0.14177,  -3.32791,   1.00000
268269581.08483,510691732.28224,-214466839.72939,   0.10853,   0.05609,  -0.14542,577719337.13920,   0.19603,377719344.85916,   0.10758,   0.05417,  -0.14216,  -7.71995,   1.00000
267369945.24371,510899950.37689,-214483988.88162,   0.10853,   0.05631,  -0.14580,577854912.25494,   0.19648,377854913.64754,   0.10759,   0.05439,  -0.14254,  -1.39260,   1.00000
266670002.98017,511297680.48143,-214384143.89492,   0.10853,   0.05653,  -0.14618,577989738.69617,   0.19692,377989743.49392,   0.10759,   0.05461,  -0.14292,  -4.79775,   1.00000
266121662.83443,511810809.50369,-214213700.55758,   0.10853,   0.05676,  -0.14657,578125962.91166,   0.19736,378125965.56057,   0.10760,   0.05484,  -0.14331,  -2.64891,   1.00000
265579954.88012,512122257.36248,-214159225.78458,   0.10853,   0.05699,  -0.14694,578260352.16215,   0.19780,378260359.50924,   0.10760,   0.05506,  -0.14369,  -7.34709,   1.00000
264490127.39001,512465129.40853,-214091514.65292,   0.10852,   0.05721,  -0.14732,578393550.21078,   0.19824,378393552.34913,   0.10760,   0.05528,  -0.14406,  -2.13835,   1.00000
264237374.74257,512924042.26196,-213942922.29137,   0.10852,   0.05743,  -0.14770,578526994.15608,   0.19868,378527003.62351,   0.10760,   0.05550,  -0.14444,  -9.46744,   1.00000
264089259.76382,513491613.96384,-213729063.05939,   0.10852,   0.05766,  -0.14808,578661811.16079,   0.19912,378661816.34045,   0.10761,   0.05572,  -0.14482,  -5.17966,   1.00000
263280846.67754,513912208.30007,-213606283.15298,   0.10852,   0.05789,  -0.14845,578793791.73867,   0.19955,378793798.68253,   0.10761,   0.05594,  -0.14520,  -6.94386,   1.00000
263190854.38332,514236860.76238,-213533320.25225,   0.10852,   0.05811,  -0.14882,578926569.29197,   0.19999,378926572.12124,   0.10761,   0.05617,  -0.14557,  -2.82927,   1.00000
262656299.00529,514946140.07428,-213233447.60303,   0.10852,   0.05834,  -0.14920,579059168.63099,   0.20043,379059173.80218,   0.10761,   0.05639,  -0.14595,  -5.17119,   1.00000
262743447.07291,515380029.69002,-213091655.40639,   0.10852,   0.05856,  -0.14957,579190926.41481,   0.20086,379190927.54908,   0.10761,   0.05661,  -0.14633,  -1.13426,   1.00000
262207876.24444,515832879.65932,-212941517.29964,   0.10851,   0.05879,  -0.14994,579321461.36609,   0.20130,379321470.25263,   0.10761,   0.05683,  -0.14670,  -8.88655,   1.00000
261652213.44830,516037992.98417,-212940070.41216,   0.10851,   0.05901,  -0.15031,579452352.38042,   0.20173,379452354.81453,   0.10761,   0.05706,  -0.14707,  -2.43412,   1.00000
261963682.80449,516585874.98463,-212726103.12519,   0.10851,   0.05923,  -0.15068,579582939.62026,   0.20216,379582941.09436,   0.10761,   0.05728,  -0.14744,  -1.47411,   1.00000
261626703.46303,517140166.12125,-212510031.24203,   0.10851,   0.05946,  -0.15105,579712296.42443,   0.20259,379712304.71383,   0.10761,   0.05750,  -0.14781,  -8.28939,   1.00000
261407380.79238,517785980.36796,-212237955.79218,   0.10850,   0.05969,  -0.15142,579843007.11130,   0.20303,379843009.35491,   0.10761,   0.05772,  -0.14818,  -2.24361,   1.00000
261150751.91963,518225321.73383,-212088921.08916,   0.10850,   0.05991,  -0.15178,579971894.34147,   0.20346,379971900.76437,   0.10761,   0.05795,  -0.14855,  -6.42290,   1.00000
261729887.65934,518981882.52400,-211742674.00355,   0.10850,   0.06013,  -0.15214,580100455.65799,   0.20389,380100458.18845,   0.10760,   0.05817,  -0.14892,  -2.53047,   1.00000
261456905.80783,519311191.68287,-211659467.40742,   0.10850,   0.06036,  -0.15251,580228851.83563,   0.20432,380228854.59664,   0.10760,   0.05839,  -0.14929,  -2.76101,   1.00000
262020511.85994,519969761.89552,-211371399.25796,   0.10850,   0.06058,  -0.15287,580356928.13154,   0.20475,380356936.33798,   0.10760,   0.05861,  -0.14965,  -8.20644,   1.00000
261820182.55365,520418314.16511,-211213192.52449,   0.10849,   0.06081,  -0.15324,580484323.45850,   0.20517,380484333.03509,   0.10760,   0.05883,  -0.15002,  -9.57658,   1.00000
261737005.49852,521032782.17943,-210951215.79870,   0.10849,   0.06103,  -0.15360,580610976.74743,   0.20560,380610982.42000,   0.10760,   0.05905,  -0.15038,  -5.67257,   1.00000
262297781.25183,521533238.17913,-210758142.97501,   0.10849,   0.06126,  -0.15396,580738338.53345,   0.20603,380738347.94351,   0.10760,   0.05928,  -0.15074,  -9.41005,   1.00000
262110021.83084,521909454.15829,-210640571.29242,   0.10849,   0.06148,  -0.15431,580862973.75888,   0.20644,380862974.00505,   0.10759,   0.05950,  -0.15110,  -0.24617,   1.00000
262733192.85712,522541486.92810,-210364207.48567,   0.10849,   0.06170,  -0.15467,580989365.05088,   0.20687,380989368.89118,   0.10759,   0.05972,  -0.15147,  -3.84031,   1.00000
263384414.31602,523321561.13966,-209994082.65415,   0.10849,   0.06193,  -0.15503,581114969.19955,   0.20729,381114975.43972,   0.10759,   0.05994,  -0.15183,  -6.24017,   1.00000
263263260.05284,523880083.25137,-209762005.98318,   0.10848,   0.06215,  -0.15539,581239885.58070,   0.20772,381239887.47252,   0.10759,   0.06016,  -0.15219,  -1.89181,   1.00000
263720626.59579,524194118.46569,-209679779.23821,   0.10848,   0.06237,  -0.15574,581363974.46923,   0.20814,381363981.97044,   0.10759,   0.06038,  -0.15254,  -7.50121,   1.00000
264377528.40186,525031883.08191,-209269672.43270,   0.10848,   0.06259,  -0.15610,581488358.95081,   0.20856,381488359.51089,   0.10759,   0.06060,  -0.15290,  -0.56008,   1.00000
264819403.70550,525450621.47521,-209120154.51198,   0.10848,   0.06282,  -0.15645,581611441.60102,   0.20897,381611445.27027,   0.10759,   0.06082,  -0.15326,  -3.66925,   1.00000
265462203.69281,526379180.21541,-208649569.25483,   0.10848,   0.06304,  -0.15680,581734797.00494,   0.20939,381734804.16590,   0.10758,   0.06105,  -0.15361,  -7.16096,   1.00000
265806278.97204,526675235.49401,-208575975.29247,   0.10848,   0.06326,  -0.15715,581857378.96659,   0.20981,381857383.02513,   0.10758,   0.06127,  -0.15397,  -4.05854,   1.00000
267069886.85729,527636571.29379,-208079041.90440,   0.10849,   0.06348,  -0.15750,581980669.33103,   0.21023,381980674.53185,   0.10758,   0.06149,  -0.15432,  -5.20082,   1.00000
267434155.78773,528232634.20543,-207813303.63778,   0.10849,   0.06371,  -0.15785,582101711.42145,   0.21064,382101713.31593,   0.10758,   0.06171,  -0.15467,  -1.89447,   1.00000
267768295.65416,528775287.82560,-207580631.29874,   0.10849,   0.06393,  -0.15819,582222520.20909,   0.21105,382222520.91075,   0.10758,   0.06193,  -0.15502,  -0.70165,   1.00000
268784722.82792,529412445.40776,-207283374.04351,   0.10849,   0.06415,  -0.15854,582343522.88174,   0.21147,382343523.88717,   0.10758,   0.06215,  -0.15537,  -1.00543,   1.00000
269700599.04269,529993290.77480,-207020796.74683,   0.10849,   0.06437,  -0.15888,582464268.63524,   0.21188,382464271.78124,   0.10758,   0.06237,  -0.15572,  -3.14600,   1.00000
270614701.84741,530728778.42594,-206657594.16872,   0.10850,   0.06459,  -0.15923,582584265.70985,   0.21229,382584266.54460,   0.10758,   0.06259,  -0.15607,  -0.83475,   1.00000
271440217.92961,531396668.85541,-206336422.48634,   0.10850,   0.06481,  -0.15957,582703991.50211,   0.21270,382703997.47439,   0.10758,   0.06281,  -0.15641,  -5.97227,   1.00000
272186297.54695,532004348.17893,-206052973.39212,   0.10850,   0.06503,  -0.15991,582823469.65021,   0.21311,382823476.87835,   0.10759,   0.06302,  -0.15676,  -7.22814,   1.00000
273655955.47061,532899661.40477,-205575328.03246,   0.10851,   0.06525,  -0.16025,582942631.45281,   0.21352,382942634.11944,   0.10759,   0.06324,  -0.15711,  -2.66663,   1.00000
274128834.14849,533248032.22404,-205456909.34984,   0.10851,   0.06547,  -0.16059,583060069.80039,   0.21393,383060070.83902,   0.10759,   0.06346,  -0.15745,  -1.03863,   1.00000
275496167.09110,534236773.46378,-204914592.13715,   0.10852,   0.06569,  -0.16093,583178236.05369,   0.21433,383178237.05896,   0.10759,   0.06368,  -0.15779,  -1.00527,   1.00000
276496776.58366,534601095.72228,-204776653.79947,   0.10853,   0.06591,  -0.16127,583295596.68082,   0.21474,383295597.74005,   0.10759,   0.06390,  -0.15813,  -1.05922,   1.00000
277717814.48311,535672204.94269,-204176595.62226,   0.10853,   0.06613,  -0.16160,583412742.57004,   0.21514,383412752.25724,   0.10760,   0.06412,  -0.15847,  -9.68720,   1.00000
279292851.63212,536242489.92611,-203891219.37832,   0.10854,   0.06635,  -0.16194,583529518.37582,   0.21555,383529521.39463,   0.10760,   0.06434,  -0.15881,  -3.01881,   1.00000
280097018.20707,536839669.61672,-203598979.64842,   0.10855,   0.06656,  -0.16227,583645109.04265,   0.21595,383645117.04407,   0.10760,   0.06455,  -0.15915,  -8.00143,   1.00000
281525313.49292,537512964.17652,-203243376.68666,   0.10856,   0.06678,  -0.16260,583760904.43759,   0.21635,383760910.80744,   0.10761,   0.06477,  -0.15949,  -6.36985,   1.00000
282901510.18672,538330460.19565,-202791089.97813,   0.10857,   0.06700,  -0.16293,583875951.88968,   0.21675,383875955.09392,   0.10761,   0.06499,  -0.15982,  -3.20424,   1.00000
284141066.18973,539072121.92618,-202388063.85118,   0.10858,   0.06722,  -0.16326,583990715.52933,   0.21715,383990721.14407,   0.10762,   0.06520,  -0.16016,  -5.61474,   1.00000
285955244.20188,539869513.24445,-201931045.97569,   0.10859,   0.06743,  -0.16359,584105655.26016,   0.21755,384105658.04264,   0.10763,   0.06542,  -0.16049,  -2.78248,   1.00000
286981458.21239,540675151.46025,-201484539.04571,   0.10860,   0.06765,  -0.16392,584219386.70536,   0.21795,384219387.27943,   0.10763,   0.06564,  -0.16083,  -0.57406,   1.00000
288382766.57606,541008019.46396,-201335447.33619,   0.10862,   0.06787,  -0.16425,584332777.49217,   0.21834,384332784.07815,   0.10764,   0.06585,  -0.16116,  -6.58598,   1.00000
289955541.78132,542039359.55126,-200718332.60628,   0.10863,   0.06808,  -0.16457,584445989.36060,   0.21874,384445998.90311,   0.10765,   0.06607,  -0.16149,  -9.54251,   1.00000
291939642.21004,542775389.88450,-200276675.21329,   0.10865,   0.06830,  -0.16490,584558350.67012,   0.21913,384558360.16542,   0.10766,   0.06628,  -0.16182,  -9.49530,   1.00000
293030851.80521,543329612.32337,-199980995.67539,   0.10866,   0.06851,  -0.16522,584669996.25515,   0.21952,384669996.99382,   0.10767,   0.06650,  -0.16215,  -0.73866,   1.00000
294827111.18680,544260898.85558,-199408182.52535,   0.10868,   0.06873,  -0.16554,584782825.28346,   0.21992,384782830.96366,   0.10768,   0.06671,  -0.16248,  -5.68020,   1.00000
297105108.10324,545108189.54208,-198864650.85670,   0.10870,   0.06895,  -0.16586,584894352.91007,   0.22031,384894356.00519,   0.10769,   0.06693,  -0.16280,  -3.09511,   1.00000
298346166.93530,545458581.50725,-198687211.07970,   0.10871,   0.06916,  -0.16618,585004141.85723,   0.22069,385004147.20195,   0.10770,   0.06714,  -0.16313,  -5.34472,   1.00000
300361847.88571,546402107.50092,-198078305.29906,   0.10873,   0.06937,  -0.16650,585114690.58604,   0.22108,385114699.21340,   0.10771,   0.06735,  -0.16345,  -8.62737,   1.00000
302077161.16119,547053261.18825,-197672440.11078,   0.10875,   0.06958,  -0.16682,585225398.00169,   0.22147,385225403.96578,   0.10773,   0.06757,  -0.16377,  -5.96409,   1.00000
303700994.94038,547745924.78815,-197236675.25689,   0.10877,   0.06980,  -0.16713,585333945.97980,   0.22185,385333947.26534,   0.10774,   0.06778,  -0.16409,  -1.28554,   1.00000
305856193.98955,548579938.34998,-196675214.47852,   0.10879,   0.07001,  -0.16745,585444111.84126,   0.22224,385444120.59854,   0.10775,   0.06799,  -0.16442,  -8.75728,   1.00000
307781598.62903,549234551.95415,-196237928.27826,   0.10882,   0.07022,  -0.16776,585552551.50755,   0.22263,385552561.50675,   0.10777,   0.06821,  -0.16474,  -9.99920,   1.00000
309610903.64329,550032220.94728,-195703497.81187,   0.10884,   0.07043,  -0.16807,585660276.90291,   0.22301,385660279.74363,   0.10779,   0.06842,  -0.16505,  -2.84072,   1.00000
311932333.47316,550851048.49081,-195118719.77446,   0.10887,   0.07064,  -0.16838,585768170.65870,   0.22339,385768180.02504,   0.10780,   0.06863,  -0.16537,  -9.36634,   1.00000
313242522.93000,551200713.16742,-194906072.23290,   0.10889,   0.07085,  -0.16869,585874332.35653,   0.22377,385874341.71457,   0.10782,   0.06884,  -0.16568,  -9.35804,   1.00000
315866438.35762,552006521.49028,-194295885.83379,   0.10892,   0.07106,  -0.16900,585982206.65053,   0.22415,385982207.20035,   0.10784,   0.06905,  -0.16600,  -0.54982,   1.00000
317651102.09411,552846986.78211,-193709884.23403,   0.10895,   0.07127,  -0.16931,586088829.92665,   0.22453,386088837.31441,   0.10786,   0.06926,  -0.16632,  -7.38776,   1.00000
319931927.29390,553599681.58897,-193139717.42320,   0.10898,   0.07148,  -0.16961,586194237.27659,   0.22490,386194244.99462,   0.10788,   0.06947,  -0.16663,  -7.71803,   1.00000
321879806.92572,554082372.19542,-192770583.15813,   0.10901,   0.07169,  -0.16992,586299796.60103,   0.22528,386299803.03853,   0.10790,   0.06968,  -0.16694,  -6.43750,   1.00000
324395956.26829,554806173.66200,-192185023.69808,   0.10904,   0.07190,  -0.17022,586405147.93916,   0.22565,386405154.90905,   0.10793,   0.06989,  -0.16725,  -6.96989,   1.00000
326757388.42450,555661119.04245,-191511888.13939,   0.10907,   0.07210,  -0.17052,586509764.53449,   0.22603,386509768.10761,   0.10795,   0.07010,  -0.16756,  -3.57313,   1.00000
328794804.48109,556143037.60295,-191111466.81180,   0.10910,   0.07231,  -0.17082,586613108.15279,   0.22640,386613112.96307,   0.10797,   0.07030,  -0.16786,  -4.81027,   1.00000
330708639.95045,556874736.17981,-190545389.37876,   0.10914,   0.07252,  -0.17112,586717160.09413,   0.22677,386717164.57759,   0.10800,   0.07051,  -0.16817,  -4.48346,   1.00000
333109533.07679,557520232.02884,-189984465.47459,   0.10917,   0.07272,  -0.17142,586820038.29209,   0.22714,386820041.34079,   0.10803,   0.07072,  -0.16847,  -3.04870,   1.00000
335335521.79222,557889919.62396,-189619954.20995,   0.10921,   0.07293,  -0.17171,586922438.14470,   0.22750,386922442.18664,   0.10806,   0.07092,  -0.16878,  -4.04194,   2.00000
337265342.13712,558446859.92209,-189149029.53930,   0.10925,   0.07313,  -0.17201,587024787.56323,   0.22787,387024792.77467,   0.10809,   0.07113,  -0.16908,  -5.21144,   1.00000
339821268.62700,558998657.00374,-188608477.98449,   0.10929,   0.07333,  -0.17231,587126761.66423,   0.22824,387126768.66789,   0.10812,   0.07134,  -0.16938,  -7.00366,   2.00000
342049005.70721,559719118.77675,-187976802.75489,   0.10933,   0.07354,  -0.17260,587228644.82113,   0.22860,387228652.30748,   0.10815,   0.07154,  -0.16968,  -7.48636,   1.00000
344171764.11553,560071024.04413,-187600539.10616,   0.10937,   0.07374,  -0.17289,587328706.63006,   0.22896,387328709.44675,   0.10818,   0.07175,  -0.16998,  -2.81669,   2.00000
346133037.13816,560673790.34105,-187063192.61824,   0.10942,   0.07394,  -0.17318,587429460.25626,   0.22933,387429460.43773,   0.10822,   0.07195,  -0.17027,  -0.18147,   2.00000
348476943.13171,560995878.55656,-186665927.41707,   0.10946,   0.07415,  -0.17347,587529515.98912,   0.22969,387529521.35403,   0.10825,   0.07216,  -0.17057,  -5.36491,   2.00000
350694608.25470,561490069.98429,-186155386.18876,   0.10951,   0.07435,  -0.17376,587628922.22821,   0.23005,387628930.09660,   0.10829,   0.07236,  -0.17086,  -7.86839,   2.00000
353186635.29943,561925757.21230,-185640600.47688,   0.10956,   0.07454,  -0.17404,587727816.36664,   0.23040,387727821.95553,   0.10833,   0.07256,  -0.17116,  -5.58889,   1.00000
355664485.04222,562580755.84305,-184964871.51786,   0.10961,   0.07475,  -0.17433,587826801.89879,   0.23076,387826804.46396,   0.10837,   0.07276,  -0.17145,  -2.56517,   2.00000
358469734.30878,562939272.77119,-184437359.92753,   0.10966,   0.07494,  -0.17461,587925082.73793,   0.23112,387925085.18278,   0.10841,   0.07296,  -0.17174,  -2.44484,   2.00000
360908429.74738,563484687.79268,-183818588.15486,   0.10971,   0.07514,  -0.17489,588023242.93800,   0.23147,388023251.02359,   0.10845,   0.07316,  -0.17203,  -8.08559,   1.00000
363292218.92292,563955515.94022,-183247916.58932,   0.10976,   0.07534,  -0.17517,588120571.25438,   0.23183,388120579.72677,   0.10849,   0.07336,  -0.17232,  -8.47239,   2.00000
366045585.54600,564417173.83553,-182616990.25668,   0.10982,   0.07554,  -0.17545,588218154.53162,   0.23218,388218159.61506,   0.10853,   0.07357,  -0.17261,  -5.08344,   2.00000
368602968.06697,564756751.59042,-182086254.42688,   0.10987,   0.07573,  -0.17573,588314145.51775,   0.23253,388314148.43357,   0.10858,   0.07376,  -0.17289,  -2.91581,   2.00000
370899495.10959,565066455.01997,-181606262.46074,   0.10993,   0.07593,  -0.17601,588409869.80674,   0.23288,388409877.64830,   0.10862,   0.07396,  -0.17317,  -7.84156,   2.00000
373709791.56227,565842203.01157,-180706160.74521,   0.10999,   0.07612,  -0.17628,588506401.72196,   0.23323,388506403.08569,   0.10867,   0.07416,  -0.17346,  -1.36373,   2.00000
376787576.66166,566019172.86792,-180160964.38052,   0.11005,   0.07631,  -0.17656,588601315.62142,   0.23358,388601320.45542,   0.10872,   0.07436,  -0.17374,  -4.83400,   2.00000
378969031.73179,566431716.83573,-179593086.63995,   0.11011,   0.07651,  -0.17683,588696329.09030,   0.23392,388696333.49767,   0.10877,   0.07455,  -0.17402,  -4.40738,   2.00000
381627515.86917,566746716.87203,-178996096.99073,   0.11017,   0.07670,  -0.17710,588790343.39955,   0.23427,388790345.93816,   0.10882,   0.07475,  -0.17430,  -2.53861,   2.00000
384616929.60273,567317042.07993,-178145152.23268,   0.11024,   0.07690,  -0.17737,588885520.05231,   0.23462,388885523.69875,   0.10888,   0.07495,  -0.17458,  -3.64644,   2.00000
387285263.03884,567559729.18002,-177567288.11497,   0.11030,   0.07709,  -0.17764,588979479.75608,   0.23496,388979482.80496,   0.10893,   0.07514,  -0.17486,  -3.04888,   2.00000
390376821.62991,567710099.32449,-176954231.71938,   0.11037,   0.07727,  -0.17791,589072453.88797,   0.23530,389072460.13518,   0.10899,   0.07534,  -0.17513,  -6.24721,   2.00000
393275020.40599,568304848.36069,-176049846.98384,   0.11044,   0.07747,  -0.17817,589165670.57054,   0.23564,389165673.84590,   0.10904,   0.07553,  -0.17541,  -3.27537,   2.00000
395872729.97441,568570396.93367,-175421970.04057,   0.11051,   0.07765,  -0.17844,589257670.38595,   0.23598,389257674.81242,   0.10910,   0.07572,  -0.17568,  -4.42647,   2.00000
398776375.66908,568811022.58545,-174731406.04298,   0.11058,   0.07784,  -0.17870,589349957.11588,   0.23632,389349964.67232,   0.10916,   0.07591,  -0.17595,  -7.55644,   2.00000
402070817.83954,569211549.65084,-173822396.95132,   0.11066,   0.07803,  -0.17896,589442155.40454,   0.23666,389442161.58526,   0.10922,   0.07611,  -0.17623,  -6.18072,   2.00000
405029086.72359,569300793.42813,-173186568.55581,   0.11074,   0.07821,  -0.17922,589533151.43531,   0.23699,389533152.99906,   0.10929,   0.07630,  -0.17649,  -1.56375,   2.00000
407794722.86623,569835442.26538,-172263194.72509,   0.11081,   0.07840,  -0.17948,589624376.84685,   0.23733,389624382.45763,   0.10935,   0.07649,  -0.17676,  -5.61078,   2.00000
410844044.04466,570034968.38086,-171490069.48084,   0.11089,   0.07859,  -0.17973,589714976.78040,   0.23766,389714986.61460,   0.10942,   0.07668,  -0.17703,  -9.83421,   2.00000
414126071.46731,570196308.60617,-170665248.15963,   0.11097,   0.07877,  -0.17999,589805863.78653,   0.23800,389805865.05975,   0.10948,   0.07687,  -0.17730,  -1.27322,   2.00000
417210414.20043,570255473.19981,-169938269.58941,   0.11106,   0.07895,  -0.18025,589895209.90682,   0.23833,389895218.18203,   0.10955,   0.07706,  -0.17756,  -8.27521,   2.00000
419973253.64039,570307570.28108,-169279966.84322,   0.11114,   0.07913,  -0.18050,589984282.96849,   0.23866,389984288.38048,   0.10962,   0.07724,  -0.17782,  -5.41199,   2.00000
423088751.44037,570778444.51787,-168211517.18245,   0.11122,   0.07932,  -0.18075,590074171.96479,   0.23899,390074177.89517,   0.10969,   0.07743,  -0.17809,  -5.93038,   2.00000
425936450.53889,570664445.45429,-167608881.27525,   0.11131,   0.07950,  -0.18100,590162004.96541,   0.23932,390162011.56476,   0.10977,   0.07761,  -0.17835,  -6.59934,   2.00000
429114210.59629,570977978.58966,-166589086.16632,   0.11140,   0.07968,  -0.18125,590250679.04140,   0.23965,390250684.68421,   0.10984,   0.07780,  -0.17861,  -5.64281,   2.00000
432518084.46048,570952988.50399,-165718774.41201,   0.11149,   0.07986,  -0.18150,590338760.49276,   0.23997,390338763.11967,   0.10992,   0.07799,  -0.17887,  -2.62692,   2.00000
435040765.62942,570964715.05657,-165060126.33111,   0.11158,   0.08003,  -0.18174,590425933.31153,   0.24030,390425940.66396,   0.11000,   0.07817,  -0.17912,  -7.35242,   2.00000
438464298.41136,571072151.75482,-164039478.57212,   0.11168,   0.08021,  -0.18199,590513712.55919,   0.24062,390513714.44206,   0.11008,   0.07835,  -0.17938,  -1.88287,   2.00000
441699377.84940,571071816.42692,-163124743.39729,   0.11177,   0.08039,  -0.18223,590599982.73949,   0.24095,390599983.70026,   0.11016,   0.07853,  -0.17963,  -0.96076,   2.00000
444413472.32349,571159090.45075,-162291919.77691,   0.11187,   0.08057,  -0.18247,590687098.23851,   0.24127,390687105.66611,   0.11024,   0.07872,  -0.17989,  -7.42760,   2.00000
447709121.79807,571000293.23631,-161419805.88688,   0.11197,   0.08074,  -0.18271,590772218.35794,   0.24159,390772227.72568,   0.11032,   0.07890,  -0.18014,  -9.36774,   2.00000
450966841.50054,570893264.93848,-160496985.65760,   0.11207,   0.08091,  -0.18295,590858804.43418,   0.24191,390858809.94846,   0.11041,   0.07908,  -0.18039,  -5.51428,   2.00000
454197000.97257,570869079.38166,-159493941.38172,   0.11217,   0.08108,  -0.18318,590943609.57358,   0.24223,390943616.01121,   0.11050,   0.07925,  -0.18064,  -6.43764,   2.00000
457340256.23132,570860436.24245,-158483491.15884,   0.11227,   0.08125,  -0.18342,591029052.04642,   0.24255,391029053.68110,   0.11059,   0.07943,  -0.18089,  -1.63468,   1.00000
460377931.90931,570767516.58176,-157544629.20387,   0.11238,   0.08143,  -0.18365,591113829.86869,   0.24286,391113833.94567,   0.11068,   0.07961,  -0.18113,  -4.07698,   2.00000
463700324.95511,570783193.62615,-156393418.50449,   0.11249,   0.08160,  -0.18389,591198610.60455,   0.24318,391198611.22133,   0.11077,   0.07979,  -0.18138,  -0.61679,   2.00000
467104126.93941,570704162.81798,-155246227.17276,   0.11260,   0.08177,  -0.18412,591282851.35115,   0.24350,391282858.16311,   0.11087,   0.07996,  -0.18162,  -6.81195,   1.00000
470609321.92780,570555857.45480,-154074836.59024,   0.11271,   0.08193,  -0.18435,591367382.40583,   0.24381,391367388.35551,   0.11096,   0.08014,  -0.18187,  -5.94969,   1.00000
473930532.17066,570303767.14545,-153015751.34786,   0.11282,   0.08210,  -0.18457,591450444.89233,   0.24413,391450447.21204,   0.11106,   0.08031,  -0.18211,  -2.31972,   1.00000
477052481.03383,570250010.21753,-151863026.53881,   0.11294,   0.08227,  -0.18480,591533682.99563,   0.24444,391533692.70141,   0.11116,   0.08049,  -0.18235,  -9.70578,   2.00000
480132064.74712,569939659.70249,-150884763.42392,   0.11305,   0.08243,  -0.18503,591616721.54054,   0.24475,391616724.72126,   0.11126,   0.08066,  -0.18259,  -3.18072,   1.00000
483665660.81950,569618794.60118,-149682274.59602,   0.11317,   0.08259,  -0.18525,591698691.81670,   0.24506,391698695.26104,   0.11136,   0.08083,  -0.18283,  -3.44434,   1.00000
486598665.35297,569440477.93824,-148608531.44188,   0.11329,   0.08276,  -0.18547,591781403.32985,   0.24537,391781409.17644,   0.11147,   0.08100,  -0.18307,  -5.84659,   1.00000
489994912.59131,569225846.31238,-147316639.96673,   0.11341,   0.08292,  -0.18569,591863064.31482,   0.24568,391863069.72456,   0.11157,   0.08117,  -0.18330,  -5.40974,   1.00000
493316810.41337,568776638.86779,-146193911.15214,   0.11354,   0.08308,  -0.18591,591945303.22332,   0.24599,391945310.59607,   0.11168,   0.08134,  -0.18354,  -7.37275,   1.00000
496490872.44578,568241572.21331,-145166620.03739,   0.11366,   0.08324,  -0.18613,592026147.72028,   0.24630,392026157.69438,   0.11179,   0.08151,  -0.18377,  -9.97410,   1.00000
499866074.88545,567812957.21795,-143925399.25798,   0.11379,   0.08340,  -0.18634,592107063.51728,   0.24660,392107070.72854,   0.11190,   0.08167,  -0.18400,  -7.21127,   1.00000
502865209.10362,567420190.54514,-142808709.61707,   0.11392,   0.08356,  -0.18656,592187640.04705,   0.24691,392187640.93972,   0.11202,   0.08184,  -0.18423,  -0.89267,   1.00000
505663286.92361,567214347.14888,-141625000.60045,   0.11405,   0.08371,  -0.18677,592267613.98005,   0.24721,392267614.40573,   0.11213,   0.08200,  -0.18445,  -0.42568,   1.00000
509062116.25419,566531147.49636,-140444176.07456,   0.11418,   0.08387,  -0.18698,592347815.22355,   0.24751,392347819.80031,   0.11225,   0.08217,  -0.18468,  -4.57676,   1.00000
511680653.72465,566018145.60111,-139519046.95583,   0.11431,   0.08402,  -0.18719,592427034.47345,   0.24781,392427041.36767,   0.11237,   0.08233,  -0.18490,  -6.89422,   1.00000
515033781.03406,565197118.90711,-138385618.62818,   0.11445,   0.08418,  -0.18740,592506293.61734,   0.24811,392506297.57778,   0.11249,   0.08249,  -0.18512,  -3.96044,   1.00000
518028742.96699,564888177.50763,-137032499.11383,   0.11459,   0.08433,  -0.18760,592585720.85126,   0.24842,392585724.40203,   0.11262,   0.08265,  -0.18535,  -3.55077,   1.00000
520781381.11261,563879148.59049,-136302285.08756,   0.11473,   0.08448,  -0.18781,592663579.19600,   0.24871,392663583.69734,   0.11274,   0.08281,  -0.18556,  -4.50134,   1.00000
523749959.36807,563435811.89426,-134992276.16768,   0.11487,   0.08463,  -0.18801,592742097.67121,   0.24901,392742102.70730,   0.11287,   0.08297,  -0.18578,  -5.03610,   1.00000
526870130.90228,562619393.63502,-133828805.89253,   0.11502,   0.08478,  -0.18821,592820218.29425,   0.24931,392820224.74486,   0.11300,   0.08313,  -0.18600,  -6.45062,   1.00000
529636275.37285,561881916.68233,-132784610.80968,   0.11516,   0.08493,  -0.18841,592898039.74889,   0.24961,392898046.41113,   0.11313,   0.08329,  -0.18621,  -6.66223,   1.00000
532578112.21029,561234120.36096,-131527387.98595,   0.11531,   0.08508,  -0.18861,592975999.93945,   0.24990,392976009.74871,   0.11326,   0.08344,  -0.18643,  -9.80926,   1.00000
535308569.98129,560349343.94586,-130543654.50079,   0.11546,   0.08522,  -0.18881,593052934.86300,   0.25020,393052938.23599,   0.11340,   0.08360,  -0.18664,  -3.37300,   1.00000
538206950.09899,559563332.87065,-129339695.91510,   0.11561,   0.08537,  -0.18900,593130036.90157,   0.25049,393130037.32031,   0.11353,   0.08375,  -0.18685,  -0.41873,   1.00000
540902617.54868,558551139.26862,-128400757.94332,   0.11576,   0.08551,  -0.18920,593206125.64720,   0.25078,393206129.49259,   0.11367,   0.08390,  -0.18705,  -3.84540,   1.00000
543758305.72883,557644941.23825,-127236150.70745,   0.11592,   0.08565,  -0.18939,593282412.71108,   0.25107,393282417.83248,   0.11381,   0.08406,  -0.18726,  -5.12140,   1.00000
546617451.30082,556697215.36698,-126059515.10372,   0.11607,   0.08579,  -0.18958,593359097.59466,   0.25137,393359106.98413,   0.11396,   0.08421,  -0.18747,  -9.38947,   1.00000
549407869.50381,555664497.03340,-124951995.67333,   0.11623,   0.08593,  -0.18977,593434576.45330,   0.25166,393434578.26957,   0.11410,   0.08436,  -0.18767,  -1.81627,   1.00000
552062456.51332,554913148.00337,-123694051.36713,   0.11639,   0.08607,  -0.18996,593511160.05607,   0.25195,393511163.57093,   0.11425,   0.08451,  -0.18787,  -3.51486,   1.00000
554810404.57468,553736359.81808,-122643525.80969,   0.11656,   0.08621,  -0.19014,593585841.02016,   0.25224,393585845.05410,   0.11439,   0.08465,  -0.18807,  -4.03394,   1.00000
557412590.89322,552858053.82786,-121440471.70171,   0.11672,   0.08635,  -0.19033,593661644.78569,   0.25253,393661654.54767,   0.11455,   0.08480,  -0.18827,  -9.76198,   1.00000
559853356.15276,551751777.46240,-120495254.45024,   0.11689,   0.08648,  -0.19051,593736506.36283,   0.25282,393736508.67157,   0.11470,   0.08495,  -0.18847,  -2.30875,   1.00000
562578235.17179,550422021.05751,-119454588.91845,   0.11705,   0.08661,  -0.19069,593810928.82233,   0.25310,393810932.31299,   0.11485,   0.08509,  -0.18866,  -3.49065,   1.00000
565260391.39864,549532317.81480,-118074351.00732,   0.11723,   0.08675,  -0.19087,593886253.79803,   0.25339,393886262.50132,   0.11501,   0.08523,  -0.18886,  -8.70329,   1.00000
567916173.58369,548080113.99746,-117091711.98712,   0.11740,   0.08688,  -0.19105,593959962.84841,   0.25368,393959966.30564,   0.11516,   0.08537,  -0.18905,  -3.45723,   1.00000
570242225.13503,547226034.30766,-115895257.13774,   0.11757,   0.08701,  -0.19122,594033894.97291,   0.25396,394033900.15607,   0.11532,   0.08551,  -0.18924,  -5.18316,   1.00000
572722159.00137,545984508.77274,-114820914.11892,   0.11774,   0.08714,  -0.19140,594107612.76277,   0.25425,394107616.25702,   0.11548,   0.08565,  -0.18943,  -3.49425,   1.00000
575305755.21837,544841717.95820,-113538715.75735,   0.11792,   0.08727,  -0.19157,594181582.95094,   0.25453,394181589.82459,   0.11565,   0.08579,  -0.18962,  -6.87365,   1.00000
577997873.33636,543333433.21814,-112386580.59642,   0.11810,   0.08739,  -0.19174,594255351.52475,   0.25482,394255355.65832,   0.11581,   0.08593,  -0.18981,  -4.13357,   1.00000
580111771.15881,542131190.86136,-111485102.52839,   0.11828,   0.08752,  -0.19191,594328187.17275,   0.25510,394328193.40544,   0.11598,   0.08606,  -0.18999,  -6.23269,   1.00000
582611081.51841,540871617.53805,-110232781.48747,   0.11847,   0.08764,  -0.19208,594402035.03455,   0.25538,394402038.92789,   0.11615,   0.08620,  -0.19017,  -3.89334,   1.00000
585084407.64085,539508825.02526,-109033555.98279,   0.11865,   0.08776,  -0.19224,594474796.79833,   0.25567,394474802.56860,   0.11632,   0.08633,  -0.19035,  -5.77026,   1.00000
587508454.91230,538139151.24427,-107840533.46800,   0.11884,   0.08789,  -0.19241,594548039.60319,   0.25595,394548043.27699,   0.11650,   0.08647,  -0.19053,  -3.67380,   1.00000
589761990.58234,537021043.95916,-106579791.48142,   0.11903,   0.08801,  -0.19257,594620856.66191,   0.25623,394620859.26952,   0.11667,   0.08660,  -0.19071,  -2.60761,   1.00000
591903058.21234,535669113.43643,-105566881.03400,   0.11921,   0.08813,  -0.19273,594692813.21681,   0.25651,394692816.58865,   0.11685,   0.08673,  -0.19089,  -3.37185,   1.00000
594520975.37298,533905060.56667,-104328936.95717,   0.11941,   0.08824,  -0.19289,594765187.07160,   0.25679,394765193.57500,   0.11703,   0.08686,  -0.19106,  -6.50340,   1.00000
596667324.15802,532687044.91793,-103120936.92842,   0.11960,   0.08836,  -0.19305,594837971.83388,   0.25708,394837972.48013,   0.11721,   0.08698,  -0.19123,  -0.64625,   1.00000
598713008.56671,531239538.11572,-102152045.03553,   0.11980,   0.08848,  -0.19321,594909919.45367,   0.25735,394909925.53542,   0.11739,   0.08711,  -0.19141,  -6.08175,   1.00000
601000473.19389,529530266.27639,-101072915.74163,   0.12000,   0.08859,  -0.19336,594981624.90027,   0.25763,394981631.13787,   0.11758,   0.08723,  -0.19157,  -6.23760,   1.00000
603127359.76918,528101680.43818,-99910978.16872,   0.12019,   0.08870,  -0.19351,595052968.60642,   0.25791,395052977.69546,   0.11776,   0.08736,  -0.19174,  -9.08904,   1.00000
605204490.24822,526674502.97164,-98760382.13900,   0.12039,   0.08881,  -0.19367,595124837.52577,   0.25819,395124844.91604,   0.11795,   0.08748,  -0.19191,  -7.39028,   1.00000
607499317.79521,524969397.93034,-97517671.84454,   0.12060,   0.08892,  -0.19381,595196461.46872,   0.25847,395196468.74241,   0.11814,   0.08760,  -0.19207,  -7.27369,   1.00000
609515023.20123,523448282.17609,-96413688.09425,   0.12080,   0.08903,  -0.19396,595267900.63105,   0.25875,395267903.57857,   0.11833,   0.08772,  -0.19224,  -2.94752,   1.00000
611587414.87560,522032135.66608,-95115592.99512,   0.12101,   0.08914,  -0.19411,595339701.73401,   0.25903,395339707.22055,   0.11853,   0.08784,  -0.19240,  -5.48654,   1.00000
613564737.03384,520387211.81477,-94057863.54351,   0.12122,   0.08924,  -0.19425,595410731.39637,   0.25931,395410733.09563,   0.11872,   0.08796,  -0.19256,  -1.69926,   1.00000
615591677.34416,518858592.23218,-92802063.73032,   0.12143,   0.08935,  -0.19439,595482149.14449,   0.25959,395482153.20513,   0.11892,   0.08807,  -0.19271,  -4.06064,   1.00000
617528342.08393,517107564.30557,-91779165.09177,   0.12164,   0.08945,  -0.19454,595552814.54218,   0.25986,395552821.91972,   0.11912,   0.08819,  -0.19287,  -7.37754,   1.00000
619508001.32747,515482654.20602,-90555564.87248,   0.12186,   0.08955,  -0.19467,595623902.02041,   0.26014,395623907.85663,   0.11932,   0.08830,  -0.19302,  -5.83622,   1.00000
621567728.25204,513488562.76996,-89449210.15156,   0.12207,   0.08965,  -0.19481,595694979.87296,   0.26042,395694989.32427,   0.11953,   0.08841,  -0.19318,  -9.45132,   1.00000
623477427.78460,511796371.13985,-88262313.47471,   0.12229,   0.08975,  -0.19495,595765768.88974,   0.26070,395765776.10650,   0.11973,   0.08852,  -0.19333,  -7.21676,   1.00000
625153517.70630,510291645.51264,-87210778.28629,   0.12251,   0.08985,  -0.19508,595836409.15951,   0.26098,395836409.31456,   0.11994,   0.08863,  -0.19348,  -0.15505,   1.00000
627037962.23427,508478334.72273,-86049307.05479,   0.12273,   0.08995,  -0.19522,595906917.10561,   0.26125,395906924.24204,   0.12015,   0.08874,  -0.19362,  -7.13643,   1.00000
628940446.03456,506794846.46382,-84707914.62268,   0.12295,   0.09004,  -0.19534,595977865.92846,   0.26153,395977873.79048,   0.12036,   0.08885,  -0.19377,  -7.86202,   1.00000
630760554.07128,504884522.74310,-83600916.31892,   0.12318,   0.09013,  -0.19547,596048115.67396,   0.26181,396048121.89027,   0.12057,   0.08895,  -0.19391,  -6.21631,   1.00000
632496768.65899,503039694.52621,-82518118.71751,   0.12340,   0.09023,  -0.19560,596118977.29235,   0.26209,396118980.11292,   0.12079,   0.08905,  -0.19405,  -2.82057,   1.00000
634268561.79465,501054975.64142,-81429086.58294,   0.12363,   0.09032,  -0.19573,596189036.07928,   0.26236,396189043.79446,   0.12101,   0.08916,  -0.19419,  -7.71518,   1.00000
635953641.61067,499146492.35941,-80364664.69667,   0.12386,   0.09040,  -0.19585,596259728.30206,   0.26264,396259732.76438,   0.12123,   0.08926,  -0.19433,  -4.46232,   1.00000
637525618.28745,497524349.23096,-79214463.19420,   0.12409,   0.09049,  -0.19597,596330166.29330,   0.26292,396330173.01405,   0.12145,   0.08936,  -0.19447,  -6.72075,   1.00000
639273283.43233,495580745.75730,-77962706.74836,   0.12433,   0.09058,  -0.19609,596400559.07099,   0.26320,396400561.57631,   0.12167,   0.08945,  -0.19461,  -2.50532,   1.00000
640801969.80341,493855184.16193,-76856393.05523,   0.12456,   0.09067,  -0.19621,596470827.51743,   0.26348,396470832.49403,   0.12189,   0.08955,  -0.19474,  -4.97659,   1.00000
642499356.90007,491812804.84146,-75642597.85461,   0.12480,   0.09075,  -0.19633,596541076.22841,   0.26376,396541083.08110,   0.12212,   0.08965,  -0.19487,  -6.85269,   1.00000
643983375.23516,490000159.70497,-74570263.82018,   0.12504,   0.09083,  -0.19644,596611230.29677,   0.26403,396611232.86280,   0.12234,   0.08974,  -0.19500,  -2.56602,   1.00000
645483305.52855,488318909.72032,-73318759.77965,   0.12528,   0.09091,  -0.19655,596681885.86132,   0.26431,396681893.67899,   0.12258,   0.08983,  -0.19513,  -7.81768,   1.00000
646940746.73340,486382035.64394,-72280495.22296,   0.12552,   0.09099,  -0.19667,596751930.88330,   0.26459,396751937.55888,   0.12281,   0.08992,  -0.19525,  -6.67558,   1.00000
648550897.56946,484138893.87302,-71125461.48311,   0.12576,   0.09107,  -0.19678,596822012.78326,   0.26487,396822020.38323,   0.12304,   0.09001,  -0.19538,  -7.59996,   1.00000
650055477.03253,482015017.16929,-70016379.35094,   0.12601,   0.09114,  -0.19688,596892769.43696,   0.26515,396892774.43806,   0.12327,   0.09010,  -0.19550,  -5.00110,   1.00000
651358876.30347,480325789.48257,-68914319.14206,   0.12625,   0.09122,  -0.19699,596962589.64266,   0.26543,396962594.06934,   0.12351,   0.09019,  -0.19562,  -4.42668,   1.00000
652826028.04785,478104843.44694,-67828252.72090,   0.12650,   0.09129,  -0.19709,597033327.28396,   0.26571,397033327.35764,   0.12375,   0.09027,  -0.19574,  -0.07368,   1.00000
654188788.88234,476194727.12892,-66658101.10570,   0.12676,   0.09136,  -0.19720,597103881.38176,   0.26599,397103886.15956,   0.12399,   0.09036,  -0.19586,  -4.77780,   1.00000
655516323.67151,474034976.34637,-65684874.91833,   0.12701,   0.09143,  -0.19730,597173888.23721,   0.26627,397173891.41183,   0.12423,   0.09044,  -0.19597,  -3.17463,   1.00000
656840243.28505,472049743.95484,-64529525.82076,   0.12726,   0.09150,  -0.19740,597244486.29737,   0.26655,397244487.12020,   0.12447,   0.09052,  -0.19609,  -0.82283,   1.00000
658075324.92564,470345596.74625,-63297719.43587,   0.12751,   0.09157,  -0.19749,597314896.93946,   0.26683,397314904.69942,   0.12472,   0.09060,  -0.19620,  -7.75997,   1.00000
659364298.85640,468235943.20378,-62186108.69465,   0.12777,   0.09164,  -0.19759,597385511.26400,   0.26711,397385519.51293,   0.12497,   0.09068,  -0.19631,  -8.24893,   1.00000
660695973.63974,465936286.36505,-61045122.68517,   0.12803,   0.09170,  -0.19768,597455508.94800,   0.26739,397455515.62001,   0.12521,   0.09075,  -0.19641,  -6.67201,   1.00000
661927728.28256,463779950.56526,-59961752.22868,   0.12829,   0.09176,  -0.19777,597526222.10742,   0.26767,397526227.56888,   0.12546,   0.09083,  -0.19652,  -5.46146,   1.00000
663002380.17510,461873432.64245,-59008520.81372,   0.12855,   0.09183,  -0.19787,597596900.34592,   0.26795,397596903.80688,   0.12571,   0.09090,  -0.19663,  -3.46096,   1.00000
664278638.43139,459673092.27986,-57712368.47840,   0.12881,   0.09189,  -0.19795,597667631.55230,   0.26824,397667637.22934,   0.12597,   0.09097,  -0.19673,  -5.67704,   1.00000
665389166.70126,457726289.63896,-56571822.84864,   0.12908,   0.09194,  -0.19804,597738319.30969,   0.26852,397738326.55993,   0.12622,   0.09104,  -0.19683,  -7.25025,   1.00000
666540081.58170,455394142.12112,-55542414.58323,   0.12934,   0.09200,  -0.19812,597809280.49432,   0.26880,397809281.36319,   0.12648,   0.09111,  -0.19693,  -0.86886,   1.00000
667611350.02896,453375714.99825,-54421093.30320,   0.12961,   0.09206,  -0.19821,597880127.33849,   0.26909,397880130.39283,   0.12674,   0.09118,  -0.19702,  -3.05434,   1.00000
668718258.87152,450978023.27589,-53409297.33659,   0.12988,   0.09211,  -0.19829,597951258.74738,   0.26937,397951265.58721,   0.12700,   0.09125,  -0.19712,  -6.83983,   1.00000
669748005.25034,448900033.87092,-52303438.40342,   0.13015,   0.09216,  -0.19837,598022305.36221,   0.26966,398022309.78170,   0.12726,   0.09131,  -0.19721,  -4.41949,   1.00000
670824200.35173,446589289.88752,-51155978.27696,   0.13042,   0.09221,  -0.19844,598092802.73696,   0.26994,398092809.91650,   0.12752,   0.09137,  -0.19730,  -7.17954,   1.00000
671808476.69475,444444678.17142,-50080732.91407,   0.13070,   0.09226,  -0.19852,598164056.52966,   0.27023,398164063.45415,   0.12779,   0.09143,  -0.19739,  -6.92449,   1.00000
672728515.49983,442588149.12979,-48918689.06302,   0.13097,   0.09231,  -0.19859,598235213.93660,   0.27051,398235220.44038,   0.12805,   0.09149,  -0.19748,  -6.50378,   1.00000
673682086.48607,440329016.47200,-47872945.69778,   0.13125,   0.09236,  -0.19866,598306679.41413,   0.27080,398306686.74585,   0.12832,   0.09155,  -0.19757,  -7.33172,   1.00000
674676741.52535,437841609.01301,-46773867.50435,   0.13152,   0.09240,  -0.19873,598377651.74611,   0.27109,398377656.29784,   0.12859,   0.09161,  -0.19765,  -4.55173,   1.00000
675579590.07855,435551368.79557,-45747614.73615,   0.13180,   0.09244,  -0.19880,598449408.85882,   0.27138,398449409.11201,   0.12886,   0.09166,  -0.19773,  -0.25319,   1.00000
676422251.96336,433563184.93032,-44628759.97868,   0.13208,   0.09249,  -0.19887,598521086.52146,   0.27167,398521095.80341,   0.12913,   0.09172,  -0.19781,  -9.28194,   1.00000
677345182.63688,431216700.25973,-43404521.78177,   0.13237,   0.09252,  -0.19893,598593052.05130,   0.27196,398593054.04149,   0.12941,   0.09177,  -0.19789,  -1.99019,   1.00000
678241139.86643,428603585.93274,-42362822.18642,   0.13265,   0.09256,  -0.19899,598664613.21732,   0.27225,398664617.47741,   0.12968,   0.09182,  -0.19797,  -4.26008,   1.00000
679018328.56130,426294890.28486,-41448267.67445,   0.13293,   0.09260,  -0.19906,598736216.38360,   0.27254,398736221.75199,   0.12996,   0.09187,  -0.19804,  -5.36839,   1.00000
679776493.26833,424207214.06661,-40372955.78361,   0.13322,   0.09263,  -0.19912,598808546.65338,   0.27283,398808554.98602,   0.13024,   0.09191,  -0.19812,  -8.33264,   1.00000
680575308.56874,421842975.50035,-39240433.92189,   0.13351,   0.09267,  -0.19917,598880429.09821,   0.27312,398880432.46370,   0.13052,   0.09196,  -0.19819,  -3.36549,   1.00000
681268834.43324,419755257.23439,-38246424.61817,   0.13379,   0.09270,  -0.19923,598952329.39764,   0.27341,398952337.14118,   0.13080,   0.09200,  -0.19826,  -7.74354,   1.00000
682029231.38793,417310049.05265,-37132847.89692,   0.13409,   0.09273,  -0.19928,599024576.02414,   0.27370,399024577.95302,   0.13108,   0.09204,  -0.19832,  -1.92888,   1.00000
682757004.94331,415108176.43056,-35888613.32518,   0.13438,   0.09276,  -0.19933,599097561.64641,   0.27400,399097567.72446,   0.13136,   0.09209,  -0.19839,  -6.07805,   1.00000
683445182.52012,412668055.38176,-34869944.70285,   0.13467,   0.09279,  -0.19938,599169413.55734,   0.27429,399169417.79350,   0.13165,   0.09212,  -0.19845,  -4.23616,   1.00000
684081973.67226,410386997.15596,-33885719.16040,   0.13497,   0.09281,  -0.19943,599242866.49337,   0.27459,399242867.48577,   0.13194,   0.09216,  -0.19852,  -0.99240,   1.00000
684732350.23445,407889176.76436,-32871378.86790,   0.13526,   0.09283,  -0.19948,599315142.46185,   0.27488,399315144.17941,   0.13222,   0.09220,  -0.19857,  -1.71756,   1.00000
685354115.12562,405647444.72312,-31718762.75743,   0.13556,   0.09286,  -0.19952,599388193.68705,   0.27518,399388198.43059,   0.13251,   0.09223,  -0.19863,  -4.74354,   1.00000
685960981.26820,403092771.00464,-30730280.68289,   0.13585,   0.09288,  -0.19956,599460914.13095,   0.27548,399460916.42918,   0.13280,   0.09226,  -0.19869,  -2.29823,   1.00000
686539164.79899,400805736.75252,-29603451.69443,   0.13615,   0.09290,  -0.19960,599534419.95984,   0.27578,399534426.62968,   0.13309,   0.09230,  -0.19874,  -6.66985,   1.00000
687138750.62085,398224138.42553,-28415586.69324,   0.13645,   0.09291,  -0.19964,599607560.64789,   0.27608,399607565.17324,   0.13338,   0.09233,  -0.19879,  -4.52534,   1.00000
687655726.04947,395944966.74066,-27374119.89953,   0.13675,   0.09293,  -0.19967,599680763.40418,   0.27637,399680766.78610,   0.13368,   0.09235,  -0.19884,  -3.38192,   1.00000
688171859.18523,393301062.37818,-26444135.79392,   0.13706,   0.09294,  -0.19971,599754438.98282,   0.27668,399754443.25707,   0.13397,   0.09238,  -0.19889,  -4.27425,   1.00000
688650735.77088,390985204.33491,-25408564.77583,   0.13736,   0.09296,  -0.19974,599828144.33613,   0.27698,399828153.72261,   0.13427,   0.09240,  -0.19894,  -9.38648,   1.00000
689147820.96735,388361235.15041,-24296508.99372,   0.13766,   0.09297,  -0.19977,599901517.09039,   0.27728,399901524.60126,   0.13457,   0.09243,  -0.19898,  -7.51087,   1.00000
689584058.38616,386010406.58793,-23290370.91008,   0.13797,   0.09298,  -0.19980,599975756.96998,   0.27758,399975758.68944,   0.13487,   0.09245,  -0.19903,  -1.71946,   1.00000
689990781.01308,383952014.10581,-22188135.96045,   0.13828,   0.09299,  -0.19983,600050012.13793,   0.27788,400050015.88358,   0.13517,   0.09247,  -0.19907,  -3.74565,   1.00000
690413716.99989,381545372.67291,-21015238.51012,   0.13858,   0.09299,  -0.19985,600123932.05688,   0.27819,400123934.90778,   0.13547,   0.09249,  -0.19910,  -2.85089,   1.00000
690822990.88410,378787190.17191,-19973609.99903,   0.13889,   0.09300,  -0.19987,600198363.74188,   0.27849,400198369.43679,   0.13577,   0.09250,  -0.19914,  -5.69491,   1.00000
691198155.39792,376364793.76814,-18839738.17105,   0.13920,   0.09300,  -0.19989,600272857.96330,   0.27880,400272864.63493,   0.13607,   0.09252,  -0.19918,  -6.67163,   1.00000
691553913.57246,373612351.58258,-17857843.33857,   0.13951,   0.09300,  -0.19991,600347089.97597,   0.27910,400347096.85762,   0.13638,   0.09253,  -0.19921,  -6.88164,   1.00000
691884399.99795,371176708.20865,-16753086.38899,   0.13983,   0.09300,  -0.19993,600422180.91577,   0.27941,400422190.35821,   0.13668,   0.09254,  -0.19924,  -9.44244,   1.00000
692168607.47879,369029003.64561,-15785835.96134,   0.14014,   0.09300,  -0.19995,600497354.68953,   0.27972,400497359.88974,   0.13699,   0.09255,  -0.19927,  -5.20021,   1.00000
692482346.49526,365896833.56743,-14735651.36464,   0.14045,   0.09299,  -0.19996,600571905.27173,   0.28003,400571912.75732,   0.13730,   0.09256,  -0.19930,  -7.48559,   1.00000
692728947.27149,363750801.24005,-13788139.02938,   0.14077,   0.09299,  -0.19997,600647707.48929,   0.28034,400647710.10673,   0.13761,   0.09257,  -0.19932,  -2.61744,   1.00000
692993835.43342,361245665.52211,-12523302.30959,   0.14109,   0.09298,  -0.19998,600723203.16896,   0.28065,400723206.50945,   0.13792,   0.09257,  -0.19934,  -3.34049,   1.00000
693217726.46823,358395333.46602,-11644529.27370,   0.14140,   0.09297,  -0.19999,600798483.92276,   0.28096,400798492.57918,   0.13823,   0.09258,  -0.19936,  -8.65642,   1.00000
693434792.00304,355890548.24576,-10430387.86256,   0.14172,   0.09296,  -0.19999,600873850.12597,   0.28127,400873853.86019,   0.13854,   0.09258,  -0.19938,  -3.73422,   1.00000
693627182.34601,353046784.63845,-9359448.42685,   0.14204,   0.09295,  -0.20000,600949791.24074,   0.28159,400949794.53422,   0.13885,   0.09258,  -0.19940,  -3.29348,   1.00000
693786301.98481,350525414.68780,-8432709.00181,   0.14235,   0.09294,  -0.20000,601025040.82542,   0.28190,401025047.38921,   0.13916,   0.09258,  -0.19942,  -6.56379,   1.00000
693934122.41721,348329822.24292,-7378093.03793,   0.14268,   0.09292,  -0.20000,601101980.18262,   0.28222,401101984.41120,   0.13948,   0.09258,  -0.19943,  -4.22858,   1.00000
694066402.91316,345735291.59654,-6245575.18069,   0.14300,   0.09291,  -0.20000,601177872.96076,   0.28253,401177879.36847,   0.13980,   0.09257,  -0.19944,  -6.40771,   1.00000
694171843.50535,342813565.33679,-5248989.86577,   0.14332,   0.09289,  -0.19999,601254372.08380,   0.28285,401254380.47034,   0.14011,   0.09257,  -0.19945,  -8.38654,   1.00000
694261867.49565,340235924.22099,-4153961.06493,   0.14364,   0.09287,  -0.19999,601330992.73851,   0.28317,401330997.04467,   0.14043,   0.09256,  -0.19946,  -4.30616,   1.00000
694326691.86505,337305737.58592,-2974235.50179,   0.14397,   0.09284,  -0.19998,601407413.44780,   0.28349,401407418.01341,   0.14075,   0.09255,  -0.19946,  -4.56561,   1.00000
694373704.58338,334715593.52164,-1940182.99435,   0.14429,   0.09282,  -0.19997,601483961.91262,   0.28380,401483965.73919,   0.14107,   0.09254,  -0.19947,  -3.82657,   1.00000
694392355.69503,331800125.68311,-1032969.51086,   0.14462,   0.09280,  -0.19996,601561133.41542,   0.28412,401561139.45518,   0.14139,   0.09252,  -0.19947,  -6.03975,   1.00000
694399737.77458,329187097.88261,206355.50936,   0.14494,   0.09277,  -0.19994,601637627.25839,   0.28444,401637629.64714,   0.14170,   0.09251,  -0.19947,  -2.38875,   1.00000
694400994.99915,326917051.47559,1291763.86526,   0.14527,   0.09274,  -0.19992,601715032.66589,   0.28477,401715039.12570,   0.14203,   0.09249,  -0.19947,  -6.45980,   1.00000
694373103.20238,324288355.45447,2240921.48019,   0.14560,   0.09271,  -0.19991,601793068.59767,   0.28509,401793068.74394,   0.14235,   0.09247,  -0.19946,  -0.14628,   1.00000
694304332.22580,321246735.32578,3299969.10261,   0.14592,   0.09268,  -0.19989,601870118.91532,   0.28541,401870128.54010,   0.14267,   0.09246,  -0.19946,  -9.62478,   1.00000
694232827.03835,318605677.78141,4445489.71739,   0.14625,   0.09265,  -0.19986,601948139.62005,   0.28574,401948145.39075,   0.14300,   0.09243,  -0.19945,  -5.77070,   1.00000
694119469.60380,315539068.10847,5458953.72958,   0.14658,   0.09261,  -0.19984,602025191.76406,   0.28606,402025197.06344,   0.14332,   0.09241,  -0.19944,  -5.29938,   1.00000
694007376.93771,312880417.88953,6562407.79011,   0.14691,   0.09257,  -0.19982,602103207.61146,   0.28639,402103213.02024,   0.14364,   0.09239,  -0.19943,  -5.40878,   1.00000
693861356.47969,309910035.15954,7523637.89148,   0.14724,   0.09253,  -0.19979,602181891.04898,   0.28672,402181898.69676,   0.14397,   0.09236,  -0.19941,  -7.64778,   1.00000
693697740.85353,307210998.45585,8821178.78951,   0.14757,   0.09250,  -0.19976,602259924.97348,   0.28704,402259933.18009,   0.14430,   0.09233,  -0.19940,  -8.20661,   1.00000
693503390.48763,304137980.29575,9741787.90245,   0.14790,   0.09245,  -0.19973,602337820.87767,   0.28737,402337821.46724,   0.14462,   0.09230,  -0.19938,  -0.58957,   1.00000
693304926.40878,301481724.33880,10980147.99748,   0.14823,   0.09241,  -0.19969,602416697.42531,   0.28770,402416703.25607,   0.14495,   0.09227,  -0.19936,  -5.83076,   1.00000
693061630.07890,298439234.17981,12071326.55527,   0.14857,   0.09236,  -0.19965,602495450.80416,   0.28803,402495459.93502,   0.14528,   0.09224,  -0.19934,  -9.13087,   1.00000
692838516.08295,295746458.30679,13028398.67204,   0.14890,   0.09232,  -0.19962,602574358.21219,   0.28836,402574360.59872,   0.14561,   0.09221,  -0.19931,  -2.38652,   1.00000
692550892.44951,292659776.65930,14096457.24215,   0.14923,   0.09227,  -0.19958,602653154.24194,   0.28869,402653161.65843,   0.14594,   0.09217,  -0.19929,  -7.41650,   1.00000
692269388.21233,289919724.98944,15255824.52196,   0.14957,   0.09222,  -0.19954,602732131.78844,   0.28902,402732135.21072,   0.14626,   0.09213,  -0.19926,  -3.42228,   1.00000
691938049.89035,286789481.43804,16280625.55091,   0.14990,   0.09217,  -0.19949,602810993.04778,   0.28936,402811001.61382,   0.14659,   0.09209,  -0.19923,  -8.56604,   1.00000
691629081.66680,284104716.33834,17380066.52084,   0.15024,   0.09211,  -0.19945,602890862.86944,   0.28969,402890866.50570,   0.14693,   0.09205,  -0.19920,  -3.63626,   1.00000
691244616.07541,281013595.11219,18574032.81117,   0.15057,   0.09206,  -0.19940,602970653.77217,   0.29003,402970658.14829,   0.14726,   0.09201,  -0.19916,  -4.37613,   1.00000
690879622.74560,278171470.74670,19646985.83697,   0.15091,   0.09200,  -0.19935,603049775.43471,   0.29036,403049781.28207,   0.14759,   0.09197,  -0.19913,  -5.84736,   1.00000
690450981.88435,275037531.21035,20793619.61204,   0.15124,   0.09194,  -0.19929,603129664.60772,   0.29070,403129672.53190,   0.14792,   0.09192,  -0.19909,  -7.92417,   1.00000
690063219.62106,272259583.67354,21800309.94122,   0.15158,   0.09188,  -0.19924,603209717.78812,   0.29104,403209718.38160,   0.14825,   0.09187,  -0.19905,  -0.59348,   1.00000
689588558.20375,269071977.05593,22915218.09557,   0.15191,   0.09182,  -0.19919,603289709.33738,   0.29138,403289714.69899,   0.14858,   0.09182,  -0.19901,  -5.36161,   1.00000
689129927.50032,266235884.69742,24116022.95807,   0.15225,   0.09176,  -0.19913,603369899.02351,   0.29172,403369908.68721,   0.14892,   0.09177,  -0.19897,  -9.66370,   1.00000
688611006.53159,262998263.69326,25180871.88488,   0.15259,   0.09169,  -0.19907,603450026.82151,   0.29206,403450032.94521,   0.14925,   0.09172,  -0.19892,  -6.12369,   1.00000
688110402.63669,260115651.31346,26338137.06947,   0.15292,   0.09162,  -0.19900,603530351.44101,   0.29240,403530359.68542,   0.14958,   0.09167,  -0.19887,  -8.24441,   1.00000
687538830.04905,256951893.56350,27551881.55324,   0.15326,   0.09156,  -0.19894,603611491.50999,   0.29274,403611496.74546,   0.14992,   0.09161,  -0.19882,  -5.23547,   1.00000
686996250.91647,254011163.06350,28654187.60211,   0.15360,   0.09149,  -0.19887,603691966.50279,   0.29308,403691969.12024,   0.15025,   0.09155,  -0.19877,  -2.61745,   1.00000
686380261.09521,250797228.48641,29817769.20793,   0.15394,   0.09141,  -0.19880,603773255.07905,   0.29343,403773264.42879,   0.15059,   0.09149,  -0.19872,  -9.34974,   1.00000
685668159.96184,247068913.00754,30890675.62018,   0.15428,   0.09134,  -0.19873,603853697.44281,   0.29377,403853702.91224,   0.15092,   0.09143,  -0.19866,  -5.46944,   1.00000
685017985.86831,243890809.10720,32015365.93195,   0.15461,   0.09126,  -0.19866,603935201.71531,   0.29412,403935209.51399,   0.15126,   0.09137,  -0.19860,  -7.79869,   1.00000
684358101.11092,240907418.94527,33266554.26410,   0.15495,   0.09119,  -0.19859,604016094.30868,   0.29446,404016102.18753,   0.15159,   0.09131,  -0.19854,  -7.87885,   1.00000
683664031.09090,237669491.65385,34336222.45420,   0.15529,   0.09111,  -0.19851,604097790.47463,   0.29481,404097793.44676,   0.15193,   0.09124,  -0.19848,  -2.97213,   1.00000
682958488.39133,234623409.71106,35542066.85301,   0.15563,   0.09103,  -0.19843,604178870.50217,   0.29516,404178874.45478,   0.15226,   0.09118,  -0.19842,  -3.95261,   1.00000
682174908.54005,231321150.31972,36790113.75688,   0.15597,   0.09095,  -0.19835,604260815.60437,   0.29551,404260824.88526,   0.15260,   0.09111,  -0.19835,  -9.28089,   1.00000
681319581.11646,227639564.70932,37900451.18623,   0.15631,   0.09086,  -0.19827,604342769.26330,   0.29586,404342776.01995,   0.15293,   0.09104,  -0.19828,  -6.75665,   1.00000
680455382.07393,224182345.62341,39146657.13421,   0.15664,   0.09077,  -0.19818,604424147.21083,   0.29621,404424148.90418,   0.15327,   0.09096,  -0.19821,  -1.69335,   1.00000
679724632.59315,221278288.59377,40194461.13137,   0.15698,   0.09069,  -0.19809,604506524.24814,   0.29656,404506529.52295,   0.15360,   0.09089,  -0.19814,  -5.27482,   1.00000
678808630.05278,217753807.32627,41400828.84138,   0.15732,   0.09060,  -0.19801,604588123.50687,   0.29691,404588127.69824,   0.15394,   0.09082,  -0.19807,  -4.19137,   1.00000
677984433.94507,214784883.32023,42630758.53994,   0.15766,   0.09051,  -0.19791,604670799.65709,   0.29726,404670806.59483,   0.15427,   0.09074,  -0.19799,  -6.93774,   1.00000
677075649.48761,211387695.76182,43726568.06651,   0.15800,   0.09042,  -0.19782,604753478.62709,   0.29762,404753484.03088,   0.15461,   0.09066,  -0.19792,  -5.40379,   1.00000
675972727.80314,207402947.85406,44979663.21027,   0.15833,   0.09032,  -0.19772,604835420.09738,   0.29797,404835425.19639,   0.15495,   0.09058,  -0.19784,  -5.09900,   1.00000
675036187.30312,204044777.11179,46028074.70156,   0.15867,   0.09023,  -0.19763,604918397.66771,   0.29833,404918402.97220,   0.15528,   0.09050,  -0.19775,  -5.30449,   1.00000
674020197.43017,200831060.47519,47447838.36422,   0.15901,   0.09013,  -0.19753,605000861.53667,   0.29868,405000869.90967,   0.15562,   0.09042,  -0.19767,  -8.37301,   1.00000
672976478.30038,197212564.08933,48494224.73844,   0.15935,   0.09003,  -0.19743,605083290.48305,   0.29904,405083293.46049,   0.15595,   0.09033,  -0.19758,  -2.97744,   1.00000
671794300.59036,193405260.10718,49806855.70660,   0.15969,   0.08993,  -0.19732,605166749.02439,   0.29940,405166753.33756,   0.15629,   0.09024,  -0.19750,  -4.31317,   1.00000
670657988.72676,189797501.74634,51026256.18094,   0.16002,   0.08983,  -0.19722,605249580.90455,   0.29975,405249583.60108,   0.15662,   0.09016,  -0.19741,  -2.69653,   1.00000
669572869.28788,186565527.45201,52320616.30898,   0.16036,   0.08973,  -0.19711,605332675.86217,   0.30011,405332683.34347,   0.15696,   0.09007,  -0.19731,  -7.48130,   1.00000
668264260.30054,182362379.99820,53423711.81941,   0.16070,   0.08962,  -0.19700,605416531.99362,   0.30048,405416538.32711,   0.15730,   0.08997,  -0.19722,  -6.33349,   1.00000
667149476.06102,179146337.51045,54668003.57932,   0.16103,   0.08951,  -0.19689,605499975.46623,   0.30084,405499976.62333,   0.15763,   0.08988,  -0.19712,  -1.15710,   1.00000
665868850.34521,175490456.55659,55996570.74058,   0.16137,   0.08940,  -0.19677,605583557.77936,   0.30120,405583558.00592,   0.15797,   0.08979,  -0.19703,  -0.22656,   1.00000
664410396.94757,171215287.88695,57251309.24920,   0.16170,   0.08929,  -0.19666,605666385.25019,   0.30156,405666392.66338,   0.15830,   0.08969,  -0.19693,  -7.41320,   1.00000
663112325.97567,167618239.63334,58507539.41942,   0.16204,   0.08918,  -0.19654,605750366.78997,   0.30192,405750369.02288,   0.15863,   0.08959,  -0.19682,  -2.23291,   1.00000
661874418.31704,164392691.48578,59833654.04838,   0.16238,   0.08907,  -0.19642,605834617.74158,   0.30229,405834626.09650,   0.15897,   0.08949,  -0.19672,  -8.35492,   1.00000
660531685.22235,160731275.85586,61016997.43295,   0.16271,   0.08895,  -0.19629,605918948.07732,   0.30265,405918954.09200,   0.15930,   0.08939,  -0.19661,  -6.01469,   1.00000
658916094.53881,156416965.98918,62364984.41909,   0.16305,   0.08883,  -0.19617,606002643.87799,   0.30302,406002645.26385,   0.15964,   0.08929,  -0.19651,  -1.38586,   1.00000
657454905.45909,152553947.34680,63557290.81476,   0.16338,   0.08871,  -0.19604,606086550.07362,   0.30338,406086557.52991,   0.15997,   0.08918,  -0.19640,  -7.45629,   1.00000
655817182.97023,148302671.09284,64839464.55099,   0.16371,   0.08859,  -0.19591,606170675.83230,   0.30375,406170681.97335,   0.16030,   0.08908,  -0.19628,  -6.14105,   1.00000
654261038.52711,144485775.95948,66189220.84948,   0.16405,   0.08847,  -0.19578,606255120.41345,   0.30411,406255128.04643,   0.16063,   0.08897,  -0.19617,  -7.63298,   1.00000
652857613.38922,141066747.67425,67383284.96353,   0.16438,   0.08835,  -0.19565,606339765.90844,   0.30448,406339768.04121,   0.16097,   0.08886,  -0.19605,  -2.13277,   1.00000
651180444.28999,137200712.00043,68880008.17093,   0.16471,   0.08822,  -0.19551,606424729.35944,   0.30485,406424731.08343,   0.16130,   0.08875,  -0.19593,  -1.72399,   1.00000
649484674.09106,132957771.60029,69999911.00520,   0.16504,   0.08809,  -0.19538,606509718.45025,   0.30523,406509719.64136,   0.16163,   0.08864,  -0.19581,  -1.19111,   1.00000
647666073.89430,128858148.68236,71502785.53560,   0.16537,   0.08796,  -0.19524,606594312.14541,   0.30560,406594317.75508,   0.16196,   0.08852,  -0.19569,  -5.60967,   1.00000
645749933.50153,124389845.23252,72843265.65475,   0.16570,   0.08783,  -0.19509,606679074.94884,   0.30597,406679077.92284,   0.16229,   0.08841,  -0.19557,  -2.97400,   1.00000
644015759.69223,120380323.66400,74030889.10339,   0.16603,   0.08770,  -0.19495,606764050.58742,   0.30634,406764057.82345,   0.16262,   0.08829,  -0.19544,  -7.23602,   1.00000
642280623.83604,116768581.99743,75509756.66281,   0.16636,   0.08757,  -0.19480,606849465.56867,   0.30671,406849474.15059,   0.16295,   0.08817,  -0.19531,  -8.58192,   1.00000
640431225.25442,112734552.06047,76828012.73641,   0.16669,   0.08743,  -0.19465,606935035.09654,   0.30709,406935039.45973,   0.16328,   0.08805,  -0.19518,  -4.36320,   1.00000
638472098.83009,108320791.22983,78004248.61279,   0.16702,   0.08730,  -0.19451,607020757.69997,   0.30746,407020763.63271,   0.16361,   0.08793,  -0.19505,  -5.93274,   1.00000
636462341.40888,104045486.53713,79349331.28599,   0.16735,   0.08716,  -0.19435,607105996.06047,   0.30784,407106001.89006,   0.16394,   0.08781,  -0.19491,  -5.82959,   1.00000
634255860.29937,99403249.23352,80761320.68209,   0.16768,   0.08701,  -0.19420,607191552.70644,   0.30822,407191554.59388,   0.16427,   0.08768,  -0.19478,  -1.88744,   1.00000
632166090.37802,95226254.53944,82224742.83903,   0.16800,   0.08687,  -0.19404,607277466.52476,   0.30859,407277471.39445,   0.16459,   0.08756,  -0.19464,  -4.86968,   1.00000
630111904.11108,91150317.79632,83616291.58093,   0.16833,   0.08673,  -0.19388,607362778.31551,   0.30897,407362783.48808,   0.16492,   0.08743,  -0.19450,  -5.17257,   1.00000
628016887.33784,87007279.82738,84972801.75716,   0.16865,   0.08659,  -0.19372,607449230.46040,   0.30935,407449236.12905,   0.16525,   0.08730,  -0.19435,  -5.66865,   1.00000
625633766.92875,82156023.47302,86277106.23316,   0.16897,   0.08644,  -0.19356,607535066.68582,   0.30973,407535068.24093,   0.16557,   0.08717,  -0.19421,  -1.55511,   1.00000
623281887.61255,77785914.29571,87854737.38143,   0.16930,   0.08629,  -0.19339,607621406.00696,   0.31011,407621414.48065,   0.16590,   0.08703,  -0.19406,  -8.47370,   1.00000
621247854.91727,73853970.78861,89045161.52081,   0.16962,   0.08614,  -0.19323,607707830.85444,   0.31049,407707835.41735,   0.16622,   0.08690,  -0.19391,  -4.56291,   1.00000
618698285.38270,69172025.75007,90623261.79062,   0.16994,   0.08599,  -0.19306,607793921.06746,   0.31087,407793929.81137,   0.16654,   0.08676,  -0.19376,  -8.74391,   1.00000
616050402.63827,64154544.92472,92027085.24094,   0.17026,   0.08583,  -0.19288,607880271.30937,   0.31125,407880274.39486,   0.16687,   0.08663,  -0.19361,  -3.08549,   1.00000
613546594.84801,59634528.05633,93482144.66163,   0.17058,   0.08568,  -0.19271,607967000.31612,   0.31164,407967006.41496,   0.16719,   0.08649,  -0.19345,  -6.09884,   1.00000
611276824.47101,55561574.76159,94774569.76899,   0.17090,   0.08552,  -0.19253,608053944.12598,   0.31202,408053952.03376,   0.16751,   0.08635,  -0.19329,  -7.90777,   1.00000
608566120.48153,50734060.05666,96234403.55039,   0.17122,   0.08537,  -0.19236,608140459.94565,   0.31241,408140468.60548,   0.16783,   0.08621,  -0.19313,  -8.65982,   1.00000
605649945.90735,45583141.92569,97738293.29249,   0.17153,   0.08520,  -0.19218,608227403.43642,   0.31279,408227409.92360,   0.16815,   0.08606,  -0.19297,  -6.48719,   1.00000
602896328.31295,40941198.05006,99280692.23037,   0.17185,   0.08504,  -0.19199,608314749.08892,   0.31318,408314757.34856,   0.16847,   0.08592,  -0.19281,  -8.25963,   1.00000
600172765.84481,36381194.31216,100757935.79270,   0.17216,   0.08488,  -0.19181,608401531.08119,   0.31357,408401532.90768,   0.16879,   0.08577,  -0.19264,  -1.82649,   1.00000
597334819.19949,31464559.27703,102069114.58100,   0.17248,   0.08472,  -0.19162,608488570.43144,   0.31396,408488573.21092,   0.16910,   0.08562,  -0.19247,  -2.77949,   1.00000
594173929.84356,26239368.60692,103641368.02350,   0.17279,   0.08455,  -0.19143,608576218.81420,   0.31435,408576227.21629,   0.16942,   0.08547,  -0.19230,  -8.40208,   1.00000
591300110.65490,21522790.64482,105038699.88572,   0.17310,   0.08438,  -0.19124,608664117.80948,   0.31474,408664124.94675,   0.16974,   0.08532,  -0.19213,  -7.13727,   1.00000
588443697.16778,16875010.42969,106391664.16408,   0.17341,   0.08421,  -0.19105,608751440.07822,   0.31513,408751442.88796,   0.17005,   0.08517,  -0.19196,  -2.80974,   1.00000
585248562.34847,11894700.49370,107995983.07188,   0.17372,   0.08404,  -0.19085,608839391.25706,   0.31552,408839394.97506,   0.17037,   0.08501,  -0.19178,  -3.71800,   1.00000
582084292.38410,6996935.01344,109534723.56720,   0.17403,   0.08387,  -0.19065,608926794.92248,   0.31591,408926800.44885,   0.17068,   0.08486,  -0.19160,  -5.52637,   1.00000
578969978.79497,2183465.15650,110984984.41429,   0.17434,   0.08369,  -0.19045,609015470.56450,   0.31631,409015478.71277,   0.17099,   0.08470,  -0.19142,  -8.14827,   1.00000
575870339.33133,-2570770.73117,112388451.02023,   0.17465,   0.08352,  -0.19025,609103586.39990,   0.31670,409103590.96470,   0.17130,   0.08454,  -0.19124,  -4.56480,   1.00000
572264409.33218,-8062357.14621,113942712.20058,   0.17495,   0.08334,  -0.19005,609191415.59286,   0.31710,409191423.47521,   0.17161,   0.08438,  -0.19105,  -7.88235,   1.00000
568461960.63173,-13811388.16642,115514592.81478,   0.17525,   0.08316,  -0.18984,609279794.00598,   0.31750,409279798.44102,   0.17192,   0.08422,  -0.19087,  -4.43504,   1.00000
565404285.17117,-18218270.26938,116926088.41269,   0.17556,   0.08298,  -0.18963,609368303.73324,   0.31789,409368307.79717,   0.17223,   0.08405,  -0.19068,  -4.06393,   1.00000
561392362.33145,-24197851.33749,118470849.64123,   0.17586,   0.08280,  -0.18942,609456672.83514,   0.31829,409456678.77122,   0.17254,   0.08389,  -0.19048,  -5.93608,   1.00000
558033402.18613,-28800917.43820,120059590.31890,   0.17616,   0.08262,  -0.18920,609545371.91865,   0.31869,409545373.82822,   0.17284,   0.08372,  -0.19029,  -1.90957,   1.00000
554559333.56882,-33760449.24355,121457960.27259,   0.17646,   0.08243,  -0.18899,609634401.05988,   0.31909,409634407.71200,   0.17315,   0.08355,  -0.19010,  -6.65211,   1.00000
550542773.37637,-39452944.64499,123001355.82782,   0.17675,   0.08224,  -0.18877,609723227.64290,   0.31949,409723232.41555,   0.17345,   0.08338,  -0.18990,  -4.77266,   1.00000
546763139.68151,-44587461.63299,124571974.22608,   0.17705,   0.08206,  -0.18855,609812498.60091,   0.31989,409812501.06218,   0.17376,   0.08321,  -0.18970,  -2.46127,   1.00000
542890353.65736,-50024895.69902,125949933.14730,   0.17735,   0.08186,  -0.18833,609902136.88842,   0.32030,409902140.62951,   0.17406,   0.08303,  -0.18949,  -3.74110,   1.00000
538908527.01637,-55368999.09190,127491991.84436,   0.17764,   0.08167,  -0.18811,609991455.88090,   0.32070,409991458.78655,   0.17436,   0.08286,  -0.18929,  -2.90565,   1.00000
534378736.03042,-61418474.02427,129157257.26707,   0.17793,   0.08148,  -0.18788,610080634.26502,   0.32110,410080642.38469,   0.17466,   0.08268,  -0.18908,  -8.11967,   1.00000
530242549.62439,-66902423.21687,130639341.85522,   0.17822,   0.08128,  -0.18765,610170074.69075,   0.32151,410170080.00145,   0.17496,   0.08251,  -0.18888,  -5.31070,   1.00000
526351002.95882,-71846920.26653,132152872.27082,   0.17851,   0.08109,  -0.18742,610259946.05382,   0.32192,410259950.85716,   0.17526,   0.08233,  -0.18866,  -4.80333,   1.00000
522237634.86434,-77079906.04419,133666445.87082,   0.17880,   0.08089,  -0.18719,610350426.61390,   0.32233,410350429.02177,   0.17556,   0.08214,  -0.18845,  -2.40786,   1.00000
518120308.44014,-82284218.16105,135135726.51341,   0.17909,   0.08069,  -0.18695,610440385.95981,   0.32274,410440392.27850,   0.17585,   0.08196,  -0.18824,  -6.31869,   1.00000
513413055.87934,-88211994.22838,136728061.18423,   0.17937,   0.08049,  -0.18671,610530260.95413,   0.32314,410530266.91760,   0.17615,   0.08178,  -0.18802,  -5.96348,   1.00000
508534061.55111,-94328210.20749,138303962.11300,   0.17966,   0.08029,  -0.18647,610620805.95304,   0.32356,410620814.31048,   0.17644,   0.08159,  -0.18780,  -8.35744,   1.00000
504542262.02169,-99104997.02336,139739084.37293,   0.17994,   0.08009,  -0.18623,610711379.52468,   0.32397,410711381.19324,   0.17673,   0.08141,  -0.18758,  -1.66857,   1.00000
499454853.37457,-105412910.91953,141260020.11420,   0.18022,   0.07988,  -0.18599,610802097.37937,   0.32438,410802102.24497,   0.17702,   0.08122,  -0.18735,  -4.86559,   1.00000
494686339.69781,-111095922.62375,142800665.98465,   0.18050,   0.07967,  -0.18574,610893284.16861,   0.32480,410893294.02642,   0.17731,   0.08103,  -0.18712,  -9.85781,   1.00000
489922265.64338,-116730984.10367,144294143.17904,   0.18078,   0.07946,  -0.18549,610984006.74087,   0.32521,410984007.23238,   0.17760,   0.08083,  -0.18690,  -0.49152,   1.00000
485451850.05813,-121805388.56422,145810550.27718,   0.18105,   0.07926,  -0.18524,611075160.96639,   0.32563,411075167.03961,   0.17789,   0.08064,  -0.18667,  -6.07323,   1.00000
480349192.45557,-127612267.34761,147428618.87525,   0.18133,   0.07905,  -0.18499,611166327.62985,   0.32604,411166330.41224,   0.17817,   0.08045,  -0.18643,  -2.78239,   1.00000
475209582.61624,-133639339.52224,148824263.55189,   0.18160,   0.07883,  -0.18474,611257964.77347,   0.32646,411257970.43608,   0.17846,   0.08025,  -0.18620,  -5.66261,   1.00000
469952419.92268,-139551534.82804,150372408.02392,   0.18187,   0.07862,  -0.18448,611349386.72182,   0.32688,411349392.41651,   0.17874,   0.08005,  -0.18596,  -5.69469,   1.00000
464543736.68500,-145620204.89025,151885570.48538,   0.18214,   0.07840,  -0.18422,611441543.44230,   0.32730,411441552.14178,   0.17903,   0.07985,  -0.18572,  -8.69948,   1.00000
459147441.45165,-151621871.04694,153352066.79590,   0.18241,   0.07818,  -0.18396,611533260.01323,   0.32772,411533265.02332,   0.17931,   0.07965,  -0.18548,  -5.01010,   1.00000
454097044.21525,-157019817.57911,154837640.49991,   0.18268,   0.07796,  -0.18369,611625431.51036,   0.32815,411625437.10249,   0.17959,   0.07945,  -0.18523,  -5.59213,   1.00000
448402834.01596,-163106888.47302,156409714.86401,   0.18294,   0.07774,  -0.18343,611717701.53498,   0.32857,411717703.91252,   0.17986,   0.07924,  -0.18499,  -2.37754,   1.00000
443201745.12555,-168633929.14556,157805424.14864,   0.18320,   0.07752,  -0.18316,611810179.95640,   0.32900,411810181.95927,   0.18014,   0.07904,  -0.18474,  -2.00287,   1.00000
437350582.06878,-174831586.21385,159290813.73650,   0.18346,   0.07730,  -0.18289,611902771.02747,   0.32942,411902776.56252,   0.18041,   0.07883,  -0.18449,  -5.53505,   1.00000
431885773.76994,-180399066.79794,160787607.80150,   0.18372,   0.07707,  -0.18262,611995833.24187,   0.32985,411995841.51293,   0.18069,   0.07862,  -0.18423,  -8.27106,   1.00000
425896464.67706,-186686490.06491,162176784.21549,   0.18398,   0.07685,  -0.18234,612088791.21759,   0.33028,412088793.79491,   0.18096,   0.07841,  -0.18398,  -2.57732,   1.00000
420306217.69837,-192330999.98919,163585453.60519,   0.18424,   0.07662,  -0.18207,612182201.01372,   0.33071,412182208.40203,   0.18123,   0.07820,  -0.18372,  -7.38831,   1.00000
414570273.35432,-197899749.71477,165131320.56794,   0.18449,   0.07639,  -0.18179,612275456.73478,   0.33114,412275465.29060,   0.18150,   0.07798,  -0.18346,  -8.55582,   1.00000
408829848.33268,-203673511.23966,166436714.54346,   0.18475,   0.07616,  -0.18150,612369246.95968,   0.33158,412369250.56865,   0.18177,   0.07777,  -0.18319,  -3.60897,   1.00000
402436089.82506,-210067613.14682,167818562.17127,   0.18500,   0.07593,  -0.18122,612463228.89483,   0.33201,412463237.35434,   0.18204,   0.07755,  -0.18293,  -8.45951,   1.00000
396450625.57570,-215603648.61896,169402406.36419,   0.18524,   0.07569,  -0.18093,612556739.44093,   0.33244,412556747.45118,   0.18230,   0.07733,  -0.18266,  -8.01025,   1.00000
389852720.04980,-221965807.27285,170835074.03725,   0.18549,   0.07546,  -0.18064,612651454.10406,   0.33288,412651462.46310,   0.18257,   0.07711,  -0.18239,  -8.35904,   1.00000
384341841.29412,-227038250.93021,172174636.64450,   0.18574,   0.07522,  -0.18035,612745978.58534,   0.33332,412745986.72858,   0.18283,   0.07689,  -0.18212,  -8.14323,   1.00000
377175298.74914,-234063104.44961,173439379.94316,   0.18598,   0.07498,  -0.18006,612840288.93605,   0.33376,412840289.90349,   0.18309,   0.07667,  -0.18184,  -0.96744,   1.00000
371480466.88646,-239071025.16353,174859031.87463,   0.18622,   0.07475,  -0.17977,612935519.84046,   0.33420,412935521.17693,   0.18335,   0.07644,  -0.18157,  -1.33647,   1.00000
364631194.60309,-245334160.00295,176261902.24485,   0.18646,   0.07450,  -0.17947,613030195.44698,   0.33464,413030200.53930,   0.18361,   0.07622,  -0.18129,  -5.09232,   1.00000
357754173.73981,-251613926.22582,177585318.18560,   0.18670,   0.07426,  -0.17917,613125749.48587,   0.33509,413125754.23227,   0.18386,   0.07599,  -0.18101,  -4.74641,   1.00000
351481681.72255,-257307431.27445,178750506.25099,   0.18694,   0.07402,  -0.17887,613221465.61791,   0.33554,413221467.18388,   0.18412,   0.07576,  -0.18072,  -1.56597,   1.00000
345059430.86792,-262899694.86521,180055143.57040,   0.18717,   0.07377,  -0.17857,613317082.47457,   0.33598,413317083.99341,   0.18437,   0.07553,  -0.18043,  -1.51884,   1.00000
337980654.66333,-269066006.71429,181391865.31947,   0.18740,   0.07353,  -0.17826,613413050.40324,   0.33643,413413055.06997,   0.18462,   0.07529,  -0.18014,  -4.66673,   1.00000
331527020.36704,-274655328.52527,182566996.08321,   0.18763,   0.07328,  -0.17795,613509169.93246,   0.33688,413509179.29086,   0.18487,   0.07506,  -0.17985,  -9.35840,   1.00000
324925120.32660,-280145056.51050,183872801.88903,   0.18786,   0.07303,  -0.17764,613605226.93803,   0.33733,413605232.71513,   0.18512,   0.07482,  -0.17956,  -5.77710,   1.00000
317779195.58132,-286333247.56254,184995322.39534,   0.18809,   0.07278,  -0.17733,613702617.56579,   0.33779,413702619.30323,   0.18536,   0.07458,  -0.17926,  -1.73745,   1.00000
311052687.42138,-291702945.03648,186342394.15629,   0.18831,   0.07253,  -0.17701,613799503.95633,   0.33824,413799507.29162,   0.18561,   0.07434,  -0.17896,  -3.33529,   1.00000
303782095.09753,-297725479.00310,187528874.62574,   0.18853,   0.07227,  -0.17670,613896512.76101,   0.33869,413896515.27831,   0.18585,   0.07410,  -0.17866,  -2.51730,   1.00000
297060368.67549,-303076884.63471,188729074.94587,   0.18875,   0.07202,  -0.17638,613993959.99788,   0.33915,413993961.89551,   0.18609,   0.07386,  -0.17836,  -1.89762,   1.00000
289786555.30788,-309067819.98161,189776665.44921,   0.18897,   0.07176,  -0.17606,614091534.00894,   0.33961,414091536.70037,   0.18633,   0.07362,  -0.17805,  -2.69143,   1.00000
282413488.67533,-314892418.11032,190948296.14317,   0.18918,   0.07150,  -0.17573,614189087.59846,   0.34007,414189089.15947,   0.18657,   0.07337,  -0.17774,  -1.56101,   1.00000
275099982.13954,-320676858.73815,192022006.82852,   0.18940,   0.07124,  -0.17541,614287554.27253,   0.34053,414287562.16838,   0.18680,   0.07312,  -0.17743,  -7.89584,   1.00000
268291932.58241,-325797760.99852,193162736.48224,   0.18961,   0.07099,  -0.17508,614385206.02769,   0.34100,414385211.16897,   0.18704,   0.07288,  -0.17712,  -5.14128,   1.00000
260997518.11079,-331545886.24523,194092664.88500,   0.18982,   0.07072,  -0.17475,614484271.79421,   0.34146,414484274.17077,   0.18727,   0.07262,  -0.17680,  -2.37657,   1.00000
253601390.07423,-337128235.33159,195147260.57050,   0.19003,   0.07046,  -0.17442,614583323.18999,   0.34193,414583329.56120,   0.18750,   0.07237,  -0.17648,  -6.37121,   1.00000
246110726.33771,-342556906.41663,196309101.60704,   0.19023,   0.07019,  -0.17408,614682391.90959,   0.34240,414682400.86513,   0.18773,   0.07212,  -0.17616,  -8.95554,   1.00000
239310288.41432,-347462633.55647,197319778.93967,   0.19044,   0.06993,  -0.17375,614781558.27167,   0.34287,414781564.33417,   0.18795,   0.07186,  -0.17584,  -6.06250,   1.00000
231859869.74117,-352865065.87337,198318736.47956,   0.19064,   0.06966,  -0.17341,614881261.57524,   0.34334,414881267.41288,   0.18818,   0.07161,  -0.17551,  -5.83763,   1.00000
224604264.21986,-358327598.19165,199060016.34757,   0.19084,   0.06939,  -0.17307,614981560.69750,   0.34382,414981567.43628,   0.18840,   0.07135,  -0.17518,  -6.73878,   1.00000
216532460.11790,-364115421.19796,200013423.66749,   0.19103,   0.06912,  -0.17272,615081509.31345,   0.34429,415081516.95861,   0.18862,   0.07109,  -0.17485,  -7.64517,   1.00000
209131207.01965,-369207264.92207,200985984.39655,   0.19123,   0.06885,  -0.17238,615181863.31024,   0.34477,415181868.12295,   0.18884,   0.07082,  -0.17452,  -4.81271,   1.00000
201857766.65882,-374239912.34047,201848177.62910,   0.19142,   0.06858,  -0.17203,615283156.99789,   0.34525,415283157.73453,   0.18906,   0.07056,  -0.17418,  -0.73664,   1.00000
194555632.54743,-379260242.34553,202665741.99588,   0.19161,   0.06831,  -0.17168,615384149.02056,   0.34573,415384150.81186,   0.18927,   0.07029,  -0.17384,  -1.79129,   1.00000
187221875.06426,-384266962.25979,203441456.21080,   0.19180,   0.06803,  -0.17133,615484840.02612,   0.34621,415484849.67884,   0.18948,   0.07003,  -0.17350,  -9.65271,   1.00000
179227157.59801,-389540204.86445,204341718.22996,   0.19199,   0.06775,  -0.17097,615586502.72891,   0.34670,415586506.71915,   0.18969,   0.06976,  -0.17316,  -3.99024,   1.00000
171997430.91001,-394285253.17601,205111289.39625,   0.19217,   0.06748,  -0.17062,615688192.85176,   0.34718,415688201.71164,   0.18990,   0.06949,  -0.17281,  -8.85988,   1.00000
164181972.90267,-399431803.14935,205845404.45263,   0.19235,   0.06720,  -0.17026,615790531.49370,   0.34767,415790535.97230,   0.19011,   0.06922,  -0.17246,  -4.47860,   1.00000
156380713.02581,-404526578.62667,206532362.51405,   0.19253,   0.06692,  -0.16990,615892592.35869,   0.34816,415892599.43020,   0.19031,   0.06895,  -0.17211,  -7.07151,   1.00000
149269383.07774,-408964335.70256,207260551.01544,   0.19271,   0.06664,  -0.16954,615994998.93573,   0.34865,415995008.06060,   0.19051,   0.06867,  -0.17176,  -9.12487,   1.00000
141576091.04083,-413797742.59175,207942794.39902,   0.19288,   0.06635,  -0.16917,616098081.01755,   0.34914,416098087.66982,   0.19072,   0.06840,  -0.17140,  -6.65226,   1.00000
133826283.78335,-418449163.16234,208722546.16178,   0.19306,   0.06607,  -0.16880,616201246.89063,   0.34964,416201255.80935,   0.19091,   0.06812,  -0.17104,  -8.91872,   1.00000
126841131.09757,-422625177.20637,209383352.27653,   0.19323,   0.06579,  -0.16843,616304415.92257,   0.35013,416304423.47269,   0.19111,   0.06784,  -0.17068,  -7.55011,   1.00000
119334748.33398,-427336002.94367,209845870.71879,   0.19340,   0.06550,  -0.16806,616407936.60556,   0.35063,416407939.29996,   0.19130,   0.06756,  -0.17032,  -2.69440,   1.00000
111254299.55771,-432206916.13320,210414222.09649,   0.19356,   0.06521,  -0.16769,616512489.59227,   0.35113,416512496.41984,   0.19149,   0.06728,  -0.16995,  -6.82757,   1.00000
104432183.47229,-436070642.32173,211038927.07380,   0.19373,   0.06492,  -0.16731,616616397.43594,   0.35164,416616404.62395,   0.19168,   0.06699,  -0.16958,  -7.18801,   1.00000
97038204.32652,-440314667.45127,211600305.33273,   0.19389,   0.06463,  -0.16693,616721032.38859,   0.35214,416721040.51817,   0.19187,   0.06671,  -0.16921,  -8.12958,   1.00000
89185416.96272,-445035965.93909,211953311.34535,   0.19404,   0.06434,  -0.16655,616826058.41081,   0.35265,416826059.22680,   0.19205,   0.06642,  -0.16883,  -0.81598,   1.00000
81314810.93907,-449528031.16512,212417224.38881,   0.19420,   0.06405,  -0.16617,616931169.41713,   0.35315,416931175.64472,   0.19224,   0.06613,  -0.16846,  -6.22758,   1.00000
74207233.21668,-453384242.58747,212936427.04332,   0.19435,   0.06375,  -0.16578,617036579.95347,   0.35366,417036582.64616,   0.19242,   0.06584,  -0.16808,  -2.69270,   1.00000
67057216.57542,-457254419.90941,213403734.17563,   0.19451,   0.06346,  -0.16540,617141754.19249,   0.35417,417141763.03583,   0.19259,   0.06555,  -0.16770,  -8.84335,   1.00000
60185554.77203,-461020693.62300,213764476.88239,   0.19466,   0.06316,  -0.16501,617247860.98401,   0.35469,417247861.76145,   0.19277,   0.06526,  -0.16731,  -0.77744,   1.00000
52020155.24018,-465505608.85100,214094544.21129,   0.19480,   0.06286,  -0.16462,617354569.14457,   0.35521,417354575.24253,   0.19294,   0.06496,  -0.16693,  -6.09797,   1.00000
45124186.55925,-469044981.28215,214517179.90965,   0.19495,   0.06256,  -0.16422,617460542.34083,   0.35572,417460552.12266,   0.19311,   0.06467,  -0.16654,  -9.78183,   1.00000
38513482.86285,-472492426.53556,214833136.20656,   0.19509,   0.06226,  -0.16383,617567437.37419,   0.35624,417567442.38507,   0.19328,   0.06437,  -0.16615,  -5.01087,   1.00000
30606284.13968,-476642101.84411,215104409.24940,   0.19523,   0.06196,  -0.16343,617674997.16015,   0.35676,417674997.35399,   0.19345,   0.06407,  -0.16575,  -0.19384,   1.00000
23943171.82721,-479891551.63339,215480106.94147,   0.19537,   0.06166,  -0.16303,617781783.59996,   0.35728,417781787.21227,   0.19361,   0.06378,  -0.16536,  -3.61231,   1.00000
16394509.61194,-483881384.38526,215596169.87763,   0.19551,   0.06135,  -0.16263,617890036.74203,   0.35781,417890042.34005,   0.19377,   0.06347,  -0.16496,  -5.59802,   1.00000
9245073.51564,-487205026.71832,215995968.54052,   0.19564,   0.06105,  -0.16222,617997759.71307,   0.35834,417997764.72152,   0.19393,   0.06317,  -0.16456,  -5.00844,   1.00000
2487223.83289,-490589988.47758,216140500.43624,   0.19577,   0.06074,  -0.16182,618106041.04379,   0.35887,418106042.84401,   0.19408,   0.06287,  -0.16415,  -1.80022,   1.00000
-4336449.68334,-493798738.43976,216390425.44758,   0.19590,   0.06044,  -0.16141,618214456.45808,   0.35940,418214460.68590,   0.19424,   0.06256,  -0.16375,  -4.22782,   1.00000
-10829777.02398,-496934804.56997,216520706.87183,   0.19602,   0.06013,  -0.16100,618323087.42863,   0.35993,418323090.50907,   0.19439,   0.06225,  -0.16334,  -3.08044,   2.00000
-16240813.74180,-499127146.53397,216926851.61464,   0.19615,   0.05982,  -0.16059,618431255.89845,   0.36046,418431256.60566,   0.19453,   0.06194,  -0.16293,  -0.70722,   2.00000
-23331602.90907,-502422213.84027,217058140.22773,   0.19627,   0.05951,  -0.16017,618540894.19037,   0.36100,418540897.95238,   0.19468,   0.06163,  -0.16252,  -3.76201,   2.00000
-29266305.82533,-504752366.62271,217461620.11942,   0.19639,   0.05920,  -0.15975,618650062.48698,   0.36153,418650066.92073,   0.19482,   0.06132,  -0.16211,  -4.43375,   2.00000
-34867593.04829,-507215433.50340,217612651.51217,   0.19650,   0.05888,  -0.15933,618759777.29671,   0.36207,418759783.53969,   0.19496,   0.06101,  -0.16169,  -6.24298,   2.00000
-41395208.09934,-509902952.71528,217862791.19719,   0.19662,   0.05857,  -0.15891,618869641.33646,   0.36261,418869647.11704,   0.19509,   0.06069,  -0.16127,  -5.78058,   2.00000
-47504170.77262,-512666267.80805,217873591.95387,   0.19673,   0.05826,  -0.15849,618980022.83301,   0.36316,418980032.05963,   0.19523,   0.06038,  -0.16085,  -9.22662,   2.00000
-53682520.11697,-515256257.18964,217992782.79088,   0.19684,   0.05794,  -0.15806,619090566.22916,   0.36370,419090575.57550,   0.19536,   0.06006,  -0.16042,  -9.34634,   2.00000
-59130935.96895,-517357783.09458,218209798.00669,   0.19695,   0.05762,  -0.15764,619201292.96559,   0.36425,419201300.75608,   0.19549,   0.05974,  -0.16000,  -7.79050,   2.00000
-65825734.40901,-520244375.97886,218179029.28308,   0.19705,   0.05730,  -0.15721,619312551.45030,   0.36480,419312553.89694,   0.19562,   0.05942,  -0.15957,  -2.44664,   2.00000
-71716934.25944,-522597413.05344,218261117.20095,   0.19715,   0.05698,  -0.15677,619423955.23505,   0.36535,419423958.15417,   0.19574,   0.05910,  -0.15914,  -2.91913,   2.00000
-77673878.56488,-524799210.12389,218433852.13467,   0.19725,   0.05666,  -0.15634,619535548.22548,   0.36590,419535552.82669,   0.19586,   0.05878,  -0.15871,  -4.60121,   2.00000
-82916956.58636,-526739794.19852,218561967.29685,   0.19735,   0.05634,  -0.15590,619646974.07473,   0.36646,419646976.49412,   0.19598,   0.05846,  -0.15827,  -2.41938,   2.00000
-89373645.44089,-529240627.69157,218569960.49246,   0.19744,   0.05602,  -0.15547,619759315.52140,   0.36702,419759322.21173,   0.19610,   0.05814,  -0.15783,  -6.69033,   2.00000
-95047861.30462,-531436379.03787,218551130.55458,   0.19753,   0.05570,  -0.15503,619871454.13908,   0.36757,419871463.47468,   0.19621,   0.05781,  -0.15739,  -9.33560,   2.00000
-100305372.91071,-533536698.30857,218460294.44561,   0.19763,   0.05537,  -0.15459,619984418.78741,   0.36813,419984426.89920,   0.19632,   0.05749,  -0.15695,  -8.11179,   2.00000
-106443927.60866,-535775596.74309,218453143.53562,   0.19771,   0.05504,  -0.15414,620097628.37616,   0.36870,420097633.01869,   0.19643,   0.05716,  -0.15651,  -4.64253,   2.00000
-111825182.57756,-537739035.61607,218423018.36590,   0.19780,   0.05472,  -0.15369,620210626.24174,   0.36926,420210626.92837,   0.19654,   0.05683,  -0.15606,  -0.68663,   2.00000
-117535931.08243,-539711776.36233,218429968.06419,   0.19788,   0.05439,  -0.15324,620324853.06835,   0.36983,420324854.86774,   0.19664,   0.05650,  -0.15561,  -1.79938,   2.00000
-123056252.48919,-541563942.78470,218442738.38238,   0.19796,   0.05406,  -0.15279,620437914.68190,   0.37040,420437918.58192,   0.19674,   0.05617,  -0.15516,  -3.90002,   2.00000
-128126721.71479,-543341171.99464,218376562.70942,   0.19804,   0.05373,  -0.15234,620551796.61644,   0.37097,420551801.05887,   0.19684,   0.05584,  -0.15471,  -4.44243,   2.00000
-134321508.18182,-545582897.41435,218180088.89287,   0.19811,   0.05340,  -0.15189,620666658.89209,   0.37154,420666663.47992,   0.19694,   0.05550,  -0.15425,  -4.58783,   2.00000
-139693439.45024,-547345990.73488,218119664.14882,   0.19818,   0.05306,  -0.15143,620781612.36389,   0.37212,420781617.35157,   0.19703,   0.05517,  -0.15379,  -4.98768,   2.00000
-144379518.02039,-548890019.74884,218048193.01859,   0.19826,   0.05273,  -0.15097,620896340.73826,   0.37269,420896343.18869,   0.19712,   0.05483,  -0.15333,  -2.45043,   2.00000
-149946224.75009,-550558083.86657,218029955.43360,   0.19832,   0.05240,  -0.15051,621011394.61795,   0.37327,421011404.02867,   0.19721,   0.05450,  -0.15287,  -9.41072,   2.00000
-155040901.52974,-552346222.56195,217800268.08575,   0.19839,   0.05206,  -0.15005,621126915.17735,   0.37385,421126916.60574,   0.19730,   0.05416,  -0.15241,  -1.42839,   2.00000
-159947996.44527,-553631265.14569,217870626.25836,   0.19845,   0.05173,  -0.14958,621241947.26595,   0.37443,421241956.92279,   0.19738,   0.05382,  -0.15194,  -9.65683,   2.00000
-164647553.35115,-555214698.29561,217660997.13219,   0.19851,   0.05139,  -0.14911,621358483.79721,   0.37502,421358488.81499,   0.19746,   0.05348,  -0.15147,  -5.01778,   2.00000
-169998499.30053,-556746874.82239,217569845.28489,   0.19857,   0.05105,  -0.14865,621474337.29056,   0.37560,421474346.12248,   0.19754,   0.05314,  -0.15100,  -8.83193,   2.00000
-174826073.05478,-558209214.36415,217411424.27576,   0.19862,   0.05071,  -0.14817,621590974.95648,   0.37619,421590979.81127,   0.19761,   0.05280,  -0.15053,  -4.85479,   2.00000
-179759990.52472,-559713094.99798,217210983.30866,   0.19868,   0.05037,  -0.14770,621707500.40675,   0.37678,421707501.92921,   0.19769,   0.05245,  -0.15005,  -1.52246,   2.00000
-183937342.97382,-560633818.88558,217289291.17884,   0.19873,   0.05003,  -0.14723,621824443.21081,   0.37737,421824447.88544,   0.19776,   0.05211,  -0.14958,  -4.67464,   2.00000
-188564099.49180,-562174062.21571,216964808.84823,   0.19878,   0.04969,  -0.14675,621941665.17573,   0.37797,421941671.29120,   0.19782,   0.05177,  -0.14910,  -6.11546,   2.00000
-193201086.85749,-563338210.60229,216886227.52595,   0.19883,   0.04935,  -0.14627,622059444.10651,   0.37857,422059447.28668,   0.19789,   0.05142,  -0.14861,  -3.18017,   2.00000
-197944937.39836,-564565485.43376,216749381.51882,   0.19887,   0.04901,  -0.14579,622177136.41664,   0.37916,422177141.98948,   0.19795,   0.05107,  -0.14813,  -5.57285,   2.00000
-202979111.25475,-566149673.32030,216365559.60514,   0.19891,   0.04866,  -0.14531,622295412.82936,   0.37977,422295417.71008,   0.19801,   0.05072,  -0.14765,  -4.88072,   2.00000
-207069423.08455,-567021724.93681,216348085.98676,   0.19895,   0.04832,  -0.14482,622413049.34763,   0.38036,422413057.37404,   0.19807,   0.05038,  -0.14716,  -8.02640,   2.00000
-211462029.86509,-568094427.03592,216200980.12228,   0.19898,   0.04797,  -0.14433,622531652.87026,   0.38097,422531653.56794,   0.19812,   0.05003,  -0.14667,  -0.69769,   2.00000
-216162858.91484,-569527117.08523,215806361.66176,   0.19902,   0.04762,  -0.14385,622650837.95980,   0.38158,422650839.65107,   0.19817,   0.04967,  -0.14618,  -1.69127,   2.00000
-219962930.99025,-570272219.62007,215782577.84900,   0.19905,   0.04727,  -0.14335,622769386.93207,   0.38218,422769387.01887,   0.19822,   0.04932,  -0.14569,  -0.08680,   2.00000
-224072717.86995,-571218431.77800,215627734.47382,   0.19908,   0.04693,  -0.14286,622888892.83208,   0.38279,422888897.81444,   0.19827,   0.04897,  -0.14519,  -4.98237,   2.00000
-228322909.49768,-572227457.22778,215419292.56041,   0.19911,   0.04658,  -0.14236,623008339.18964,   0.38341,423008342.78881,   0.19831,   0.04862,  -0.14469,  -3.59917,   2.00000
-232084403.18538,-573207695.70255,215167742.51794,   0.19913,   0.04622,  -0.14187,623128509.15116,   0.38402,423128514.21648,   0.19835,   0.04826,  -0.14419,  -5.06532,   2.00000
-236564266.65550,-574116972.98248,215004538.77032,   0.19915,   0.04587,  -0.14137,623248141.04196,   0.38464,423248149.93211,   0.19839,   0.04791,  -0.14369,  -8.89015,   2.00000
-240505981.27416,-575007133.86944,214790303.12312,   0.19917,   0.04552,  -0.14087,623368509.79630,   0.38525,423368511.95955,   0.19843,   0.04755,  -0.14319,  -2.16325,   2.00000
-244590533.92529,-575951308.08053,214527462.79670,   0.19919,   0.04517,  -0.14037,623488811.03763,   0.38587,423488811.11579,   0.19846,   0.04719,  -0.14268,  -0.07816,   2.00000
-248179219.71401,-576868570.55955,214231740.11484,   0.19921,   0.04481,  -0.13986,623609811.09678,   0.38650,423609815.64593,   0.19849,   0.04684,  -0.14217,  -4.54914,   2.00000
-251721136.07458,-577342262.08227,214228282.17854,   0.19922,   0.04446,  -0.13935,623730421.31455,   0.38712,423730425.21847,   0.19852,   0.04648,  -0.14167,  -3.90392,   2.00000
-255601526.79104,-578210907.96968,213948992.14824,   0.19923,   0.04410,  -0.13885,623851679.03316,   0.38774,423851684.23730,   0.19855,   0.04612,  -0.14115,  -5.20414,   2.00000
-259535872.58912,-578924670.16221,213761267.82786,   0.19924,   0.04375,  -0.13834,623973206.41132,   0.38837,423973207.09657,   0.19857,   0.04576,  -0.14064,  -0.68525,   2.00000
-262818250.42646,-579353060.15347,213725259.14994,   0.19924,   0.04339,  -0.13782,624094786.56194,   0.38900,424094787.05917,   0.19859,   0.04540,  -0.14013,  -0.49723,   2.00000
-266451431.49035,-580169961.79260,213417002.56780,   0.19924,   0.04303,  -0.13731,624217016.77975,   0.38963,424217017.28965,   0.19861,   0.04503,  -0.13961,  -0.50990,   2.00000
-269551150.47110,-580881817.20179,213147033.18139,   0.19925,   0.04267,  -0.13679,624338945.94486,   0.39027,424338954.51361,   0.19862,   0.04467,  -0.13909,  -8.56875,   2.00000
-273398796.57294,-581395658.79648,213023877.95294,   0.19924,   0.04231,  -0.13627,624461734.87377,   0.39090,424461738.89004,   0.19864,   0.04431,  -0.13857,  -4.01627,   2.00000
-276754428.09893,-582044507.32581,212775043.18590,   0.19924,   0.04195,  -0.13575,624583928.89644,   0.39154,424583936.84994,   0.19865,   0.04395,  -0.13805,  -7.95350,   2.00000
-280123268.71825,-582357122.36371,212745101.54532,   0.19924,   0.04159,  -0.13523,624706745.33084,   0.39218,424706748.73704,   0.19866,   0.04358,  -0.13752,  -3.40621,   2.00000
-283115436.47278,-582923415.97685,212519054.78383,   0.19923,   0.04123,  -0.13471,624829967.15702,   0.39282,424829970.00597,   0.19866,   0.04321,  -0.13699,  -2.84895,   2.00000
-286331029.15321,-583551260.99884,212240237.91025,   0.19922,   0.04087,  -0.13418,624953162.33173,   0.39346,424953170.12110,   0.19867,   0.04285,  -0.13647,  -7.78938,   2.00000
-289645905.95096,-584032474.17263,212049332.43591,   0.19921,   0.04051,  -0.13365,625076655.13550,   0.39411,425076658.68832,   0.19867,   0.04248,  -0.13594,  -3.55282,   2.00000
-293155757.78753,-584665849.88029,211738914.33059,   0.19919,   0.04014,  -0.13312,625201085.72503,   0.39476,425201091.78988,   0.19866,   0.04211,  -0.13540,  -6.06485,   2.00000
-296014225.45807,-584940346.34179,211661578.44503,   0.19917,   0.03978,  -0.13259,625324586.32296,   0.39540,425324586.63701,   0.19866,   0.04174,  -0.13487,  -0.31405,   2.00000
-299211598.68698,-585588092.56282,211313253.36000,   0.19915,   0.03941,  -0.13206,625448733.89364,   0.39605,425448740.01311,   0.19865,   0.04138,  -0.13433,  -6.11947,   2.00000
-302397586.31885,-585879880.50058,211196043.99385,   0.19913,   0.03904,  -0.13152,625573480.77316,   0.39671,425573490.66905,   0.19865,   0.04100,  -0.13379,  -9.89589,   2.00000
-305091898.99470,-586145714.57726,211091143.26476,   0.19911,   0.03868,  -0.13099,625697985.21009,   0.39736,425697986.02445,   0.19863,   0.04063,  -0.13326,  -0.81436,   2.00000
-308023075.37861,-586499654.04383,210910067.20820,   0.19908,   0.03831,  -0.13045,625822499.88432,   0.39802,425822506.37480,   0.19862,   0.04026,  -0.13272,  -6.49048,   2.00000
-310513110.60465,-586901181.71889,210696975.48654,   0.19905,   0.03794,  -0.12991,625947700.56679,   0.39867,425947709.98561,   0.19860,   0.03989,  -0.13217,  -9.41882,   2.00000
-313909385.92571,-587467896.74991,210334414.19794,   0.19902,   0.03757,  -0.12937,626073192.96720,   0.39934,426073193.11151,   0.19859,   0.03952,  -0.13163,  -0.14431,   2.00000
-316680898.07879,-587770435.21316,210158327.64288,   0.19899,   0.03720,  -0.12882,626198670.12327,   0.40000,426198676.50467,   0.19856,   0.03914,  -0.13108,  -6.38140,   2.00000
-318924791.51904,-587852977.94287,210141820.49804,   0.19895,   0.03684,  -0.12828,626324206.82437,   0.40066,426324212.66203,   0.19854,   0.03877,  -0.13053,  -5.83765,   2.00000
-321456208.07879,-588041312.89795,210033497.29798,   0.19892,   0.03647,  -0.12773,626449805.42015,   0.40133,426449810.89053,   0.19852,   0.03840,  -0.12998,  -5.47038,   2.00000
-324220378.55625,-588397736.43232,209791756.58192,   0.19888,   0.03609,  -0.12718,626576377.34860,   0.40200,426576382.00065,   0.19849,   0.03802,  -0.12943,  -4.65205,   2.00000
-327090804.45422,-588535494.64864,209680656.77201,   0.19884,   0.03572,  -0.12663,626702327.98225,   0.40266,426702336.18703,   0.19846,   0.03765,  -0.12888,  -8.20478,   2.00000
-329494154.84734,-588754347.14526,209529306.78211,   0.19879,   0.03535,  -0.12607,626828967.53218,   0.40334,426828969.72245,   0.19843,   0.03727,  -0.12832,  -2.19027,   2.00000
-332143516.60499,-589047119.02350,209304980.12529,   0.19875,   0.03498,  -0.12552,626955633.68540,   0.40401,426955637.62586,   0.19839,   0.03689,  -0.12777,  -3.94046,   2.00000
-334271892.96883,-589122405.19429,209249784.96172,   0.19870,   0.03461,  -0.12496,627082341.22466,   0.40468,427082342.78612,   0.19836,   0.03652,  -0.12721,  -1.56145,   2.00000
-337384922.64442,-589647446.04982,208820384.49941,   0.19865,   0.03423,  -0.12440,627210010.79009,   0.40536,427210017.09993,   0.19832,   0.03614,  -0.12664,  -6.30983,   2.00000
-339199068.16109,-589562228.16999,208878543.18379,   0.19860,   0.03386,  -0.12384,627336757.82280,   0.40604,427336763.86519,   0.19827,   0.03576,  -0.12609,  -6.04239,   2.00000
-341932387.92096,-589755142.58756,208678058.13445,   0.19854,   0.03348,  -0.12328,627464817.94955,   0.40672,427464826.21232,   0.19823,   0.03538,  -0.12552,  -8.26277,   2.00000
-344323999.52169,-590127921.52579,208372517.76648,   0.19849,   0.03311,  -0.12272,627592298.17040,   0.40740,427592305.15459,   0.19818,   0.03500,  -0.12495,  -6.98419,   2.00000
-346125740.19981,-590081095.39407,208387508.22436,   0.19843,   0.03273,  -0.12215,627720106.41768,   0.40809,427720110.59894,   0.19814,   0.03462,  -0.12439,  -4.18126,   2.00000
-348856087.35381,-590212063.91577,208200001.41935,   0.19837,   0.03235,  -0.12158,627848310.12108,   0.40877,427848310.46794,   0.19809,   0.03424,  -0.12382,  -0.34685,   2.00000
-351139424.80319,-590343096.44881,208040878.54416,   0.19831,   0.03198,  -0.12102,627976236.24513,   0.40946,427976238.33135,   0.19803,   0.03386,  -0.12325,  -2.08622,   2.00000
-353012681.68456,-590557896.22427,207856925.32932,   0.19824,   0.03160,  -0.12045,628104815.94150,   0.41015,428104819.35753,   0.19798,   0.03348,  -0.12268,  -3.41602,   2.00000
-355015510.84065,-590366446.05590,207924329.04215,   0.19818,   0.03122,  -0.11987,628233147.77183,   0.41084,428233156.51646,   0.19792,   0.03310,  -0.12210,  -8.74464,   2.00000
-357352330.70202,-590569180.12583,207691824.58549,   0.19811,   0.03084,  -0.11930,628362199.54169,   0.41154,428362200.74841,   0.19786,   0.03272,  -0.12153,  -1.20672,   2.00000
-359304558.59718,-590760391.37847,207497942.81395,   0.19804,   0.03046,  -0.11873,628490964.93544,   0.41223,428490968.77174,   0.19780,   0.03234,  -0.12095,  -3.83629,   2.00000
-361426323.81877,-590816748.31717,207369654.77564,   0.19797,   0.03009,  -0.11815,628620086.70714,   0.41293,428620091.54815,   0.19774,   0.03195,  -0.12037,  -4.84101,   2.00000
-363682817.39629,-590759749.84265,207294416.07800,   0.19789,   0.02971,  -0.11757,628749575.17895,   0.41363,428749580.52655,   0.19767,   0.03157,  -0.11979,  -5.34760,   2.00000
-365563320.15799,-590735957.53752,207231323.22750,   0.19781,   0.02933,  -0.11699,628878826.62596,   0.41433,428878830.59428,   0.19761,   0.03119,  -0.11921,  -3.96833,   2.00000
-367024481.64915,-590552551.71771,207315554.44451,   0.19774,   0.02895,  -0.11640,629008155.45846,   0.41503,429008156.46906,   0.19754,   0.03080,  -0.11863,  -1.01060,   2.00000
-369471242.00575,-590809947.48042,206992075.00724,   0.19766,   0.02857,  -0.11582,629138510.16573,   0.41573,429138517.09111,   0.19747,   0.03042,  -0.11804,  -6.92537,   2.00000
-370872277.04184,-590718981.42739,207013631.56546,   0.19758,   0.02819,  -0.11524,629267668.10696,   0.41643,429267670.79816,   0.19739,   0.03003,  -0.11745,  -2.69120,   2.00000
-373148417.15558,-590860293.96066,206772803.54106,   0.19749,   0.02780,  -0.11465,629398142.35996,   0.41714,429398149.82853,   0.19732,   0.02965,  -0.11686,  -7.46857,   2.00000
-374930555.79391,-590814456.85951,206709182.99683,   0.19740,   0.02742,  -0.11406,629528641.46627,   0.41785,429528648.40506,   0.19724,   0.02926,  -0.11627,  -6.93879,   2.00000
-376414115.94135,-590800868.21772,206658238.40787,   0.19732,   0.02704,  -0.11347,629658914.46457,   0.41856,429658919.51906,   0.19716,   0.02888,  -0.11568,  -5.05450,   2.00000
-378227898.17545,-590862798.73032,206510817.57046,   0.19723,   0.02666,  -0.11288,629789289.15048,   0.41928,429789293.92660,   0.19708,   0.02849,  -0.11509,  -4.77612,   2.00000
-380199434.14232,-590799800.17850,206417851.46587,   0.19714,   0.02627,  -0.11229,629920036.27857,   0.41999,429920040.80171,   0.19700,   0.02810,  -0.11450,  -4.52314,   2.00000
-381836849.46456,-590772131.45441,206342084.45151,   0.19705,   0.02589,  -0.11169,630050544.74508,   0.42070,430050548.68156,   0.19691,   0.02772,  -0.11390,  -3.93648,   2.00000
-383656417.32710,-590633217.36797,206308048.99447,   0.19695,   0.02551,  -0.11110,630181444.60516,   0.42142,430181451.43981,   0.19683,   0.02733,  -0.11330,  -6.83464,   2.00000
-385093562.00048,-590632403.02535,206235728.51191,   0.19685,   0.02512,  -0.11050,630313000.20569,   0.42214,430313005.37270,   0.19674,   0.02694,  -0.11270,  -5.16701,   2.00000
-386816379.65051,-590424536.40835,206250312.13741,   0.19676,   0.02474,  -0.10990,630444079.12119,   0.42286,430444087.19662,   0.19665,   0.02656,  -0.11210,  -8.07543,   2.00000
-388283343.22388,-590552655.48309,206083210.47067,   0.19666,   0.02435,  -0.10930,630575533.15699,   0.42358,430575533.70936,   0.19655,   0.02617,  -0.11150,  -0.55237,   2.00000
-389915286.61790,-590263579.58162,206154317.32835,   0.19655,   0.02397,  -0.10869,630706777.32644,   0.42431,430706786.00372,   0.19646,   0.02578,  -0.11090,  -8.67728,   2.00000
-391303669.37837,-590325860.65184,206034456.42465,   0.19645,   0.02359,  -0.10809,630838410.15263,   0.42503,430838415.81087,   0.19636,   0.02539,  -0.11029,  -5.65824,   2.00000
-392901754.51123,-590255622.56915,205963317.05910,   0.19635,   0.02320,  -0.10748,630970429.47900,   0.42576,430970436.12842,   0.19627,   0.02500,  -0.10969,  -6.64941,   2.00000
-394226648.89829,-590222956.59299,205907625.80666,   0.19624,   0.02281,  -0.10688,631102227.85731,   0.42649,431102228.85270,   0.19617,   0.02462,  -0.10908,  -0.99539,   2.00000
-395883116.88604,-590256393.57750,205753102.00787,   0.19613,   0.02243,  -0.10627,631234131.28628,   0.42722,431234135.47943,   0.19606,   0.02423,  -0.10847,  -4.19315,   2.00000
-397692326.87264,-590159735.28187,205651684.32539,   0.19602,   0.02204,  -0.10566,631366412.98707,   0.42795,431366418.69252,   0.19596,   0.02384,  -0.10786,  -5.70545,   2.00000
-398519798.31453,-589889778.11994,205819525.42757,   0.19591,   0.02166,  -0.10505,631498420.99294,   0.42868,431498422.69363,   0.19586,   0.02345,  -0.10725,  -1.70069,   2.00000
-400310957.87802,-589758076.83437,205735108.71441,   0.19580,   0.02127,  -0.10443,631630933.70094,   0.42942,431630942.39689,   0.19575,   0.02306,  -0.10663,  -8.69595,   2.00000
-401790535.84008,-589675439.56649,205668033.75969,   0.19568,   0.02089,  -0.10382,631763221.63859,   0.43015,431763226.42466,   0.19564,   0.02267,  -0.10602,  -4.78607,   2.00000
-402897660.44365,-589450738.32914,205751991.02305,   0.19557,   0.02050,  -0.10320,631895576.59315,   0.43089,431895578.99383,   0.19553,   0.02228,  -0.10540,  -2.40068,   2.00000
-404362014.76211,-589321322.80386,205710469.52571,   0.19545,   0.02011,  -0.10259,632028080.76856,   0.43163,432028089.19572,   0.19542,   0.02189,  -0.10479,  -8.42717,   2.00000
-405454713.19569,-589058917.94527,205815366.44178,   0.19533,   0.01973,  -0.10197,632160670.89252,   0.43237,432160673.67567,   0.19531,   0.02150,  -0.10417,  -2.78315,   2.00000
-406385922.81787,-589148031.76256,205727802.44953,   0.19521,   0.01934,  -0.10135,632293635.21405,   0.43311,432293639.46806,   0.19519,   0.02111,  -0.10355,  -4.25401,   2.00000
-408220005.27916,-589020943.56017,205608183.30378,   0.19508,   0.01895,  -0.10073,632426507.26974,   0.43385,432426509.72490,   0.19507,   0.02072,  -0.10292,  -2.45517,   2.00000
-409073013.36297,-588735510.25642,205764079.83125,   0.19496,   0.01857,  -0.10010,632559081.58114,   0.43459,432559086.91834,   0.19496,   0.02033,  -0.10230,  -5.33720,   2.00000
-410200896.77083,-588371555.05070,205915848.92596,   0.19484,   0.01818,  -0.09948,632692131.69189,   0.43534,432692139.13281,   0.19484,   0.01994,  -0.10168,  -7.44093,   2.00000
-411691277.15327,-588404686.57908,205750598.72386,   0.19471,   0.01779,  -0.09885,632825910.18169,   0.43609,432825916.44774,   0.19472,   0.01955,  -0.10105,  -6.26604,   2.00000
-412366599.91443,-588153201.80419,205913297.55393,   0.19458,   0.01741,  -0.09822,632958548.23940,   0.43683,432958556.12616,   0.19459,   0.01916,  -0.10043,  -7.88675,   2.00000
-414018588.68194,-588299844.32730,205641109.26841,   0.19445,   0.01702,  -0.09760,633092271.95011,   0.43759,433092274.01354,   0.19447,   0.01877,  -0.09980,  -2.06343,   2.00000
-414708791.94746,-587961606.25776,205851609.31795,   0.19432,   0.01663,  -0.09697,633225110.27710,   0.43834,433225114.53974,   0.19434,   0.01838,  -0.09917,  -4.26264,   2.00000
-415694484.42638,-587552153.66253,206046655.91609,   0.19419,   0.01625,  -0.09633,633358446.14898,   0.43909,433358448.67510,   0.19422,   0.01799,  -0.09854,  -2.52612,   2.00000
-417057615.83801,-587547498.77806,205916493.80840,   0.19405,   0.01586,  -0.09570,633492514.93914,   0.43984,433492518.27752,   0.19409,   0.01760,  -0.09790,  -3.33839,   2.00000
-418165463.50079,-587286957.57324,205990658.74374,   0.19392,   0.01547,  -0.09507,633625802.06927,   0.44060,433625808.02920,   0.19396,   0.01721,  -0.09727,  -5.95993,   2.00000
-419081556.19686,-587100301.21945,206055945.14433,   0.19378,   0.01509,  -0.09443,633758916.42298,   0.44135,433758917.50785,   0.19383,   0.01682,  -0.09664,  -1.08487,   2.00000
-420260766.43615,-587096609.32710,205955076.24002,   0.19365,   0.01470,  -0.09380,633893011.29457,   0.44211,433893017.43208,   0.19370,   0.01643,  -0.09600,  -6.13751,   2.00000
-421097140.83023,-586656090.39965,206188270.35534,   0.19351,   0.01431,  -0.09316,634026637.13510,   0.44287,434026639.95443,   0.19356,   0.01604,  -0.09536,  -2.81933,   2.00000
-421790287.46835,-586322999.23764,206383703.32015,   0.19337,   0.01392,  -0.09252,634160120.65434,   0.44363,434160128.15588,   0.19343,   0.01565,  -0.09473,  -7.50154,   2.00000
-422890367.46016,-586094932.10446,206429172.76245,   0.19323,   0.01354,  -0.09188,634293813.01341,   0.44439,434293820.32689,   0.19329,   0.01526,  -0.09409,  -7.31347,   2.00000
-423813050.97861,-586220982.44234,206296110.43689,   0.19309,   0.01315,  -0.09124,634427848.42964,   0.44515,434427857.84703,   0.19315,   0.01487,  -0.09345,  -9.41739,   2.00000
-424962017.63707,-585900350.91327,206383205.85915,   0.19294,   0.01276,  -0.09060,634561758.50597,   0.44592,434561764.95962,   0.19301,   0.01449,  -0.09280,  -6.45365,   2.00000
-425784580.92794,-585486980.89969,206593433.83233,   0.19280,   0.01238,  -0.08995,634695774.41935,   0.44668,434695779.59234,   0.19287,   0.01410,  -0.09216,  -5.17299,   2.00000
-426590772.61690,-585355474.29419,206635623.29422,   0.19265,   0.01199,  -0.08931,634829360.51820,   0.44744,434829368.78333,   0.19273,   0.01371,  -0.09152,  -8.26514,   2.00000
-427652662.42670,-585110385.06522,206689441.59829,   0.19250,   0.01161,  -0.08866,634963403.83505,   0.44821,434963408.22707,   0.19259,   0.01332,  -0.09087,  -4.39202,   2.00000
-428403755.24722,-584758897.26428,206872785.88239,   0.19235,   0.01122,  -0.08801,635097540.97591,   0.44898,435097548.11008,   0.19244,   0.01293,  -0.09023,  -7.13417,   2.00000
-429152852.80068,-584677486.38157,206893545.10715,   0.19220,   0.01084,  -0.08736,635231249.16873,   0.44975,435231258.17102,   0.19230,   0.01254,  -0.08958,  -9.00229,   2.00000
-429651014.49565,-584458291.09397,207051014.79591,   0.19206,   0.01045,  -0.08671,635365059.45067,   0.45052,435365067.66801,   0.19215,   0.01215,  -0.08893,  -8.21734,   2.00000
-430457419.20604,-584140798.07945,207198060.01915,   0.19190,   0.01006,  -0.08606,635499354.49478,   0.45129,435499363.49739,   0.19201,   0.01177,  -0.08828,  -9.00261,   2.00000
-431125617.31480,-583908996.42223,207323467.91984,   0.19175,   0.00968,  -0.08541,635633501.72927,   0.45206,435633503.90146,   0.19186,   0.01138,  -0.08763,  -2.17220,   2.00000
-432183633.57104,-583467875.99941,207483236.70005,   0.19160,   0.00930,  -0.08476,635767307.48216,   0.45283,435767313.42743,   0.19171,   0.01099,  -0.08698,  -5.94527,   2.00000
-433064397.96965,-583428122.50991,207444369.06021,   0.19144,   0.00891,  -0.08410,635901483.76560,   0.45361,435901486.86076,   0.19156,   0.01060,  -0.08633,  -3.09516,   2.00000
-433658309.76764,-582951163.90427,207726442.29402,   0.19129,   0.00853,  -0.08345,636035216.94672,   0.45438,436035221.56295,   0.19141,   0.01022,  -0.08567,  -4.61623,   2.00000
-434162289.29886,-582882877.63741,207788247.15291,   0.19113,   0.00814,  -0.08279,636169352.38076,   0.45516,436169359.45961,   0.19125,   0.00983,  -0.08502,  -7.07885,   2.00000
-434958358.98995,-582392821.63198,208029254.51866,   0.19098,   0.00776,  -0.08213,636303433.09296,   0.45593,436303443.02659,   0.19110,   0.00944,  -0.08436,  -9.93362,   2.00000
-435616503.77883,-582021310.31071,208230718.73744,   0.19082,   0.00738,  -0.08147,636437390.77437,   0.45671,436437396.99193,   0.19095,   0.00906,  -0.08371,  -6.21756,   2.00000
-436172355.56867,-582040831.43475,208227299.31451,   0.19066,   0.00699,  -0.08081,636571722.01958,   0.45749,436571728.64012,   0.19079,   0.00867,  -0.08305,  -6.62054,   2.00000
-436631219.26196,-581786124.37655,208404873.44626,   0.19050,   0.00661,  -0.08015,636705351.90424,   0.45827,436705359.59226,   0.19063,   0.00829,  -0.08239,  -7.68803,   2.00000
-437394734.79454,-581438038.45078,208565033.03976,   0.19034,   0.00623,  -0.07949,636839484.46722,   0.45905,436839484.76677,   0.19048,   0.00790,  -0.08173,  -0.29955,   2.00000
-438019364.66581,-580884445.26149,208874337.37730,   0.19018,   0.00585,  -0.07883,636972945.54456,   0.45983,436972949.66455,   0.19032,   0.00752,  -0.08107,  -4.11999,   2.00000
-438417121.24896,-580581815.27258,209091399.95295,   0.19002,   0.00546,  -0.07816,637107093.76916,   0.46061,437107100.69640,   0.19016,   0.00713,  -0.08041,  -6.92724,   2.00000
-438883165.65404,-580538867.31747,209141743.91980,   0.18985,   0.00508,  -0.07750,637240834.25084,   0.46139,437240842.35037,   0.19000,   0.00675,  -0.07974,  -8.09952,   2.00000
-439642779.26705,-580062793.17815,209370564.10804,   0.18969,   0.00470,  -0.07683,637374535.25679,   0.46217,437374537.88248,   0.18984,   0.00637,  -0.07908,  -2.62570,   2.00000
-439639253.01303,-579514838.86631,209820433.51322,   0.18953,   0.00432,  -0.07616,637508033.94622,   0.46296,437508035.86525,   0.18968,   0.00599,  -0.07842,  -1.91903,   2.00000
-440289222.02772,-579583282.42920,209761986.83823,   0.18936,   0.00394,  -0.07550,637642047.82239,   0.46374,437642049.98082,   0.18952,   0.00560,  -0.07775,  -2.15843,   2.00000
-440695029.80766,-579185511.86346,210026957.02575,   0.18920,   0.00356,  -0.07483,637775633.01475,   0.46453,437775639.28956,   0.18936,   0.00522,  -0.07708,  -6.27481,   2.00000
-441538291.23783,-578898391.42768,210122885.68060,   0.18903,   0.00318,  -0.07416,637909464.52902,   0.46531,437909465.36694,   0.18919,   0.00484,  -0.07642,  -0.83792,   2.00000
-441597289.64960,-578201282.71647,210638337.31036,   0.18886,   0.00281,  -0.07349,638042551.61858,   0.46610,438042554.72655,   0.18903,   0.00446,  -0.07575,  -3.10798,   2.00000
-442164813.97856,-577974643.00521,210764341.04949,   0.18870,   0.00243,  -0.07281,638176450.94680,   0.46689,438176455.62979,   0.18886,   0.00408,  -0.07508,  -4.68299,   2.00000
-442631796.40247,-577511716.90408,211046302.37718,   0.18853,   0.00205,  -0.07214,638309695.12651,   0.46767,438309703.37296,   0.18870,   0.00370,  -0.07441,  -8.24645,   2.00000
-443031208.87615,-577466943.41085,211109017.46719,   0.18836,   0.00167,  -0.07147,638443338.52981,   0.46846,438443342.22546,   0.18853,   0.00332,  -0.07374,  -3.69564,   2.00000
-443232094.62771,-576972216.92740,211471862.06112,   0.18819,   0.00130,  -0.07079,638576596.73233,   0.46925,438576599.40248,   0.18837,   0.00294,  -0.07307,  -2.67015,   2.00000
-443906377.00812,-576606090.72345,211646152.80151,   0.18802,   0.00092,  -0.07012,638710119.46034,   0.47004,438710124.12060,   0.18820,   0.00256,  -0.07239,  -4.66026,   2.00000
-443960605.34888,-576016637.48339,212094666.73478,   0.18785,   0.00055,  -0.06944,638842651.72519,   0.47083,438842660.60718,   0.18803,   0.00219,  -0.07172,  -8.88199,   2.00000
-444523235.35698,-575881802.94895,212165339.67121,   0.18768,   0.00017,  -0.06876,638975985.13817,   0.47162,438975987.39313,   0.18786,   0.00181,  -0.07105,  -2.25496,   2.00000
-444854272.41563,-575311104.04058,212533635.78403,   0.18751,  -0.00020,  -0.06808,639108931.66733,   0.47241,439108936.34474,   0.18769,   0.00143,  -0.07037,  -4.67741,   2.00000
-444646348.65658,-575172478.68236,212794769.26648,   0.18734,  -0.00058,  -0.06741,639241937.45006,   0.47320,439241946.42296,   0.18753,   0.00106,  -0.06970,  -8.97290,   2.00000
-444982766.91771,-574782853.32316,213059841.15602,   0.18717,  -0.00095,  -0.06673,639374705.95868,   0.47399,439374713.05920,   0.18736,   0.00068,  -0.06902,  -7.10053,   2.00000
-445757574.80320,-574190690.56954,213326488.76113,   0.18700,  -0.00132,  -0.06605,639507222.28115,   0.47478,439507228.53709,   0.18719,   0.00031,  -0.06835,  -6.25594,   2.00000
-445776596.55230,-573860718.09405,213635334.39079,   0.18682,  -0.00169,  -0.06536,639640045.88435,   0.47558,439640050.84984,   0.18702,  -0.00007,  -0.06767,  -4.96549,   2.00000
-445797534.76192,-573302772.92876,214066991.78304,   0.18665,  -0.00206,  -0.06468,639772287.23736,   0.47637,439772290.76903,   0.18684,  -0.00044,  -0.06699,  -3.53167,   2.00000
-446332995.46179,-573199893.22188,214122676.33459,   0.18648,  -0.00243,  -0.06400,639905302.87648,   0.47716,439905311.31770,   0.18667,  -0.00081,  -0.06631,  -8.44122,   2.00000
-446277471.57148,-572814609.88838,214477560.41335,   0.18631,  -0.00280,  -0.06332,640037323.06500,   0.47796,440037326.72065,   0.18650,  -0.00118,  -0.06563,  -3.65565,   2.00000
-446599160.37634,-572043192.88745,214947011.81086,   0.18613,  -0.00317,  -0.06263,640169406.16874,   0.47875,440169408.99782,   0.18633,  -0.00155,  -0.06495,  -2.82908,   2.00000
-446384931.93426,-571746609.84133,215291642.54502,   0.18596,  -0.00354,  -0.06194,640301566.33772,   0.47954,440301573.88486,   0.18616,  -0.00192,  -0.06427,  -7.54714,   2.00000
-446712028.31712,-571222907.15015,215623123.75015,   0.18578,  -0.00390,  -0.06126,640433522.63083,   0.48034,440433525.30348,   0.18599,  -0.00229,  -0.06359,  -2.67265,   2.00000
-446990166.52092,-570822204.43247,215899454.93962,   0.18561,  -0.00427,  -0.06057,640565382.88930,   0.48113,440565387.12229,   0.18581,  -0.00266,  -0.06291,  -4.23299,   2.00000
-446598391.56370,-570329633.38725,216390865.72367,   0.18544,  -0.00464,  -0.05988,640697071.50960,   0.48193,440697079.04732,   0.18564,  -0.00303,  -0.06222,  -7.53772,   2.00000
-446925651.60040,-570143021.84820,216539052.41059,   0.18526,  -0.00500,  -0.05920,640828795.80458,   0.48272,440828802.57172,   0.18547,  -0.00340,  -0.06154,  -6.76714,   2.00000
-447059557.77130,-569515723.21928,216969273.47572,   0.18509,  -0.00536,  -0.05851,640960183.41250,   0.48352,440960189.81674,   0.18529,  -0.00376,  -0.06086,  -6.40424,   2.00000
-447180332.37015,-569029777.24937,217326263.02732,   0.18491,  -0.00573,  -0.05782,641091511.36209,   0.48431,441091517.23862,   0.18512,  -0.00413,  -0.06017,  -5.87653,   2.00000
-447291559.57875,-568658399.18691,217624002.24634,   0.18474,  -0.00609,  -0.05713,641222762.42933,   0.48511,441222766.59176,   0.18495,  -0.00449,  -0.05949,  -4.16243,   2.00000
-447247109.94479,-567876690.41916,218175690.71778,   0.18456,  -0.00645,  -0.05644,641353724.82036,   0.48590,441353725.41984,   0.18477,  -0.00485,  -0.05880,  -0.59948,   2.00000
-447221859.90229,-567264086.55839,218631748.70507,   0.18439,  -0.00681,  -0.05575,641484653.48166,   0.48670,441484659.25556,   0.18460,  -0.00522,  -0.05811,  -5.77391,   2.00000
-447349955.18818,-566967217.82002,218882832.03207,   0.18422,  -0.00717,  -0.05506,641615251.90696,   0.48749,441615260.20381,   0.18443,  -0.00558,  -0.05743,  -8.29685,   2.00000
-446834379.57645,-566553480.11131,219354575.03826,   0.18404,  -0.00753,  -0.05436,641745685.28814,   0.48828,441745692.36081,   0.18425,  -0.00594,  -0.05674,  -7.07267,   2.00000
-446775446.01520,-565746402.79113,219916210.29997,   0.18387,  -0.00788,  -0.05367,641876240.91625,   0.48908,441876242.73375,   0.18408,  -0.00630,  -0.05605,  -1.81749,   2.00000
-446875015.30861,-565291165.97762,220253972.92701,   0.18369,  -0.00824,  -0.05298,642006480.46552,   0.48987,442006487.43809,   0.18391,  -0.00666,  -0.05537,  -6.97257,   2.00000
-446832001.10629,-564764715.81189,220663212.18828,   0.18352,  -0.00860,  -0.05228,642136926.95408,   0.49067,442136935.74766,   0.18373,  -0.00701,  -0.05467,  -8.79358,   2.00000
-446947041.35289,-564537578.99942,220877798.93150,   0.18334,  -0.00895,  -0.05159,642267032.77748,   0.49147,442267039.58775,   0.18356,  -0.00737,  -0.05399,  -6.81027,   2.00000
-446901236.04493,-563862871.66056,221361434.17421,   0.18317,  -0.00931,  -0.05089,642396833.84168,   0.49226,442396842.00658,   0.18339,  -0.00773,  -0.05330,  -8.16490,   2.00000
-446376030.35220,-563315972.47216,221896586.84579,   0.18300,  -0.00966,  -0.05020,642526251.17622,   0.49306,442526256.30049,   0.18321,  -0.00808,  -0.05261,  -5.12427,   2.00000
-446442701.90530,-562574412.64663,222382777.60693,   0.18282,  -0.01001,  -0.04950,642655517.65543,   0.49385,442655526.10330,   0.18304,  -0.00843,  -0.05192,  -8.44787,   2.00000
-445888217.49426,-562129393.82003,222870577.52404,   0.18265,  -0.01036,  -0.04880,642785164.31452,   0.49465,442785165.06266,   0.18287,  -0.00879,  -0.05122,  -0.74814,   2.00000
-446069519.31851,-561649388.70844,223193113.06808,   0.18248,  -0.01071,  -0.04811,642914361.49612,   0.49544,442914363.26973,   0.18269,  -0.00914,  -0.05053,  -1.77360,   2.00000
-445570058.31656,-560739388.22015,223898463.21325,   0.18231,  -0.01106,  -0.04741,643042939.42773,   0.49623,443042945.93104,   0.18252,  -0.00949,  -0.04984,  -6.50330,   2.00000
-445674008.48556,-560039631.80433,224347562.29303,   0.18213,  -0.01140,  -0.04671,643171897.34517,   0.49703,443171899.27454,   0.18235,  -0.00984,  -0.04915,  -1.92937,   2.00000
-445406532.37850,-559647761.12246,224731897.63692,   0.18196,  -0.01175,  -0.04601,643300166.66122,   0.49782,443300169.83421,   0.18218,  -0.01019,  -0.04846,  -3.17299,   2.00000
-444923584.10596,-558987858.02914,225302220.16985,   0.18179,  -0.01209,  -0.04531,643428947.97487,   0.49862,443428953.82416,   0.18201,  -0.01054,  -0.04776,  -5.84929,   2.00000
-444657304.65185,-558304623.50626,225828566.55409,   0.18162,  -0.01244,  -0.04461,643556964.50383,   0.49941,443556972.80660,   0.18183,  -0.01088,  -0.04707,  -8.30278,   2.00000
-444450874.96188,-557766895.85818,226266675.50476,   0.18145,  -0.01278,  -0.04391,643684962.39437,   0.50020,443684967.92632,   0.18166,  -0.01123,  -0.04638,  -5.53195,   2.00000
-443764833.96150,-556974256.30975,226944971.35364,   0.18128,  -0.01312,  -0.04321,643812101.27541,   0.50099,443812104.63670,   0.18149,  -0.01157,  -0.04569,  -3.36129,   2.00000
-443605379.96365,-556538931.09972,227318817.25178,   0.18111,  -0.01346,  -0.04251,643940358.26116,   0.50179,443940361.08180,   0.18132,  -0.01191,  -0.04499,  -2.82064,   2.00000
-444911603.66156,-556882249.43434,226953833.96470,   0.18094,  -0.01380,  -0.04181,644069040.09981,   0.50259,444069043.51145,   0.18116,  -0.01225,  -0.04428,  -3.41164,   1.00000
-444686310.80211,-556341493.15527,227394248.22024,   0.18077,  -0.01414,  -0.04111,644196210.99057,   0.50338,444196217.32076,   0.18099,  -0.01259,  -0.04359,  -6.33019,   2.00000
-445820259.98294,-556766877.93258,227029412.41066,   0.18060,  -0.01448,  -0.04041,644324583.26750,   0.50418,444324586.46569,   0.18082,  -0.01293,  -0.04288,  -3.19818,   1.00000
-446720416.46143,-556777366.17954,226923119.83767,   0.18043,  -0.01481,  -0.03970,644452213.92114,   0.50498,444452214.42131,   0.18066,  -0.01326,  -0.04218,  -0.50016,   1.00000
-447510592.13170,-557170897.04987,226655588.47393,   0.18026,  -0.01514,  -0.03900,644580117.51176,   0.50578,444580123.57747,   0.18049,  -0.01360,  -0.04147,  -6.06571,   1.00000
-448090790.26405,-556793047.46232,226816296.53629,   0.18009,  -0.01547,  -0.03830,644706843.84007,   0.50657,444706846.95968,   0.18033,  -0.01393,  -0.04077,  -3.11961,   1.00000
-448102339.45296,-556834489.15855,226913206.04512,   0.17993,  -0.01581,  -0.03760,644833565.26522,   0.50736,444833565.41077,   0.18016,  -0.01426,  -0.04007,  -0.14554,   1.00000
-447952674.77252,-556351332.63096,227305974.42878,   0.17976,  -0.01614,  -0.03689,644959963.58213,   0.50815,444959970.87563,   0.18000,  -0.01460,  -0.03937,  -7.29350,   1.00000
-447973840.53085,-556150186.74659,227517855.83755,   0.17960,  -0.01647,  -0.03619,645086026.14237,   0.50895,445086028.85641,   0.17983,  -0.01493,  -0.03867,  -2.71404,   1.00000
-447828620.89340,-555466964.87942,228004565.10515,   0.17943,  -0.01679,  -0.03548,645211797.05288,   0.50974,445211804.55120,   0.17967,  -0.01526,  -0.03797,  -7.49832,   1.00000
-447851638.63374,-555101981.30795,228293821.02897,   0.17927,  -0.01712,  -0.03478,645337256.09278,   0.51053,445337256.66468,   0.17951,  -0.01558,  -0.03727,  -0.57190,   1.00000
-447704901.94244,-554281970.73291,228843716.44665,   0.17910,  -0.01744,  -0.03408,645462444.00334,   0.51131,445462448.35513,   0.17934,  -0.01591,  -0.03658,  -4.35179,   1.00000
-447208311.81649,-553766221.07128,229331700.93748,   0.17894,  -0.01777,  -0.03337,645586967.07389,   0.51210,445586976.98830,   0.17918,  -0.01624,  -0.03588,  -9.91441,   1.00000
-446631957.96528,-552815166.16709,230045857.29040,   0.17878,  -0.01809,  -0.03267,645711300.14238,   0.51288,445711304.60601,   0.17902,  -0.01656,  -0.03518,  -4.46363,   1.00000
-446164566.22482,-552051202.07383,230641158.87117,   0.17862,  -0.01841,  -0.03196,645835658.08562,   0.51367,445835664.85876,   0.17886,  -0.01688,  -0.03449,  -6.77313,   1.00000
-445268189.74501,-551399897.01359,231285626.02362,   0.17846,  -0.01873,  -0.03126,645959670.31386,   0.51445,445959672.76418,   0.17869,  -0.01720,  -0.03379,  -2.45032,   1.00000
-445013830.44317,-550546995.36853,231866140.02260,   0.17830,  -0.01904,  -0.03055,646083583.45808,   0.51524,446083586.29798,   0.17853,  -0.01752,  -0.03309,  -2.83991,   1.00000
-444423947.93076,-549997268.53639,232383018.25902,   0.17814,  -0.01936,  -0.02985,646206843.80722,   0.51602,446206846.97330,   0.17837,  -0.01784,  -0.03240,  -3.16608,   1.00000
-443763558.63041,-549007670.22655,233121172.59910,   0.17798,  -0.01967,  -0.02914,646329918.71236,   0.51680,446329921.68996,   0.17821,  -0.01816,  -0.03170,  -2.97760,   1.00000
-442700423.70434,-548163119.54280,233885043.16423,   0.17783,  -0.01999,  -0.02844,646452678.65637,   0.51758,446452684.10211,   0.17806,  -0.01847,  -0.03100,  -5.44574,   1.00000
-441778689.88564,-547098922.12057,234712781.38192,   0.17767,  -0.02030,  -0.02773,646575027.04822,   0.51836,446575033.01539,   0.17790,  -0.01878,  -0.03031,  -5.96717,   1.00000
-441022880.15915,-546234925.46338,235404546.16066,   0.17752,  -0.02061,  -0.02703,646697437.45263,   0.51914,446697447.34060,   0.17774,  -0.01910,  -0.02961,  -9.88797,   1.00000
-440215437.14758,-544975823.11495,236286722.53458,   0.17736,  -0.02091,  -0.02632,646819723.27214,   0.51992,446819725.72130,   0.17759,  -0.01941,  -0.02891,  -2.44916,   1.00000
-439156820.85359,-544077257.02685,237058130.18646,   0.17721,  -0.02122,  -0.02561,646941425.23411,   0.52069,446941431.65862,   0.17743,  -0.01972,  -0.02822,  -6.42451,   1.00000
-438819274.47153,-543399069.80776,237557218.45853,   0.17706,  -0.02153,  -0.02491,647063532.64528,   0.52147,447063540.42248,   0.17728,  -0.02002,  -0.02752,  -7.77720,   1.00000
-437425511.46510,-542360732.38065,238463072.77978,   0.17691,  -0.02183,  -0.02420,647184465.65682,   0.52225,447184467.70818,   0.17712,  -0.02033,  -0.02683,  -2.05136,   1.00000
-436750729.37841,-541173904.99089,239264106.45800,   0.17676,  -0.02213,  -0.02349,647305364.76052,   0.52302,447305372.19209,   0.17697,  -0.02063,  -0.02613,  -7.43157,   1.00000
-435659309.33900,-540150348.28585,240083659.31955,   0.17661,  -0.02243,  -0.02279,647425976.70345,   0.52379,447425984.04550,   0.17682,  -0.02094,  -0.02544,  -7.34205,   1.00000
-434696759.17910,-538918333.13217,240961882.38695,   0.17646,  -0.02273,  -0.02208,647546195.75934,   0.52457,447546201.25475,   0.17667,  -0.02124,  -0.02474,  -5.49540,   1.00000
-433362059.81483,-537850109.04719,241846957.39652,   0.17631,  -0.02302,  -0.02138,647666145.45348,   0.52534,447666149.10043,   0.17652,  -0.02154,  -0.02405,  -3.64695,   1.00000
-432596278.73630,-536455578.22025,242742484.14964,   0.17617,  -0.02332,  -0.02067,647786370.47110,   0.52611,447786371.48706,   0.17637,  -0.02183,  -0.02335,  -1.01596,   1.00000
-431556333.27383,-535429066.83988,243532923.86927,   0.17602,  -0.02361,  -0.01996,647906015.26539,   0.52688,447906022.27059,   0.17622,  -0.02213,  -0.02265,  -7.00520,   1.00000
-430084466.08202,-534119998.55753,244537788.12276,   0.17588,  -0.02390,  -0.01926,648024919.18192,   0.52764,448024928.97779,   0.17608,  -0.02242,  -0.02196,  -9.79587,   1.00000
-428861310.77151,-533038883.16090,245382594.28198,   0.17574,  -0.02419,  -0.01855,648143945.00232,   0.52841,448143948.30021,   0.17593,  -0.02272,  -0.02127,  -3.29789,   1.00000
-427775023.33241,-531741034.93506,246285682.85410,   0.17560,  -0.02448,  -0.01785,648262584.09031,   0.52918,448262584.22820,   0.17579,  -0.02301,  -0.02057,  -0.13789,   1.00000
-426322929.99522,-530602368.39371,247194729.60813,   0.17546,  -0.02476,  -0.01714,648380953.34983,   0.52994,448380961.31217,   0.17564,  -0.02330,  -0.01988,  -7.96235,   1.00000
-425040173.30294,-529248591.44289,248152913.23593,   0.17532,  -0.02505,  -0.01643,648498968.75854,   0.53071,448498973.96381,   0.17550,  -0.02358,  -0.01919,  -5.20528,   1.00000
-423970702.14437,-528128613.43880,248960629.75753,   0.17518,  -0.02533,  -0.01573,648617078.91112,   0.53147,448617084.44344,   0.17536,  -0.02387,  -0.01849,  -5.53232,   1.00000
-422448855.51100,-526714466.77374,249983436.64797,   0.17505,  -0.02561,  -0.01502,648734458.12337,   0.53223,448734463.80200,   0.17522,  -0.02415,  -0.01780,  -5.67862,   1.00000
-421233707.53608,-525301080.13184,250933805.75292,   0.17491,  -0.02589,  -0.01432,648851188.02740,   0.53299,448851196.37276,   0.17508,  -0.02444,  -0.01711,  -8.34537,   1.00000
-420079614.78201,-523947620.88171,251840964.80622,   0.17477,  -0.02616,  -0.01361,648968329.04284,   0.53375,448968335.25774,   0.17495,  -0.02472,  -0.01642,  -6.21489,   1.00000
-418471396.94886,-522322353.42540,252948639.20712,   0.17464,  -0.02644,  -0.01291,649084762.02022,   0.53451,449084771.24023,   0.17481,  -0.02499,  -0.01572,  -9.22001,   1.00000
-416560087.38971,-520885502.03467,254032830.69859,   0.17451,  -0.02671,  -0.01220,649201000.92856,   0.53527,449201005.44495,   0.17468,  -0.02527,  -0.01503,  -4.51639,   1.00000
-415570552.17143,-519519726.98920,254892105.26436,   0.17438,  -0.02698,  -0.01150,649316938.58427,   0.53602,449316944.60924,   0.17454,  -0.02555,  -0.01434,  -6.02497,   1.00000
