# sigma_xx, sigma_yy, sigma_xy, epsilon_xx, epsilon_yy, epsilon_xy, vonMises, epsPlastic, hardening, epsilonP__xx, epsilonP__yy, epsilonP__xy, yieldValue, iteration
   0.00000,   0.00000,   0.00000,   0.00000,   0.00000,   0.00000,   0.00000,   0.00000,274640135.82653,   0.00000,   0.00000,   0.00000,-474640135.82653,   0.00000
   0.00000,   0.00000,   0.00000,   0.00000,   0.00000,   0.00000,   0.00000,   0.00000,274640135.82653,   0.00000,   0.00000,   0.00000,-474640135.82653,   0.00000
601866.46741,1283224.73240,77220.60337,   0.00000,   0.00000,   0.00000,1120030.39539,   0.00000,274640135.82653,   0.00000,   0.00000,   0.00000,-473520105.43114,   0.00000
1212817.71168,2557364.68793,149898.81830,   0.00000,   0.00001,   0.00000,2230881.60315,   0.00000,274640135.82653,   0.00000,   0.00000,   0.00000,-472409254.22338,   0.00000
1823768.95595,3831504.64346,218034.64480,   0.00000,   0.00001,   0.00000,3340868.02092,   0.00000,274640135.82653,   0.00000,   0.00000,   0.00000,-471299267.80561,   0.00000
2443804.97710,5096559.82212,286170.47130,   0.00000,   0.00002,   0.00000,4442722.94242,   0.00000,274640135.82653,   0.00000,   0.00000,   0.00000,-470197412.88411,   0.00000
3063840.99824,6361615.00078,354306.29779,   0.00000,   0.00002,   0.00000,5544627.04645,   0.00000,274640135.82653,   0.00000,   0.00000,   0.00000,-469095508.78008,   0.00000
3677063.43673,7610771.81993,417899.73586,   0.00000,   0.00003,   0.00001,6631988.61550,   0.00000,274640135.82653,   0.00000,   0.00000,   0.00000,-468008147.21103,   0.00000
4290285.87522,8859928.63908,481493.17393,   0.00000,   0.00003,   0.00001,7719376.18688,   0.00000,274640135.82653,   0.00000,   0.00000,   0.00000,-466920759.63965,   0.00000
4912593.09057,10100000.68136,540544.22356,   0.00000,   0.00004,   0.00001,8797894.93276,   0.00000,274640135.82653,   0.00000,   0.00000,   0.00000,-465842240.89377,   0.00000
5528086.72328,11324174.36412,599595.27319,   0.00000,   0.00004,   0.00001,9862768.03791,   0.00000,274640135.82653,   0.00000,   0.00000,   0.00000,-464777367.78862,   0.00000
6159478.71550,12555161.62954,654103.93439,   0.00000,   0.00005,   0.00001,10932591.94494,   0.00000,274640135.82653,   0.00000,   0.00000,   0.00000,-463707543.88159,   0.00000
6784057.12508,13770250.53543,708612.59559,   0.00000,   0.00005,   0.00001,11988805.61431,   0.00000,274640135.82653,   0.00000,   0.00000,   0.00000,-462651330.21222,   0.00000
7408635.53465,14985339.44133,763121.25679,   0.00000,   0.00005,   0.00001,13045091.89431,   0.00000,274640135.82653,   0.00000,   0.00000,   0.00000,-461595043.93222,   0.00000
8042298.72109,16191343.57036,813087.52955,   0.00001,   0.00006,   0.00001,14092760.11420,   0.00000,274640135.82653,   0.00000,   0.00000,   0.00000,-460547375.71233,   0.00000
8675961.90753,17397347.69939,858511.41389,   0.00001,   0.00006,   0.00001,15139762.93097,   0.00000,274640135.82653,   0.00000,   0.00000,   0.00000,-459500372.89556,   0.00000
9302811.51132,18587453.46891,908477.68665,   0.00001,   0.00007,   0.00001,16173934.19978,   0.00000,274640135.82653,   0.00000,   0.00000,   0.00000,-458466201.62675,   0.00000
9945559.47463,19784372.82107,953901.57099,   0.00001,   0.00007,   0.00001,17213328.82530,   0.00000,274640135.82653,   0.00000,   0.00000,   0.00000,-457426807.00123,   0.00000
10581493.85528,20965393.81372,994783.06688,   0.00001,   0.00007,   0.00001,18238403.00604,   0.00000,274640135.82653,   0.00000,   0.00000,   0.00000,-456401732.82049,   0.00000
11210614.65329,22130516.44685,1035664.56278,   0.00001,   0.00008,   0.00001,19249902.60767,   0.00000,274640135.82653,   0.00000,   0.00000,   0.00000,-455390233.21886,   0.00000
11855633.81081,23302452.66263,1076546.05868,   0.00001,   0.00008,   0.00001,20267507.53639,   0.00000,274640135.82653,   0.00000,   0.00000,   0.00000,-454372628.29013,   0.00000
12493839.38569,24458490.51890,1112885.16615,   0.00001,   0.00009,   0.00001,21270845.51865,   0.00000,274640135.82653,   0.00000,   0.00000,   0.00000,-453369290.30788,   0.00000
13132044.96056,25614528.37516,1149224.27362,   0.00001,   0.00009,   0.00001,22274327.81826,   0.00000,274640135.82653,   0.00000,   0.00000,   0.00000,-452365808.00827,   0.00000
13779335.31230,26761481.45456,1181020.99265,   0.00001,   0.00009,   0.00002,23269636.36653,   0.00000,274640135.82653,   0.00000,   0.00000,   0.00000,-451370499.46000,   0.00000
14410727.30452,27901620.95131,1212817.71168,   0.00001,   0.00010,   0.00002,24259011.57669,   0.00000,274640135.82653,   0.00000,   0.00000,   0.00000,-450381124.24984,   0.00000
15067102.43313,29039489.25384,1244614.43071,   0.00001,   0.00010,   0.00002,25247093.85067,   0.00000,274640135.82653,   0.00000,   0.00000,   0.00000,-449393041.97586,   0.00000
15700765.61957,30154645.61421,1271868.76131,   0.00001,   0.00011,   0.00002,26214854.95797,   0.00000,274640135.82653,   0.00000,   0.00000,   0.00000,-448425280.86856,   0.00000
16350327.16553,31276615.55723,1299123.09191,   0.00001,   0.00011,   0.00002,27188971.00971,   0.00000,274640135.82653,   0.00000,   0.00000,   0.00000,-447451164.81682,   0.00000
16993075.12883,32382687.14073,1321835.03408,   0.00001,   0.00011,   0.00002,28148949.12611,   0.00000,274640135.82653,   0.00000,   0.00000,   0.00000,-446491186.70042,   0.00000
17651721.45166,33495572.30687,1349089.36468,   0.00001,   0.00012,   0.00002,29116013.60916,   0.00000,274640135.82653,   0.00000,   0.00000,   0.00000,-445524122.21737,   0.00000
18303554.19183,34592559.11351,1371801.30685,   0.00002,   0.00012,   0.00002,30068986.98299,   0.00000,274640135.82653,   0.00000,   0.00000,   0.00000,-444571148.84354,   0.00000
18948573.34935,35673647.56062,1389970.86058,   0.00002,   0.00013,   0.00002,31007884.34888,   0.00000,274640135.82653,   0.00000,   0.00000,   0.00000,-443632251.47765,   0.00000
19609490.86639,36761549.59039,1408140.41431,   0.00002,   0.00013,   0.00002,31953356.12542,   0.00000,274640135.82653,   0.00000,   0.00000,   0.00000,-442686779.70111,   0.00000
20263594.80078,37833553.26064,1426309.96804,   0.00002,   0.00013,   0.00002,32885411.86915,   0.00000,274640135.82653,   0.00000,   0.00000,   0.00000,-441754723.95738,   0.00000
20917698.73517,38905556.93089,1444479.52178,   0.00002,   0.00014,   0.00002,33817707.26617,   0.00000,274640135.82653,   0.00000,   0.00000,   0.00000,-440822428.56036,   0.00000
21564989.08691,39961662.24162,1458106.68708,   0.00002,   0.00014,   0.00002,34735984.49201,   0.00000,274640135.82653,   0.00000,   0.00000,   0.00000,-439904151.33452,   0.00000
22228177.79817,41024581.13501,1471733.85238,   0.00002,   0.00014,   0.00002,35660965.54445,   0.00000,274640135.82653,   0.00000,   0.00000,   0.00000,-438979170.28208,   0.00000
22884552.92677,42071601.66887,1480818.62924,   0.00002,   0.00015,   0.00002,36571998.93327,   0.00000,274640135.82653,   0.00000,   0.00000,   0.00000,-438068136.89326,   0.00000
23534114.47273,43102723.84322,1489903.40611,   0.00002,   0.00015,   0.00002,37469645.66401,   0.00000,274640135.82653,   0.00000,   0.00000,   0.00000,-437170490.16252,   0.00000
24199574.37820,44140659.60022,1498988.18298,   0.00002,   0.00015,   0.00002,38374118.25239,   0.00000,274640135.82653,   0.00000,   0.00000,   0.00000,-436266017.57414,   0.00000
24858220.70103,45162696.99771,1508072.95984,   0.00003,   0.00016,   0.00002,39265237.79709,   0.00000,274640135.82653,   0.00000,   0.00000,   0.00000,-435374898.02944,   0.00000
25510053.44120,46168836.03568,1512615.34828,   0.00003,   0.00016,   0.00002,40142481.09484,   0.00000,274640135.82653,   0.00000,   0.00000,   0.00000,-434497654.73169,   0.00000
26177784.54089,47181788.65629,1517157.73671,   0.00003,   0.00016,   0.00002,41026676.55773,   0.00000,274640135.82653,   0.00000,   0.00000,   0.00000,-433613459.26880,   0.00000
26845515.64058,48194741.27691,1521700.12514,   0.00003,   0.00017,   0.00002,41911201.72253,   0.00000,274640135.82653,   0.00000,   0.00000,   0.00000,-432728934.10400,   0.00000
27506433.15762,49191795.53801,1526242.51358,   0.00003,   0.00017,   0.00002,42782403.22924,   0.00000,274640135.82653,   0.00000,   0.00000,   0.00000,-431857732.59729,   0.00000
28176435.45152,50179765.02225,1526242.51358,   0.00003,   0.00017,   0.00002,43646553.94130,   0.00000,274640135.82653,   0.00000,   0.00000,   0.00000,-430993581.88523,   0.00000
28839624.16278,51151836.14696,1526242.51358,   0.00003,   0.00018,   0.00002,44497446.91522,   0.00000,274640135.82653,   0.00000,   0.00000,   0.00000,-430142688.91131,   0.00000
29502812.87404,52123907.27168,1526242.51358,   0.00003,   0.00018,   0.00002,45348693.94898,   0.00000,274640135.82653,   0.00000,   0.00000,   0.00000,-429291441.87755,   0.00000
30166001.58529,53095978.39640,1521700.12514,   0.00003,   0.00018,   0.00002,46199825.96124,   0.00000,274640135.82653,   0.00000,   0.00000,   0.00000,-428440309.86529,   0.00000
30838275.07342,54058964.74425,1517157.73671,   0.00003,   0.00019,   0.00002,47044563.51749,   0.00000,274640135.82653,   0.00000,   0.00000,   0.00000,-427595572.30904,   0.00000
31503734.97889,55006052.73259,1512615.34828,   0.00004,   0.00019,   0.00002,47876080.27913,   0.00000,274640135.82653,   0.00000,   0.00000,   0.00000,-426764055.54740,   0.00000
32162381.30171,55937242.36141,1508072.95984,   0.00004,   0.00019,   0.00002,48694371.21843,   0.00000,274640135.82653,   0.00000,   0.00000,   0.00000,-425945764.60810,   0.00000
32836925.98405,56875245.57287,1498988.18298,   0.00004,   0.00019,   0.00002,49519591.42172,   0.00000,274640135.82653,   0.00000,   0.00000,   0.00000,-425120544.40481,   0.00000
33495572.30687,57806435.20169,1489903.40611,   0.00004,   0.00020,   0.00002,50338227.23607,   0.00000,274640135.82653,   0.00000,   0.00000,   0.00000,-424301908.59046,   0.00000
34179201.76608,58735353.63630,1480818.62924,   0.00004,   0.00020,   0.00002,51157702.92779,   0.00000,274640135.82653,   0.00000,   0.00000,   0.00000,-423482432.89874,   0.00000
34840119.28312,59641560.12873,1471733.85238,   0.00004,   0.00020,   0.00002,51956987.39084,   0.00000,274640135.82653,   0.00000,   0.00000,   0.00000,-422683148.43569,   0.00000
35516935.15968,60554580.20382,1462649.07551,   0.00004,   0.00021,   0.00002,52763764.03396,   0.00000,274640135.82653,   0.00000,   0.00000,   0.00000,-421876371.79257,   0.00000
36186937.45358,61451701.91939,1449021.91021,   0.00004,   0.00021,   0.00002,53557036.98651,   0.00000,274640135.82653,   0.00000,   0.00000,   0.00000,-421083098.84002,   0.00000
36850126.16484,62332925.27544,1435394.74491,   0.00005,   0.00021,   0.00002,54337190.62811,   0.00000,274640135.82653,   0.00000,   0.00000,   0.00000,-420302945.19842,   0.00000
37529213.23561,63220962.21414,1421767.57961,   0.00005,   0.00021,   0.00002,55124978.06460,   0.00000,274640135.82653,   0.00000,   0.00000,   0.00000,-419515157.76193,   0.00000
38192401.94687,64102185.57019,1408140.41431,   0.00005,   0.00022,   0.00002,55906009.53973,   0.00000,274640135.82653,   0.00000,   0.00000,   0.00000,-418734126.28680,   0.00000
38873760.21186,64965239.37251,1389970.86058,   0.00005,   0.00022,   0.00002,56674548.77848,   0.00000,274640135.82653,   0.00000,   0.00000,   0.00000,-417965587.04805,   0.00000
39539220.11733,65821479.59218,1376343.69528,   0.00005,   0.00022,   0.00002,57436661.62870,   0.00000,274640135.82653,   0.00000,   0.00000,   0.00000,-417203474.19783,   0.00000
40220578.38232,66684533.39450,1358174.14155,   0.00005,   0.00022,   0.00002,58206231.00807,   0.00000,274640135.82653,   0.00000,   0.00000,   0.00000,-416433904.81846,   0.00000
40879224.70514,67524875.25466,1340004.58781,   0.00005,   0.00023,   0.00002,58955424.50712,   0.00000,274640135.82653,   0.00000,   0.00000,   0.00000,-415684711.31941,   0.00000
41562854.16435,68362945.92059,1321835.03408,   0.00006,   0.00023,   0.00002,59706329.75873,   0.00000,274640135.82653,   0.00000,   0.00000,   0.00000,-414933806.06780,   0.00000
42230585.26404,69194203.00388,1299123.09191,   0.00006,   0.00023,   0.00002,60450074.72102,   0.00000,274640135.82653,   0.00000,   0.00000,   0.00000,-414190061.10551,   0.00000
42907401.14059,70016375.31030,1280953.53818,   0.00006,   0.00023,   0.00002,61188558.63872,   0.00000,274640135.82653,   0.00000,   0.00000,   0.00000,-413451577.18781,   0.00000
43584217.01715,70838547.61672,1258241.59601,   0.00006,   0.00024,   0.00002,61927301.60987,   0.00000,274640135.82653,   0.00000,   0.00000,   0.00000,-412712834.21666,   0.00000
44254219.31106,71644821.56363,1235529.65385,   0.00006,   0.00024,   0.00002,62653095.20138,   0.00000,274640135.82653,   0.00000,   0.00000,   0.00000,-411987040.62515,   0.00000
44933306.38183,72442010.73366,1212817.71168,   0.00006,   0.00024,   0.00002,63373501.23461,   0.00000,274640135.82653,   0.00000,   0.00000,   0.00000,-411266634.59192,   0.00000
45596495.09308,73232386.32105,1190105.76951,   0.00006,   0.00024,   0.00002,64086907.26455,   0.00000,274640135.82653,   0.00000,   0.00000,   0.00000,-410553228.56198,   0.00000
46268768.58121,74013677.13157,1167393.82735,   0.00007,   0.00025,   0.00002,64794984.94913,   0.00000,274640135.82653,   0.00000,   0.00000,   0.00000,-409845150.87740,   0.00000
46956940.42885,74801781.52474,1140139.49675,   0.00007,   0.00025,   0.00001,65511050.43350,   0.00000,274640135.82653,   0.00000,   0.00000,   0.00000,-409129085.39303,   0.00000
47622400.33432,75567173.97575,1117427.55458,   0.00007,   0.00025,   0.00001,66206846.45938,   0.00000,274640135.82653,   0.00000,   0.00000,   0.00000,-408433289.36715,   0.00000
48303758.59931,76339380.00940,1090173.22398,   0.00007,   0.00025,   0.00001,66910690.35976,   0.00000,274640135.82653,   0.00000,   0.00000,   0.00000,-407729445.46677,   0.00000
48971489.69900,77079789.32402,1062918.89338,   0.00007,   0.00026,   0.00001,67588297.85114,   0.00000,274640135.82653,   0.00000,   0.00000,   0.00000,-407051837.97539,   0.00000
49661932.74085,77842910.58081,1035664.56278,   0.00007,   0.00026,   0.00001,68287734.65925,   0.00000,274640135.82653,   0.00000,   0.00000,   0.00000,-406352401.16728,   0.00000
50329663.84054,78583319.89543,1008410.23218,   0.00008,   0.00026,   0.00001,68966599.36425,   0.00000,274640135.82653,   0.00000,   0.00000,   0.00000,-405673536.46228,   0.00000
51006479.71710,79314644.43319,981155.90158,   0.00008,   0.00026,   0.00001,69640512.58322,   0.00000,274640135.82653,   0.00000,   0.00000,   0.00000,-404999623.24331,   0.00000
51676482.01101,80030070.61143,953901.57099,   0.00008,   0.00026,   0.00001,70301694.68394,   0.00000,274640135.82653,   0.00000,   0.00000,   0.00000,-404338441.14259,   0.00000
52346484.30491,80745496.78967,922104.85195,   0.00008,   0.00027,   0.00001,70963354.08206,   0.00000,274640135.82653,   0.00000,   0.00000,   0.00000,-403676781.74447,   0.00000
53032384.95833,81467736.55056,894850.52135,   0.00008,   0.00027,   0.00001,71633789.92468,   0.00000,274640135.82653,   0.00000,   0.00000,   0.00000,-403006345.90185,   0.00000
53711472.02911,82174077.95193,863053.80232,   0.00008,   0.00027,   0.00001,72291390.98778,   0.00000,274640135.82653,   0.00000,   0.00000,   0.00000,-402348744.83875,   0.00000
54383745.51723,82864520.99378,835799.47172,   0.00009,   0.00027,   0.00001,72936501.67200,   0.00000,274640135.82653,   0.00000,   0.00000,   0.00000,-401703634.15453,   0.00000
55056019.00535,83554964.03564,804002.75269,   0.00009,   0.00027,   0.00001,73582150.12526,   0.00000,274640135.82653,   0.00000,   0.00000,   0.00000,-401057985.70127,   0.00000
55737377.27034,84236322.30063,772206.03365,   0.00009,   0.00027,   0.00001,74223247.37069,   0.00000,274640135.82653,   0.00000,   0.00000,   0.00000,-400416888.45584,   0.00000
56418735.53533,84917680.56562,740409.31462,   0.00009,   0.00028,   0.00001,74865096.32535,   0.00000,274640135.82653,   0.00000,   0.00000,   0.00000,-399775039.50118,   0.00000
57093280.21767,85583140.47109,708612.59559,   0.00009,   0.00028,   0.00001,75494375.64160,   0.00000,274640135.82653,   0.00000,   0.00000,   0.00000,-399145760.18493,   0.00000
57761011.31736,86232702.01705,676815.87656,   0.00009,   0.00028,   0.00001,76111099.63484,   0.00000,274640135.82653,   0.00000,   0.00000,   0.00000,-398529036.19169,   0.00000
58428742.41705,86882263.56300,645019.15752,   0.00010,   0.00028,   0.00001,76728563.21525,   0.00000,274640135.82653,   0.00000,   0.00000,   0.00000,-397911572.61128,   0.00000
59112371.87626,87538638.69161,613222.43849,   0.00010,   0.00028,   0.00001,77355008.46238,   0.00000,274640135.82653,   0.00000,   0.00000,   0.00000,-397285127.36415,   0.00000
59789187.75281,88179115.46070,581425.71946,   0.00010,   0.00028,   0.00001,77968967.24350,   0.00000,274640135.82653,   0.00000,   0.00000,   0.00000,-396671168.58303,   0.00000
60459190.04672,88803693.87027,549629.00042,   0.00010,   0.00029,   0.00001,78570456.13761,   0.00000,274640135.82653,   0.00000,   0.00000,   0.00000,-396069679.68892,   0.00000
61145090.70014,89435085.86250,517832.28139,   0.00010,   0.00029,   0.00001,79181088.10782,   0.00000,274640135.82653,   0.00000,   0.00000,   0.00000,-395459047.71871,   0.00000
61808279.41140,90043765.91255,481493.17393,   0.00011,   0.00029,   0.00001,79770849.61165,   0.00000,274640135.82653,   0.00000,   0.00000,   0.00000,-394869286.21488,   0.00000
62487366.48217,90659259.54526,449696.45489,   0.00011,   0.00029,   0.00001,80369898.69142,   0.00000,274640135.82653,   0.00000,   0.00000,   0.00000,-394270237.13511,   0.00000
63159639.97029,91258854.81845,417899.73586,   0.00011,   0.00029,   0.00001,80956569.90069,   0.00000,274640135.82653,   0.00000,   0.00000,   0.00000,-393683565.92584,   0.00000
63840998.23528,91849365.31478,381560.62839,   0.00011,   0.00029,   0.00000,81539319.11030,   0.00000,274640135.82653,   0.00000,   0.00000,   0.00000,-393100816.71623,   0.00000
64506458.14075,92433062.22845,349763.90936,   0.00011,   0.00029,   0.00000,82114503.46747,   0.00000,274640135.82653,   0.00000,   0.00000,   0.00000,-392525632.35906,   0.00000
65187816.40574,93023572.72477,317967.19033,   0.00012,   0.00030,   0.00000,82699070.24534,   0.00000,274640135.82653,   0.00000,   0.00000,   0.00000,-391941065.58119,   0.00000
65862361.08808,93598184.86158,281628.08286,   0.00012,   0.00030,   0.00000,83271311.45880,   0.00000,274640135.82653,   0.00000,   0.00000,   0.00000,-391368824.36773,   0.00000
66530092.18777,94156898.63887,249831.36383,   0.00012,   0.00030,   0.00000,83831347.52810,   0.00000,274640135.82653,   0.00000,   0.00000,   0.00000,-390808788.29843,   0.00000
67213721.64698,94722425.99881,213492.25636,   0.00012,   0.00030,   0.00000,84400902.40488,   0.00000,274640135.82653,   0.00000,   0.00000,   0.00000,-390239233.42165,   0.00000
67874639.16402,95265241.41659,181695.53733,   0.00012,   0.00030,   0.00000,84949620.46759,   0.00000,274640135.82653,   0.00000,   0.00000,   0.00000,-389690515.35894,   0.00000
68551455.04057,95814870.41701,145356.42986,   0.00013,   0.00030,   0.00000,85507929.36958,   0.00000,274640135.82653,   0.00000,   0.00000,   0.00000,-389132206.45695,   0.00000
69221457.33448,96348601.05792,113559.71083,   0.00013,   0.00030,   0.00000,86054117.80609,   0.00000,274640135.82653,   0.00000,   0.00000,   0.00000,-388586018.02044,   0.00000
69907357.98790,96889145.28148,81762.99180,   0.00013,   0.00030,   0.00000,86610051.75758,   0.00000,274640135.82653,   0.00000,   0.00000,   0.00000,-388030084.06895,   0.00000
70570546.69916,97406977.56287,45423.88433,   0.00013,   0.00031,   0.00000,87145073.70136,   0.00000,274640135.82653,   0.00000,   0.00000,   0.00000,-387495062.12517,   0.00000
71249633.76993,97931623.42691,13627.16530,   0.00013,   0.00031,   0.00000,87689916.36908,   0.00000,274640135.82653,   0.00000,   0.00000,   0.00000,-386950219.45745,   0.00000
71921907.25806,98440370.93144,-18169.55373,   0.00014,   0.00031,  -0.00000,88222724.59278,   0.00000,274640135.82653,   0.00000,   0.00000,   0.00000,-386417411.23375,   0.00000
72594180.74618,98949118.43596,-54508.66120,   0.00014,   0.00031,  -0.00000,88756531.26745,   0.00000,274640135.82653,   0.00000,   0.00000,   0.00000,-385883604.55908,   0.00000
73275539.01117,99448781.16362,-86305.38023,   0.00014,   0.00031,  -0.00000,89287311.49718,   0.00000,274640135.82653,   0.00000,   0.00000,   0.00000,-385352824.32934,   0.00000
73940998.91664,99941630.30863,-118102.09926,   0.00014,   0.00031,  -0.00000,89810125.57322,   0.00000,274640135.82653,   0.00000,   0.00000,   0.00000,-384830010.25331,   0.00000
74615543.59898,100425394.67677,-154441.20673,   0.00014,   0.00031,  -0.00000,90330035.88988,   0.00000,274640135.82653,   0.00000,   0.00000,   0.00000,-384310099.93665,   0.00000
75290088.28132,100909159.04492,-186237.92576,   0.00015,   0.00031,  -0.00000,90850978.71444,   0.00000,274640135.82653,   0.00000,   0.00000,   0.00000,-383789157.11209,   0.00000
75957819.38101,101377025.05354,-218034.64480,   0.00015,   0.00031,  -0.00000,91360037.17569,   0.00000,274640135.82653,   0.00000,   0.00000,   0.00000,-383280098.65084,   0.00000
76634635.25756,101835806.28530,-249831.36383,   0.00015,   0.00031,  -0.00000,91866403.75640,   0.00000,274640135.82653,   0.00000,   0.00000,   0.00000,-382773732.07013,   0.00000
77302366.35725,102303672.29393,-281628.08286,   0.00015,   0.00031,  -0.00000,92377590.34002,   0.00000,274640135.82653,   0.00000,   0.00000,   0.00000,-382262545.48651,   0.00000
77972368.65116,102746555.16617,-313424.80190,   0.00015,   0.00032,  -0.00000,92873286.25527,   0.00000,274640135.82653,   0.00000,   0.00000,   0.00000,-381766849.57126,   0.00000
78642370.94507,103189438.03841,-345221.52093,   0.00016,   0.00032,  -0.00000,93370113.52896,   0.00000,274640135.82653,   0.00000,   0.00000,   0.00000,-381270022.29757,   0.00000
79312373.23897,103632320.91066,-377018.23996,   0.00016,   0.00032,  -0.00000,93868054.19684,   0.00000,274640135.82653,   0.00000,   0.00000,   0.00000,-380772081.62969,   0.00000
79991460.30975,104066119.00603,-408814.95899,   0.00016,   0.00032,  -0.00001,94363612.73508,   0.00000,274640135.82653,   0.00000,   0.00000,   0.00000,-380276523.09145,   0.00000
80654649.02100,104493103.51876,-436069.28959,   0.00016,   0.00032,  -0.00001,94850919.71899,   0.00000,274640135.82653,   0.00000,   0.00000,   0.00000,-379789216.10754,   0.00000
81326922.50912,104911003.25462,-467866.00863,   0.00017,   0.00032,  -0.00001,95336008.89726,   0.00000,274640135.82653,   0.00000,   0.00000,   0.00000,-379304126.92926,   0.00000
81999195.99725,105328902.99048,-495120.33923,   0.00017,   0.00032,  -0.00001,95822210.48031,   0.00000,274640135.82653,   0.00000,   0.00000,   0.00000,-378817925.34622,   0.00000
82664655.90272,105730904.36683,-526917.05826,   0.00017,   0.00032,  -0.00001,96296903.22505,   0.00000,274640135.82653,   0.00000,   0.00000,   0.00000,-378343232.60148,   0.00000
83346014.16771,106139719.32582,-554171.38886,   0.00017,   0.00032,  -0.00001,96782213.56895,   0.00000,274640135.82653,   0.00000,   0.00000,   0.00000,-377857922.25758,   0.00000
84004660.49053,106525822.34265,-585968.10789,   0.00017,   0.00032,  -0.00001,97246585.26863,   0.00000,274640135.82653,   0.00000,   0.00000,   0.00000,-377393550.55790,   0.00000
84679205.17287,106918738.94212,-613222.43849,   0.00018,   0.00032,  -0.00001,97721639.46259,   0.00000,274640135.82653,   0.00000,   0.00000,   0.00000,-376918496.36394,   0.00000
85346936.27256,107295757.18208,-640476.76909,   0.00018,   0.00032,  -0.00001,98185261.22249,   0.00000,274640135.82653,   0.00000,   0.00000,   0.00000,-376454874.60404,   0.00000
86014667.37225,107672775.42204,-667731.09969,   0.00018,   0.00032,  -0.00001,98650135.33562,   0.00000,274640135.82653,   0.00000,   0.00000,   0.00000,-375990000.49091,   0.00000
86682398.47194,108049793.66201,-694985.43029,   0.00018,   0.00032,  -0.00001,99116244.18063,   0.00000,274640135.82653,   0.00000,   0.00000,   0.00000,-375523891.64590,   0.00000
87359214.34850,108417727.12510,-722239.76089,   0.00019,   0.00032,  -0.00001,99580687.45634,   0.00000,274640135.82653,   0.00000,   0.00000,   0.00000,-375059448.37019,   0.00000
88029216.64240,108769762.22868,-749494.09149,   0.00019,   0.00032,  -0.00001,100033856.36257,   0.00000,274640135.82653,   0.00000,   0.00000,   0.00000,-374606279.46396,   0.00000
88699218.93631,109121797.33226,-772206.03365,   0.00019,   0.00032,  -0.00001,100488252.08506,   0.00000,274640135.82653,   0.00000,   0.00000,   0.00000,-374151883.74147,   0.00000
89369221.23022,109473832.43583,-799460.36425,   0.00019,   0.00032,  -0.00001,100944063.48185,   0.00000,274640135.82653,   0.00000,   0.00000,   0.00000,-373696072.34468,   0.00000
90032409.94147,109809969.17989,-822172.30642,   0.00020,   0.00032,  -0.00001,101388539.35331,   0.00000,274640135.82653,   0.00000,   0.00000,   0.00000,-373251596.47322,   0.00000
90695598.65273,110146105.92396,-844884.24859,   0.00020,   0.00032,  -0.00001,101834329.85653,   0.00000,274640135.82653,   0.00000,   0.00000,   0.00000,-372805805.97000,   0.00000
91367872.14085,110473157.89115,-872138.57919,   0.00020,   0.00032,  -0.00001,102278987.02030,   0.00000,274640135.82653,   0.00000,   0.00000,   0.00000,-372361148.80623,   0.00000
92040145.62897,110800209.85835,-894850.52135,   0.00020,   0.00032,  -0.00001,102724922.64947,   0.00000,274640135.82653,   0.00000,   0.00000,   0.00000,-371915213.17706,   0.00000
92712419.11710,111127261.82554,-917562.46352,   0.00021,   0.00032,  -0.00001,103172232.06030,   0.00000,274640135.82653,   0.00000,   0.00000,   0.00000,-371467903.76623,   0.00000
93377879.02257,111438415.43322,-935732.01725,   0.00021,   0.00032,  -0.00001,103608361.79312,   0.00000,274640135.82653,   0.00000,   0.00000,   0.00000,-371031774.03341,   0.00000
94036525.34539,111733670.68138,-958443.95942,   0.00021,   0.00033,  -0.00001,104033604.91916,   0.00000,274640135.82653,   0.00000,   0.00000,   0.00000,-370606530.90737,   0.00000
94717883.61038,112051637.87171,-981155.90158,   0.00021,   0.00033,  -0.00001,104482730.78259,   0.00000,274640135.82653,   0.00000,   0.00000,   0.00000,-370157405.04394,   0.00000
95369716.35055,112330994.76035,-999325.45532,   0.00021,   0.00033,  -0.00001,104898312.79416,   0.00000,274640135.82653,   0.00000,   0.00000,   0.00000,-369741823.03236,   0.00000
96044261.03289,112633063.59117,-1017495.00905,   0.00022,   0.00033,  -0.00001,105337807.16857,   0.00000,274640135.82653,   0.00000,   0.00000,   0.00000,-369302328.65796,   0.00000
96711992.13258,112919234.06246,-1035664.56278,   0.00022,   0.00033,  -0.00001,105766424.58975,   0.00000,274640135.82653,   0.00000,   0.00000,   0.00000,-368873711.23678,   0.00000
97388808.00914,113196319.75689,-1053834.11652,   0.00022,   0.00033,  -0.00001,106194462.09118,   0.00000,274640135.82653,   0.00000,   0.00000,   0.00000,-368445673.73535,   0.00000
98049725.52618,113466591.86867,-1072003.67025,   0.00022,   0.00033,  -0.00001,106613768.02526,   0.00000,274640135.82653,   0.00000,   0.00000,   0.00000,-368026367.80127,   0.00000
98726541.40274,113743677.56310,-1090173.22398,   0.00023,   0.00033,  -0.00001,107044849.02912,   0.00000,274640135.82653,   0.00000,   0.00000,   0.00000,-367595286.79741,   0.00000
99380645.33712,113998051.31536,-1108342.77772,   0.00023,   0.00032,  -0.00001,107454891.63164,   0.00000,274640135.82653,   0.00000,   0.00000,   0.00000,-367185244.19489,   0.00000
100050647.63103,114259238.65027,-1121969.94302,   0.00023,   0.00032,  -0.00001,107876648.69285,   0.00000,274640135.82653,   0.00000,   0.00000,   0.00000,-366763487.13368,   0.00000
100720649.92494,114520425.98519,-1135597.10832,   0.00023,   0.00032,  -0.00001,108299927.50043,   0.00000,274640135.82653,   0.00000,   0.00000,   0.00000,-366340208.32610,   0.00000
101383838.63619,114765714.96058,-1149224.27362,   0.00024,   0.00032,  -0.00001,108712582.02152,   0.00000,274640135.82653,   0.00000,   0.00000,   0.00000,-365927553.80501,   0.00000
102062925.70697,115017817.51863,-1162851.43892,   0.00024,   0.00032,  -0.00002,109137256.95948,   0.00000,274640135.82653,   0.00000,   0.00000,   0.00000,-365502878.86705,   0.00000
102719300.83557,115247208.13451,-1176478.60421,   0.00024,   0.00032,  -0.00002,109540921.16573,   0.00000,274640135.82653,   0.00000,   0.00000,   0.00000,-365099214.66079,   0.00000
103391574.32370,115483412.33304,-1190105.76951,   0.00025,   0.00032,  -0.00002,109956688.79635,   0.00000,274640135.82653,   0.00000,   0.00000,   0.00000,-364683447.03018,   0.00000
104063847.81182,115719616.53157,-1199190.54638,   0.00025,   0.00032,  -0.00002,110373908.51977,   0.00000,274640135.82653,   0.00000,   0.00000,   0.00000,-364266227.30676,   0.00000
104729307.71729,115939922.37058,-1208275.32325,   0.00025,   0.00032,  -0.00002,110780708.94945,   0.00000,274640135.82653,   0.00000,   0.00000,   0.00000,-363859426.87708,   0.00000
105394767.62276,116160228.20959,-1217360.10011,   0.00025,   0.00032,  -0.00002,111189124.00790,   0.00000,274640135.82653,   0.00000,   0.00000,   0.00000,-363451011.81863,   0.00000
106076125.88775,116387347.63126,-1226444.87698,   0.00026,   0.00032,  -0.00002,111609823.64482,   0.00000,274640135.82653,   0.00000,   0.00000,   0.00000,-363030312.18171,   0.00000
106734772.21058,116591755.11075,-1235529.65385,   0.00026,   0.00032,  -0.00002,112009526.98699,   0.00000,274640135.82653,   0.00000,   0.00000,   0.00000,-362630608.83954,   0.00000
107409316.89292,116802976.17290,-1244614.43071,   0.00026,   0.00032,  -0.00002,112421598.95546,   0.00000,274640135.82653,   0.00000,   0.00000,   0.00000,-362218536.87107,   0.00000
108077047.99261,116998298.87553,-1249156.81915,   0.00026,   0.00032,  -0.00002,112823316.11071,   0.00000,274640135.82653,   0.00000,   0.00000,   0.00000,-361816819.71582,   0.00000
108744779.09229,117193621.57816,-1253699.20758,   0.00027,   0.00032,  -0.00002,113226731.44626,   0.00000,274640135.82653,   0.00000,   0.00000,   0.00000,-361413404.38027,   0.00000
109412510.19198,117388944.28079,-1258241.59601,   0.00027,   0.00032,  -0.00002,113631826.87550,   0.00000,274640135.82653,   0.00000,   0.00000,   0.00000,-361008308.95103,   0.00000
110089326.06854,117575182.20656,-1262783.98445,   0.00027,   0.00032,  -0.00002,114037688.87433,   0.00000,274640135.82653,   0.00000,   0.00000,   0.00000,-360602446.95220,   0.00000
110757057.16823,117770504.90919,-1267326.37288,   0.00027,   0.00032,  -0.00002,114446150.40524,   0.00000,274640135.82653,   0.00000,   0.00000,   0.00000,-360193985.42129,   0.00000
111427059.46214,117940844.47543,-1267326.37288,   0.00028,   0.00032,  -0.00002,114843585.95056,   0.00000,274640135.82653,   0.00000,   0.00000,   0.00000,-359796549.87597,   0.00000
112103875.33869,118127082.40120,-1271868.76131,   0.00028,   0.00032,  -0.00002,115254655.84254,   0.00000,274640135.82653,   0.00000,   0.00000,   0.00000,-359385479.98399,   0.00000
112773877.63260,118297421.96744,-1271868.76131,   0.00028,   0.00032,  -0.00002,115655615.86739,   0.00000,274640135.82653,   0.00000,   0.00000,   0.00000,-358984519.95914,   0.00000
113443879.92650,118467761.53369,-1271868.76131,   0.00029,   0.00032,  -0.00002,116058325.21379,   0.00000,274640135.82653,   0.00000,   0.00000,   0.00000,-358581810.61273,   0.00000
114107068.63776,118622202.74042,-1271868.76131,   0.00029,   0.00032,  -0.00002,116451153.77903,   0.00000,274640135.82653,   0.00000,   0.00000,   0.00000,-358188982.04750,   0.00000
114786155.70853,118783457.52980,-1267326.37288,   0.00029,   0.00032,  -0.00002,116856720.91014,   0.00000,274640135.82653,   0.00000,   0.00000,   0.00000,-357783414.91639,   0.00000
115465242.77931,118944712.31918,-1267326.37288,   0.00029,   0.00032,  -0.00002,117264253.47025,   0.00000,274640135.82653,   0.00000,   0.00000,   0.00000,-357375882.35628,   0.00000
116128431.49056,119099153.52592,-1262783.98445,   0.00030,   0.00032,  -0.00002,117662257.96917,   0.00000,274640135.82653,   0.00000,   0.00000,   0.00000,-356977877.85736,   0.00000
116800704.97868,119244509.95578,-1258241.59601,   0.00030,   0.00031,  -0.00002,118061697.96416,   0.00000,274640135.82653,   0.00000,   0.00000,   0.00000,-356578437.86237,   0.00000
117472978.46681,119389866.38564,-1249156.81915,   0.00030,   0.00031,  -0.00002,118462816.27855,   0.00000,274640135.82653,   0.00000,   0.00000,   0.00000,-356177319.54798,   0.00000
118154336.73180,119526138.03864,-1244614.43071,   0.00030,   0.00031,  -0.00002,118865725.06883,   0.00000,274640135.82653,   0.00000,   0.00000,   0.00000,-355774410.75770,   0.00000
118826610.21992,119671494.46851,-1235529.65385,   0.00031,   0.00031,  -0.00002,119270497.01252,   0.00000,274640135.82653,   0.00000,   0.00000,   0.00000,-355369638.81400,   0.00000
119507968.48491,119807766.12150,-1230987.26541,   0.00031,   0.00031,  -0.00002,119677143.20396,   0.00000,274640135.82653,   0.00000,   0.00000,   0.00000,-354962992.62257,   0.00000
120166614.80773,119921325.83234,-1221902.48855,   0.00031,   0.00031,  -0.00002,120062813.02836,   0.00000,274640135.82653,   0.00000,   0.00000,   0.00000,-354577322.79817,   0.00000
120847973.07272,120057597.48533,-1208275.32325,   0.00032,   0.00031,  -0.00002,120472908.94397,   0.00000,274640135.82653,   0.00000,   0.00000,   0.00000,-354167226.88256,   0.00000
121522517.75506,120177970.77882,-1199190.54638,   0.00032,   0.00031,  -0.00002,120873700.89563,   0.00000,274640135.82653,   0.00000,   0.00000,   0.00000,-353766434.93090,   0.00000
122212960.79692,120305157.65495,-1185563.38108,   0.00032,   0.00031,  -0.00002,121287698.92520,   0.00000,274640135.82653,   0.00000,   0.00000,   0.00000,-353352436.90132,   0.00000
122880691.89661,120409632.58891,-1171936.21578,   0.00032,   0.00031,  -0.00002,121680916.33911,   0.00000,274640135.82653,   0.00000,   0.00000,   0.00000,-352959219.48742,   0.00000
123555236.57895,120530005.88239,-1158309.05048,   0.00033,   0.00031,  -0.00002,122087224.76982,   0.00000,274640135.82653,   0.00000,   0.00000,   0.00000,-352552911.05671,   0.00000
124238866.03815,120641294.39901,-1144681.88518,   0.00033,   0.00031,  -0.00001,122495759.21256,   0.00000,274640135.82653,   0.00000,   0.00000,   0.00000,-352144376.61397,   0.00000
124922495.49736,120752582.91562,-1131054.71988,   0.00033,   0.00031,  -0.00001,122906224.50002,   0.00000,274640135.82653,   0.00000,   0.00000,   0.00000,-351733911.32651,   0.00000
125599311.37391,120847973.07272,-1112885.16615,   0.00034,   0.00030,  -0.00001,123307392.13323,   0.00000,274640135.82653,   0.00000,   0.00000,   0.00000,-351332743.69330,   0.00000
126282940.83312,120959261.58934,-1094715.61242,   0.00034,   0.00030,  -0.00001,123721574.68288,   0.00000,274640135.82653,   0.00000,   0.00000,   0.00000,-350918561.14365,   0.00000
126959756.70968,121054651.74643,-1076546.05868,   0.00034,   0.00030,  -0.00001,124126613.79889,   0.00000,274640135.82653,   0.00000,   0.00000,   0.00000,-350513522.02764,   0.00000
127645657.36310,121140957.12667,-1058376.50495,   0.00034,   0.00030,  -0.00001,124534287.30142,   0.00000,274640135.82653,   0.00000,   0.00000,   0.00000,-350105848.52511,   0.00000
128322473.23965,121236347.28377,-1035664.56278,   0.00035,   0.00030,  -0.00001,124943102.70806,   0.00000,274640135.82653,   0.00000,   0.00000,   0.00000,-349697033.11847,   0.00000
129008373.89308,121322652.66400,-1012952.62062,   0.00035,   0.00030,  -0.00001,125354643.57742,   0.00000,274640135.82653,   0.00000,   0.00000,   0.00000,-349285492.24911,   0.00000
129694274.54650,121408958.04423,-990240.67845,   0.00035,   0.00030,  -0.00001,125768179.34732,   0.00000,274640135.82653,   0.00000,   0.00000,   0.00000,-348871956.47921,   0.00000
130380175.19992,121495263.42446,-967528.73628,   0.00036,   0.00030,  -0.00001,126183690.40437,   0.00000,274640135.82653,   0.00000,   0.00000,   0.00000,-348456445.42216,   0.00000
131066075.85334,121581568.80469,-944816.79412,   0.00036,   0.00030,  -0.00001,126601157.29962,   0.00000,274640135.82653,   0.00000,   0.00000,   0.00000,-348038978.52691,   0.00000
131745162.92412,121651975.82541,-917562.46352,   0.00036,   0.00030,  -0.00001,127009675.07868,   0.00000,274640135.82653,   0.00000,   0.00000,   0.00000,-347630460.74785,   0.00000
132431063.57754,121738281.20564,-890308.13292,   0.00037,   0.00030,  -0.00001,127430936.58422,   0.00000,274640135.82653,   0.00000,   0.00000,   0.00000,-347209199.24231,   0.00000
133126049.00783,121815501.80901,-863053.80232,   0.00037,   0.00029,  -0.00001,127855306.99691,   0.00000,274640135.82653,   0.00000,   0.00000,   0.00000,-346784828.82962,   0.00000
133814220.85547,121876824.05286,-835799.47172,   0.00037,   0.00029,  -0.00001,128270999.74533,   0.00000,274640135.82653,   0.00000,   0.00000,   0.00000,-346369136.08120,   0.00000
134509206.28576,121954044.65622,-804002.75269,   0.00037,   0.00029,  -0.00001,128699312.72104,   0.00000,274640135.82653,   0.00000,   0.00000,   0.00000,-345940823.10549,   0.00000
135197378.13340,122015366.90007,-776748.42209,   0.00038,   0.00029,  -0.00001,129119065.71596,   0.00000,274640135.82653,   0.00000,   0.00000,   0.00000,-345521070.11057,   0.00000
135885549.98104,122076689.14392,-744951.70305,   0.00038,   0.00029,  -0.00001,129540756.29285,   0.00000,274640135.82653,   0.00000,   0.00000,   0.00000,-345099379.53368,   0.00000
136573721.82867,122138011.38777,-713154.98402,   0.00038,   0.00029,  -0.00001,129964450.13160,   0.00000,274640135.82653,   0.00000,   0.00000,   0.00000,-344675685.69493,   0.00000
137277792.03583,122206147.21427,-676815.87656,   0.00039,   0.00029,  -0.00001,130402142.54221,   0.00000,274640135.82653,   0.00000,   0.00000,   0.00000,-344237993.28432,   0.00000
137965963.88347,122267469.45812,-645019.15752,   0.00039,   0.00029,  -0.00001,130829813.69606,   0.00000,274640135.82653,   0.00000,   0.00000,   0.00000,-343810322.13047,   0.00000
138663220.50798,122319706.92510,-608680.05006,   0.00039,   0.00029,  -0.00001,131261062.02629,   0.00000,274640135.82653,   0.00000,   0.00000,   0.00000,-343379073.80024,   0.00000
139360477.13248,122371944.39208,-572340.94259,   0.00040,   0.00029,  -0.00001,131694364.06029,   0.00000,274640135.82653,   0.00000,   0.00000,   0.00000,-342945771.76624,   0.00000
140057733.75699,122424181.85906,-531459.44669,   0.00040,   0.00028,  -0.00001,132129644.54732,   0.00000,274640135.82653,   0.00000,   0.00000,   0.00000,-342510491.27921,   0.00000
140754990.38149,122476419.32605,-495120.33923,   0.00040,   0.00028,  -0.00001,132566997.46346,   0.00000,274640135.82653,   0.00000,   0.00000,   0.00000,-342073138.36307,   0.00000
141452247.00600,122528656.79303,-454238.84333,   0.00040,   0.00028,  -0.00001,133006297.18675,   0.00000,274640135.82653,   0.00000,   0.00000,   0.00000,-341633838.63978,   0.00000
142158588.40737,122571809.48314,-413357.34743,   0.00041,   0.00028,  -0.00001,133449578.17909,   0.00000,274640135.82653,   0.00000,   0.00000,   0.00000,-341190557.64744,   0.00000
142871743.39139,122630860.53278,-372475.85153,   0.00041,   0.00028,  -0.00000,133905169.39827,   0.00000,274640135.82653,   0.00000,   0.00000,   0.00000,-340734966.42825,   0.00000
143562186.43325,122667199.64024,-331594.35563,   0.00041,   0.00028,  -0.00000,134340246.09746,   0.00000,274640135.82653,   0.00000,   0.00000,   0.00000,-340299889.72907,   0.00000
144268527.83462,122710352.33036,-286170.47130,   0.00042,   0.00028,  -0.00000,134789623.08893,   0.00000,274640135.82653,   0.00000,   0.00000,   0.00000,-339850512.73760,   0.00000
144974869.23599,122753505.02047,-240746.58696,   0.00042,   0.00028,  -0.00000,135241030.17561,   0.00000,274640135.82653,   0.00000,   0.00000,   0.00000,-339399105.65092,   0.00000
145674397.05472,122780759.35107,-195322.70263,   0.00042,   0.00027,  -0.00000,135684362.35826,   0.00000,274640135.82653,   0.00000,   0.00000,   0.00000,-338955773.46827,   0.00000
146396636.81560,122830725.62384,-149898.81830,   0.00043,   0.00027,  -0.00000,136152211.54361,   0.00000,274640135.82653,   0.00000,   0.00000,   0.00000,-338487924.28292,   0.00000
147096164.63433,122857979.95444,-104474.93397,   0.00043,   0.00027,  -0.00000,136599633.92202,   0.00000,274640135.82653,   0.00000,   0.00000,   0.00000,-338040501.90451,   0.00000
147818404.39522,122907946.22721,-54508.66120,   0.00043,   0.00027,  -0.00000,137071500.82538,   0.00000,274640135.82653,   0.00000,   0.00000,   0.00000,-337568635.00115,   0.00000
148533830.57345,122942014.14046,-4542.38843,   0.00044,   0.00027,  -0.00000,137535411.54531,   0.00000,274640135.82653,   0.00000,   0.00000,   0.00000,-337104724.28122,   0.00000
149249256.75169,122976082.05370,45423.88433,   0.00044,   0.00027,   0.00000,138001357.75944,   0.00000,274640135.82653,   0.00000,   0.00000,   0.00000,-336638778.06709,   0.00000
149964682.92993,123010149.96695,99932.54553,   0.00044,   0.00027,   0.00000,138469328.53073,   0.00000,274640135.82653,   0.00000,   0.00000,   0.00000,-336170807.29580,   0.00000
150680109.10817,123044217.88020,149898.81830,   0.00045,   0.00027,   0.00000,138939289.14547,   0.00000,274640135.82653,   0.00000,   0.00000,   0.00000,-335700846.68106,   0.00000
151388721.70376,123062387.43394,204407.47950,   0.00045,   0.00026,   0.00000,139401449.36067,   0.00000,274640135.82653,   0.00000,   0.00000,   0.00000,-335238686.46586,   0.00000
152120046.24151,123103268.92984,258916.14070,   0.00045,   0.00026,   0.00000,139887988.90665,   0.00000,274640135.82653,   0.00000,   0.00000,   0.00000,-334752146.91988,   0.00000
152844557.19662,123128252.06622,313424.80190,   0.00046,   0.00026,   0.00000,140366793.30019,   0.00000,274640135.82653,   0.00000,   0.00000,   0.00000,-334273342.52634,   0.00000
153559983.37486,123162319.97947,372475.85153,   0.00046,   0.00026,   0.00000,140844729.97999,   0.00000,274640135.82653,   0.00000,   0.00000,   0.00000,-333795405.84654,   0.00000
154284494.32996,123187303.11585,426984.51273,   0.00046,   0.00026,   0.00001,141327538.07320,   0.00000,274640135.82653,   0.00000,   0.00000,   0.00000,-333312597.75333,   0.00000
155009005.28507,123212286.25223,486035.56236,   0.00047,   0.00026,   0.00001,141812390.02222,   0.00000,274640135.82653,   0.00000,   0.00000,   0.00000,-332827745.80431,   0.00000
155749414.59969,123244082.97127,545086.61199,   0.00047,   0.00026,   0.00001,142311916.99281,   0.00000,274640135.82653,   0.00000,   0.00000,   0.00000,-332328218.83372,   0.00000
156473925.55480,123269066.10765,608680.05006,   0.00047,   0.00026,   0.00001,142800801.25284,   0.00000,274640135.82653,   0.00000,   0.00000,   0.00000,-331839334.57369,   0.00000
157214334.86942,123300862.82668,667731.09969,   0.00047,   0.00025,   0.00001,143304306.69935,   0.00000,274640135.82653,   0.00000,   0.00000,   0.00000,-331335829.12718,   0.00000
157932032.24187,123309947.60355,731324.53776,   0.00048,   0.00025,   0.00001,143787634.62867,   0.00000,274640135.82653,   0.00000,   0.00000,   0.00000,-330852501.19785,   0.00000
158672441.55649,123341744.32258,794917.97582,   0.00048,   0.00025,   0.00001,144295147.41772,   0.00000,274640135.82653,   0.00000,   0.00000,   0.00000,-330344988.40881,   0.00000
159412850.87112,123373541.04162,858511.41389,   0.00048,   0.00025,   0.00001,144804595.50041,   0.00000,274640135.82653,   0.00000,   0.00000,   0.00000,-329835540.32611,   0.00000
160146446.60309,123389439.40113,926647.24039,   0.00049,   0.00025,   0.00001,145306689.01399,   0.00000,274640135.82653,   0.00000,   0.00000,   0.00000,-329333446.81254,   0.00000
160902754.27723,123428049.70281,990240.67845,   0.00049,   0.00025,   0.00001,145832809.63141,   0.00000,274640135.82653,   0.00000,   0.00000,   0.00000,-328807326.19511,   0.00000
161636350.00920,123443948.06233,1058376.50495,   0.00049,   0.00025,   0.00001,146338816.60199,   0.00000,274640135.82653,   0.00000,   0.00000,   0.00000,-328301319.22454,   0.00000
162385844.10069,123466660.00450,1126512.33145,   0.00050,   0.00025,   0.00001,146859619.31019,   0.00000,274640135.82653,   0.00000,   0.00000,   0.00000,-327780516.51634,   0.00000
163119439.83266,123482558.36401,1199190.54638,   0.00050,   0.00024,   0.00002,147369611.16832,   0.00000,274640135.82653,   0.00000,   0.00000,   0.00000,-327270524.65821,   0.00000
163875747.50680,123521168.66570,1267326.37288,   0.00050,   0.00024,   0.00002,147903462.53504,   0.00000,274640135.82653,   0.00000,   0.00000,   0.00000,-326736673.29149,   0.00000
164625241.59828,123543880.60786,1340004.58781,   0.00051,   0.00024,   0.00002,148430139.29378,   0.00000,274640135.82653,   0.00000,   0.00000,   0.00000,-326209996.53275,   0.00000
165374735.68977,123566592.55003,1412682.80274,   0.00051,   0.00024,   0.00002,148958720.57031,   0.00000,274640135.82653,   0.00000,   0.00000,   0.00000,-325681415.25622,   0.00000
166140128.14078,123596118.07484,1485361.01768,   0.00051,   0.00024,   0.00002,149502129.01229,   0.00000,274640135.82653,   0.00000,   0.00000,   0.00000,-325138006.81424,   0.00000
166889622.23227,123618830.01701,1558039.23261,   0.00052,   0.00024,   0.00002,150034475.23826,   0.00000,274640135.82653,   0.00000,   0.00000,   0.00000,-324605660.58827,   0.00000
167655014.68327,123648355.54183,1635259.83597,   0.00052,   0.00024,   0.00002,150581788.86211,   0.00000,274640135.82653,   0.00000,   0.00000,   0.00000,-324058346.96442,   0.00000
168404508.77476,123671067.48399,1707938.05091,   0.00053,   0.00023,   0.00002,151117825.87161,   0.00000,274640135.82653,   0.00000,   0.00000,   0.00000,-323522309.95492,   0.00000
169163087.64311,123684694.64929,1785158.65427,   0.00053,   0.00023,   0.00002,151659913.76970,   0.00000,274640135.82653,   0.00000,   0.00000,   0.00000,-322980222.05683,   0.00000
169928480.09412,123714220.17411,1862379.25764,   0.00053,   0.00023,   0.00002,152212787.20813,   0.00000,274640135.82653,   0.00000,   0.00000,   0.00000,-322427348.61840,   0.00000
170709770.90464,123750559.28158,1944142.24944,   0.00054,   0.00023,   0.00003,152780680.21774,   0.00000,274640135.82653,   0.00000,   0.00000,   0.00000,-321859455.60879,   0.00000
171475163.35564,123780084.80639,2021362.85280,   0.00054,   0.00023,   0.00003,153337172.60834,   0.00000,274640135.82653,   0.00000,   0.00000,   0.00000,-321302963.21819,   0.00000
172240555.80665,123809610.33121,2103125.84460,   0.00054,   0.00023,   0.00003,153895620.44533,   0.00000,274640135.82653,   0.00000,   0.00000,   0.00000,-320744515.38120,   0.00000
173015033.03452,123830051.07916,2184888.83640,   0.00055,   0.00023,   0.00003,154460169.77123,   0.00000,274640135.82653,   0.00000,   0.00000,   0.00000,-320179966.05530,   0.00000
173796323.84504,123866390.18662,2266651.82820,   0.00055,   0.00022,   0.00003,155035269.11337,   0.00000,274640135.82653,   0.00000,   0.00000,   0.00000,-319604866.71316,   0.00000
174577614.65556,123902729.29409,2348414.82000,   0.00055,   0.00022,   0.00003,155612120.64738,   0.00000,274640135.82653,   0.00000,   0.00000,   0.00000,-319028015.17915,   0.00000
175358905.46608,123939068.40156,2434720.20023,   0.00056,   0.00022,   0.00003,156190917.18306,   0.00000,274640135.82653,   0.00000,   0.00000,   0.00000,-318449218.64347,   0.00000
176133382.69395,123959509.14951,2521025.58046,   0.00056,   0.00022,   0.00003,156762838.24347,   0.00000,274640135.82653,   0.00000,   0.00000,   0.00000,-317877297.58306,   0.00000
176930571.86399,124002661.83962,2607330.96069,   0.00056,   0.00022,   0.00003,157358253.85313,   0.00000,274640135.82653,   0.00000,   0.00000,   0.00000,-317281881.97340,   0.00000
177711862.67451,124039000.94709,2693636.34092,   0.00057,   0.00022,   0.00004,157942220.50742,   0.00000,274640135.82653,   0.00000,   0.00000,   0.00000,-316697915.31911,   0.00000
178502238.26190,124066255.27769,2779941.72116,   0.00057,   0.00022,   0.00004,158532535.24503,   0.00000,274640135.82653,   0.00000,   0.00000,   0.00000,-316107600.58150,   0.00000
179299427.43194,124109407.96780,2870789.48982,   0.00057,   0.00022,   0.00004,159133303.65728,   0.00000,274640135.82653,   0.00000,   0.00000,   0.00000,-315506832.16925,   0.00000
180096616.60198,124152560.65792,2957094.87005,   0.00058,   0.00021,   0.00004,159735489.92834,   0.00000,274640135.82653,   0.00000,   0.00000,   0.00000,-314904645.89819,   0.00000
180893805.77201,124195713.34804,3047942.63872,   0.00058,   0.00021,   0.00004,160339573.39223,   0.00000,274640135.82653,   0.00000,   0.00000,   0.00000,-314300562.43430,   0.00000
181684181.35940,124222967.67864,3138790.40738,   0.00058,   0.00021,   0.00004,160936929.51607,   0.00000,274640135.82653,   0.00000,   0.00000,   0.00000,-313703206.31046,   0.00000
182497268.88895,124272933.95140,3229638.17605,   0.00059,   0.00021,   0.00004,161557531.27017,   0.00000,274640135.82653,   0.00000,   0.00000,   0.00000,-313082604.55636,   0.00000
183310356.41851,124322900.22417,3325028.33315,   0.00059,   0.00021,   0.00004,162180031.38365,   0.00000,274640135.82653,   0.00000,   0.00000,   0.00000,-312460104.44288,   0.00000
184107545.58855,124366052.91428,3420418.49025,   0.00060,   0.00021,   0.00004,162790885.77521,   0.00000,274640135.82653,   0.00000,   0.00000,   0.00000,-311849250.05132,   0.00000
184920633.11810,124416019.18705,3511266.25891,   0.00060,   0.00021,   0.00005,163416291.46836,   0.00000,274640135.82653,   0.00000,   0.00000,   0.00000,-311223844.35817,   0.00000
185726907.06500,124450087.10030,3606656.41601,   0.00060,   0.00020,   0.00005,164035369.16655,   0.00000,274640135.82653,   0.00000,   0.00000,   0.00000,-310604766.65998,   0.00000
186555892.95407,124506866.95571,3702046.57311,   0.00061,   0.00020,   0.00005,164677523.71733,   0.00000,274640135.82653,   0.00000,   0.00000,   0.00000,-309962612.10920,   0.00000
187368980.48363,124556833.22848,3801979.11864,   0.00061,   0.00020,   0.00005,165308250.95181,   0.00000,274640135.82653,   0.00000,   0.00000,   0.00000,-309331884.87472,   0.00000
188197966.37270,124613613.08390,3897369.27574,   0.00061,   0.00020,   0.00005,165953508.57910,   0.00000,274640135.82653,   0.00000,   0.00000,   0.00000,-308686627.24743,   0.00000
189011053.90225,124663579.35666,3997301.82127,   0.00062,   0.00020,   0.00005,166587296.22446,   0.00000,274640135.82653,   0.00000,   0.00000,   0.00000,-308052839.60207,   0.00000
189846853.37397,124736257.57159,4097234.36680,   0.00062,   0.00020,   0.00005,167243946.60412,   0.00000,274640135.82653,   0.00000,   0.00000,   0.00000,-307396189.22241,   0.00000
190675839.26304,124793037.42701,4197166.91233,   0.00062,   0.00020,   0.00005,167894042.04323,   0.00000,274640135.82653,   0.00000,   0.00000,   0.00000,-306746093.78329,   0.00000
191520723.51163,124856630.86508,4297099.45787,   0.00063,   0.00019,   0.00006,168558976.97288,   0.00000,274640135.82653,   0.00000,   0.00000,   0.00000,-306081158.85365,   0.00000
192349709.40070,124913410.72049,4397032.00340,   0.00063,   0.00019,   0.00006,169212039.47515,   0.00000,274640135.82653,   0.00000,   0.00000,   0.00000,-305428096.35138,   0.00000
193194593.64929,124977004.15856,4501506.93736,   0.00064,   0.00019,   0.00006,169880286.50778,   0.00000,274640135.82653,   0.00000,   0.00000,   0.00000,-304759849.31875,   0.00000
194030393.12101,125049682.37349,4605981.87133,   0.00064,   0.00019,   0.00006,170544488.89605,   0.00000,274640135.82653,   0.00000,   0.00000,   0.00000,-304095646.93048,   0.00000
194875277.36959,125113275.81155,4710456.80529,   0.00064,   0.00019,   0.00006,171215613.76733,   0.00000,274640135.82653,   0.00000,   0.00000,   0.00000,-303424522.05920,   0.00000
195726975.20083,125192767.60914,4814931.73926,   0.00065,   0.00019,   0.00006,171895976.87179,   0.00000,274640135.82653,   0.00000,   0.00000,   0.00000,-302744158.95474,   0.00000
196571859.44942,125256361.04720,4919406.67322,   0.00065,   0.00019,   0.00006,172569921.47336,   0.00000,274640135.82653,   0.00000,   0.00000,   0.00000,-302070214.35317,   0.00000
197439455.64017,125342666.42743,5023881.60719,   0.00065,   0.00019,   0.00007,173266422.02664,   0.00000,274640135.82653,   0.00000,   0.00000,   0.00000,-301373713.79989,   0.00000
198291153.47141,125422158.22502,5132898.92959,   0.00066,   0.00018,   0.00007,173951242.73139,   0.00000,274640135.82653,   0.00000,   0.00000,   0.00000,-300688893.09514,   0.00000
199158749.66216,125508463.60525,5237373.86355,   0.00066,   0.00018,   0.00007,174650403.87833,   0.00000,274640135.82653,   0.00000,   0.00000,   0.00000,-299989731.94820,   0.00000
200026345.85291,125594768.98548,5346391.18595,   0.00067,   0.00018,   0.00007,175351287.50459,   0.00000,274640135.82653,   0.00000,   0.00000,   0.00000,-299288848.32194,   0.00000
200893942.04367,125681074.36571,5455408.50835,   0.00067,   0.00018,   0.00007,176053475.90983,   0.00000,274640135.82653,   0.00000,   0.00000,   0.00000,-298586659.91670,   0.00000
201761538.23442,125767379.74594,5564425.83075,   0.00067,   0.00018,   0.00007,176756953.54385,   0.00000,274640135.82653,   0.00000,   0.00000,   0.00000,-297883182.28268,   0.00000
202629134.42517,125853685.12618,5677985.54158,   0.00068,   0.00018,   0.00007,177462140.90850,   0.00000,274640135.82653,   0.00000,   0.00000,   0.00000,-297177994.91803,   0.00000
203512628.97544,125946804.08906,5787002.86398,   0.00068,   0.00018,   0.00008,178181622.53153,   0.00000,274640135.82653,   0.00000,   0.00000,   0.00000,-296458513.29500,   0.00000
204402937.10836,126055821.41146,5900562.57481,   0.00068,   0.00017,   0.00008,178910314.37631,   0.00000,274640135.82653,   0.00000,   0.00000,   0.00000,-295729821.45022,   0.00000
205286431.65863,126148940.37434,6009579.89721,   0.00069,   0.00017,   0.00008,179632273.00616,   0.00000,274640135.82653,   0.00000,   0.00000,   0.00000,-295007862.82037,   0.00000
206176739.79155,126257957.69674,6123139.60804,   0.00069,   0.00017,   0.00008,180363367.50612,   0.00000,274640135.82653,   0.00000,   0.00000,   0.00000,-294276768.32040,   0.00000
207060234.34182,126351076.65962,6236699.31887,   0.00070,   0.00017,   0.00008,181088213.12121,   0.00000,274640135.82653,   0.00000,   0.00000,   0.00000,-293551922.70532,   0.00000
207950542.47474,126460093.98202,6354801.41813,   0.00070,   0.00017,   0.00008,181822135.18630,   0.00000,274640135.82653,   0.00000,   0.00000,   0.00000,-292818000.64023,   0.00000
208856748.96717,126575924.88706,6468361.12897,   0.00070,   0.00017,   0.00008,182570231.05592,   0.00000,274640135.82653,   0.00000,   0.00000,   0.00000,-292069904.77061,   0.00000
209747057.10009,126684942.20946,6581920.83980,   0.00071,   0.00017,   0.00009,183305956.75880,   0.00000,274640135.82653,   0.00000,   0.00000,   0.00000,-291334179.06773,   0.00000
210653263.59253,126800773.11451,6700022.93906,   0.00071,   0.00017,   0.00009,184056805.80773,   0.00000,274640135.82653,   0.00000,   0.00000,   0.00000,-290583330.01880,   0.00000
211566283.66762,126932502.37908,6818125.03833,   0.00072,   0.00016,   0.00009,184816057.81772,   0.00000,274640135.82653,   0.00000,   0.00000,   0.00000,-289824078.00881,   0.00000
212488388.51957,127055146.86677,6931684.74916,   0.00072,   0.00016,   0.00009,185582129.93316,   0.00000,274640135.82653,   0.00000,   0.00000,   0.00000,-289058005.89337,   0.00000
213394595.01200,127170977.77182,7049786.84842,   0.00072,   0.00016,   0.00009,186336281.90104,   0.00000,274640135.82653,   0.00000,   0.00000,   0.00000,-288303853.92549,   0.00000
214307615.08709,127302707.03639,7167888.94769,   0.00073,   0.00016,   0.00009,187098715.81577,   0.00000,274640135.82653,   0.00000,   0.00000,   0.00000,-287541420.01076,   0.00000
215236533.52169,127441249.88360,7290533.43539,   0.00073,   0.00016,   0.00009,187876236.69594,   0.00000,274640135.82653,   0.00000,   0.00000,   0.00000,-286763899.13059,   0.00000
216165451.95629,127579792.73082,7408635.53465,   0.00073,   0.00016,   0.00010,188654250.46369,   0.00000,274640135.82653,   0.00000,   0.00000,   0.00000,-285985885.36284,   0.00000
217094370.39090,127718335.57803,7531280.02235,   0.00074,   0.00016,   0.00010,189433808.45267,   0.00000,274640135.82653,   0.00000,   0.00000,   0.00000,-285206327.37386,   0.00000
218023288.82550,127856878.42524,7649382.12161,   0.00074,   0.00016,   0.00010,190213821.36487,   0.00000,274640135.82653,   0.00000,   0.00000,   0.00000,-284426314.46166,   0.00000
218968105.61962,128002234.85511,7772026.60931,   0.00075,   0.00016,   0.00010,191008925.75504,   0.00000,274640135.82653,   0.00000,   0.00000,   0.00000,-283631210.07149,   0.00000
219919735.99638,128163489.64449,7894671.09701,   0.00075,   0.00015,   0.00010,191812061.78646,   0.00000,274640135.82653,   0.00000,   0.00000,   0.00000,-282828074.04007,   0.00000
220848654.43099,128302032.49170,8017315.58471,   0.00075,   0.00015,   0.00010,192595536.07620,   0.00000,274640135.82653,   0.00000,   0.00000,   0.00000,-282044599.75033,   0.00000
221800284.80776,128463287.28109,8139960.07241,   0.00076,   0.00015,   0.00011,193400531.70434,   0.00000,274640135.82653,   0.00000,   0.00000,   0.00000,-281239604.12219,   0.00000
222751915.18452,128624542.07047,8262604.56010,   0.00076,   0.00015,   0.00011,194206429.75358,   0.00000,274640135.82653,   0.00000,   0.00000,   0.00000,-280433706.07295,   0.00000
223719443.92081,128792610.44250,8385249.04780,   0.00077,   0.00015,   0.00011,195026798.43628,   0.00000,274640135.82653,   0.00000,   0.00000,   0.00000,-279613337.39025,   0.00000
224671074.29758,128953865.23188,8512435.92393,   0.00077,   0.00015,   0.00011,195835063.87742,   0.00000,274640135.82653,   0.00000,   0.00000,   0.00000,-278805071.94911,   0.00000
225638603.03386,129121933.60391,8635080.41163,   0.00077,   0.00015,   0.00011,196657199.30482,   0.00000,274640135.82653,   0.00000,   0.00000,   0.00000,-277982936.52171,   0.00000
226612945.35280,129305900.33546,8762267.28776,   0.00078,   0.00015,   0.00011,197487680.42738,   0.00000,274640135.82653,   0.00000,   0.00000,   0.00000,-277152455.39915,   0.00000
227587287.67173,129489867.06700,8884911.77546,   0.00078,   0.00015,   0.00012,198318371.63467,   0.00000,274640135.82653,   0.00000,   0.00000,   0.00000,-276321764.19186,   0.00000
228554816.40802,129657935.43903,9012098.65159,   0.00079,   0.00014,   0.00012,199143647.80686,   0.00000,274640135.82653,   0.00000,   0.00000,   0.00000,-275496488.01967,   0.00000
229545057.08647,129848715.75323,9139285.52772,   0.00079,   0.00014,   0.00012,199990177.17199,   0.00000,274640135.82653,   0.00000,   0.00000,   0.00000,-274649958.65454,   0.00000
230519399.40540,130032682.48478,9266472.40385,   0.00080,   0.00014,   0.00012,200823899.67179,   0.00000,274640135.82653,   0.00000,   0.00000,   0.00000,-273816236.15474,   0.00000
231516453.66650,130239361.15849,9393659.27999,   0.00080,   0.00014,   0.00012,201678771.79834,   0.00000,274640135.82653,   0.00000,   0.00000,   0.00000,-272961364.02819,   0.00000
232506694.34495,130430141.47269,9525388.54455,   0.00080,   0.00014,   0.00012,202528276.45496,   0.00000,274640135.82653,   0.00000,   0.00000,   0.00000,-272111859.37157,   0.00000
233503748.60605,130636820.14640,9652575.42068,   0.00081,   0.00014,   0.00013,203384632.69785,   0.00000,274640135.82653,   0.00000,   0.00000,   0.00000,-271255503.12868,   0.00000
234500802.86716,130843498.82011,9779762.29681,   0.00081,   0.00014,   0.00013,204241703.52137,   0.00000,274640135.82653,   0.00000,   0.00000,   0.00000,-270398432.30516,   0.00000
235513755.48777,131056991.07648,9911491.56138,   0.00082,   0.00014,   0.00013,205113755.70044,   0.00000,274640135.82653,   0.00000,   0.00000,   0.00000,-269526380.12609,   0.00000
236526708.10839,131270483.33284,10038678.43751,   0.00082,   0.00014,   0.00013,205985857.14274,   0.00000,274640135.82653,   0.00000,   0.00000,   0.00000,-268654278.68379,   0.00000
237539660.72901,131483975.58920,10170407.70207,   0.00082,   0.00014,   0.00013,206859321.47649,   0.00000,274640135.82653,   0.00000,   0.00000,   0.00000,-267780814.35004,   0.00000
238559426.93228,131713366.20508,10302136.96664,   0.00083,   0.00013,   0.00013,207740097.07411,   0.00000,274640135.82653,   0.00000,   0.00000,   0.00000,-266900038.75241,   0.00000
239579193.13554,131942756.82096,10433866.23120,   0.00083,   0.00013,   0.00014,208621519.34865,   0.00000,274640135.82653,   0.00000,   0.00000,   0.00000,-266018616.47788,   0.00000
240598959.33881,132172147.43684,10565595.49577,   0.00084,   0.00013,   0.00014,209503580.13801,   0.00000,274640135.82653,   0.00000,   0.00000,   0.00000,-265136555.68852,   0.00000
241634623.90159,132408351.63537,10697324.76033,   0.00084,   0.00013,   0.00014,210399902.74024,   0.00000,274640135.82653,   0.00000,   0.00000,   0.00000,-264240233.08629,   0.00000
242670288.46438,132644555.83390,10829054.02490,   0.00085,   0.00013,   0.00014,211296852.08620,   0.00000,274640135.82653,   0.00000,   0.00000,   0.00000,-263343283.74033,   0.00000
243705953.02716,132880760.03243,10960783.28946,   0.00085,   0.00013,   0.00014,212194420.22813,   0.00000,274640135.82653,   0.00000,   0.00000,   0.00000,-262445715.59840,   0.00000
244748431.17260,133132862.59048,11092512.55403,   0.00085,   0.00013,   0.00014,213099098.80318,   0.00000,274640135.82653,   0.00000,   0.00000,   0.00000,-261541037.02335,   0.00000
245806807.67755,133391778.73117,11224241.81859,   0.00086,   0.00013,   0.00015,214017982.53081,   0.00000,274640135.82653,   0.00000,   0.00000,   0.00000,-260622153.29572,   0.00000
246849285.82298,133643881.28922,11360513.47159,   0.00086,   0.00013,   0.00015,214924507.82896,   0.00000,274640135.82653,   0.00000,   0.00000,   0.00000,-259715627.99757,   0.00000
247907662.32793,133902797.42992,11492242.73615,   0.00087,   0.00013,   0.00015,215844512.64685,   0.00000,274640135.82653,   0.00000,   0.00000,   0.00000,-258795623.17968,   0.00000
248972852.41553,134177611.93013,11628514.38915,   0.00087,   0.00013,   0.00015,216772223.89260,   0.00000,274640135.82653,   0.00000,   0.00000,   0.00000,-257867911.93393,   0.00000
250038042.50313,134452426.43034,11760243.65372,   0.00088,   0.00012,   0.00015,217699715.54816,   0.00000,274640135.82653,   0.00000,   0.00000,   0.00000,-256940420.27837,   0.00000
251119130.95025,134734054.51320,11896515.30671,   0.00088,   0.00012,   0.00015,218642095.50163,   0.00000,274640135.82653,   0.00000,   0.00000,   0.00000,-255998040.32490,   0.00000
252184321.03785,135008869.01342,12028244.57128,   0.00088,   0.00012,   0.00016,219570586.65897,   0.00000,274640135.82653,   0.00000,   0.00000,   0.00000,-255069549.16756,   0.00000
253265409.48496,135290497.09628,12164516.22428,   0.00089,   0.00012,   0.00016,220513966.59745,   0.00000,274640135.82653,   0.00000,   0.00000,   0.00000,-254126169.22908,   0.00000
254346497.93208,135572125.17914,12300787.87727,   0.00089,   0.00012,   0.00016,221457840.29152,   0.00000,274640135.82653,   0.00000,   0.00000,   0.00000,-253182295.53501,   0.00000
255434399.96184,135869651.62152,12437059.53027,   0.00090,   0.00012,   0.00016,222408528.00631,   0.00000,274640135.82653,   0.00000,   0.00000,   0.00000,-252231607.82022,   0.00000
256538200.35113,136173991.64655,12573331.18327,   0.00090,   0.00012,   0.00016,223373318.59434,   0.00000,274640135.82653,   0.00000,   0.00000,   0.00000,-251266817.23219,   0.00000
257626102.38089,136471518.08893,12705060.44783,   0.00091,   0.00012,   0.00017,224324127.70178,   0.00000,274640135.82653,   0.00000,   0.00000,   0.00000,-250316008.12475,   0.00000
258736716.35283,136791756.47347,12841332.10083,   0.00091,   0.00012,   0.00017,225296077.56113,   0.00000,274640135.82653,   0.00000,   0.00000,   0.00000,-249344058.26540,   0.00000
259840516.74211,137096096.49850,12977603.75383,   0.00091,   0.00012,   0.00017,226262166.20551,   0.00000,274640135.82653,   0.00000,   0.00000,   0.00000,-248377969.62102,   0.00000
260951130.71404,137416334.88304,13118417.79526,   0.00092,   0.00012,   0.00017,227235719.91144,   0.00000,274640135.82653,   0.00000,   0.00000,   0.00000,-247404415.91509,   0.00000
262077643.04549,137743386.85024,13254689.44826,   0.00092,   0.00012,   0.00017,228222544.48575,   0.00000,274640135.82653,   0.00000,   0.00000,   0.00000,-246417591.34078,   0.00000
263195070.60007,138079523.59430,13390961.10126,   0.00093,   0.00012,   0.00017,229202320.19119,   0.00000,274640135.82653,   0.00000,   0.00000,   0.00000,-245437815.63534,   0.00000
264321582.93152,138406575.56150,13527232.75425,   0.00093,   0.00011,   0.00018,230189904.86010,   0.00000,274640135.82653,   0.00000,   0.00000,   0.00000,-244450230.96643,   0.00000
265454908.84562,138749525.88821,13663504.40725,   0.00094,   0.00011,   0.00018,231184062.76271,   0.00000,274640135.82653,   0.00000,   0.00000,   0.00000,-243456073.06382,   0.00000
266588234.75972,139092476.21492,13804318.44868,   0.00094,   0.00011,   0.00018,232179378.44026,   0.00000,274640135.82653,   0.00000,   0.00000,   0.00000,-242460757.38627,   0.00000
267737459.03333,139442240.12428,13940590.10168,   0.00095,   0.00011,   0.00018,233187895.06504,   0.00000,274640135.82653,   0.00000,   0.00000,   0.00000,-241452240.76149,   0.00000
268877598.53008,139801088.81051,14076861.75468,   0.00095,   0.00011,   0.00018,234189240.79306,   0.00000,274640135.82653,   0.00000,   0.00000,   0.00000,-240450895.03347,   0.00000
270026822.80370,140150852.71987,14217675.79611,   0.00096,   0.00011,   0.00018,235199243.18229,   0.00000,274640135.82653,   0.00000,   0.00000,   0.00000,-239440892.64424,   0.00000
271182860.65996,140516514.98875,14353947.44911,   0.00096,   0.00011,   0.00019,236214884.83540,   0.00000,274640135.82653,   0.00000,   0.00000,   0.00000,-238425250.99113,   0.00000
272338898.51623,140882177.25762,14490219.10211,   0.00096,   0.00011,   0.00019,237230828.28303,   0.00000,274640135.82653,   0.00000,   0.00000,   0.00000,-237409307.54350,   0.00000
273517648.31466,141270551.46867,14631033.14354,   0.00097,   0.00011,   0.00019,238267675.16925,   0.00000,274640135.82653,   0.00000,   0.00000,   0.00000,-236372460.65728,   0.00000
274673686.17093,141636213.73755,14767304.79654,   0.00097,   0.00011,   0.00019,239284203.12864,   0.00000,274640135.82653,   0.00000,   0.00000,   0.00000,-235355932.69789,   0.00000
275852435.96936,142024587.94859,14908118.83797,   0.00098,   0.00011,   0.00019,240321612.59631,   0.00000,274640135.82653,   0.00000,   0.00000,   0.00000,-234318523.23021,   0.00000
277031185.76779,142412962.15963,15044390.49096,   0.00098,   0.00011,   0.00020,241358444.97124,   0.00000,274640135.82653,   0.00000,   0.00000,   0.00000,-233281690.85529,   0.00000
278232647.50839,142824048.31284,15185204.53240,   0.00099,   0.00011,   0.00020,242416115.66915,   0.00000,274640135.82653,   0.00000,   0.00000,   0.00000,-232224020.15738,   0.00000
279411397.30682,143212422.52389,15321476.18539,   0.00099,   0.00011,   0.00020,243453459.03994,   0.00000,274640135.82653,   0.00000,   0.00000,   0.00000,-231186676.78658,   0.00000
280612859.04742,143623508.67710,15462290.22682,   0.00100,   0.00011,   0.00020,244511620.92702,   0.00000,274640135.82653,   0.00000,   0.00000,   0.00000,-230128514.89951,   0.00000
281814320.78801,144034594.83031,15598561.87982,   0.00100,   0.00011,   0.00020,245569154.81228,   0.00000,274640135.82653,   0.00000,   0.00000,   0.00000,-229070981.01425,   0.00000
283022596.11126,144461579.34303,15739375.92125,   0.00101,   0.00011,   0.00020,246633798.28202,   0.00000,274640135.82653,   0.00000,   0.00000,   0.00000,-228006337.54451,   0.00000
284224057.85186,144872665.49624,15875647.57425,   0.00101,   0.00010,   0.00021,247691776.14186,   0.00000,274640135.82653,   0.00000,   0.00000,   0.00000,-226948359.68466,   0.00000
285448231.53462,145306463.59162,16016461.61568,   0.00102,   0.00010,   0.00021,248770515.36110,   0.00000,274640135.82653,   0.00000,   0.00000,   0.00000,-225869620.46543,   0.00000
286679218.80004,145756160.04651,16157275.65711,   0.00102,   0.00010,   0.00021,249855444.71926,   0.00000,274640135.82653,   0.00000,   0.00000,   0.00000,-224784691.10727,   0.00000
287887494.12329,146183144.55924,16293547.31011,   0.00102,   0.00010,   0.00021,250920028.90848,   0.00000,274640135.82653,   0.00000,   0.00000,   0.00000,-223720106.91805,   0.00000
289134379.74822,146639654.59678,16434361.35154,   0.00103,   0.00010,   0.00021,252019001.21502,   0.00000,274640135.82653,   0.00000,   0.00000,   0.00000,-222621134.61151,   0.00000
290358553.43098,147073452.69216,16570633.00454,   0.00103,   0.00010,   0.00022,253097634.71839,   0.00000,274640135.82653,   0.00000,   0.00000,   0.00000,-221542501.10814,   0.00000
291612252.63856,147545861.08922,16711447.04597,   0.00104,   0.00010,   0.00022,254202917.92362,   0.00000,274640135.82653,   0.00000,   0.00000,   0.00000,-220437217.90291,   0.00000
292859138.26349,148002371.12676,16847718.69897,   0.00104,   0.00010,   0.00022,255301521.20683,   0.00000,274640135.82653,   0.00000,   0.00000,   0.00000,-219338614.61970,   0.00000
294112837.47107,148474779.52382,16988532.74040,   0.00105,   0.00010,   0.00022,256407124.22884,   0.00000,274640135.82653,   0.00000,   0.00000,   0.00000,-218233011.59769,   0.00000
295366536.67865,148947187.92088,17129346.78183,   0.00105,   0.00010,   0.00022,257512881.81056,   0.00000,274640135.82653,   0.00000,   0.00000,   0.00000,-217127254.01597,   0.00000
296636134.24575,149426409.90059,17265618.43483,   0.00106,   0.00010,   0.00022,258631553.11895,   0.00000,274640135.82653,   0.00000,   0.00000,   0.00000,-216008582.70758,   0.00000
297896647.03598,149914716.65717,17406432.47626,   0.00106,   0.00010,   0.00023,259743517.39131,   0.00000,274640135.82653,   0.00000,   0.00000,   0.00000,-214896618.43522,   0.00000
299166244.60307,150393938.63687,17542704.12926,   0.00107,   0.00010,   0.00023,260862470.01066,   0.00000,274640135.82653,   0.00000,   0.00000,   0.00000,-213777665.81587,   0.00000
300442655.75282,150889058.97610,17683518.17069,   0.00107,   0.00010,   0.00023,261988374.46795,   0.00000,274640135.82653,   0.00000,   0.00000,   0.00000,-212651761.35858,   0.00000
301741778.84473,151406891.25749,17819789.82369,   0.00108,   0.00010,   0.00023,263133042.11242,   0.00000,274640135.82653,   0.00000,   0.00000,   0.00000,-211507093.71411,   0.00000
303018189.99448,151902011.59672,17960603.86512,   0.00108,   0.00010,   0.00023,264259194.46199,   0.00000,274640135.82653,   0.00000,   0.00000,   0.00000,-210380941.36454,   0.00000
304317313.08639,152419843.87811,18096875.51812,   0.00109,   0.00010,   0.00024,265404086.65367,   0.00000,274640135.82653,   0.00000,   0.00000,   0.00000,-209236049.17286,   0.00000
305616436.17831,152937676.15950,18233147.17111,   0.00109,   0.00010,   0.00024,266549084.17293,   0.00000,274640135.82653,   0.00000,   0.00000,   0.00000,-208091051.65360,   0.00000
306938271.21239,153478220.38306,18373961.21255,   0.00110,   0.00010,   0.00024,267714650.67416,   0.00000,274640135.82653,   0.00000,   0.00000,   0.00000,-206925485.15236,   0.00000
308237394.30430,153996052.66445,18510232.86554,   0.00110,   0.00010,   0.00024,268859851.29712,   0.00000,274640135.82653,   0.00000,   0.00000,   0.00000,-205780284.52941,   0.00000
309559229.33838,154536596.88801,18646504.51854,   0.00111,   0.00010,   0.00024,270024670.72723,   0.00000,274640135.82653,   0.00000,   0.00000,   0.00000,-204615465.09930,   0.00000
310887877.95511,155093039.47108,18787318.55997,   0.00111,   0.00010,   0.00024,271196363.62064,   0.00000,274640135.82653,   0.00000,   0.00000,   0.00000,-203443772.20589,   0.00000
312209712.98919,155633583.69464,18923590.21297,   0.00112,   0.00010,   0.00025,272361354.75006,   0.00000,274640135.82653,   0.00000,   0.00000,   0.00000,-202278781.07647,   0.00000
313554259.96543,156196839.86037,19059861.86597,   0.00112,   0.00010,   0.00025,273545932.51688,   0.00000,274640135.82653,   0.00000,   0.00000,   0.00000,-201094203.30965,   0.00000
314882908.58216,156753282.44344,19196133.51897,   0.00113,   0.00010,   0.00025,274716913.92158,   0.00000,274640135.82653,   0.00000,   0.00000,   0.00000,-199923221.90495,   0.00000
316234269.14106,157332436.96868,19336947.56040,   0.00113,   0.00010,   0.00025,275908414.34717,   0.00000,274640135.82653,   0.00000,   0.00000,   0.00000,-198731721.47936,   0.00000
317578816.11730,157895693.13441,19473219.21339,   0.00114,   0.00010,   0.00025,277093207.89369,   0.00000,274640135.82653,   0.00000,   0.00000,   0.00000,-197546927.93284,   0.00000
318930176.67620,158474847.65965,19609490.86639,   0.00114,   0.00010,   0.00025,278283884.13408,   0.00000,274640135.82653,   0.00000,   0.00000,   0.00000,-196356251.69245,   0.00000
320297435.59461,159060815.76754,19745762.51939,   0.00115,   0.00010,   0.00026,279488290.23701,   0.00000,274640135.82653,   0.00000,   0.00000,   0.00000,-195151845.58952,   0.00000
321671508.09567,159662682.23495,19882034.17239,   0.00115,   0.00010,   0.00026,280698559.46617,   0.00000,274640135.82653,   0.00000,   0.00000,   0.00000,-193941576.36036,   0.00000
323045580.59673,160264548.70235,20018305.82539,   0.00116,   0.00010,   0.00026,281908879.30958,   0.00000,274640135.82653,   0.00000,   0.00000,   0.00000,-192731256.51695,   0.00000
324419653.09780,160866415.16976,20154577.47838,   0.00116,   0.00010,   0.00026,283119249.11811,   0.00000,274640135.82653,   0.00000,   0.00000,   0.00000,-191520886.70842,   0.00000
325809623.95837,161475095.21982,20286306.74295,   0.00117,   0.00010,   0.00026,284342364.25785,   0.00000,274640135.82653,   0.00000,   0.00000,   0.00000,-190297771.56868,   0.00000
327190510.04209,162092860.04674,20422578.39595,   0.00117,   0.00010,   0.00027,285558618.69654,   0.00000,274640135.82653,   0.00000,   0.00000,   0.00000,-189081517.12999,   0.00000
328587294.48531,162717438.45631,20558850.04894,   0.00118,   0.00010,   0.00027,286788582.32682,   0.00000,274640135.82653,   0.00000,   0.00000,   0.00000,-187851553.49971,   0.00000
329984078.92854,163342016.86589,20695121.70194,   0.00118,   0.00010,   0.00027,288018586.24243,   0.00000,274640135.82653,   0.00000,   0.00000,   0.00000,-186621549.58410,   0.00000
331403575.31394,163989307.21763,20826850.96651,   0.00119,   0.00010,   0.00027,289267096.38489,   0.00000,274640135.82653,   0.00000,   0.00000,   0.00000,-185373039.44164,   0.00000
332807173.33981,164629783.98672,20963122.61950,   0.00119,   0.00010,   0.00027,290502951.57824,   0.00000,274640135.82653,   0.00000,   0.00000,   0.00000,-184137184.24829,   0.00000
334226669.72521,165277074.33846,21094851.88407,   0.00120,   0.00010,   0.00027,291751521.41411,   0.00000,274640135.82653,   0.00000,   0.00000,   0.00000,-182888614.41242,   0.00000
335662064.47012,165931178.27285,21231123.53707,   0.00120,   0.00010,   0.00028,293014773.36181,   0.00000,274640135.82653,   0.00000,   0.00000,   0.00000,-181625362.46472,   0.00000
337088374.43816,166594366.98410,21362852.80163,   0.00121,   0.00010,   0.00028,294269171.63448,   0.00000,274640135.82653,   0.00000,   0.00000,   0.00000,-180370964.19205,   0.00000
338514684.40621,167257555.69536,21494582.06620,   0.00121,   0.00010,   0.00028,295523592.94928,   0.00000,274640135.82653,   0.00000,   0.00000,   0.00000,-179116542.87725,   0.00000
339963706.31642,167943456.34878,21630853.71919,   0.00122,   0.00010,   0.00028,296798463.21825,   0.00000,274640135.82653,   0.00000,   0.00000,   0.00000,-177841672.60828,   0.00000
341405914.64398,168613458.64269,21762582.98376,   0.00122,   0.00010,   0.00028,298066594.86518,   0.00000,274640135.82653,   0.00000,   0.00000,   0.00000,-176573540.96135,   0.00000
342870834.91371,169306172.87876,21894312.24832,   0.00123,   0.00010,   0.00028,299354177.32975,   0.00000,274640135.82653,   0.00000,   0.00000,   0.00000,-175285958.49678,   0.00000
344326670.40657,170007971.89170,22026041.51289,   0.00124,   0.00010,   0.00029,300633875.45342,   0.00000,274640135.82653,   0.00000,   0.00000,   0.00000,-174006260.37311,   0.00000
345791590.67629,170700686.12777,22157770.77745,   0.00124,   0.00010,   0.00029,301921491.54831,   0.00000,274640135.82653,   0.00000,   0.00000,   0.00000,-172718644.27822,   0.00000
347263324.52867,171409298.72336,22289500.04202,   0.00125,   0.00010,   0.00029,303214885.44942,   0.00000,274640135.82653,   0.00000,   0.00000,   0.00000,-171425250.37711,   0.00000
348735058.38105,172117911.31895,22421229.30658,   0.00125,   0.00010,   0.00029,304508293.90913,   0.00000,274640135.82653,   0.00000,   0.00000,   0.00000,-170131841.91740,   0.00000
350229504.17559,172849235.85671,22548416.18271,   0.00126,   0.00010,   0.00029,305820135.00937,   0.00000,274640135.82653,   0.00000,   0.00000,   0.00000,-168820000.81716,   0.00000
351708051.61062,173573746.81181,22680145.44728,   0.00126,   0.00010,   0.00029,307119328.34099,   0.00000,274640135.82653,   0.00000,   0.00000,   0.00000,-167520807.48554,   0.00000
353202497.40516,174305071.34957,22811874.71184,   0.00127,   0.00010,   0.00030,308432197.48265,   0.00000,274640135.82653,   0.00000,   0.00000,   0.00000,-166207938.34388,   0.00000
354696943.19970,175036395.88732,22939061.58797,   0.00127,   0.00010,   0.00030,309744069.30581,   0.00000,274640135.82653,   0.00000,   0.00000,   0.00000,-164896066.52072,   0.00000
356214100.93641,175790432.36724,23070790.85254,   0.00128,   0.00011,   0.00030,311076381.56981,   0.00000,274640135.82653,   0.00000,   0.00000,   0.00000,-163563754.25672,   0.00000
357731258.67312,176544468.84716,23197977.72867,   0.00128,   0.00011,   0.00030,312407692.56215,   0.00000,274640135.82653,   0.00000,   0.00000,   0.00000,-162232443.26437,   0.00000
359255229.99248,177314403.68660,23325164.60480,   0.00129,   0.00011,   0.00030,313744770.57921,   0.00000,274640135.82653,   0.00000,   0.00000,   0.00000,-160895365.24732,   0.00000
360772387.72919,178068440.16652,23452351.48093,   0.00129,   0.00011,   0.00030,315076097.41621,   0.00000,274640135.82653,   0.00000,   0.00000,   0.00000,-159564038.41032,   0.00000
362296359.04855,178838375.00596,23579538.35706,   0.00130,   0.00011,   0.00031,316413191.75911,   0.00000,274640135.82653,   0.00000,   0.00000,   0.00000,-158226944.06742,   0.00000
363843042.31008,179631021.78757,23706725.23319,   0.00131,   0.00011,   0.00031,317769716.03551,   0.00000,274640135.82653,   0.00000,   0.00000,   0.00000,-156870419.79102,   0.00000
365382911.98895,180407770.20965,23833912.10933,   0.00131,   0.00011,   0.00031,319120487.59084,   0.00000,274640135.82653,   0.00000,   0.00000,   0.00000,-155519648.23569,   0.00000
366929595.25048,181200416.99126,23961098.98546,   0.00132,   0.00011,   0.00031,320477028.99964,   0.00000,274640135.82653,   0.00000,   0.00000,   0.00000,-154163106.82689,   0.00000
368483092.09465,182008962.13238,24088285.86159,   0.00132,   0.00011,   0.00031,321839343.22564,   0.00000,274640135.82653,   0.00000,   0.00000,   0.00000,-152800792.60088,   0.00000
370045673.71570,182808422.49663,24210930.34929,   0.00133,   0.00011,   0.00031,323208541.89343,   0.00000,274640135.82653,   0.00000,   0.00000,   0.00000,-151431593.93310,   0.00000
371615068.91939,183623781.22040,24338117.22542,   0.00133,   0.00011,   0.00032,324584534.77394,   0.00000,274640135.82653,   0.00000,   0.00000,   0.00000,-150055601.05259,   0.00000
373184464.12308,184439139.94417,24460761.71312,   0.00134,   0.00011,   0.00032,325959515.26769,   0.00000,274640135.82653,   0.00000,   0.00000,   0.00000,-148680620.55884,   0.00000
374760672.90942,185270397.02746,24583406.20081,   0.00134,   0.00011,   0.00032,327340273.86701,   0.00000,274640135.82653,   0.00000,   0.00000,   0.00000,-147299861.95951,   0.00000
376352780.05528,186108467.69340,24706050.68851,   0.00135,   0.00011,   0.00032,328734702.17815,   0.00000,274640135.82653,   0.00000,   0.00000,   0.00000,-145905433.64838,   0.00000
377928988.84162,186939724.77668,24828695.17621,   0.00136,   0.00011,   0.00032,330115483.52010,   0.00000,274640135.82653,   0.00000,   0.00000,   0.00000,-144524652.30643,   0.00000
379527909.57013,187793693.80214,24951339.66391,   0.00136,   0.00011,   0.00032,331515709.41423,   0.00000,274640135.82653,   0.00000,   0.00000,   0.00000,-143124426.41230,   0.00000
381135915.07551,188638578.05072,25073984.15161,   0.00137,   0.00012,   0.00033,332923828.92975,   0.00000,274640135.82653,   0.00000,   0.00000,   0.00000,-141716306.89678,   0.00000
382741649.38666,189508445.43569,25196628.63930,   0.00137,   0.00012,   0.00033,334329861.62214,   0.00000,274640135.82653,   0.00000,   0.00000,   0.00000,-140310274.20439,   0.00000
384356468.47469,190369228.04380,25314730.73857,   0.00138,   0.00012,   0.00033,335742759.30280,   0.00000,274640135.82653,   0.00000,   0.00000,   0.00000,-138897376.52373,   0.00000
385978101.14536,191245909.01142,25437375.22627,   0.00138,   0.00012,   0.00033,337162482.55188,   0.00000,274640135.82653,   0.00000,   0.00000,   0.00000,-137477653.27465,   0.00000
387615632.17555,192129403.56169,25555477.32553,   0.00139,   0.00012,   0.00033,338594850.90999,   0.00000,274640135.82653,   0.00000,   0.00000,   0.00000,-136045284.91654,   0.00000
389244078.42888,193021982.88882,25678121.81323,   0.00139,   0.00012,   0.00033,340020400.04060,   0.00000,274640135.82653,   0.00000,   0.00000,   0.00000,-134619735.78593,   0.00000
390888423.04172,193921375.79861,25796223.91250,   0.00140,   0.00012,   0.00034,341458597.75982,   0.00000,274640135.82653,   0.00000,   0.00000,   0.00000,-133181538.06671,   0.00000
392532767.65456,194820768.70839,25914326.01176,   0.00141,   0.00012,   0.00034,342896816.75821,   0.00000,274640135.82653,   0.00000,   0.00000,   0.00000,-131743319.06832,   0.00000
394177112.26740,195720161.61818,26032428.11103,   0.00141,   0.00012,   0.00034,344335056.76916,   0.00000,274640135.82653,   0.00000,   0.00000,   0.00000,-130305079.05737,   0.00000
395844168.82241,196642266.47013,26145987.82186,   0.00142,   0.00012,   0.00034,345791744.35566,   0.00000,274640135.82653,   0.00000,   0.00000,   0.00000,-128848391.47087,   0.00000
397495327.01790,197557557.73944,26264089.92112,   0.00142,   0.00012,   0.00034,347235834.64369,   0.00000,274640135.82653,   0.00000,   0.00000,   0.00000,-127404301.18284,   0.00000
399169197.15556,198495560.95090,26382192.02039,   0.00143,   0.00012,   0.00034,348699415.16830,   0.00000,274640135.82653,   0.00000,   0.00000,   0.00000,-125940720.65823,   0.00000
400858965.65273,199440377.74502,26495751.73122,   0.00143,   0.00013,   0.00034,350175649.73368,   0.00000,274640135.82653,   0.00000,   0.00000,   0.00000,-124464486.09285,   0.00000
402532835.79039,200378380.95649,26609311.44205,   0.00144,   0.00013,   0.00035,351638262.83974,   0.00000,274640135.82653,   0.00000,   0.00000,   0.00000,-123001872.98679,   0.00000
404222604.28756,201323197.75061,26722871.15288,   0.00145,   0.00013,   0.00035,353114559.31363,   0.00000,274640135.82653,   0.00000,   0.00000,   0.00000,-121525576.51290,   0.00000
405919186.36738,202283912.90424,26836430.86371,   0.00145,   0.00013,   0.00035,354596711.77863,   0.00000,274640135.82653,   0.00000,   0.00000,   0.00000,-120043424.04790,   0.00000
407615768.44721,203244628.05788,26949990.57454,   0.00146,   0.00013,   0.00035,356078901.71775,   0.00000,274640135.82653,   0.00000,   0.00000,   0.00000,-118561234.10878,   0.00000
409335062.46920,204228055.15368,27063550.28538,   0.00146,   0.00013,   0.00035,357580613.88499,   0.00000,274640135.82653,   0.00000,   0.00000,   0.00000,-117059521.94154,   0.00000
411054356.49119,205211482.24948,27177109.99621,   0.00147,   0.00013,   0.00035,359082370.18822,   0.00000,274640135.82653,   0.00000,   0.00000,   0.00000,-115557765.63831,   0.00000
412773650.51318,206194909.34528,27286127.31861,   0.00148,   0.00013,   0.00035,360583138.79373,   0.00000,274640135.82653,   0.00000,   0.00000,   0.00000,-114056997.03280,   0.00000
414499758.11782,207194234.80060,27395144.64100,   0.00148,   0.00013,   0.00036,362089798.33155,   0.00000,274640135.82653,   0.00000,   0.00000,   0.00000,-112550337.49498,   0.00000
416225865.72246,208193560.25592,27508704.35184,   0.00149,   0.00014,   0.00036,363597540.44607,   0.00000,274640135.82653,   0.00000,   0.00000,   0.00000,-111042595.38046,   0.00000
417967871.68661,209199699.29389,27617721.67423,   0.00149,   0.00014,   0.00036,365117951.52659,   0.00000,274640135.82653,   0.00000,   0.00000,   0.00000,-109522184.29994,   0.00000
419709877.65077,210205838.33185,27722196.60820,   0.00150,   0.00014,   0.00036,366637381.79983,   0.00000,274640135.82653,   0.00000,   0.00000,   0.00000,-108002754.02670,   0.00000
421458697.19757,211227875.72934,27831213.93060,   0.00151,   0.00014,   0.00036,368163758.42614,   0.00000,274640135.82653,   0.00000,   0.00000,   0.00000,-106476377.40039,   0.00000
423230228.68655,212272625.06899,27940231.25300,   0.00151,   0.00014,   0.00036,369709712.80630,   0.00000,274640135.82653,   0.00000,   0.00000,   0.00000,-104930423.02023,   0.00000
424979048.23335,213294662.46647,28044706.18696,   0.00152,   0.00014,   0.00036,371235179.44976,   0.00000,274640135.82653,   0.00000,   0.00000,   0.00000,-103404956.37677,   0.00000
426750579.72232,214339411.80612,28153723.50936,   0.00152,   0.00014,   0.00037,372781261.52404,   0.00000,274640135.82653,   0.00000,   0.00000,   0.00000,-101858874.30249,   0.00000
428544823.15346,215406873.08794,28258198.44332,   0.00153,   0.00014,   0.00037,374345914.13482,   0.00000,274640135.82653,   0.00000,   0.00000,   0.00000,-100294221.69171,   0.00000
430316354.64244,216451622.42759,28362673.37729,   0.00154,   0.00015,   0.00037,375891101.95392,   0.00000,274640135.82653,   0.00000,   0.00000,   0.00000,-98749033.87261,   0.00000
432110598.07357,217519083.70941,28462605.92282,   0.00154,   0.00015,   0.00037,377454870.41360,   0.00000,274640135.82653,   0.00000,   0.00000,   0.00000,-97185265.41293,   0.00000
433911655.08736,218602443.35074,28567080.85679,   0.00155,   0.00015,   0.00037,379025644.23155,   0.00000,274640135.82653,   0.00000,   0.00000,   0.00000,-95614491.59498,   0.00000
435712712.10115,219685802.99207,28671555.79075,   0.00155,   0.00015,   0.00037,380596501.33101,   0.00000,274640135.82653,   0.00000,   0.00000,   0.00000,-94043634.49552,   0.00000
437513769.11494,220769162.63340,28771488.33628,   0.00156,   0.00015,   0.00037,382166414.68106,   0.00000,274640135.82653,   0.00000,   0.00000,   0.00000,-92473721.14546,   0.00000
439330724.48824,221859335.85739,28871420.88181,   0.00157,   0.00015,   0.00038,383750054.67224,   0.00000,274640135.82653,   0.00000,   0.00000,   0.00000,-90890081.15429,   0.00000
441154493.44420,222965407.44089,28971353.42735,   0.00157,   0.00015,   0.00038,385339702.83940,   0.00000,274640135.82653,   0.00000,   0.00000,   0.00000,-89300432.98712,   0.00000
442978262.40015,224071479.02439,29071285.97288,   0.00158,   0.00016,   0.00038,386929442.20352,   0.00000,274640135.82653,   0.00000,   0.00000,   0.00000,-87710693.62300,   0.00000
444824743.29827,225200262.55005,29171218.51841,   0.00158,   0.00016,   0.00038,388538854.54740,   0.00000,274640135.82653,   0.00000,   0.00000,   0.00000,-86101281.27913,   0.00000
446648512.25423,226306334.13355,29271151.06394,   0.00159,   0.00016,   0.00038,390128778.44021,   0.00000,274640135.82653,   0.00000,   0.00000,   0.00000,-84511357.38632,   0.00000
448501806.73500,227451016.01873,29366541.22104,   0.00160,   0.00016,   0.00038,391743315.11113,   0.00000,274640135.82653,   0.00000,   0.00000,   0.00000,-82896820.71540,   0.00000
450348287.63312,228579799.54440,29461931.37814,   0.00160,   0.00016,   0.00038,393352004.98166,   0.00000,274640135.82653,   0.00000,   0.00000,   0.00000,-81288130.84487,   0.00000
452217480.47341,229731295.01223,29557321.53524,   0.00161,   0.00016,   0.00038,394980399.39521,   0.00000,274640135.82653,   0.00000,   0.00000,   0.00000,-79659736.43132,   0.00000
454093486.89635,230898688.83958,29652711.69233,   0.00162,   0.00017,   0.00039,396614874.33868,   0.00000,274640135.82653,   0.00000,   0.00000,   0.00000,-78025261.48785,   0.00000
455946781.37712,232043370.72476,29748101.84943,   0.00162,   0.00017,   0.00039,398229850.73264,   0.00000,274640135.82653,   0.00000,   0.00000,   0.00000,-76410285.09389,   0.00000
457838686.15957,233217578.13476,29838949.61810,   0.00163,   0.00017,   0.00039,399877181.73930,   0.00000,274640135.82653,   0.00000,   0.00000,   0.00000,-74762954.08723,   0.00000
459721506.16516,234400870.32162,29934339.77520,   0.00163,   0.00017,   0.00039,401517999.82186,   0.00000,274640135.82653,   0.00000,   0.00000,   0.00000,-73122136.00467,   0.00000
461613410.94761,235575077.73162,30025187.54386,   0.00164,   0.00017,   0.00039,403165572.57551,   0.00000,274640135.82653,   0.00000,   0.00000,   0.00000,-71474563.25102,   0.00000
463518942.89536,236781081.86065,30116035.31253,   0.00165,   0.00017,   0.00039,404825272.35476,   0.00000,274640135.82653,   0.00000,   0.00000,   0.00000,-69814863.47177,   0.00000
465417661.26047,237971187.63017,30206883.08119,   0.00165,   0.00018,   0.00039,406479100.71431,   0.00000,274640135.82653,   0.00000,   0.00000,   0.00000,-68161035.11222,   0.00000
467323193.20822,239177191.75920,30293188.46142,   0.00166,   0.00018,   0.00039,408138063.37334,   0.00000,274640135.82653,   0.00000,   0.00000,   0.00000,-66502072.45319,   0.00000
469244623.51549,240390009.47088,30384036.23009,   0.00167,   0.00018,   0.00039,409811813.92616,   0.00000,274640135.82653,   0.00000,   0.00000,   0.00000,-64828321.90037,   0.00000
471172867.40541,241618725.54208,30470341.61032,   0.00167,   0.00018,   0.00040,411490725.20856,   0.00000,274640135.82653,   0.00000,   0.00000,   0.00000,-63149410.61797,   0.00000
473101111.29533,242847441.61327,30556646.99055,   0.00168,   0.00018,   0.00040,413169787.04939,   0.00000,274640135.82653,   0.00000,   0.00000,   0.00000,-61470348.77714,   0.00000
475029355.18525,244076157.68447,30642952.37079,   0.00169,   0.00018,   0.00040,414848997.62055,   0.00000,274640135.82653,   0.00000,   0.00000,   0.00000,-59791138.20598,   0.00000
476980311.01734,245327585.69784,30729257.75102,   0.00169,   0.00019,   0.00040,416548046.59370,   0.00000,274640135.82653,   0.00000,   0.00000,   0.00000,-58092089.23283,   0.00000
478915368.48991,246572200.12855,30811020.74282,   0.00170,   0.00019,   0.00040,418232615.85602,   0.00000,274640135.82653,   0.00000,   0.00000,   0.00000,-56407519.97051,   0.00000
480882222.68151,247830441.72456,30897326.12305,   0.00170,   0.00019,   0.00040,419945616.18919,   0.00000,274640135.82653,   0.00000,   0.00000,   0.00000,-54694519.63734,   0.00000
482839992.09625,249097768.09744,30979089.11485,   0.00171,   0.00019,   0.00040,421650214.68799,   0.00000,274640135.82653,   0.00000,   0.00000,   0.00000,-52989921.13854,   0.00000
484797761.51098,250365094.47032,31060852.10665,   0.00172,   0.00019,   0.00040,423354983.83303,   0.00000,274640135.82653,   0.00000,   0.00000,   0.00000,-51285151.99350,   0.00000
486778242.86788,251655132.78537,31142615.09844,   0.00172,   0.00020,   0.00040,425079648.61462,   0.00000,274640135.82653,   0.00000,   0.00000,   0.00000,-49560487.21191,   0.00000
488758724.22479,252945171.10042,31219835.70181,   0.00173,   0.00020,   0.00041,426803497.39282,   0.00000,274640135.82653,   0.00000,   0.00000,   0.00000,-47836638.43371,   0.00000
490739205.58169,254235209.41546,31301598.69361,   0.00174,   0.00020,   0.00041,428528523.13978,   0.00000,274640135.82653,   0.00000,   0.00000,   0.00000,-46111612.68675,   0.00000
492742398.88076,255547959.67268,31378819.29697,   0.00174,   0.00020,   0.00041,430272480.61066,   0.00000,274640135.82653,   0.00000,   0.00000,   0.00000,-44367655.21587,   0.00000
494745592.17982,256860709.92989,31456039.90034,   0.00175,   0.00020,   0.00041,432016629.98511,   0.00000,274640135.82653,   0.00000,   0.00000,   0.00000,-42623505.84142,   0.00000
496755599.06154,258189358.54662,31528718.11527,   0.00176,   0.00021,   0.00041,433766113.00048,   0.00000,274640135.82653,   0.00000,   0.00000,   0.00000,-40874022.82605,   0.00000
498758792.36061,259502108.80383,31605938.71864,   0.00176,   0.00021,   0.00041,435510648.68207,   0.00000,274640135.82653,   0.00000,   0.00000,   0.00000,-39129487.14446,   0.00000
500775612.82498,260846655.78008,31678616.93357,   0.00177,   0.00021,   0.00041,437266683.66426,   0.00000,274640135.82653,   0.00000,   0.00000,   0.00000,-37373452.16227,   0.00000
502801518.06622,262182117.97945,31755837.53694,   0.00178,   0.00021,   0.00041,439031390.99729,   0.00000,274640135.82653,   0.00000,   0.00000,   0.00000,-35608744.82924,   0.00000
504834236.89010,263533478.53835,31828515.75187,   0.00178,   0.00021,   0.00041,440801476.58434,   0.00000,274640135.82653,   0.00000,   0.00000,   0.00000,-33838659.24219,   0.00000
506873769.29663,264900737.45676,31896651.57837,   0.00179,   0.00022,   0.00041,442576967.95889,   0.00000,274640135.82653,   0.00000,   0.00000,   0.00000,-32063167.86764,   0.00000
508929200.06269,266274809.95782,31969329.79330,   0.00180,   0.00022,   0.00042,444367295.38540,   0.00000,274640135.82653,   0.00000,   0.00000,   0.00000,-30272840.44112,   0.00000
510968732.46922,267642068.87624,32037465.61980,   0.00180,   0.00022,   0.00042,446143241.02741,   0.00000,274640135.82653,   0.00000,   0.00000,   0.00000,-28496894.79912,   0.00000
513024163.23527,269016141.37730,32105601.44630,   0.00181,   0.00022,   0.00042,447933035.72141,   0.00000,274640135.82653,   0.00000,   0.00000,   0.00000,-26707100.10512,   0.00000
515086407.58397,270406112.23788,32173737.27280,   0.00182,   0.00023,   0.00042,449729260.75841,   0.00000,274640135.82653,   0.00000,   0.00000,   0.00000,-24910875.06812,   0.00000
517171363.87484,271818795.04062,32241873.09929,   0.00182,   0.00023,   0.00042,451545562.63391,   0.00000,274640135.82653,   0.00000,   0.00000,   0.00000,-23094573.19262,   0.00000
519233608.22354,273208765.90120,32305466.53736,   0.00183,   0.00023,   0.00042,453341290.70878,   0.00000,274640135.82653,   0.00000,   0.00000,   0.00000,-21298845.11775,   0.00000
521325378.09706,274637347.06346,32373602.36386,   0.00184,   0.00023,   0.00042,455164315.21232,   0.00000,274640135.82653,   0.00000,   0.00000,   0.00000,-19475820.61420,   0.00000
523410334.38793,276050029.86620,32437195.80192,   0.00184,   0.00024,   0.00042,456980386.56776,   0.00000,274640135.82653,   0.00000,   0.00000,   0.00000,-17659749.25877,   0.00000
525502104.26144,277478611.02847,32500789.23999,   0.00185,   0.00024,   0.00042,458802954.52640,   0.00000,274640135.82653,   0.00000,   0.00000,   0.00000,-15837181.30013,   0.00000
527609772.49448,278914005.77338,32559840.28962,   0.00186,   0.00024,   0.00042,460638436.42891,   0.00000,274640135.82653,   0.00000,   0.00000,   0.00000,-14001699.39762,   0.00000
529708355.95064,280358485.29515,32623433.72769,   0.00186,   0.00024,   0.00042,462467788.71936,   0.00000,274640135.82653,   0.00000,   0.00000,   0.00000,-12172347.10717,   0.00000
531822837.76633,281809778.39958,32682484.77732,   0.00187,   0.00025,   0.00042,464310069.18475,   0.00000,274640135.82653,   0.00000,   0.00000,   0.00000,-10330066.64178,   0.00000
533960031.52418,283283783.44617,32741535.82695,   0.00188,   0.00025,   0.00043,466172525.78267,   0.00000,274640135.82653,   0.00000,   0.00000,   0.00000,-8467610.04386,   0.00000
536081326.92251,284750974.91012,32796044.48815,   0.00188,   0.00025,   0.00043,468020691.76178,   0.00000,274640135.82653,   0.00000,   0.00000,   0.00000,-6619444.06475,   0.00000
538218520.68036,286224979.95671,32855095.53778,   0.00189,   0.00025,   0.00043,469883710.89973,   0.00000,274640135.82653,   0.00000,   0.00000,   0.00000,-4756424.92680,   0.00000
540346629.66134,287708069.78017,32909604.19898,   0.00190,   0.00026,   0.00043,471738756.00434,   0.00000,274640135.82653,   0.00000,   0.00000,   0.00000,-2901379.82219,   0.00000
542490637.00184,289197973.18628,32964112.86018,   0.00190,   0.00026,   0.00043,473607711.55697,   0.00000,274640135.82653,   0.00000,   0.00000,   0.00000,-1032424.26956,   0.00000
543675011.71498,290018691.31032,32994002.44285,   0.00191,   0.00026,   0.00043,474640134.06847,   0.00000,274640135.82653,   0.00000,   0.00000,   0.00000,  -5.34936,   0.00000
543680106.28730,290243049.68572,32951169.14282,   0.00191,   0.00026,   0.00043,474644132.38214,   0.00000,274644140.57400,   0.00000,   0.00000,   0.00000,  -8.19186,   1.00000
543691201.43779,290751202.82172,32852798.14174,   0.00192,   0.00026,   0.00043,474652960.29704,   0.00001,274652965.15232,   0.00001,   0.00000,   0.00000,  -4.85528,   1.00000
543700453.78177,291268391.44795,32757689.68943,   0.00193,   0.00027,   0.00043,474661881.13015,   0.00002,274661884.28783,   0.00002,   0.00000,   0.00000,  -3.15768,   1.00000
543710532.23667,291771086.75523,32659006.11060,   0.00193,   0.00027,   0.00043,474670758.63260,   0.00003,274670765.30683,   0.00003,   0.00000,   0.00001,  -6.67423,   1.00000
543718988.74255,292296162.39081,32559714.60155,   0.00194,   0.00027,   0.00043,474679698.83276,   0.00004,274679702.28144,   0.00003,   0.00000,   0.00001,  -3.44869,   1.00000
543728273.97184,292806717.17184,32456865.30159,   0.00195,   0.00027,   0.00043,474688595.73173,   0.00004,274688601.05728,   0.00004,   0.00000,   0.00001,  -5.32556,   1.00000
543735659.15564,293326138.85373,32357319.60849,   0.00195,   0.00028,   0.00043,474697585.53397,   0.00005,274697594.21362,   0.00005,   0.00000,   0.00001,  -8.67964,   1.00000
543743402.48613,293843463.27721,32253723.22083,   0.00196,   0.00028,   0.00043,474706574.76182,   0.00006,274706579.03334,   0.00006,   0.00000,   0.00001,  -4.27153,   1.00000
543749889.72844,294370555.17550,32150045.80505,   0.00197,   0.00028,   0.00043,474715584.06466,   0.00007,274715590.03329,   0.00007,   0.00000,   0.00002,  -5.96863,   1.00000
543756697.56128,294895488.07955,32042335.40065,   0.00197,   0.00029,   0.00043,474724585.50443,   0.00008,274724592.73769,   0.00007,   0.00000,   0.00002,  -7.23326,   1.00000
543761163.45262,295429610.23067,31939015.96677,   0.00198,   0.00029,   0.00044,474733621.22961,   0.00009,274733625.97530,   0.00008,   0.00000,   0.00002,  -4.74568,   1.00000
543766289.59210,295960933.37797,31830621.57528,   0.00199,   0.00029,   0.00044,474742707.77462,   0.00009,274742714.54628,   0.00009,   0.00000,   0.00002,  -6.77166,   1.00000
543770068.79684,296501842.03981,31722175.56313,   0.00199,   0.00029,   0.00044,474751821.77146,   0.00010,274751829.33844,   0.00010,   0.00001,   0.00002,  -7.56698,   1.00000
543773092.84396,297039974.09661,31614174.20699,   0.00200,   0.00030,   0.00044,474760934.92616,   0.00011,274760940.07975,   0.00011,   0.00001,   0.00003,  -5.15358,   1.00000
543776397.12545,297575834.99626,31502163.51352,   0.00201,   0.00030,   0.00044,474770040.26865,   0.00012,274770042.51531,   0.00011,   0.00001,   0.00003,  -2.24666,   1.00000
543778651.62077,298120537.17815,31389095.04344,   0.00202,   0.00030,   0.00044,474779231.62417,   0.00013,274779234.67825,   0.00012,   0.00001,   0.00003,  -3.05409,   1.00000
543780139.18482,298662406.17044,31276497.97010,   0.00202,   0.00031,   0.00044,474788422.15303,   0.00014,274788422.70129,   0.00013,   0.00001,   0.00003,  -0.54826,   1.00000
543780493.83259,299202133.69051,31165388.84738,   0.00203,   0.00031,   0.00044,474797538.58861,   0.00014,274797543.36193,   0.00014,   0.00001,   0.00003,  -4.77332,   1.00000
543781139.00784,299750359.77786,31047764.08072,   0.00204,   0.00031,   0.00044,474806807.27307,   0.00015,274806812.70866,   0.00015,   0.00001,   0.00004,  -5.43559,   1.00000
543779908.06744,300308593.78689,30931156.96645,   0.00204,   0.00032,   0.00044,474816037.86376,   0.00016,274816045.24666,   0.00016,   0.00001,   0.00004,  -7.38290,   1.00000
543777880.41480,300863885.53915,30815039.93606,   0.00205,   0.00032,   0.00044,474825267.79550,   0.00017,274825273.61415,   0.00016,   0.00001,   0.00004,  -5.81865,   1.00000
543775429.40648,301415495.71751,30698407.86012,   0.00206,   0.00032,   0.00044,474834555.19446,   0.00018,274834560.89326,   0.00017,   0.00001,   0.00004,  -5.69881,   1.00000
543772418.69038,301976796.83578,30577326.35491,   0.00207,   0.00032,   0.00044,474843863.40445,   0.00019,274843870.53772,   0.00018,   0.00001,   0.00004,  -7.13327,   1.00000
543768601.99758,302535100.68593,30456762.09923,   0.00207,   0.00033,   0.00044,474853170.97285,   0.00019,274853175.92436,   0.00019,   0.00001,   0.00005,  -4.95151,   1.00000
543763982.17477,303090418.08612,30336713.14324,   0.00208,   0.00033,   0.00044,474862470.23919,   0.00020,274862477.09027,   0.00020,   0.00001,   0.00005,  -6.85108,   1.00000
543758122.10944,303654029.44933,30215703.96069,   0.00209,   0.00033,   0.00044,474871863.17362,   0.00021,274871867.67173,   0.00021,   0.00001,   0.00005,  -4.49811,   1.00000
543751214.98670,304227973.90703,30091257.91433,   0.00209,   0.00034,   0.00044,474881211.32637,   0.00022,274881218.00782,   0.00021,   0.00001,   0.00005,  -6.68145,   1.00000
543743851.43510,304797959.84994,29966368.40469,   0.00210,   0.00034,   0.00044,474890624.68098,   0.00023,274890626.77687,   0.00022,   0.00001,   0.00005,  -2.09589,   1.00000
543735649.66072,305364834.52826,29842021.32591,   0.00211,   0.00034,   0.00044,474900022.00792,   0.00024,274900031.26752,   0.00023,   0.00002,   0.00005,  -9.25960,   1.00000
543727092.33388,305940227.65521,29712302.69022,   0.00212,   0.00035,   0.00044,474909513.71615,   0.00025,274909521.03220,   0.00024,   0.00002,   0.00006,  -7.31605,   1.00000
543717316.02260,306513354.78727,29584123.83090,   0.00212,   0.00035,   0.00044,474918939.36153,   0.00025,274918943.81073,   0.00025,   0.00002,   0.00006,  -4.44920,   1.00000
543706148.19820,307094384.12622,29455061.79058,   0.00213,   0.00035,   0.00044,474928451.05245,   0.00026,274928455.86486,   0.00026,   0.00002,   0.00006,  -4.81240,   1.00000
543693753.50136,307673131.99126,29327529.95949,   0.00214,   0.00036,   0.00044,474937896.78487,   0.00027,274937901.04152,   0.00026,   0.00002,   0.00006,  -4.25665,   1.00000
543681851.83660,308248200.81316,29195142.63156,   0.00214,   0.00036,   0.00044,474947392.59991,   0.00028,274947400.37164,   0.00027,   0.00002,   0.00006,  -7.77173,   1.00000
543667568.64262,308830542.08165,29066377.46499,   0.00215,   0.00036,   0.00044,474956989.50213,   0.00029,274956992.69092,   0.00028,   0.00002,   0.00007,  -3.18879,   1.00000
543653945.70125,309411557.51778,28930211.91456,   0.00216,   0.00037,   0.00044,474966506.18362,   0.00030,274966510.53677,   0.00029,   0.00002,   0.00007,  -4.35315,   1.00000
543637502.06065,310000726.29249,28798641.66162,   0.00217,   0.00037,   0.00044,474976050.71692,   0.00031,274976059.12064,   0.00030,   0.00002,   0.00007,  -8.40372,   1.00000
543620493.28186,310597892.33109,28661784.97426,   0.00217,   0.00038,   0.00044,474985690.04647,   0.00032,274985692.93534,   0.00031,   0.00002,   0.00007,  -2.88887,   1.00000
543603645.32990,311179810.44003,28526021.54239,   0.00218,   0.00038,   0.00044,474995284.23795,   0.00032,274995290.84052,   0.00031,   0.00002,   0.00007,  -6.60257,   1.00000
543583809.05850,311782087.13369,28389928.17217,   0.00219,   0.00038,   0.00044,475004944.05059,   0.00033,275004947.13115,   0.00032,   0.00002,   0.00008,  -3.08055,   1.00000
543565094.76387,312369577.25676,28250460.63486,   0.00220,   0.00039,   0.00044,475014559.52060,   0.00034,275014563.63756,   0.00033,   0.00002,   0.00008,  -4.11696,   1.00000
543543884.53944,312963931.94016,28114703.58789,   0.00220,   0.00039,   0.00045,475024268.32919,   0.00035,275024272.83167,   0.00034,   0.00003,   0.00008,  -4.50248,   1.00000
543521203.73047,313568221.25460,27975551.01626,   0.00221,   0.00039,   0.00045,475033941.50467,   0.00036,275033943.43939,   0.00035,   0.00003,   0.00008,  -1.93472,   1.00000
543498933.24863,314168350.21620,27831659.33567,   0.00222,   0.00040,   0.00045,475043664.62580,   0.00037,275043667.63277,   0.00036,   0.00003,   0.00008,  -3.00697,   1.00000
543475768.50180,314764992.91246,27688433.99545,   0.00223,   0.00040,   0.00045,475053379.55076,   0.00038,275053387.22244,   0.00037,   0.00003,   0.00009,  -7.67167,   1.00000
543450554.27083,315369885.60309,27545408.15455,   0.00223,   0.00040,   0.00045,475063131.68089,   0.00039,275063133.89326,   0.00038,   0.00003,   0.00009,  -2.21237,   1.00000
543424435.32552,315971238.37805,27403046.46669,   0.00224,   0.00041,   0.00045,475072867.53012,   0.00040,275072875.99542,   0.00038,   0.00003,   0.00009,  -8.46530,   1.00000
543396229.47908,316580753.36156,27260885.18904,   0.00225,   0.00041,   0.00045,475082640.69802,   0.00040,275082645.26911,   0.00039,   0.00003,   0.00009,  -4.57109,   1.00000
543367178.47159,317197562.26512,27113570.25334,   0.00225,   0.00042,   0.00045,475092492.88606,   0.00041,275092499.74815,   0.00040,   0.00003,   0.00009,  -6.86209,   1.00000
543339352.03537,317799536.45910,26962943.41449,   0.00226,   0.00042,   0.00044,475102308.53967,   0.00042,275102314.01102,   0.00041,   0.00003,   0.00009,  -5.47135,   1.00000
543306792.61913,318421974.74252,26817457.98835,   0.00227,   0.00042,   0.00044,475112124.94218,   0.00043,275112129.68551,   0.00042,   0.00003,   0.00010,  -4.74333,   1.00000
543275895.35377,319028290.15176,26667772.87457,   0.00228,   0.00043,   0.00044,475121961.96817,   0.00044,275121966.50184,   0.00043,   0.00004,   0.00010,  -4.53367,   1.00000
543242799.73781,319642564.55752,26518343.60527,   0.00228,   0.00043,   0.00044,475131828.54970,   0.00045,275131830.67104,   0.00044,   0.00004,   0.00010,  -2.12134,   1.00000
543207889.46012,320263383.42126,26368309.26429,   0.00229,   0.00044,   0.00044,475141781.52727,   0.00046,275141783.44772,   0.00045,   0.00004,   0.00010,  -1.92046,   1.00000
543172494.06493,320882235.81622,26215383.64348,   0.00230,   0.00044,   0.00044,475151662.37785,   0.00047,275151666.87406,   0.00045,   0.00004,   0.00010,  -4.49621,   1.00000
543135240.03740,321507501.01724,26061887.00946,   0.00231,   0.00044,   0.00044,475161629.66457,   0.00048,275161638.86765,   0.00046,   0.00004,   0.00011,  -9.20308,   1.00000
543098032.86462,322118854.96998,25910431.71256,   0.00231,   0.00045,   0.00044,475171511.09930,   0.00049,275171512.75898,   0.00047,   0.00004,   0.00011,  -1.65969,   1.00000
543058395.19764,322748495.65872,25753492.88243,   0.00232,   0.00045,   0.00044,475181501.24627,   0.00049,275181504.13945,   0.00048,   0.00004,   0.00011,  -2.89318,   1.00000
543017816.94921,323374270.06252,25597318.09766,   0.00233,   0.00046,   0.00044,475191483.46455,   0.00050,275191490.73938,   0.00049,   0.00004,   0.00011,  -7.27484,   1.00000
542976324.99951,323996205.83418,25441905.46709,   0.00234,   0.00046,   0.00044,475201466.12640,   0.00051,275201472.52427,   0.00050,   0.00005,   0.00011,  -6.39787,   1.00000
542933739.16192,324624715.04328,25281508.53223,   0.00234,   0.00046,   0.00044,475211536.47134,   0.00052,275211539.38391,   0.00051,   0.00005,   0.00011,  -2.91257,   1.00000
542887469.08336,325261728.56035,25126757.68281,   0.00235,   0.00047,   0.00044,475221570.84979,   0.00053,275221576.49853,   0.00052,   0.00005,   0.00012,  -5.64874,   1.00000
542843401.99571,325884304.81390,24964257.76707,   0.00236,   0.00047,   0.00044,475231561.48315,   0.00054,275231569.75853,   0.00053,   0.00005,   0.00012,  -8.27538,   1.00000
542795038.60507,326523760.60958,24805346.96777,   0.00237,   0.00048,   0.00044,475241684.45742,   0.00055,275241687.14251,   0.00053,   0.00005,   0.00012,  -2.68509,   1.00000
542746536.68074,327159629.99948,24642751.13301,   0.00237,   0.00048,   0.00044,475251792.21816,   0.00056,275251796.47574,   0.00054,   0.00005,   0.00012,  -4.25758,   1.00000
542697099.72450,327791497.39678,24480966.96332,   0.00238,   0.00049,   0.00044,475261892.11192,   0.00057,275261900.95743,   0.00055,   0.00005,   0.00012,  -8.84552,   1.00000
542645185.94469,328430668.36582,24319559.64984,   0.00239,   0.00049,   0.00044,475272031.14800,   0.00058,275272033.24683,   0.00056,   0.00005,   0.00012,  -2.09884,   1.00000
542593127.17867,329066220.54399,24154484.43316,   0.00240,   0.00049,   0.00044,475282155.00427,   0.00059,275282157.56092,   0.00057,   0.00006,   0.00013,  -2.55665,   1.00000
542538535.59283,329708976.46559,23989810.66049,   0.00240,   0.00050,   0.00044,475292309.58256,   0.00060,275292309.81518,   0.00058,   0.00006,   0.00013,  -0.23262,   1.00000
542483780.10401,330348059.20468,23821489.32802,   0.00241,   0.00050,   0.00044,475302449.02617,   0.00061,275302454.14414,   0.00059,   0.00006,   0.00013,  -5.11797,   1.00000
542427811.52467,330981002.77507,23657725.36374,   0.00242,   0.00051,   0.00044,475312652.71405,   0.00062,275312656.75153,   0.00060,   0.00006,   0.00013,  -4.03748,   1.00000
542367890.08848,331634299.97877,23490238.40194,   0.00243,   0.00051,   0.00044,475322853.92302,   0.00062,275322857.26891,   0.00061,   0.00006,   0.00013,  -3.34589,   1.00000
542309959.11481,332270984.97896,23318783.82983,   0.00244,   0.00052,   0.00044,475333074.77276,   0.00063,275333076.85895,   0.00062,   0.00006,   0.00014,  -2.08620,   1.00000
542248649.33645,332914258.67685,23152270.05960,   0.00244,   0.00052,   0.00044,475343325.45218,   0.00064,275343327.57906,   0.00062,   0.00006,   0.00014,  -2.12688,   1.00000
542185452.04496,333564871.92195,22981715.05900,   0.00245,   0.00053,   0.00044,475353599.96674,   0.00065,275353603.50048,   0.00063,   0.00007,   0.00014,  -3.53374,   1.00000
542122067.21326,334211654.85227,22807560.36588,   0.00246,   0.00053,   0.00044,475363868.22404,   0.00066,275363871.54481,   0.00064,   0.00007,   0.00014,  -3.32077,   1.00000
542055981.14179,334865256.84938,22633894.55359,   0.00247,   0.00054,   0.00044,475374159.09217,   0.00067,275374167.88522,   0.00065,   0.00007,   0.00014,  -8.79305,   1.00000
541988963.72490,335514568.86261,22461131.45182,   0.00247,   0.00054,   0.00044,475384451.26496,   0.00068,275384459.28729,   0.00066,   0.00007,   0.00014,  -8.02232,   1.00000
541921035.08329,336159617.86230,22289267.92055,   0.00248,   0.00054,   0.00043,475394744.68617,   0.00069,275394745.75699,   0.00067,   0.00007,   0.00015,  -1.07082,   1.00000
541849798.81735,336820974.29368,22112282.09946,   0.00249,   0.00055,   0.00043,475405148.37661,   0.00070,275405150.63393,   0.00068,   0.00007,   0.00015,  -2.25732,   1.00000
541778923.42952,337468785.50473,21937350.99900,   0.00250,   0.00055,   0.00043,475415449.75655,   0.00071,275415457.78113,   0.00069,   0.00008,   0.00015,  -8.02457,   1.00000
541705829.43104,338121397.97839,21762225.20132,   0.00250,   0.00056,   0.00043,475425847.43292,   0.00072,275425852.75648,   0.00070,   0.00008,   0.00015,  -5.32356,   1.00000
541630117.80416,338782828.46715,21583848.32057,   0.00251,   0.00056,   0.00043,475436214.02775,   0.00073,275436214.17566,   0.00071,   0.00008,   0.00015,  -0.14791,   1.00000
541554010.23559,339437936.56791,21405714.81113,   0.00252,   0.00057,   0.00043,475446628.85440,   0.00074,275446629.94134,   0.00072,   0.00008,   0.00015,  -1.08695,   1.00000
541475071.38629,340099495.70219,21228135.23513,   0.00253,   0.00057,   0.00043,475457066.80264,   0.00075,275457074.33775,   0.00073,   0.00008,   0.00015,  -7.53511,   1.00000
541395353.72481,340758901.69582,21047706.99272,   0.00253,   0.00058,   0.00043,475467443.58602,   0.00076,275467452.00424,   0.00074,   0.00008,   0.00016,  -8.41822,   1.00000
541315286.78286,341411916.41369,20867558.69047,   0.00254,   0.00058,   0.00043,475477877.45237,   0.00077,275477883.78776,   0.00075,   0.00009,   0.00016,  -6.33539,   1.00000
541233030.34135,342071683.92284,20683503.69554,   0.00255,   0.00059,   0.00043,475488336.30924,   0.00078,275488341.69249,   0.00075,   0.00009,   0.00016,  -5.38325,   1.00000
541147201.49307,342737334.55654,20504542.74762,   0.00256,   0.00059,   0.00043,475498826.03441,   0.00079,275498831.04565,   0.00076,   0.00009,   0.00016,  -5.01124,   1.00000
541061792.58184,343399188.42069,20317574.65251,   0.00257,   0.00060,   0.00043,475509302.81236,   0.00080,275509310.29581,   0.00077,   0.00009,   0.00016,  -7.48345,   1.00000
540972795.75427,344066843.40414,20135728.85089,   0.00257,   0.00060,   0.00043,475519819.77902,   0.00081,275519821.01268,   0.00078,   0.00009,   0.00016,  -1.23367,   1.00000
540884128.95543,344728224.48132,19949732.67333,   0.00258,   0.00061,   0.00043,475530377.35375,   0.00082,275530382.96550,   0.00079,   0.00009,   0.00017,  -5.61175,   1.00000
540793977.24059,345387080.44608,19765402.04484,   0.00259,   0.00061,   0.00042,475540872.68162,   0.00083,275540881.38575,   0.00080,   0.00010,   0.00017,  -8.70413,   1.00000
540701512.24992,346052409.50367,19577217.26767,   0.00260,   0.00062,   0.00042,475551402.73594,   0.00084,275551406.36645,   0.00081,   0.00010,   0.00017,  -3.63051,   1.00000
540606649.48807,346721632.33977,19389062.61186,   0.00260,   0.00062,   0.00042,475562011.81942,   0.00084,275562018.95837,   0.00082,   0.00010,   0.00017,  -7.13896,   1.00000
540510289.23976,347388283.23538,19202576.92383,   0.00261,   0.00063,   0.00042,475572568.10581,   0.00085,275572568.21964,   0.00083,   0.00010,   0.00017,  -0.11382,   1.00000
540411516.19406,348061203.37213,19012264.51415,   0.00262,   0.00063,   0.00042,475583141.09230,   0.00086,275583144.36656,   0.00084,   0.00010,   0.00017,  -3.27425,   1.00000
540312485.64114,348727238.42783,18822393.01522,   0.00263,   0.00064,   0.00042,475593771.39735,   0.00087,275593773.86847,   0.00085,   0.00011,   0.00017,  -2.47112,   1.00000
540209765.62452,349401262.00011,18633830.01822,   0.00263,   0.00065,   0.00042,475604371.06152,   0.00088,275604374.54321,   0.00086,   0.00011,   0.00018,  -3.48169,   1.00000
540107416.18877,350068680.58796,18441224.48869,   0.00264,   0.00065,   0.00042,475615020.65395,   0.00089,275615026.12802,   0.00087,   0.00011,   0.00018,  -5.47407,   1.00000
540001328.89774,350744034.01146,18249942.24485,   0.00265,   0.00066,   0.00042,475625639.88144,   0.00090,275625649.14848,   0.00088,   0.00011,   0.00018,  -9.26704,   1.00000
539895037.32489,351412351.81430,18059143.70101,   0.00266,   0.00066,   0.00042,475636316.47524,   0.00091,275636325.27699,   0.00089,   0.00012,   0.00018,  -8.80175,   1.00000
539786227.65878,352086658.01792,17864582.49376,   0.00267,   0.00067,   0.00041,475647019.65520,   0.00092,275647028.67642,   0.00090,   0.00012,   0.00018,  -9.02121,   1.00000
539675884.12025,352758380.01142,17671700.26293,   0.00267,   0.00067,   0.00041,475657661.48178,   0.00093,275657669.46127,   0.00091,   0.00012,   0.00018,  -7.97949,   1.00000
539563661.68234,353433714.65425,17474503.44141,   0.00268,   0.00068,   0.00041,475668394.19189,   0.00094,275668395.43745,   0.00092,   0.00012,   0.00018,  -1.24556,   1.00000
539450574.25501,354104149.38663,17278431.52071,   0.00269,   0.00068,   0.00041,475679110.88426,   0.00095,275679116.65620,   0.00092,   0.00012,   0.00019,  -5.77195,   1.00000
539333633.47134,354782374.45672,17083701.31760,   0.00270,   0.00069,   0.00041,475689807.39905,   0.00096,275689810.06178,   0.00093,   0.00013,   0.00019,  -2.66274,   1.00000
539217112.08804,355453667.78306,16885037.28969,   0.00270,   0.00069,   0.00041,475700554.06604,   0.00097,275700554.11167,   0.00094,   0.00013,   0.00019,  -0.04563,   1.00000
539097393.77944,356130329.20326,16687186.53774,   0.00271,   0.00070,   0.00041,475711325.93470,   0.00098,275711328.07913,   0.00095,   0.00013,   0.00019,  -2.14443,   1.00000
538976130.08688,356804410.45507,16491014.29239,   0.00272,   0.00071,   0.00041,475722036.94572,   0.00099,275722039.95888,   0.00096,   0.00013,   0.00019,  -3.01315,   1.00000
538852911.95383,357481705.13482,16290620.74283,   0.00273,   0.00071,   0.00040,475732829.87162,   0.00100,275732837.15102,   0.00097,   0.00014,   0.00019,  -7.27940,   1.00000
538726459.83149,358164194.49531,16091071.67773,   0.00273,   0.00072,   0.00040,475743657.82993,   0.00101,275743664.40444,   0.00098,   0.00014,   0.00019,  -6.57450,   1.00000
538598965.46752,358844376.71382,15888705.87901,   0.00274,   0.00072,   0.00040,475754427.37135,   0.00102,275754427.83087,   0.00099,   0.00014,   0.00020,  -0.45951,   1.00000
538471403.08974,359517061.31344,15687005.48150,   0.00275,   0.00073,   0.00040,475765235.49296,   0.00103,275765243.75326,   0.00100,   0.00014,   0.00020,  -8.26031,   1.00000
538340597.27978,360194869.26303,15486176.54145,   0.00276,   0.00073,   0.00040,475776088.57361,   0.00104,275776089.88296,   0.00101,   0.00014,   0.00020,  -1.30935,   1.00000
538206222.62399,360880491.83747,15282219.36112,   0.00277,   0.00074,   0.00040,475786905.88888,   0.00105,275786907.57443,   0.00102,   0.00015,   0.00020,  -1.68555,   1.00000
538071829.79986,361558468.27991,15078969.27724,   0.00277,   0.00075,   0.00040,475797771.48014,   0.00106,275797777.55255,   0.00103,   0.00015,   0.00020,  -6.07240,   1.00000
537937156.40843,362231649.46964,14872422.38981,   0.00278,   0.00075,   0.00039,475808633.26412,   0.00107,275808641.05492,   0.00104,   0.00015,   0.00020,  -7.79079,   1.00000
537798373.73680,362912319.78716,14667279.53356,   0.00279,   0.00076,   0.00039,475819476.82225,   0.00108,275819478.39725,   0.00105,   0.00015,   0.00020,  -1.57500,   1.00000
537657061.15982,363595267.67927,14462587.69965,   0.00280,   0.00076,   0.00039,475830400.82642,   0.00109,275830403.03312,   0.00106,   0.00016,   0.00020,  -2.20670,   1.00000
537514173.28054,364275606.41218,14259580.96190,   0.00280,   0.00077,   0.00039,475841264.94572,   0.00110,275841266.60433,   0.00107,   0.00016,   0.00020,  -1.65861,   1.00000
537369675.63418,364958677.21346,14048039.64994,   0.00281,   0.00078,   0.00039,475852204.60194,   0.00111,275852213.94636,   0.00108,   0.00016,   0.00021,  -9.34442,   1.00000
537223149.47919,365638862.83373,13842719.98240,   0.00282,   0.00078,   0.00039,475863101.71802,   0.00112,275863102.09623,   0.00109,   0.00017,   0.00021,  -0.37822,   1.00000
537073684.81108,366324001.80879,13633849.31275,   0.00283,   0.00079,   0.00039,475874018.27880,   0.00113,275874019.52783,   0.00110,   0.00017,   0.00021,  -1.24903,   1.00000
536924348.07747,367001223.27483,13425799.28976,   0.00284,   0.00079,   0.00038,475884983.11343,   0.00114,275884988.81796,   0.00111,   0.00017,   0.00021,  -5.70454,   1.00000
536771185.51995,367685989.28092,13214664.76663,   0.00284,   0.00080,   0.00038,475895923.54555,   0.00115,275895931.31918,   0.00112,   0.00017,   0.00021,  -7.77363,   1.00000
536617314.00250,368365470.88044,13004807.84594,   0.00285,   0.00081,   0.00038,475906868.35811,   0.00116,275906869.46490,   0.00113,   0.00018,   0.00021,  -1.10679,   1.00000
536460015.47058,369049453.39412,12795958.21468,   0.00286,   0.00081,   0.00038,475917830.52526,   0.00117,275917838.88965,   0.00114,   0.00018,   0.00021,  -8.36439,   1.00000
536302451.44590,369728393.13189,12583877.28097,   0.00287,   0.00082,   0.00038,475928799.72875,   0.00118,275928802.41733,   0.00115,   0.00018,   0.00021,  -2.68858,   1.00000
536141451.88568,370411756.13170,12372832.94210,   0.00287,   0.00082,   0.00038,475939796.36895,   0.00119,275939797.32778,   0.00116,   0.00018,   0.00021,  -0.95882,   1.00000
535977390.62599,371099701.56176,12158324.78251,   0.00288,   0.00083,   0.00037,475950813.25791,   0.00120,275950822.20885,   0.00117,   0.00019,   0.00022,  -8.95094,   1.00000
535812659.16260,371782242.25449,11945136.20048,   0.00289,   0.00084,   0.00037,475961834.98197,   0.00121,275961842.86813,   0.00118,   0.00019,   0.00022,  -7.88616,   1.00000
535647273.95591,372459412.78841,11733260.94802,   0.00290,   0.00084,   0.00037,475972851.52535,   0.00122,275972859.36319,   0.00119,   0.00019,   0.00022,  -7.83784,   1.00000
535478809.59840,373141092.21923,11517948.21281,   0.00290,   0.00085,   0.00037,475983898.62555,   0.00124,275983906.07893,   0.00120,   0.00020,   0.00022,  -7.45338,   1.00000
535306258.88710,373830014.67965,11299594.15346,   0.00291,   0.00086,   0.00037,475994922.81464,   0.00125,275994927.66647,   0.00121,   0.00020,   0.00022,  -4.85183,   1.00000
535133674.84814,374510376.77354,11086738.74209,   0.00292,   0.00086,   0.00036,476005993.03344,   0.00126,276006002.04851,   0.00121,   0.00020,   0.00022,  -9.01507,   1.00000
534956978.91509,375197944.23409,10870828.05117,   0.00293,   0.00087,   0.00036,476017050.75804,   0.00127,276017051.59605,   0.00122,   0.00021,   0.00022,  -0.83802,   1.00000
534779988.21238,375880236.01850,10651756.84080,   0.00293,   0.00088,   0.00036,476028086.57253,   0.00128,276028095.96177,   0.00123,   0.00021,   0.00022,  -9.38924,   1.00000
534603432.79803,376554182.19582,10433716.90451,   0.00294,   0.00088,   0.00036,476039191.03115,   0.00129,276039191.51133,   0.00124,   0.00021,   0.00022,  -0.48019,   1.00000
534419397.60996,377244489.62418,10216943.37825,   0.00295,   0.00089,   0.00036,476050293.97423,   0.00130,276050300.21374,   0.00125,   0.00021,   0.00022,  -6.23951,   1.00000
534238049.81661,377920042.14233,9997241.30963,   0.00296,   0.00090,   0.00036,476061361.93289,   0.00131,276061367.70304,   0.00126,   0.00022,   0.00023,  -5.77016,   1.00000
534049154.17550,378611858.79725,9778819.94357,   0.00297,   0.00090,   0.00035,476072443.75668,   0.00132,276072448.75982,   0.00127,   0.00022,   0.00023,  -5.00314,   1.00000
533860754.02067,379295102.24840,9561466.87998,   0.00297,   0.00091,   0.00035,476083579.78107,   0.00133,276083580.95571,   0.00128,   0.00022,   0.00023,  -1.17465,   1.00000
533672108.00108,379972989.52783,9340986.19827,   0.00298,   0.00092,   0.00035,476094704.22776,   0.00134,276094708.27571,   0.00129,   0.00023,   0.00023,  -4.04795,   1.00000
533479117.08678,380657851.40071,9117498.35377,   0.00299,   0.00092,   0.00035,476105807.62262,   0.00135,276105812.34662,   0.00130,   0.00023,   0.00023,  -4.72400,   1.00000
533286690.00415,381334097.04658,8895143.98955,   0.00300,   0.00093,   0.00034,476116960.06969,   0.00136,276116967.47140,   0.00131,   0.00023,   0.00023,  -7.40171,   1.00000
533089595.51243,382017081.96236,8674304.27030,   0.00300,   0.00094,   0.00034,476128099.06181,   0.00137,276128100.75279,   0.00132,   0.00024,   0.00023,  -1.69098,   1.00000
532889189.80043,382703840.23479,8450185.71049,   0.00301,   0.00094,   0.00034,476139260.61186,   0.00138,276139265.93580,   0.00133,   0.00024,   0.00023,  -5.32394,   1.00000
532688274.26693,383384929.73630,8227506.08709,   0.00302,   0.00095,   0.00034,476150418.31174,   0.00139,276150427.64706,   0.00134,   0.00024,   0.00023,  -9.33531,   1.00000
532486889.81430,384060404.68525,8006258.63434,   0.00303,   0.00096,   0.00034,476161582.25060,   0.00140,276161585.86191,   0.00135,   0.00025,   0.00023,  -3.61131,   1.00000
532281000.11546,384742689.02362,7782008.70195,   0.00303,   0.00096,   0.00033,476172716.05873,   0.00141,276172722.04041,   0.00136,   0.00025,   0.00023,  -5.98168,   1.00000
532072942.14742,385425447.26753,7554286.86573,   0.00304,   0.00097,   0.00033,476183936.32169,   0.00142,276183944.78365,   0.00137,   0.00025,   0.00023,  -8.46196,   1.00000
531862993.75315,386105485.34427,7332789.19686,   0.00305,   0.00098,   0.00033,476195107.06169,   0.00143,276195110.98353,   0.00138,   0.00026,   0.00023,  -3.92184,   1.00000
531649902.17804,386789198.12988,7103553.01750,   0.00306,   0.00098,   0.00033,476206304.37135,   0.00144,276206308.93061,   0.00139,   0.00026,   0.00023,  -4.55926,   1.00000
531436140.98610,387467022.86791,6880317.46203,   0.00306,   0.00099,   0.00032,476217495.13133,   0.00145,276217504.58382,   0.00140,   0.00026,   0.00024,  -9.45249,   1.00000
531219007.73347,388148295.35608,6653881.61036,   0.00307,   0.00100,   0.00032,476228730.20653,   0.00146,276228733.00961,   0.00141,   0.00027,   0.00024,  -2.80308,   1.00000
531001671.55185,388823963.15823,6424419.02759,   0.00308,   0.00101,   0.00032,476239954.87572,   0.00147,276239957.59142,   0.00142,   0.00027,   0.00024,  -2.71571,   1.00000
530779437.46496,389506059.93299,6196523.02544,   0.00309,   0.00101,   0.00032,476251157.76503,   0.00148,276251162.30565,   0.00143,   0.00028,   0.00024,  -4.54062,   1.00000
530558107.80760,390179150.08945,5969929.78957,   0.00309,   0.00102,   0.00031,476262410.37116,   0.00149,276262417.73999,   0.00144,   0.00028,   0.00024,  -7.36883,   1.00000
530332051.23636,390858768.07451,5740378.50175,   0.00310,   0.00103,   0.00031,476273644.83944,   0.00150,276273652.89106,   0.00145,   0.00028,   0.00024,  -8.05161,   1.00000
530102366.85506,391541432.31704,5512218.98495,   0.00311,   0.00103,   0.00031,476284921.28929,   0.00152,276284922.19258,   0.00146,   0.00029,   0.00024,  -0.90329,   1.00000
529871158.98255,392221656.21380,5281230.05508,   0.00312,   0.00104,   0.00031,476296129.88269,   0.00153,276296134.68996,   0.00147,   0.00029,   0.00024,  -4.80727,   1.00000
529640967.19614,392892773.97709,5051605.33978,   0.00312,   0.00105,   0.00030,476307393.71944,   0.00154,276307397.84699,   0.00148,   0.00029,   0.00024,  -4.12755,   1.00000
529405939.91549,393570306.90148,4819043.03421,   0.00313,   0.00106,   0.00030,476318640.16813,   0.00155,276318641.58302,   0.00149,   0.00030,   0.00024,  -1.41489,   1.00000
529170589.58989,394242010.53289,4588026.14055,   0.00314,   0.00106,   0.00030,476329873.67237,   0.00156,276329882.79825,   0.00150,   0.00030,   0.00024,  -9.12588,   1.00000
528928262.60410,394925306.57735,4358351.29156,   0.00315,   0.00107,   0.00030,476341195.11984,   0.00157,276341195.88979,   0.00151,   0.00031,   0.00024,  -0.76995,   1.00000
528689145.27692,395594113.83526,4125799.15150,   0.00315,   0.00108,   0.00029,476352461.91293,   0.00158,276352468.77059,   0.00152,   0.00031,   0.00024,  -6.85765,   1.00000
528444969.05396,396269141.09363,3894840.79840,   0.00316,   0.00109,   0.00029,476363719.07797,   0.00159,276363723.54230,   0.00153,   0.00031,   0.00024,  -4.46433,   1.00000
528197261.58184,396946992.04770,3660835.41282,   0.00317,   0.00109,   0.00029,476375012.56183,   0.00160,276375012.92023,   0.00154,   0.00032,   0.00024,  -0.35840,   1.00000
527949297.75130,397618926.95483,3428404.09752,   0.00317,   0.00110,   0.00029,476386293.54164,   0.00161,276386300.09841,   0.00155,   0.00032,   0.00024,  -6.55678,   1.00000
527697802.57660,398293614.56147,3192955.58631,   0.00318,   0.00111,   0.00028,476397621.69469,   0.00162,276397622.09204,   0.00156,   0.00032,   0.00024,  -0.39735,   1.00000
527444587.44722,398965816.47090,2959194.83595,   0.00319,   0.00112,   0.00028,476408884.85402,   0.00163,276408889.32745,   0.00157,   0.00033,   0.00024,  -4.47342,   1.00000
527191267.70809,399632204.30179,2722500.30500,   0.00320,   0.00112,   0.00028,476420149.74565,   0.00164,276420154.18020,   0.00158,   0.00033,   0.00024,  -4.43455,   1.00000
526930808.85708,400309624.81023,2487291.56714,   0.00320,   0.00113,   0.00028,476431483.53355,   0.00165,276431492.29611,   0.00159,   0.00034,   0.00024,  -8.76256,   1.00000
526673677.47206,400972655.64501,2253736.32559,   0.00321,   0.00114,   0.00027,476442785.63636,   0.00166,276442790.81978,   0.00160,   0.00034,   0.00024,  -5.18342,   1.00000
526409461.47523,401646648.35150,2017165.39382,   0.00322,   0.00115,   0.00027,476454155.47487,   0.00167,276454162.61547,   0.00161,   0.00035,   0.00024,  -7.14060,   1.00000
526147109.43023,402309856.63501,1777802.03487,   0.00323,   0.00115,   0.00027,476465439.54824,   0.00168,276465442.34112,   0.00162,   0.00035,   0.00024,  -2.79288,   1.00000
525877504.06205,402983789.99889,1544508.51816,   0.00323,   0.00116,   0.00026,476476789.71594,   0.00169,276476796.19752,   0.00163,   0.00035,   0.00024,  -6.48158,   1.00000
525609822.50700,403647039.55150,1303865.64208,   0.00324,   0.00117,   0.00026,476488058.02163,   0.00170,276488058.06642,   0.00164,   0.00036,   0.00024,  -0.04479,   1.00000
525336502.08383,404317328.05932,1069291.73075,   0.00325,   0.00118,   0.00026,476499445.42523,   0.00172,276499446.45531,   0.00165,   0.00036,   0.00024,  -1.03008,   1.00000
525065092.75490,404976986.47289,827361.32717,   0.00325,   0.00118,   0.00025,476510740.50506,   0.00173,276510743.18634,   0.00165,   0.00037,   0.00024,  -2.68128,   1.00000
524786416.87238,405647133.34170,591574.65358,   0.00326,   0.00119,   0.00025,476522113.21497,   0.00174,276522114.57049,   0.00166,   0.00037,   0.00024,  -1.35552,   1.00000
524506012.52918,406314848.91689,352919.14668,   0.00327,   0.00120,   0.00025,476533425.95100,   0.00175,276533432.75296,   0.00167,   0.00037,   0.00024,  -6.80196,   1.00000
524225574.01356,406976566.05400,111398.25805,   0.00328,   0.00121,   0.00025,476544741.91406,   0.00176,276544749.71622,   0.00168,   0.00038,   0.00024,  -7.80215,   1.00000
523941481.37232,407640431.41851,-128451.83997,   0.00328,   0.00122,   0.00024,476556098.71730,   0.00177,276556103.66755,   0.00169,   0.00038,   0.00024,  -4.95025,   1.00000
523657379.21678,408298286.21339,-366637.77345,   0.00329,   0.00122,   0.00024,476567449.69159,   0.00178,276567456.57363,   0.00170,   0.00039,   0.00024,  -6.88204,   1.00000
523367864.70118,408961873.39899,-607684.54410,   0.00330,   0.00123,   0.00024,476578787.93792,   0.00179,276578795.15233,   0.00171,   0.00039,   0.00024,  -7.21441,   1.00000
523078346.84440,409619417.63782,-851566.88562,   0.00330,   0.00124,   0.00023,476590129.91096,   0.00180,276590132.95167,   0.00172,   0.00040,   0.00024,  -3.04072,   1.00000
522785177.30902,410278963.57369,-1093726.16483,   0.00331,   0.00125,   0.00023,476601508.13637,   0.00181,276601508.27506,   0.00173,   0.00040,   0.00024,  -0.13868,   1.00000
522490233.46207,410936164.37149,-1334233.97283,   0.00332,   0.00126,   0.00023,476612823.29792,   0.00182,276612831.57118,   0.00174,   0.00041,   0.00024,  -8.27326,   1.00000
522191616.78453,411595272.83940,-1577538.49319,   0.00332,   0.00127,   0.00022,476624189.65260,   0.00183,276624192.75937,   0.00175,   0.00041,   0.00024,  -3.10677,   1.00000
521887496.52949,412259943.91495,-1819152.73166,   0.00333,   0.00127,   0.00022,476635540.31503,   0.00184,276635540.68463,   0.00176,   0.00042,   0.00024,  -0.36961,   1.00000
521585275.10967,412914723.47955,-2063519.29007,   0.00334,   0.00128,   0.00022,476646937.22932,   0.00185,276646939.59785,   0.00177,   0.00042,   0.00024,  -2.36853,   1.00000
521281278.11698,413567202.15031,-2306235.85412,   0.00335,   0.00129,   0.00021,476658282.27041,   0.00186,276658287.07160,   0.00178,   0.00042,   0.00024,  -4.80119,   1.00000
520971660.53922,414225171.43655,-2551776.32688,   0.00335,   0.00130,   0.00021,476669616.21594,   0.00187,276669622.15470,   0.00179,   0.00043,   0.00024,  -5.93876,   1.00000
520664115.35386,414873293.71687,-2795502.98099,   0.00336,   0.00131,   0.00021,476681003.30348,   0.00189,276681008.03059,   0.00180,   0.00043,   0.00024,  -4.72711,   1.00000
520349042.14936,415530709.60456,-3037624.05275,   0.00337,   0.00131,   0.00020,476692323.24793,   0.00190,276692330.77744,   0.00181,   0.00044,   0.00024,  -7.52951,   1.00000
520036023.42768,416178172.00471,-3282446.93579,   0.00337,   0.00132,   0.00020,476703700.72256,   0.00191,276703704.69445,   0.00182,   0.00044,   0.00024,  -3.97189,   1.00000
519717279.50897,416831005.56852,-3530070.98012,   0.00338,   0.00133,   0.00020,476715057.23837,   0.00192,276715067.20540,   0.00183,   0.00045,   0.00024,  -9.96702,   1.00000
519398748.29000,417477753.88060,-3775940.27891,   0.00339,   0.00134,   0.00019,476726425.82604,   0.00193,276726429.92279,   0.00184,   0.00045,   0.00024,  -4.09674,   1.00000
519074570.64389,418129909.44637,-4020093.54548,   0.00339,   0.00135,   0.00019,476737780.44106,   0.00194,276737781.24798,   0.00185,   0.00046,   0.00024,  -0.80691,   1.00000
518750493.96284,418775856.36490,-4267022.30225,   0.00340,   0.00136,   0.00018,476749129.99378,   0.00195,276749133.50479,   0.00186,   0.00046,   0.00024,  -3.51101,   1.00000
518422680.26221,419423201.26529,-4516595.37809,   0.00341,   0.00137,   0.00018,476760522.59725,   0.00196,276760525.73990,   0.00187,   0.00047,   0.00024,  -3.14266,   1.00000
518093176.59788,420068414.71152,-4760025.07492,   0.00341,   0.00137,   0.00018,476771860.35393,   0.00197,276771867.71983,   0.00188,   0.00047,   0.00024,  -7.36590,   1.00000
517763669.33817,420707334.13401,-5010738.11920,   0.00342,   0.00138,   0.00017,476783208.31534,   0.00198,276783211.48377,   0.00188,   0.00048,   0.00024,  -3.16843,   1.00000
517424529.97590,421359044.37073,-5259570.98894,   0.00343,   0.00139,   0.00017,476794580.78940,   0.00199,276794584.10373,   0.00189,   0.00048,   0.00024,  -3.31433,   1.00000
517089604.88177,421997137.43101,-5506755.60824,   0.00343,   0.00140,   0.00017,476805918.05608,   0.00200,276805918.53314,   0.00190,   0.00049,   0.00024,  -0.47706,   1.00000
516750922.60106,422636462.00784,-5756541.25611,   0.00344,   0.00141,   0.00016,476817288.55176,   0.00201,276817293.83414,   0.00191,   0.00049,   0.00024,  -5.28237,   1.00000
516406471.26960,423281009.07585,-6004572.92499,   0.00345,   0.00142,   0.00016,476828657.53762,   0.00202,276828659.46936,   0.00192,   0.00050,   0.00024,  -1.93174,   1.00000
516062188.42508,423919258.32055,-6255329.43519,   0.00345,   0.00143,   0.00015,476840022.61945,   0.00203,276840027.08896,   0.00193,   0.00050,   0.00024,  -4.46951,   1.00000
515716034.77124,424555354.51183,-6504483.31734,   0.00346,   0.00143,   0.00015,476851337.95007,   0.00205,276851346.18864,   0.00194,   0.00051,   0.00024,  -8.23857,   1.00000
515366336.05210,425192684.68131,-6751683.72582,   0.00347,   0.00144,   0.00015,476862704.68689,   0.00206,276862706.06945,   0.00195,   0.00051,   0.00024,  -1.38256,   1.00000
515016618.81116,425823564.66782,-7006114.98496,   0.00347,   0.00145,   0.00014,476874061.29323,   0.00207,276874069.11269,   0.00196,   0.00052,   0.00023,  -7.81945,   1.00000
514661263.80461,426459761.48401,-7254248.71358,   0.00348,   0.00146,   0.00014,476885413.06270,   0.00208,276885422.80583,   0.00197,   0.00052,   0.00023,  -9.74313,   1.00000
514303792.46887,427093646.47109,-7505327.72515,   0.00349,   0.00147,   0.00014,476896719.96899,   0.00209,276896729.50766,   0.00198,   0.00053,   0.00023,  -9.53867,   1.00000
513944918.17995,427724427.69717,-7758672.35673,   0.00349,   0.00148,   0.00013,476908125.28798,   0.00210,276908128.07798,   0.00199,   0.00053,   0.00023,  -2.79000,   1.00000
513581749.50683,428357099.06452,-8010669.65218,   0.00350,   0.00149,   0.00013,476919429.12726,   0.00211,276919429.74810,   0.00200,   0.00054,   0.00023,  -0.62085,   1.00000
513215040.60157,428990758.06537,-8260642.05663,   0.00350,   0.00150,   0.00012,476930764.06174,   0.00212,276930773.29230,   0.00201,   0.00054,   0.00023,  -9.23056,   1.00000
512848605.73651,429618083.38691,-8513305.98559,   0.00351,   0.00150,   0.00012,476942118.13508,   0.00213,276942119.94879,   0.00201,   0.00055,   0.00023,  -1.81372,   1.00000
512479967.01325,430243125.43219,-8768908.97337,   0.00352,   0.00151,   0.00012,476953417.15533,   0.00214,276953420.71386,   0.00202,   0.00056,   0.00023,  -3.55853,   1.00000
512107819.75165,430869108.92829,-9022435.24913,   0.00352,   0.00152,   0.00011,476964758.78341,   0.00215,276964763.79506,   0.00203,   0.00056,   0.00023,  -5.01165,   1.00000
511736240.90017,431488994.32690,-9274116.00511,   0.00353,   0.00153,   0.00011,476976104.44577,   0.00216,276976109.39012,   0.00204,   0.00057,   0.00023,  -4.94435,   1.00000
511355839.43782,432117659.84368,-9528812.06025,   0.00354,   0.00154,   0.00010,476987392.46285,   0.00217,276987400.54999,   0.00205,   0.00057,   0.00023,  -8.08714,   1.00000
510978283.33432,432735880.07786,-9785860.86967,   0.00354,   0.00155,   0.00010,476998742.16352,   0.00218,276998744.62066,   0.00206,   0.00058,   0.00023,  -2.45714,   1.00000
510594674.84703,433358990.00406,-10041087.28629,   0.00355,   0.00156,   0.00009,477010077.36525,   0.00219,277010082.76158,   0.00207,   0.00058,   0.00022,  -5.39634,   1.00000
510209096.82864,433980061.85490,-10294762.81800,   0.00355,   0.00157,   0.00009,477021370.16919,   0.00221,277021375.07961,   0.00208,   0.00059,   0.00022,  -4.91042,   1.00000
509823839.24706,434594774.93579,-10551090.89492,   0.00356,   0.00158,   0.00009,477032666.96196,   0.00222,277032671.73153,   0.00209,   0.00059,   0.00022,  -4.76957,   1.00000
509432486.79931,435214340.65314,-10805604.94606,   0.00357,   0.00159,   0.00008,477043960.61765,   0.00223,277043963.10994,   0.00210,   0.00060,   0.00022,  -2.49229,   1.00000
509041466.35108,435827516.73046,-11062760.26786,   0.00357,   0.00160,   0.00008,477055253.20020,   0.00224,277055259.15205,   0.00211,   0.00060,   0.00022,  -5.95185,   1.00000
508644323.74544,436445493.68948,-11318092.54213,   0.00358,   0.00160,   0.00007,477066548.51001,   0.00225,277066550.38675,   0.00211,   0.00061,   0.00022,  -1.87673,   1.00000
508247531.17552,437057055.44463,-11576054.96524,   0.00358,   0.00161,   0.00007,477077843.11687,   0.00226,277077846.59586,   0.00212,   0.00062,   0.00022,  -3.47900,   1.00000
507848710.41704,437666682.04796,-11832486.15307,   0.00359,   0.00162,   0.00006,477089090.59236,   0.00227,277089098.09598,   0.00213,   0.00062,   0.00022,  -7.50361,   1.00000
507446120.11893,438276609.84270,-12091233.70975,   0.00360,   0.00163,   0.00006,477100387.91986,   0.00228,277100395.26554,   0.00214,   0.00063,   0.00022,  -7.34568,   1.00000
507041484.65744,438884606.40003,-12348454.87873,   0.00360,   0.00164,   0.00005,477111638.39278,   0.00229,277111648.11214,   0.00215,   0.00063,   0.00022,  -9.71936,   1.00000
506633083.41380,439492817.74492,-12607967.06670,   0.00361,   0.00165,   0.00005,477122939.25893,   0.00230,277122947.04839,   0.00216,   0.00064,   0.00021,  -7.78946,   1.00000
506222620.00262,440099101.83627,-12865957.74235,   0.00361,   0.00166,   0.00005,477134193.54824,   0.00231,277134202.04935,   0.00217,   0.00064,   0.00021,  -8.50110,   1.00000
505812570.37341,440698996.91742,-13126551.11265,   0.00362,   0.00167,   0.00004,477145458.81978,   0.00232,277145462.86359,   0.00218,   0.00065,   0.00021,  -4.04381,   1.00000
505396254.83851,441303547.54175,-13385288.94028,   0.00362,   0.00168,   0.00004,477156717.63396,   0.00233,277156720.81887,   0.00219,   0.00066,   0.00021,  -3.18491,   1.00000
504977437.47771,441905862.87612,-13647030.88788,   0.00363,   0.00169,   0.00003,477167934.92485,   0.00234,277167936.95160,   0.00219,   0.00066,   0.00021,  -2.02675,   1.00000
504555260.25251,442508551.50764,-13906491.60221,   0.00364,   0.00170,   0.00003,477179193.76479,   0.00235,277179198.72973,   0.00220,   0.00067,   0.00021,  -4.96494,   1.00000
504130977.87635,443109361.01241,-14164464.35548,   0.00364,   0.00171,   0.00002,477190412.04688,   0.00236,277190417.48942,   0.00221,   0.00067,   0.00021,  -5.44254,   1.00000
503707153.17102,443703753.64231,-14425033.16698,   0.00365,   0.00172,   0.00002,477201642.17977,   0.00238,277201642.82608,   0.00222,   0.00068,   0.00021,  -0.64631,   1.00000
503276530.23149,444302304.63466,-14688237.58991,   0.00365,   0.00173,   0.00001,477212860.79236,   0.00239,277212868.23950,   0.00223,   0.00069,   0.00020,  -7.44714,   1.00000
502846830.54459,444894797.15924,-14949500.07483,   0.00366,   0.00174,   0.00001,477224097.78663,   0.00240,277224098.90071,   0.00224,   0.00069,   0.00020,  -1.11408,   1.00000
502414513.93017,445485099.46496,-15213782.95859,   0.00366,   0.00174,   0.00000,477235283.18630,   0.00241,277235289.06327,   0.00225,   0.00070,   0.00020,  -5.87697,   1.00000
501975796.84102,446079891.06261,-15476180.41343,   0.00367,   0.00175,  -0.00000,477246474.61690,   0.00242,277246478.35209,   0.00226,   0.00070,   0.00020,  -3.73518,   1.00000
501538033.08194,446668627.62659,-15736641.27086,   0.00367,   0.00176,  -0.00001,477257668.59186,   0.00243,277257673.31528,   0.00226,   0.00071,   0.00020,  -4.72343,   1.00000
501097613.36896,447255201.66981,-16000149.53782,   0.00368,   0.00177,  -0.00001,477268827.57716,   0.00244,277268828.35366,   0.00227,   0.00072,   0.00020,  -0.77650,   1.00000
500650236.86157,447845766.96053,-16266268.53116,   0.00369,   0.00178,  -0.00002,477279976.34885,   0.00245,277279985.18482,   0.00228,   0.00072,   0.00020,  -8.83597,   1.00000
500203866.81380,448430298.83353,-16530424.55130,   0.00369,   0.00179,  -0.00002,477291144.50401,   0.00246,277291148.09864,   0.00229,   0.00073,   0.00019,  -3.59463,   1.00000
499758509.75083,449008841.15130,-16792629.11966,   0.00370,   0.00180,  -0.00003,477302310.23947,   0.00247,277302317.17441,   0.00230,   0.00073,   0.00019,  -6.93494,   1.00000
499302879.72280,449595605.16077,-17057953.76223,   0.00370,   0.00181,  -0.00003,477313434.62293,   0.00248,277313441.52814,   0.00231,   0.00074,   0.00019,  -6.90521,   1.00000
498848292.64374,450176343.07085,-17321320.56613,   0.00371,   0.00182,  -0.00004,477324568.02807,   0.00249,277324572.37502,   0.00231,   0.00075,   0.00019,  -4.34695,   1.00000
498394247.21901,450750648.73481,-17587230.08335,   0.00371,   0.00183,  -0.00004,477335704.42845,   0.00250,277335711.76319,   0.00232,   0.00075,   0.00019,  -7.33474,   1.00000
497933131.04166,451328829.95198,-17855721.08301,   0.00372,   0.00184,  -0.00005,477346853.59139,   0.00251,277346854.48850,   0.00233,   0.00076,   0.00019,  -0.89711,   1.00000
497469704.52308,451905290.05596,-18122761.52719,   0.00372,   0.00185,  -0.00005,477357947.91582,   0.00252,277357957.23555,   0.00234,   0.00076,   0.00018,  -9.31973,   1.00000
496999698.95134,452486005.24522,-18387888.28441,   0.00373,   0.00186,  -0.00006,477369061.23105,   0.00253,277369061.85059,   0.00235,   0.00077,   0.00018,  -0.61954,   1.00000
496534540.39530,453054305.32296,-18656033.00920,   0.00373,   0.00187,  -0.00006,477380126.11808,   0.00254,277380133.94880,   0.00236,   0.00078,   0.00018,  -7.83072,   1.00000
496062754.92985,453626876.74878,-18922257.71494,   0.00374,   0.00188,  -0.00007,477391199.60292,   0.00255,277391208.39148,   0.00236,   0.00078,   0.00018,  -8.78856,   1.00000
495591564.17160,454193001.69581,-19191000.03418,   0.00374,   0.00189,  -0.00007,477402287.97966,   0.00257,277402292.36805,   0.00237,   0.00079,   0.00018,  -4.38840,   1.00000
495113709.09420,454763327.53416,-19457810.78426,   0.00375,   0.00190,  -0.00008,477413374.70691,   0.00258,277413379.24596,   0.00238,   0.00080,   0.00018,  -4.53905,   1.00000
494632903.09173,455331476.19527,-19727709.24741,   0.00375,   0.00191,  -0.00008,477424422.95306,   0.00259,277424429.46613,   0.00239,   0.00080,   0.00017,  -6.51308,   1.00000
494153292.90049,455893690.53468,-19995613.50877,   0.00376,   0.00192,  -0.00009,477435481.75878,   0.00260,277435487.51425,   0.00240,   0.00081,   0.00017,  -5.75547,   1.00000
493667069.54836,456458103.98679,-20267210.16225,   0.00376,   0.00193,  -0.00009,477446458.89168,   0.00261,277446462.82644,   0.00241,   0.00082,   0.00017,  -3.93476,   1.00000
493181386.60715,457017986.83090,-20535655.85550,   0.00377,   0.00194,  -0.00010,477457532.57991,   0.00262,277457534.96400,   0.00241,   0.00082,   0.00017,  -2.38409,   1.00000
492688997.75201,457580056.45963,-20807811.56409,   0.00377,   0.00195,  -0.00010,477468524.86142,   0.00263,277468524.94298,   0.00242,   0.00083,   0.00017,  -0.08156,   1.00000
492197842.41445,458136209.50365,-21077960.24807,   0.00378,   0.00196,  -0.00011,477479517.79196,   0.00264,277479523.38378,   0.00243,   0.00083,   0.00016,  -5.59183,   1.00000
491703603.53352,458690268.30683,-21351219.08097,   0.00378,   0.00197,  -0.00012,477490483.46930,   0.00265,277490486.44964,   0.00244,   0.00084,   0.00016,  -2.98034,   1.00000
491202539.37257,459248369.97798,-21622515.27871,   0.00378,   0.00198,  -0.00012,477501449.18998,   0.00266,277501454.54979,   0.00244,   0.00085,   0.00016,  -5.35981,   1.00000
490702769.65246,459800580.35478,-21891810.15637,   0.00379,   0.00199,  -0.00013,477512426.67292,   0.00267,277512431.44877,   0.00245,   0.00085,   0.00016,  -4.77585,   1.00000
490199201.07736,460350087.36763,-22168714.89717,   0.00379,   0.00200,  -0.00013,477523371.56765,   0.00268,277523376.19742,   0.00246,   0.00086,   0.00016,  -4.62977,   1.00000
489689411.21456,460904172.80838,-22439151.66621,   0.00380,   0.00201,  -0.00014,477534322.89362,   0.00269,277534324.23286,   0.00247,   0.00087,   0.00015,  -1.33924,   1.00000
489184626.22672,461446313.28337,-22712682.00100,   0.00380,   0.00202,  -0.00014,477545237.71387,   0.00270,277545241.30537,   0.00248,   0.00087,   0.00015,  -3.59150,   1.00000
488672269.62320,461991828.01638,-22988718.03285,   0.00381,   0.00203,  -0.00015,477556158.56028,   0.00271,277556167.21902,   0.00248,   0.00088,   0.00015,  -8.65874,   1.00000
488157327.14528,462535859.93526,-23263395.59789,   0.00381,   0.00204,  -0.00015,477567048.06871,   0.00272,277567056.82000,   0.00249,   0.00089,   0.00015,  -8.75129,   1.00000
487635446.09754,463083790.67543,-23536095.25396,   0.00382,   0.00205,  -0.00016,477577949.62700,   0.00273,277577953.23369,   0.00250,   0.00089,   0.00015,  -3.60669,   1.00000
487118595.91209,463619882.67644,-23811905.28350,   0.00382,   0.00206,  -0.00017,477588815.10113,   0.00274,277588819.16305,   0.00251,   0.00090,   0.00014,  -4.06192,   1.00000
486594067.96293,464159226.62423,-24090199.35535,   0.00382,   0.00207,  -0.00017,477599687.48571,   0.00275,277599695.14457,   0.00251,   0.00091,   0.00014,  -7.65886,   1.00000
486066880.21586,464697113.96493,-24367150.25861,   0.00383,   0.00208,  -0.00018,477610528.96167,   0.00276,277610535.64817,   0.00252,   0.00091,   0.00014,  -6.68650,   1.00000
485541113.82633,465229231.04483,-24642069.00285,   0.00383,   0.00209,  -0.00018,477621383.84125,   0.00277,277621386.35994,   0.00253,   0.00092,   0.00014,  -2.51869,   1.00000
485007803.39777,465763620.00559,-24920870.09321,   0.00384,   0.00210,  -0.00019,477632157.76845,   0.00278,277632159.18698,   0.00254,   0.00093,   0.00014,  -1.41853,   1.00000
484471578.41317,466297443.78967,-25196942.71652,   0.00384,   0.00211,  -0.00019,477642979.15797,   0.00279,277642985.94678,   0.00254,   0.00093,   0.00013,  -6.78881,   1.00000
483931900.79398,466829147.35429,-25476184.45793,   0.00384,   0.00212,  -0.00020,477653774.95004,   0.00280,277653780.85233,   0.00255,   0.00094,   0.00013,  -5.90229,   1.00000
483393695.16465,467355101.35852,-25753380.48372,   0.00385,   0.00213,  -0.00021,477664584.94433,   0.00281,277664586.58141,   0.00256,   0.00095,   0.00013,  -1.63708,   1.00000
482851975.78260,467878978.51545,-26033751.99427,   0.00385,   0.00214,  -0.00021,477675358.98263,   0.00282,277675360.86921,   0.00257,   0.00095,   0.00013,  -1.88658,   1.00000
482303157.42077,468405830.75123,-26313576.52839,   0.00386,   0.00215,  -0.00022,477686047.25627,   0.00283,277686055.81115,   0.00257,   0.00096,   0.00012,  -8.55487,   1.00000
481755067.69298,468926960.65109,-26594332.60270,   0.00386,   0.00216,  -0.00022,477696844.85200,   0.00285,277696853.89102,   0.00258,   0.00097,   0.00012,  -9.03902,   1.00000
481204133.72537,469446047.32665,-26875304.20162,   0.00386,   0.00217,  -0.00023,477707522.50532,   0.00286,277707529.33624,   0.00259,   0.00097,   0.00012,  -6.83092,   1.00000
480649607.10529,469963728.52305,-27157941.18458,   0.00387,   0.00218,  -0.00024,477718254.59948,   0.00287,277718263.20903,   0.00260,   0.00098,   0.00012,  -8.60955,   1.00000
480087784.57067,470484403.43197,-27440073.48618,   0.00387,   0.00219,  -0.00024,477728911.35746,   0.00288,277728918.75208,   0.00260,   0.00099,   0.00011,  -7.39462,   1.00000
479527502.19243,470999387.87427,-27720155.47399,   0.00387,   0.00220,  -0.00025,477739583.65813,   0.00289,277739586.16535,   0.00261,   0.00099,   0.00011,  -2.50722,   1.00000
478962708.52779,471511508.68395,-28007905.96302,   0.00388,   0.00221,  -0.00026,477750225.60926,   0.00290,277750227.00636,   0.00262,   0.00100,   0.00011,  -1.39709,   1.00000
478395937.21986,472023649.71533,-28288325.66128,   0.00388,   0.00222,  -0.00026,477760913.48048,   0.00291,277760920.95008,   0.00262,   0.00101,   0.00011,  -7.46960,   1.00000
477829744.46439,472528838.33832,-28572756.92870,   0.00388,   0.00223,  -0.00027,477771536.40263,   0.00292,277771541.34321,   0.00263,   0.00101,   0.00010,  -4.94058,   1.00000
477251647.31000,473041926.89805,-28855949.96196,   0.00389,   0.00224,  -0.00027,477782124.14170,   0.00293,277782128.82427,   0.00264,   0.00102,   0.00010,  -4.68257,   1.00000
476678648.48685,473543747.90795,-29142357.75958,   0.00389,   0.00225,  -0.00028,477792687.68072,   0.00294,277792687.94540,   0.00265,   0.00103,   0.00010,  -0.26469,   1.00000
476102093.55801,474043963.17560,-29430326.00348,   0.00389,   0.00226,  -0.00029,477803297.88850,   0.00295,277803307.51180,   0.00265,   0.00103,   0.00010,  -9.62330,   1.00000
475517810.92100,474547251.35939,-29717875.67894,   0.00390,   0.00227,  -0.00029,477813842.97178,   0.00296,277813850.72136,   0.00266,   0.00104,   0.00009,  -7.74958,   1.00000
474935154.94844,475044949.89625,-30003350.19619,   0.00390,   0.00228,  -0.00030,477824404.99661,   0.00297,277824406.97004,   0.00267,   0.00105,   0.00009,  -1.97343,   1.00000
474343788.20501,475544870.80649,-30292905.35932,   0.00390,   0.00229,  -0.00031,477834886.15269,   0.00298,277834890.82942,   0.00267,   0.00106,   0.00009,  -4.67673,   1.00000
473749755.87494,476043879.62600,-30579520.27297,   0.00391,   0.00230,  -0.00031,477845431.01586,   0.00299,277845432.73170,   0.00268,   0.00106,   0.00009,  -1.71583,   1.00000
473156009.26985,476536095.05298,-30870237.82910,   0.00391,   0.00231,  -0.00032,477855895.36918,   0.00300,277855902.57994,   0.00269,   0.00107,   0.00008,  -7.21075,   1.00000
472563923.42564,477022803.16171,-31158869.53652,   0.00391,   0.00232,  -0.00032,477866377.22953,   0.00301,277866386.00625,   0.00269,   0.00108,   0.00008,  -8.77673,   1.00000
471959454.61194,477517223.06635,-31446290.91889,   0.00392,   0.00234,  -0.00033,477876829.94058,   0.00302,277876839.34753,   0.00270,   0.00108,   0.00008,  -9.40694,   1.00000
471360088.56221,478000645.37779,-31736985.17675,   0.00392,   0.00235,  -0.00034,477887258.89818,   0.00303,277887265.26936,   0.00271,   0.00109,   0.00008,  -6.37118,   1.00000
470747332.35084,478490820.84632,-32030911.57682,   0.00392,   0.00236,  -0.00034,477897663.70131,   0.00304,277897665.49707,   0.00271,   0.00110,   0.00007,  -1.79576,   1.00000
470140537.48296,478970937.98494,-32323650.25340,   0.00393,   0.00237,  -0.00035,477908030.16176,   0.00305,277908035.03717,   0.00272,   0.00110,   0.00007,  -4.87541,   1.00000
469526144.65886,479454381.78693,-32614281.56138,   0.00393,   0.00238,  -0.00036,477918415.00195,   0.00306,277918419.92675,   0.00273,   0.00111,   0.00007,  -4.92480,   1.00000
468912567.64758,479931411.00655,-32907272.05430,   0.00393,   0.00239,  -0.00036,477928813.52869,   0.00307,277928823.07415,   0.00273,   0.00112,   0.00006,  -9.54546,   1.00000
468294813.20911,480407128.18284,-33200941.05408,   0.00393,   0.00240,  -0.00037,477939098.62174,   0.00308,277939107.49983,   0.00274,   0.00112,   0.00006,  -8.87809,   1.00000
467668467.69015,480885150.91644,-33496934.07278,   0.00394,   0.00241,  -0.00038,477949407.52801,   0.00309,277949411.96844,   0.00275,   0.00113,   0.00006,  -4.44043,   1.00000
467043849.80807,481357701.00648,-33790824.95148,   0.00394,   0.00242,  -0.00038,477959726.02476,   0.00310,277959731.49779,   0.00275,   0.00114,   0.00006,  -5.47303,   1.00000
466414860.75595,481828126.59788,-34087992.75536,   0.00394,   0.00243,  -0.00039,477970021.12018,   0.00311,277970026.14858,   0.00276,   0.00115,   0.00005,  -5.02839,   1.00000
465782395.82662,482297389.37038,-34383994.32273,   0.00394,   0.00244,  -0.00040,477980288.01444,   0.00312,277980292.28393,   0.00276,   0.00115,   0.00005,  -4.26949,   1.00000
465145482.90910,482764506.10205,-34683276.52454,   0.00395,   0.00245,  -0.00040,477990531.61325,   0.00313,277990534.06710,   0.00277,   0.00116,   0.00005,  -2.45385,   1.00000
464509257.48537,483226192.21065,-34982398.96237,   0.00395,   0.00246,  -0.00041,478000698.84703,   0.00313,278000702.00936,   0.00278,   0.00117,   0.00004,  -3.16234,   1.00000
463865221.99574,483691019.79339,-35279374.49268,   0.00395,   0.00247,  -0.00042,478010886.20020,   0.00314,278010887.78944,   0.00278,   0.00117,   0.00004,  -1.58924,   1.00000
463221999.86056,484149447.80881,-35578683.46038,   0.00395,   0.00248,  -0.00042,478021089.15123,   0.00315,278021093.50455,   0.00279,   0.00118,   0.00004,  -4.35332,   1.00000
462575164.99533,484606759.06614,-35876858.03482,   0.00396,   0.00249,  -0.00043,478031264.14234,   0.00316,278031271.60591,   0.00280,   0.00119,   0.00004,  -7.46357,   1.00000
461918266.88389,485066128.66977,-36179317.55548,   0.00396,   0.00250,  -0.00044,478041376.91294,   0.00317,278041382.96760,   0.00280,   0.00119,   0.00003,  -6.05466,   1.00000
461267355.55741,485515991.29763,-36480709.55399,   0.00396,   0.00251,  -0.00044,478051461.90619,   0.00318,278051464.55052,   0.00281,   0.00120,   0.00003,  -2.64434,   1.00000
460607530.34520,485967840.40086,-36784354.24394,   0.00396,   0.00252,  -0.00045,478061563.26543,   0.00319,278061569.57985,   0.00281,   0.00121,   0.00003,  -6.31443,   1.00000
459943970.84349,486418564.27338,-37086876.54292,   0.00396,   0.00253,  -0.00046,478071646.59316,   0.00320,278071647.87859,   0.00282,   0.00121,   0.00002,  -1.28543,   1.00000
459279798.29151,486863006.18294,-37393785.48779,   0.00397,   0.00254,  -0.00047,478081648.06046,   0.00321,278081657.60922,   0.00283,   0.00122,   0.00002,  -9.54877,   1.00000
458608648.29255,487311495.55684,-37694079.91772,   0.00397,   0.00255,  -0.00047,478091676.03960,   0.00322,278091683.06921,   0.00283,   0.00123,   0.00002,  -7.02961,   1.00000
457941465.50943,487748492.94517,-38002208.31890,   0.00397,   0.00256,  -0.00048,478101685.89456,   0.00323,278101687.69645,   0.00284,   0.00124,   0.00001,  -1.80189,   1.00000
457260546.79355,488192577.49265,-38309145.61513,   0.00397,   0.00257,  -0.00049,478111668.29653,   0.00324,278111669.84849,   0.00284,   0.00124,   0.00001,  -1.55195,   1.00000
456585598.93502,488627389.85952,-38615073.61158,   0.00397,   0.00258,  -0.00049,478121613.76662,   0.00325,278121622.73145,   0.00285,   0.00125,   0.00001,  -8.96483,   1.00000
455905687.52089,489060036.56607,-38924337.29237,   0.00397,   0.00259,  -0.00050,478131545.88586,   0.00326,278131554.37230,   0.00285,   0.00126,   0.00000,  -8.48644,   1.00000
455211866.77246,489499660.68301,-39232421.24151,   0.00398,   0.00260,  -0.00051,478141459.99345,   0.00327,278141464.51276,   0.00286,   0.00126,   0.00000,  -4.51931,   1.00000
454524004.76181,489930092.24597,-39539528.52650,   0.00398,   0.00261,  -0.00052,478151337.50748,   0.00328,278151345.61214,   0.00287,   0.00127,  -0.00000,  -8.10466,   1.00000
453831062.44004,490358305.62399,-39849987.58403,   0.00398,   0.00262,  -0.00052,478161201.73389,   0.00329,278161206.20680,   0.00287,   0.00128,  -0.00000,  -4.47291,   1.00000
453137079.28075,490780421.94411,-40164950.89066,   0.00398,   0.00263,  -0.00053,478170992.48590,   0.00330,278170999.54438,   0.00288,   0.00128,  -0.00001,  -7.05849,   1.00000
452435942.02379,491206485.97171,-40473263.70588,   0.00398,   0.00264,  -0.00054,478180802.11552,   0.00331,278180810.79192,   0.00288,   0.00129,  -0.00001,  -8.67640,   1.00000
451734535.93864,491625008.18979,-40788267.33062,   0.00398,   0.00265,  -0.00054,478190644.99670,   0.00332,278190649.78543,   0.00289,   0.00130,  -0.00001,  -4.78873,   1.00000
451028071.27994,492043951.44285,-41100081.89045,   0.00398,   0.00266,  -0.00055,478200362.84383,   0.00333,278200369.69676,   0.00289,   0.00131,  -0.00002,  -6.85293,   1.00000
450312241.69139,492464369.99970,-41414057.94507,   0.00399,   0.00268,  -0.00056,478210109.59102,   0.00334,278210117.81874,   0.00290,   0.00131,  -0.00002,  -8.22772,   1.00000
449601244.58866,492874665.57872,-41731512.86689,   0.00399,   0.00269,  -0.00057,478219833.89763,   0.00334,278219842.11541,   0.00290,   0.00132,  -0.00002,  -8.21778,   1.00000
448879817.57024,493287959.66034,-42049019.30024,   0.00399,   0.00270,  -0.00057,478229497.72903,   0.00335,278229500.17573,   0.00291,   0.00133,  -0.00003,  -2.44670,   1.00000
448160244.46144,493696114.27391,-42364387.38693,   0.00399,   0.00271,  -0.00058,478239177.25155,   0.00336,278239177.40082,   0.00291,   0.00133,  -0.00003,  -0.14927,   1.00000
447436323.42414,494103203.82198,-42678739.56340,   0.00399,   0.00272,  -0.00059,478248829.65714,   0.00337,278248831.27193,   0.00292,   0.00134,  -0.00003,  -1.61479,   1.00000
446703532.91216,494507082.45161,-43003239.56459,   0.00399,   0.00273,  -0.00060,478258377.83455,   0.00338,278258381.70628,   0.00292,   0.00135,  -0.00004,  -3.87173,   1.00000
445969711.15598,494910739.10402,-43319922.59961,   0.00399,   0.00274,  -0.00060,478267990.42475,   0.00339,278267994.77582,   0.00293,   0.00135,  -0.00004,  -4.35107,   1.00000
445234296.10593,495308433.09500,-43641271.59579,   0.00399,   0.00275,  -0.00061,478277537.12575,   0.00340,278277542.13550,   0.00293,   0.00136,  -0.00004,  -5.00974,   1.00000
444494374.41548,495705063.31680,-43961614.47249,   0.00399,   0.00276,  -0.00062,478287065.80088,   0.00341,278287066.96353,   0.00294,   0.00137,  -0.00005,  -1.16264,   1.00000
443748768.19787,496099308.41427,-44285343.42901,   0.00400,   0.00277,  -0.00063,478296572.22426,   0.00342,278296574.67605,   0.00294,   0.00137,  -0.00005,  -2.45179,   1.00000
442998575.63871,496492445.49959,-44608067.20117,   0.00400,   0.00278,  -0.00063,478306051.87752,   0.00343,278306060.38569,   0.00295,   0.00138,  -0.00005,  -8.50816,   1.00000
442246555.99792,496879660.49230,-44935500.47113,   0.00400,   0.00279,  -0.00064,478315473.62866,   0.00344,278315481.02925,   0.00295,   0.00139,  -0.00006,  -7.40059,   1.00000
441496401.24535,497261875.54066,-45260778.37313,   0.00400,   0.00280,  -0.00065,478324921.81353,   0.00345,278324922.06323,   0.00296,   0.00140,  -0.00006,  -0.24970,   1.00000
440734970.62580,497646947.45237,-45586237.65452,   0.00400,   0.00281,  -0.00066,478334298.44015,   0.00345,278334299.43643,   0.00296,   0.00140,  -0.00006,  -0.99627,   1.00000
439967623.42842,498029545.64806,-45915095.15106,   0.00400,   0.00282,  -0.00066,478343652.92742,   0.00346,278343660.94244,   0.00297,   0.00141,  -0.00007,  -8.01503,   1.00000
439202154.44637,498407130.50233,-46241795.88591,   0.00400,   0.00283,  -0.00067,478353034.64920,   0.00347,278353043.35264,   0.00297,   0.00142,  -0.00007,  -8.70344,   1.00000
438429059.16940,498784104.63121,-46570089.69837,   0.00400,   0.00284,  -0.00068,478362307.25085,   0.00348,278362313.92553,   0.00298,   0.00142,  -0.00007,  -6.67469,   1.00000
437656636.96810,499154718.35675,-46900609.19089,   0.00400,   0.00285,  -0.00069,478371603.25911,   0.00349,278371611.11447,   0.00298,   0.00143,  -0.00008,  -7.85536,   1.00000
436872549.83621,499528090.75403,-47231360.64042,   0.00400,   0.00286,  -0.00070,478380843.90376,   0.00350,278380845.86531,   0.00299,   0.00144,  -0.00008,  -1.96155,   1.00000
436092946.67290,499891737.68929,-47565732.35308,   0.00400,   0.00287,  -0.00070,478390053.53829,   0.00351,278390058.53988,   0.00299,   0.00144,  -0.00008,  -5.00159,   1.00000
435304540.56269,500257601.65909,-47897726.78436,   0.00400,   0.00288,  -0.00071,478399291.69296,   0.00352,278399300.27753,   0.00299,   0.00145,  -0.00009,  -8.58458,   1.00000
434513721.39371,500617610.33768,-48234561.54046,   0.00400,   0.00289,  -0.00072,478408469.59222,   0.00353,278408478.37092,   0.00300,   0.00146,  -0.00009,  -8.77870,   1.00000
433715884.66582,500978450.16062,-48568745.91650,   0.00400,   0.00290,  -0.00073,478417530.68483,   0.00353,278417539.86709,   0.00300,   0.00146,  -0.00009,  -9.18226,   1.00000
432913684.04067,501334714.94334,-48908041.30114,   0.00400,   0.00291,  -0.00073,478426677.10437,   0.00354,278426684.47388,   0.00301,   0.00147,  -0.00010,  -7.36951,   1.00000
432111311.83401,501688049.02419,-49243499.12407,   0.00400,   0.00292,  -0.00074,478435753.23262,   0.00355,278435754.27590,   0.00301,   0.00148,  -0.00010,  -1.04328,   1.00000
431302505.18539,502038761.53944,-49582389.52385,   0.00400,   0.00293,  -0.00075,478444807.23256,   0.00356,278444810.67904,   0.00302,   0.00148,  -0.00011,  -3.44648,   1.00000
430492175.53910,502385126.97537,-49921842.26046,   0.00400,   0.00294,  -0.00076,478453794.78103,   0.00357,278453798.18691,   0.00302,   0.00149,  -0.00011,  -3.40588,   1.00000
429675304.11155,502728850.44353,-50264727.25104,   0.00400,   0.00295,  -0.00077,478462768.40368,   0.00358,278462772.76027,   0.00302,   0.00150,  -0.00011,  -4.35658,   1.00000
428860267.03897,503067707.99820,-50605442.68988,   0.00400,   0.00296,  -0.00077,478471763.40305,   0.00359,278471770.03023,   0.00303,   0.00150,  -0.00012,  -6.62718,   1.00000
428031406.14907,503407577.02674,-50950840.90252,   0.00400,   0.00297,  -0.00078,478480704.69252,   0.00360,278480713.52599,   0.00303,   0.00151,  -0.00012,  -8.83346,   1.00000
427202039.22997,503744651.47958,-51292515.11242,   0.00400,   0.00298,  -0.00079,478489582.09446,   0.00360,278489582.48352,   0.00304,   0.00152,  -0.00012,  -0.38905,   1.00000
426365927.75724,504078974.61303,-51637638.73438,   0.00400,   0.00299,  -0.00080,478498437.33037,   0.00361,278498439.48442,   0.00304,   0.00152,  -0.00013,  -2.15405,   1.00000
425530374.36937,504406888.73300,-51984927.94807,   0.00400,   0.00300,  -0.00081,478507319.60598,   0.00362,278507325.99542,   0.00304,   0.00153,  -0.00013,  -6.38945,   1.00000
424685505.15436,504734157.84388,-52334153.09695,   0.00400,   0.00301,  -0.00081,478516100.38861,   0.00363,278516103.16500,   0.00305,   0.00154,  -0.00013,  -2.77640,   1.00000
423842431.12263,505056582.27654,-52681205.20070,   0.00400,   0.00302,  -0.00082,478524896.09049,   0.00364,278524903.94420,   0.00305,   0.00154,  -0.00014,  -7.85370,   1.00000
422988546.46813,505376776.15539,-53034577.31467,   0.00400,   0.00303,  -0.00083,478533601.25341,   0.00365,278533601.88803,   0.00306,   0.00155,  -0.00014,  -0.63462,   1.00000
422136426.91372,505692132.91171,-53385766.61829,   0.00399,   0.00303,  -0.00084,478542314.05678,   0.00365,278542323.80030,   0.00306,   0.00156,  -0.00014,  -9.74352,   1.00000
421271027.05748,506009795.68815,-53737376.12325,   0.00399,   0.00304,  -0.00085,478550981.62847,   0.00366,278550987.77833,   0.00306,   0.00156,  -0.00015,  -6.14986,   1.00000
420410924.39585,506319670.05243,-54088441.49109,   0.00399,   0.00305,  -0.00085,478559621.79820,   0.00367,278559624.84229,   0.00307,   0.00157,  -0.00015,  -3.04409,   1.00000
419543674.99545,506626659.62158,-54442969.51705,   0.00399,   0.00306,  -0.00086,478568247.61909,   0.00368,278568251.71694,   0.00307,   0.00158,  -0.00016,  -4.09785,   1.00000
418672705.22559,506927801.10168,-54802591.19581,   0.00399,   0.00307,  -0.00087,478576814.93646,   0.00369,278576817.51722,   0.00307,   0.00158,  -0.00016,  -2.58076,   1.00000
417789369.92477,507232758.86114,-55158345.73469,   0.00399,   0.00308,  -0.00088,478585315.13909,   0.00370,278585319.83301,   0.00308,   0.00159,  -0.00016,  -4.69392,   1.00000
416906472.31850,507531254.20063,-55516243.75063,   0.00399,   0.00309,  -0.00089,478593852.68920,   0.00370,278593853.50755,   0.00308,   0.00160,  -0.00017,  -0.81835,   1.00000
416019628.23689,507823849.77238,-55879272.49211,   0.00399,   0.00310,  -0.00090,478602322.98497,   0.00371,278602326.61268,   0.00309,   0.00160,  -0.00017,  -3.62770,   1.00000
415128007.96598,508116785.33227,-56237138.84876,   0.00399,   0.00311,  -0.00090,478610769.81491,   0.00372,278610777.33904,   0.00309,   0.00161,  -0.00017,  -7.52413,   1.00000
414228926.61164,508406652.73444,-56598474.29367,   0.00399,   0.00312,  -0.00091,478619209.83093,   0.00373,278619219.40750,   0.00309,   0.00162,  -0.00018,  -9.57657,   1.00000
413329035.15054,508687765.79945,-56966697.04076,   0.00398,   0.00313,  -0.00092,478627542.72706,   0.00374,278627549.43505,   0.00310,   0.00162,  -0.00018,  -6.70799,   1.00000
412428847.71986,508968692.21198,-57326706.25022,   0.00398,   0.00314,  -0.00093,478635943.67487,   0.00374,278635949.79745,   0.00310,   0.00163,  -0.00018,  -6.12258,   1.00000
411516355.01597,509247035.53331,-57693280.00108,   0.00398,   0.00315,  -0.00094,478644245.18800,   0.00375,278644249.68010,   0.00310,   0.00163,  -0.00019,  -4.49211,   1.00000
410596159.45550,509522183.30071,-58063309.66844,   0.00398,   0.00316,  -0.00095,478652539.53514,   0.00376,278652542.03744,   0.00311,   0.00164,  -0.00019,  -2.50230,   1.00000
409674181.87647,509794843.17422,-58429976.20421,   0.00398,   0.00317,  -0.00095,478660755.10597,   0.00377,278660760.69186,   0.00311,   0.00165,  -0.00019,  -5.58589,   1.00000
408755773.70854,510058272.78388,-58800531.53191,   0.00398,   0.00318,  -0.00096,478668954.26007,   0.00378,278668959.87892,   0.00311,   0.00165,  -0.00020,  -5.61886,   1.00000
407821307.97402,510321716.86014,-59175918.63095,   0.00398,   0.00319,  -0.00097,478677106.11301,   0.00378,278677111.94706,   0.00312,   0.00166,  -0.00020,  -5.83405,   1.00000
406889860.54301,510582217.99624,-59544826.41826,   0.00397,   0.00320,  -0.00098,478685273.98488,   0.00379,278685283.03315,   0.00312,   0.00167,  -0.00021,  -9.04827,   1.00000
405945368.42239,510839912.00406,-59920401.74268,   0.00397,   0.00321,  -0.00099,478693351.94002,   0.00380,278693354.81748,   0.00312,   0.00167,  -0.00021,  -2.87747,   1.00000
405002503.53551,511092870.37837,-60293784.35967,   0.00397,   0.00321,  -0.00100,478701451.09084,   0.00381,278701453.12943,   0.00312,   0.00168,  -0.00021,  -2.03859,   1.00000
404054685.68584,511339779.02885,-60672471.73724,   0.00397,   0.00322,  -0.00101,478709485.41668,   0.00382,278709492.53891,   0.00313,   0.00168,  -0.00022,  -7.12222,   1.00000
403094806.75435,511585594.50315,-61053591.08743,   0.00397,   0.00323,  -0.00101,478717422.21787,   0.00382,278717425.88209,   0.00313,   0.00169,  -0.00022,  -3.66421,   1.00000
402133417.80280,511829319.41838,-61430651.52800,   0.00396,   0.00324,  -0.00102,478725431.97757,   0.00383,278725439.36800,   0.00313,   0.00170,  -0.00022,  -7.39043,   1.00000
401169904.30776,512064291.76348,-61814924.63383,   0.00396,   0.00325,  -0.00103,478733331.63445,   0.00384,278733341.15681,   0.00314,   0.00170,  -0.00023,  -9.52236,   1.00000
400200836.56132,512299525.33214,-62194145.24134,   0.00396,   0.00326,  -0.00104,478741213.74593,   0.00385,278741222.65578,   0.00314,   0.00171,  -0.00023,  -8.90985,   1.00000
399223379.90470,512531215.59159,-62576847.84624,   0.00396,   0.00327,  -0.00105,478749094.49763,   0.00385,278749099.35580,   0.00314,   0.00172,  -0.00023,  -4.85817,   1.00000
398243445.98372,512754116.25385,-62966833.94541,   0.00396,   0.00328,  -0.00106,478756855.13244,   0.00386,278756864.51466,   0.00314,   0.00172,  -0.00024,  -9.38222,   1.00000
397263489.25196,512976850.17321,-63348446.31989,   0.00395,   0.00329,  -0.00107,478764694.03499,   0.00387,278764703.00626,   0.00315,   0.00173,  -0.00024,  -8.97127,   1.00000
396269233.74880,513196350.65427,-63736894.88667,   0.00395,   0.00330,  -0.00107,478772441.36819,   0.00388,278772444.08025,   0.00315,   0.00173,  -0.00025,  -2.71207,   1.00000
395269238.02582,513409564.34570,-64130749.09011,   0.00395,   0.00330,  -0.00108,478780119.60986,   0.00388,278780127.71935,   0.00315,   0.00174,  -0.00025,  -8.10949,   1.00000
394275054.06033,513617510.80557,-64520113.90375,   0.00395,   0.00331,  -0.00109,478787770.43242,   0.00389,278787777.25415,   0.00315,   0.00175,  -0.00025,  -6.82174,   1.00000
393260408.02756,513827132.51293,-64912417.37081,   0.00394,   0.00332,  -0.00110,478795435.05297,   0.00390,278795438.30228,   0.00316,   0.00175,  -0.00026,  -3.24931,   1.00000
392252931.98371,514026995.62916,-65306479.39321,   0.00394,   0.00333,  -0.00111,478803015.32389,   0.00391,278803019.15183,   0.00316,   0.00176,  -0.00026,  -3.82794,   1.00000
391237999.48711,514225039.84236,-65699784.81154,   0.00394,   0.00334,  -0.00112,478810581.69416,   0.00391,278810588.98230,   0.00316,   0.00176,  -0.00026,  -7.28815,   1.00000
390216917.10991,514416732.42170,-66098572.52866,   0.00394,   0.00335,  -0.00113,478818096.38923,   0.00392,278818101.75891,   0.00316,   0.00177,  -0.00027,  -5.36968,   1.00000
389188259.43910,514606526.97872,-66496596.73439,   0.00393,   0.00336,  -0.00114,478825597.15961,   0.00393,278825604.06228,   0.00317,   0.00177,  -0.00027,  -6.90267,   1.00000
388154720.78516,514791922.44037,-66895900.98157,   0.00393,   0.00337,  -0.00114,478833040.28102,   0.00394,278833041.31846,   0.00317,   0.00178,  -0.00027,  -1.03744,   1.00000
387116189.13851,514972893.84305,-67296505.58051,   0.00393,   0.00337,  -0.00115,478840411.93502,   0.00394,278840413.59916,   0.00317,   0.00179,  -0.00028,  -1.66415,   1.00000
386068441.47578,515149822.10261,-67700578.70294,   0.00393,   0.00338,  -0.00116,478847780.44839,   0.00395,278847784.43206,   0.00317,   0.00179,  -0.00028,  -3.98367,   1.00000
385015529.12816,515322266.41915,-68105970.33661,   0.00392,   0.00339,  -0.00117,478855082.92884,   0.00396,278855090.59965,   0.00318,   0.00180,  -0.00029,  -7.67080,   1.00000
383963982.18285,515490028.68450,-68509151.76792,   0.00392,   0.00340,  -0.00118,478862419.41239,   0.00396,278862425.97598,   0.00318,   0.00180,  -0.00029,  -6.56359,   1.00000
382896380.93838,515653820.14985,-68919362.38509,   0.00392,   0.00341,  -0.00119,478869663.63837,   0.00397,278869666.67325,   0.00318,   0.00181,  -0.00029,  -3.03488,   1.00000
381832662.70692,515810476.16557,-69329458.06295,   0.00391,   0.00342,  -0.00120,478876877.00649,   0.00398,278876881.62837,   0.00318,   0.00181,  -0.00030,  -4.62188,   1.00000
380763427.58234,515962617.82520,-69740940.32227,   0.00391,   0.00342,  -0.00121,478884027.90332,   0.00398,278884032.01467,   0.00318,   0.00182,  -0.00030,  -4.11135,   1.00000
379676645.12759,516115111.16443,-70153168.71409,   0.00391,   0.00343,  -0.00122,478891125.58381,   0.00399,278891135.15856,   0.00319,   0.00183,  -0.00030,  -9.57475,   1.00000
378589664.67844,516260724.25541,-70567363.21032,   0.00390,   0.00344,  -0.00122,478898270.38623,   0.00400,278898277.28848,   0.00319,   0.00183,  -0.00031,  -6.90226,   1.00000
377510347.20429,516399039.72302,-70979477.97374,   0.00390,   0.00345,  -0.00123,478905323.18156,   0.00401,278905328.65320,   0.00319,   0.00184,  -0.00031,  -5.47164,   1.00000
376411705.70500,516535408.11926,-71396549.77297,   0.00390,   0.00346,  -0.00124,478912338.49623,   0.00401,278912342.34938,   0.00319,   0.00184,  -0.00031,  -3.85315,   1.00000
375305594.10490,516664900.06662,-71819250.73675,   0.00389,   0.00347,  -0.00125,478919299.03043,   0.00402,278919301.25356,   0.00319,   0.00185,  -0.00032,  -2.22313,   1.00000
374202173.77269,516791855.56904,-72235545.79289,   0.00389,   0.00347,  -0.00126,478926273.37068,   0.00403,278926281.50180,   0.00320,   0.00185,  -0.00032,  -8.13112,   1.00000
373081448.19034,516914243.14733,-72659004.54821,   0.00389,   0.00348,  -0.00127,478933168.77679,   0.00403,278933168.91892,   0.00320,   0.00186,  -0.00032,  -0.14214,   1.00000
371964177.14972,517029518.89219,-73082454.92522,   0.00388,   0.00349,  -0.00128,478940026.08406,   0.00404,278940030.76314,   0.00320,   0.00186,  -0.00033,  -4.67908,   1.00000
370840555.25457,517140029.01011,-73507426.72128,   0.00388,   0.00350,  -0.00129,478946820.50639,   0.00405,278946828.79584,   0.00320,   0.00187,  -0.00033,  -8.28945,   1.00000
369708256.78971,517248078.18857,-73931685.44554,   0.00388,   0.00351,  -0.00130,478953616.28427,   0.00405,278953619.76683,   0.00320,   0.00187,  -0.00034,  -3.48255,   1.00000
368567916.04316,517349005.81581,-74361644.08683,   0.00387,   0.00351,  -0.00131,478960353.21137,   0.00406,278960356.77227,   0.00321,   0.00188,  -0.00034,  -3.56090,   1.00000
367430844.87004,517442867.12430,-74791644.91436,   0.00387,   0.00352,  -0.00131,478967062.65385,   0.00406,278967068.09327,   0.00321,   0.00188,  -0.00034,  -5.43942,   1.00000
366277081.85868,517533994.99552,-75224739.93477,   0.00387,   0.00353,  -0.00132,478973673.30164,   0.00407,278973678.24453,   0.00321,   0.00189,  -0.00035,  -4.94289,   1.00000
365124367.93551,517620359.66002,-75655602.59772,   0.00386,   0.00354,  -0.00133,478980317.71330,   0.00408,278980319.87771,   0.00321,   0.00189,  -0.00035,  -2.16441,   1.00000
363963220.23511,517699438.71168,-76092205.38387,   0.00386,   0.00355,  -0.00134,478986900.50923,   0.00408,278986908.09491,   0.00321,   0.00190,  -0.00035,  -7.58569,   1.00000
362795050.17197,517773513.19378,-76530420.49506,   0.00385,   0.00355,  -0.00135,478993431.56343,   0.00409,278993433.17772,   0.00321,   0.00190,  -0.00036,  -1.61428,   1.00000
361617741.38633,517844819.21516,-76967915.40558,   0.00385,   0.00356,  -0.00136,478999951.73880,   0.00410,278999952.83895,   0.00322,   0.00191,  -0.00036,  -1.10015,   1.00000
360433214.08728,517911006.81956,-77407050.93964,   0.00385,   0.00357,  -0.00137,479006407.69044,   0.00410,279006409.66500,   0.00322,   0.00191,  -0.00036,  -1.97456,   1.00000
359253515.24971,517967808.17920,-77848690.55720,   0.00384,   0.00358,  -0.00138,479012774.90176,   0.00411,279012783.07799,   0.00322,   0.00192,  -0.00037,  -8.17623,   1.00000
358050779.10520,518023580.56975,-78292884.03656,   0.00384,   0.00358,  -0.00139,479019175.91947,   0.00412,279019182.45029,   0.00322,   0.00192,  -0.00037,  -6.53083,   1.00000
356854233.39367,518072322.77080,-78735511.17796,   0.00383,   0.00359,  -0.00140,479025485.84457,   0.00412,279025488.09586,   0.00322,   0.00193,  -0.00037,  -2.25129,   1.00000
355646691.01197,518115698.33456,-79181540.30465,   0.00383,   0.00360,  -0.00141,479031795.38469,   0.00413,279031799.54782,   0.00322,   0.00193,  -0.00038,  -4.16313,   1.00000
354443634.25688,518149694.46479,-79630170.93917,   0.00383,   0.00361,  -0.00142,479038022.82845,   0.00413,279038027.10244,   0.00322,   0.00194,  -0.00038,  -4.27399,   1.00000
353218976.69039,518180002.41085,-80083727.54643,   0.00382,   0.00361,  -0.00142,479044215.55106,   0.00414,279044224.20987,   0.00323,   0.00194,  -0.00038,  -8.65882,   1.00000
351996704.11948,518207896.24834,-80530930.39263,   0.00382,   0.00362,  -0.00143,479050440.10700,   0.00415,279050443.77423,   0.00323,   0.00195,  -0.00039,  -3.66723,   1.00000
350766566.36848,518225631.18523,-80986440.28584,   0.00381,   0.00363,  -0.00144,479056545.90538,   0.00415,279056553.13252,   0.00323,   0.00195,  -0.00039,  -7.22714,   1.00000
349526628.57013,518240170.99011,-81441232.74555,   0.00381,   0.00363,  -0.00145,479062649.68689,   0.00416,279062659.13734,   0.00323,   0.00196,  -0.00039,  -9.45045,   1.00000
348280059.65025,518246898.14708,-81900292.99930,   0.00380,   0.00364,  -0.00146,479068638.89107,   0.00416,279068644.32724,   0.00323,   0.00196,  -0.00040,  -5.43617,   1.00000
347034226.23685,518248739.30344,-82357093.95963,   0.00380,   0.00365,  -0.00147,479074662.76505,   0.00417,279074662.94281,   0.00323,   0.00197,  -0.00040,  -0.17776,   1.00000
345766128.03550,518246277.44254,-82818792.04179,   0.00380,   0.00366,  -0.00148,479080648.33113,   0.00417,279080653.56649,   0.00323,   0.00197,  -0.00040,  -5.23536,   1.00000
344503301.46207,518236822.45918,-83279212.14222,   0.00379,   0.00366,  -0.00149,479086541.36757,   0.00418,279086548.69057,   0.00323,   0.00198,  -0.00041,  -7.32300,   1.00000
343230250.82663,518219112.22051,-83745524.92349,   0.00379,   0.00367,  -0.00150,479092388.08048,   0.00419,279092393.27485,   0.00323,   0.00198,  -0.00041,  -5.19437,   1.00000
341957864.90683,518196467.51550,-84209561.89007,   0.00378,   0.00368,  -0.00151,479098271.36452,   0.00419,279098271.88979,   0.00324,   0.00199,  -0.00041,  -0.52527,   1.00000
340676628.51332,518168021.98801,-84675450.69456,   0.00378,   0.00368,  -0.00152,479104086.12624,   0.00420,279104089.04325,   0.00324,   0.00199,  -0.00042,  -2.91701,   1.00000
339375452.66381,518135060.54631,-85144759.43715,   0.00377,   0.00369,  -0.00153,479109808.18913,   0.00420,279109809.05613,   0.00324,   0.00199,  -0.00042,  -0.86700,   1.00000
338085636.79573,518090870.25975,-85616859.73572,   0.00377,   0.00370,  -0.00154,479115545.43479,   0.00421,279115551.12489,   0.00324,   0.00200,  -0.00042,  -5.69011,   1.00000
336777133.99496,518044620.87951,-86088373.88359,   0.00376,   0.00370,  -0.00155,479121183.89455,   0.00421,279121184.77054,   0.00324,   0.00200,  -0.00043,  -0.87599,   1.00000
335468854.36898,517988432.99416,-86564256.97307,   0.00376,   0.00371,  -0.00156,479126804.22863,   0.00422,279126804.74688,   0.00324,   0.00201,  -0.00043,  -0.51825,   1.00000
334149967.94311,517928445.12676,-87039405.78005,   0.00375,   0.00372,  -0.00156,479132420.61826,   0.00423,279132424.08069,   0.00324,   0.00201,  -0.00043,  -3.46244,   1.00000
332822720.75968,517859977.63721,-87519123.63748,   0.00375,   0.00372,  -0.00157,479137917.69108,   0.00423,279137922.48915,   0.00324,   0.00202,  -0.00044,  -4.79807,   1.00000
331484704.36740,517787569.19610,-87998104.89700,   0.00374,   0.00373,  -0.00158,479143419.17620,   0.00424,279143420.79885,   0.00324,   0.00202,  -0.00044,  -1.62266,   1.00000
330148229.70793,517707753.51858,-88477463.82365,   0.00374,   0.00374,  -0.00159,479148889.29883,   0.00424,279148893.98047,   0.00324,   0.00202,  -0.00044,  -4.68164,   1.00000
328800363.06969,517618908.70208,-88962774.55484,   0.00373,   0.00374,  -0.00160,479154311.32068,   0.00425,279154318.88780,   0.00324,   0.00203,  -0.00045,  -7.56712,   1.00000
327455479.73545,517525358.00729,-89444490.47146,   0.00373,   0.00375,  -0.00161,479159705.77137,   0.00425,279159706.40318,   0.00325,   0.00203,  -0.00045,  -0.63181,   1.00000
326087554.75254,517423597.60720,-89933734.86955,   0.00372,   0.00376,  -0.00162,479165010.21364,   0.00426,279165011.09803,   0.00325,   0.00204,  -0.00045,  -0.88439,   1.00000
324720887.01210,517314314.58956,-90423388.38477,   0.00372,   0.00376,  -0.00163,479170281.78359,   0.00426,279170290.90646,   0.00325,   0.00204,  -0.00045,  -9.12287,   1.00000
323355445.10945,517197562.78893,-90913475.48101,   0.00371,   0.00377,  -0.00164,479175536.50381,   0.00427,279175545.50220,   0.00325,   0.00205,  -0.00046,  -8.99839,   1.00000
321967232.63120,517077357.26949,-91404368.58136,   0.00371,   0.00377,  -0.00165,479180761.61294,   0.00427,279180766.94873,   0.00325,   0.00205,  -0.00046,  -5.33580,   1.00000
320580892.91149,516947215.41895,-91898480.37466,   0.00370,   0.00378,  -0.00166,479185897.75550,   0.00428,279185902.14700,   0.00325,   0.00205,  -0.00046,  -4.39151,   1.00000
319181627.95114,516809844.19378,-92395784.76086,   0.00369,   0.00379,  -0.00167,479191049.99042,   0.00428,279191052.13057,   0.00325,   0.00206,  -0.00047,  -2.14015,   1.00000
317785575.05899,516665277.27447,-92892394.83697,   0.00369,   0.00379,  -0.00168,479196096.87543,   0.00429,279196102.87972,   0.00325,   0.00206,  -0.00047,  -6.00429,   1.00000
316376468.05767,516513362.80548,-93392186.12701,   0.00368,   0.00380,  -0.00169,479201159.59483,   0.00429,279201168.93928,   0.00325,   0.00206,  -0.00047,  -9.34445,   1.00000
314957975.50483,516357251.57811,-93890078.63503,   0.00368,   0.00380,  -0.00170,479206159.80535,   0.00430,279206163.05843,   0.00325,   0.00207,  -0.00048,  -3.25308,   1.00000
313538698.25032,516190617.69930,-94392407.08788,   0.00367,   0.00381,  -0.00171,479211137.52328,   0.00430,279211145.38015,   0.00325,   0.00207,  -0.00048,  -7.85687,   1.00000
312108264.51585,516016841.14435,-94896798.67496,   0.00367,   0.00382,  -0.00172,479216063.55531,   0.00431,279216068.95645,   0.00325,   0.00208,  -0.00048,  -5.40114,   1.00000
310666539.96060,515835807.64893,-95403256.74399,   0.00366,   0.00382,  -0.00173,479220928.32630,   0.00431,279220934.09386,   0.00325,   0.00208,  -0.00048,  -5.76756,   1.00000
309213398.55221,515647417.40206,-95911787.59776,   0.00366,   0.00383,  -0.00173,479225737.54824,   0.00432,279225741.03118,   0.00325,   0.00208,  -0.00049,  -3.48294,   1.00000
307760729.45351,515451174.72536,-96420843.76049,   0.00365,   0.00383,  -0.00174,479230516.47701,   0.00432,279230523.43899,   0.00325,   0.00209,  -0.00049,  -6.96199,   1.00000
