# sigma_xx, sigma_yy, sigma_xy, epsilon_xx, epsilon_yy, epsilon_xy, vonMises, epsPlastic, hardening, epsilonP__xx, epsilonP__yy, epsilonP__xy, yieldValue, iteration
   0.00000,   0.00000,   0.00000,   0.00000,   0.00000,   0.00000,   0.00000,   0.00000,274640135.82653,   0.00000,   0.00000,   0.00000,-474640135.82653,   0.00000
   0.00000,   0.00000,   0.00000,   0.00000,   0.00000,   0.00000,   0.00000,   0.00000,274640135.82653,   0.00000,   0.00000,   0.00000,-474640135.82653,   0.00000
-633847.45405,1771522.37156,-595924.95680,  -0.00001,   0.00001,  -0.00001,2393388.54250,   0.00000,274640135.82653,   0.00000,   0.00000,   0.00000,-472246747.28403,   0.00000
-1256859.90888,3532209.74391,-1191849.91359,  -0.00001,   0.00002,  -0.00002,4770452.17689,   0.00000,274640135.82653,   0.00000,   0.00000,   0.00000,-469869683.64964,   0.00000
-1850076.11587,5290188.36646,-1787774.87039,  -0.00002,   0.00003,  -0.00002,7126327.43382,   0.00000,274640135.82653,   0.00000,   0.00000,   0.00000,-467513808.39271,   0.00000
-2443292.32286,7048166.98901,-2378282.32757,  -0.00002,   0.00004,  -0.00003,9478172.19000,   0.00000,274640135.82653,   0.00000,   0.00000,   0.00000,-465161963.63653,   0.00000
-3006712.28201,8803436.86175,-2974207.28437,  -0.00003,   0.00005,  -0.00004,11813041.43618,   0.00000,274640135.82653,   0.00000,   0.00000,   0.00000,-462827094.39035,   0.00000
-3578258.49058,10539745.48587,-3559297.24195,  -0.00004,   0.00005,  -0.00005,14128336.52895,   0.00000,274640135.82653,   0.00000,   0.00000,   0.00000,-460511799.29758,   0.00000
-4120008.45130,12273345.36018,-4149804.69914,  -0.00004,   0.00006,  -0.00005,16426758.64867,   0.00000,274640135.82653,   0.00000,   0.00000,   0.00000,-458213377.17786,   0.00000
-4642797.16340,14015071.48391,-4734894.65672,  -0.00005,   0.00007,  -0.00006,18716426.22299,   0.00000,274640135.82653,   0.00000,   0.00000,   0.00000,-455923709.60354,   0.00000
-5154750.87628,15745962.60842,-5314567.11469,  -0.00005,   0.00008,  -0.00007,20985880.50251,   0.00000,274640135.82653,   0.00000,   0.00000,   0.00000,-453654255.32402,   0.00000
-5655869.58995,17466018.73371,-5899657.07227,  -0.00006,   0.00009,  -0.00008,23243365.85243,   0.00000,274640135.82653,   0.00000,   0.00000,   0.00000,-451396769.97410,   0.00000
-6127192.05578,19183366.10921,-6479329.53025,  -0.00007,   0.00010,  -0.00008,25476053.84828,   0.00000,274640135.82653,   0.00000,   0.00000,   0.00000,-449164081.97825,   0.00000
-6598514.52161,20900713.48470,-7059001.98822,  -0.00007,   0.00011,  -0.00009,27708886.78224,   0.00000,274640135.82653,   0.00000,   0.00000,   0.00000,-446931249.04428,   0.00000
-7040040.73960,22615352.11039,-7633256.94659,  -0.00008,   0.00012,  -0.00010,29917037.95043,   0.00000,274640135.82653,   0.00000,   0.00000,   0.00000,-444723097.87610,   0.00000
-7489693.20700,24311029.48745,-8207511.90496,  -0.00008,   0.00013,  -0.00011,32113759.76886,   0.00000,274640135.82653,   0.00000,   0.00000,   0.00000,-442526376.05767,   0.00000
-7909549.42656,26003998.11471,-8781766.86332,  -0.00009,   0.00013,  -0.00011,34290043.54303,   0.00000,274640135.82653,   0.00000,   0.00000,   0.00000,-440350092.28350,   0.00000
-8310444.39749,27705092.99138,-9350604.32208,  -0.00009,   0.00014,  -0.00012,36457903.15064,   0.00000,274640135.82653,   0.00000,   0.00000,   0.00000,-438182232.67589,   0.00000
-8700504.36921,29395352.86884,-9919441.78084,  -0.00010,   0.00015,  -0.00013,38609919.94763,   0.00000,274640135.82653,   0.00000,   0.00000,   0.00000,-436030215.87890,   0.00000
-9071603.09231,31093738.99570,-10488279.23960,  -0.00010,   0.00016,  -0.00014,40757780.24434,   0.00000,274640135.82653,   0.00000,   0.00000,   0.00000,-433882355.58219,   0.00000
-9439993.06560,32762328.87473,-11057116.69836,  -0.00011,   0.00017,  -0.00014,42878191.52913,   0.00000,274640135.82653,   0.00000,   0.00000,   0.00000,-431761944.29740,   0.00000
-9789421.79027,34439045.00317,-11620536.65751,  -0.00011,   0.00018,  -0.00015,44990327.33748,   0.00000,274640135.82653,   0.00000,   0.00000,   0.00000,-429649808.48905,   0.00000
-10109054.26709,36113052.38180,-12183956.61666,  -0.00012,   0.00018,  -0.00016,47082488.60558,   0.00000,274640135.82653,   0.00000,   0.00000,   0.00000,-427557647.22095,   0.00000
-10428686.74392,37787059.76044,-12741959.07621,  -0.00012,   0.00019,  -0.00017,49170736.87730,   0.00000,274640135.82653,   0.00000,   0.00000,   0.00000,-425469398.94923,   0.00000
-10726649.22232,39439397.14064,-13299961.53575,  -0.00013,   0.00020,  -0.00017,51227400.47651,   0.00000,274640135.82653,   0.00000,   0.00000,   0.00000,-423412735.35002,   0.00000
-11024611.70072,41091734.52085,-13857963.99530,  -0.00013,   0.00021,  -0.00018,53284356.28371,   0.00000,274640135.82653,   0.00000,   0.00000,   0.00000,-421355779.54282,   0.00000
-11292777.93127,42741363.15125,-14415966.45484,  -0.00013,   0.00022,  -0.00019,55321604.69889,   0.00000,274640135.82653,   0.00000,   0.00000,   0.00000,-419318531.12764,   0.00000
-11541982.91321,44399118.03106,-14968551.41478,  -0.00014,   0.00022,  -0.00019,57350898.05358,   0.00000,274640135.82653,   0.00000,   0.00000,   0.00000,-417289237.77295,   0.00000
-11799314.14455,46037911.66225,-15521136.37472,  -0.00014,   0.00023,  -0.00020,59368728.55176,   0.00000,274640135.82653,   0.00000,   0.00000,   0.00000,-415271407.27477,   0.00000
-12026849.12805,47673996.54364,-16068303.83505,  -0.00015,   0.00024,  -0.00021,61362807.74671,   0.00000,274640135.82653,   0.00000,   0.00000,   0.00000,-413277328.07982,   0.00000
-12243549.11234,49299246.42580,-16620888.79499,  -0.00015,   0.00025,  -0.00022,63345716.27853,   0.00000,274640135.82653,   0.00000,   0.00000,   0.00000,-411294419.54800,   0.00000
-12441287.84801,50932622.55738,-17168056.25532,  -0.00016,   0.00026,  -0.00022,65320835.64023,   0.00000,274640135.82653,   0.00000,   0.00000,   0.00000,-409319300.18630,   0.00000
-12628191.58446,52555163.68975,-17709806.21604,  -0.00016,   0.00026,  -0.00023,67276331.92740,   0.00000,274640135.82653,   0.00000,   0.00000,   0.00000,-407363803.89913,   0.00000
-12804260.32169,54166869.82290,-18256973.67637,  -0.00016,   0.00027,  -0.00024,69220783.25387,   0.00000,274640135.82653,   0.00000,   0.00000,   0.00000,-405419352.57266,   0.00000
-12950532.81109,55775867.20625,-18793306.13749,  -0.00017,   0.00028,  -0.00024,71137584.49479,   0.00000,274640135.82653,   0.00000,   0.00000,   0.00000,-403502551.33174,   0.00000
-13096805.30048,57384864.58960,-19335056.09821,  -0.00017,   0.00029,  -0.00025,73059158.04834,   0.00000,274640135.82653,   0.00000,   0.00000,   0.00000,-401580977.77819,   0.00000
-13232242.79066,58983026.97373,-19876806.05893,  -0.00018,   0.00029,  -0.00026,74965523.48255,   0.00000,274640135.82653,   0.00000,   0.00000,   0.00000,-399674612.34398,   0.00000
-13348719.03222,60589315.60727,-20413138.52005,  -0.00018,   0.00030,  -0.00027,76864373.33818,   0.00000,274640135.82653,   0.00000,   0.00000,   0.00000,-397775762.48835,   0.00000
-13443525.27534,62173934.24239,-20944053.48156,  -0.00018,   0.00031,  -0.00027,78728161.77313,   0.00000,274640135.82653,   0.00000,   0.00000,   0.00000,-395911974.05340,   0.00000
-13538331.51847,63758552.87750,-21480385.94267,  -0.00019,   0.00032,  -0.00028,80596804.22988,   0.00000,274640135.82653,   0.00000,   0.00000,   0.00000,-394043331.59665,   0.00000
-13622302.76238,65332336.51341,-22011300.90418,  -0.00019,   0.00032,  -0.00029,82446044.76561,   0.00000,274640135.82653,   0.00000,   0.00000,   0.00000,-392194091.06092,   0.00000
-13668351.50904,66922372.64813,-22542215.86569,  -0.00019,   0.00033,  -0.00029,84288794.00851,   0.00000,274640135.82653,   0.00000,   0.00000,   0.00000,-390351341.81802,   0.00000
-13722526.50512,68493447.53423,-23067713.32759,  -0.00020,   0.00034,  -0.00030,86115744.39389,   0.00000,274640135.82653,   0.00000,   0.00000,   0.00000,-388524391.43264,   0.00000
-13746905.25335,70061813.67052,-23593210.78949,  -0.00020,   0.00035,  -0.00031,87924325.64044,   0.00000,274640135.82653,   0.00000,   0.00000,   0.00000,-386715810.18609,   0.00000
-13779410.25099,71611218.55819,-24118708.25139,  -0.00020,   0.00035,  -0.00031,89721432.18032,   0.00000,274640135.82653,   0.00000,   0.00000,   0.00000,-384918703.64621,   0.00000
-13773992.75139,73176875.94468,-24644205.71330,  -0.00021,   0.00036,  -0.00032,91512438.68396,   0.00000,274640135.82653,   0.00000,   0.00000,   0.00000,-383127697.14256,   0.00000
-13776701.50119,74723572.08254,-25164285.67559,  -0.00021,   0.00037,  -0.00033,93287608.48794,   0.00000,274640135.82653,   0.00000,   0.00000,   0.00000,-381352527.33859,   0.00000
-13749614.00315,76267559.47060,-25684365.63788,  -0.00021,   0.00037,  -0.00033,95044736.47279,   0.00000,274640135.82653,   0.00000,   0.00000,   0.00000,-379595399.35374,   0.00000
-13722526.50512,77811546.85866,-26204445.60018,  -0.00021,   0.00038,  -0.00034,96802554.09870,   0.00000,274640135.82653,   0.00000,   0.00000,   0.00000,-377837581.72783,   0.00000
-13665642.75924,79352825.49692,-26719108.06286,  -0.00022,   0.00039,  -0.00035,98538115.86676,   0.00000,274640135.82653,   0.00000,   0.00000,   0.00000,-376102019.95977,   0.00000
-13616885.26278,80875142.88655,-27233770.52555,  -0.00022,   0.00039,  -0.00035,100262209.29938,   0.00000,274640135.82653,   0.00000,   0.00000,   0.00000,-374377926.52715,   0.00000
-13549166.51769,82405586.52559,-27748432.98824,  -0.00022,   0.00040,  -0.00036,101983891.95203,   0.00000,274640135.82653,   0.00000,   0.00000,   0.00000,-372656243.87450,   0.00000
-13451651.52476,83933321.41483,-28257677.95132,  -0.00022,   0.00041,  -0.00037,103683558.25809,   0.00000,274640135.82653,   0.00000,   0.00000,   0.00000,-370956577.56844,   0.00000
-13362262.78124,85442095.05545,-28766922.91440,  -0.00023,   0.00041,  -0.00037,105371765.49104,   0.00000,274640135.82653,   0.00000,   0.00000,   0.00000,-369268370.33549,   0.00000
-13262039.03850,86940033.69685,-29276167.87748,  -0.00023,   0.00042,  -0.00038,107045482.27896,   0.00000,274640135.82653,   0.00000,   0.00000,   0.00000,-367594653.54757,   0.00000
-13123892.79852,88454224.83707,-29779995.34095,  -0.00023,   0.00043,  -0.00039,108709680.27537,   0.00000,274640135.82653,   0.00000,   0.00000,   0.00000,-365930455.55116,   0.00000
-12993872.80794,89949454.72866,-30289240.30403,  -0.00023,   0.00043,  -0.00039,110366893.33766,   0.00000,274640135.82653,   0.00000,   0.00000,   0.00000,-364273242.48887,   0.00000
-12853017.81816,91433849.62105,-30793067.76750,  -0.00024,   0.00044,  -0.00040,112005307.41676,   0.00000,274640135.82653,   0.00000,   0.00000,   0.00000,-362634828.40977,   0.00000
-12693201.57974,92926370.76284,-31291477.73137,  -0.00024,   0.00045,  -0.00041,113637276.63712,   0.00000,274640135.82653,   0.00000,   0.00000,   0.00000,-361002859.18941,   0.00000
-12522550.34212,94408056.90542,-31789887.69523,  -0.00024,   0.00045,  -0.00041,115255004.22998,   0.00000,274640135.82653,   0.00000,   0.00000,   0.00000,-359385131.59655,   0.00000
-12313976.60724,95905995.54682,-32288297.65910,  -0.00024,   0.00046,  -0.00042,116868219.30933,   0.00000,274640135.82653,   0.00000,   0.00000,   0.00000,-357771916.51720,   0.00000
-12140616.61981,97357885.44155,-32786707.62296,  -0.00025,   0.00047,  -0.00043,118460296.22570,   0.00000,274640135.82653,   0.00000,   0.00000,   0.00000,-356179839.60082,   0.00000
-11929334.13512,98826027.83511,-33285117.58683,  -0.00025,   0.00047,  -0.00043,120047984.80680,   0.00000,274640135.82653,   0.00000,   0.00000,   0.00000,-354592151.01973,   0.00000
-11699090.40182,100302296.47808,-33778110.05109,  -0.00025,   0.00048,  -0.00044,121629548.97920,   0.00000,274640135.82653,   0.00000,   0.00000,   0.00000,-353010586.84733,   0.00000
-11466137.91871,101748768.87321,-34271102.51535,  -0.00025,   0.00049,  -0.00045,123184719.44927,   0.00000,274640135.82653,   0.00000,   0.00000,   0.00000,-351455416.37726,   0.00000
-11214224.18697,103203367.51776,-34758677.48000,  -0.00025,   0.00049,  -0.00045,124733862.97149,   0.00000,274640135.82653,   0.00000,   0.00000,   0.00000,-349906272.85504,   0.00000
-10962310.45523,104657966.16230,-35246252.44465,  -0.00025,   0.00050,  -0.00046,126284006.04433,   0.00000,274640135.82653,   0.00000,   0.00000,   0.00000,-348356129.78220,   0.00000
-10688726.72507,106090894.80841,-35733827.40930,  -0.00026,   0.00050,  -0.00046,127805409.45840,   0.00000,274640135.82653,   0.00000,   0.00000,   0.00000,-346834726.36813,   0.00000
-10415142.99490,107523823.45452,-36221402.37395,  -0.00026,   0.00051,  -0.00047,129327853.84567,   0.00000,274640135.82653,   0.00000,   0.00000,   0.00000,-345312281.98086,   0.00000
-10122598.01611,108964878.35005,-36703559.83899,  -0.00026,   0.00052,  -0.00048,130844462.16945,   0.00000,274640135.82653,   0.00000,   0.00000,   0.00000,-343795673.65708,   0.00000
-9827344.28752,110376136.99773,-37191134.80364,  -0.00026,   0.00052,  -0.00048,132339389.97002,   0.00000,274640135.82653,   0.00000,   0.00000,   0.00000,-342300745.85651,   0.00000
-9513129.31030,111795521.89482,-37667874.76908,  -0.00026,   0.00053,  -0.00049,133824026.13121,   0.00000,274640135.82653,   0.00000,   0.00000,   0.00000,-340816109.69532,   0.00000
-9179953.08445,113223033.04133,-38150032.23412,  -0.00026,   0.00053,  -0.00050,135312171.51278,   0.00000,274640135.82653,   0.00000,   0.00000,   0.00000,-339327964.31375,   0.00000
-8844068.10881,114620747.94000,-38626772.19956,  -0.00026,   0.00054,  -0.00050,136769622.69514,   0.00000,274640135.82653,   0.00000,   0.00000,   0.00000,-337870513.13139,   0.00000
-8489221.88453,116026589.08807,-39103512.16500,  -0.00026,   0.00054,  -0.00051,138226139.76309,   0.00000,274640135.82653,   0.00000,   0.00000,   0.00000,-336413996.06344,   0.00000
-8134375.66026,117432430.23615,-39580252.13043,  -0.00027,   0.00055,  -0.00051,139683829.83335,   0.00000,274640135.82653,   0.00000,   0.00000,   0.00000,-334956305.99317,   0.00000
-7776820.68618,118808475.13639,-40051574.59626,  -0.00027,   0.00056,  -0.00052,141110845.77123,   0.00000,274640135.82653,   0.00000,   0.00000,   0.00000,-333529290.05530,   0.00000
-7381343.21485,120200772.53544,-40522897.06209,  -0.00027,   0.00056,  -0.00053,142535148.86323,   0.00000,274640135.82653,   0.00000,   0.00000,   0.00000,-332104986.96330,   0.00000
-6985865.74352,121593069.93450,-40994219.52792,  -0.00027,   0.00057,  -0.00053,143960716.66360,   0.00000,274640135.82653,   0.00000,   0.00000,   0.00000,-330679419.16293,   0.00000
-6598514.52161,122966406.08494,-41465541.99375,  -0.00027,   0.00057,  -0.00054,145374848.42319,   0.00000,274640135.82653,   0.00000,   0.00000,   0.00000,-329265287.40334,   0.00000
-6181367.05185,124337033.48557,-41931446.95997,  -0.00027,   0.00058,  -0.00055,146769270.52078,   0.00000,274640135.82653,   0.00000,   0.00000,   0.00000,-327870865.30575,   0.00000
-5753384.58288,125696825.88698,-42397351.92619,  -0.00027,   0.00058,  -0.00055,148150538.31646,   0.00000,274640135.82653,   0.00000,   0.00000,   0.00000,-326489597.51007,   0.00000
-5325402.11391,127056618.28840,-42863256.89241,  -0.00027,   0.00059,  -0.00056,149533100.40406,   0.00000,274640135.82653,   0.00000,   0.00000,   0.00000,-325107035.42246,   0.00000
-4886584.64572,128405575.69060,-43323744.35903,  -0.00027,   0.00059,  -0.00056,150897898.48897,   0.00000,274640135.82653,   0.00000,   0.00000,   0.00000,-323742237.33756,   0.00000
-4428805.92891,129762659.34221,-43784231.82564,  -0.00027,   0.00060,  -0.00057,152262380.73224,   0.00000,274640135.82653,   0.00000,   0.00000,   0.00000,-322377755.09429,   0.00000
-3960192.21289,131108907.99460,-44244719.29226,  -0.00027,   0.00060,  -0.00058,153613902.07313,   0.00000,274640135.82653,   0.00000,   0.00000,   0.00000,-321026233.75340,   0.00000
-3499704.74627,132436195.39838,-44705206.75887,  -0.00027,   0.00061,  -0.00058,154954018.66548,   0.00000,274640135.82653,   0.00000,   0.00000,   0.00000,-319686117.16105,   0.00000
-3001294.78241,133779735.30097,-45160276.72588,  -0.00027,   0.00061,  -0.00059,156287841.98073,   0.00000,274640135.82653,   0.00000,   0.00000,   0.00000,-318352293.84580,   0.00000
-2511011.06795,135104313.95494,-45615346.69289,  -0.00027,   0.00062,  -0.00059,157610306.81787,   0.00000,274640135.82653,   0.00000,   0.00000,   0.00000,-317029829.00866,   0.00000
-2009892.35428,136418057.60969,-46070416.65989,  -0.00028,   0.00062,  -0.00060,158919984.87887,   0.00000,274640135.82653,   0.00000,   0.00000,   0.00000,-315720150.94766,   0.00000
-1508773.64061,137731801.26444,-46525486.62690,  -0.00028,   0.00063,  -0.00060,160231065.35962,   0.00000,274640135.82653,   0.00000,   0.00000,   0.00000,-314409070.46691,   0.00000
-977858.67911,139042836.16939,-46975139.09430,  -0.00028,   0.00063,  -0.00061,161523440.46772,   0.00000,274640135.82653,   0.00000,   0.00000,   0.00000,-313116695.35881,   0.00000
-455069.96701,140334909.82572,-47424791.56170,  -0.00028,   0.00064,  -0.00062,162804449.48239,   0.00000,274640135.82653,   0.00000,   0.00000,   0.00000,-311835686.34414,   0.00000
86679.99372,141635109.73145,-47874444.02910,  -0.00028,   0.00064,  -0.00062,164085715.60294,   0.00000,274640135.82653,   0.00000,   0.00000,   0.00000,-310554420.22359,   0.00000
639264.95365,142924474.63798,-48318678.99690,  -0.00028,   0.00065,  -0.00063,165349725.49896,   0.00000,274640135.82653,   0.00000,   0.00000,   0.00000,-309290410.32757,   0.00000
1191849.91359,144213839.54450,-48768331.46430,  -0.00028,   0.00065,  -0.00063,166619990.49219,   0.00000,274640135.82653,   0.00000,   0.00000,   0.00000,-308020145.33434,   0.00000
1755269.87274,145492369.45180,-49212566.43209,  -0.00028,   0.00066,  -0.00064,167873053.98042,   0.00000,274640135.82653,   0.00000,   0.00000,   0.00000,-306767081.84611,   0.00000
2329524.83111,146760064.35990,-49651383.90027,  -0.00028,   0.00066,  -0.00065,169108964.08043,   0.00000,274640135.82653,   0.00000,   0.00000,   0.00000,-305531171.74610,   0.00000
2922741.03810,148035885.51740,-50095618.86807,  -0.00028,   0.00067,  -0.00065,170350251.97430,   0.00000,274640135.82653,   0.00000,   0.00000,   0.00000,-304289883.85223,   0.00000
3507830.99568,149292745.42628,-50534436.33625,  -0.00028,   0.00067,  -0.00066,171575414.21439,   0.00000,274640135.82653,   0.00000,   0.00000,   0.00000,-303064721.61214,   0.00000
4111882.20189,150557731.58456,-50973253.80444,  -0.00027,   0.00068,  -0.00066,172801273.92039,   0.00000,274640135.82653,   0.00000,   0.00000,   0.00000,-301838861.90614,   0.00000
4726768.40731,151811882.74364,-51412071.27262,  -0.00027,   0.00068,  -0.00067,174014981.21760,   0.00000,274640135.82653,   0.00000,   0.00000,   0.00000,-300625154.60893,   0.00000
5333528.36332,153047072.65409,-51845471.24120,  -0.00027,   0.00069,  -0.00067,175212530.18700,   0.00000,274640135.82653,   0.00000,   0.00000,   0.00000,-299427605.63953,   0.00000
5959249.56795,154290388.81395,-52278871.20978,  -0.00027,   0.00069,  -0.00068,176410949.00204,   0.00000,274640135.82653,   0.00000,   0.00000,   0.00000,-298229186.82449,   0.00000
6595805.77180,155522869.97459,-52712271.17836,  -0.00027,   0.00069,  -0.00069,177597352.72191,   0.00000,274640135.82653,   0.00000,   0.00000,   0.00000,-297042783.10462,   0.00000
7251323.22428,156763477.38465,-53145671.14694,  -0.00027,   0.00070,  -0.00069,178784825.89674,   0.00000,274640135.82653,   0.00000,   0.00000,   0.00000,-295855309.92979,   0.00000
7898714.42734,157985123.54608,-53579071.11552,  -0.00027,   0.00070,  -0.00070,179960996.22313,   0.00000,274640135.82653,   0.00000,   0.00000,   0.00000,-294679139.60340,   0.00000
8556940.62962,159195934.70829,-54007053.58449,  -0.00027,   0.00071,  -0.00070,181120463.25428,   0.00000,274640135.82653,   0.00000,   0.00000,   0.00000,-293519672.57225,   0.00000
9215166.83190,160406745.87051,-54435036.05346,  -0.00027,   0.00071,  -0.00071,182281617.13890,   0.00000,274640135.82653,   0.00000,   0.00000,   0.00000,-292358518.68763,   0.00000
9884228.03339,161606722.03351,-54863018.52243,  -0.00027,   0.00072,  -0.00071,183430982.33969,   0.00000,274640135.82653,   0.00000,   0.00000,   0.00000,-291209153.48684,   0.00000
10564124.23410,162795863.19730,-55285583.49180,  -0.00027,   0.00072,  -0.00072,184563770.27320,   0.00000,274640135.82653,   0.00000,   0.00000,   0.00000,-290076365.55333,   0.00000
11262981.68343,163993130.61050,-55708148.46116,  -0.00027,   0.00072,  -0.00072,185697989.84499,   0.00000,274640135.82653,   0.00000,   0.00000,   0.00000,-288942145.98154,   0.00000
11961839.13277,165190398.02370,-56130713.43052,  -0.00027,   0.00073,  -0.00073,186833999.04163,   0.00000,274640135.82653,   0.00000,   0.00000,   0.00000,-287806136.78490,   0.00000
12644444.08328,166349742.93964,-56553278.39989,  -0.00027,   0.00073,  -0.00074,187945574.07058,   0.00000,274640135.82653,   0.00000,   0.00000,   0.00000,-286694561.75595,   0.00000
13373097.78045,167544301.60304,-56975843.36925,  -0.00027,   0.00074,  -0.00074,189071644.09005,   0.00000,274640135.82653,   0.00000,   0.00000,   0.00000,-285568491.73648,   0.00000
14085498.97880,168700937.76918,-57392990.83901,  -0.00026,   0.00074,  -0.00075,190168443.73174,   0.00000,274640135.82653,   0.00000,   0.00000,   0.00000,-284471692.09479,   0.00000
14797900.17715,169857573.93533,-57810138.30876,  -0.00026,   0.00074,  -0.00075,191267023.09404,   0.00000,274640135.82653,   0.00000,   0.00000,   0.00000,-283373112.73249,   0.00000
15529262.62413,171022336.35088,-58227285.77852,  -0.00026,   0.00075,  -0.00076,192367349.56894,   0.00000,274640135.82653,   0.00000,   0.00000,   0.00000,-282272786.25759,   0.00000
16271460.07032,172176263.76722,-58644433.24828,  -0.00026,   0.00075,  -0.00076,193456392.16565,   0.00000,274640135.82653,   0.00000,   0.00000,   0.00000,-281183743.66088,   0.00000
17005531.26710,173311229.93494,-59056163.21843,  -0.00026,   0.00076,  -0.00077,194529206.59347,   0.00000,274640135.82653,   0.00000,   0.00000,   0.00000,-280110929.23306,   0.00000
17758563.71250,174454322.35206,-59473310.68818,  -0.00026,   0.00076,  -0.00077,195608903.23980,   0.00000,274640135.82653,   0.00000,   0.00000,   0.00000,-279031232.58673,   0.00000
18522431.15712,175586579.76997,-59885040.65833,  -0.00026,   0.00076,  -0.00078,196672548.66741,   0.00000,274640135.82653,   0.00000,   0.00000,   0.00000,-277967587.15912,   0.00000
19286298.60174,176718837.18788,-60291353.12888,  -0.00026,   0.00077,  -0.00078,197733149.10396,   0.00000,274640135.82653,   0.00000,   0.00000,   0.00000,-276906986.72257,   0.00000
20061001.04558,177840259.60658,-60703083.09903,  -0.00026,   0.00077,  -0.00079,198787678.08684,   0.00000,274640135.82653,   0.00000,   0.00000,   0.00000,-275852457.73969,   0.00000
20827577.24000,178942720.77665,-61109395.56957,  -0.00025,   0.00077,  -0.00079,199825965.86721,   0.00000,274640135.82653,   0.00000,   0.00000,   0.00000,-274814169.95932,   0.00000
21594153.43442,180045181.94672,-61515708.04011,  -0.00025,   0.00078,  -0.00080,200866121.40359,   0.00000,274640135.82653,   0.00000,   0.00000,   0.00000,-273774014.42294,   0.00000
22390525.87669,181144934.36699,-61922020.51065,  -0.00025,   0.00078,  -0.00080,201895771.19852,   0.00000,274640135.82653,   0.00000,   0.00000,   0.00000,-272744364.62800,   0.00000
23186898.31895,182244686.78726,-62328332.98120,  -0.00025,   0.00078,  -0.00081,202927406.65267,   0.00000,274640135.82653,   0.00000,   0.00000,   0.00000,-271712729.17386,   0.00000
23975144.51180,183325477.95890,-62729227.95213,  -0.00025,   0.00079,  -0.00082,203942765.78215,   0.00000,274640135.82653,   0.00000,   0.00000,   0.00000,-270697370.04438,   0.00000
24782351.95328,184414395.37996,-63135540.42267,  -0.00025,   0.00079,  -0.00082,204965609.63616,   0.00000,274640135.82653,   0.00000,   0.00000,   0.00000,-269674526.19037,   0.00000
25581433.14535,185484351.55238,-63536435.39361,  -0.00025,   0.00079,  -0.00083,205972169.77401,   0.00000,274640135.82653,   0.00000,   0.00000,   0.00000,-268667966.05252,   0.00000
26399475.58604,186562433.97422,-63937330.36454,  -0.00024,   0.00080,  -0.00083,206981328.39236,   0.00000,274640135.82653,   0.00000,   0.00000,   0.00000,-267658807.43417,   0.00000
27209391.77732,187621555.14744,-64332807.83587,  -0.00024,   0.00080,  -0.00084,207974183.61205,   0.00000,274640135.82653,   0.00000,   0.00000,   0.00000,-266665952.21448,   0.00000
28030142.96781,188669841.32144,-64733702.80681,  -0.00024,   0.00080,  -0.00084,208961508.77694,   0.00000,274640135.82653,   0.00000,   0.00000,   0.00000,-265678627.04958,   0.00000
28869855.40694,189726253.74485,-65129180.27813,  -0.00024,   0.00081,  -0.00085,209946614.09478,   0.00000,274640135.82653,   0.00000,   0.00000,   0.00000,-264693521.73175,   0.00000
29709567.84606,190782666.16826,-65524657.74946,  -0.00024,   0.00081,  -0.00085,210933771.32892,   0.00000,274640135.82653,   0.00000,   0.00000,   0.00000,-263706364.49760,   0.00000
30541154.03577,191820117.34304,-65920135.22079,  -0.00024,   0.00081,  -0.00086,211909661.03268,   0.00000,274640135.82653,   0.00000,   0.00000,   0.00000,-262730474.79385,   0.00000
31383575.22469,192846733.51861,-66315612.69212,  -0.00023,   0.00082,  -0.00086,212875205.02552,   0.00000,274640135.82653,   0.00000,   0.00000,   0.00000,-261764930.80101,   0.00000
32225996.41362,193873349.69418,-66705672.66384,  -0.00023,   0.00082,  -0.00087,213837716.48416,   0.00000,274640135.82653,   0.00000,   0.00000,   0.00000,-260802419.34237,   0.00000
33079252.60175,194889130.87054,-67095732.63556,  -0.00023,   0.00082,  -0.00087,214789980.00016,   0.00000,274640135.82653,   0.00000,   0.00000,   0.00000,-259850155.82637,   0.00000
33932508.78989,195904912.04689,-67491210.10689,  -0.00023,   0.00083,  -0.00088,215749379.81820,   0.00000,274640135.82653,   0.00000,   0.00000,   0.00000,-258890756.00833,   0.00000
34796599.97725,196909858.22404,-67875852.57900,  -0.00023,   0.00083,  -0.00088,216688477.21456,   0.00000,274640135.82653,   0.00000,   0.00000,   0.00000,-257951658.61196,   0.00000
35660691.16460,197914804.40118,-68265912.55072,  -0.00022,   0.00083,  -0.00089,217634740.85722,   0.00000,274640135.82653,   0.00000,   0.00000,   0.00000,-257005394.96931,   0.00000
36516656.10254,198900789.32969,-68655972.52244,  -0.00022,   0.00083,  -0.00089,218569728.31437,   0.00000,274640135.82653,   0.00000,   0.00000,   0.00000,-256070407.51216,   0.00000
37391582.28911,199894900.50762,-69040614.99456,  -0.00022,   0.00084,  -0.00090,219502926.19920,   0.00000,274640135.82653,   0.00000,   0.00000,   0.00000,-255137209.62733,   0.00000
38277343.47489,200878176.68633,-69425257.46667,  -0.00022,   0.00084,  -0.00090,220426207.71956,   0.00000,274640135.82653,   0.00000,   0.00000,   0.00000,-254213928.10697,   0.00000
39136017.16264,201834365.36701,-69809899.93878,  -0.00022,   0.00084,  -0.00091,221336874.65904,   0.00000,274640135.82653,   0.00000,   0.00000,   0.00000,-253303261.16749,   0.00000
40032613.34764,202806806.54651,-70194542.41090,  -0.00021,   0.00084,  -0.00091,222252437.09600,   0.00000,274640135.82653,   0.00000,   0.00000,   0.00000,-252387698.73052,   0.00000
40910248.28401,203771121.47659,-70579184.88301,  -0.00021,   0.00085,  -0.00092,223168669.85762,   0.00000,274640135.82653,   0.00000,   0.00000,   0.00000,-251471465.96891,   0.00000
41798718.21959,204724601.40747,-70958409.85552,  -0.00021,   0.00085,  -0.00092,224069982.65512,   0.00000,274640135.82653,   0.00000,   0.00000,   0.00000,-250570153.17141,   0.00000
42706149.40380,205686207.58775,-71343052.32763,  -0.00021,   0.00085,  -0.00093,224980129.39692,   0.00000,274640135.82653,   0.00000,   0.00000,   0.00000,-249660006.42961,   0.00000
43586493.08998,206620726.27000,-71722277.30013,  -0.00020,   0.00086,  -0.00093,225872285.21836,   0.00000,274640135.82653,   0.00000,   0.00000,   0.00000,-248767850.60817,   0.00000
44496633.02399,207552536.20244,-72101502.27264,  -0.00020,   0.00086,  -0.00094,226756469.56119,   0.00000,274640135.82653,   0.00000,   0.00000,   0.00000,-247883666.26534,   0.00000
45387811.70938,208476219.88547,-72480727.24515,  -0.00020,   0.00086,  -0.00094,227641111.75579,   0.00000,274640135.82653,   0.00000,   0.00000,   0.00000,-246999024.07074,   0.00000
46297951.64340,209408029.81792,-72854534.71805,  -0.00020,   0.00086,  -0.00095,228524419.10504,   0.00000,274640135.82653,   0.00000,   0.00000,   0.00000,-246115716.72149,   0.00000
47199965.32800,210320878.50174,-73233759.69055,  -0.00020,   0.00086,  -0.00095,229401659.02388,   0.00000,274640135.82653,   0.00000,   0.00000,   0.00000,-245238476.80264,   0.00000
48112814.01182,211222892.18634,-73607567.16345,  -0.00019,   0.00087,  -0.00096,230264298.49211,   0.00000,274640135.82653,   0.00000,   0.00000,   0.00000,-244375837.33442,   0.00000
49033788.94505,212143867.11957,-73981374.63635,  -0.00019,   0.00087,  -0.00096,231142481.14026,   0.00000,274640135.82653,   0.00000,   0.00000,   0.00000,-243497654.68626,   0.00000
49938511.37946,213026919.55555,-74355182.10925,  -0.00019,   0.00087,  -0.00097,231996024.63677,   0.00000,274640135.82653,   0.00000,   0.00000,   0.00000,-242644111.18976,   0.00000
50843233.81387,213909971.99153,-74728989.58215,  -0.00019,   0.00087,  -0.00097,232851672.68648,   0.00000,274640135.82653,   0.00000,   0.00000,   0.00000,-241788463.14005,   0.00000
51766917.49690,214801150.67692,-75102797.05505,  -0.00018,   0.00088,  -0.00098,233711456.73758,   0.00000,274640135.82653,   0.00000,   0.00000,   0.00000,-240928679.08895,   0.00000
52701436.17915,215681494.36309,-75476604.52795,  -0.00018,   0.00088,  -0.00098,234562097.04265,   0.00000,274640135.82653,   0.00000,   0.00000,   0.00000,-240078038.78388,   0.00000
53608867.36336,216534750.55123,-75844994.50124,  -0.00018,   0.00088,  -0.00099,235394170.92844,   0.00000,274640135.82653,   0.00000,   0.00000,   0.00000,-239245964.89809,   0.00000
54543386.04560,217415094.23741,-76213384.47453,  -0.00018,   0.00088,  -0.00099,236243917.73257,   0.00000,274640135.82653,   0.00000,   0.00000,   0.00000,-238396218.09396,   0.00000
55461652.22903,218257515.42633,-76581774.44782,  -0.00017,   0.00088,  -0.00100,237069019.53615,   0.00000,274640135.82653,   0.00000,   0.00000,   0.00000,-237571116.29038,   0.00000
56379918.41246,219099936.61525,-76950164.42111,  -0.00017,   0.00089,  -0.00100,237896246.89719,   0.00000,274640135.82653,   0.00000,   0.00000,   0.00000,-236743888.92934,   0.00000
57317145.84451,219950484.05359,-77318554.39440,  -0.00017,   0.00089,  -0.00101,238727906.26783,   0.00000,274640135.82653,   0.00000,   0.00000,   0.00000,-235912229.55870,   0.00000
58246247.02715,220782070.24330,-77686944.36770,  -0.00017,   0.00089,  -0.00101,239548335.01128,   0.00000,274640135.82653,   0.00000,   0.00000,   0.00000,-235091800.81525,   0.00000
59175348.20979,221613656.43301,-78055334.34099,  -0.00016,   0.00089,  -0.00101,240370911.14180,   0.00000,274640135.82653,   0.00000,   0.00000,   0.00000,-234269224.68473,   0.00000
60123410.64105,222453368.87213,-78418306.81467,  -0.00016,   0.00089,  -0.00102,241192792.42036,   0.00000,274640135.82653,   0.00000,   0.00000,   0.00000,-233447343.40617,   0.00000
61055220.57350,223255158.81400,-78786696.78796,  -0.00016,   0.00090,  -0.00102,241995338.18456,   0.00000,274640135.82653,   0.00000,   0.00000,   0.00000,-232644797.64197,   0.00000
61995156.75535,224075910.00450,-79149669.26165,  -0.00015,   0.00090,  -0.00103,242808159.19635,   0.00000,274640135.82653,   0.00000,   0.00000,   0.00000,-231831976.63017,   0.00000
62926966.68779,224877699.94637,-79512641.73533,  -0.00015,   0.00090,  -0.00103,243609712.70361,   0.00000,274640135.82653,   0.00000,   0.00000,   0.00000,-231030423.12292,   0.00000
63869611.61945,225668654.88902,-79875614.20902,  -0.00015,   0.00090,  -0.00104,244402620.65125,   0.00000,274640135.82653,   0.00000,   0.00000,   0.00000,-230237515.17528,   0.00000
64812256.55111,226459609.83168,-80238586.68270,  -0.00015,   0.00090,  -0.00104,245197711.10677,   0.00000,274640135.82653,   0.00000,   0.00000,   0.00000,-229442424.71976,   0.00000
65754901.48277,227250564.77433,-80601559.15639,  -0.00014,   0.00091,  -0.00105,245994962.90767,   0.00000,274640135.82653,   0.00000,   0.00000,   0.00000,-228645172.91886,   0.00000
66689420.16502,228022558.46836,-80959114.13046,  -0.00014,   0.00091,  -0.00105,246775623.20046,   0.00000,274640135.82653,   0.00000,   0.00000,   0.00000,-227864512.62607,   0.00000
67615812.59785,228775590.91377,-81322086.60415,  -0.00014,   0.00091,  -0.00106,247550332.13062,   0.00000,274640135.82653,   0.00000,   0.00000,   0.00000,-227089803.69591,   0.00000
68569292.52873,229555710.85721,-81679641.57823,  -0.00014,   0.00091,  -0.00106,248338058.13988,   0.00000,274640135.82653,   0.00000,   0.00000,   0.00000,-226302077.68665,   0.00000
69506519.96078,230297908.30340,-82037196.55230,  -0.00013,   0.00091,  -0.00107,249101147.28770,   0.00000,274640135.82653,   0.00000,   0.00000,   0.00000,-225538988.53883,   0.00000
70451873.64224,231059066.99822,-82400169.02599,  -0.00013,   0.00091,  -0.00107,249885130.24242,   0.00000,274640135.82653,   0.00000,   0.00000,   0.00000,-224755005.58411,   0.00000
71380974.82488,231782303.19578,-82757724.00007,  -0.00013,   0.00092,  -0.00108,250639094.19210,   0.00000,274640135.82653,   0.00000,   0.00000,   0.00000,-224001041.63443,   0.00000
72337163.50556,232532626.89138,-83115278.97414,  -0.00012,   0.00092,  -0.00108,251411586.72199,   0.00000,274640135.82653,   0.00000,   0.00000,   0.00000,-223228549.10454,   0.00000
73266264.68820,233255863.08895,-83472833.94822,  -0.00012,   0.00092,  -0.00109,252169782.93131,   0.00000,274640135.82653,   0.00000,   0.00000,   0.00000,-222470352.89522,   0.00000
74206200.87005,233968264.28730,-83824971.42269,  -0.00012,   0.00092,  -0.00109,252914393.47396,   0.00000,274640135.82653,   0.00000,   0.00000,   0.00000,-221725742.35257,   0.00000
75154263.30132,234699626.73428,-84182526.39677,  -0.00012,   0.00092,  -0.00109,253679904.18811,   0.00000,274640135.82653,   0.00000,   0.00000,   0.00000,-220960231.63841,   0.00000
76086073.23376,235393066.68400,-84540081.37084,  -0.00011,   0.00092,  -0.00110,254420770.27468,   0.00000,274640135.82653,   0.00000,   0.00000,   0.00000,-220219365.55185,   0.00000
77036844.41483,236094632.88314,-84892218.84531,  -0.00011,   0.00092,  -0.00110,255161580.24763,   0.00000,274640135.82653,   0.00000,   0.00000,   0.00000,-219478555.57890,   0.00000
77968654.34727,236788072.83286,-85249773.81939,  -0.00011,   0.00093,  -0.00111,255906676.15585,   0.00000,274640135.82653,   0.00000,   0.00000,   0.00000,-218733459.67068,   0.00000
78919425.52834,237489639.03200,-85601911.29386,  -0.00010,   0.00093,  -0.00111,256651748.76361,   0.00000,274640135.82653,   0.00000,   0.00000,   0.00000,-217988387.06292,   0.00000
79862070.46000,238172243.98251,-85954048.76833,  -0.00010,   0.00093,  -0.00112,257385576.65550,   0.00000,274640135.82653,   0.00000,   0.00000,   0.00000,-217254559.17103,   0.00000
80796589.14225,238835887.68440,-86311603.74241,  -0.00010,   0.00093,  -0.00112,258113587.00215,   0.00000,274640135.82653,   0.00000,   0.00000,   0.00000,-216526548.82438,   0.00000
81731107.82449,239499531.38628,-86663741.21688,  -0.00010,   0.00093,  -0.00113,258838269.23764,   0.00000,274640135.82653,   0.00000,   0.00000,   0.00000,-215801866.58889,   0.00000
82665626.50674,240163175.08817,-87015878.69135,  -0.00009,   0.00093,  -0.00113,259565033.42121,   0.00000,274640135.82653,   0.00000,   0.00000,   0.00000,-215075102.40532,   0.00000
83592018.93958,240807857.54143,-87368016.16582,  -0.00009,   0.00093,  -0.00114,260280513.37343,   0.00000,274640135.82653,   0.00000,   0.00000,   0.00000,-214359622.45310,   0.00000
84537372.62104,241460666.24410,-87720153.64029,  -0.00009,   0.00093,  -0.00114,261001621.56803,   0.00000,274640135.82653,   0.00000,   0.00000,   0.00000,-213638514.25850,   0.00000
85463765.05388,242105348.69736,-88066873.61515,  -0.00008,   0.00093,  -0.00114,261715767.67696,   0.00000,274640135.82653,   0.00000,   0.00000,   0.00000,-212924368.14957,   0.00000
86400992.48593,242739196.15141,-88419011.08962,  -0.00008,   0.00094,  -0.00115,262427715.67475,   0.00000,274640135.82653,   0.00000,   0.00000,   0.00000,-212212420.15178,   0.00000
87338219.91798,243373043.60545,-88771148.56409,  -0.00008,   0.00094,  -0.00115,263141758.48745,   0.00000,274640135.82653,   0.00000,   0.00000,   0.00000,-211498377.33908,   0.00000
88267321.10062,243987929.81088,-89123286.03856,  -0.00007,   0.00094,  -0.00116,263844555.11782,   0.00000,274640135.82653,   0.00000,   0.00000,   0.00000,-210795580.70871,   0.00000
89196422.28326,244602816.01630,-89470006.01342,  -0.00007,   0.00094,  -0.00116,264543926.80668,   0.00000,274640135.82653,   0.00000,   0.00000,   0.00000,-210096209.01985,   0.00000
90117397.21649,245198740.97309,-89822143.48789,  -0.00007,   0.00094,  -0.00117,265237531.09409,   0.00000,274640135.82653,   0.00000,   0.00000,   0.00000,-209402604.73244,   0.00000
91038372.14972,245794665.92989,-90168863.46276,  -0.00007,   0.00094,  -0.00117,265927675.40896,   0.00000,274640135.82653,   0.00000,   0.00000,   0.00000,-208712460.41757,   0.00000
91959347.08295,246390590.88668,-90521000.93723,  -0.00006,   0.00094,  -0.00118,266625358.43412,   0.00000,274640135.82653,   0.00000,   0.00000,   0.00000,-208014777.39241,   0.00000
92872195.76677,246967554.59485,-90867720.91209,  -0.00006,   0.00094,  -0.00118,267306241.60689,   0.00000,274640135.82653,   0.00000,   0.00000,   0.00000,-207333894.21964,   0.00000
93804005.69921,247552644.55243,-91214440.88695,  -0.00006,   0.00094,  -0.00119,267993090.03896,   0.00000,274640135.82653,   0.00000,   0.00000,   0.00000,-206647045.78757,   0.00000
94716854.38303,248129608.26060,-91566578.36142,  -0.00005,   0.00094,  -0.00119,268683538.46951,   0.00000,274640135.82653,   0.00000,   0.00000,   0.00000,-205956597.35702,   0.00000
95621576.81744,248687610.72015,-91913298.33629,  -0.00005,   0.00095,  -0.00119,269357152.19740,   0.00000,274640135.82653,   0.00000,   0.00000,   0.00000,-205282983.62913,   0.00000
96545260.50047,249253739.42910,-92260018.31115,  -0.00005,   0.00095,  -0.00120,270036811.70706,   0.00000,274640135.82653,   0.00000,   0.00000,   0.00000,-204603324.11946,   0.00000
97441856.68547,249792780.64002,-92606738.28601,  -0.00004,   0.00095,  -0.00120,270701127.24168,   0.00000,274640135.82653,   0.00000,   0.00000,   0.00000,-203939008.58485,   0.00000
98357414.11909,250339948.10035,-92953458.26087,  -0.00004,   0.00095,  -0.00121,271371547.49382,   0.00000,274640135.82653,   0.00000,   0.00000,   0.00000,-203268588.33271,   0.00000
99272971.55271,250887115.56068,-93300178.23574,  -0.00004,   0.00095,  -0.00121,272043981.60174,   0.00000,274640135.82653,   0.00000,   0.00000,   0.00000,-202596154.22479,   0.00000
100161441.48830,251407195.52298,-93652315.71021,  -0.00003,   0.00095,  -0.00122,272706534.44918,   0.00000,274640135.82653,   0.00000,   0.00000,   0.00000,-201933601.37735,   0.00000
101068872.67251,251935401.73468,-93999035.68507,  -0.00003,   0.00095,  -0.00122,273369699.78412,   0.00000,274640135.82653,   0.00000,   0.00000,   0.00000,-201270436.04241,   0.00000
101976303.85672,252463607.94639,-94345755.65993,  -0.00003,   0.00095,  -0.00123,274034850.19612,   0.00000,274640135.82653,   0.00000,   0.00000,   0.00000,-200605285.63041,   0.00000
102856647.54289,252964726.66006,-94692475.63480,  -0.00003,   0.00095,  -0.00123,274684426.15598,   0.00000,274640135.82653,   0.00000,   0.00000,   0.00000,-199955709.67055,   0.00000
103755952.47769,253473971.62314,-95039195.60966,  -0.00002,   0.00095,  -0.00124,275340270.78742,   0.00000,274640135.82653,   0.00000,   0.00000,   0.00000,-199299865.03911,   0.00000
104647131.16308,253964255.33759,-95385915.58452,  -0.00002,   0.00095,  -0.00124,275984878.18445,   0.00000,274640135.82653,   0.00000,   0.00000,   0.00000,-198655257.64208,   0.00000
105519348.59985,254446412.80264,-95732635.55938,  -0.00002,   0.00095,  -0.00124,276627010.10205,   0.00000,274640135.82653,   0.00000,   0.00000,   0.00000,-198013125.72448,   0.00000
106410527.28524,254936696.51709,-96079355.53425,  -0.00001,   0.00095,  -0.00125,277275492.83530,   0.00000,274640135.82653,   0.00000,   0.00000,   0.00000,-197364642.99123,   0.00000
107293579.72122,255408018.98292,-96420658.00950,  -0.00001,   0.00095,  -0.00125,277907102.53059,   0.00000,274640135.82653,   0.00000,   0.00000,   0.00000,-196733033.29594,   0.00000
108176632.15719,255879341.44875,-96767377.98437,  -0.00001,   0.00095,  -0.00126,278546283.50509,   0.00000,274640135.82653,   0.00000,   0.00000,   0.00000,-196093852.32144,   0.00000
109040723.34455,256342537.66517,-97114097.95923,  -0.00000,   0.00095,  -0.00126,279182815.19541,   0.00000,274640135.82653,   0.00000,   0.00000,   0.00000,-195457320.63112,   0.00000
109915649.53112,256794898.88237,-97460817.93409,  -0.00000,   0.00095,  -0.00127,279812660.71082,   0.00000,274640135.82653,   0.00000,   0.00000,   0.00000,-194827475.11571,   0.00000
110771614.46906,257239133.85016,-97807537.90895,   0.00000,   0.00095,  -0.00127,280439782.85952,   0.00000,274640135.82653,   0.00000,   0.00000,   0.00000,-194200352.96701,   0.00000
111646540.65563,257691495.06737,-98154257.88382,   0.00001,   0.00095,  -0.00128,281073420.50066,   0.00000,274640135.82653,   0.00000,   0.00000,   0.00000,-193566715.32587,   0.00000
112513340.59278,258124895.03595,-98500977.85868,   0.00001,   0.00096,  -0.00128,281695841.17512,   0.00000,274640135.82653,   0.00000,   0.00000,   0.00000,-192944294.65141,   0.00000
113361179.28131,258550168.75511,-98847697.83354,   0.00001,   0.00096,  -0.00129,282315420.75993,   0.00000,274640135.82653,   0.00000,   0.00000,   0.00000,-192324715.06660,   0.00000
114227979.21847,258983568.72369,-99194417.80840,   0.00001,   0.00096,  -0.00129,282941598.16496,   0.00000,274640135.82653,   0.00000,   0.00000,   0.00000,-191698537.66157,   0.00000
115067691.65759,259389881.19423,-99541137.78327,   0.00002,   0.00096,  -0.00129,283551765.28206,   0.00000,274640135.82653,   0.00000,   0.00000,   0.00000,-191088370.54447,   0.00000
115907404.09671,259796193.66478,-99887857.75813,   0.00002,   0.00096,  -0.00130,284163753.05056,   0.00000,274640135.82653,   0.00000,   0.00000,   0.00000,-190476382.77597,   0.00000
116766077.78446,260210632.38473,-100234577.73299,   0.00002,   0.00096,  -0.00130,284782420.28921,   0.00000,274640135.82653,   0.00000,   0.00000,   0.00000,-189857715.53732,   0.00000
117597663.97417,260597983.60665,-100581297.70786,   0.00003,   0.00096,  -0.00131,285384999.37681,   0.00000,274640135.82653,   0.00000,   0.00000,   0.00000,-189255136.44972,   0.00000
118429250.16388,260985334.82856,-100928017.68272,   0.00003,   0.00096,  -0.00131,285989386.24105,   0.00000,274640135.82653,   0.00000,   0.00000,   0.00000,-188650749.58548,   0.00000
119260836.35359,261372686.05048,-101274737.65758,   0.00003,   0.00096,  -0.00132,286595569.44494,   0.00000,274640135.82653,   0.00000,   0.00000,   0.00000,-188044566.38159,   0.00000
120084296.29389,261741076.02377,-101621457.63244,   0.00004,   0.00096,  -0.00132,287190525.82387,   0.00000,274640135.82653,   0.00000,   0.00000,   0.00000,-187449610.00266,   0.00000
120907756.23419,262109465.99706,-101968177.60731,   0.00004,   0.00096,  -0.00133,287787279.07097,   0.00000,274640135.82653,   0.00000,   0.00000,   0.00000,-186852856.75556,   0.00000
121731216.17449,262477855.97036,-102320315.08178,   0.00004,   0.00096,  -0.00133,288391584.26569,   0.00000,274640135.82653,   0.00000,   0.00000,   0.00000,-186248551.56084,   0.00000
122546549.86538,262827284.69502,-102667035.05664,   0.00005,   0.00096,  -0.00133,288978929.64050,   0.00000,274640135.82653,   0.00000,   0.00000,   0.00000,-185661206.18603,   0.00000
123361883.55626,263176713.41969,-103013755.03150,   0.00005,   0.00096,  -0.00134,289568062.64229,   0.00000,274640135.82653,   0.00000,   0.00000,   0.00000,-185072073.18424,   0.00000
124177217.24715,263526142.14435,-103360475.00637,   0.00005,   0.00096,  -0.00134,290158972.38237,   0.00000,274640135.82653,   0.00000,   0.00000,   0.00000,-184481163.44416,   0.00000
124973589.68941,263867444.61961,-103712612.48084,   0.00005,   0.00096,  -0.00135,290752270.25159,   0.00000,274640135.82653,   0.00000,   0.00000,   0.00000,-183887865.57494,   0.00000
125780797.13089,264197912.09565,-104059332.45570,   0.00006,   0.00096,  -0.00135,291333753.12904,   0.00000,274640135.82653,   0.00000,   0.00000,   0.00000,-183306382.69749,   0.00000
126569043.32374,264520253.32228,-104411469.93017,   0.00006,   0.00096,  -0.00136,291917585.80420,   0.00000,274640135.82653,   0.00000,   0.00000,   0.00000,-182722550.02233,   0.00000
127349163.26719,264823633.30029,-104758189.90503,   0.00006,   0.00096,  -0.00136,292484415.10888,   0.00000,274640135.82653,   0.00000,   0.00000,   0.00000,-182155720.71765,   0.00000
128137409.46004,265145974.52692,-105110327.37950,   0.00007,   0.00096,  -0.00137,293071677.19143,   0.00000,274640135.82653,   0.00000,   0.00000,   0.00000,-181568458.63510,   0.00000
128917529.40348,265449354.50492,-105457047.35436,   0.00007,   0.00096,  -0.00137,293641926.05988,   0.00000,274640135.82653,   0.00000,   0.00000,   0.00000,-180998209.76665,   0.00000
129689523.09751,265733773.23430,-105809184.82883,   0.00007,   0.00096,  -0.00138,294206857.66883,   0.00000,274640135.82653,   0.00000,   0.00000,   0.00000,-180433278.15770,   0.00000
130469643.04095,266037153.21231,-106161322.30330,   0.00007,   0.00096,  -0.00138,294786365.50705,   0.00000,274640135.82653,   0.00000,   0.00000,   0.00000,-179853770.31947,   0.00000
131241636.73498,266321571.94169,-106508042.27817,   0.00008,   0.00096,  -0.00138,295348873.54566,   0.00000,274640135.82653,   0.00000,   0.00000,   0.00000,-179291262.28087,   0.00000
131994669.18039,266597864.42165,-106860179.75264,   0.00008,   0.00096,  -0.00139,295913519.69451,   0.00000,274640135.82653,   0.00000,   0.00000,   0.00000,-178726616.13202,   0.00000
132758536.62501,266863321.90241,-107212317.22711,   0.00008,   0.00096,  -0.00139,296472461.49443,   0.00000,274640135.82653,   0.00000,   0.00000,   0.00000,-178167674.33210,   0.00000
133503442.82100,267120653.13375,-107564454.70158,   0.00009,   0.00096,  -0.00140,297027644.30176,   0.00000,274640135.82653,   0.00000,   0.00000,   0.00000,-177612491.52477,   0.00000
134248349.01699,267377984.36510,-107916592.17605,   0.00009,   0.00095,  -0.00140,297584484.42938,   0.00000,274640135.82653,   0.00000,   0.00000,   0.00000,-177055651.39715,   0.00000
134993255.21299,267635315.59644,-108268729.65052,   0.00009,   0.00095,  -0.00141,298142972.59116,   0.00000,274640135.82653,   0.00000,   0.00000,   0.00000,-176497163.23536,   0.00000
135738161.40898,267892646.82778,-108626284.62459,   0.00010,   0.00095,  -0.00141,298709009.71636,   0.00000,274640135.82653,   0.00000,   0.00000,   0.00000,-175931126.11017,   0.00000
136474941.35557,268131016.81050,-108978422.09906,   0.00010,   0.00095,  -0.00142,299258043.24800,   0.00000,274640135.82653,   0.00000,   0.00000,   0.00000,-175382092.57853,   0.00000
137192760.05352,268361260.54381,-109330559.57353,   0.00010,   0.00095,  -0.00142,299803120.92489,   0.00000,274640135.82653,   0.00000,   0.00000,   0.00000,-174837014.90164,   0.00000
137921413.75070,268580669.27790,-109688114.54761,   0.00010,   0.00095,  -0.00143,300348654.21185,   0.00000,274640135.82653,   0.00000,   0.00000,   0.00000,-174291481.61468,   0.00000
138639232.44866,268810913.01121,-110040252.02208,   0.00011,   0.00095,  -0.00143,300896952.90818,   0.00000,274640135.82653,   0.00000,   0.00000,   0.00000,-173743182.91835,   0.00000
139348924.89720,269022195.49589,-110397806.99616,   0.00011,   0.00095,  -0.00144,301440107.13951,   0.00000,274640135.82653,   0.00000,   0.00000,   0.00000,-173200028.68702,   0.00000
140058617.34575,269233477.98057,-110755361.97024,   0.00011,   0.00095,  -0.00144,301984873.63550,   0.00000,274640135.82653,   0.00000,   0.00000,   0.00000,-172655262.19103,   0.00000
140760183.54489,269425799.21663,-111107499.44471,   0.00012,   0.00095,  -0.00144,302512635.94140,   0.00000,274640135.82653,   0.00000,   0.00000,   0.00000,-172127499.88513,   0.00000
141442788.49540,269609994.20328,-111465054.41878,   0.00012,   0.00095,  -0.00145,303042236.45402,   0.00000,274640135.82653,   0.00000,   0.00000,   0.00000,-171597899.37251,   0.00000
142144354.69453,269802315.43933,-111822609.39286,   0.00012,   0.00095,  -0.00145,303579180.57571,   0.00000,274640135.82653,   0.00000,   0.00000,   0.00000,-171060955.25082,   0.00000
142826959.64505,269986510.42598,-112185581.86655,   0.00012,   0.00095,  -0.00146,304117934.55884,   0.00000,274640135.82653,   0.00000,   0.00000,   0.00000,-170522201.26769,   0.00000
143509564.59556,270170705.41262,-112543136.84062,   0.00013,   0.00095,  -0.00146,304652257.24275,   0.00000,274640135.82653,   0.00000,   0.00000,   0.00000,-169987878.58378,   0.00000
144184043.29666,270335939.15064,-112900691.81470,   0.00013,   0.00095,  -0.00147,305175569.49960,   0.00000,274640135.82653,   0.00000,   0.00000,   0.00000,-169464566.32693,   0.00000
144858521.99776,270501172.88866,-113263664.28838,   0.00013,   0.00095,  -0.00147,305706474.85832,   0.00000,274640135.82653,   0.00000,   0.00000,   0.00000,-168933660.96821,   0.00000
145514039.45023,270658280.37727,-113621219.26246,   0.00013,   0.00095,  -0.00148,306227048.32464,   0.00000,274640135.82653,   0.00000,   0.00000,   0.00000,-168413087.50189,   0.00000
146188518.15133,270823514.11530,-113984191.73615,   0.00014,   0.00095,  -0.00148,306761076.93972,   0.00000,274640135.82653,   0.00000,   0.00000,   0.00000,-167879058.88681,   0.00000
146835909.35440,270961660.35528,-114347164.20983,   0.00014,   0.00095,  -0.00149,307278254.59747,   0.00000,274640135.82653,   0.00000,   0.00000,   0.00000,-167361881.22906,   0.00000
147483300.55746,271099806.59526,-114710136.68351,   0.00014,   0.00095,  -0.00149,307796980.48552,   0.00000,274640135.82653,   0.00000,   0.00000,   0.00000,-166843155.34101,   0.00000
148130691.76052,271237952.83525,-115073109.15720,   0.00015,   0.00095,  -0.00150,308317246.78945,   0.00000,274640135.82653,   0.00000,   0.00000,   0.00000,-166322889.03708,   0.00000
148759121.71496,271367972.82582,-115436081.63088,   0.00015,   0.00094,  -0.00150,308833059.26785,   0.00000,274640135.82653,   0.00000,   0.00000,   0.00000,-165807076.55868,   0.00000
149398386.66862,271487157.81718,-115799054.10457,   0.00015,   0.00094,  -0.00151,309343941.61554,   0.00000,274640135.82653,   0.00000,   0.00000,   0.00000,-165296194.21099,   0.00000
150018690.37364,271598216.55913,-116162026.57825,   0.00015,   0.00094,  -0.00151,309850349.68482,   0.00000,274640135.82653,   0.00000,   0.00000,   0.00000,-164789786.14171,   0.00000
150638994.07867,271709275.30108,-116530416.55154,   0.00016,   0.00094,  -0.00151,310364364.66434,   0.00000,274640135.82653,   0.00000,   0.00000,   0.00000,-164275771.16219,   0.00000
151259297.78370,271820334.04303,-116898806.52484,   0.00016,   0.00094,  -0.00152,310879895.16113,   0.00000,274640135.82653,   0.00000,   0.00000,   0.00000,-163760240.66540,   0.00000
151860640.24010,271923266.53556,-117261778.99852,   0.00016,   0.00094,  -0.00152,311384729.91932,   0.00000,274640135.82653,   0.00000,   0.00000,   0.00000,-163255405.90721,   0.00000
152472817.69572,272015364.02889,-117630168.97181,   0.00016,   0.00094,  -0.00153,311890909.37512,   0.00000,274640135.82653,   0.00000,   0.00000,   0.00000,-162749226.45141,   0.00000
153066033.90271,272099335.27280,-117998558.94510,   0.00017,   0.00094,  -0.00153,312392497.75274,   0.00000,274640135.82653,   0.00000,   0.00000,   0.00000,-162247638.07379,   0.00000
153659250.10970,272183306.51671,-118372366.41800,   0.00017,   0.00094,  -0.00154,312901719.57518,   0.00000,274640135.82653,   0.00000,   0.00000,   0.00000,-161738416.25135,   0.00000
154252466.31670,272267277.76062,-118740756.39129,   0.00017,   0.00094,  -0.00154,313406280.24528,   0.00000,274640135.82653,   0.00000,   0.00000,   0.00000,-161233855.58125,   0.00000
154818595.02565,272324161.50650,-119114563.86419,   0.00017,   0.00094,  -0.00155,313900048.11027,   0.00000,274640135.82653,   0.00000,   0.00000,   0.00000,-160740087.71626,   0.00000
155411811.23264,272408132.75041,-119482953.83749,   0.00018,   0.00094,  -0.00155,314407552.91043,   0.00000,274640135.82653,   0.00000,   0.00000,   0.00000,-160232582.91610,   0.00000
155977939.94160,272465016.49629,-119856761.31038,   0.00018,   0.00094,  -0.00156,314904272.24626,   0.00000,274640135.82653,   0.00000,   0.00000,   0.00000,-159735863.58027,   0.00000
156544068.65056,272521900.24216,-120230568.78328,   0.00018,   0.00093,  -0.00156,315402462.72158,   0.00000,274640135.82653,   0.00000,   0.00000,   0.00000,-159237673.10495,   0.00000
157083109.86147,272551696.49000,-120604376.25618,   0.00018,   0.00093,  -0.00157,315883695.83929,   0.00000,274640135.82653,   0.00000,   0.00000,   0.00000,-158756439.98724,   0.00000
157649238.57043,272608580.23588,-120978183.72908,   0.00019,   0.00093,  -0.00157,316384810.24421,   0.00000,274640135.82653,   0.00000,   0.00000,   0.00000,-158255325.58232,   0.00000
158188279.78135,272638376.48372,-121357408.70159,   0.00019,   0.00093,  -0.00158,316875184.18742,   0.00000,274640135.82653,   0.00000,   0.00000,   0.00000,-157764951.63911,   0.00000
158727320.99227,272668172.73156,-121731216.17449,   0.00019,   0.00093,  -0.00158,317360793.49310,   0.00000,274640135.82653,   0.00000,   0.00000,   0.00000,-157279342.33343,   0.00000
159266362.20319,272697968.97940,-122110441.14699,   0.00019,   0.00093,  -0.00159,317854089.83796,   0.00000,274640135.82653,   0.00000,   0.00000,   0.00000,-156786045.98857,   0.00000
159805403.41411,272727765.22724,-122489666.11950,   0.00020,   0.00093,  -0.00159,318348842.08996,   0.00000,274640135.82653,   0.00000,   0.00000,   0.00000,-156291293.73657,   0.00000
160325483.37640,272749435.22567,-122868891.09201,   0.00020,   0.00093,  -0.00160,318838710.30215,   0.00000,274640135.82653,   0.00000,   0.00000,   0.00000,-155801425.52438,   0.00000
160837437.08929,272752143.97547,-123248116.06451,   0.00020,   0.00093,  -0.00160,319317947.75020,   0.00000,274640135.82653,   0.00000,   0.00000,   0.00000,-155322188.07633,   0.00000
161349390.80217,272754852.72527,-123632758.53662,   0.00020,   0.00093,  -0.00161,319804914.31806,   0.00000,274640135.82653,   0.00000,   0.00000,   0.00000,-154835221.50846,   0.00000
161842383.26643,272749435.22567,-124011983.50913,   0.00020,   0.00093,  -0.00161,320280672.17269,   0.00000,274640135.82653,   0.00000,   0.00000,   0.00000,-154359463.65384,   0.00000
162354336.97931,272752143.97547,-124396625.98124,   0.00021,   0.00092,  -0.00162,320770526.93621,   0.00000,274640135.82653,   0.00000,   0.00000,   0.00000,-153869608.89031,   0.00000
162847329.44357,272746726.47586,-124781268.45336,   0.00021,   0.00092,  -0.00162,321255425.41663,   0.00000,274640135.82653,   0.00000,   0.00000,   0.00000,-153384710.40990,   0.00000
163332195.65842,272722347.72763,-125165910.92547,   0.00021,   0.00092,  -0.00163,321729795.01844,   0.00000,274640135.82653,   0.00000,   0.00000,   0.00000,-152910340.80809,   0.00000
163825188.12267,272716930.22802,-125550553.39758,   0.00021,   0.00092,  -0.00163,322217532.53493,   0.00000,274640135.82653,   0.00000,   0.00000,   0.00000,-152422603.29160,   0.00000
164291093.08890,272684425.23038,-125940613.36931,   0.00022,   0.00092,  -0.00164,322694671.52350,   0.00000,274640135.82653,   0.00000,   0.00000,   0.00000,-151945464.30303,   0.00000
164756998.05512,272651920.23274,-126325255.84142,   0.00022,   0.00092,  -0.00164,323166887.09307,   0.00000,274640135.82653,   0.00000,   0.00000,   0.00000,-151473248.73346,   0.00000
165222903.02134,272619415.23509,-126715315.81314,   0.00022,   0.00092,  -0.00165,323646869.01880,   0.00000,274640135.82653,   0.00000,   0.00000,   0.00000,-150993266.80773,   0.00000
165680681.73815,272567948.98882,-127105375.78486,   0.00022,   0.00092,  -0.00165,324116431.50107,   0.00000,274640135.82653,   0.00000,   0.00000,   0.00000,-150523704.32546,   0.00000
166146586.70437,272535443.99118,-127495435.75658,   0.00022,   0.00092,  -0.00166,324599262.39314,   0.00000,274640135.82653,   0.00000,   0.00000,   0.00000,-150040873.43339,   0.00000
166585404.17256,272475851.49550,-127890913.22791,   0.00023,   0.00091,  -0.00166,325071597.86991,   0.00000,274640135.82653,   0.00000,   0.00000,   0.00000,-149568537.95662,   0.00000
167032347.89015,272435220.24845,-128280973.19963,   0.00023,   0.00091,  -0.00167,325550739.88947,   0.00000,274640135.82653,   0.00000,   0.00000,   0.00000,-149089395.93706,   0.00000
167471165.35834,272375627.75277,-128676450.67096,   0.00023,   0.00091,  -0.00167,326025914.45628,   0.00000,274640135.82653,   0.00000,   0.00000,   0.00000,-148614221.37025,   0.00000
167891021.57790,272307909.00768,-129071928.14229,   0.00023,   0.00091,  -0.00168,326495983.60572,   0.00000,274640135.82653,   0.00000,   0.00000,   0.00000,-148144152.22081,   0.00000
168310877.79746,272240190.26259,-129467405.61361,   0.00023,   0.00091,  -0.00168,326967452.10078,   0.00000,274640135.82653,   0.00000,   0.00000,   0.00000,-147672683.72575,   0.00000
168722607.76761,272153510.26887,-129868300.58455,   0.00024,   0.00091,  -0.00169,327435074.55380,   0.00000,274640135.82653,   0.00000,   0.00000,   0.00000,-147205061.27273,   0.00000
169142463.98717,272085791.52378,-130263778.05588,   0.00024,   0.00091,  -0.00169,327909355.61327,   0.00000,274640135.82653,   0.00000,   0.00000,   0.00000,-146730780.21325,   0.00000
169554193.95732,271999111.53006,-130664673.02681,   0.00024,   0.00091,  -0.00170,328379843.44458,   0.00000,274640135.82653,   0.00000,   0.00000,   0.00000,-146260292.38195,   0.00000
169946962.67885,271904305.28694,-131065567.99775,   0.00024,   0.00091,  -0.00170,328845191.35641,   0.00000,274640135.82653,   0.00000,   0.00000,   0.00000,-145794944.47012,   0.00000
170347857.64978,271828460.29244,-131466462.96868,   0.00025,   0.00090,  -0.00171,329323550.97724,   0.00000,274640135.82653,   0.00000,   0.00000,   0.00000,-145316584.84929,   0.00000
170740626.37130,271733654.04931,-131867357.93962,   0.00025,   0.00090,  -0.00171,329791701.24192,   0.00000,274640135.82653,   0.00000,   0.00000,   0.00000,-144848434.58461,   0.00000
171106307.59479,271611760.30815,-132273670.41016,   0.00025,   0.00090,  -0.00172,330249607.23987,   0.00000,274640135.82653,   0.00000,   0.00000,   0.00000,-144390528.58666,   0.00000
171480115.06769,271508827.81561,-132679982.88070,   0.00025,   0.00090,  -0.00172,330720489.20711,   0.00000,274640135.82653,   0.00000,   0.00000,   0.00000,-143919646.61942,   0.00000
171853922.54059,271405895.32307,-133086295.35124,   0.00025,   0.00090,  -0.00173,331192767.17306,   0.00000,274640135.82653,   0.00000,   0.00000,   0.00000,-143447368.65347,   0.00000
172219603.76408,271284001.58191,-133492607.82179,   0.00025,   0.00090,  -0.00174,331654952.02720,   0.00000,274640135.82653,   0.00000,   0.00000,   0.00000,-142985183.79933,   0.00000
172593411.23698,271181069.08937,-133898920.29233,   0.00026,   0.00090,  -0.00174,332130026.68262,   0.00000,274640135.82653,   0.00000,   0.00000,   0.00000,-142510109.14391,   0.00000
172940131.21184,271051049.09880,-134310650.26248,   0.00026,   0.00090,  -0.00175,332594961.66759,   0.00000,274640135.82653,   0.00000,   0.00000,   0.00000,-142045174.15894,   0.00000
173286851.18670,270921029.10823,-134722380.23263,   0.00026,   0.00089,  -0.00175,333061321.62031,   0.00000,274640135.82653,   0.00000,   0.00000,   0.00000,-141578814.20621,   0.00000
173633571.16157,270791009.11765,-135134110.20278,   0.00026,   0.00089,  -0.00176,333529100.56339,   0.00000,274640135.82653,   0.00000,   0.00000,   0.00000,-141111035.26314,   0.00000
173961329.88780,270652862.87767,-135545840.17293,   0.00026,   0.00089,  -0.00176,333991629.95594,   0.00000,274640135.82653,   0.00000,   0.00000,   0.00000,-140648505.87059,   0.00000
174289088.61404,270514716.63768,-135962987.64268,   0.00027,   0.00089,  -0.00177,334462160.69114,   0.00000,274640135.82653,   0.00000,   0.00000,   0.00000,-140177975.13539,   0.00000
174616847.34028,270376570.39770,-136374717.61283,   0.00027,   0.00089,  -0.00177,334927484.22531,   0.00000,274640135.82653,   0.00000,   0.00000,   0.00000,-139712651.60122,   0.00000
174936479.81711,270219462.90909,-136791865.08259,   0.00027,   0.00089,  -0.00178,335389522.11513,   0.00000,274640135.82653,   0.00000,   0.00000,   0.00000,-139250613.71140,   0.00000
175264238.54334,270081316.66910,-137209012.55235,   0.00027,   0.00089,  -0.00178,335864279.12458,   0.00000,274640135.82653,   0.00000,   0.00000,   0.00000,-138775856.70195,   0.00000
175564909.77154,269916082.93108,-137631577.52171,   0.00027,   0.00089,  -0.00179,336329139.40902,   0.00000,274640135.82653,   0.00000,   0.00000,   0.00000,-138310996.41751,   0.00000
175873707.24916,269769810.44169,-138048724.99147,   0.00027,   0.00088,  -0.00179,336800009.31760,   0.00000,274640135.82653,   0.00000,   0.00000,   0.00000,-137840126.50893,   0.00000
176155417.22873,269596450.45426,-138471289.96083,   0.00028,   0.00088,  -0.00180,337261021.07071,   0.00000,274640135.82653,   0.00000,   0.00000,   0.00000,-137379114.75582,   0.00000
176456088.45693,269431216.71624,-138893854.93020,   0.00028,   0.00088,  -0.00181,337730161.36686,   0.00000,274640135.82653,   0.00000,   0.00000,   0.00000,-136909974.45967,   0.00000
176737798.43651,269257856.72881,-139321837.39917,   0.00028,   0.00088,  -0.00181,338200717.21573,   0.00000,274640135.82653,   0.00000,   0.00000,   0.00000,-136439418.61080,   0.00000
177019508.41609,269084496.74137,-139744402.36853,   0.00028,   0.00088,  -0.00182,338666002.70901,   0.00000,274640135.82653,   0.00000,   0.00000,   0.00000,-135974133.11752,   0.00000
177301218.39566,268911136.75394,-140172384.83750,   0.00028,   0.00088,  -0.00182,339139413.42956,   0.00000,274640135.82653,   0.00000,   0.00000,   0.00000,-135500722.39697,   0.00000
177563967.12661,268729650.51710,-140600367.30647,   0.00028,   0.00088,  -0.00183,339607530.12642,   0.00000,274640135.82653,   0.00000,   0.00000,   0.00000,-135032605.70011,   0.00000
177826715.85756,268548164.28026,-141028349.77544,   0.00029,   0.00088,  -0.00183,340077058.36854,   0.00000,274640135.82653,   0.00000,   0.00000,   0.00000,-134563077.45798,   0.00000
178081338.33910,268347716.79479,-141456332.24442,   0.00029,   0.00087,  -0.00184,340536960.43556,   0.00000,274640135.82653,   0.00000,   0.00000,   0.00000,-134103175.39097,   0.00000
178344087.07005,268166230.55795,-141889732.21299,   0.00029,   0.00087,  -0.00184,341016080.78661,   0.00000,274640135.82653,   0.00000,   0.00000,   0.00000,-133624055.03992,   0.00000
178598709.55159,267965783.07248,-142323132.18157,   0.00029,   0.00087,  -0.00185,341485634.76717,   0.00000,274640135.82653,   0.00000,   0.00000,   0.00000,-133154501.05936,   0.00000
178842497.03392,267776170.58623,-142756532.15015,   0.00029,   0.00087,  -0.00186,341960874.51628,   0.00000,274640135.82653,   0.00000,   0.00000,   0.00000,-132679261.31025,   0.00000
179078158.26683,267567596.85135,-143195349.61834,   0.00029,   0.00087,  -0.00186,342433376.95671,   0.00000,274640135.82653,   0.00000,   0.00000,   0.00000,-132206758.86982,   0.00000
179302984.50053,267369858.11569,-143628749.58692,   0.00029,   0.00087,  -0.00187,342904711.07536,   0.00000,274640135.82653,   0.00000,   0.00000,   0.00000,-131735424.75117,   0.00000
179538645.73345,267161284.38081,-144067567.05510,   0.00030,   0.00087,  -0.00187,343380100.79967,   0.00000,274640135.82653,   0.00000,   0.00000,   0.00000,-131260035.02686,   0.00000
179755345.71774,266944584.39652,-144506384.52329,   0.00030,   0.00086,  -0.00188,343850207.06848,   0.00000,274640135.82653,   0.00000,   0.00000,   0.00000,-130789928.75805,   0.00000
179972045.70203,266727884.41223,-144945201.99147,   0.00030,   0.00086,  -0.00188,344321758.38131,   0.00000,274640135.82653,   0.00000,   0.00000,   0.00000,-130318377.44522,   0.00000
180188745.68632,266511184.42794,-145389436.95927,   0.00030,   0.00086,  -0.00189,344801601.79695,   0.00000,274640135.82653,   0.00000,   0.00000,   0.00000,-129838534.02958,   0.00000
180386484.42198,266286358.19424,-145833671.92706,   0.00030,   0.00086,  -0.00190,345276161.82046,   0.00000,274640135.82653,   0.00000,   0.00000,   0.00000,-129363974.00607,   0.00000
180584223.15764,266061531.96054,-146277906.89485,   0.00030,   0.00086,  -0.00190,345752170.66279,   0.00000,274640135.82653,   0.00000,   0.00000,   0.00000,-128887965.16374,   0.00000
180781961.89331,265836705.72684,-146722141.86264,   0.00030,   0.00086,  -0.00191,346229622.34827,   0.00000,274640135.82653,   0.00000,   0.00000,   0.00000,-128410513.47826,   0.00000
180979700.62897,265611879.49314,-147171794.33004,   0.00031,   0.00086,  -0.00191,346715409.62645,   0.00000,274640135.82653,   0.00000,   0.00000,   0.00000,-127924726.20008,   0.00000
181177439.36464,265387053.25944,-147616029.29784,   0.00031,   0.00085,  -0.00192,347195740.38194,   0.00000,274640135.82653,   0.00000,   0.00000,   0.00000,-127444395.44459,   0.00000
181356216.85167,265154100.77633,-148065681.76524,   0.00031,   0.00085,  -0.00192,347677678.74796,   0.00000,274640135.82653,   0.00000,   0.00000,   0.00000,-126962457.07857,   0.00000
181526868.08930,264902187.04459,-148520751.73225,   0.00031,   0.00085,  -0.00193,348157362.78361,   0.00000,274640135.82653,   0.00000,   0.00000,   0.00000,-126482773.04292,   0.00000
181705645.57634,264669234.56148,-148970404.19965,   0.00031,   0.00085,  -0.00194,348642216.61999,   0.00000,274640135.82653,   0.00000,   0.00000,   0.00000,-125997919.20654,   0.00000
181865461.81475,264428155.82896,-149425474.16665,   0.00031,   0.00085,  -0.00194,349128721.40419,   0.00000,274640135.82653,   0.00000,   0.00000,   0.00000,-125511414.42233,   0.00000
182017151.80376,264168115.84781,-149880544.13366,   0.00031,   0.00085,  -0.00195,349606123.32560,   0.00000,274640135.82653,   0.00000,   0.00000,   0.00000,-125034012.50093,   0.00000
182176968.04217,263927037.11529,-150335614.10067,   0.00031,   0.00085,  -0.00195,350095546.67341,   0.00000,274640135.82653,   0.00000,   0.00000,   0.00000,-124544589.15312,   0.00000
182336784.28058,263685958.38277,-150796101.56728,   0.00032,   0.00084,  -0.00196,350593397.80184,   0.00000,274640135.82653,   0.00000,   0.00000,   0.00000,-124046738.02469,   0.00000
182488474.26959,263425918.40162,-151256589.03390,   0.00032,   0.00084,  -0.00197,351082228.22198,   0.00000,274640135.82653,   0.00000,   0.00000,   0.00000,-123557907.60455,   0.00000
182629329.25937,263176713.41969,-151711659.00090,   0.00032,   0.00084,  -0.00197,351569267.96012,   0.00000,274640135.82653,   0.00000,   0.00000,   0.00000,-123070867.86641,   0.00000
182762057.99975,262908547.18913,-152177563.96713,   0.00032,   0.00084,  -0.00198,352061358.01065,   0.00000,274640135.82653,   0.00000,   0.00000,   0.00000,-122578777.81588,   0.00000
182902912.98954,262659342.20720,-152638051.43374,   0.00032,   0.00084,  -0.00198,352558322.90790,   0.00000,274640135.82653,   0.00000,   0.00000,   0.00000,-122081812.91863,   0.00000
183035641.72992,262391175.97664,-153103956.39996,   0.00032,   0.00084,  -0.00199,353053398.92246,   0.00000,274640135.82653,   0.00000,   0.00000,   0.00000,-121586736.90407,   0.00000
183149409.22167,262114883.49667,-153569861.36618,   0.00032,   0.00084,  -0.00200,353543263.47448,   0.00000,274640135.82653,   0.00000,   0.00000,   0.00000,-121096872.35205,   0.00000
183271302.96283,261857552.26533,-154035766.33241,   0.00032,   0.00083,  -0.00200,354044948.13878,   0.00000,274640135.82653,   0.00000,   0.00000,   0.00000,-120595187.68775,   0.00000
183385070.45458,261581259.78536,-154507088.79824,   0.00032,   0.00083,  -0.00201,354544867.75006,   0.00000,274640135.82653,   0.00000,   0.00000,   0.00000,-120095268.07647,   0.00000
183506964.19575,261323928.55402,-154972993.76446,   0.00033,   0.00083,  -0.00201,355049471.38609,   0.00000,274640135.82653,   0.00000,   0.00000,   0.00000,-119590664.44043,   0.00000
183601770.43887,261039509.82464,-155444316.23029,   0.00033,   0.00083,  -0.00202,355545673.55599,   0.00000,274640135.82653,   0.00000,   0.00000,   0.00000,-119094462.27054,   0.00000
183723664.18003,260782178.59329,-155915638.69612,   0.00033,   0.00083,  -0.00203,356060291.54856,   0.00000,274640135.82653,   0.00000,   0.00000,   0.00000,-118579844.27797,   0.00000
183818470.42316,260497759.86391,-156392378.66155,   0.00033,   0.00083,  -0.00203,356566601.78182,   0.00000,274640135.82653,   0.00000,   0.00000,   0.00000,-118073534.04471,   0.00000
183913276.66629,260213341.13453,-156869118.62699,   0.00033,   0.00083,  -0.00204,357074430.86087,   0.00000,274640135.82653,   0.00000,   0.00000,   0.00000,-117565704.96565,   0.00000
183997247.91020,259939757.40437,-157340441.09282,   0.00033,   0.00082,  -0.00205,357580072.07193,   0.00000,274640135.82653,   0.00000,   0.00000,   0.00000,-117060063.75460,   0.00000
184092054.15333,259655338.67499,-157822598.55786,   0.00033,   0.00082,  -0.00205,358098048.70025,   0.00000,274640135.82653,   0.00000,   0.00000,   0.00000,-116542087.12628,   0.00000
184167899.14783,259362793.69620,-158299338.52330,   0.00033,   0.00082,  -0.00206,358603701.49933,   0.00000,274640135.82653,   0.00000,   0.00000,   0.00000,-116036434.32720,   0.00000
184251870.39174,259089209.96603,-158781495.98834,   0.00033,   0.00082,  -0.00206,359128095.99641,   0.00000,274640135.82653,   0.00000,   0.00000,   0.00000,-115512039.83012,   0.00000
184308754.13762,258788538.73783,-159263653.45338,   0.00033,   0.00082,  -0.00207,359637269.21430,   0.00000,274640135.82653,   0.00000,   0.00000,   0.00000,-115002866.61223,   0.00000
184392725.38153,258514955.00767,-159745810.91843,   0.00033,   0.00082,  -0.00208,360164621.17823,   0.00000,274640135.82653,   0.00000,   0.00000,   0.00000,-114475514.64830,   0.00000
184449609.12740,258214283.77946,-160227968.38347,   0.00034,   0.00082,  -0.00208,360676803.38170,   0.00000,274640135.82653,   0.00000,   0.00000,   0.00000,-113963332.44483,   0.00000
184514619.12269,257932573.79989,-160715543.34812,   0.00034,   0.00081,  -0.00209,361207674.75796,   0.00000,274640135.82653,   0.00000,   0.00000,   0.00000,-113432461.06857,   0.00000
184571502.86857,257631902.57169,-161203118.31277,   0.00034,   0.00081,  -0.00210,361730100.36574,   0.00000,274640135.82653,   0.00000,   0.00000,   0.00000,-112910035.46079,   0.00000
184636512.86385,257350192.59211,-161690693.27742,   0.00034,   0.00081,  -0.00210,362263940.02478,   0.00000,274640135.82653,   0.00000,   0.00000,   0.00000,-112376195.80175,   0.00000
184674435.36110,257041395.11450,-162178268.24208,   0.00034,   0.00081,  -0.00211,362782749.64660,   0.00000,274640135.82653,   0.00000,   0.00000,   0.00000,-111857386.17993,   0.00000
184739445.35639,256759685.13492,-162671260.70633,   0.00034,   0.00081,  -0.00211,363326814.23042,   0.00000,274640135.82653,   0.00000,   0.00000,   0.00000,-111313321.59611,   0.00000
184777367.85364,256450887.65731,-163164253.17059,   0.00034,   0.00081,  -0.00212,363855924.76177,   0.00000,274640135.82653,   0.00000,   0.00000,   0.00000,-110784211.06476,   0.00000
184804455.35168,256152925.17891,-163657245.63485,   0.00034,   0.00081,  -0.00213,364389747.54715,   0.00000,274640135.82653,   0.00000,   0.00000,   0.00000,-110250388.27938,   0.00000
184842377.84893,255844127.70130,-164150238.09911,   0.00034,   0.00080,  -0.00213,364921892.20308,   0.00000,274640135.82653,   0.00000,   0.00000,   0.00000,-109718243.62345,   0.00000
184869465.34696,255546165.22290,-164648648.06297,   0.00034,   0.00080,  -0.00214,365466018.62345,   0.00000,274640135.82653,   0.00000,   0.00000,   0.00000,-109174117.20308,   0.00000
184915514.09363,255256328.99392,-165147058.02684,   0.00034,   0.00080,  -0.00215,366018220.67645,   0.00000,274640135.82653,   0.00000,   0.00000,   0.00000,-108621915.15007,   0.00000
184934475.34225,254939405.26689,-165645467.99070,   0.00034,   0.00080,  -0.00215,366555641.84504,   0.00000,274640135.82653,   0.00000,   0.00000,   0.00000,-108084493.98149,   0.00000
184961562.84029,254641442.78850,-166143877.95457,   0.00035,   0.00080,  -0.00216,367104248.73190,   0.00000,274640135.82653,   0.00000,   0.00000,   0.00000,-107535887.09463,   0.00000
184969689.08970,254335354.06069,-166647705.41804,   0.00035,   0.00080,  -0.00217,367655137.33020,   0.00000,274640135.82653,   0.00000,   0.00000,   0.00000,-106984998.49633,   0.00000
184996776.58773,254037391.58229,-167146115.38191,   0.00035,   0.00080,  -0.00217,368206703.84458,   0.00000,274640135.82653,   0.00000,   0.00000,   0.00000,-106433431.98195,   0.00000
185004902.83714,253731302.85448,-167649942.84538,   0.00035,   0.00079,  -0.00218,368760576.93150,   0.00000,274640135.82653,   0.00000,   0.00000,   0.00000,-105879558.89503,   0.00000
185013029.08656,253425214.12667,-168159187.80846,   0.00035,   0.00079,  -0.00219,369323341.94801,   0.00000,274640135.82653,   0.00000,   0.00000,   0.00000,-105316793.87852,   0.00000
185021155.33597,253119125.39886,-168663015.27193,   0.00035,   0.00079,  -0.00219,369880203.18405,   0.00000,274640135.82653,   0.00000,   0.00000,   0.00000,-104759932.64248,   0.00000
185029281.58538,252813036.67105,-169172260.23501,   0.00035,   0.00079,  -0.00220,370445964.88995,   0.00000,274640135.82653,   0.00000,   0.00000,   0.00000,-104194170.93658,   0.00000
185018446.58616,252498821.69384,-169681505.19809,   0.00035,   0.00079,  -0.00221,371006712.06620,   0.00000,274640135.82653,   0.00000,   0.00000,   0.00000,-103633423.76033,   0.00000
185026572.83557,252192732.96603,-170190750.16117,   0.00035,   0.00079,  -0.00221,371575462.67572,   0.00000,274640135.82653,   0.00000,   0.00000,   0.00000,-103064673.15081,   0.00000
185015737.83636,251878517.98881,-170699995.12425,   0.00035,   0.00079,  -0.00222,372139202.75456,   0.00000,274640135.82653,   0.00000,   0.00000,   0.00000,-102500933.07197,   0.00000
185004902.83714,251564303.01159,-171214657.58694,   0.00035,   0.00078,  -0.00223,372711899.60259,   0.00000,274640135.82653,   0.00000,   0.00000,   0.00000,-101928236.22394,   0.00000
184975106.58930,251241961.78496,-171729320.04962,   0.00035,   0.00078,  -0.00223,373279630.91029,   0.00000,274640135.82653,   0.00000,   0.00000,   0.00000,-101360504.91624,   0.00000
184972397.83950,250946708.05636,-172243982.51231,   0.00035,   0.00078,  -0.00224,373864671.32214,   0.00000,274640135.82653,   0.00000,   0.00000,   0.00000,-100775464.50439,   0.00000
184961562.84029,250632493.07914,-172758644.97500,   0.00035,   0.00078,  -0.00225,374441847.20422,   0.00000,274640135.82653,   0.00000,   0.00000,   0.00000,-100198288.62231,   0.00000
184939892.84186,250329113.10114,-173278724.93729,   0.00035,   0.00078,  -0.00225,375030850.76553,   0.00000,274640135.82653,   0.00000,   0.00000,   0.00000,-99609285.06100,   0.00000
184910096.59402,250006771.87451,-173793387.39998,   0.00035,   0.00078,  -0.00226,375604550.00030,   0.00000,274640135.82653,   0.00000,   0.00000,   0.00000,-99035585.82623,   0.00000
184888426.59559,249703391.89650,-174313467.36227,   0.00035,   0.00078,  -0.00227,376196493.44706,   0.00000,274640135.82653,   0.00000,   0.00000,   0.00000,-98443642.37947,   0.00000
184866756.59716,249400011.91850,-174833547.32457,   0.00035,   0.00077,  -0.00227,376789888.60015,   0.00000,274640135.82653,   0.00000,   0.00000,   0.00000,-97850247.22638,   0.00000
184817999.10070,249069544.44246,-175359044.78647,   0.00036,   0.00077,  -0.00228,377376707.92571,   0.00000,274640135.82653,   0.00000,   0.00000,   0.00000,-97263427.90082,   0.00000
184796329.10227,248766164.46445,-175879124.74876,   0.00036,   0.00077,  -0.00229,377973032.63767,   0.00000,274640135.82653,   0.00000,   0.00000,   0.00000,-96667103.18886,   0.00000
184755697.85521,248454658.23704,-176404622.21066,   0.00036,   0.00077,  -0.00229,378571979.32962,   0.00000,274640135.82653,   0.00000,   0.00000,   0.00000,-96068156.49691,   0.00000
184715066.60816,248143152.00962,-176930119.67257,   0.00036,   0.00077,  -0.00230,379172391.67898,   0.00000,274640135.82653,   0.00000,   0.00000,   0.00000,-95467744.14755,   0.00000
184674435.36110,247831645.78221,-177461034.63407,   0.00036,   0.00077,  -0.00231,379781857.01506,   0.00000,274640135.82653,   0.00000,   0.00000,   0.00000,-94858278.81147,   0.00000
184633804.11405,247520139.55479,-177986532.09598,   0.00036,   0.00077,  -0.00231,380385190.25938,   0.00000,274640135.82653,   0.00000,   0.00000,   0.00000,-94254945.56715,   0.00000
184601299.11641,247227594.57600,-178517447.05748,   0.00036,   0.00076,  -0.00232,381006594.07799,   0.00000,274640135.82653,   0.00000,   0.00000,   0.00000,-93633541.74854,   0.00000
184541706.62073,246907962.09917,-179042944.51939,   0.00036,   0.00076,  -0.00233,381606465.44961,   0.00000,274640135.82653,   0.00000,   0.00000,   0.00000,-93033670.37692,   0.00000
184482114.12505,246588329.62235,-179579276.98050,   0.00036,   0.00076,  -0.00233,382223061.22631,   0.00000,274640135.82653,   0.00000,   0.00000,   0.00000,-92417074.60022,   0.00000
184449609.12740,246295784.64356,-180110191.94201,   0.00036,   0.00076,  -0.00234,382848735.60895,   0.00000,274640135.82653,   0.00000,   0.00000,   0.00000,-91791400.21758,   0.00000
184390016.63172,245976152.16673,-180641106.90352,   0.00036,   0.00076,  -0.00235,383460594.31075,   0.00000,274640135.82653,   0.00000,   0.00000,   0.00000,-91179541.51578,   0.00000
184338550.38546,245675480.93853,-181177439.36464,   0.00036,   0.00076,  -0.00236,384090451.16393,   0.00000,274640135.82653,   0.00000,   0.00000,   0.00000,-90549684.66260,   0.00000
184268122.89056,245366683.46092,-181713771.82575,   0.00036,   0.00076,  -0.00236,384715449.25882,   0.00000,274640135.82653,   0.00000,   0.00000,   0.00000,-89924686.56771,   0.00000
184216656.64429,245066012.23271,-182250104.28687,   0.00036,   0.00076,  -0.00237,385348137.46002,   0.00000,274640135.82653,   0.00000,   0.00000,   0.00000,-89291998.36651,   0.00000
184146229.14940,244757214.75510,-182786436.74798,   0.00036,   0.00075,  -0.00238,385975976.07549,   0.00000,274640135.82653,   0.00000,   0.00000,   0.00000,-88664159.75104,   0.00000
184094762.90313,244456543.52690,-183328186.70871,   0.00036,   0.00075,  -0.00238,386619174.51994,   0.00000,274640135.82653,   0.00000,   0.00000,   0.00000,-88020961.30659,   0.00000
184024335.40824,244147746.04929,-183864519.16982,   0.00036,   0.00075,  -0.00239,387249835.95077,   0.00000,274640135.82653,   0.00000,   0.00000,   0.00000,-87390299.87576,   0.00000
183953907.91334,243838948.57168,-184406269.13055,   0.00036,   0.00075,  -0.00240,387889625.88581,   0.00000,274640135.82653,   0.00000,   0.00000,   0.00000,-86750509.94072,   0.00000
183883480.41845,243530151.09406,-184948019.09127,   0.00036,   0.00075,  -0.00240,388530830.68149,   0.00000,274640135.82653,   0.00000,   0.00000,   0.00000,-86109305.14504,   0.00000
183821179.17296,243240314.86508,-185489769.05199,   0.00036,   0.00075,  -0.00241,389182114.76914,   0.00000,274640135.82653,   0.00000,   0.00000,   0.00000,-85458021.05739,   0.00000
183731790.42945,242923391.13805,-186036936.51232,   0.00036,   0.00075,  -0.00242,389827680.42573,   0.00000,274640135.82653,   0.00000,   0.00000,   0.00000,-84812455.40080,   0.00000
183669489.18396,242633554.90907,-186578686.47305,   0.00036,   0.00075,  -0.00243,390481703.63526,   0.00000,274640135.82653,   0.00000,   0.00000,   0.00000,-84158432.19127,   0.00000
183588226.68985,242335592.43067,-187125853.93338,   0.00036,   0.00074,  -0.00243,391138684.21642,   0.00000,274640135.82653,   0.00000,   0.00000,   0.00000,-83501451.61011,   0.00000
183525925.44437,242045756.20168,-187673021.39371,   0.00036,   0.00074,  -0.00244,391803178.74641,   0.00000,274640135.82653,   0.00000,   0.00000,   0.00000,-82836957.08012,   0.00000
183444662.95026,241747793.72328,-188220188.85404,   0.00036,   0.00074,  -0.00245,392462884.96267,   0.00000,274640135.82653,   0.00000,   0.00000,   0.00000,-82177250.86386,   0.00000
183363400.45615,241449831.24489,-188767356.31437,   0.00036,   0.00074,  -0.00245,393123949.87859,   0.00000,274640135.82653,   0.00000,   0.00000,   0.00000,-81516185.94794,   0.00000
183282137.96204,241151868.76649,-189319941.27430,   0.00036,   0.00074,  -0.00246,393794180.14587,   0.00000,274640135.82653,   0.00000,   0.00000,   0.00000,-80845955.68065,   0.00000
183209001.71735,240872867.53672,-189867108.73463,   0.00036,   0.00074,  -0.00247,394466419.30737,   0.00000,274640135.82653,   0.00000,   0.00000,   0.00000,-80173716.51916,   0.00000
183108777.97461,240566778.80891,-190419693.69457,   0.00036,   0.00074,  -0.00248,395133255.98976,   0.00000,274640135.82653,   0.00000,   0.00000,   0.00000,-79506879.83677,   0.00000
183035641.72992,240287777.57914,-190972278.65451,   0.00036,   0.00074,  -0.00248,395815952.52319,   0.00000,274640135.82653,   0.00000,   0.00000,   0.00000,-78824183.30334,   0.00000
182935417.98718,239981688.85133,-191524863.61445,   0.00036,   0.00074,  -0.00249,396485494.97603,   0.00000,274640135.82653,   0.00000,   0.00000,   0.00000,-78154640.85050,   0.00000
182862281.74248,239702687.62156,-192077448.57438,   0.00036,   0.00073,  -0.00250,397170808.20639,   0.00000,274640135.82653,   0.00000,   0.00000,   0.00000,-77469327.62014,   0.00000
182770184.24916,239415560.14237,-192635451.03393,   0.00036,   0.00073,  -0.00250,397859240.98173,   0.00000,274640135.82653,   0.00000,   0.00000,   0.00000,-76780894.84480,   0.00000
182678086.75584,239128432.66319,-193188035.99387,   0.00036,   0.00073,  -0.00251,398541111.89988,   0.00000,274640135.82653,   0.00000,   0.00000,   0.00000,-76099023.92664,   0.00000
182585989.26252,238841305.18401,-193746038.45341,   0.00037,   0.00073,  -0.00252,399232161.53308,   0.00000,274640135.82653,   0.00000,   0.00000,   0.00000,-75407974.29345,   0.00000
182502018.01860,238573138.95345,-194304040.91296,   0.00037,   0.00073,  -0.00253,399932782.91763,   0.00000,274640135.82653,   0.00000,   0.00000,   0.00000,-74707352.90890,   0.00000
182409920.52528,238286011.47426,-194862043.37250,   0.00037,   0.00073,  -0.00253,400626406.76441,   0.00000,274640135.82653,   0.00000,   0.00000,   0.00000,-74013729.06212,   0.00000
182325949.28137,238017845.24371,-195420045.83205,   0.00037,   0.00073,  -0.00254,401329540.14730,   0.00000,274640135.82653,   0.00000,   0.00000,   0.00000,-73310595.67923,   0.00000
182223016.78883,237741552.76374,-195978048.29159,   0.00037,   0.00073,  -0.00255,402027955.53793,   0.00000,274640135.82653,   0.00000,   0.00000,   0.00000,-72612180.28860,   0.00000
182139045.54492,237473386.53318,-196536050.75114,   0.00037,   0.00073,  -0.00255,402733563.28054,   0.00000,274640135.82653,   0.00000,   0.00000,   0.00000,-71906572.54599,   0.00000
182036113.05238,237197094.05321,-197099470.71029,   0.00037,   0.00072,  -0.00256,403442405.94733,   0.00000,274640135.82653,   0.00000,   0.00000,   0.00000,-71197729.87920,   0.00000
181952141.80847,236928927.82265,-197657473.16983,   0.00037,   0.00072,  -0.00257,404150470.70839,   0.00000,274640135.82653,   0.00000,   0.00000,   0.00000,-70489665.11814,   0.00000
181849209.31593,236652635.34268,-198220893.12899,   0.00037,   0.00072,  -0.00258,404861800.54733,   0.00000,274640135.82653,   0.00000,   0.00000,   0.00000,-69778335.27920,   0.00000
181746276.82339,236376342.86272,-198784313.08814,   0.00037,   0.00072,  -0.00258,405574375.11467,   0.00000,274640135.82653,   0.00000,   0.00000,   0.00000,-69065760.71186,   0.00000
181651470.58027,236119011.63137,-199347733.04729,   0.00037,   0.00072,  -0.00259,406296240.12072,   0.00000,274640135.82653,   0.00000,   0.00000,   0.00000,-68343895.70581,   0.00000
181556664.33714,235861680.40003,-199911153.00644,   0.00037,   0.00072,  -0.00260,407019289.46558,   0.00000,274640135.82653,   0.00000,   0.00000,   0.00000,-67620846.36095,   0.00000
181461858.09402,235604349.16868,-200474572.96559,   0.00037,   0.00072,  -0.00261,407743516.84872,   0.00000,274640135.82653,   0.00000,   0.00000,   0.00000,-66896618.97781,   0.00000
181367051.85089,235347017.93734,-201043410.42435,   0.00037,   0.00072,  -0.00261,408476915.09931,   0.00000,274640135.82653,   0.00000,   0.00000,   0.00000,-66163220.72722,   0.00000
181272245.60776,235089686.70600,-201606830.38350,   0.00037,   0.00072,  -0.00262,409203487.96978,   0.00000,274640135.82653,   0.00000,   0.00000,   0.00000,-65436647.85675,   0.00000
181158478.11601,234824229.22524,-202175667.84226,   0.00037,   0.00072,  -0.00263,409933427.32171,   0.00000,274640135.82653,   0.00000,   0.00000,   0.00000,-64706708.50482,   0.00000
181071798.12229,234585859.24253,-202739087.80142,   0.00037,   0.00071,  -0.00264,410670246.36847,   0.00000,274640135.82653,   0.00000,   0.00000,   0.00000,-63969889.45806,   0.00000
180958030.63054,234320401.76177,-203307925.26018,   0.00037,   0.00071,  -0.00264,411402526.13822,   0.00000,274640135.82653,   0.00000,   0.00000,   0.00000,-63237609.68831,   0.00000
180871350.63683,234082031.77905,-203876762.71893,   0.00037,   0.00071,  -0.00265,412149624.48796,   0.00000,274640135.82653,   0.00000,   0.00000,   0.00000,-62490511.33857,   0.00000
180765709.39449,233835535.54692,-204445600.17769,   0.00037,   0.00071,  -0.00266,412892072.10684,   0.00000,274640135.82653,   0.00000,   0.00000,   0.00000,-61748063.71969,   0.00000
180660068.15215,233589039.31479,-205014437.63645,   0.00037,   0.00071,  -0.00267,413635644.82370,   0.00000,274640135.82653,   0.00000,   0.00000,   0.00000,-61004491.00283,   0.00000
180573388.15843,233350669.33208,-205583275.09521,   0.00037,   0.00071,  -0.00267,414386065.63811,   0.00000,274640135.82653,   0.00000,   0.00000,   0.00000,-60254070.18842,   0.00000
180467746.91609,233104173.09995,-206152112.55397,   0.00037,   0.00071,  -0.00268,415131857.13565,   0.00000,274640135.82653,   0.00000,   0.00000,   0.00000,-59508278.69088,   0.00000
180370231.92316,232876638.11644,-206726367.51234,   0.00037,   0.00071,  -0.00269,415894588.79916,   0.00000,274640135.82653,   0.00000,   0.00000,   0.00000,-58745547.02737,   0.00000
180272716.93023,232649103.13294,-207295204.97110,   0.00037,   0.00071,  -0.00269,416650306.32035,   0.00000,274640135.82653,   0.00000,   0.00000,   0.00000,-57989829.50618,   0.00000
180175201.93730,232421568.14944,-207869459.92946,   0.00037,   0.00071,  -0.00270,417415168.47424,   0.00000,274640135.82653,   0.00000,   0.00000,   0.00000,-57224967.35228,   0.00000
180077686.94437,232194033.16593,-208438297.38822,   0.00037,   0.00071,  -0.00271,418172989.81713,   0.00000,274640135.82653,   0.00000,   0.00000,   0.00000,-56467146.00940,   0.00000
179961210.70281,231958371.93302,-209012552.34659,   0.00037,   0.00070,  -0.00272,418934309.09515,   0.00000,274640135.82653,   0.00000,   0.00000,   0.00000,-55705826.73138,   0.00000
179863695.70988,231730836.94951,-209581389.80535,   0.00037,   0.00070,  -0.00272,419694224.33753,   0.00000,274640135.82653,   0.00000,   0.00000,   0.00000,-54945911.48900,   0.00000
179774306.96636,231522263.21464,-210155644.76372,   0.00037,   0.00070,  -0.00273,420470915.13056,   0.00000,274640135.82653,   0.00000,   0.00000,   0.00000,-54169220.69597,   0.00000
179676791.97343,231294728.23113,-210729899.72208,   0.00037,   0.00070,  -0.00274,421240997.55731,   0.00000,274640135.82653,   0.00000,   0.00000,   0.00000,-53399138.26922,   0.00000
179568441.98129,231078028.24684,-211304154.68045,   0.00037,   0.00070,  -0.00275,422014094.95572,   0.00000,274640135.82653,   0.00000,   0.00000,   0.00000,-52626040.87081,   0.00000
179479053.23777,230869454.51196,-211872992.13921,   0.00037,   0.00070,  -0.00275,422785641.73173,   0.00000,274640135.82653,   0.00000,   0.00000,   0.00000,-51854494.09480,   0.00000
179370703.24562,230652754.52768,-212447247.09757,   0.00037,   0.00070,  -0.00276,423560732.32404,   0.00000,274640135.82653,   0.00000,   0.00000,   0.00000,-51079403.50249,   0.00000
179289440.75152,230463142.04142,-213021502.05594,   0.00037,   0.00070,  -0.00277,424349898.74944,   0.00000,274640135.82653,   0.00000,   0.00000,   0.00000,-50290237.07709,   0.00000
179181090.75937,230246442.05713,-213595757.01431,   0.00037,   0.00070,  -0.00278,425126946.89701,   0.00000,274640135.82653,   0.00000,   0.00000,   0.00000,-49513188.92952,   0.00000
179080867.01664,230048703.32147,-214170011.97267,   0.00037,   0.00070,  -0.00278,425912460.10135,   0.00000,274640135.82653,   0.00000,   0.00000,   0.00000,-48727675.72518,   0.00000
178999604.52253,229859090.83522,-214744266.93104,   0.00037,   0.00070,  -0.00279,426704434.28989,   0.00000,274640135.82653,   0.00000,   0.00000,   0.00000,-47935701.53664,   0.00000
178899380.77979,229661352.09955,-215318521.88941,   0.00037,   0.00070,  -0.00280,427491811.63836,   0.00000,274640135.82653,   0.00000,   0.00000,   0.00000,-47148324.18817,   0.00000
178799157.03706,229463613.36389,-215898194.34738,   0.00037,   0.00070,  -0.00281,428288312.63812,   0.00000,274640135.82653,   0.00000,   0.00000,   0.00000,-46351823.18840,   0.00000
178698933.29433,229265874.62822,-216472449.30575,   0.00037,   0.00069,  -0.00281,429077553.26748,   0.00000,274640135.82653,   0.00000,   0.00000,   0.00000,-45562582.55905,   0.00000
178606835.80100,229087097.14119,-217046704.26411,   0.00037,   0.00069,  -0.00282,429875090.95543,   0.00000,274640135.82653,   0.00000,   0.00000,   0.00000,-44765044.87110,   0.00000
178506612.05827,228889358.40552,-217620959.22248,   0.00037,   0.00069,  -0.00283,430666147.62875,   0.00000,274640135.82653,   0.00000,   0.00000,   0.00000,-43973988.19778,   0.00000
178414514.56495,228710580.91848,-218195214.18085,   0.00037,   0.00069,  -0.00284,431465451.72859,   0.00000,274640135.82653,   0.00000,   0.00000,   0.00000,-43174684.09794,   0.00000
178322417.07162,228531803.43144,-218769469.13921,   0.00037,   0.00069,  -0.00284,432265621.95787,   0.00000,274640135.82653,   0.00000,   0.00000,   0.00000,-42374513.86866,   0.00000
178238445.82771,228371987.19303,-219343724.09758,   0.00037,   0.00069,  -0.00285,433073952.04594,   0.00000,274640135.82653,   0.00000,   0.00000,   0.00000,-41566183.78059,   0.00000
178146348.33439,228193209.70599,-219923396.55555,   0.00037,   0.00069,  -0.00286,433884058.72372,   0.00000,274640135.82653,   0.00000,   0.00000,   0.00000,-40756077.10281,   0.00000
178062377.09048,228033393.46758,-220497651.51392,   0.00037,   0.00069,  -0.00287,434694045.90363,   0.00000,274640135.82653,   0.00000,   0.00000,   0.00000,-39946089.92290,   0.00000
177970279.59715,227854615.98054,-221071906.47229,   0.00037,   0.00069,  -0.00287,435497600.70963,   0.00000,274640135.82653,   0.00000,   0.00000,   0.00000,-39142535.11690,   0.00000
177867347.10462,227686673.49272,-221646161.43065,   0.00037,   0.00069,  -0.00288,436303853.40702,   0.00000,274640135.82653,   0.00000,   0.00000,   0.00000,-38336282.41951,   0.00000
177791502.11012,227545818.50293,-222220416.38902,   0.00037,   0.00069,  -0.00289,437123489.70349,   0.00000,274640135.82653,   0.00000,   0.00000,   0.00000,-37516646.12304,   0.00000
177707530.86620,227386002.26451,-222794671.34739,   0.00037,   0.00069,  -0.00290,437936698.94039,   0.00000,274640135.82653,   0.00000,   0.00000,   0.00000,-36703436.88614,   0.00000
177623559.62229,227226186.02610,-223368926.30575,   0.00037,   0.00069,  -0.00290,438750699.44612,   0.00000,274640135.82653,   0.00000,   0.00000,   0.00000,-35889436.38041,   0.00000
177528753.37917,227077204.78690,-223943181.26412,   0.00036,   0.00069,  -0.00291,439567318.42533,   0.00000,274640135.82653,   0.00000,   0.00000,   0.00000,-35072817.40120,   0.00000
177452908.38466,226936349.79711,-224517436.22249,   0.00036,   0.00069,  -0.00292,440390013.24675,   0.00000,274640135.82653,   0.00000,   0.00000,   0.00000,-34250122.57978,   0.00000
177358102.14154,226787368.55792,-225091691.18085,   0.00036,   0.00069,  -0.00293,441208157.19061,   0.00000,274640135.82653,   0.00000,   0.00000,   0.00000,-33431978.63592,   0.00000
177282257.14704,226646513.56813,-225665946.13922,   0.00036,   0.00069,  -0.00293,442032343.89872,   0.00000,274640135.82653,   0.00000,   0.00000,   0.00000,-32607791.92781,   0.00000
177214538.40195,226524619.82696,-226240201.09759,   0.00036,   0.00069,  -0.00294,442864342.48817,   0.00000,274640135.82653,   0.00000,   0.00000,   0.00000,-31775793.33836,   0.00000
177127858.40823,226394599.83639,-226814456.05595,   0.00036,   0.00068,  -0.00295,443691779.12491,   0.00000,274640135.82653,   0.00000,   0.00000,   0.00000,-30948356.70162,   0.00000
177052013.41373,226253744.84660,-227388711.01432,   0.00036,   0.00068,  -0.00296,444518131.38919,   0.00000,274640135.82653,   0.00000,   0.00000,   0.00000,-30122004.43734,   0.00000
176965333.42001,226123724.85603,-227962965.97268,   0.00036,   0.00068,  -0.00296,445346998.84145,   0.00000,274640135.82653,   0.00000,   0.00000,   0.00000,-29293136.98508,   0.00000
176886779.67571,226012666.11408,-228531803.43144,   0.00036,   0.00068,  -0.00297,446175258.09045,   0.00000,274640135.82653,   0.00000,   0.00000,   0.00000,-28464877.73608,   0.00000
176819060.93062,225890772.37292,-229106058.38981,   0.00036,   0.00068,  -0.00298,447010721.43797,   0.00000,274640135.82653,   0.00000,   0.00000,   0.00000,-27629414.38856,   0.00000
176740507.18631,225779713.63097,-229674895.84857,   0.00036,   0.00068,  -0.00299,447840304.36908,   0.00000,274640135.82653,   0.00000,   0.00000,   0.00000,-26799831.45745,   0.00000
176672788.44122,225657819.88981,-230249150.80694,   0.00036,   0.00068,  -0.00299,448677104.29825,   0.00000,274640135.82653,   0.00000,   0.00000,   0.00000,-25963031.52828,   0.00000
176594234.69692,225546761.14786,-230817988.26570,   0.00036,   0.00068,  -0.00300,449507996.19170,   0.00000,274640135.82653,   0.00000,   0.00000,   0.00000,-25132139.63483,   0.00000
176515680.95261,225435702.40591,-231392243.22406,   0.00036,   0.00068,  -0.00301,450347882.96715,   0.00000,274640135.82653,   0.00000,   0.00000,   0.00000,-24292252.85938,   0.00000
176464214.70634,225351731.16200,-231961080.68282,   0.00036,   0.00068,  -0.00302,451192125.80900,   0.00000,274640135.82653,   0.00000,   0.00000,   0.00000,-23448010.01753,   0.00000
176385660.96204,225240672.42005,-232529918.14158,   0.00036,   0.00068,  -0.00302,452024916.92129,   0.00000,274640135.82653,   0.00000,   0.00000,   0.00000,-22615218.90524,   0.00000
176315233.46715,225148574.92673,-233098755.60034,   0.00036,   0.00068,  -0.00303,452865220.98566,   0.00000,274640135.82653,   0.00000,   0.00000,   0.00000,-21774914.84087,   0.00000
176244805.97225,225056477.43341,-233667593.05910,   0.00036,   0.00068,  -0.00304,453706123.61635,   0.00000,274640135.82653,   0.00000,   0.00000,   0.00000,-20934012.21017,   0.00000
176193339.72598,224972506.18949,-234236430.51786,   0.00036,   0.00068,  -0.00305,454552725.69656,   0.00000,274640135.82653,   0.00000,   0.00000,   0.00000,-20087410.12997,   0.00000
176122912.23109,224880408.69617,-234799850.47701,   0.00036,   0.00068,  -0.00305,455386424.14647,   0.00000,274640135.82653,   0.00000,   0.00000,   0.00000,-19253711.68006,   0.00000
176060610.98561,224807272.45147,-235368687.93577,   0.00036,   0.00068,  -0.00306,456235904.47015,   0.00000,274640135.82653,   0.00000,   0.00000,   0.00000,-18404231.35638,   0.00000
175998309.74012,224734136.20678,-235932107.89492,   0.00036,   0.00068,  -0.00307,457077550.86190,   0.00000,274640135.82653,   0.00000,   0.00000,   0.00000,-17562584.96463,   0.00000
175936008.49464,224660999.96208,-236500945.35368,   0.00036,   0.00068,  -0.00307,457928133.93676,   0.00000,274640135.82653,   0.00000,   0.00000,   0.00000,-16712001.88977,   0.00000
175892668.49778,224595989.96679,-237064365.31283,   0.00036,   0.00068,  -0.00308,458775916.36310,   0.00000,274640135.82653,   0.00000,   0.00000,   0.00000,-15864219.46343,   0.00000
175830367.25230,224522853.72209,-237627785.27199,   0.00036,   0.00068,  -0.00309,459619176.12835,   0.00000,274640135.82653,   0.00000,   0.00000,   0.00000,-15020959.69818,   0.00000
175776192.25623,224468678.72602,-238191205.23114,   0.00036,   0.00068,  -0.00310,460469715.19769,   0.00000,274640135.82653,   0.00000,   0.00000,   0.00000,-14170420.62884,   0.00000
175713891.01074,224395542.48132,-238754625.19029,   0.00036,   0.00068,  -0.00310,461314025.62032,   0.00000,274640135.82653,   0.00000,   0.00000,   0.00000,-13326110.20621,   0.00000
175659716.01467,224341367.48525,-239318045.14944,   0.00036,   0.00068,  -0.00311,462165581.03688,   0.00000,274640135.82653,   0.00000,   0.00000,   0.00000,-12474554.78965,   0.00000
175605541.01860,224287192.48918,-239876047.60899,   0.00036,   0.00068,  -0.00312,463009213.32089,   0.00000,274640135.82653,   0.00000,   0.00000,   0.00000,-11630922.50564,   0.00000
175551366.02253,224233017.49311,-240434050.06853,   0.00036,   0.00068,  -0.00313,463853331.36159,   0.00000,274640135.82653,   0.00000,   0.00000,   0.00000,-10786804.46494,   0.00000
175505317.27586,224197803.74566,-240997470.02768,   0.00036,   0.00068,  -0.00313,464713036.82679,   0.00000,274640135.82653,   0.00000,   0.00000,   0.00000,-9927098.99974,   0.00000
175459268.52920,224162589.99821,-241555472.48723,   0.00036,   0.00068,  -0.00314,465564771.49844,   0.00000,274640135.82653,   0.00000,   0.00000,   0.00000,-9075364.32809,   0.00000
175405093.53313,224108415.00214,-242113474.94677,   0.00036,   0.00068,  -0.00315,466410307.85086,   0.00000,274640135.82653,   0.00000,   0.00000,   0.00000,-8229827.97567,   0.00000
175367171.03588,224092162.50332,-242666059.90671,   0.00036,   0.00068,  -0.00315,467261151.04400,   0.00000,274640135.82653,   0.00000,   0.00000,   0.00000,-7378984.78253,   0.00000
175321122.28922,224056948.75587,-243224062.36626,   0.00036,   0.00068,  -0.00316,468114227.55114,   0.00000,274640135.82653,   0.00000,   0.00000,   0.00000,-6525908.27539,   0.00000
175275073.54256,224021735.00842,-243776647.32619,   0.00036,   0.00068,  -0.00317,468959299.32948,   0.00000,274640135.82653,   0.00000,   0.00000,   0.00000,-5680836.49705,   0.00000
175237151.04531,224005482.50960,-244329232.28613,   0.00036,   0.00068,  -0.00318,469811402.56055,   0.00000,274640135.82653,   0.00000,   0.00000,   0.00000,-4828733.26598,   0.00000
175199228.54806,223989230.01078,-244887234.74568,   0.00036,   0.00068,  -0.00318,470672367.75473,   0.00000,274640135.82653,   0.00000,   0.00000,   0.00000,-3967768.07180,   0.00000
175161306.05081,223972977.51196,-245434402.20601,   0.00036,   0.00068,  -0.00319,471516824.61029,   0.00000,274640135.82653,   0.00000,   0.00000,   0.00000,-3123311.21624,   0.00000
175123383.55355,223956725.01314,-245986987.16594,   0.00036,   0.00068,  -0.00320,472370139.04026,   0.00000,274640135.82653,   0.00000,   0.00000,   0.00000,-2269996.78627,   0.00000
175093587.30571,223959433.76294,-246534154.62627,   0.00036,   0.00068,  -0.00320,473221935.04778,   0.00000,274640135.82653,   0.00000,   0.00000,   0.00000,-1418200.77875,   0.00000
175055664.80846,223943181.26412,-247086739.58621,   0.00036,   0.00068,  -0.00321,474076030.16684,   0.00000,274640135.82653,   0.00000,   0.00000,   0.00000,-564105.65969,   0.00000
175035947.79980,223944973.71945,-247448815.56357,   0.00036,   0.00068,  -0.00322,474640140.01961,   0.00000,274640135.82653,   0.00000,   0.00000,   0.00000,  -8.81657,   0.00000
174937842.00574,223827490.24027,-247480157.34224,   0.00036,   0.00068,  -0.00322,474642371.33142,   0.00000,274642376.01937,   0.00000,   0.00000,  -0.00000,  -4.68795,   1.00000
174650856.50993,223484202.11684,-247571676.98508,   0.00036,   0.00068,  -0.00323,474648932.04866,   0.00001,274648935.09503,   0.00000,   0.00000,  -0.00001,  -3.04637,   1.00000
174361657.90294,223137891.47303,-247663809.39006,   0.00036,   0.00068,  -0.00323,474655560.49022,   0.00001,274655563.03301,   0.00000,   0.00000,  -0.00001,  -2.54280,   1.00000
174081544.13902,222811770.87916,-247751307.55168,   0.00036,   0.00068,  -0.00324,474662178.08652,   0.00002,274662178.45796,   0.00000,   0.00000,  -0.00002,  -0.37144,   1.00000
173801790.38021,222486073.66854,-247838539.58524,   0.00036,   0.00068,  -0.00325,474668792.41086,   0.00003,274668796.65606,   0.00000,   0.00000,  -0.00003,  -4.24520,   1.00000
173498761.93059,222138346.37612,-247931527.40630,   0.00036,   0.00068,  -0.00325,474675324.92711,   0.00003,274675329.93160,   0.00000,   0.00001,  -0.00003,  -5.00449,   1.00000
173225931.03967,221829836.53483,-248014772.93417,   0.00036,   0.00068,  -0.00326,474682001.31906,   0.00004,274682003.95446,   0.00000,   0.00001,  -0.00004,  -2.63540,   1.00000
172949842.70749,221508861.14556,-248100331.01818,   0.00036,   0.00068,  -0.00327,474688554.44291,   0.00004,274688564.37672,   0.00000,   0.00001,  -0.00004,  -9.93381,   1.00000
172671560.63405,221184869.70752,-248186518.34257,   0.00036,   0.00068,  -0.00328,474695187.94624,   0.00005,274695193.39034,   0.00000,   0.00001,  -0.00005,  -5.44410,   1.00000
172402372.47875,220881065.76089,-248268137.15748,   0.00036,   0.00068,  -0.00328,474701808.77904,   0.00006,274701808.98427,   0.00000,   0.00001,  -0.00006,  -0.20523,   1.00000
172118579.33529,220574898.76542,-248351187.26912,   0.00036,   0.00068,  -0.00329,474708320.71831,   0.00006,274708323.88998,   0.00001,   0.00001,  -0.00006,  -3.17167,   1.00000
171850122.17373,220271894.22531,-248432321.48863,   0.00036,   0.00068,  -0.00330,474714940.80487,   0.00007,274714944.41233,   0.00001,   0.00001,  -0.00007,  -3.60746,   1.00000
171584555.69091,219972709.82845,-248512348.77551,   0.00036,   0.00068,  -0.00330,474721492.69086,   0.00007,274721501.19775,   0.00001,   0.00001,  -0.00007,  -8.50689,   1.00000
171319340.71150,219673922.40120,-248592151.86426,   0.00036,   0.00068,  -0.00331,474728060.08616,   0.00008,274728060.20406,   0.00001,   0.00001,  -0.00008,  -0.11790,   1.00000
171045693.47424,219389088.32848,-248669972.80576,   0.00036,   0.00068,  -0.00332,474734566.57959,   0.00009,274734568.25270,   0.00001,   0.00002,  -0.00008,  -1.67311,   1.00000
170787405.52615,219107427.00655,-248745900.37166,   0.00036,   0.00068,  -0.00332,474741174.03166,   0.00009,274741181.55852,   0.00001,   0.00002,  -0.00009,  -7.52686,   1.00000
170531990.67094,218829550.46364,-248820758.69942,   0.00036,   0.00068,  -0.00333,474747725.66005,   0.00010,274747730.65366,   0.00001,   0.00002,  -0.00010,  -4.99361,   1.00000
170259380.36724,218545808.97886,-248897927.50119,   0.00036,   0.00068,  -0.00334,474754239.73865,   0.00010,274754245.16543,   0.00001,   0.00002,  -0.00010,  -5.42678,   1.00000
170013422.09907,218288458.30061,-248968099.34282,   0.00036,   0.00068,  -0.00334,474760771.74910,   0.00011,274760781.65551,   0.00001,   0.00002,  -0.00011,  -9.90641,   1.00000
169761558.22901,218015054.03218,-249041483.41155,   0.00036,   0.00068,  -0.00335,474767265.64348,   0.00012,274767270.49296,   0.00001,   0.00002,  -0.00011,  -4.84948,   1.00000
169498723.83102,217752163.45002,-249113778.15590,   0.00036,   0.00068,  -0.00336,474773768.91800,   0.00012,274773774.18384,   0.00001,   0.00002,  -0.00012,  -5.26584,   1.00000
169253794.62651,217495862.81519,-249183361.63777,   0.00036,   0.00068,  -0.00336,474780307.50175,   0.00013,274780316.28431,   0.00001,   0.00002,  -0.00013,  -8.78256,   1.00000
169011702.92532,217243291.51563,-249251914.59675,   0.00036,   0.00068,  -0.00337,474786789.59775,   0.00013,274786793.72563,   0.00001,   0.00002,  -0.00013,  -4.12788,   1.00000
168758635.06010,217001210.57602,-249319396.83899,   0.00036,   0.00068,  -0.00338,474793280.40325,   0.00014,274793285.77593,   0.00001,   0.00002,  -0.00014,  -5.37268,   1.00000
168517211.32666,216749281.82058,-249387579.98973,   0.00036,   0.00068,  -0.00338,474799760.22844,   0.00015,274799766.70260,   0.00001,   0.00003,  -0.00014,  -6.47416,   1.00000
168267308.18547,216511224.65845,-249453857.88936,   0.00036,   0.00068,  -0.00339,474806190.02865,   0.00015,274806195.72842,   0.00001,   0.00003,  -0.00015,  -5.69976,   1.00000
168035316.13439,216279748.05512,-249517464.70928,   0.00036,   0.00068,  -0.00340,474812654.24808,   0.00016,274812662.60651,   0.00001,   0.00003,  -0.00015,  -8.35843,   1.00000
167786063.64089,216042297.22786,-249583396.51652,   0.00036,   0.00068,  -0.00340,474819087.82394,   0.00016,274819094.82927,   0.00001,   0.00003,  -0.00016,  -7.00533,   1.00000
167563500.65955,215831255.79057,-249642462.95227,   0.00036,   0.00069,  -0.00341,474825541.52450,   0.00017,274825547.17591,   0.00001,   0.00003,  -0.00017,  -5.65141,   1.00000
167317369.33815,215597748.15578,-249707230.62535,   0.00035,   0.00069,  -0.00342,474831913.53907,   0.00017,274831915.91541,   0.00001,   0.00003,  -0.00017,  -2.37634,   1.00000
167077863.13083,215380997.34563,-249768460.92409,   0.00035,   0.00069,  -0.00342,474838332.26440,   0.00018,274838335.08467,   0.00001,   0.00003,  -0.00018,  -2.82028,   1.00000
166858753.51465,215174183.83016,-249826226.68492,   0.00035,   0.00069,  -0.00343,474844719.38506,   0.00019,274844725.06515,   0.00001,   0.00003,  -0.00018,  -5.68009,   1.00000
166622347.31769,214961338.55355,-249886323.21155,   0.00035,   0.00069,  -0.00344,474851076.09713,   0.00019,274851080.38256,   0.00002,   0.00003,  -0.00019,  -4.28543,   1.00000
166392570.55455,214765237.95987,-249942906.73416,   0.00035,   0.00069,  -0.00344,474857478.45218,   0.00020,274857485.78685,   0.00002,   0.00003,  -0.00019,  -7.33466,   1.00000
166176871.91153,214562575.30509,-249999412.79675,   0.00035,   0.00069,  -0.00345,474863804.77198,   0.00020,274863812.92880,   0.00002,   0.00004,  -0.00020,  -8.15682,   1.00000
165950173.66616,214370342.64946,-250054891.28269,   0.00035,   0.00069,  -0.00346,474870144.69128,   0.00021,274870154.13533,   0.00002,   0.00004,  -0.00021,  -9.44406,   1.00000
165723790.01930,214178357.02571,-250110234.83479,   0.00035,   0.00069,  -0.00346,474876492.19299,   0.00022,274876496.46688,   0.00002,   0.00004,  -0.00021,  -4.27388,   1.00000
165500172.70286,213989958.73992,-250164619.34194,   0.00035,   0.00069,  -0.00347,474882769.52270,   0.00022,274882773.37370,   0.00002,   0.00004,  -0.00022,  -3.85101,   1.00000
165294481.56003,213808125.49111,-250216413.60536,   0.00035,   0.00069,  -0.00348,474889079.48744,   0.00023,274889087.00368,   0.00002,   0.00004,  -0.00022,  -7.51624,   1.00000
165080233.83219,213640038.88644,-250266381.21185,   0.00035,   0.00069,  -0.00348,474895343.14081,   0.00023,274895347.82583,   0.00002,   0.00004,  -0.00023,  -4.68502,   1.00000
164866280.91478,213472160.36095,-250316225.84418,   0.00035,   0.00069,  -0.00349,474901601.84706,   0.00024,274901609.64849,   0.00002,   0.00004,  -0.00023,  -7.80143,   1.00000
164646284.23403,213287984.87835,-250369291.94101,   0.00035,   0.00069,  -0.00349,474907818.70241,   0.00024,274907824.01785,   0.00002,   0.00004,  -0.00024,  -5.31544,   1.00000
164441717.86562,213140400.71951,-250414747.52971,   0.00035,   0.00069,  -0.00350,474914068.74685,   0.00025,274914069.39740,   0.00002,   0.00004,  -0.00025,  -0.65055,   1.00000
164231087.20793,212976480.73741,-250463427.83475,   0.00035,   0.00069,  -0.00351,474920265.32857,   0.00026,274920267.31736,   0.00002,   0.00004,  -0.00025,  -1.98879,   1.00000
164020745.70903,212812763.97793,-250511993.04295,   0.00035,   0.00069,  -0.00351,474926463.00861,   0.00026,274926466.14322,   0.00002,   0.00005,  -0.00026,  -3.13461,   1.00000
163819479.64343,212669100.71270,-250556303.78571,   0.00035,   0.00069,  -0.00352,474932638.37504,   0.00027,274932647.39876,   0.00002,   0.00005,  -0.00026,  -9.02373,   1.00000
163620925.26706,212528945.53645,-250599713.68537,   0.00035,   0.00070,  -0.00353,474938760.95655,   0.00027,274938762.55681,   0.00002,   0.00005,  -0.00027,  -1.60025,   1.00000
163402561.69234,212379268.35481,-250646251.76655,   0.00035,   0.00070,  -0.00353,474944907.19333,   0.00028,274944910.12012,   0.00002,   0.00005,  -0.00027,  -2.92679,   1.00000
163207000.83349,212242781.82409,-250688646.91362,   0.00035,   0.00070,  -0.00354,474950954.05902,   0.00028,274950960.13575,   0.00002,   0.00005,  -0.00028,  -6.07673,   1.00000
163009288.27136,212103138.97856,-250731751.54433,   0.00035,   0.00070,  -0.00354,474957073.42847,   0.00029,274957077.56871,   0.00002,   0.00005,  -0.00028,  -4.14024,   1.00000
162802971.92004,211977148.72452,-250773050.16145,   0.00035,   0.00070,  -0.00355,474963132.79846,   0.00029,274963142.06100,   0.00002,   0.00005,  -0.00029,  -9.26254,   1.00000
162617024.12531,211861002.31001,-250811042.38443,   0.00035,   0.00070,  -0.00356,474969169.58599,   0.00030,274969175.34351,   0.00002,   0.00005,  -0.00029,  -5.75752,   1.00000
162422539.18284,211725127.48666,-250853065.45320,   0.00035,   0.00070,  -0.00356,474975219.74358,   0.00031,274975227.99164,   0.00002,   0.00005,  -0.00030,  -8.24807,   1.00000
162228230.17253,211622761.35157,-250889176.74983,   0.00035,   0.00070,  -0.00357,474981202.55364,   0.00031,274981208.78862,   0.00002,   0.00005,  -0.00031,  -6.23498,   1.00000
162043075.15877,211507029.48400,-250926913.22195,   0.00035,   0.00070,  -0.00357,474987241.50241,   0.00032,274987243.76778,   0.00002,   0.00006,  -0.00031,  -2.26537,   1.00000
161845297.35577,211391668.09803,-250965377.24254,   0.00035,   0.00070,  -0.00358,474993107.27531,   0.00032,274993110.90555,   0.00003,   0.00006,  -0.00032,  -3.63024,   1.00000
161651779.08303,211289678.49913,-251001237.80406,   0.00035,   0.00070,  -0.00358,474999092.23831,   0.00033,274999093.38603,   0.00003,   0.00006,  -0.00032,  -1.14772,   1.00000
161478611.33015,211197505.87634,-251033823.39403,   0.00035,   0.00070,  -0.00359,475005041.97711,   0.00033,275005044.26837,   0.00003,   0.00006,  -0.00033,  -2.29126,   1.00000
161290383.64791,211102345.30930,-251067939.55515,   0.00035,   0.00070,  -0.00360,475010884.72356,   0.00034,275010894.10010,   0.00003,   0.00006,  -0.00033,  -9.37654,   1.00000
161102413.36629,211007289.48439,-251101986.30502,   0.00035,   0.00071,  -0.00360,475016739.50837,   0.00034,275016744.33100,   0.00003,   0.00006,  -0.00034,  -4.82263,   1.00000
160914696.98765,210912333.92604,-251135957.65914,   0.00035,   0.00071,  -0.00361,475022594.92807,   0.00035,275022595.04778,   0.00003,   0.00006,  -0.00034,  -0.11970,   1.00000
160736025.96407,210837348.55435,-251165751.76382,   0.00035,   0.00071,  -0.00361,475028425.08000,   0.00035,275028427.26285,   0.00003,   0.00006,  -0.00035,  -2.18285,   1.00000
160559981.61331,210765743.32185,-251194691.37267,   0.00035,   0.00071,  -0.00362,475034189.61444,   0.00036,275034192.97788,   0.00003,   0.00006,  -0.00035,  -3.36345,   1.00000
160375379.92192,210674330.31737,-251227660.55469,   0.00035,   0.00071,  -0.00362,475039969.32750,   0.00037,275039978.16077,   0.00003,   0.00006,  -0.00036,  -8.83327,   1.00000
160202197.88596,210606194.02081,-251255679.46776,   0.00035,   0.00071,  -0.00363,475045668.74282,   0.00037,275045677.77688,   0.00003,   0.00006,  -0.00036,  -9.03406,   1.00000
160035666.54316,210554694.07637,-251280333.53635,   0.00035,   0.00071,  -0.00364,475051419.34281,   0.00038,275051425.46867,   0.00003,   0.00007,  -0.00037,  -6.12587,   1.00000
159862939.98446,210486661.49114,-251308236.50088,   0.00035,   0.00071,  -0.00364,475057119.63113,   0.00038,275057125.68528,   0.00003,   0.00007,  -0.00037,  -6.05415,   1.00000
159681516.38956,210432145.14246,-251334358.41837,   0.00035,   0.00071,  -0.00365,475062763.76600,   0.00039,275062772.85875,   0.00003,   0.00007,  -0.00038,  -9.09274,   1.00000
159511631.81642,210367519.97083,-251361357.24387,   0.00035,   0.00071,  -0.00365,475068398.75763,   0.00039,275068406.83914,   0.00003,   0.00007,  -0.00038,  -8.08151,   1.00000
159333039.00266,210316404.61577,-251386577.38428,   0.00035,   0.00071,  -0.00366,475073983.01289,   0.00040,275073987.76776,   0.00003,   0.00007,  -0.00039,  -4.75487,   1.00000
159172410.48429,210271755.32076,-251409376.67456,   0.00035,   0.00072,  -0.00366,475079603.04938,   0.00040,275079603.15018,   0.00003,   0.00007,  -0.00039,  -0.10080,   1.00000
159003053.47453,210240581.57174,-251430395.56067,   0.00034,   0.00072,  -0.00367,475085160.95018,   0.00041,275085165.54046,   0.00003,   0.00007,  -0.00040,  -4.59028,   1.00000
158845221.24828,210199273.94862,-251452310.71777,   0.00034,   0.00072,  -0.00367,475090709.86630,   0.00041,275090714.50372,   0.00003,   0.00007,  -0.00040,  -4.63743,   1.00000
158678651.00055,210171438.14731,-251472449.74428,   0.00034,   0.00072,  -0.00368,475096207.47105,   0.00042,275096210.43743,   0.00003,   0.00007,  -0.00041,  -2.96638,   1.00000
158505858.07197,210127025.06363,-251495840.84189,   0.00034,   0.00072,  -0.00368,475101655.62300,   0.00042,275101658.95579,   0.00003,   0.00007,  -0.00041,  -3.33279,   1.00000
158342078.53494,210102521.10206,-251515096.49806,   0.00034,   0.00072,  -0.00369,475107087.51897,   0.00043,275107088.52158,   0.00003,   0.00007,  -0.00042,  -1.00261,   1.00000
158178507.94795,210078013.08835,-251534299.24921,   0.00034,   0.00072,  -0.00369,475112509.19459,   0.00043,275112518.40309,   0.00003,   0.00007,  -0.00042,  -9.20850,   1.00000
158023941.64731,210073392.70156,-251549379.62094,   0.00034,   0.00072,  -0.00370,475117924.38090,   0.00044,275117929.17118,   0.00003,   0.00008,  -0.00043,  -4.79028,   1.00000
157845372.93937,210045713.13467,-251570058.87549,   0.00034,   0.00072,  -0.00370,475123250.33450,   0.00044,275123258.71405,   0.00003,   0.00008,  -0.00043,  -8.37954,   1.00000
157693575.50762,210044369.39611,-251584268.75967,   0.00034,   0.00073,  -0.00371,475128599.54762,   0.00045,275128603.02502,   0.00003,   0.00008,  -0.00044,  -3.47740,   1.00000
157537853.06743,210029710.46928,-251600957.34204,   0.00034,   0.00073,  -0.00371,475133823.21983,   0.00045,275133833.00721,   0.00003,   0.00008,  -0.00044,  -9.78738,   1.00000
157371022.15535,210025174.19524,-251616643.59732,   0.00034,   0.00073,  -0.00372,475139076.55974,   0.00046,275139077.05399,   0.00003,   0.00008,  -0.00045,  -0.49425,   1.00000
157222160.32656,210027057.83620,-251629945.29270,   0.00034,   0.00073,  -0.00372,475144349.71392,   0.00046,275144355.10431,   0.00003,   0.00008,  -0.00045,  -5.39040,   1.00000
157064507.24502,210042336.49501,-251641459.51757,   0.00034,   0.00073,  -0.00373,475149575.31142,   0.00047,275149580.42196,   0.00004,   0.00008,  -0.00046,  -5.11054,   1.00000
156902916.47461,210044280.20529,-251655459.58936,   0.00034,   0.00073,  -0.00373,475154686.09240,   0.00047,275154691.37872,   0.00004,   0.00008,  -0.00046,  -5.28632,   1.00000
156747984.62035,210062767.80912,-251666112.98257,   0.00034,   0.00073,  -0.00374,475159845.60523,   0.00047,275159850.24405,   0.00004,   0.00008,  -0.00047,  -4.63882,   1.00000
156586781.13957,210064615.15171,-251680032.19614,   0.00034,   0.00073,  -0.00374,475164957.11206,   0.00048,275164961.64422,   0.00004,   0.00008,  -0.00047,  -4.53216,   1.00000
156436873.19128,210089614.35088,-251689050.43188,   0.00034,   0.00073,  -0.00375,475169983.60046,   0.00048,275169987.14216,   0.00004,   0.00008,  -0.00048,  -3.54170,   1.00000
156284832.02879,210111242.51159,-251698809.02464,   0.00034,   0.00074,  -0.00375,475175077.31574,   0.00049,275175079.73650,   0.00004,   0.00008,  -0.00048,  -2.42076,   1.00000
156119813.74749,210132948.98031,-251709286.55952,   0.00034,   0.00074,  -0.00376,475179997.95404,   0.00049,275180005.42276,   0.00004,   0.00009,  -0.00048,  -7.46872,   1.00000
155972777.84865,210161061.64709,-251717414.43767,   0.00034,   0.00074,  -0.00376,475184958.59539,   0.00050,275184964.66575,   0.00004,   0.00009,  -0.00049,  -6.07036,   1.00000
155814599.84296,210199212.61060,-251724508.39598,   0.00034,   0.00074,  -0.00377,475189937.48575,   0.00050,275189938.50455,   0.00004,   0.00009,  -0.00049,  -1.01880,   1.00000
155658910.32037,210240580.29197,-251730780.62552,   0.00034,   0.00074,  -0.00377,475194840.11641,   0.00051,275194845.79562,   0.00004,   0.00009,  -0.00050,  -5.67922,   1.00000
155517026.68067,210275068.34551,-251737249.14426,   0.00034,   0.00074,  -0.00377,475199667.88846,   0.00051,275199671.87171,   0.00004,   0.00009,  -0.00050,  -3.98325,   1.00000
155363983.83999,210319577.37868,-251742670.34805,   0.00034,   0.00074,  -0.00378,475204504.29703,   0.00052,275204512.75865,   0.00004,   0.00009,  -0.00051,  -8.46162,   1.00000
155213415.91163,210367307.74843,-251747282.55359,   0.00033,   0.00074,  -0.00378,475209283.40665,   0.00052,275209286.95073,   0.00004,   0.00009,  -0.00051,  -3.54408,   1.00000
155045213.46344,210408460.76437,-251754148.72465,   0.00033,   0.00075,  -0.00379,475214023.43118,   0.00052,275214028.38524,   0.00004,   0.00009,  -0.00052,  -4.95405,   1.00000
154903778.46343,210475886.30675,-251754591.28359,   0.00033,   0.00075,  -0.00379,475218783.22685,   0.00053,275218784.06780,   0.00004,   0.00009,  -0.00052,  -0.84094,   1.00000
154756019.96520,210526620.14998,-251758310.78060,   0.00033,   0.00075,  -0.00380,475223487.23249,   0.00053,275223492.26735,   0.00004,   0.00009,  -0.00052,  -5.03486,   1.00000
154599383.77763,210590655.78995,-251760188.99306,   0.00033,   0.00075,  -0.00380,475228141.46626,   0.00054,275228148.69456,   0.00004,   0.00009,  -0.00053,  -7.22831,   1.00000
154445201.63595,210657888.61486,-251761249.60083,   0.00033,   0.00075,  -0.00380,475232728.94702,   0.00054,275232738.61318,   0.00004,   0.00009,  -0.00053,  -9.66617,   1.00000
154309005.80445,210731487.51956,-251759992.59200,   0.00033,   0.00075,  -0.00381,475237355.83758,   0.00055,275237361.69632,   0.00004,   0.00009,  -0.00054,  -5.85875,   1.00000
154157414.87014,210801792.22420,-251760201.25742,   0.00033,   0.00075,  -0.00381,475241876.98122,   0.00055,275241885.39244,   0.00004,   0.00010,  -0.00054,  -8.41122,   1.00000
153988162.07247,210865485.70180,-251762647.42525,   0.00033,   0.00075,  -0.00382,475246368.15728,   0.00055,275246376.63522,   0.00004,   0.00010,  -0.00054,  -8.47794,   1.00000
153839185.85230,210938872.36573,-251762000.39222,   0.00033,   0.00076,  -0.00382,475250831.78650,   0.00056,275250834.18719,   0.00004,   0.00010,  -0.00055,  -2.40069,   1.00000
153699122.54609,211032008.42440,-251757206.88714,   0.00033,   0.00076,  -0.00383,475255266.13174,   0.00056,275255273.24277,   0.00004,   0.00010,  -0.00055,  -7.11103,   1.00000
153534881.43108,211101951.33134,-251757972.30407,   0.00033,   0.00076,  -0.00383,475259624.26909,   0.00057,275259632.02671,   0.00004,   0.00010,  -0.00056,  -7.75762,   1.00000
153379564.87207,211191649.99239,-251754590.23711,   0.00033,   0.00076,  -0.00383,475263970.52878,   0.00057,275263972.34030,   0.00004,   0.00010,  -0.00056,  -1.81153,   1.00000
153242238.95253,211287690.43706,-251748896.70842,   0.00033,   0.00076,  -0.00384,475268339.11534,   0.00057,275268345.77124,   0.00004,   0.00010,  -0.00056,  -6.65590,   1.00000
153091731.00438,211383749.27377,-251743874.10383,   0.00033,   0.00076,  -0.00384,475272551.19863,   0.00058,275272553.32587,   0.00004,   0.00010,  -0.00057,  -2.12725,   1.00000
152921268.38819,211469825.26373,-251741840.02995,   0.00033,   0.00076,  -0.00384,475276792.49293,   0.00058,275276795.69661,   0.00004,   0.00010,  -0.00057,  -3.20368,   1.00000
152771068.58017,211565584.79703,-251736721.71610,   0.00033,   0.00077,  -0.00385,475280997.70822,   0.00059,275281004.30771,   0.00004,   0.00010,  -0.00058,  -6.59949,   1.00000
152629763.80101,211681069.65581,-251727447.43170,   0.00033,   0.00077,  -0.00385,475285189.92001,   0.00059,275285194.61376,   0.00004,   0.00010,  -0.00058,  -4.69375,   1.00000
152466486.69534,211776679.98998,-251722934.42217,   0.00032,   0.00077,  -0.00386,475289230.39876,   0.00059,275289238.19910,   0.00004,   0.00010,  -0.00058,  -7.80033,   1.00000
152309861.88375,211888674.22199,-251715034.48977,   0.00032,   0.00077,  -0.00386,475293325.58924,   0.00060,275293330.42864,   0.00004,   0.00010,  -0.00059,  -4.83940,   1.00000
152155621.36082,212003836.80212,-251706303.69924,   0.00032,   0.00077,  -0.00386,475297353.63960,   0.00060,275297356.49179,   0.00004,   0.00010,  -0.00059,  -2.85219,   1.00000
152001517.72987,212118822.19732,-251697519.18844,   0.00032,   0.00077,  -0.00387,475301374.61020,   0.00060,275301383.20941,   0.00004,   0.00010,  -0.00059,  -8.59922,   1.00000
151849789.59706,212236982.05349,-251687907.68826,   0.00032,   0.00077,  -0.00387,475305336.29635,   0.00061,275305343.71813,   0.00004,   0.00011,  -0.00060,  -7.42178,   1.00000
151680328.94036,212348461.95127,-251680480.61967,   0.00032,   0.00078,  -0.00387,475309267.63173,   0.00061,275309272.66358,   0.00004,   0.00011,  -0.00060,  -5.03185,   1.00000
151533341.96392,212472973.86657,-251669200.70295,   0.00032,   0.00078,  -0.00388,475313095.01299,   0.00062,275313100.98571,   0.00004,   0.00011,  -0.00060,  -5.97272,   1.00000
151372887.94308,212603964.26256,-251657528.66373,   0.00032,   0.00078,  -0.00388,475317005.76060,   0.00062,275317012.86144,   0.00005,   0.00011,  -0.00061,  -7.10085,   1.00000
151210507.86154,212724956.81604,-251647587.94014,   0.00032,   0.00078,  -0.00388,475320735.64429,   0.00062,275320743.72879,   0.00005,   0.00011,  -0.00061,  -8.08450,   1.00000
151054770.43068,212862284.02473,-251634236.23388,   0.00032,   0.00078,  -0.00389,475324519.37429,   0.00063,275324523.62868,   0.00005,   0.00011,  -0.00061,  -4.25438,   1.00000
150883494.54865,212996263.02943,-251622259.98915,   0.00032,   0.00078,  -0.00389,475328204.15600,   0.00063,275328205.66276,   0.00005,   0.00011,  -0.00062,  -1.50676,   1.00000
150723724.31993,213120054.54479,-251611363.76618,   0.00032,   0.00079,  -0.00389,475331868.80601,   0.00063,275331872.07168,   0.00005,   0.00011,  -0.00062,  -3.26567,   1.00000
150554917.37879,213257020.27767,-251598475.55635,   0.00032,   0.00079,  -0.00390,475335487.29621,   0.00064,275335489.10549,   0.00005,   0.00011,  -0.00062,  -1.80928,   1.00000
150394959.00561,213413648.93769,-251581366.69426,   0.00031,   0.00079,  -0.00390,475339083.67315,   0.00064,275339088.86545,   0.00005,   0.00011,  -0.00063,  -5.19230,   1.00000
150228605.42577,213553571.29401,-251567562.20425,   0.00031,   0.00079,  -0.00390,475342635.96018,   0.00064,275342641.00360,   0.00005,   0.00011,  -0.00063,  -5.04343,   1.00000
150064576.23978,213696667.79162,-251552904.77112,   0.00031,   0.00079,  -0.00390,475346120.91362,   0.00065,275346127.38679,   0.00005,   0.00011,  -0.00063,  -6.47317,   1.00000
149889283.25406,213849535.74008,-251537008.90258,   0.00031,   0.00079,  -0.00391,475349627.19807,   0.00065,275349631.56098,   0.00005,   0.00011,  -0.00064,  -4.36291,   1.00000
149727693.95481,213995600.60720,-251521428.32377,   0.00031,   0.00079,  -0.00391,475353045.99735,   0.00065,275353053.17228,   0.00005,   0.00011,  -0.00064,  -7.17492,   1.00000
149557022.62457,214154804.75720,-251503807.12493,   0.00031,   0.00080,  -0.00391,475356417.26150,   0.00066,275356426.14997,   0.00005,   0.00011,  -0.00064,  -8.88848,   1.00000
149388655.28695,214317176.19530,-251485322.93810,   0.00031,   0.00080,  -0.00392,475359727.51581,   0.00066,275359733.54893,   0.00005,   0.00011,  -0.00065,  -6.03312,   1.00000
149220395.94104,214479328.89345,-251466759.93765,   0.00031,   0.00080,  -0.00392,475363032.60704,   0.00066,275363042.06623,   0.00005,   0.00011,  -0.00065,  -9.45918,   1.00000
149034332.02437,214634746.52852,-251450307.23769,   0.00031,   0.00080,  -0.00392,475366312.95350,   0.00066,275366320.18962,   0.00005,   0.00012,  -0.00065,  -7.23612,   1.00000
148852742.69692,214796726.87270,-251432183.98644,   0.00031,   0.00080,  -0.00392,475369456.73746,   0.00067,275369466.38847,   0.00005,   0.00012,  -0.00066,  -9.65101,   1.00000
148689187.26643,214965018.46311,-251411805.52669,   0.00031,   0.00080,  -0.00393,475372640.73712,   0.00067,275372645.04700,   0.00005,   0.00012,  -0.00066,  -4.30988,   1.00000
148489879.88291,215120044.09266,-251395694.22015,   0.00030,   0.00081,  -0.00393,475375760.32822,   0.00067,275375762.27661,   0.00005,   0.00012,  -0.00066,  -1.94839,   1.00000
148319481.23711,215304622.83994,-251372333.68881,   0.00030,   0.00081,  -0.00393,475378827.45826,   0.00068,275378827.90607,   0.00005,   0.00012,  -0.00066,  -0.44781,   1.00000
148142648.80829,215472522.81864,-251352283.09837,   0.00030,   0.00081,  -0.00393,475381839.01607,   0.00068,275381845.89749,   0.00005,   0.00012,  -0.00067,  -6.88143,   1.00000
147954511.32228,215650122.19811,-251330912.05120,   0.00030,   0.00081,  -0.00394,475384882.21200,   0.00068,275384882.91253,   0.00005,   0.00012,  -0.00067,  -0.70053,   1.00000
147770790.51719,215834299.98253,-251307847.31252,   0.00030,   0.00081,  -0.00394,475387787.82426,   0.00068,275387788.36579,   0.00005,   0.00012,  -0.00067,  -0.54152,   1.00000
147587163.43086,216018244.87173,-251284685.90141,   0.00030,   0.00081,  -0.00394,475390695.13696,   0.00069,275390695.23687,   0.00005,   0.00012,  -0.00067,  -0.09991,   1.00000
147385682.30734,216195423.10223,-251263574.21129,   0.00030,   0.00082,  -0.00394,475393564.90197,   0.00069,275393572.62796,   0.00005,   0.00012,  -0.00068,  -7.72599,   1.00000
147204399.87380,216382319.03216,-251239413.67278,   0.00030,   0.00082,  -0.00395,475396406.02706,   0.00069,275396415.95355,   0.00005,   0.00012,  -0.00068,  -9.92649,   1.00000
147007398.81907,216565873.58003,-251216504.11953,   0.00030,   0.00082,  -0.00395,475399161.74218,   0.00069,275399163.31927,   0.00005,   0.00012,  -0.00068,  -1.57709,   1.00000
146812624.42270,216752613.41612,-251192679.10612,   0.00029,   0.00082,  -0.00395,475401838.65445,   0.00070,275401845.91533,   0.00005,   0.00012,  -0.00068,  -7.26088,   1.00000
146617939.15201,216939126.44339,-251168753.48045,   0.00029,   0.00082,  -0.00395,475404527.95216,   0.00070,275404529.99985,   0.00005,   0.00012,  -0.00069,  -2.04770,   1.00000
146414043.05606,217138696.64434,-251142616.79480,   0.00029,   0.00082,  -0.00395,475407165.50807,   0.00070,275407167.97626,   0.00005,   0.00012,  -0.00069,  -2.46819,   1.00000
146203691.87475,217321622.31966,-251119789.48962,   0.00029,   0.00083,  -0.00396,475409749.11969,   0.00070,275409758.35395,   0.00005,   0.00012,  -0.00069,  -9.23426,   1.00000
146002094.16667,217524145.37541,-251092612.00642,   0.00029,   0.00083,  -0.00396,475412330.48623,   0.00071,275412333.42199,   0.00005,   0.00012,  -0.00069,  -2.93576,   1.00000
145802693.73114,217729857.07257,-251064504.77129,   0.00029,   0.00083,  -0.00396,475414843.22788,   0.00071,275414843.94063,   0.00005,   0.00012,  -0.00070,  -0.71276,   1.00000
145596824.80938,217918941.97394,-251039715.83384,   0.00029,   0.00083,  -0.00396,475417302.40516,   0.00071,275417306.73734,   0.00005,   0.00012,  -0.00070,  -4.33218,   1.00000
145381706.38592,218121073.21485,-251012668.65878,   0.00029,   0.00083,  -0.00396,475419718.55507,   0.00071,275419724.11126,   0.00005,   0.00012,  -0.00070,  -5.55619,   1.00000
145168770.95617,218326407.81018,-250984683.14730,   0.00029,   0.00084,  -0.00397,475422075.25818,   0.00072,275422077.06068,   0.00005,   0.00012,  -0.00070,  -1.80251,   1.00000
144955903.00121,218531492.35757,-250956561.15345,   0.00028,   0.00084,  -0.00397,475424425.03087,   0.00072,275424432.04117,   0.00005,   0.00013,  -0.00071,  -7.01030,   1.00000
144727211.08955,218733241.35772,-250929596.60087,   0.00028,   0.00084,  -0.00397,475426684.00203,   0.00072,275426692.41979,   0.00005,   0.00013,  -0.00071,  -8.41776,   1.00000
144525228.12903,218961100.42201,-250896123.27265,   0.00028,   0.00084,  -0.00397,475428960.09144,   0.00072,275428968.59125,   0.00005,   0.00013,  -0.00071,  -8.49981,   1.00000
144298752.27666,219165806.22500,-250868066.82253,   0.00028,   0.00084,  -0.00397,475431161.15869,   0.00072,275431166.83348,   0.00005,   0.00013,  -0.00071,  -5.67480,   1.00000
144056421.48166,219367182.57671,-250841139.18316,   0.00028,   0.00084,  -0.00397,475433269.10235,   0.00073,275433270.88133,   0.00005,   0.00013,  -0.00071,  -1.77899,   1.00000
143840794.30170,219594664.08016,-250807686.66930,   0.00028,   0.00085,  -0.00398,475435386.53463,   0.00073,275435390.95894,   0.00005,   0.00013,  -0.00072,  -4.42431,   1.00000
143600651.77475,219799005.74368,-250779636.28558,   0.00028,   0.00085,  -0.00398,475437427.59526,   0.00073,275437433.31533,   0.00005,   0.00013,  -0.00072,  -5.72008,   1.00000
143369193.87522,220022899.60785,-250747135.67885,   0.00027,   0.00085,  -0.00398,475439454.09153,   0.00073,275439461.82574,   0.00005,   0.00013,  -0.00072,  -7.73420,   1.00000
143139853.39198,220250013.60508,-250713655.37471,   0.00027,   0.00085,  -0.00398,475441418.51457,   0.00073,275441426.50842,   0.00005,   0.00013,  -0.00072,  -7.99384,   1.00000
142904000.02333,220460560.51737,-250683500.30159,   0.00027,   0.00085,  -0.00398,475443338.36048,   0.00074,275443343.37738,   0.00005,   0.00013,  -0.00072,  -5.01691,   1.00000
142658781.26393,220684094.02073,-250650935.28780,   0.00027,   0.00085,  -0.00398,475445209.68254,   0.00074,275445217.01385,   0.00005,   0.00013,  -0.00072,  -7.33131,   1.00000
142413604.42537,220907367.26227,-250618198.65671,   0.00027,   0.00086,  -0.00398,475447084.03148,   0.00074,275447093.20916,   0.00005,   0.00013,  -0.00073,  -9.17768,   1.00000
142170520.60621,221133878.16157,-250584468.98410,   0.00027,   0.00086,  -0.00398,475448902.30860,   0.00074,275448905.75991,   0.00005,   0.00013,  -0.00073,  -3.45131,   1.00000
141911474.37170,221357062.51006,-250551781.37506,   0.00027,   0.00086,  -0.00399,475450622.07204,   0.00074,275450625.34597,   0.00005,   0.00013,  -0.00073,  -3.27393,   1.00000
141654500.12367,221583488.70335,-250518080.78305,   0.00026,   0.00086,  -0.00399,475452277.24870,   0.00074,275452281.56797,   0.00005,   0.00013,  -0.00073,  -4.31927,   1.00000
141397553.58822,221809656.47834,-250484195.04428,   0.00026,   0.00086,  -0.00399,475453935.70822,   0.00075,275453940.54530,   0.00005,   0.00013,  -0.00073,  -4.83708,   1.00000
141147204.28079,222051830.40828,-250446612.94647,   0.00026,   0.00087,  -0.00399,475455646.09695,   0.00075,275455652.87459,   0.00005,   0.00013,  -0.00073,  -6.77764,   1.00000
140876299.56753,222277927.78574,-250412715.57402,   0.00026,   0.00087,  -0.00399,475457149.89054,   0.00075,275457156.08599,   0.00005,   0.00013,  -0.00073,  -6.19546,   1.00000
140605412.65691,222503766.62501,-250378620.24010,   0.00026,   0.00087,  -0.00399,475458657.22133,   0.00075,275458662.23685,   0.00005,   0.00013,  -0.00074,  -5.01551,   1.00000
140341119.08227,222745592.79240,-250340804.85418,   0.00026,   0.00087,  -0.00399,475460217.86863,   0.00075,275460222.08897,   0.00005,   0.00013,  -0.00074,  -4.22034,   1.00000
140074282.28275,222977954.16044,-250304637.28972,   0.00025,   0.00087,  -0.00399,475461596.82030,   0.00075,275461602.13963,   0.00005,   0.00013,  -0.00074,  -5.31933,   1.00000
139795954.61357,223219715.90067,-250266744.90184,   0.00025,   0.00088,  -0.00399,475463003.85148,   0.00075,275463007.14027,   0.00005,   0.00013,  -0.00074,  -3.28879,   1.00000
139517632.57037,223461202.72998,-250228634.67184,   0.00025,   0.00088,  -0.00399,475464414.83728,   0.00075,275464415.37388,   0.00005,   0.00013,  -0.00074,  -0.53660,   1.00000
139216637.73069,223683145.88713,-250194993.53933,   0.00025,   0.00088,  -0.00399,475465677.90326,   0.00076,275465681.18916,   0.00005,   0.00013,  -0.00074,  -3.28590,   1.00000
138942309.38669,223931168.29504,-250154760.18268,   0.00025,   0.00088,  -0.00400,475466961.97662,   0.00076,275466964.02827,   0.00005,   0.00013,  -0.00074,  -2.05165,   1.00000
138649878.62255,224172330.17630,-250116285.65071,   0.00025,   0.00088,  -0.00400,475468216.74258,   0.00076,275468221.60268,   0.00005,   0.00013,  -0.00074,  -4.86010,   1.00000
138361394.77574,224420314.50543,-250075889.81452,   0.00024,   0.00088,  -0.00400,475469344.32789,   0.00076,275469350.75769,   0.00005,   0.00013,  -0.00075,  -6.42980,   1.00000
138052816.52450,224657881.97566,-250038075.44175,   0.00024,   0.00089,  -0.00400,475470512.47665,   0.00076,275470520.88836,   0.00005,   0.00013,  -0.00075,  -8.41171,   1.00000
137766267.09108,224908880.22036,-249996357.55591,   0.00024,   0.00089,  -0.00400,475471585.12392,   0.00076,275471591.15993,   0.00005,   0.00013,  -0.00075,  -6.03602,   1.00000
137459620.22484,225149451.28055,-249957211.81118,   0.00024,   0.00089,  -0.00400,475472699.26537,   0.00076,275472702.54661,   0.00005,   0.00013,  -0.00075,  -3.28125,   1.00000
137138740.62556,225390274.59340,-249918069.91925,   0.00024,   0.00089,  -0.00400,475473655.07581,   0.00076,275473657.70500,   0.00005,   0.00013,  -0.00075,  -2.62919,   1.00000
136835953.00825,225637419.32722,-249876716.50650,   0.00023,   0.00089,  -0.00400,475474638.73963,   0.00076,275474644.83876,   0.00005,   0.00013,  -0.00075,  -6.09913,   1.00000
136523550.84637,225897417.84656,-249832627.55573,   0.00023,   0.00090,  -0.00400,475475584.11364,   0.00077,275475593.37294,   0.00005,   0.00013,  -0.00075,  -9.25931,   1.00000
136204505.33214,226140978.30236,-249791849.95466,   0.00023,   0.00090,  -0.00400,475476491.70768,   0.00077,275476494.21901,   0.00005,   0.00013,  -0.00075,  -2.51134,   1.00000
135869207.58563,226381227.95956,-249751874.20830,   0.00023,   0.00090,  -0.00400,475477296.93327,   0.00077,275477305.41741,   0.00005,   0.00013,  -0.00075,  -8.48414,   1.00000
135542400.44936,226640923.72198,-249707183.25008,   0.00023,   0.00090,  -0.00400,475478104.52624,   0.00077,275478106.55851,   0.00005,   0.00014,  -0.00075,  -2.03227,   1.00000
135208922.93639,226884193.42433,-249665790.14074,   0.00023,   0.00090,  -0.00400,475478856.46265,   0.00077,275478860.18543,   0.00005,   0.00014,  -0.00075,  -3.72278,   1.00000
134877302.86583,227130776.42980,-249623255.04418,   0.00022,   0.00091,  -0.00400,475479545.59986,   0.00077,275479552.18272,   0.00005,   0.00014,  -0.00075,  -6.58286,   1.00000
134535988.16165,227390176.81517,-249577884.54205,   0.00022,   0.00091,  -0.00400,475480203.41970,   0.00077,275480206.98275,   0.00005,   0.00014,  -0.00076,  -3.56304,   1.00000
134194602.23744,227649278.20916,-249532205.64631,   0.00022,   0.00091,  -0.00400,475480857.41073,   0.00077,275480866.29922,   0.00005,   0.00014,  -0.00076,  -8.88849,   1.00000
133846523.09183,227891986.60432,-249489832.99949,   0.00022,   0.00091,  -0.00400,475481471.31628,   0.00077,275481477.95326,   0.00005,   0.00014,  -0.00076,  -6.63698,   1.00000
133490596.86814,228151096.15828,-249443702.46437,   0.00021,   0.00091,  -0.00400,475481985.17457,   0.00077,275481987.50146,   0.00005,   0.00014,  -0.00076,  -2.32690,   1.00000
133132704.73759,228406288.84038,-249398115.91386,   0.00021,   0.00092,  -0.00400,475482558.57006,   0.00077,275482567.46708,   0.00005,   0.00014,  -0.00076,  -8.89702,   1.00000
132771842.27597,228652341.66020,-249354089.04647,   0.00021,   0.00092,  -0.00400,475482962.86796,   0.00077,275482968.51831,   0.00005,   0.00014,  -0.00076,  -5.65035,   1.00000
132417526.45454,228914181.08021,-249306123.93407,   0.00021,   0.00092,  -0.00400,475483421.66267,   0.00077,275483426.48624,   0.00005,   0.00014,  -0.00076,  -4.82357,   1.00000
132046777.24866,229172706.77035,-249258815.98344,   0.00021,   0.00092,  -0.00400,475483791.08464,   0.00077,275483796.76995,   0.00005,   0.00014,  -0.00076,  -5.68531,   1.00000
131675926.08507,229430931.89841,-249211171.57714,   0.00020,   0.00092,  -0.00400,475484169.77687,   0.00077,275484171.95518,   0.00005,   0.00014,  -0.00076,  -2.17832,   1.00000
131288603.64694,229685836.62915,-249164148.40144,   0.00020,   0.00093,  -0.00400,475484454.81731,   0.00077,275484459.94751,   0.00005,   0.00014,  -0.00076,  -5.13020,   1.00000
130919383.49945,229947086.40851,-249114936.05877,   0.00020,   0.00093,  -0.00400,475484774.55775,   0.00077,275484779.60177,   0.00005,   0.00014,  -0.00076,  -5.04402,   1.00000
130533662.68854,230205021.37899,-249066327.87817,   0.00020,   0.00093,  -0.00400,475485006.49468,   0.00077,275485012.28405,   0.00005,   0.00014,  -0.00076,  -5.78938,   1.00000
130131414.10632,230459635.35871,-249018297.56034,   0.00020,   0.00093,  -0.00400,475485149.90783,   0.00077,275485158.35430,   0.00005,   0.00014,  -0.00076,  -8.44647,   1.00000
129747266.41351,230720602.37919,-248968083.05023,   0.00019,   0.00093,  -0.00400,475485332.23763,   0.00077,275485336.01051,   0.00005,   0.00014,  -0.00076,  -3.77288,   1.00000
129344752.79438,230974595.54217,-248919314.75214,   0.00019,   0.00094,  -0.00400,475485491.54432,   0.00077,275485492.78397,   0.00005,   0.00014,  -0.00076,  -1.23965,   1.00000
128927457.47438,231228917.26047,-248870185.26210,   0.00019,   0.00094,  -0.00400,475485491.27023,   0.00077,275485498.16173,   0.00005,   0.00014,  -0.00076,  -6.89150,   1.00000
128526468.23327,231485933.78343,-248819766.36411,   0.00019,   0.00094,  -0.00399,475485593.32719,   0.00077,275485600.51166,   0.00005,   0.00014,  -0.00076,  -7.18446,   1.00000
128109320.76351,231740556.26497,-248765591.36804,   0.00018,   0.00094,  -0.00399,475479249.36225,   0.00077,275485600.51166,   0.00005,   0.00014,  -0.00076,-6351.14940,   0.00000
127692173.29375,231995178.74651,-248711416.37197,   0.00018,   0.00094,  -0.00399,475473649.54910,   0.00077,275485600.51166,   0.00005,   0.00014,  -0.00076,-11950.96255,   0.00000
127256064.57537,232241674.97864,-248657241.37589,   0.00018,   0.00095,  -0.00399,475465467.77440,   0.00077,275485600.51166,   0.00005,   0.00014,  -0.00076,-20132.73725,   0.00000
126828082.10640,232507132.45939,-248597648.88022,   0.00018,   0.00095,  -0.00399,475456484.29242,   0.00077,275485600.51166,   0.00005,   0.00014,  -0.00076,-29116.21924,   0.00000
126391973.38802,232753628.69152,-248532638.88493,   0.00017,   0.00095,  -0.00399,475432865.85570,   0.00077,275485600.51166,   0.00005,   0.00014,  -0.00076,-52734.65596,   0.00000
125955864.66964,233000124.92365,-248467628.88964,   0.00017,   0.00095,  -0.00399,475410026.89714,   0.00077,275485600.51166,   0.00005,   0.00014,  -0.00076,-75573.61451,   0.00000
125508920.95204,233257456.15499,-248397201.39475,   0.00017,   0.00095,  -0.00399,475383158.56437,   0.00077,275485600.51166,   0.00005,   0.00014,  -0.00076,-102441.94728,   0.00000
125053850.98503,233495826.13771,-248326773.89985,   0.00017,   0.00096,  -0.00399,475350159.49192,   0.00077,275485600.51166,   0.00005,   0.00014,  -0.00076,-135441.01974,   0.00000
124579819.76940,233726069.87102,-248250928.90535,   0.00016,   0.00096,  -0.00399,475306245.14969,   0.00077,275485600.51166,   0.00005,   0.00014,  -0.00076,-179355.36197,   0.00000
124132876.05180,233983401.10236,-248175083.91085,   0.00016,   0.00096,  -0.00399,475273381.54327,   0.00077,275485600.51166,   0.00005,   0.00014,  -0.00076,-212218.96838,   0.00000
123658844.83617,234213644.83567,-248093821.41674,   0.00016,   0.00096,  -0.00399,475222669.11803,   0.00077,275485600.51166,   0.00005,   0.00014,  -0.00076,-262931.39363,   0.00000
123173978.62132,234454723.56819,-248012558.92263,   0.00016,   0.00096,  -0.00398,475176612.90771,   0.00077,275485600.51166,   0.00005,   0.00014,  -0.00076,-308987.60394,   0.00000
122680986.15706,234676841.05209,-247925878.92892,   0.00015,   0.00097,  -0.00398,475115967.03351,   0.00077,275485600.51166,   0.00005,   0.00014,  -0.00076,-369633.47814,   0.00000
122187993.69281,234898958.53598,-247839198.93520,   0.00015,   0.00097,  -0.00398,475056206.82868,   0.00077,275485600.51166,   0.00005,   0.00014,  -0.00076,-429393.68298,   0.00000
121703127.47796,235140037.26851,-247747101.44188,   0.00015,   0.00097,  -0.00398,474995883.40558,   0.00077,275485600.51166,   0.00005,   0.00014,  -0.00076,-489717.10607,   0.00000
121210135.01370,235362154.75240,-247649586.44895,   0.00015,   0.00097,  -0.00398,474920956.76027,   0.00077,275485600.51166,   0.00005,   0.00014,  -0.00076,-564643.75139,   0.00000
120706307.55023,235595107.23551,-247552071.45602,   0.00014,   0.00097,  -0.00398,474850856.59702,   0.00077,275485600.51166,   0.00005,   0.00014,  -0.00076,-634743.91464,   0.00000
120175392.58872,235800972.22059,-247454556.46309,   0.00014,   0.00098,  -0.00398,474771546.76502,   0.00077,275485600.51166,   0.00005,   0.00014,  -0.00076,-714053.74664,   0.00000
119671565.12525,236033924.70370,-247351623.97055,   0.00014,   0.00098,  -0.00398,474694876.27445,   0.00077,275485600.51166,   0.00005,   0.00014,  -0.00076,-790724.23720,   0.00000
119148776.41315,236258750.93740,-247248691.47801,   0.00013,   0.00098,  -0.00397,474616090.68481,   0.00077,275485600.51166,   0.00005,   0.00014,  -0.00076,-869509.82685,   0.00000
118617861.45164,236464615.92247,-247140341.48587,   0.00013,   0.00098,  -0.00397,474522738.92646,   0.00077,275485600.51166,   0.00005,   0.00014,  -0.00076,-962861.58519,   0.00000
118076111.49092,236681315.90676,-247026573.99412,   0.00013,   0.00098,  -0.00397,474425957.06513,   0.00077,275485600.51166,   0.00005,   0.00014,  -0.00076,-1059643.44653,   0.00000
117526235.28078,236879054.64243,-246918224.00197,   0.00013,   0.00099,  -0.00397,474331558.12304,   0.00077,275485600.51166,   0.00005,   0.00014,  -0.00076,-1154042.38861,   0.00000
116984485.32006,237095754.62672,-246799039.01061,   0.00012,   0.00099,  -0.00397,474228361.45756,   0.00077,275485600.51166,   0.00005,   0.00014,  -0.00076,-1257239.05410,   0.00000
116434609.10993,237293493.36238,-246679854.01926,   0.00012,   0.00099,  -0.00397,474119073.84497,   0.00077,275485600.51166,   0.00005,   0.00014,  -0.00076,-1366526.66669,   0.00000
115873897.90058,237502067.09726,-246560669.02790,   0.00012,   0.00099,  -0.00397,474014970.59754,   0.00077,275485600.51166,   0.00005,   0.00014,  -0.00076,-1470629.91411,   0.00000
115313186.69123,237710640.83214,-246436066.53693,   0.00011,   0.00099,  -0.00396,473903484.85269,   0.00077,275485600.51166,   0.00005,   0.00014,  -0.00076,-1582115.65896,   0.00000
114744349.23247,237900253.31839,-246311464.04596,   0.00011,   0.00100,  -0.00396,473785920.45551,   0.00077,275485600.51166,   0.00005,   0.00014,  -0.00076,-1699680.05614,   0.00000
114164676.77450,238100700.80386,-246181444.05539,   0.00011,   0.00100,  -0.00396,473665216.99493,   0.00077,275485600.51166,   0.00005,   0.00014,  -0.00076,-1820383.51673,   0.00000
113576878.06711,238282187.04070,-246051424.06482,   0.00010,   0.00100,  -0.00396,473538457.61697,   0.00077,275485600.51166,   0.00005,   0.00014,  -0.00076,-1947142.89469,   0.00000
112997205.60914,238482634.52617,-245921404.07424,   0.00010,   0.00100,  -0.00396,473419977.50813,   0.00077,275485600.51166,   0.00005,   0.00014,  -0.00076,-2065623.00353,   0.00000
112398571.90254,238674955.76222,-245785966.58406,   0.00010,   0.00100,  -0.00396,473291319.80868,   0.00077,275485600.51166,   0.00005,   0.00014,  -0.00076,-2194280.70298,   0.00000
111791811.94653,238848315.74966,-245645111.59427,   0.00010,   0.00101,  -0.00395,473148183.66680,   0.00077,275485600.51166,   0.00005,   0.00014,  -0.00076,-2337416.84485,   0.00000
111193178.23993,239040636.98571,-245504256.60449,   0.00009,   0.00101,  -0.00395,473013404.56213,   0.00077,275485600.51166,   0.00005,   0.00014,  -0.00076,-2472195.94953,   0.00000
110567457.03529,239205870.72373,-245363401.61470,   0.00009,   0.00101,  -0.00395,472869773.68608,   0.00077,275485600.51166,   0.00005,   0.00014,  -0.00076,-2615826.82558,   0.00000
109968823.32870,239398191.95979,-245217129.12530,   0.00009,   0.00101,  -0.00395,472728907.71609,   0.00077,275485600.51166,   0.00005,   0.00014,  -0.00076,-2756692.79557,   0.00000
109332267.12485,239574260.69702,-245070856.63591,   0.00008,   0.00101,  -0.00395,472583694.46395,   0.00077,275485600.51166,   0.00005,   0.00014,  -0.00076,-2901906.04771,   0.00000
108706545.92021,239739494.43505,-244924584.14651,   0.00008,   0.00102,  -0.00394,472435224.88825,   0.00077,275485600.51166,   0.00005,   0.00014,  -0.00076,-3050375.62341,   0.00000
108069989.71636,239915563.17228,-244772894.15751,   0.00008,   0.00102,  -0.00394,472284063.70263,   0.00077,275485600.51166,   0.00005,   0.00014,  -0.00076,-3201536.80902,   0.00000
107425307.26310,240072670.66089,-244615786.66890,   0.00007,   0.00102,  -0.00394,472118473.15111,   0.00077,275485600.51166,   0.00005,   0.00014,  -0.00076,-3367127.36054,   0.00000
106788751.05925,240248739.39812,-244458679.18029,   0.00007,   0.00102,  -0.00394,471961406.03975,   0.00077,275485600.51166,   0.00005,   0.00014,  -0.00076,-3524194.47191,   0.00000
106125107.35736,240397720.63732,-244301571.69168,   0.00007,   0.00102,  -0.00394,471795657.44208,   0.00077,275485600.51166,   0.00005,   0.00014,  -0.00076,-3689943.06957,   0.00000
105469589.90489,240565663.12515,-244139046.70346,   0.00006,   0.00103,  -0.00393,471630080.90067,   0.00077,275485600.51166,   0.00005,   0.00014,  -0.00076,-3855519.61099,   0.00000
104805946.20300,240714644.36435,-243976521.71525,   0.00006,   0.00103,  -0.00393,471458513.28430,   0.00077,275485600.51166,   0.00005,   0.00014,  -0.00076,-4027087.22735,   0.00000
104150428.75053,240882586.85217,-243813996.72703,   0.00006,   0.00103,  -0.00393,471295557.75367,   0.00077,275485600.51166,   0.00005,   0.00014,  -0.00076,-4190042.75798,   0.00000
103467823.80002,241023441.84196,-243646054.23921,   0.00005,   0.00103,  -0.00393,471115610.34005,   0.00077,275485600.51166,   0.00005,   0.00014,  -0.00076,-4369990.17160,   0.00000
102793345.09892,241183258.08037,-243478111.75138,   0.00005,   0.00103,  -0.00393,470944343.42182,   0.00077,275485600.51166,   0.00005,   0.00014,  -0.00076,-4541257.08984,   0.00000
102091778.89978,241315986.82075,-243310169.26356,   0.00005,   0.00104,  -0.00392,470764563.07149,   0.00077,275485600.51166,   0.00005,   0.00014,  -0.00076,-4721037.44017,   0.00000
101417300.19868,241475803.05916,-243136809.27613,   0.00004,   0.00104,  -0.00392,470587645.72395,   0.00077,275485600.51166,   0.00005,   0.00014,  -0.00076,-4897954.78770,   0.00000
100715733.99954,241608531.79954,-242963449.28869,   0.00004,   0.00104,  -0.00392,470402247.19216,   0.00077,275485600.51166,   0.00005,   0.00014,  -0.00076,-5083353.31950,   0.00000
100003332.80119,241752095.53913,-242784671.80166,   0.00004,   0.00104,  -0.00392,470214756.88119,   0.00077,275485600.51166,   0.00005,   0.00014,  -0.00076,-5270843.63047,   0.00000
99301766.60206,241884824.27951,-242605894.31462,   0.00003,   0.00104,  -0.00391,470023806.38689,   0.00077,275485600.51166,   0.00005,   0.00014,  -0.00076,-5461794.12477,   0.00000
98581239.15430,242009426.77047,-242427116.82758,   0.00003,   0.00105,  -0.00391,469831837.04482,   0.00077,275485600.51166,   0.00005,   0.00014,  -0.00076,-5653763.46683,   0.00000
97868837.95594,242152990.51007,-242242921.84093,   0.00003,   0.00105,  -0.00391,469640338.99691,   0.00077,275485600.51166,   0.00005,   0.00014,  -0.00076,-5845261.51474,   0.00000
97148310.50818,242277593.00103,-242058726.85429,   0.00002,   0.00105,  -0.00391,469442913.68587,   0.00077,275485600.51166,   0.00005,   0.00014,  -0.00076,-6042686.82578,   0.00000
96408821.81180,242394069.24259,-241874531.86764,   0.00002,   0.00105,  -0.00390,469244591.44016,   0.00077,275485600.51166,   0.00005,   0.00014,  -0.00076,-6241009.07149,   0.00000
95677459.36482,242529506.73277,-241690336.88100,   0.00001,   0.00105,  -0.00390,469055207.48234,   0.00077,275485600.51166,   0.00005,   0.00014,  -0.00076,-6430393.02932,   0.00000
94937970.66843,242645982.97432,-241500724.39474,   0.00001,   0.00106,  -0.00390,468851547.68150,   0.00077,275485600.51166,   0.00005,   0.00014,  -0.00076,-6634052.83015,   0.00000
94179520.72342,242754332.96647,-241305694.40888,   0.00001,   0.00106,  -0.00390,468638747.89419,   0.00077,275485600.51166,   0.00005,   0.00014,  -0.00076,-6846852.61747,   0.00000
93440032.02703,242870809.20802,-241116081.92263,   0.00000,   0.00106,  -0.00389,468438158.39970,   0.00077,275485600.51166,   0.00005,   0.00014,  -0.00076,-7047442.11195,   0.00000
92681582.08202,242979159.20017,-240921051.93677,   0.00000,   0.00106,  -0.00389,468228485.22294,   0.00077,275485600.51166,   0.00005,   0.00014,  -0.00076,-7257115.28871,   0.00000
91904170.88838,243079382.94290,-240726021.95091,  -0.00000,   0.00106,  -0.00389,468018169.32902,   0.00077,275485600.51166,   0.00005,   0.00014,  -0.00076,-7467431.18264,   0.00000
91153847.19278,243206694.18367,-240530991.96505,  -0.00001,   0.00107,  -0.00389,467819162.07332,   0.00077,275485600.51166,   0.00005,   0.00014,  -0.00076,-7666438.43833,   0.00000
90376435.99914,243306917.92641,-240330544.47958,  -0.00001,   0.00107,  -0.00388,467603738.46686,   0.00077,275485600.51166,   0.00005,   0.00014,  -0.00076,-7881862.04479,   0.00000
89599024.80551,243407141.66914,-240130096.99411,  -0.00001,   0.00107,  -0.00388,467389954.73223,   0.00077,275485600.51166,   0.00005,   0.00014,  -0.00076,-8095645.77943,   0.00000
88821613.61187,243507365.41187,-239929649.50864,  -0.00002,   0.00107,  -0.00388,467177813.12067,   0.00077,275485600.51166,   0.00005,   0.00014,  -0.00076,-8307787.39098,   0.00000
88025241.16961,243599462.90520,-239723784.52357,  -0.00002,   0.00107,  -0.00388,466956870.10532,   0.00077,275485600.51166,   0.00005,   0.00014,  -0.00076,-8528730.40633,   0.00000
87247829.97597,243699686.64793,-239523337.03810,  -0.00003,   0.00108,  -0.00387,466748046.85137,   0.00077,275485600.51166,   0.00005,   0.00014,  -0.00076,-8737553.66029,   0.00000
86424370.03567,243764696.64322,-239317472.05303,  -0.00003,   0.00108,  -0.00387,466520895.57795,   0.00077,275485600.51166,   0.00005,   0.00014,  -0.00076,-8964704.93371,   0.00000
85627997.59341,243856794.13654,-239106189.56835,  -0.00003,   0.00108,  -0.00387,466296719.59668,   0.00077,275485600.51166,   0.00005,   0.00014,  -0.00076,-9188880.91497,   0.00000
84831625.15114,243948891.62986,-238900324.58327,  -0.00004,   0.00108,  -0.00387,466082589.97780,   0.00077,275485600.51166,   0.00005,   0.00014,  -0.00076,-9403010.53385,   0.00000
84016291.46025,244032862.87378,-238689042.09859,  -0.00004,   0.00108,  -0.00386,465859867.03498,   0.00077,275485600.51166,   0.00005,   0.00014,  -0.00076,-9625733.47668,   0.00000
83200957.76937,244116834.11769,-238477759.61391,  -0.00005,   0.00109,  -0.00386,465638914.99591,   0.00077,275485600.51166,   0.00005,   0.00014,  -0.00076,-9846685.51574,   0.00000
82377497.82907,244181844.11297,-238266477.12922,  -0.00005,   0.00109,  -0.00386,465412159.46770,   0.00077,275485600.51166,   0.00005,   0.00014,  -0.00076,-10073441.04395,   0.00000
81543202.88955,244257689.10748,-238055194.64454,  -0.00005,   0.00109,  -0.00386,465192847.55587,   0.00077,275485600.51166,   0.00005,   0.00014,  -0.00076,-10292752.95578,   0.00000
80700781.70063,244314572.85335,-237838494.66025,  -0.00006,   0.00109,  -0.00385,464959458.76200,   0.00077,275485600.51166,   0.00005,   0.00014,  -0.00076,-10526141.74965,   0.00000
79885448.00974,244398544.09726,-237621794.67596,  -0.00006,   0.00109,  -0.00385,464737342.90190,   0.00077,275485600.51166,   0.00005,   0.00014,  -0.00076,-10748257.60975,   0.00000
79024065.57219,244447301.59373,-237405094.69168,  -0.00006,   0.00109,  -0.00385,464505762.67966,   0.00077,275485600.51166,   0.00005,   0.00014,  -0.00076,-10979837.83199,   0.00000
78189770.63268,244523146.58823,-237188394.70739,  -0.00007,   0.00110,  -0.00384,464285477.32455,   0.00077,275485600.51166,   0.00005,   0.00014,  -0.00076,-11200123.18710,   0.00000
77328388.19513,244571904.08470,-236971694.72310,  -0.00007,   0.00110,  -0.00384,464057644.09995,   0.00077,275485600.51166,   0.00005,   0.00014,  -0.00076,-11427956.41170,   0.00000
76494093.25561,244647749.07920,-236749577.23920,  -0.00008,   0.00110,  -0.00384,463832778.77754,   0.00077,275485600.51166,   0.00005,   0.00014,  -0.00076,-11652821.73411,   0.00000
75632710.81806,244696506.57566,-236527459.75530,  -0.00008,   0.00110,  -0.00384,463600415.02450,   0.00077,275485600.51166,   0.00005,   0.00014,  -0.00076,-11885185.48716,   0.00000
74752367.13189,244737137.82272,-236305342.27141,  -0.00008,   0.00110,  -0.00383,463368262.83440,   0.00077,275485600.51166,   0.00005,   0.00014,  -0.00076,-12117337.67726,   0.00000
73890984.69434,244785895.31918,-236083224.78751,  -0.00009,   0.00111,  -0.00383,463139728.80774,   0.00077,275485600.51166,   0.00005,   0.00014,  -0.00076,-12345871.70392,   0.00000
73010641.00816,244826526.56624,-235861107.30361,  -0.00009,   0.00111,  -0.00383,462911466.68231,   0.00077,275485600.51166,   0.00005,   0.00014,  -0.00076,-12574133.82934,   0.00000
72149258.57061,244875284.06270,-235638989.81972,  -0.00010,   0.00111,  -0.00382,462686773.78920,   0.00077,275485600.51166,   0.00005,   0.00014,  -0.00076,-12798826.72246,   0.00000
71249953.63581,244907789.06034,-235411454.83621,  -0.00010,   0.00111,  -0.00382,462452561.48522,   0.00077,275485600.51166,   0.00005,   0.00014,  -0.00076,-13033039.02644,   0.00000
70369609.94964,244948420.30740,-235183919.85271,  -0.00011,   0.00111,  -0.00382,462221931.86023,   0.00077,275485600.51166,   0.00005,   0.00014,  -0.00076,-13263668.65143,   0.00000
69489266.26346,244989051.55445,-234956384.86921,  -0.00011,   0.00112,  -0.00381,461993281.81772,   0.00077,275485600.51166,   0.00005,   0.00014,  -0.00076,-13492318.69394,   0.00000
68589961.32866,245021556.55210,-234728849.88570,  -0.00011,   0.00112,  -0.00381,461765119.71746,   0.00077,275485600.51166,   0.00005,   0.00014,  -0.00076,-13720480.79420,   0.00000
67690656.39386,245054061.54974,-234501314.90220,  -0.00012,   0.00112,  -0.00381,461538999.26155,   0.00077,275485600.51166,   0.00005,   0.00014,  -0.00076,-13946601.25011,   0.00000
66810312.70769,245094692.79679,-234273779.91870,  -0.00012,   0.00112,  -0.00381,461316361.21504,   0.00077,275485600.51166,   0.00005,   0.00014,  -0.00076,-14169239.29662,   0.00000
65883920.27485,245100110.29640,-234046244.93519,  -0.00013,   0.00112,  -0.00380,461085169.13555,   0.00077,275485600.51166,   0.00005,   0.00014,  -0.00076,-14400431.37611,   0.00000
64984615.34005,245132615.29404,-233813292.45208,  -0.00013,   0.00113,  -0.00380,460856938.51938,   0.00077,275485600.51166,   0.00005,   0.00014,  -0.00076,-14628661.99228,   0.00000
64077184.15584,245146159.04306,-233585757.46858,  -0.00013,   0.00113,  -0.00380,460631270.67245,   0.00077,275485600.51166,   0.00005,   0.00014,  -0.00076,-14854329.83921,   0.00000
63158917.97241,245170537.79129,-233352804.98547,  -0.00014,   0.00113,  -0.00379,460405832.30283,   0.00077,275485600.51166,   0.00005,   0.00014,  -0.00076,-15079768.20883,   0.00000
62232525.53958,245175955.29090,-233125270.00196,  -0.00014,   0.00113,  -0.00379,460182998.30499,   0.00077,275485600.51166,   0.00005,   0.00014,  -0.00076,-15302602.20666,   0.00000
61306133.10674,245181372.79051,-232892317.51885,  -0.00015,   0.00113,  -0.00379,459954041.53269,   0.00077,275485600.51166,   0.00005,   0.00014,  -0.00076,-15531558.97896,   0.00000
60379740.67390,245186790.29012,-232659365.03574,  -0.00015,   0.00113,  -0.00378,459727202.60904,   0.00077,275485600.51166,   0.00005,   0.00014,  -0.00076,-15758397.90261,   0.00000
59453348.24107,245192207.78972,-232426412.55263,  -0.00016,   0.00114,  -0.00378,459502484.67055,   0.00077,275485600.51166,   0.00005,   0.00014,  -0.00076,-15983115.84110,   0.00000
58516120.80902,245208460.28855,-232193460.06952,  -0.00016,   0.00114,  -0.00378,459286496.86567,   0.00077,275485600.51166,   0.00005,   0.00014,  -0.00076,-16199103.64598,   0.00000
57589728.37618,245213877.78815,-231960507.58641,  -0.00016,   0.00114,  -0.00378,459066066.37573,   0.00077,275485600.51166,   0.00005,   0.00014,  -0.00076,-16419534.13592,   0.00000
56636248.44531,245192207.78972,-231727555.10330,  -0.00017,   0.00114,  -0.00377,458838856.22730,   0.00077,275485600.51166,   0.00005,   0.00014,  -0.00076,-16646744.28435,   0.00000
55690894.76385,245189499.03992,-231494602.62019,  -0.00017,   0.00114,  -0.00377,458621626.98421,   0.00077,275485600.51166,   0.00005,   0.00014,  -0.00076,-16863973.52744,   0.00000
54764502.33101,245194916.53953,-231261650.13707,  -0.00018,   0.00115,  -0.00377,458407649.04872,   0.00077,275485600.51166,   0.00005,   0.00014,  -0.00076,-17077951.46293,   0.00000
53800187.40092,245184081.54031,-231023280.15436,  -0.00018,   0.00115,  -0.00376,458185565.45398,   0.00077,275485600.51166,   0.00005,   0.00014,  -0.00076,-17300035.05767,   0.00000
52846707.47005,245162411.54188,-230790327.67125,  -0.00019,   0.00115,  -0.00376,457967119.25405,   0.00077,275485600.51166,   0.00005,   0.00014,  -0.00076,-17518481.25760,   0.00000
51901353.78859,245159702.79208,-230557375.18813,  -0.00019,   0.00115,  -0.00376,457758691.55025,   0.00077,275485600.51166,   0.00005,   0.00014,  -0.00076,-17726908.96140,   0.00000
50947873.85771,245138032.79365,-230324422.70502,  -0.00019,   0.00115,  -0.00375,457544640.97317,   0.00077,275485600.51166,   0.00005,   0.00014,  -0.00076,-17940959.53848,   0.00000
49975432.67822,245108236.54581,-230091470.22191,  -0.00020,   0.00115,  -0.00375,457331887.50211,   0.00077,275485600.51166,   0.00005,   0.00014,  -0.00076,-18153713.00954,   0.00000
49002991.49872,245078440.29797,-229853100.23919,  -0.00020,   0.00116,  -0.00375,457113226.03593,   0.00077,275485600.51166,   0.00005,   0.00014,  -0.00076,-18372374.47572,   0.00000
48049511.56785,245056770.29954,-229620147.75608,  -0.00021,   0.00116,  -0.00375,456905849.03111,   0.00077,275485600.51166,   0.00005,   0.00014,  -0.00076,-18579751.48054,   0.00000
47077070.38835,245026974.05170,-229387195.27297,  -0.00021,   0.00116,  -0.00374,456699871.39303,   0.00077,275485600.51166,   0.00005,   0.00014,  -0.00076,-18785729.11862,   0.00000
46104629.20885,244997177.80386,-229154242.78986,  -0.00022,   0.00116,  -0.00374,456496167.44532,   0.00077,275485600.51166,   0.00005,   0.00014,  -0.00076,-18989433.06633,   0.00000
45132188.02935,244967381.55602,-228915872.80714,  -0.00022,   0.00116,  -0.00374,456286586.44152,   0.00077,275485600.51166,   0.00005,   0.00014,  -0.00076,-19199014.07013,   0.00000
44159746.84985,244937585.30818,-228682920.32403,  -0.00022,   0.00116,  -0.00373,456087443.72215,   0.00077,275485600.51166,   0.00005,   0.00014,  -0.00076,-19398156.78950,   0.00000
43179179.42094,244888827.81172,-228449967.84092,  -0.00023,   0.00117,  -0.00373,455882708.93702,   0.00077,275485600.51166,   0.00005,   0.00014,  -0.00076,-19602891.57464,   0.00000
42187776.99282,244850905.31447,-228217015.35781,  -0.00023,   0.00117,  -0.00373,455687477.62858,   0.00077,275485600.51166,   0.00005,   0.00014,  -0.00076,-19798122.88308,   0.00000
41207209.56391,244802147.81800,-227984062.87470,  -0.00024,   0.00117,  -0.00372,455487333.59347,   0.00077,275485600.51166,   0.00005,   0.00014,  -0.00076,-19998266.91819,   0.00000
40234768.38441,244772351.57016,-227751110.39159,  -0.00024,   0.00117,  -0.00372,455297360.70134,   0.00077,275485600.51166,   0.00005,   0.00014,  -0.00076,-20188239.81031,   0.00000
39235239.70688,244715467.82429,-227518157.90848,  -0.00025,   0.00117,  -0.00372,455101231.28975,   0.00077,275485600.51166,   0.00005,   0.00014,  -0.00076,-20384369.22190,   0.00000
38254672.27797,244666710.32782,-227290622.92497,  -0.00025,   0.00118,  -0.00372,454916097.84847,   0.00077,275485600.51166,   0.00005,   0.00014,  -0.00076,-20569502.66318,   0.00000
37255143.60044,244609826.58195,-227057670.44186,  -0.00026,   0.00118,  -0.00371,454724637.43370,   0.00077,275485600.51166,   0.00005,   0.00014,  -0.00076,-20760963.07796,   0.00000
36274576.17153,244561069.08548,-226824717.95875,  -0.00026,   0.00118,  -0.00371,454535994.49409,   0.00077,275485600.51166,   0.00005,   0.00014,  -0.00076,-20949606.01757,   0.00000
35266921.24458,244485224.09098,-226597182.97525,  -0.00026,   0.00118,  -0.00371,454349413.32235,   0.00077,275485600.51166,   0.00005,   0.00014,  -0.00076,-21136187.18931,   0.00000
34286353.81567,244436466.59451,-226364230.49214,  -0.00027,   0.00118,  -0.00370,454165387.95792,   0.00077,275485600.51166,   0.00005,   0.00014,  -0.00076,-21320212.55374,   0.00000
33286825.13814,244379582.84864,-226136695.50863,  -0.00027,   0.00118,  -0.00370,453991396.35695,   0.00077,275485600.51166,   0.00005,   0.00014,  -0.00076,-21494204.15471,   0.00000
32279170.21120,244303737.85414,-225909160.52513,  -0.00028,   0.00119,  -0.00370,453811839.47657,   0.00077,275485600.51166,   0.00005,   0.00014,  -0.00076,-21673761.03508,   0.00000
31290476.53288,244236019.10905,-225681625.54163,  -0.00028,   0.00119,  -0.00369,453634934.55510,   0.00077,275485600.51166,   0.00005,   0.00014,  -0.00076,-21850665.95656,   0.00000
30282821.60593,244160174.11455,-225454090.55812,  -0.00029,   0.00119,  -0.00369,453460055.30835,   0.00077,275485600.51166,   0.00005,   0.00014,  -0.00076,-22025545.20331,   0.00000
29275166.67899,244084329.12004,-225226555.57462,  -0.00029,   0.00119,  -0.00369,453287535.34083,   0.00077,275485600.51166,   0.00005,   0.00014,  -0.00076,-22198065.17082,   0.00000
28267511.75204,244008484.12554,-224999020.59112,  -0.00029,   0.00119,  -0.00369,453117377.34738,   0.00077,275485600.51166,   0.00005,   0.00014,  -0.00076,-22368223.16428,   0.00000
27278818.07372,243940765.38045,-224776903.10722,  -0.00030,   0.00119,  -0.00368,452957816.66921,   0.00077,275485600.51166,   0.00005,   0.00014,  -0.00076,-22527783.84244,   0.00000
26271163.14678,243864920.38595,-224549368.12372,  -0.00030,   0.00119,  -0.00368,452792352.48950,   0.00077,275485600.51166,   0.00005,   0.00014,  -0.00076,-22693248.02216,   0.00000
25255381.97042,243770114.14283,-224327250.63982,  -0.00031,   0.00120,  -0.00368,452629364.55878,   0.00077,275485600.51166,   0.00005,   0.00014,  -0.00076,-22856235.95287,   0.00000
24247727.04348,243694269.14832,-224105133.15592,  -0.00031,   0.00120,  -0.00367,452476683.46849,   0.00077,275485600.51166,   0.00005,   0.00014,  -0.00076,-23008917.04317,   0.00000
23250907.11574,243607589.15461,-223883015.67203,  -0.00032,   0.00120,  -0.00367,452318448.51443,   0.00077,275485600.51166,   0.00005,   0.00014,  -0.00076,-23167151.99722,   0.00000
22235125.93939,243512782.91148,-223660898.18813,  -0.00032,   0.00120,  -0.00367,452162505.08629,   0.00077,275485600.51166,   0.00005,   0.00014,  -0.00076,-23323095.42536,   0.00000
21238306.01166,243426102.91777,-223444198.20384,  -0.00033,   0.00120,  -0.00367,452016929.20935,   0.00077,275485600.51166,   0.00005,   0.00014,  -0.00076,-23468671.30230,   0.00000
20222524.83530,243331296.67464,-223222080.71994,  -0.00033,   0.00120,  -0.00366,451865676.08604,   0.00077,275485600.51166,   0.00005,   0.00014,  -0.00076,-23619924.42562,   0.00000
19206743.65895,243236490.43151,-223005380.73565,  -0.00033,   0.00121,  -0.00366,451724814.31770,   0.00077,275485600.51166,   0.00005,   0.00014,  -0.00076,-23760786.19395,   0.00000
18201797.48180,243130849.18917,-222788680.75137,  -0.00034,   0.00121,  -0.00366,451578216.47340,   0.00077,275485600.51166,   0.00005,   0.00014,  -0.00076,-23907384.03826,   0.00000
17204977.55407,243044169.19546,-222571980.76708,  -0.00034,   0.00121,  -0.00365,451441878.67834,   0.00077,275485600.51166,   0.00005,   0.00014,  -0.00076,-24043721.83332,   0.00000
16181070.12831,242930401.70370,-222355280.78279,  -0.00035,   0.00121,  -0.00365,451300061.94563,   0.00077,275485600.51166,   0.00005,   0.00014,  -0.00076,-24185538.56602,   0.00000
15176123.95117,242824760.46136,-222143998.29810,  -0.00035,   0.00121,  -0.00365,451168381.32534,   0.00077,275485600.51166,   0.00005,   0.00014,  -0.00076,-24317219.18631,   0.00000
14171177.77402,242719119.21902,-221932715.81342,  -0.00036,   0.00121,  -0.00365,451038987.64000,   0.00077,275485600.51166,   0.00005,   0.00014,  -0.00076,-24446612.87165,   0.00000
13166231.59688,242613477.97668,-221721433.32874,  -0.00036,   0.00121,  -0.00364,450911882.85838,   0.00077,275485600.51166,   0.00005,   0.00014,  -0.00076,-24573717.65327,   0.00000
12134197.92171,242480749.23630,-221510150.84406,  -0.00037,   0.00122,  -0.00364,450779418.21565,   0.00077,275485600.51166,   0.00005,   0.00014,  -0.00076,-24706182.29601,   0.00000
11129251.74456,242375107.99396,-221304285.85898,  -0.00037,   0.00122,  -0.00364,450664909.26703,   0.00077,275485600.51166,   0.00005,   0.00014,  -0.00076,-24820691.24462,   0.00000
10135140.56664,242258631.75241,-221098420.87391,  -0.00037,   0.00122,  -0.00363,450544310.34624,   0.00077,275485600.51166,   0.00005,   0.00014,  -0.00076,-24941290.16541,   0.00000
9122068.14009,242134029.26144,-220892555.88883,  -0.00038,   0.00122,  -0.00363,450426354.55852,   0.00077,275485600.51166,   0.00005,   0.00014,  -0.00076,-25059245.95313,   0.00000
8108995.71353,242009426.77047,-220686690.90376,  -0.00038,   0.00122,  -0.00363,450310683.50539,   0.00077,275485600.51166,   0.00005,   0.00014,  -0.00076,-25174917.00626,   0.00000
7114884.53561,241892950.52892,-220486243.41829,  -0.00039,   0.00122,  -0.00363,450204765.96176,   0.00077,275485600.51166,   0.00005,   0.00014,  -0.00076,-25280834.54990,   0.00000
6101812.10905,241768348.03795,-220280378.43322,  -0.00039,   0.00122,  -0.00362,450093630.87964,   0.00077,275485600.51166,   0.00005,   0.00014,  -0.00076,-25391969.63202,   0.00000
5099574.68172,241632910.54777,-220085348.44736,  -0.00040,   0.00123,  -0.00362,449992139.76736,   0.00077,275485600.51166,   0.00005,   0.00014,  -0.00076,-25493460.74430,   0.00000
4105463.50379,241516434.30622,-219884900.96189,  -0.00040,   0.00123,  -0.00362,449892892.78340,   0.00077,275485600.51166,   0.00005,   0.00014,  -0.00076,-25592707.72825,   0.00000
3103226.07645,241380996.81604,-219689870.97603,  -0.00040,   0.00123,  -0.00362,449795813.74297,   0.00077,275485600.51166,   0.00005,   0.00014,  -0.00076,-25689786.76869,   0.00000
2100988.64911,241245559.32586,-219494840.99017,  -0.00041,   0.00123,  -0.00361,449700940.10337,   0.00077,275485600.51166,   0.00005,   0.00014,  -0.00076,-25784660.40829,   0.00000
1098751.22178,241110121.83567,-219299811.00431,  -0.00041,   0.00123,  -0.00361,449608273.26072,   0.00077,275485600.51166,   0.00005,   0.00014,  -0.00076,-25877327.25093,   0.00000
88387.54503,240955723.09687,-219104781.01845,  -0.00042,   0.00123,  -0.00361,449509828.60900,   0.00077,275485600.51166,   0.00005,   0.00014,  -0.00076,-25975771.90265,   0.00000
-894888.63369,240828411.85610,-218915168.53219,  -0.00042,   0.00123,  -0.00361,449428740.10423,   0.00077,275485600.51166,   0.00005,   0.00014,  -0.00076,-26056860.40743,   0.00000
-1886291.06181,240682139.36670,-218730973.54555,  -0.00043,   0.00124,  -0.00360,449349711.51307,   0.00077,275485600.51166,   0.00005,   0.00014,  -0.00076,-26135888.99859,   0.00000
-2896654.73856,240527740.62790,-218541361.05930,  -0.00043,   0.00124,  -0.00360,449265723.06468,   0.00077,275485600.51166,   0.00005,   0.00014,  -0.00076,-26219877.44698,   0.00000
-3888057.16668,240381468.13850,-218357166.07265,  -0.00043,   0.00124,  -0.00360,449190983.91299,   0.00077,275485600.51166,   0.00005,   0.00014,  -0.00076,-26294616.59866,   0.00000
-4860498.34618,240243321.89852,-218172971.08600,  -0.00044,   0.00124,  -0.00360,449117486.15174,   0.00077,275485600.51166,   0.00005,   0.00014,  -0.00076,-26368114.35991,   0.00000
-5860027.02371,240078088.16050,-217994193.59897,  -0.00044,   0.00124,  -0.00359,449046877.00120,   0.00077,275485600.51166,   0.00005,   0.00014,  -0.00076,-26438723.51046,   0.00000
-6840594.45262,239920980.67189,-217815416.11193,  -0.00045,   0.00124,  -0.00359,448977437.42477,   0.00077,275485600.51166,   0.00005,   0.00014,  -0.00076,-26508163.08689,   0.00000
-7821161.88153,239763873.18328,-217636638.62489,  -0.00045,   0.00124,  -0.00359,448910054.39659,   0.00077,275485600.51166,   0.00005,   0.00014,  -0.00076,-26575546.11506,   0.00000
-8801729.31044,239606765.69467,-217463278.63746,  -0.00045,   0.00124,  -0.00359,448852602.93928,   0.00077,275485600.51166,   0.00005,   0.00014,  -0.00076,-26632997.57238,   0.00000
-9782296.73935,239449658.20606,-217284501.15042,  -0.00046,   0.00125,  -0.00359,448789330.39430,   0.00077,275485600.51166,   0.00005,   0.00014,  -0.00076,-26696270.11736,   0.00000
-10762864.16826,239292550.71745,-217116558.66259,  -0.00046,   0.00125,  -0.00358,448743843.89123,   0.00077,275485600.51166,   0.00005,   0.00014,  -0.00076,-26741756.62042,   0.00000
-11732596.59795,239124608.22962,-216943198.67516,  -0.00047,   0.00125,  -0.00358,448683450.77921,   0.00077,275485600.51166,   0.00005,   0.00014,  -0.00076,-26802149.73245,   0.00000
-12702329.02765,238956665.74180,-216780673.68695,  -0.00047,   0.00125,  -0.00358,448640752.61758,   0.00077,275485600.51166,   0.00005,   0.00014,  -0.00076,-26844847.89408,   0.00000
-13672061.45734,238788723.25398,-216612731.19912,  -0.00048,   0.00125,  -0.00358,448592175.22159,   0.00077,275485600.51166,   0.00005,   0.00014,  -0.00076,-26893425.29007,   0.00000
-14630958.88782,238609945.76694,-216450206.21090,  -0.00048,   0.00125,  -0.00357,448544243.96022,   0.00077,275485600.51166,   0.00005,   0.00014,  -0.00076,-26941356.55143,   0.00000
-15600691.31751,238442003.27911,-216287681.22269,  -0.00048,   0.00125,  -0.00357,448507428.85006,   0.00077,275485600.51166,   0.00005,   0.00014,  -0.00076,-26978171.66160,   0.00000
-16559588.74799,238263225.79207,-216130573.73408,  -0.00049,   0.00125,  -0.00357,448471181.33176,   0.00077,275485600.51166,   0.00005,   0.00014,  -0.00076,-27014419.17990,   0.00000
-17518486.17847,238084448.30504,-215973466.24547,  -0.00049,   0.00125,  -0.00357,448436835.42489,   0.00077,275485600.51166,   0.00005,   0.00014,  -0.00076,-27048765.08677,   0.00000
-18458422.36033,237913797.06741,-215816358.75686,  -0.00050,   0.00126,  -0.00357,448403059.38284,   0.00077,275485600.51166,   0.00005,   0.00014,  -0.00076,-27082541.12881,   0.00000
-19406484.79159,237724184.58116,-215664668.76786,  -0.00050,   0.00126,  -0.00356,448370983.03041,   0.00077,275485600.51166,   0.00005,   0.00014,  -0.00076,-27114617.48124,   0.00000
-20346420.97345,237553533.34353,-215512978.77885,  -0.00050,   0.00126,  -0.00356,448348697.23237,   0.00077,275485600.51166,   0.00005,   0.00014,  -0.00076,-27136903.27928,   0.00000
-21294483.40471,237363920.85727,-215366706.28946,  -0.00051,   0.00126,  -0.00356,448328096.99560,   0.00077,275485600.51166,   0.00005,   0.00014,  -0.00076,-27157503.51606,   0.00000
-22223584.58735,237182434.62043,-215220433.80006,  -0.00051,   0.00126,  -0.00356,448307867.74054,   0.00077,275485600.51166,   0.00005,   0.00014,  -0.00076,-27177732.77111,   0.00000
-23160812.01941,236981987.13496,-215079578.81027,  -0.00052,   0.00126,  -0.00356,448289255.23535,   0.00077,275485600.51166,   0.00005,   0.00014,  -0.00076,-27196345.27630,   0.00000
-24098039.45146,236781539.64950,-214938723.82049,  -0.00052,   0.00126,  -0.00355,448272404.79510,   0.00077,275485600.51166,   0.00005,   0.00014,  -0.00076,-27213195.71656,   0.00000
-25027140.63410,236600053.41265,-214797868.83070,  -0.00052,   0.00126,  -0.00355,448265255.41984,   0.00077,275485600.51166,   0.00005,   0.00014,  -0.00076,-27220345.09182,   0.00000
-25953533.06693,236388770.92797,-214662431.34052,  -0.00053,   0.00126,  -0.00355,448250196.84267,   0.00077,275485600.51166,   0.00005,   0.00014,  -0.00076,-27235403.66898,   0.00000
-26852838.00173,236204575.94133,-214532411.34994,  -0.00053,   0.00126,  -0.00355,448250941.29991,   0.00077,275485600.51166,   0.00005,   0.00014,  -0.00076,-27234659.21174,   0.00000
-27779230.43457,235993293.45664,-214402391.35937,  -0.00053,   0.00126,  -0.00355,448247017.32621,   0.00077,275485600.51166,   0.00005,   0.00014,  -0.00076,-27238583.18544,   0.00000
-28678535.36937,235809098.47000,-214272371.36880,  -0.00054,   0.00127,  -0.00355,448251041.58170,   0.00077,275485600.51166,   0.00005,   0.00014,  -0.00076,-27234558.92995,   0.00000
-29594092.80299,235586980.98610,-214147768.87783,  -0.00054,   0.00127,  -0.00354,448248613.67718,   0.00077,275485600.51166,   0.00005,   0.00014,  -0.00076,-27236986.83447,   0.00000
-30482562.73858,235391951.00024,-214023166.38686,  -0.00055,   0.00127,  -0.00354,448254006.55444,   0.00077,275485600.51166,   0.00005,   0.00014,  -0.00076,-27231593.95721,   0.00000
-31379158.92358,235177959.76576,-213903981.39551,  -0.00055,   0.00127,  -0.00354,448260806.58440,   0.00077,275485600.51166,   0.00005,   0.00014,  -0.00076,-27224793.92726,   0.00000
-32275755.10857,234963968.53127,-213784796.40415,  -0.00055,   0.00127,  -0.00354,448269169.03144,   0.00077,275485600.51166,   0.00005,   0.00014,  -0.00076,-27216431.48022,   0.00000
-33153390.04494,234758103.54620,-213671028.91239,  -0.00056,   0.00127,  -0.00354,448285028.98781,   0.00077,275485600.51166,   0.00005,   0.00014,  -0.00076,-27200571.52385,   0.00000
-34031024.98132,234552238.56112,-213557261.42064,  -0.00056,   0.00127,  -0.00354,448302384.64865,   0.00077,275485600.51166,   0.00005,   0.00014,  -0.00076,-27183215.86301,   0.00000
-34916786.16710,234327412.32742,-213443493.92889,  -0.00056,   0.00127,  -0.00354,448313343.07083,   0.00077,275485600.51166,   0.00005,   0.00014,  -0.00076,-27172257.44082,   0.00000
-35783586.10425,234110712.34313,-213340561.43635,  -0.00057,   0.00127,  -0.00353,448339376.99391,   0.00077,275485600.51166,   0.00005,   0.00014,  -0.00076,-27146223.51775,   0.00000
-36650386.04141,233894012.35884,-213232211.44421,  -0.00057,   0.00127,  -0.00353,448359112.37778,   0.00077,275485600.51166,   0.00005,   0.00014,  -0.00076,-27126488.13387,   0.00000
-37506350.97935,233666477.37534,-213134696.45128,  -0.00057,   0.00127,  -0.00353,448385907.91803,   0.00077,275485600.51166,   0.00005,   0.00014,  -0.00076,-27099692.59363,   0.00000
-38362315.91730,233438942.39184,-213031763.95874,  -0.00058,   0.00127,  -0.00353,448406359.15329,   0.00077,275485600.51166,   0.00005,   0.00014,  -0.00076,-27079241.35836,   0.00000
-39199319.60661,233219533.65774,-212934248.96581,  -0.00058,   0.00127,  -0.00353,448433905.63539,   0.00077,275485600.51166,   0.00005,   0.00014,  -0.00076,-27051694.87626,   0.00000
-40036323.29593,233000124.92365,-212842151.47249,  -0.00058,   0.00127,  -0.00353,448470487.38712,   0.00077,275485600.51166,   0.00005,   0.00014,  -0.00076,-27015113.12453,   0.00000
-40881453.23466,232761754.94093,-212755471.47877,  -0.00059,   0.00128,  -0.00353,448508236.84037,   0.00077,275485600.51166,   0.00005,   0.00014,  -0.00076,-26977363.67128,   0.00000
-41707621.92476,232531511.20762,-212663373.98545,  -0.00059,   0.00128,  -0.00352,448537509.79242,   0.00077,275485600.51166,   0.00005,   0.00014,  -0.00076,-26948090.71923,   0.00000
-42541916.86428,232282306.22569,-212582111.49134,  -0.00059,   0.00128,  -0.00352,448575613.93243,   0.00077,275485600.51166,   0.00005,   0.00014,  -0.00076,-26909986.57922,   0.00000
-43349124.30575,232060188.74179,-212500848.99723,  -0.00060,   0.00128,  -0.00352,448620681.88925,   0.00077,275485600.51166,   0.00005,   0.00014,  -0.00076,-26864918.62241,   0.00000
-44164457.99664,231819110.00927,-212419586.50312,  -0.00060,   0.00128,  -0.00352,448659120.77314,   0.00077,275485600.51166,   0.00005,   0.00014,  -0.00076,-26826479.73852,   0.00000
-44960830.43890,231586157.52616,-212343741.50862,  -0.00060,   0.00128,  -0.00352,448704272.61802,   0.00077,275485600.51166,   0.00005,   0.00014,  -0.00076,-26781327.89364,   0.00000
-45765329.13058,231334243.79443,-212267896.51412,  -0.00061,   0.00128,  -0.00352,448742760.58827,   0.00077,275485600.51166,   0.00005,   0.00014,  -0.00076,-26742839.92338,   0.00000
-46569827.82225,231082330.06269,-212202886.51884,  -0.00061,   0.00128,  -0.00352,448797784.74850,   0.00077,275485600.51166,   0.00005,   0.00014,  -0.00076,-26687815.76316,   0.00000
-47355365.26530,230838542.58036,-212132459.02394,  -0.00061,   0.00128,  -0.00352,448844012.29812,   0.00077,275485600.51166,   0.00005,   0.00014,  -0.00076,-26641588.21354,   0.00000
-48121941.45972,230602881.34745,-212067449.02865,  -0.00062,   0.00128,  -0.00352,448896733.45304,   0.00077,275485600.51166,   0.00005,   0.00014,  -0.00076,-26588867.05862,   0.00000
-48896643.90356,230348258.86591,-212007856.53297,  -0.00062,   0.00128,  -0.00352,448950389.94334,   0.00077,275485600.51166,   0.00005,   0.00014,  -0.00076,-26535210.56831,   0.00000
-49652385.09877,230101762.63378,-211948264.03730,  -0.00062,   0.00128,  -0.00352,449002763.60913,   0.00077,275485600.51166,   0.00005,   0.00014,  -0.00076,-26482836.90253,   0.00000
-50416252.54339,229836305.15303,-211894089.04122,  -0.00063,   0.00128,  -0.00351,449056038.59983,   0.00077,275485600.51166,   0.00005,   0.00014,  -0.00076,-26429561.91182,   0.00000
-51180119.98801,229570847.67227,-211845331.54476,  -0.00063,   0.00128,  -0.00351,449117997.64037,   0.00077,275485600.51166,   0.00005,   0.00014,  -0.00076,-26367602.87129,   0.00000
-51925026.18400,229313516.44093,-211796574.04829,  -0.00063,   0.00128,  -0.00351,449178554.52819,   0.00077,275485600.51166,   0.00005,   0.00014,  -0.00076,-26307045.98346,   0.00000
-52650971.13137,229064311.45900,-211753234.05143,  -0.00063,   0.00128,  -0.00351,449245298.68307,   0.00077,275485600.51166,   0.00005,   0.00014,  -0.00076,-26240301.82859,   0.00000
-53385042.32815,228796145.22844,-211709894.05458,  -0.00064,   0.00128,  -0.00351,449305206.32985,   0.00077,275485600.51166,   0.00005,   0.00014,  -0.00076,-26180394.18181,   0.00000
-54100152.27630,228536105.24729,-211671971.55733,  -0.00064,   0.00128,  -0.00351,449371212.47509,   0.00077,275485600.51166,   0.00005,   0.00014,  -0.00076,-26114388.03657,   0.00000
-54823388.47387,228257104.01752,-211634049.06008,  -0.00064,   0.00128,  -0.00351,449430361.13327,   0.00077,275485600.51166,   0.00005,   0.00014,  -0.00076,-26055239.37839,   0.00000
-55527663.42281,227986229.03716,-211601544.06243,  -0.00064,   0.00128,  -0.00351,449495522.75368,   0.00077,275485600.51166,   0.00005,   0.00014,  -0.00076,-25990077.75797,   0.00000
-56212977.12312,227723480.30621,-211574456.56440,  -0.00065,   0.00128,  -0.00351,449566623.62794,   0.00077,275485600.51166,   0.00005,   0.00014,  -0.00076,-25918976.88372,   0.00000
-56906417.07285,227441770.32663,-211547369.06636,  -0.00065,   0.00128,  -0.00351,449630808.01038,   0.00077,275485600.51166,   0.00005,   0.00014,  -0.00076,-25854792.50127,   0.00000
-57599857.02258,227160060.34705,-211525699.06793,  -0.00065,   0.00128,  -0.00351,449703444.10696,   0.00077,275485600.51166,   0.00005,   0.00014,  -0.00076,-25782156.40470,   0.00000
-58274335.72368,226886476.61689,-211504029.06950,  -0.00066,   0.00128,  -0.00351,449774269.07627,   0.00077,275485600.51166,   0.00005,   0.00014,  -0.00076,-25711331.43538,   0.00000
-58937979.42556,226602057.88751,-211487776.57068,  -0.00066,   0.00128,  -0.00351,449843177.56260,   0.00077,275485600.51166,   0.00005,   0.00014,  -0.00076,-25642422.94906,   0.00000
-59582661.87882,226325765.40754,-211471524.07186,  -0.00066,   0.00128,  -0.00351,449910161.83061,   0.00077,275485600.51166,   0.00005,   0.00014,  -0.00076,-25575438.68105,   0.00000
-60227344.33208,226049472.92757,-211466106.57225,  -0.00066,   0.00128,  -0.00351,449993110.33026,   0.00077,275485600.51166,   0.00005,   0.00014,  -0.00076,-25492490.18139,   0.00000
-60880153.03475,225754219.19898,-211460689.07264,  -0.00066,   0.00128,  -0.00351,450069084.69921,   0.00077,275485600.51166,   0.00005,   0.00014,  -0.00076,-25416515.81245,   0.00000
-61514000.48880,225467091.71979,-211455271.57304,  -0.00067,   0.00128,  -0.00351,450143044.06828,   0.00077,275485600.51166,   0.00005,   0.00014,  -0.00076,-25342556.44337,   0.00000
-62137012.94363,225169129.24140,-211455271.57304,  -0.00067,   0.00128,  -0.00351,450214924.08309,   0.00077,275485600.51166,   0.00005,   0.00014,  -0.00076,-25270676.42856,   0.00000
-62741064.14984,224879293.01241,-211460689.07264,  -0.00067,   0.00128,  -0.00351,450292319.24885,   0.00077,275485600.51166,   0.00005,   0.00014,  -0.00076,-25193281.26280,   0.00000
-63345115.35604,224589456.78342,-211466106.57225,  -0.00067,   0.00128,  -0.00351,450370309.26996,   0.00077,275485600.51166,   0.00005,   0.00014,  -0.00076,-25115291.24169,   0.00000
-63957292.81166,224280659.30581,-211476941.57147,  -0.00068,   0.00128,  -0.00351,450448913.51953,   0.00077,275485600.51166,   0.00005,   0.00014,  -0.00076,-25036686.99213,   0.00000
-64531547.77003,223988114.32702,-211493194.07029,  -0.00068,   0.00128,  -0.00351,450530142.31141,   0.00077,275485600.51166,   0.00005,   0.00014,  -0.00076,-24955458.20024,   0.00000
-65113928.97780,223676608.09960,-211509446.56911,  -0.00068,   0.00128,  -0.00351,450604315.88654,   0.00077,275485600.51166,   0.00005,   0.00014,  -0.00076,-24881284.62511,   0.00000
-65696310.18558,223365101.87219,-211531116.56754,  -0.00068,   0.00128,  -0.00351,450686672.48159,   0.00077,275485600.51166,   0.00005,   0.00014,  -0.00076,-24798928.03006,   0.00000
-66240768.89611,223069848.14359,-211552786.56597,  -0.00068,   0.00128,  -0.00351,450763862.11053,   0.00077,275485600.51166,   0.00005,   0.00014,  -0.00076,-24721738.40112,   0.00000
-66793353.85605,222755633.16638,-211579874.06400,  -0.00069,   0.00128,  -0.00351,450841601.21158,   0.00077,275485600.51166,   0.00005,   0.00014,  -0.00076,-24643999.30008,   0.00000
-67345938.81598,222441418.18916,-211612379.06165,  -0.00069,   0.00128,  -0.00351,450927469.84067,   0.00077,275485600.51166,   0.00005,   0.00014,  -0.00076,-24558130.67099,   0.00000
-67868727.52808,222124494.46213,-211644884.05929,  -0.00069,   0.00128,  -0.00351,451000479.88191,   0.00077,275485600.51166,   0.00005,   0.00014,  -0.00076,-24485120.62974,   0.00000
-68391516.24018,221807570.73511,-211688224.05615,  -0.00069,   0.00128,  -0.00351,451089200.28893,   0.00077,275485600.51166,   0.00005,   0.00014,  -0.00076,-24396400.22273,   0.00000
-68895343.70365,221498773.25750,-211726146.55340,  -0.00069,   0.00128,  -0.00351,451167809.63981,   0.00077,275485600.51166,   0.00005,   0.00014,  -0.00076,-24317790.87184,   0.00000
-69407297.41654,221171014.53126,-211774904.04986,  -0.00069,   0.00128,  -0.00351,451254587.72729,   0.00077,275485600.51166,   0.00005,   0.00014,  -0.00076,-24231012.78436,   0.00000
-69900289.88079,220851382.05443,-211823661.54633,  -0.00070,   0.00128,  -0.00351,451338841.53664,   0.00077,275485600.51166,   0.00005,   0.00014,  -0.00076,-24146758.97502,   0.00000
-70382447.34584,220520914.57839,-211872419.04279,  -0.00070,   0.00128,  -0.00351,451413037.22089,   0.00077,275485600.51166,   0.00005,   0.00014,  -0.00076,-24072563.29077,   0.00000
-70845643.56226,220198573.35176,-211926594.03887,  -0.00070,   0.00128,  -0.00352,451492270.52214,   0.00077,275485600.51166,   0.00005,   0.00014,  -0.00076,-23993329.98951,   0.00000
-71316966.02808,219857270.87651,-211986186.53455,  -0.00070,   0.00128,  -0.00352,451572045.81686,   0.00077,275485600.51166,   0.00005,   0.00014,  -0.00076,-23913554.69480,   0.00000
-71769327.24529,219524094.65066,-212051196.52983,  -0.00070,   0.00128,  -0.00352,451656828.68949,   0.00077,275485600.51166,   0.00005,   0.00014,  -0.00076,-23828771.82217,   0.00000
