# sigma_xx, sigma_yy, sigma_xy, epsilon_xx, epsilon_yy, epsilon_xy, vonMises, epsPlastic, hardening, epsilonP__xx, epsilonP__yy, epsilonP__xy, yieldValue, iteration
   0.00000,   0.00000,   0.00000,   0.00000,   0.00000,   0.00000,1181185.37500,   0.00000,274640576.00000,   0.00000,   0.00000,   0.00000,-473459392.00000,   0.00000
   0.00000,   0.00000,   0.00000,   0.00000,   0.00000,   0.00000,1181185.37500,   0.00000,274640576.00000,   0.00000,   0.00000,   0.00000,-473459392.00000,   0.00000
-2165432.62451,-2133292.62266,-413802.52379,  -0.00001,  -0.00001,  -0.00001,1834158.00000,   0.00000,274640576.00000,   0.00000,   0.00000,   0.00000,-472806432.00000,   0.00000
-4330865.24902,-4266585.24533,-831622.54782,  -0.00001,  -0.00001,  -0.00001,4141270.25000,   0.00000,274640576.00000,   0.00000,   0.00000,   0.00000,-470499296.00000,   0.00000
-6502324.12388,-6413939.11880,-1245425.07161,  -0.00002,  -0.00002,  -0.00002,6366100.50000,   0.00000,274640576.00000,   0.00000,   0.00000,   0.00000,-468274480.00000,   0.00000
-8653695.49759,-8541205.49112,-1663245.09564,  -0.00002,  -0.00002,  -0.00002,8561399.00000,   0.00000,274640576.00000,   0.00000,   0.00000,   0.00000,-466079184.00000,   0.00000
-10811093.12164,-10682533.11425,-2081065.11966,  -0.00003,  -0.00003,  -0.00003,10809717.00000,   0.00000,274640576.00000,   0.00000,   0.00000,   0.00000,-463830864.00000,   0.00000
-12954429.49488,-12817834.48703,-2494867.64345,  -0.00003,  -0.00003,  -0.00003,13076850.00000,   0.00000,274640576.00000,   0.00000,   0.00000,   0.00000,-461563728.00000,   0.00000
-15097765.86812,-14953135.85981,-2912687.66748,  -0.00004,  -0.00004,  -0.00004,15360586.00000,   0.00000,274640576.00000,   0.00000,   0.00000,   0.00000,-459279984.00000,   0.00000
-17247128.49171,-17102498.48339,-3326490.19127,  -0.00005,  -0.00004,  -0.00004,17656346.00000,   0.00000,274640576.00000,   0.00000,   0.00000,   0.00000,-456984224.00000,   0.00000
-19390464.86495,-19237799.85617,-3744310.21530,  -0.00005,  -0.00005,  -0.00005,19945454.00000,   0.00000,274640576.00000,   0.00000,   0.00000,   0.00000,-454695120.00000,   0.00000
-21525766.23773,-21381136.22942,-4162130.23932,  -0.00006,  -0.00006,  -0.00005,22231884.00000,   0.00000,274640576.00000,   0.00000,   0.00000,   0.00000,-452408688.00000,   0.00000
-23661067.61051,-23524472.60266,-4575932.76312,  -0.00006,  -0.00006,  -0.00006,24511114.00000,   0.00000,274640576.00000,   0.00000,   0.00000,   0.00000,-450129456.00000,   0.00000
-25796368.98329,-25667808.97590,-4993752.78714,  -0.00007,  -0.00007,  -0.00006,26786584.00000,   0.00000,274640576.00000,   0.00000,   0.00000,   0.00000,-447853984.00000,   0.00000
-27917609.10526,-27805119.09879,-5411572.81117,  -0.00007,  -0.00007,  -0.00007,29046646.00000,   0.00000,274640576.00000,   0.00000,   0.00000,   0.00000,-445593936.00000,   0.00000
-30044875.47758,-29956490.47250,-5829392.83519,  -0.00008,  -0.00008,  -0.00008,31311630.00000,   0.00000,274640576.00000,   0.00000,   0.00000,   0.00000,-443328944.00000,   0.00000
-32172141.84990,-32107861.84620,-6247212.85921,  -0.00008,  -0.00008,  -0.00008,33573896.00000,   0.00000,274640576.00000,   0.00000,   0.00000,   0.00000,-441066688.00000,   0.00000
-34293381.97187,-34245171.96910,-6665032.88324,  -0.00009,  -0.00009,  -0.00009,35825516.00000,   0.00000,274640576.00000,   0.00000,   0.00000,   0.00000,-438815056.00000,   0.00000
-36412613.34373,-36404578.34326,-7082852.90726,  -0.00009,  -0.00009,  -0.00009,38086896.00000,   0.00000,274640576.00000,   0.00000,   0.00000,   0.00000,-436553680.00000,   0.00000
-38525818.46523,-38549923.46662,-7500672.93129,  -0.00010,  -0.00010,  -0.00010,40339548.00000,   0.00000,274640576.00000,   0.00000,   0.00000,   0.00000,-434301024.00000,   0.00000
-40639023.58674,-40695268.58998,-7918492.95531,  -0.00011,  -0.00011,  -0.00010,42593044.00000,   0.00000,274640576.00000,   0.00000,   0.00000,   0.00000,-432047536.00000,   0.00000
-42744193.70779,-42848648.71380,-8336312.97934,  -0.00011,  -0.00011,  -0.00011,44846948.00000,   0.00000,274640576.00000,   0.00000,   0.00000,   0.00000,-429793632.00000,   0.00000
-44863425.07965,-45008055.08796,-8754133.00336,  -0.00012,  -0.00012,  -0.00011,47110200.00000,   0.00000,274640576.00000,   0.00000,   0.00000,   0.00000,-427530368.00000,   0.00000
-46968595.20069,-47161435.21178,-9175970.52762,  -0.00012,  -0.00012,  -0.00012,49365484.00000,   0.00000,274640576.00000,   0.00000,   0.00000,   0.00000,-425275088.00000,   0.00000
-49065730.32128,-49322850.33606,-9593790.55164,  -0.00013,  -0.00013,  -0.00012,51617620.00000,   0.00000,274640576.00000,   0.00000,   0.00000,   0.00000,-423022960.00000,   0.00000
-51170900.44233,-51476230.45988,-10015628.07590,  -0.00013,  -0.00013,  -0.00013,53870988.00000,   0.00000,274640576.00000,   0.00000,   0.00000,   0.00000,-420769584.00000,   0.00000
-53268035.56291,-53637645.58416,-10433448.09992,  -0.00014,  -0.00014,  -0.00014,56121444.00000,   0.00000,274640576.00000,   0.00000,   0.00000,   0.00000,-418519136.00000,   0.00000
-55365170.68350,-55799060.70845,-10855285.62418,  -0.00014,  -0.00015,  -0.00014,58373872.00000,   0.00000,274640576.00000,   0.00000,   0.00000,   0.00000,-416266704.00000,   0.00000
-57462305.80408,-57960475.83273,-11277123.14843,  -0.00015,  -0.00015,  -0.00015,60626612.00000,   0.00000,274640576.00000,   0.00000,   0.00000,   0.00000,-414013968.00000,   0.00000
-59545379.67386,-60115864.70666,-11698960.67269,  -0.00015,  -0.00016,  -0.00015,62870736.00000,   0.00000,274640576.00000,   0.00000,   0.00000,   0.00000,-411769840.00000,   0.00000
-61648541.04479,-62291341.08175,-12120798.19695,  -0.00016,  -0.00016,  -0.00016,65135164.00000,   0.00000,274640576.00000,   0.00000,   0.00000,   0.00000,-409505408.00000,   0.00000
-63737641.16491,-64460791.20650,-12542635.72120,  -0.00016,  -0.00017,  -0.00016,67391688.00000,   0.00000,274640576.00000,   0.00000,   0.00000,   0.00000,-407248896.00000,   0.00000
-65812680.03423,-66624215.08089,-12964473.24546,  -0.00017,  -0.00017,  -0.00017,69640184.00000,   0.00000,274640576.00000,   0.00000,   0.00000,   0.00000,-405000384.00000,   0.00000
-67901780.15435,-68793665.20564,-13386310.76971,  -0.00017,  -0.00018,  -0.00017,71899368.00000,   0.00000,274640576.00000,   0.00000,   0.00000,   0.00000,-402741216.00000,   0.00000
-69976819.02367,-70957089.08003,-13808148.29397,  -0.00018,  -0.00019,  -0.00018,74149792.00000,   0.00000,274640576.00000,   0.00000,   0.00000,   0.00000,-400490784.00000,   0.00000
-72071945.39414,-73140600.45558,-14234003.31846,  -0.00019,  -0.00019,  -0.00019,76421752.00000,   0.00000,274640576.00000,   0.00000,   0.00000,   0.00000,-398218816.00000,   0.00000
-74153010.51380,-75318085.58079,-14655840.84271,  -0.00019,  -0.00020,  -0.00019,78681320.00000,   0.00000,274640576.00000,   0.00000,   0.00000,   0.00000,-395959264.00000,   0.00000
-76234075.63346,-77495570.70600,-15081695.86720,  -0.00020,  -0.00020,  -0.00020,80942056.00000,   0.00000,274640576.00000,   0.00000,   0.00000,   0.00000,-393698528.00000,   0.00000
-78301079.50231,-79667029.58085,-15507550.89168,  -0.00020,  -0.00021,  -0.00020,83191576.00000,   0.00000,274640576.00000,   0.00000,   0.00000,   0.00000,-391448992.00000,   0.00000
-80382144.62197,-81844514.70606,-15933405.91617,  -0.00021,  -0.00022,  -0.00021,85448352.00000,   0.00000,274640576.00000,   0.00000,   0.00000,   0.00000,-389192224.00000,   0.00000
-82455174.74117,-84030034.83173,-16359260.94066,  -0.00021,  -0.00022,  -0.00021,87703016.00000,   0.00000,274640576.00000,   0.00000,   0.00000,   0.00000,-386937568.00000,   0.00000
-84528204.86037,-86215554.95739,-16785115.96514,  -0.00022,  -0.00023,  -0.00022,89955440.00000,   0.00000,274640576.00000,   0.00000,   0.00000,   0.00000,-384685136.00000,   0.00000
-86601234.97957,-88401075.08306,-17210970.98963,  -0.00022,  -0.00023,  -0.00022,92205792.00000,   0.00000,274640576.00000,   0.00000,   0.00000,   0.00000,-382434784.00000,   0.00000
-88660203.84796,-90580568.95838,-17640843.51435,  -0.00023,  -0.00024,  -0.00023,94447520.00000,   0.00000,274640576.00000,   0.00000,   0.00000,   0.00000,-380193056.00000,   0.00000
-90739260.21751,-92780150.33486,-18066698.53884,  -0.00023,  -0.00025,  -0.00023,96705152.00000,   0.00000,274640576.00000,   0.00000,   0.00000,   0.00000,-377935424.00000,   0.00000
-92798229.08590,-94959644.21018,-18496571.06355,  -0.00024,  -0.00025,  -0.00024,98945912.00000,   0.00000,274640576.00000,   0.00000,   0.00000,   0.00000,-375694656.00000,   0.00000
-94863224.20464,-97153199.33631,-18926443.58827,  -0.00024,  -0.00026,  -0.00025,101197008.00000,   0.00000,274640576.00000,   0.00000,   0.00000,   0.00000,-373443568.00000,   0.00000
-96928219.32337,-99346754.46244,-19356316.11299,  -0.00025,  -0.00026,  -0.00025,103449616.00000,   0.00000,274640576.00000,   0.00000,   0.00000,   0.00000,-371190960.00000,   0.00000
-98999240.69246,-101554370.83938,-19786188.63771,  -0.00025,  -0.00027,  -0.00026,105714032.00000,   0.00000,274640576.00000,   0.00000,   0.00000,   0.00000,-368926544.00000,   0.00000
-101064235.81119,-103747925.96551,-20216061.16242,  -0.00026,  -0.00027,  -0.00026,107971592.00000,   0.00000,274640576.00000,   0.00000,   0.00000,   0.00000,-366668992.00000,   0.00000
-103121195.92947,-105949516.09210,-20649951.18737,  -0.00026,  -0.00028,  -0.00027,110234696.00000,   0.00000,274640576.00000,   0.00000,   0.00000,   0.00000,-364405888.00000,   0.00000
-105192217.29855,-108157132.46904,-21079823.71209,  -0.00027,  -0.00029,  -0.00027,112508096.00000,   0.00000,274640576.00000,   0.00000,   0.00000,   0.00000,-362132480.00000,   0.00000
-107249177.41683,-110358722.59563,-21513713.73704,  -0.00027,  -0.00029,  -0.00028,114777488.00000,   0.00000,274640576.00000,   0.00000,   0.00000,   0.00000,-359863088.00000,   0.00000
-109306137.53510,-112560312.72222,-21947603.76199,  -0.00028,  -0.00030,  -0.00029,117049592.00000,   0.00000,274640576.00000,   0.00000,   0.00000,   0.00000,-357590976.00000,   0.00000
-111369123.90372,-114775964.09962,-22381493.78694,  -0.00028,  -0.00031,  -0.00029,119333560.00000,   0.00000,274640576.00000,   0.00000,   0.00000,   0.00000,-355307008.00000,   0.00000
-113432110.27235,-116991615.47702,-22815383.81188,  -0.00029,  -0.00031,  -0.00030,121619096.00000,   0.00000,274640576.00000,   0.00000,   0.00000,   0.00000,-353021472.00000,   0.00000
-115481035.39016,-119201240.60407,-23249273.83683,  -0.00029,  -0.00032,  -0.00030,123896000.00000,   0.00000,274640576.00000,   0.00000,   0.00000,   0.00000,-350744576.00000,   0.00000
-117544021.75878,-121416891.98147,-23687181.36201,  -0.00030,  -0.00032,  -0.00031,126184464.00000,   0.00000,274640576.00000,   0.00000,   0.00000,   0.00000,-348456112.00000,   0.00000
-119592946.87659,-123626517.10852,-24125088.88719,  -0.00030,  -0.00033,  -0.00031,128462720.00000,   0.00000,274640576.00000,   0.00000,   0.00000,   0.00000,-346177856.00000,   0.00000
-121647898.24475,-125850203.48639,-24558978.91214,  -0.00031,  -0.00034,  -0.00032,130746752.00000,   0.00000,274640576.00000,   0.00000,   0.00000,   0.00000,-343893824.00000,   0.00000
-123710884.61338,-128065854.86379,-24996886.43732,  -0.00031,  -0.00034,  -0.00032,133030352.00000,   0.00000,274640576.00000,   0.00000,   0.00000,   0.00000,-341610224.00000,   0.00000
-125765835.98154,-130289541.24165,-25434793.96250,  -0.00032,  -0.00035,  -0.00033,135311696.00000,   0.00000,274640576.00000,   0.00000,   0.00000,   0.00000,-339328880.00000,   0.00000
-127806726.09889,-132507201.36916,-25876718.98791,  -0.00032,  -0.00035,  -0.00034,137582960.00000,   0.00000,274640576.00000,   0.00000,   0.00000,   0.00000,-337057616.00000,   0.00000
-129867703.71739,-134744948.99783,-26314626.51309,  -0.00033,  -0.00036,  -0.00034,139867696.00000,   0.00000,274640576.00000,   0.00000,   0.00000,   0.00000,-334772880.00000,   0.00000
-131922655.08555,-136968635.37570,-26756551.53850,  -0.00033,  -0.00037,  -0.00035,142142032.00000,   0.00000,274640576.00000,   0.00000,   0.00000,   0.00000,-332498544.00000,   0.00000
-133969571.45325,-139200356.75402,-27198476.56391,  -0.00034,  -0.00037,  -0.00035,144413936.00000,   0.00000,274640576.00000,   0.00000,   0.00000,   0.00000,-330226640.00000,   0.00000
-136030549.07176,-141438104.38269,-27640401.58932,  -0.00034,  -0.00038,  -0.00036,146692560.00000,   0.00000,274640576.00000,   0.00000,   0.00000,   0.00000,-327948016.00000,   0.00000
-138077465.43945,-143669825.76101,-28082326.61473,  -0.00035,  -0.00038,  -0.00037,148959840.00000,   0.00000,274640576.00000,   0.00000,   0.00000,   0.00000,-325680736.00000,   0.00000
-140130408.05750,-145915608.39015,-28524251.64014,  -0.00035,  -0.00039,  -0.00037,151234976.00000,   0.00000,274640576.00000,   0.00000,   0.00000,   0.00000,-323405600.00000,   0.00000
-142177324.42520,-148147329.76847,-28970194.16579,  -0.00036,  -0.00040,  -0.00038,153500960.00000,   0.00000,274640576.00000,   0.00000,   0.00000,   0.00000,-321139616.00000,   0.00000
-144230267.04324,-150393112.39760,-29412119.19120,  -0.00036,  -0.00040,  -0.00038,155772384.00000,   0.00000,274640576.00000,   0.00000,   0.00000,   0.00000,-318868192.00000,   0.00000
-146283209.66128,-152638895.02674,-29858061.71684,  -0.00037,  -0.00041,  -0.00039,158044480.00000,   0.00000,274640576.00000,   0.00000,   0.00000,   0.00000,-316596096.00000,   0.00000
-148336152.27933,-154884677.65587,-30304004.24248,  -0.00037,  -0.00042,  -0.00039,160315264.00000,   0.00000,274640576.00000,   0.00000,   0.00000,   0.00000,-314325312.00000,   0.00000
-150389094.89737,-157130460.28500,-30753964.26835,  -0.00038,  -0.00042,  -0.00040,162588736.00000,   0.00000,274640576.00000,   0.00000,   0.00000,   0.00000,-312051840.00000,   0.00000
-152448063.76576,-159390304.16494,-31199906.79399,  -0.00038,  -0.00043,  -0.00041,164872704.00000,   0.00000,274640576.00000,   0.00000,   0.00000,   0.00000,-309767872.00000,   0.00000
-154486945.13300,-161630060.54373,-31649866.81987,  -0.00039,  -0.00043,  -0.00041,167146208.00000,   0.00000,274640576.00000,   0.00000,   0.00000,   0.00000,-307494368.00000,   0.00000
-156531852.75058,-163883878.17332,-32099826.84574,  -0.00039,  -0.00044,  -0.00042,169437376.00000,   0.00000,274640576.00000,   0.00000,   0.00000,   0.00000,-305203200.00000,   0.00000
-158590821.61897,-166143722.05326,-32549786.87161,  -0.00040,  -0.00045,  -0.00042,171745584.00000,   0.00000,274640576.00000,   0.00000,   0.00000,   0.00000,-302894992.00000,   0.00000
-160635729.23655,-168397539.68286,-32999746.89749,  -0.00040,  -0.00045,  -0.00043,174048656.00000,   0.00000,274640576.00000,   0.00000,   0.00000,   0.00000,-300591920.00000,   0.00000
-162686663.10448,-170665418.56326,-33449706.92336,  -0.00041,  -0.00046,  -0.00043,176359744.00000,   0.00000,274640576.00000,   0.00000,   0.00000,   0.00000,-298280832.00000,   0.00000
-164731570.72207,-172919236.19286,-33903684.44946,  -0.00041,  -0.00047,  -0.00044,178657392.00000,   0.00000,274640576.00000,   0.00000,   0.00000,   0.00000,-295983184.00000,   0.00000
-166796565.84080,-175193141.32361,-34357661.97557,  -0.00042,  -0.00047,  -0.00045,180972368.00000,   0.00000,274640576.00000,   0.00000,   0.00000,   0.00000,-293668208.00000,   0.00000
-168847499.70873,-177461020.20401,-34811639.50167,  -0.00042,  -0.00048,  -0.00045,183288736.00000,   0.00000,274640576.00000,   0.00000,   0.00000,   0.00000,-291351840.00000,   0.00000
-170884372.32585,-179722872.83407,-35265617.02777,  -0.00043,  -0.00048,  -0.00046,185612112.00000,   0.00000,274640576.00000,   0.00000,   0.00000,   0.00000,-289028464.00000,   0.00000
-172935306.19378,-181990751.71447,-35719594.55388,  -0.00043,  -0.00049,  -0.00046,187952736.00000,   0.00000,274640576.00000,   0.00000,   0.00000,   0.00000,-286687840.00000,   0.00000
-174992266.31206,-184272691.84568,-36177589.58021,  -0.00044,  -0.00050,  -0.00047,190302064.00000,   0.00000,274640576.00000,   0.00000,   0.00000,   0.00000,-284338512.00000,   0.00000
-177049226.43033,-186554631.97689,-36635584.60655,  -0.00044,  -0.00050,  -0.00048,192642432.00000,   0.00000,274640576.00000,   0.00000,   0.00000,   0.00000,-281998144.00000,   0.00000
-179086099.04745,-188816484.60695,-37093579.63288,  -0.00045,  -0.00051,  -0.00048,194955024.00000,   0.00000,274640576.00000,   0.00000,   0.00000,   0.00000,-279685552.00000,   0.00000
-181143059.16573,-191098424.73816,-37551574.65922,  -0.00045,  -0.00052,  -0.00049,197280224.00000,   0.00000,274640576.00000,   0.00000,   0.00000,   0.00000,-277360352.00000,   0.00000
-183185958.03319,-193374338.61902,-38009569.68555,  -0.00046,  -0.00052,  -0.00049,199592176.00000,   0.00000,274640576.00000,   0.00000,   0.00000,   0.00000,-275048400.00000,   0.00000
-185248944.40181,-195670340.00104,-38471582.21212,  -0.00046,  -0.00053,  -0.00050,201922480.00000,   0.00000,274640576.00000,   0.00000,   0.00000,   0.00000,-272718096.00000,   0.00000
-187291843.26928,-197946253.88191,-38933594.73868,  -0.00047,  -0.00054,  -0.00051,204229552.00000,   0.00000,274640576.00000,   0.00000,   0.00000,   0.00000,-270411024.00000,   0.00000
-189354829.63790,-200242255.26393,-39391589.76502,  -0.00047,  -0.00054,  -0.00051,206546496.00000,   0.00000,274640576.00000,   0.00000,   0.00000,   0.00000,-268094080.00000,   0.00000
-191397728.50537,-202518169.14479,-39857619.79181,  -0.00048,  -0.00055,  -0.00052,208844400.00000,   0.00000,274640576.00000,   0.00000,   0.00000,   0.00000,-265796176.00000,   0.00000
-193446653.62318,-204808144.27647,-40319632.31838,  -0.00048,  -0.00055,  -0.00052,211162192.00000,   0.00000,274640576.00000,   0.00000,   0.00000,   0.00000,-263478384.00000,   0.00000
-195495578.74100,-207098119.40814,-40785662.34518,  -0.00049,  -0.00056,  -0.00053,213511712.00000,   0.00000,274640576.00000,   0.00000,   0.00000,   0.00000,-261128864.00000,   0.00000
-197550530.10916,-209402155.79062,-41247674.87174,  -0.00049,  -0.00057,  -0.00054,215842672.00000,   0.00000,274640576.00000,   0.00000,   0.00000,   0.00000,-258797904.00000,   0.00000
-199599455.22697,-211692130.92230,-41713704.89854,  -0.00050,  -0.00057,  -0.00054,218139456.00000,   0.00000,274640576.00000,   0.00000,   0.00000,   0.00000,-256501120.00000,   0.00000
-201648380.34478,-213982106.05397,-42183752.42557,  -0.00050,  -0.00058,  -0.00055,220444720.00000,   0.00000,274640576.00000,   0.00000,   0.00000,   0.00000,-254195856.00000,   0.00000
-203703331.71294,-216286142.43645,-42649782.45236,  -0.00051,  -0.00059,  -0.00055,222753696.00000,   0.00000,274640576.00000,   0.00000,   0.00000,   0.00000,-251886880.00000,   0.00000
-205758283.08110,-218590178.81894,-43119829.97939,  -0.00051,  -0.00059,  -0.00056,225072400.00000,   0.00000,274640576.00000,   0.00000,   0.00000,   0.00000,-249568176.00000,   0.00000
-207813234.44926,-220894215.20142,-43585860.00619,  -0.00051,  -0.00060,  -0.00057,227404096.00000,   0.00000,274640576.00000,   0.00000,   0.00000,   0.00000,-247236480.00000,   0.00000
-209868185.81742,-223198251.58390,-44055907.53321,  -0.00052,  -0.00061,  -0.00057,229752400.00000,   0.00000,274640576.00000,   0.00000,   0.00000,   0.00000,-244888176.00000,   0.00000
-211923137.18558,-225502287.96638,-44529972.56047,  -0.00052,  -0.00061,  -0.00058,232112752.00000,   0.00000,274640576.00000,   0.00000,   0.00000,   0.00000,-242527824.00000,   0.00000
-213964027.30293,-227800298.09852,-45000020.08750,  -0.00053,  -0.00062,  -0.00059,234466768.00000,   0.00000,274640576.00000,   0.00000,   0.00000,   0.00000,-240173808.00000,   0.00000
-216025004.92144,-230118395.73181,-45474085.11476,  -0.00053,  -0.00063,  -0.00059,236843456.00000,   0.00000,274640576.00000,   0.00000,   0.00000,   0.00000,-237797120.00000,   0.00000
-218079956.28960,-232422432.11429,-45944132.64179,  -0.00054,  -0.00063,  -0.00060,239206112.00000,   0.00000,274640576.00000,   0.00000,   0.00000,   0.00000,-235434464.00000,   0.00000
-220126872.65730,-234734503.49723,-46418197.66905,  -0.00054,  -0.00064,  -0.00060,241568544.00000,   0.00000,274640576.00000,   0.00000,   0.00000,   0.00000,-233072032.00000,   0.00000
-222181824.02545,-237038539.87972,-46896280.19654,  -0.00055,  -0.00065,  -0.00061,243927968.00000,   0.00000,274640576.00000,   0.00000,   0.00000,   0.00000,-230712608.00000,   0.00000
-224228740.39315,-239350611.26266,-47370345.22379,  -0.00055,  -0.00065,  -0.00062,246281072.00000,   0.00000,274640576.00000,   0.00000,   0.00000,   0.00000,-228359504.00000,   0.00000
-226289718.01166,-241668708.89595,-47848427.75128,  -0.00056,  -0.00066,  -0.00062,248640960.00000,   0.00000,274640576.00000,   0.00000,   0.00000,   0.00000,-225999616.00000,   0.00000
-228342660.62970,-243994841.52970,-48322492.77854,  -0.00056,  -0.00066,  -0.00063,250995168.00000,   0.00000,274640576.00000,   0.00000,   0.00000,   0.00000,-223645408.00000,   0.00000
-230403638.24821,-246312939.16299,-48804592.80626,  -0.00057,  -0.00067,  -0.00063,253349440.00000,   0.00000,274640576.00000,   0.00000,   0.00000,   0.00000,-221291136.00000,   0.00000
-232450554.61591,-248625010.54594,-49282675.33375,  -0.00057,  -0.00068,  -0.00064,255689568.00000,   0.00000,274640576.00000,   0.00000,   0.00000,   0.00000,-218951008.00000,   0.00000
-234497470.98360,-250937081.92888,-49760757.86124,  -0.00058,  -0.00068,  -0.00065,258027472.00000,   0.00000,274640576.00000,   0.00000,   0.00000,   0.00000,-216613104.00000,   0.00000
-236564474.85246,-253269240.81298,-50242857.88896,  -0.00058,  -0.00069,  -0.00065,260384784.00000,   0.00000,274640576.00000,   0.00000,   0.00000,   0.00000,-214255792.00000,   0.00000
-238617417.47050,-255595373.44673,-50724957.91669,  -0.00059,  -0.00070,  -0.00066,262731824.00000,   0.00000,274640576.00000,   0.00000,   0.00000,   0.00000,-211908752.00000,   0.00000
-240664333.83820,-257907444.82968,-51207057.94441,  -0.00059,  -0.00070,  -0.00067,265067968.00000,   0.00000,274640576.00000,   0.00000,   0.00000,   0.00000,-209572608.00000,   0.00000
-242717276.45624,-260233577.46343,-51689157.97213,  -0.00060,  -0.00071,  -0.00067,267413200.00000,   0.00000,274640576.00000,   0.00000,   0.00000,   0.00000,-207227376.00000,   0.00000
-244770219.07429,-262559710.09718,-52171257.99985,  -0.00060,  -0.00072,  -0.00068,269757984.00000,   0.00000,274640576.00000,   0.00000,   0.00000,   0.00000,-204882592.00000,   0.00000
-246823161.69233,-264885842.73094,-52657375.52780,  -0.00061,  -0.00072,  -0.00068,272105440.00000,   0.00000,274640576.00000,   0.00000,   0.00000,   0.00000,-202535136.00000,   0.00000
-248876104.31038,-267211975.36469,-53143493.05575,  -0.00061,  -0.00073,  -0.00069,274454720.00000,   0.00000,274640576.00000,   0.00000,   0.00000,   0.00000,-200185856.00000,   0.00000
-250929046.92842,-269538107.99844,-53625593.08347,  -0.00062,  -0.00074,  -0.00070,276805696.00000,   0.00000,274640576.00000,   0.00000,   0.00000,   0.00000,-197834880.00000,   0.00000
-252981989.54646,-271864240.63219,-54115728.11165,  -0.00062,  -0.00074,  -0.00070,279167552.00000,   0.00000,274640576.00000,   0.00000,   0.00000,   0.00000,-195473024.00000,   0.00000
-255040958.41486,-274204434.51676,-54601845.63961,  -0.00063,  -0.00075,  -0.00071,281544352.00000,   0.00000,274640576.00000,   0.00000,   0.00000,   0.00000,-193096224.00000,   0.00000
-257093901.03290,-276530567.15051,-55091980.66779,  -0.00063,  -0.00076,  -0.00072,283919616.00000,   0.00000,274640576.00000,   0.00000,   0.00000,   0.00000,-190720960.00000,   0.00000
-259146843.65094,-278856699.78426,-55578098.19574,  -0.00064,  -0.00076,  -0.00072,286294400.00000,   0.00000,274640576.00000,   0.00000,   0.00000,   0.00000,-188346176.00000,   0.00000
-261205812.51933,-281196893.66882,-56068233.22392,  -0.00064,  -0.00077,  -0.00073,288677248.00000,   0.00000,274640576.00000,   0.00000,   0.00000,   0.00000,-185963328.00000,   0.00000
-263244693.88657,-283517000.05223,-56558368.25211,  -0.00064,  -0.00078,  -0.00074,291030240.00000,   0.00000,274640576.00000,   0.00000,   0.00000,   0.00000,-183610336.00000,   0.00000
-265303662.75496,-285857193.93679,-57052520.78052,  -0.00065,  -0.00078,  -0.00074,293387616.00000,   0.00000,274640576.00000,   0.00000,   0.00000,   0.00000,-181252960.00000,   0.00000
-267356605.37300,-288183326.57054,-57542655.80870,  -0.00065,  -0.00079,  -0.00075,295711072.00000,   0.00000,274640576.00000,   0.00000,   0.00000,   0.00000,-178929504.00000,   0.00000
-269401512.99059,-290517494.20476,-58036808.33712,  -0.00066,  -0.00080,  -0.00075,298013952.00000,   0.00000,274640576.00000,   0.00000,   0.00000,   0.00000,-176626624.00000,   0.00000
-271454455.60863,-292843626.83851,-58526943.36530,  -0.00066,  -0.00080,  -0.00076,300289984.00000,   0.00000,274640576.00000,   0.00000,   0.00000,   0.00000,-174350592.00000,   0.00000
-273499363.22621,-295177794.47272,-59021095.89371,  -0.00067,  -0.00081,  -0.00077,302552256.00000,   0.00000,274640576.00000,   0.00000,   0.00000,   0.00000,-172088320.00000,   0.00000
-275558332.09460,-297517988.35728,-59519265.92236,  -0.00067,  -0.00082,  -0.00077,304818016.00000,   0.00000,274640576.00000,   0.00000,   0.00000,   0.00000,-169822560.00000,   0.00000
-277603239.71219,-299852155.99150,-60013418.45077,  -0.00068,  -0.00082,  -0.00078,307079104.00000,   0.00000,274640576.00000,   0.00000,   0.00000,   0.00000,-167561472.00000,   0.00000
-279656182.33023,-302178288.62525,-60507570.97919,  -0.00068,  -0.00083,  -0.00079,309356768.00000,   0.00000,274640576.00000,   0.00000,   0.00000,   0.00000,-165283808.00000,   0.00000
-281701089.94781,-304512456.25947,-61005741.00783,  -0.00069,  -0.00084,  -0.00079,311662592.00000,   0.00000,274640576.00000,   0.00000,   0.00000,   0.00000,-162977984.00000,   0.00000
-283745997.56539,-306846623.89368,-61503911.03647,  -0.00069,  -0.00084,  -0.00080,313992384.00000,   0.00000,274640576.00000,   0.00000,   0.00000,   0.00000,-160648192.00000,   0.00000
-285790905.18298,-309180791.52790,-62002081.06512,  -0.00070,  -0.00085,  -0.00081,316341696.00000,   0.00000,274640576.00000,   0.00000,   0.00000,   0.00000,-158298880.00000,   0.00000
-287849874.05137,-311520985.41246,-62500251.09376,  -0.00070,  -0.00086,  -0.00081,318713216.00000,   0.00000,274640576.00000,   0.00000,   0.00000,   0.00000,-155927360.00000,   0.00000
-289888755.41860,-313841091.79586,-63002438.62264,  -0.00071,  -0.00086,  -0.00082,321076160.00000,   0.00000,274640576.00000,   0.00000,   0.00000,   0.00000,-153564416.00000,   0.00000
-291933663.03619,-316175259.43008,-63500608.65128,  -0.00071,  -0.00087,  -0.00083,323450400.00000,   0.00000,274640576.00000,   0.00000,   0.00000,   0.00000,-151190176.00000,   0.00000
-293978570.65377,-318509427.06429,-64002796.18016,  -0.00072,  -0.00088,  -0.00083,325828224.00000,   0.00000,274640576.00000,   0.00000,   0.00000,   0.00000,-148812352.00000,   0.00000
-296023478.27135,-320843594.69851,-64504983.70904,  -0.00072,  -0.00088,  -0.00084,328205216.00000,   0.00000,274640576.00000,   0.00000,   0.00000,   0.00000,-146435360.00000,   0.00000
-298068385.88893,-323177762.33272,-65003153.73768,  -0.00073,  -0.00089,  -0.00085,330578208.00000,   0.00000,274640576.00000,   0.00000,   0.00000,   0.00000,-144062368.00000,   0.00000
-300093206.00536,-325491842.46578,-65509358.76679,  -0.00073,  -0.00090,  -0.00085,332934496.00000,   0.00000,274640576.00000,   0.00000,   0.00000,   0.00000,-141706080.00000,   0.00000
-302138113.62294,-327826010.10000,-66011546.29566,  -0.00074,  -0.00090,  -0.00086,335304704.00000,   0.00000,274640576.00000,   0.00000,   0.00000,   0.00000,-139335872.00000,   0.00000
-304183021.24052,-330160177.73421,-66513733.82454,  -0.00074,  -0.00091,  -0.00086,337672000.00000,   0.00000,274640576.00000,   0.00000,   0.00000,   0.00000,-136968576.00000,   0.00000
-306221902.60776,-332480284.11762,-67019938.85365,  -0.00074,  -0.00092,  -0.00087,340029344.00000,   0.00000,274640576.00000,   0.00000,   0.00000,   0.00000,-134611232.00000,   0.00000
-308252748.97453,-334808425.50148,-67526143.88275,  -0.00075,  -0.00092,  -0.00088,342385824.00000,   0.00000,274640576.00000,   0.00000,   0.00000,   0.00000,-132254752.00000,   0.00000
-310297656.59212,-337142593.13570,-68032348.91186,  -0.00075,  -0.00093,  -0.00088,344750080.00000,   0.00000,274640576.00000,   0.00000,   0.00000,   0.00000,-129890496.00000,   0.00000
-312322476.70854,-339456673.26876,-68534536.44074,  -0.00076,  -0.00094,  -0.00089,347092736.00000,   0.00000,274640576.00000,   0.00000,   0.00000,   0.00000,-127547840.00000,   0.00000
-314367384.32612,-341790840.90297,-69044758.97007,  -0.00076,  -0.00094,  -0.00090,349459424.00000,   0.00000,274640576.00000,   0.00000,   0.00000,   0.00000,-125181152.00000,   0.00000
-316392204.44255,-344104921.03603,-69550963.99918,  -0.00077,  -0.00095,  -0.00090,351806432.00000,   0.00000,274640576.00000,   0.00000,   0.00000,   0.00000,-122834144.00000,   0.00000
-318423050.80933,-346433062.41990,-70057169.02829,  -0.00077,  -0.00096,  -0.00091,354165280.00000,   0.00000,274640576.00000,   0.00000,   0.00000,   0.00000,-120475296.00000,   0.00000
-320447870.92575,-348747142.55296,-70567391.55763,  -0.00078,  -0.00096,  -0.00092,356519488.00000,   0.00000,274640576.00000,   0.00000,   0.00000,   0.00000,-118121088.00000,   0.00000
-322472691.04218,-351061222.68602,-71073596.58673,  -0.00078,  -0.00097,  -0.00092,358874496.00000,   0.00000,274640576.00000,   0.00000,   0.00000,   0.00000,-115766080.00000,   0.00000
-324497511.15861,-353375302.81908,-71583819.11607,  -0.00079,  -0.00098,  -0.00093,361235264.00000,   0.00000,274640576.00000,   0.00000,   0.00000,   0.00000,-113405312.00000,   0.00000
-326522331.27503,-355689382.95214,-72094041.64541,  -0.00079,  -0.00098,  -0.00094,363599264.00000,   0.00000,274640576.00000,   0.00000,   0.00000,   0.00000,-111041312.00000,   0.00000
-328547151.39146,-358003463.08520,-72604264.17475,  -0.00080,  -0.00099,  -0.00094,365966144.00000,   0.00000,274640576.00000,   0.00000,   0.00000,   0.00000,-108674432.00000,   0.00000
-330571971.50789,-360317543.21826,-73114486.70408,  -0.00080,  -0.00099,  -0.00095,368335136.00000,   0.00000,274640576.00000,   0.00000,   0.00000,   0.00000,-106305440.00000,   0.00000
-332582730.37351,-362625597.10097,-73628726.73365,  -0.00081,  -0.00100,  -0.00096,370698368.00000,   0.00000,274640576.00000,   0.00000,   0.00000,   0.00000,-103942208.00000,   0.00000
-334607550.48993,-364939677.23403,-74138949.26299,  -0.00081,  -0.00101,  -0.00096,373067392.00000,   0.00000,274640576.00000,   0.00000,   0.00000,   0.00000,-101573184.00000,   0.00000
-336612283.10521,-367233669.86594,-74649171.79233,  -0.00082,  -0.00101,  -0.00097,375414944.00000,   0.00000,274640576.00000,   0.00000,   0.00000,   0.00000,-99225632.00000,   0.00000
-338637103.22163,-369547749.99900,-75163411.82190,  -0.00082,  -0.00102,  -0.00098,377779264.00000,   0.00000,274640576.00000,   0.00000,   0.00000,   0.00000,-96861312.00000,   0.00000
-340641835.83691,-371841742.63090,-75677651.85147,  -0.00082,  -0.00103,  -0.00098,380118080.00000,   0.00000,274640576.00000,   0.00000,   0.00000,   0.00000,-94522496.00000,   0.00000
-342646568.45218,-374135735.26280,-76187874.38080,  -0.00083,  -0.00103,  -0.00099,382446496.00000,   0.00000,274640576.00000,   0.00000,   0.00000,   0.00000,-92194080.00000,   0.00000
-344657327.31780,-376443789.14552,-76702114.41037,  -0.00083,  -0.00104,  -0.00100,384777952.00000,   0.00000,274640576.00000,   0.00000,   0.00000,   0.00000,-89862624.00000,   0.00000
-346662059.93307,-378737781.77742,-77216354.43994,  -0.00084,  -0.00105,  -0.00100,387090464.00000,   0.00000,274640576.00000,   0.00000,   0.00000,   0.00000,-87550112.00000,   0.00000
-348660766.29799,-381017713.15852,-77730594.46951,  -0.00084,  -0.00105,  -0.00101,389385568.00000,   0.00000,274640576.00000,   0.00000,   0.00000,   0.00000,-85255008.00000,   0.00000
-350665498.91327,-383311705.79042,-78244834.49908,  -0.00085,  -0.00106,  -0.00102,391685792.00000,   0.00000,274640576.00000,   0.00000,   0.00000,   0.00000,-82954784.00000,   0.00000
-352670231.52854,-385605698.42233,-78763092.02888,  -0.00085,  -0.00107,  -0.00102,393988032.00000,   0.00000,274640576.00000,   0.00000,   0.00000,   0.00000,-80652544.00000,   0.00000
-354654876.64266,-387879603.55308,-79277332.05845,  -0.00086,  -0.00107,  -0.00103,396273920.00000,   0.00000,274640576.00000,   0.00000,   0.00000,   0.00000,-78366656.00000,   0.00000
-356639521.75677,-390153508.68383,-79791572.08802,  -0.00086,  -0.00108,  -0.00104,398569632.00000,   0.00000,274640576.00000,   0.00000,   0.00000,   0.00000,-76070944.00000,   0.00000
-358638228.12170,-392433440.06492,-80309829.61782,  -0.00087,  -0.00109,  -0.00104,400890912.00000,   0.00000,274640576.00000,   0.00000,   0.00000,   0.00000,-73749664.00000,   0.00000
-360622873.23582,-394707345.19567,-80824069.64738,  -0.00087,  -0.00109,  -0.00105,403218464.00000,   0.00000,274640576.00000,   0.00000,   0.00000,   0.00000,-71422112.00000,   0.00000
-362607518.34993,-396981250.32642,-81342327.17718,  -0.00088,  -0.00110,  -0.00106,405567424.00000,   0.00000,274640576.00000,   0.00000,   0.00000,   0.00000,-69073152.00000,   0.00000
-364592163.46405,-399255155.45717,-81856567.20675,  -0.00088,  -0.00111,  -0.00106,407932096.00000,   0.00000,274640576.00000,   0.00000,   0.00000,   0.00000,-66708480.00000,   0.00000
-366570782.32782,-401514999.33711,-82374824.73655,  -0.00088,  -0.00111,  -0.00107,410304032.00000,   0.00000,274640576.00000,   0.00000,   0.00000,   0.00000,-64336544.00000,   0.00000
-368535339.94078,-403768816.96671,-82893082.26635,  -0.00089,  -0.00112,  -0.00108,412676800.00000,   0.00000,274640576.00000,   0.00000,   0.00000,   0.00000,-61963776.00000,   0.00000
-370513958.80455,-406028660.84665,-83407322.29592,  -0.00089,  -0.00112,  -0.00108,415060288.00000,   0.00000,274640576.00000,   0.00000,   0.00000,   0.00000,-59580288.00000,   0.00000
-372478516.41751,-408282478.47624,-83925579.82572,  -0.00090,  -0.00113,  -0.00109,417434560.00000,   0.00000,274640576.00000,   0.00000,   0.00000,   0.00000,-57206016.00000,   0.00000
-374443074.03048,-410536296.10584,-84443837.35552,  -0.00090,  -0.00114,  -0.00110,419800736.00000,   0.00000,274640576.00000,   0.00000,   0.00000,   0.00000,-54839840.00000,   0.00000
-376401605.39309,-412776052.48462,-84962094.88532,  -0.00091,  -0.00114,  -0.00110,422144384.00000,   0.00000,274640576.00000,   0.00000,   0.00000,   0.00000,-52496192.00000,   0.00000
-378360136.75571,-415015808.86341,-85480352.41512,  -0.00091,  -0.00115,  -0.00111,424473184.00000,   0.00000,274640576.00000,   0.00000,   0.00000,   0.00000,-50167392.00000,   0.00000
-380318668.11832,-417255565.24220,-85998609.94492,  -0.00092,  -0.00116,  -0.00112,426786368.00000,   0.00000,274640576.00000,   0.00000,   0.00000,   0.00000,-47854208.00000,   0.00000
-382263138.23013,-419489295.37063,-86516867.47472,  -0.00092,  -0.00116,  -0.00112,429076352.00000,   0.00000,274640576.00000,   0.00000,   0.00000,   0.00000,-45564224.00000,   0.00000
-384215643.34240,-421714990.49861,-87035125.00452,  -0.00093,  -0.00117,  -0.00113,431352832.00000,   0.00000,274640576.00000,   0.00000,   0.00000,   0.00000,-43287744.00000,   0.00000
-386154087.20386,-423934659.37624,-87553382.53432,  -0.00093,  -0.00118,  -0.00114,433611072.00000,   0.00000,274640576.00000,   0.00000,   0.00000,   0.00000,-41029504.00000,   0.00000
-388092531.06532,-426154328.25387,-88071640.06412,  -0.00093,  -0.00118,  -0.00114,435863040.00000,   0.00000,274640576.00000,   0.00000,   0.00000,   0.00000,-38777536.00000,   0.00000
-390030974.92678,-428373997.13151,-88589897.59392,  -0.00094,  -0.00119,  -0.00115,438111776.00000,   0.00000,274640576.00000,   0.00000,   0.00000,   0.00000,-36528800.00000,   0.00000
-391969418.78824,-430593666.00914,-89108155.12372,  -0.00094,  -0.00119,  -0.00116,440360192.00000,   0.00000,274640576.00000,   0.00000,   0.00000,   0.00000,-34280384.00000,   0.00000
-393887775.14855,-432793247.38561,-89626412.65352,  -0.00095,  -0.00120,  -0.00117,442591872.00000,   0.00000,274640576.00000,   0.00000,   0.00000,   0.00000,-32048704.00000,   0.00000
-395806131.50885,-434992828.76209,-90148687.68355,  -0.00095,  -0.00121,  -0.00117,444829472.00000,   0.00000,274640576.00000,   0.00000,   0.00000,   0.00000,-29811104.00000,   0.00000
-397732522.86962,-437184375.13810,-90666945.21335,  -0.00096,  -0.00121,  -0.00118,447068160.00000,   0.00000,274640576.00000,   0.00000,   0.00000,   0.00000,-27572416.00000,   0.00000
-399650879.22993,-439383956.51458,-91185202.74315,  -0.00096,  -0.00122,  -0.00119,449313024.00000,   0.00000,274640576.00000,   0.00000,   0.00000,   0.00000,-25327552.00000,   0.00000
-401549148.08908,-441563450.38990,-91703460.27295,  -0.00097,  -0.00123,  -0.00119,451544224.00000,   0.00000,274640576.00000,   0.00000,   0.00000,   0.00000,-23096352.00000,   0.00000
-403461478.19904,-443748970.51557,-92221717.80275,  -0.00097,  -0.00123,  -0.00120,453789408.00000,   0.00000,274640576.00000,   0.00000,   0.00000,   0.00000,-20851168.00000,   0.00000
-405353720.80784,-445914403.14008,-92739975.33255,  -0.00097,  -0.00124,  -0.00121,456022176.00000,   0.00000,274640576.00000,   0.00000,   0.00000,   0.00000,-18618400.00000,   0.00000
-407245963.41664,-448079835.76459,-93258232.86235,  -0.00098,  -0.00124,  -0.00121,458265632.00000,   0.00000,274640576.00000,   0.00000,   0.00000,   0.00000,-16374944.00000,   0.00000
-409138206.02545,-450245268.38910,-93776490.39215,  -0.00098,  -0.00125,  -0.00122,460531264.00000,   0.00000,274640576.00000,   0.00000,   0.00000,   0.00000,-14109312.00000,   0.00000
-411030448.63425,-452410701.01362,-94294747.92195,  -0.00099,  -0.00126,  -0.00123,462832192.00000,   0.00000,274640576.00000,   0.00000,   0.00000,   0.00000,-11808384.00000,   0.00000
-412902603.74190,-454556046.13697,-94813005.45175,  -0.00099,  -0.00126,  -0.00123,465125216.00000,   0.00000,274640576.00000,   0.00000,   0.00000,   0.00000,-9515360.00000,   0.00000
-414788820.10036,-456707417.51068,-95331262.98155,  -0.00100,  -0.00127,  -0.00124,467369792.00000,   0.00000,274640576.00000,   0.00000,   0.00000,   0.00000,-7270784.00000,   0.00000
-416654948.95766,-458838701.38323,-95849520.51135,  -0.00100,  -0.00128,  -0.00125,469559264.00000,   0.00000,274640576.00000,   0.00000,   0.00000,   0.00000,-5081312.00000,   0.00000
-418521077.81496,-460969985.25577,-96363760.54092,  -0.00101,  -0.00128,  -0.00125,471758272.00000,   0.00000,274640576.00000,   0.00000,   0.00000,   0.00000,-2882304.00000,   0.00000
-420373145.42146,-463095242.87798,-96882018.07072,  -0.00101,  -0.00129,  -0.00126,473953248.00000,   0.00000,274640576.00000,   0.00000,   0.00000,   0.00000,-687328.00000,   0.00000
-420953725.20826,-463761461.33181,-97044479.65965,  -0.00101,  -0.00129,  -0.00126,474640512.00000,   0.00000,274640576.00000,   0.00000,   0.00000,   0.00000, -64.00000,   0.00000
-420944039.83212,-463781785.04797,-97042243.42153,  -0.00101,  -0.00129,  -0.00127,474640512.00000,   0.00000,274645984.00000,  -0.00000,  -0.00000,  -0.00000,   0.00000,   2.00000
-420940770.53614,-463806450.72956,-97035770.47780,  -0.00102,  -0.00130,  -0.00127,476831008.00000,   0.00001,274653856.00000,  -0.00001,  -0.00001,  -0.00001, 160.00000,   2.00000
-420924759.97183,-463828830.01080,-97039255.98185,  -0.00102,  -0.00131,  -0.00128,476813920.00000,   0.00002,274661632.00000,  -0.00001,  -0.00002,  -0.00002, -32.00000,   2.00000
-420915131.01606,-463855707.66912,-97034903.87259,  -0.00103,  -0.00131,  -0.00129,476837888.00000,   0.00003,274669472.00000,  -0.00002,  -0.00002,  -0.00002,   0.00000,   2.00000
-420899435.01009,-463878036.03584,-97038446.59393,  -0.00103,  -0.00132,  -0.00129,476829440.00000,   0.00003,274677248.00000,  -0.00002,  -0.00003,  -0.00003, -32.00000,   2.00000
-420888251.56473,-463897971.62609,-97040888.83741,  -0.00104,  -0.00132,  -0.00130,476824928.00000,   0.00004,274684992.00000,  -0.00002,  -0.00003,  -0.00004, -32.00000,   2.00000
-420874816.35958,-463922464.01196,-97040998.21720,  -0.00104,  -0.00133,  -0.00131,476842464.00000,   0.00005,274692768.00000,  -0.00003,  -0.00004,  -0.00004,  64.00000,   2.00000
-420866218.88830,-463937680.39169,-97045791.67324,  -0.00104,  -0.00134,  -0.00131,476830432.00000,   0.00005,274700448.00000,  -0.00003,  -0.00004,  -0.00005,   0.00000,   2.00000
-420846773.44211,-463957556.32903,-97053747.60797,  -0.00105,  -0.00134,  -0.00132,476841664.00000,   0.00006,274708160.00000,  -0.00004,  -0.00005,  -0.00006,   0.00000,   2.00000
-420831936.16229,-463975144.85489,-97060602.61022,  -0.00105,  -0.00135,  -0.00133,476837056.00000,   0.00007,274715840.00000,  -0.00004,  -0.00006,  -0.00006,  64.00000,   2.00000
-420815200.66910,-463992899.30364,-97068462.50841,  -0.00106,  -0.00135,  -0.00133,476823584.00000,   0.00008,274723424.00000,  -0.00005,  -0.00006,  -0.00007, 128.00000,   2.00000
-420802872.21915,-464005695.70011,-97077575.82394,  -0.00106,  -0.00136,  -0.00134,476842560.00000,   0.00008,274731040.00000,  -0.00005,  -0.00007,  -0.00008,   0.00000,   2.00000
-420784253.47787,-464021015.95972,-97088779.05276,  -0.00106,  -0.00136,  -0.00135,476841120.00000,   0.00009,274738624.00000,  -0.00005,  -0.00007,  -0.00008,  96.00000,   2.00000
-420770126.12412,-464033951.83356,-97098835.76203,  -0.00107,  -0.00137,  -0.00135,476836448.00000,   0.00010,274746176.00000,  -0.00006,  -0.00008,  -0.00009, -32.00000,   2.00000
-420747558.72306,-464046987.42891,-97114371.96084,  -0.00107,  -0.00138,  -0.00136,476837600.00000,   0.00010,274753696.00000,  -0.00006,  -0.00008,  -0.00010, -32.00000,   2.00000
-420727255.02199,-464062376.94373,-97126435.02951,  -0.00108,  -0.00138,  -0.00137,476842592.00000,   0.00011,274761216.00000,  -0.00007,  -0.00009,  -0.00010,   0.00000,   2.00000
-420711864.44838,-464068602.07594,-97143140.72533,  -0.00108,  -0.00139,  -0.00137,476830368.00000,   0.00012,274768640.00000,  -0.00007,  -0.00010,  -0.00011,  64.00000,   2.00000
-420694191.60082,-464079394.65042,-97157423.75206,  -0.00108,  -0.00139,  -0.00138,476847680.00000,   0.00012,274776128.00000,  -0.00008,  -0.00010,  -0.00012,  32.00000,   2.00000
-420672437.79386,-464087935.63999,-97176064.86173,  -0.00109,  -0.00140,  -0.00139,476836448.00000,   0.00013,274783520.00000,  -0.00008,  -0.00011,  -0.00012,  32.00000,   2.00000
-420653192.62762,-464091888.34504,-97196965.36541,  -0.00109,  -0.00140,  -0.00139,476833952.00000,   0.00014,274790880.00000,  -0.00008,  -0.00011,  -0.00013,  64.00000,   2.00000
-420629673.33834,-464100650.49067,-97216461.40878,  -0.00110,  -0.00141,  -0.00140,476829984.00000,   0.00014,274798208.00000,  -0.00009,  -0.00012,  -0.00014, -96.00000,   2.00000
-420606399.01591,-464109518.01648,-97235897.85229,  -0.00110,  -0.00142,  -0.00141,476837280.00000,   0.00015,274805536.00000,  -0.00009,  -0.00012,  -0.00014,  64.00000,   2.00000
-420583454.10395,-464111340.52019,-97260977.69709,  -0.00110,  -0.00142,  -0.00141,476837280.00000,   0.00016,274812832.00000,  -0.00010,  -0.00013,  -0.00015,  64.00000,   2.00000
-420565118.83370,-464110969.81801,-97284879.38054,  -0.00111,  -0.00143,  -0.00142,476832192.00000,   0.00016,274820096.00000,  -0.00010,  -0.00013,  -0.00015,   0.00000,   2.00000
-420540454.88000,-464113129.62582,-97310789.15457,  -0.00111,  -0.00143,  -0.00143,476830592.00000,   0.00017,274827328.00000,  -0.00010,  -0.00014,  -0.00016, -32.00000,   2.00000
-420511399.25850,-464119953.14539,-97335236.47676,  -0.00112,  -0.00144,  -0.00143,476826592.00000,   0.00018,274834496.00000,  -0.00011,  -0.00015,  -0.00017,   0.00000,   2.00000
-420489326.86164,-464117454.31399,-97363239.73844,  -0.00112,  -0.00144,  -0.00144,476835168.00000,   0.00018,274841664.00000,  -0.00011,  -0.00015,  -0.00017, -32.00000,   2.00000
-420465441.84143,-464115314.95701,-97392184.19877,  -0.00112,  -0.00145,  -0.00145,476821152.00000,   0.00019,274848768.00000,  -0.00012,  -0.00016,  -0.00018,  64.00000,   2.00000
-420435084.34326,-464115529.16630,-97423071.54198,  -0.00113,  -0.00145,  -0.00145,476819520.00000,   0.00020,274855840.00000,  -0.00012,  -0.00016,  -0.00019,  32.00000,   2.00000
-420411386.15007,-464113326.94492,-97451709.21752,  -0.00113,  -0.00146,  -0.00146,476835328.00000,   0.00020,274862944.00000,  -0.00012,  -0.00017,  -0.00019,   0.00000,   2.00000
-420386148.94259,-464104543.92686,-97487052.03807,  -0.00114,  -0.00146,  -0.00147,476813824.00000,   0.00021,274869952.00000,  -0.00013,  -0.00017,  -0.00020,  32.00000,   2.00000
-420352096.78769,-464102750.40289,-97521964.59866,  -0.00114,  -0.00147,  -0.00147,476821984.00000,   0.00022,274876960.00000,  -0.00013,  -0.00018,  -0.00020,  64.00000,   2.00000
-420325090.10200,-464094233.14516,-97558026.89673,  -0.00114,  -0.00147,  -0.00148,476806752.00000,   0.00022,274883904.00000,  -0.00014,  -0.00018,  -0.00021,  32.00000,   2.00000
-420295748.51164,-464090233.62053,-97591538.99135,  -0.00115,  -0.00148,  -0.00148,476823584.00000,   0.00023,274890848.00000,  -0.00014,  -0.00019,  -0.00022,  32.00000,   2.00000
-420264907.77768,-464079687.59468,-97631753.61509,  -0.00115,  -0.00148,  -0.00149,476801952.00000,   0.00023,274897728.00000,  -0.00014,  -0.00019,  -0.00022, -32.00000,   2.00000
-420234118.49083,-464069093.34993,-97671756.46509,  -0.00115,  -0.00149,  -0.00150,476808832.00000,   0.00024,274904576.00000,  -0.00015,  -0.00020,  -0.00023,   0.00000,   2.00000
-420199137.83555,-464063434.86079,-97710299.63223,  -0.00116,  -0.00150,  -0.00150,476804384.00000,   0.00025,274911392.00000,  -0.00015,  -0.00020,  -0.00023,  64.00000,   2.00000
-420168958.73839,-464048548.73951,-97753358.70745,  -0.00116,  -0.00150,  -0.00151,476791488.00000,   0.00025,274918144.00000,  -0.00016,  -0.00021,  -0.00024, -64.00000,   2.00000
-420136649.43127,-464038425.87570,-97793888.16736,  -0.00117,  -0.00151,  -0.00152,476808096.00000,   0.00026,274924928.00000,  -0.00016,  -0.00021,  -0.00025,  32.00000,   2.00000
-420102674.22194,-464021593.04877,-97841060.87178,  -0.00117,  -0.00151,  -0.00152,476786304.00000,   0.00027,274931616.00000,  -0.00016,  -0.00022,  -0.00025,  64.00000,   2.00000
-420068868.22438,-464004861.65570,-97888024.69583,  -0.00117,  -0.00152,  -0.00153,476793024.00000,   0.00027,274938272.00000,  -0.00017,  -0.00022,  -0.00026,  32.00000,   2.00000
-420033156.64442,-463988418.21600,-97935849.37183,  -0.00118,  -0.00152,  -0.00154,476778560.00000,   0.00028,274944896.00000,  -0.00017,  -0.00023,  -0.00026,  96.00000,   2.00000
-419997538.52498,-463971980.77335,-97983441.35002,  -0.00118,  -0.00153,  -0.00154,476785280.00000,   0.00028,274951488.00000,  -0.00017,  -0.00023,  -0.00027,  64.00000,   2.00000
-419957945.45207,-463953495.58131,-98035311.94804,  -0.00118,  -0.00153,  -0.00155,476773184.00000,   0.00029,274958048.00000,  -0.00018,  -0.00024,  -0.00027, -32.00000,   2.00000
-419920666.75503,-463937509.17161,-98083559.22804,  -0.00119,  -0.00154,  -0.00156,476777248.00000,   0.00030,274964576.00000,  -0.00018,  -0.00024,  -0.00028,   0.00000,   2.00000
-419885927.96543,-463917035.36650,-98133966.87921,  -0.00119,  -0.00154,  -0.00156,476773952.00000,   0.00030,274971072.00000,  -0.00018,  -0.00025,  -0.00029,  32.00000,   2.00000
-419840441.97272,-463896683.79887,-98190705.13575,  -0.00119,  -0.00154,  -0.00157,476752960.00000,   0.00031,274977472.00000,  -0.00019,  -0.00025,  -0.00029,   0.00000,   2.00000
-419804204.04547,-463869611.43711,-98247495.66396,  -0.00120,  -0.00155,  -0.00157,476758176.00000,   0.00031,274983840.00000,  -0.00019,  -0.00026,  -0.00030,  32.00000,   2.00000
-419763609.35711,-463847352.46798,-98302734.75125,  -0.00120,  -0.00155,  -0.00158,476753472.00000,   0.00032,274990208.00000,  -0.00020,  -0.00026,  -0.00030,  32.00000,   2.00000
-419718987.07494,-463822998.58480,-98362227.18563,  -0.00120,  -0.00156,  -0.00159,476741088.00000,   0.00032,274996480.00000,  -0.00020,  -0.00027,  -0.00031, -32.00000,   2.00000
-419674569.80077,-463798773.81050,-98421470.78781,  -0.00121,  -0.00156,  -0.00159,476747392.00000,   0.00033,275002784.00000,  -0.00020,  -0.00027,  -0.00031,   0.00000,   2.00000
-419634858.61417,-463772510.69721,-98479455.42229,  -0.00121,  -0.00157,  -0.00160,476741376.00000,   0.00034,275009024.00000,  -0.00021,  -0.00028,  -0.00032,  64.00000,   2.00000
-419591024.93246,-463744071.34483,-98541670.65020,  -0.00121,  -0.00157,  -0.00161,476729056.00000,   0.00034,275015200.00000,  -0.00021,  -0.00028,  -0.00032,  32.00000,   2.00000
-419543162.89246,-463713553.52530,-98608127.83677,  -0.00122,  -0.00158,  -0.00161,476716672.00000,   0.00035,275021312.00000,  -0.00021,  -0.00029,  -0.00033,  96.00000,   2.00000
-419497498.86791,-463685425.03511,-98670879.41931,  -0.00122,  -0.00158,  -0.00162,476720288.00000,   0.00035,275027424.00000,  -0.00022,  -0.00029,  -0.00034,  32.00000,   2.00000
-419447860.67338,-463655273.00881,-98737895.07924,  -0.00122,  -0.00159,  -0.00162,476707712.00000,   0.00036,275033440.00000,  -0.00022,  -0.00029,  -0.00034,  32.00000,   2.00000
-419398413.34193,-463625240.26195,-98804633.45926,  -0.00123,  -0.00159,  -0.00163,476713760.00000,   0.00036,275039488.00000,  -0.00022,  -0.00030,  -0.00035,  96.00000,   2.00000
-419355994.14090,-463588555.89166,-98872482.77653,  -0.00123,  -0.00160,  -0.00164,476697664.00000,   0.00037,275045440.00000,  -0.00023,  -0.00030,  -0.00035,  96.00000,   2.00000
-419298392.72306,-463554292.60371,-98947682.64614,  -0.00123,  -0.00160,  -0.00164,476688608.00000,   0.00038,275051360.00000,  -0.00023,  -0.00031,  -0.00036,  32.00000,   2.00000
-419254122.71256,-463517919.81087,-99016039.49059,  -0.00124,  -0.00160,  -0.00165,476688480.00000,   0.00038,275057216.00000,  -0.00023,  -0.00031,  -0.00036,  32.00000,   2.00000
-419194751.64215,-463484053.02052,-99091777.20659,  -0.00124,  -0.00161,  -0.00165,476679328.00000,   0.00039,275063040.00000,  -0.00024,  -0.00032,  -0.00037,  32.00000,   2.00000
-419142401.51425,-463443505.13394,-99168608.04316,  -0.00124,  -0.00161,  -0.00166,476662944.00000,   0.00039,275068800.00000,  -0.00024,  -0.00032,  -0.00037,  96.00000,   2.00000
-419092309.11370,-463405440.20967,-99241727.44927,  -0.00125,  -0.00162,  -0.00167,476666304.00000,   0.00040,275074528.00000,  -0.00024,  -0.00033,  -0.00038,  64.00000,   2.00000
-419036081.28315,-463362948.46191,-99322497.92457,  -0.00125,  -0.00162,  -0.00167,476655936.00000,   0.00040,275080224.00000,  -0.00025,  -0.00033,  -0.00038,  64.00000,   2.00000
-418977539.55236,-463327569.08338,-99398257.08438,  -0.00125,  -0.00163,  -0.00168,476648000.00000,   0.00041,275085856.00000,  -0.00025,  -0.00033,  -0.00039,  32.00000,   2.00000
-418919452.83078,-463285358.87894,-99479525.35736,  -0.00125,  -0.00163,  -0.00168,476646240.00000,   0.00041,275091456.00000,  -0.00025,  -0.00034,  -0.00039,  32.00000,   2.00000
-418861843.71799,-463238928.01102,-99564059.97069,  -0.00126,  -0.00163,  -0.00169,476620832.00000,   0.00042,275096960.00000,  -0.00025,  -0.00034,  -0.00040,  96.00000,   2.00000
-418804276.00754,-463192484.86952,-99648229.38324,  -0.00126,  -0.00164,  -0.00170,476626496.00000,   0.00042,275102464.00000,  -0.00026,  -0.00035,  -0.00040,  96.00000,   2.00000
-418742348.40473,-463150862.54578,-99730809.30929,  -0.00126,  -0.00164,  -0.00170,476620736.00000,   0.00043,275107904.00000,  -0.00026,  -0.00035,  -0.00041, -96.00000,   2.00000
-418678801.26564,-463102643.30493,-99820076.48093,  -0.00127,  -0.00165,  -0.00171,476597664.00000,   0.00043,275113280.00000,  -0.00026,  -0.00035,  -0.00041, 128.00000,   2.00000
-418615339.18041,-463054445.40975,-99908977.24434,  -0.00127,  -0.00165,  -0.00171,476603264.00000,   0.00044,275118624.00000,  -0.00027,  -0.00036,  -0.00042,  32.00000,   2.00000
-418549851.24706,-463006451.66158,-99998701.52750,  -0.00127,  -0.00165,  -0.00172,476587584.00000,   0.00044,275123904.00000,  -0.00027,  -0.00036,  -0.00042,  96.00000,   2.00000
-418486911.20232,-462954012.74064,-100090518.91944,  -0.00127,  -0.00166,  -0.00173,476583008.00000,   0.00045,275129152.00000,  -0.00027,  -0.00037,  -0.00042,   0.00000,   2.00000
-418421959.34292,-462901814.13255,-100183173.74273,  -0.00128,  -0.00166,  -0.00173,476567168.00000,   0.00045,275134336.00000,  -0.00028,  -0.00037,  -0.00043, -32.00000,   2.00000
-418350615.70733,-462852145.34628,-100277654.87841,  -0.00128,  -0.00166,  -0.00174,476563584.00000,   0.00046,275139456.00000,  -0.00028,  -0.00037,  -0.00043, 128.00000,   2.00000
-418279429.58889,-462797890.47389,-100375357.01795,  -0.00128,  -0.00167,  -0.00174,476537920.00000,   0.00046,275144480.00000,  -0.00028,  -0.00038,  -0.00044,  32.00000,   2.00000
-418208532.49743,-462743883.10993,-100472739.90263,  -0.00128,  -0.00167,  -0.00175,476543008.00000,   0.00047,275149536.00000,  -0.00028,  -0.00038,  -0.00044, -96.00000,   2.00000
-418140129.29155,-462685374.57882,-100572201.70799,  -0.00129,  -0.00168,  -0.00175,476538336.00000,   0.00047,275154528.00000,  -0.00029,  -0.00039,  -0.00045,   0.00000,   2.00000
-418063001.10960,-462629350.57424,-100674654.25504,  -0.00129,  -0.00168,  -0.00176,476513568.00000,   0.00047,275159392.00000,  -0.00029,  -0.00039,  -0.00045,  96.00000,   2.00000
-417986094.99174,-462573485.11487,-100776757.96692,  -0.00129,  -0.00168,  -0.00177,476518528.00000,   0.00048,275164288.00000,  -0.00029,  -0.00039,  -0.00046, 128.00000,   2.00000
-417916108.85826,-462510865.65889,-100879993.07474,  -0.00129,  -0.00169,  -0.00177,476501280.00000,   0.00048,275169088.00000,  -0.00029,  -0.00040,  -0.00046,  96.00000,   2.00000
-417835101.78414,-462448154.90796,-100989579.65653,  -0.00130,  -0.00169,  -0.00178,476478944.00000,   0.00049,275173824.00000,  -0.00030,  -0.00040,  -0.00046,   0.00000,   2.00000
-417756594.81270,-462388184.33881,-101095470.70118,  -0.00130,  -0.00169,  -0.00178,476481024.00000,   0.00049,275178528.00000,  -0.00030,  -0.00040,  -0.00047,  32.00000,   2.00000
-417673814.20995,-462325889.64444,-101205585.28162,  -0.00130,  -0.00170,  -0.00179,476467360.00000,   0.00050,275183168.00000,  -0.00030,  -0.00041,  -0.00047,  64.00000,   2.00000
-417595643.70864,-462261475.98869,-101314400.80129,  -0.00130,  -0.00170,  -0.00179,476459680.00000,   0.00050,275187744.00000,  -0.00030,  -0.00041,  -0.00048,   0.00000,   2.00000
-417513239.05496,-462194801.47051,-101427464.94335,  -0.00131,  -0.00170,  -0.00180,476445824.00000,   0.00050,275192288.00000,  -0.00031,  -0.00041,  -0.00048, -96.00000,   2.00000
-417428822.05415,-462128369.43102,-101541424.65484,  -0.00131,  -0.00171,  -0.00181,476429376.00000,   0.00051,275196736.00000,  -0.00031,  -0.00042,  -0.00049,  32.00000,   2.00000
-417340065.60686,-462059547.40079,-101659607.33135,  -0.00131,  -0.00171,  -0.00181,476415328.00000,   0.00051,275201120.00000,  -0.00031,  -0.00042,  -0.00049, -32.00000,   2.00000
-417253705.98247,-461993347.58675,-101774066.33671,  -0.00131,  -0.00171,  -0.00182,476417344.00000,   0.00052,275205504.00000,  -0.00031,  -0.00042,  -0.00049,   0.00000,   2.00000
-417165366.90608,-461920185.25127,-101895247.90383,  -0.00131,  -0.00172,  -0.00182,476393408.00000,   0.00052,275209760.00000,  -0.00032,  -0.00043,  -0.00050,  96.00000,   2.00000
-417070393.18795,-461849288.55355,-102018198.55893,  -0.00132,  -0.00172,  -0.00183,476389120.00000,   0.00052,275214016.00000,  -0.00032,  -0.00043,  -0.00050,  96.00000,   2.00000
-416975574.71945,-461773832.90382,-102144504.18193,  -0.00132,  -0.00172,  -0.00183,476362624.00000,   0.00053,275218144.00000,  -0.00032,  -0.00043,  -0.00050,  32.00000,   2.00000
-416883101.33314,-461700945.55068,-102267071.38089,  -0.00132,  -0.00172,  -0.00184,476364288.00000,   0.00053,275222272.00000,  -0.00032,  -0.00044,  -0.00051, -64.00000,   2.00000
-416786372.80106,-461625770.02696,-102393929.10936,  -0.00132,  -0.00173,  -0.00184,476349952.00000,   0.00054,275226336.00000,  -0.00033,  -0.00044,  -0.00051, -32.00000,   2.00000
-416687495.34163,-461550681.58073,-102521699.60502,  -0.00132,  -0.00173,  -0.00185,476333088.00000,   0.00054,275230336.00000,  -0.00033,  -0.00044,  -0.00052, -64.00000,   2.00000
-416586549.90436,-461468535.30549,-102656225.41683,  -0.00133,  -0.00173,  -0.00185,476308864.00000,   0.00054,275234208.00000,  -0.00033,  -0.00045,  -0.00052,  64.00000,   2.00000
-416487841.25604,-461388839.73756,-102786984.29832,  -0.00133,  -0.00174,  -0.00186,476310368.00000,   0.00055,275238080.00000,  -0.00033,  -0.00045,  -0.00052,  32.00000,   2.00000
-416384831.47988,-461306813.01304,-102922050.23079,  -0.00133,  -0.00174,  -0.00186,476295808.00000,   0.00055,275241920.00000,  -0.00033,  -0.00045,  -0.00053,   0.00000,   2.00000
-416279649.20214,-461224857.77073,-103058057.33608,  -0.00133,  -0.00174,  -0.00187,476278656.00000,   0.00055,275245632.00000,  -0.00034,  -0.00045,  -0.00053, -64.00000,   2.00000
-416170056.89405,-461147674.08752,-103192533.68503,  -0.00133,  -0.00174,  -0.00187,476271360.00000,   0.00056,275249344.00000,  -0.00034,  -0.00046,  -0.00053,   0.00000,   2.00000
-416065011.31971,-461061056.81174,-103331594.78426,  -0.00133,  -0.00175,  -0.00188,476255520.00000,   0.00056,275252960.00000,  -0.00034,  -0.00046,  -0.00054, -32.00000,   2.00000
-415948879.95641,-460974296.65602,-103477187.25985,  -0.00134,  -0.00175,  -0.00188,476232224.00000,   0.00056,275256512.00000,  -0.00034,  -0.00046,  -0.00054,   0.00000,   2.00000
-415837245.34354,-460885288.72057,-103621526.79087,  -0.00134,  -0.00175,  -0.00189,476223552.00000,   0.00057,275260000.00000,  -0.00034,  -0.00046,  -0.00054,  32.00000,   2.00000
-415723295.57464,-460796200.26423,-103766818.99417,  -0.00134,  -0.00175,  -0.00189,476206080.00000,   0.00057,275263392.00000,  -0.00035,  -0.00047,  -0.00055, -32.00000,   2.00000
-415605007.05387,-460704740.98328,-103916472.50715,  -0.00134,  -0.00176,  -0.00190,476191200.00000,   0.00057,275266752.00000,  -0.00035,  -0.00047,  -0.00055, -32.00000,   2.00000
-415489064.29557,-460615842.47948,-104062416.74724,  -0.00134,  -0.00176,  -0.00190,476192096.00000,   0.00058,275270080.00000,  -0.00035,  -0.00047,  -0.00055, 128.00000,   2.00000
-415363903.88954,-460521683.10625,-104217369.82126,  -0.00134,  -0.00176,  -0.00191,476158816.00000,   0.00058,275273312.00000,  -0.00035,  -0.00047,  -0.00055,   0.00000,   2.00000
-415243349.83992,-460425406.10971,-104371145.29314,  -0.00134,  -0.00176,  -0.00191,476149600.00000,   0.00058,275276448.00000,  -0.00035,  -0.00048,  -0.00056,   0.00000,   2.00000
-415120465.40760,-460329042.29662,-104525931.60573,  -0.00135,  -0.00176,  -0.00192,476131936.00000,   0.00058,275279552.00000,  -0.00035,  -0.00048,  -0.00056, -32.00000,   2.00000
-414990926.19640,-460234925.46807,-104682584.74770,  -0.00135,  -0.00177,  -0.00192,476126592.00000,   0.00059,275282592.00000,  -0.00036,  -0.00048,  -0.00056,  64.00000,   2.00000
-414861243.27200,-460135952.37543,-104842790.33324,  -0.00135,  -0.00177,  -0.00193,476098976.00000,   0.00059,275285568.00000,  -0.00036,  -0.00048,  -0.00057,  32.00000,   2.00000
-414726848.01055,-460034194.12376,-105007324.22033,  -0.00135,  -0.00177,  -0.00193,476083744.00000,   0.00059,275288448.00000,  -0.00036,  -0.00049,  -0.00057,   0.00000,   2.00000
-414590335.22552,-459932587.28257,-105172983.76306,  -0.00135,  -0.00177,  -0.00194,476065632.00000,   0.00060,275291264.00000,  -0.00036,  -0.00049,  -0.00057,  96.00000,   2.00000
-414458121.70367,-459828521.44652,-105337433.58378,  -0.00135,  -0.00177,  -0.00194,476056352.00000,   0.00060,275294016.00000,  -0.00036,  -0.00049,  -0.00057,  96.00000,   2.00000
-414321349.63757,-459721859.52744,-105506303.31104,  -0.00135,  -0.00178,  -0.00195,476040864.00000,   0.00060,275296704.00000,  -0.00036,  -0.00049,  -0.00058,  64.00000,   2.00000
-414175341.77900,-459617185.08709,-105678493.96187,  -0.00135,  -0.00178,  -0.00195,476014144.00000,   0.00060,275299296.00000,  -0.00037,  -0.00049,  -0.00058, 128.00000,   2.00000
-414031476.22339,-459507605.16420,-105852848.09697,  -0.00135,  -0.00178,  -0.00196,476007200.00000,   0.00060,275301856.00000,  -0.00037,  -0.00050,  -0.00058,   0.00000,   2.00000
-413885248.03865,-459397916.61121,-106028331.09005,  -0.00136,  -0.00178,  -0.00196,475988896.00000,   0.00061,275304352.00000,  -0.00037,  -0.00050,  -0.00058,  32.00000,   2.00000
-413736509.82586,-459287953.66031,-106204916.34645,  -0.00136,  -0.00178,  -0.00197,475970592.00000,   0.00061,275306752.00000,  -0.00037,  -0.00050,  -0.00059,   0.00000,   2.00000
-413583112.52723,-459175282.62229,-106385962.72290,  -0.00136,  -0.00178,  -0.00197,475954720.00000,   0.00061,275309120.00000,  -0.00037,  -0.00050,  -0.00059,   0.00000,   2.00000
-413434123.14515,-459060285.20309,-106565911.98962,  -0.00136,  -0.00178,  -0.00198,475944960.00000,   0.00061,275311424.00000,  -0.00037,  -0.00050,  -0.00059,  96.00000,   2.00000
-413275662.52945,-458947038.91439,-106749239.92706,  -0.00136,  -0.00179,  -0.00198,475917888.00000,   0.00062,275313600.00000,  -0.00037,  -0.00050,  -0.00059,  32.00000,   2.00000
-413112428.25075,-458830959.12937,-106937042.47525,  -0.00136,  -0.00179,  -0.00198,475901920.00000,   0.00062,275315744.00000,  -0.00037,  -0.00051,  -0.00059, -32.00000,   2.00000
-412955658.12700,-458707668.12187,-107126333.78302,  -0.00136,  -0.00179,  -0.00199,475882016.00000,   0.00062,275317792.00000,  -0.00038,  -0.00051,  -0.00060, -32.00000,   2.00000
-412787490.93684,-458591184.45461,-107316566.78597,  -0.00136,  -0.00179,  -0.00199,475864448.00000,   0.00062,275319776.00000,  -0.00038,  -0.00051,  -0.00060,  64.00000,   2.00000
-412623360.02121,-458464740.78533,-107511576.45793,  -0.00136,  -0.00179,  -0.00200,475847360.00000,   0.00062,275321664.00000,  -0.00038,  -0.00051,  -0.00060,  64.00000,   2.00000
-412447564.92094,-458344808.18714,-107707479.29996,  -0.00136,  -0.00179,  -0.00200,475829504.00000,   0.00062,275323520.00000,  -0.00038,  -0.00051,  -0.00060,   0.00000,   2.00000
-412278250.86804,-458217695.70711,-107904959.74899,  -0.00136,  -0.00179,  -0.00201,475809376.00000,   0.00063,275325280.00000,  -0.00038,  -0.00051,  -0.00060,  32.00000,   2.00000
-412103989.23744,-458087590.28655,-108106973.03614,  -0.00136,  -0.00179,  -0.00201,475793120.00000,   0.00063,275326976.00000,  -0.00038,  -0.00051,  -0.00060,  96.00000,   2.00000
-411920014.53568,-457959011.68504,-108312487.20726,  -0.00136,  -0.00180,  -0.00201,475765504.00000,   0.00063,275328576.00000,  -0.00038,  -0.00052,  -0.00061,   0.00000,   2.00000
-411738368.53890,-457832981.98417,-108514461.82423,  -0.00136,  -0.00180,  -0.00202,475764640.00000,   0.00063,275330144.00000,  -0.00038,  -0.00052,  -0.00061,   0.00000,   2.00000
-411553749.70517,-457698995.79327,-108723591.78522,  -0.00136,  -0.00180,  -0.00202,475738496.00000,   0.00063,275331648.00000,  -0.00038,  -0.00052,  -0.00061,   0.00000,   2.00000
-411368356.85377,-457559565.93433,-108936598.57076,  -0.00136,  -0.00180,  -0.00203,475709472.00000,   0.00063,275332992.00000,  -0.00038,  -0.00052,  -0.00061, -32.00000,   2.00000
-411171331.34095,-457426727.29649,-109150661.93588,  -0.00136,  -0.00180,  -0.00203,475691264.00000,   0.00063,275334304.00000,  -0.00038,  -0.00052,  -0.00061,  64.00000,   2.00000
-410978359.87431,-457291200.84009,-109363736.95460,  -0.00136,  -0.00180,  -0.00203,475680512.00000,   0.00064,275335552.00000,  -0.00038,  -0.00052,  -0.00061, -32.00000,   2.00000
-410782314.01286,-457147640.35548,-109584051.35986,  -0.00136,  -0.00180,  -0.00204,475653952.00000,   0.00064,275336736.00000,  -0.00039,  -0.00052,  -0.00061, -32.00000,   2.00000
-410581438.25268,-457008470.86706,-109803136.99691,  -0.00136,  -0.00180,  -0.00204,475644128.00000,   0.00064,275337824.00000,  -0.00039,  -0.00052,  -0.00061, -32.00000,   2.00000
-410370465.05728,-456863257.67893,-110031808.64322,  -0.00136,  -0.00180,  -0.00205,475608992.00000,   0.00064,275338816.00000,  -0.00039,  -0.00052,  -0.00062, -64.00000,   2.00000
-410165061.96692,-456717108.97899,-110256049.13353,  -0.00136,  -0.00180,  -0.00205,475595072.00000,   0.00064,275339776.00000,  -0.00039,  -0.00052,  -0.00062,-992.00000,   1.00000
-409955270.58081,-456568672.82852,-110485252.16490,  -0.00136,  -0.00180,  -0.00205,475577184.00000,   0.00064,275340640.00000,  -0.00039,  -0.00052,  -0.00062,-864.00000,   1.00000
-409740174.26586,-456416913.38800,-110719139.73548,  -0.00136,  -0.00180,  -0.00206,475560288.00000,   0.00064,275341440.00000,  -0.00039,  -0.00052,  -0.00062,-832.00000,   1.00000
-409517363.20850,-456269076.66996,-110953535.40985,  -0.00136,  -0.00180,  -0.00206,475529152.00000,   0.00064,275342112.00000,  -0.00039,  -0.00052,  -0.00062,-768.00000,   1.00000
-409298229.64207,-456110984.41851,-111192986.17824,  -0.00136,  -0.00180,  -0.00207,475510848.00000,   0.00064,275342720.00000,  -0.00039,  -0.00053,  -0.00062,-576.00000,   1.00000
-409066920.22793,-455958956.44158,-111433571.75334,  -0.00136,  -0.00180,  -0.00207,475492192.00000,   0.00064,275343264.00000,  -0.00039,  -0.00053,  -0.00062,-672.00000,   1.00000
-408841762.83021,-455799513.14385,-111676069.72868,  -0.00136,  -0.00180,  -0.00207,475470688.00000,   0.00064,275343744.00000,  -0.00039,  -0.00053,  -0.00062,-384.00000,   1.00000
-408603943.46346,-455638415.26592,-111925619.02347,  -0.00136,  -0.00180,  -0.00208,475445088.00000,   0.00064,275344128.00000,  -0.00039,  -0.00053,  -0.00062,-416.00000,   1.00000
-408370057.17130,-455474584.37644,-112174396.64815,  -0.00136,  -0.00180,  -0.00208,475433408.00000,   0.00064,275344448.00000,  -0.00039,  -0.00053,  -0.00062,-288.00000,   1.00000
-408125936.43867,-455311897.06812,-112427087.73331,  -0.00136,  -0.00180,  -0.00208,475404608.00000,   0.00064,275344672.00000,  -0.00039,  -0.00053,  -0.00062,-160.00000,   1.00000
-407878425.86036,-455148161.44112,-112681315.89204,  -0.00136,  -0.00180,  -0.00209,475384480.00000,   0.00064,275344800.00000,  -0.00039,  -0.00053,  -0.00062,-224.00000,   1.00000
-407625376.95398,-454980938.36888,-112940407.09043,  -0.00136,  -0.00180,  -0.00209,475366848.00000,   0.00064,275344896.00000,  -0.00039,  -0.00053,  -0.00062, -32.00000,   1.00000
-407364239.43896,-454800150.85848,-113197527.10522,  -0.00136,  -0.00180,  -0.00209,475333792.00000,   0.00064,275344896.00000,  -0.00039,  -0.00053,  -0.00062,-11104.00000,   0.00000
-407083014.42279,-454599275.84693,-113454647.12000,  -0.00136,  -0.00180,  -0.00210,475305120.00000,   0.00064,275344896.00000,  -0.00039,  -0.00053,  -0.00062,-39776.00000,   0.00000
-406781701.90547,-454378313.33422,-113711767.13479,  -0.00135,  -0.00180,  -0.00210,475258592.00000,   0.00064,275344896.00000,  -0.00039,  -0.00053,  -0.00062,-86304.00000,   0.00000
-406460301.88698,-454137263.32036,-113960852.14911,  -0.00135,  -0.00180,  -0.00210,475188800.00000,   0.00064,275344896.00000,  -0.00039,  -0.00053,  -0.00062,-156096.00000,   0.00000
-406118814.36735,-453876125.80535,-114209937.16343,  -0.00135,  -0.00180,  -0.00211,475101184.00000,   0.00064,275344896.00000,  -0.00039,  -0.00053,  -0.00062,-243712.00000,   0.00000
-405743178.09575,-453588874.53883,-114455004.67752,  -0.00135,  -0.00180,  -0.00211,474984640.00000,   0.00064,275344896.00000,  -0.00039,  -0.00053,  -0.00062,-360256.00000,   0.00000
-405355489.32346,-453273500.77070,-114696054.69138,  -0.00135,  -0.00180,  -0.00211,474846272.00000,   0.00064,275344896.00000,  -0.00039,  -0.00053,  -0.00062,-498624.00000,   0.00000
-404933651.79920,-452932013.25106,-114937104.70524,  -0.00135,  -0.00180,  -0.00212,474681728.00000,   0.00064,275344896.00000,  -0.00039,  -0.00053,  -0.00062,-663168.00000,   0.00000
-404491726.77379,-452570438.23027,-115170119.71864,  -0.00135,  -0.00180,  -0.00212,474493888.00000,   0.00064,275344896.00000,  -0.00039,  -0.00053,  -0.00062,-851008.00000,   0.00000
-404043775.49803,-452194801.95867,-115403134.73204,  -0.00135,  -0.00180,  -0.00212,474296800.00000,   0.00064,275344896.00000,  -0.00039,  -0.00053,  -0.00062,-1048096.00000,   0.00000
-403561675.47031,-451793051.93557,-115632132.24521,  -0.00135,  -0.00180,  -0.00212,474070720.00000,   0.00064,275344896.00000,  -0.00039,  -0.00053,  -0.00062,-1274176.00000,   0.00000
-403039400.44028,-451351126.91016,-115857112.25814,  -0.00134,  -0.00179,  -0.00213,473806080.00000,   0.00064,275344896.00000,  -0.00039,  -0.00053,  -0.00062,-1538816.00000,   0.00000
-402517125.41025,-450909201.88475,-116082092.27108,  -0.00134,  -0.00179,  -0.00213,473542080.00000,   0.00064,275344896.00000,  -0.00039,  -0.00053,  -0.00062,-1802816.00000,   0.00000
-401968736.62872,-450433128.10738,-116303054.78379,  -0.00134,  -0.00179,  -0.00213,473247808.00000,   0.00064,275344896.00000,  -0.00039,  -0.00053,  -0.00062,-2097088.00000,   0.00000
-401386199.09522,-449930940.57850,-116515982.29603,  -0.00134,  -0.00179,  -0.00214,472921760.00000,   0.00064,275344896.00000,  -0.00039,  -0.00053,  -0.00062,-2423136.00000,   0.00000
-400777547.81023,-449394604.29766,-116728909.80827,  -0.00134,  -0.00179,  -0.00214,472568640.00000,   0.00064,275344896.00000,  -0.00039,  -0.00053,  -0.00062,-2776256.00000,   0.00000
-400154835.27442,-448852241.76647,-116941837.32052,  -0.00134,  -0.00179,  -0.00214,472207776.00000,   0.00064,275344896.00000,  -0.00039,  -0.00053,  -0.00062,-3137120.00000,   0.00000
-399506008.98711,-448275730.48333,-117146729.83230,  -0.00133,  -0.00179,  -0.00214,471813824.00000,   0.00064,275344896.00000,  -0.00039,  -0.00053,  -0.00062,-3531072.00000,   0.00000
-398843121.44900,-447693192.94983,-117351622.34408,  -0.00133,  -0.00179,  -0.00215,471412288.00000,   0.00064,275344896.00000,  -0.00039,  -0.00053,  -0.00062,-3932608.00000,   0.00000
-398148093.90903,-447062445.41356,-117552497.35563,  -0.00133,  -0.00178,  -0.00215,470971200.00000,   0.00064,275344896.00000,  -0.00039,  -0.00053,  -0.00062,-4373696.00000,   0.00000
-397424943.86745,-446419645.37660,-117749354.86695,  -0.00133,  -0.00178,  -0.00215,470511328.00000,   0.00064,275344896.00000,  -0.00039,  -0.00053,  -0.00062,-4833568.00000,   0.00000
-396681706.32472,-445756757.83848,-117942194.87804,  -0.00133,  -0.00178,  -0.00216,470031584.00000,   0.00064,275344896.00000,  -0.00039,  -0.00053,  -0.00062,-5313312.00000,   0.00000
-395912355.03048,-445059721.54841,-118131017.38889,  -0.00132,  -0.00178,  -0.00216,469522496.00000,   0.00064,275344896.00000,  -0.00039,  -0.00053,  -0.00062,-5822400.00000,   0.00000
-395122916.23508,-444342597.75717,-118319839.89975,  -0.00132,  -0.00178,  -0.00216,468997280.00000,   0.00064,275344896.00000,  -0.00039,  -0.00053,  -0.00062,-6347616.00000,   0.00000
-394313389.93854,-443605386.46478,-118504644.91038,  -0.00132,  -0.00178,  -0.00216,468453504.00000,   0.00064,275344896.00000,  -0.00039,  -0.00053,  -0.00062,-6891392.00000,   0.00000
-393469714.89003,-442842061.42089,-118685432.42077,  -0.00132,  -0.00177,  -0.00216,467883552.00000,   0.00064,275344896.00000,  -0.00039,  -0.00053,  -0.00062,-7461344.00000,   0.00000
-392599926.09001,-442044587.62503,-118862202.43094,  -0.00131,  -0.00177,  -0.00217,467286752.00000,   0.00064,275344896.00000,  -0.00039,  -0.00053,  -0.00062,-8058144.00000,   0.00000
-391730137.29000,-441247113.82918,-119034954.94087,  -0.00131,  -0.00177,  -0.00217,466690368.00000,   0.00064,275344896.00000,  -0.00039,  -0.00053,  -0.00062,-8654528.00000,   0.00000
-390806112.23687,-440403438.78067,-119203689.95057,  -0.00131,  -0.00177,  -0.00217,466050048.00000,   0.00064,275344896.00000,  -0.00039,  -0.00053,  -0.00062,-9294848.00000,   0.00000
-389876060.93339,-439545702.48135,-119372424.96028,  -0.00131,  -0.00177,  -0.00217,465401184.00000,   0.00064,275344896.00000,  -0.00039,  -0.00053,  -0.00062,-9943712.00000,   0.00000
-388905834.62760,-438647791.17972,-119537142.46975,  -0.00130,  -0.00176,  -0.00218,464712672.00000,   0.00064,275344896.00000,  -0.00039,  -0.00053,  -0.00062,-10632224.00000,   0.00000
-387935608.32181,-437749879.87809,-119697842.47899,  -0.00130,  -0.00176,  -0.00218,464017856.00000,   0.00064,275344896.00000,  -0.00039,  -0.00053,  -0.00062,-11327040.00000,   0.00000
-386925207.01372,-436811793.57415,-119854524.98800,  -0.00130,  -0.00176,  -0.00218,463280768.00000,   0.00064,275344896.00000,  -0.00039,  -0.00053,  -0.00062,-12064128.00000,   0.00000
-385880656.95365,-435847593.51871,-120007189.99677,  -0.00130,  -0.00176,  -0.00218,462512416.00000,   0.00064,275344896.00000,  -0.00039,  -0.00053,  -0.00062,-12832480.00000,   0.00000
-384830080.64325,-434869332.21246,-120155837.50532,  -0.00129,  -0.00176,  -0.00218,461731456.00000,   0.00064,275344896.00000,  -0.00039,  -0.00053,  -0.00062,-13613440.00000,   0.00000
-383739329.33053,-433850895.90390,-120304485.01387,  -0.00129,  -0.00175,  -0.00219,460917024.00000,   0.00064,275344896.00000,  -0.00039,  -0.00053,  -0.00062,-14427872.00000,   0.00000
-382634516.76700,-432826433.34499,-120445097.52195,  -0.00129,  -0.00175,  -0.00219,460091648.00000,   0.00064,275344896.00000,  -0.00039,  -0.00053,  -0.00062,-15253248.00000,   0.00000
-381503590.45197,-431767822.03412,-120585710.03004,  -0.00128,  -0.00175,  -0.00219,459243040.00000,   0.00064,275344896.00000,  -0.00039,  -0.00053,  -0.00062,-16101856.00000,   0.00000
-380338515.38498,-430683096.97175,-120722305.03789,  -0.00128,  -0.00174,  -0.00219,458368960.00000,   0.00064,275344896.00000,  -0.00039,  -0.00053,  -0.00062,-16975936.00000,   0.00000
-379161387.81730,-429570249.40776,-120854882.54552,  -0.00128,  -0.00174,  -0.00219,457475520.00000,   0.00064,275344896.00000,  -0.00039,  -0.00053,  -0.00062,-17869376.00000,   0.00000
-377956137.74800,-428445349.34308,-120987460.05314,  -0.00127,  -0.00174,  -0.00219,456567776.00000,   0.00064,275344896.00000,  -0.00039,  -0.00053,  -0.00062,-18777120.00000,   0.00000
-376710712.67638,-427280274.27609,-121112002.56030,  -0.00127,  -0.00174,  -0.00220,455619616.00000,   0.00064,275344896.00000,  -0.00039,  -0.00053,  -0.00062,-19725280.00000,   0.00000
-375459261.35442,-426101137.95829,-121236545.06746,  -0.00127,  -0.00173,  -0.00220,454662176.00000,   0.00064,275344896.00000,  -0.00039,  -0.00053,  -0.00062,-20682720.00000,   0.00000
-374173661.28050,-424895887.88898,-121353052.57416,  -0.00126,  -0.00173,  -0.00220,453672512.00000,   0.00064,275344896.00000,  -0.00039,  -0.00053,  -0.00062,-21672384.00000,   0.00000
-372861947.45508,-423656489.06772,-121469560.08086,  -0.00126,  -0.00173,  -0.00220,452655168.00000,   0.00064,275344896.00000,  -0.00039,  -0.00053,  -0.00062,-22689728.00000,   0.00000
-371536172.37885,-422411063.99611,-121582050.08733,  -0.00126,  -0.00172,  -0.00220,451625792.00000,   0.00064,275344896.00000,  -0.00039,  -0.00053,  -0.00062,-23719104.00000,   0.00000
-370170222.30030,-421125463.92219,-121690522.59357,  -0.00125,  -0.00172,  -0.00220,450556960.00000,   0.00064,275344896.00000,  -0.00039,  -0.00053,  -0.00062,-24787936.00000,   0.00000
-368784184.72061,-419819776.34711,-121794977.59957,  -0.00125,  -0.00172,  -0.00221,449466560.00000,   0.00064,275344896.00000,  -0.00039,  -0.00053,  -0.00062,-25878336.00000,   0.00000
-367378059.63976,-418494001.27088,-121899432.60558,  -0.00125,  -0.00171,  -0.00221,448357856.00000,   0.00064,275344896.00000,  -0.00039,  -0.00053,  -0.00062,-26987040.00000,   0.00000
-365945820.80740,-417134077.44268,-121995852.61112,  -0.00124,  -0.00171,  -0.00221,447215040.00000,   0.00064,275344896.00000,  -0.00039,  -0.00053,  -0.00062,-28129856.00000,   0.00000
-364479433.22308,-415748039.86298,-122092272.61667,  -0.00124,  -0.00171,  -0.00221,446046464.00000,   0.00064,275344896.00000,  -0.00039,  -0.00053,  -0.00062,-29298432.00000,   0.00000
-362992958.13761,-414341914.78213,-122184675.12198,  -0.00123,  -0.00170,  -0.00221,444857472.00000,   0.00064,275344896.00000,  -0.00039,  -0.00053,  -0.00062,-30487424.00000,   0.00000
-361486395.55098,-412915702.20012,-122273060.12706,  -0.00123,  -0.00170,  -0.00221,443648704.00000,   0.00064,275344896.00000,  -0.00039,  -0.00053,  -0.00062,-31696192.00000,   0.00000
-359945684.21239,-411463375.86662,-122357427.63191,  -0.00123,  -0.00170,  -0.00221,442412416.00000,   0.00064,275344896.00000,  -0.00039,  -0.00053,  -0.00062,-32932480.00000,   0.00000
-358378859.12230,-409976900.78114,-122437777.63653,  -0.00122,  -0.00169,  -0.00221,441148224.00000,   0.00064,275344896.00000,  -0.00039,  -0.00053,  -0.00062,-34196672.00000,   0.00000
-356791946.53105,-408470338.19452,-122514110.14092,  -0.00122,  -0.00169,  -0.00221,439866080.00000,   0.00064,275344896.00000,  -0.00039,  -0.00053,  -0.00062,-35478816.00000,   0.00000
-355184946.43865,-406943688.10673,-122590442.64531,  -0.00121,  -0.00169,  -0.00222,438569920.00000,   0.00064,275344896.00000,  -0.00039,  -0.00053,  -0.00062,-36774976.00000,   0.00000
-353543797.59429,-405390924.26745,-122658740.14924,  -0.00121,  -0.00168,  -0.00222,437245728.00000,   0.00064,275344896.00000,  -0.00039,  -0.00053,  -0.00062,-38099168.00000,   0.00000
-351882561.24876,-403818072.92701,-122727037.65317,  -0.00120,  -0.00168,  -0.00222,435908672.00000,   0.00064,275344896.00000,  -0.00039,  -0.00053,  -0.00062,-39436224.00000,   0.00000
-350181149.90093,-402205046.58426,-122791317.65686,  -0.00120,  -0.00167,  -0.00222,434538336.00000,   0.00064,275344896.00000,  -0.00039,  -0.00053,  -0.00062,-40806560.00000,   0.00000
-348473712.30276,-400577958.99070,-122847562.66010,  -0.00119,  -0.00167,  -0.00222,433156768.00000,   0.00064,275344896.00000,  -0.00039,  -0.00053,  -0.00062,-42188128.00000,   0.00000
-346732125.95261,-398924757.64564,-122907825.16356,  -0.00119,  -0.00167,  -0.00222,431758432.00000,   0.00064,275344896.00000,  -0.00039,  -0.00053,  -0.00062,-43586464.00000,   0.00000
-344956390.85051,-397245442.54908,-122960052.66656,  -0.00118,  -0.00166,  -0.00222,430333056.00000,   0.00064,275344896.00000,  -0.00039,  -0.00053,  -0.00062,-45011840.00000,   0.00000
-343154541.99690,-395531978.70056,-123008262.66934,  -0.00118,  -0.00166,  -0.00222,428882080.00000,   0.00064,275344896.00000,  -0.00039,  -0.00053,  -0.00062,-46462816.00000,   0.00000
-341346666.89295,-393804453.60123,-123052455.17188,  -0.00118,  -0.00165,  -0.00222,427422144.00000,   0.00064,275344896.00000,  -0.00039,  -0.00053,  -0.00062,-47922752.00000,   0.00000
-339490581.78623,-392044788.50005,-123096647.67442,  -0.00117,  -0.00165,  -0.00222,425932288.00000,   0.00064,275344896.00000,  -0.00039,  -0.00053,  -0.00062,-49412608.00000,   0.00000
-337628470.42915,-390271062.14806,-123136822.67673,  -0.00116,  -0.00164,  -0.00222,424431680.00000,   0.00064,275344896.00000,  -0.00039,  -0.00053,  -0.00062,-50913216.00000,   0.00000
-335732210.32012,-388471222.04457,-123168962.67858,  -0.00116,  -0.00164,  -0.00222,422899648.00000,   0.00064,275344896.00000,  -0.00039,  -0.00053,  -0.00062,-52445248.00000,   0.00000
-333795775.20877,-386631206.93877,-123201102.68042,  -0.00115,  -0.00164,  -0.00222,421331936.00000,   0.00064,275344896.00000,  -0.00039,  -0.00053,  -0.00062,-54012960.00000,   0.00000
-331853313.84708,-384777130.58216,-123229225.18204,  -0.00115,  -0.00163,  -0.00222,419747744.00000,   0.00064,275344896.00000,  -0.00039,  -0.00053,  -0.00062,-55597152.00000,   0.00000
-329876703.73343,-382896940.47405,-123253330.18343,  -0.00114,  -0.00163,  -0.00222,418128448.00000,   0.00064,275344896.00000,  -0.00039,  -0.00053,  -0.00062,-57216448.00000,   0.00000
-327865944.86781,-380990636.61443,-123277435.18481,  -0.00114,  -0.00162,  -0.00222,416474464.00000,   0.00064,275344896.00000,  -0.00039,  -0.00053,  -0.00062,-58870432.00000,   0.00000
-325849159.75184,-379070271.50401,-123293505.18574,  -0.00113,  -0.00162,  -0.00222,414791680.00000,   0.00064,275344896.00000,  -0.00039,  -0.00053,  -0.00062,-60553216.00000,   0.00000
-323792199.63357,-377109731.39128,-123309575.18666,  -0.00113,  -0.00161,  -0.00222,413059328.00000,   0.00064,275344896.00000,  -0.00039,  -0.00053,  -0.00062,-62285568.00000,   0.00000
-321701090.76333,-375123077.52705,-123317610.18712,  -0.00112,  -0.00161,  -0.00222,411277952.00000,   0.00064,275344896.00000,  -0.00039,  -0.00053,  -0.00062,-64066944.00000,   0.00000
-319603955.64274,-373122362.41201,-123325645.18759,  -0.00112,  -0.00160,  -0.00222,409470720.00000,   0.00064,275344896.00000,  -0.00039,  -0.00053,  -0.00062,-65874176.00000,   0.00000
-317472671.77020,-371095533.54546,-123329662.68782,  -0.00111,  -0.00160,  -0.00223,407617856.00000,   0.00064,275344896.00000,  -0.00039,  -0.00053,  -0.00062,-67727040.00000,   0.00000
-315321300.39649,-369048617.17777,-123329662.68782,  -0.00110,  -0.00159,  -0.00223,405728768.00000,   0.00064,275344896.00000,  -0.00039,  -0.00053,  -0.00062,-69616128.00000,   0.00000
-313129754.02048,-366961525.80776,-123325645.18759,  -0.00110,  -0.00159,  -0.00222,403788160.00000,   0.00064,275344896.00000,  -0.00039,  -0.00053,  -0.00062,-71556736.00000,   0.00000
-310918120.14331,-364854346.93660,-123317610.18712,  -0.00109,  -0.00158,  -0.00222,401821504.00000,   0.00064,275344896.00000,  -0.00039,  -0.00053,  -0.00062,-73523392.00000,   0.00000
-308678363.76452,-362735115.56474,-123305557.68643,  -0.00109,  -0.00158,  -0.00222,399845728.00000,   0.00064,275344896.00000,  -0.00039,  -0.00053,  -0.00062,-75499168.00000,   0.00000
-306420528.63470,-360573700.44046,-123293505.18574,  -0.00108,  -0.00157,  -0.00222,397880448.00000,   0.00064,275344896.00000,  -0.00039,  -0.00053,  -0.00062,-77464448.00000,   0.00000
-304134571.00325,-358400232.81548,-123277435.18481,  -0.00107,  -0.00156,  -0.00222,395940512.00000,   0.00064,275344896.00000,  -0.00039,  -0.00053,  -0.00062,-79404384.00000,   0.00000
-301814464.61985,-356200651.43901,-123253330.18343,  -0.00107,  -0.00156,  -0.00222,393928800.00000,   0.00064,275344896.00000,  -0.00039,  -0.00053,  -0.00062,-81416096.00000,   0.00000
-299482305.73575,-353972947.56092,-123229225.18204,  -0.00106,  -0.00155,  -0.00222,391804320.00000,   0.00064,275344896.00000,  -0.00039,  -0.00053,  -0.00062,-83540576.00000,   0.00000
-297101936.84888,-351713103.68097,-123201102.68042,  -0.00106,  -0.00155,  -0.00222,389663424.00000,   0.00064,275344896.00000,  -0.00039,  -0.00053,  -0.00062,-85681472.00000,   0.00000
-294715541.71166,-349439198.55023,-123168962.67858,  -0.00105,  -0.00154,  -0.00222,387581952.00000,   0.00064,275344896.00000,  -0.00039,  -0.00053,  -0.00062,-87762944.00000,   0.00000
-292294997.82248,-347139179.66797,-123132805.17650,  -0.00104,  -0.00154,  -0.00222,385525376.00000,   0.00064,275344896.00000,  -0.00039,  -0.00053,  -0.00062,-89819520.00000,   0.00000
-289854366.43214,-344819073.28457,-123096647.67442,  -0.00104,  -0.00153,  -0.00222,383492608.00000,   0.00064,275344896.00000,  -0.00039,  -0.00053,  -0.00062,-91852288.00000,   0.00000
-287373560.03950,-342458791.89885,-123052455.17188,  -0.00103,  -0.00152,  -0.00222,381452352.00000,   0.00064,275344896.00000,  -0.00039,  -0.00053,  -0.00062,-93892544.00000,   0.00000
-284886727.39650,-340084449.26233,-123008262.66934,  -0.00102,  -0.00152,  -0.00222,379432448.00000,   0.00064,275344896.00000,  -0.00039,  -0.00053,  -0.00062,-95912448.00000,   0.00000
-282357711.00109,-337692027.87476,-122960052.66656,  -0.00102,  -0.00151,  -0.00222,377411904.00000,   0.00064,275344896.00000,  -0.00039,  -0.00053,  -0.00062,-97932992.00000,   0.00000
-279816642.10497,-335271483.98558,-122907825.16356,  -0.00101,  -0.00151,  -0.00222,375393344.00000,   0.00064,275344896.00000,  -0.00039,  -0.00053,  -0.00062,-99951552.00000,   0.00000
-277241424.45690,-332824826.34490,-122851580.16033,  -0.00100,  -0.00150,  -0.00222,373364992.00000,   0.00064,275344896.00000,  -0.00039,  -0.00053,  -0.00062,-101979904.00000,   0.00000
-274640093.05732,-330344019.95225,-122791317.65686,  -0.00100,  -0.00149,  -0.00222,371320256.00000,   0.00064,275344896.00000,  -0.00039,  -0.00053,  -0.00062,-104024640.00000,   0.00000
-272010639.15613,-327851161.05891,-122727037.65317,  -0.00099,  -0.00149,  -0.00222,369263296.00000,   0.00064,275344896.00000,  -0.00039,  -0.00053,  -0.00062,-106081600.00000,   0.00000
-269355071.50343,-325324153.41361,-122658740.14924,  -0.00098,  -0.00148,  -0.00222,367179392.00000,   0.00064,275344896.00000,  -0.00039,  -0.00053,  -0.00062,-108165504.00000,   0.00000
-266679416.34958,-322777058.26715,-122590442.64531,  -0.00097,  -0.00148,  -0.00222,365076896.00000,   0.00064,275344896.00000,  -0.00039,  -0.00053,  -0.00062,-110268000.00000,   0.00000
-263975638.69412,-320217910.62000,-122518127.64115,  -0.00097,  -0.00147,  -0.00221,362950656.00000,   0.00064,275344896.00000,  -0.00039,  -0.00053,  -0.00062,-112394240.00000,   0.00000
-261245747.28715,-317624614.22089,-122437777.63653,  -0.00096,  -0.00146,  -0.00221,360785024.00000,   0.00064,275344896.00000,  -0.00039,  -0.00053,  -0.00062,-114559872.00000,   0.00000
-258489742.12868,-314997169.06981,-122357427.63191,  -0.00095,  -0.00146,  -0.00221,358588000.00000,   0.00064,275344896.00000,  -0.00039,  -0.00053,  -0.00062,-116756896.00000,   0.00000
-255705614.46859,-312357671.41804,-122277077.62729,  -0.00094,  -0.00145,  -0.00221,356371968.00000,   0.00064,275344896.00000,  -0.00039,  -0.00053,  -0.00062,-118972928.00000,   0.00000
-252901399.30735,-309698086.26511,-122188692.62221,  -0.00094,  -0.00144,  -0.00221,354130432.00000,   0.00064,275344896.00000,  -0.00039,  -0.00053,  -0.00062,-121214464.00000,   0.00000
-250057009.14380,-306998326.10987,-122096290.11690,  -0.00093,  -0.00144,  -0.00221,351856416.00000,   0.00064,275344896.00000,  -0.00039,  -0.00053,  -0.00062,-123488480.00000,   0.00000
-247212618.98024,-304298565.95464,-122003887.61158,  -0.00092,  -0.00143,  -0.00221,349591200.00000,   0.00064,275344896.00000,  -0.00039,  -0.00053,  -0.00062,-125753696.00000,   0.00000
-244313992.56357,-301552604.54675,-121903450.10581,  -0.00091,  -0.00142,  -0.00221,347293664.00000,   0.00064,275344896.00000,  -0.00039,  -0.00053,  -0.00062,-128051232.00000,   0.00000
-241409339.89655,-298792581.88804,-121803012.60003,  -0.00091,  -0.00142,  -0.00221,345007392.00000,   0.00064,275344896.00000,  -0.00039,  -0.00053,  -0.00062,-130337504.00000,   0.00000
-238470538.47757,-296006445.47784,-121698557.59403,  -0.00090,  -0.00141,  -0.00220,342718848.00000,   0.00064,275344896.00000,  -0.00039,  -0.00053,  -0.00062,-132626048.00000,   0.00000
-235511649.55744,-293200221.56648,-121594102.58802,  -0.00089,  -0.00140,  -0.00220,340442048.00000,   0.00064,275344896.00000,  -0.00039,  -0.00053,  -0.00062,-134902848.00000,   0.00000
-232518611.88534,-290367883.90362,-121481612.58155,  -0.00088,  -0.00139,  -0.00220,338162752.00000,   0.00064,275344896.00000,  -0.00039,  -0.00053,  -0.00062,-137182144.00000,   0.00000
-229499460.46174,-287501397.48880,-121365105.07485,  -0.00087,  -0.00139,  -0.00220,335882496.00000,   0.00064,275344896.00000,  -0.00039,  -0.00053,  -0.00062,-139462400.00000,   0.00000
-226466247.78733,-284628884.82363,-121248597.56816,  -0.00087,  -0.00138,  -0.00220,333619264.00000,   0.00064,275344896.00000,  -0.00039,  -0.00053,  -0.00062,-141725632.00000,   0.00000
-223406921.36141,-281722223.40650,-121128072.56122,  -0.00086,  -0.00137,  -0.00220,331347488.00000,   0.00064,275344896.00000,  -0.00039,  -0.00053,  -0.00062,-143997408.00000,   0.00000
-220319472.43389,-278803509.48867,-121003530.05406,  -0.00085,  -0.00137,  -0.00219,329072320.00000,   0.00064,275344896.00000,  -0.00039,  -0.00053,  -0.00062,-146272576.00000,   0.00000
-217191848.50405,-275844620.56854,-120874970.04667,  -0.00084,  -0.00136,  -0.00219,326771392.00000,   0.00064,275344896.00000,  -0.00039,  -0.00053,  -0.00062,-148573504.00000,   0.00000
-214058198.32386,-272871670.39759,-120742392.53905,  -0.00083,  -0.00135,  -0.00219,324459584.00000,   0.00064,275344896.00000,  -0.00039,  -0.00053,  -0.00062,-150885312.00000,   0.00000
-210890399.39171,-269872606.47515,-120609815.03143,  -0.00082,  -0.00134,  -0.00219,322124704.00000,   0.00064,275344896.00000,  -0.00039,  -0.00053,  -0.00062,-153220192.00000,   0.00000
-207708539.20876,-266867516.30235,-120469202.52334,  -0.00081,  -0.00134,  -0.00219,319768672.00000,   0.00064,275344896.00000,  -0.00039,  -0.00053,  -0.00062,-155576224.00000,   0.00000
-204486504.02349,-263822251.12725,-120328590.01525,  -0.00081,  -0.00133,  -0.00219,317376128.00000,   0.00064,275344896.00000,  -0.00039,  -0.00053,  -0.00062,-157968768.00000,   0.00000
-201244381.33707,-260756898.45099,-120183960.00694,  -0.00080,  -0.00132,  -0.00218,314956800.00000,   0.00064,275344896.00000,  -0.00039,  -0.00053,  -0.00062,-160388096.00000,   0.00000
-197976144.89915,-257657397.02277,-120035312.49839,  -0.00079,  -0.00131,  -0.00218,312504224.00000,   0.00064,275344896.00000,  -0.00039,  -0.00053,  -0.00062,-162840672.00000,   0.00000
-194679785.95960,-254545843.09386,-119886664.98984,  -0.00078,  -0.00131,  -0.00218,310036832.00000,   0.00064,275344896.00000,  -0.00039,  -0.00053,  -0.00062,-165308064.00000,   0.00000
-191363339.51891,-251414201.66379,-119729982.48083,  -0.00077,  -0.00130,  -0.00218,307547392.00000,   0.00064,275344896.00000,  -0.00039,  -0.00053,  -0.00062,-167797504.00000,   0.00000
-188026805.57706,-248262472.73256,-119573299.97183,  -0.00076,  -0.00129,  -0.00218,305049248.00000,   0.00064,275344896.00000,  -0.00039,  -0.00053,  -0.00062,-170295648.00000,   0.00000
-184664157.88371,-245076595.04938,-119412599.96259,  -0.00075,  -0.00128,  -0.00217,302533728.00000,   0.00064,275344896.00000,  -0.00039,  -0.00053,  -0.00062,-172811168.00000,   0.00000
-181273387.68874,-241878664.86549,-119247882.45311,  -0.00074,  -0.00127,  -0.00217,300014464.00000,   0.00064,275344896.00000,  -0.00039,  -0.00053,  -0.00062,-175330432.00000,   0.00000
-177862529.99261,-238660647.18046,-119079147.44341,  -0.00073,  -0.00127,  -0.00217,297490336.00000,   0.00064,275344896.00000,  -0.00039,  -0.00053,  -0.00062,-177854560.00000,   0.00000
-174411497.29418,-235402454.49311,-118910412.43371,  -0.00072,  -0.00126,  -0.00217,294952512.00000,   0.00064,275344896.00000,  -0.00039,  -0.00053,  -0.00062,-180392384.00000,   0.00000
-170946403.34494,-232138235.55542,-118737659.92378,  -0.00071,  -0.00125,  -0.00217,292418240.00000,   0.00064,275344896.00000,  -0.00039,  -0.00053,  -0.00062,-182926656.00000,   0.00000
-167455195.64419,-228839867.86576,-118556872.41338,  -0.00071,  -0.00124,  -0.00216,289865952.00000,   0.00064,275344896.00000,  -0.00039,  -0.00053,  -0.00062,-185478944.00000,   0.00000
-163949926.69264,-225535473.92576,-118380102.40322,  -0.00070,  -0.00123,  -0.00216,287328128.00000,   0.00064,275344896.00000,  -0.00039,  -0.00053,  -0.00062,-188016768.00000,   0.00000
-160404482.73877,-222190904.98345,-118195297.39259,  -0.00069,  -0.00123,  -0.00216,284770656.00000,   0.00064,275344896.00000,  -0.00039,  -0.00053,  -0.00062,-190574240.00000,   0.00000
-156844977.53410,-218840309.79079,-118006474.88173,  -0.00068,  -0.00122,  -0.00216,282225024.00000,   0.00064,275344896.00000,  -0.00039,  -0.00053,  -0.00062,-193119872.00000,   0.00000
-153259358.57793,-215455565.84617,-117817652.37088,  -0.00067,  -0.00121,  -0.00215,279685696.00000,   0.00064,275344896.00000,  -0.00039,  -0.00053,  -0.00062,-195659200.00000,   0.00000
-149639590.86979,-212044708.15004,-117624812.35979,  -0.00066,  -0.00120,  -0.00215,277155712.00000,   0.00064,275344896.00000,  -0.00039,  -0.00053,  -0.00062,-198189184.00000,   0.00000
-146005761.91085,-208627824.20357,-117427954.84847,  -0.00065,  -0.00119,  -0.00215,274651488.00000,   0.00064,275344896.00000,  -0.00039,  -0.00053,  -0.00062,-200693408.00000,   0.00000
-142345819.20040,-205176791.50514,-117231097.33715,  -0.00064,  -0.00118,  -0.00215,272160960.00000,   0.00064,275344896.00000,  -0.00039,  -0.00053,  -0.00062,-203183936.00000,   0.00000
-138657753.98834,-201713706.30601,-117026204.82537,  -0.00063,  -0.00117,  -0.00214,269675936.00000,   0.00064,275344896.00000,  -0.00039,  -0.00053,  -0.00062,-205668960.00000,   0.00000
-134957636.27558,-198222498.60526,-116821312.31359,  -0.00062,  -0.00117,  -0.00214,267194080.00000,   0.00064,275344896.00000,  -0.00039,  -0.00053,  -0.00062,-208150816.00000,   0.00000
-131229396.06121,-194719238.40383,-116612402.30157,  -0.00061,  -0.00116,  -0.00214,264728448.00000,   0.00064,275344896.00000,  -0.00039,  -0.00053,  -0.00062,-210616448.00000,   0.00000
-127460980.84452,-191175803.20008,-116403492.28956,  -0.00060,  -0.00115,  -0.00214,262297232.00000,   0.00064,275344896.00000,  -0.00039,  -0.00053,  -0.00062,-213047664.00000,   0.00000
-123692565.62784,-187632367.99633,-116186547.27709,  -0.00059,  -0.00114,  -0.00213,259879344.00000,   0.00064,275344896.00000,  -0.00039,  -0.00053,  -0.00062,-215465552.00000,   0.00000
-119883975.40885,-184048757.79027,-115969602.26461,  -0.00058,  -0.00113,  -0.00213,257501232.00000,   0.00064,275344896.00000,  -0.00039,  -0.00053,  -0.00062,-217843664.00000,   0.00000
-116061323.93904,-180459121.33387,-115748639.75191,  -0.00057,  -0.00112,  -0.00213,255027168.00000,   0.00064,275344896.00000,  -0.00039,  -0.00053,  -0.00062,-220317728.00000,   0.00000
-112204523.71728,-176843371.12596,-115527677.23920,  -0.00056,  -0.00111,  -0.00212,252544992.00000,   0.00064,275344896.00000,  -0.00039,  -0.00053,  -0.00062,-222799904.00000,   0.00000
-108341697.24516,-173213559.66725,-115298679.72603,  -0.00054,  -0.00110,  -0.00212,250135328.00000,   0.00064,275344896.00000,  -0.00039,  -0.00053,  -0.00062,-225209568.00000,   0.00000
-104438695.77074,-169543573.20623,-115069682.21287,  -0.00053,  -0.00109,  -0.00212,247756672.00000,   0.00064,275344896.00000,  -0.00039,  -0.00053,  -0.00062,-227588224.00000,   0.00000
-100507571.79470,-165861534.24451,-114836667.19947,  -0.00052,  -0.00109,  -0.00211,245402976.00000,   0.00064,275344896.00000,  -0.00039,  -0.00053,  -0.00062,-229941920.00000,   0.00000
-96570421.56832,-162165434.03198,-114603652.18607,  -0.00051,  -0.00108,  -0.00211,243080720.00000,   0.00064,275344896.00000,  -0.00039,  -0.00053,  -0.00062,-232264176.00000,   0.00000
-92599122.58997,-158443220.06796,-114362602.17221,  -0.00050,  -0.00107,  -0.00211,240775040.00000,   0.00064,275344896.00000,  -0.00039,  -0.00053,  -0.00062,-234569856.00000,   0.00000
-88607736.11046,-154700918.60277,-114121552.15835,  -0.00049,  -0.00106,  -0.00211,238504016.00000,   0.00064,275344896.00000,  -0.00039,  -0.00053,  -0.00062,-236840880.00000,   0.00000
-84596262.12980,-150938529.63644,-113876484.64426,  -0.00048,  -0.00105,  -0.00210,236264096.00000,   0.00064,275344896.00000,  -0.00039,  -0.00053,  -0.00062,-239080800.00000,   0.00000
-80564700.64799,-147156053.16894,-113631417.13017,  -0.00047,  -0.00104,  -0.00210,234062368.00000,   0.00064,275344896.00000,  -0.00039,  -0.00053,  -0.00062,-241282528.00000,   0.00000
-76505016.66456,-143361524.20076,-113382332.11584,  -0.00046,  -0.00103,  -0.00210,231897760.00000,   0.00064,275344896.00000,  -0.00039,  -0.00053,  -0.00062,-243447136.00000,   0.00000
-72433280.18043,-139538872.73096,-113129229.60129,  -0.00045,  -0.00102,  -0.00209,229764400.00000,   0.00064,275344896.00000,  -0.00039,  -0.00053,  -0.00062,-245580496.00000,   0.00000
-68333421.19469,-135704168.76046,-112872109.58651,  -0.00044,  -0.00101,  -0.00209,227669792.00000,   0.00064,275344896.00000,  -0.00039,  -0.00053,  -0.00062,-247675104.00000,   0.00000
-64193387.20664,-131829289.78766,-112614989.57172,  -0.00042,  -0.00100,  -0.00209,225607696.00000,   0.00064,275344896.00000,  -0.00039,  -0.00053,  -0.00062,-249737200.00000,   0.00000
-60053353.21858,-127954410.81485,-112353852.05671,  -0.00041,  -0.00099,  -0.00208,223587520.00000,   0.00064,275344896.00000,  -0.00039,  -0.00053,  -0.00062,-251757376.00000,   0.00000
-55879170.47857,-124053418.09054,-112088697.04146,  -0.00040,  -0.00098,  -0.00208,221593312.00000,   0.00064,275344896.00000,  -0.00039,  -0.00053,  -0.00062,-253751584.00000,   0.00000
-51684900.23740,-120132337.86508,-111819524.52598,  -0.00039,  -0.00097,  -0.00208,219620016.00000,   0.00064,275344896.00000,  -0.00039,  -0.00053,  -0.00062,-255724880.00000,   0.00000
-47470542.49507,-116191170.13846,-111550352.01051,  -0.00038,  -0.00096,  -0.00207,217671120.00000,   0.00064,275344896.00000,  -0.00039,  -0.00053,  -0.00062,-257673776.00000,   0.00000
-43236097.25159,-112229914.91069,-111277161.99480,  -0.00037,  -0.00095,  -0.00207,215771472.00000,   0.00064,275344896.00000,  -0.00039,  -0.00053,  -0.00062,-259573424.00000,   0.00000
-38981564.50696,-108248572.18176,-111003971.97909,  -0.00036,  -0.00094,  -0.00206,214028704.00000,   0.00064,275344896.00000,  -0.00039,  -0.00053,  -0.00062,-261316192.00000,   0.00000
-34698909.26070,-104255176.95214,-110726764.46315,  -0.00034,  -0.00093,  -0.00206,212511984.00000,   0.00064,275344896.00000,  -0.00039,  -0.00053,  -0.00062,-262832912.00000,   0.00000
-30410227.76411,-100247720.47171,-110445539.44698,  -0.00033,  -0.00092,  -0.00206,211093936.00000,   0.00064,275344896.00000,  -0.00039,  -0.00053,  -0.00062,-264250960.00000,   0.00000
-26081371.26520,-96200088.98898,-110160296.93058,  -0.00032,  -0.00091,  -0.00205,209566880.00000,   0.00064,275344896.00000,  -0.00039,  -0.00053,  -0.00062,-265778016.00000,   0.00000
-21738453.51548,-92146431.25589,-109875054.41418,  -0.00031,  -0.00090,  -0.00205,207851152.00000,   0.00064,275344896.00000,  -0.00039,  -0.00053,  -0.00062,-267493744.00000,   0.00000
-17367413.26414,-88080721.02211,-109585794.39754,  -0.00030,  -0.00089,  -0.00205,206119328.00000,   0.00064,275344896.00000,  -0.00039,  -0.00053,  -0.00062,-269225568.00000,   0.00000
-12984320.51212,-83986888.28672,-109296534.38091,  -0.00029,  -0.00088,  -0.00204,204587440.00000,   0.00064,275344896.00000,  -0.00039,  -0.00053,  -0.00062,-270757456.00000,   0.00000
-8581140.25893,-79872968.05017,-109003256.86405,  -0.00027,  -0.00087,  -0.00204,203209888.00000,   0.00064,275344896.00000,  -0.00039,  -0.00053,  -0.00062,-272135008.00000,   0.00000
-4149837.50413,-75746995.31292,-108705961.84695,  -0.00026,  -0.00086,  -0.00203,201927856.00000,   0.00064,275344896.00000,  -0.00039,  -0.00053,  -0.00062,-273417040.00000,   0.00000
301552.75182,-71600935.07452,-108408666.82986,  -0.00025,  -0.00085,  -0.00203,200720432.00000,   0.00064,275344896.00000,  -0.00039,  -0.00053,  -0.00062,-274624464.00000,   0.00000
4773030.50893,-67434787.33497,-108103336.81230,  -0.00024,  -0.00084,  -0.00203,199567760.00000,   0.00064,275344896.00000,  -0.00039,  -0.00053,  -0.00062,-275777136.00000,   0.00000
9264595.76720,-63248552.09426,-107802024.29498,  -0.00022,  -0.00083,  -0.00202,198490544.00000,   0.00064,275344896.00000,  -0.00039,  -0.00053,  -0.00062,-276854352.00000,   0.00000
13770222.27627,-59056290.60321,-107492676.77719,  -0.00021,  -0.00082,  -0.00202,197479392.00000,   0.00064,275344896.00000,  -0.00039,  -0.00053,  -0.00062,-277865504.00000,   0.00000
18301962.53685,-54829880.36019,-107187346.75963,  -0.00020,  -0.00081,  -0.00202,196559104.00000,   0.00064,275344896.00000,  -0.00039,  -0.00053,  -0.00062,-278785792.00000,   0.00000
22847764.04823,-50597443.86682,-106873981.74161,  -0.00019,  -0.00080,  -0.00201,195731088.00000,   0.00064,275344896.00000,  -0.00039,  -0.00053,  -0.00062,-279613808.00000,   0.00000
27427714.31158,-46338893.62196,-106560616.72360,  -0.00017,  -0.00079,  -0.00201,195019872.00000,   0.00064,275344896.00000,  -0.00039,  -0.00053,  -0.00062,-280325024.00000,   0.00000
32007664.57492,-42080343.37709,-106243234.20535,  -0.00016,  -0.00078,  -0.00200,194426464.00000,   0.00064,275344896.00000,  -0.00039,  -0.00053,  -0.00062,-280918432.00000,   0.00000
36627789.84058,-37781618.12991,-105925851.68710,  -0.00015,  -0.00077,  -0.00200,193959696.00000,   0.00064,275344896.00000,  -0.00039,  -0.00053,  -0.00062,-281385200.00000,   0.00000
41247915.10624,-33482892.88274,-105604451.66862,  -0.00014,  -0.00076,  -0.00199,193614816.00000,   0.00064,275344896.00000,  -0.00039,  -0.00053,  -0.00062,-281730080.00000,   0.00000
45902189.12386,-29158053.88406,-105279034.14991,  -0.00012,  -0.00075,  -0.00199,193393632.00000,   0.00064,275344896.00000,  -0.00039,  -0.00053,  -0.00062,-281951264.00000,   0.00000
50570524.39229,-24827188.63503,-104953616.63119,  -0.00011,  -0.00074,  -0.00199,193299520.00000,   0.00064,275344896.00000,  -0.00039,  -0.00053,  -0.00062,-282045376.00000,   0.00000
55264973.41222,-20462174.63405,-104624181.61225,  -0.00010,  -0.00073,  -0.00198,193320592.00000,   0.00064,275344896.00000,  -0.00039,  -0.00053,  -0.00062,-282024304.00000,   0.00000
59973483.68296,-16091134.38271,-104294746.59331,  -0.00009,  -0.00072,  -0.00198,193465088.00000,   0.00064,275344896.00000,  -0.00039,  -0.00053,  -0.00062,-281879808.00000,   0.00000
64702081.45485,-11700006.63022,-103961294.07414,  -0.00007,  -0.00071,  -0.00197,193728304.00000,   0.00064,275344896.00000,  -0.00039,  -0.00053,  -0.00062,-281616592.00000,   0.00000
69436705.47709,-7294817.62692,-103623824.05473,  -0.00006,  -0.00070,  -0.00197,194114688.00000,   0.00064,275344896.00000,  -0.00039,  -0.00053,  -0.00062,-281230208.00000,   0.00000
74199452.00095,-2877576.12293,-103286354.03533,  -0.00005,  -0.00068,  -0.00196,194650624.00000,   0.00064,275344896.00000,  -0.00039,  -0.00053,  -0.00062,-280694272.00000,   0.00000
78982286.02596,1559752.88221,-102948884.01592,  -0.00003,  -0.00067,  -0.00196,195323008.00000,   0.00064,275344896.00000,  -0.00039,  -0.00053,  -0.00062,-280021888.00000,   0.00000
83785207.55213,6017169.38852,-102607396.49629,  -0.00002,  -0.00066,  -0.00196,196069424.00000,   0.00064,275344896.00000,  -0.00039,  -0.00053,  -0.00062,-279275472.00000,   0.00000
88602190.32911,10480612.14516,-102261891.47642,  -0.00001,  -0.00065,  -0.00195,196840096.00000,   0.00064,275344896.00000,  -0.00039,  -0.00053,  -0.00062,-278504800.00000,   0.00000
93439260.60724,14964142.40297,-101916386.45655,   0.00001,  -0.00064,  -0.00195,197660592.00000,   0.00064,275344896.00000,  -0.00039,  -0.00053,  -0.00062,-277684304.00000,   0.00000
98296418.38653,19467760.16193,-101566863.93646,   0.00002,  -0.00063,  -0.00194,198563024.00000,   0.00064,275344896.00000,  -0.00039,  -0.00053,  -0.00062,-276781872.00000,   0.00000
103167637.41662,23977404.17123,-101217341.41636,   0.00003,  -0.00062,  -0.00194,199582080.00000,   0.00064,275344896.00000,  -0.00039,  -0.00053,  -0.00062,-275762816.00000,   0.00000
108064970.19822,28521196.93250,-100863801.39603,   0.00005,  -0.00061,  -0.00193,200743440.00000,   0.00064,275344896.00000,  -0.00039,  -0.00053,  -0.00062,-274601456.00000,   0.00000
112970337.98028,33056954.69330,-100506243.87547,   0.00006,  -0.00060,  -0.00193,201840976.00000,   0.00064,275344896.00000,  -0.00039,  -0.00053,  -0.00062,-273503920.00000,   0.00000
117901819.51384,37626861.20607,-100152703.85514,   0.00007,  -0.00059,  -0.00192,203091712.00000,   0.00064,275344896.00000,  -0.00039,  -0.00053,  -0.00062,-272253184.00000,   0.00000
122847362.29821,42202793.96919,-99791128.83435,   0.00009,  -0.00057,  -0.00192,204527696.00000,   0.00064,275344896.00000,  -0.00039,  -0.00053,  -0.00062,-270817200.00000,   0.00000
127812992.58373,46798814.23346,-99429553.81356,   0.00010,  -0.00056,  -0.00191,206047152.00000,   0.00064,275344896.00000,  -0.00039,  -0.00053,  -0.00062,-269297744.00000,   0.00000
132778622.86925,51394834.49773,-99067978.79277,   0.00011,  -0.00055,  -0.00191,207688160.00000,   0.00064,275344896.00000,  -0.00039,  -0.00053,  -0.00062,-267656736.00000,   0.00000
137778401.90674,56016968.51350,-98702386.27175,   0.00013,  -0.00054,  -0.00190,209490416.00000,   0.00064,275344896.00000,  -0.00039,  -0.00053,  -0.00062,-265854480.00000,   0.00000
142784207.19457,60653163.78009,-98336793.75073,   0.00014,  -0.00053,  -0.00190,211430976.00000,   0.00064,275344896.00000,  -0.00039,  -0.00053,  -0.00062,-263913920.00000,   0.00000
147818134.98403,65301411.54736,-97967183.72947,   0.00016,  -0.00052,  -0.00190,213476944.00000,   0.00064,275344896.00000,  -0.00039,  -0.00053,  -0.00062,-261867952.00000,   0.00000
152858089.02382,69963720.56544,-97593556.20799,   0.00017,  -0.00051,  -0.00189,215583232.00000,   0.00064,275344896.00000,  -0.00039,  -0.00053,  -0.00062,-259761664.00000,   0.00000
157918130.56478,74646117.08468,-97223946.18674,   0.00018,  -0.00050,  -0.00189,217752384.00000,   0.00064,275344896.00000,  -0.00039,  -0.00053,  -0.00062,-257592512.00000,   0.00000
162992233.35654,79334539.85427,-96846301.16502,   0.00020,  -0.00048,  -0.00188,219962672.00000,   0.00064,275344896.00000,  -0.00039,  -0.00053,  -0.00062,-255382224.00000,   0.00000
168086423.64945,84043050.12500,-96468656.14331,   0.00021,  -0.00047,  -0.00188,222217792.00000,   0.00064,275344896.00000,  -0.00039,  -0.00053,  -0.00062,-253127104.00000,   0.00000
173194675.19318,88757586.64609,-96091011.12159,   0.00023,  -0.00046,  -0.00187,224492416.00000,   0.00064,275344896.00000,  -0.00039,  -0.00053,  -0.00062,-250852480.00000,   0.00000
178323014.23806,93492210.66833,-95713366.09988,   0.00024,  -0.00045,  -0.00187,226823472.00000,   0.00064,275344896.00000,  -0.00039,  -0.00053,  -0.00062,-248521424.00000,   0.00000
183457379.53328,98240895.94138,-95327686.07770,   0.00025,  -0.00044,  -0.00186,229230208.00000,   0.00064,275344896.00000,  -0.00039,  -0.00053,  -0.00062,-246114688.00000,   0.00000
188619867.33013,103001633.71512,-94946023.55576,   0.00027,  -0.00043,  -0.00186,231869104.00000,   0.00064,275344896.00000,  -0.00039,  -0.00053,  -0.00062,-243475792.00000,   0.00000
193788381.37731,107776432.73967,-94560343.53358,   0.00028,  -0.00041,  -0.00185,234752592.00000,   0.00064,275344896.00000,  -0.00039,  -0.00053,  -0.00062,-240592304.00000,   0.00000
198970956.67531,112557258.01457,-94170646.01117,   0.00030,  -0.00040,  -0.00185,237710272.00000,   0.00064,275344896.00000,  -0.00039,  -0.00053,  -0.00062,-237634624.00000,   0.00000
204173619.47447,117358170.79062,-93784965.98900,   0.00031,  -0.00039,  -0.00184,240541840.00000,   0.00064,275344896.00000,  -0.00039,  -0.00053,  -0.00062,-234803056.00000,   0.00000
209376282.27362,122159083.56668,-93391250.96636,   0.00032,  -0.00038,  -0.00184,243350096.00000,   0.00064,275344896.00000,  -0.00039,  -0.00053,  -0.00062,-231994800.00000,   0.00000
214613093.82474,126986110.09423,-93001553.44395,   0.00034,  -0.00037,  -0.00183,246298608.00000,   0.00064,275344896.00000,  -0.00039,  -0.00053,  -0.00062,-229046288.00000,   0.00000
219849905.37585,131813136.62178,-92607838.42131,   0.00035,  -0.00036,  -0.00183,249453360.00000,   0.00064,275344896.00000,  -0.00039,  -0.00053,  -0.00062,-225891536.00000,   0.00000
225106804.42812,136660250.65049,-92210105.89844,   0.00037,  -0.00034,  -0.00182,252897328.00000,   0.00064,275344896.00000,  -0.00039,  -0.00053,  -0.00062,-222447568.00000,   0.00000
230383790.98155,141527452.18036,-91812373.37557,   0.00038,  -0.00033,  -0.00182,256641248.00000,   0.00064,275344896.00000,  -0.00039,  -0.00053,  -0.00062,-218703648.00000,   0.00000
235660777.53498,146394653.71022,-91414640.85270,   0.00040,  -0.00032,  -0.00181,260585568.00000,   0.00064,275344896.00000,  -0.00039,  -0.00053,  -0.00062,-214759328.00000,   0.00000
240951825.33921,151267881.49043,-91012890.82960,   0.00041,  -0.00031,  -0.00180,264587600.00000,   0.00064,275344896.00000,  -0.00039,  -0.00053,  -0.00062,-210757296.00000,   0.00000
246268986.89495,156175258.02261,-90611140.80650,   0.00043,  -0.00030,  -0.00180,268527936.00000,   0.00064,275344896.00000,  -0.00039,  -0.00053,  -0.00062,-206816960.00000,   0.00000
251594183.45115,161074599.55432,-90209390.78340,   0.00044,  -0.00028,  -0.00179,272331872.00000,   0.00064,275344896.00000,  -0.00039,  -0.00053,  -0.00062,-203013024.00000,   0.00000
256939467.50850,165994028.58719,-89803623.26007,   0.00046,  -0.00027,  -0.00179,275780352.00000,   0.00064,275344896.00000,  -0.00039,  -0.00053,  -0.00062,-199564544.00000,   0.00000
262290777.81620,170927518.87086,-89397855.73674,   0.00047,  -0.00026,  -0.00178,279153952.00000,   0.00064,275344896.00000,  -0.00039,  -0.00053,  -0.00062,-196190944.00000,   0.00000
267642088.12390,175861009.15454,-88988070.71317,   0.00049,  -0.00025,  -0.00178,282518080.00000,   0.00064,275344896.00000,  -0.00039,  -0.00053,  -0.00062,-192826816.00000,   0.00000
273021520.93322,180806551.93891,-88578285.68961,   0.00050,  -0.00024,  -0.00177,285923744.00000,   0.00064,275344896.00000,  -0.00039,  -0.00053,  -0.00062,-189421152.00000,   0.00000
278406979.99288,185766155.97408,-88168500.66605,   0.00051,  -0.00022,  -0.00177,289412544.00000,   0.00064,275344896.00000,  -0.00039,  -0.00053,  -0.00062,-185932352.00000,   0.00000
283812526.55370,190745847.51042,-87758715.64249,   0.00053,  -0.00021,  -0.00176,293034080.00000,   0.00064,275344896.00000,  -0.00039,  -0.00053,  -0.00062,-182310816.00000,   0.00000
289212046.86418,195711477.79594,-87344913.11869,   0.00054,  -0.00020,  -0.00176,296783520.00000,   0.00064,275344896.00000,  -0.00039,  -0.00053,  -0.00062,-178561376.00000,   0.00000
294651742.17696,200717283.08377,-86931110.59490,   0.00056,  -0.00019,  -0.00175,300699840.00000,   0.00064,275344896.00000,  -0.00039,  -0.00053,  -0.00062,-174645056.00000,   0.00000
300077376.23893,205717062.12126,-86513290.57088,   0.00057,  -0.00018,  -0.00175,304719616.00000,   0.00064,275344896.00000,  -0.00039,  -0.00053,  -0.00062,-170625280.00000,   0.00000
305531132.80252,210728893.65944,-86095470.54685,   0.00059,  -0.00016,  -0.00174,308850912.00000,   0.00064,275344896.00000,  -0.00039,  -0.00053,  -0.00062,-166493984.00000,   0.00000
310984889.36611,215740725.19762,-85677650.52283,   0.00060,  -0.00015,  -0.00174,313044896.00000,   0.00064,275344896.00000,  -0.00039,  -0.00053,  -0.00062,-162300000.00000,   0.00000
316450698.43040,220780679.23742,-85259830.49880,   0.00062,  -0.00014,  -0.00173,317294336.00000,   0.00064,275344896.00000,  -0.00039,  -0.00053,  -0.00062,-158050560.00000,   0.00000
321938603.74595,225818624.52710,-84837992.97455,   0.00063,  -0.00013,  -0.00172,321584000.00000,   0.00064,275344896.00000,  -0.00039,  -0.00053,  -0.00062,-153760896.00000,   0.00000
327418474.06105,230864604.81724,-84416155.45029,   0.00065,  -0.00011,  -0.00172,325894816.00000,   0.00064,275344896.00000,  -0.00039,  -0.00053,  -0.00062,-149450080.00000,   0.00000
332926466.87775,235922637.60808,-83994317.92603,   0.00066,  -0.00010,  -0.00171,330279136.00000,   0.00064,275344896.00000,  -0.00039,  -0.00053,  -0.00062,-145065760.00000,   0.00000
338440485.94481,240994731.64973,-83568462.90155,   0.00068,  -0.00009,  -0.00171,334727072.00000,   0.00064,275344896.00000,  -0.00039,  -0.00053,  -0.00062,-140617824.00000,   0.00000
343954505.01187,246066825.69137,-83142607.87706,   0.00070,  -0.00008,  -0.00170,338962752.00000,   0.00064,275344896.00000,  -0.00039,  -0.00053,  -0.00062,-136382144.00000,   0.00000
349488611.58008,251159007.23417,-82716752.85257,   0.00071,  -0.00007,  -0.00170,343270240.00000,   0.00064,275344896.00000,  -0.00039,  -0.00053,  -0.00062,-132074656.00000,   0.00000
355036779.39910,256257215.02732,-82290897.82809,   0.00073,  -0.00005,  -0.00169,347664416.00000,   0.00064,275344896.00000,  -0.00039,  -0.00053,  -0.00062,-127680480.00000,   0.00000
360584947.21812,261355422.82047,-81861025.30337,   0.00074,  -0.00004,  -0.00169,352147936.00000,   0.00064,275344896.00000,  -0.00039,  -0.00053,  -0.00062,-123196960.00000,   0.00000
366133115.03714,266453630.61361,-81431152.77865,   0.00076,  -0.00003,  -0.00168,356735712.00000,   0.00064,275344896.00000,  -0.00039,  -0.00053,  -0.00062,-118609184.00000,   0.00000
371701370.35731,271571925.90791,-81001280.25393,   0.00077,  -0.00002,  -0.00167,361368864.00000,   0.00064,275344896.00000,  -0.00039,  -0.00053,  -0.00062,-113976032.00000,   0.00000
377289713.17864,276710308.70337,-80571407.72922,   0.00079,  -0.00000,  -0.00167,365991456.00000,   0.00064,275344896.00000,  -0.00039,  -0.00053,  -0.00062,-109353440.00000,   0.00000
382878055.99997,281848691.49883,-80137517.70427,   0.00080,   0.00001,  -0.00166,370607040.00000,   0.00064,275344896.00000,  -0.00039,  -0.00053,  -0.00062,-104737856.00000,   0.00000
388466398.82130,286987074.29429,-79703627.67932,   0.00082,   0.00002,  -0.00166,375249600.00000,   0.00064,275344896.00000,  -0.00039,  -0.00053,  -0.00062,-100095296.00000,   0.00000
394068802.89344,292131483.34009,-79269737.65437,   0.00083,   0.00003,  -0.00165,379937728.00000,   0.00064,275344896.00000,  -0.00039,  -0.00053,  -0.00062,-95407168.00000,   0.00000
399691294.46673,297295979.88705,-78835847.62942,   0.00085,   0.00005,  -0.00165,384671808.00000,   0.00064,275344896.00000,  -0.00039,  -0.00053,  -0.00062,-90673088.00000,   0.00000
405313786.04003,302460476.43401,-78397940.10424,   0.00086,   0.00006,  -0.00164,389420320.00000,   0.00064,275344896.00000,  -0.00039,  -0.00053,  -0.00062,-85924576.00000,   0.00000
410936277.61332,307624972.98097,-77964050.07929,   0.00088,   0.00007,  -0.00164,394180256.00000,   0.00064,275344896.00000,  -0.00039,  -0.00053,  -0.00062,-81164640.00000,   0.00000
416564795.43696,312803530.77873,-77526142.55411,   0.00090,   0.00008,  -0.00163,398952928.00000,   0.00064,275344896.00000,  -0.00039,  -0.00053,  -0.00062,-76391968.00000,   0.00000
422207374.51141,317988114.82685,-77088235.02893,   0.00091,   0.00010,  -0.00162,403747872.00000,   0.00064,275344896.00000,  -0.00039,  -0.00053,  -0.00062,-71597024.00000,   0.00000
427864014.83666,323178725.12531,-76650327.50375,   0.00093,   0.00011,  -0.00162,408570464.00000,   0.00064,275344896.00000,  -0.00039,  -0.00053,  -0.00062,-66774432.00000,   0.00000
433512620.16146,328377370.42423,-76208402.47834,   0.00094,   0.00012,  -0.00161,413407584.00000,   0.00064,275344896.00000,  -0.00039,  -0.00053,  -0.00062,-61937312.00000,   0.00000
439189347.98787,333588068.22384,-75766477.45293,   0.00096,   0.00013,  -0.00161,418285472.00000,   0.00064,275344896.00000,  -0.00039,  -0.00053,  -0.00062,-57059424.00000,   0.00000
444852014.56347,338792739.77311,-75328569.92775,   0.00097,   0.00015,  -0.00160,423168608.00000,   0.00064,275344896.00000,  -0.00039,  -0.00053,  -0.00062,-52176288.00000,   0.00000
450528742.38989,344003437.57273,-74886644.90234,   0.00099,   0.00016,  -0.00160,428042592.00000,   0.00064,275344896.00000,  -0.00039,  -0.00053,  -0.00062,-47302304.00000,   0.00000
456211496.46664,349228196.62315,-74444719.87693,   0.00100,   0.00017,  -0.00159,432876640.00000,   0.00064,275344896.00000,  -0.00039,  -0.00053,  -0.00062,-42468256.00000,   0.00000
461894250.54340,354452955.67357,-74002794.85152,   0.00102,   0.00019,  -0.00158,437694144.00000,   0.00064,275344896.00000,  -0.00039,  -0.00053,  -0.00062,-37650752.00000,   0.00000
467591065.87097,359683740.97434,-73556852.32588,   0.00104,   0.00020,  -0.00158,442546784.00000,   0.00064,275344896.00000,  -0.00039,  -0.00053,  -0.00062,-32798112.00000,   0.00000
473293907.44888,364928587.52592,-73114927.30047,   0.00105,   0.00021,  -0.00157,447473376.00000,   0.00064,275344896.00000,  -0.00039,  -0.00053,  -0.00062,-27871520.00000,   0.00000
478996749.02680,370173434.07750,-72668984.77483,   0.00107,   0.00022,  -0.00157,452487872.00000,   0.00064,275344896.00000,  -0.00039,  -0.00053,  -0.00062,-22857024.00000,   0.00000
484713651.85552,375424306.87943,-72223042.24919,   0.00108,   0.00024,  -0.00156,457567168.00000,   0.00064,275344896.00000,  -0.00039,  -0.00053,  -0.00062,-17777728.00000,   0.00000
490416493.43343,380669153.43101,-71777099.72354,   0.00110,   0.00025,  -0.00155,462722816.00000,   0.00064,275344896.00000,  -0.00039,  -0.00053,  -0.00062,-12622080.00000,   0.00000
496139422.51250,385934087.48374,-71335174.69813,   0.00112,   0.00026,  -0.00155,467828096.00000,   0.00064,275344896.00000,  -0.00039,  -0.00053,  -0.00062,-7516800.00000,   0.00000
501870386.59203,391190986.53601,-70885214.67226,   0.00113,   0.00027,  -0.00154,472953088.00000,   0.00064,275344896.00000,  -0.00039,  -0.00053,  -0.00062,-2391808.00000,   0.00000
504553009.59784,393658924.37323,-70676179.11337,   0.00114,   0.00028,  -0.00154,475344224.00000,   0.00064,275344896.00000,  -0.00039,  -0.00053,  -0.00062,-672.00000,   0.00000
504741391.07947,394337034.02699,-69970785.70669,   0.00115,   0.00029,  -0.00154,475344224.00000,   0.00065,275354336.00000,  -0.00038,  -0.00052,  -0.00063,  64.00000,   2.00000
505090780.95811,395593495.59342,-68649071.51146,   0.00116,   0.00030,  -0.00153,480419744.00000,   0.00067,275372160.00000,  -0.00036,  -0.00052,  -0.00064, 224.00000,   2.00000
505421588.78671,396837071.45430,-67340557.63252,   0.00118,   0.00031,  -0.00153,480443200.00000,   0.00069,275389952.00000,  -0.00035,  -0.00051,  -0.00065, 320.00000,   2.00000
505737715.61296,398045571.67387,-66045719.66557,   0.00119,   0.00033,  -0.00152,480474272.00000,   0.00070,275407776.00000,  -0.00033,  -0.00050,  -0.00066, 160.00000,   2.00000
506024335.28989,399229854.50853,-64773732.11662,   0.00121,   0.00034,  -0.00151,480527968.00000,   0.00072,275425664.00000,  -0.00031,  -0.00049,  -0.00067, 192.00000,   2.00000
506281195.62793,400390543.24546,-63523586.26271,   0.00123,   0.00035,  -0.00151,480550464.00000,   0.00074,275443520.00000,  -0.00030,  -0.00048,  -0.00068, 128.00000,   2.00000
506513161.78106,401525558.86003,-62295610.90991,   0.00124,   0.00036,  -0.00150,480585728.00000,   0.00075,275461376.00000,  -0.00028,  -0.00048,  -0.00069, 224.00000,   2.00000
506725156.18204,402639975.93814,-61086096.26280,   0.00126,   0.00038,  -0.00150,480641856.00000,   0.00077,275479296.00000,  -0.00026,  -0.00047,  -0.00070,  64.00000,   2.00000
506932315.82155,403726028.11285,-59885115.38224,   0.00127,   0.00039,  -0.00149,480667328.00000,   0.00078,275497184.00000,  -0.00025,  -0.00046,  -0.00071, 128.00000,   2.00000
507129993.34421,404799269.95996,-58689449.66345,   0.00129,   0.00040,  -0.00149,480699392.00000,   0.00080,275515040.00000,  -0.00023,  -0.00045,  -0.00072, 192.00000,   2.00000
507325649.33661,405845165.53355,-57494623.19625,   0.00131,   0.00042,  -0.00148,480742752.00000,   0.00082,275532960.00000,  -0.00021,  -0.00044,  -0.00073,  96.00000,   2.00000
507510263.34061,406865271.41707,-56309623.54135,   0.00132,   0.00043,  -0.00147,480772768.00000,   0.00083,275550912.00000,  -0.00019,  -0.00043,  -0.00074, 160.00000,   2.00000
507680832.64660,407864239.07832,-55134288.69731,   0.00134,   0.00044,  -0.00147,480797056.00000,   0.00085,275568832.00000,  -0.00018,  -0.00042,  -0.00075,  96.00000,   2.00000
507834485.58959,408844388.64015,-53977027.17646,   0.00135,   0.00045,  -0.00146,480821984.00000,   0.00087,275586784.00000,  -0.00016,  -0.00042,  -0.00076, 192.00000,   2.00000
507969532.58094,409813620.59098,-52835946.18364,   0.00137,   0.00047,  -0.00146,480856928.00000,   0.00088,275604736.00000,  -0.00014,  -0.00041,  -0.00077, 128.00000,   2.00000
508094202.48668,410757765.94116,-51710755.25584,   0.00138,   0.00048,  -0.00145,480875872.00000,   0.00090,275622656.00000,  -0.00013,  -0.00040,  -0.00078, -32.00000,   2.00000
508204737.55540,411691121.82381,-50597618.15654,   0.00140,   0.00049,  -0.00144,480911904.00000,   0.00092,275640608.00000,  -0.00011,  -0.00039,  -0.00079, 224.00000,   2.00000
508304047.94658,412605898.18390,-49496771.34162,   0.00142,   0.00051,  -0.00144,480939648.00000,   0.00093,275658560.00000,  -0.00009,  -0.00038,  -0.00079, 192.00000,   2.00000
508392739.82182,413502305.83744,-48408005.02530,   0.00143,   0.00052,  -0.00143,480966368.00000,   0.00095,275676512.00000,  -0.00007,  -0.00037,  -0.00080,  64.00000,   2.00000
508471674.78805,414380881.91340,-47331344.79159,   0.00145,   0.00053,  -0.00143,480992576.00000,   0.00097,275694464.00000,  -0.00006,  -0.00036,  -0.00081, 224.00000,   2.00000
508540508.09970,415241239.06607,-46266757.44891,   0.00146,   0.00054,  -0.00142,481018400.00000,   0.00098,275712416.00000,  -0.00004,  -0.00035,  -0.00082, 128.00000,   2.00000
508600032.36119,416083867.99310,-45214359.31456,   0.00148,   0.00056,  -0.00141,481043520.00000,   0.00100,275730368.00000,  -0.00002,  -0.00034,  -0.00083, 128.00000,   2.00000
508647136.70017,416915387.82915,-44173257.15273,   0.00150,   0.00057,  -0.00141,481076992.00000,   0.00102,275748352.00000,  -0.00001,  -0.00033,  -0.00083,  96.00000,   2.00000
508687502.16300,417721624.69377,-43149309.48739,   0.00151,   0.00058,  -0.00140,481093792.00000,   0.00103,275766304.00000,   0.00001,  -0.00032,  -0.00084, 128.00000,   2.00000
508718168.66010,418514486.55855,-42135039.74123,   0.00153,   0.00060,  -0.00140,481105824.00000,   0.00105,275784224.00000,   0.00003,  -0.00032,  -0.00085,  64.00000,   2.00000
508739676.09592,419293391.98781,-41131213.19574,   0.00154,   0.00061,  -0.00139,481149216.00000,   0.00107,275802176.00000,   0.00005,  -0.00031,  -0.00086, 160.00000,   2.00000
508751018.63784,420058374.16428,-40141078.43472,   0.00156,   0.00062,  -0.00139,481162048.00000,   0.00108,275820128.00000,   0.00006,  -0.00030,  -0.00086, 128.00000,   2.00000
508755834.05669,420802140.39008,-39166295.16960,   0.00157,   0.00064,  -0.00138,481197536.00000,   0.00110,275838080.00000,   0.00008,  -0.00029,  -0.00087,  64.00000,   2.00000
508755470.03657,421526971.08955,-38202095.73404,   0.00159,   0.00065,  -0.00137,481200320.00000,   0.00112,275856000.00000,   0.00010,  -0.00028,  -0.00088,  96.00000,   2.00000
508743605.88879,422241158.07548,-37253456.50722,   0.00161,   0.00066,  -0.00137,481233376.00000,   0.00113,275873920.00000,   0.00012,  -0.00027,  -0.00088,  64.00000,   2.00000
508723773.40467,422943598.61865,-36314368.05658,   0.00162,   0.00067,  -0.00136,481244832.00000,   0.00115,275891808.00000,   0.00013,  -0.00026,  -0.00089, 128.00000,   2.00000
508698860.36625,423626392.44159,-35390545.72701,   0.00164,   0.00069,  -0.00136,481279936.00000,   0.00117,275909728.00000,   0.00015,  -0.00025,  -0.00090, 128.00000,   2.00000
508665440.94328,424297490.44554,-34479876.97831,   0.00165,   0.00070,  -0.00135,481292448.00000,   0.00118,275927616.00000,   0.00017,  -0.00024,  -0.00090, 192.00000,   2.00000
508626205.06092,424954045.73278,-33581247.58120,   0.00167,   0.00071,  -0.00135,481315680.00000,   0.00120,275945504.00000,   0.00018,  -0.00023,  -0.00091, 128.00000,   2.00000
508581298.48144,425596450.85213,-32694486.07466,   0.00169,   0.00073,  -0.00134,481339104.00000,   0.00122,275963392.00000,   0.00020,  -0.00022,  -0.00091, 256.00000,   2.00000
508527635.09231,426231555.71043,-31818723.27417,   0.00170,   0.00074,  -0.00133,481371168.00000,   0.00123,275981312.00000,   0.00022,  -0.00021,  -0.00092,  96.00000,   2.00000
508469800.89969,426850466.75584,-30955990.86937,   0.00172,   0.00075,  -0.00133,481374880.00000,   0.00125,275999168.00000,   0.00024,  -0.00020,  -0.00093,  96.00000,   2.00000
508409540.76123,427453365.72652,-30103724.51120,   0.00173,   0.00077,  -0.00132,481408864.00000,   0.00127,276017056.00000,   0.00025,  -0.00019,  -0.00093, 160.00000,   2.00000
508339784.41582,428050928.08660,-29264120.77790,   0.00175,   0.00078,  -0.00132,481410656.00000,   0.00128,276034848.00000,   0.00027,  -0.00018,  -0.00094, 160.00000,   2.00000
508267172.48532,428632619.39139,-28438496.93097,   0.00176,   0.00079,  -0.00131,481445184.00000,   0.00130,276052704.00000,   0.00029,  -0.00017,  -0.00094, 224.00000,   2.00000
508187817.25400,429206376.16940,-27624225.10582,   0.00178,   0.00080,  -0.00130,481457600.00000,   0.00132,276070496.00000,   0.00030,  -0.00016,  -0.00095, 128.00000,   2.00000
508101735.00142,429775994.40140,-26815856.14779,   0.00180,   0.00082,  -0.00130,481488768.00000,   0.00133,276088320.00000,   0.00032,  -0.00015,  -0.00095, 160.00000,   2.00000
508014325.27845,430327961.75980,-26022279.74695,   0.00181,   0.00083,  -0.00129,481503520.00000,   0.00135,276106112.00000,   0.00034,  -0.00014,  -0.00095, 192.00000,   2.00000
507920777.50753,430873070.70992,-25239472.24565,   0.00183,   0.00084,  -0.00129,481515360.00000,   0.00137,276123872.00000,   0.00036,  -0.00013,  -0.00096,  96.00000,   2.00000
507822853.12707,431407353.13026,-24470527.34100,   0.00184,   0.00086,  -0.00128,481538624.00000,   0.00138,276141632.00000,   0.00037,  -0.00012,  -0.00096, 192.00000,   2.00000
507719775.81180,431935729.04738,-23708083.43140,   0.00186,   0.00087,  -0.00128,481549440.00000,   0.00140,276159360.00000,   0.00039,  -0.00011,  -0.00097,  64.00000,   2.00000
507613154.08131,432454013.74827,-22955360.58348,   0.00187,   0.00088,  -0.00127,481571648.00000,   0.00141,276177088.00000,   0.00041,  -0.00009,  -0.00097, -32.00000,   2.00000
507502964.07492,432962246.32435,-22216242.86504,   0.00189,   0.00090,  -0.00126,481593952.00000,   0.00143,276194816.00000,   0.00042,  -0.00008,  -0.00098, 192.00000,   2.00000
507387141.54026,433464384.83884,-21487215.19270,   0.00190,   0.00091,  -0.00126,481604736.00000,   0.00145,276212480.00000,   0.00044,  -0.00007,  -0.00098, 128.00000,   2.00000
507268433.59238,433957348.06580,-20767571.76024,   0.00192,   0.00092,  -0.00125,481626016.00000,   0.00146,276230176.00000,   0.00046,  -0.00006,  -0.00098,  32.00000,   2.00000
507144535.03105,434445193.31164,-20057697.71769,   0.00194,   0.00094,  -0.00125,481636256.00000,   0.00148,276247808.00000,   0.00048,  -0.00005,  -0.00099,  96.00000,   2.00000
507017381.87627,434924409.70103,-19360776.61214,   0.00195,   0.00095,  -0.00124,481657632.00000,   0.00150,276265440.00000,   0.00049,  -0.00004,  -0.00099, 160.00000,   2.00000
506885752.77088,435400097.17706,-18669184.49084,   0.00197,   0.00096,  -0.00124,481666816.00000,   0.00151,276283072.00000,   0.00051,  -0.00003,  -0.00099,  64.00000,   2.00000
506751161.64129,435868160.81080,-17990179.42650,   0.00198,   0.00097,  -0.00123,481687872.00000,   0.00153,276300672.00000,   0.00053,  -0.00002,  -0.00100,  64.00000,   2.00000
506617779.12831,436323026.58529,-17320100.77494,   0.00200,   0.00099,  -0.00122,481699168.00000,   0.00155,276318240.00000,   0.00054,  -0.00001,  -0.00100, -32.00000,   2.00000
506473864.15809,436783520.59722,-16659132.47786,   0.00201,   0.00100,  -0.00122,481706784.00000,   0.00156,276335776.00000,   0.00056,   0.00000,  -0.00100,  32.00000,   2.00000
506330112.91791,437231371.20446,-16010401.27429,   0.00203,   0.00101,  -0.00121,481738432.00000,   0.00158,276353344.00000,   0.00058,   0.00001,  -0.00101,  32.00000,   2.00000
506186704.54874,437667880.60249,-15367407.98311,   0.00204,   0.00103,  -0.00121,481738240.00000,   0.00160,276370848.00000,   0.00059,   0.00002,  -0.00101,  64.00000,   2.00000
506039569.01135,438097473.83878,-14737854.68380,   0.00206,   0.00104,  -0.00120,481747776.00000,   0.00161,276388320.00000,   0.00061,   0.00003,  -0.00101,   0.00000,   2.00000
505886034.69280,438525997.03489,-14117445.44544,   0.00207,   0.00105,  -0.00120,481765856.00000,   0.00163,276405760.00000,   0.00063,   0.00004,  -0.00101,  64.00000,   2.00000
505735623.04910,438937684.51910,-13510281.31043,   0.00209,   0.00106,  -0.00119,481776896.00000,   0.00164,276423200.00000,   0.00064,   0.00005,  -0.00102, -32.00000,   2.00000
505585629.12615,439339599.95255,-12907896.07737,   0.00210,   0.00108,  -0.00119,481796256.00000,   0.00166,276440608.00000,   0.00066,   0.00006,  -0.00102,   0.00000,   2.00000
505432688.93374,439735320.97079,-12318325.30883,   0.00212,   0.00109,  -0.00118,481805472.00000,   0.00168,276458016.00000,   0.00068,   0.00008,  -0.00102, 128.00000,   2.00000
505277197.33173,440125914.45938,-11737258.00552,   0.00213,   0.00110,  -0.00117,481814240.00000,   0.00169,276475360.00000,   0.00069,   0.00009,  -0.00102,  96.00000,   2.00000
505119077.08681,440512035.33537,-11164404.62763,   0.00215,   0.00112,  -0.00117,481822752.00000,   0.00171,276492672.00000,   0.00071,   0.00010,  -0.00102, 128.00000,   2.00000
504964136.89258,440884582.46042,-10603418.69788,   0.00216,   0.00113,  -0.00116,481833376.00000,   0.00173,276509952.00000,   0.00073,   0.00011,  -0.00103, 192.00000,   2.00000
504802796.31822,441259553.39691,-10049893.61501,   0.00218,   0.00114,  -0.00116,481850880.00000,   0.00174,276527232.00000,   0.00074,   0.00012,  -0.00103,  64.00000,   2.00000
504644839.05427,441621979.93688,-9503838.16177,   0.00219,   0.00116,  -0.00115,481860928.00000,   0.00176,276544448.00000,   0.00076,   0.00013,  -0.00103, 192.00000,   2.00000
504484211.62934,441981808.15152,-8965127.92560,   0.00221,   0.00117,  -0.00115,481869088.00000,   0.00177,276561664.00000,   0.00078,   0.00014,  -0.00103, 192.00000,   2.00000
504320564.46099,442338889.24014,-8437567.86703,   0.00222,   0.00118,  -0.00114,481877504.00000,   0.00179,276578848.00000,   0.00079,   0.00015,  -0.00103, 128.00000,   2.00000
504154178.62533,442693559.13518,-7917000.58081,   0.00224,   0.00119,  -0.00114,481885632.00000,   0.00181,276595968.00000,   0.00081,   0.00016,  -0.00103,  32.00000,   2.00000
503987822.13762,443042318.81601,-7403094.33319,   0.00225,   0.00121,  -0.00113,481904160.00000,   0.00182,276613088.00000,   0.00082,   0.00017,  -0.00103,  96.00000,   2.00000
503818860.23494,443388966.17865,-6895916.88971,   0.00227,   0.00122,  -0.00113,481912064.00000,   0.00184,276630208.00000,   0.00084,   0.00018,  -0.00104,  32.00000,   2.00000
503651117.19986,443728052.65644,-6399436.77258,   0.00228,   0.00123,  -0.00112,481910656.00000,   0.00185,276647232.00000,   0.00086,   0.00020,  -0.00104,  96.00000,   2.00000
503476943.70326,444070749.34762,-5909192.73714,   0.00230,   0.00125,  -0.00111,481927744.00000,   0.00187,276664256.00000,   0.00087,   0.00021,  -0.00104,  32.00000,   2.00000
503304272.24335,444406276.29496,-5425315.82960,   0.00231,   0.00126,  -0.00111,481925984.00000,   0.00189,276681184.00000,   0.00089,   0.00022,  -0.00104,  96.00000,   2.00000
503131547.72793,444736263.56005,-4951343.12628,   0.00233,   0.00127,  -0.00110,481944192.00000,   0.00190,276698144.00000,   0.00091,   0.00023,  -0.00104,  32.00000,   2.00000
502956626.23634,445065021.14941,-4483252.81416,   0.00234,   0.00128,  -0.00110,481951488.00000,   0.00192,276715072.00000,   0.00092,   0.00024,  -0.00104,  96.00000,   2.00000
502779344.39107,445392500.21189,-4020886.21008,   0.00236,   0.00130,  -0.00109,481958656.00000,   0.00193,276731936.00000,   0.00094,   0.00025,  -0.00104, 192.00000,   2.00000
502603264.16852,445713099.11382,-3568145.22060,   0.00237,   0.00131,  -0.00109,481956448.00000,   0.00195,276748768.00000,   0.00095,   0.00026,  -0.00104, -32.00000,   2.00000
502427596.56224,446029051.12068,-3120672.54429,   0.00239,   0.00132,  -0.00108,481973792.00000,   0.00196,276765568.00000,   0.00097,   0.00027,  -0.00104, -32.00000,   2.00000
502243351.30777,446353556.44841,-2678435.76152,   0.00240,   0.00134,  -0.00108,481978912.00000,   0.00198,276782336.00000,   0.00098,   0.00028,  -0.00104, 128.00000,   2.00000
502060434.86589,446671491.03308,-2241353.59574,   0.00241,   0.00135,  -0.00107,481976224.00000,   0.00200,276799040.00000,   0.00100,   0.00029,  -0.00104,  64.00000,   2.00000
501881758.49708,446979406.15176,-1813208.85886,   0.00243,   0.00136,  -0.00107,481983712.00000,   0.00201,276815712.00000,   0.00102,   0.00031,  -0.00104,  64.00000,   2.00000
501697211.90621,447292217.75737,-1389852.10036,   0.00244,   0.00137,  -0.00106,481998912.00000,   0.00203,276832384.00000,   0.00103,   0.00032,  -0.00104,  96.00000,   2.00000
501514262.29089,447598693.20698,-975295.09303,   0.00246,   0.00139,  -0.00106,481995520.00000,   0.00204,276848992.00000,   0.00105,   0.00033,  -0.00104,  32.00000,   2.00000
501326920.86326,447908405.35410,-565485.42919,   0.00247,   0.00140,  -0.00105,481990464.00000,   0.00206,276865536.00000,   0.00106,   0.00034,  -0.00104, 160.00000,   2.00000
501140381.97966,448213311.58027,-160370.11415,   0.00248,   0.00141,  -0.00105,482006624.00000,   0.00207,276882048.00000,   0.00108,   0.00035,  -0.00104, 160.00000,   2.00000
500952295.68910,448517220.89048,235974.59719,   0.00250,   0.00142,  -0.00104,482012224.00000,   0.00209,276898560.00000,   0.00109,   0.00036,  -0.00104,  32.00000,   2.00000
500762864.00651,448819912.86920,627455.08747,   0.00251,   0.00144,  -0.00104,482017760.00000,   0.00211,276915008.00000,   0.00111,   0.00037,  -0.00104,  64.00000,   2.00000
500576043.13073,449115715.10152,1013927.19431,   0.00253,   0.00145,  -0.00103,482013920.00000,   0.00212,276931392.00000,   0.00113,   0.00038,  -0.00104, 128.00000,   2.00000
500388382.89036,449409958.34332,1395207.52235,   0.00254,   0.00146,  -0.00103,482019616.00000,   0.00214,276947744.00000,   0.00114,   0.00039,  -0.00104, 192.00000,   2.00000
500199995.21717,449702296.76456,1767126.84472,   0.00255,   0.00148,  -0.00102,482025472.00000,   0.00215,276964064.00000,   0.00116,   0.00040,  -0.00104,  96.00000,   2.00000
500012083.20045,449991021.73204,2129645.44348,   0.00257,   0.00149,  -0.00102,482011648.00000,   0.00217,276980288.00000,   0.00117,   0.00042,  -0.00104,  32.00000,   2.00000
499822841.76723,450279021.34173,2486392.50891,   0.00258,   0.00150,  -0.00101,482037920.00000,   0.00218,276996544.00000,   0.00119,   0.00043,  -0.00104,   0.00000,   2.00000
499637358.33244,450559582.03965,2837436.38778,   0.00260,   0.00151,  -0.00101,482035232.00000,   0.00220,277012704.00000,   0.00120,   0.00044,  -0.00104,  32.00000,   2.00000
499448643.74791,450841574.82829,3182745.06664,   0.00261,   0.00153,  -0.00100,482031968.00000,   0.00221,277028832.00000,   0.00122,   0.00045,  -0.00104,  64.00000,   2.00000
499266412.33731,451112397.66336,3518305.56140,   0.00262,   0.00154,  -0.00100,482040512.00000,   0.00223,277044896.00000,   0.00123,   0.00046,  -0.00104, -32.00000,   2.00000
499080877.47705,451385192.61319,3848376.70479,   0.00264,   0.00155,  -0.00099,482037664.00000,   0.00224,277060896.00000,   0.00125,   0.00047,  -0.00104,  64.00000,   2.00000
498890976.94153,451661553.02597,4168942.82250,   0.00265,   0.00156,  -0.00099,482054720.00000,   0.00226,277076896.00000,   0.00126,   0.00048,  -0.00104,   0.00000,   2.00000
498707992.52015,451926191.34813,4484692.34377,   0.00266,   0.00158,  -0.00098,482043968.00000,   0.00227,277092800.00000,   0.00128,   0.00049,  -0.00104,  96.00000,   2.00000
498520042.34587,452195045.74565,4795539.49767,   0.00268,   0.00159,  -0.00098,482061440.00000,   0.00229,277108704.00000,   0.00129,   0.00050,  -0.00104, -96.00000,   2.00000
498334886.15271,452458357.74556,5098161.48706,   0.00269,   0.00160,  -0.00097,482059712.00000,   0.00230,277124544.00000,   0.00130,   0.00051,  -0.00104,  96.00000,   2.00000
498148179.30194,452721467.78978,5392809.48833,   0.00270,   0.00161,  -0.00097,482067424.00000,   0.00232,277140320.00000,   0.00132,   0.00053,  -0.00104,  64.00000,   2.00000
497956591.27761,452988328.09453,5687967.80164,   0.00272,   0.00163,  -0.00096,482064576.00000,   0.00233,277156064.00000,   0.00133,   0.00054,  -0.00104,  64.00000,   2.00000
497767152.20961,453250489.64486,5975938.66165,   0.00273,   0.00164,  -0.00096,482062176.00000,   0.00235,277171712.00000,   0.00135,   0.00055,  -0.00103,  32.00000,   2.00000
497572028.94038,453518471.17320,6256697.02870,   0.00274,   0.00165,  -0.00095,482078336.00000,   0.00236,277187360.00000,   0.00136,   0.00056,  -0.00103, -32.00000,   2.00000
497382584.57716,453776800.96985,6538916.25051,   0.00276,   0.00166,  -0.00095,482066176.00000,   0.00238,277202944.00000,   0.00138,   0.00057,  -0.00103,  32.00000,   2.00000
497187469.27530,454041306.95781,6810281.39226,   0.00277,   0.00168,  -0.00094,482081696.00000,   0.00239,277218496.00000,   0.00139,   0.00058,  -0.00103,  64.00000,   2.00000
496991178.84702,454305305.47844,7083441.68947,   0.00278,   0.00169,  -0.00094,482067840.00000,   0.00241,277233952.00000,   0.00141,   0.00059,  -0.00103,  64.00000,   2.00000
496793213.73276,454570384.58395,7346130.44577,   0.00279,   0.00170,  -0.00093,482073248.00000,   0.00242,277249376.00000,   0.00142,   0.00060,  -0.00103,  96.00000,   2.00000
496593288.09203,454836212.80906,7610382.66076,   0.00281,   0.00171,  -0.00093,482078912.00000,   0.00244,277264736.00000,   0.00143,   0.00061,  -0.00103,  64.00000,   2.00000
496392679.94871,455101810.68566,7868635.27575,   0.00282,   0.00173,  -0.00092,482064064.00000,   0.00245,277280032.00000,   0.00145,   0.00062,  -0.00103,  32.00000,   2.00000
496186524.94439,455373283.75249,8124303.67857,   0.00283,   0.00174,  -0.00092,482078752.00000,   0.00246,277295328.00000,   0.00146,   0.00063,  -0.00102,  64.00000,   2.00000
495986766.52762,455635523.03878,8374007.39907,   0.00284,   0.00175,  -0.00091,482064736.00000,   0.00248,277310496.00000,   0.00148,   0.00065,  -0.00102,  64.00000,   2.00000
495781617.61681,455903619.22224,8621142.33882,   0.00286,   0.00176,  -0.00091,482079296.00000,   0.00249,277325696.00000,   0.00149,   0.00066,  -0.00102, 128.00000,   2.00000
495575912.66009,456171237.34071,8862383.29554,   0.00287,   0.00178,  -0.00091,482064160.00000,   0.00251,277340768.00000,   0.00150,   0.00067,  -0.00102, -32.00000,   2.00000
495365763.64023,456443353.70169,9101537.55862,   0.00288,   0.00179,  -0.00090,482058496.00000,   0.00252,277355776.00000,   0.00152,   0.00068,  -0.00102, 128.00000,   2.00000
495161422.72299,456707341.79405,9334362.62804,   0.00289,   0.00180,  -0.00090,482064032.00000,   0.00254,277370752.00000,   0.00153,   0.00069,  -0.00102, 128.00000,   2.00000
494952510.85135,456975669.57242,9565146.11638,   0.00291,   0.00181,  -0.00089,482058432.00000,   0.00255,277385664.00000,   0.00154,   0.00070,  -0.00102,  96.00000,   2.00000
494739176.08022,457248353.80505,9793900.35858,   0.00292,   0.00182,  -0.00089,482052608.00000,   0.00256,277400512.00000,   0.00156,   0.00071,  -0.00101, -64.00000,   2.00000
494528036.50947,457517964.44924,10016140.36193,   0.00293,   0.00184,  -0.00088,482067456.00000,   0.00258,277415328.00000,   0.00157,   0.00072,  -0.00101,   0.00000,   2.00000
494313312.01846,457790796.13904,10236939.14995,   0.00294,   0.00185,  -0.00088,482041920.00000,   0.00259,277430048.00000,   0.00158,   0.00073,  -0.00101, 128.00000,   2.00000
494100481.86568,458060209.57441,10451273.87412,   0.00295,   0.00186,  -0.00087,482056768.00000,   0.00261,277444768.00000,   0.00160,   0.00074,  -0.00101, 128.00000,   2.00000
493887236.37907,458329052.47807,10663992.09538,   0.00296,   0.00187,  -0.00087,482041312.00000,   0.00262,277459360.00000,   0.00161,   0.00075,  -0.00101,  96.00000,   2.00000
493669882.09283,458602466.53280,10870892.64441,   0.00298,   0.00189,  -0.00087,482035168.00000,   0.00263,277473888.00000,   0.00162,   0.00076,  -0.00101, 128.00000,   2.00000
493451297.84695,458876260.61502,11075715.16383,   0.00299,   0.00190,  -0.00086,482039712.00000,   0.00265,277488384.00000,   0.00164,   0.00077,  -0.00100, 224.00000,   2.00000
493235563.08364,459145693.33685,11274787.41842,   0.00300,   0.00191,  -0.00086,482034400.00000,   0.00266,277502848.00000,   0.00165,   0.00078,  -0.00100, -32.00000,   2.00000
493015437.20485,459419451.83334,11472170.94886,   0.00301,   0.00192,  -0.00085,482028416.00000,   0.00267,277517216.00000,   0.00166,   0.00079,  -0.00100,  96.00000,   2.00000
492790775.10172,459697341.93604,11667890.37245,   0.00302,   0.00193,  -0.00085,482022432.00000,   0.00269,277531520.00000,   0.00168,   0.00080,  -0.00100,   0.00000,   2.00000
492569290.82365,459971139.51542,11857993.60200,   0.00303,   0.00195,  -0.00084,482016896.00000,   0.00270,277545728.00000,   0.00169,   0.00081,  -0.00100, -32.00000,   2.00000
492346743.45959,460245486.36649,12042250.46989,   0.00304,   0.00196,  -0.00084,482020832.00000,   0.00271,277559936.00000,   0.00170,   0.00082,  -0.00100, -96.00000,   2.00000
492119747.93383,460524100.35486,12225020.27929,   0.00306,   0.00197,  -0.00084,482014848.00000,   0.00273,277574080.00000,   0.00171,   0.00084,  -0.00099,  32.00000,   2.00000
491892228.17140,460802131.28238,12406638.49637,   0.00307,   0.00198,  -0.00083,481999072.00000,   0.00274,277588096.00000,   0.00173,   0.00085,  -0.00099,   0.00000,   2.00000
491663932.51467,461080939.76126,12582535.19906,   0.00308,   0.00199,  -0.00083,482002848.00000,   0.00275,277602112.00000,   0.00174,   0.00086,  -0.00099,   0.00000,   2.00000
491434826.51796,461358985.38787,12757384.76534,   0.00309,   0.00201,  -0.00082,481987200.00000,   0.00277,277616000.00000,   0.00175,   0.00087,  -0.00099, 128.00000,   2.00000
491204873.86940,461637784.41695,12926605.98584,   0.00310,   0.00202,  -0.00082,481990976.00000,   0.00278,277629888.00000,   0.00176,   0.00088,  -0.00099,  64.00000,   2.00000
490970487.02025,461920939.94563,13094577.62915,   0.00311,   0.00203,  -0.00081,481984544.00000,   0.00279,277643680.00000,   0.00178,   0.00089,  -0.00098, 224.00000,   2.00000
490735588.39490,462203667.66646,13257683.85093,   0.00312,   0.00204,  -0.00081,481968480.00000,   0.00281,277657376.00000,   0.00179,   0.00090,  -0.00098,   0.00000,   2.00000
490499616.31400,462486920.09146,13419286.50096,   0.00313,   0.00205,  -0.00081,481972224.00000,   0.00282,277671040.00000,   0.00180,   0.00091,  -0.00098,  64.00000,   2.00000
490259187.45296,462774537.42829,13575793.71509,   0.00314,   0.00207,  -0.00080,481965600.00000,   0.00283,277684640.00000,   0.00181,   0.00092,  -0.00098,  32.00000,   2.00000
490018245.82784,463061791.19339,13731592.47737,   0.00315,   0.00208,  -0.00080,481949312.00000,   0.00285,277698144.00000,   0.00183,   0.00093,  -0.00098,  32.00000,   2.00000
489780309.35166,463345016.71145,13882379.52179,   0.00316,   0.00209,  -0.00079,481943136.00000,   0.00286,277711584.00000,   0.00184,   0.00094,  -0.00098,  32.00000,   2.00000
489533762.96417,463637199.01541,14031855.76452,   0.00317,   0.00210,  -0.00079,481946208.00000,   0.00287,277724960.00000,   0.00185,   0.00095,  -0.00097, 128.00000,   2.00000
489290162.62176,463925274.97979,14176412.54948,   0.00318,   0.00211,  -0.00079,481939776.00000,   0.00288,277738304.00000,   0.00186,   0.00096,  -0.00097, -32.00000,   2.00000
489045857.47291,464213012.34310,14320466.95692,   0.00319,   0.00213,  -0.00078,481923424.00000,   0.00290,277751552.00000,   0.00187,   0.00097,  -0.00097,   0.00000,   2.00000
488796864.27976,464505062.79817,14463683.44928,   0.00320,   0.00214,  -0.00078,481916736.00000,   0.00291,277764704.00000,   0.00188,   0.00098,  -0.00097,  64.00000,   2.00000
488543409.73530,464801598.72712,14602117.41042,   0.00321,   0.00215,  -0.00078,481909728.00000,   0.00292,277777824.00000,   0.00190,   0.00099,  -0.00097,   0.00000,   2.00000
488293046.95888,465094257.87644,14735819.49943,   0.00322,   0.00216,  -0.00077,481903008.00000,   0.00293,277790848.00000,   0.00191,   0.00100,  -0.00096,  96.00000,   2.00000
488037779.51851,465391066.42486,14868830.17786,   0.00323,   0.00217,  -0.00077,481896288.00000,   0.00295,277803840.00000,   0.00192,   0.00101,  -0.00096,  64.00000,   2.00000
487781688.02407,465687548.62743,15001558.28369,   0.00324,   0.00218,  -0.00076,481879520.00000,   0.00296,277816704.00000,   0.00193,   0.00102,  -0.00096,   0.00000,   2.00000
487521137.96325,465988620.80464,15129679.64894,   0.00325,   0.00220,  -0.00076,481872128.00000,   0.00297,277829504.00000,   0.00194,   0.00103,  -0.00096,  96.00000,   2.00000
487259651.73224,466290372.64024,15252850.05963,   0.00326,   0.00221,  -0.00076,481874976.00000,   0.00298,277842272.00000,   0.00195,   0.00104,  -0.00096,  32.00000,   2.00000
486997288.90250,466591835.34760,15375892.47583,   0.00327,   0.00222,  -0.00075,481858144.00000,   0.00300,277854976.00000,   0.00196,   0.00105,  -0.00095,  96.00000,   2.00000
486733801.63403,466892846.05254,15498821.34513,   0.00328,   0.00223,  -0.00075,481841408.00000,   0.00301,277867552.00000,   0.00197,   0.00106,  -0.00095, 160.00000,   2.00000
486461835.32211,467202979.95673,15616906.94847,   0.00329,   0.00224,  -0.00075,481843488.00000,   0.00302,277880096.00000,   0.00199,   0.00106,  -0.00095,  32.00000,   2.00000
486196699.80147,467504665.43028,15730984.97466,   0.00330,   0.00225,  -0.00074,481826528.00000,   0.00303,277892544.00000,   0.00200,   0.00107,  -0.00095, -64.00000,   2.00000
485922876.96955,467815336.13393,15844301.59570,   0.00331,   0.00227,  -0.00074,481828864.00000,   0.00304,277904960.00000,   0.00201,   0.00108,  -0.00094,  32.00000,   2.00000
485648186.05613,468124982.54283,15958499.07773,   0.00331,   0.00228,  -0.00074,481791904.00000,   0.00305,277917216.00000,   0.00202,   0.00109,  -0.00094,  64.00000,   2.00000
485368613.46150,468439839.87242,16067563.49820,   0.00332,   0.00229,  -0.00073,481803968.00000,   0.00307,277929472.00000,   0.00203,   0.00110,  -0.00094, 160.00000,   2.00000
485087825.95388,468754291.60112,16176757.66228,   0.00333,   0.00230,  -0.00073,481786816.00000,   0.00308,277941632.00000,   0.00204,   0.00111,  -0.00094,  64.00000,   2.00000
484809929.23960,469064957.79256,16281708.44927,   0.00334,   0.00231,  -0.00072,481779168.00000,   0.00309,277953728.00000,   0.00205,   0.00112,  -0.00094,  96.00000,   2.00000
484523703.96268,469384201.52469,16382921.37365,   0.00335,   0.00232,  -0.00072,481761056.00000,   0.00310,277965728.00000,   0.00206,   0.00113,  -0.00093,  64.00000,   2.00000
484235580.86344,469703259.37479,16487499.30572,   0.00336,   0.00233,  -0.00072,481764064.00000,   0.00311,277977696.00000,   0.00207,   0.00114,  -0.00093,   0.00000,   2.00000
483943247.33946,470026670.89298,16584826.22166,   0.00337,   0.00234,  -0.00071,481735520.00000,   0.00312,277989504.00000,   0.00208,   0.00115,  -0.00093, -64.00000,   2.00000
483649600.99753,470350470.46444,16681621.69971,   0.00337,   0.00236,  -0.00071,481737728.00000,   0.00314,278001312.00000,   0.00209,   0.00116,  -0.00093,  32.00000,   2.00000
483354583.59406,470673970.45419,16778760.87094,   0.00338,   0.00237,  -0.00071,481720224.00000,   0.00315,278013024.00000,   0.00210,   0.00117,  -0.00093,  64.00000,   2.00000
483054640.31247,471001951.03163,16871861.56339,   0.00339,   0.00238,  -0.00070,481712000.00000,   0.00316,278024672.00000,   0.00211,   0.00118,  -0.00092,   0.00000,   2.00000
482753463.31779,471329837.83493,16965380.14940,   0.00340,   0.00239,  -0.00070,481694240.00000,   0.00317,278036224.00000,   0.00212,   0.00119,  -0.00092,   0.00000,   2.00000
482447344.31949,471662239.21987,17054921.12385,   0.00341,   0.00240,  -0.00070,481685824.00000,   0.00318,278047712.00000,   0.00213,   0.00120,  -0.00092, 128.00000,   2.00000
482139700.70918,471994347.14315,17144932.68495,   0.00341,   0.00241,  -0.00069,481668064.00000,   0.00319,278059104.00000,   0.00214,   0.00121,  -0.00092,  32.00000,   2.00000
481827268.56032,472331170.73618,17231032.27380,   0.00342,   0.00242,  -0.00069,481659488.00000,   0.00320,278070432.00000,   0.00215,   0.00121,  -0.00092, 224.00000,   2.00000
481513023.13794,472667503.18025,17317653.32979,   0.00343,   0.00243,  -0.00069,481641504.00000,   0.00321,278081664.00000,   0.00216,   0.00122,  -0.00091, -64.00000,   2.00000
481194003.49837,473008623.75976,17400420.97708,   0.00344,   0.00245,  -0.00069,481632768.00000,   0.00322,278092800.00000,   0.00217,   0.00123,  -0.00091, 160.00000,   2.00000
480877092.51667,473345492.63357,17483315.32925,   0.00344,   0.00246,  -0.00068,481624832.00000,   0.00323,278103904.00000,   0.00218,   0.00124,  -0.00091,  64.00000,   2.00000
480551462.74676,473691108.18708,17562870.56124,   0.00345,   0.00247,  -0.00068,481605984.00000,   0.00324,278114912.00000,   0.00219,   0.00125,  -0.00091, 256.00000,   2.00000
480219990.50162,474040511.21151,17642608.07325,   0.00346,   0.00248,  -0.00068,481597792.00000,   0.00325,278125856.00000,   0.00220,   0.00126,  -0.00091, 160.00000,   2.00000
479886807.41317,474389716.90043,17723003.52057,   0.00346,   0.00249,  -0.00067,481579616.00000,   0.00326,278136736.00000,   0.00220,   0.00127,  -0.00090,  32.00000,   2.00000
479556759.58901,474735811.60808,17795677.38896,   0.00347,   0.00250,  -0.00067,481570176.00000,   0.00328,278147520.00000,   0.00221,   0.00128,  -0.00090,   0.00000,   2.00000
479216665.53234,475089552.58403,17873070.27805,   0.00348,   0.00251,  -0.00067,481552032.00000,   0.00329,278158208.00000,   0.00222,   0.00128,  -0.00090,   0.00000,   2.00000
478875191.63494,475443626.33781,17947219.55659,   0.00348,   0.00252,  -0.00066,481533184.00000,   0.00330,278168800.00000,   0.00223,   0.00129,  -0.00090,  64.00000,   2.00000
478528482.96619,475802310.35183,18017706.11204,   0.00349,   0.00253,  -0.00066,481524064.00000,   0.00331,278179328.00000,   0.00224,   0.00130,  -0.00090, 224.00000,   2.00000
478179677.79429,476160729.65808,18088986.38552,   0.00350,   0.00254,  -0.00066,481505728.00000,   0.00332,278189792.00000,   0.00225,   0.00131,  -0.00089,  32.00000,   2.00000
477824952.31097,476523155.75668,18160608.35465,   0.00350,   0.00256,  -0.00066,481496800.00000,   0.00333,278200160.00000,   0.00226,   0.00132,  -0.00089,  32.00000,   2.00000
477468794.32911,476886096.70609,18229090.75185,   0.00351,   0.00257,  -0.00065,481477760.00000,   0.00334,278210464.00000,   0.00227,   0.00133,  -0.00089, -96.00000,   2.00000
477107163.89330,477253576.87894,18293995.51531,   0.00351,   0.00258,  -0.00065,481468480.00000,   0.00335,278220672.00000,   0.00227,   0.00134,  -0.00089,  32.00000,   2.00000
476735386.29757,477628917.46473,18359793.12147,   0.00352,   0.00259,  -0.00065,481449664.00000,   0.00335,278230816.00000,   0.00228,   0.00134,  -0.00089,   0.00000,   2.00000
476369547.02912,477996304.18201,18426497.08669,   0.00353,   0.00260,  -0.00064,481430784.00000,   0.00336,278240832.00000,   0.00229,   0.00135,  -0.00088, 160.00000,   2.00000
475989992.64548,478376105.98713,18489664.80480,   0.00353,   0.00261,  -0.00064,481421568.00000,   0.00337,278250816.00000,   0.00230,   0.00136,  -0.00088, 128.00000,   2.00000
475616172.32655,478747874.79589,18553776.93286,   0.00354,   0.00262,  -0.00064,481402592.00000,   0.00338,278260704.00000,   0.00231,   0.00137,  -0.00088,   0.00000,   2.00000
475232546.34123,479128195.20691,18614876.85244,   0.00354,   0.00263,  -0.00064,481383008.00000,   0.00339,278270496.00000,   0.00232,   0.00138,  -0.00088, 160.00000,   2.00000
474843077.61677,479512915.48207,18672510.89532,   0.00355,   0.00264,  -0.00063,481373600.00000,   0.00340,278280224.00000,   0.00232,   0.00139,  -0.00088,   0.00000,   2.00000
474450872.04743,479897312.11315,18735138.14787,   0.00355,   0.00265,  -0.00063,481354880.00000,   0.00341,278289856.00000,   0.00233,   0.00139,  -0.00087, 192.00000,   2.00000
474052522.91076,480285904.75186,18794298.54538,   0.00356,   0.00266,  -0.00063,481345536.00000,   0.00342,278299424.00000,   0.00234,   0.00140,  -0.00087,   0.00000,   2.00000
473652363.34106,480675252.55888,18850533.40194,   0.00356,   0.00267,  -0.00063,481325568.00000,   0.00343,278308928.00000,   0.00235,   0.00141,  -0.00087, 160.00000,   2.00000
473249461.79656,481064515.90769,18907821.26828,   0.00357,   0.00268,  -0.00062,481306368.00000,   0.00344,278318304.00000,   0.00235,   0.00142,  -0.00087,  64.00000,   2.00000
472836398.15095,481462347.52196,18962205.33320,   0.00357,   0.00269,  -0.00062,481286624.00000,   0.00345,278327616.00000,   0.00236,   0.00143,  -0.00087, 160.00000,   2.00000
472416650.20336,481863984.38380,19017188.09124,   0.00358,   0.00270,  -0.00062,481277472.00000,   0.00346,278336864.00000,   0.00237,   0.00143,  -0.00086, 160.00000,   2.00000
471994096.14743,482265605.87166,19073264.75663,   0.00358,   0.00272,  -0.00061,481258016.00000,   0.00347,278346016.00000,   0.00238,   0.00144,  -0.00086, -64.00000,   2.00000
471569376.75099,482667981.18495,19126480.35465,   0.00359,   0.00273,  -0.00061,481237920.00000,   0.00347,278355072.00000,   0.00238,   0.00145,  -0.00086, -96.00000,   2.00000
471138378.64214,483074771.62835,19176361.81780,   0.00359,   0.00274,  -0.00061,481228096.00000,   0.00348,278364064.00000,   0.00239,   0.00146,  -0.00086,  64.00000,   2.00000
470704031.45779,483481242.50072,19231368.69760,   0.00360,   0.00275,  -0.00061,481209088.00000,   0.00349,278372960.00000,   0.00240,   0.00146,  -0.00086,   0.00000,   2.00000
470259275.63622,483896431.58666,19279550.67907,   0.00360,   0.00276,  -0.00060,481188736.00000,   0.00350,278381792.00000,   0.00240,   0.00147,  -0.00086,  32.00000,   2.00000
469811135.44102,484311370.60206,19332886.42205,   0.00360,   0.00277,  -0.00060,481169664.00000,   0.00351,278390528.00000,   0.00241,   0.00148,  -0.00085,  96.00000,   2.00000
469360644.83192,484727242.97696,19379429.85191,   0.00361,   0.00278,  -0.00060,481148928.00000,   0.00352,278399136.00000,   0.00242,   0.00149,  -0.00085, -64.00000,   2.00000
468902892.15824,485146771.15665,19430659.37243,   0.00361,   0.00279,  -0.00060,481139744.00000,   0.00352,278407712.00000,   0.00242,   0.00149,  -0.00085, 160.00000,   2.00000
468433916.87336,485574433.36853,19479073.96823,   0.00362,   0.00280,  -0.00060,481119872.00000,   0.00353,278416224.00000,   0.00243,   0.00150,  -0.00085, 160.00000,   2.00000
467965849.72211,485998889.22948,19525210.25840,   0.00362,   0.00281,  -0.00059,481089440.00000,   0.00354,278424576.00000,   0.00244,   0.00151,  -0.00085,  32.00000,   2.00000
467486763.91775,486430898.53828,19571566.63764,   0.00362,   0.00282,  -0.00059,481089760.00000,   0.00355,278432896.00000,   0.00244,   0.00152,  -0.00085, -32.00000,   2.00000
467008341.29335,486859638.24906,19619652.86858,   0.00363,   0.00283,  -0.00059,481059488.00000,   0.00356,278441120.00000,   0.00245,   0.00152,  -0.00084,  32.00000,   2.00000
466518232.68223,487296354.89418,19664947.34192,   0.00363,   0.00284,  -0.00059,481039584.00000,   0.00356,278449248.00000,   0.00246,   0.00153,  -0.00084, -32.00000,   2.00000
466025452.66259,487733032.47890,19710493.81862,   0.00363,   0.00285,  -0.00058,481039488.00000,   0.00357,278457344.00000,   0.00246,   0.00154,  -0.00084,   0.00000,   2.00000
465524975.34434,488174349.14929,19753781.44153,   0.00364,   0.00286,  -0.00058,481009216.00000,   0.00358,278465344.00000,   0.00247,   0.00154,  -0.00084,  64.00000,   2.00000
465016003.62970,488619560.67272,19798783.05699,   0.00364,   0.00287,  -0.00058,480979328.00000,   0.00359,278473184.00000,   0.00248,   0.00155,  -0.00084,  64.00000,   2.00000
464504163.15859,489064598.73581,19844033.41143,   0.00364,   0.00288,  -0.00058,480979200.00000,   0.00360,278481024.00000,   0.00248,   0.00156,  -0.00084,  32.00000,   2.00000
463984284.60697,489514205.25731,19887022.58454,   0.00364,   0.00289,  -0.00058,480948768.00000,   0.00360,278488736.00000,   0.00249,   0.00157,  -0.00083,  96.00000,   2.00000
463456667.07679,489967426.40480,19930743.68005,   0.00365,   0.00290,  -0.00057,480938720.00000,   0.00361,278496416.00000,   0.00249,   0.00157,  -0.00083,  64.00000,   2.00000
462920801.45024,490425150.45056,19972206.04086,   0.00365,   0.00291,  -0.00057,480908192.00000,   0.00362,278503936.00000,   0.00250,   0.00158,  -0.00083,  64.00000,   2.00000
462380814.84731,490882892.63646,20014907.57296,   0.00365,   0.00292,  -0.00057,480887904.00000,   0.00362,278511392.00000,   0.00250,   0.00159,  -0.00083,  32.00000,   2.00000
461832964.31254,491344254.16160,20058334.95835,   0.00365,   0.00293,  -0.00057,480877696.00000,   0.00363,278518784.00000,   0.00251,   0.00159,  -0.00083,  32.00000,   2.00000
461281433.59288,491806247.30613,20099017.16094,   0.00366,   0.00294,  -0.00056,480856896.00000,   0.00364,278526112.00000,   0.00252,   0.00160,  -0.00083,  32.00000,   2.00000
460716906.13252,492275530.69308,20140895.63360,   0.00366,   0.00295,  -0.00056,480837152.00000,   0.00365,278533312.00000,   0.00252,   0.00161,  -0.00082,  32.00000,   2.00000
460148513.88596,492745360.78118,20180024.77463,   0.00366,   0.00296,  -0.00056,480816128.00000,   0.00365,278540448.00000,   0.00253,   0.00161,  -0.00082, 128.00000,   2.00000
459575648.51237,493215185.17604,20220382.29782,   0.00366,   0.00297,  -0.00056,480795520.00000,   0.00366,278547520.00000,   0.00253,   0.00162,  -0.00082, -64.00000,   2.00000
458990055.67213,493692810.05065,20257950.65611,   0.00366,   0.00298,  -0.00056,480775168.00000,   0.00367,278554464.00000,   0.00254,   0.00162,  -0.00082,   0.00000,   2.00000
458399469.64923,494169976.16730,20300719.19457,   0.00366,   0.00299,  -0.00055,480755168.00000,   0.00367,278561344.00000,   0.00254,   0.00163,  -0.00082, 128.00000,   2.00000
457801198.82291,494651249.00704,20336207.61194,   0.00366,   0.00300,  -0.00055,480744064.00000,   0.00368,278568160.00000,   0.00255,   0.00164,  -0.00082, -64.00000,   2.00000
457197790.27249,495132050.93556,20376893.88756,   0.00367,   0.00300,  -0.00055,480723680.00000,   0.00369,278574912.00000,   0.00255,   0.00164,  -0.00082,   0.00000,   2.00000
456585001.65244,495617239.42136,20415275.70931,   0.00367,   0.00301,  -0.00055,480692896.00000,   0.00369,278581536.00000,   0.00256,   0.00165,  -0.00081,  32.00000,   2.00000
455958375.43457,496109362.60910,20454801.68310,   0.00367,   0.00302,  -0.00055,480673248.00000,   0.00370,278588064.00000,   0.00256,   0.00166,  -0.00081,  32.00000,   2.00000
455332171.22792,496597879.24535,20491049.34705,   0.00367,   0.00303,  -0.00055,480661536.00000,   0.00370,278594560.00000,   0.00257,   0.00166,  -0.00081,   0.00000,   2.00000
454692010.50954,497093355.96570,20528439.66418,   0.00367,   0.00304,  -0.00054,480641664.00000,   0.00371,278600960.00000,   0.00257,   0.00167,  -0.00081, -32.00000,   2.00000
454041960.60378,497593057.13194,20563510.22664,   0.00367,   0.00305,  -0.00054,480610944.00000,   0.00372,278607232.00000,   0.00257,   0.00167,  -0.00081,   0.00000,   2.00000
453386044.85102,498091961.80068,20603728.90748,   0.00367,   0.00306,  -0.00054,480590592.00000,   0.00372,278613440.00000,   0.00258,   0.00168,  -0.00081,   0.00000,   2.00000
452725767.98108,498591881.13293,20637158.21673,   0.00367,   0.00307,  -0.00054,480568704.00000,   0.00373,278619552.00000,   0.00258,   0.00169,  -0.00081,  64.00000,   2.00000
452055573.91070,499093935.27102,20675194.30996,   0.00367,   0.00308,  -0.00054,480558976.00000,   0.00373,278625600.00000,   0.00259,   0.00169,  -0.00081,  32.00000,   2.00000
451371171.51966,499603109.16962,20710348.61520,   0.00367,   0.00309,  -0.00053,480538784.00000,   0.00374,278631584.00000,   0.00259,   0.00170,  -0.00080,  32.00000,   2.00000
450680993.02642,500111952.59101,20746658.23890,   0.00367,   0.00310,  -0.00053,480517792.00000,   0.00375,278637504.00000,   0.00260,   0.00170,  -0.00080, -64.00000,   2.00000
449980108.52058,500624914.92447,20780626.20976,   0.00367,   0.00311,  -0.00053,480486976.00000,   0.00375,278643296.00000,   0.00260,   0.00171,  -0.00080,  32.00000,   2.00000
449272767.61151,501137047.50077,20819727.61646,   0.00367,   0.00312,  -0.00053,480466560.00000,   0.00376,278648992.00000,   0.00260,   0.00171,  -0.00080,  32.00000,   2.00000
448556432.58606,501652730.30377,20851470.70099,   0.00367,   0.00313,  -0.00053,480455264.00000,   0.00376,278654656.00000,   0.00261,   0.00172,  -0.00080,   0.00000,   2.00000
447827954.65568,502171360.20227,20888837.55777,   0.00367,   0.00314,  -0.00053,480425504.00000,   0.00377,278660192.00000,   0.00261,   0.00172,  -0.00080, -32.00000,   2.00000
447093628.32250,502690243.24502,20923381.93966,   0.00367,   0.00314,  -0.00052,480404000.00000,   0.00377,278665664.00000,   0.00261,   0.00173,  -0.00080, -32.00000,   2.00000
446348973.76563,503211439.90333,20958534.62207,   0.00367,   0.00315,  -0.00052,480393760.00000,   0.00378,278671072.00000,   0.00262,   0.00173,  -0.00080,-128.00000,   2.00000
445592733.88140,503736741.62745,20991369.09360,   0.00367,   0.00316,  -0.00052,480362752.00000,   0.00378,278676384.00000,   0.00262,   0.00174,  -0.00079, 128.00000,   2.00000
444819761.38643,504267379.44208,21029275.81178,   0.00367,   0.00317,  -0.00052,480344032.00000,   0.00379,278681600.00000,   0.00263,   0.00174,  -0.00079, -32.00000,   2.00000
444046629.64246,504795101.42066,21059934.23545,   0.00366,   0.00318,  -0.00052,480331136.00000,   0.00379,278686784.00000,   0.00263,   0.00175,  -0.00079,  32.00000,   2.00000
443260173.14784,505325449.46162,21096248.37331,   0.00366,   0.00319,  -0.00052,480301440.00000,   0.00380,278691840.00000,   0.00263,   0.00175,  -0.00079,  32.00000,   2.00000
442457527.12688,505862198.61640,21129699.60978,   0.00366,   0.00320,  -0.00052,480281440.00000,   0.00380,278696832.00000,   0.00264,   0.00176,  -0.00079, -96.00000,   2.00000
441647687.99654,506398614.95709,21164374.62250,   0.00366,   0.00321,  -0.00051,480260256.00000,   0.00381,278701728.00000,   0.00264,   0.00176,  -0.00079,  64.00000,   2.00000
440830253.55627,506934395.16376,21200262.94585,   0.00366,   0.00322,  -0.00051,480239328.00000,   0.00381,278706560.00000,   0.00264,   0.00177,  -0.00079, -64.00000,   2.00000
439999762.80442,507473859.15215,21233876.45393,   0.00366,   0.00322,  -0.00051,480208416.00000,   0.00382,278711296.00000,   0.00264,   0.00177,  -0.00079,  32.00000,   2.00000
439157888.85542,508015353.27401,21268162.12003,   0.00365,   0.00323,  -0.00051,480198112.00000,   0.00382,278715968.00000,   0.00265,   0.00178,  -0.00079, 128.00000,   2.00000
438298412.69410,508562259.00082,21303585.58924,   0.00365,   0.00324,  -0.00051,480178688.00000,   0.00383,278720544.00000,   0.00265,   0.00178,  -0.00078,   0.00000,   2.00000
437434587.47273,509106175.62703,21340819.71404,   0.00365,   0.00325,  -0.00051,480146560.00000,   0.00383,278725056.00000,   0.00265,   0.00179,  -0.00078,  64.00000,   2.00000
436559162.26757,509652196.58839,21374717.96472,   0.00365,   0.00326,  -0.00051,480135744.00000,   0.00383,278729504.00000,   0.00266,   0.00179,  -0.00078, -96.00000,   2.00000
435669381.75933,510201285.53119,21410331.42302,   0.00365,   0.00327,  -0.00050,480105312.00000,   0.00384,278733824.00000,   0.00266,   0.00180,  -0.00078, -32.00000,   2.00000
434767452.03697,510752070.31654,21446589.67830,   0.00364,   0.00328,  -0.00050,480094912.00000,   0.00384,278738112.00000,   0.00266,   0.00180,  -0.00078,   0.00000,   2.00000
433850988.70565,511306155.15934,21480552.59763,   0.00364,   0.00328,  -0.00050,480064160.00000,   0.00385,278742304.00000,   0.00266,   0.00180,  -0.00078, -32.00000,   2.00000
432925235.76172,511859091.50383,21519712.29274,   0.00364,   0.00329,  -0.00050,480043328.00000,   0.00385,278746400.00000,   0.00267,   0.00181,  -0.00078,  64.00000,   2.00000
431990912.79010,512412009.30114,21556093.75170,   0.00363,   0.00330,  -0.00050,480021376.00000,   0.00385,278750432.00000,   0.00267,   0.00181,  -0.00078, 128.00000,   2.00000
431037923.05228,512970597.67786,21589587.07373,   0.00363,   0.00331,  -0.00050,480001408.00000,   0.00386,278754400.00000,   0.00267,   0.00182,  -0.00078,-128.00000,   2.00000
430075234.13960,513528207.33993,21628278.66257,   0.00363,   0.00332,  -0.00050,479980512.00000,   0.00386,278758272.00000,   0.00267,   0.00182,  -0.00078,  32.00000,   2.00000
429096965.98268,514089176.04645,21664658.44517,   0.00363,   0.00333,  -0.00049,479949792.00000,   0.00387,278762048.00000,   0.00268,   0.00182,  -0.00078,  32.00000,   2.00000
428105570.67564,514651854.56602,21701665.07282,   0.00362,   0.00333,  -0.00049,479939200.00000,   0.00387,278765792.00000,   0.00268,   0.00183,  -0.00077,  32.00000,   2.00000
427097812.55402,515217343.58967,21740356.56209,   0.00362,   0.00334,  -0.00049,479909056.00000,   0.00387,278769408.00000,   0.00268,   0.00183,  -0.00077, -64.00000,   2.00000
426080471.17717,515782771.45270,21776290.83939,   0.00361,   0.00335,  -0.00049,479887040.00000,   0.00388,278772960.00000,   0.00268,   0.00184,  -0.00077,  32.00000,   2.00000
425049004.80181,516349020.36356,21816846.22667,   0.00361,   0.00336,  -0.00049,479877248.00000,   0.00388,278776480.00000,   0.00268,   0.00184,  -0.00077, -32.00000,   2.00000
424001013.46759,516918473.43589,21855129.04157,   0.00361,   0.00337,  -0.00049,479846688.00000,   0.00388,278779904.00000,   0.00269,   0.00184,  -0.00077,   0.00000,   2.00000
422936339.60788,517491160.39030,21891162.42806,   0.00360,   0.00338,  -0.00049,479816320.00000,   0.00389,278783200.00000,   0.00269,   0.00185,  -0.00077,  64.00000,   2.00000
421863535.91594,518060748.47466,21931368.47386,   0.00360,   0.00338,  -0.00049,479815360.00000,   0.00389,278786496.00000,   0.00269,   0.00185,  -0.00077, -64.00000,   2.00000
420776606.64066,518630918.58380,21973924.08384,   0.00359,   0.00339,  -0.00048,479774528.00000,   0.00389,278789632.00000,   0.00269,   0.00185,  -0.00077,  96.00000,   2.00000
419668738.52150,519205789.35896,22013634.06365,   0.00359,   0.00340,  -0.00048,479755296.00000,   0.00390,278792736.00000,   0.00269,   0.00186,  -0.00077,   0.00000,   2.00000
418546088.17421,519781295.85817,22054021.03127,   0.00358,   0.00341,  -0.00048,479745376.00000,   0.00390,278795776.00000,   0.00269,   0.00186,  -0.00077,-128.00000,   2.00000
417415370.12173,520353798.81467,22096300.63033,   0.00358,   0.00342,  -0.00048,479713472.00000,   0.00390,278798720.00000,   0.00270,   0.00186,  -0.00077,  64.00000,   2.00000
416262551.03618,520929921.71932,22139702.39898,   0.00358,   0.00342,  -0.00048,479695360.00000,   0.00390,278801600.00000,   0.00270,   0.00187,  -0.00077, -32.00000,   2.00000
415098187.32569,521505070.09737,22180380.19655,   0.00357,   0.00343,  -0.00048,479674016.00000,   0.00391,278804384.00000,   0.00270,   0.00187,  -0.00077,  32.00000,   2.00000
413911374.35557,522083617.24697,22222160.23554,   0.00357,   0.00344,  -0.00048,479656160.00000,   0.00391,278807136.00000,   0.00270,   0.00187,  -0.00077,  64.00000,   2.00000
412711633.44862,522659625.37257,22269141.27691,   0.00356,   0.00345,  -0.00048,479636416.00000,   0.00391,278809792.00000,   0.00270,   0.00187,  -0.00077, 224.00000,   2.00000
411492380.58742,523237149.37288,22313779.14898,   0.00355,   0.00345,  -0.00047,479607360.00000,   0.00391,278812384.00000,   0.00270,   0.00188,  -0.00076,  96.00000,   2.00000
410260683.44677,523813117.11469,22355616.39849,   0.00355,   0.00346,  -0.00047,479586784.00000,   0.00392,278814880.00000,   0.00270,   0.00188,  -0.00076,  64.00000,   2.00000
409011931.87089,524387449.52706,22401967.71337,   0.00354,   0.00347,  -0.00047,479578624.00000,   0.00392,278817344.00000,   0.00271,   0.00188,  -0.00076,  96.00000,   2.00000
407745682.75953,524960761.10678,22450521.32398,   0.00354,   0.00348,  -0.00047,479539392.00000,   0.00392,278819680.00000,   0.00271,   0.00188,  -0.00076,  32.00000,   2.00000
406462918.12250,525533452.93931,22495591.41722,   0.00353,   0.00349,  -0.00047,479530368.00000,   0.00392,278821984.00000,   0.00271,   0.00189,  -0.00076, -32.00000,   2.00000
405155611.39231,526107815.31878,22541603.63677,   0.00353,   0.00349,  -0.00047,479513984.00000,   0.00393,278824224.00000,   0.00271,   0.00189,  -0.00076, -32.00000,   2.00000
403837055.41713,526677490.01321,22589338.40438,   0.00352,   0.00350,  -0.00047,479483520.00000,   0.00393,278826368.00000,   0.00271,   0.00189,  -0.00076,   0.00000,   2.00000
402500739.93557,527245309.48024,22637548.50201,   0.00351,   0.00351,  -0.00047,479475648.00000,   0.00393,278828448.00000,   0.00271,   0.00189,  -0.00076, -64.00000,   2.00000
401142266.21580,527813098.96315,22687330.20362,   0.00351,   0.00352,  -0.00047,479448320.00000,   0.00393,278830496.00000,   0.00271,   0.00190,  -0.00076,  32.00000,   2.00000
399765597.67935,528378731.34467,22737593.17811,   0.00350,   0.00352,  -0.00046,479440896.00000,   0.00393,278832480.00000,   0.00271,   0.00190,  -0.00076, -32.00000,   2.00000
398369403.60747,528943005.60958,22786073.20970,   0.00349,   0.00353,  -0.00046,479402240.00000,   0.00394,278834336.00000,   0.00271,   0.00190,  -0.00076, 128.00000,   2.00000
396954087.36682,529504137.82095,22839024.87886,   0.00349,   0.00354,  -0.00046,479395552.00000,   0.00394,278836160.00000,   0.00271,   0.00190,  -0.00076,  96.00000,   2.00000
395523317.95200,530061910.25817,22889114.07117,   0.00348,   0.00354,  -0.00046,479376736.00000,   0.00394,278837920.00000,   0.00271,   0.00190,  -0.00076,  32.00000,   2.00000
394065462.88366,530619377.70361,22940113.68986,   0.00347,   0.00355,  -0.00046,479362176.00000,   0.00394,278839648.00000,   0.00272,   0.00191,  -0.00076, -96.00000,   2.00000
392593835.78639,531170931.11685,22992836.75321,   0.00347,   0.00356,  -0.00046,479333216.00000,   0.00394,278841248.00000,   0.00272,   0.00191,  -0.00076,  64.00000,   2.00000
391094438.85749,531721652.25243,23046430.77499,   0.00346,   0.00357,  -0.00046,479319104.00000,   0.00394,278842816.00000,   0.00272,   0.00191,  -0.00076,  32.00000,   2.00000
389577659.32763,532267204.43141,23101064.71802,   0.00345,   0.00357,  -0.00046,479301920.00000,   0.00395,278844320.00000,   0.00272,   0.00191,  -0.00076,  64.00000,   2.00000
388040449.97949,532808647.28272,23156075.88525,   0.00344,   0.00358,  -0.00046,479295968.00000,   0.00395,278845824.00000,   0.00272,   0.00191,  -0.00076,   0.00000,   2.00000
386480068.85126,533346666.58457,23213173.45394,   0.00344,   0.00359,  -0.00046,479259296.00000,   0.00395,278847168.00000,   0.00272,   0.00191,  -0.00076, -64.00000,   2.00000
384899640.44366,533881821.87108,23266656.11027,   0.00343,   0.00359,  -0.00045,479252352.00000,   0.00395,278848512.00000,   0.00272,   0.00192,  -0.00076, -32.00000,   2.00000
383292548.48988,534414447.79456,23325556.79200,   0.00342,   0.00360,  -0.00045,479227232.00000,   0.00395,278849760.00000,   0.00272,   0.00192,  -0.00076, -64.00000,   2.00000
381667449.56670,534942873.72715,23385464.50927,   0.00341,   0.00361,  -0.00045,479208800.00000,   0.00395,278850944.00000,   0.00272,   0.00192,  -0.00076, -32.00000,   2.00000
380022133.94290,535468992.64002,23441747.14788,   0.00341,   0.00361,  -0.00045,479201120.00000,   0.00395,278852096.00000,   0.00272,   0.00192,  -0.00076,   0.00000,   2.00000
378351581.87161,535990926.38280,23504073.53081,   0.00340,   0.00362,  -0.00045,479164000.00000,   0.00395,278853120.00000,   0.00272,   0.00192,  -0.00076,-928.00000,   1.00000
376661253.55985,536511635.54604,23562837.97869,   0.00339,   0.00363,  -0.00045,479155328.00000,   0.00396,278854144.00000,   0.00272,   0.00192,  -0.00076,-928.00000,   1.00000
374952287.41045,537028181.37486,23622638.65648,   0.00338,   0.00364,  -0.00045,479136864.00000,   0.00396,278855072.00000,   0.00272,   0.00192,  -0.00076,-832.00000,   1.00000
373213094.87498,537543273.15598,23683217.99994,   0.00337,   0.00364,  -0.00045,479123008.00000,   0.00396,278855968.00000,   0.00272,   0.00192,  -0.00075,-736.00000,   1.00000
371456592.77822,538051952.36368,23749498.49064,   0.00336,   0.00365,  -0.00045,479094048.00000,   0.00396,278856768.00000,   0.00272,   0.00192,  -0.00075,-672.00000,   1.00000
369677993.08391,538556256.71274,23812112.79321,   0.00335,   0.00366,  -0.00045,479087968.00000,   0.00396,278857536.00000,   0.00272,   0.00193,  -0.00075,-576.00000,   1.00000
367870215.20142,539056672.37766,23876168.06596,   0.00334,   0.00366,  -0.00044,479063776.00000,   0.00396,278858208.00000,   0.00272,   0.00193,  -0.00075,-640.00000,   1.00000
366041460.11845,539550231.09283,23941211.17405,   0.00334,   0.00367,  -0.00044,479047424.00000,   0.00396,278858848.00000,   0.00272,   0.00193,  -0.00075,-608.00000,   1.00000
364180004.37003,540039277.72756,24006957.09221,   0.00333,   0.00367,  -0.00044,479036064.00000,   0.00396,278859456.00000,   0.00272,   0.00193,  -0.00075,-416.00000,   1.00000
362298719.52124,540519459.91810,24074344.65840,   0.00332,   0.00368,  -0.00044,479009120.00000,   0.00396,278859936.00000,   0.00272,   0.00193,  -0.00075,-480.00000,   1.00000
360392851.93018,540991989.60641,24141969.99967,   0.00331,   0.00369,  -0.00044,479005696.00000,   0.00396,278860416.00000,   0.00272,   0.00193,  -0.00075,-512.00000,   1.00000
358463870.71596,541455188.30089,24214500.75634,   0.00330,   0.00369,  -0.00044,478991424.00000,   0.00396,278860864.00000,   0.00272,   0.00193,  -0.00075,-480.00000,   1.00000
356503201.94242,541912390.05774,24284391.90214,   0.00329,   0.00370,  -0.00044,478968928.00000,   0.00396,278861248.00000,   0.00272,   0.00193,  -0.00075,-224.00000,   1.00000
354516939.45298,542360741.56098,24354461.33671,   0.00328,   0.00371,  -0.00044,478966496.00000,   0.00396,278861600.00000,   0.00272,   0.00193,  -0.00075,-416.00000,   1.00000
352497799.85960,542801769.74297,24425832.51260,   0.00327,   0.00371,  -0.00044,478945088.00000,   0.00396,278861888.00000,   0.00272,   0.00193,  -0.00075,-256.00000,   1.00000
350456588.59352,543232562.89112,24498766.46427,   0.00326,   0.00372,  -0.00044,478919136.00000,   0.00396,278862080.00000,   0.00272,   0.00193,  -0.00075,-192.00000,   1.00000
348389096.76746,543653895.36255,24571838.17306,   0.00325,   0.00373,  -0.00043,478917056.00000,   0.00396,278862240.00000,   0.00272,   0.00193,  -0.00075,-160.00000,   1.00000
346296863.28265,544064820.70834,24645726.75015,   0.00324,   0.00373,  -0.00043,478903456.00000,   0.00396,278862400.00000,   0.00272,   0.00193,  -0.00075,-160.00000,   1.00000
344168261.73041,544467385.98935,24720119.85330,   0.00323,   0.00374,  -0.00043,478895104.00000,   0.00396,278862496.00000,   0.00272,   0.00193,  -0.00075, -96.00000,   1.00000
342015962.95444,544858427.60691,24796000.36866,   0.00322,   0.00374,  -0.00043,478870112.00000,   0.00396,278862528.00000,   0.00272,   0.00193,  -0.00075,  32.00000,   1.00000
339835772.39521,545237746.35756,24875915.03730,   0.00321,   0.00375,  -0.00043,478869856.00000,   0.00396,278862560.00000,   0.00272,   0.00193,  -0.00075,-128.00000,   1.00000
337612086.01735,545593295.12800,24952247.54169,   0.00320,   0.00376,  -0.00043,478849760.00000,   0.00396,278862560.00000,   0.00272,   0.00193,  -0.00075,-12800.00000,   0.00000
335354250.88752,545922730.14694,25028580.04608,   0.00318,   0.00376,  -0.00043,478824800.00000,   0.00396,278862560.00000,   0.00272,   0.00193,  -0.00075,-37760.00000,   0.00000
333068293.25608,546240112.66519,25108930.05070,   0.00317,   0.00377,  -0.00043,478800160.00000,   0.00396,278862560.00000,   0.00272,   0.00193,  -0.00075,-62400.00000,   0.00000
330742160.62233,546517320.18113,25185262.55508,   0.00316,   0.00377,  -0.00043,478750880.00000,   0.00396,278862560.00000,   0.00272,   0.00193,  -0.00075,-111680.00000,   0.00000
328373844.23615,546776448.94603,25261595.05947,   0.00315,   0.00378,  -0.00043,478695200.00000,   0.00396,278862560.00000,   0.00272,   0.00193,  -0.00075,-167360.00000,   0.00000
325965352.84766,546995402.70862,25341945.06409,   0.00314,   0.00378,  -0.00042,478616480.00000,   0.00396,278862560.00000,   0.00272,   0.00193,  -0.00075,-246080.00000,   0.00000
323528738.95756,547202303.97052,25422295.06871,   0.00313,   0.00379,  -0.00042,478538304.00000,   0.00396,278862560.00000,   0.00272,   0.00193,  -0.00075,-324256.00000,   0.00000
321057976.31549,547383091.48091,25498627.57310,   0.00312,   0.00380,  -0.00042,478448096.00000,   0.00396,278862560.00000,   0.00272,   0.00193,  -0.00075,-414464.00000,   0.00000
318545029.92099,547545800.24027,25578977.57772,   0.00311,   0.00380,  -0.00042,478353056.00000,   0.00396,278862560.00000,   0.00272,   0.00193,  -0.00075,-509504.00000,   0.00000
315991908.52419,547668333.99731,25659327.58234,   0.00309,   0.00381,  -0.00042,478235232.00000,   0.00396,278862560.00000,   0.00272,   0.00193,  -0.00075,-627328.00000,   0.00000
313410664.62577,547778815.25367,25739677.58696,   0.00308,   0.00381,  -0.00042,478118720.00000,   0.00396,278862560.00000,   0.00272,   0.00193,  -0.00075,-743840.00000,   0.00000
310795271.97538,547863182.75852,25820027.59158,   0.00307,   0.00382,  -0.00042,477992224.00000,   0.00396,278862560.00000,   0.00272,   0.00193,  -0.00075,-870336.00000,   0.00000
308131669.32223,547915410.26152,25900377.59620,   0.00306,   0.00382,  -0.00042,477850048.00000,   0.00396,278862560.00000,   0.00272,   0.00193,  -0.00075,-1012512.00000,   0.00000
305433917.91710,547941524.01302,25980727.60082,   0.00304,   0.00383,  -0.00042,477698784.00000,   0.00396,278862560.00000,   0.00272,   0.00193,  -0.00075,-1163776.00000,   0.00000
302702017.76002,547941524.01302,26061077.60544,   0.00303,   0.00383,  -0.00041,477539360.00000,   0.00396,278862560.00000,   0.00272,   0.00193,  -0.00075,-1323200.00000,   0.00000
299935968.85097,547915410.26152,26145445.11030,   0.00302,   0.00384,  -0.00041,477372800.00000,   0.00396,278862560.00000,   0.00272,   0.00193,  -0.00075,-1489760.00000,   0.00000
297141797.44031,547877244.00933,26225795.11492,   0.00301,   0.00384,  -0.00041,477210400.00000,   0.00396,278862560.00000,   0.00272,   0.00193,  -0.00075,-1652160.00000,   0.00000
294299416.02687,547806937.75528,26310162.61977,   0.00299,   0.00385,  -0.00041,477036128.00000,   0.00396,278862560.00000,   0.00272,   0.00193,  -0.00075,-1826432.00000,   0.00000
291430920.86193,547702482.74928,26394530.12462,   0.00298,   0.00386,  -0.00041,476848896.00000,   0.00396,278862560.00000,   0.00272,   0.00193,  -0.00075,-2013664.00000,   0.00000
288520241.94457,547579948.99223,26474880.12924,   0.00297,   0.00386,  -0.00041,476661376.00000,   0.00396,278862560.00000,   0.00272,   0.00193,  -0.00075,-2201184.00000,   0.00000
285581440.52559,547445362.73449,26559247.63409,   0.00296,   0.00387,  -0.00041,476481056.00000,   0.00396,278862560.00000,   0.00272,   0.00193,  -0.00075,-2381504.00000,   0.00000
282588402.85349,547264575.22410,26647632.63917,   0.00294,   0.00387,  -0.00041,476278240.00000,   0.00396,278862560.00000,   0.00272,   0.00193,  -0.00075,-2584320.00000,   0.00000
279575277.68023,547063700.21255,26732000.14402,   0.00293,   0.00388,  -0.00041,476075200.00000,   0.00396,278862560.00000,   0.00272,   0.00193,  -0.00075,-2787360.00000,   0.00000
276519968.75455,546844746.44996,26816367.64887,   0.00292,   0.00388,  -0.00040,475873952.00000,   0.00396,278862560.00000,   0.00272,   0.00193,  -0.00075,-2988608.00000,   0.00000
273444572.32772,546605705.18621,26904752.65396,   0.00290,   0.00389,  -0.00040,475674176.00000,   0.00396,278862560.00000,   0.00272,   0.00193,  -0.00075,-3188384.00000,   0.00000
270314939.64776,546320462.66981,26993137.65904,   0.00289,   0.00389,  -0.00040,475452544.00000,   0.00396,278862560.00000,   0.00272,   0.00193,  -0.00075,-3410016.00000,   0.00000
267157184.46619,546023167.65272,27077505.16389,   0.00287,   0.00389,  -0.00040,475238080.00000,   0.00396,278862560.00000,   0.00272,   0.00193,  -0.00075,-3624480.00000,   0.00000
263965280.53266,545699758.88412,27165890.16897,   0.00286,   0.00390,  -0.00040,475020256.00000,   0.00396,278862560.00000,   0.00272,   0.00193,  -0.00075,-3842304.00000,   0.00000
260745254.09751,545364297.61483,27258292.67428,   0.00285,   0.00390,  -0.00040,474811168.00000,   0.00396,278862560.00000,   0.00272,   0.00193,  -0.00075,-4051392.00000,   0.00000
257470991.40924,544982635.09289,27346677.67937,   0.00283,   0.00391,  -0.00040,474580928.00000,   0.00396,278862560.00000,   0.00272,   0.00193,  -0.00075,-4281632.00000,   0.00000
254176641.21981,544580885.06979,27439080.18468,   0.00282,   0.00391,  -0.00040,474352960.00000,   0.00396,278862560.00000,   0.00272,   0.00193,  -0.00075,-4509600.00000,   0.00000
250840107.27796,544161056.29565,27527465.18976,   0.00280,   0.00392,  -0.00040,474129440.00000,   0.00396,278862560.00000,   0.00272,   0.00193,  -0.00075,-4733120.00000,   0.00000
247483485.83495,543721140.02035,27619867.69507,   0.00279,   0.00392,  -0.00039,473909312.00000,   0.00396,278862560.00000,   0.00272,   0.00193,  -0.00075,-4953248.00000,   0.00000
244072628.13883,543235022.49240,27712270.20039,   0.00277,   0.00393,  -0.00039,473671904.00000,   0.00396,278862560.00000,   0.00272,   0.00193,  -0.00075,-5190656.00000,   0.00000
240633647.94109,542736852.46375,27804672.70570,   0.00276,   0.00393,  -0.00039,473446816.00000,   0.00396,278862560.00000,   0.00272,   0.00193,  -0.00075,-5415744.00000,   0.00000
237174580.24219,542218594.93395,27901092.71124,   0.00275,   0.00394,  -0.00039,473228320.00000,   0.00396,278862560.00000,   0.00272,   0.00193,  -0.00075,-5634240.00000,   0.00000
233673328.79087,541682258.65311,27993495.21656,   0.00273,   0.00394,  -0.00039,473018720.00000,   0.00396,278862560.00000,   0.00272,   0.00193,  -0.00075,-5843840.00000,   0.00000
230131902.33724,541105747.36997,28089915.22210,   0.00272,   0.00394,  -0.00039,472800928.00000,   0.00396,278862560.00000,   0.00272,   0.00193,  -0.00075,-6061632.00000,   0.00000
226556327.13164,540503122.33531,28186335.22765,   0.00270,   0.00395,  -0.00039,472586848.00000,   0.00396,278862560.00000,   0.00272,   0.00193,  -0.00075,-6275712.00000,   0.00000
222952629.42443,539888444.79997,28282755.23319,   0.00269,   0.00395,  -0.00039,472388864.00000,   0.00396,278862560.00000,   0.00272,   0.00193,  -0.00075,-6473696.00000,   0.00000
219308756.71491,539233592.26232,28383192.73897,   0.00267,   0.00396,  -0.00038,472183840.00000,   0.00396,278862560.00000,   0.00272,   0.00193,  -0.00075,-6678720.00000,   0.00000
215636761.50377,538566687.22397,28479612.74451,   0.00265,   0.00396,  -0.00038,471994496.00000,   0.00396,278862560.00000,   0.00272,   0.00193,  -0.00075,-6868064.00000,   0.00000
211930617.54066,537873668.43412,28580050.25028,   0.00264,   0.00397,  -0.00038,471810976.00000,   0.00396,278862560.00000,   0.00272,   0.00193,  -0.00075,-7051584.00000,   0.00000
208190324.82560,537154535.89277,28680487.75606,   0.00262,   0.00397,  -0.00038,471632672.00000,   0.00396,278862560.00000,   0.00272,   0.00193,  -0.00075,-7229888.00000,   0.00000
204415883.35857,536409289.59992,28784942.76207,   0.00261,   0.00397,  -0.00038,471461312.00000,   0.00396,278862560.00000,   0.00272,   0.00193,  -0.00075,-7401248.00000,   0.00000
200607293.13957,535637929.55557,28885380.26784,   0.00259,   0.00398,  -0.00038,471296192.00000,   0.00396,278862560.00000,   0.00272,   0.00193,  -0.00075,-7566368.00000,   0.00000
196764554.16862,534840455.75971,28989835.27385,   0.00258,   0.00398,  -0.00038,471140512.00000,   0.00396,278862560.00000,   0.00272,   0.00193,  -0.00075,-7722048.00000,   0.00000
192887666.44569,534016868.21235,29094290.27985,   0.00256,   0.00399,  -0.00038,470994272.00000,   0.00396,278862560.00000,   0.00272,   0.00193,  -0.00075,-7868288.00000,   0.00000
188996717.47197,533187254.41465,29198745.28586,   0.00254,   0.00399,  -0.00037,470874048.00000,   0.00396,278862560.00000,   0.00272,   0.00193,  -0.00075,-7988512.00000,   0.00000
185051532.24512,532311439.36429,29303200.29187,   0.00253,   0.00399,  -0.00037,470749408.00000,   0.00396,278862560.00000,   0.00272,   0.00193,  -0.00075,-8113152.00000,   0.00000
181078224.51665,531423571.81324,29411672.79810,   0.00251,   0.00400,  -0.00037,470648192.00000,   0.00396,278862560.00000,   0.00272,   0.00193,  -0.00075,-8214368.00000,   0.00000
177070768.03622,530509590.51069,29520145.30434,   0.00249,   0.00400,  -0.00037,470557376.00000,   0.00396,278862560.00000,   0.00272,   0.00193,  -0.00075,-8305184.00000,   0.00000
