# sigma_xx, sigma_yy, sigma_xy, epsilon_xx, epsilon_yy, epsilon_xy, vonMises, epsPlastic, hardening, epsilonP__xx, epsilonP__yy, epsilonP__xy, yieldValue, iteration
   0.00000,   0.00000,   0.00000,   0.00000,   0.00000,   0.00000,1181185.37500,   0.00000,274640576.00000,   0.00000,   0.00000,   0.00000,-473459392.00000,   0.00000
   0.00000,   0.00000,   0.00000,   0.00000,   0.00000,   0.00000,1181185.37500,   0.00000,274640576.00000,   0.00000,   0.00000,   0.00000,-473459392.00000,   0.00000
492833.38125,1343212.54889,241584.99081,  -0.00000,   0.00001,   0.00000,2373156.25000,   0.00000,274640576.00000,   0.00000,   0.00000,   0.00000,-472267424.00000,   0.00000
1009825.26158,2710583.59686,488001.68143,  -0.00000,   0.00001,   0.00001,3691991.00000,   0.00000,274640576.00000,   0.00000,   0.00000,   0.00000,-470948576.00000,   0.00000
1536480.54154,4068291.24520,734418.37206,  -0.00000,   0.00002,   0.00001,4805018.50000,   0.00000,274640576.00000,   0.00000,   0.00000,   0.00000,-469835552.00000,   0.00000
2104205.26993,5457404.94235,990498.46231,  -0.00000,   0.00002,   0.00001,5839829.50000,   0.00000,274640576.00000,   0.00000,   0.00000,   0.00000,-468800736.00000,   0.00000
2664682.44861,6829607.69013,1241746.85275,  -0.00000,   0.00003,   0.00002,6955309.50000,   0.00000,274640576.00000,   0.00000,   0.00000,   0.00000,-467685264.00000,   0.00000
3249318.12636,8225968.93700,1502658.64282,  -0.00000,   0.00003,   0.00002,8203711.00000,   0.00000,274640576.00000,   0.00000,   0.00000,   0.00000,-466436864.00000,   0.00000
3867775.70283,9636825.28332,1763570.43290,  -0.00000,   0.00004,   0.00002,9533696.00000,   0.00000,274640576.00000,   0.00000,   0.00000,   0.00000,-465106880.00000,   0.00000
4478985.72957,11030770.68028,2034145.62260,  -0.00000,   0.00004,   0.00003,10884393.00000,   0.00000,274640576.00000,   0.00000,   0.00000,   0.00000,-463756176.00000,   0.00000
5114354.25540,12448874.57632,2299889.11249,  -0.00000,   0.00005,   0.00003,12246085.00000,   0.00000,274640576.00000,   0.00000,   0.00000,   0.00000,-462394496.00000,   0.00000
5783544.67994,13881473.57181,2575296.00201,  -0.00000,   0.00005,   0.00003,13602404.00000,   0.00000,274640576.00000,   0.00000,   0.00000,   0.00000,-461038176.00000,   0.00000
6469646.05383,15321320.11702,2850702.89153,  -0.00000,   0.00006,   0.00004,14938435.00000,   0.00000,274640576.00000,   0.00000,   0.00000,   0.00000,-459702144.00000,   0.00000
7155747.42772,16761166.66224,3130941.48087,  -0.00000,   0.00006,   0.00004,16257729.00000,   0.00000,274640576.00000,   0.00000,   0.00000,   0.00000,-458382848.00000,   0.00000
7868423.15061,18198597.35754,3411180.07020,   0.00000,   0.00007,   0.00004,17559990.00000,   0.00000,274640576.00000,   0.00000,   0.00000,   0.00000,-457080592.00000,   0.00000
8605257.37257,19660186.55193,3696250.35936,   0.00000,   0.00007,   0.00005,18878068.00000,   0.00000,274640576.00000,   0.00000,   0.00000,   0.00000,-455762512.00000,   0.00000
9342091.59453,21121775.74632,3986152.34833,   0.00000,   0.00008,   0.00005,20200234.00000,   0.00000,274640576.00000,   0.00000,   0.00000,   0.00000,-454440336.00000,   0.00000
10112747.71521,22597860.04015,4280886.03711,   0.00000,   0.00008,   0.00006,21539292.00000,   0.00000,274640576.00000,   0.00000,   0.00000,   0.00000,-453101280.00000,   0.00000
10900314.78524,24081191.88371,4575619.72590,   0.00000,   0.00009,   0.00006,22890734.00000,   0.00000,274640576.00000,   0.00000,   0.00000,   0.00000,-451749840.00000,   0.00000
11704792.80463,25571771.27699,4875185.11450,   0.00000,   0.00009,   0.00006,24258620.00000,   0.00000,274640576.00000,   0.00000,   0.00000,   0.00000,-450381952.00000,   0.00000
12526181.77338,27069598.22000,5174750.50310,   0.00000,   0.00010,   0.00007,25640336.00000,   0.00000,274640576.00000,   0.00000,   0.00000,   0.00000,-449000240.00000,   0.00000
13364481.69148,28574672.71273,5479147.59152,   0.00001,   0.00010,   0.00007,27038390.00000,   0.00000,274640576.00000,   0.00000,   0.00000,   0.00000,-447602192.00000,   0.00000
14219692.55894,30086994.75519,5788376.37975,   0.00001,   0.00011,   0.00008,28451876.00000,   0.00000,274640576.00000,   0.00000,   0.00000,   0.00000,-446188704.00000,   0.00000
15091814.37576,31606564.34737,6097605.16799,   0.00001,   0.00011,   0.00008,29876584.00000,   0.00000,274640576.00000,   0.00000,   0.00000,   0.00000,-444764000.00000,   0.00000
15988094.69165,33150292.43863,6411665.65604,   0.00001,   0.00012,   0.00008,31327844.00000,   0.00000,274640576.00000,   0.00000,   0.00000,   0.00000,-443312736.00000,   0.00000
16894038.40718,34684357.13026,6725726.14409,   0.00001,   0.00012,   0.00009,32773598.00000,   0.00000,274640576.00000,   0.00000,   0.00000,   0.00000,-441866976.00000,   0.00000
17816893.07207,36225669.37161,7049450.03177,   0.00001,   0.00013,   0.00009,34232440.00000,   0.00000,274640576.00000,   0.00000,   0.00000,   0.00000,-440408128.00000,   0.00000
18773569.63567,37781476.71241,7368342.21963,   0.00001,   0.00014,   0.00010,35700036.00000,   0.00000,274640576.00000,   0.00000,   0.00000,   0.00000,-438940544.00000,   0.00000
19730246.19926,39337284.05322,7696897.80713,   0.00001,   0.00014,   0.00010,37172892.00000,   0.00000,274640576.00000,   0.00000,   0.00000,   0.00000,-437467680.00000,   0.00000
20703833.71222,40900338.94374,8025453.39463,   0.00001,   0.00015,   0.00010,38650068.00000,   0.00000,274640576.00000,   0.00000,   0.00000,   0.00000,-435990512.00000,   0.00000
21711243.12389,42477888.93372,8354008.98213,   0.00002,   0.00015,   0.00011,40137240.00000,   0.00000,274640576.00000,   0.00000,   0.00000,   0.00000,-434503328.00000,   0.00000
22718652.53556,44055438.92369,8687396.26944,   0.00002,   0.00016,   0.00011,41625452.00000,   0.00000,274640576.00000,   0.00000,   0.00000,   0.00000,-433015120.00000,   0.00000
23750220.44630,45657147.41275,9025615.25658,   0.00002,   0.00016,   0.00012,43134512.00000,   0.00000,274640576.00000,   0.00000,   0.00000,   0.00000,-431506064.00000,   0.00000
24808362.70604,47256440.05189,9363834.24371,   0.00002,   0.00017,   0.00012,44640492.00000,   0.00000,274640576.00000,   0.00000,   0.00000,   0.00000,-430000080.00000,   0.00000
25866504.96578,48855732.69104,9706884.93065,   0.00002,   0.00017,   0.00013,46148388.00000,   0.00000,274640576.00000,   0.00000,   0.00000,   0.00000,-428492192.00000,   0.00000
26958469.12423,50469520.42963,10049935.61760,   0.00002,   0.00018,   0.00013,47667956.00000,   0.00000,274640576.00000,   0.00000,   0.00000,   0.00000,-426972624.00000,   0.00000
28050433.28268,52083308.16823,10397818.00436,   0.00003,   0.00018,   0.00014,49190568.00000,   0.00000,274640576.00000,   0.00000,   0.00000,   0.00000,-425450016.00000,   0.00000
29176219.33984,53711591.00627,10745700.39113,   0.00003,   0.00019,   0.00014,50726116.00000,   0.00000,274640576.00000,   0.00000,   0.00000,   0.00000,-423914464.00000,   0.00000
30302005.39701,55339873.84432,11098414.47771,   0.00003,   0.00019,   0.00014,52265424.00000,   0.00000,274640576.00000,   0.00000,   0.00000,   0.00000,-422375152.00000,   0.00000
31468860.90261,56999562.73117,11451128.56428,   0.00003,   0.00020,   0.00015,53832372.00000,   0.00000,274640576.00000,   0.00000,   0.00000,   0.00000,-420808208.00000,   0.00000
32628468.85849,58642340.66866,11808674.35068,   0.00003,   0.00020,   0.00015,55390464.00000,   0.00000,274640576.00000,   0.00000,   0.00000,   0.00000,-419250112.00000,   0.00000
33821898.71308,60299613.70560,12171051.83689,   0.00004,   0.00021,   0.00016,56966492.00000,   0.00000,274640576.00000,   0.00000,   0.00000,   0.00000,-417674080.00000,   0.00000
35015328.56767,61956886.74254,12533429.32310,   0.00004,   0.00021,   0.00016,58544492.00000,   0.00000,274640576.00000,   0.00000,   0.00000,   0.00000,-416096080.00000,   0.00000
36242580.32097,63628654.87893,12895806.80931,   0.00004,   0.00022,   0.00017,60137948.00000,   0.00000,274640576.00000,   0.00000,   0.00000,   0.00000,-414502624.00000,   0.00000
37469832.07427,65300423.01532,13263015.99534,   0.00004,   0.00022,   0.00017,61736572.00000,   0.00000,274640576.00000,   0.00000,   0.00000,   0.00000,-412904000.00000,   0.00000
38730905.72629,66986686.25116,13635056.88119,   0.00005,   0.00023,   0.00018,63353972.00000,   0.00000,274640576.00000,   0.00000,   0.00000,   0.00000,-411286608.00000,   0.00000
39991979.37831,68672949.48699,14007097.76703,   0.00005,   0.00023,   0.00018,64973384.00000,   0.00000,274640576.00000,   0.00000,   0.00000,   0.00000,-409667200.00000,   0.00000
41286874.92903,70373707.82228,14379138.65287,   0.00005,   0.00024,   0.00019,66608292.00000,   0.00000,274640576.00000,   0.00000,   0.00000,   0.00000,-408032288.00000,   0.00000
42581770.47976,72074466.15757,14756011.23853,   0.00005,   0.00024,   0.00019,68248176.00000,   0.00000,274640576.00000,   0.00000,   0.00000,   0.00000,-406392400.00000,   0.00000
43903240.37948,73772808.64294,15132883.82419,   0.00006,   0.00025,   0.00020,69890008.00000,   0.00000,274640576.00000,   0.00000,   0.00000,   0.00000,-404750560.00000,   0.00000
45231957.82892,75488062.07768,15514588.10967,   0.00006,   0.00026,   0.00020,71549696.00000,   0.00000,274640576.00000,   0.00000,   0.00000,   0.00000,-403090880.00000,   0.00000
46594497.17708,77217810.61186,15901124.09496,   0.00006,   0.00026,   0.00021,73227688.00000,   0.00000,274640576.00000,   0.00000,   0.00000,   0.00000,-401412896.00000,   0.00000
47957036.52523,78947559.14605,16282828.38044,   0.00006,   0.00027,   0.00021,74903488.00000,   0.00000,274640576.00000,   0.00000,   0.00000,   0.00000,-399737088.00000,   0.00000
49353397.77210,80691802.77968,16674196.06555,   0.00007,   0.00027,   0.00022,76600536.00000,   0.00000,274640576.00000,   0.00000,   0.00000,   0.00000,-398040032.00000,   0.00000
50742511.46925,82419135.46395,17060732.05084,   0.00007,   0.00028,   0.00022,78282016.00000,   0.00000,274640576.00000,   0.00000,   0.00000,   0.00000,-396358560.00000,   0.00000
52155783.66547,84170626.64731,17452099.73595,   0.00007,   0.00028,   0.00023,79987616.00000,   0.00000,274640576.00000,   0.00000,   0.00000,   0.00000,-394652960.00000,   0.00000
53602877.76041,85936612.93011,17848299.12087,   0.00008,   0.00029,   0.00023,81711920.00000,   0.00000,274640576.00000,   0.00000,   0.00000,   0.00000,-392928656.00000,   0.00000
55042724.30562,87685688.26356,18244498.50580,   0.00008,   0.00029,   0.00024,83423680.00000,   0.00000,274640576.00000,   0.00000,   0.00000,   0.00000,-391216896.00000,   0.00000
56506729.34992,89458922.09609,18640697.89072,   0.00008,   0.00030,   0.00024,85157104.00000,   0.00000,274640576.00000,   0.00000,   0.00000,   0.00000,-389483472.00000,   0.00000
57980397.79385,91222492.52898,19041728.97546,   0.00009,   0.00030,   0.00025,86889152.00000,   0.00000,274640576.00000,   0.00000,   0.00000,   0.00000,-387751424.00000,   0.00000
59478224.73685,93010221.46096,19442760.06020,   0.00009,   0.00031,   0.00025,88643440.00000,   0.00000,274640576.00000,   0.00000,   0.00000,   0.00000,-385997136.00000,   0.00000
60985715.07949,94788286.99331,19848622.84476,   0.00009,   0.00031,   0.00026,90396984.00000,   0.00000,274640576.00000,   0.00000,   0.00000,   0.00000,-384243584.00000,   0.00000
62510116.37149,96573600.07537,20254485.62932,   0.00010,   0.00032,   0.00026,92160376.00000,   0.00000,274640576.00000,   0.00000,   0.00000,   0.00000,-382480192.00000,   0.00000
64058676.16257,98383071.65652,20660348.41387,   0.00010,   0.00032,   0.00027,93946824.00000,   0.00000,274640576.00000,   0.00000,   0.00000,   0.00000,-380693760.00000,   0.00000
65599988.40392,100175632.28832,21071042.89825,   0.00010,   0.00033,   0.00027,95725976.00000,   0.00000,274640576.00000,   0.00000,   0.00000,   0.00000,-378914592.00000,   0.00000
67175122.54399,101982688.01956,21481737.38262,   0.00011,   0.00033,   0.00028,97523696.00000,   0.00000,274640576.00000,   0.00000,   0.00000,   0.00000,-377116880.00000,   0.00000
68767167.63341,103796991.30052,21892431.86699,   0.00011,   0.00034,   0.00028,99332344.00000,   0.00000,274640576.00000,   0.00000,   0.00000,   0.00000,-375308224.00000,   0.00000
70359212.72283,105611294.58149,22307958.05118,   0.00011,   0.00034,   0.00029,101147544.00000,   0.00000,274640576.00000,   0.00000,   0.00000,   0.00000,-373493024.00000,   0.00000
71968168.76161,107432845.41218,22723484.23537,   0.00012,   0.00035,   0.00030,102973920.00000,   0.00000,274640576.00000,   0.00000,   0.00000,   0.00000,-371666656.00000,   0.00000
73610946.69910,109268891.34232,23143842.11938,   0.00012,   0.00035,   0.00030,104823008.00000,   0.00000,274640576.00000,   0.00000,   0.00000,   0.00000,-369817568.00000,   0.00000
75253724.63660,111104937.27246,23564200.00338,   0.00013,   0.00036,   0.00031,106675496.00000,   0.00000,274640576.00000,   0.00000,   0.00000,   0.00000,-367965088.00000,   0.00000
76913413.52344,112948230.75232,23984557.88739,   0.00013,   0.00036,   0.00031,108539416.00000,   0.00000,274640576.00000,   0.00000,   0.00000,   0.00000,-366101152.00000,   0.00000
78582765.80993,114781860.83255,24409747.47121,   0.00013,   0.00037,   0.00032,110404952.00000,   0.00000,274640576.00000,   0.00000,   0.00000,   0.00000,-364235616.00000,   0.00000
80276276.59549,116639649.41186,24830105.35521,   0.00014,   0.00037,   0.00032,112291464.00000,   0.00000,274640576.00000,   0.00000,   0.00000,   0.00000,-362349120.00000,   0.00000
81969787.38105,118497437.99117,25260126.63885,   0.00014,   0.00038,   0.00033,114186952.00000,   0.00000,274640576.00000,   0.00000,   0.00000,   0.00000,-360453632.00000,   0.00000
83689872.51560,120352810.72058,25685316.22267,   0.00015,   0.00038,   0.00033,116085416.00000,   0.00000,274640576.00000,   0.00000,   0.00000,   0.00000,-358555168.00000,   0.00000
85417205.19988,122225094.39934,26115337.50631,   0.00015,   0.00039,   0.00034,118002272.00000,   0.00000,274640576.00000,   0.00000,   0.00000,   0.00000,-356638304.00000,   0.00000
87154201.28378,124087714.67846,26545358.78995,   0.00015,   0.00039,   0.00035,119916288.00000,   0.00000,274640576.00000,   0.00000,   0.00000,   0.00000,-354724288.00000,   0.00000
88908108.31705,125957582.50731,26980211.77340,   0.00016,   0.00040,   0.00035,121843368.00000,   0.00000,274640576.00000,   0.00000,   0.00000,   0.00000,-352797216.00000,   0.00000
90678926.29967,127834697.88589,27415064.75686,   0.00016,   0.00040,   0.00036,123780136.00000,   0.00000,274640576.00000,   0.00000,   0.00000,   0.00000,-350860448.00000,   0.00000
92466655.23164,129719060.81419,27849917.74031,   0.00017,   0.00041,   0.00036,125726192.00000,   0.00000,274640576.00000,   0.00000,   0.00000,   0.00000,-348914384.00000,   0.00000
94271295.11298,131610671.29221,28284770.72376,   0.00017,   0.00041,   0.00037,127681440.00000,   0.00000,274640576.00000,   0.00000,   0.00000,   0.00000,-346959136.00000,   0.00000
96075934.99431,133502281.77024,28724455.40703,   0.00018,   0.00042,   0.00037,129640160.00000,   0.00000,274640576.00000,   0.00000,   0.00000,   0.00000,-345000416.00000,   0.00000
97897485.82500,135401139.79799,29164140.09030,   0.00018,   0.00043,   0.00038,131607592.00000,   0.00000,274640576.00000,   0.00000,   0.00000,   0.00000,-343032992.00000,   0.00000
99735947.60505,137307245.37546,29603824.77357,   0.00019,   0.00043,   0.00038,133583760.00000,   0.00000,274640576.00000,   0.00000,   0.00000,   0.00000,-341056816.00000,   0.00000
101591320.33445,139220598.50266,30043509.45684,   0.00019,   0.00044,   0.00039,135568544.00000,   0.00000,274640576.00000,   0.00000,   0.00000,   0.00000,-339072032.00000,   0.00000
103456356.46349,141124288.23022,30488025.83993,   0.00020,   0.00044,   0.00040,137552544.00000,   0.00000,274640576.00000,   0.00000,   0.00000,   0.00000,-337088032.00000,   0.00000
105328640.14225,143044888.90714,30932542.22302,   0.00020,   0.00045,   0.00040,139549312.00000,   0.00000,274640576.00000,   0.00000,   0.00000,   0.00000,-335091264.00000,   0.00000
107210587.22064,144955826.18443,31377058.60610,   0.00021,   0.00045,   0.00041,141542240.00000,   0.00000,274640576.00000,   0.00000,   0.00000,   0.00000,-333098336.00000,   0.00000
109109445.24839,146874011.01144,31826406.68901,   0.00021,   0.00046,   0.00041,143547552.00000,   0.00000,274640576.00000,   0.00000,   0.00000,   0.00000,-331093024.00000,   0.00000
111025214.22549,148799443.38818,32275754.77191,   0.00022,   0.00046,   0.00042,145562128.00000,   0.00000,274640576.00000,   0.00000,   0.00000,   0.00000,-329078448.00000,   0.00000
112965141.70168,150749034.26400,32725102.85481,   0.00022,   0.00047,   0.00043,147598992.00000,   0.00000,274640576.00000,   0.00000,   0.00000,   0.00000,-327041584.00000,   0.00000
114890574.07841,152664803.24110,33174450.93771,   0.00023,   0.00047,   0.00043,149611344.00000,   0.00000,274640576.00000,   0.00000,   0.00000,   0.00000,-325029232.00000,   0.00000
116840164.95423,154604730.71729,33623799.02061,   0.00023,   0.00048,   0.00044,151646160.00000,   0.00000,274640576.00000,   0.00000,   0.00000,   0.00000,-322994416.00000,   0.00000
118806666.77941,156551905.74320,34077978.80333,   0.00024,   0.00048,   0.00044,153694144.00000,   0.00000,274640576.00000,   0.00000,   0.00000,   0.00000,-320946432.00000,   0.00000
120773168.60458,158499080.76911,34532158.58605,   0.00024,   0.00049,   0.00045,155743248.00000,   0.00000,274640576.00000,   0.00000,   0.00000,   0.00000,-318897328.00000,   0.00000
122749333.82939,160436592.39539,34986338.36877,   0.00025,   0.00049,   0.00045,157790080.00000,   0.00000,274640576.00000,   0.00000,   0.00000,   0.00000,-316850496.00000,   0.00000
124749657.55328,162398262.52075,35440518.15149,   0.00025,   0.00050,   0.00046,159859792.00000,   0.00000,274640576.00000,   0.00000,   0.00000,   0.00000,-314780784.00000,   0.00000
126759644.67680,164350269.24647,35894697.93421,   0.00026,   0.00050,   0.00047,161927328.00000,   0.00000,274640576.00000,   0.00000,   0.00000,   0.00000,-312713248.00000,   0.00000
128769631.80032,166302275.97220,36353709.41674,   0.00026,   0.00051,   0.00047,163999984.00000,   0.00000,274640576.00000,   0.00000,   0.00000,   0.00000,-310640592.00000,   0.00000
130796529.87319,168261530.24765,36812720.89928,   0.00027,   0.00051,   0.00048,166083600.00000,   0.00000,274640576.00000,   0.00000,   0.00000,   0.00000,-308556976.00000,   0.00000
132840338.89543,170228032.07282,37271732.38181,   0.00027,   0.00052,   0.00048,168178512.00000,   0.00000,274640576.00000,   0.00000,   0.00000,   0.00000,-306462064.00000,   0.00000
134901058.86701,172201781.44772,37730743.86435,   0.00028,   0.00052,   0.00049,170285536.00000,   0.00000,274640576.00000,   0.00000,   0.00000,   0.00000,-304355040.00000,   0.00000
136961778.83860,174175530.82262,38189755.34688,   0.00028,   0.00053,   0.00050,172395472.00000,   0.00000,274640576.00000,   0.00000,   0.00000,   0.00000,-302245104.00000,   0.00000
139032162.20983,176139616.79789,38653598.52923,   0.00029,   0.00053,   0.00050,174509008.00000,   0.00000,274640576.00000,   0.00000,   0.00000,   0.00000,-300131568.00000,   0.00000
141109793.13077,178120613.72251,39112610.01177,   0.00029,   0.00054,   0.00051,176636496.00000,   0.00000,274640576.00000,   0.00000,   0.00000,   0.00000,-298004080.00000,   0.00000
143197087.45135,180091947.24750,39576453.19412,   0.00030,   0.00054,   0.00051,178771472.00000,   0.00000,274640576.00000,   0.00000,   0.00000,   0.00000,-295869104.00000,   0.00000
145308540.27101,182087439.27157,40040296.37647,   0.00031,   0.00055,   0.00052,180938064.00000,   0.00000,274640576.00000,   0.00000,   0.00000,   0.00000,-293702512.00000,   0.00000
147412745.54095,184066020.34629,40504139.55882,   0.00031,   0.00055,   0.00053,183095264.00000,   0.00000,274640576.00000,   0.00000,   0.00000,   0.00000,-291545312.00000,   0.00000
149533861.76024,186051848.97073,40972814.44098,   0.00032,   0.00055,   0.00053,185251264.00000,   0.00000,274640576.00000,   0.00000,   0.00000,   0.00000,-289389312.00000,   0.00000
151671888.92888,188044925.14489,41436657.62334,   0.00032,   0.00056,   0.00054,187391392.00000,   0.00000,274640576.00000,   0.00000,   0.00000,   0.00000,-287249184.00000,   0.00000
153802668.54781,190021090.36970,41905332.50550,   0.00033,   0.00056,   0.00054,189511664.00000,   0.00000,274640576.00000,   0.00000,   0.00000,   0.00000,-285128912.00000,   0.00000
155957606.66581,192021414.09359,42369175.68785,   0.00034,   0.00057,   0.00055,191653216.00000,   0.00000,274640576.00000,   0.00000,   0.00000,   0.00000,-282987360.00000,   0.00000
158122208.18345,194012074.41784,42837850.57002,   0.00034,   0.00057,   0.00056,193807504.00000,   0.00000,274640576.00000,   0.00000,   0.00000,   0.00000,-280833072.00000,   0.00000
160294057.25081,196019645.69145,43306525.45219,   0.00035,   0.00058,   0.00056,195991504.00000,   0.00000,274640576.00000,   0.00000,   0.00000,   0.00000,-278649072.00000,   0.00000
162458658.76845,198010306.01571,43775200.33435,   0.00035,   0.00058,   0.00057,198177984.00000,   0.00000,274640576.00000,   0.00000,   0.00000,   0.00000,-276462592.00000,   0.00000
164640171.23544,200008213.88969,44243875.21652,   0.00036,   0.00059,   0.00058,200383280.00000,   0.00000,274640576.00000,   0.00000,   0.00000,   0.00000,-274257296.00000,   0.00000
166838594.65179,202013369.31339,44712550.09869,   0.00037,   0.00059,   0.00058,202602208.00000,   0.00000,274640576.00000,   0.00000,   0.00000,   0.00000,-272038368.00000,   0.00000
169046681.46777,204008861.33746,45181224.98085,   0.00037,   0.00060,   0.00059,204819792.00000,   0.00000,274640576.00000,   0.00000,   0.00000,   0.00000,-269820784.00000,   0.00000
171245104.88412,206014016.76117,45654731.56284,   0.00038,   0.00060,   0.00059,207044640.00000,   0.00000,274640576.00000,   0.00000,   0.00000,   0.00000,-267595936.00000,   0.00000
173470102.64946,208016756.33496,46123406.44500,   0.00038,   0.00061,   0.00060,209280912.00000,   0.00000,274640576.00000,   0.00000,   0.00000,   0.00000,-265359664.00000,   0.00000
175702347.96453,210036406.85811,46596913.02699,   0.00039,   0.00061,   0.00061,211564096.00000,   0.00000,274640576.00000,   0.00000,   0.00000,   0.00000,-263076480.00000,   0.00000
177927345.72986,212039146.43191,47065587.90915,   0.00040,   0.00062,   0.00061,213780672.00000,   0.00000,274640576.00000,   0.00000,   0.00000,   0.00000,-260859904.00000,   0.00000
180169254.44456,214049133.55543,47539094.49114,   0.00040,   0.00062,   0.00062,215743344.00000,   0.00000,274640576.00000,   0.00000,   0.00000,   0.00000,-258897232.00000,   0.00000
182428074.10861,216066368.22867,48007769.37330,   0.00041,   0.00063,   0.00062,217960416.00000,   0.00000,274640576.00000,   0.00000,   0.00000,   0.00000,-256680160.00000,   0.00000
184686893.77266,218083602.90192,48481275.95529,   0.00042,   0.00063,   0.00063,220311488.00000,   0.00000,274640576.00000,   0.00000,   0.00000,   0.00000,-254329088.00000,   0.00000
186938465.88699,220083926.62581,48954782.53727,   0.00042,   0.00064,   0.00064,222636896.00000,   0.00000,274640576.00000,   0.00000,   0.00000,   0.00000,-252003680.00000,   0.00000
189206948.95068,222091497.89942,49428289.11925,   0.00043,   0.00064,   0.00064,224945712.00000,   0.00000,274640576.00000,   0.00000,   0.00000,   0.00000,-249694864.00000,   0.00000
191482679.56408,224115980.12239,49901795.70124,   0.00043,   0.00065,   0.00065,227249840.00000,   0.00000,274640576.00000,   0.00000,   0.00000,   0.00000,-247390736.00000,   0.00000
193768073.57712,226130798.94572,50375302.28322,   0.00044,   0.00065,   0.00065,229543392.00000,   0.00000,274640576.00000,   0.00000,   0.00000,   0.00000,-245097184.00000,   0.00000
196070378.53952,228152865.31878,50848808.86520,   0.00045,   0.00066,   0.00066,231842912.00000,   0.00000,274640576.00000,   0.00000,   0.00000,   0.00000,-242797664.00000,   0.00000
198355772.55256,230167684.14212,51322315.44719,   0.00045,   0.00066,   0.00067,234129728.00000,   0.00000,274640576.00000,   0.00000,   0.00000,   0.00000,-240510848.00000,   0.00000
200667740.91459,232180087.11555,51795822.02917,   0.00046,   0.00067,   0.00067,236422576.00000,   0.00000,274640576.00000,   0.00000,   0.00000,   0.00000,-238218000.00000,   0.00000
202970045.87699,234202153.48861,52269328.61115,   0.00047,   0.00067,   0.00068,238714544.00000,   0.00000,274640576.00000,   0.00000,   0.00000,   0.00000,-235926032.00000,   0.00000
205282014.23902,236214556.46204,52742835.19314,   0.00047,   0.00067,   0.00069,241001360.00000,   0.00000,274640576.00000,   0.00000,   0.00000,   0.00000,-233639216.00000,   0.00000
207610893.55041,238234206.98519,53216341.77512,   0.00048,   0.00068,   0.00069,243294352.00000,   0.00000,274640576.00000,   0.00000,   0.00000,   0.00000,-231346224.00000,   0.00000
209922861.91244,240246609.95862,53689848.35710,   0.00049,   0.00068,   0.00070,245573024.00000,   0.00000,274640576.00000,   0.00000,   0.00000,   0.00000,-229067552.00000,   0.00000
212268652.17318,242273508.03149,54163354.93908,   0.00049,   0.00069,   0.00070,247868032.00000,   0.00000,274640576.00000,   0.00000,   0.00000,   0.00000,-226772544.00000,   0.00000
214590283.93484,244276247.60529,54636861.52107,   0.00050,   0.00069,   0.00071,250136768.00000,   0.00000,274640576.00000,   0.00000,   0.00000,   0.00000,-224503808.00000,   0.00000
216936074.19558,246303145.67817,55110368.10305,   0.00051,   0.00070,   0.00072,252423968.00000,   0.00000,274640576.00000,   0.00000,   0.00000,   0.00000,-222216608.00000,   0.00000
219274616.90660,248313132.80169,55583874.68503,   0.00051,   0.00070,   0.00072,254696208.00000,   0.00000,274640576.00000,   0.00000,   0.00000,   0.00000,-219944368.00000,   0.00000
221630070.56698,250330367.47493,56057381.26702,   0.00052,   0.00071,   0.00073,256975600.00000,   0.00000,274640576.00000,   0.00000,   0.00000,   0.00000,-217664976.00000,   0.00000
223985524.22735,252347602.14817,56530887.84900,   0.00053,   0.00071,   0.00073,259252480.00000,   0.00000,274640576.00000,   0.00000,   0.00000,   0.00000,-215388096.00000,   0.00000
226340977.88773,254364836.82142,57004394.43098,   0.00053,   0.00072,   0.00074,261527440.00000,   0.00000,274640576.00000,   0.00000,   0.00000,   0.00000,-213113136.00000,   0.00000
228706094.94773,256372408.09503,57477901.01297,   0.00054,   0.00072,   0.00075,263799568.00000,   0.00000,274640576.00000,   0.00000,   0.00000,   0.00000,-210841008.00000,   0.00000
231078459.55746,258396890.31800,57951407.59495,   0.00055,   0.00073,   0.00075,266083424.00000,   0.00000,274640576.00000,   0.00000,   0.00000,   0.00000,-208557152.00000,   0.00000
233443576.61747,260404461.59161,58424914.17693,   0.00055,   0.00073,   0.00076,268357008.00000,   0.00000,274640576.00000,   0.00000,   0.00000,   0.00000,-206283568.00000,   0.00000
235808693.67748,262412032.86522,58893589.05910,   0.00056,   0.00073,   0.00077,270630528.00000,   0.00000,274640576.00000,   0.00000,   0.00000,   0.00000,-204010048.00000,   0.00000
238190721.68684,264426851.68856,59367095.64108,   0.00057,   0.00074,   0.00077,272921920.00000,   0.00000,274640576.00000,   0.00000,   0.00000,   0.00000,-201718656.00000,   0.00000
240572749.69621,266441670.51189,59840602.22307,   0.00058,   0.00074,   0.00078,275218624.00000,   0.00000,274640576.00000,   0.00000,   0.00000,   0.00000,-199421952.00000,   0.00000
242947530.15585,268439578.38587,60309277.10523,   0.00058,   0.00075,   0.00078,277506016.00000,   0.00000,274640576.00000,   0.00000,   0.00000,   0.00000,-197134560.00000,   0.00000
245339221.56484,270444733.80958,60782783.68722,   0.00059,   0.00075,   0.00079,279811872.00000,   0.00000,274640576.00000,   0.00000,   0.00000,   0.00000,-194828704.00000,   0.00000
247730912.97384,272449889.23328,61251458.56938,   0.00060,   0.00076,   0.00080,282118880.00000,   0.00000,274640576.00000,   0.00000,   0.00000,   0.00000,-192521696.00000,   0.00000
250122604.38283,274455044.65699,61724965.15137,   0.00060,   0.00076,   0.00080,284431936.00000,   0.00000,274640576.00000,   0.00000,   0.00000,   0.00000,-190208640.00000,   0.00000
252514295.79183,276460200.08069,62193640.03353,   0.00061,   0.00077,   0.00081,286743936.00000,   0.00000,274640576.00000,   0.00000,   0.00000,   0.00000,-187896640.00000,   0.00000
254905987.20083,278465355.50439,62662314.91570,   0.00062,   0.00077,   0.00081,289056864.00000,   0.00000,274640576.00000,   0.00000,   0.00000,   0.00000,-185583712.00000,   0.00000
257307342.00946,280460847.52846,63130989.79787,   0.00062,   0.00077,   0.00082,291368992.00000,   0.00000,274640576.00000,   0.00000,   0.00000,   0.00000,-183271584.00000,   0.00000
259708696.81808,282456339.55254,63599664.68003,   0.00063,   0.00078,   0.00083,293679680.00000,   0.00000,274640576.00000,   0.00000,   0.00000,   0.00000,-180960896.00000,   0.00000
262110051.62671,284451831.57661,64068339.56220,   0.00064,   0.00078,   0.00083,295984832.00000,   0.00000,274640576.00000,   0.00000,   0.00000,   0.00000,-178655744.00000,   0.00000
264511406.43534,286447323.60068,64537014.44437,   0.00064,   0.00079,   0.00084,298279040.00000,   0.00000,274640576.00000,   0.00000,   0.00000,   0.00000,-176361536.00000,   0.00000
266905513.69425,288425904.67539,65005689.32653,   0.00065,   0.00079,   0.00085,300546592.00000,   0.00000,274640576.00000,   0.00000,   0.00000,   0.00000,-174093984.00000,   0.00000
269323779.45223,290428644.24919,65469532.50888,   0.00066,   0.00080,   0.00085,302822752.00000,   0.00000,274640576.00000,   0.00000,   0.00000,   0.00000,-171817824.00000,   0.00000
271717886.71113,292407225.32391,65938207.39105,   0.00067,   0.00080,   0.00086,305081536.00000,   0.00000,274640576.00000,   0.00000,   0.00000,   0.00000,-169559040.00000,   0.00000
274128904.91939,294393053.94834,66402050.57340,   0.00067,   0.00080,   0.00086,307359840.00000,   0.00000,274640576.00000,   0.00000,   0.00000,   0.00000,-167280736.00000,   0.00000
276539923.12766,296378882.57278,66865893.75575,   0.00068,   0.00081,   0.00087,309654496.00000,   0.00000,274640576.00000,   0.00000,   0.00000,   0.00000,-164986080.00000,   0.00000
278943693.78619,298347800.24787,67329736.93810,   0.00069,   0.00081,   0.00088,311951936.00000,   0.00000,274640576.00000,   0.00000,   0.00000,   0.00000,-162688640.00000,   0.00000
281354711.99445,300333628.87231,67793580.12045,   0.00069,   0.00082,   0.00088,314271584.00000,   0.00000,274640576.00000,   0.00000,   0.00000,   0.00000,-160368992.00000,   0.00000
283758482.65299,302302546.54739,68257423.30281,   0.00070,   0.00082,   0.00089,316585664.00000,   0.00000,274640576.00000,   0.00000,   0.00000,   0.00000,-158054912.00000,   0.00000
286162253.31153,304271464.22247,68721266.48516,   0.00071,   0.00083,   0.00089,318901952.00000,   0.00000,274640576.00000,   0.00000,   0.00000,   0.00000,-155738624.00000,   0.00000
288566023.97006,306240381.89755,69180277.96769,   0.00072,   0.00083,   0.00090,321213824.00000,   0.00000,274640576.00000,   0.00000,   0.00000,   0.00000,-153426752.00000,   0.00000
290979458.02823,308199636.17300,69639289.45023,   0.00072,   0.00083,   0.00091,323520832.00000,   0.00000,274640576.00000,   0.00000,   0.00000,   0.00000,-151119744.00000,   0.00000
293383228.68677,310168553.84809,70103132.63258,   0.00073,   0.00084,   0.00091,325825952.00000,   0.00000,274640576.00000,   0.00000,   0.00000,   0.00000,-148814624.00000,   0.00000
295779751.79558,312120560.57381,70562144.11511,   0.00074,   0.00084,   0.00092,328110016.00000,   0.00000,274640576.00000,   0.00000,   0.00000,   0.00000,-146530560.00000,   0.00000
298193185.85375,314079814.84926,71016323.89783,   0.00074,   0.00085,   0.00092,330396256.00000,   0.00000,274640576.00000,   0.00000,   0.00000,   0.00000,-144244320.00000,   0.00000
300582461.41284,316014910.62563,71475335.38036,   0.00075,   0.00085,   0.00093,332660352.00000,   0.00000,274640576.00000,   0.00000,   0.00000,   0.00000,-141980224.00000,   0.00000
302995895.47101,317974164.90108,71929515.16308,   0.00076,   0.00086,   0.00094,334945024.00000,   0.00000,274640576.00000,   0.00000,   0.00000,   0.00000,-139695552.00000,   0.00000
305385171.03009,319909260.67745,72388526.64562,   0.00077,   0.00086,   0.00094,337216992.00000,   0.00000,274640576.00000,   0.00000,   0.00000,   0.00000,-137423584.00000,   0.00000
307774446.58918,321844356.45382,72842706.42834,   0.00077,   0.00086,   0.00095,339496480.00000,   0.00000,274640576.00000,   0.00000,   0.00000,   0.00000,-135144096.00000,   0.00000
310180633.09763,323786699.77992,73296886.21105,   0.00078,   0.00087,   0.00095,341794560.00000,   0.00000,274640576.00000,   0.00000,   0.00000,   0.00000,-132846016.00000,   0.00000
312569908.65671,325721795.55629,73746234.29396,   0.00079,   0.00087,   0.00096,344073504.00000,   0.00000,274640576.00000,   0.00000,   0.00000,   0.00000,-130567072.00000,   0.00000
314951936.66608,327639980.38330,74200414.07667,   0.00079,   0.00088,   0.00096,346323776.00000,   0.00000,274640576.00000,   0.00000,   0.00000,   0.00000,-128316800.00000,   0.00000
317341212.22517,329575076.15967,74649762.15958,   0.00080,   0.00088,   0.00097,348558656.00000,   0.00000,274640576.00000,   0.00000,   0.00000,   0.00000,-126081920.00000,   0.00000
319740151.18389,331500508.53641,75099110.24248,   0.00081,   0.00088,   0.00098,350784576.00000,   0.00000,274640576.00000,   0.00000,   0.00000,   0.00000,-123856000.00000,   0.00000
322114931.64353,333401782.41406,75548458.32538,   0.00082,   0.00089,   0.00098,352999616.00000,   0.00000,274640576.00000,   0.00000,   0.00000,   0.00000,-121640960.00000,   0.00000
324480048.70353,335312719.69135,75997806.40828,   0.00082,   0.00089,   0.00099,355234368.00000,   0.00000,274640576.00000,   0.00000,   0.00000,   0.00000,-119406208.00000,   0.00000
326854829.16317,337213993.56901,76442322.79137,   0.00083,   0.00090,   0.00099,357483040.00000,   0.00000,274640576.00000,   0.00000,   0.00000,   0.00000,-117157536.00000,   0.00000
329236857.17254,339132178.39602,76886839.17446,   0.00084,   0.00090,   0.00100,359755840.00000,   0.00000,274640576.00000,   0.00000,   0.00000,   0.00000,-114884736.00000,   0.00000
331594726.68282,341026204.72395,77331355.55754,   0.00084,   0.00091,   0.00101,362013792.00000,   0.00000,274640576.00000,   0.00000,   0.00000,   0.00000,-112626784.00000,   0.00000
333962259.59274,342910567.65225,77775871.94063,   0.00085,   0.00091,   0.00101,364275328.00000,   0.00000,274640576.00000,   0.00000,   0.00000,   0.00000,-110365248.00000,   0.00000
336320129.10302,344804593.98018,78215556.62390,   0.00086,   0.00091,   0.00102,366535616.00000,   0.00000,274640576.00000,   0.00000,   0.00000,   0.00000,-108104960.00000,   0.00000
338670751.06358,346681709.35876,78660073.00698,   0.00086,   0.00092,   0.00102,368787200.00000,   0.00000,274640576.00000,   0.00000,   0.00000,   0.00000,-105853376.00000,   0.00000
341021373.02414,348558824.73734,79099757.69025,   0.00087,   0.00092,   0.00103,371033824.00000,   0.00000,274640576.00000,   0.00000,   0.00000,   0.00000,-103606752.00000,   0.00000
343371994.98470,350435940.11591,79534610.67371,   0.00088,   0.00092,   0.00103,373274784.00000,   0.00000,274640576.00000,   0.00000,   0.00000,   0.00000,-101365792.00000,   0.00000
345715369.39553,352296144.54513,79974295.35698,   0.00089,   0.00093,   0.00104,375504640.00000,   0.00000,274640576.00000,   0.00000,   0.00000,   0.00000,-99135936.00000,   0.00000
348049080.40673,354166012.37398,80409148.34043,   0.00089,   0.00093,   0.00105,377728576.00000,   0.00000,274640576.00000,   0.00000,   0.00000,   0.00000,-96912000.00000,   0.00000
350375543.86821,356018969.25348,80844001.32389,   0.00090,   0.00094,   0.00105,379938752.00000,   0.00000,274640576.00000,   0.00000,   0.00000,   0.00000,-94701824.00000,   0.00000
352702007.32969,357871926.13297,81274022.60752,   0.00091,   0.00094,   0.00106,382143936.00000,   0.00000,274640576.00000,   0.00000,   0.00000,   0.00000,-92496640.00000,   0.00000
355021223.24144,359707972.06311,81708875.59098,   0.00091,   0.00094,   0.00106,384339840.00000,   0.00000,274640576.00000,   0.00000,   0.00000,   0.00000,-90300736.00000,   0.00000
357330775.75356,361553681.39288,82138896.87462,   0.00092,   0.00095,   0.00107,386532768.00000,   0.00000,274640576.00000,   0.00000,   0.00000,   0.00000,-88107808.00000,   0.00000
359633080.71596,363382479.77330,82568918.15825,   0.00093,   0.00095,   0.00107,388715296.00000,   0.00000,274640576.00000,   0.00000,   0.00000,   0.00000,-85925280.00000,   0.00000
361935385.67836,365211278.15371,82994107.74207,   0.00093,   0.00096,   0.00108,390896416.00000,   0.00000,274640576.00000,   0.00000,   0.00000,   0.00000,-83744160.00000,   0.00000
364237690.64076,367040076.53412,83419297.32590,   0.00094,   0.00096,   0.00108,393079776.00000,   0.00000,274640576.00000,   0.00000,   0.00000,   0.00000,-81560800.00000,   0.00000
366515837.10407,368844716.41546,83844486.90972,   0.00095,   0.00096,   0.00109,395243168.00000,   0.00000,274640576.00000,   0.00000,   0.00000,   0.00000,-79397408.00000,   0.00000
368793983.56739,370649356.29679,84269676.49354,   0.00096,   0.00097,   0.00110,397408960.00000,   0.00000,274640576.00000,   0.00000,   0.00000,   0.00000,-77231616.00000,   0.00000
371072130.03071,372453996.17813,84690034.37754,   0.00096,   0.00097,   0.00110,399573920.00000,   0.00000,274640576.00000,   0.00000,   0.00000,   0.00000,-75066656.00000,   0.00000
373350276.49402,374258636.05946,85110392.26155,   0.00097,   0.00097,   0.00111,401740768.00000,   0.00000,274640576.00000,   0.00000,   0.00000,   0.00000,-72899808.00000,   0.00000
375611512.00798,376056028.39107,85530750.14556,   0.00098,   0.00098,   0.00111,403897568.00000,   0.00000,274640576.00000,   0.00000,   0.00000,   0.00000,-70743008.00000,   0.00000
377865499.97222,377836509.77332,85946276.32974,   0.00098,   0.00098,   0.00112,406040384.00000,   0.00000,274640576.00000,   0.00000,   0.00000,   0.00000,-68600192.00000,   0.00000
380102576.98710,379609743.60585,86361802.51393,   0.00099,   0.00099,   0.00112,408171840.00000,   0.00000,274640576.00000,   0.00000,   0.00000,   0.00000,-66468736.00000,   0.00000
382339654.00198,381382977.43838,86777328.69812,   0.00100,   0.00099,   0.00113,410302752.00000,   0.00000,274640576.00000,   0.00000,   0.00000,   0.00000,-64337824.00000,   0.00000
384576731.01686,383156211.27091,87188023.18250,   0.00100,   0.00099,   0.00113,412429728.00000,   0.00000,274640576.00000,   0.00000,   0.00000,   0.00000,-62210848.00000,   0.00000
386789649.53265,384905286.60435,87598717.66687,   0.00101,   0.00100,   0.00114,414533504.00000,   0.00000,274640576.00000,   0.00000,   0.00000,   0.00000,-60107072.00000,   0.00000
389002568.04845,386654361.93780,88009412.15124,   0.00102,   0.00100,   0.00114,416636448.00000,   0.00000,274640576.00000,   0.00000,   0.00000,   0.00000,-58004128.00000,   0.00000
391215486.56425,388403437.27125,88415274.93580,   0.00102,   0.00100,   0.00115,418735968.00000,   0.00000,274640576.00000,   0.00000,   0.00000,   0.00000,-55904608.00000,   0.00000
393411494.13069,390145265.05497,88821137.72036,   0.00103,   0.00101,   0.00115,420824256.00000,   0.00000,274640576.00000,   0.00000,   0.00000,   0.00000,-53816320.00000,   0.00000
395583343.19805,391862934.33962,89227000.50491,   0.00104,   0.00101,   0.00116,422890368.00000,   0.00000,274640576.00000,   0.00000,   0.00000,   0.00000,-51750208.00000,   0.00000
397772103.21477,393587851.17398,89628031.58965,   0.00104,   0.00102,   0.00117,424965312.00000,   0.00000,274640576.00000,   0.00000,   0.00000,   0.00000,-49675264.00000,   0.00000
399927041.33278,395298272.90890,90029062.67439,   0.00105,   0.00102,   0.00117,427018528.00000,   0.00000,274640576.00000,   0.00000,   0.00000,   0.00000,-47622048.00000,   0.00000
402098890.40014,397015942.19354,90425262.05932,   0.00106,   0.00102,   0.00118,429080672.00000,   0.00000,274640576.00000,   0.00000,   0.00000,   0.00000,-45559904.00000,   0.00000
404246580.96842,398709452.97911,90821461.44424,   0.00106,   0.00103,   0.00118,431121024.00000,   0.00000,274640576.00000,   0.00000,   0.00000,   0.00000,-43519552.00000,   0.00000
406377360.58734,400395716.21494,91217660.82917,   0.00107,   0.00103,   0.00119,433150400.00000,   0.00000,274640576.00000,   0.00000,   0.00000,   0.00000,-41490176.00000,   0.00000
408508140.20627,402081979.45078,91613860.21409,   0.00107,   0.00103,   0.00119,435179808.00000,   0.00000,274640576.00000,   0.00000,   0.00000,   0.00000,-39460768.00000,   0.00000
410622008.87583,403760995.13689,92005227.89920,   0.00108,   0.00104,   0.00120,437194752.00000,   0.00000,274640576.00000,   0.00000,   0.00000,   0.00000,-37445824.00000,   0.00000
412728629.99568,405423099.87365,92391763.88449,   0.00109,   0.00104,   0.00120,439195296.00000,   0.00000,274640576.00000,   0.00000,   0.00000,   0.00000,-35445280.00000,   0.00000
414835251.11552,407085204.61041,92778299.86979,   0.00109,   0.00104,   0.00121,441196032.00000,   0.00000,274640576.00000,   0.00000,   0.00000,   0.00000,-33444544.00000,   0.00000
416924961.28601,408740061.79744,93164835.85508,   0.00110,   0.00105,   0.00121,443185760.00000,   0.00000,274640576.00000,   0.00000,   0.00000,   0.00000,-31454816.00000,   0.00000
418997760.50714,410387671.43475,93551371.84037,   0.00111,   0.00105,   0.00122,445165792.00000,   0.00000,274640576.00000,   0.00000,   0.00000,   0.00000,-29474784.00000,   0.00000
421063312.17854,412018370.12270,93933076.12585,   0.00111,   0.00105,   0.00122,447134560.00000,   0.00000,274640576.00000,   0.00000,   0.00000,   0.00000,-27506016.00000,   0.00000
423119200.45031,413658732.21029,94309948.71151,   0.00112,   0.00106,   0.00123,449104224.00000,   0.00000,274640576.00000,   0.00000,   0.00000,   0.00000,-25536352.00000,   0.00000
425160593.62264,415265272.39916,94686821.29717,   0.00112,   0.00106,   0.00123,451057184.00000,   0.00000,274640576.00000,   0.00000,   0.00000,   0.00000,-23583392.00000,   0.00000
427192323.39533,416881475.98766,95063693.88283,   0.00113,   0.00106,   0.00124,453016064.00000,   0.00000,274640576.00000,   0.00000,   0.00000,   0.00000,-21624512.00000,   0.00000
429207142.21867,418490432.02644,95440566.46849,   0.00114,   0.00107,   0.00124,454968320.00000,   0.00000,274640576.00000,   0.00000,   0.00000,   0.00000,-19672256.00000,   0.00000
431214713.49228,420082477.11586,95807775.65451,   0.00114,   0.00107,   0.00125,456902848.00000,   0.00000,274640576.00000,   0.00000,   0.00000,   0.00000,-17737728.00000,   0.00000
433222284.76589,421674522.20528,96179816.54036,   0.00115,   0.00107,   0.00125,458829824.00000,   0.00000,274640576.00000,   0.00000,   0.00000,   0.00000,-15810752.00000,   0.00000
435205697.54042,423242408.79563,96547025.72639,   0.00115,   0.00108,   0.00126,460708736.00000,   0.00000,274640576.00000,   0.00000,   0.00000,   0.00000,-13931840.00000,   0.00000
437179446.91532,424819958.78560,96914234.91241,   0.00116,   0.00108,   0.00126,462564032.00000,   0.00000,274640576.00000,   0.00000,   0.00000,   0.00000,-12076544.00000,   0.00000
439129037.79114,426373350.27649,97276612.39863,   0.00117,   0.00108,   0.00126,464393824.00000,   0.00000,274640576.00000,   0.00000,   0.00000,   0.00000,-10246752.00000,   0.00000
441078628.66696,427926741.76739,97634158.18502,   0.00117,   0.00109,   0.00127,466249280.00000,   0.00000,274640576.00000,   0.00000,   0.00000,   0.00000,-8391296.00000,   0.00000
443004061.04370,429455974.75920,97996535.67123,   0.00118,   0.00109,   0.00127,468112736.00000,   0.00000,274640576.00000,   0.00000,   0.00000,   0.00000,-6527840.00000,   0.00000
444936740.97016,431002118.70037,98349249.75781,   0.00118,   0.00109,   0.00128,469989248.00000,   0.00000,274640576.00000,   0.00000,   0.00000,   0.00000,-4651328.00000,   0.00000
446828351.44818,432516856.59273,98706795.54421,   0.00119,   0.00110,   0.00128,471829248.00000,   0.00000,274640576.00000,   0.00000,   0.00000,   0.00000,-2811328.00000,   0.00000
448729625.32584,434021931.08547,99059509.63079,   0.00120,   0.00110,   0.00129,473657952.00000,   0.00000,274640576.00000,   0.00000,   0.00000,   0.00000,-982624.00000,   0.00000
449749359.34680,434841923.39098,99248738.62437,   0.00120,   0.00110,   0.00129,474640192.00000,   0.00000,274640576.00000,   0.00000,   0.00000,   0.00000,-384.00000,   0.00000
449845908.21761,434801876.64456,99206954.16823,   0.00120,   0.00110,   0.00129,474640192.00000,   0.00000,274643552.00000,   0.00000,   0.00000,   0.00000,  32.00000,   2.00000
450058754.05893,434707178.96332,99117782.24513,   0.00121,   0.00111,   0.00130,476429536.00000,   0.00001,274649984.00000,   0.00001,   0.00001,   0.00001,  64.00000,   2.00000
450266879.92116,434618172.00714,99027599.68917,   0.00121,   0.00111,   0.00130,476421856.00000,   0.00001,274656384.00000,   0.00001,   0.00001,   0.00001, -64.00000,   2.00000
450467797.83858,434532414.61397,98940552.74744,   0.00122,   0.00111,   0.00131,476416864.00000,   0.00002,274662752.00000,   0.00002,   0.00001,   0.00002, -32.00000,   2.00000
450667845.86972,434447034.83429,98853846.82332,   0.00122,   0.00112,   0.00131,476423424.00000,   0.00003,274669120.00000,   0.00002,   0.00002,   0.00003,   0.00000,   2.00000
450866164.33716,434360112.79046,98768771.63779,   0.00123,   0.00112,   0.00131,476404704.00000,   0.00003,274675360.00000,   0.00002,   0.00002,   0.00003,  64.00000,   2.00000
451060255.18040,434279185.60219,98682752.95950,   0.00123,   0.00112,   0.00132,476396512.00000,   0.00004,274681600.00000,   0.00003,   0.00003,   0.00004,  64.00000,   2.00000
451247111.16579,434201326.58829,98599805.10067,   0.00124,   0.00112,   0.00132,476391456.00000,   0.00004,274687744.00000,   0.00003,   0.00003,   0.00004,  32.00000,   2.00000
451436068.21275,434116589.36043,98519822.80142,   0.00124,   0.00113,   0.00133,476386880.00000,   0.00005,274693888.00000,   0.00004,   0.00003,   0.00005,  96.00000,   2.00000
451620657.58652,434037618.34699,98438806.57810,   0.00125,   0.00113,   0.00133,476378720.00000,   0.00005,274699968.00000,   0.00004,   0.00004,   0.00005,  96.00000,   2.00000
451801023.91849,433964487.84384,98356788.21651,   0.00125,   0.00113,   0.00134,476370496.00000,   0.00006,274705984.00000,   0.00005,   0.00004,   0.00006,  64.00000,   2.00000
451974363.99473,433894477.75883,98277840.47936,   0.00126,   0.00114,   0.00134,476365184.00000,   0.00006,274711968.00000,   0.00005,   0.00004,   0.00006, 160.00000,   2.00000
452149711.29918,433817354.77782,98201780.40575,   0.00126,   0.00114,   0.00134,476360448.00000,   0.00007,274717920.00000,   0.00005,   0.00005,   0.00007,  64.00000,   2.00000
452314816.00728,433749040.93136,98127488.40255,   0.00127,   0.00114,   0.00135,476340416.00000,   0.00008,274723776.00000,   0.00006,   0.00005,   0.00007,   0.00000,   2.00000
452481985.20638,433683586.93074,98049369.89689,   0.00127,   0.00115,   0.00135,476343456.00000,   0.00008,274729600.00000,   0.00006,   0.00005,   0.00008,  64.00000,   2.00000
452642271.60988,433621252.07106,97974307.45145,   0.00128,   0.00115,   0.00136,476337824.00000,   0.00009,274735392.00000,   0.00007,   0.00006,   0.00008,  96.00000,   2.00000
452801338.69300,433557351.13184,97900807.84454,   0.00128,   0.00115,   0.00136,476318432.00000,   0.00009,274741088.00000,   0.00007,   0.00006,   0.00009,   0.00000,   2.00000
452959858.41656,433493773.11998,97827595.75696,   0.00129,   0.00115,   0.00136,476324192.00000,   0.00010,274746816.00000,   0.00007,   0.00007,   0.00009,  96.00000,   2.00000
453105240.57628,433436044.45382,97760139.33240,   0.00129,   0.00116,   0.00137,476307104.00000,   0.00010,274752416.00000,   0.00008,   0.00007,   0.00010,  32.00000,   2.00000
453255710.44609,433383876.75129,97684764.91409,   0.00130,   0.00116,   0.00137,476306592.00000,   0.00011,274758016.00000,   0.00008,   0.00007,   0.00010,  32.00000,   2.00000
453396259.27696,433330468.82364,97617827.45465,   0.00130,   0.00116,   0.00138,476278368.00000,   0.00011,274763488.00000,   0.00009,   0.00008,   0.00011,  32.00000,   2.00000
453536227.43723,433277213.78148,97551115.05520,   0.00131,   0.00117,   0.00138,476283776.00000,   0.00012,274768960.00000,   0.00009,   0.00008,   0.00011,   0.00000,   2.00000
453672271.82893,433229639.28110,97483298.28975,   0.00131,   0.00117,   0.00138,476275072.00000,   0.00012,274774368.00000,   0.00009,   0.00008,   0.00012,  64.00000,   2.00000
453804637.23761,433177902.01326,97421108.17125,   0.00132,   0.00117,   0.00139,476257984.00000,   0.00013,274779680.00000,   0.00010,   0.00009,   0.00012, -64.00000,   2.00000
453939362.40439,433129039.10596,97355054.06613,   0.00132,   0.00117,   0.00139,476260320.00000,   0.00013,274785024.00000,   0.00010,   0.00009,   0.00013, 160.00000,   2.00000
454063940.24100,433088586.00572,97290605.15846,   0.00133,   0.00118,   0.00140,476239744.00000,   0.00014,274790240.00000,   0.00010,   0.00009,   0.00013,   0.00000,   2.00000
454182169.32409,433051376.38208,97229195.23441,   0.00133,   0.00118,   0.00140,476233312.00000,   0.00014,274795424.00000,   0.00011,   0.00010,   0.00014,  64.00000,   2.00000
454305583.21453,433009536.84140,97166476.38094,   0.00133,   0.00118,   0.00140,476224800.00000,   0.00015,274800544.00000,   0.00011,   0.00010,   0.00014,   0.00000,   2.00000
454416466.90669,432973755.07751,97109516.25914,   0.00134,   0.00119,   0.00141,476206816.00000,   0.00015,274805600.00000,   0.00012,   0.00010,   0.00014,   0.00000,   2.00000
454529684.10510,432940654.50986,97048631.59784,   0.00134,   0.00119,   0.00141,476208928.00000,   0.00015,274810624.00000,   0.00012,   0.00010,   0.00015,  64.00000,   2.00000
454642197.93560,432905959.79538,96989223.70769,   0.00135,   0.00119,   0.00141,476188576.00000,   0.00016,274815584.00000,   0.00012,   0.00011,   0.00015, -32.00000,   2.00000
454739341.76667,432884603.84996,96932958.14918,   0.00135,   0.00119,   0.00142,476181312.00000,   0.00016,274820480.00000,   0.00013,   0.00011,   0.00016, 192.00000,   2.00000
454844698.73708,432851234.27877,96877938.92705,   0.00135,   0.00120,   0.00142,476161632.00000,   0.00017,274825280.00000,   0.00013,   0.00011,   0.00016, 128.00000,   2.00000
454940674.68379,432828166.91610,96823254.37604,   0.00136,   0.00120,   0.00142,476165600.00000,   0.00017,274830080.00000,   0.00013,   0.00012,   0.00017,   0.00000,   2.00000
455027180.71047,432813809.10463,96770203.03313,   0.00136,   0.00120,   0.00143,476144256.00000,   0.00018,274834816.00000,   0.00014,   0.00012,   0.00017,  64.00000,   2.00000
455116269.25696,432792119.64885,96719895.34472,   0.00137,   0.00120,   0.00143,476138144.00000,   0.00018,274839488.00000,   0.00014,   0.00012,   0.00017,   0.00000,   2.00000
455204837.78559,432768824.15318,96671008.62930,   0.00137,   0.00121,   0.00143,476117344.00000,   0.00019,274844064.00000,   0.00014,   0.00012,   0.00018,  32.00000,   2.00000
455286814.41891,432758348.17118,96618307.68734,   0.00137,   0.00121,   0.00144,476118336.00000,   0.00019,274848640.00000,   0.00015,   0.00013,   0.00018,   0.00000,   2.00000
455368327.46428,432746240.96481,96567032.44592,   0.00138,   0.00121,   0.00144,476097408.00000,   0.00019,274853088.00000,   0.00015,   0.00013,   0.00019,  64.00000,   2.00000
455437598.24327,432740115.66617,96521441.41179,   0.00138,   0.00121,   0.00144,476078656.00000,   0.00020,274857504.00000,   0.00015,   0.00013,   0.00019, -32.00000,   2.00000
455506647.84031,432733993.22811,96475988.12740,   0.00138,   0.00122,   0.00145,476083072.00000,   0.00020,274861888.00000,   0.00016,   0.00014,   0.00019,  32.00000,   2.00000
455575259.81132,432726192.03488,96431914.46243,   0.00139,   0.00122,   0.00145,476061984.00000,   0.00021,274866176.00000,   0.00016,   0.00014,   0.00020, -32.00000,   2.00000
455631438.36339,432734201.89686,96386778.57068,   0.00139,   0.00122,   0.00145,476051136.00000,   0.00021,274870432.00000,   0.00016,   0.00014,   0.00020, -32.00000,   2.00000
455696222.02279,432730251.38951,96342847.85967,   0.00139,   0.00122,   0.00146,476030560.00000,   0.00021,274874560.00000,   0.00016,   0.00014,   0.00020, 128.00000,   2.00000
455751775.39898,432736494.36915,96299197.82113,   0.00140,   0.00123,   0.00146,476034144.00000,   0.00022,274878720.00000,   0.00017,   0.00015,   0.00021, -32.00000,   2.00000
455800996.76572,432744025.83908,96259666.29030,   0.00140,   0.00123,   0.00146,476001120.00000,   0.00022,274882752.00000,   0.00017,   0.00015,   0.00021,  32.00000,   2.00000
455844247.00317,432754648.93171,96223039.95270,   0.00140,   0.00123,   0.00147,475993504.00000,   0.00022,274886720.00000,   0.00017,   0.00015,   0.00021, 160.00000,   2.00000
455889942.12105,432767639.44801,96182349.96345,   0.00141,   0.00123,   0.00147,475994624.00000,   0.00023,274890688.00000,   0.00018,   0.00015,   0.00022, 160.00000,   2.00000
455926367.28995,432789190.03587,96143173.85144,   0.00141,   0.00124,   0.00147,475972416.00000,   0.00023,274894560.00000,   0.00018,   0.00016,   0.00022,  64.00000,   2.00000
455959703.84058,432806376.56281,96109439.16905,   0.00141,   0.00124,   0.00147,475953696.00000,   0.00024,274898336.00000,   0.00018,   0.00016,   0.00022,  64.00000,   2.00000
455995760.19381,432826142.29756,96071688.80084,   0.00141,   0.00124,   0.00148,475954432.00000,   0.00024,274902112.00000,   0.00018,   0.00016,   0.00023,  64.00000,   2.00000
456025572.59959,432847179.63007,96038009.11761,   0.00142,   0.00124,   0.00148,475921216.00000,   0.00024,274905760.00000,   0.00019,   0.00016,   0.00023,  64.00000,   2.00000
456043341.90696,432874117.94952,96009911.71096,   0.00142,   0.00124,   0.00148,475901504.00000,   0.00025,274909312.00000,   0.00019,   0.00016,   0.00023,  96.00000,   2.00000
456063907.03678,432903644.41202,95977786.02531,   0.00142,   0.00125,   0.00148,475902080.00000,   0.00025,274912864.00000,   0.00019,   0.00017,   0.00024,  32.00000,   2.00000
456081064.73429,432938535.04518,95944332.11123,   0.00142,   0.00125,   0.00149,475891264.00000,   0.00025,274916384.00000,   0.00019,   0.00017,   0.00024,  32.00000,   2.00000
456092367.98246,432976475.28805,95913751.73891,   0.00143,   0.00125,   0.00149,475882944.00000,   0.00025,274919840.00000,   0.00020,   0.00017,   0.00024,  96.00000,   2.00000
456100081.74577,433018088.93392,95883031.42282,   0.00143,   0.00125,   0.00149,475846464.00000,   0.00026,274923136.00000,   0.00020,   0.00017,   0.00025, -32.00000,   2.00000
456099145.33730,433060099.37131,95859282.73963,   0.00143,   0.00126,   0.00149,475840928.00000,   0.00026,274926432.00000,   0.00020,   0.00017,   0.00025, -64.00000,   2.00000
456106706.75195,433099894.66524,95829910.61451,   0.00143,   0.00126,   0.00150,475827488.00000,   0.00026,274929632.00000,   0.00020,   0.00018,   0.00025,   0.00000,   2.00000
456102356.25532,433145643.68760,95806106.95633,   0.00144,   0.00126,   0.00150,475807424.00000,   0.00027,274932800.00000,   0.00021,   0.00018,   0.00025, -64.00000,   2.00000
456094803.33846,433196879.68282,95780976.32569,   0.00144,   0.00126,   0.00150,475795968.00000,   0.00027,274935872.00000,   0.00021,   0.00018,   0.00026,  32.00000,   2.00000
456075332.78355,433254021.66738,95761390.18626,   0.00144,   0.00126,   0.00150,475775872.00000,   0.00027,274938880.00000,   0.00021,   0.00018,   0.00026,  32.00000,   2.00000
456064420.17319,433308954.25706,95736166.55251,   0.00144,   0.00127,   0.00151,475762112.00000,   0.00027,274941824.00000,   0.00021,   0.00018,   0.00026,  96.00000,   2.00000
456038803.64670,433367179.65609,95720603.17401,   0.00144,   0.00127,   0.00151,475744704.00000,   0.00028,274944672.00000,   0.00021,   0.00019,   0.00026,  96.00000,   2.00000
456012803.40748,433433499.58084,95699563.71924,   0.00145,   0.00127,   0.00151,475730144.00000,   0.00028,274947488.00000,   0.00022,   0.00019,   0.00027,  64.00000,   2.00000
455986785.07699,433499613.02596,95678555.00352,   0.00145,   0.00127,   0.00151,475732960.00000,   0.00028,274950304.00000,   0.00022,   0.00019,   0.00027, -32.00000,   2.00000
455951373.44999,433572555.96454,95660108.45944,   0.00145,   0.00127,   0.00151,475684192.00000,   0.00028,274952928.00000,   0.00022,   0.00019,   0.00027, -64.00000,   2.00000
455913266.95444,433642757.93716,95645831.60843,   0.00145,   0.00128,   0.00152,475689536.00000,   0.00029,274955552.00000,   0.00022,   0.00019,   0.00027, -64.00000,   2.00000
455877877.42891,433713895.22600,95628658.38784,   0.00145,   0.00128,   0.00152,475663872.00000,   0.00029,274958080.00000,   0.00022,   0.00019,   0.00028,  64.00000,   2.00000
455827369.57319,433797990.96354,95614370.04954,   0.00145,   0.00128,   0.00152,475654240.00000,   0.00029,274960576.00000,   0.00023,   0.00020,   0.00028, -64.00000,   2.00000
455776799.91912,433880390.74409,95601304.00391,   0.00146,   0.00128,   0.00152,475631168.00000,   0.00029,274962976.00000,   0.00023,   0.00020,   0.00028, -64.00000,   2.00000
455726039.54304,433960993.97610,95589424.29038,   0.00146,   0.00128,   0.00152,475608160.00000,   0.00030,274965280.00000,   0.00023,   0.00020,   0.00028,   0.00000,   2.00000
455666314.80867,434051671.14725,95577720.94172,   0.00146,   0.00129,   0.00153,475609728.00000,   0.00030,274967584.00000,   0.00023,   0.00020,   0.00028, -64.00000,   2.00000
455600524.43547,434143701.92113,95569960.10323,   0.00146,   0.00129,   0.00153,475574944.00000,   0.00030,274969728.00000,   0.00023,   0.00020,   0.00029, -32.00000,   2.00000
455537403.03641,434238006.72770,95558036.99066,   0.00146,   0.00129,   0.00153,475574368.00000,   0.00030,274971904.00000,   0.00023,   0.00020,   0.00029, -96.00000,   2.00000
455468224.54107,434333710.76467,95550057.97221,   0.00146,   0.00129,   0.00153,475539392.00000,   0.00030,274973920.00000,   0.00024,   0.00020,   0.00029,  64.00000,   2.00000
455383971.35128,434442416.71368,95544947.21083,   0.00146,   0.00129,   0.00153,475529248.00000,   0.00031,274975904.00000,   0.00024,   0.00021,   0.00029, 160.00000,   2.00000
455308537.39230,434539095.76048,95540838.98552,   0.00146,   0.00130,   0.00153,475506528.00000,   0.00031,274977824.00000,   0.00024,   0.00021,   0.00029, -64.00000,   2.00000
455220982.99565,434651591.28500,95535509.08809,   0.00146,   0.00130,   0.00154,475493184.00000,   0.00031,274979648.00000,   0.00024,   0.00021,   0.00029,  64.00000,   2.00000
455133030.28940,434762154.29457,95531292.33634,   0.00146,   0.00130,   0.00154,475469792.00000,   0.00031,274981408.00000,   0.00024,   0.00021,   0.00030,   0.00000,   2.00000
455039228.19176,434875686.61674,95529829.62138,   0.00146,   0.00130,   0.00154,475459936.00000,   0.00031,274983104.00000,   0.00024,   0.00021,   0.00030,  32.00000,   2.00000
454942111.98262,434994592.80763,95526927.38141,   0.00146,   0.00130,   0.00154,475447200.00000,   0.00031,274984768.00000,   0.00024,   0.00021,   0.00030,  96.00000,   2.00000
454838632.40742,435114737.54566,95527880.28386,   0.00146,   0.00130,   0.00154,475411872.00000,   0.00032,274986304.00000,   0.00024,   0.00021,   0.00030, -96.00000,   2.00000
454735030.82798,435244547.22402,95522134.17175,   0.00147,   0.00131,   0.00154,475421408.00000,   0.00032,274987840.00000,   0.00025,   0.00021,   0.00030, -64.00000,   2.00000
454619355.62615,435368997.81692,95529702.58358,   0.00147,   0.00131,   0.00154,475366528.00000,   0.00032,274989184.00000,   0.00025,   0.00021,   0.00030,  32.00000,   2.00000
454506008.00388,435505444.60498,95526352.31192,   0.00147,   0.00131,   0.00155,475373056.00000,   0.00032,274990560.00000,   0.00025,   0.00021,   0.00030, -64.00000,   2.00000
454383618.14659,435640689.73027,95531019.38146,   0.00147,   0.00131,   0.00155,475340416.00000,   0.00032,274991808.00000,   0.00025,   0.00022,   0.00030,  32.00000,   2.00000
454255261.99904,435778867.35533,95538406.30615,   0.00147,   0.00131,   0.00155,475330144.00000,   0.00032,274993024.00000,   0.00025,   0.00022,   0.00031,  32.00000,   2.00000
454129164.86081,435917818.84115,95542744.70151,   0.00147,   0.00131,   0.00155,475303072.00000,   0.00032,274994144.00000,   0.00025,   0.00022,   0.00031, -32.00000,   2.00000
453993915.36439,436066697.93305,95547185.28076,   0.00147,   0.00132,   0.00155,475303712.00000,   0.00032,274995232.00000,   0.00025,   0.00022,   0.00031, -96.00000,   2.00000
453852330.39806,436217077.01905,95555502.08923,   0.00147,   0.00132,   0.00155,475267872.00000,   0.00032,274996224.00000,   0.00025,   0.00022,   0.00031, -64.00000,   2.00000
453709411.83365,436364889.61741,95564703.84828,   0.00147,   0.00132,   0.00155,475243616.00000,   0.00033,274997088.00000,   0.00025,   0.00022,   0.00031,-992.00000,   1.00000
453563970.97431,436519016.51837,95572671.57509,   0.00146,   0.00132,   0.00155,475229248.00000,   0.00033,274997920.00000,   0.00025,   0.00022,   0.00031,-992.00000,   1.00000
453406333.72951,436679145.44970,95586058.00649,   0.00146,   0.00132,   0.00155,475207136.00000,   0.00033,274998688.00000,   0.00025,   0.00022,   0.00031,-800.00000,   1.00000
453247955.51229,436847333.94144,95593833.01754,   0.00146,   0.00132,   0.00155,475190752.00000,   0.00033,274999360.00000,   0.00025,   0.00022,   0.00031,-640.00000,   1.00000
453086199.27122,437011118.35430,95606823.02127,   0.00146,   0.00133,   0.00155,475169344.00000,   0.00033,274999968.00000,   0.00025,   0.00022,   0.00031,-640.00000,   1.00000
452917873.54622,437187385.82192,95615741.85878,   0.00146,   0.00133,   0.00156,475166720.00000,   0.00033,275000576.00000,   0.00025,   0.00022,   0.00031,-672.00000,   1.00000
452743453.74860,437355730.27560,95635291.09343,   0.00146,   0.00133,   0.00156,475122336.00000,   0.00033,275001024.00000,   0.00025,   0.00022,   0.00031,-416.00000,   1.00000
452564843.09599,437538886.68868,95646542.96972,   0.00146,   0.00133,   0.00156,475116992.00000,   0.00033,275001440.00000,   0.00025,   0.00022,   0.00031,-544.00000,   1.00000
452376897.41698,437721060.36454,95665793.76637,   0.00146,   0.00133,   0.00156,475083552.00000,   0.00033,275001728.00000,   0.00025,   0.00022,   0.00031,-288.00000,   1.00000
452191291.15753,437905410.70848,95680792.45339,   0.00146,   0.00133,   0.00156,475081376.00000,   0.00033,275002016.00000,   0.00026,   0.00022,   0.00031,-416.00000,   1.00000
451999109.70221,438091535.83154,95699671.23937,   0.00146,   0.00133,   0.00156,475044800.00000,   0.00033,275002176.00000,   0.00026,   0.00022,   0.00031,-192.00000,   1.00000
451803129.77191,438283027.56837,95717030.04779,   0.00146,   0.00133,   0.00156,475030944.00000,   0.00033,275002272.00000,   0.00026,   0.00022,   0.00031, -96.00000,   1.00000
451594492.89244,438480445.91062,95739743.71366,   0.00145,   0.00134,   0.00156,475008384.00000,   0.00033,275002272.00000,   0.00026,   0.00022,   0.00031,  32.00000,   1.00000
451367403.00108,438659218.80381,95759070.51292,   0.00145,   0.00134,   0.00156,474983424.00000,   0.00033,275002272.00000,   0.00026,   0.00022,   0.00031,-18848.00000,   0.00000
451130649.71009,438847655.09664,95768733.91256,   0.00145,   0.00134,   0.00156,474958560.00000,   0.00033,275002272.00000,   0.00026,   0.00022,   0.00031,-43712.00000,   0.00000
450852826.97066,439004685.34067,95778397.31219,   0.00145,   0.00134,   0.00156,474899968.00000,   0.00033,275002272.00000,   0.00026,   0.00022,   0.00031,-102304.00000,   0.00000
450567756.68151,439144804.63534,95788060.71182,   0.00145,   0.00134,   0.00156,474830560.00000,   0.00033,275002272.00000,   0.00026,   0.00022,   0.00031,-171712.00000,   0.00000
450231953.54429,439263181.28083,95788060.71182,   0.00145,   0.00134,   0.00156,474721312.00000,   0.00033,275002272.00000,   0.00026,   0.00022,   0.00031,-280960.00000,   0.00000
449896150.40706,439381557.92633,95788060.71182,   0.00145,   0.00134,   0.00156,474612416.00000,   0.00033,275002272.00000,   0.00026,   0.00022,   0.00031,-389856.00000,   0.00000
449526525.37113,439485439.47238,95778397.31219,   0.00144,   0.00134,   0.00156,474475040.00000,   0.00033,275002272.00000,   0.00026,   0.00022,   0.00031,-527232.00000,   0.00000
449132741.83611,439565162.51934,95768733.91256,   0.00144,   0.00135,   0.00156,474315360.00000,   0.00033,275002272.00000,   0.00026,   0.00022,   0.00031,-686912.00000,   0.00000
448722047.35174,439637638.01658,95754238.81311,   0.00144,   0.00135,   0.00156,474141568.00000,   0.00033,275002272.00000,   0.00026,   0.00022,   0.00031,-860704.00000,   0.00000
448270283.41893,439678707.46502,95734912.01384,   0.00144,   0.00135,   0.00156,473931296.00000,   0.00033,275002272.00000,   0.00026,   0.00022,   0.00031,-1070976.00000,   0.00000
447808856.08649,439729440.31309,95715585.21458,   0.00144,   0.00135,   0.00156,473721056.00000,   0.00033,275002272.00000,   0.00026,   0.00022,   0.00031,-1281216.00000,   0.00000
447323270.25496,439756014.66208,95686595.01568,   0.00143,   0.00135,   0.00156,473482624.00000,   0.00033,275002272.00000,   0.00026,   0.00022,   0.00031,-1519648.00000,   0.00000
446796614.97500,439751182.96226,95657604.81679,   0.00143,   0.00135,   0.00156,473210560.00000,   0.00033,275002272.00000,   0.00026,   0.00022,   0.00031,-1791712.00000,   0.00000
446260296.29541,439756014.66208,95623782.91807,   0.00143,   0.00135,   0.00156,472935648.00000,   0.00033,275002272.00000,   0.00026,   0.00022,   0.00031,-2066624.00000,   0.00000
445675660.61765,439712529.36373,95585129.31954,   0.00143,   0.00135,   0.00156,472612928.00000,   0.00033,275002272.00000,   0.00026,   0.00022,   0.00031,-2389344.00000,   0.00000
445098272.48962,439685955.01475,95541644.02120,   0.00142,   0.00135,   0.00156,472298848.00000,   0.00033,275002272.00000,   0.00026,   0.00022,   0.00031,-2703424.00000,   0.00000
444479814.91316,439627974.61695,95498158.72285,   0.00142,   0.00136,   0.00156,471950912.00000,   0.00033,275002272.00000,   0.00026,   0.00022,   0.00031,-3051360.00000,   0.00000
443827535.43797,439555499.11971,95445010.02487,   0.00142,   0.00136,   0.00155,471574880.00000,   0.00033,275002272.00000,   0.00026,   0.00022,   0.00031,-3427392.00000,   0.00000
443175255.96279,439483023.62247,95391861.32690,   0.00141,   0.00136,   0.00155,471199296.00000,   0.00033,275002272.00000,   0.00026,   0.00022,   0.00031,-3802976.00000,   0.00000
442481907.03918,439379142.07642,95329049.22929,   0.00141,   0.00136,   0.00155,470784192.00000,   0.00033,275002272.00000,   0.00026,   0.00022,   0.00031,-4218080.00000,   0.00000
441771647.16620,439268012.98065,95266237.13168,   0.00141,   0.00136,   0.00155,470358176.00000,   0.00033,275002272.00000,   0.00026,   0.00022,   0.00031,-4644096.00000,   0.00000
441027565.39451,439142388.78543,95203425.03407,   0.00141,   0.00136,   0.00155,469909952.00000,   0.00033,275002272.00000,   0.00026,   0.00022,   0.00031,-5092320.00000,   0.00000
440259325.12374,438992606.09113,95130949.53682,   0.00140,   0.00136,   0.00155,469433632.00000,   0.00033,275002272.00000,   0.00026,   0.00022,   0.00031,-5568640.00000,   0.00000
439474173.90362,438835575.84710,95053642.33977,   0.00140,   0.00136,   0.00155,468943680.00000,   0.00033,275002272.00000,   0.00026,   0.00022,   0.00031,-6058592.00000,   0.00000
438647953.23506,438647139.55427,94976335.14271,   0.00140,   0.00136,   0.00155,468420160.00000,   0.00033,275002272.00000,   0.00026,   0.00022,   0.00031,-6582112.00000,   0.00000
437812069.16686,438468366.66108,94889364.54602,   0.00139,   0.00136,   0.00155,467891360.00000,   0.00033,275002272.00000,   0.00026,   0.00022,   0.00031,-7110912.00000,   0.00000
436952026.59959,438265435.26880,94802393.94933,   0.00139,   0.00136,   0.00155,467340576.00000,   0.00033,275002272.00000,   0.00026,   0.00022,   0.00031,-7661696.00000,   0.00000
436050914.58387,438031097.82771,94710591.65282,   0.00139,   0.00136,   0.00154,466753312.00000,   0.00033,275002272.00000,   0.00026,   0.00022,   0.00031,-8248960.00000,   0.00000
435149802.56816,437796760.38663,94613957.65650,   0.00138,   0.00137,   0.00154,466163776.00000,   0.00033,275002272.00000,   0.00026,   0.00022,   0.00031,-8838496.00000,   0.00000
434197957.70438,437540680.29637,94512491.96036,   0.00138,   0.00137,   0.00154,465537984.00000,   0.00033,275002272.00000,   0.00026,   0.00022,   0.00031,-9464288.00000,   0.00000
433246112.84060,437284600.20612,94411026.26422,   0.00137,   0.00137,   0.00154,464912832.00000,   0.00033,275002272.00000,   0.00026,   0.00022,   0.00031,-10089440.00000,   0.00000
432253198.52838,436997114.06706,94299897.16845,   0.00137,   0.00137,   0.00154,464248224.00000,   0.00033,275002272.00000,   0.00026,   0.00022,   0.00031,-10754048.00000,   0.00000
431243373.26680,436702380.37827,94188768.07267,   0.00137,   0.00137,   0.00154,463572960.00000,   0.00033,275002272.00000,   0.00026,   0.00022,   0.00031,-11429312.00000,   0.00000
430192478.55679,436376240.64068,94072807.27709,   0.00136,   0.00137,   0.00154,462861408.00000,   0.00033,275002272.00000,   0.00026,   0.00022,   0.00031,-12140864.00000,   0.00000
429141583.84677,436050100.90309,93952014.78168,   0.00136,   0.00137,   0.00154,462147808.00000,   0.00033,275002272.00000,   0.00026,   0.00022,   0.00031,-12854464.00000,   0.00000
428056867.23805,435709466.06605,93826390.58646,   0.00135,   0.00137,   0.00153,461410208.00000,   0.00033,275002272.00000,   0.00026,   0.00022,   0.00031,-13592064.00000,   0.00000
426931081.18088,435337425.18021,93695934.69143,   0.00135,   0.00137,   0.00153,460637344.00000,   0.00033,275002272.00000,   0.00026,   0.00022,   0.00031,-14364928.00000,   0.00000
425795631.72409,434975047.69400,93560647.09657,   0.00134,   0.00137,   0.00153,459864640.00000,   0.00033,275002272.00000,   0.00026,   0.00022,   0.00031,-15137632.00000,   0.00000
424628776.21849,434571600.75935,93420527.80191,   0.00134,   0.00137,   0.00153,459058080.00000,   0.00033,275002272.00000,   0.00026,   0.00022,   0.00031,-15944192.00000,   0.00000
423452257.31325,434177817.22433,93280408.50724,   0.00134,   0.00137,   0.00153,458255584.00000,   0.00033,275002272.00000,   0.00026,   0.00022,   0.00031,-16746688.00000,   0.00000
422234668.95958,433752627.64051,93135457.51275,   0.00133,   0.00137,   0.00152,457420000.00000,   0.00033,275002272.00000,   0.00026,   0.00022,   0.00031,-17582272.00000,   0.00000
420992922.10683,433303279.55761,92980843.11864,   0.00133,   0.00137,   0.00152,456559040.00000,   0.00033,275002272.00000,   0.00026,   0.00022,   0.00031,-18443232.00000,   0.00000
419741511.85445,432863594.87434,92826228.72452,   0.00132,   0.00137,   0.00152,455700448.00000,   0.00033,275002272.00000,   0.00026,   0.00022,   0.00031,-19301824.00000,   0.00000
418458695.55326,432382840.74263,92666782.63059,   0.00132,   0.00137,   0.00152,454806112.00000,   0.00033,275002272.00000,   0.00026,   0.00022,   0.00031,-20196160.00000,   0.00000
417149304.90308,431904502.46083,92507336.53665,   0.00131,   0.00137,   0.00152,453901184.00000,   0.00033,275002272.00000,   0.00026,   0.00022,   0.00031,-21101088.00000,   0.00000
415815755.75382,431402005.67995,92338227.04309,   0.00131,   0.00137,   0.00151,452967456.00000,   0.00033,275002272.00000,   0.00026,   0.00022,   0.00031,-22034816.00000,   0.00000
414448384.70585,430885013.79962,92164285.84971,   0.00130,   0.00137,   0.00151,452007776.00000,   0.00033,275002272.00000,   0.00026,   0.00022,   0.00031,-22994496.00000,   0.00000
413081013.65788,430368021.91929,91990344.65632,   0.00130,   0.00137,   0.00151,451047552.00000,   0.00033,275002272.00000,   0.00026,   0.00022,   0.00031,-23954720.00000,   0.00000
411672573.16147,429819623.99016,91811571.76313,   0.00129,   0.00137,   0.00151,450050560.00000,   0.00033,275002272.00000,   0.00026,   0.00022,   0.00031,-24951712.00000,   0.00000
410223063.21662,429239820.01222,91623135.47030,   0.00128,   0.00137,   0.00150,449014144.00000,   0.00033,275002272.00000,   0.00026,   0.00022,   0.00031,-25988128.00000,   0.00000
408780800.82150,428676926.98364,91434699.17747,   0.00128,   0.00138,   0.00150,447989728.00000,   0.00033,275002272.00000,   0.00026,   0.00022,   0.00031,-27012544.00000,   0.00000
407297468.97794,428082627.90625,91246262.88464,   0.00127,   0.00138,   0.00150,446932608.00000,   0.00033,275002272.00000,   0.00026,   0.00022,   0.00031,-28069664.00000,   0.00000
405797226.18503,427481081.27914,91048163.19217,   0.00127,   0.00138,   0.00150,445859424.00000,   0.00033,275002272.00000,   0.00026,   0.00022,   0.00031,-29142848.00000,   0.00000
404255913.94367,426848128.60323,90845231.79990,   0.00126,   0.00138,   0.00149,444751008.00000,   0.00033,275002272.00000,   0.00026,   0.00022,   0.00031,-30251264.00000,   0.00000
402714601.70232,426215175.92731,90642300.40762,   0.00126,   0.00138,   0.00149,443643776.00000,   0.00033,275002272.00000,   0.00026,   0.00022,   0.00031,-31358496.00000,   0.00000
401132220.01253,425550817.20259,90429705.61571,   0.00125,   0.00138,   0.00149,442498368.00000,   0.00033,275002272.00000,   0.00026,   0.00022,   0.00031,-32503904.00000,   0.00000
399540174.92311,424896121.87750,90217110.82380,   0.00124,   0.00138,   0.00149,441355328.00000,   0.00033,275002272.00000,   0.00026,   0.00022,   0.00031,-33646944.00000,   0.00000
397899812.83552,424193109.55425,89999684.33207,   0.00124,   0.00138,   0.00148,440165472.00000,   0.00033,275002272.00000,   0.00026,   0.00022,   0.00031,-34836800.00000,   0.00000
396249787.34831,423499760.63063,89777426.14053,   0.00123,   0.00138,   0.00148,438974944.00000,   0.00033,275002272.00000,   0.00026,   0.00022,   0.00031,-36027328.00000,   0.00000
394575603.36201,422782253.20793,89550336.24917,   0.00123,   0.00138,   0.00148,437760640.00000,   0.00033,275002272.00000,   0.00026,   0.00022,   0.00031,-37241632.00000,   0.00000
392877260.87663,422040587.28615,89318414.65799,   0.00122,   0.00138,   0.00147,436522560.00000,   0.00033,275002272.00000,   0.00026,   0.00022,   0.00031,-38479712.00000,   0.00000
391169254.99162,421308584.76400,89081661.36700,   0.00121,   0.00138,   0.00147,435284480.00000,   0.00033,275002272.00000,   0.00026,   0.00022,   0.00031,-39717792.00000,   0.00000
389420179.65817,420545176.19305,88844908.07601,   0.00121,   0.00138,   0.00147,434015072.00000,   0.00033,275002272.00000,   0.00026,   0.00022,   0.00031,-40987200.00000,   0.00000
387646945.82565,419757609.12302,88598491.38538,   0.00120,   0.00138,   0.00147,432719328.00000,   0.00033,275002272.00000,   0.00026,   0.00022,   0.00031,-42282944.00000,   0.00000
385856801.04376,418962794.50326,88352074.69476,   0.00119,   0.00138,   0.00146,431415200.00000,   0.00033,275002272.00000,   0.00026,   0.00022,   0.00031,-43587072.00000,   0.00000
384049745.31252,418160732.33378,88100826.30432,   0.00119,   0.00138,   0.00146,430100096.00000,   0.00033,275002272.00000,   0.00026,   0.00022,   0.00031,-44902176.00000,   0.00000
382208867.68256,417344175.06485,87844746.21406,   0.00118,   0.00138,   0.00146,428763328.00000,   0.00033,275002272.00000,   0.00026,   0.00022,   0.00031,-46238944.00000,   0.00000
380343831.55353,416503459.29684,87583834.42399,   0.00117,   0.00138,   0.00145,427403936.00000,   0.00033,275002272.00000,   0.00026,   0.00022,   0.00031,-47598336.00000,   0.00000
378454636.92541,415638585.02975,87322922.63392,   0.00117,   0.00137,   0.00145,426024960.00000,   0.00033,275002272.00000,   0.00026,   0.00022,   0.00031,-48977312.00000,   0.00000
376548531.34794,414766463.21293,87052347.44422,   0.00116,   0.00137,   0.00145,424632416.00000,   0.00033,275002272.00000,   0.00026,   0.00022,   0.00031,-50369856.00000,   0.00000
374608603.87175,413879846.29667,86781772.25451,   0.00115,   0.00137,   0.00144,423221792.00000,   0.00033,275002272.00000,   0.00026,   0.00022,   0.00031,-51780480.00000,   0.00000
372668676.39557,412993229.38040,86501533.66517,   0.00115,   0.00137,   0.00144,421808320.00000,   0.00033,275002272.00000,   0.00026,   0.00022,   0.00031,-53193952.00000,   0.00000
370687679.47095,412075206.41533,86221295.07584,   0.00114,   0.00137,   0.00143,420365248.00000,   0.00033,275002272.00000,   0.00026,   0.00022,   0.00031,-54637024.00000,   0.00000
368682524.04724,411133024.95118,85936224.78668,   0.00113,   0.00137,   0.00143,418899744.00000,   0.00033,275002272.00000,   0.00026,   0.00022,   0.00031,-56102528.00000,   0.00000
366650794.27455,410193259.33694,85646322.79771,   0.00112,   0.00137,   0.00143,417425536.00000,   0.00033,275002272.00000,   0.00026,   0.00022,   0.00031,-57576736.00000,   0.00000
364611816.95213,409236582.77334,85351589.10893,   0.00112,   0.00137,   0.00142,415939392.00000,   0.00033,275002272.00000,   0.00026,   0.00022,   0.00031,-59062880.00000,   0.00000
362531770.18128,408248500.16094,85056855.42014,   0.00111,   0.00137,   0.00142,414423456.00000,   0.00033,275002272.00000,   0.00026,   0.00022,   0.00031,-60578816.00000,   0.00000
360434812.46107,407253169.99881,84752458.33173,   0.00110,   0.00137,   0.00142,412893920.00000,   0.00033,275002272.00000,   0.00026,   0.00022,   0.00031,-62108352.00000,   0.00000
358320943.79150,406250592.28696,84448061.24331,   0.00109,   0.00137,   0.00141,411356544.00000,   0.00033,275002272.00000,   0.00026,   0.00022,   0.00031,-63645728.00000,   0.00000
356182916.62285,405223856.07603,84138832.45507,   0.00109,   0.00137,   0.00141,409796064.00000,   0.00033,275002272.00000,   0.00026,   0.00022,   0.00031,-65206208.00000,   0.00000
354027978.50485,404189872.31537,83824771.96702,   0.00108,   0.00137,   0.00140,408224160.00000,   0.00033,275002272.00000,   0.00026,   0.00022,   0.00031,-66778112.00000,   0.00000
351839218.48813,403141393.45527,83505879.77916,   0.00107,   0.00137,   0.00140,406630080.00000,   0.00033,275002272.00000,   0.00026,   0.00022,   0.00031,-68372192.00000,   0.00000
349643210.92169,402076003.64580,83182155.89148,   0.00106,   0.00137,   0.00140,405021888.00000,   0.00033,275002272.00000,   0.00026,   0.00022,   0.00031,-69980384.00000,   0.00000
347406133.90681,400979207.78754,82858432.00379,   0.00105,   0.00137,   0.00139,403381472.00000,   0.00033,275002272.00000,   0.00026,   0.00022,   0.00031,-71620800.00000,   0.00000
345159393.49230,399892075.32890,82529876.41630,   0.00105,   0.00137,   0.00139,401740288.00000,   0.00033,275002272.00000,   0.00026,   0.00022,   0.00031,-73261984.00000,   0.00000
342888494.57870,398780784.37119,82191657.42916,   0.00104,   0.00137,   0.00138,400070368.00000,   0.00033,275002272.00000,   0.00026,   0.00022,   0.00031,-74931904.00000,   0.00000
340593437.16603,397645334.91439,81853438.44203,   0.00103,   0.00137,   0.00138,398376864.00000,   0.00033,275002272.00000,   0.00026,   0.00022,   0.00031,-76625408.00000,   0.00000
338264557.85465,396495390.35815,81510387.75509,   0.00102,   0.00137,   0.00137,396659136.00000,   0.00033,275002272.00000,   0.00026,   0.00022,   0.00031,-78343136.00000,   0.00000
335935678.54326,395345445.80190,81167337.06814,   0.00101,   0.00137,   0.00137,394943360.00000,   0.00033,275002272.00000,   0.00026,   0.00022,   0.00031,-80058912.00000,   0.00000
333565729.78344,394164095.19685,80814622.98156,   0.00100,   0.00136,   0.00136,393197728.00000,   0.00033,275002272.00000,   0.00026,   0.00022,   0.00031,-81804544.00000,   0.00000
331178870.07426,392975497.04208,80461908.89498,   0.00100,   0.00136,   0.00136,391462016.00000,   0.00033,275002272.00000,   0.00026,   0.00022,   0.00031,-83540256.00000,   0.00000
328784762.81535,391769987.93795,80099531.40877,   0.00099,   0.00136,   0.00135,389732512.00000,   0.00033,275002272.00000,   0.00026,   0.00022,   0.00031,-85269760.00000,   0.00000
326356833.65773,390549983.73437,79737153.92256,   0.00098,   0.00136,   0.00135,387992320.00000,   0.00033,275002272.00000,   0.00026,   0.00022,   0.00031,-87009952.00000,   0.00000
323911993.55076,389322731.98107,79374776.43635,   0.00097,   0.00136,   0.00135,386229664.00000,   0.00033,275002272.00000,   0.00026,   0.00022,   0.00031,-88772608.00000,   0.00000
321442994.94471,388071321.72868,79002735.55050,   0.00096,   0.00136,   0.00134,384424576.00000,   0.00033,275002272.00000,   0.00026,   0.00022,   0.00031,-90577696.00000,   0.00000
318957085.38929,386812663.92657,78625862.96484,   0.00095,   0.00136,   0.00134,382606464.00000,   0.00033,275002272.00000,   0.00026,   0.00022,   0.00031,-92395808.00000,   0.00000
316430106.38545,385522600.07566,78248990.37918,   0.00094,   0.00136,   0.00133,380766048.00000,   0.00033,275002272.00000,   0.00026,   0.00022,   0.00031,-94236224.00000,   0.00000
313903127.38160,384232536.22475,77867286.09371,   0.00093,   0.00136,   0.00133,378934560.00000,   0.00033,275002272.00000,   0.00026,   0.00022,   0.00031,-96067712.00000,   0.00000
311351989.87867,382918313.87475,77480750.10841,   0.00093,   0.00136,   0.00132,377087840.00000,   0.00033,275002272.00000,   0.00026,   0.00022,   0.00031,-97914432.00000,   0.00000
308767030.47703,381589596.42531,77089382.42331,   0.00092,   0.00136,   0.00132,375226336.00000,   0.00033,275002272.00000,   0.00026,   0.00022,   0.00031,-99775936.00000,   0.00000
306182071.07538,380260878.97587,76698014.73820,   0.00091,   0.00135,   0.00131,373371648.00000,   0.00033,275002272.00000,   0.00026,   0.00022,   0.00031,-101630624.00000,   0.00000
303572953.17466,378908003.02735,76296983.65346,   0.00090,   0.00135,   0.00131,371495616.00000,   0.00033,275002272.00000,   0.00026,   0.00022,   0.00031,-103506656.00000,   0.00000
300930013.37522,377540631.97938,75895952.56872,   0.00089,   0.00135,   0.00130,369608256.00000,   0.00033,275002272.00000,   0.00026,   0.00022,   0.00031,-105394016.00000,   0.00000
298262915.07671,376149102.43232,75490089.78416,   0.00088,   0.00135,   0.00130,367705184.00000,   0.00033,275002272.00000,   0.00026,   0.00022,   0.00031,-107297088.00000,   0.00000
295595816.77819,374757572.88527,75079395.29979,   0.00087,   0.00135,   0.00129,365810272.00000,   0.00033,275002272.00000,   0.00026,   0.00022,   0.00031,-109192000.00000,   0.00000
292887649.03124,373334637.28941,74668700.81541,   0.00086,   0.00135,   0.00128,363896768.00000,   0.00033,275002272.00000,   0.00026,   0.00022,   0.00031,-111105504.00000,   0.00000
290179481.28428,371911701.69356,74253174.63122,   0.00085,   0.00135,   0.00128,361994272.00000,   0.00033,275002272.00000,   0.00026,   0.00022,   0.00031,-113008000.00000,   0.00000
287437491.63862,370474270.99825,73827985.04740,   0.00084,   0.00135,   0.00127,360081792.00000,   0.00033,275002272.00000,   0.00026,   0.00022,   0.00031,-114920480.00000,   0.00000
284688254.44322,369019929.35359,73407627.16340,   0.00083,   0.00135,   0.00127,358174368.00000,   0.00033,275002272.00000,   0.00026,   0.00022,   0.00031,-116827904.00000,   0.00000
281905195.34912,367551092.60948,72977605.87976,   0.00082,   0.00134,   0.00126,356256544.00000,   0.00033,275002272.00000,   0.00026,   0.00022,   0.00031,-118745728.00000,   0.00000
279097977.75593,366058097.36629,72542752.89631,   0.00081,   0.00134,   0.00126,354326240.00000,   0.00033,275002272.00000,   0.00026,   0.00022,   0.00031,-120676032.00000,   0.00000
276290760.16275,364565102.12309,72107899.91285,   0.00080,   0.00134,   0.00125,352406304.00000,   0.00033,275002272.00000,   0.00026,   0.00022,   0.00031,-122595968.00000,   0.00000
273442473.12113,363040700.83110,71668215.22958,   0.00079,   0.00134,   0.00125,350461504.00000,   0.00033,275002272.00000,   0.00026,   0.00022,   0.00031,-124540768.00000,   0.00000
270594186.07950,361516299.53910,71223698.84650,   0.00078,   0.00134,   0.00124,348519840.00000,   0.00033,275002272.00000,   0.00026,   0.00022,   0.00031,-126482432.00000,   0.00000
267728988.08852,359984650.69738,70779182.46341,   0.00077,   0.00134,   0.00123,346572800.00000,   0.00033,275002272.00000,   0.00026,   0.00022,   0.00031,-128429472.00000,   0.00000
264822720.64911,358421595.80685,70329834.38051,   0.00076,   0.00134,   0.00123,344591648.00000,   0.00033,275002272.00000,   0.00026,   0.00022,   0.00031,-130410624.00000,   0.00000
261909205.65997,356841629.96697,69875654.59779,   0.00075,   0.00133,   0.00122,342587040.00000,   0.00033,275002272.00000,   0.00026,   0.00022,   0.00031,-132415232.00000,   0.00000
258978779.72147,355254416.57737,69416643.11525,   0.00074,   0.00133,   0.00122,340555200.00000,   0.00033,275002272.00000,   0.00026,   0.00022,   0.00031,-134447072.00000,   0.00000
256031442.83362,353659955.63803,68952799.93290,   0.00073,   0.00133,   0.00121,338489952.00000,   0.00033,275002272.00000,   0.00026,   0.00022,   0.00031,-136512320.00000,   0.00000
253059947.44668,352041336.19962,68488956.75055,   0.00072,   0.00133,   0.00120,336378976.00000,   0.00033,275002272.00000,   0.00026,   0.00022,   0.00031,-138623296.00000,   0.00000
250071541.11039,350415469.21149,68020281.86839,   0.00071,   0.00133,   0.00120,334234848.00000,   0.00033,275002272.00000,   0.00026,   0.00022,   0.00031,-140767424.00000,   0.00000
247058976.27502,348765443.72427,67546775.28640,   0.00070,   0.00133,   0.00119,332049632.00000,   0.00033,275002272.00000,   0.00026,   0.00022,   0.00031,-142952640.00000,   0.00000
244029500.49029,347108170.68733,67073268.70442,   0.00069,   0.00133,   0.00119,329847008.00000,   0.00033,275002272.00000,   0.00026,   0.00022,   0.00031,-145155264.00000,   0.00000
240983113.75620,345443650.10067,66594930.42262,   0.00068,   0.00132,   0.00118,327632448.00000,   0.00033,275002272.00000,   0.00026,   0.00022,   0.00031,-147369824.00000,   0.00000
237922231.92267,343745307.61529,66111760.44100,   0.00067,   0.00132,   0.00117,325395456.00000,   0.00033,275002272.00000,   0.00026,   0.00022,   0.00031,-149606816.00000,   0.00000
234834775.74015,342049380.97982,65623758.75957,   0.00066,   0.00132,   0.00117,323167296.00000,   0.00033,275002272.00000,   0.00026,   0.00022,   0.00031,-151834976.00000,   0.00000
231740072.00790,340336543.39499,65135757.07814,   0.00065,   0.00132,   0.00116,320948896.00000,   0.00033,275002272.00000,   0.00026,   0.00022,   0.00031,-154053376.00000,   0.00000
228621209.77657,338599547.31108,64642923.69689,   0.00064,   0.00132,   0.00115,318734336.00000,   0.00033,275002272.00000,   0.00026,   0.00022,   0.00031,-156267936.00000,   0.00000
225492684.14562,336872214.62681,64145258.61583,   0.00062,   0.00131,   0.00115,316556128.00000,   0.00033,275002272.00000,   0.00026,   0.00022,   0.00031,-158446144.00000,   0.00000
222332752.46585,335103812.49410,63647593.53477,   0.00061,   0.00131,   0.00114,314377792.00000,   0.00033,275002272.00000,   0.00026,   0.00022,   0.00031,-160624480.00000,   0.00000
219172820.78609,333335410.36138,63140265.05407,   0.00060,   0.00131,   0.00113,312230976.00000,   0.00033,275002272.00000,   0.00026,   0.00022,   0.00031,-162771296.00000,   0.00000
215979067.20761,331552513.12922,62637768.27319,   0.00059,   0.00131,   0.00113,310104704.00000,   0.00033,275002272.00000,   0.00026,   0.00022,   0.00031,-164897568.00000,   0.00000
212778066.07941,329752704.94771,62125608.09268,   0.00058,   0.00131,   0.00112,307991904.00000,   0.00033,275002272.00000,   0.00026,   0.00022,   0.00031,-167010368.00000,   0.00000
209560154.00185,327945649.21646,61613447.91217,   0.00057,   0.00131,   0.00111,305899328.00000,   0.00033,275002272.00000,   0.00026,   0.00022,   0.00031,-169102944.00000,   0.00000
206318083.42521,326114434.98614,61096456.03184,   0.00056,   0.00130,   0.00111,303807584.00000,   0.00033,275002272.00000,   0.00026,   0.00022,   0.00031,-171194688.00000,   0.00000
203059101.89921,324275973.20610,60574632.45169,   0.00055,   0.00130,   0.00110,301727520.00000,   0.00033,275002272.00000,   0.00026,   0.00022,   0.00031,-173274752.00000,   0.00000
199792872.82349,322420600.47669,60052808.87155,   0.00054,   0.00130,   0.00109,299654048.00000,   0.00033,275002272.00000,   0.00026,   0.00022,   0.00031,-175348224.00000,   0.00000
196509732.79842,320557980.19757,59526153.59159,   0.00052,   0.00130,   0.00109,297590400.00000,   0.00033,275002272.00000,   0.00026,   0.00022,   0.00031,-177411872.00000,   0.00000
193202434.27426,318671201.41936,58999498.31163,   0.00051,   0.00129,   0.00108,295526784.00000,   0.00033,275002272.00000,   0.00026,   0.00022,   0.00031,-179475488.00000,   0.00000
189878224.80075,316777175.09142,58468011.33185,   0.00050,   0.00129,   0.00107,293476288.00000,   0.00033,275002272.00000,   0.00026,   0.00022,   0.00031,-181525984.00000,   0.00000
186537104.37788,314875901.21377,57931692.65226,   0.00049,   0.00129,   0.00107,291441376.00000,   0.00033,275002272.00000,   0.00026,   0.00022,   0.00031,-183560896.00000,   0.00000
183181488.85556,312940805.43740,57390542.27285,   0.00048,   0.00129,   0.00106,289403712.00000,   0.00033,275002272.00000,   0.00026,   0.00022,   0.00031,-185598560.00000,   0.00000
179816209.93361,311015373.06066,56849391.89344,   0.00047,   0.00129,   0.00105,287400544.00000,   0.00033,275002272.00000,   0.00026,   0.00022,   0.00031,-187601728.00000,   0.00000
176443683.46193,309073029.73457,56303409.81421,   0.00046,   0.00128,   0.00105,285408544.00000,   0.00033,275002272.00000,   0.00026,   0.00022,   0.00031,-189593728.00000,   0.00000
173030087.54182,307099280.35967,55757427.73499,   0.00044,   0.00128,   0.00104,283414368.00000,   0.00033,275002272.00000,   0.00026,   0.00022,   0.00031,-191587904.00000,   0.00000
169616491.62170,305125530.98477,55206613.95595,   0.00043,   0.00128,   0.00103,281437632.00000,   0.00033,275002272.00000,   0.00026,   0.00022,   0.00031,-193564640.00000,   0.00000
166178737.20251,303127623.11079,54650968.47709,   0.00042,   0.00128,   0.00102,279451840.00000,   0.00033,275002272.00000,   0.00026,   0.00022,   0.00031,-195550432.00000,   0.00000
162740982.78332,301129715.23681,54095322.99823,   0.00041,   0.00127,   0.00102,277471520.00000,   0.00033,275002272.00000,   0.00026,   0.00022,   0.00031,-197530752.00000,   0.00000
159269406.46541,299117312.26338,53534845.81956,   0.00040,   0.00127,   0.00101,275472672.00000,   0.00033,275002272.00000,   0.00026,   0.00022,   0.00031,-199529600.00000,   0.00000
155807493.54714,297095245.89032,52974368.64088,   0.00038,   0.00127,   0.00100,273451488.00000,   0.00033,275002272.00000,   0.00026,   0.00022,   0.00031,-201550784.00000,   0.00000
152304511.18043,295041773.46846,52409059.76239,   0.00037,   0.00127,   0.00100,271375712.00000,   0.00033,275002272.00000,   0.00026,   0.00022,   0.00031,-203626560.00000,   0.00000
148801528.81371,292988301.04659,51838919.18409,   0.00036,   0.00126,   0.00099,269260928.00000,   0.00033,275002272.00000,   0.00026,   0.00022,   0.00031,-205741344.00000,   0.00000
145281635.49765,290927581.07500,51268778.60578,   0.00035,   0.00126,   0.00098,267105376.00000,   0.00033,275002272.00000,   0.00026,   0.00022,   0.00031,-207896896.00000,   0.00000
141754494.63185,288849950.15406,50693806.32766,   0.00034,   0.00126,   0.00097,264958080.00000,   0.00033,275002272.00000,   0.00026,   0.00022,   0.00031,-210044192.00000,   0.00000
138186284.31762,286740913.18430,50118834.04954,   0.00032,   0.00126,   0.00097,263063120.00000,   0.00033,275002272.00000,   0.00026,   0.00022,   0.00031,-211939152.00000,   0.00000
134634984.95275,284639123.76428,49539030.07160,   0.00031,   0.00125,   0.00096,261390704.00000,   0.00033,275002272.00000,   0.00026,   0.00022,   0.00031,-213611568.00000,   0.00000
131042616.13944,282505928.29545,48959226.09366,   0.00030,   0.00125,   0.00095,259311264.00000,   0.00033,275002272.00000,   0.00026,   0.00022,   0.00031,-215691008.00000,   0.00000
127450247.32613,280372732.82661,48374590.41590,   0.00029,   0.00125,   0.00094,257280624.00000,   0.00033,275002272.00000,   0.00026,   0.00022,   0.00031,-217721648.00000,   0.00000
123857878.51282,278239537.35778,47785123.03833,   0.00028,   0.00125,   0.00093,255272848.00000,   0.00033,275002272.00000,   0.00026,   0.00022,   0.00031,-219729424.00000,   0.00000
120241351.20043,276082183.38987,47195655.66076,   0.00026,   0.00124,   0.00093,253270304.00000,   0.00033,275002272.00000,   0.00026,   0.00022,   0.00031,-221731968.00000,   0.00000
116600665.38896,273900670.92288,46601356.58338,   0.00025,   0.00124,   0.00092,251293120.00000,   0.00033,275002272.00000,   0.00026,   0.00022,   0.00031,-223709152.00000,   0.00000
112959979.57748,271719158.45588,46007057.50599,   0.00024,   0.00124,   0.00091,249375280.00000,   0.00033,275002272.00000,   0.00026,   0.00022,   0.00031,-225626992.00000,   0.00000
109295135.26693,269513487.48981,45407926.72879,   0.00023,   0.00123,   0.00090,247490480.00000,   0.00033,275002272.00000,   0.00026,   0.00022,   0.00031,-227511792.00000,   0.00000
105630290.95638,267307816.52373,44808795.95158,   0.00021,   0.00123,   0.00090,245645712.00000,   0.00033,275002272.00000,   0.00026,   0.00022,   0.00031,-229356560.00000,   0.00000
101941288.14675,265077987.05858,44209665.17438,   0.00020,   0.00123,   0.00089,243811424.00000,   0.00033,275002272.00000,   0.00026,   0.00022,   0.00031,-231190848.00000,   0.00000
98235374.38776,262840910.04370,43600870.99754,   0.00019,   0.00123,   0.00088,241992480.00000,   0.00033,275002272.00000,   0.00026,   0.00022,   0.00031,-233009792.00000,   0.00000
94522213.07904,260586922.07946,42996908.52052,   0.00018,   0.00122,   0.00087,240185456.00000,   0.00033,275002272.00000,   0.00026,   0.00022,   0.00031,-234816816.00000,   0.00000
90809051.77033,258332934.11523,42383282.64387,   0.00016,   0.00122,   0.00086,238398960.00000,   0.00033,275002272.00000,   0.00026,   0.00022,   0.00031,-236603312.00000,   0.00000
87071731.96253,256054787.65191,41774488.46704,   0.00015,   0.00122,   0.00086,236624816.00000,   0.00033,275002272.00000,   0.00026,   0.00022,   0.00031,-238377456.00000,   0.00000
83317501.20538,253769393.63887,41160862.59039,   0.00014,   0.00121,   0.00085,234875632.00000,   0.00033,275002272.00000,   0.00026,   0.00022,   0.00031,-240126640.00000,   0.00000
79556022.89851,251467088.67647,40542405.01392,   0.00013,   0.00121,   0.00084,233144352.00000,   0.00033,275002272.00000,   0.00026,   0.00022,   0.00031,-241857920.00000,   0.00000
75794544.59163,249164783.71408,39923947.43745,   0.00011,   0.00121,   0.00083,231451360.00000,   0.00033,275002272.00000,   0.00026,   0.00022,   0.00031,-243550912.00000,   0.00000
72008907.78567,246838320.25260,39300658.16117,   0.00010,   0.00120,   0.00082,229780848.00000,   0.00033,275002272.00000,   0.00026,   0.00022,   0.00031,-245221424.00000,   0.00000
68199112.48064,244487698.29204,38677368.88488,   0.00009,   0.00120,   0.00082,228140384.00000,   0.00033,275002272.00000,   0.00026,   0.00022,   0.00031,-246861888.00000,   0.00000
64389317.17560,242137076.33148,38054079.60860,   0.00008,   0.00120,   0.00081,226552848.00000,   0.00033,275002272.00000,   0.00026,   0.00022,   0.00031,-248449424.00000,   0.00000
60579521.87056,239786454.37092,37425958.63250,   0.00006,   0.00119,   0.00080,225021248.00000,   0.00033,275002272.00000,   0.00026,   0.00022,   0.00031,-249981024.00000,   0.00000
56745568.06644,237411673.91128,36797837.65640,   0.00005,   0.00119,   0.00079,223535904.00000,   0.00033,275002272.00000,   0.00026,   0.00022,   0.00031,-251466368.00000,   0.00000
52904366.71260,235019982.50229,36164884.98048,   0.00004,   0.00119,   0.00078,222100784.00000,   0.00033,275002272.00000,   0.00026,   0.00022,   0.00031,-252901488.00000,   0.00000
49063165.35876,232628291.09329,35531932.30457,   0.00002,   0.00118,   0.00078,220730176.00000,   0.00033,275002272.00000,   0.00026,   0.00022,   0.00031,-254272096.00000,   0.00000
45205053.05556,230229352.13457,34894147.92883,   0.00001,   0.00118,   0.00077,219415104.00000,   0.00033,275002272.00000,   0.00026,   0.00022,   0.00031,-255587168.00000,   0.00000
41315534.70356,227789343.72741,34261195.25292,  -0.00000,   0.00118,   0.00076,218125808.00000,   0.00033,275002272.00000,   0.00026,   0.00022,   0.00031,-256876464.00000,   0.00000
37450174.85063,225373493.81933,33618579.17737,  -0.00001,   0.00117,   0.00075,216888128.00000,   0.00033,275002272.00000,   0.00026,   0.00022,   0.00031,-258114144.00000,   0.00000
33536497.99955,222909326.91310,32980794.80164,  -0.00003,   0.00117,   0.00074,215657872.00000,   0.00033,275002272.00000,   0.00026,   0.00022,   0.00031,-259344400.00000,   0.00000
29646979.64754,220469318.50594,32333347.02627,  -0.00004,   0.00117,   0.00073,214468176.00000,   0.00033,275002272.00000,   0.00026,   0.00022,   0.00031,-260534096.00000,   0.00000
25726055.24674,217988240.65034,31690730.95072,  -0.00005,   0.00116,   0.00073,213286640.00000,   0.00033,275002272.00000,   0.00026,   0.00022,   0.00031,-261715632.00000,   0.00000
21805130.84593,215507162.79475,31043283.17536,  -0.00007,   0.00116,   0.00072,212143952.00000,   0.00033,275002272.00000,   0.00026,   0.00022,   0.00031,-262858320.00000,   0.00000
17867295.49576,213018837.38943,30395835.40000,  -0.00008,   0.00116,   0.00071,211052144.00000,   0.00033,275002272.00000,   0.00026,   0.00022,   0.00031,-263950128.00000,   0.00000
13922212.59587,210513601.03475,29743555.92481,  -0.00009,   0.00115,   0.00070,210008384.00000,   0.00033,275002272.00000,   0.00026,   0.00022,   0.00031,-264993888.00000,   0.00000
9969882.14626,207991453.73072,29096108.14945,  -0.00011,   0.00115,   0.00069,209027712.00000,   0.00033,275002272.00000,   0.00026,   0.00022,   0.00031,-265974560.00000,   0.00000
6000640.74729,205462058.87696,28438996.97445,  -0.00012,   0.00114,   0.00068,208126640.00000,   0.00033,275002272.00000,   0.00026,   0.00022,   0.00031,-266875632.00000,   0.00000
2048310.29767,202939911.57293,27786717.49927,  -0.00013,   0.00114,   0.00067,207314928.00000,   0.00033,275002272.00000,   0.00026,   0.00022,   0.00031,-267687344.00000,   0.00000
-1952337.15010,200369447.27074,27129606.32428,  -0.00014,   0.00114,   0.00067,206568816.00000,   0.00033,275002272.00000,   0.00026,   0.00022,   0.00031,-268433456.00000,   0.00000
-5928826.09880,197823141.46763,26472495.14928,  -0.00016,   0.00113,   0.00066,205921936.00000,   0.00033,275002272.00000,   0.00026,   0.00022,   0.00031,-269080336.00000,   0.00000
-9936721.09630,195235766.21608,25810552.27447,  -0.00017,   0.00113,   0.00065,205332400.00000,   0.00033,275002272.00000,   0.00026,   0.00022,   0.00031,-269669872.00000,   0.00000
-13944616.09380,192648390.96453,25153441.09947,  -0.00018,   0.00113,   0.00064,204817600.00000,   0.00033,275002272.00000,   0.00026,   0.00022,   0.00031,-270184672.00000,   0.00000
-17952511.09130,190061015.71297,24491498.22466,  -0.00020,   0.00112,   0.00063,204363152.00000,   0.00033,275002272.00000,   0.00026,   0.00022,   0.00031,-270639120.00000,   0.00000
-21967653.63852,187456729.51207,23824723.65003,  -0.00021,   0.00112,   0.00062,203946816.00000,   0.00033,275002272.00000,   0.00026,   0.00022,   0.00031,-271055456.00000,   0.00000
-26006954.68482,184828284.81208,23162780.77521,  -0.00022,   0.00111,   0.00061,203566240.00000,   0.00033,275002272.00000,   0.00026,   0.00022,   0.00031,-271436032.00000,   0.00000
-30046255.73113,182199840.11209,22496006.20058,  -0.00024,   0.00111,   0.00061,203221744.00000,   0.00033,275002272.00000,   0.00026,   0.00022,   0.00031,-271780528.00000,   0.00000
-34092804.32716,179554484.46275,21829231.62595,  -0.00025,   0.00111,   0.00060,202901088.00000,   0.00033,275002272.00000,   0.00026,   0.00022,   0.00031,-272101184.00000,   0.00000
-38156263.87254,176901881.26368,21157625.35151,  -0.00026,   0.00110,   0.00059,202620192.00000,   0.00033,275002272.00000,   0.00026,   0.00022,   0.00031,-272382080.00000,   0.00000
-42210060.01830,174239614.66498,20490850.77688,  -0.00028,   0.00110,   0.00058,202369600.00000,   0.00033,275002272.00000,   0.00026,   0.00022,   0.00031,-272632672.00000,   0.00000
-46280767.11340,171570100.51655,19819244.50243,  -0.00029,   0.00109,   0.00057,202174096.00000,   0.00033,275002272.00000,   0.00026,   0.00022,   0.00031,-272828176.00000,   0.00000
-50358721.75824,168883675.41877,19147638.22799,  -0.00030,   0.00109,   0.00056,202031520.00000,   0.00033,275002272.00000,   0.00026,   0.00022,   0.00031,-272970752.00000,   0.00000
-54443923.95280,166180339.37163,18476031.95354,  -0.00032,   0.00108,   0.00055,201955024.00000,   0.00033,275002272.00000,   0.00026,   0.00022,   0.00031,-273047248.00000,   0.00000
-58546037.09671,163469755.77477,17799593.97928,  -0.00033,   0.00108,   0.00055,201969456.00000,   0.00033,275002272.00000,   0.00026,   0.00022,   0.00031,-273032816.00000,   0.00000
-62638486.84099,160749508.77828,17127987.70484,  -0.00034,   0.00108,   0.00054,202055184.00000,   0.00033,275002272.00000,   0.00026,   0.00022,   0.00031,-272947088.00000,   0.00000
-66747847.53463,158022014.23206,16451549.73058,  -0.00036,   0.00107,   0.00053,202211712.00000,   0.00033,275002272.00000,   0.00026,   0.00022,   0.00031,-272790560.00000,   0.00000
-70864455.77800,155277608.73648,15775111.75631,  -0.00037,   0.00107,   0.00052,202415200.00000,   0.00033,275002272.00000,   0.00026,   0.00022,   0.00031,-272587072.00000,   0.00000
-74981064.02136,152533203.24091,15098673.78205,  -0.00038,   0.00106,   0.00051,202683776.00000,   0.00033,275002272.00000,   0.00026,   0.00022,   0.00031,-272318496.00000,   0.00000
-79104919.81445,149771886.79598,14417404.10798,  -0.00040,   0.00106,   0.00050,203020368.00000,   0.00033,275002272.00000,   0.00026,   0.00022,   0.00031,-271981904.00000,   0.00000
-83236023.15726,146993659.40169,13740966.13371,  -0.00041,   0.00105,   0.00049,203522496.00000,   0.00033,275002272.00000,   0.00026,   0.00022,   0.00031,-271479776.00000,   0.00000
-87367126.50007,144215432.00740,13059696.45964,  -0.00042,   0.00105,   0.00048,204130032.00000,   0.00033,275002272.00000,   0.00026,   0.00022,   0.00031,-270872240.00000,   0.00000
-91505477.39260,141420293.66375,12378426.78556,  -0.00044,   0.00104,   0.00047,204776016.00000,   0.00033,275002272.00000,   0.00026,   0.00022,   0.00031,-270226256.00000,   0.00000
-95660739.23450,138617907.77038,11697157.11148,  -0.00045,   0.00104,   0.00047,205368000.00000,   0.00033,275002272.00000,   0.00026,   0.00022,   0.00031,-269634272.00000,   0.00000
-99806337.67676,135805858.47738,11015887.43740,  -0.00046,   0.00103,   0.00046,206167376.00000,   0.00033,275002272.00000,   0.00026,   0.00022,   0.00031,-268834896.00000,   0.00000
-103976094.61810,132969650.68530,10334617.76333,  -0.00048,   0.00103,   0.00045,206808368.00000,   0.00033,275002272.00000,   0.00026,   0.00022,   0.00031,-268193904.00000,   0.00000
-108145851.55944,130133442.89322,9653348.08925,  -0.00049,   0.00102,   0.00044,207552320.00000,   0.00033,275002272.00000,   0.00026,   0.00022,   0.00031,-267449952.00000,   0.00000
-112305945.10115,127287571.70150,8967246.71535,  -0.00050,   0.00102,   0.00043,208444992.00000,   0.00033,275002272.00000,   0.00026,   0.00022,   0.00031,-266557280.00000,   0.00000
-116482949.59221,124434452.96007,8285977.04128,  -0.00052,   0.00102,   0.00042,209413920.00000,   0.00033,275002272.00000,   0.00026,   0.00022,   0.00031,-265588352.00000,   0.00000
-120667201.63300,121564423.26927,7599875.66738,  -0.00053,   0.00101,   0.00041,210420960.00000,   0.00033,275002272.00000,   0.00026,   0.00022,   0.00031,-264581312.00000,   0.00000
-124851453.67379,118694393.57847,6913774.29349,  -0.00054,   0.00101,   0.00040,211472032.00000,   0.00033,275002272.00000,   0.00026,   0.00022,   0.00031,-263530240.00000,   0.00000
-129026042.31495,115814700.48805,6232504.61941,  -0.00056,   0.00100,   0.00039,212549552.00000,   0.00033,275002272.00000,   0.00026,   0.00022,   0.00031,-262452720.00000,   0.00000
-133224789.45518,112910848.89854,5546403.24552,  -0.00057,   0.00100,   0.00039,213667872.00000,   0.00033,275002272.00000,   0.00026,   0.00022,   0.00031,-261334400.00000,   0.00000
-137423536.59542,110006997.30903,4860301.87162,  -0.00058,   0.00099,   0.00038,214820304.00000,   0.00033,275002272.00000,   0.00026,   0.00022,   0.00031,-260181968.00000,   0.00000
-141629531.28538,107086234.77017,4174200.49773,  -0.00060,   0.00099,   0.00037,215986400.00000,   0.00033,275002272.00000,   0.00026,   0.00022,   0.00031,-259015872.00000,   0.00000
-145842773.52507,104148561.28194,3488099.12384,  -0.00061,   0.00098,   0.00036,217170384.00000,   0.00033,275002272.00000,   0.00026,   0.00022,   0.00031,-257831888.00000,   0.00000
-150039104.81540,101218135.34345,2806829.44976,  -0.00062,   0.00097,   0.00035,218417680.00000,   0.00033,275002272.00000,   0.00026,   0.00022,   0.00031,-256584592.00000,   0.00000
-154252347.05509,98280461.85522,2120728.07586,  -0.00064,   0.00097,   0.00034,219781328.00000,   0.00033,275002272.00000,   0.00026,   0.00022,   0.00031,-255220944.00000,   0.00000
-158472836.84450,95325877.41765,1434626.70197,  -0.00065,   0.00096,   0.00033,221240352.00000,   0.00033,275002272.00000,   0.00026,   0.00022,   0.00031,-253761920.00000,   0.00000
-162683663.23427,92361629.58044,748525.32808,  -0.00067,   0.00096,   0.00032,222774576.00000,   0.00033,275002272.00000,   0.00026,   0.00022,   0.00031,-252227696.00000,   0.00000
-166918648.12313,89373223.24415,62423.95418,  -0.00068,   0.00095,   0.00031,224399440.00000,   0.00033,275002272.00000,   0.00026,   0.00022,   0.00031,-250602832.00000,   0.00000
-171136722.06264,86392064.45758,-623677.41971,  -0.00069,   0.00095,   0.00031,226103888.00000,   0.00033,275002272.00000,   0.00026,   0.00022,   0.00031,-248898384.00000,   0.00000
-175378954.50122,83386747.17193,-1309778.79361,  -0.00071,   0.00094,   0.00030,227910080.00000,   0.00033,275002272.00000,   0.00026,   0.00022,   0.00031,-247092192.00000,   0.00000
-179604275.99045,80388677.43601,-1995880.16750,  -0.00072,   0.00094,   0.00029,229811616.00000,   0.00033,275002272.00000,   0.00026,   0.00022,   0.00031,-245190656.00000,   0.00000
-183836845.02940,77373696.75073,-2677149.84158,  -0.00073,   0.00093,   0.00028,231814240.00000,   0.00033,275002272.00000,   0.00026,   0.00022,   0.00031,-243188032.00000,   0.00000
-188069414.06835,74358716.06545,-3363251.21547,  -0.00075,   0.00093,   0.00027,233910848.00000,   0.00033,275002272.00000,   0.00026,   0.00022,   0.00031,-241091424.00000,   0.00000
-192309230.65702,71326824.43081,-4049352.58936,  -0.00076,   0.00092,   0.00026,236062176.00000,   0.00033,275002272.00000,   0.00026,   0.00022,   0.00031,-238940096.00000,   0.00000
-196556294.79542,68278021.84682,-4730622.26344,  -0.00077,   0.00092,   0.00025,238217312.00000,   0.00033,275002272.00000,   0.00026,   0.00022,   0.00031,-236784960.00000,   0.00000
-200803358.93382,65229219.26282,-5416723.63734,  -0.00079,   0.00091,   0.00024,240328128.00000,   0.00033,275002272.00000,   0.00026,   0.00022,   0.00031,-234674144.00000,   0.00000
-205057670.62194,62163505.72947,-6097993.31141,  -0.00080,   0.00090,   0.00023,242349168.00000,   0.00033,275002272.00000,   0.00026,   0.00022,   0.00031,-232653104.00000,   0.00000
-209302318.91043,59088128.79649,-6779262.98549,  -0.00081,   0.00090,   0.00023,244258816.00000,   0.00033,275002272.00000,   0.00026,   0.00022,   0.00031,-230743456.00000,   0.00000
-213546967.19893,56012751.86351,-7460532.65957,  -0.00083,   0.00089,   0.00022,246093296.00000,   0.00033,275002272.00000,   0.00026,   0.00022,   0.00031,-228908976.00000,   0.00000
-217798863.03714,52920463.98117,-8141802.33365,  -0.00084,   0.00089,   0.00021,247892288.00000,   0.00033,275002272.00000,   0.00026,   0.00022,   0.00031,-227109984.00000,   0.00000
-222050758.87536,49828176.09883,-8823072.00772,  -0.00085,   0.00088,   0.00020,249715248.00000,   0.00033,275002272.00000,   0.00026,   0.00022,   0.00031,-225287024.00000,   0.00000
-226309902.26330,46718977.26714,-9504341.68180,  -0.00087,   0.00088,   0.00019,251604816.00000,   0.00033,275002272.00000,   0.00026,   0.00022,   0.00031,-223397456.00000,   0.00000
-230569045.65124,43609778.43544,-10185611.35588,  -0.00088,   0.00087,   0.00018,253589536.00000,   0.00033,275002272.00000,   0.00026,   0.00022,   0.00031,-221412736.00000,   0.00000
-234825773.18927,40474005.25476,-10862049.33014,  -0.00089,   0.00086,   0.00017,255648400.00000,   0.00033,275002272.00000,   0.00026,   0.00022,   0.00031,-219353872.00000,   0.00000
-239082500.72730,37338232.07408,-11538487.30440,  -0.00091,   0.00086,   0.00016,257831392.00000,   0.00033,275002272.00000,   0.00026,   0.00022,   0.00031,-217170880.00000,   0.00000
-243339228.26533,34202458.89339,-12214925.27866,  -0.00092,   0.00085,   0.00015,260244208.00000,   0.00033,275002272.00000,   0.00026,   0.00022,   0.00031,-214758064.00000,   0.00000
-247603203.35309,31049774.76335,-12891363.25293,  -0.00093,   0.00085,   0.00015,262913472.00000,   0.00033,275002272.00000,   0.00026,   0.00022,   0.00031,-212088800.00000,   0.00000
-251857515.04121,27887427.23368,-13567801.22719,  -0.00095,   0.00084,   0.00014,265950384.00000,   0.00033,275002272.00000,   0.00026,   0.00022,   0.00031,-209051888.00000,   0.00000
-256111826.72933,24725079.70401,-14244239.20145,  -0.00096,   0.00083,   0.00013,268819008.00000,   0.00033,275002272.00000,   0.00026,   0.00022,   0.00031,-206183264.00000,   0.00000
-260373385.96718,21545821.22498,-14915845.47589,  -0.00097,   0.00083,   0.00012,271645920.00000,   0.00033,275002272.00000,   0.00026,   0.00022,   0.00031,-203356352.00000,   0.00000
-264634945.20503,18366562.74595,-15587451.75034,  -0.00098,   0.00082,   0.00011,274366656.00000,   0.00033,275002272.00000,   0.00026,   0.00022,   0.00031,-200635616.00000,   0.00000
-268894088.59297,15160729.91793,-16259058.02479,  -0.00100,   0.00082,   0.00010,277059936.00000,   0.00033,275002272.00000,   0.00026,   0.00022,   0.00031,-197942336.00000,   0.00000
-273162895.38054,11964560.48954,-16925832.59941,  -0.00101,   0.00081,   0.00009,279794944.00000,   0.00033,275002272.00000,   0.00026,   0.00022,   0.00031,-195207328.00000,   0.00000
-277429286.31820,8741816.71217,-17597438.87386,  -0.00102,   0.00080,   0.00008,282554912.00000,   0.00033,275002272.00000,   0.00026,   0.00022,   0.00031,-192447360.00000,   0.00000
-281678766.30651,5526320.48452,-18264213.44849,  -0.00104,   0.00080,   0.00008,285342560.00000,   0.00033,275002272.00000,   0.00026,   0.00022,   0.00031,-189659712.00000,   0.00000
-285928246.29482,2310824.25687,-18930988.02312,  -0.00105,   0.00079,   0.00007,288103648.00000,   0.00033,275002272.00000,   0.00026,   0.00022,   0.00031,-186898624.00000,   0.00000
-290192221.38257,-938493.86949,-19592930.89793,  -0.00106,   0.00078,   0.00006,290804128.00000,   0.00033,275002272.00000,   0.00026,   0.00022,   0.00031,-184198144.00000,   0.00000
-294456196.47033,-4187811.99586,-20254873.77274,  -0.00108,   0.00078,   0.00005,293456224.00000,   0.00033,275002272.00000,   0.00026,   0.00022,   0.00031,-181546048.00000,   0.00000
-298703260.60873,-7429882.57250,-20916816.64756,  -0.00109,   0.00077,   0.00004,296067456.00000,   0.00033,275002272.00000,   0.00026,   0.00022,   0.00031,-178934816.00000,   0.00000
-302957572.29685,-10688864.09849,-21578759.52237,  -0.00110,   0.00076,   0.00003,298667744.00000,   0.00033,275002272.00000,   0.00026,   0.00022,   0.00031,-176334528.00000,   0.00000
-307219131.53470,-13964756.57384,-22235870.69737,  -0.00112,   0.00076,   0.00002,301273408.00000,   0.00033,275002272.00000,   0.00026,   0.00022,   0.00031,-173728864.00000,   0.00000
-311471027.37292,-17250312.44883,-22892981.87236,  -0.00113,   0.00075,   0.00002,303889728.00000,   0.00033,275002272.00000,   0.00026,   0.00022,   0.00031,-171112544.00000,   0.00000
-315722923.21113,-20535868.32381,-23550093.04736,  -0.00114,   0.00074,   0.00001,306549696.00000,   0.00033,275002272.00000,   0.00026,   0.00022,   0.00031,-168452576.00000,   0.00000
-319974819.04935,-23821424.19880,-24202372.52254,  -0.00115,   0.00074,  -0.00000,309274496.00000,   0.00033,275002272.00000,   0.00026,   0.00022,   0.00031,-165727776.00000,   0.00000
-324217051.48793,-27116643.47342,-24854651.99772,  -0.00117,   0.00073,  -0.00001,312072416.00000,   0.00033,275002272.00000,   0.00026,   0.00022,   0.00031,-162929856.00000,   0.00000
-328466531.47624,-30428773.69739,-25506931.47290,  -0.00118,   0.00072,  -0.00002,314976096.00000,   0.00033,275002272.00000,   0.00026,   0.00022,   0.00031,-160026176.00000,   0.00000
-332723259.01427,-33757814.87072,-26154379.24827,  -0.00119,   0.00072,  -0.00003,317998400.00000,   0.00033,275002272.00000,   0.00026,   0.00022,   0.00031,-157003872.00000,   0.00000
-336963075.60294,-37079608.49432,-26801827.02363,  -0.00121,   0.00071,  -0.00003,321127904.00000,   0.00033,275002272.00000,   0.00026,   0.00022,   0.00031,-153874368.00000,   0.00000
-341193228.79199,-40411065.51756,-27449274.79900,  -0.00122,   0.00070,  -0.00004,324357792.00000,   0.00033,275002272.00000,   0.00026,   0.00022,   0.00031,-150644480.00000,   0.00000
-345440292.93038,-43749770.09052,-28091890.87455,  -0.00123,   0.00070,  -0.00005,327698592.00000,   0.00033,275002272.00000,   0.00026,   0.00022,   0.00031,-147303680.00000,   0.00000
-349660782.71980,-47090890.51340,-28734506.95009,  -0.00124,   0.00069,  -0.00006,331082464.00000,   0.00033,275002272.00000,   0.00026,   0.00022,   0.00031,-143919808.00000,   0.00000
-353905431.00829,-50456169.43535,-29372291.32583,  -0.00126,   0.00068,  -0.00007,334523584.00000,   0.00033,275002272.00000,   0.00026,   0.00022,   0.00031,-140478688.00000,   0.00000
-358133168.34742,-53814200.80757,-30010075.70156,  -0.00127,   0.00068,  -0.00008,337957920.00000,   0.00033,275002272.00000,   0.00026,   0.00022,   0.00031,-137044352.00000,   0.00000
-362368153.23628,-57189143.12916,-30643028.37748,  -0.00128,   0.00067,  -0.00008,341371456.00000,   0.00033,275002272.00000,   0.00026,   0.00022,   0.00031,-133630816.00000,   0.00000
-366593474.72551,-60573748.85037,-31275981.05339,  -0.00129,   0.00066,  -0.00009,344725696.00000,   0.00033,275002272.00000,   0.00026,   0.00022,   0.00031,-130276576.00000,   0.00000
-370801885.26538,-63951107.02186,-31908933.72931,  -0.00131,   0.00065,  -0.00010,348004768.00000,   0.00033,275002272.00000,   0.00026,   0.00022,   0.00031,-126997504.00000,   0.00000
-375034454.30433,-67352623.69244,-32537054.70541,  -0.00132,   0.00065,  -0.00011,351235648.00000,   0.00033,275002272.00000,   0.00026,   0.00022,   0.00031,-123766624.00000,   0.00000
-379240448.99429,-70756556.21292,-33160343.98169,  -0.00133,   0.00064,  -0.00012,354385664.00000,   0.00033,275002272.00000,   0.00026,   0.00022,   0.00031,-120616608.00000,   0.00000
-383463354.63361,-74167736.28312,-33788464.95779,  -0.00134,   0.00063,  -0.00013,357526432.00000,   0.00033,275002272.00000,   0.00026,   0.00022,   0.00031,-117475840.00000,   0.00000
-387659685.92394,-77581332.20323,-34406922.53426,  -0.00136,   0.00062,  -0.00013,360653888.00000,   0.00033,275002272.00000,   0.00026,   0.00022,   0.00031,-114348384.00000,   0.00000
-391872928.16362,-81002175.67307,-35025380.11073,  -0.00137,   0.00062,  -0.00014,363835072.00000,   0.00033,275002272.00000,   0.00026,   0.00022,   0.00031,-111167200.00000,   0.00000
-396076507.00368,-84432682.54254,-35643837.68719,  -0.00138,   0.00061,  -0.00015,366997184.00000,   0.00033,275002272.00000,   0.00026,   0.00022,   0.00031,-108005088.00000,   0.00000
-400270422.44410,-87872852.81164,-36257463.56385,  -0.00139,   0.00060,  -0.00016,370078368.00000,   0.00033,275002272.00000,   0.00026,   0.00022,   0.00031,-104923904.00000,   0.00000
-404464337.88452,-91313023.08074,-36871089.44050,  -0.00141,   0.00059,  -0.00017,373175392.00000,   0.00033,275002272.00000,   0.00026,   0.00022,   0.00031,-101826880.00000,   0.00000
-408648589.92531,-94762856.74948,-37479883.61733,  -0.00142,   0.00059,  -0.00017,376280576.00000,   0.00033,275002272.00000,   0.00026,   0.00022,   0.00031,-98721696.00000,   0.00000
-412832841.96610,-98212690.41821,-38083846.09435,  -0.00143,   0.00058,  -0.00018,379450784.00000,   0.00033,275002272.00000,   0.00026,   0.00022,   0.00031,-95551488.00000,   0.00000
-417014678.15698,-101689098.43593,-38687808.57137,  -0.00144,   0.00057,  -0.00019,382641408.00000,   0.00033,275002272.00000,   0.00026,   0.00022,   0.00031,-92360864.00000,   0.00000
-421189266.79814,-105148595.50430,-39291771.04839,  -0.00146,   0.00056,  -0.00020,385854432.00000,   0.00033,275002272.00000,   0.00026,   0.00022,   0.00031,-89147840.00000,   0.00000
-425361439.58939,-108634666.92165,-39890901.82559,  -0.00147,   0.00056,  -0.00020,389080992.00000,   0.00033,275002272.00000,   0.00026,   0.00022,   0.00031,-85921280.00000,   0.00000
-429516701.43128,-112113490.78929,-40485200.90298,  -0.00148,   0.00055,  -0.00021,392311424.00000,   0.00033,275002272.00000,   0.00026,   0.00022,   0.00031,-82690848.00000,   0.00000
-433696121.77225,-115616473.15600,-41079499.98037,  -0.00149,   0.00054,  -0.00022,395571776.00000,   0.00033,275002272.00000,   0.00026,   0.00022,   0.00031,-79430496.00000,   0.00000
-437841720.21451,-119104960.42326,-41668967.35794,  -0.00150,   0.00053,  -0.00023,398811392.00000,   0.00033,275002272.00000,   0.00026,   0.00022,   0.00031,-76190880.00000,   0.00000
-441994566.20649,-122610358.63988,-42253603.03569,  -0.00152,   0.00053,  -0.00024,402059264.00000,   0.00033,275002272.00000,   0.00026,   0.00022,   0.00031,-72943008.00000,   0.00000
-446137748.79885,-126125420.25613,-42838238.71345,  -0.00153,   0.00052,  -0.00024,405303040.00000,   0.00033,275002272.00000,   0.00026,   0.00022,   0.00031,-69699232.00000,   0.00000
-450280931.39120,-129640481.87238,-43422874.39120,  -0.00154,   0.00051,  -0.00025,408555552.00000,   0.00033,275002272.00000,   0.00026,   0.00022,   0.00031,-66446720.00000,   0.00000
-454414450.58392,-133165206.88827,-43997846.66932,  -0.00155,   0.00050,  -0.00026,411805088.00000,   0.00033,275002272.00000,   0.00026,   0.00022,   0.00031,-63197184.00000,   0.00000
-458547969.77664,-136689931.90415,-44572818.94745,  -0.00156,   0.00049,  -0.00027,415068864.00000,   0.00033,275002272.00000,   0.00026,   0.00022,   0.00031,-59933408.00000,   0.00000
-462679073.11945,-140241231.26902,-45147791.22557,  -0.00158,   0.00049,  -0.00027,418341408.00000,   0.00033,275002272.00000,   0.00026,   0.00022,   0.00031,-56660864.00000,   0.00000
-466786017.96318,-143768372.13482,-45713100.10406,  -0.00159,   0.00048,  -0.00028,421611136.00000,   0.00033,275002272.00000,   0.00026,   0.00022,   0.00031,-53391136.00000,   0.00000
-470907457.90636,-147329334.89932,-46278408.98255,  -0.00160,   0.00047,  -0.00029,424903936.00000,   0.00033,275002272.00000,   0.00026,   0.00022,   0.00031,-50098336.00000,   0.00000
-475011986.90018,-150883050.11410,-46843717.86104,  -0.00161,   0.00046,  -0.00030,428197312.00000,   0.00033,275002272.00000,   0.00026,   0.00022,   0.00031,-46804960.00000,   0.00000
-479123763.44373,-154453676.27824,-47404195.03971,  -0.00162,   0.00045,  -0.00030,431504960.00000,   0.00033,275002272.00000,   0.00026,   0.00022,   0.00031,-43497312.00000,   0.00000
-483201718.08856,-158009807.34293,-47959840.51857,  -0.00164,   0.00045,  -0.00031,434793280.00000,   0.00033,275002272.00000,   0.00026,   0.00022,   0.00031,-40208992.00000,   0.00000
-487303831.23248,-161590096.90670,-48510654.29761,  -0.00165,   0.00044,  -0.00032,438108384.00000,   0.00033,275002272.00000,   0.00026,   0.00022,   0.00031,-36893888.00000,   0.00000
-491379370.02740,-165172802.32038,-49061468.07665,  -0.00166,   0.00043,  -0.00032,441409280.00000,   0.00033,275002272.00000,   0.00026,   0.00022,   0.00031,-33592992.00000,   0.00000
-495454908.82233,-168755507.73406,-49602618.45606,  -0.00167,   0.00042,  -0.00033,444717472.00000,   0.00033,275002272.00000,   0.00026,   0.00022,   0.00031,-30284800.00000,   0.00000
-499537695.16698,-172355124.09709,-50148600.53529,  -0.00168,   0.00041,  -0.00034,448039936.00000,   0.00033,275002272.00000,   0.00026,   0.00022,   0.00031,-26962336.00000,   0.00000
-503586659.61292,-175940245.36068,-50684919.21488,  -0.00169,   0.00040,  -0.00035,451337344.00000,   0.00033,275002272.00000,   0.00026,   0.00022,   0.00031,-23664928.00000,   0.00000
-507642871.60858,-179542277.57362,-51221237.89447,  -0.00170,   0.00039,  -0.00035,454644064.00000,   0.00033,275002272.00000,   0.00026,   0.00022,   0.00031,-20358208.00000,   0.00000
-511689420.20461,-183153973.18620,-51752724.87425,  -0.00172,   0.00039,  -0.00036,457944832.00000,   0.00033,275002272.00000,   0.00026,   0.00022,   0.00031,-17057440.00000,   0.00000
-515743216.35036,-186782579.74813,-52279380.15421,  -0.00173,   0.00038,  -0.00037,461256544.00000,   0.00033,275002272.00000,   0.00026,   0.00022,   0.00031,-13745728.00000,   0.00000
-519780101.54676,-190403938.76033,-52801203.73436,  -0.00174,   0.00037,  -0.00037,464564384.00000,   0.00033,275002272.00000,   0.00026,   0.00022,   0.00031,-10437888.00000,   0.00000
-523800075.79380,-194018050.22282,-53323027.31450,  -0.00175,   0.00036,  -0.00038,467872192.00000,   0.00033,275002272.00000,   0.00026,   0.00022,   0.00031,-7130080.00000,   0.00000
-527834545.14028,-197665983.58401,-53840019.19483,  -0.00176,   0.00035,  -0.00039,471199488.00000,   0.00033,275002272.00000,   0.00026,   0.00022,   0.00031,-3802784.00000,   0.00000
-531827945.03833,-201282510.89640,-54352179.37534,  -0.00177,   0.00034,  -0.00039,474499008.00000,   0.00033,275002272.00000,   0.00026,   0.00022,   0.00031,-503264.00000,   0.00000
-532437168.59474,-201836151.03110,-54428972.26060,  -0.00177,   0.00034,  -0.00039,475001600.00000,   0.00033,275002272.00000,   0.00026,   0.00022,   0.00031,-672.00000,   0.00000
-532747082.63607,-204005837.39291,-54498340.81243,  -0.00178,   0.00033,  -0.00040,475001600.00000,   0.00034,275013760.00000,   0.00024,   0.00022,   0.00031,  32.00000,   2.00000
-533094005.70732,-206534706.46790,-54581543.35684,  -0.00179,   0.00033,  -0.00041,478306176.00000,   0.00035,275027200.00000,   0.00023,   0.00023,   0.00030, 160.00000,   2.00000
-533428985.50122,-209056097.79400,-54657327.46621,  -0.00181,   0.00032,  -0.00041,478334208.00000,   0.00037,275040672.00000,   0.00021,   0.00023,   0.00030, 224.00000,   2.00000
-533750272.23336,-211552831.39855,-54723572.53278,  -0.00182,   0.00031,  -0.00042,478342048.00000,   0.00038,275054080.00000,   0.00020,   0.00023,   0.00029, 128.00000,   2.00000
-534056821.74874,-214039295.87454,-54789001.44727,  -0.00183,   0.00030,  -0.00043,478357376.00000,   0.00039,275067488.00000,   0.00019,   0.00023,   0.00029, 128.00000,   2.00000
-534348534.19975,-216515595.49891,-54853614.16464,  -0.00184,   0.00029,  -0.00043,478372704.00000,   0.00040,275080864.00000,   0.00017,   0.00023,   0.00028, 160.00000,   2.00000
-534628416.65519,-218970148.04788,-54907058.52885,  -0.00185,   0.00028,  -0.00044,478393888.00000,   0.00041,275094240.00000,   0.00016,   0.00023,   0.00028, 160.00000,   2.00000
-534895748.08245,-221415744.70445,-54955239.06514,  -0.00186,   0.00027,  -0.00044,478406656.00000,   0.00043,275107584.00000,   0.00014,   0.00024,   0.00027, 128.00000,   2.00000
-535149188.04878,-223852153.39789,-55002820.81774,  -0.00187,   0.00026,  -0.00045,478420768.00000,   0.00044,275120896.00000,   0.00013,   0.00024,   0.00026, 192.00000,   2.00000
-535389770.84009,-226267025.10251,-55044000.81082,  -0.00188,   0.00025,  -0.00046,478442176.00000,   0.00045,275134208.00000,   0.00011,   0.00024,   0.00026, 192.00000,   2.00000
-535617912.89704,-228672263.80779,-55081926.30413,  -0.00189,   0.00024,  -0.00046,478439552.00000,   0.00046,275147456.00000,   0.00010,   0.00024,   0.00025, 224.00000,   2.00000
-535833926.69591,-231056561.28686,-55113571.80723,  -0.00190,   0.00024,  -0.00047,478459904.00000,   0.00048,275160704.00000,   0.00008,   0.00024,   0.00025, 128.00000,   2.00000
-536039910.53575,-233434985.83161,-55138375.77789,  -0.00191,   0.00023,  -0.00047,478484896.00000,   0.00049,275173984.00000,   0.00007,   0.00024,   0.00024, 192.00000,   2.00000
-536233923.01201,-235804493.68705,-55160050.27932,  -0.00192,   0.00022,  -0.00048,478481440.00000,   0.00050,275187136.00000,   0.00006,   0.00024,   0.00024, 192.00000,   2.00000
-536416794.25014,-238153500.55830,-55175633.01228,  -0.00193,   0.00021,  -0.00049,478500800.00000,   0.00051,275200352.00000,   0.00004,   0.00024,   0.00023, 224.00000,   2.00000
-536586254.04901,-240493328.69328,-55192749.55178,  -0.00194,   0.00020,  -0.00049,478498720.00000,   0.00052,275213440.00000,   0.00003,   0.00025,   0.00023, 256.00000,   2.00000
-536747874.30018,-242827953.07985,-55198529.41104,  -0.00195,   0.00019,  -0.00050,478521472.00000,   0.00054,275226560.00000,   0.00001,   0.00025,   0.00022, 256.00000,   2.00000
-536896900.35221,-245141309.29895,-55202920.54020,  -0.00197,   0.00018,  -0.00050,478542208.00000,   0.00055,275239680.00000,  -0.00000,   0.00025,   0.00021, 160.00000,   2.00000
-537036641.40795,-247447101.18110,-55199766.38347,  -0.00198,   0.00017,  -0.00051,478536800.00000,   0.00056,275252736.00000,  -0.00001,   0.00025,   0.00021, 192.00000,   2.00000
-537164089.21063,-249731579.41094,-55195290.78424,  -0.00199,   0.00016,  -0.00051,478557696.00000,   0.00057,275265760.00000,  -0.00003,   0.00025,   0.00020, 288.00000,   2.00000
-537280262.51091,-252007797.55660,-55187855.14865,  -0.00200,   0.00015,  -0.00052,478554368.00000,   0.00058,275278720.00000,  -0.00004,   0.00025,   0.00020, 160.00000,   2.00000
-537387126.74296,-254277609.62602,-55173795.73877,  -0.00201,   0.00014,  -0.00053,478579232.00000,   0.00060,275291712.00000,  -0.00006,   0.00025,   0.00019, 128.00000,   2.00000
-537485809.86512,-256527318.86794,-55149294.94854,  -0.00202,   0.00013,  -0.00053,478597152.00000,   0.00061,275304704.00000,  -0.00007,   0.00025,   0.00019, 160.00000,   2.00000
-537571504.40864,-258768018.71220,-55126468.36383,  -0.00203,   0.00012,  -0.00054,478596160.00000,   0.00062,275317600.00000,  -0.00008,   0.00025,   0.00018, 224.00000,   2.00000
-537646473.52205,-260987129.11407,-55099599.77633,  -0.00204,   0.00011,  -0.00054,478602080.00000,   0.00063,275330432.00000,  -0.00010,   0.00025,   0.00017, 256.00000,   2.00000
-537712162.79683,-263199305.51352,-55066048.27888,  -0.00205,   0.00010,  -0.00055,478627968.00000,   0.00064,275343296.00000,  -0.00011,   0.00025,   0.00017, 224.00000,   2.00000
-537767741.27570,-265403822.45809,-55027623.98867,  -0.00206,   0.00009,  -0.00055,478640064.00000,   0.00065,275356160.00000,  -0.00013,   0.00025,   0.00016,  96.00000,   2.00000
-537812977.01261,-267586782.27173,-54985083.79140,  -0.00207,   0.00008,  -0.00056,478646464.00000,   0.00067,275368928.00000,  -0.00014,   0.00025,   0.00016, 224.00000,   2.00000
-537848152.86193,-269762106.72660,-54937583.78598,  -0.00208,   0.00007,  -0.00056,478659136.00000,   0.00068,275381696.00000,  -0.00015,   0.00025,   0.00015, 160.00000,   2.00000
-537875303.86379,-271930672.44259,-54880548.43993,  -0.00208,   0.00006,  -0.00057,478670400.00000,   0.00069,275394432.00000,  -0.00017,   0.00025,   0.00015, 192.00000,   2.00000
-537891267.57907,-274077358.03836,-54822165.36579,  -0.00209,   0.00005,  -0.00057,478692928.00000,   0.00070,275407136.00000,  -0.00018,   0.00025,   0.00014, 160.00000,   2.00000
-537896493.88805,-276203045.18575,-54761634.82767,  -0.00210,   0.00004,  -0.00058,478685600.00000,   0.00071,275419776.00000,  -0.00020,   0.00025,   0.00013, 224.00000,   2.00000
-537892959.60712,-278335594.11741,-54693792.50560,  -0.00211,   0.00003,  -0.00058,478718880.00000,   0.00073,275432448.00000,  -0.00021,   0.00025,   0.00013,  96.00000,   2.00000
-537881766.14375,-280448896.00073,-54617821.93614,  -0.00212,   0.00002,  -0.00059,478723904.00000,   0.00074,275445056.00000,  -0.00022,   0.00025,   0.00012, 224.00000,   2.00000
-537859240.60956,-282541828.33715,-54543191.69765,  -0.00213,   0.00001,  -0.00059,478731872.00000,   0.00075,275457632.00000,  -0.00024,   0.00025,   0.00012, 192.00000,   2.00000
-537827643.73005,-284629411.98872,-54464762.20131,  -0.00214,   0.00000,  -0.00060,478744288.00000,   0.00076,275470176.00000,  -0.00025,   0.00025,   0.00011, 192.00000,   2.00000
-537788841.97123,-286712819.19993,-54378164.93402,  -0.00215,  -0.00001,  -0.00060,478754976.00000,   0.00077,275482688.00000,  -0.00026,   0.00025,   0.00011, 192.00000,   2.00000
-537739469.15327,-288777256.75279,-54293594.39625,  -0.00216,  -0.00002,  -0.00060,478762272.00000,   0.00078,275495136.00000,  -0.00028,   0.00025,   0.00010, 160.00000,   2.00000
-537683928.32327,-290837605.48953,-54199203.73400,  -0.00217,  -0.00003,  -0.00061,478786944.00000,   0.00079,275507616.00000,  -0.00029,   0.00025,   0.00010, 128.00000,   2.00000
-537618848.97052,-292893684.66128,-54103205.87341,  -0.00218,  -0.00004,  -0.00061,478785088.00000,   0.00081,275520000.00000,  -0.00030,   0.00025,   0.00009, 224.00000,   2.00000
-537544281.54876,-294930311.70302,-54007242.60651,  -0.00219,  -0.00005,  -0.00062,478806432.00000,   0.00082,275532416.00000,  -0.00032,   0.00025,   0.00008,  96.00000,   2.00000
-537462548.82169,-296950253.25329,-53905564.57679,  -0.00220,  -0.00006,  -0.00062,478796224.00000,   0.00083,275544704.00000,  -0.00033,   0.00024,   0.00008, 128.00000,   2.00000
-537372214.93508,-298977257.88009,-53797209.07288,  -0.00221,  -0.00007,  -0.00063,478829792.00000,   0.00084,275557024.00000,  -0.00034,   0.00024,   0.00007,  64.00000,   2.00000
-537274278.97964,-300972634.07243,-53686467.05541,  -0.00221,  -0.00008,  -0.00063,478828704.00000,   0.00085,275569280.00000,  -0.00036,   0.00024,   0.00007,  32.00000,   2.00000
-537166902.16749,-302975135.25430,-53570550.01776,  -0.00222,  -0.00009,  -0.00063,478848544.00000,   0.00086,275581536.00000,  -0.00037,   0.00024,   0.00006, 160.00000,   2.00000
-537052995.84202,-304959528.20884,-53446531.08286,  -0.00223,  -0.00010,  -0.00064,478853088.00000,   0.00087,275593760.00000,  -0.00038,   0.00024,   0.00006,  64.00000,   2.00000
-536928245.04399,-306936799.93911,-53322688.08201,  -0.00224,  -0.00011,  -0.00064,478867616.00000,   0.00089,275605920.00000,  -0.00040,   0.00024,   0.00005, 128.00000,   2.00000
-536797131.94026,-308896048.88221,-53190711.73638,  -0.00225,  -0.00012,  -0.00065,478872064.00000,   0.00090,275618048.00000,  -0.00041,   0.00024,   0.00005, 160.00000,   2.00000
-536655288.74226,-310848244.92946,-53058950.16887,  -0.00226,  -0.00013,  -0.00065,478886592.00000,   0.00091,275630144.00000,  -0.00042,   0.00024,   0.00004, 160.00000,   2.00000
-536508106.33910,-312781614.88575,-52917371.58415,  -0.00227,  -0.00014,  -0.00065,478904736.00000,   0.00092,275642240.00000,  -0.00044,   0.00023,   0.00004,  96.00000,   2.00000
-536351052.15098,-314710102.96551,-52773338.63051,  -0.00228,  -0.00015,  -0.00066,478903424.00000,   0.00093,275654272.00000,  -0.00045,   0.00023,   0.00003,  32.00000,   2.00000
-536187176.90677,-316619169.65085,-52624309.46082,  -0.00228,  -0.00016,  -0.00066,478922656.00000,   0.00094,275666272.00000,  -0.00046,   0.00023,   0.00002, 160.00000,   2.00000
-536015243.26761,-318524727.32308,-52468402.10394,  -0.00229,  -0.00017,  -0.00066,478919520.00000,   0.00095,275678208.00000,  -0.00047,   0.00023,   0.00002,  32.00000,   2.00000
-535833559.55937,-320422444.77293,-52311370.75683,  -0.00230,  -0.00019,  -0.00067,478947424.00000,   0.00096,275690176.00000,  -0.00049,   0.00023,   0.00001,  64.00000,   2.00000
-535645321.13091,-322304895.75276,-52148597.25418,  -0.00231,  -0.00020,  -0.00067,478936384.00000,   0.00097,275702048.00000,  -0.00050,   0.00023,   0.00001, 128.00000,   2.00000
-535449167.04763,-324180675.51677,-51980272.01644,  -0.00232,  -0.00021,  -0.00067,478962368.00000,   0.00098,275713920.00000,  -0.00051,   0.00022,   0.00000, 128.00000,   2.00000
-535243196.56145,-326052767.87420,-51809998.25193,  -0.00233,  -0.00022,  -0.00068,478960096.00000,   0.00100,275725760.00000,  -0.00053,   0.00022,  -0.00000, -64.00000,   2.00000
-535031262.83551,-327906516.99687,-51635315.50560,  -0.00233,  -0.00023,  -0.00068,478977856.00000,   0.00101,275737568.00000,  -0.00054,   0.00022,  -0.00001,  96.00000,   2.00000
-534812167.35551,-329743561.89747,-51458002.96617,  -0.00234,  -0.00024,  -0.00068,478981536.00000,   0.00102,275749312.00000,  -0.00055,   0.00022,  -0.00001,  64.00000,   2.00000
-534586462.90779,-331577205.94926,-51272556.13325,  -0.00235,  -0.00025,  -0.00068,478991072.00000,   0.00103,275761056.00000,  -0.00056,   0.00022,  -0.00002,  64.00000,   2.00000
-534350983.52695,-333408046.05325,-51085323.73998,  -0.00236,  -0.00026,  -0.00069,478988128.00000,   0.00104,275772704.00000,  -0.00058,   0.00021,  -0.00002,   0.00000,   2.00000
-534110123.88524,-335221339.56994,-50893887.18455,  -0.00237,  -0.00027,  -0.00069,479004992.00000,   0.00105,275784384.00000,  -0.00059,   0.00021,  -0.00003,  32.00000,   2.00000
-533860875.47340,-337030562.20043,-50698983.43893,  -0.00237,  -0.00028,  -0.00069,479015712.00000,   0.00106,275796000.00000,  -0.00060,   0.00021,  -0.00003, 160.00000,   2.00000
-533605189.95851,-338824243.87619,-50501612.85932,  -0.00238,  -0.00030,  -0.00069,479018272.00000,   0.00107,275807584.00000,  -0.00061,   0.00021,  -0.00004,  96.00000,   2.00000
-533342986.63142,-340615125.81078,-50296178.97604,  -0.00239,  -0.00031,  -0.00070,479027296.00000,   0.00108,275819168.00000,  -0.00063,   0.00020,  -0.00004,   0.00000,   2.00000
-533074649.72833,-342390866.46790,-50088335.06756,  -0.00240,  -0.00032,  -0.00070,479029472.00000,   0.00109,275830656.00000,  -0.00064,   0.00020,  -0.00005, 128.00000,   2.00000
-532798124.81288,-344162949.71855,-49877072.77190,  -0.00240,  -0.00033,  -0.00070,479039904.00000,   0.00110,275842144.00000,  -0.00065,   0.00020,  -0.00005,  64.00000,   2.00000
-532513527.85110,-345931400.27014,-49662411.77042,  -0.00241,  -0.00034,  -0.00070,479050176.00000,   0.00111,275853632.00000,  -0.00066,   0.00020,  -0.00006,  64.00000,   2.00000
-532224569.34891,-347685880.55562,-49440742.96702,  -0.00242,  -0.00035,  -0.00071,479050848.00000,   0.00112,275865024.00000,  -0.00067,   0.00019,  -0.00006,  32.00000,   2.00000
-531924668.71697,-349437891.75682,-49222020.18545,  -0.00243,  -0.00036,  -0.00071,479048736.00000,   0.00114,275876384.00000,  -0.00069,   0.00019,  -0.00007,  96.00000,   2.00000
-531623446.52629,-351174898.14811,-48990034.88752,  -0.00243,  -0.00037,  -0.00071,479061824.00000,   0.00115,275887712.00000,  -0.00070,   0.00019,  -0.00007, 128.00000,   2.00000
-531314625.05339,-352896092.01930,-48760402.91233,  -0.00244,  -0.00039,  -0.00071,479065408.00000,   0.00116,275899008.00000,  -0.00071,   0.00018,  -0.00008,   0.00000,   2.00000
-530995540.90546,-354624634.76231,-48526505.16885,  -0.00245,  -0.00040,  -0.00071,479084448.00000,   0.00117,275910304.00000,  -0.00072,   0.00018,  -0.00008, 128.00000,   2.00000
-530674532.70011,-356328351.85950,-48286757.21619,  -0.00245,  -0.00041,  -0.00072,479076832.00000,   0.00118,275921536.00000,  -0.00073,   0.00018,  -0.00009,  96.00000,   2.00000
-530343008.78046,-358039092.39755,-48042825.82718,  -0.00246,  -0.00042,  -0.00072,479096224.00000,   0.00119,275932768.00000,  -0.00075,   0.00017,  -0.00009,   0.00000,   2.00000
-530007248.00808,-359735928.79164,-47792133.59179,  -0.00247,  -0.00043,  -0.00072,479097376.00000,   0.00120,275943936.00000,  -0.00076,   0.00017,  -0.00010,   0.00000,   2.00000
-529664259.55907,-361417059.04442,-47544016.12830,  -0.00248,  -0.00044,  -0.00072,479101344.00000,   0.00121,275955072.00000,  -0.00077,   0.00017,  -0.00010,  64.00000,   2.00000
-529313129.49655,-363097639.14653,-47289769.20521,  -0.00248,  -0.00046,  -0.00072,479097664.00000,   0.00122,275966112.00000,  -0.00078,   0.00016,  -0.00011,  96.00000,   2.00000
-528959295.33599,-364761950.12413,-47027271.28998,  -0.00249,  -0.00047,  -0.00072,479112864.00000,   0.00123,275977184.00000,  -0.00079,   0.00016,  -0.00011,   0.00000,   2.00000
-528595553.25693,-366421131.64103,-46766432.38757,  -0.00250,  -0.00048,  -0.00073,479126048.00000,   0.00124,275988224.00000,  -0.00081,   0.00016,  -0.00012,  32.00000,   2.00000
-528225008.06896,-368077125.76990,-46497969.52411,  -0.00250,  -0.00049,  -0.00073,479136544.00000,   0.00125,275999232.00000,  -0.00082,   0.00015,  -0.00012,  96.00000,   2.00000
-527847322.66714,-369721318.82477,-46229137.18830,  -0.00251,  -0.00050,  -0.00073,479126048.00000,   0.00126,276010176.00000,  -0.00083,   0.00015,  -0.00013,  64.00000,   2.00000
-527467063.32228,-371349370.24213,-45952172.98928,  -0.00252,  -0.00051,  -0.00073,479141568.00000,   0.00127,276021088.00000,  -0.00084,   0.00015,  -0.00013,  32.00000,   2.00000
-527074021.08035,-372982598.05943,-45675932.95762,  -0.00252,  -0.00053,  -0.00073,479164288.00000,   0.00128,276032032.00000,  -0.00085,   0.00014,  -0.00014,   0.00000,   2.00000
-526678330.71254,-374595459.17373,-45395671.77480,  -0.00253,  -0.00054,  -0.00073,479143424.00000,   0.00129,276042848.00000,  -0.00086,   0.00014,  -0.00014,  96.00000,   2.00000
-526277427.92063,-376202695.70288,-45106322.47073,  -0.00253,  -0.00055,  -0.00073,479168096.00000,   0.00130,276053696.00000,  -0.00087,   0.00014,  -0.00014,  64.00000,   2.00000
-525864939.61326,-377808148.19344,-44820226.06059,  -0.00254,  -0.00056,  -0.00073,479168256.00000,   0.00131,276064480.00000,  -0.00088,   0.00013,  -0.00015,  32.00000,   2.00000
-525450285.61788,-379398110.66586,-44526045.30538,  -0.00255,  -0.00057,  -0.00073,479183936.00000,   0.00132,276075264.00000,  -0.00090,   0.00013,  -0.00015,   0.00000,   2.00000
-525027164.36579,-380988779.94904,-44225783.71158,  -0.00255,  -0.00058,  -0.00073,479181408.00000,   0.00133,276085984.00000,  -0.00091,   0.00012,  -0.00016,  64.00000,   2.00000
-524597078.84766,-382565196.40091,-43928232.92290,  -0.00256,  -0.00060,  -0.00073,479186016.00000,   0.00134,276096640.00000,  -0.00092,   0.00012,  -0.00016,  32.00000,   2.00000
-524165205.27142,-384126776.94168,-43622612.60751,  -0.00257,  -0.00061,  -0.00073,479201280.00000,   0.00135,276107328.00000,  -0.00093,   0.00012,  -0.00017,  64.00000,   2.00000
-523724680.00057,-385689535.36617,-43310846.62581,  -0.00257,  -0.00062,  -0.00073,479198656.00000,   0.00136,276117920.00000,  -0.00094,   0.00011,  -0.00017,  96.00000,   2.00000
-523274309.17053,-387248251.24532,-43000796.85906,  -0.00258,  -0.00063,  -0.00073,479212384.00000,   0.00137,276128544.00000,  -0.00095,   0.00011,  -0.00018, -32.00000,   2.00000
-522820460.89325,-388795567.76504,-42684143.02625,  -0.00258,  -0.00065,  -0.00073,479213856.00000,   0.00138,276139072.00000,  -0.00096,   0.00010,  -0.00018,  32.00000,   2.00000
-522359468.82159,-390340724.48854,-42359882.54535,  -0.00259,  -0.00066,  -0.00073,479224896.00000,   0.00139,276149632.00000,  -0.00097,   0.00010,  -0.00018,  32.00000,   2.00000
-521892035.91368,-391872379.12386,-42038415.38951,  -0.00259,  -0.00067,  -0.00073,479228992.00000,   0.00140,276160128.00000,  -0.00098,   0.00010,  -0.00019, -64.00000,   2.00000
-521420915.71714,-393392446.81415,-41710397.04341,  -0.00260,  -0.00068,  -0.00073,479230368.00000,   0.00141,276170560.00000,  -0.00099,   0.00009,  -0.00019,  32.00000,   2.00000
-520942726.96224,-394910069.72093,-41374899.24195,  -0.00261,  -0.00069,  -0.00073,479241472.00000,   0.00142,276180992.00000,  -0.00100,   0.00009,  -0.00020,  32.00000,   2.00000
-520454352.80568,-396422688.50398,-41041312.67143,  -0.00261,  -0.00071,  -0.00073,479255200.00000,   0.00143,276191424.00000,  -0.00102,   0.00008,  -0.00020, -96.00000,   2.00000
-519963682.38182,-397924047.64496,-40696679.64743,  -0.00262,  -0.00072,  -0.00073,479255424.00000,   0.00144,276201824.00000,  -0.00103,   0.00008,  -0.00020, -64.00000,   2.00000
-519464191.87589,-399414208.26611,-40356452.10059,  -0.00262,  -0.00073,  -0.00073,479246240.00000,   0.00145,276212096.00000,  -0.00104,   0.00007,  -0.00021,   0.00000,   2.00000
-518959381.47286,-400896849.57845,-40007618.17395,  -0.00263,  -0.00074,  -0.00073,479271392.00000,   0.00146,276222432.00000,  -0.00105,   0.00007,  -0.00021,  64.00000,   2.00000
-518443495.18409,-402377545.55066,-39657637.24990,  -0.00263,  -0.00076,  -0.00073,479271296.00000,   0.00147,276232736.00000,  -0.00106,   0.00006,  -0.00022, -32.00000,   2.00000
-517924262.32554,-403839742.85351,-39304867.45894,  -0.00264,  -0.00077,  -0.00073,479288448.00000,   0.00148,276243008.00000,  -0.00107,   0.00006,  -0.00022, -64.00000,   2.00000
-517398863.93728,-405291798.83095,-38947346.62752,  -0.00264,  -0.00078,  -0.00073,479277696.00000,   0.00149,276253184.00000,  -0.00108,   0.00005,  -0.00022,  32.00000,   2.00000
-516865650.02835,-406738559.86045,-38582846.33630,  -0.00265,  -0.00079,  -0.00073,479290752.00000,   0.00149,276263392.00000,  -0.00109,   0.00005,  -0.00023,   0.00000,   2.00000
-516325807.39593,-408169751.69623,-38221788.14132,  -0.00265,  -0.00081,  -0.00073,479296416.00000,   0.00150,276273536.00000,  -0.00110,   0.00004,  -0.00023, 128.00000,   2.00000
-515780360.72484,-409592574.04446,-37852575.34968,  -0.00266,  -0.00082,  -0.00073,479323360.00000,   0.00151,276283712.00000,  -0.00111,   0.00004,  -0.00024,  96.00000,   2.00000
-515226010.19114,-411011256.60329,-37479996.51119,  -0.00266,  -0.00083,  -0.00073,479299904.00000,   0.00152,276293792.00000,  -0.00112,   0.00003,  -0.00024,  64.00000,   2.00000
-514664995.15622,-412423429.61372,-37104068.11138,  -0.00267,  -0.00084,  -0.00072,479327360.00000,   0.00153,276303872.00000,  -0.00113,   0.00003,  -0.00024,  64.00000,   2.00000
-514098707.71599,-413826631.31668,-36726946.77198,  -0.00267,  -0.00086,  -0.00072,479330560.00000,   0.00154,276313920.00000,  -0.00114,   0.00002,  -0.00025, -32.00000,   2.00000
-513523832.81646,-415231593.90578,-36347671.99097,  -0.00268,  -0.00087,  -0.00072,479343008.00000,   0.00155,276323968.00000,  -0.00115,   0.00002,  -0.00025,  32.00000,   2.00000
-512942775.09138,-416636318.48363,-35963553.51457,  -0.00268,  -0.00088,  -0.00072,479329952.00000,   0.00156,276333952.00000,  -0.00116,   0.00001,  -0.00025,  96.00000,   2.00000
-512361046.18795,-418033680.54252,-35572191.91286,  -0.00268,  -0.00089,  -0.00072,479342560.00000,   0.00157,276343904.00000,  -0.00117,   0.00001,  -0.00026,  64.00000,   2.00000
-511767193.54803,-419436678.39710,-35184384.54573,  -0.00269,  -0.00091,  -0.00072,479341056.00000,   0.00158,276353824.00000,  -0.00118,   0.00000,  -0.00026,   0.00000,   2.00000
-511172446.45619,-420828396.75146,-34789278.34101,  -0.00269,  -0.00092,  -0.00072,479353696.00000,   0.00159,276363744.00000,  -0.00119,  -0.00000,  -0.00026,  32.00000,   2.00000
-510567009.16727,-422221109.12095,-34388357.13223,  -0.00270,  -0.00093,  -0.00071,479351136.00000,   0.00160,276373600.00000,  -0.00120,  -0.00001,  -0.00027, -64.00000,   2.00000
-509955925.25201,-423598566.96970,-33986258.09543,  -0.00270,  -0.00095,  -0.00071,479353376.00000,   0.00161,276383424.00000,  -0.00121,  -0.00001,  -0.00027,  32.00000,   2.00000
-509334532.23717,-424966050.23002,-33582263.24440,  -0.00271,  -0.00096,  -0.00071,479366816.00000,   0.00162,276393280.00000,  -0.00122,  -0.00002,  -0.00027,  64.00000,   2.00000
-508707876.67434,-426315670.80665,-33172723.81323,  -0.00271,  -0.00097,  -0.00071,479368896.00000,   0.00163,276403072.00000,  -0.00123,  -0.00002,  -0.00028, -32.00000,   2.00000
-508072233.27500,-427651293.76114,-32763524.01980,  -0.00271,  -0.00098,  -0.00071,479358848.00000,   0.00163,276412800.00000,  -0.00124,  -0.00003,  -0.00028,  96.00000,   2.00000
-507429517.74719,-428973812.28301,-32351570.02729,  -0.00272,  -0.00100,  -0.00070,479385248.00000,   0.00164,276422592.00000,  -0.00124,  -0.00003,  -0.00028, -32.00000,   2.00000
-506782809.66311,-430283296.79641,-31933844.26224,  -0.00272,  -0.00101,  -0.00070,479386688.00000,   0.00165,276432320.00000,  -0.00125,  -0.00004,  -0.00029, -32.00000,   2.00000
-506125587.67524,-431594309.82043,-31510127.11645,  -0.00272,  -0.00102,  -0.00070,479385600.00000,   0.00166,276442048.00000,  -0.00126,  -0.00005,  -0.00029,   0.00000,   2.00000
-505463586.32548,-432896345.56011,-31089189.70066,  -0.00273,  -0.00104,  -0.00070,479388672.00000,   0.00167,276451712.00000,  -0.00127,  -0.00005,  -0.00029,  64.00000,   2.00000
-504797926.75262,-434196222.52095,-30659243.56293,  -0.00273,  -0.00105,  -0.00069,479413728.00000,   0.00168,276461408.00000,  -0.00128,  -0.00006,  -0.00029,   0.00000,   2.00000
-504126929.39794,-435496570.53112,-30222866.88065,  -0.00274,  -0.00106,  -0.00069,479401920.00000,   0.00169,276471008.00000,  -0.00129,  -0.00006,  -0.00030, 160.00000,   2.00000
-503451932.19690,-436791602.71690,-29783818.99059,  -0.00274,  -0.00107,  -0.00069,479404576.00000,   0.00170,276480608.00000,  -0.00130,  -0.00007,  -0.00030, 224.00000,   2.00000
-502764536.63125,-438090794.04466,-29342620.10309,  -0.00274,  -0.00109,  -0.00068,479405120.00000,   0.00171,276490144.00000,  -0.00131,  -0.00008,  -0.00030,  64.00000,   2.00000
-502075779.80670,-439376572.36912,-28894142.23845,  -0.00275,  -0.00110,  -0.00068,479419872.00000,   0.00172,276499680.00000,  -0.00132,  -0.00008,  -0.00031,  32.00000,   2.00000
-501380589.64345,-440649343.27870,-28444918.82226,  -0.00275,  -0.00111,  -0.00068,479422592.00000,   0.00172,276509216.00000,  -0.00133,  -0.00009,  -0.00031,  64.00000,   2.00000
-500671773.46950,-441918688.52623,-27991065.09343,  -0.00275,  -0.00113,  -0.00068,479422624.00000,   0.00173,276518720.00000,  -0.00134,  -0.00009,  -0.00031,  96.00000,   2.00000
-499956071.74335,-443171207.32957,-27537642.51503,  -0.00276,  -0.00114,  -0.00067,479425280.00000,   0.00174,276528160.00000,  -0.00134,  -0.00010,  -0.00031, -64.00000,   2.00000
-499233060.04689,-444409448.86889,-27083103.06606,  -0.00276,  -0.00115,  -0.00067,479451424.00000,   0.00175,276537696.00000,  -0.00135,  -0.00011,  -0.00032,  64.00000,   2.00000
-498501488.36224,-445637261.61103,-26624992.35472,  -0.00276,  -0.00117,  -0.00067,479440480.00000,   0.00176,276547136.00000,  -0.00136,  -0.00011,  -0.00032,  32.00000,   2.00000
-497764520.40316,-446851399.16380,-26166732.06334,  -0.00276,  -0.00118,  -0.00066,479443008.00000,   0.00177,276556576.00000,  -0.00137,  -0.00012,  -0.00032,  64.00000,   2.00000
-497015232.31949,-448065584.38061,-25703106.86651,  -0.00277,  -0.00119,  -0.00066,479443200.00000,   0.00178,276565952.00000,  -0.00138,  -0.00012,  -0.00032, 160.00000,   2.00000
-496264752.10234,-449265474.56352,-25237470.38387,  -0.00277,  -0.00121,  -0.00065,479458144.00000,   0.00179,276575360.00000,  -0.00139,  -0.00013,  -0.00033,  64.00000,   2.00000
-495505298.03269,-450463730.00143,-24769520.91390,  -0.00277,  -0.00122,  -0.00065,479471648.00000,   0.00180,276584768.00000,  -0.00140,  -0.00014,  -0.00033,  64.00000,   2.00000
-494738208.00146,-451660109.56953,-24295657.30648,  -0.00277,  -0.00123,  -0.00065,479460576.00000,   0.00180,276594080.00000,  -0.00140,  -0.00014,  -0.00033,  96.00000,   2.00000
-493966559.98139,-452850140.85253,-23819735.33614,  -0.00278,  -0.00125,  -0.00064,479462688.00000,   0.00181,276603392.00000,  -0.00141,  -0.00015,  -0.00033,   0.00000,   2.00000
-493191024.85203,-454034720.07986,-23336957.13527,  -0.00278,  -0.00126,  -0.00064,479463808.00000,   0.00182,276612672.00000,  -0.00142,  -0.00016,  -0.00034,  96.00000,   2.00000
-492406145.50808,-455219109.27769,-22851491.69880,  -0.00278,  -0.00127,  -0.00063,479477152.00000,   0.00183,276621952.00000,  -0.00143,  -0.00016,  -0.00034,  32.00000,   2.00000
-491612456.56371,-456403401.79572,-22358701.01005,  -0.00278,  -0.00129,  -0.00063,479489824.00000,   0.00184,276631232.00000,  -0.00144,  -0.00017,  -0.00034,   0.00000,   2.00000
-490818351.07908,-457574337.24390,-21864834.03572,  -0.00279,  -0.00130,  -0.00063,479480544.00000,   0.00185,276640416.00000,  -0.00145,  -0.00018,  -0.00034,  96.00000,   2.00000
-490010426.12515,-458747873.37701,-21369432.89725,  -0.00279,  -0.00131,  -0.00062,479481696.00000,   0.00186,276649600.00000,  -0.00145,  -0.00018,  -0.00034,  64.00000,   2.00000
-489197403.64317,-459914806.94001,-20866543.51929,  -0.00279,  -0.00133,  -0.00062,479507040.00000,   0.00186,276658848.00000,  -0.00146,  -0.00019,  -0.00035, 128.00000,   2.00000
-488379401.12010,-461071139.17796,-20363697.28160,  -0.00279,  -0.00134,  -0.00061,479485760.00000,   0.00187,276667968.00000,  -0.00147,  -0.00020,  -0.00035,  64.00000,   2.00000
-487551912.99549,-462224140.28950,-19854359.41574,  -0.00279,  -0.00136,  -0.00061,479498944.00000,   0.00188,276677120.00000,  -0.00148,  -0.00020,  -0.00035,  96.00000,   2.00000
-486714201.35537,-463372560.99731,-19343466.45628,  -0.00280,  -0.00137,  -0.00060,479513056.00000,   0.00189,276686272.00000,  -0.00149,  -0.00021,  -0.00035,  96.00000,   2.00000
-485875442.33133,-464504529.88318,-18832288.40345,  -0.00280,  -0.00138,  -0.00060,479504384.00000,   0.00190,276695360.00000,  -0.00149,  -0.00022,  -0.00035, 128.00000,   2.00000
-485026942.75214,-465631681.89413,-18314982.52660,  -0.00280,  -0.00140,  -0.00059,479518240.00000,   0.00191,276704480.00000,  -0.00150,  -0.00022,  -0.00036, -32.00000,   2.00000
-484168447.21239,-466752251.06089,-17797561.30978,  -0.00280,  -0.00141,  -0.00059,479508960.00000,   0.00192,276713536.00000,  -0.00151,  -0.00023,  -0.00036,   0.00000,   2.00000
-483304438.70662,-467862583.62408,-17273608.98829,  -0.00280,  -0.00142,  -0.00058,479535424.00000,   0.00192,276722624.00000,  -0.00152,  -0.00024,  -0.00036,   0.00000,   2.00000
-482430316.52147,-468965996.60498,-16749624.98611,  -0.00281,  -0.00144,  -0.00058,479526656.00000,   0.00193,276731680.00000,  -0.00152,  -0.00024,  -0.00036,  32.00000,   2.00000
-481550479.08436,-470057724.76224,-16225061.01211,  -0.00281,  -0.00145,  -0.00057,479530240.00000,   0.00194,276740704.00000,  -0.00153,  -0.00025,  -0.00036, 160.00000,   2.00000
-480660629.63513,-471143377.67868,-15694654.53104,  -0.00281,  -0.00146,  -0.00057,479545088.00000,   0.00195,276749760.00000,  -0.00154,  -0.00026,  -0.00036,   0.00000,   2.00000
-479769791.64888,-472212196.12118,-15164183.16858,  -0.00281,  -0.00148,  -0.00056,479537376.00000,   0.00196,276758752.00000,  -0.00155,  -0.00027,  -0.00036,  64.00000,   2.00000
-478864416.68796,-473279879.83639,-14628374.71146,  -0.00281,  -0.00149,  -0.00056,479540640.00000,   0.00197,276767712.00000,  -0.00155,  -0.00027,  -0.00037,  64.00000,   2.00000
-477953362.99122,-474336343.83023,-14091124.76084,  -0.00281,  -0.00151,  -0.00055,479568800.00000,   0.00198,276776768.00000,  -0.00156,  -0.00028,  -0.00037, 128.00000,   2.00000
-477031746.77235,-475386081.15872,-13553735.60721,  -0.00281,  -0.00152,  -0.00054,479561344.00000,   0.00198,276785728.00000,  -0.00157,  -0.00029,  -0.00037, 128.00000,   2.00000
-476104893.71829,-476425080.17637,-13010949.78098,  -0.00281,  -0.00153,  -0.00054,479565632.00000,   0.00199,276794688.00000,  -0.00158,  -0.00029,  -0.00037, 192.00000,   2.00000
-475172666.02920,-477453445.40163,-12462757.05235,  -0.00281,  -0.00155,  -0.00053,479570080.00000,   0.00200,276803648.00000,  -0.00158,  -0.00030,  -0.00037,  96.00000,   2.00000
-474234374.10899,-478470733.40704,-11918713.95343,  -0.00282,  -0.00156,  -0.00053,479575488.00000,   0.00201,276812576.00000,  -0.00159,  -0.00031,  -0.00037,   0.00000,   2.00000
-473286046.19136,-479482619.78450,-11368816.77208,  -0.00282,  -0.00157,  -0.00052,479592224.00000,   0.00202,276821536.00000,  -0.00160,  -0.00032,  -0.00037,  32.00000,   2.00000
-472327219.27229,-480489291.90054,-10813746.64766,  -0.00282,  -0.00159,  -0.00051,479585600.00000,   0.00203,276830432.00000,  -0.00160,  -0.00032,  -0.00037,  32.00000,   2.00000
-471357807.39659,-481490285.67104,-10257600.92689,  -0.00282,  -0.00160,  -0.00051,479603232.00000,   0.00203,276839360.00000,  -0.00161,  -0.00033,  -0.00037,  64.00000,   2.00000
-470392623.36028,-482472145.54296,-9700683.48844,  -0.00282,  -0.00162,  -0.00050,479608608.00000,   0.00204,276848256.00000,  -0.00162,  -0.00034,  -0.00038,  96.00000,   2.00000
-469411821.26324,-483453785.41278,-9138131.01821,  -0.00282,  -0.00163,  -0.00050,479614464.00000,   0.00205,276857152.00000,  -0.00163,  -0.00035,  -0.00038,  32.00000,   2.00000
-468419844.02444,-484430688.82462,-8574986.32834,  -0.00282,  -0.00164,  -0.00049,479608832.00000,   0.00206,276866016.00000,  -0.00163,  -0.00035,  -0.00038, 128.00000,   2.00000
-467422450.55830,-485397521.02047,-8010430.37756,  -0.00282,  -0.00166,  -0.00048,479638592.00000,   0.00207,276874912.00000,  -0.00164,  -0.00036,  -0.00038, 128.00000,   2.00000
-466424186.43495,-486351205.00722,-7440411.42506,  -0.00282,  -0.00167,  -0.00048,479632320.00000,   0.00208,276883776.00000,  -0.00165,  -0.00037,  -0.00038,  32.00000,   2.00000
-465409550.97045,-487304596.28800,-6869445.77595,  -0.00282,  -0.00169,  -0.00047,479639168.00000,   0.00208,276892608.00000,  -0.00165,  -0.00038,  -0.00038,  64.00000,   2.00000
-464389082.17801,-488249111.81360,-6292733.05192,  -0.00282,  -0.00170,  -0.00046,479645280.00000,   0.00209,276901440.00000,  -0.00166,  -0.00038,  -0.00038,  64.00000,   2.00000
-463357757.44361,-489188578.47078,-5714892.75369,  -0.00282,  -0.00171,  -0.00045,479663840.00000,   0.00210,276910304.00000,  -0.00167,  -0.00039,  -0.00038,   0.00000,   2.00000
-462324985.04706,-490114922.11577,-5136296.36035,  -0.00282,  -0.00173,  -0.00045,479657920.00000,   0.00211,276919104.00000,  -0.00167,  -0.00040,  -0.00038,  96.00000,   2.00000
-461281281.18025,-491036162.64886,-4551807.06037,  -0.00282,  -0.00174,  -0.00044,479676512.00000,   0.00212,276927936.00000,  -0.00168,  -0.00041,  -0.00038,  32.00000,   2.00000
-460225440.61690,-491952898.60826,-3966561.31734,  -0.00282,  -0.00176,  -0.00043,479671360.00000,   0.00213,276936736.00000,  -0.00169,  -0.00042,  -0.00038, -64.00000,   2.00000
-459169324.15885,-492855848.07605,-3380331.59668,  -0.00282,  -0.00177,  -0.00043,479689056.00000,   0.00213,276945536.00000,  -0.00169,  -0.00042,  -0.00038, 128.00000,   2.00000
-458096161.56467,-493757904.57188,-2788460.81411,  -0.00282,  -0.00178,  -0.00042,479696512.00000,   0.00214,276954336.00000,  -0.00170,  -0.00043,  -0.00038,  96.00000,   2.00000
-457016714.42967,-494650566.53295,-2191032.70737,  -0.00282,  -0.00180,  -0.00041,479702912.00000,   0.00215,276963136.00000,  -0.00170,  -0.00044,  -0.00038, 128.00000,   2.00000
-455930589.10458,-495533335.99208,-1597708.47910,  -0.00282,  -0.00181,  -0.00040,479709568.00000,   0.00216,276971936.00000,  -0.00171,  -0.00045,  -0.00038,   0.00000,   2.00000
-454831926.94624,-496411114.63209,-998946.75498,  -0.00282,  -0.00183,  -0.00040,479704544.00000,   0.00217,276980672.00000,  -0.00172,  -0.00046,  -0.00038, 160.00000,   2.00000
-453732800.53183,-497274215.53928,-399532.98737,  -0.00282,  -0.00184,  -0.00039,479722368.00000,   0.00218,276989440.00000,  -0.00172,  -0.00046,  -0.00038, 128.00000,   2.00000
-452616312.80931,-498135596.05946,205250.61636,  -0.00282,  -0.00186,  -0.00038,479730112.00000,   0.00218,276998208.00000,  -0.00173,  -0.00047,  -0.00038,  96.00000,   2.00000
-451497728.42142,-498983174.63699,810542.50963,  -0.00282,  -0.00187,  -0.00037,479724000.00000,   0.00219,277006944.00000,  -0.00173,  -0.00048,  -0.00038,   0.00000,   2.00000
-450367846.67961,-499823910.04012,1421096.33022,  -0.00282,  -0.00188,  -0.00036,479743168.00000,   0.00220,277015712.00000,  -0.00174,  -0.00049,  -0.00038, -32.00000,   2.00000
-449226906.14517,-500657832.36558,2027231.41533,  -0.00281,  -0.00190,  -0.00036,479762496.00000,   0.00221,277024512.00000,  -0.00175,  -0.00050,  -0.00038,  32.00000,   2.00000
-448077246.36898,-501482373.49650,2638722.06705,  -0.00281,  -0.00191,  -0.00035,479745248.00000,   0.00222,277033248.00000,  -0.00175,  -0.00050,  -0.00038, -32.00000,   2.00000
-446927387.58815,-502291783.31216,3255367.14057,  -0.00281,  -0.00193,  -0.00034,479763136.00000,   0.00222,277041984.00000,  -0.00176,  -0.00051,  -0.00038,  96.00000,   2.00000
-445759612.25403,-503098480.26261,3872398.45460,  -0.00281,  -0.00194,  -0.00033,479771520.00000,   0.00223,277050752.00000,  -0.00176,  -0.00052,  -0.00038,  32.00000,   2.00000
-444585216.61526,-503894720.20590,4489855.65520,  -0.00281,  -0.00196,  -0.00032,479778304.00000,   0.00224,277059520.00000,  -0.00177,  -0.00053,  -0.00038,  32.00000,   2.00000
-443404028.40848,-504680362.60069,5107775.25194,  -0.00281,  -0.00197,  -0.00031,479785088.00000,   0.00225,277068256.00000,  -0.00178,  -0.00054,  -0.00038, -32.00000,   2.00000
-442216101.41556,-505455551.58633,5731002.84569,  -0.00281,  -0.00198,  -0.00031,479791936.00000,   0.00226,277077024.00000,  -0.00178,  -0.00055,  -0.00038, -64.00000,   2.00000
-441010082.35200,-506227911.38495,6354736.61656,  -0.00281,  -0.00200,  -0.00030,479800672.00000,   0.00227,277085792.00000,  -0.00179,  -0.00055,  -0.00038,  64.00000,   2.00000
-439808571.42621,-506982262.43057,6983893.66544,  -0.00280,  -0.00201,  -0.00029,479805728.00000,   0.00227,277094528.00000,  -0.00179,  -0.00056,  -0.00038, 160.00000,   2.00000
-438588863.75636,-507733919.94894,7613652.42662,  -0.00280,  -0.00203,  -0.00028,479814592.00000,   0.00228,277103296.00000,  -0.00180,  -0.00057,  -0.00038, 160.00000,   2.00000
-437362227.11001,-508475304.12103,8244118.25361,  -0.00280,  -0.00204,  -0.00027,479821504.00000,   0.00229,277112064.00000,  -0.00180,  -0.00058,  -0.00038,   0.00000,   2.00000
-436128982.22004,-509206992.90864,8875376.77170,  -0.00280,  -0.00206,  -0.00026,479828096.00000,   0.00230,277120832.00000,  -0.00181,  -0.00059,  -0.00038,   0.00000,   2.00000
-434881460.19785,-509933068.54769,9512541.04837,  -0.00280,  -0.00207,  -0.00025,479824416.00000,   0.00231,277129568.00000,  -0.00181,  -0.00060,  -0.00038,  64.00000,   2.00000
-433634392.14647,-510645165.64706,10150360.60170,  -0.00280,  -0.00208,  -0.00024,479841920.00000,   0.00232,277138336.00000,  -0.00182,  -0.00061,  -0.00038,  96.00000,   2.00000
-432372849.66914,-511351899.44574,10794209.69665,  -0.00279,  -0.00210,  -0.00023,479838272.00000,   0.00232,277147072.00000,  -0.00182,  -0.00061,  -0.00037,  32.00000,   2.00000
-431100394.72343,-512052244.31911,11433885.43521,  -0.00279,  -0.00211,  -0.00023,479857856.00000,   0.00233,277155840.00000,  -0.00183,  -0.00062,  -0.00037,   0.00000,   2.00000
-429820835.97109,-512742815.75477,12079339.43171,  -0.00279,  -0.00213,  -0.00022,479865184.00000,   0.00234,277164608.00000,  -0.00183,  -0.00063,  -0.00037, -32.00000,   2.00000
-428538572.78264,-513421044.14025,12730887.69054,  -0.00279,  -0.00214,  -0.00021,479859456.00000,   0.00235,277173344.00000,  -0.00184,  -0.00064,  -0.00037,  64.00000,   2.00000
-427237833.15765,-514096405.94714,13378337.68821,  -0.00279,  -0.00216,  -0.00020,479869280.00000,   0.00236,277182080.00000,  -0.00184,  -0.00065,  -0.00037,  64.00000,   2.00000
-425937691.88293,-514756503.62277,14030853.52917,  -0.00278,  -0.00217,  -0.00019,479888000.00000,   0.00237,277190880.00000,  -0.00185,  -0.00066,  -0.00037,  32.00000,   2.00000
-424622875.51187,-515409262.34187,14688891.96844,  -0.00278,  -0.00218,  -0.00018,479886176.00000,   0.00237,277199648.00000,  -0.00185,  -0.00067,  -0.00037,  32.00000,   2.00000
-423297590.62102,-516052810.41263,15341779.64189,  -0.00278,  -0.00220,  -0.00017,479907968.00000,   0.00238,277208448.00000,  -0.00186,  -0.00068,  -0.00037,   0.00000,   2.00000
-421961455.04335,-516685062.27563,16000307.12696,  -0.00278,  -0.00221,  -0.00016,479894080.00000,   0.00239,277217216.00000,  -0.00186,  -0.00069,  -0.00037, -32.00000,   2.00000
-420626457.44745,-517300515.18498,16658284.95612,  -0.00277,  -0.00223,  -0.00015,479913824.00000,   0.00240,277226016.00000,  -0.00187,  -0.00069,  -0.00036,  96.00000,   2.00000
-419272205.65122,-517910060.18146,17316018.37592,  -0.00277,  -0.00224,  -0.00014,479926272.00000,   0.00241,277234848.00000,  -0.00187,  -0.00070,  -0.00036, -64.00000,   2.00000
-417918432.95287,-518503823.96218,17978103.35587,  -0.00277,  -0.00226,  -0.00013,479946016.00000,   0.00242,277243712.00000,  -0.00188,  -0.00071,  -0.00036,  32.00000,   2.00000
-416552593.10098,-519089169.64649,18641406.66982,  -0.00277,  -0.00227,  -0.00012,479931104.00000,   0.00242,277252512.00000,  -0.00188,  -0.00072,  -0.00036, 160.00000,   2.00000
-415174947.33772,-519667609.34055,19304391.05936,  -0.00276,  -0.00229,  -0.00011,479952384.00000,   0.00243,277261376.00000,  -0.00189,  -0.00073,  -0.00036,   0.00000,   2.00000
-413780891.84578,-520240631.54309,19972926.44757,  -0.00276,  -0.00230,  -0.00010,479950784.00000,   0.00244,277270176.00000,  -0.00189,  -0.00074,  -0.00036, 128.00000,   2.00000
-412387880.62371,-520800083.29136,20641052.96460,  -0.00276,  -0.00231,  -0.00009,479969376.00000,   0.00245,277279040.00000,  -0.00190,  -0.00075,  -0.00035,  32.00000,   2.00000
-410979202.61270,-521353119.24089,21309667.63662,  -0.00275,  -0.00233,  -0.00008,479968480.00000,   0.00246,277287904.00000,  -0.00190,  -0.00076,  -0.00035,  32.00000,   2.00000
-409562744.18426,-521895812.64066,21978302.46042,  -0.00275,  -0.00234,  -0.00006,479978048.00000,   0.00247,277296768.00000,  -0.00190,  -0.00077,  -0.00035, 160.00000,   2.00000
-408137633.27671,-522429469.49335,22647192.13979,  -0.00275,  -0.00236,  -0.00005,479986912.00000,   0.00247,277305600.00000,  -0.00191,  -0.00078,  -0.00035,   0.00000,   2.00000
-406699028.36660,-522956680.47464,23320539.88993,  -0.00274,  -0.00237,  -0.00004,480008864.00000,   0.00248,277314528.00000,  -0.00191,  -0.00079,  -0.00035,  64.00000,   2.00000
-405246511.91206,-523478113.49159,23995741.16853,  -0.00274,  -0.00239,  -0.00003,479992640.00000,   0.00249,277323360.00000,  -0.00192,  -0.00079,  -0.00034,  64.00000,   2.00000
-403794582.79207,-523986977.05624,24670696.44209,  -0.00274,  -0.00240,  -0.00002,480009696.00000,   0.00250,277332256.00000,  -0.00192,  -0.00080,  -0.00034,  32.00000,   2.00000
-402322124.10243,-524489796.07335,25350326.19034,  -0.00273,  -0.00242,  -0.00001,480021920.00000,   0.00251,277341152.00000,  -0.00193,  -0.00081,  -0.00034,  32.00000,   2.00000
-400846752.80215,-524978239.71607,26030799.30885,  -0.00273,  -0.00243,   0.00000,480017088.00000,   0.00252,277350048.00000,  -0.00193,  -0.00082,  -0.00034, 128.00000,   2.00000
-399352515.30411,-525458542.02851,26710960.34991,  -0.00273,  -0.00244,   0.00001,480030304.00000,   0.00252,277358976.00000,  -0.00193,  -0.00083,  -0.00034,  64.00000,   2.00000
-397864903.25705,-525919697.31958,27391369.51195,  -0.00272,  -0.00246,   0.00002,480036512.00000,   0.00253,277367904.00000,  -0.00194,  -0.00084,  -0.00033,   0.00000,   2.00000
-396358614.95691,-526372975.87593,28071629.13528,  -0.00272,  -0.00247,   0.00003,480050752.00000,   0.00254,277376864.00000,  -0.00194,  -0.00085,  -0.00033,  32.00000,   2.00000
-394858051.35447,-526807456.07934,28757170.37134,  -0.00271,  -0.00249,   0.00005,480058464.00000,   0.00255,277385856.00000,  -0.00194,  -0.00086,  -0.00033, -32.00000,   2.00000
-393338223.56824,-527235624.07096,29442822.21817,  -0.00271,  -0.00250,   0.00006,480073312.00000,   0.00256,277394880.00000,  -0.00195,  -0.00087,  -0.00033,  64.00000,   2.00000
-391801881.37361,-527656241.02845,30129704.02304,  -0.00271,  -0.00252,   0.00007,480075104.00000,   0.00257,277403872.00000,  -0.00195,  -0.00088,  -0.00032,   0.00000,   2.00000
-390271120.44203,-528062059.56714,30817558.17092,  -0.00270,  -0.00253,   0.00008,480082336.00000,   0.00258,277412864.00000,  -0.00196,  -0.00089,  -0.00032,  64.00000,   2.00000
-388719650.83406,-528463332.74861,31505783.22466,  -0.00270,  -0.00255,   0.00009,480097984.00000,   0.00258,277421888.00000,  -0.00196,  -0.00090,  -0.00032,   0.00000,   2.00000
-387169128.71680,-528851356.98469,32198701.61746,  -0.00269,  -0.00256,   0.00010,480119872.00000,   0.00259,277430976.00000,  -0.00196,  -0.00091,  -0.00031,  64.00000,   2.00000
-385600677.51738,-529233904.79213,32893009.39102,  -0.00269,  -0.00257,   0.00012,480122144.00000,   0.00260,277440032.00000,  -0.00197,  -0.00092,  -0.00031,   0.00000,   2.00000
-384026980.76821,-529606068.77289,33588992.31987,  -0.00268,  -0.00259,   0.00013,480120320.00000,   0.00261,277449056.00000,  -0.00197,  -0.00093,  -0.00031,   0.00000,   2.00000
-382431910.83790,-529973925.40287,34285040.34607,  -0.00268,  -0.00260,   0.00014,480136832.00000,   0.00262,277458080.00000,  -0.00197,  -0.00094,  -0.00031, 192.00000,   2.00000
-380838156.60928,-530328820.16263,34980541.41848,  -0.00268,  -0.00262,   0.00015,480158368.00000,   0.00263,277467200.00000,  -0.00198,  -0.00095,  -0.00030,   0.00000,   2.00000
-379228444.88374,-530674031.34574,35682851.19230,  -0.00267,  -0.00263,   0.00016,480148736.00000,   0.00264,277476224.00000,  -0.00198,  -0.00096,  -0.00030, -32.00000,   2.00000
-377607534.69031,-531009748.14894,36383843.11956,  -0.00267,  -0.00265,   0.00018,480174976.00000,   0.00264,277485344.00000,  -0.00198,  -0.00097,  -0.00030,  64.00000,   2.00000
-375978755.38912,-531333755.56896,37084583.09668,  -0.00266,  -0.00266,   0.00019,480187840.00000,   0.00265,277494464.00000,  -0.00199,  -0.00098,  -0.00029,  64.00000,   2.00000
-374345177.16962,-531643678.35098,37786219.36532,  -0.00266,  -0.00268,   0.00020,480187008.00000,   0.00266,277503584.00000,  -0.00199,  -0.00099,  -0.00029,   0.00000,   2.00000
-372691225.39376,-531944751.35766,38486975.12556,  -0.00265,  -0.00269,   0.00021,480204704.00000,   0.00267,277512768.00000,  -0.00199,  -0.00100,  -0.00029, -32.00000,   2.00000
-371040682.36827,-532229242.65297,39186386.94052,  -0.00265,  -0.00271,   0.00023,480226912.00000,   0.00268,277521984.00000,  -0.00200,  -0.00101,  -0.00028,  64.00000,   2.00000
-369374981.99424,-532499641.45396,39892221.86005,  -0.00264,  -0.00272,   0.00024,480218592.00000,   0.00269,277531168.00000,  -0.00200,  -0.00102,  -0.00028,  32.00000,   2.00000
-367700073.44223,-532757023.71831,40596175.66916,  -0.00264,  -0.00273,   0.00025,480245920.00000,   0.00270,277540448.00000,  -0.00200,  -0.00103,  -0.00028,  32.00000,   2.00000
-366011893.69481,-533003140.47257,41297324.98928,  -0.00263,  -0.00275,   0.00026,480235520.00000,   0.00271,277549664.00000,  -0.00200,  -0.00104,  -0.00027,  64.00000,   2.00000
-364324516.84227,-533232891.73551,42000453.04573,  -0.00262,  -0.00276,   0.00028,480273184.00000,   0.00271,277559008.00000,  -0.00201,  -0.00105,  -0.00027,   0.00000,   2.00000
-362622557.38984,-533451030.12390,42705676.07406,  -0.00262,  -0.00278,   0.00029,480264704.00000,   0.00272,277568320.00000,  -0.00201,  -0.00106,  -0.00027, -32.00000,   2.00000
-360923959.92630,-533652968.52604,43414477.19263,  -0.00261,  -0.00279,   0.00030,480289152.00000,   0.00273,277577664.00000,  -0.00201,  -0.00107,  -0.00026,  32.00000,   2.00000
-359206425.38934,-533848246.96151,44118006.25918,  -0.00261,  -0.00281,   0.00032,480308256.00000,   0.00274,277587072.00000,  -0.00201,  -0.00108,  -0.00026,  32.00000,   2.00000
-357474080.99074,-534033678.36046,44824299.75744,  -0.00260,  -0.00282,   0.00033,480301408.00000,   0.00275,277596416.00000,  -0.00202,  -0.00109,  -0.00025,  32.00000,   2.00000
-355746189.68947,-534206151.79321,45535059.71935,  -0.00260,  -0.00284,   0.00034,480328320.00000,   0.00276,277605856.00000,  -0.00202,  -0.00110,  -0.00025,   0.00000,   2.00000
-354000592.59300,-534373909.56099,46248136.73800,  -0.00259,  -0.00285,   0.00036,480338624.00000,   0.00277,277615232.00000,  -0.00202,  -0.00111,  -0.00025,  32.00000,   2.00000
-352255999.13203,-534533600.33870,46957273.94742,  -0.00259,  -0.00286,   0.00037,480365728.00000,   0.00278,277624672.00000,  -0.00202,  -0.00112,  -0.00024, -32.00000,   2.00000
-350479771.06188,-534678375.64380,47672568.03865,  -0.00258,  -0.00288,   0.00038,480376256.00000,   0.00279,277634112.00000,  -0.00203,  -0.00113,  -0.00024, -64.00000,   2.00000
-348683384.40352,-534796545.33160,48385052.69358,  -0.00257,  -0.00289,   0.00040,480384320.00000,   0.00279,277643616.00000,  -0.00203,  -0.00114,  -0.00023,   0.00000,   2.00000
-346872761.76754,-534893225.89993,49092504.91862,  -0.00257,  -0.00291,   0.00041,480373920.00000,   0.00280,277653184.00000,  -0.00203,  -0.00115,  -0.00023,-128.00000,   2.00000
-345084046.77536,-534980235.44421,49794159.84186,  -0.00256,  -0.00292,   0.00042,480383744.00000,   0.00281,277662816.00000,  -0.00203,  -0.00116,  -0.00022,   0.00000,   2.00000
-343284922.97642,-535066679.41872,50503308.15805,  -0.00255,  -0.00294,   0.00044,480377024.00000,   0.00282,277672384.00000,  -0.00204,  -0.00117,  -0.00022,  96.00000,   2.00000
-341472803.75773,-535154554.34321,51209551.44028,  -0.00255,  -0.00295,   0.00045,480409696.00000,   0.00283,277681984.00000,  -0.00204,  -0.00118,  -0.00022,  64.00000,   2.00000
-339648133.47045,-535235248.90864,51921171.81607,  -0.00254,  -0.00297,   0.00046,480415776.00000,   0.00284,277691552.00000,  -0.00204,  -0.00119,  -0.00021,  32.00000,   2.00000
-337808719.16647,-535305601.82123,52637966.64259,  -0.00254,  -0.00298,   0.00048,480449792.00000,   0.00285,277701152.00000,  -0.00204,  -0.00120,  -0.00021,  32.00000,   2.00000
-335951087.87252,-535366970.73551,53354347.80057,  -0.00253,  -0.00299,   0.00049,480442848.00000,   0.00286,277710720.00000,  -0.00204,  -0.00121,  -0.00020, 576.00000,   1.00000
-334095174.57879,-535409921.64940,54074581.38534,  -0.00252,  -0.00301,   0.00051,480469376.00000,   0.00287,277720384.00000,  -0.00205,  -0.00122,  -0.00020, -96.00000,   2.00000
-332221612.44638,-535443110.82680,54791287.47803,  -0.00252,  -0.00302,   0.00052,480474496.00000,   0.00288,277730016.00000,  -0.00205,  -0.00123,  -0.00019,  32.00000,   2.00000
-330340056.57791,-535459854.02037,55512146.99571,  -0.00251,  -0.00304,   0.00053,480491392.00000,   0.00289,277739712.00000,  -0.00205,  -0.00125,  -0.00019,   0.00000,   2.00000
-328451988.43872,-535462330.78986,56232359.87063,  -0.00250,  -0.00305,   0.00055,480506304.00000,   0.00290,277749440.00000,  -0.00205,  -0.00126,  -0.00018,  64.00000,   2.00000
-326546679.69162,-535450637.71163,56954708.00930,  -0.00249,  -0.00307,   0.00056,480499520.00000,   0.00290,277759168.00000,  -0.00205,  -0.00127,  -0.00018,  32.00000,   2.00000
-324646590.95203,-535426385.92777,57668613.62850,  -0.00249,  -0.00308,   0.00058,480534720.00000,   0.00291,277768992.00000,  -0.00205,  -0.00128,  -0.00017,  32.00000,   2.00000
-322727874.02636,-535386443.27706,58389198.94920,  -0.00248,  -0.00309,   0.00059,480529600.00000,   0.00292,277778816.00000,  -0.00206,  -0.00129,  -0.00017, -64.00000,   2.00000
-320801288.47634,-535334221.17683,59106916.08802,  -0.00247,  -0.00311,   0.00061,480558752.00000,   0.00293,277788704.00000,  -0.00206,  -0.00130,  -0.00016,   0.00000,   2.00000
-318868996.17740,-535267685.58919,59825763.11892,  -0.00247,  -0.00312,   0.00062,480559872.00000,   0.00294,277798592.00000,  -0.00206,  -0.00131,  -0.00016, 288.00000,   1.00000
-316916514.21759,-535188181.35855,60544713.05372,  -0.00246,  -0.00314,   0.00063,480567808.00000,   0.00295,277808512.00000,  -0.00206,  -0.00132,  -0.00015,-512.00000,   1.00000
-314970036.17825,-535096685.66174,61262039.71853,  -0.00245,  -0.00315,   0.00065,480589760.00000,   0.00296,277818496.00000,  -0.00206,  -0.00133,  -0.00015,   0.00000,   2.00000
-313004107.15933,-534995376.55503,61975162.36147,  -0.00244,  -0.00317,   0.00066,480596608.00000,   0.00297,277828480.00000,  -0.00206,  -0.00134,  -0.00014, -32.00000,   2.00000
-311030132.10846,-534878952.35342,62694341.26014,  -0.00244,  -0.00318,   0.00068,480599808.00000,   0.00298,277838464.00000,  -0.00206,  -0.00135,  -0.00014,  32.00000,   2.00000
-309047267.53547,-534752190.44818,63410878.86970,  -0.00243,  -0.00319,   0.00069,480629408.00000,   0.00299,277848512.00000,  -0.00207,  -0.00136,  -0.00013,   0.00000,   2.00000
-307056875.92881,-534612993.54715,64129101.49979,  -0.00242,  -0.00321,   0.00071,480630944.00000,   0.00300,277858592.00000,  -0.00207,  -0.00138,  -0.00013,  64.00000,   2.00000
-305057872.34239,-534462565.43589,64846891.30212,  -0.00241,  -0.00322,   0.00072,480646752.00000,   0.00301,277868672.00000,  -0.00207,  -0.00139,  -0.00012, -96.00000,   2.00000
-303037391.87335,-534302034.60950,65565438.49714,  -0.00241,  -0.00324,   0.00074,480655328.00000,   0.00302,277878784.00000,  -0.00207,  -0.00140,  -0.00011,  32.00000,   2.00000
-301008032.40041,-534130353.61957,66283596.49992,  -0.00240,  -0.00325,   0.00075,480671360.00000,   0.00303,277888896.00000,  -0.00207,  -0.00141,  -0.00011,   0.00000,   2.00000
-298971520.06982,-533948760.84688,66999164.35140,  -0.00239,  -0.00327,   0.00077,480670880.00000,   0.00304,277899008.00000,  -0.00207,  -0.00142,  -0.00010,  32.00000,   2.00000
-296924702.15724,-533755104.23941,67716606.00555,  -0.00238,  -0.00328,   0.00078,480702912.00000,   0.00305,277909216.00000,  -0.00207,  -0.00143,  -0.00010,  32.00000,   2.00000
-294869738.56999,-533548775.17463,68435874.73231,  -0.00237,  -0.00329,   0.00080,480705120.00000,   0.00306,277919424.00000,  -0.00207,  -0.00144,  -0.00009,  32.00000,   2.00000
-292807778.46666,-533333228.42011,69150169.26327,  -0.00237,  -0.00331,   0.00081,480719296.00000,   0.00307,277929664.00000,  -0.00207,  -0.00145,  -0.00009,  32.00000,   2.00000
-290723797.23652,-533103475.84571,69869371.95557,  -0.00236,  -0.00332,   0.00083,480731520.00000,   0.00308,277939904.00000,  -0.00207,  -0.00146,  -0.00008,  32.00000,   2.00000
-288632845.81098,-532860981.21529,70587656.80088,  -0.00235,  -0.00334,   0.00084,480749088.00000,   0.00309,277950208.00000,  -0.00207,  -0.00148,  -0.00007,  64.00000,   2.00000
-286536838.64429,-532605947.82325,71302661.49200,  -0.00234,  -0.00335,   0.00086,480751392.00000,   0.00310,277960512.00000,  -0.00208,  -0.00149,  -0.00007,  32.00000,   2.00000
-284435278.95060,-532338129.25348,72013835.71951,  -0.00233,  -0.00337,   0.00088,480784800.00000,   0.00311,277970912.00000,  -0.00208,  -0.00150,  -0.00006,  32.00000,   2.00000
-282327755.74679,-532051759.74009,72730160.47298,  -0.00232,  -0.00338,   0.00089,480793376.00000,   0.00312,277981312.00000,  -0.00208,  -0.00151,  -0.00005, -32.00000,   2.00000
-280203329.26159,-531752448.12121,73441344.65187,  -0.00231,  -0.00339,   0.00091,480806336.00000,   0.00313,277991776.00000,  -0.00208,  -0.00152,  -0.00005, -32.00000,   2.00000
-278074123.93379,-531436037.88438,74153179.90524,  -0.00231,  -0.00341,   0.00092,480814688.00000,   0.00314,278002240.00000,  -0.00208,  -0.00153,  -0.00004,  64.00000,   2.00000
-275953899.88054,-531105802.36103,74859793.53176,  -0.00230,  -0.00342,   0.00094,480857664.00000,   0.00315,278012832.00000,  -0.00208,  -0.00154,  -0.00003,  32.00000,   2.00000
-273813768.06836,-530758875.74567,75568759.51615,  -0.00229,  -0.00344,   0.00095,480859328.00000,   0.00316,278023424.00000,  -0.00208,  -0.00156,  -0.00003, -32.00000,   2.00000
-271653135.68223,-530397271.53251,76277906.76442,  -0.00228,  -0.00345,   0.00097,480874624.00000,   0.00317,278034048.00000,  -0.00208,  -0.00157,  -0.00002,  96.00000,   2.00000
-269498888.11540,-530022534.87797,76985254.53781,  -0.00227,  -0.00346,   0.00099,480901440.00000,   0.00318,278044736.00000,  -0.00208,  -0.00158,  -0.00001, -64.00000,   2.00000
-267336593.83428,-529635180.32697,77692133.59822,  -0.00226,  -0.00348,   0.00100,480920864.00000,   0.00319,278055488.00000,  -0.00208,  -0.00159,  -0.00001,   0.00000,   2.00000
-265151207.78205,-529233512.81671,78402269.70517,  -0.00225,  -0.00349,   0.00102,480919584.00000,   0.00320,278066208.00000,  -0.00208,  -0.00160,  -0.00000,  96.00000,   2.00000
-262958360.42654,-528822364.56142,79107494.67045,  -0.00224,  -0.00351,   0.00103,480935552.00000,   0.00321,278076960.00000,  -0.00208,  -0.00161,   0.00001, -96.00000,   2.00000
-260756194.88061,-528397095.06261,79816471.70515,  -0.00223,  -0.00352,   0.00105,480956032.00000,   0.00322,278087744.00000,  -0.00208,  -0.00162,   0.00001,  32.00000,   2.00000
-258546964.54059,-527962265.57011,80520155.91837,  -0.00222,  -0.00353,   0.00107,480972064.00000,   0.00323,278098592.00000,  -0.00208,  -0.00164,   0.00002,   0.00000,   2.00000
-256330081.50617,-527515355.52816,81222746.24872,  -0.00222,  -0.00355,   0.00108,480990624.00000,   0.00324,278109472.00000,  -0.00208,  -0.00165,   0.00003, -32.00000,   2.00000
-254090644.21295,-527053277.75900,81927757.16511,  -0.00221,  -0.00356,   0.00110,480989728.00000,   0.00325,278120352.00000,  -0.00208,  -0.00166,   0.00003,  32.00000,   2.00000
-251858607.63630,-526579290.08706,82630081.64341,  -0.00220,  -0.00358,   0.00112,481014976.00000,   0.00326,278131296.00000,  -0.00208,  -0.00167,   0.00004,   0.00000,   2.00000
-249605620.31193,-526090849.37606,83331700.60105,  -0.00219,  -0.00359,   0.00113,481029184.00000,   0.00327,278142272.00000,  -0.00208,  -0.00168,   0.00005,  32.00000,   2.00000
-247346388.44767,-525589866.96449,84029803.42184,  -0.00218,  -0.00360,   0.00115,481032800.00000,   0.00328,278153248.00000,  -0.00208,  -0.00169,   0.00006,  96.00000,   2.00000
-245081413.42894,-525073885.34838,84727350.53257,  -0.00217,  -0.00362,   0.00117,481070176.00000,   0.00329,278164320.00000,  -0.00208,  -0.00171,   0.00006, -32.00000,   2.00000
-242796138.98727,-524543600.33267,85422292.60712,  -0.00216,  -0.00363,   0.00118,481069152.00000,   0.00330,278175424.00000,  -0.00207,  -0.00172,   0.00007, -32.00000,   2.00000
-240518618.75183,-523998484.23763,86116687.41209,  -0.00215,  -0.00365,   0.00120,481082208.00000,   0.00331,278186528.00000,  -0.00207,  -0.00173,   0.00008, -64.00000,   2.00000
-238237459.67179,-523441085.83897,86806027.18062,  -0.00214,  -0.00366,   0.00121,481117696.00000,   0.00332,278197760.00000,  -0.00207,  -0.00174,   0.00009,-128.00000,   2.00000
-235935050.19893,-522866002.63494,87497043.36274,  -0.00213,  -0.00367,   0.00123,481120416.00000,   0.00333,278208992.00000,  -0.00207,  -0.00175,   0.00009,  32.00000,   2.00000
-233628815.88665,-522279384.26782,88181573.44043,  -0.00212,  -0.00369,   0.00125,481140096.00000,   0.00334,278220288.00000,  -0.00207,  -0.00177,   0.00010, 128.00000,   2.00000
-231316724.13866,-521675444.57962,88868214.91580,  -0.00211,  -0.00370,   0.00127,481165408.00000,   0.00336,278231648.00000,  -0.00207,  -0.00178,   0.00011,  32.00000,   2.00000
-228999239.84678,-521058388.28658,89551563.35592,  -0.00210,  -0.00371,   0.00128,481171424.00000,   0.00337,278243008.00000,  -0.00207,  -0.00179,   0.00012,  96.00000,   2.00000
-226677062.49417,-520427104.94415,90233113.07408,  -0.00209,  -0.00373,   0.00130,481194720.00000,   0.00338,278254432.00000,  -0.00207,  -0.00180,   0.00013,  96.00000,   2.00000
-224335336.76098,-519779916.99223,90914189.07684,  -0.00208,  -0.00374,   0.00132,481213056.00000,   0.00339,278265920.00000,  -0.00207,  -0.00181,   0.00013,  64.00000,   2.00000
-222004127.31800,-519120963.42768,91593040.55180,  -0.00206,  -0.00376,   0.00133,481241728.00000,   0.00340,278277504.00000,  -0.00207,  -0.00183,   0.00014, -64.00000,   2.00000
-219651959.93139,-518446706.79122,92270834.86286,  -0.00205,  -0.00377,   0.00135,481244416.00000,   0.00341,278289024.00000,  -0.00207,  -0.00184,   0.00015, -64.00000,   2.00000
-217295163.30503,-517759020.69414,92948352.05248,  -0.00204,  -0.00378,   0.00137,481268576.00000,   0.00342,278300640.00000,  -0.00206,  -0.00185,   0.00016,  64.00000,   2.00000
-214933425.33647,-517057452.47163,93625969.33175,  -0.00203,  -0.00380,   0.00138,481293248.00000,   0.00343,278312320.00000,  -0.00206,  -0.00186,   0.00017, -64.00000,   2.00000
-212566692.60667,-516342404.13303,94304209.22739,  -0.00202,  -0.00381,   0.00140,481317792.00000,   0.00344,278324032.00000,  -0.00206,  -0.00188,   0.00018,  32.00000,   2.00000
-210192126.01745,-515611169.16922,94986325.56212,  -0.00201,  -0.00382,   0.00142,481328512.00000,   0.00346,278335744.00000,  -0.00206,  -0.00189,   0.00018,  96.00000,   2.00000
-207812930.77551,-514868874.52307,95665132.03773,  -0.00200,  -0.00384,   0.00144,481350112.00000,   0.00347,278347520.00000,  -0.00206,  -0.00190,   0.00019,   0.00000,   2.00000
-205410007.35517,-514107376.99381,96348478.51208,  -0.00199,  -0.00385,   0.00145,481355616.00000,   0.00348,278359296.00000,  -0.00206,  -0.00191,   0.00020, -32.00000,   2.00000
-203019554.22494,-513336578.73702,97027669.80646,  -0.00198,  -0.00387,   0.00147,481397344.00000,   0.00349,278371200.00000,  -0.00206,  -0.00193,   0.00021,  64.00000,   2.00000
-200605272.83139,-512545988.43108,97709528.46053,  -0.00197,  -0.00388,   0.00149,481402176.00000,   0.00350,278383072.00000,  -0.00205,  -0.00194,   0.00022,  32.00000,   2.00000
-198183757.25658,-511741726.23924,98387883.07471,  -0.00196,  -0.00389,   0.00151,481407840.00000,   0.00351,278394976.00000,  -0.00205,  -0.00195,   0.00023,  64.00000,   2.00000
-195760029.04316,-510926342.90703,99060072.65059,  -0.00194,  -0.00391,   0.00152,481443840.00000,   0.00352,278407008.00000,  -0.00205,  -0.00196,   0.00024,  64.00000,   2.00000
-193327974.33871,-510095113.87117,99731801.61342,  -0.00193,  -0.00392,   0.00154,481452192.00000,   0.00354,278419040.00000,  -0.00205,  -0.00198,   0.00025,   0.00000,   2.00000
-190887100.35528,-509249013.18487,100403340.79443,  -0.00192,  -0.00393,   0.00156,481460608.00000,   0.00355,278431104.00000,  -0.00205,  -0.00199,   0.00025,  32.00000,   2.00000
-188443712.86275,-508397222.84899,101064886.19844,  -0.00191,  -0.00395,   0.00158,481493568.00000,   0.00356,278443264.00000,  -0.00204,  -0.00200,   0.00026,   0.00000,   2.00000
-185973800.83569,-507528795.22913,101728226.30871,  -0.00190,  -0.00396,   0.00160,481498464.00000,   0.00357,278455392.00000,  -0.00204,  -0.00201,   0.00027,  32.00000,   2.00000
-183510898.94634,-506653436.18405,102388774.03464,  -0.00189,  -0.00397,   0.00161,481525248.00000,   0.00358,278467584.00000,  -0.00204,  -0.00203,   0.00028,  64.00000,   2.00000
-181019098.39341,-505762441.43333,103051479.67676,  -0.00187,  -0.00399,   0.00163,481531296.00000,   0.00359,278479776.00000,  -0.00204,  -0.00204,   0.00029,  32.00000,   2.00000
-178517793.38075,-504865418.20165,103707889.14045,  -0.00186,  -0.00400,   0.00165,481552256.00000,   0.00361,278491968.00000,  -0.00204,  -0.00205,   0.00030, 128.00000,   2.00000
