# sigma_xx, sigma_yy, sigma_xy, epsilon_xx, epsilon_yy, epsilon_xy, vonMises, epsPlastic, hardening, epsilonP__xx, epsilonP__yy, epsilonP__xy, yieldValue, iteration
   0.00000,   0.00000,   0.00000,   0.00000,   0.00000,   0.00000,   0.00000,   0.00000,274640135.82653,   0.00000,   0.00000,   0.00000,-474640135.82653,   0.00000
   0.00000,   0.00000,   0.00000,   0.00000,   0.00000,   0.00000,   0.00000,   0.00000,274640135.82653,   0.00000,   0.00000,   0.00000,-474640135.82653,   0.00000
-2871986.99255,-5085742.07461,45846.99874,  -0.00000,  -0.00002,   0.00000,4417375.06795,   0.00000,274640135.82653,   0.00000,   0.00000,   0.00000,-470222760.75858,   0.00000
-5721050.48573,-10161659.79235,85144.42623,  -0.00001,  -0.00004,   0.00000,8824745.23285,   0.00000,274640135.82653,   0.00000,   0.00000,   0.00000,-465815390.59368,   0.00000
-8579938.33579,-15260501.00945,137540.99622,  -0.00001,  -0.00005,   0.00000,13252200.86808,   0.00000,274640135.82653,   0.00000,   0.00000,   0.00000,-461387934.95845,   0.00000
-11415902.68647,-20349517.86969,183387.99496,  -0.00001,  -0.00007,   0.00000,17669705.41432,   0.00000,274640135.82653,   0.00000,   0.00000,   0.00000,-456970430.41221,   0.00000
-14251867.03715,-25438534.72992,229234.99370,  -0.00002,  -0.00009,   0.00000,22087231.48578,   0.00000,274640135.82653,   0.00000,   0.00000,   0.00000,-452552904.34075,   0.00000
-17074732.24534,-30540650.73265,281631.56369,  -0.00002,  -0.00011,   0.00000,26514945.66425,   0.00000,274640135.82653,   0.00000,   0.00000,   0.00000,-448125190.16227,   0.00000
-19874673.95416,-35632942.37851,334028.13368,  -0.00002,  -0.00012,   0.00000,30933005.99548,   0.00000,274640135.82653,   0.00000,   0.00000,   0.00000,-443707129.83105,   0.00000
-22684440.01985,-40748157.52374,386424.70367,  -0.00002,  -0.00014,   0.00001,35370821.27237,   0.00000,274640135.82653,   0.00000,   0.00000,   0.00000,-439269314.55416,   0.00000
-25494206.08553,-45863372.66897,438821.27366,  -0.00003,  -0.00016,   0.00001,39808678.88080,   0.00000,274640135.82653,   0.00000,   0.00000,   0.00000,-434831456.94573,   0.00000
-28281048.65185,-50968763.45732,497767.41490,  -0.00003,  -0.00018,   0.00001,44237154.06029,   0.00000,274640135.82653,   0.00000,   0.00000,   0.00000,-430402981.76624,   0.00000
-31077715.57504,-56097077.74505,550163.98489,  -0.00003,  -0.00019,   0.00001,48685167.67329,   0.00000,274640135.82653,   0.00000,   0.00000,   0.00000,-425954968.15324,   0.00000
-33851458.99887,-61215567.67590,609110.12613,  -0.00003,  -0.00021,   0.00001,53123853.10196,   0.00000,274640135.82653,   0.00000,   0.00000,   0.00000,-421516282.72457,   0.00000
-36635026.77956,-66356981.10612,668056.26737,  -0.00004,  -0.00023,   0.00001,57582317.13255,   0.00000,274640135.82653,   0.00000,   0.00000,   0.00000,-417057818.69398,   0.00000
-39385846.70401,-71465646.68010,727002.40860,  -0.00004,  -0.00025,   0.00001,62011564.79850,   0.00000,274640135.82653,   0.00000,   0.00000,   0.00000,-412628571.02803,   0.00000
-42133391.84284,-76610334.89595,785948.54984,  -0.00004,  -0.00027,   0.00001,66470790.63046,   0.00000,274640135.82653,   0.00000,   0.00000,   0.00000,-408169345.19607,   0.00000
-44871112.62479,-81732099.61243,851444.26233,  -0.00004,  -0.00028,   0.00001,70910630.23601,   0.00000,274640135.82653,   0.00000,   0.00000,   0.00000,-403729505.59052,   0.00000
-47618657.76362,-86876787.82828,910390.40357,  -0.00005,  -0.00030,   0.00001,75370042.02886,   0.00000,274640135.82653,   0.00000,   0.00000,   0.00000,-399270093.79767,   0.00000
-50343279.40307,-92011651.68725,975886.11606,  -0.00005,  -0.00032,   0.00001,79820289.39547,   0.00000,274640135.82653,   0.00000,   0.00000,   0.00000,-394819846.43106,   0.00000
-53067901.04253,-97146515.54623,1041381.82854,  -0.00005,  -0.00034,   0.00001,84270631.64910,   0.00000,274640135.82653,   0.00000,   0.00000,   0.00000,-390369504.17743,   0.00000
-55779423.53949,-102294478.54770,1106877.54103,  -0.00005,  -0.00036,   0.00001,88731352.52408,   0.00000,274640135.82653,   0.00000,   0.00000,   0.00000,-385908783.30245,   0.00000
-58490946.03645,-107442441.54917,1172373.25352,  -0.00006,  -0.00037,   0.00002,93192179.61152,   0.00000,274640135.82653,   0.00000,   0.00000,   0.00000,-381447956.21501,   0.00000
-61189369.39091,-112603503.69314,1237868.96600,  -0.00006,  -0.00039,   0.00002,97663440.17578,   0.00000,274640135.82653,   0.00000,   0.00000,   0.00000,-376976695.65075,   0.00000
-63877968.38849,-117741642.33774,1303364.67849,  -0.00006,  -0.00041,   0.00002,102115075.07232,   0.00000,274640135.82653,   0.00000,   0.00000,   0.00000,-372525060.75421,   0.00000
-66553468.24359,-122892880.12483,1368860.39098,  -0.00006,  -0.00043,   0.00002,106577192.97385,   0.00000,274640135.82653,   0.00000,   0.00000,   0.00000,-368062942.85268,   0.00000
-69228968.09868,-128044117.91193,1434356.10346,  -0.00007,  -0.00045,   0.00002,111039435.03998,   0.00000,274640135.82653,   0.00000,   0.00000,   0.00000,-363600700.78655,   0.00000
-71891368.81127,-133208454.84152,1506401.38720,  -0.00007,  -0.00047,   0.00002,115512470.88713,   0.00000,274640135.82653,   0.00000,   0.00000,   0.00000,-359127664.93939,   0.00000
-74543945.16699,-138349868.27175,1571897.09969,  -0.00007,  -0.00048,   0.00002,119965634.24179,   0.00000,274640135.82653,   0.00000,   0.00000,   0.00000,-354674501.58474,   0.00000
-77183422.38021,-143504380.84447,1643942.38342,  -0.00007,  -0.00050,   0.00002,124429644.42378,   0.00000,274640135.82653,   0.00000,   0.00000,   0.00000,-350210491.40275,   0.00000
-79822899.59344,-148658893.41719,1715987.66716,  -0.00007,  -0.00052,   0.00002,128893800.50893,   0.00000,274640135.82653,   0.00000,   0.00000,   0.00000,-345746335.31760,   0.00000
-82472201.16353,-153836329.48928,1781483.37964,  -0.00008,  -0.00054,   0.00002,133377586.47048,   0.00000,274640135.82653,   0.00000,   0.00000,   0.00000,-341262549.35605,   0.00000
-85098579.23426,-159003941.20450,1853528.66338,  -0.00008,  -0.00056,   0.00002,137852525.26748,   0.00000,274640135.82653,   0.00000,   0.00000,   0.00000,-336787610.55905,   0.00000
-87692209.44874,-164138805.06347,1925573.94712,  -0.00008,  -0.00058,   0.00003,142298629.50307,   0.00000,274640135.82653,   0.00000,   0.00000,   0.00000,-332341506.32346,   0.00000
-90295664.02009,-169296592.42182,1997619.23085,  -0.00008,  -0.00059,   0.00003,146764663.20329,   0.00000,274640135.82653,   0.00000,   0.00000,   0.00000,-327875472.62324,   0.00000
-92908942.94832,-174477303.27953,2063114.94334,  -0.00008,  -0.00061,   0.00003,151250350.58837,   0.00000,274640135.82653,   0.00000,   0.00000,   0.00000,-323389785.23816,   0.00000
-95489474.02031,-179625266.28101,2135160.22707,  -0.00008,  -0.00063,   0.00003,155707515.76225,   0.00000,274640135.82653,   0.00000,   0.00000,   0.00000,-318932620.06428,   0.00000
-98079829.44916,-184796152.78185,2207205.51081,  -0.00009,  -0.00065,   0.00003,160184615.82981,   0.00000,274640135.82653,   0.00000,   0.00000,   0.00000,-314455519.99672,   0.00000
-100647261.37865,-189957214.92582,2279250.79454,  -0.00009,  -0.00067,   0.00003,164652744.33349,   0.00000,274640135.82653,   0.00000,   0.00000,   0.00000,-309987391.49304,   0.00000
-103214693.30814,-195118277.06979,2351296.07828,  -0.00009,  -0.00069,   0.00003,169121044.26874,   0.00000,274640135.82653,   0.00000,   0.00000,   0.00000,-305519091.55779,   0.00000
-105759201.73826,-200269514.85688,2423341.36202,  -0.00009,  -0.00070,   0.00003,173580416.69389,   0.00000,274640135.82653,   0.00000,   0.00000,   0.00000,-301059719.13264,   0.00000
-108303710.16837,-205420752.64398,2495386.64575,  -0.00009,  -0.00072,   0.00003,178039968.71396,   0.00000,274640135.82653,   0.00000,   0.00000,   0.00000,-296600167.11257,   0.00000
-110858042.95536,-210594913.93045,2567431.92949,  -0.00009,  -0.00074,   0.00003,182519474.48621,   0.00000,274640135.82653,   0.00000,   0.00000,   0.00000,-292120661.34032,   0.00000
-113379627.88611,-215736327.36067,2632927.64197,  -0.00010,  -0.00076,   0.00003,186970038.69310,   0.00000,274640135.82653,   0.00000,   0.00000,   0.00000,-287670097.13343,   0.00000
-115888113.67436,-220890839.93339,2704972.92571,  -0.00010,  -0.00078,   0.00004,191431831.01366,   0.00000,274640135.82653,   0.00000,   0.00000,   0.00000,-283208304.81287,   0.00000
-118396599.46261,-226045352.50611,2777018.20945,  -0.00010,  -0.00080,   0.00004,195893824.77066,   0.00000,274640135.82653,   0.00000,   0.00000,   0.00000,-278746311.05587,   0.00000
-120905085.25086,-231199865.07883,2849063.49318,  -0.00010,  -0.00082,   0.00004,200356006.50594,   0.00000,274640135.82653,   0.00000,   0.00000,   0.00000,-274284129.32059,   0.00000
-123390647.53974,-236344553.29468,2921108.77692,  -0.00010,  -0.00083,   0.00004,204809401.46457,   0.00000,274640135.82653,   0.00000,   0.00000,   0.00000,-269830734.36196,   0.00000
-125876209.82861,-241489241.51053,2986604.48940,  -0.00010,  -0.00085,   0.00004,209262712.75491,   0.00000,274640135.82653,   0.00000,   0.00000,   0.00000,-265377423.07162,   0.00000
-128371596.47437,-246656853.22575,3058649.77314,  -0.00010,  -0.00087,   0.00004,213736290.81178,   0.00000,274640135.82653,   0.00000,   0.00000,   0.00000,-260903845.01475,   0.00000
-130834235.26387,-251791717.08472,3124145.48563,  -0.00010,  -0.00089,   0.00004,218181048.70507,   0.00000,274640135.82653,   0.00000,   0.00000,   0.00000,-256459087.12146,   0.00000
-133296874.05338,-256926580.94369,3196190.76936,  -0.00011,  -0.00091,   0.00004,222626281.99093,   0.00000,274640135.82653,   0.00000,   0.00000,   0.00000,-252013853.83560,   0.00000
-135746413.70039,-262074543.94517,3261686.48185,  -0.00011,  -0.00093,   0.00004,227082345.74705,   0.00000,274640135.82653,   0.00000,   0.00000,   0.00000,-247557790.07948,   0.00000
-138195953.34740,-267222506.94664,3333731.76558,  -0.00011,  -0.00095,   0.00004,231538899.40899,   0.00000,274640135.82653,   0.00000,   0.00000,   0.00000,-243101236.41754,   0.00000
-140612745.13817,-272337722.09187,3399227.47807,  -0.00011,  -0.00096,   0.00004,235966710.58395,   0.00000,274640135.82653,   0.00000,   0.00000,   0.00000,-238673425.24258,   0.00000
-143039361.28581,-277475860.73647,3464723.19056,  -0.00011,  -0.00098,   0.00005,240414548.63814,   0.00000,274640135.82653,   0.00000,   0.00000,   0.00000,-234225587.18839,   0.00000
-145465977.43345,-282613999.38107,3536768.47429,  -0.00011,  -0.00100,   0.00005,244862875.45116,   0.00000,274640135.82653,   0.00000,   0.00000,   0.00000,-229777260.37537,   0.00000
-147859845.72485,-287719390.16942,3602264.18678,  -0.00011,  -0.00102,   0.00005,249282501.86597,   0.00000,274640135.82653,   0.00000,   0.00000,   0.00000,-225357633.96056,   0.00000
-150263538.37312,-292847704.45715,3667759.89927,  -0.00011,  -0.00104,   0.00005,253722159.22558,   0.00000,274640135.82653,   0.00000,   0.00000,   0.00000,-220917976.60095,   0.00000
-152644307.52202,-297966194.38800,3726706.04051,  -0.00011,  -0.00106,   0.00005,258152976.39840,   0.00000,274640135.82653,   0.00000,   0.00000,   0.00000,-216487159.42813,   0.00000
-155025076.67092,-303084684.31885,3792201.75299,  -0.00011,  -0.00108,   0.00005,262584303.07918,   0.00000,274640135.82653,   0.00000,   0.00000,   0.00000,-212055832.74735,   0.00000
-157405845.81982,-308203174.24971,3857697.46548,  -0.00012,  -0.00110,   0.00005,267015844.24510,   0.00000,274640135.82653,   0.00000,   0.00000,   0.00000,-207624291.58143,   0.00000
-159763691.46935,-313311839.82369,3916643.60672,  -0.00012,  -0.00111,   0.00005,271438593.91353,   0.00000,274640135.82653,   0.00000,   0.00000,   0.00000,-203201541.91299,   0.00000
-162111712.76200,-318397581.89829,3982139.31920,  -0.00012,  -0.00113,   0.00005,275842024.59591,   0.00000,274640135.82653,   0.00000,   0.00000,   0.00000,-198798111.23062,   0.00000
-164446634.91216,-323496423.11540,4041085.46044,  -0.00012,  -0.00115,   0.00005,280256533.25131,   0.00000,274640135.82653,   0.00000,   0.00000,   0.00000,-194383602.57522,   0.00000
-166781557.06232,-328595264.33251,4100031.60168,  -0.00012,  -0.00117,   0.00005,284671277.90946,   0.00000,274640135.82653,   0.00000,   0.00000,   0.00000,-189968857.91707,   0.00000
-169116479.21248,-333694105.54962,4158977.74292,  -0.00012,  -0.00119,   0.00005,289086247.75813,   0.00000,274640135.82653,   0.00000,   0.00000,   0.00000,-185553888.06840,   0.00000
-171418653.50639,-338760198.91048,4217923.88416,  -0.00012,  -0.00121,   0.00005,293472967.44794,   0.00000,274640135.82653,   0.00000,   0.00000,   0.00000,-181167168.37859,   0.00000
-173730652.15718,-343849215.77071,4270320.45415,  -0.00012,  -0.00123,   0.00006,297879474.10967,   0.00000,274640135.82653,   0.00000,   0.00000,   0.00000,-176760661.71686,   0.00000
-176032826.45110,-348915309.13158,4329266.59539,  -0.00012,  -0.00124,   0.00006,302266651.35939,   0.00000,274640135.82653,   0.00000,   0.00000,   0.00000,-172373484.46714,   0.00000
-178321901.60252,-353994501.63494,4381663.16538,  -0.00012,  -0.00126,   0.00006,306665015.94869,   0.00000,274640135.82653,   0.00000,   0.00000,   0.00000,-167975119.87784,   0.00000
-180601152.39706,-359050770.63893,4434059.73536,  -0.00012,  -0.00128,   0.00006,311043778.03506,   0.00000,274640135.82653,   0.00000,   0.00000,   0.00000,-163596357.79147,   0.00000
-182880403.19161,-364107039.64292,4486456.30535,  -0.00012,  -0.00130,   0.00006,315422765.26084,   0.00000,274640135.82653,   0.00000,   0.00000,   0.00000,-159217370.56569,   0.00000
-185146554.84365,-369176407.78940,4538852.87534,  -0.00012,  -0.00132,   0.00006,319813274.21367,   0.00000,274640135.82653,   0.00000,   0.00000,   0.00000,-154826861.61285,   0.00000
-187402882.13883,-374222852.43652,4591249.44533,  -0.00012,  -0.00134,   0.00006,324184177.78364,   0.00000,274640135.82653,   0.00000,   0.00000,   0.00000,-150455958.04289,   0.00000
-189636285.93463,-379259472.72677,4637096.44407,  -0.00012,  -0.00136,   0.00006,328546524.51811,   0.00000,274640135.82653,   0.00000,   0.00000,   0.00000,-146093611.30842,   0.00000
-191859865.37356,-384273169.51764,4682943.44281,  -0.00012,  -0.00137,   0.00006,332889272.97201,   0.00000,274640135.82653,   0.00000,   0.00000,   0.00000,-141750862.85452,   0.00000
-194093269.16937,-389309789.80788,4735340.01280,  -0.00012,  -0.00139,   0.00006,337252383.37004,   0.00000,274640135.82653,   0.00000,   0.00000,   0.00000,-137387752.45649,   0.00000
-196303749.46580,-394336585.74126,4774637.44030,  -0.00012,  -0.00141,   0.00006,341606712.55687,   0.00000,274640135.82653,   0.00000,   0.00000,   0.00000,-133033423.26966,   0.00000
-198504405.40536,-399340458.17526,4820484.43904,  -0.00012,  -0.00143,   0.00006,345941716.92246,   0.00000,274640135.82653,   0.00000,   0.00000,   0.00000,-128698418.90407,   0.00000
-200705061.34492,-404344330.60926,4866331.43778,  -0.00012,  -0.00145,   0.00006,350276960.71952,   0.00000,274640135.82653,   0.00000,   0.00000,   0.00000,-124363175.10701,   0.00000
-202905717.28448,-409348203.04326,4905628.86527,  -0.00012,  -0.00147,   0.00006,354612163.16923,   0.00000,274640135.82653,   0.00000,   0.00000,   0.00000,-120027972.65730,   0.00000
-205083449.72467,-414342251.12039,4944926.29276,  -0.00013,  -0.00149,   0.00006,358939188.54891,   0.00000,274640135.82653,   0.00000,   0.00000,   0.00000,-115700947.27762,   0.00000
-207238258.66549,-419326474.84064,4984223.72025,  -0.00013,  -0.00150,   0.00006,363258072.66591,   0.00000,274640135.82653,   0.00000,   0.00000,   0.00000,-111382063.16062,   0.00000
-209406166.74881,-424297599.41840,5016971.57650,  -0.00013,  -0.00152,   0.00007,367565465.87120,   0.00000,274640135.82653,   0.00000,   0.00000,   0.00000,-107074669.95533,   0.00000
-211560975.68963,-429281823.13865,5056269.00399,  -0.00013,  -0.00154,   0.00007,371884856.28172,   0.00000,274640135.82653,   0.00000,   0.00000,   0.00000,-102755279.54480,   0.00000
-213705960.27358,-434243123.35954,5089016.86023,  -0.00013,  -0.00156,   0.00007,376184367.36468,   0.00000,274640135.82653,   0.00000,   0.00000,   0.00000,-98455768.46185,   0.00000
-215828021.35815,-439194599.22355,5121764.71648,  -0.00013,  -0.00158,   0.00007,380475790.12381,   0.00000,274640135.82653,   0.00000,   0.00000,   0.00000,-94164345.70272,   0.00000
-217940258.08586,-444123151.58819,5147963.00147,  -0.00013,  -0.00160,   0.00007,384747345.87949,   0.00000,274640135.82653,   0.00000,   0.00000,   0.00000,-89892789.94704,   0.00000
-220062319.17043,-449074627.45220,5180710.85772,  -0.00013,  -0.00161,   0.00007,389039279.04165,   0.00000,274640135.82653,   0.00000,   0.00000,   0.00000,-85600856.78488,   0.00000
-222174555.89813,-454003179.81684,5206909.14271,  -0.00013,  -0.00163,   0.00007,393311328.88419,   0.00000,274640135.82653,   0.00000,   0.00000,   0.00000,-81328806.94234,   0.00000
-224263869.12647,-458921907.82461,5233107.42771,  -0.00013,  -0.00165,   0.00007,397575343.85492,   0.00000,274640135.82653,   0.00000,   0.00000,   0.00000,-77064791.97161,   0.00000
-226343357.99793,-463817712.33301,5252756.14145,  -0.00013,  -0.00167,   0.00007,401819489.09489,   0.00000,274640135.82653,   0.00000,   0.00000,   0.00000,-72820646.73164,   0.00000
-228409747.72689,-468726615.98390,5278954.42645,  -0.00013,  -0.00169,   0.00007,406075765.53905,   0.00000,274640135.82653,   0.00000,   0.00000,   0.00000,-68564370.28748,   0.00000
-230489236.59835,-473622420.49230,5298603.14019,  -0.00013,  -0.00171,   0.00007,410320412.39896,   0.00000,274640135.82653,   0.00000,   0.00000,   0.00000,-64319723.42757,   0.00000
-232545801.97044,-478508400.64382,5318251.85394,  -0.00012,  -0.00172,   0.00007,414557078.25560,   0.00000,274640135.82653,   0.00000,   0.00000,   0.00000,-60083057.57093,   0.00000
-234569619.48628,-483361632.93910,5331350.99644,  -0.00012,  -0.00174,   0.00007,418765674.54967,   0.00000,274640135.82653,   0.00000,   0.00000,   0.00000,-55874461.27685,   0.00000
-236616360.50150,-488224689.59126,5344450.13893,  -0.00012,  -0.00176,   0.00007,422982729.98701,   0.00000,274640135.82653,   0.00000,   0.00000,   0.00000,-51657405.83952,   0.00000
-238640178.01735,-493077921.88654,5357549.28143,  -0.00012,  -0.00178,   0.00007,427191852.17368,   0.00000,274640135.82653,   0.00000,   0.00000,   0.00000,-47448283.65285,   0.00000
-240663995.53319,-497931154.18182,5370648.42393,  -0.00012,  -0.00180,   0.00007,431401232.70393,   0.00000,274640135.82653,   0.00000,   0.00000,   0.00000,-43238903.12260,   0.00000
-242655065.19279,-502751638.62086,5377197.99518,  -0.00012,  -0.00181,   0.00007,435582600.58132,   0.00000,274640135.82653,   0.00000,   0.00000,   0.00000,-39057535.24521,   0.00000
-244669058.35177,-507581947.41677,5383747.56642,  -0.00012,  -0.00183,   0.00007,439772371.30236,   0.00000,274640135.82653,   0.00000,   0.00000,   0.00000,-34867764.52417,   0.00000
-246650303.65450,-512379508.35643,5390297.13767,  -0.00012,  -0.00185,   0.00007,443934384.18721,   0.00000,274640135.82653,   0.00000,   0.00000,   0.00000,-30705751.63932,   0.00000
-248608625.45786,-517167244.93923,5396846.70892,  -0.00012,  -0.00187,   0.00007,448088549.12518,   0.00000,274640135.82653,   0.00000,   0.00000,   0.00000,-26551586.70135,   0.00000
-250589870.76059,-521964805.87889,5396846.70892,  -0.00012,  -0.00189,   0.00007,452250844.68736,   0.00000,274640135.82653,   0.00000,   0.00000,   0.00000,-22389291.13917,   0.00000
-252548192.56394,-526752542.46169,5396846.70892,  -0.00012,  -0.00190,   0.00007,456405308.79165,   0.00000,274640135.82653,   0.00000,   0.00000,   0.00000,-18234827.03487,   0.00000
-254496690.01043,-531517355.54511,5390297.13767,  -0.00012,  -0.00192,   0.00007,460539925.20986,   0.00000,274640135.82653,   0.00000,   0.00000,   0.00000,-14100210.61667,   0.00000
-256412439.60067,-536249420.77229,5390297.13767,  -0.00012,  -0.00194,   0.00007,464647096.35982,   0.00000,274640135.82653,   0.00000,   0.00000,   0.00000,-9993039.46671,   0.00000
-258360937.04716,-541014233.85572,5383747.56642,  -0.00012,  -0.00196,   0.00007,468782236.03837,   0.00000,274640135.82653,   0.00000,   0.00000,   0.00000,-5857899.78816,   0.00000
-260266862.28053,-545723375.58353,5370648.42393,  -0.00012,  -0.00198,   0.00007,472869604.87734,   0.00000,274640135.82653,   0.00000,   0.00000,   0.00000,-1770530.94919,   0.00000
-261092725.27832,-547763327.77466,5367824.96069,  -0.00012,  -0.00198,   0.00007,474640384.95081,   0.00000,274640135.82653,   0.00000,   0.00000,   0.00000,  -1.59134,   0.00000
-261103755.82006,-547777281.82337,5334339.47827,  -0.00012,  -0.00199,   0.00007,474651221.08888,   0.00001,274651223.96291,   0.00000,  -0.00001,   0.00000,  -2.87403,   1.00000
-261124089.06358,-547802419.11830,5269799.15594,  -0.00012,  -0.00201,   0.00007,474670606.79116,   0.00003,274670615.04127,   0.00000,  -0.00003,   0.00000,  -8.25011,   1.00000
-261124705.45599,-547826979.67689,5199744.47326,  -0.00012,  -0.00203,   0.00007,474689861.67831,   0.00005,274689867.33592,   0.00000,  -0.00005,   0.00000,  -5.65760,   1.00000
-261125960.38625,-547851367.23960,5136606.23105,  -0.00012,  -0.00205,   0.00007,474709203.11839,   0.00006,274709209.71151,   0.00000,  -0.00006,   0.00000,  -6.59312,   1.00000
-261126058.12153,-547875662.87034,5068072.08225,  -0.00012,  -0.00206,   0.00007,474728347.66163,   0.00008,274728357.23366,   0.00000,  -0.00008,   0.00000,  -9.57203,   1.00000
-261126332.62434,-547900139.07408,4993709.77490,  -0.00012,  -0.00208,   0.00007,474747492.29290,   0.00010,274747498.54049,   0.00000,  -0.00010,   0.00000,  -6.24759,   1.00000
-261107621.25489,-547923907.57836,4920152.79154,  -0.00012,  -0.00210,   0.00007,474766588.91221,   0.00012,274766597.08679,   0.00000,  -0.00012,   0.00000,  -8.17459,   1.00000
-261088491.57697,-547947477.95811,4847526.88934,  -0.00012,  -0.00212,   0.00007,474785587.50443,   0.00013,274785596.66607,   0.00000,  -0.00013,   0.00000,  -9.16164,   1.00000
-261069611.25185,-547970988.23067,4775591.56106,  -0.00011,  -0.00213,   0.00007,474804582.76147,   0.00015,274804591.52704,   0.00000,  -0.00015,   0.00001,  -8.76557,   1.00000
-261050401.51116,-547994530.14872,4698076.13114,  -0.00011,  -0.00215,   0.00007,474823483.87460,   0.00017,274823486.56705,   0.00001,  -0.00017,   0.00001,  -2.69245,   1.00000
-261012368.83427,-548017359.05482,4621381.53997,  -0.00011,  -0.00217,   0.00007,474842336.95271,   0.00018,274842339.44067,   0.00001,  -0.00018,   0.00001,  -2.48796,   1.00000
-260993816.11430,-548040766.25421,4545324.64372,  -0.00011,  -0.00219,   0.00007,474861224.44759,   0.00020,274861225.60025,   0.00001,  -0.00020,   0.00001,  -1.15266,   1.00000
-260955172.61570,-548063404.21394,4464006.16072,  -0.00011,  -0.00220,   0.00007,474879878.44873,   0.00022,274879880.56673,   0.00001,  -0.00022,   0.00001,  -2.11801,   1.00000
-260897866.62509,-548085328.95474,4383530.63320,  -0.00011,  -0.00222,   0.00007,474898491.88494,   0.00024,274898493.90653,   0.00001,  -0.00024,   0.00001,  -2.02159,   1.00000
-260860288.46744,-548108035.32603,4297237.15949,  -0.00011,  -0.00224,   0.00006,474917137.00752,   0.00025,274917140.15243,   0.00001,  -0.00025,   0.00001,  -3.14491,   1.00000
-260803350.93969,-548129881.91900,4212027.75699,  -0.00011,  -0.00225,   0.00006,474935647.10677,   0.00027,274935650.80531,   0.00001,  -0.00027,   0.00001,  -3.69854,   1.00000
-260766057.52482,-548152311.22339,4127530.38668,  -0.00011,  -0.00227,   0.00006,474954193.00920,   0.00029,274954195.23380,   0.00001,  -0.00029,   0.00001,  -2.22460,   1.00000
-260709465.19895,-548174065.60427,4037597.46931,  -0.00011,  -0.00229,   0.00006,474972599.78423,   0.00030,274972603.40483,   0.00001,  -0.00030,   0.00001,  -3.62060,   1.00000
-260633651.45668,-548194947.62982,3948754.80709,  -0.00011,  -0.00231,   0.00006,474990871.45041,   0.00032,274990876.61716,   0.00001,  -0.00032,   0.00001,  -5.16675,   1.00000
-260577642.85140,-548216418.52481,3860652.80090,  -0.00011,  -0.00232,   0.00006,475009180.22989,   0.00034,275009184.05142,   0.00001,  -0.00034,   0.00001,  -3.82153,   1.00000
-260502461.72092,-548237187.50946,3767119.71044,  -0.00010,  -0.00234,   0.00006,475027349.68685,   0.00035,275027355.90970,   0.00001,  -0.00035,   0.00001,  -6.22285,   1.00000
-260427983.00451,-548257875.21462,3674438.69916,  -0.00010,  -0.00236,   0.00006,475045517.77427,   0.00037,275045524.66398,   0.00001,  -0.00037,   0.00001,  -6.88971,   1.00000
-260353497.51678,-548278348.86199,3582770.55651,  -0.00010,  -0.00237,   0.00006,475063589.94948,   0.00039,275063596.42920,   0.00001,  -0.00039,   0.00001,  -6.47972,   1.00000
-260279769.07623,-548298905.24830,3485444.00185,  -0.00010,  -0.00239,   0.00006,475081656.35368,   0.00040,275081664.44629,   0.00001,  -0.00040,   0.00001,  -8.09261,   1.00000
-260206078.52664,-548319404.55886,3382669.24531,  -0.00010,  -0.00241,   0.00006,475099629.58452,   0.00042,275099634.87602,   0.00001,  -0.00042,   0.00001,  -5.29150,   1.00000
-260113173.81720,-548338830.00864,3287526.91881,  -0.00010,  -0.00242,   0.00006,475117465.25198,   0.00044,275117471.91531,   0.00001,  -0.00044,   0.00001,  -6.66333,   1.00000
-260020444.74068,-548358191.74282,3186895.81018,  -0.00010,  -0.00244,   0.00006,475135208.28828,   0.00045,275135211.91999,   0.00001,  -0.00045,   0.00001,  -3.63171,   1.00000
-259928596.19309,-548377603.48522,3080669.74559,  -0.00010,  -0.00246,   0.00005,475152945.94868,   0.00047,275152948.81706,   0.00002,  -0.00047,   0.00001,  -2.86839,   1.00000
-259837558.25827,-548396908.61895,2975388.71713,  -0.00010,  -0.00247,   0.00005,475170675.84876,   0.00048,275170683.24949,   0.00002,  -0.00048,   0.00001,  -7.40074,   1.00000
-259745864.77861,-548415855.43034,2871314.54023,  -0.00010,  -0.00249,   0.00005,475188223.20370,   0.00050,275188227.61784,   0.00002,  -0.00050,   0.00002,  -4.41414,   1.00000
-259635890.80681,-548434122.04965,2761717.25661,  -0.00009,  -0.00251,   0.00005,475205725.38935,   0.00052,275205731.90894,   0.00002,  -0.00052,   0.00002,  -6.51959,   1.00000
-259526123.27655,-548452156.06585,2653207.39239,  -0.00009,  -0.00252,   0.00005,475223140.02813,   0.00053,275223140.42350,   0.00002,  -0.00053,   0.00002,  -0.39537,   1.00000
-259436433.02994,-548470794.86697,2545597.46405,  -0.00009,  -0.00254,   0.00005,475240580.29936,   0.00055,275240584.10032,   0.00002,  -0.00055,   0.00002,  -3.80096,   1.00000
-259308523.50827,-548487871.00437,2432643.74249,  -0.00009,  -0.00255,   0.00005,475257854.51410,   0.00056,275257857.06621,   0.00002,  -0.00056,   0.00002,  -2.55212,   1.00000
-259200079.44847,-548505425.35007,2320734.71125,  -0.00009,  -0.00257,   0.00005,475275068.17074,   0.00058,275275071.85924,   0.00002,  -0.00058,   0.00002,  -3.68850,   1.00000
-259091828.94884,-548522845.01466,2203403.69137,  -0.00009,  -0.00259,   0.00005,475292189.24725,   0.00060,275292190.63279,   0.00002,  -0.00060,   0.00002,  -1.38553,   1.00000
-258965319.62646,-548539405.96679,2087119.93645,  -0.00009,  -0.00260,   0.00004,475309270.14169,   0.00061,275309270.61605,   0.00002,  -0.00061,   0.00002,  -0.47436,   1.00000
-258858244.55425,-548556451.15590,1971888.83005,  -0.00009,  -0.00262,   0.00004,475326283.65157,   0.00063,275326292.49847,   0.00002,  -0.00063,   0.00002,  -8.84691,   1.00000
-258732925.93930,-548572730.04171,1851183.76272,  -0.00009,  -0.00263,   0.00004,475343265.67260,   0.00064,275343275.24887,   0.00002,  -0.00064,   0.00002,  -9.57627,   1.00000
-258607063.72414,-548588621.31764,1731670.63039,  -0.00008,  -0.00265,   0.00004,475360065.99765,   0.00066,275360069.31282,   0.00002,  -0.00066,   0.00002,  -3.31517,   1.00000
-258463064.15907,-548603694.59036,1606701.08316,  -0.00008,  -0.00267,   0.00004,475376820.85372,   0.00067,275376824.90480,   0.00002,  -0.00067,   0.00002,  -4.05108,   1.00000
-258338606.96484,-548619267.59828,1482824.78153,  -0.00008,  -0.00268,   0.00004,475393516.56411,   0.00069,275393522.82937,   0.00002,  -0.00069,   0.00002,  -6.26526,   1.00000
-258214344.03838,-548634579.87710,1360050.96471,  -0.00008,  -0.00270,   0.00004,475410118.48744,   0.00070,275410125.88479,   0.00002,  -0.00070,   0.00002,  -7.39735,   1.00000
-258071898.92569,-548649051.16533,1231828.84611,  -0.00008,  -0.00271,   0.00003,475426688.44800,   0.00072,275426690.64325,   0.00002,  -0.00072,   0.00002,  -2.19525,   1.00000
-257928936.90199,-548663101.89914,1104777.07649,  -0.00008,  -0.00273,   0.00003,475443063.76679,   0.00074,275443067.44703,   0.00003,  -0.00073,   0.00002,  -3.68024,   1.00000
-257787109.83823,-548677069.62369,972274.53418,  -0.00008,  -0.00274,   0.00003,475459441.66679,   0.00075,275459443.28279,   0.00003,  -0.00075,   0.00002,  -1.61600,   1.00000
-257646383.43128,-548690890.87138,840861.57596,  -0.00008,  -0.00276,   0.00003,475475814.43258,   0.00077,275475818.40717,   0.00003,  -0.00076,   0.00002,  -3.97459,   1.00000
-257505086.89713,-548704329.62731,704099.76193,  -0.00007,  -0.00277,   0.00003,475492000.26663,   0.00078,275492005.53140,   0.00003,  -0.00078,   0.00002,  -5.26477,   1.00000
-257364026.09987,-548717482.43633,568476.44371,  -0.00007,  -0.00279,   0.00003,475508092.97719,   0.00080,275508098.47519,   0.00003,  -0.00079,   0.00002,  -5.49800,   1.00000
-257204800.16142,-548729662.24413,433957.34628,  -0.00007,  -0.00280,   0.00002,475524145.85321,   0.00081,275524154.21472,   0.00003,  -0.00081,   0.00002,  -8.36151,   1.00000
-257045927.41898,-548741577.47577,294040.05714,  -0.00007,  -0.00282,   0.00002,475540113.27787,   0.00082,275540116.07698,   0.00003,  -0.00082,   0.00002,  -2.79911,   1.00000
-256906624.00787,-548754028.68727,155248.87658,  -0.00007,  -0.00283,   0.00002,475556016.51699,   0.00084,275556020.81750,   0.00003,  -0.00084,   0.00002,  -4.30051,   1.00000
-256748231.99878,-548765339.87982,17567.57462,  -0.00007,  -0.00285,   0.00002,475571785.34625,   0.00085,275571795.01770,   0.00003,  -0.00085,   0.00002,  -9.67145,   1.00000
-256591014.84974,-548776507.55899,-125520.51810,  -0.00007,  -0.00286,   0.00002,475587563.35317,   0.00087,275587569.06075,   0.00003,  -0.00087,   0.00002,  -5.70758,   1.00000
-256433170.43217,-548787210.63102,-273998.32543,  -0.00007,  -0.00288,   0.00002,475603147.97168,   0.00088,275603156.08997,   0.00003,  -0.00088,   0.00002,  -8.11829,   1.00000
-256257198.52064,-548796885.08100,-421321.36396,  -0.00006,  -0.00289,   0.00001,475618705.55690,   0.00090,275618706.67074,   0.00003,  -0.00090,   0.00002,  -1.11384,   1.00000
-256099966.55966,-548806969.41902,-567536.44650,  -0.00006,  -0.00291,   0.00001,475634105.51776,   0.00091,275634107.06882,   0.00003,  -0.00091,   0.00002,  -1.55106,   1.00000
-255943859.69144,-548816889.84899,-712620.32993,  -0.00006,  -0.00292,   0.00001,475649501.55411,   0.00093,275649507.53848,   0.00003,  -0.00092,   0.00002,  -5.98437,   1.00000
-255768624.72831,-548825534.23949,-869636.34183,  -0.00006,  -0.00294,   0.00001,475664769.68824,   0.00094,275664778.57732,   0.00003,  -0.00094,   0.00002,  -8.88909,   1.00000
-255593714.82227,-548833900.06969,-1018996.40594,  -0.00006,  -0.00295,   0.00001,475679951.90482,   0.00095,275679956.45441,   0.00003,  -0.00095,   0.00002,  -4.54959,   1.00000
-255420009.77902,-548842037.34030,-1173717.07186,  -0.00006,  -0.00297,   0.00000,475695130.97998,   0.00097,275695135.07496,   0.00004,  -0.00097,   0.00002,  -4.09497,   1.00000
-255245628.65883,-548849697.42465,-1327382.66637,  -0.00006,  -0.00298,   0.00000,475710122.96191,   0.00098,275710127.31678,   0.00004,  -0.00098,   0.00002,  -4.35488,   1.00000
-255071470.93671,-548856963.43730,-1486460.68719,  -0.00005,  -0.00299,  -0.00000,475725022.77864,   0.00100,275725026.98580,   0.00004,  -0.00099,   0.00002,  -4.20716,   1.00000
-254898500.86340,-548864040.38586,-1644347.82387,  -0.00005,  -0.00301,  -0.00000,475739919.63910,   0.00101,275739927.34284,   0.00004,  -0.00101,   0.00002,  -7.70374,   1.00000
-254724778.33585,-548870646.53871,-1801222.28914,  -0.00005,  -0.00302,  -0.00001,475754641.34430,   0.00102,275754641.40715,   0.00004,  -0.00102,   0.00002,  -0.06284,   1.00000
-254532840.21324,-548876017.63162,-1963473.67168,  -0.00005,  -0.00304,  -0.00001,475769317.49750,   0.00104,275769320.51842,   0.00004,  -0.00104,   0.00002,  -3.02092,   1.00000
-254359526.98813,-548881746.61775,-2131190.42708,  -0.00005,  -0.00305,  -0.00001,475783842.95348,   0.00105,275783850.34630,   0.00004,  -0.00105,   0.00002,  -7.39283,   1.00000
-254168037.75009,-548886417.53464,-2291223.30178,  -0.00005,  -0.00306,  -0.00001,475798335.62965,   0.00106,275798344.55543,   0.00004,  -0.00106,   0.00002,  -8.92578,   1.00000
-253996090.98235,-548891500.60957,-2463164.05873,  -0.00005,  -0.00308,  -0.00002,475812777.96946,   0.00108,275812783.40321,   0.00004,  -0.00108,   0.00002,  -5.43375,   1.00000
-253804925.63277,-548895359.75403,-2627527.25930,  -0.00004,  -0.00309,  -0.00002,475827092.51461,   0.00109,275827093.27838,   0.00004,  -0.00109,   0.00002,  -0.76376,   1.00000
-253612903.59317,-548898567.93821,-2797473.06458,  -0.00004,  -0.00310,  -0.00002,475841213.77543,   0.00110,275841218.12281,   0.00004,  -0.00110,   0.00002,  -4.34739,   1.00000
-253422105.97255,-548901573.26261,-2966212.57135,  -0.00004,  -0.00312,  -0.00002,475855338.84672,   0.00112,275855344.31176,   0.00004,  -0.00111,   0.00002,  -5.46504,   1.00000
-253231430.70295,-548904076.16638,-3140403.94561,  -0.00004,  -0.00313,  -0.00003,475869377.25857,   0.00113,275869379.00433,   0.00004,  -0.00113,   0.00002,  -1.74575,   1.00000
-253040903.82353,-548906193.74909,-3313522.28377,  -0.00004,  -0.00314,  -0.00003,475883312.85423,   0.00114,275883321.74673,   0.00004,  -0.00114,   0.00002,  -8.89250,   1.00000
-252850456.17172,-548907795.82131,-3492094.27400,  -0.00004,  -0.00316,  -0.00003,475897172.81917,   0.00115,275897173.11531,   0.00004,  -0.00115,   0.00002,  -0.29614,   1.00000
-252640689.77974,-548907950.84464,-3669661.85180,  -0.00003,  -0.00317,  -0.00003,475910887.20494,   0.00117,275910896.92183,   0.00004,  -0.00117,   0.00001,  -9.71688,   1.00000
-252449493.97665,-548908621.63428,-3846296.38616,  -0.00003,  -0.00318,  -0.00004,475924468.93408,   0.00118,275924471.40952,   0.00005,  -0.00118,   0.00001,  -2.47544,   1.00000
-252239939.60153,-548907815.80699,-4028301.97056,  -0.00003,  -0.00320,  -0.00004,475938005.13146,   0.00119,275938012.64891,   0.00005,  -0.00119,   0.00001,  -7.51745,   1.00000
-252049999.72011,-548907690.64799,-4209190.49137,  -0.00003,  -0.00321,  -0.00004,475951493.10723,   0.00121,275951498.06208,   0.00005,  -0.00120,   0.00001,  -4.95486,   1.00000
-251840558.41328,-548905886.59679,-4395642.04412,  -0.00003,  -0.00322,  -0.00004,475964850.81631,   0.00122,275964856.97956,   0.00005,  -0.00122,   0.00001,  -6.16326,   1.00000
-251630123.25463,-548903496.61374,-4581271.69673,  -0.00003,  -0.00324,  -0.00005,475978021.72705,   0.00123,275978031.15324,   0.00005,  -0.00123,   0.00001,  -9.42619,   1.00000
-251420914.43796,-548900878.78931,-4765672.18834,  -0.00002,  -0.00325,  -0.00005,475991202.61378,   0.00124,275991207.42094,   0.00005,  -0.00124,   0.00001,  -4.80716,   1.00000
-251211698.91752,-548897620.06970,-4955587.90845,  -0.00002,  -0.00326,  -0.00005,476004290.81708,   0.00125,276004293.35622,   0.00005,  -0.00125,   0.00001,  -2.53914,   1.00000
-251001396.64800,-548893761.93931,-5144737.29440,  -0.00002,  -0.00327,  -0.00006,476017192.04507,   0.00127,276017194.65452,   0.00005,  -0.00126,   0.00001,  -2.60945,   1.00000
-250792185.93061,-548889407.21421,-5339164.34866,  -0.00002,  -0.00329,  -0.00006,476030091.10164,   0.00128,276030099.27262,   0.00005,  -0.00128,   0.00001,  -8.17097,   1.00000
-250581829.60707,-548884449.96874,-5532849.52900,  -0.00002,  -0.00330,  -0.00006,476042813.51829,   0.00129,276042819.30590,   0.00005,  -0.00129,   0.00001,  -5.78761,   1.00000
-250372639.86087,-548879247.36019,-5725296.25302,  -0.00002,  -0.00331,  -0.00006,476055540.77096,   0.00130,276055541.67997,   0.00005,  -0.00130,   0.00001,  -0.90901,   1.00000
-250162134.27027,-548873144.41007,-5923572.32091,  -0.00001,  -0.00332,  -0.00007,476068073.86667,   0.00131,276068080.73117,   0.00005,  -0.00131,   0.00001,  -6.86450,   1.00000
-249932054.31999,-548865439.50252,-6120995.13035,  -0.00001,  -0.00333,  -0.00007,476080492.52301,   0.00132,276080493.46363,   0.00005,  -0.00132,   0.00001,  -0.94062,   1.00000
-249721539.60117,-548858450.13316,-6317369.34526,  -0.00001,  -0.00335,  -0.00007,476092843.78083,   0.00134,276092850.86067,   0.00005,  -0.00133,   0.00001,  -7.07984,   1.00000
-249491280.66510,-548849538.17922,-6519450.65846,  -0.00001,  -0.00336,  -0.00008,476105083.17528,   0.00135,276105083.29650,   0.00005,  -0.00135,   0.00001,  -0.12123,   1.00000
-249280558.23880,-548841350.13686,-6720484.48355,  -0.00001,  -0.00337,  -0.00008,476117255.43644,   0.00136,276117260.42282,   0.00006,  -0.00136,   0.00001,  -4.98639,   1.00000
-249050019.50701,-548831174.50956,-6927240.54662,  -0.00001,  -0.00338,  -0.00008,476129305.54324,   0.00137,276129312.89429,   0.00006,  -0.00137,   0.00001,  -7.35105,   1.00000
-248819426.87431,-548820529.14254,-7133078.19174,  -0.00000,  -0.00339,  -0.00009,476141274.51181,   0.00138,276141274.87990,   0.00006,  -0.00138,   0.00001,  -0.36809,   1.00000
-248607074.37278,-548810426.15701,-7338235.59311,  -0.00000,  -0.00340,  -0.00009,476153080.38437,   0.00139,276153088.09942,   0.00006,  -0.00139,   0.00001,  -7.71505,   1.00000
-248376073.97025,-548798474.42791,-7548813.56468,  -0.00000,  -0.00341,  -0.00009,476164869.48820,   0.00140,276164870.44607,   0.00006,  -0.00140,   0.00001,  -0.95787,   1.00000
-248143667.97834,-548785811.15014,-7758871.09289,   0.00000,  -0.00343,  -0.00010,476176461.62542,   0.00141,276176469.04549,   0.00006,  -0.00141,   0.00000,  -7.42007,   1.00000
-247910978.70961,-548772290.86348,-7974582.62973,   0.00000,  -0.00344,  -0.00010,476187974.19925,   0.00142,276187978.85923,   0.00006,  -0.00142,   0.00000,  -4.65999,   1.00000
-247678259.58391,-548758641.85792,-8182923.60403,   0.00000,  -0.00345,  -0.00010,476199393.79780,   0.00144,276199396.86570,   0.00006,  -0.00143,   0.00000,  -3.06790,   1.00000
-247445059.25174,-548743714.50354,-8403472.62077,   0.00001,  -0.00346,  -0.00011,476210726.10994,   0.00145,276210727.86227,   0.00006,  -0.00144,   0.00000,  -1.75233,   1.00000
-247211790.58995,-548728663.34741,-8616663.12568,   0.00001,  -0.00347,  -0.00011,476221965.70700,   0.00146,276221967.06949,   0.00006,  -0.00145,   0.00000,  -1.36249,   1.00000
-246957159.00439,-548711155.96465,-8836136.95110,   0.00001,  -0.00348,  -0.00011,476232983.76025,   0.00147,276232989.51225,   0.00006,  -0.00146,   0.00000,  -5.75200,   1.00000
-246723350.22930,-548694653.68443,-9054234.61672,   0.00001,  -0.00349,  -0.00012,476244043.33682,   0.00148,276244050.44822,   0.00006,  -0.00148,   0.00000,  -7.11140,   1.00000
-246487748.00795,-548676976.73636,-9278493.33634,   0.00001,  -0.00350,  -0.00012,476254925.07145,   0.00149,276254929.55888,   0.00006,  -0.00149,   0.00000,  -4.48744,   1.00000
-246232166.04500,-548657404.93239,-9502135.88731,   0.00001,  -0.00351,  -0.00012,476265680.17073,   0.00150,276265684.01065,   0.00006,  -0.00150,  -0.00000,  -3.83992,   1.00000
-245996020.21268,-548638633.49787,-9724853.58485,   0.00002,  -0.00352,  -0.00013,476276379.93420,   0.00151,276276383.43873,   0.00007,  -0.00151,  -0.00000,  -3.50453,   1.00000
-245759351.23697,-548618850.83459,-9953343.36855,   0.00002,  -0.00353,  -0.00013,476286989.62562,   0.00152,276286994.84928,   0.00007,  -0.00151,  -0.00000,  -5.22365,   1.00000
-245501210.95664,-548596892.59477,-10181744.28459,   0.00002,  -0.00354,  -0.00013,476297383.40324,   0.00153,276297388.24291,   0.00007,  -0.00152,  -0.00000,  -4.83967,   1.00000
-245262460.52572,-548575748.17863,-10409256.38354,   0.00002,  -0.00355,  -0.00014,476307722.07179,   0.00154,276307726.61985,   0.00007,  -0.00153,  -0.00000,  -4.54806,   1.00000
-245004814.39522,-548552373.90064,-10642274.30504,   0.00002,  -0.00356,  -0.00014,476318031.82583,   0.00155,276318036.30040,   0.00007,  -0.00154,  -0.00000,  -4.47457,   1.00000
-244745374.42668,-548528163.28215,-10875101.18803,   0.00002,  -0.00357,  -0.00015,476328161.02811,   0.00156,276328162.90080,   0.00007,  -0.00155,  -0.00000,  -1.87269,   1.00000
-244503833.53561,-548504532.34101,-11107588.27255,   0.00003,  -0.00358,  -0.00015,476338137.56081,   0.00156,276338140.88533,   0.00007,  -0.00156,  -0.00001,  -3.32451,   1.00000
-244243320.16988,-548478587.58450,-11345608.08720,   0.00003,  -0.00359,  -0.00015,476348084.57805,   0.00157,276348090.58529,   0.00007,  -0.00157,  -0.00001,  -6.00724,   1.00000
-243980901.54479,-548451770.94008,-11583519.52947,   0.00003,  -0.00360,  -0.00016,476357850.37321,   0.00158,276357857.29535,   0.00007,  -0.00158,  -0.00001,  -6.92213,   1.00000
-243718020.43844,-548424326.10865,-11820813.54457,   0.00003,  -0.00361,  -0.00016,476367524.85160,   0.00159,276367534.66416,   0.00007,  -0.00159,  -0.00001,  -9.81255,   1.00000
-243454658.88624,-548396260.99150,-12057515.06221,   0.00003,  -0.00362,  -0.00016,476377115.69420,   0.00160,276377122.64606,   0.00007,  -0.00160,  -0.00001,  -6.95186,   1.00000
-243190580.43173,-548366988.04179,-12300152.13331,   0.00003,  -0.00363,  -0.00017,476386615.15703,   0.00161,276386623.69254,   0.00007,  -0.00161,  -0.00001,  -8.53551,   1.00000
-242924235.76675,-548336218.69454,-12549305.15599,   0.00004,  -0.00364,  -0.00017,476395939.70266,   0.00162,276395944.24956,   0.00007,  -0.00162,  -0.00001,  -4.54691,   1.00000
-242657542.70694,-548305372.72022,-12791382.44955,   0.00004,  -0.00365,  -0.00018,476405172.91906,   0.00163,276405173.16732,   0.00007,  -0.00162,  -0.00001,  -0.24826,   1.00000
-242390040.22659,-548273246.63582,-13039445.96612,   0.00004,  -0.00366,  -0.00018,476414306.80000,   0.00164,276414315.44435,   0.00007,  -0.00163,  -0.00001,  -8.64435,   1.00000
-242121932.92382,-548240456.29716,-13286987.67490,   0.00004,  -0.00366,  -0.00018,476423363.68235,   0.00164,276423368.51528,   0.00007,  -0.00164,  -0.00001,  -4.83293,   1.00000
-241851390.76407,-548206065.83938,-13541167.88926,   0.00004,  -0.00367,  -0.00019,476432236.60082,   0.00165,276432241.38363,   0.00008,  -0.00165,  -0.00001,  -4.78281,   1.00000
-241560576.14372,-548170045.46168,-13788587.90806,   0.00005,  -0.00368,  -0.00019,476440987.06072,   0.00166,276440988.51376,   0.00008,  -0.00166,  -0.00001,  -1.45304,   1.00000
-241288756.54260,-548134234.01919,-14041834.50122,   0.00005,  -0.00369,  -0.00020,476449676.39955,   0.00167,276449683.49139,   0.00008,  -0.00167,  -0.00001,  -7.09185,   1.00000
-241015986.67596,-548097050.56896,-14301139.91607,   0.00005,  -0.00370,  -0.00020,476458286.78639,   0.00168,276458292.18814,   0.00008,  -0.00167,  -0.00002,  -5.40175,   1.00000
-240741097.97331,-548059505.17682,-14554177.77329,   0.00005,  -0.00371,  -0.00021,476466706.82121,   0.00168,276466715.33445,   0.00008,  -0.00168,  -0.00002,  -8.51324,   1.00000
-240445319.42360,-548018930.54350,-14813583.90126,   0.00005,  -0.00371,  -0.00021,476475014.94417,   0.00169,276475018.46416,   0.00008,  -0.00169,  -0.00002,  -3.52000,   1.00000
-240168702.37554,-547979219.83035,-15072350.38288,   0.00005,  -0.00372,  -0.00021,476483263.13671,   0.00170,276483266.71409,   0.00008,  -0.00170,  -0.00002,  -3.57738,   1.00000
-239871112.28123,-547936392.06415,-15337514.12760,   0.00006,  -0.00373,  -0.00022,476491391.79041,   0.00171,276491395.26847,   0.00008,  -0.00170,  -0.00002,  -3.47806,   1.00000
-239591234.44087,-547894835.36093,-15596282.17233,   0.00006,  -0.00374,  -0.00022,476499362.37205,   0.00172,276499372.05513,   0.00008,  -0.00171,  -0.00002,  -9.68308,   1.00000
-239290306.72637,-547850109.44627,-15861514.31842,   0.00006,  -0.00375,  -0.00023,476507225.01704,   0.00172,276507229.26642,   0.00008,  -0.00172,  -0.00002,  -4.24939,   1.00000
-239008472.68999,-547806260.80535,-16126173.45074,   0.00006,  -0.00375,  -0.00023,476515028.17910,   0.00173,276515031.50767,   0.00008,  -0.00173,  -0.00002,  -3.32857,   1.00000
-238703782.85204,-547758810.91527,-16398092.71179,   0.00006,  -0.00376,  -0.00023,476522615.37195,   0.00174,276522620.63158,   0.00008,  -0.00173,  -0.00002,  -5.25963,   1.00000
-238398192.47974,-547710515.51587,-16669744.50983,   0.00007,  -0.00377,  -0.00024,476530115.76311,   0.00174,276530121.24946,   0.00008,  -0.00174,  -0.00002,  -5.48635,   1.00000
-238111639.59785,-547663098.47846,-16940870.71478,   0.00007,  -0.00377,  -0.00024,476537557.09575,   0.00175,276537566.85993,   0.00008,  -0.00175,  -0.00002,  -9.76418,   1.00000
-237802349.99685,-547612754.16786,-17212868.78221,   0.00007,  -0.00378,  -0.00025,476544787.94454,   0.00176,276544796.25945,   0.00008,  -0.00175,  -0.00002,  -8.31491,   1.00000
-237493854.54187,-547561897.46524,-17483868.92650,   0.00007,  -0.00379,  -0.00025,476552026.42474,   0.00176,276552031.08153,   0.00008,  -0.00176,  -0.00002,  -4.65679,   1.00000
-237182276.03192,-547508984.35628,-17762027.53418,   0.00007,  -0.00380,  -0.00026,476559085.34342,   0.00177,276559086.82318,   0.00008,  -0.00177,  -0.00003,  -1.47976,   1.00000
-236867849.82011,-547454794.26747,-18040872.35112,   0.00008,  -0.00380,  -0.00026,476565954.80433,   0.00178,276565960.13290,   0.00009,  -0.00177,  -0.00003,  -5.32857,   1.00000
-236554172.20963,-547400067.51883,-18318742.81710,   0.00008,  -0.00381,  -0.00027,476572837.54447,   0.00178,276572838.98556,   0.00009,  -0.00178,  -0.00003,  -1.44109,   1.00000
-236237567.40851,-547344039.46129,-18597376.08726,   0.00008,  -0.00382,  -0.00027,476579530.15526,   0.00179,276579535.32225,   0.00009,  -0.00179,  -0.00003,  -5.16700,   1.00000
-235917677.46229,-547285820.11938,-18883314.54486,   0.00008,  -0.00382,  -0.00027,476586045.28137,   0.00180,276586052.78140,   0.00009,  -0.00179,  -0.00003,  -7.50003,   1.00000
-235598484.95639,-547227024.57106,-19168303.09465,   0.00008,  -0.00383,  -0.00028,476592568.28983,   0.00180,276592575.95737,   0.00009,  -0.00180,  -0.00003,  -7.66754,   1.00000
-235276231.95629,-547166874.02064,-19454158.46890,   0.00008,  -0.00383,  -0.00028,476598915.04638,   0.00181,276598916.56560,   0.00009,  -0.00180,  -0.00003,  -1.51922,   1.00000
-234950862.48207,-547105333.85603,-19740929.20446,   0.00009,  -0.00384,  -0.00029,476605074.36906,   0.00181,276605074.62508,   0.00009,  -0.00181,  -0.00003,  -0.25602,   1.00000
-234625815.63238,-547042258.83260,-20033287.89647,   0.00009,  -0.00385,  -0.00029,476611233.62514,   0.00182,276611242.40750,   0.00009,  -0.00182,  -0.00003,  -8.78236,   1.00000
-234297902.32286,-546978711.86643,-20320129.78864,   0.00009,  -0.00385,  -0.00030,476617222.18806,   0.00183,276617223.58621,   0.00009,  -0.00182,  -0.00003,  -1.39815,   1.00000
-233966399.49373,-546912758.74800,-20614503.49868,   0.00009,  -0.00386,  -0.00030,476623022.98089,   0.00183,276623026.15784,   0.00009,  -0.00183,  -0.00003,  -3.17695,   1.00000
-233615381.52600,-546844229.59754,-20908342.46929,   0.00009,  -0.00386,  -0.00031,476628797.86201,   0.00184,276628801.73571,   0.00009,  -0.00183,  -0.00003,  -3.87370,   1.00000
-233281188.61593,-546776150.70019,-21202940.18665,   0.00010,  -0.00387,  -0.00031,476634425.54234,   0.00184,276634427.67518,   0.00009,  -0.00184,  -0.00004,  -2.13284,   1.00000
-232945237.78762,-546705993.63060,-21504174.70903,   0.00010,  -0.00388,  -0.00032,476639967.04337,   0.00185,276639969.44046,   0.00009,  -0.00184,  -0.00004,  -2.39709,   1.00000
-232586037.04955,-546633295.98378,-21800448.36662,   0.00010,  -0.00388,  -0.00032,476645288.99724,   0.00185,276645291.55261,   0.00009,  -0.00185,  -0.00004,  -2.55538,   1.00000
-232245202.20166,-546560451.97454,-22103064.88431,   0.00010,  -0.00389,  -0.00032,476650558.95896,   0.00186,276650562.45684,   0.00009,  -0.00185,  -0.00004,  -3.49789,   1.00000
-231882677.86541,-546484433.68657,-22406262.99706,   0.00010,  -0.00389,  -0.00033,476655704.38760,   0.00186,276655712.38973,   0.00009,  -0.00186,  -0.00004,  -8.00212,   1.00000
-231536781.38671,-546408823.69537,-22710401.14643,   0.00011,  -0.00390,  -0.00033,476660707.78704,   0.00187,276660712.29775,   0.00009,  -0.00186,  -0.00004,  -4.51070,   1.00000
-231168733.08368,-546328904.36284,-23021675.43748,   0.00011,  -0.00390,  -0.00034,476665592.26475,   0.00187,276665595.81108,   0.00009,  -0.00187,  -0.00004,  -3.54633,   1.00000
-230819682.05423,-546250913.88851,-23326389.02677,   0.00011,  -0.00391,  -0.00034,476670416.07085,   0.00188,276670419.13642,   0.00009,  -0.00187,  -0.00004,  -3.06557,   1.00000
-230446283.67867,-546168035.09142,-23639396.81403,   0.00011,  -0.00391,  -0.00035,476675027.15291,   0.00188,276675031.73261,   0.00009,  -0.00187,  -0.00004,  -4.57970,   1.00000
-230071605.14076,-546084998.57907,-23946284.93123,   0.00011,  -0.00391,  -0.00035,476679547.16434,   0.00188,276679551.45484,   0.00010,  -0.00188,  -0.00004,  -4.29050,   1.00000
-229715102.88322,-546001706.87522,-24259666.99136,   0.00012,  -0.00392,  -0.00036,476684013.22222,   0.00189,276684020.00031,   0.00010,  -0.00188,  -0.00004,  -6.77809,   1.00000
-229334434.60109,-545914480.05809,-24574992.47011,   0.00012,  -0.00392,  -0.00036,476688267.70851,   0.00189,276688273.24021,   0.00010,  -0.00189,  -0.00004,  -5.53170,   1.00000
-228951994.40030,-545825923.30097,-24890768.83504,   0.00012,  -0.00393,  -0.00037,476692428.79627,   0.00190,276692438.26597,   0.00010,  -0.00189,  -0.00004,  -9.46970,   1.00000
-228565163.43298,-545734336.29673,-25214670.11042,   0.00012,  -0.00393,  -0.00037,476696424.09825,   0.00190,276696425.29272,   0.00010,  -0.00189,  -0.00004,  -1.19447,   1.00000
-228179087.40775,-545643074.47782,-25531412.86667,   0.00012,  -0.00394,  -0.00038,476700410.11105,   0.00190,276700413.84289,   0.00010,  -0.00190,  -0.00005,  -3.73185,   1.00000
-227786277.34452,-545548144.61856,-25857560.83479,   0.00012,  -0.00394,  -0.00038,476704127.97178,   0.00191,276704129.71238,   0.00010,  -0.00190,  -0.00005,  -1.74061,   1.00000
-227394187.31642,-545453545.91256,-26176589.82326,   0.00013,  -0.00394,  -0.00039,476707838.14256,   0.00191,276707846.95948,   0.00010,  -0.00190,  -0.00005,  -8.81692,   1.00000
-226997472.42511,-545355752.00997,-26503916.79790,   0.00013,  -0.00395,  -0.00039,476711384.67198,   0.00191,276711386.18118,   0.00010,  -0.00191,  -0.00005,  -1.50920,   1.00000
-226598747.64094,-545256473.10138,-26831865.54593,   0.00013,  -0.00395,  -0.00040,476714827.72149,   0.00192,276714837.16584,   0.00010,  -0.00191,  -0.00005,  -9.44434,   1.00000
-226195682.42118,-545155130.01704,-27161724.71889,   0.00013,  -0.00395,  -0.00040,476718096.71900,   0.00192,276718104.91187,   0.00010,  -0.00191,  -0.00005,  -8.19288,   1.00000
-225790530.38106,-545052275.68075,-27492274.13459,   0.00013,  -0.00396,  -0.00041,476721281.07987,   0.00192,276721284.25137,   0.00010,  -0.00192,  -0.00005,  -3.17150,   1.00000
-225383253.24322,-544947879.75142,-27823540.46079,   0.00014,  -0.00396,  -0.00041,476724369.74946,   0.00193,276724375.19720,   0.00010,  -0.00192,  -0.00005,  -5.44775,   1.00000
-224971021.19088,-544840014.79102,-28163320.73372,   0.00014,  -0.00396,  -0.00042,476727286.28033,   0.00193,276727288.27419,   0.00010,  -0.00192,  -0.00005,  -1.99386,   1.00000
-224536595.56691,-544729473.04413,-28497853.25098,   0.00014,  -0.00397,  -0.00042,476730073.61522,   0.00193,276730075.69921,   0.00010,  -0.00192,  -0.00005,  -2.08399,   1.00000
-224117954.92710,-544619050.41776,-28834091.83512,   0.00014,  -0.00397,  -0.00043,476732707.66809,   0.00193,276732711.33957,   0.00010,  -0.00193,  -0.00005,  -3.67147,   1.00000
-223698989.02272,-544506285.80715,-29176292.25060,   0.00014,  -0.00397,  -0.00043,476735351.54233,   0.00194,276735359.24215,   0.00010,  -0.00193,  -0.00005,  -7.69982,   1.00000
-223252811.42288,-544389463.37636,-29516079.44385,   0.00015,  -0.00397,  -0.00044,476737689.16760,   0.00194,276737691.05812,   0.00010,  -0.00193,  -0.00005,  -1.89052,   1.00000
-222826718.36942,-544272651.52575,-29861408.52522,   0.00015,  -0.00398,  -0.00044,476740063.28164,   0.00194,276740066.90156,   0.00010,  -0.00193,  -0.00005,  -3.61992,   1.00000
-222375240.45710,-544150944.28693,-30209524.12240,   0.00015,  -0.00398,  -0.00045,476742222.48407,   0.00194,276742227.61054,   0.00010,  -0.00194,  -0.00005,  -5.12647,   1.00000
-221921287.29679,-544027429.33594,-30558611.74025,   0.00015,  -0.00398,  -0.00045,476744292.50576,   0.00194,276744299.87436,   0.00010,  -0.00194,  -0.00005,  -7.36860,   1.00000
-221483272.46102,-543905338.17820,-30903208.48389,   0.00015,  -0.00398,  -0.00045,476746208.74618,   0.00195,276746213.46700,   0.00010,  -0.00194,  -0.00005,  -4.72082,   1.00000
-221021697.47395,-543777454.09519,-31255777.66210,   0.00016,  -0.00398,  -0.00046,476748010.26970,   0.00195,276748013.20328,   0.00010,  -0.00194,  -0.00005,  -2.93357,   1.00000
-220557507.77039,-543647674.70136,-31609418.40499,   0.00016,  -0.00399,  -0.00046,476749722.81113,   0.00195,276749724.34351,   0.00010,  -0.00194,  -0.00005,  -1.53238,   1.00000
-220108620.48623,-543517820.80094,-31965154.33098,   0.00016,  -0.00399,  -0.00047,476751278.83267,   0.00195,276751282.54191,   0.00010,  -0.00194,  -0.00005,  -3.70924,   1.00000
-219636455.10921,-543383428.72319,-32322516.82435,   0.00016,  -0.00399,  -0.00047,476752711.84928,   0.00195,276752720.86341,   0.00010,  -0.00195,  -0.00005,  -9.01413,   1.00000
-219158897.86989,-543246293.66986,-32682561.54743,   0.00016,  -0.00399,  -0.00048,476753970.71959,   0.00195,276753974.91276,   0.00010,  -0.00195,  -0.00005,  -4.19317,   1.00000
-218681173.99482,-543107896.61542,-33042297.40628,   0.00017,  -0.00399,  -0.00048,476755231.79270,   0.00196,276755235.68299,   0.00010,  -0.00195,  -0.00006,  -3.89029,   1.00000
-218195241.38477,-542965868.19834,-33406345.95958,   0.00017,  -0.00399,  -0.00049,476756206.63733,   0.00196,276756216.51473,   0.00010,  -0.00195,  -0.00006,  -9.87740,   1.00000
-217709083.77090,-542822545.24904,-33770127.94477,   0.00017,  -0.00399,  -0.00049,476757198.61883,   0.00196,276757203.96898,   0.00010,  -0.00195,  -0.00006,  -5.35015,   1.00000
-217217245.96646,-542676286.91214,-34136788.25786,   0.00017,  -0.00400,  -0.00050,476758006.50364,   0.00196,276758006.80544,   0.00010,  -0.00195,  -0.00006,  -0.30180,   1.00000
-216701732.22472,-542525102.89230,-34505306.53569,   0.00017,  -0.00400,  -0.00050,476758688.41869,   0.00196,276758690.01373,   0.00010,  -0.00195,  -0.00006,  -1.59505,   1.00000
-216201028.53045,-542373601.81914,-34876299.43094,   0.00018,  -0.00400,  -0.00051,476759212.71940,   0.00196,276759219.14288,   0.00010,  -0.00195,  -0.00006,  -6.42348,   1.00000
-215697190.15613,-542219855.19976,-35248717.16449,   0.00018,  -0.00400,  -0.00051,476759652.43073,   0.00196,276759659.09499,   0.00010,  -0.00195,  -0.00006,  -6.66426,   1.00000
-215169473.56978,-542061007.41512,-35623110.42862,   0.00018,  -0.00400,  -0.00052,476759975.77167,   0.00196,276759979.39974,   0.00010,  -0.00195,  -0.00006,  -3.62808,   1.00000
-214656373.03023,-541901753.72428,-36000122.20086,   0.00018,  -0.00400,  -0.00052,476760139.45610,   0.00196,276760145.10658,   0.00010,  -0.00195,  -0.00006,  -5.65049,   1.00000
-214119245.43698,-541737266.18916,-36379193.93984,   0.00019,  -0.00400,  -0.00053,476760190.70202,   0.00196,276760191.15965,   0.00010,  -0.00195,  -0.00006,  -0.45763,   1.00000
-213588730.16584,-541547328.62295,-36759069.07226,   0.00019,  -0.00400,  -0.00053,476737806.37202,   0.00196,276760191.15965,   0.00010,  -0.00195,  -0.00006,-22384.78763,   0.00000
-213035291.39532,-541347566.69986,-37138944.20469,   0.00019,  -0.00400,  -0.00054,476710593.82357,   0.00196,276760191.15965,   0.00010,  -0.00195,  -0.00006,-49597.33609,   0.00000
-212485127.41043,-541111782.13491,-37518819.33711,   0.00019,  -0.00400,  -0.00054,476651517.96567,   0.00196,276760191.15965,   0.00010,  -0.00195,  -0.00006,-108673.19398,   0.00000
-211892391.21243,-540820326.21434,-37898694.46954,   0.00019,  -0.00400,  -0.00055,476548246.96976,   0.00196,276760191.15965,   0.00010,  -0.00195,  -0.00006,-211944.18989,   0.00000
-211289830.65755,-540505946.79441,-38272020.03071,   0.00020,  -0.00400,  -0.00055,476425129.10584,   0.00196,276760191.15965,   0.00010,  -0.00195,  -0.00006,-335062.05381,   0.00000
-210677445.74579,-540168643.87510,-38651895.16314,   0.00020,  -0.00400,  -0.00056,476285320.79770,   0.00196,276760191.15965,   0.00010,  -0.00195,  -0.00006,-474870.36195,   0.00000
-210045412.12030,-539785493.95705,-39031770.29556,   0.00020,  -0.00400,  -0.00056,476107577.53022,   0.00196,276760191.15965,   0.00010,  -0.00195,  -0.00006,-652613.62943,   0.00000
-209413378.49480,-539402344.03900,-39405095.85673,   0.00020,  -0.00400,  -0.00057,475929689.50528,   0.00196,276760191.15965,   0.00010,  -0.00195,  -0.00006,-830501.65437,   0.00000
-208751871.79868,-538950423.62284,-39784970.98916,   0.00020,  -0.00400,  -0.00057,475695832.55959,   0.00196,276760191.15965,   0.00010,  -0.00195,  -0.00006,-1064358.60006,   0.00000
-208090365.10256,-538498503.20668,-40158296.55033,   0.00021,  -0.00400,  -0.00058,475461832.54849,   0.00196,276760191.15965,   0.00010,  -0.00195,  -0.00006,-1298358.61116,   0.00000
-207409209.69270,-538000735.79178,-40538171.68276,   0.00021,  -0.00400,  -0.00058,475191639.91313,   0.00196,276760191.15965,   0.00010,  -0.00195,  -0.00006,-1568551.24652,   0.00000
-206695306.42659,-537470220.52064,-40911497.24393,   0.00021,  -0.00399,  -0.00059,474895638.57739,   0.00196,276760191.15965,   0.00010,  -0.00195,  -0.00006,-1864552.58226,   0.00000
-205984677.94611,-536903682.60763,-41284822.80511,   0.00021,  -0.00399,  -0.00059,474567834.53826,   0.00196,276760191.15965,   0.00010,  -0.00195,  -0.00006,-2192356.62140,   0.00000
-205241301.60938,-536304396.83837,-41658148.36628,   0.00022,  -0.00399,  -0.00060,474215973.43875,   0.00196,276760191.15965,   0.00010,  -0.00195,  -0.00006,-2544217.72090,   0.00000
-204511024.41515,-535692011.92662,-42031473.92746,   0.00022,  -0.00399,  -0.00060,473851984.29546,   0.00196,276760191.15965,   0.00010,  -0.00195,  -0.00006,-2908206.86420,   0.00000
-203738175.00781,-535023955.65925,-42404799.48864,   0.00022,  -0.00399,  -0.00061,473444372.47931,   0.00196,276760191.15965,   0.00010,  -0.00195,  -0.00006,-3315818.68034,   0.00000
-202978424.74296,-534342800.24939,-42778125.04981,   0.00022,  -0.00399,  -0.00061,473024643.30145,   0.00196,276760191.15965,   0.00010,  -0.00195,  -0.00006,-3735547.85821,   0.00000
-202185926.62187,-533628896.98328,-43151450.61099,   0.00022,  -0.00399,  -0.00062,472581039.27291,   0.00196,276760191.15965,   0.00010,  -0.00195,  -0.00006,-4179151.88674,   0.00000
-201373779.78703,-532869146.71843,-43518226.60091,   0.00023,  -0.00398,  -0.00062,472098041.34632,   0.00196,276760191.15965,   0.00010,  -0.00195,  -0.00006,-4662149.81333,   0.00000
-200561632.95219,-532109396.45358,-43891552.16209,   0.00023,  -0.00398,  -0.00063,471618547.13137,   0.00196,276760191.15965,   0.00010,  -0.00195,  -0.00006,-5141644.02828,   0.00000
-199720013.04673,-531280875.69062,-44258328.15202,   0.00023,  -0.00398,  -0.00063,471080065.26917,   0.00196,276760191.15965,   0.00010,  -0.00195,  -0.00006,-5680125.89048,   0.00000
-198878393.14128,-530452354.92767,-44625104.14194,   0.00023,  -0.00398,  -0.00064,470543307.12463,   0.00196,276760191.15965,   0.00010,  -0.00195,  -0.00006,-6216884.03503,   0.00000
-198017124.52207,-529577987.16596,-44991880.13187,   0.00023,  -0.00398,  -0.00064,469969066.74733,   0.00196,276760191.15965,   0.00010,  -0.00195,  -0.00006,-6791124.41232,   0.00000
-197146031.54600,-528680695.90489,-45358656.12180,   0.00024,  -0.00397,  -0.00065,469376989.08204,   0.00196,276760191.15965,   0.00010,  -0.00195,  -0.00006,-7383202.07762,   0.00000
-196232366.35680,-527727733.28821,-45725432.11172,   0.00024,  -0.00397,  -0.00065,468741811.25397,   0.00196,276760191.15965,   0.00010,  -0.00195,  -0.00006,-8018379.90568,   0.00000
-195341624.66698,-526784595.02840,-46085658.53040,   0.00024,  -0.00397,  -0.00066,468112235.48517,   0.00196,276760191.15965,   0.00010,  -0.00195,  -0.00006,-8647955.67448,   0.00000
-194431234.26341,-525795609.76985,-46452434.52033,   0.00024,  -0.00397,  -0.00066,467447242.74639,   0.00196,276760191.15965,   0.00010,  -0.00195,  -0.00006,-9312948.41327,   0.00000
-193478271.64673,-524750953.15568,-46812660.93901,   0.00025,  -0.00396,  -0.00066,466737370.10040,   0.00196,276760191.15965,   0.00010,  -0.00195,  -0.00006,-10022821.05925,   0.00000
-192525309.03004,-523706296.54151,-47172887.35768,   0.00025,  -0.00396,  -0.00067,466029405.69956,   0.00196,276760191.15965,   0.00010,  -0.00195,  -0.00006,-10730785.46009,   0.00000
-191575621.19898,-522625617.28548,-47533113.77636,   0.00025,  -0.00396,  -0.00067,465289821.41313,   0.00196,276760191.15965,   0.00010,  -0.00195,  -0.00006,-11470369.74652,   0.00000
-190583361.15481,-521489266.67383,-47893340.19504,   0.00025,  -0.00395,  -0.00068,464507493.65466,   0.00196,276760191.15965,   0.00010,  -0.00195,  -0.00006,-12252697.50499,   0.00000
-189591101.11063,-520352916.06218,-48247017.04247,   0.00026,  -0.00395,  -0.00068,463725117.40566,   0.00196,276760191.15965,   0.00010,  -0.00195,  -0.00006,-13035073.75400,   0.00000
-188579192.35271,-519170718.45179,-48607243.46115,   0.00026,  -0.00395,  -0.00069,462907705.98253,   0.00196,276760191.15965,   0.00010,  -0.00195,  -0.00006,-13852485.17712,   0.00000
-187557459.23791,-517965597.34203,-48960920.30858,   0.00026,  -0.00394,  -0.00069,462070735.15636,   0.00196,276760191.15965,   0.00010,  -0.00195,  -0.00006,-14689456.00329,   0.00000
-186516077.40937,-516714629.23353,-49314597.15601,   0.00026,  -0.00394,  -0.00070,461196766.99802,   0.00196,276760191.15965,   0.00010,  -0.00195,  -0.00006,-15563424.16163,   0.00000
-185451772.08146,-515453836.76816,-49668274.00344,   0.00026,  -0.00394,  -0.00070,460319456.98587,   0.00196,276760191.15965,   0.00010,  -0.00195,  -0.00006,-16440734.17378,   0.00000
-184390741.53917,-514157021.66092,-50015401.27962,   0.00027,  -0.00393,  -0.00071,459408549.21567,   0.00196,276760191.15965,   0.00010,  -0.00195,  -0.00006,-17351641.94398,   0.00000
-183319886.64001,-512837283.05431,-50369078.12705,   0.00027,  -0.00393,  -0.00071,458482408.85344,   0.00196,276760191.15965,   0.00010,  -0.00195,  -0.00006,-18277782.30622,   0.00000
-182206459.52773,-511461873.09208,-50716205.40323,   0.00027,  -0.00392,  -0.00072,457511950.56793,   0.00196,276760191.15965,   0.00010,  -0.00195,  -0.00006,-19248240.59173,   0.00000
-181115955.91482,-510096287.48673,-51063332.67941,   0.00027,  -0.00392,  -0.00072,456549041.29886,   0.00196,276760191.15965,   0.00010,  -0.00195,  -0.00006,-20211149.86079,   0.00000
-179982880.08880,-508675030.52576,-51410459.95559,   0.00028,  -0.00392,  -0.00072,455544106.49321,   0.00196,276760191.15965,   0.00010,  -0.00195,  -0.00006,-21216084.66644,   0.00000
-178830155.54903,-507207926.56606,-51751037.66052,   0.00028,  -0.00391,  -0.00073,454500321.89036,   0.00196,276760191.15965,   0.00010,  -0.00195,  -0.00006,-22259869.26929,   0.00000
-177677431.00926,-505740822.60635,-52091615.36545,   0.00028,  -0.00391,  -0.00073,453458849.50846,   0.00196,276760191.15965,   0.00010,  -0.00195,  -0.00006,-23301341.65119,   0.00000
-176505057.75574,-504227871.64790,-52432193.07038,   0.00028,  -0.00390,  -0.00074,452380831.78134,   0.00196,276760191.15965,   0.00010,  -0.00195,  -0.00006,-24379359.37832,   0.00000
-175322860.14535,-502691997.19008,-52772770.77532,   0.00029,  -0.00390,  -0.00074,451285770.45467,   0.00196,276760191.15965,   0.00010,  -0.00195,  -0.00006,-25474420.70498,   0.00000
-174130838.17809,-501133199.23289,-53113348.48025,   0.00029,  -0.00389,  -0.00075,450173712.60110,   0.00196,276760191.15965,   0.00010,  -0.00195,  -0.00006,-26586478.55855,   0.00000
-172906068.35459,-499541653.41946,-53447376.61393,   0.00029,  -0.00389,  -0.00075,449037253.35824,   0.00196,276760191.15965,   0.00010,  -0.00195,  -0.00006,-27722937.80141,   0.00000
-171684573.31671,-497914084.96416,-53781404.74761,   0.00029,  -0.00388,  -0.00076,447869601.54164,   0.00196,276760191.15965,   0.00010,  -0.00195,  -0.00006,-28890589.61801,   0.00000
-170453253.92195,-496263593.00949,-54115432.88130,   0.00030,  -0.00388,  -0.00076,446685080.91898,   0.00196,276760191.15965,   0.00010,  -0.00195,  -0.00006,-30075110.24067,   0.00000
-169189186.67095,-494580353.19858,-54442911.44373,   0.00030,  -0.00387,  -0.00076,445476318.98308,   0.00196,276760191.15965,   0.00010,  -0.00195,  -0.00006,-31283872.17657,   0.00000
-167915295.06308,-492874189.88829,-54770390.00617,   0.00030,  -0.00387,  -0.00077,444250813.40880,   0.00196,276760191.15965,   0.00010,  -0.00195,  -0.00006,-32509377.75086,   0.00000
-166621754.74147,-491122179.57927,-55097868.56860,   0.00030,  -0.00386,  -0.00077,442989266.72807,   0.00196,276760191.15965,   0.00010,  -0.00195,  -0.00006,-33770924.43158,   0.00000
-165318390.06298,-489347245.77087,-55425347.13104,   0.00031,  -0.00386,  -0.00078,441711110.90593,   0.00196,276760191.15965,   0.00010,  -0.00195,  -0.00006,-35049080.25372,   0.00000
-164015025.38449,-487572311.96248,-55746276.12222,   0.00031,  -0.00385,  -0.00078,440433246.61689,   0.00196,276760191.15965,   0.00010,  -0.00195,  -0.00006,-36326944.54276,   0.00000
-162682187.63538,-485728607.65597,-56067205.11341,   0.00031,  -0.00385,  -0.00078,439100189.53124,   0.00196,276760191.15965,   0.00010,  -0.00195,  -0.00006,-37660001.62842,   0.00000
-161349349.88627,-483884903.34946,-56388134.10459,   0.00031,  -0.00384,  -0.00079,437769988.49444,   0.00196,276760191.15965,   0.00010,  -0.00195,  -0.00006,-38990202.66522,   0.00000
-160006687.78029,-482018275.54359,-56709063.09578,   0.00032,  -0.00383,  -0.00079,436423376.87702,   0.00196,276760191.15965,   0.00010,  -0.00195,  -0.00006,-40336814.28263,   0.00000
-158621453.46119,-480095976.38210,-57023442.51572,   0.00032,  -0.00383,  -0.00080,435033802.65314,   0.00196,276760191.15965,   0.00010,  -0.00195,  -0.00006,-41726388.50651,   0.00000
-157249318.28459,-478160578.07811,-57337821.93565,   0.00032,  -0.00382,  -0.00080,433632723.70589,   0.00196,276760191.15965,   0.00010,  -0.00195,  -0.00006,-43127467.45377,   0.00000
-155844435.25174,-476192431.91788,-57652201.35559,   0.00032,  -0.00382,  -0.00081,432210722.39688,   0.00196,276760191.15965,   0.00010,  -0.00195,  -0.00006,-44549468.76277,   0.00000
-154429727.86203,-474201362.25827,-57960031.20428,   0.00033,  -0.00381,  -0.00081,430769986.35165,   0.00196,276760191.15965,   0.00010,  -0.00195,  -0.00006,-45990204.80801,   0.00000
-152995371.75856,-472164445.59993,-58267861.05297,   0.00033,  -0.00380,  -0.00081,429293959.28380,   0.00196,276760191.15965,   0.00010,  -0.00195,  -0.00006,-47466231.87586,   0.00000
-151561015.65510,-470127528.94159,-58569141.33041,   0.00033,  -0.00380,  -0.00082,427818492.01485,   0.00196,276760191.15965,   0.00010,  -0.00195,  -0.00006,-48941699.14480,   0.00000
-150107010.83789,-468044765.28450,-58876971.17910,   0.00033,  -0.00379,  -0.00082,426310578.76084,   0.00196,276760191.15965,   0.00010,  -0.00195,  -0.00006,-50449612.39881,   0.00000
-148643181.66381,-465939078.12805,-59178251.45654,   0.00034,  -0.00378,  -0.00083,424784120.80004,   0.00196,276760191.15965,   0.00010,  -0.00195,  -0.00006,-51976070.35962,   0.00000
-147179352.48972,-463833390.97159,-59472982.16273,   0.00034,  -0.00378,  -0.00083,423258295.90827,   0.00196,276760191.15965,   0.00010,  -0.00195,  -0.00006,-53501895.25138,   0.00000
-145663126.74565,-461649108.96015,-59774262.44017,   0.00034,  -0.00377,  -0.00083,421676749.39145,   0.00196,276760191.15965,   0.00010,  -0.00195,  -0.00006,-55083441.76820,   0.00000
-144169824.50095,-459474651.30559,-60068993.14636,   0.00034,  -0.00376,  -0.00084,420100423.06634,   0.00196,276760191.15965,   0.00010,  -0.00195,  -0.00006,-56659768.09331,   0.00000
-142643774.40001,-457267445.79478,-60357174.28130,   0.00035,  -0.00375,  -0.00084,418501343.41722,   0.00196,276760191.15965,   0.00010,  -0.00195,  -0.00006,-58258847.74244,   0.00000
-141098075.58531,-455014393.28523,-60651904.98749,   0.00035,  -0.00375,  -0.00084,416870568.05473,   0.00196,276760191.15965,   0.00010,  -0.00195,  -0.00006,-59889623.10492,   0.00000
-139575300.26999,-452771165.13255,-60940086.12243,   0.00035,  -0.00374,  -0.00085,415244992.00328,   0.00196,276760191.15965,   0.00010,  -0.00195,  -0.00006,-61515199.15637,   0.00000
-138009952.74156,-450472265.62426,-61221717.68613,   0.00035,  -0.00373,  -0.00085,413577863.54146,   0.00196,276760191.15965,   0.00010,  -0.00195,  -0.00006,-63182327.61820,   0.00000
-136411857.35687,-448140618.25973,-61503349.24982,   0.00036,  -0.00373,  -0.00086,411891369.62885,   0.00196,276760191.15965,   0.00010,  -0.00195,  -0.00006,-64868821.53080,   0.00000
-134826861.11469,-445795871.75270,-61784980.81352,   0.00036,  -0.00372,  -0.00086,410194021.44091,   0.00196,276760191.15965,   0.00010,  -0.00195,  -0.00006,-66566169.71875,   0.00000
-133232040.51563,-443428201.74629,-62066612.37721,   0.00036,  -0.00371,  -0.00086,408481695.67194,   0.00196,276760191.15965,   0.00010,  -0.00195,  -0.00006,-68278495.48771,   0.00000
-131604472.06033,-441027783.88365,-62341694.36965,   0.00036,  -0.00370,  -0.00087,406747434.08200,   0.00196,276760191.15965,   0.00010,  -0.00195,  -0.00006,-70012757.07765,   0.00000
-129990002.74753,-438614266.87850,-62616776.36210,   0.00037,  -0.00369,  -0.00087,405002454.57648,   0.00196,276760191.15965,   0.00010,  -0.00195,  -0.00006,-71757736.58318,   0.00000
-128342785.57849,-436168002.01712,-62885308.78330,   0.00037,  -0.00369,  -0.00087,403235745.46025,   0.00196,276760191.15965,   0.00010,  -0.00195,  -0.00006,-73524445.69940,   0.00000
-126685744.05257,-433698813.65636,-63153841.20449,   0.00037,  -0.00368,  -0.00088,401454486.56973,   0.00196,276760191.15965,   0.00010,  -0.00195,  -0.00006,-75305704.58993,   0.00000
-125009053.81290,-431183778.29686,-63415824.05444,   0.00038,  -0.00367,  -0.00088,399636757.91737,   0.00196,276760191.15965,   0.00010,  -0.00195,  -0.00006,-77123433.24229,   0.00000
-123332363.57324,-428668742.93737,-63684356.47564,   0.00038,  -0.00366,  -0.00088,397826753.24666,   0.00196,276760191.15965,   0.00010,  -0.00195,  -0.00006,-78933437.91300,   0.00000
-121636024.61983,-426107860.57913,-63939789.75434,   0.00038,  -0.00365,  -0.00089,395977341.84422,   0.00196,276760191.15965,   0.00010,  -0.00195,  -0.00006,-80782849.31543,   0.00000
-119939685.66641,-423546978.22089,-64201772.60428,   0.00038,  -0.00365,  -0.00089,394135867.86999,   0.00196,276760191.15965,   0.00010,  -0.00195,  -0.00006,-82624323.28967,   0.00000
-118223697.99926,-420940248.86391,-64457205.88298,   0.00039,  -0.00364,  -0.00089,392258355.16345,   0.00196,276760191.15965,   0.00010,  -0.00195,  -0.00006,-84501835.99620,   0.00000
-116484786.83273,-418323695.15006,-64706089.59043,   0.00039,  -0.00363,  -0.00090,390378927.60891,   0.00196,276760191.15965,   0.00010,  -0.00195,  -0.00006,-86381263.55074,   0.00000
-114749150.45183,-415671118.79434,-64961522.86913,   0.00039,  -0.00362,  -0.00090,388473856.44412,   0.00196,276760191.15965,   0.00010,  -0.00195,  -0.00006,-88286334.71553,   0.00000
-112980766.21468,-412985794.58237,-65203857.00533,   0.00039,  -0.00361,  -0.00090,386545078.17163,   0.00196,276760191.15965,   0.00010,  -0.00195,  -0.00006,-90215112.98802,   0.00000
-111212381.97753,-410300470.37041,-65452740.71278,   0.00040,  -0.00360,  -0.00091,384624961.56041,   0.00196,276760191.15965,   0.00010,  -0.00195,  -0.00006,-92135229.59925,   0.00000
-109424349.02664,-407569299.15970,-65695074.84898,   0.00040,  -0.00359,  -0.00091,382669498.53873,   0.00196,276760191.15965,   0.00010,  -0.00195,  -0.00006,-94090692.62092,   0.00000
-107626491.71887,-404815204.44963,-65930859.41394,   0.00040,  -0.00358,  -0.00091,380697525.46230,   0.00196,276760191.15965,   0.00010,  -0.00195,  -0.00006,-96062665.69735,   0.00000
-105818810.05423,-402038186.24018,-66166643.97889,   0.00041,  -0.00358,  -0.00092,378712550.12025,   0.00196,276760191.15965,   0.00010,  -0.00195,  -0.00006,-98047641.03941,   0.00000
-103988204.89022,-399251343.67386,-66402428.54384,   0.00041,  -0.00357,  -0.00092,376730141.08587,   0.00196,276760191.15965,   0.00010,  -0.00195,  -0.00006,-100030050.07378,   0.00000
-102160874.51184,-396428478.46568,-66631663.53755,   0.00041,  -0.00356,  -0.00092,374716210.66552,   0.00196,276760191.15965,   0.00010,  -0.00195,  -0.00006,-102043980.49413,   0.00000
-100300796.27721,-393572865.40125,-66860898.53125,   0.00041,  -0.00355,  -0.00093,372686621.14216,   0.00196,276760191.15965,   0.00010,  -0.00195,  -0.00006,-104073570.01749,   0.00000
-98463641.54195,-390727076.69369,-67090133.52496,   0.00042,  -0.00354,  -0.00093,370666405.81011,   0.00196,276760191.15965,   0.00010,  -0.00195,  -0.00006,-106093785.34954,   0.00000
-96583914.59358,-387825616.63052,-67312818.94741,   0.00042,  -0.00353,  -0.00093,368608860.47837,   0.00196,276760191.15965,   0.00010,  -0.00195,  -0.00006,-108151330.68128,   0.00000
-94704187.64520,-384924156.56735,-67528954.79862,   0.00042,  -0.00352,  -0.00093,366554278.54887,   0.00196,276760191.15965,   0.00010,  -0.00195,  -0.00006,-110205912.61079,   0.00000
-92804811.98308,-381976849.50544,-67745090.64983,   0.00043,  -0.00351,  -0.00094,364469407.36711,   0.00196,276760191.15965,   0.00010,  -0.00195,  -0.00006,-112290783.79254,   0.00000
-90905436.32096,-379029542.44353,-67961226.50103,   0.00043,  -0.00350,  -0.00094,362391406.33556,   0.00196,276760191.15965,   0.00010,  -0.00195,  -0.00006,-114368784.82409,   0.00000
-88963488.44572,-376026564.02600,-68170812.78099,   0.00043,  -0.00349,  -0.00094,360277148.02813,   0.00196,276760191.15965,   0.00010,  -0.00195,  -0.00006,-116483043.13152,   0.00000
-87044464.06986,-373033409.96535,-68380399.06095,   0.00043,  -0.00348,  -0.00095,358172873.55717,   0.00196,276760191.15965,   0.00010,  -0.00195,  -0.00006,-118587317.60248,   0.00000
-85115615.33712,-370017332.40533,-68583435.76966,   0.00044,  -0.00347,  -0.00095,356053794.12022,   0.00196,276760191.15965,   0.00010,  -0.00195,  -0.00006,-120706397.03943,   0.00000
-83154018.74813,-366968506.98906,-68786472.47837,   0.00044,  -0.00346,  -0.00095,353921327.74623,   0.00196,276760191.15965,   0.00010,  -0.00195,  -0.00006,-122838863.41342,   0.00000
-81172773.44541,-363873834.57405,-68982959.61583,   0.00044,  -0.00345,  -0.00095,351756285.58980,   0.00196,276760191.15965,   0.00010,  -0.00195,  -0.00006,-125003905.56985,   0.00000
-79191528.14268,-360779162.15905,-69179446.75329,   0.00045,  -0.00344,  -0.00096,349599251.09133,   0.00196,276760191.15965,   0.00010,  -0.00195,  -0.00006,-127160940.06832,   0.00000
-77210282.83995,-357684489.74404,-69369384.31950,   0.00045,  -0.00343,  -0.00096,347446450.26490,   0.00196,276760191.15965,   0.00010,  -0.00195,  -0.00006,-129313740.89475,   0.00000
-75209388.82347,-354543970.33029,-69559321.88571,   0.00045,  -0.00342,  -0.00096,345265610.11601,   0.00196,276760191.15965,   0.00010,  -0.00195,  -0.00006,-131494581.04364,   0.00000
-73198670.45012,-351380527.41717,-69749259.45193,   0.00046,  -0.00341,  -0.00096,343075225.79882,   0.00196,276760191.15965,   0.00010,  -0.00195,  -0.00006,-133684965.36083,   0.00000
-71187952.07677,-348217084.50406,-69932647.44689,   0.00046,  -0.00340,  -0.00097,340889610.98014,   0.00196,276760191.15965,   0.00010,  -0.00195,  -0.00006,-135870580.17951,   0.00000
-69134661.49031,-344997970.23532,-70109485.87060,   0.00046,  -0.00339,  -0.00097,338670788.56307,   0.00196,276760191.15965,   0.00010,  -0.00195,  -0.00006,-138089402.59658,   0.00000
-67104294.40321,-341788680.32346,-70286324.29432,   0.00046,  -0.00338,  -0.00097,336463225.69475,   0.00196,276760191.15965,   0.00010,  -0.00195,  -0.00006,-140296965.46490,   0.00000
-65041179.45988,-338546642.55536,-70463162.71803,   0.00047,  -0.00337,  -0.00097,334245244.06151,   0.00196,276760191.15965,   0.00010,  -0.00195,  -0.00006,-142514947.09814,   0.00000
-62968240.15967,-335281681.28789,-70633451.57050,   0.00047,  -0.00336,  -0.00097,332015001.30243,   0.00196,276760191.15965,   0.00010,  -0.00195,  -0.00006,-144745189.85722,   0.00000
-60885476.50258,-331993796.52105,-70797190.85172,   0.00047,  -0.00334,  -0.00098,329772722.30705,   0.00196,276760191.15965,   0.00010,  -0.00195,  -0.00006,-146987468.85260,   0.00000
-58792888.48862,-328682988.25483,-70960930.13293,   0.00048,  -0.00333,  -0.00098,327522898.50388,   0.00196,276760191.15965,   0.00010,  -0.00195,  -0.00006,-149237292.65578,   0.00000
-56700300.47467,-325372179.98862,-71124669.41415,   0.00048,  -0.00332,  -0.00098,325283622.41408,   0.00196,276760191.15965,   0.00010,  -0.00195,  -0.00006,-151476568.74557,   0.00000
-54588063.74696,-322015524.72366,-71281859.12412,   0.00048,  -0.00331,  -0.00098,323015419.44022,   0.00196,276760191.15965,   0.00010,  -0.00195,  -0.00006,-153744771.71943,   0.00000
-52475827.01926,-318658869.45871,-71439048.83409,   0.00049,  -0.00330,  -0.00098,320758340.32671,   0.00196,276760191.15965,   0.00010,  -0.00195,  -0.00006,-156001850.83294,   0.00000
-50330842.43531,-315269466.33751,-71589688.97281,   0.00049,  -0.00329,  -0.00099,318489407.94280,   0.00196,276760191.15965,   0.00010,  -0.00195,  -0.00006,-158270783.21685,   0.00000
-48208781.35074,-311889887.57318,-71733779.54028,   0.00049,  -0.00328,  -0.00099,316228971.72083,   0.00196,276760191.15965,   0.00010,  -0.00195,  -0.00006,-160531219.43882,   0.00000
-46044148.05305,-308454637.45325,-71877870.10775,   0.00050,  -0.00327,  -0.00099,313944390.89667,   0.00196,276760191.15965,   0.00010,  -0.00195,  -0.00006,-162815800.26299,   0.00000
-43879514.75535,-305019387.33331,-72021960.67522,   0.00050,  -0.00325,  -0.00099,311672302.61238,   0.00196,276760191.15965,   0.00010,  -0.00195,  -0.00006,-165087888.54728,   0.00000
-41705057.10079,-301561213.71400,-72159501.67144,   0.00050,  -0.00324,  -0.00099,309391064.53084,   0.00196,276760191.15965,   0.00010,  -0.00195,  -0.00006,-167369126.62881,   0.00000
-39520775.08935,-298080116.59532,-72297042.66767,   0.00050,  -0.00323,  -0.00100,307105645.44150,   0.00196,276760191.15965,   0.00010,  -0.00195,  -0.00006,-169654545.71815,   0.00000
-37326668.72104,-294576095.97727,-72428034.09264,   0.00051,  -0.00322,  -0.00100,304811864.17020,   0.00196,276760191.15965,   0.00010,  -0.00195,  -0.00006,-171948326.98945,   0.00000
-35132562.35272,-291072075.35922,-72552475.94637,   0.00051,  -0.00321,  -0.00100,302527234.23279,   0.00196,276760191.15965,   0.00010,  -0.00195,  -0.00006,-174232956.92687,   0.00000
-32928631.62754,-287545131.24180,-72683467.37134,   0.00051,  -0.00320,  -0.00100,300244381.90603,   0.00196,276760191.15965,   0.00010,  -0.00195,  -0.00006,-176515809.25363,   0.00000
-30691953.04611,-283985439.26813,-72801359.65382,   0.00052,  -0.00318,  -0.00100,297949277.28161,   0.00196,276760191.15965,   0.00010,  -0.00195,  -0.00006,-178810913.87804,   0.00000
-28468373.60718,-280412648.15197,-72919251.93629,   0.00052,  -0.00317,  -0.00100,295652602.58708,   0.00196,276760191.15965,   0.00010,  -0.00195,  -0.00006,-181107588.57257,   0.00000
-26221870.66888,-276830032.67894,-73037144.21877,   0.00052,  -0.00316,  -0.00101,293371309.92503,   0.00196,276760191.15965,   0.00010,  -0.00195,  -0.00006,-183388881.23462,   0.00000
-23988466.87307,-273234318.06340,-73148486.93000,   0.00053,  -0.00315,  -0.00101,291084300.75064,   0.00196,276760191.15965,   0.00010,  -0.00195,  -0.00006,-185675890.40902,   0.00000
-21722315.22103,-269605855.59163,-73253280.06998,   0.00053,  -0.00314,  -0.00101,288792039.52029,   0.00196,276760191.15965,   0.00010,  -0.00195,  -0.00006,-187968151.63936,   0.00000
-19446339.21211,-265954469.62048,-73358073.20995,   0.00053,  -0.00312,  -0.00101,286500121.99627,   0.00196,276760191.15965,   0.00010,  -0.00195,  -0.00006,-190260069.16338,   0.00000
-17170363.20319,-262303083.64934,-73456316.77869,   0.00054,  -0.00311,  -0.00101,284220655.95762,   0.00196,276760191.15965,   0.00010,  -0.00195,  -0.00006,-192539535.20204,   0.00000
-14884562.83739,-258628774.17882,-73554560.34742,   0.00054,  -0.00310,  -0.00101,281942612.68383,   0.00196,276760191.15965,   0.00010,  -0.00195,  -0.00006,-194817578.47583,   0.00000
-12598762.47160,-254954464.70830,-73652803.91615,   0.00054,  -0.00309,  -0.00101,279683041.53579,   0.00196,276760191.15965,   0.00010,  -0.00195,  -0.00006,-197077149.62386,   0.00000
-10270389.89269,-251224483.88217,-73744497.91363,   0.00055,  -0.00308,  -0.00101,277405482.51243,   0.00196,276760191.15965,   0.00010,  -0.00195,  -0.00006,-199354708.64723,   0.00000
-7974765.17002,-247527250.91229,-73829642.33986,   0.00055,  -0.00306,  -0.00102,275157797.25205,   0.00196,276760191.15965,   0.00010,  -0.00195,  -0.00006,-201602393.90760,   0.00000
-5659491.73361,-243784170.94366,-73914786.76609,   0.00055,  -0.00305,  -0.00102,272897864.51557,   0.00196,276760191.15965,   0.00010,  -0.00195,  -0.00006,-203862326.64408,   0.00000
-3321294.79783,-240031266.61816,-73993381.62108,   0.00056,  -0.00304,  -0.00102,270654552.75588,   0.00196,276760191.15965,   0.00010,  -0.00195,  -0.00006,-206105638.40377,   0.00000
-973273.50517,-236255438.79329,-74071976.47606,   0.00056,  -0.00303,  -0.00102,268416861.53986,   0.00196,276760191.15965,   0.00010,  -0.00195,  -0.00006,-208343329.61980,   0.00000
1361648.64499,-232466511.82592,-74144021.75980,   0.00056,  -0.00301,  -0.00102,266178659.56257,   0.00196,276760191.15965,   0.00010,  -0.00195,  -0.00006,-210581531.59708,   0.00000
3719494.29452,-228667760.50168,-74216067.04353,   0.00057,  -0.00300,  -0.00102,263964735.49210,   0.00196,276760191.15965,   0.00010,  -0.00195,  -0.00006,-212795455.66755,   0.00000
6087164.30092,-224846085.67807,-74281562.75602,   0.00057,  -0.00299,  -0.00102,261753209.29522,   0.00196,276760191.15965,   0.00010,  -0.00195,  -0.00006,-215006981.86444,   0.00000
8454834.30732,-221024410.85445,-74340508.89726,   0.00057,  -0.00297,  -0.00102,259560268.48823,   0.00196,276760191.15965,   0.00010,  -0.00195,  -0.00006,-217199922.67142,   0.00000
10832328.67060,-217179812.53147,-74399455.03850,   0.00058,  -0.00296,  -0.00102,257376786.35741,   0.00196,276760191.15965,   0.00010,  -0.00195,  -0.00006,-219383404.80224,   0.00000
13219647.39075,-213312290.70912,-74458401.17974,   0.00058,  -0.00295,  -0.00102,255203773.93511,   0.00196,276760191.15965,   0.00010,  -0.00195,  -0.00006,-221556417.22454,   0.00000
15629889.61026,-209434944.52989,-74510797.74972,   0.00058,  -0.00294,  -0.00102,253053969.43519,   0.00196,276760191.15965,   0.00010,  -0.00195,  -0.00006,-223706221.72447,   0.00000
18017208.33041,-205567422.70754,-74556644.74847,   0.00059,  -0.00292,  -0.00103,250923127.63864,   0.00196,276760191.15965,   0.00010,  -0.00195,  -0.00006,-225837063.52101,   0.00000
20424175.76431,-201654053.88645,-74602491.74721,   0.00059,  -0.00291,  -0.00103,248790509.40365,   0.00196,276760191.15965,   0.00010,  -0.00195,  -0.00006,-227969681.75600,   0.00000
22854066.69757,-197730860.70848,-74641789.17470,   0.00059,  -0.00290,  -0.00103,246683898.93451,   0.00196,276760191.15965,   0.00010,  -0.00195,  -0.00006,-230076292.22514,   0.00000
25261034.13147,-193817491.88739,-74681086.60219,   0.00060,  -0.00288,  -0.00103,244604097.21221,   0.00196,276760191.15965,   0.00010,  -0.00195,  -0.00006,-232156093.94744,   0.00000
27700749.42160,-189871375.21005,-74720384.02968,   0.00060,  -0.00287,  -0.00103,242543722.65291,   0.00196,276760191.15965,   0.00010,  -0.00195,  -0.00006,-234216468.50674,   0.00000
30127365.56924,-185912159.39022,-74746582.31468,   0.00060,  -0.00286,  -0.00103,240485316.51260,   0.00196,276760191.15965,   0.00010,  -0.00195,  -0.00006,-236274874.64705,   0.00000
32576905.21626,-181943119.21351,-74772780.59967,   0.00061,  -0.00284,  -0.00103,238463001.92650,   0.00196,276760191.15965,   0.00010,  -0.00195,  -0.00006,-238297189.23315,   0.00000
35036269.22014,-177951155.53743,-74798978.88467,   0.00061,  -0.00283,  -0.00103,236460483.45968,   0.00196,276760191.15965,   0.00010,  -0.00195,  -0.00006,-240299707.69998,   0.00000
37495633.22402,-173959191.86135,-74818627.59841,   0.00061,  -0.00282,  -0.00103,234486490.23992,   0.00196,276760191.15965,   0.00010,  -0.00195,  -0.00006,-242273700.91973,   0.00000
39954997.22791,-169967228.18527,-74838276.31216,   0.00062,  -0.00280,  -0.00103,232548066.84978,   0.00196,276760191.15965,   0.00010,  -0.00195,  -0.00006,-244212124.30987,   0.00000
42434009.94554,-165929417.51046,-74851375.45466,   0.00062,  -0.00279,  -0.00103,230613209.87895,   0.00196,276760191.15965,   0.00010,  -0.00195,  -0.00006,-246146981.28070,   0.00000
44903198.30629,-161914530.33501,-74857925.02591,   0.00062,  -0.00278,  -0.00103,228723019.02868,   0.00196,276760191.15965,   0.00010,  -0.00195,  -0.00006,-248037172.13097,   0.00000
47392035.38080,-157853796.16082,-74864474.59715,   0.00063,  -0.00276,  -0.00103,226845558.34904,   0.00196,276760191.15965,   0.00010,  -0.00195,  -0.00006,-249914632.81062,   0.00000
49871048.09843,-153815985.48600,-74864474.59715,   0.00063,  -0.00275,  -0.00103,225014470.44594,   0.00196,276760191.15965,   0.00010,  -0.00195,  -0.00006,-251745720.71371,   0.00000
52359885.17293,-149755251.31181,-74864474.59715,   0.00063,  -0.00274,  -0.00103,223211624.48143,   0.00196,276760191.15965,   0.00010,  -0.00195,  -0.00006,-253548566.67822,   0.00000
54858546.60431,-145671593.63825,-74857925.02591,   0.00064,  -0.00272,  -0.00103,221432003.23062,   0.00196,276760191.15965,   0.00010,  -0.00195,  -0.00006,-255328187.92903,   0.00000
57380131.53505,-141578111.60782,-74851375.45466,   0.00064,  -0.00271,  -0.00103,219701609.16643,   0.00196,276760191.15965,   0.00010,  -0.00195,  -0.00006,-257058581.99322,   0.00000
59888617.32330,-137471530.43489,-74838276.31216,   0.00064,  -0.00269,  -0.00103,217991630.22510,   0.00196,276760191.15965,   0.00010,  -0.00195,  -0.00006,-258768560.93455,   0.00000
62397103.11155,-133364949.26196,-74825177.16966,   0.00065,  -0.00268,  -0.00103,216327566.60753,   0.00196,276760191.15965,   0.00010,  -0.00195,  -0.00006,-260432624.55212,   0.00000
64928512.39917,-129248543.73216,-74805528.45592,   0.00065,  -0.00267,  -0.00103,214710071.29673,   0.00196,276760191.15965,   0.00010,  -0.00195,  -0.00006,-262050119.86292,   0.00000
67446822.54429,-125119039.05986,-74785879.74217,   0.00065,  -0.00265,  -0.00103,213123233.96898,   0.00196,276760191.15965,   0.00010,  -0.00195,  -0.00006,-263636957.19067,   0.00000
69988056.18878,-120979710.03068,-74759681.45717,   0.00066,  -0.00264,  -0.00103,211585875.96117,   0.00196,276760191.15965,   0.00010,  -0.00195,  -0.00006,-265174315.19848,   0.00000
72516190.69078,-116827281.85901,-74726933.60093,   0.00066,  -0.00263,  -0.00103,210074808.01903,   0.00196,276760191.15965,   0.00010,  -0.00195,  -0.00006,-266685383.14062,   0.00000
75067248.69215,-112665029.33047,-74694185.74469,   0.00066,  -0.00261,  -0.00103,208623149.69362,   0.00196,276760191.15965,   0.00010,  -0.00195,  -0.00006,-268137041.46603,   0.00000
77605207.55101,-108489677.65943,-74654888.31720,   0.00067,  -0.00260,  -0.00103,207200384.64864,   0.00196,276760191.15965,   0.00010,  -0.00195,  -0.00006,-269559806.51101,   0.00000
80166089.90925,-104304501.63151,-74615590.88970,   0.00067,  -0.00258,  -0.00103,205840166.87500,   0.00196,276760191.15965,   0.00010,  -0.00195,  -0.00006,-270920024.28465,   0.00000
82726972.26749,-100119325.60360,-74569743.89096,   0.00067,  -0.00257,  -0.00103,204529069.04498,   0.00196,276760191.15965,   0.00010,  -0.00195,  -0.00006,-272231122.11467,   0.00000
85274755.48323,-95921050.43319,-74523896.89222,   0.00068,  -0.00256,  -0.00102,203257741.75741,   0.00196,276760191.15965,   0.00010,  -0.00195,  -0.00006,-273502449.40224,   0.00000
87845462.19834,-91712950.90590,-74471500.32223,   0.00068,  -0.00254,  -0.00102,202046208.16869,   0.00196,276760191.15965,   0.00010,  -0.00195,  -0.00006,-274713982.99096,   0.00000
90416168.91346,-87504851.37862,-74419103.75224,   0.00069,  -0.00253,  -0.00102,200894611.79593,   0.00196,276760191.15965,   0.00010,  -0.00195,  -0.00006,-275865579.36372,   0.00000
92996699.98544,-83273828.35196,-74360157.61100,   0.00069,  -0.00251,  -0.00102,199788405.69027,   0.00196,276760191.15965,   0.00010,  -0.00195,  -0.00006,-276971785.46938,   0.00000
95554307.55805,-79052629.68218,-74294661.89852,   0.00069,  -0.00250,  -0.00102,198728089.61578,   0.00196,276760191.15965,   0.00010,  -0.00195,  -0.00006,-278032101.54388,   0.00000
98144662.98691,-74798683.15615,-74229166.18603,   0.00070,  -0.00248,  -0.00102,197732690.17276,   0.00196,276760191.15965,   0.00010,  -0.00195,  -0.00006,-279027500.98690,   0.00000
100725194.05890,-70567660.12950,-74163670.47354,   0.00070,  -0.00247,  -0.00102,196809681.39171,   0.00196,276760191.15965,   0.00010,  -0.00195,  -0.00006,-279950509.76794,   0.00000
103315549.48775,-66313713.60347,-74091625.18981,   0.00070,  -0.00246,  -0.00102,195937632.69765,   0.00196,276760191.15965,   0.00010,  -0.00195,  -0.00006,-280822558.46201,   0.00000
105892805.77411,-62046667.93495,-74013030.33482,   0.00071,  -0.00244,  -0.00102,195108065.05919,   0.00196,276760191.15965,   0.00010,  -0.00195,  -0.00006,-281652126.10046,   0.00000
108492985.55985,-57769797.90955,-73934435.47984,   0.00071,  -0.00243,  -0.00102,194356881.96142,   0.00196,276760191.15965,   0.00010,  -0.00195,  -0.00006,-282403309.19824,   0.00000
111093165.34558,-53492927.88416,-73849291.05361,   0.00071,  -0.00241,  -0.00102,193667335.31944,   0.00196,276760191.15965,   0.00010,  -0.00195,  -0.00006,-283092855.84021,   0.00000
113693345.13131,-49216057.85876,-73764146.62737,   0.00072,  -0.00240,  -0.00102,193047619.28974,   0.00196,276760191.15965,   0.00010,  -0.00195,  -0.00006,-283712571.86991,   0.00000
116280425.77454,-44926088.69087,-73672452.62989,   0.00072,  -0.00238,  -0.00101,192474430.54660,   0.00196,276760191.15965,   0.00010,  -0.00195,  -0.00006,-284285760.61305,   0.00000
118890429.91714,-40626295.16610,-73580758.63241,   0.00072,  -0.00237,  -0.00101,191984093.10620,   0.00196,276760191.15965,   0.00010,  -0.00195,  -0.00006,-284776098.05346,   0.00000
121500434.05975,-36326501.64134,-73482515.06368,   0.00073,  -0.00235,  -0.00101,191558596.71587,   0.00196,276760191.15965,   0.00010,  -0.00195,  -0.00006,-285201594.44379,   0.00000
124120262.55923,-32003784.61720,-73377721.92370,   0.00073,  -0.00234,  -0.00101,191194325.70374,   0.00196,276760191.15965,   0.00010,  -0.00195,  -0.00006,-285565865.45592,   0.00000
126707343.20246,-27713815.44931,-73272928.78372,   0.00073,  -0.00233,  -0.00101,190895564.61951,   0.00196,276760191.15965,   0.00010,  -0.00195,  -0.00006,-285864626.54014,   0.00000
129327171.70194,-23391098.42517,-73168135.64374,   0.00074,  -0.00231,  -0.00101,190679033.06087,   0.00196,276760191.15965,   0.00010,  -0.00195,  -0.00006,-286081158.09878,   0.00000
131956824.55829,-19045457.90166,-73056792.93251,   0.00074,  -0.00230,  -0.00101,190526628.43263,   0.00196,276760191.15965,   0.00010,  -0.00195,  -0.00006,-286233562.72702,   0.00000
134553729.55839,-14732565.23440,-72938900.65004,   0.00074,  -0.00228,  -0.00100,190431945.58376,   0.00196,276760191.15965,   0.00010,  -0.00195,  -0.00006,-286328245.57589,   0.00000
137183382.41474,-10386924.71089,-72821008.36756,   0.00075,  -0.00227,  -0.00100,190422634.84006,   0.00196,276760191.15965,   0.00010,  -0.00195,  -0.00006,-286337556.31959,   0.00000
139790111.77172,-6051108.54426,-72703116.08509,   0.00075,  -0.00225,  -0.00100,190475735.11855,   0.00196,276760191.15965,   0.00010,  -0.00195,  -0.00006,-286284456.04110,   0.00000
142419764.62807,-1705468.02075,-72572124.66011,   0.00075,  -0.00224,  -0.00100,190602545.01194,   0.00196,276760191.15965,   0.00010,  -0.00195,  -0.00006,-286157646.14771,   0.00000
145026493.98505,2630348.14588,-72447682.80639,   0.00076,  -0.00222,  -0.00100,190798670.72768,   0.00196,276760191.15965,   0.00010,  -0.00195,  -0.00006,-285961520.43197,   0.00000
147665971.19827,6998912.16876,-72310141.81016,   0.00076,  -0.00221,  -0.00100,191068031.03754,   0.00196,276760191.15965,   0.00010,  -0.00195,  -0.00006,-285692160.12211,   0.00000
150282524.91213,11357651.83477,-72179150.38519,   0.00076,  -0.00219,  -0.00099,191406546.92394,   0.00196,276760191.15965,   0.00010,  -0.00195,  -0.00006,-285353644.23571,   0.00000
152912177.76848,15703292.35827,-72035059.81772,   0.00077,  -0.00218,  -0.00099,191819322.27222,   0.00196,276760191.15965,   0.00010,  -0.00195,  -0.00006,-284940868.88743,   0.00000
155538555.83920,20084955.52365,-71897518.82150,   0.00077,  -0.00216,  -0.00099,192300344.39062,   0.00196,276760191.15965,   0.00010,  -0.00195,  -0.00006,-284459846.76903,   0.00000
158155109.55305,24443695.18965,-71746878.68278,   0.00078,  -0.00215,  -0.00099,192840559.59218,   0.00196,276760191.15965,   0.00010,  -0.00195,  -0.00006,-283919631.56747,   0.00000
160771663.26691,28802434.85566,-71602788.11531,   0.00078,  -0.00213,  -0.00099,193461547.60830,   0.00196,276760191.15965,   0.00010,  -0.00195,  -0.00006,-283298643.55136,   0.00000
163398041.33763,33184098.02103,-71445598.40534,   0.00078,  -0.00212,  -0.00098,194142494.70103,   0.00196,276760191.15965,   0.00010,  -0.00195,  -0.00006,-282617696.45862,   0.00000
166024419.40836,37565761.18641,-71288408.69537,   0.00079,  -0.00211,  -0.00098,194896311.42160,   0.00196,276760191.15965,   0.00010,  -0.00195,  -0.00006,-281863879.73806,   0.00000
168650797.47908,41947424.35178,-71131218.98540,   0.00079,  -0.00209,  -0.00098,195722155.80768,   0.00196,276760191.15965,   0.00010,  -0.00195,  -0.00006,-281038035.35198,   0.00000
171277175.54981,46329087.51716,-70967479.70418,   0.00079,  -0.00208,  -0.00098,196612027.82496,   0.00196,276760191.15965,   0.00010,  -0.00195,  -0.00006,-280148163.33469,   0.00000
173903553.62053,50710750.68253,-70803740.42296,   0.00080,  -0.00206,  -0.00098,197572152.44013,   0.00196,276760191.15965,   0.00010,  -0.00195,  -0.00006,-279188038.71952,   0.00000
176529931.69126,55092413.84791,-70633451.57050,   0.00080,  -0.00205,  -0.00097,198594522.16896,   0.00196,276760191.15965,   0.00010,  -0.00195,  -0.00006,-278165668.99069,   0.00000
179166134.11886,59497000.51265,-70456613.14678,   0.00080,  -0.00203,  -0.00097,199682127.69281,   0.00196,276760191.15965,   0.00010,  -0.00195,  -0.00006,-277078063.46685,   0.00000
181769588.69021,63868839.32116,-70279774.72307,   0.00081,  -0.00202,  -0.00097,200817677.41085,   0.00196,276760191.15965,   0.00010,  -0.00195,  -0.00006,-275942513.74880,   0.00000
184405791.11781,68273425.98590,-70102936.29935,   0.00081,  -0.00200,  -0.00097,202039615.90678,   0.00196,276760191.15965,   0.00010,  -0.00195,  -0.00006,-274720575.25287,   0.00000
187019070.04604,72668188.29377,-69919548.30439,   0.00081,  -0.00199,  -0.00097,203304429.02068,   0.00196,276760191.15965,   0.00010,  -0.00195,  -0.00006,-273455762.13898,   0.00000
189632348.97427,77062950.60165,-69729610.73818,   0.00082,  -0.00197,  -0.00096,204626864.39602,   0.00196,276760191.15965,   0.00010,  -0.00195,  -0.00006,-272133326.76363,   0.00000
192268551.40187,81467537.26639,-69539673.17197,   0.00082,  -0.00196,  -0.00096,206028659.52223,   0.00196,276760191.15965,   0.00010,  -0.00195,  -0.00006,-270731531.63742,   0.00000
194881830.33010,85862299.57426,-69349735.60576,   0.00082,  -0.00194,  -0.00096,207476306.28428,   0.00196,276760191.15965,   0.00010,  -0.00195,  -0.00006,-269283884.87537,   0.00000
197495109.25832,90257061.88214,-69153248.46829,   0.00083,  -0.00193,  -0.00096,208978090.77499,   0.00196,276760191.15965,   0.00010,  -0.00195,  -0.00006,-267782100.38467,   0.00000
200108388.18655,94651824.19001,-68956761.33083,   0.00083,  -0.00191,  -0.00095,210539344.70129,   0.00196,276760191.15965,   0.00010,  -0.00195,  -0.00006,-266220846.45836,   0.00000
202698743.61541,99036762.14101,-68753724.62212,   0.00083,  -0.00190,  -0.00095,212135941.34225,   0.00196,276760191.15965,   0.00010,  -0.00195,  -0.00006,-264624249.81740,   0.00000
205312022.54364,103431524.44888,-68544138.34217,   0.00084,  -0.00188,  -0.00095,213799597.92904,   0.00196,276760191.15965,   0.00010,  -0.00195,  -0.00006,-262960593.23062,   0.00000
207925301.47187,107826286.75675,-68334552.06221,   0.00084,  -0.00187,  -0.00094,215519045.43231,   0.00196,276760191.15965,   0.00010,  -0.00195,  -0.00006,-261241145.72734,   0.00000
210525481.25760,112234148.20712,-68124965.78225,   0.00084,  -0.00185,  -0.00094,217284070.06998,   0.00196,276760191.15965,   0.00010,  -0.00195,  -0.00006,-259476121.08967,   0.00000
213115836.68645,116619086.15812,-67908829.93104,   0.00085,  -0.00184,  -0.00094,219088622.54927,   0.00196,276760191.15965,   0.00010,  -0.00195,  -0.00006,-257671568.61039,   0.00000
215716016.47218,121026947.60849,-67686144.50859,   0.00085,  -0.00182,  -0.00094,220947308.78985,   0.00196,276760191.15965,   0.00010,  -0.00195,  -0.00006,-255812882.36980,   0.00000
218306371.90104,125411885.55949,-67470008.65738,   0.00085,  -0.00181,  -0.00093,222854673.55903,   0.00196,276760191.15965,   0.00010,  -0.00195,  -0.00006,-253905517.60062,   0.00000
220896727.32990,129796823.51049,-67240773.66368,   0.00086,  -0.00179,  -0.00093,224799579.48328,   0.00196,276760191.15965,   0.00010,  -0.00195,  -0.00006,-251960611.67637,   0.00000
223496907.11563,134204684.96086,-67011538.66997,   0.00086,  -0.00178,  -0.00093,226801833.96804,   0.00196,276760191.15965,   0.00010,  -0.00195,  -0.00006,-249958357.19161,   0.00000
226087262.54449,138589622.91186,-66782303.67627,   0.00086,  -0.00176,  -0.00092,228842333.61733,   0.00196,276760191.15965,   0.00010,  -0.00195,  -0.00006,-247917857.54232,   0.00000
228664518.83085,142987660.00536,-66546519.11131,   0.00086,  -0.00175,  -0.00092,230915669.08630,   0.00196,276760191.15965,   0.00010,  -0.00195,  -0.00006,-245844522.07335,   0.00000
231231950.76034,147362773.59948,-66310734.54636,   0.00087,  -0.00173,  -0.00092,233024378.62751,   0.00196,276760191.15965,   0.00010,  -0.00195,  -0.00006,-243735812.53215,   0.00000
233799382.68982,151737887.19361,-66068400.41016,   0.00087,  -0.00172,  -0.00091,235171031.37477,   0.00196,276760191.15965,   0.00010,  -0.00195,  -0.00006,-241589159.78489,   0.00000
236376638.97618,156135924.28711,-65826066.27396,   0.00087,  -0.00170,  -0.00091,237370323.13150,   0.00196,276760191.15965,   0.00010,  -0.00195,  -0.00006,-239389868.02816,   0.00000
238944070.90567,160511037.88123,-65577182.56651,   0.00088,  -0.00169,  -0.00091,239595496.84026,   0.00196,276760191.15965,   0.00010,  -0.00195,  -0.00006,-237164694.31939,   0.00000
241511502.83516,164886151.47536,-65328298.85906,   0.00088,  -0.00167,  -0.00091,241860924.09893,   0.00196,276760191.15965,   0.00010,  -0.00195,  -0.00006,-234899267.06072,   0.00000
244056011.26528,169251440.71261,-65072865.58036,   0.00088,  -0.00166,  -0.00090,244143377.54956,   0.00196,276760191.15965,   0.00010,  -0.00195,  -0.00006,-232616813.61009,   0.00000
246623443.19476,173626554.30674,-64817432.30166,   0.00089,  -0.00164,  -0.00090,246480877.61740,   0.00196,276760191.15965,   0.00010,  -0.00195,  -0.00006,-230279313.54226,   0.00000
249177775.98175,178014767.04336,-64561999.02296,   0.00089,  -0.00163,  -0.00090,248849859.83211,   0.00196,276760191.15965,   0.00010,  -0.00195,  -0.00006,-227910331.32754,   0.00000
251722284.41187,182380056.28062,-64300016.17301,   0.00089,  -0.00161,  -0.00089,251238821.12420,   0.00196,276760191.15965,   0.00010,  -0.00195,  -0.00006,-225521370.03545,   0.00000
254243869.34262,186735521.16100,-64031483.75182,   0.00090,  -0.00160,  -0.00089,253641146.60731,   0.00196,276760191.15965,   0.00010,  -0.00195,  -0.00006,-223119044.55234,   0.00000
256778553.41586,191077886.89888,-63769500.90187,   0.00090,  -0.00158,  -0.00089,256087736.34098,   0.00196,276760191.15965,   0.00010,  -0.00195,  -0.00006,-220672454.81867,   0.00000
259300138.34661,195433351.77926,-63494418.90942,   0.00090,  -0.00157,  -0.00088,258552674.08843,   0.00196,276760191.15965,   0.00010,  -0.00195,  -0.00006,-218207517.07122,   0.00000
261821723.27735,199788816.65964,-63219336.91698,   0.00090,  -0.00155,  -0.00088,261050162.71491,   0.00196,276760191.15965,   0.00010,  -0.00195,  -0.00006,-215710028.44474,   0.00000
264343308.20810,204144281.54002,-62944254.92453,   0.00091,  -0.00154,  -0.00087,263579276.93552,   0.00196,276760191.15965,   0.00010,  -0.00195,  -0.00006,-213180914.22413,   0.00000
266855068.78197,208476822.92103,-62662623.36084,   0.00091,  -0.00152,  -0.00087,266122020.15096,   0.00196,276760191.15965,   0.00010,  -0.00195,  -0.00006,-210638171.00869,   0.00000
269343905.85648,212799539.94517,-62380991.79715,   0.00091,  -0.00151,  -0.00087,268677667.44259,   0.00196,276760191.15965,   0.00010,  -0.00195,  -0.00006,-208082523.71706,   0.00000
271865490.78722,217155004.82555,-62099360.23345,   0.00092,  -0.00149,  -0.00086,271291689.62977,   0.00196,276760191.15965,   0.00010,  -0.00195,  -0.00006,-205468501.52988,   0.00000
274354327.86173,221477721.84968,-61811179.09851,   0.00092,  -0.00148,  -0.00086,273899931.65829,   0.00196,276760191.15965,   0.00010,  -0.00195,  -0.00006,-202860259.50137,   0.00000
276820241.43686,225790614.51695,-61516448.39232,   0.00092,  -0.00146,  -0.00086,276514476.14322,   0.00196,276760191.15965,   0.00010,  -0.00195,  -0.00006,-200245715.01643,   0.00000
279309078.51136,230113331.54108,-61228267.25738,   0.00093,  -0.00145,  -0.00085,279176765.22215,   0.00196,276760191.15965,   0.00010,  -0.00195,  -0.00006,-197583425.93750,   0.00000
281774992.08649,234426224.20835,-60926986.97994,   0.00093,  -0.00144,  -0.00085,281839753.26081,   0.00196,276760191.15965,   0.00010,  -0.00195,  -0.00006,-194920437.89884,   0.00000
284254004.80412,238726017.73311,-60632256.27375,   0.00093,  -0.00142,  -0.00084,284535473.53687,   0.00196,276760191.15965,   0.00010,  -0.00195,  -0.00006,-192224717.62278,   0.00000
286696994.87989,243029086.04351,-60324426.42506,   0.00093,  -0.00141,  -0.00084,287227617.35209,   0.00196,276760191.15965,   0.00010,  -0.00195,  -0.00006,-189532573.80756,   0.00000
289153084.09815,247319055.21140,-60023146.14762,   0.00094,  -0.00139,  -0.00084,289950836.80494,   0.00196,276760191.15965,   0.00010,  -0.00195,  -0.00006,-186809354.35471,   0.00000
291586249.81703,251599200.02242,-59715316.29893,   0.00094,  -0.00138,  -0.00083,292676593.43518,   0.00196,276760191.15965,   0.00010,  -0.00195,  -0.00006,-184083597.72447,   0.00000
294019415.53592,255879344.83344,-59407486.45024,   0.00094,  -0.00136,  -0.00083,295424962.97341,   0.00196,276760191.15965,   0.00010,  -0.00195,  -0.00006,-181335228.18624,   0.00000
296452581.25481,260159489.64446,-59093107.03030,   0.00094,  -0.00135,  -0.00082,298191426.16306,   0.00196,276760191.15965,   0.00010,  -0.00195,  -0.00006,-178568764.99660,   0.00000
298885746.97370,264439634.45548,-58778727.61037,   0.00095,  -0.00133,  -0.00082,300979382.68223,   0.00196,276760191.15965,   0.00010,  -0.00195,  -0.00006,-175780808.47742,   0.00000
301286164.83635,268687031.41026,-58457798.61918,   0.00095,  -0.00132,  -0.00082,303753734.78065,   0.00196,276760191.15965,   0.00010,  -0.00195,  -0.00006,-173006456.37900,   0.00000
303696407.05587,272957351.86440,-58136869.62799,   0.00095,  -0.00130,  -0.00081,306562788.65054,   0.00196,276760191.15965,   0.00010,  -0.00195,  -0.00006,-170197402.50911,   0.00000
306096824.91851,277204748.81918,-57815940.63681,   0.00096,  -0.00129,  -0.00081,309377268.88440,   0.00196,276760191.15965,   0.00010,  -0.00195,  -0.00006,-167382922.27525,   0.00000
308497242.78116,281452145.77396,-57488462.07437,   0.00096,  -0.00127,  -0.00080,312207331.80575,   0.00196,276760191.15965,   0.00010,  -0.00195,  -0.00006,-164552859.35390,   0.00000
310874737.14443,285689718.37186,-57160983.51194,   0.00096,  -0.00126,  -0.00080,315039894.90611,   0.00196,276760191.15965,   0.00010,  -0.00195,  -0.00006,-161720296.25355,   0.00000
313242407.15083,289904367.47039,-56826955.37826,   0.00096,  -0.00124,  -0.00079,317872481.63183,   0.00196,276760191.15965,   0.00010,  -0.00195,  -0.00006,-158887709.52782,   0.00000
315587153.65787,294109192.21206,-56492927.24457,   0.00097,  -0.00123,  -0.00079,320706623.17555,   0.00196,276760191.15965,   0.00010,  -0.00195,  -0.00006,-156053567.98410,   0.00000
317954823.66427,298323841.31059,-56158899.11089,   0.00097,  -0.00121,  -0.00079,323574327.89850,   0.00196,276760191.15965,   0.00010,  -0.00195,  -0.00006,-153185863.26115,   0.00000
320299570.17130,302528666.05225,-55818321.40596,   0.00097,  -0.00120,  -0.00078,326439369.17593,   0.00196,276760191.15965,   0.00010,  -0.00195,  -0.00006,-150320821.98373,   0.00000
322621393.17896,306723666.43704,-55477743.70103,   0.00097,  -0.00119,  -0.00078,329304865.49838,   0.00196,276760191.15965,   0.00010,  -0.00195,  -0.00006,-147455325.66127,   0.00000
324956315.32912,310905567.67933,-55130616.42484,   0.00098,  -0.00117,  -0.00077,332184144.41398,   0.00196,276760191.15965,   0.00010,  -0.00195,  -0.00006,-144576046.74567,   0.00000
327278138.33678,315100568.06411,-54783489.14866,   0.00098,  -0.00116,  -0.00077,335078367.80750,   0.00196,276760191.15965,   0.00010,  -0.00195,  -0.00006,-141681823.35215,   0.00000
329590136.98757,319272644.94953,-54436361.87248,   0.00098,  -0.00114,  -0.00076,337972658.52283,   0.00196,276760191.15965,   0.00010,  -0.00195,  -0.00006,-138787532.63682,   0.00000
331869387.78212,323411973.97870,-54089234.59630,   0.00098,  -0.00113,  -0.00076,340850403.47871,   0.00196,276760191.15965,   0.00010,  -0.00195,  -0.00006,-135909787.68094,   0.00000
334158462.93353,327574226.50725,-53735557.74887,   0.00098,  -0.00111,  -0.00075,343755120.24604,   0.00196,276760191.15965,   0.00010,  -0.00195,  -0.00006,-133005070.91361,   0.00000
336437713.72808,331713555.53642,-53375331.33020,   0.00099,  -0.00110,  -0.00075,346655514.72857,   0.00196,276760191.15965,   0.00010,  -0.00195,  -0.00006,-130104676.43108,   0.00000
338694041.02325,335843060.20872,-53015104.91152,   0.00099,  -0.00108,  -0.00075,349553966.29083,   0.00196,276760191.15965,   0.00010,  -0.00195,  -0.00006,-127206224.86882,   0.00000
340950368.31843,339972564.88102,-52654878.49284,   0.00099,  -0.00107,  -0.00074,352466077.80210,   0.00196,276760191.15965,   0.00010,  -0.00195,  -0.00006,-124294113.35756,   0.00000
343196871.25673,344079146.05395,-52294652.07416,   0.00099,  -0.00106,  -0.00074,355375655.75865,   0.00196,276760191.15965,   0.00010,  -0.00195,  -0.00006,-121384535.40100,   0.00000
345443374.19503,348185727.22688,-51927876.08423,   0.00100,  -0.00104,  -0.00073,358295249.62496,   0.00196,276760191.15965,   0.00010,  -0.00195,  -0.00006,-118464941.53469,   0.00000
347666953.63396,352282484.04294,-51561100.09431,   0.00100,  -0.00103,  -0.00073,361211741.63581,   0.00196,276760191.15965,   0.00010,  -0.00195,  -0.00006,-115548449.52384,   0.00000
349867609.57352,356369416.50212,-51194324.10438,   0.00100,  -0.00101,  -0.00072,364124931.62589,   0.00196,276760191.15965,   0.00010,  -0.00195,  -0.00006,-112635259.53376,   0.00000
352081364.65558,360443249.81881,-50820998.54321,   0.00100,  -0.00100,  -0.00072,367047127.87238,   0.00196,276760191.15965,   0.00010,  -0.00195,  -0.00006,-109713063.28727,   0.00000
354272196.23827,364507258.77862,-50447672.98203,   0.00100,  -0.00098,  -0.00071,369965466.96334,   0.00196,276760191.15965,   0.00010,  -0.00195,  -0.00006,-106794724.19631,   0.00000
356430279.96471,368538519.88219,-50067797.84961,   0.00101,  -0.00097,  -0.00071,372860899.58296,   0.00196,276760191.15965,   0.00010,  -0.00195,  -0.00006,-103899291.57669,   0.00000
358598188.04803,372592704.48513,-49687922.71718,   0.00101,  -0.00096,  -0.00070,375783959.46399,   0.00196,276760191.15965,   0.00010,  -0.00195,  -0.00006,-100976231.69566,   0.00000
360756271.77447,376623965.58870,-49308047.58476,   0.00101,  -0.00094,  -0.00070,378701851.14882,   0.00196,276760191.15965,   0.00010,  -0.00195,  -0.00006,-98058340.01083,   0.00000
362914355.50092,380655226.69227,-48928172.45233,   0.00101,  -0.00093,  -0.00069,381630558.20032,   0.00196,276760191.15965,   0.00010,  -0.00195,  -0.00006,-95129632.95934,   0.00000
365039691.37112,384653739.93960,-48541747.74866,   0.00101,  -0.00091,  -0.00069,384535430.40535,   0.00196,276760191.15965,   0.00010,  -0.00195,  -0.00006,-92224760.75430,   0.00000
367142103.74195,388642428.83005,-48155323.04499,   0.00102,  -0.00090,  -0.00068,387435244.02878,   0.00196,276760191.15965,   0.00010,  -0.00195,  -0.00006,-89324947.13087,   0.00000
369267439.61215,392640942.07738,-47762348.77007,   0.00102,  -0.00089,  -0.00068,390358248.10731,   0.00196,276760191.15965,   0.00010,  -0.00195,  -0.00006,-86401943.05234,   0.00000
371346928.48361,396619806.61096,-47369374.49514,   0.00102,  -0.00087,  -0.00067,393260522.10941,   0.00196,276760191.15965,   0.00010,  -0.00195,  -0.00006,-83499669.05024,   0.00000
373439516.49756,400585572.00204,-46976400.22022,   0.00102,  -0.00086,  -0.00067,396171348.26581,   0.00196,276760191.15965,   0.00010,  -0.00195,  -0.00006,-80588842.89385,   0.00000
375509181.01215,404541513.03625,-46583425.94530,   0.00102,  -0.00084,  -0.00066,399076402.79378,   0.00196,276760191.15965,   0.00010,  -0.00195,  -0.00006,-77683788.36587,   0.00000
377546097.67049,408464706.21422,-46183902.09913,   0.00102,  -0.00083,  -0.00066,401956558.17624,   0.00196,276760191.15965,   0.00010,  -0.00195,  -0.00006,-74803632.98341,   0.00000
379605937.82821,412397723.74906,-45784378.25296,   0.00103,  -0.00082,  -0.00065,404861153.70814,   0.00196,276760191.15965,   0.00010,  -0.00195,  -0.00006,-71899037.45151,   0.00000
381619930.98718,416311092.57015,-45384854.40679,   0.00103,  -0.00080,  -0.00065,407744334.27869,   0.00196,276760191.15965,   0.00010,  -0.00195,  -0.00006,-69015856.88096,   0.00000
383656847.64552,420234285.74812,-44978780.98937,   0.00103,  -0.00079,  -0.00064,410649415.60741,   0.00196,276760191.15965,   0.00010,  -0.00195,  -0.00006,-66110775.55224,   0.00000
385661016.44762,424124731.06984,-44572707.57195,   0.00103,  -0.00077,  -0.00064,413531148.77648,   0.00196,276760191.15965,   0.00010,  -0.00195,  -0.00006,-63229042.38317,   0.00000
387642261.75035,428005352.03469,-44166634.15453,   0.00103,  -0.00076,  -0.00063,416406311.76641,   0.00196,276760191.15965,   0.00010,  -0.00195,  -0.00006,-60353879.39324,   0.00000
389613682.69621,431863049.50017,-43754011.16587,   0.00103,  -0.00075,  -0.00062,419270798.66218,   0.00196,276760191.15965,   0.00010,  -0.00195,  -0.00006,-57489392.49747,   0.00000
391585103.64207,435720746.96565,-43347937.74845,   0.00104,  -0.00073,  -0.00062,422145519.92442,   0.00196,276760191.15965,   0.00010,  -0.00195,  -0.00006,-54614671.23523,   0.00000
393533601.08855,439568620.07426,-42928765.18853,   0.00104,  -0.00072,  -0.00061,425009272.36732,   0.00196,276760191.15965,   0.00010,  -0.00195,  -0.00006,-51750918.79233,   0.00000
395472274.17816,443393569.68349,-42516142.19986,   0.00104,  -0.00071,  -0.00061,427865844.58717,   0.00196,276760191.15965,   0.00010,  -0.00195,  -0.00006,-48894346.57248,   0.00000
397388023.76841,447208694.93586,-42096969.63995,   0.00104,  -0.00069,  -0.00060,430713295.97168,   0.00196,276760191.15965,   0.00010,  -0.00195,  -0.00006,-46046895.18798,   0.00000
399303773.35865,451023820.18822,-41684346.65128,   0.00104,  -0.00068,  -0.00060,433570329.68952,   0.00196,276760191.15965,   0.00010,  -0.00195,  -0.00006,-43189861.47014,   0.00000
401186775.09265,454806197.58434,-41258624.52011,   0.00104,  -0.00067,  -0.00059,436399010.60982,   0.00196,276760191.15965,   0.00010,  -0.00195,  -0.00006,-40361180.54983,   0.00000
403069776.82665,458588574.98046,-40839451.96020,   0.00104,  -0.00065,  -0.00059,439236967.96865,   0.00196,276760191.15965,   0.00010,  -0.00195,  -0.00006,-37523223.19100,   0.00000
404920030.70440,462338204.52034,-40413729.82903,   0.00104,  -0.00064,  -0.00058,442048250.00291,   0.00196,276760191.15965,   0.00010,  -0.00195,  -0.00006,-34711941.15675,   0.00000
406770284.58216,466087834.06021,-39988007.69787,   0.00105,  -0.00062,  -0.00058,444866693.35428,   0.00196,276760191.15965,   0.00010,  -0.00195,  -0.00006,-31893497.80537,   0.00000
408597614.96054,469827639.24322,-39562285.56670,   0.00105,  -0.00061,  -0.00057,447677441.94762,   0.00196,276760191.15965,   0.00010,  -0.00195,  -0.00006,-29082749.21204,   0.00000
410415120.98206,473544520.92685,-39130013.86429,   0.00105,  -0.00060,  -0.00056,450476000.40294,   0.00196,276760191.15965,   0.00010,  -0.00195,  -0.00006,-26284190.75671,   0.00000
412232627.00357,477261402.61048,-38704291.73312,   0.00105,  -0.00058,  -0.00056,453283057.28115,   0.00196,276760191.15965,   0.00010,  -0.00195,  -0.00006,-23477133.87850,   0.00000
414017385.16884,480945536.43787,-38272020.03071,   0.00105,  -0.00057,  -0.00055,456062970.85887,   0.00196,276760191.15965,   0.00010,  -0.00195,  -0.00006,-20697220.30079,   0.00000
415779219.83473,484619845.90839,-37833198.75705,   0.00105,  -0.00056,  -0.00055,458833244.25220,   0.00196,276760191.15965,   0.00010,  -0.00195,  -0.00006,-17926946.90745,   0.00000
417541054.50063,488294155.37890,-37400927.05463,   0.00105,  -0.00054,  -0.00054,461611682.97708,   0.00196,276760191.15965,   0.00010,  -0.00195,  -0.00006,-15148508.18257,   0.00000
419270141.31029,491935716.99318,-36962105.78097,   0.00105,  -0.00053,  -0.00054,464362827.17281,   0.00196,276760191.15965,   0.00010,  -0.00195,  -0.00006,-12397363.98684,   0.00000
420999228.11994,495577278.60745,-36523284.50731,   0.00105,  -0.00052,  -0.00053,467120314.60389,   0.00196,276760191.15965,   0.00010,  -0.00195,  -0.00006,-9639876.55576,   0.00000
422718490.57272,499195916.72235,-36084463.23365,   0.00105,  -0.00051,  -0.00053,469866370.99072,   0.00196,276760191.15965,   0.00010,  -0.00195,  -0.00006,-6893820.16893,   0.00000
424414829.52614,502804730.48038,-35639092.38874,   0.00105,  -0.00049,  -0.00052,472602576.44480,   0.00196,276760191.15965,   0.00010,  -0.00195,  -0.00006,-4157614.71485,   0.00000
426088244.98018,506403719.88154,-35200271.11507,   0.00105,  -0.00048,  -0.00051,475331910.37854,   0.00196,276760191.15965,   0.00010,  -0.00195,  -0.00006,-1428280.78111,   0.00000
426963495.42392,508285163.74881,-34965952.09864,   0.00105,  -0.00047,  -0.00051,476760188.50565,   0.00196,276760191.15965,   0.00010,  -0.00195,  -0.00006,  -7.83492,   0.00000
426634758.30639,508599970.49739,-34643850.24200,   0.00106,  -0.00047,  -0.00051,476765467.05490,   0.00196,276765476.19942,   0.00011,  -0.00195,  -0.00006,  -9.14452,   1.00000
425938623.34519,509258486.51488,-33964538.32526,   0.00106,  -0.00045,  -0.00050,476776496.75982,   0.00198,276776500.12761,   0.00011,  -0.00194,  -0.00006,  -3.36779,   1.00000
425241038.24728,509905064.53969,-33295668.57255,   0.00106,  -0.00044,  -0.00050,476787542.87159,   0.00199,276787544.15039,   0.00012,  -0.00193,  -0.00006,  -1.27880,   1.00000
424532778.57731,510546878.54097,-32631964.86374,   0.00106,  -0.00043,  -0.00049,476798537.88171,   0.00200,276798544.11176,   0.00012,  -0.00192,  -0.00007,  -6.23005,   1.00000
423825600.41033,511179893.56196,-31965834.20537,   0.00106,  -0.00041,  -0.00048,476809544.27103,   0.00201,276809553.28528,   0.00013,  -0.00191,  -0.00007,  -9.01426,   1.00000
423113251.01124,511804663.05605,-31306201.54185,   0.00106,  -0.00040,  -0.00048,476820444.40628,   0.00202,276820446.16811,   0.00013,  -0.00191,  -0.00007,  -1.76183,   1.00000
422396778.73732,512422723.31985,-30646529.90847,   0.00106,  -0.00039,  -0.00047,476831215.17616,   0.00203,276831217.95372,   0.00013,  -0.00190,  -0.00007,  -2.77755,   1.00000
421679279.19601,513029549.59606,-29997174.44424,   0.00106,  -0.00038,  -0.00047,476842001.09261,   0.00204,276842010.49934,   0.00014,  -0.00189,  -0.00008,  -9.40673,   1.00000
420962974.97243,513627982.56107,-29345263.95133,   0.00106,  -0.00036,  -0.00046,476852808.26322,   0.00205,276852813.47101,   0.00014,  -0.00188,  -0.00008,  -5.20779,   1.00000
420240439.22502,514217541.02869,-28705951.93272,   0.00106,  -0.00035,  -0.00046,476863498.27976,   0.00206,276863506.35044,   0.00015,  -0.00187,  -0.00008,  -8.07067,   1.00000
419513692.96647,514801010.13999,-28066232.25478,   0.00106,  -0.00034,  -0.00045,476874077.61354,   0.00207,276874079.57538,   0.00015,  -0.00186,  -0.00008,  -1.96184,   1.00000
418782749.03014,515379623.71868,-27422614.84654,   0.00106,  -0.00033,  -0.00044,476884735.79020,   0.00208,276884737.77548,   0.00016,  -0.00185,  -0.00009,  -1.98529,   1.00000
418050989.12013,515946559.98364,-26792577.63469,   0.00106,  -0.00031,  -0.00044,476895207.75315,   0.00209,276895213.17643,   0.00016,  -0.00184,  -0.00009,  -5.42328,   1.00000
417304075.37892,516514148.33654,-26159523.89457,   0.00106,  -0.00030,  -0.00043,476905713.67843,   0.00210,276905717.35251,   0.00017,  -0.00184,  -0.00009,  -3.67408,   1.00000
416568322.65169,517066213.47795,-25532476.14086,   0.00106,  -0.00029,  -0.00042,476916086.24846,   0.00211,276916091.52198,   0.00017,  -0.00183,  -0.00009,  -5.27352,   1.00000
415827647.52023,517612449.98656,-24907962.73339,   0.00106,  -0.00028,  -0.00042,476926549.10456,   0.00212,276926556.31192,   0.00018,  -0.00182,  -0.00010,  -7.20735,   1.00000
415081635.86089,518152084.65612,-24289054.23187,   0.00106,  -0.00026,  -0.00041,476936900.23428,   0.00213,276936908.11574,   0.00018,  -0.00181,  -0.00010,  -7.88146,   1.00000
414330248.20877,518685268.19161,-23675634.74267,   0.00106,  -0.00025,  -0.00041,476947138.73666,   0.00214,276947147.25873,   0.00018,  -0.00180,  -0.00010,  -8.52207,   1.00000
413580245.63057,519210833.17647,-23059308.72549,   0.00106,  -0.00024,  -0.00040,476957398.62294,   0.00215,276957400.05055,   0.00019,  -0.00179,  -0.00010,  -1.42761,   1.00000
412818711.35402,519732067.69569,-22453786.04787,   0.00106,  -0.00023,  -0.00039,476967614.96289,   0.00215,276967618.55695,   0.00019,  -0.00179,  -0.00010,  -3.59406,   1.00000
412052487.73199,520248177.39539,-21847042.76685,   0.00106,  -0.00021,  -0.00039,476977717.32914,   0.00216,276977721.55590,   0.00020,  -0.00178,  -0.00010,  -4.22677,   1.00000
411292207.96101,520752986.68878,-21244740.80103,   0.00106,  -0.00020,  -0.00038,476987761.70078,   0.00217,276987768.87959,   0.00020,  -0.00177,  -0.00011,  -7.17881,   1.00000
410521122.74583,521254761.80870,-20646586.71041,   0.00106,  -0.00019,  -0.00038,476997770.96209,   0.00218,276997778.93255,   0.00020,  -0.00176,  -0.00011,  -7.97047,   1.00000
409751492.64095,521749186.70639,-20045380.17753,   0.00106,  -0.00018,  -0.00037,477007802.15056,   0.00219,277007804.20380,   0.00021,  -0.00175,  -0.00011,  -2.05324,   1.00000
408975557.52941,522237024.36927,-19455629.08659,   0.00105,  -0.00016,  -0.00036,477017717.26436,   0.00220,277017722.06507,   0.00021,  -0.00174,  -0.00011,  -4.80071,   1.00000
408189425.18861,522722851.52702,-18863389.40817,   0.00105,  -0.00015,  -0.00036,477027597.13299,   0.00221,277027600.47023,   0.00022,  -0.00173,  -0.00011,  -3.33724,   1.00000
407408699.20089,523197144.92260,-18281810.13680,   0.00105,  -0.00014,  -0.00035,477037426.35858,   0.00222,277037426.93905,   0.00022,  -0.00173,  -0.00011,  -0.58047,   1.00000
406622834.17022,523666956.44429,-17698433.66640,   0.00105,  -0.00013,  -0.00035,477047138.35459,   0.00223,277047140.11010,   0.00022,  -0.00172,  -0.00012,  -1.75551,   1.00000
405838428.90556,524129710.87327,-17111837.21420,   0.00105,  -0.00012,  -0.00034,477056863.18471,   0.00224,277056869.85063,   0.00023,  -0.00171,  -0.00012,  -6.66592,   1.00000
405030590.54835,524594154.63209,-16536118.98549,   0.00105,  -0.00010,  -0.00033,477066510.87512,   0.00225,277066512.77976,   0.00023,  -0.00170,  -0.00012,  -1.90464,   1.00000
404240758.48450,525043247.33962,-15963798.96725,   0.00105,  -0.00009,  -0.00033,477076147.47305,   0.00226,277076155.67379,   0.00023,  -0.00169,  -0.00012,  -8.20074,   1.00000
403428442.85870,525495627.76134,-15389207.03116,   0.00105,  -0.00008,  -0.00032,477085698.32475,   0.00227,277085706.90624,   0.00024,  -0.00169,  -0.00012,  -8.58150,   1.00000
402621676.15689,525937281.71992,-14824956.88782,   0.00105,  -0.00007,  -0.00031,477095196.51221,   0.00228,277095206.28276,   0.00024,  -0.00168,  -0.00012,  -9.77054,   1.00000
401816447.33372,526372129.84914,-14257324.68157,   0.00105,  -0.00006,  -0.00031,477104717.18437,   0.00228,277104723.47655,   0.00025,  -0.00167,  -0.00012,  -6.29219,   1.00000
400992944.90866,526807256.36151,-13694359.10106,   0.00105,  -0.00005,  -0.00030,477114074.94181,   0.00229,277114077.97112,   0.00025,  -0.00166,  -0.00012,  -3.02932,   1.00000
400170505.48488,527234937.44060,-13134454.09675,   0.00104,  -0.00003,  -0.00030,477123446.23418,   0.00230,277123453.47290,   0.00025,  -0.00165,  -0.00012,  -7.23872,   1.00000
399354133.40771,527653068.96209,-12578181.96615,   0.00104,  -0.00002,  -0.00029,477132772.86766,   0.00231,277132774.57644,   0.00026,  -0.00164,  -0.00013,  -1.70878,   1.00000
398514222.34923,528073847.25076,-12025719.81888,   0.00104,  -0.00001,  -0.00028,477142000.66250,   0.00232,277142009.28764,   0.00026,  -0.00164,  -0.00013,  -8.62514,   1.00000
397680742.41485,528485745.51321,-11470261.12045,   0.00104,   0.00000,  -0.00028,477151184.78050,   0.00233,277151188.00424,   0.00026,  -0.00163,  -0.00013,  -3.22374,   1.00000
396852901.74541,528887859.51177,-10924784.65833,   0.00104,   0.00001,  -0.00027,477160313.28792,   0.00234,277160314.46587,   0.00026,  -0.00162,  -0.00013,  -1.17795,   1.00000
395996746.55402,529295243.90050,-10375916.45041,   0.00104,   0.00002,  -0.00026,477169427.84770,   0.00235,277169429.50337,   0.00027,  -0.00161,  -0.00013,  -1.65567,   1.00000
395151097.96661,529690919.86193,-9837385.53503,   0.00104,   0.00003,  -0.00026,477178409.72167,   0.00235,277178416.84827,   0.00027,  -0.00160,  -0.00013,  -7.12660,   1.00000
394306969.46347,530080122.17580,-9295188.78684,   0.00103,   0.00005,  -0.00025,477187423.50272,   0.00236,277187424.22850,   0.00027,  -0.00160,  -0.00013,  -0.72579,   1.00000
393438732.68325,530471966.52231,-8756423.74020,   0.00103,   0.00006,  -0.00024,477196343.53070,   0.00237,277196347.66479,   0.00028,  -0.00159,  -0.00013,  -4.13408,   1.00000
392576472.97088,530854905.30098,-8220862.72327,   0.00103,   0.00007,  -0.00024,477205216.84257,   0.00238,277205217.52224,   0.00028,  -0.00158,  -0.00013,  -0.67967,   1.00000
391715456.34358,531231000.77331,-7688097.54317,   0.00103,   0.00008,  -0.00023,477214104.52835,   0.00239,277214109.75136,   0.00028,  -0.00157,  -0.00013,  -5.22300,   1.00000
390834981.07581,531608176.75399,-7152401.08266,   0.00103,   0.00009,  -0.00023,477222835.62984,   0.00240,277222841.67072,   0.00029,  -0.00157,  -0.00013,  -6.04088,   1.00000
389960177.14791,531976370.05237,-6626279.21353,   0.00103,   0.00010,  -0.00022,477231517.48376,   0.00240,277231521.32586,   0.00029,  -0.00156,  -0.00013,  -3.84210,   1.00000
389073703.75333,532342527.53597,-6103046.92949,   0.00102,   0.00011,  -0.00021,477240166.23432,   0.00241,277240171.33412,   0.00029,  -0.00155,  -0.00013,  -5.09981,   1.00000
388188712.99404,532702276.13285,-5575977.34190,   0.00102,   0.00012,  -0.00021,477248840.21026,   0.00242,277248843.38356,   0.00029,  -0.00154,  -0.00013,  -3.17330,   1.00000
387296378.33469,533057975.42270,-5058518.55236,   0.00102,   0.00014,  -0.00020,477257406.79335,   0.00243,277257410.64461,   0.00030,  -0.00154,  -0.00013,  -3.85126,   1.00000
386392409.10884,533411866.97232,-4537314.31441,   0.00102,   0.00015,  -0.00019,477265941.56792,   0.00244,277265948.31687,   0.00030,  -0.00153,  -0.00013,  -6.74896,   1.00000
385481099.01918,533761976.98898,-4019060.11831,   0.00102,   0.00016,  -0.00019,477274376.86153,   0.00244,277274380.83335,   0.00030,  -0.00152,  -0.00013,  -3.97182,   1.00000
384575455.28703,534103702.95037,-3510076.91513,   0.00101,   0.00017,  -0.00018,477282760.53273,   0.00245,277282760.71187,   0.00030,  -0.00151,  -0.00013,  -0.17914,   1.00000
383657966.26615,534443604.63699,-2997205.22339,   0.00101,   0.00018,  -0.00017,477291111.26788,   0.00246,277291111.90554,   0.00031,  -0.00151,  -0.00013,  -0.63765,   1.00000
382732871.03816,534779855.31888,-2487072.99058,   0.00101,   0.00019,  -0.00017,477299352.00523,   0.00247,277299358.28450,   0.00031,  -0.00150,  -0.00013,  -6.27927,   1.00000
381809102.12280,535109681.19029,-1979444.88931,   0.00101,   0.00020,  -0.00016,477307625.18644,   0.00248,277307628.73645,   0.00031,  -0.00149,  -0.00014,  -3.55001,   1.00000
380873243.33753,535437489.32594,-1474364.04207,   0.00100,   0.00021,  -0.00015,477315870.83401,   0.00248,277315871.98693,   0.00031,  -0.00148,  -0.00014,  -1.15292,   1.00000
379929552.76702,535761715.48268,-971841.63314,   0.00100,   0.00022,  -0.00015,477324004.54842,   0.00249,277324010.90812,   0.00032,  -0.00148,  -0.00014,  -6.35969,   1.00000
378991514.00376,536078149.28034,-465265.36965,   0.00100,   0.00023,  -0.00014,477332095.94390,   0.00250,277332096.54314,   0.00032,  -0.00147,  -0.00014,  -0.59924,   1.00000
378027547.59441,536396775.38742,32346.63813,   0.00100,   0.00024,  -0.00013,477340102.01105,   0.00251,277340104.86016,   0.00032,  -0.00146,  -0.00014,  -2.84910,   1.00000
377069139.12643,536707629.68885,527598.63461,   0.00099,   0.00025,  -0.00013,477348056.07582,   0.00251,277348060.28582,   0.00032,  -0.00145,  -0.00014,  -4.21000,   1.00000
376112091.58109,537012248.86137,1020490.65624,   0.00099,   0.00026,  -0.00012,477356035.82680,   0.00252,277356040.56390,   0.00033,  -0.00145,  -0.00014,  -4.73711,   1.00000
375132917.12484,537317534.34099,1517704.94900,   0.00099,   0.00027,  -0.00012,477363859.57270,   0.00253,277363866.52732,   0.00033,  -0.00144,  -0.00014,  -6.95462,   1.00000
374155132.09435,537616629.20037,2006064.51142,   0.00098,   0.00028,  -0.00011,477371715.57938,   0.00254,277371717.65535,   0.00033,  -0.00143,  -0.00013,  -2.07597,   1.00000
373168792.60471,537912175.06557,2498829.82868,   0.00098,   0.00029,  -0.00010,477379462.70527,   0.00254,277379465.73409,   0.00033,  -0.00143,  -0.00013,  -3.02882,   1.00000
372183880.71756,538201653.64868,2982779.54561,   0.00098,   0.00030,  -0.00010,477387234.76234,   0.00255,277387238.95230,   0.00033,  -0.00142,  -0.00013,  -4.18995,   1.00000
371176175.09693,538491595.03574,3471350.98950,   0.00098,   0.00032,  -0.00009,477394858.73812,   0.00256,277394859.21468,   0.00034,  -0.00141,  -0.00013,  -0.47656,   1.00000
370173842.09248,538774248.76145,3951342.57339,   0.00097,   0.00033,  -0.00008,477402419.49309,   0.00257,277402426.15336,   0.00034,  -0.00140,  -0.00013,  -6.66027,   1.00000
369158572.62622,539054540.83904,4435790.61459,   0.00097,   0.00034,  -0.00008,477409963.86117,   0.00257,277409969.68915,   0.00034,  -0.00140,  -0.00013,  -5.82799,   1.00000
368144641.73092,539328686.34537,4918029.30899,   0.00097,   0.00035,  -0.00007,477417536.52043,   0.00258,277417539.49767,   0.00034,  -0.00139,  -0.00013,  -2.97724,   1.00000
367107506.77618,539603493.28583,5392110.81436,   0.00096,   0.00036,  -0.00006,477424950.13030,   0.00259,277424956.08239,   0.00034,  -0.00138,  -0.00013,  -5.95209,   1.00000
366075328.35680,539870758.20252,5870852.03337,   0.00096,   0.00037,  -0.00006,477432316.90500,   0.00259,277432320.91632,   0.00035,  -0.00138,  -0.00013,  -4.01132,   1.00000
365044458.95335,540131946.01915,6347453.27663,   0.00096,   0.00038,  -0.00005,477439705.73706,   0.00260,277439712.32311,   0.00035,  -0.00137,  -0.00013,  -6.58604,   1.00000
363986027.49906,540394546.85087,6822311.54533,   0.00095,   0.00039,  -0.00004,477447025.22350,   0.00261,277447031.62637,   0.00035,  -0.00136,  -0.00013,  -6.40287,   1.00000
362932804.13685,540650273.05830,7288879.10520,   0.00095,   0.00040,  -0.00004,477454292.78003,   0.00261,277454297.15996,   0.00035,  -0.00136,  -0.00013,  -4.37993,   1.00000
361869749.06459,540902212.90482,7760483.58277,   0.00094,   0.00041,  -0.00003,477461460.72470,   0.00262,277461461.91997,   0.00035,  -0.00135,  -0.00013,  -1.19527,   1.00000
360793341.65663,541151679.46115,8230261.54948,   0.00094,   0.00041,  -0.00002,477468600.44092,   0.00263,277468604.96454,   0.00035,  -0.00134,  -0.00013,  -4.52362,   1.00000
359707067.87655,541397595.84032,8698643.96216,   0.00094,   0.00042,  -0.00002,477475642.23448,   0.00263,277475646.55621,   0.00036,  -0.00134,  -0.00013,  -4.32172,   1.00000
358622059.98353,541637414.54731,9165005.13288,   0.00093,   0.00043,  -0.00001,477482708.93559,   0.00264,277482715.88722,   0.00036,  -0.00133,  -0.00013,  -6.95163,   1.00000
357526981.93009,541873701.07561,9630069.85775,   0.00093,   0.00044,  -0.00000,477489682.11780,   0.00265,277489683.82854,   0.00036,  -0.00132,  -0.00013,  -1.71074,   1.00000
356418562.60838,542107816.34184,10086915.36811,   0.00093,   0.00045,   0.00000,477496623.25125,   0.00265,277496629.44951,   0.00036,  -0.00132,  -0.00013,  -6.19826,   1.00000
355314506.86964,542334480.85532,10548813.53940,   0.00092,   0.00046,   0.00001,477503520.08586,   0.00266,277503524.17385,   0.00036,  -0.00131,  -0.00013,  -4.08799,   1.00000
354181695.06400,542561789.28184,11009366.49165,   0.00092,   0.00047,   0.00002,477510348.11191,   0.00267,277510350.47518,   0.00036,  -0.00131,  -0.00013,  -2.36327,   1.00000
353053384.84251,542782063.62048,11468512.81556,   0.00091,   0.00048,   0.00002,477517116.65913,   0.00267,277517124.54202,   0.00037,  -0.00130,  -0.00013,  -7.88288,   1.00000
351926319.55830,542996302.97051,11925733.65638,   0.00091,   0.00049,   0.00003,477523924.39442,   0.00268,277523927.07612,   0.00037,  -0.00129,  -0.00013,  -2.68170,   1.00000
350773295.71407,543210057.03189,12382294.99740,   0.00090,   0.00050,   0.00003,477530577.83225,   0.00269,277530581.14655,   0.00037,  -0.00129,  -0.00013,  -3.31430,   1.00000
349609680.23073,543420601.39912,12831414.22492,   0.00090,   0.00051,   0.00004,477537130.93655,   0.00269,277537132.88036,   0.00037,  -0.00128,  -0.00013,  -1.94381,   1.00000
348446872.43200,543624420.48353,13285202.49159,   0.00090,   0.00052,   0.00005,477543709.17674,   0.00270,277543716.05318,   0.00037,  -0.00127,  -0.00012,  -6.87644,   1.00000
347269874.24618,543825201.72642,13737500.69050,   0.00089,   0.00053,   0.00005,477550272.69594,   0.00271,277550280.99507,   0.00037,  -0.00127,  -0.00012,  -8.29913,   1.00000
346097055.49633,544019086.35803,14188606.74921,   0.00089,   0.00054,   0.00006,477556786.05500,   0.00271,277556793.60126,   0.00037,  -0.00126,  -0.00012,  -7.54625,   1.00000
344897319.88674,544212045.20615,14639352.90445,   0.00088,   0.00055,   0.00007,477563155.54198,   0.00272,277563159.15830,   0.00037,  -0.00126,  -0.00012,  -3.61632,   1.00000
343699095.20635,544399532.36252,15081786.79582,   0.00088,   0.00056,   0.00007,477569547.87475,   0.00272,277569552.04861,   0.00038,  -0.00125,  -0.00012,  -4.17385,   1.00000
342488805.72256,544582323.99135,15530084.56518,   0.00087,   0.00057,   0.00008,477575847.86867,   0.00273,277575848.14847,   0.00038,  -0.00124,  -0.00012,  -0.27980,   1.00000
341263899.89375,544761737.11664,15977021.74293,   0.00087,   0.00057,   0.00009,477582118.95656,   0.00274,277582127.67578,   0.00038,  -0.00124,  -0.00012,  -8.71922,   1.00000
340040543.35803,544935731.74931,16415677.78548,   0.00086,   0.00058,   0.00009,477588425.29589,   0.00274,277588434.77539,   0.00038,  -0.00123,  -0.00012,  -9.47950,   1.00000
338807411.62293,545104153.84402,16861106.06059,   0.00086,   0.00059,   0.00010,477594560.24184,   0.00275,277594562.98041,   0.00038,  -0.00123,  -0.00012,  -2.73857,   1.00000
337556801.76908,545269706.19529,17304432.48868,   0.00085,   0.00060,   0.00011,477600752.65988,   0.00275,277600758.35559,   0.00038,  -0.00122,  -0.00012,  -5.69570,   1.00000
336296912.73798,545431124.64863,17741641.09287,   0.00085,   0.00061,   0.00011,477606762.31397,   0.00276,277606769.17379,   0.00038,  -0.00122,  -0.00012,  -6.85983,   1.00000
335019029.74112,545588643.52724,18183269.71157,   0.00084,   0.00062,   0.00012,477612849.63296,   0.00277,277612851.36296,   0.00038,  -0.00121,  -0.00012,  -1.73000,   1.00000
333747582.37451,545739450.73118,18618425.38163,   0.00084,   0.00063,   0.00013,477618793.42039,   0.00277,277618795.04007,   0.00038,  -0.00121,  -0.00012,  -1.61968,   1.00000
332460483.05420,545885576.33860,19058889.69542,   0.00083,   0.00064,   0.00013,477624723.68437,   0.00278,277624727.44590,   0.00038,  -0.00120,  -0.00011,  -3.76154,   1.00000
331158644.01214,546028678.51845,19491668.20598,   0.00083,   0.00064,   0.00014,477630635.41507,   0.00278,277630642.44050,   0.00038,  -0.00119,  -0.00011,  -7.02543,   1.00000
329843298.22065,546166237.99472,19930712.51252,   0.00082,   0.00065,   0.00015,477636459.55183,   0.00279,277636463.49038,   0.00039,  -0.00119,  -0.00011,  -3.93855,   1.00000
328513042.96499,546300590.96393,20362112.34137,   0.00082,   0.00066,   0.00015,477642264.07588,   0.00279,277642267.92739,   0.00039,  -0.00118,  -0.00011,  -3.85151,   1.00000
327185914.28664,546427957.95164,20792841.12350,   0.00081,   0.00067,   0.00016,477648020.46126,   0.00280,277648020.65116,   0.00039,  -0.00118,  -0.00011,  -0.18990,   1.00000
325845342.42829,546550533.40258,21223467.10674,   0.00080,   0.00068,   0.00017,477653675.48258,   0.00280,277653676.29709,   0.00039,  -0.00117,  -0.00011,  -0.81451,   1.00000
324489095.88431,546668771.05426,21653017.04305,   0.00080,   0.00069,   0.00017,477659316.63415,   0.00281,277659319.67102,   0.00039,  -0.00117,  -0.00011,  -3.03686,   1.00000
323133191.24317,546779510.93146,22087430.02568,   0.00079,   0.00070,   0.00018,477664995.86969,   0.00281,277665000.00934,   0.00039,  -0.00116,  -0.00011,  -4.13965,   1.00000
321747306.45344,546888209.80926,22515894.57427,   0.00079,   0.00070,   0.00018,477670525.91361,   0.00282,277670535.48473,   0.00039,  -0.00116,  -0.00011,  -9.57112,   1.00000
320364125.96041,546989812.32482,22943838.55482,   0.00078,   0.00071,   0.00019,477676013.67215,   0.00283,277676019.53907,   0.00039,  -0.00115,  -0.00011,  -5.86692,   1.00000
318965508.73040,547087819.23555,23364291.06363,   0.00078,   0.00072,   0.00020,477681487.41981,   0.00283,277681488.61739,   0.00039,  -0.00115,  -0.00011,  -1.19758,   1.00000
317567146.97599,547178154.95855,23789650.71699,   0.00077,   0.00073,   0.00020,477686992.69317,   0.00284,277686995.73805,   0.00039,  -0.00114,  -0.00011,  -3.04487,   1.00000
316139100.67434,547264345.69920,24216868.95297,   0.00076,   0.00074,   0.00021,477692272.48715,   0.00284,277692277.84237,   0.00039,  -0.00114,  -0.00010,  -5.35523,   1.00000
314710134.63415,547344335.48241,24641369.24760,   0.00076,   0.00075,   0.00022,477697678.61107,   0.00285,277697680.10375,   0.00039,  -0.00113,  -0.00010,  -1.49267,   1.00000
313267036.82055,547419914.92908,25059600.10463,   0.00075,   0.00075,   0.00022,477702978.47628,   0.00285,277702982.98164,   0.00039,  -0.00113,  -0.00010,  -4.50536,   1.00000
311808430.08035,547488633.83681,25484559.00497,   0.00074,   0.00076,   0.00023,477708193.44995,   0.00286,277708195.72664,   0.00039,  -0.00112,  -0.00010,  -2.27669,   1.00000
310350506.11813,547550561.44686,25907966.16524,   0.00074,   0.00077,   0.00024,477713437.37717,   0.00286,277713443.64678,   0.00039,  -0.00112,  -0.00010,  -6.26961,   1.00000
308860708.21032,547609268.06029,26325829.54393,   0.00073,   0.00078,   0.00024,477718545.89245,   0.00287,277718549.42036,   0.00039,  -0.00111,  -0.00010,  -3.52790,   1.00000
307371544.96725,547661074.62634,26742172.13353,   0.00073,   0.00078,   0.00025,477723685.82830,   0.00287,277723690.94608,   0.00039,  -0.00111,  -0.00010,  -5.11779,   1.00000
305866241.15423,547705539.44815,27165355.19506,   0.00072,   0.00079,   0.00026,477728741.41951,   0.00288,277728743.73039,   0.00040,  -0.00110,  -0.00010,  -2.31088,   1.00000
304362181.27243,547744349.30394,27580546.98916,   0.00071,   0.00080,   0.00026,477733821.66870,   0.00288,277733827.66302,   0.00040,  -0.00110,  -0.00010,  -5.99433,   1.00000
302824759.70174,547778043.97582,27996817.57618,   0.00071,   0.00081,   0.00027,477738768.99065,   0.00289,277738775.90577,   0.00040,  -0.00109,  -0.00010,  -6.91512,   1.00000
301287899.97571,547804672.73701,28411581.11110,   0.00070,   0.00082,   0.00027,477743751.94466,   0.00289,277743760.96117,   0.00040,  -0.00109,  -0.00009,  -9.01651,   1.00000
299734911.87786,547824803.29666,28826838.06323,   0.00069,   0.00082,   0.00028,477748650.59254,   0.00289,277748653.42288,   0.00040,  -0.00108,  -0.00009,  -2.83034,   1.00000
298165353.59799,547840097.32556,29234799.54569,   0.00069,   0.00083,   0.00029,477753529.03259,   0.00290,277753535.92843,   0.00040,  -0.00108,  -0.00009,  -6.89585,   1.00000
296596518.04563,547846414.54479,29649112.40390,   0.00068,   0.00084,   0.00029,477758368.91427,   0.00290,277758373.52645,   0.00040,  -0.00108,  -0.00009,  -4.61217,   1.00000
294992410.17853,547847111.85949,30063256.63316,   0.00067,   0.00085,   0.00030,477763161.30183,   0.00291,277763165.92220,   0.00040,  -0.00107,  -0.00009,  -4.62036,   1.00000
293390125.95487,547841437.28471,30470883.63793,   0.00066,   0.00085,   0.00031,477767895.92308,   0.00291,277767903.03144,   0.00040,  -0.00107,  -0.00009,  -7.10836,   1.00000
291787666.26715,547827080.85335,30883475.31835,   0.00066,   0.00086,   0.00031,477772680.68089,   0.00292,277772683.91443,   0.00040,  -0.00106,  -0.00009,  -3.23354,   1.00000
290150715.14516,547807548.48238,31290949.50440,   0.00065,   0.00087,   0.00032,477777318.71878,   0.00292,277777327.38847,   0.00040,  -0.00106,  -0.00009,  -8.66969,   1.00000
288514194.94356,547780604.30362,31696948.73033,   0.00064,   0.00088,   0.00033,477782001.28851,   0.00293,277782009.80416,   0.00040,  -0.00105,  -0.00009,  -8.51565,   1.00000
286860288.72941,547746207.27568,32103655.50633,   0.00064,   0.00088,   0.00033,477786596.45900,   0.00293,277786602.05943,   0.00040,  -0.00105,  -0.00009,  -5.60043,   1.00000
285188485.99885,547704655.27895,32509574.84471,   0.00063,   0.00089,   0.00034,477791186.52061,   0.00293,277791193.58405,   0.00040,  -0.00104,  -0.00008,  -7.06344,   1.00000
283498945.96249,547655306.49101,32916242.85763,   0.00062,   0.00090,   0.00034,477795690.73007,   0.00294,277795695.96998,   0.00040,  -0.00104,  -0.00008,  -5.23991,   1.00000
281809761.75985,547598314.85698,33321432.82006,   0.00061,   0.00091,   0.00035,477800229.45050,   0.00294,277800238.63871,   0.00040,  -0.00104,  -0.00008,  -9.18821,   1.00000
280102548.81894,547533328.49964,33727413.89330,   0.00061,   0.00091,   0.00036,477804686.18514,   0.00295,277804692.60695,   0.00040,  -0.00103,  -0.00008,  -6.42181,   1.00000
278377799.92599,547462250.26788,34126194.41929,   0.00060,   0.00092,   0.00036,477809135.14136,   0.00295,277809141.61334,   0.00040,  -0.00103,  -0.00008,  -6.47198,   1.00000
276633974.37560,547381227.51794,34532238.33335,   0.00059,   0.00093,   0.00037,477813505.46415,   0.00296,277813509.35613,   0.00040,  -0.00102,  -0.00008,  -3.89198,   1.00000
274891143.45567,547293959.91374,34930381.20433,   0.00058,   0.00093,   0.00038,477817906.16782,   0.00296,277817912.14848,   0.00040,  -0.00102,  -0.00008,  -5.98066,   1.00000
273129640.69710,547198141.23234,35329406.72961,   0.00057,   0.00094,   0.00038,477822221.78352,   0.00296,277822227.67653,   0.00040,  -0.00102,  -0.00008,  -5.89301,   1.00000
271349243.56177,547093565.93983,35729336.63628,   0.00057,   0.00095,   0.00039,477826446.61888,   0.00297,277826456.48385,   0.00040,  -0.00101,  -0.00008,  -9.86497,   1.00000
269550573.48517,546981149.11968,36126824.07134,   0.00056,   0.00095,   0.00039,477830774.41718,   0.00297,277830780.04916,   0.00040,  -0.00101,  -0.00008,  -5.63198,   1.00000
267751227.27060,546859526.29193,36526222.34778,   0.00055,   0.00096,   0.00040,477834957.54168,   0.00298,277834965.32797,   0.00040,  -0.00100,  -0.00007,  -7.78629,   1.00000
265914577.86878,546729290.19424,36923852.46196,   0.00054,   0.00097,   0.00041,477839202.77728,   0.00298,277839209.12705,   0.00040,  -0.00100,  -0.00007,  -6.34977,   1.00000
264097373.63191,546592581.49351,37314602.15525,   0.00053,   0.00098,   0.00041,477843432.81655,   0.00298,277843436.16578,   0.00040,  -0.00100,  -0.00007,  -3.34923,   1.00000
262240642.38840,546443978.68403,37713457.09114,   0.00053,   0.00098,   0.00042,477847539.38703,   0.00299,277847548.34961,   0.00040,  -0.00099,  -0.00007,  -8.96258,   1.00000
260365557.64091,546287969.01724,38105133.90267,   0.00052,   0.00099,   0.00043,477851651.35445,   0.00299,277851660.90668,   0.00040,  -0.00099,  -0.00007,  -9.55223,   1.00000
258489769.46398,546122911.84575,38497105.37502,   0.00051,   0.00100,   0.00043,477855722.52007,   0.00300,277855726.81693,   0.00040,  -0.00099,  -0.00007,  -4.29686,   1.00000
256614184.13755,545949466.81851,38887587.87425,   0.00050,   0.00100,   0.00044,477859829.11735,   0.00300,277859837.50232,   0.00040,  -0.00098,  -0.00007,  -8.38497,   1.00000
254698872.88719,545764879.82208,39279829.20729,   0.00049,   0.00101,   0.00044,477863824.84216,   0.00300,277863829.05947,   0.00040,  -0.00098,  -0.00007,  -4.21730,   1.00000
252783715.85627,545571684.16420,39670565.31085,   0.00048,   0.00102,   0.00045,477867861.68472,   0.00301,277867866.55162,   0.00040,  -0.00097,  -0.00007,  -4.86690,   1.00000
250848648.56379,545369843.66225,40055978.97579,   0.00048,   0.00102,   0.00046,477871810.18289,   0.00301,277871814.57554,   0.00040,  -0.00097,  -0.00006,  -4.39265,   1.00000
248893384.19630,545156146.08867,40446987.92472,   0.00047,   0.00103,   0.00046,477875777.47367,   0.00302,277875781.51098,   0.00040,  -0.00097,  -0.00006,  -4.03731,   1.00000
246919299.97805,544934123.52224,40830804.14270,   0.00046,   0.00103,   0.00047,477879745.40376,   0.00302,277879752.76799,   0.00040,  -0.00096,  -0.00006,  -7.36423,   1.00000
244943900.05820,544702505.05310,41214995.69275,   0.00045,   0.00104,   0.00047,477883672.91374,   0.00302,277883678.93094,   0.00040,  -0.00096,  -0.00006,  -6.01720,   1.00000
242947232.49203,544459680.68693,41600294.41896,   0.00044,   0.00105,   0.00048,477887520.79344,   0.00303,277887525.42428,   0.00040,  -0.00096,  -0.00006,  -4.63085,   1.00000
240930793.50727,544206201.69792,41984772.74743,   0.00043,   0.00105,   0.00049,477891377.45707,   0.00303,277891385.96603,   0.00040,  -0.00095,  -0.00006,  -8.50895,   1.00000
238915240.37669,543945641.43782,42361340.22819,   0.00042,   0.00106,   0.00049,477895280.04079,   0.00303,277895286.93889,   0.00040,  -0.00095,  -0.00006,  -6.89810,   1.00000
236877298.77199,543671424.54599,42745406.43523,   0.00041,   0.00107,   0.00050,477899114.23787,   0.00304,277899118.07009,   0.00040,  -0.00095,  -0.00006,  -3.83222,   1.00000
234820150.24750,543388087.00399,43122257.78872,   0.00040,   0.00107,   0.00050,477902951.63090,   0.00304,277902956.96424,   0.00040,  -0.00094,  -0.00006,  -5.33334,   1.00000
232761145.75721,543094664.28229,43499546.07412,   0.00040,   0.00108,   0.00051,477906748.81099,   0.00305,277906752.09362,   0.00040,  -0.00094,  -0.00006,  -3.28263,   1.00000
230659712.47887,542786794.96884,43878689.58757,   0.00039,   0.00108,   0.00052,477910430.82183,   0.00305,277910438.22144,   0.00039,  -0.00094,  -0.00005,  -7.39961,   1.00000
228560672.95781,542470421.09173,44254225.42531,   0.00038,   0.00109,   0.00052,477914264.15406,   0.00305,277914269.35240,   0.00039,  -0.00093,  -0.00005,  -5.19834,   1.00000
226457179.39955,542142706.31555,44632253.61342,   0.00037,   0.00110,   0.00053,477917957.59976,   0.00306,277917963.60602,   0.00039,  -0.00093,  -0.00005,  -6.00626,   1.00000
224316209.10443,541803779.43958,45001679.45945,   0.00036,   0.00110,   0.00053,477921730.68628,   0.00306,277921731.00384,   0.00039,  -0.00093,  -0.00005,  -0.31756,   1.00000
222169688.51731,541451080.21791,45379983.75754,   0.00035,   0.00111,   0.00054,477925364.15549,   0.00306,277925371.20951,   0.00039,  -0.00092,  -0.00005,  -7.05402,   1.00000
220026701.29867,541091934.98683,45748248.51067,   0.00034,   0.00111,   0.00055,477929141.78054,   0.00307,277929149.23534,   0.00039,  -0.00092,  -0.00005,  -7.45480,   1.00000
217840120.96849,540716693.18823,46118366.03472,   0.00033,   0.00112,   0.00055,477932821.42924,   0.00307,277932823.75015,   0.00039,  -0.00092,  -0.00005,  -2.32091,   1.00000
215650939.70862,540330478.40073,46488960.96287,   0.00032,   0.00113,   0.00056,477936448.43208,   0.00307,277936457.37328,   0.00039,  -0.00091,  -0.00005,  -8.94120,   1.00000
213441978.46682,539933674.30399,46852264.81605,   0.00031,   0.00113,   0.00056,477940104.29144,   0.00308,277940105.40263,   0.00039,  -0.00091,  -0.00005,  -1.11118,   1.00000
211232655.51000,539524845.12383,47220249.68628,   0.00030,   0.00114,   0.00057,477943807.83924,   0.00308,277943817.27314,   0.00039,  -0.00091,  -0.00004,  -9.43389,   1.00000
209000414.72528,539103976.47617,47583072.24432,   0.00029,   0.00114,   0.00057,477947447.35882,   0.00308,277947449.63926,   0.00039,  -0.00090,  -0.00004,  -2.28043,   1.00000
206744374.66478,538668614.53192,47947063.86583,   0.00028,   0.00115,   0.00058,477951011.79345,   0.00309,277951012.92669,   0.00039,  -0.00090,  -0.00004,  -1.13324,   1.00000
204471048.82278,538221113.99083,48307844.69956,   0.00027,   0.00115,   0.00059,477954689.54128,   0.00309,277954699.00561,   0.00039,  -0.00090,  -0.00004,  -9.46433,   1.00000
202191269.12788,537760735.94712,48671319.28284,   0.00026,   0.00116,   0.00059,477958245.78287,   0.00309,277958250.57327,   0.00039,  -0.00089,  -0.00004,  -4.79040,   1.00000
199894995.55526,537290228.70722,49025213.28961,   0.00025,   0.00117,   0.00060,477961908.36431,   0.00310,277961916.77861,   0.00039,  -0.00089,  -0.00004,  -8.41430,   1.00000
197591279.88277,536804395.43230,49388153.14524,   0.00024,   0.00117,   0.00060,477965453.05522,   0.00310,277965458.56573,   0.00039,  -0.00089,  -0.00004,  -5.51051,   1.00000
195250034.95738,536304494.98215,49742091.37026,   0.00023,   0.00118,   0.00061,477969081.69621,   0.00310,277969089.51991,   0.00039,  -0.00088,  -0.00004,  -7.82371,   1.00000
192905464.06477,535792585.69768,50096526.90642,   0.00022,   0.00118,   0.00062,477972678.70919,   0.00311,277972683.30273,   0.00039,  -0.00088,  -0.00004,  -4.59355,   1.00000
190558088.89777,535270903.85391,50445172.81851,   0.00021,   0.00119,   0.00062,477976224.99245,   0.00311,277976229.56126,   0.00039,  -0.00088,  -0.00003,  -4.56881,   1.00000
188189314.01014,534732460.64293,50798986.30018,   0.00020,   0.00119,   0.00063,477979809.67074,   0.00311,277979818.93239,   0.00039,  -0.00087,  -0.00003,  -9.26164,   1.00000
185800381.24942,534181604.77483,51145336.18471,   0.00019,   0.00120,   0.00063,477983429.59667,   0.00312,277983431.99586,   0.00039,  -0.00087,  -0.00003,  -2.39919,   1.00000
183407848.84764,533618406.39305,51492195.73130,   0.00018,   0.00120,   0.00064,477987005.36941,   0.00312,277987008.97703,   0.00038,  -0.00087,  -0.00003,  -3.60762,   1.00000
180973019.74711,533035831.76677,51838450.68419,   0.00017,   0.00121,   0.00064,477990588.42560,   0.00313,277990596.87818,   0.00038,  -0.00086,  -0.00003,  -8.45258,   1.00000
178555975.69761,532445056.32559,52184609.43063,   0.00016,   0.00121,   0.00065,477994171.83642,   0.00313,277994174.49379,   0.00038,  -0.00086,  -0.00003,  -2.65737,   1.00000
176096515.91534,531834390.61370,52530106.20186,   0.00015,   0.00122,   0.00065,477997756.16489,   0.00313,277997765.55214,   0.00038,  -0.00086,  -0.00003,  -9.38724,   1.00000
173638454.95504,531215113.25403,52867465.16722,   0.00014,   0.00122,   0.00066,478001406.58170,   0.00314,278001408.69715,   0.00038,  -0.00085,  -0.00003,  -2.11544,   1.00000
171176509.96302,530583002.46290,53205326.49746,   0.00013,   0.00123,   0.00067,478005014.36855,   0.00314,278005017.70192,   0.00038,  -0.00085,  -0.00003,  -3.33337,   1.00000
168688845.37444,529933116.23979,53544255.46067,   0.00012,   0.00123,   0.00067,478008567.51289,   0.00314,278008569.75112,   0.00038,  -0.00085,  -0.00002,  -2.23823,   1.00000
166180864.50745,529269565.49781,53875584.73250,   0.00010,   0.00124,   0.00068,478012149.03973,   0.00315,278012152.18932,   0.00038,  -0.00084,  -0.00002,  -3.14960,   1.00000
163651518.14862,528587393.22680,54211824.46911,   0.00009,   0.00124,   0.00068,478015782.19936,   0.00315,278015788.54181,   0.00038,  -0.00084,  -0.00002,  -6.34245,   1.00000
161118556.65618,527894228.62050,54542271.68321,   0.00008,   0.00125,   0.00069,478019380.28539,   0.00315,278019381.81046,   0.00038,  -0.00084,  -0.00002,  -1.52507,   1.00000
158564784.64576,527184534.64857,54871317.55786,   0.00007,   0.00125,   0.00069,478023019.07844,   0.00316,278023019.58865,   0.00038,  -0.00083,  -0.00002,  -0.51021,   1.00000
156012223.93394,526463564.96236,55198413.83149,   0.00006,   0.00126,   0.00070,478026717.16993,   0.00316,278026723.78437,   0.00038,  -0.00083,  -0.00002,  -6.61444,   1.00000
153433912.08712,525725932.04943,55520236.88567,   0.00005,   0.00126,   0.00070,478030359.57890,   0.00316,278030365.05370,   0.00038,  -0.00083,  -0.00002,  -5.47480,   1.00000
150856431.49337,524974530.79972,55846342.63657,   0.00004,   0.00127,   0.00071,478034076.74306,   0.00317,278034085.19096,   0.00038,  -0.00083,  -0.00002,  -8.44790,   1.00000
148252998.10620,524206065.47617,56167149.02177,   0.00003,   0.00127,   0.00071,478037734.47803,   0.00317,278037743.99513,   0.00037,  -0.00082,  -0.00002,  -9.51710,   1.00000
145628874.40128,523420303.19034,56486431.61596,   0.00002,   0.00128,   0.00072,478041446.03683,   0.00317,278041452.22529,   0.00037,  -0.00082,  -0.00001,  -6.18846,   1.00000
143000748.76424,522622894.93726,56799915.46087,   0.00000,   0.00128,   0.00073,478045113.30151,   0.00318,278045119.88031,   0.00037,  -0.00082,  -0.00001,  -6.57880,   1.00000
140351977.23986,521807911.25879,57111836.89554,  -0.00001,   0.00129,   0.00073,478048833.72264,   0.00318,278048838.73838,   0.00037,  -0.00081,  -0.00001,  -5.01574,   1.00000
137682191.50501,520972666.75957,57428389.42080,  -0.00002,   0.00129,   0.00074,478052619.10059,   0.00318,278052622.33366,   0.00037,  -0.00081,  -0.00001,  -3.23306,   1.00000
135008291.34539,520125446.04094,57739115.92858,  -0.00003,   0.00130,   0.00074,478056363.95794,   0.00319,278056366.92923,   0.00037,  -0.00081,  -0.00001,  -2.97130,   1.00000
132336632.46722,519269101.02682,58041538.24549,  -0.00004,   0.00130,   0.00075,478060163.45802,   0.00319,278060170.30697,   0.00037,  -0.00080,  -0.00001,  -6.84895,   1.00000
129637588.43214,518389264.08934,58351033.54739,  -0.00005,   0.00131,   0.00075,478063937.92053,   0.00320,278063942.84482,   0.00037,  -0.00080,  -0.00001,  -4.92429,   1.00000
126918518.67179,517493584.82811,58652594.48512,  -0.00006,   0.00131,   0.00076,478067758.82825,   0.00320,278067759.59806,   0.00037,  -0.00080,  -0.00001,  -0.76982,   1.00000
124194744.93615,516583059.08886,58954550.33342,  -0.00008,   0.00132,   0.00076,478071550.46137,   0.00320,278071551.18442,   0.00037,  -0.00079,  -0.00000,  -0.72306,   1.00000
121457902.74904,515659586.46049,59246006.13636,  -0.00009,   0.00132,   0.00077,478075482.61147,   0.00321,278075486.85155,   0.00037,  -0.00079,  -0.00000,  -4.24007,   1.00000
118709021.62124,514715420.63311,59546599.49403,  -0.00010,   0.00132,   0.00077,478079307.84440,   0.00321,278079312.54705,   0.00036,  -0.00079,  -0.00000,  -4.70266,   1.00000
115947373.15788,513758187.70869,59836626.65339,  -0.00011,   0.00133,   0.00078,478083279.50738,   0.00321,278083284.26898,   0.00036,  -0.00078,  -0.00000,  -4.76160,   1.00000
113158454.81673,512778589.62351,60127359.95299,  -0.00012,   0.00133,   0.00078,478087213.01938,   0.00322,278087219.60870,   0.00036,  -0.00078,   0.00000,  -6.58932,   1.00000
110365058.36436,511786147.15062,60412232.43103,  -0.00013,   0.00134,   0.00079,478091112.66013,   0.00322,278091119.76978,   0.00036,  -0.00078,   0.00000,  -7.10965,   1.00000
107573918.38215,510779238.03076,60701102.81722,  -0.00015,   0.00134,   0.00079,478095100.90132,   0.00323,278095108.82562,   0.00036,  -0.00077,   0.00000,  -7.92430,   1.00000
104763175.75875,509755550.11756,60981856.41673,  -0.00016,   0.00135,   0.00080,478099146.63785,   0.00323,278099149.29265,   0.00036,  -0.00077,   0.00001,  -2.65480,   1.00000
101932636.71058,508712336.77377,61260661.41212,  -0.00017,   0.00135,   0.00080,478103252.55953,   0.00323,278103255.67971,   0.00036,  -0.00077,   0.00001,  -3.12018,   1.00000
99097585.03079,507656000.89180,61533584.13425,  -0.00018,   0.00135,   0.00081,478107319.34875,   0.00324,278107328.47839,   0.00036,  -0.00076,   0.00001,  -9.12964,   1.00000
96257411.22749,506581358.32166,61813020.14936,  -0.00019,   0.00136,   0.00081,478111388.76525,   0.00324,278111394.17431,   0.00036,  -0.00076,   0.00001,  -5.40906,   1.00000
93405860.52041,505493348.51650,62081654.81851,  -0.00021,   0.00136,   0.00082,478115607.94798,   0.00324,278115613.35283,   0.00035,  -0.00076,   0.00001,  -5.40486,   1.00000
90518674.00799,504377386.78079,62353411.95355,  -0.00022,   0.00137,   0.00082,478119702.93611,   0.00325,278119706.18820,   0.00035,  -0.00075,   0.00001,  -3.25209,   1.00000
87643214.21214,503255993.52859,62614067.34570,  -0.00023,   0.00137,   0.00083,478123958.26211,   0.00325,278123963.76594,   0.00035,  -0.00075,   0.00001,  -5.50383,   1.00000
84740168.94696,502110244.48306,62875215.72118,  -0.00024,   0.00137,   0.00083,478128189.04187,   0.00326,278128195.23704,   0.00035,  -0.00074,   0.00001,  -6.19517,   1.00000
81840704.54976,500952469.57134,63134019.48658,  -0.00025,   0.00138,   0.00084,478132500.34353,   0.00326,278132507.65572,   0.00035,  -0.00074,   0.00002,  -7.31219,   1.00000
78936417.09383,499778459.64687,63393080.26160,  -0.00027,   0.00138,   0.00084,478136793.81593,   0.00327,278136802.92788,   0.00035,  -0.00074,   0.00002,  -9.11195,   1.00000
76013259.16818,498586545.29476,63643782.19680,  -0.00028,   0.00139,   0.00085,478141154.33626,   0.00327,278141159.21245,   0.00035,  -0.00073,   0.00002,  -4.87619,   1.00000
73071209.28774,497373955.33923,63892264.83562,  -0.00029,   0.00139,   0.00085,478145585.78865,   0.00327,278145591.85068,   0.00035,  -0.00073,   0.00002,  -6.06203,   1.00000
70124385.51174,496144795.91203,64140962.08815,  -0.00030,   0.00139,   0.00086,478150005.82306,   0.00328,278150009.52195,   0.00034,  -0.00073,   0.00002,  -3.69889,   1.00000
67181724.02775,494903702.93866,64387254.48888,  -0.00032,   0.00140,   0.00086,478154505.21400,   0.00328,278154510.23135,   0.00034,  -0.00072,   0.00002,  -5.01735,   1.00000
64211525.74002,493639561.55308,64627703.32447,  -0.00033,   0.00140,   0.00087,478158977.18877,   0.00329,278158978.12716,   0.00034,  -0.00072,   0.00003,  -0.93840,   1.00000
61245709.51368,492363465.44659,64865724.18652,  -0.00034,   0.00141,   0.00087,478163524.10368,   0.00329,278163530.14421,   0.00034,  -0.00072,   0.00003,  -6.04054,   1.00000
58261557.23511,491066277.78084,65101394.29233,  -0.00035,   0.00141,   0.00088,478168157.44280,   0.00330,278168163.34679,   0.00034,  -0.00071,   0.00003,  -5.90399,   1.00000
55282179.75567,489759881.34495,65328459.09331,  -0.00037,   0.00141,   0.00088,478172865.89522,   0.00330,278172867.06896,   0.00034,  -0.00071,   0.00003,  -1.17375,   1.00000
52275251.89584,488427119.37113,65555749.16495,  -0.00038,   0.00142,   0.00088,478177551.69581,   0.00330,278177556.53313,   0.00033,  -0.00070,   0.00003,  -4.83731,   1.00000
49263643.28156,487077259.77820,65783184.64540,  -0.00039,   0.00142,   0.00089,478182230.23488,   0.00331,278182234.70064,   0.00033,  -0.00070,   0.00003,  -4.46576,   1.00000
46266797.03667,485723573.46466,65999370.19481,  -0.00041,   0.00142,   0.00089,478187079.43255,   0.00331,278187081.60628,   0.00033,  -0.00070,   0.00004,  -2.17373,   1.00000
43242465.93982,484343084.62420,66215718.51752,  -0.00042,   0.00143,   0.00090,478191916.78673,   0.00332,278191917.09324,   0.00033,  -0.00069,   0.00004,  -0.30651,   1.00000
40190650.79209,482935420.54412,66432172.90988,  -0.00043,   0.00143,   0.00090,478196738.56853,   0.00332,278196743.31344,   0.00033,  -0.00069,   0.00004,  -4.74491,   1.00000
37177222.68981,481531621.44422,66643508.89698,  -0.00044,   0.00143,   0.00091,478201748.06175,   0.00333,278201753.20415,   0.00033,  -0.00068,   0.00004,  -5.14240,   1.00000
34136361.37751,480103201.91590,66848791.14061,  -0.00046,   0.00144,   0.00091,478206735.51277,   0.00333,278206739.91646,   0.00032,  -0.00068,   0.00004,  -4.40369,   1.00000
31068119.14658,478647181.90568,67054113.78120,  -0.00047,   0.00144,   0.00092,478211718.40711,   0.00334,278211720.29543,   0.00032,  -0.00068,   0.00004,  -1.88832,   1.00000
28005744.98807,477179497.98763,67256883.91296,  -0.00048,   0.00144,   0.00092,478216784.54330,   0.00334,278216789.83513,   0.00032,  -0.00067,   0.00005,  -5.29184,   1.00000
24949291.56952,475702946.47841,67450978.25947,  -0.00050,   0.00145,   0.00092,478221927.90625,   0.00335,278221933.22781,   0.00032,  -0.00067,   0.00005,  -5.32156,   1.00000
21876149.22772,474204526.37548,67642430.49917,  -0.00051,   0.00145,   0.00093,478227168.78914,   0.00335,278227169.46940,   0.00032,  -0.00066,   0.00005,  -0.68026,   1.00000
18798573.96593,472691130.92500,67827817.16060,  -0.00052,   0.00146,   0.00093,478232381.58126,   0.00336,278232384.07544,   0.00032,  -0.00066,   0.00005,  -2.49418,   1.00000
15704748.77238,471153071.67218,68016631.81759,  -0.00053,   0.00146,   0.00094,478237704.56502,   0.00336,278237709.03255,   0.00031,  -0.00065,   0.00005,  -4.46753,   1.00000
12629356.60377,469610721.13153,68199513.36884,  -0.00055,   0.00146,   0.00094,478243002.72875,   0.00337,278243007.50472,   0.00031,  -0.00065,   0.00006,  -4.77597,   1.00000
9525798.36782,468044539.61322,68370755.00848,  -0.00056,   0.00146,   0.00095,478248486.04682,   0.00337,278248489.36050,   0.00031,  -0.00065,   0.00006,  -3.31368,   1.00000
6430087.15698,466462349.96116,68550946.59579,  -0.00057,   0.00147,   0.00095,478253879.46568,   0.00338,278253879.48303,   0.00031,  -0.00064,   0.00006,  -0.01735,   1.00000
3329496.77117,464867323.72368,68719622.30592,  -0.00059,   0.00147,   0.00095,478259447.82201,   0.00338,278259448.19432,   0.00030,  -0.00064,   0.00006,  -0.37232,   1.00000
224631.89312,463257103.12468,68882205.05498,  -0.00060,   0.00147,   0.00096,478264995.84915,   0.00339,278264997.44946,   0.00030,  -0.00063,   0.00006,  -1.60030,   1.00000
-2895428.20693,461622068.31856,69048081.35171,  -0.00061,   0.00148,   0.00096,478270659.39258,   0.00339,278270662.63732,   0.00030,  -0.00063,   0.00007,  -3.24474,   1.00000
-6019686.66376,459971665.68370,69207827.48618,  -0.00063,   0.00148,   0.00097,478276306.45586,   0.00340,278276309.80939,   0.00030,  -0.00062,   0.00007,  -3.35352,   1.00000
-9125098.12492,458320217.11990,69356279.23581,  -0.00064,   0.00148,   0.00097,478282119.88196,   0.00340,278282128.20803,   0.00030,  -0.00062,   0.00007,  -8.32607,   1.00000
-12256724.50211,456636755.47354,69510559.81330,  -0.00065,   0.00149,   0.00097,478287966.01104,   0.00341,278287970.40085,   0.00029,  -0.00061,   0.00007,  -4.38982,   1.00000
-15392439.80116,454937819.95099,69658693.63190,  -0.00067,   0.00149,   0.00098,478293791.54152,   0.00342,278293795.78605,   0.00029,  -0.00061,   0.00007,  -4.24452,   1.00000
-18520460.06589,453230864.08617,69798115.09297,  -0.00068,   0.00149,   0.00098,478299695.09909,   0.00342,278299698.49090,   0.00029,  -0.00061,   0.00008,  -3.39181,   1.00000
-21639961.70485,451510932.41581,69941057.10235,  -0.00069,   0.00150,   0.00099,478305701.12237,   0.00343,278305709.65126,   0.00029,  -0.00060,   0.00008,  -8.52889,   1.00000
-24774069.06046,449771352.74257,70074940.48422,  -0.00071,   0.00150,   0.00099,478311804.84236,   0.00343,278311810.91761,   0.00028,  -0.00060,   0.00008,  -6.07526,   1.00000
-27912123.34852,448016274.94272,70202684.78576,  -0.00072,   0.00150,   0.00099,478317891.80952,   0.00344,278317896.26834,   0.00028,  -0.00059,   0.00008,  -4.45881,   1.00000
-31064062.30404,446238858.44978,70327438.36407,  -0.00073,   0.00150,   0.00100,478324087.01561,   0.00344,278324089.81700,   0.00028,  -0.00059,   0.00008,  -2.80139,   1.00000
-34184688.21770,444463582.68325,70450008.55444,  -0.00075,   0.00151,   0.00100,478330355.87790,   0.00345,278330362.09581,   0.00028,  -0.00058,   0.00009,  -6.21791,   1.00000
-37331213.86238,442657989.05475,70572112.55820,  -0.00076,   0.00151,   0.00101,478336643.03763,   0.00346,278336650.54460,   0.00027,  -0.00058,   0.00009,  -7.50697,   1.00000
-40491512.61864,440832594.17484,70685061.29004,  -0.00077,   0.00151,   0.00101,478343026.39375,   0.00346,278343033.78077,   0.00027,  -0.00057,   0.00009,  -7.38702,   1.00000
-43620146.40924,439009878.33523,70795879.79456,  -0.00079,   0.00152,   0.00101,478349490.85832,   0.00347,278349494.44684,   0.00027,  -0.00057,   0.00009,  -3.58852,   1.00000
-46762252.05477,437167555.67739,70897553.20018,  -0.00080,   0.00152,   0.00102,478356047.86838,   0.00348,278356050.19185,   0.00026,  -0.00056,   0.00010,  -2.32347,   1.00000
-49907493.30685,435307117.29449,70999170.63283,  -0.00082,   0.00152,   0.00102,478362600.95231,   0.00348,278362608.40949,   0.00026,  -0.00056,   0.00010,  -7.45718,   1.00000
-53055864.66547,433428513.28658,71100718.11735,  -0.00083,   0.00152,   0.00102,478369168.94666,   0.00349,278369169.51203,   0.00026,  -0.00055,   0.00010,  -0.56537,   1.00000
-56204358.96150,431539020.27272,71190558.63498,  -0.00084,   0.00153,   0.00103,478375915.88812,   0.00349,278375919.75889,   0.00025,  -0.00055,   0.00010,  -3.87077,   1.00000
-59333619.09220,429644308.02194,71280886.75711,  -0.00086,   0.00153,   0.00103,478382645.94169,   0.00350,278382653.25410,   0.00025,  -0.00054,   0.00011,  -7.31241,   1.00000
-62475572.78741,427730061.78841,71362015.55219,  -0.00087,   0.00153,   0.00104,478389480.81272,   0.00351,278389485.07943,   0.00025,  -0.00054,   0.00011,  -4.26671,   1.00000
-65629362.99681,425793761.35446,71440014.65529,  -0.00088,   0.00153,   0.00104,478396426.51602,   0.00351,278396432.96902,   0.00025,  -0.00053,   0.00011,  -6.45299,   1.00000
-68763832.41388,423852440.60137,71518535.95667,  -0.00090,   0.00154,   0.00104,478403362.44833,   0.00352,278403363.55150,   0.00024,  -0.00053,   0.00011,  -1.10318,   1.00000
-71910449.52462,421891603.92428,71587813.14130,  -0.00091,   0.00154,   0.00105,478410386.66876,   0.00353,278410394.91957,   0.00024,  -0.00052,   0.00011,  -8.25081,   1.00000
-75046374.54760,419922132.27272,71654567.28987,  -0.00092,   0.00154,   0.00105,478417516.57425,   0.00353,278417520.94590,   0.00024,  -0.00051,   0.00012,  -4.37165,   1.00000
-78171477.78525,417944216.95075,71718813.20796,  -0.00094,   0.00154,   0.00105,478424738.06903,   0.00354,278424741.21974,   0.00023,  -0.00051,   0.00012,  -3.15070,   1.00000
-81299807.36315,415950703.09640,71776905.95704,  -0.00095,   0.00155,   0.00106,478431950.02452,   0.00355,278431950.15679,   0.00023,  -0.00050,   0.00012,  -0.13227,   1.00000
-84417108.46409,413948983.64171,71832515.57623,  -0.00097,   0.00155,   0.00106,478439250.47194,   0.00356,278439253.04490,   0.00022,  -0.00050,   0.00013,  -2.57296,   1.00000
-87545704.98104,411928039.81746,71878863.97862,  -0.00098,   0.00155,   0.00106,478446657.79618,   0.00356,278446659.09150,   0.00022,  -0.00049,   0.00013,  -1.29532,   1.00000
-90676621.56140,409889030.64496,71925143.84285,  -0.00099,   0.00155,   0.00107,478454071.57350,   0.00357,278454071.57707,   0.00022,  -0.00049,   0.00013,  -0.00357,   1.00000
-93796050.77760,407842130.14207,71968953.52263,  -0.00101,   0.00156,   0.00107,478461570.26638,   0.00358,278461578.48025,   0.00021,  -0.00048,   0.00013,  -8.21387,   1.00000
-96904645.29331,405789929.91074,72004233.22937,  -0.00102,   0.00156,   0.00107,478469158.38623,   0.00358,278469162.61384,   0.00021,  -0.00048,   0.00014,  -4.22761,   1.00000
-100001533.90663,403730232.10627,72037098.72236,  -0.00104,   0.00156,   0.00108,478476833.68411,   0.00359,278476840.02607,   0.00021,  -0.00047,   0.00014,  -6.34196,   1.00000
-103122828.65101,401641033.83853,72063040.37180,  -0.00105,   0.00156,   0.00108,478484527.15474,   0.00360,278484536.62261,   0.00020,  -0.00046,   0.00014,  -9.46787,   1.00000
-106210692.39898,399558513.38592,72087382.28278,  -0.00106,   0.00157,   0.00108,478492293.78623,   0.00361,278492297.32347,   0.00020,  -0.00046,   0.00014,  -3.53724,   1.00000
-109307870.05438,397454839.26200,72108528.20355,  -0.00108,   0.00157,   0.00108,478500178.84029,   0.00361,278500181.03806,   0.00019,  -0.00045,   0.00015,  -2.19777,   1.00000
-112407798.19484,395335588.19201,72123533.27099,  -0.00109,   0.00157,   0.00109,478508051.71631,   0.00362,278508055.92016,   0.00019,  -0.00045,   0.00015,  -4.20385,   1.00000
-115482001.04534,393222765.88384,72127787.72933,  -0.00111,   0.00157,   0.00109,478516082.61772,   0.00363,278516092.41424,   0.00019,  -0.00044,   0.00015,  -9.79652,   1.00000
-118557168.70461,391089910.05507,72138119.43210,  -0.00112,   0.00158,   0.00109,478524144.91728,   0.00364,278524152.71152,   0.00018,  -0.00044,   0.00016,  -7.79424,   1.00000
-121635915.49433,388943830.07075,72136245.54311,  -0.00113,   0.00158,   0.00110,478532184.39092,   0.00364,278532187.63189,   0.00018,  -0.00043,   0.00016,  -3.24097,   1.00000
-124707706.86925,386785971.23305,72134977.83546,  -0.00115,   0.00158,   0.00110,478540443.74423,   0.00365,278540449.09033,   0.00017,  -0.00042,   0.00016,  -5.34610,   1.00000
-127761042.18213,384627103.16537,72128519.32276,  -0.00116,   0.00158,   0.00110,478548661.93505,   0.00366,278548668.21653,   0.00017,  -0.00042,   0.00016,  -6.28148,   1.00000
-130823355.10421,382449870.57917,72112784.35457,  -0.00118,   0.00158,   0.00110,478556987.17832,   0.00367,278556996.78508,   0.00017,  -0.00041,   0.00017,  -9.60676,   1.00000
-133871629.21674,380264413.32315,72100892.02168,  -0.00119,   0.00159,   0.00111,478565428.73972,   0.00368,278565433.66009,   0.00016,  -0.00041,   0.00017,  -4.92037,   1.00000
-136902550.66205,378080393.33825,72077787.70271,  -0.00120,   0.00159,   0.00111,478573802.92724,   0.00368,278573809.91134,   0.00016,  -0.00040,   0.00017,  -6.98409,   1.00000
-139926344.53722,375887984.73991,72049310.37193,  -0.00122,   0.00159,   0.00111,478582385.80490,   0.00369,278582395.02013,   0.00015,  -0.00039,   0.00018,  -9.21523,   1.00000
-142951529.53263,373678090.28978,72020872.02741,  -0.00123,   0.00159,   0.00112,478590981.46628,   0.00370,278590988.36848,   0.00015,  -0.00039,   0.00018,  -6.90220,   1.00000
-145978051.88520,371450655.31094,71992450.48638,  -0.00125,   0.00159,   0.00112,478599585.01653,   0.00371,278599590.63393,   0.00014,  -0.00038,   0.00018,  -5.61740,   1.00000
-148978244.62088,369234560.40498,71947524.46669,  -0.00126,   0.00160,   0.00112,478608329.91176,   0.00372,278608330.78551,   0.00014,  -0.00037,   0.00018,  -0.87375,   1.00000
-151978671.00310,366998898.10230,71908756.62097,  -0.00127,   0.00160,   0.00112,478617091.50184,   0.00373,278617096.00162,   0.00013,  -0.00037,   0.00019,  -4.49977,   1.00000
-154966443.77401,364760462.87724,71861798.79526,  -0.00129,   0.00160,   0.00113,478625929.21205,   0.00374,278625933.66657,   0.00013,  -0.00036,   0.00019,  -4.45452,   1.00000
-157961736.98561,362504435.49698,71805616.08305,  -0.00130,   0.00160,   0.00113,478634877.44395,   0.00374,278634883.52917,   0.00012,  -0.00036,   0.00019,  -6.08522,   1.00000
-160922843.89362,360258789.66165,71748478.82664,  -0.00132,   0.00160,   0.00113,478643874.74105,   0.00375,278643881.37943,   0.00012,  -0.00035,   0.00020,  -6.63839,   1.00000
-163885087.06504,357995922.44288,71691444.65382,  -0.00133,   0.00161,   0.00113,478652885.58222,   0.00376,278652887.54653,   0.00011,  -0.00034,   0.00020,  -1.96430,   1.00000
-166834409.05541,355730831.82087,71626318.01314,  -0.00134,   0.00161,   0.00113,478661964.39536,   0.00377,278661964.54451,   0.00011,  -0.00034,   0.00020,  -0.14915,   1.00000
-169789550.06496,353446453.80009,71558098.32963,  -0.00136,   0.00161,   0.00114,478671166.55127,   0.00378,278671171.00987,   0.00010,  -0.00033,   0.00021,  -4.45860,   1.00000
-172711641.72535,351175315.90677,71482974.94664,  -0.00137,   0.00161,   0.00114,478680400.84698,   0.00379,278680404.85138,   0.00010,  -0.00032,   0.00021,  -4.00440,   1.00000
-175634729.76089,348887109.09785,71408000.90058,  -0.00139,   0.00161,   0.00114,478689642.76883,   0.00380,278689646.98941,   0.00009,  -0.00032,   0.00021,  -4.22057,   1.00000
-178549066.83966,346595361.11453,71321836.12540,  -0.00140,   0.00162,   0.00114,478699075.45166,   0.00381,278699079.41365,   0.00009,  -0.00031,   0.00022,  -3.96199,   1.00000
-181444565.45353,344301922.76412,71237022.55930,  -0.00141,   0.00162,   0.00115,478708467.92362,   0.00381,278708475.81161,   0.00008,  -0.00030,   0.00022,  -7.88799,   1.00000
-184342145.10553,341993509.26747,71146281.61002,  -0.00143,   0.00162,   0.00115,478717854.39287,   0.00382,278717864.23459,   0.00008,  -0.00030,   0.00022,  -9.84172,   1.00000
-187229230.65264,339680148.60819,71050529.09430,  -0.00144,   0.00162,   0.00115,478727452.85276,   0.00383,278727458.76726,   0.00007,  -0.00029,   0.00023,  -5.91450,   1.00000
-190082195.26763,337379136.92478,70954217.11186,  -0.00146,   0.00162,   0.00115,478737081.02872,   0.00384,278737090.76515,   0.00007,  -0.00028,   0.00023,  -9.73642,   1.00000
-192938449.84018,335065279.07525,70845928.27048,  -0.00147,   0.00162,   0.00115,478746695.93228,   0.00385,278746697.69480,   0.00006,  -0.00028,   0.00023,  -1.76253,   1.00000
-195778725.20795,332746678.99612,70742034.33084,  -0.00148,   0.00163,   0.00116,478756397.89128,   0.00386,278756403.66032,   0.00005,  -0.00027,   0.00024,  -5.76904,   1.00000
-198624589.54924,330411917.44228,70629082.45497,  -0.00150,   0.00163,   0.00116,478766222.81750,   0.00387,278766223.51719,   0.00005,  -0.00026,   0.00024,  -0.69969,   1.00000
-201453216.40604,328077845.08370,70511533.45050,  -0.00151,   0.00163,   0.00116,478775977.89300,   0.00388,278775987.34078,   0.00004,  -0.00026,   0.00024,  -9.44778,   1.00000
-204251357.04153,325755760.82296,70390454.75809,  -0.00153,   0.00163,   0.00116,478785899.05927,   0.00389,278785905.38672,   0.00004,  -0.00025,   0.00025,  -6.32745,   1.00000
-207051458.32415,323418985.59378,70263567.01923,  -0.00154,   0.00163,   0.00116,478795808.04804,   0.00390,278795814.75746,   0.00003,  -0.00024,   0.00025,  -6.70942,   1.00000
-209836539.50983,321080160.78427,70135112.15570,  -0.00156,   0.00163,   0.00116,478805800.58957,   0.00391,278805804.27719,   0.00003,  -0.00024,   0.00025,  -3.68762,   1.00000
-212587874.49086,318755093.47650,70006433.33775,  -0.00157,   0.00164,   0.00117,478815814.20111,   0.00392,278815822.24767,   0.00002,  -0.00023,   0.00026,  -8.04656,   1.00000
-215359876.98857,316399763.96922,69870650.97825,  -0.00158,   0.00164,   0.00117,478825881.82794,   0.00393,278825882.34799,   0.00001,  -0.00022,   0.00026,  -0.52005,   1.00000
-218102321.91438,314059469.38845,69725437.02906,  -0.00160,   0.00164,   0.00117,478836070.42128,   0.00394,278836076.00661,   0.00001,  -0.00022,   0.00026,  -5.58533,   1.00000
-220845294.58652,311702797.09306,69580600.65830,  -0.00161,   0.00164,   0.00117,478846273.73303,   0.00395,278846277.00772,   0.00000,  -0.00021,   0.00027,  -3.27469,   1.00000
-223556019.98539,309362298.12546,69429579.51802,  -0.00163,   0.00164,   0.00117,478856480.80796,   0.00396,278856486.52098,  -0.00000,  -0.00020,   0.00027,  -5.71302,   1.00000
-226251624.04655,307020647.66016,69277193.98075,  -0.00164,   0.00164,   0.00117,478866771.07504,   0.00397,278866772.02118,  -0.00001,  -0.00019,   0.00027,  -0.94613,   1.00000
-228951590.79829,304663994.40444,69115967.12107,  -0.00165,   0.00165,   0.00118,478877163.08740,   0.00398,278877171.16572,  -0.00002,  -0.00019,   0.00028,  -8.07832,   1.00000
-231618129.47889,302322255.25954,68954822.64635,  -0.00167,   0.00165,   0.00118,478887587.94746,   0.00399,278887591.23528,  -0.00002,  -0.00018,   0.00028,  -3.28781,   1.00000
-234286646.73334,299966073.63806,68788008.83751,  -0.00168,   0.00165,   0.00118,478897999.76331,   0.00400,278898001.63155,  -0.00003,  -0.00017,   0.00028,  -1.86824,   1.00000
-236939844.75756,297609250.04922,68619940.30243,  -0.00170,   0.00165,   0.00118,478908481.73216,   0.00401,278908486.35599,  -0.00004,  -0.00017,   0.00029,  -4.62383,   1.00000
-239579121.60501,295253643.79026,68444518.13516,  -0.00171,   0.00165,   0.00118,478919027.07938,   0.00402,278919028.85706,  -0.00004,  -0.00016,   0.00029,  -1.77768,   1.00000
-242185338.77223,292913531.33408,68269342.24002,  -0.00172,   0.00165,   0.00118,478929584.84686,   0.00403,278929587.63319,  -0.00005,  -0.00015,   0.00029,  -2.78632,   1.00000
-244795396.33552,290559064.30028,68085459.54933,  -0.00174,   0.00165,   0.00118,478940253.71074,   0.00404,278940259.21013,  -0.00006,  -0.00015,   0.00030,  -5.49939,   1.00000
-247388396.37035,288204450.49788,67903555.31676,  -0.00175,   0.00166,   0.00118,478950873.52975,   0.00405,278950879.22490,  -0.00006,  -0.00014,   0.00030,  -5.69515,   1.00000
-249951666.32973,285867551.98724,67712790.54228,  -0.00176,   0.00166,   0.00118,478961616.16362,   0.00406,278961619.57382,  -0.00007,  -0.00013,   0.00030,  -3.41020,   1.00000
-252517022.39200,283516363.23755,67516477.16518,  -0.00178,   0.00166,   0.00119,478972344.43306,   0.00407,278972349.15156,  -0.00008,  -0.00012,   0.00031,  -4.71850,   1.00000
-255067024.81691,281165465.10211,67319156.40573,  -0.00179,   0.00166,   0.00119,478983142.74871,   0.00408,278983148.40056,  -0.00008,  -0.00012,   0.00031,  -5.65185,   1.00000
-257601658.91907,278815009.86604,67120853.74342,  -0.00181,   0.00166,   0.00119,478994008.83437,   0.00409,278994016.65456,  -0.00009,  -0.00011,   0.00031,  -7.82019,   1.00000
-260105358.83257,276482612.87633,66916936.72238,  -0.00182,   0.00166,   0.00119,479004876.18648,   0.00410,279004877.70160,  -0.00010,  -0.00010,   0.00032,  -1.51511,   1.00000
-262612301.88298,274136574.03026,66704485.78321,  -0.00183,   0.00166,   0.00119,479015849.76755,   0.00411,279015850.69758,  -0.00010,  -0.00010,   0.00032,  -0.93003,   1.00000
-265102888.14792,271790675.15708,66494199.53707,  -0.00185,   0.00166,   0.00119,479026764.47016,   0.00412,279026767.55942,  -0.00011,  -0.00009,   0.00033,  -3.08926,   1.00000
-267563761.59662,269463886.45050,66275391.59110,  -0.00186,   0.00167,   0.00119,479037792.12661,   0.00413,279037797.37315,  -0.00012,  -0.00008,   0.00033,  -5.24653,   1.00000
-270008655.03698,267137328.99109,66058814.54338,  -0.00188,   0.00167,   0.00119,479048763.88845,   0.00414,279048768.86658,  -0.00013,  -0.00007,   0.00033,  -4.97813,   1.00000
-272456516.99392,264797498.76317,65833790.26909,  -0.00189,   0.00167,   0.00119,479059847.04313,   0.00415,279059851.79534,  -0.00013,  -0.00007,   0.00034,  -4.75221,   1.00000
-274874087.52224,262476325.93739,65603391.68610,  -0.00190,   0.00167,   0.00119,479070914.64539,   0.00417,279070921.43951,  -0.00014,  -0.00006,   0.00034,  -6.79412,   1.00000
-277276520.01941,260156537.17840,65372311.39677,  -0.00192,   0.00167,   0.00119,479082048.26723,   0.00418,279082054.14587,  -0.00015,  -0.00005,   0.00034,  -5.87864,   1.00000
-279663814.50332,257838268.14437,65140573.74723,  -0.00193,   0.00167,   0.00119,479093245.93525,   0.00419,279093249.27250,  -0.00015,  -0.00005,   0.00035,  -3.33725,   1.00000
-282038756.12854,255523187.32480,64898829.30709,  -0.00194,   0.00167,   0.00119,479104346.95433,   0.00420,279104353.33362,  -0.00016,  -0.00004,   0.00035,  -6.37929,   1.00000
-284397303.68258,253209743.62174,64659718.21676,  -0.00196,   0.00167,   0.00119,479115650.37964,   0.00421,279115656.56984,  -0.00017,  -0.00003,   0.00035,  -6.19020,   1.00000
-286743706.05153,250899493.59734,64410639.62956,  -0.00197,   0.00168,   0.00119,479126863.13813,   0.00422,279126867.80374,  -0.00018,  -0.00002,   0.00036,  -4.66560,   1.00000
-289075056.31780,248591130.28606,64161042.76990,  -0.00198,   0.00168,   0.00119,479138134.00475,   0.00423,279138139.17067,  -0.00018,  -0.00002,   0.00036,  -5.16592,   1.00000
-291359645.66159,246318213.55211,63911155.47907,  -0.00200,   0.00168,   0.00119,479149455.02640,   0.00424,279149461.46017,  -0.00019,  -0.00001,   0.00036,  -6.43377,   1.00000
-293646954.46307,244031201.01682,63655998.81410,  -0.00201,   0.00168,   0.00120,479160764.73640,   0.00425,279160769.58206,  -0.00020,  -0.00000,   0.00037,  -4.84566,   1.00000
-295920992.13970,241747730.23022,63394243.81559,  -0.00203,   0.00168,   0.00120,479172116.55574,   0.00426,279172120.66797,  -0.00021,   0.00000,   0.00037,  -4.11223,   1.00000
-298196063.82567,239448796.52423,63133424.67833,  -0.00204,   0.00168,   0.00120,479183467.14404,   0.00427,279183472.94015,  -0.00022,   0.00001,   0.00037,  -5.79611,   1.00000
-300441913.92753,237171390.51272,62864746.79613,  -0.00205,   0.00168,   0.00120,479194916.27718,   0.00429,279194923.34230,  -0.00022,   0.00002,   0.00038,  -7.06511,   1.00000
-302659170.70388,234913646.82841,62591153.81461,  -0.00207,   0.00168,   0.00120,479206346.18193,   0.00430,279206347.45618,  -0.00023,   0.00003,   0.00038,  -1.27425,   1.00000
-304862383.27751,232656326.46396,62320148.53415,  -0.00208,   0.00169,   0.00120,479217699.89399,   0.00431,279217703.61254,  -0.00024,   0.00003,   0.00038,  -3.71855,   1.00000
-307051995.94965,230405126.57093,62039865.40373,  -0.00209,   0.00169,   0.00119,479229213.69153,   0.00432,279229221.98678,  -0.00025,   0.00004,   0.00039,  -8.29525,   1.00000
-309227761.12177,228154386.24602,61762213.22851,  -0.00211,   0.00169,   0.00119,479240665.22917,   0.00433,279240671.35250,  -0.00025,   0.00005,   0.00039,  -6.12333,   1.00000
-311390615.78289,225907686.04842,61478172.09608,  -0.00212,   0.00169,   0.00119,479252155.56628,   0.00434,279252159.56022,  -0.00026,   0.00005,   0.00040,  -3.99394,   1.00000
-313538976.58720,223663891.81737,61193986.37546,  -0.00213,   0.00169,   0.00119,479263691.49742,   0.00435,279263700.18118,  -0.00027,   0.00006,   0.00040,  -8.68376,   1.00000
-315659663.91627,221440086.18483,60905063.48372,  -0.00215,   0.00169,   0.00119,479275201.37165,   0.00436,279275208.72100,  -0.00028,   0.00007,   0.00040,  -7.34935,   1.00000
-317767673.66176,219220511.65428,60609856.77279,  -0.00216,   0.00169,   0.00119,479286744.41899,   0.00438,279286754.02076,  -0.00029,   0.00008,   0.00041,  -9.60177,   1.00000
-319846814.41189,217019834.36373,60316213.85341,  -0.00217,   0.00169,   0.00119,479298271.27058,   0.00439,279298278.72879,  -0.00029,   0.00008,   0.00041,  -7.45822,   1.00000
-321928031.41242,214807766.02429,60014755.82004,  -0.00219,   0.00169,   0.00119,479309907.83641,   0.00440,279309909.53841,  -0.00030,   0.00009,   0.00041,  -1.70200,   1.00000
-323982184.72738,212615860.66666,59708707.87517,  -0.00220,   0.00170,   0.00119,479321500.31331,   0.00441,279321504.48344,  -0.00031,   0.00010,   0.00042,  -4.17014,   1.00000
-326023681.48873,210424289.26940,59405445.64855,  -0.00221,   0.00170,   0.00119,479333020.75526,   0.00442,279333025.71331,  -0.00032,   0.00010,   0.00042,  -4.95805,   1.00000
-328037164.96464,208255983.56097,59094938.85301,  -0.00223,   0.00170,   0.00119,479344629.79715,   0.00443,279344630.40228,  -0.00033,   0.00011,   0.00042,  -0.60513,   1.00000
-330054113.86534,206073373.93713,58779429.06727,  -0.00224,   0.00170,   0.00119,479356216.39419,   0.00444,279356218.93594,  -0.00033,   0.00012,   0.00043,  -2.54175,   1.00000
-332027445.03422,203928857.02619,58464609.22135,  -0.00225,   0.00170,   0.00119,479367825.31302,   0.00445,279367829.94024,  -0.00034,   0.00012,   0.00043,  -4.62722,   1.00000
-334002844.39445,201768944.26181,58151049.23855,  -0.00226,   0.00170,   0.00119,479379434.06935,   0.00447,279379437.33627,  -0.00035,   0.00013,   0.00043,  -3.26691,   1.00000
-335952161.71032,199633811.83362,57824178.69615,  -0.00228,   0.00170,   0.00119,479391104.78469,   0.00448,279391111.05599,  -0.00036,   0.00014,   0.00044,  -6.27130,   1.00000
-337889741.17392,197498877.77387,57500216.75473,  -0.00229,   0.00170,   0.00119,479402704.81735,   0.00449,279402707.53580,  -0.00037,   0.00015,   0.00044,  -2.71846,   1.00000
-339815463.53307,195368683.43915,57170294.67889,  -0.00230,   0.00170,   0.00119,479414329.39439,   0.00450,279414334.45236,  -0.00038,   0.00015,   0.00044,  -5.05797,   1.00000
-341727757.52259,193242286.99383,56840698.30117,  -0.00232,   0.00171,   0.00118,479426000.63728,   0.00451,279426004.29513,  -0.00038,   0.00016,   0.00045,  -3.65785,   1.00000
-343599190.05513,191155582.53605,56505807.16780,  -0.00233,   0.00171,   0.00118,479437672.91087,   0.00452,279437675.20114,  -0.00039,   0.00017,   0.00045,  -2.29027,   1.00000
-345461196.42037,189069891.95104,56167626.20577,  -0.00234,   0.00171,   0.00118,479449246.59010,   0.00453,279449253.65965,  -0.00040,   0.00017,   0.00045,  -7.06956,   1.00000
