# sigma_xx, sigma_yy, sigma_xy, epsilon_xx, epsilon_yy, epsilon_xy, vonMises, epsPlastic, hardening, epsilonP__xx, epsilonP__yy, epsilonP__xy, yieldValue, iteration
   0.00000,   0.00000,   0.00000,   0.00000,   0.00000,   0.00000,   0.00000,   0.00000,274640135.82653,   0.00000,   0.00000,   0.00000,-474640135.82653,   0.00000
   0.00000,   0.00000,   0.00000,   0.00000,   0.00000,   0.00000,   0.00000,   0.00000,274640135.82653,   0.00000,   0.00000,   0.00000,-474640135.82653,   0.00000
-2165432.62451,-2133292.62266,-413802.52379,  -0.00001,  -0.00001,  -0.00001,2265884.37670,   0.00000,274640135.82653,   0.00000,   0.00000,   0.00000,-472374251.44983,   0.00000
-4330865.24902,-4266585.24533,-831622.54782,  -0.00001,  -0.00001,  -0.00001,4533974.62234,   0.00000,274640135.82653,   0.00000,   0.00000,   0.00000,-470106161.20419,   0.00000
-6502324.12388,-6413939.11880,-1245425.07161,  -0.00002,  -0.00002,  -0.00002,6809300.53658,   0.00000,274640135.82653,   0.00000,   0.00000,   0.00000,-467830835.28995,   0.00000
-8653695.49759,-8541205.49112,-1663245.09564,  -0.00002,  -0.00002,  -0.00002,9067789.04963,   0.00000,274640135.82653,   0.00000,   0.00000,   0.00000,-465572346.77690,   0.00000
-10811093.12164,-10682533.11425,-2081065.11966,  -0.00003,  -0.00003,  -0.00003,11335734.82600,   0.00000,274640135.82653,   0.00000,   0.00000,   0.00000,-463304401.00053,   0.00000
-12954429.49488,-12817834.48703,-2494867.64345,  -0.00003,  -0.00003,  -0.00003,13591890.41342,   0.00000,274640135.82653,   0.00000,   0.00000,   0.00000,-461048245.41311,   0.00000
-15097765.86812,-14953135.85981,-2912687.66748,  -0.00004,  -0.00004,  -0.00004,15850271.61880,   0.00000,274640135.82653,   0.00000,   0.00000,   0.00000,-458789864.20773,   0.00000
-17247128.49171,-17102498.48339,-3326490.19127,  -0.00005,  -0.00004,  -0.00004,18115918.90271,   0.00000,274640135.82653,   0.00000,   0.00000,   0.00000,-456524216.92382,   0.00000
-19390464.86495,-19237799.85617,-3744310.21530,  -0.00005,  -0.00005,  -0.00005,20374316.32620,   0.00000,274640135.82653,   0.00000,   0.00000,   0.00000,-454265819.50033,   0.00000
-21525766.23773,-21381136.22942,-4162130.23932,  -0.00006,  -0.00006,  -0.00005,22632636.66916,   0.00000,274640135.82653,   0.00000,   0.00000,   0.00000,-452007499.15737,   0.00000
-23661067.61051,-23524472.60266,-4575932.76312,  -0.00006,  -0.00006,  -0.00006,24888758.04268,   0.00000,274640135.82653,   0.00000,   0.00000,   0.00000,-449751377.78385,   0.00000
-25796368.98329,-25667808.97590,-4993752.78714,  -0.00007,  -0.00007,  -0.00006,27147108.49626,   0.00000,274640135.82653,   0.00000,   0.00000,   0.00000,-447493027.33027,   0.00000
-27917609.10526,-27805119.09879,-5411572.81117,  -0.00007,  -0.00007,  -0.00007,29395925.92518,   0.00000,274640135.82653,   0.00000,   0.00000,   0.00000,-445244209.90135,   0.00000
-30044875.47758,-29956490.47250,-5829392.83519,  -0.00008,  -0.00008,  -0.00008,31654261.96236,   0.00000,274640135.82653,   0.00000,   0.00000,   0.00000,-442985873.86417,   0.00000
-32172141.84990,-32107861.84620,-6247212.85921,  -0.00008,  -0.00008,  -0.00008,33912620.41271,   0.00000,274640135.82653,   0.00000,   0.00000,   0.00000,-440727515.41382,   0.00000
-34293381.97187,-34245171.96910,-6665032.88324,  -0.00009,  -0.00009,  -0.00009,36161486.10382,   0.00000,274640135.82653,   0.00000,   0.00000,   0.00000,-438478649.72271,   0.00000
-36412613.34373,-36404578.34326,-7082852.90726,  -0.00009,  -0.00009,  -0.00009,38419868.76128,   0.00000,274640135.82653,   0.00000,   0.00000,   0.00000,-436220267.06525,   0.00000
-38525818.46523,-38549923.46662,-7500672.93129,  -0.00010,  -0.00010,  -0.00010,40668762.18477,   0.00000,274640135.82653,   0.00000,   0.00000,   0.00000,-433971373.64176,   0.00000
-40639023.58674,-40695268.58998,-7918492.95531,  -0.00011,  -0.00011,  -0.00010,42917673.93100,   0.00000,274640135.82653,   0.00000,   0.00000,   0.00000,-431722461.89553,   0.00000
-42744193.70779,-42848648.71380,-8336312.97934,  -0.00011,  -0.00011,  -0.00011,45166626.99224,   0.00000,274640135.82653,   0.00000,   0.00000,   0.00000,-429473508.83429,   0.00000
-44863425.07965,-45008055.08796,-8754133.00336,  -0.00012,  -0.00012,  -0.00011,47425108.95275,   0.00000,274640135.82653,   0.00000,   0.00000,   0.00000,-427215026.87378,   0.00000
-46968595.20069,-47161435.21178,-9175970.52762,  -0.00012,  -0.00012,  -0.00012,49676340.97019,   0.00000,274640135.82653,   0.00000,   0.00000,   0.00000,-424963794.85633,   0.00000
-49065730.32128,-49322850.33606,-9593790.55164,  -0.00013,  -0.00013,  -0.00012,51925429.56408,   0.00000,274640135.82653,   0.00000,   0.00000,   0.00000,-422714706.26245,   0.00000
-51170900.44233,-51476230.45988,-10015628.07590,  -0.00013,  -0.00013,  -0.00013,54176717.39495,   0.00000,274640135.82653,   0.00000,   0.00000,   0.00000,-420463418.43157,   0.00000
-53268035.56291,-53637645.58416,-10433448.09992,  -0.00014,  -0.00014,  -0.00014,56425872.98232,   0.00000,274640135.82653,   0.00000,   0.00000,   0.00000,-418214262.84421,   0.00000
-55365170.68350,-55799060.70845,-10855285.62418,  -0.00014,  -0.00015,  -0.00014,58677290.82535,   0.00000,274640135.82653,   0.00000,   0.00000,   0.00000,-415962845.00118,   0.00000
-57462305.80408,-57960475.83273,-11277123.14843,  -0.00015,  -0.00015,  -0.00015,60928739.35790,   0.00000,274640135.82653,   0.00000,   0.00000,   0.00000,-413711396.46863,   0.00000
-59545379.67386,-60115864.70666,-11698960.67269,  -0.00015,  -0.00016,  -0.00015,63170756.55726,   0.00000,274640135.82653,   0.00000,   0.00000,   0.00000,-411469379.26927,   0.00000
-61648541.04479,-62291341.08175,-12120798.19695,  -0.00016,  -0.00016,  -0.00016,65431832.74290,   0.00000,274640135.82653,   0.00000,   0.00000,   0.00000,-409208303.08363,   0.00000
-63737641.16491,-64460791.20650,-12542635.72120,  -0.00016,  -0.00017,  -0.00016,67683490.28835,   0.00000,274640135.82653,   0.00000,   0.00000,   0.00000,-406956645.53818,   0.00000
-65812680.03423,-66624215.08089,-12964473.24546,  -0.00017,  -0.00017,  -0.00017,69925742.31554,   0.00000,274640135.82653,   0.00000,   0.00000,   0.00000,-404714393.51099,   0.00000
-67901780.15435,-68793665.20564,-13386310.76971,  -0.00017,  -0.00018,  -0.00017,72177473.89470,   0.00000,274640135.82653,   0.00000,   0.00000,   0.00000,-402462661.93183,   0.00000
-69976819.02367,-70957089.08003,-13808148.29397,  -0.00018,  -0.00019,  -0.00018,74419803.73736,   0.00000,274640135.82653,   0.00000,   0.00000,   0.00000,-400220332.08917,   0.00000
-72071945.39414,-73140600.45558,-14234003.31846,  -0.00019,  -0.00019,  -0.00019,76683426.74385,   0.00000,274640135.82653,   0.00000,   0.00000,   0.00000,-397956709.08268,   0.00000
-74153010.51380,-75318085.58079,-14655840.84271,  -0.00019,  -0.00020,  -0.00019,78935424.26746,   0.00000,274640135.82653,   0.00000,   0.00000,   0.00000,-395704711.55907,   0.00000
-76234075.63346,-77495570.70600,-15081695.86720,  -0.00020,  -0.00020,  -0.00020,81189698.97080,   0.00000,274640135.82653,   0.00000,   0.00000,   0.00000,-393450436.85573,   0.00000
-78301079.50231,-79667029.58085,-15507550.89168,  -0.00020,  -0.00021,  -0.00020,83434600.97894,   0.00000,274640135.82653,   0.00000,   0.00000,   0.00000,-391205534.84759,   0.00000
-80382144.62197,-81844514.70606,-15933405.91617,  -0.00021,  -0.00022,  -0.00021,85688951.54073,   0.00000,274640135.82653,   0.00000,   0.00000,   0.00000,-388951184.28580,   0.00000
-82455174.74117,-84030034.83173,-16359260.94066,  -0.00021,  -0.00022,  -0.00021,87943548.06031,   0.00000,274640135.82653,   0.00000,   0.00000,   0.00000,-386696587.76622,   0.00000
-84528204.86037,-86215554.95739,-16785115.96514,  -0.00022,  -0.00023,  -0.00022,90198190.64609,   0.00000,274640135.82653,   0.00000,   0.00000,   0.00000,-384441945.18043,   0.00000
-86601234.97957,-88401075.08306,-17210970.98963,  -0.00022,  -0.00023,  -0.00022,92452875.92785,   0.00000,274640135.82653,   0.00000,   0.00000,   0.00000,-382187259.89868,   0.00000
-88660203.84796,-90580568.95838,-17640843.51435,  -0.00023,  -0.00024,  -0.00023,94700462.46120,   0.00000,274640135.82653,   0.00000,   0.00000,   0.00000,-379939673.36533,   0.00000
-90739260.21751,-92780150.33486,-18066698.53884,  -0.00023,  -0.00025,  -0.00023,96964860.77443,   0.00000,274640135.82653,   0.00000,   0.00000,   0.00000,-377675275.05210,   0.00000
-92798229.08590,-94959644.21018,-18496571.06355,  -0.00024,  -0.00025,  -0.00024,99212539.30829,   0.00000,274640135.82653,   0.00000,   0.00000,   0.00000,-375427596.51824,   0.00000
-94863224.20464,-97153199.33631,-18926443.58827,  -0.00024,  -0.00026,  -0.00025,101469899.56456,   0.00000,274640135.82653,   0.00000,   0.00000,   0.00000,-373170236.26197,   0.00000
-96928219.32337,-99346754.46244,-19356316.11299,  -0.00025,  -0.00026,  -0.00025,103727307.10000,   0.00000,274640135.82653,   0.00000,   0.00000,   0.00000,-370912828.72653,   0.00000
-98999240.69246,-101554370.83938,-19786188.63771,  -0.00025,  -0.00027,  -0.00026,105994405.86459,   0.00000,274640135.82653,   0.00000,   0.00000,   0.00000,-368645729.96194,   0.00000
-101064235.81119,-103747925.96551,-20216061.16242,  -0.00026,  -0.00027,  -0.00026,108251902.68218,   0.00000,274640135.82653,   0.00000,   0.00000,   0.00000,-366388233.14435,   0.00000
-103121195.92947,-105949516.09210,-20649951.18737,  -0.00026,  -0.00028,  -0.00027,110511997.78590,   0.00000,274640135.82653,   0.00000,   0.00000,   0.00000,-364128138.04063,   0.00000
-105192217.29855,-108157132.46904,-21079823.71209,  -0.00027,  -0.00029,  -0.00027,112779236.59184,   0.00000,274640135.82653,   0.00000,   0.00000,   0.00000,-361860899.23469,   0.00000
-107249177.41683,-110358722.59563,-21513713.73704,  -0.00027,  -0.00029,  -0.00028,115039432.92041,   0.00000,274640135.82653,   0.00000,   0.00000,   0.00000,-359600702.90612,   0.00000
-109306137.53510,-112560312.72222,-21947603.76199,  -0.00028,  -0.00030,  -0.00029,117299678.65360,   0.00000,274640135.82653,   0.00000,   0.00000,   0.00000,-357340457.17293,   0.00000
-111369123.90372,-114775964.09962,-22381493.78694,  -0.00028,  -0.00031,  -0.00029,119569640.45904,   0.00000,274640135.82653,   0.00000,   0.00000,   0.00000,-355070495.36749,   0.00000
-113432110.27235,-116991615.47702,-22815383.81188,  -0.00029,  -0.00031,  -0.00030,121839653.31731,   0.00000,274640135.82653,   0.00000,   0.00000,   0.00000,-352800482.50922,   0.00000
-115481035.39016,-119201240.60407,-23249273.83683,  -0.00029,  -0.00032,  -0.00030,124100398.11944,   0.00000,274640135.82653,   0.00000,   0.00000,   0.00000,-350539737.70709,   0.00000
-117544021.75878,-121416891.98147,-23687181.36201,  -0.00030,  -0.00032,  -0.00031,126372768.42479,   0.00000,274640135.82653,   0.00000,   0.00000,   0.00000,-348267367.40174,   0.00000
-119592946.87659,-123626517.10852,-24125088.88719,  -0.00030,  -0.00033,  -0.00031,128635877.27908,   0.00000,274640135.82653,   0.00000,   0.00000,   0.00000,-346004258.54745,   0.00000
-121647898.24475,-125850203.48639,-24558978.91214,  -0.00031,  -0.00034,  -0.00032,130906464.51860,   0.00000,274640135.82653,   0.00000,   0.00000,   0.00000,-343733671.30793,   0.00000
-123710884.61338,-128065854.86379,-24996886.43732,  -0.00031,  -0.00034,  -0.00032,133178973.39494,   0.00000,274640135.82653,   0.00000,   0.00000,   0.00000,-341461162.43159,   0.00000
-125765835.98154,-130289541.24165,-25434793.96250,  -0.00032,  -0.00035,  -0.00033,135451922.15296,   0.00000,274640135.82653,   0.00000,   0.00000,   0.00000,-339188213.67357,   0.00000
-127806726.09889,-132507201.36916,-25876718.98791,  -0.00032,  -0.00035,  -0.00034,137717899.40318,   0.00000,274640135.82653,   0.00000,   0.00000,   0.00000,-336922236.42335,   0.00000
-129867703.71739,-134744948.99783,-26314626.51309,  -0.00033,  -0.00036,  -0.00034,140000654.78762,   0.00000,274640135.82653,   0.00000,   0.00000,   0.00000,-334639481.03891,   0.00000
-131922655.08555,-136968635.37570,-26756551.53850,  -0.00033,  -0.00037,  -0.00035,142276024.36810,   0.00000,274640135.82653,   0.00000,   0.00000,   0.00000,-332364111.45843,   0.00000
-133969571.45325,-139200356.75402,-27198476.56391,  -0.00034,  -0.00037,  -0.00035,144551875.24737,   0.00000,274640135.82653,   0.00000,   0.00000,   0.00000,-330088260.57916,   0.00000
-136030549.07176,-141438104.38269,-27640401.58932,  -0.00034,  -0.00038,  -0.00036,146837052.72629,   0.00000,274640135.82653,   0.00000,   0.00000,   0.00000,-327803083.10024,   0.00000
-138077465.43945,-143669825.76101,-28082326.61473,  -0.00035,  -0.00038,  -0.00037,149113014.52075,   0.00000,274640135.82653,   0.00000,   0.00000,   0.00000,-325527121.30578,   0.00000
-140130408.05750,-145915608.39015,-28524251.64014,  -0.00035,  -0.00039,  -0.00037,151398748.61917,   0.00000,274640135.82653,   0.00000,   0.00000,   0.00000,-323241387.20736,   0.00000
-142177324.42520,-148147329.76847,-28970194.16579,  -0.00036,  -0.00040,  -0.00038,153677091.26941,   0.00000,274640135.82653,   0.00000,   0.00000,   0.00000,-320963044.55712,   0.00000
-144230267.04324,-150393112.39760,-29412119.19120,  -0.00036,  -0.00040,  -0.00038,155962936.91574,   0.00000,274640135.82653,   0.00000,   0.00000,   0.00000,-318677198.91079,   0.00000
-146283209.66128,-152638895.02674,-29858061.71684,  -0.00037,  -0.00041,  -0.00039,158251109.84946,   0.00000,274640135.82653,   0.00000,   0.00000,   0.00000,-316389025.97707,   0.00000
-148336152.27933,-154884677.65587,-30304004.24248,  -0.00037,  -0.00042,  -0.00039,160539335.78562,   0.00000,274640135.82653,   0.00000,   0.00000,   0.00000,-314100800.04091,   0.00000
-150389094.89737,-157130460.28500,-30753964.26835,  -0.00038,  -0.00042,  -0.00040,162829888.73366,   0.00000,274640135.82653,   0.00000,   0.00000,   0.00000,-311810247.09287,   0.00000
-152448063.76576,-159390304.16494,-31199906.79399,  -0.00038,  -0.00043,  -0.00041,165127951.92397,   0.00000,274640135.82653,   0.00000,   0.00000,   0.00000,-309512183.90256,   0.00000
-154486945.13300,-161630060.54373,-31649866.81987,  -0.00039,  -0.00043,  -0.00041,167409380.26879,   0.00000,274640135.82653,   0.00000,   0.00000,   0.00000,-307230755.55774,   0.00000
-156531852.75058,-163883878.17332,-32099826.84574,  -0.00039,  -0.00044,  -0.00042,169700606.99602,   0.00000,274640135.82653,   0.00000,   0.00000,   0.00000,-304939528.83051,   0.00000
-158590821.61897,-166143722.05326,-32549786.87161,  -0.00040,  -0.00045,  -0.00042,172001109.20687,   0.00000,274640135.82653,   0.00000,   0.00000,   0.00000,-302639026.61966,   0.00000
-160635729.23655,-168397539.68286,-32999746.89749,  -0.00040,  -0.00045,  -0.00043,174292447.27152,   0.00000,274640135.82653,   0.00000,   0.00000,   0.00000,-300347688.55501,   0.00000
-162686663.10448,-170665418.56326,-33449706.92336,  -0.00041,  -0.00046,  -0.00043,176593591.81984,   0.00000,274640135.82653,   0.00000,   0.00000,   0.00000,-298046544.00669,   0.00000
-164731570.72207,-172919236.19286,-33903684.44946,  -0.00041,  -0.00047,  -0.00044,178887324.06103,   0.00000,274640135.82653,   0.00000,   0.00000,   0.00000,-295752811.76550,   0.00000
-166796565.84080,-175193141.32361,-34357661.97557,  -0.00042,  -0.00047,  -0.00045,181200065.17869,   0.00000,274640135.82653,   0.00000,   0.00000,   0.00000,-293440070.64784,   0.00000
-168847499.70873,-177461020.20401,-34811639.50167,  -0.00042,  -0.00048,  -0.00045,183503659.43739,   0.00000,274640135.82653,   0.00000,   0.00000,   0.00000,-291136476.38914,   0.00000
-170884372.32585,-179722872.83407,-35265617.02777,  -0.00043,  -0.00048,  -0.00046,185798117.96983,   0.00000,274640135.82653,   0.00000,   0.00000,   0.00000,-288842017.85670,   0.00000
-172935306.19378,-181990751.71447,-35719594.55388,  -0.00043,  -0.00049,  -0.00046,188101822.88068,   0.00000,274640135.82653,   0.00000,   0.00000,   0.00000,-286538312.94585,   0.00000
-174992266.31206,-184272691.84568,-36177589.58021,  -0.00044,  -0.00050,  -0.00047,190417636.33415,   0.00000,274640135.82653,   0.00000,   0.00000,   0.00000,-284222499.49237,   0.00000
-177049226.43033,-186554631.97689,-36635584.60655,  -0.00044,  -0.00050,  -0.00048,192733505.62759,   0.00000,274640135.82653,   0.00000,   0.00000,   0.00000,-281906630.19894,   0.00000
-179086099.04745,-188816484.60695,-37093579.63288,  -0.00045,  -0.00051,  -0.00048,195030482.27698,   0.00000,274640135.82653,   0.00000,   0.00000,   0.00000,-279609653.54955,   0.00000
-181143059.16573,-191098424.73816,-37551574.65922,  -0.00045,  -0.00052,  -0.00049,197346458.90074,   0.00000,274640135.82653,   0.00000,   0.00000,   0.00000,-277293676.92579,   0.00000
-183185958.03319,-193374338.61902,-38009569.68555,  -0.00046,  -0.00052,  -0.00049,199653321.38726,   0.00000,274640135.82653,   0.00000,   0.00000,   0.00000,-274986814.43927,   0.00000
-185248944.40181,-195670340.00104,-38471582.21212,  -0.00046,  -0.00053,  -0.00050,201981477.70497,   0.00000,274640135.82653,   0.00000,   0.00000,   0.00000,-272658658.12156,   0.00000
-187291843.26928,-197946253.88191,-38933594.73868,  -0.00047,  -0.00054,  -0.00051,204290747.76191,   0.00000,274640135.82653,   0.00000,   0.00000,   0.00000,-270349388.06462,   0.00000
-189354829.63790,-200242255.26393,-39391589.76502,  -0.00047,  -0.00054,  -0.00051,206616713.26691,   0.00000,274640135.82653,   0.00000,   0.00000,   0.00000,-268023422.55962,   0.00000
-191397728.50537,-202518169.14479,-39857619.79181,  -0.00048,  -0.00055,  -0.00052,208928388.02279,   0.00000,274640135.82653,   0.00000,   0.00000,   0.00000,-265711747.80374,   0.00000
-193446653.62318,-204808144.27647,-40319632.31838,  -0.00048,  -0.00055,  -0.00052,211247607.95282,   0.00000,274640135.82653,   0.00000,   0.00000,   0.00000,-263392527.87371,   0.00000
-195495578.74100,-207098119.40814,-40785662.34518,  -0.00049,  -0.00056,  -0.00053,213569184.15025,   0.00000,274640135.82653,   0.00000,   0.00000,   0.00000,-261070951.67628,   0.00000
-197550530.10916,-209402155.79062,-41247674.87174,  -0.00049,  -0.00057,  -0.00054,215898309.30488,   0.00000,274640135.82653,   0.00000,   0.00000,   0.00000,-258741826.52165,   0.00000
-199599455.22697,-211692130.92230,-41713704.89854,  -0.00050,  -0.00057,  -0.00054,218219995.28569,   0.00000,274640135.82653,   0.00000,   0.00000,   0.00000,-256420140.54084,   0.00000
-201648380.34478,-213982106.05397,-42183752.42557,  -0.00050,  -0.00058,  -0.00055,220544038.24298,   0.00000,274640135.82653,   0.00000,   0.00000,   0.00000,-254096097.58355,   0.00000
-203703331.71294,-216286142.43645,-42649782.45236,  -0.00051,  -0.00059,  -0.00055,222875630.72945,   0.00000,274640135.82653,   0.00000,   0.00000,   0.00000,-251764505.09708,   0.00000
-205758283.08110,-218590178.81894,-43119829.97939,  -0.00051,  -0.00059,  -0.00056,225209583.83860,   0.00000,274640135.82653,   0.00000,   0.00000,   0.00000,-249430551.98793,   0.00000
-207813234.44926,-220894215.20142,-43585860.00619,  -0.00051,  -0.00060,  -0.00057,227541281.89630,   0.00000,274640135.82653,   0.00000,   0.00000,   0.00000,-247098853.93023,   0.00000
-209868185.81742,-223198251.58390,-44055907.53321,  -0.00052,  -0.00061,  -0.00057,229875339.60083,   0.00000,274640135.82653,   0.00000,   0.00000,   0.00000,-244764796.22570,   0.00000
-211923137.18558,-225502287.96638,-44529972.56047,  -0.00052,  -0.00061,  -0.00058,232211758.98950,   0.00000,274640135.82653,   0.00000,   0.00000,   0.00000,-242428376.83703,   0.00000
-213964027.30293,-227800298.09852,-45000020.08750,  -0.00053,  -0.00062,  -0.00059,234536813.77371,   0.00000,274640135.82653,   0.00000,   0.00000,   0.00000,-240103322.05282,   0.00000
-216025004.92144,-230118395.73181,-45474085.11476,  -0.00053,  -0.00063,  -0.00059,236883153.65615,   0.00000,274640135.82653,   0.00000,   0.00000,   0.00000,-237756982.17038,   0.00000
-218079956.28960,-232422432.11429,-45944132.64179,  -0.00054,  -0.00063,  -0.00060,239217412.45488,   0.00000,274640135.82653,   0.00000,   0.00000,   0.00000,-235422723.37165,   0.00000
-220126872.65730,-234734503.49723,-46418197.66905,  -0.00054,  -0.00064,  -0.00060,241554760.38135,   0.00000,274640135.82653,   0.00000,   0.00000,   0.00000,-233085375.44518,   0.00000
-222181824.02545,-237038539.87972,-46896280.19654,  -0.00055,  -0.00065,  -0.00061,243893748.27903,   0.00000,274640135.82653,   0.00000,   0.00000,   0.00000,-230746387.54750,   0.00000
-224228740.39315,-239350611.26266,-47370345.22379,  -0.00055,  -0.00065,  -0.00062,246231204.10341,   0.00000,274640135.82653,   0.00000,   0.00000,   0.00000,-228408931.72312,   0.00000
-226289718.01166,-241668708.89595,-47848427.75128,  -0.00056,  -0.00066,  -0.00062,248580114.77939,   0.00000,274640135.82653,   0.00000,   0.00000,   0.00000,-226060021.04714,   0.00000
-228342660.62970,-243994841.52970,-48322492.77854,  -0.00056,  -0.00066,  -0.00063,250927503.44818,   0.00000,274640135.82653,   0.00000,   0.00000,   0.00000,-223712632.37834,   0.00000
-230403638.24821,-246312939.16299,-48804592.80626,  -0.00057,  -0.00067,  -0.00063,253278834.53482,   0.00000,274640135.82653,   0.00000,   0.00000,   0.00000,-221361301.29171,   0.00000
-232450554.61591,-248625010.54594,-49282675.33375,  -0.00057,  -0.00068,  -0.00064,255618819.49805,   0.00000,274640135.82653,   0.00000,   0.00000,   0.00000,-219021316.32848,   0.00000
-234497470.98360,-250937081.92888,-49760757.86124,  -0.00058,  -0.00068,  -0.00065,257958855.17876,   0.00000,274640135.82653,   0.00000,   0.00000,   0.00000,-216681280.64777,   0.00000
-236564474.85246,-253269240.81298,-50242857.88896,  -0.00058,  -0.00069,  -0.00065,260320165.29949,   0.00000,274640135.82653,   0.00000,   0.00000,   0.00000,-214319970.52704,   0.00000
-238617417.47050,-255595373.44673,-50724957.91669,  -0.00059,  -0.00070,  -0.00066,262672463.31762,   0.00000,274640135.82653,   0.00000,   0.00000,   0.00000,-211967672.50891,   0.00000
-240664333.83820,-257907444.82968,-51207057.94441,  -0.00059,  -0.00070,  -0.00067,265014974.34763,   0.00000,274640135.82653,   0.00000,   0.00000,   0.00000,-209625161.47890,   0.00000
-242717276.45624,-260233577.46343,-51689157.97213,  -0.00060,  -0.00071,  -0.00067,267367374.82529,   0.00000,274640135.82653,   0.00000,   0.00000,   0.00000,-207272761.00124,   0.00000
-244770219.07429,-262559710.09718,-52171257.99985,  -0.00060,  -0.00072,  -0.00068,269719825.43981,   0.00000,274640135.82653,   0.00000,   0.00000,   0.00000,-204920310.38672,   0.00000
-246823161.69233,-264885842.73094,-52657375.52780,  -0.00061,  -0.00072,  -0.00068,272074657.45474,   0.00000,274640135.82653,   0.00000,   0.00000,   0.00000,-202565478.37178,   0.00000
-248876104.31038,-267211975.36469,-53143493.05575,  -0.00061,  -0.00073,  -0.00069,274429539.56100,   0.00000,274640135.82653,   0.00000,   0.00000,   0.00000,-200210596.26553,   0.00000
-250929046.92842,-269538107.99844,-53625593.08347,  -0.00062,  -0.00074,  -0.00070,276782135.27160,   0.00000,274640135.82653,   0.00000,   0.00000,   0.00000,-197858000.55493,   0.00000
-252981989.54646,-271864240.63219,-54115728.11165,  -0.00062,  -0.00074,  -0.00070,279139448.97649,   0.00000,274640135.82653,   0.00000,   0.00000,   0.00000,-195500686.85004,   0.00000
-255040958.41486,-274204434.51676,-54601845.63961,  -0.00063,  -0.00075,  -0.00071,281504325.43536,   0.00000,274640135.82653,   0.00000,   0.00000,   0.00000,-193135810.39117,   0.00000
-257093901.03290,-276530567.15051,-55091980.66779,  -0.00063,  -0.00076,  -0.00072,283861736.15870,   0.00000,274640135.82653,   0.00000,   0.00000,   0.00000,-190778399.66783,   0.00000
-259146843.65094,-278856699.78426,-55578098.19574,  -0.00064,  -0.00076,  -0.00072,286216853.11311,   0.00000,274640135.82653,   0.00000,   0.00000,   0.00000,-188423282.71342,   0.00000
-261205812.51933,-281196893.66882,-56068233.22392,  -0.00064,  -0.00077,  -0.00073,288584210.83760,   0.00000,274640135.82653,   0.00000,   0.00000,   0.00000,-186055924.98893,   0.00000
-263244693.88657,-283517000.05223,-56558368.25211,  -0.00064,  -0.00078,  -0.00074,290932740.24366,   0.00000,274640135.82653,   0.00000,   0.00000,   0.00000,-183707395.58287,   0.00000
-265303662.75496,-285857193.93679,-57052520.78052,  -0.00065,  -0.00078,  -0.00074,293302537.66813,   0.00000,274640135.82653,   0.00000,   0.00000,   0.00000,-181337598.15840,   0.00000
-267356605.37300,-288183326.57054,-57542655.80870,  -0.00065,  -0.00079,  -0.00075,295660176.46176,   0.00000,274640135.82653,   0.00000,   0.00000,   0.00000,-178979959.36477,   0.00000
-269401512.99059,-290517494.20476,-58036808.33712,  -0.00066,  -0.00080,  -0.00075,298021057.17132,   0.00000,274640135.82653,   0.00000,   0.00000,   0.00000,-176619078.65521,   0.00000
-271454455.60863,-292843626.83851,-58526943.36530,  -0.00066,  -0.00080,  -0.00076,300378782.95056,   0.00000,274640135.82653,   0.00000,   0.00000,   0.00000,-174261352.87597,   0.00000
-273499363.22621,-295177794.47272,-59021095.89371,  -0.00067,  -0.00081,  -0.00077,302739760.33815,   0.00000,274640135.82653,   0.00000,   0.00000,   0.00000,-171900375.48838,   0.00000
-275558332.09460,-297517988.35728,-59519265.92236,  -0.00067,  -0.00082,  -0.00077,305112137.07563,   0.00000,274640135.82653,   0.00000,   0.00000,   0.00000,-169527998.75090,   0.00000
-277603239.71219,-299852155.99150,-60013418.45077,  -0.00068,  -0.00082,  -0.00078,307473210.85904,   0.00000,274640135.82653,   0.00000,   0.00000,   0.00000,-167166924.96749,   0.00000
-279656182.33023,-302178288.62525,-60507570.97919,  -0.00068,  -0.00083,  -0.00079,309833455.72967,   0.00000,274640135.82653,   0.00000,   0.00000,   0.00000,-164806680.09686,   0.00000
-281701089.94781,-304512456.25947,-61005741.00783,  -0.00069,  -0.00084,  -0.00079,312196973.99514,   0.00000,274640135.82653,   0.00000,   0.00000,   0.00000,-162443161.83138,   0.00000
-283745997.56539,-306846623.89368,-61503911.03647,  -0.00069,  -0.00084,  -0.00080,314560540.35971,   0.00000,274640135.82653,   0.00000,   0.00000,   0.00000,-160079595.46682,   0.00000
-285790905.18298,-309180791.52790,-62002081.06512,  -0.00070,  -0.00085,  -0.00081,316924153.74722,   0.00000,274640135.82653,   0.00000,   0.00000,   0.00000,-157715982.07931,   0.00000
-287849874.05137,-311520985.41246,-62500251.09376,  -0.00070,  -0.00086,  -0.00081,319296793.10753,   0.00000,274640135.82653,   0.00000,   0.00000,   0.00000,-155343342.71900,   0.00000
-289888755.41860,-313841091.79586,-63002438.62264,  -0.00071,  -0.00086,  -0.00082,321652980.29872,   0.00000,274640135.82653,   0.00000,   0.00000,   0.00000,-152987155.52781,   0.00000
-291933663.03619,-316175259.43008,-63500608.65128,  -0.00071,  -0.00087,  -0.00083,324016725.70998,   0.00000,274640135.82653,   0.00000,   0.00000,   0.00000,-150623410.11655,   0.00000
-293978570.65377,-318509427.06429,-64002796.18016,  -0.00072,  -0.00088,  -0.00083,326382877.58549,   0.00000,274640135.82653,   0.00000,   0.00000,   0.00000,-148257258.24104,   0.00000
-296023478.27135,-320843594.69851,-64504983.70904,  -0.00072,  -0.00088,  -0.00084,328749074.26957,   0.00000,274640135.82653,   0.00000,   0.00000,   0.00000,-145891061.55695,   0.00000
-298068385.88893,-323177762.33272,-65003153.73768,  -0.00073,  -0.00089,  -0.00085,331112948.62424,   0.00000,274640135.82653,   0.00000,   0.00000,   0.00000,-143527187.20229,   0.00000
-300093206.00536,-325491842.46578,-65509358.76679,  -0.00073,  -0.00090,  -0.00085,333462755.83085,   0.00000,274640135.82653,   0.00000,   0.00000,   0.00000,-141177379.99568,   0.00000
-302138113.62294,-327826010.10000,-66011546.29566,  -0.00074,  -0.00090,  -0.00086,335829083.08632,   0.00000,274640135.82653,   0.00000,   0.00000,   0.00000,-138811052.74021,   0.00000
-304183021.24052,-330160177.73421,-66513733.82454,  -0.00074,  -0.00091,  -0.00086,338195451.44464,   0.00000,274640135.82653,   0.00000,   0.00000,   0.00000,-136444684.38189,   0.00000
-306221902.60776,-332480284.11762,-67019938.85365,  -0.00074,  -0.00092,  -0.00087,340554348.66321,   0.00000,274640135.82653,   0.00000,   0.00000,   0.00000,-134085787.16332,   0.00000
-308252748.97453,-334808425.50148,-67526143.88275,  -0.00075,  -0.00092,  -0.00088,342914219.33115,   0.00000,274640135.82653,   0.00000,   0.00000,   0.00000,-131725916.49538,   0.00000
-310297656.59212,-337142593.13570,-68032348.91186,  -0.00075,  -0.00093,  -0.00088,345283084.87504,   0.00000,274640135.82653,   0.00000,   0.00000,   0.00000,-129357050.95149,   0.00000
-312322476.70854,-339456673.26876,-68534536.44074,  -0.00076,  -0.00094,  -0.00089,347630783.45991,   0.00000,274640135.82653,   0.00000,   0.00000,   0.00000,-127009352.36662,   0.00000
-314367384.32612,-341790840.90297,-69044758.97007,  -0.00076,  -0.00094,  -0.00090,350002106.90169,   0.00000,274640135.82653,   0.00000,   0.00000,   0.00000,-124638028.92484,   0.00000
-316392204.44255,-344104921.03603,-69550963.99918,  -0.00077,  -0.00095,  -0.00090,352352265.44860,   0.00000,274640135.82653,   0.00000,   0.00000,   0.00000,-122287870.37793,   0.00000
-318423050.80933,-346433062.41990,-70057169.02829,  -0.00077,  -0.00096,  -0.00091,354712354.14651,   0.00000,274640135.82653,   0.00000,   0.00000,   0.00000,-119927781.68002,   0.00000
-320447870.92575,-348747142.55296,-70567391.55763,  -0.00078,  -0.00096,  -0.00092,357064977.77143,   0.00000,274640135.82653,   0.00000,   0.00000,   0.00000,-117575158.05510,   0.00000
-322472691.04218,-351061222.68602,-71073596.58673,  -0.00078,  -0.00097,  -0.00092,359415260.85712,   0.00000,274640135.82653,   0.00000,   0.00000,   0.00000,-115224874.96941,   0.00000
-324497511.15861,-353375302.81908,-71583819.11607,  -0.00079,  -0.00098,  -0.00093,361767967.90018,   0.00000,274640135.82653,   0.00000,   0.00000,   0.00000,-112872167.92635,   0.00000
-326522331.27503,-355689382.95214,-72094041.64541,  -0.00079,  -0.00098,  -0.00094,364120716.18785,   0.00000,274640135.82653,   0.00000,   0.00000,   0.00000,-110519419.63868,   0.00000
-328547151.39146,-358003463.08520,-72604264.17475,  -0.00080,  -0.00099,  -0.00094,366473504.92578,   0.00000,274640135.82653,   0.00000,   0.00000,   0.00000,-108166630.90075,   0.00000
-330571971.50789,-360317543.21826,-73114486.70408,  -0.00080,  -0.00099,  -0.00095,368826333.33985,   0.00000,274640135.82653,   0.00000,   0.00000,   0.00000,-105813802.48668,   0.00000
-332582730.37351,-362625597.10097,-73628726.73365,  -0.00081,  -0.00100,  -0.00096,371172673.06420,   0.00000,274640135.82653,   0.00000,   0.00000,   0.00000,-103467462.76233,   0.00000
-334607550.48993,-364939677.23403,-74138949.26299,  -0.00081,  -0.00101,  -0.00096,373525582.50024,   0.00000,274640135.82653,   0.00000,   0.00000,   0.00000,-101114553.32628,   0.00000
-336612283.10521,-367233669.86594,-74649171.79233,  -0.00082,  -0.00101,  -0.00097,375859721.06847,   0.00000,274640135.82653,   0.00000,   0.00000,   0.00000,-98780414.75806,   0.00000
-338637103.22163,-369547749.99900,-75163411.82190,  -0.00082,  -0.00102,  -0.00098,378215101.59703,   0.00000,274640135.82653,   0.00000,   0.00000,   0.00000,-96425034.22950,   0.00000
-340641835.83691,-371841742.63090,-75677651.85147,  -0.00082,  -0.00103,  -0.00098,380551716.59551,   0.00000,274640135.82653,   0.00000,   0.00000,   0.00000,-94088419.23102,   0.00000
-342646568.45218,-374135735.26280,-76187874.38080,  -0.00083,  -0.00103,  -0.00099,382885975.26882,   0.00000,274640135.82653,   0.00000,   0.00000,   0.00000,-91754160.55771,   0.00000
-344657327.31780,-376443789.14552,-76702114.41037,  -0.00083,  -0.00104,  -0.00100,385232569.33036,   0.00000,274640135.82653,   0.00000,   0.00000,   0.00000,-89407566.49617,   0.00000
-346662059.93307,-378737781.77742,-77216354.43994,  -0.00084,  -0.00105,  -0.00100,387569306.98426,   0.00000,274640135.82653,   0.00000,   0.00000,   0.00000,-87070828.84227,   0.00000
-348660766.29799,-381017713.15852,-77730594.46951,  -0.00084,  -0.00105,  -0.00101,389896185.93011,   0.00000,274640135.82653,   0.00000,   0.00000,   0.00000,-84743949.89642,   0.00000
-350665498.91327,-383311705.79042,-78244834.49908,  -0.00085,  -0.00106,  -0.00102,392233001.86385,   0.00000,274640135.82653,   0.00000,   0.00000,   0.00000,-82407133.96268,   0.00000
-352670231.52854,-385605698.42233,-78763092.02888,  -0.00085,  -0.00107,  -0.00102,394572261.97325,   0.00000,274640135.82653,   0.00000,   0.00000,   0.00000,-80067873.85328,   0.00000
-354654876.64266,-387879603.55308,-79277332.05845,  -0.00086,  -0.00107,  -0.00103,396890364.66448,   0.00000,274640135.82653,   0.00000,   0.00000,   0.00000,-77749771.16205,   0.00000
-356639521.75677,-390153508.68383,-79791572.08802,  -0.00086,  -0.00108,  -0.00104,399208508.17249,   0.00000,274640135.82653,   0.00000,   0.00000,   0.00000,-75431627.65404,   0.00000
-358638228.12170,-392433440.06492,-80309829.61782,  -0.00087,  -0.00109,  -0.00104,401537988.42775,   0.00000,274640135.82653,   0.00000,   0.00000,   0.00000,-73102147.39878,   0.00000
-360622873.23582,-394707345.19567,-80824069.64738,  -0.00087,  -0.00109,  -0.00105,403856210.60425,   0.00000,274640135.82653,   0.00000,   0.00000,   0.00000,-70783925.22228,   0.00000
-362607518.34993,-396981250.32642,-81342327.17718,  -0.00088,  -0.00110,  -0.00106,406176885.15487,   0.00000,274640135.82653,   0.00000,   0.00000,   0.00000,-68463250.67166,   0.00000
-364592163.46405,-399255155.45717,-81856567.20675,  -0.00088,  -0.00111,  -0.00106,408495185.65198,   0.00000,274640135.82653,   0.00000,   0.00000,   0.00000,-66144950.17455,   0.00000
-366570782.32782,-401514999.33711,-82374824.73655,  -0.00088,  -0.00111,  -0.00107,410806038.14560,   0.00000,274640135.82653,   0.00000,   0.00000,   0.00000,-63834097.68093,   0.00000
-368535339.94078,-403768816.96671,-82893082.26635,  -0.00089,  -0.00112,  -0.00108,413108055.33722,   0.00000,274640135.82653,   0.00000,   0.00000,   0.00000,-61532080.48931,   0.00000
-370513958.80455,-406028660.84665,-83407322.29592,  -0.00089,  -0.00112,  -0.00108,415416567.81750,   0.00000,274640135.82653,   0.00000,   0.00000,   0.00000,-59223568.00903,   0.00000
-372478516.41751,-408282478.47624,-83925579.82572,  -0.00090,  -0.00113,  -0.00109,417718666.57889,   0.00000,274640135.82653,   0.00000,   0.00000,   0.00000,-56921469.24763,   0.00000
-374443074.03048,-410536296.10584,-84443837.35552,  -0.00090,  -0.00114,  -0.00110,420020807.09974,   0.00000,274640135.82653,   0.00000,   0.00000,   0.00000,-54619328.72679,   0.00000
-376401605.39309,-412776052.48462,-84962094.88532,  -0.00091,  -0.00114,  -0.00110,422313085.19410,   0.00000,274640135.82653,   0.00000,   0.00000,   0.00000,-52327050.63243,   0.00000
-378360136.75571,-415015808.86341,-85480352.41512,  -0.00091,  -0.00115,  -0.00111,424605403.21815,   0.00000,274640135.82653,   0.00000,   0.00000,   0.00000,-50034732.60838,   0.00000
-380318668.11832,-417255565.24220,-85998609.94492,  -0.00092,  -0.00116,  -0.00112,426897760.52866,   0.00000,274640135.82653,   0.00000,   0.00000,   0.00000,-47742375.29787,   0.00000
-382263138.23013,-419489295.37063,-86516867.47472,  -0.00092,  -0.00116,  -0.00112,429181297.76435,   0.00000,274640135.82653,   0.00000,   0.00000,   0.00000,-45458838.06218,   0.00000
-384215643.34240,-421714990.49861,-87035125.00452,  -0.00093,  -0.00117,  -0.00113,431463829.73820,   0.00000,274640135.82653,   0.00000,   0.00000,   0.00000,-43176306.08833,   0.00000
-386154087.20386,-423934659.37624,-87553382.53432,  -0.00093,  -0.00118,  -0.00114,433737544.41919,   0.00000,274640135.82653,   0.00000,   0.00000,   0.00000,-40902591.40734,   0.00000
-388092531.06532,-426154328.25387,-88071640.06412,  -0.00093,  -0.00118,  -0.00114,436011299.89080,   0.00000,274640135.82653,   0.00000,   0.00000,   0.00000,-38628835.93573,   0.00000
-390030974.92678,-428373997.13151,-88589897.59392,  -0.00094,  -0.00119,  -0.00115,438285095.51818,   0.00000,274640135.82653,   0.00000,   0.00000,   0.00000,-36355040.30835,   0.00000
-391969418.78824,-430593666.00914,-89108155.12372,  -0.00094,  -0.00119,  -0.00116,440558930.67958,   0.00000,274640135.82653,   0.00000,   0.00000,   0.00000,-34081205.14695,   0.00000
-393887775.14855,-432793247.38561,-89626412.65352,  -0.00095,  -0.00120,  -0.00117,442814054.22303,   0.00000,274640135.82653,   0.00000,   0.00000,   0.00000,-31826081.60350,   0.00000
-395806131.50885,-434992828.76209,-90148687.68355,  -0.00095,  -0.00121,  -0.00117,445071661.30999,   0.00000,274640135.82653,   0.00000,   0.00000,   0.00000,-29568474.51654,   0.00000
-397732522.86962,-437184375.13810,-90666945.21335,  -0.00096,  -0.00121,  -0.00118,447325807.43037,   0.00000,274640135.82653,   0.00000,   0.00000,   0.00000,-27314328.39616,   0.00000
-399650879.22993,-439383956.51458,-91185202.74315,  -0.00096,  -0.00122,  -0.00119,449581055.61624,   0.00000,274640135.82653,   0.00000,   0.00000,   0.00000,-25059080.21029,   0.00000
-401549148.08908,-441563450.38990,-91703460.27295,  -0.00097,  -0.00123,  -0.00119,451817602.13393,   0.00000,274640135.82653,   0.00000,   0.00000,   0.00000,-22822533.69260,   0.00000
-403461478.19904,-443748970.51557,-92221717.80275,  -0.00097,  -0.00123,  -0.00120,454063027.93129,   0.00000,274640135.82653,   0.00000,   0.00000,   0.00000,-20577107.89524,   0.00000
-405353720.80784,-445914403.14008,-92739975.33255,  -0.00097,  -0.00124,  -0.00121,456289754.98025,   0.00000,274640135.82653,   0.00000,   0.00000,   0.00000,-18350380.84628,   0.00000
-407245963.41664,-448079835.76459,-93258232.86235,  -0.00098,  -0.00124,  -0.00121,458516524.81047,   0.00000,274640135.82653,   0.00000,   0.00000,   0.00000,-16123611.01605,   0.00000
-409138206.02545,-450245268.38910,-93776490.39215,  -0.00098,  -0.00125,  -0.00122,460743336.80167,   0.00000,274640135.82653,   0.00000,   0.00000,   0.00000,-13896799.02486,   0.00000
-411030448.63425,-452410701.01362,-94294747.92195,  -0.00099,  -0.00126,  -0.00123,462970190.34548,   0.00000,274640135.82653,   0.00000,   0.00000,   0.00000,-11669945.48105,   0.00000
-412902603.74190,-454556046.13697,-94813005.45175,  -0.00099,  -0.00126,  -0.00123,465178355.33085,   0.00000,274640135.82653,   0.00000,   0.00000,   0.00000,-9461780.49568,   0.00000
-414788820.10036,-456707417.51068,-95331262.98155,  -0.00100,  -0.00127,  -0.00124,467395388.03261,   0.00000,274640135.82653,   0.00000,   0.00000,   0.00000,-7244747.79392,   0.00000
-416654948.95766,-458838701.38323,-95849520.51135,  -0.00100,  -0.00128,  -0.00125,469593735.49920,   0.00000,274640135.82653,   0.00000,   0.00000,   0.00000,-5046400.32733,   0.00000
-418521077.81496,-460969985.25577,-96363760.54092,  -0.00101,  -0.00128,  -0.00125,471789664.83940,   0.00000,274640135.82653,   0.00000,   0.00000,   0.00000,-2850470.98713,   0.00000
-420373145.42146,-463095242.87798,-96882018.07072,  -0.00101,  -0.00129,  -0.00126,473979279.89077,   0.00000,274640135.82653,   0.00000,   0.00000,   0.00000,-660855.93576,   0.00000
-420932116.66954,-463736665.41645,-97038433.01866,  -0.00101,  -0.00129,  -0.00126,474640135.25259,   0.00000,274640135.82653,   0.00000,   0.00000,   0.00000,  -4.75037,   0.00000
-420924365.47527,-463759058.89954,-97036470.50814,  -0.00101,  -0.00129,  -0.00127,474647794.04047,   0.00001,274647801.97305,  -0.00000,  -0.00000,  -0.00000,  -7.93259,   1.00000
-420924488.36302,-463786467.73082,-97030415.02987,  -0.00102,  -0.00130,  -0.00127,474658756.62124,   0.00002,274658763.28759,  -0.00001,  -0.00001,  -0.00001,  -6.66635,   1.00000
-420911906.59576,-463811650.08914,-97034340.23139,  -0.00102,  -0.00131,  -0.00128,474669594.01732,   0.00003,274669597.26404,  -0.00001,  -0.00002,  -0.00002,  -3.24672,   1.00000
-420905663.35554,-463841271.93584,-97030406.75080,  -0.00103,  -0.00131,  -0.00129,474680507.54446,   0.00004,274680510.87948,  -0.00002,  -0.00002,  -0.00002,  -3.33501,   1.00000
-420893269.20330,-463866262.68284,-97034352.29325,  -0.00103,  -0.00132,  -0.00129,474691333.93944,   0.00005,274691341.43759,  -0.00002,  -0.00003,  -0.00003,  -7.49816,   1.00000
-420885465.60618,-463888958.98359,-97037224.86132,  -0.00104,  -0.00132,  -0.00130,474702106.54725,   0.00006,274702108.33430,  -0.00002,  -0.00003,  -0.00004,  -1.78705,   1.00000
-420875358.27905,-463916147.72757,-97037744.80453,  -0.00104,  -0.00133,  -0.00131,474712919.76612,   0.00007,274712923.22826,  -0.00003,  -0.00004,  -0.00004,  -3.46214,   1.00000
-420870121.09927,-463934112.89397,-97042967.35853,  -0.00104,  -0.00134,  -0.00131,474723631.39653,   0.00008,274723637.32398,  -0.00003,  -0.00004,  -0.00005,  -5.92744,   1.00000
-420853959.25956,-463956650.03695,-97051329.59737,  -0.00105,  -0.00134,  -0.00132,474734364.43442,   0.00009,274734367.86298,  -0.00004,  -0.00005,  -0.00006,  -3.42855,   1.00000
-420842390.66641,-463976892.37084,-97058593.02612,  -0.00105,  -0.00135,  -0.00133,474745027.64877,   0.00010,274745035.05910,  -0.00004,  -0.00006,  -0.00006,  -7.41033,   1.00000
-420828867.14494,-463997252.93235,-97066855.39373,  -0.00106,  -0.00135,  -0.00133,474755590.89858,   0.00011,274755594.77327,  -0.00005,  -0.00006,  -0.00007,  -3.87469,   1.00000
-420819903.31359,-464012820.59313,-97076409.67650,  -0.00106,  -0.00136,  -0.00134,474766201.77559,   0.00011,274766209.70898,  -0.00005,  -0.00007,  -0.00008,  -7.93339,   1.00000
-420804498.59371,-464030749.77441,-97088016.48446,  -0.00106,  -0.00136,  -0.00135,474776773.45958,   0.00012,274776779.29027,  -0.00005,  -0.00007,  -0.00008,  -5.83070,   1.00000
-420793686.52931,-464046418.09235,-97098511.53658,  -0.00107,  -0.00137,  -0.00135,474787283.53371,   0.00013,274787285.67462,  -0.00006,  -0.00008,  -0.00009,  -2.14091,   1.00000
-420774345.46620,-464062091.28747,-97114465.47117,  -0.00107,  -0.00138,  -0.00136,474797756.80462,   0.00014,274797759.31361,  -0.00006,  -0.00008,  -0.00010,  -2.50899,   1.00000
-420757231.83858,-464080079.36834,-97126937.74992,  -0.00108,  -0.00138,  -0.00137,474808218.94168,   0.00015,274808219.47770,  -0.00007,  -0.00009,  -0.00010,  -0.53602,   1.00000
-420745004.51742,-464088887.89570,-97144055.67805,  -0.00108,  -0.00139,  -0.00137,474818571.79476,   0.00016,274818579.53822,  -0.00007,  -0.00010,  -0.00011,  -7.74346,   1.00000
-420730506.43871,-464102271.04959,-97158751.14333,  -0.00108,  -0.00139,  -0.00138,474828982.13431,   0.00017,274828988.11784,  -0.00008,  -0.00010,  -0.00012,  -5.98353,   1.00000
-420711958.20497,-464113450.60894,-97177823.34321,  -0.00109,  -0.00140,  -0.00139,474839295.15892,   0.00018,274839302.19199,  -0.00008,  -0.00011,  -0.00012,  -7.03308,   1.00000
-420695923.30546,-464120055.10459,-97199162.65543,  -0.00109,  -0.00140,  -0.00139,474849557.22004,   0.00019,274849565.92845,  -0.00008,  -0.00011,  -0.00013,  -8.70841,   1.00000
-420675553.71563,-464131408.43107,-97219086.95562,  -0.00110,  -0.00141,  -0.00140,474859769.98800,   0.00020,274859772.43300,  -0.00009,  -0.00012,  -0.00014,  -2.44500,   1.00000
-420655317.73286,-464142741.99182,-97238922.18244,  -0.00110,  -0.00142,  -0.00141,474869974.45223,   0.00021,274869978.19797,  -0.00009,  -0.00012,  -0.00014,  -3.74574,   1.00000
-420635510.65931,-464147147.80923,-97264434.37927,  -0.00110,  -0.00142,  -0.00141,474880138.23766,   0.00022,274880146.18198,  -0.00010,  -0.00013,  -0.00015,  -7.94432,   1.00000
-420620311.78740,-464149367.98297,-97288775.80727,  -0.00111,  -0.00143,  -0.00142,474890248.69377,   0.00023,274890251.58872,  -0.00010,  -0.00013,  -0.00015,  -2.89496,   1.00000
-420598664.51927,-464153989.65162,-97315098.26044,  -0.00111,  -0.00143,  -0.00143,474900304.87931,   0.00024,274900312.49239,  -0.00010,  -0.00014,  -0.00016,  -7.61308,   1.00000
-420572699.49360,-464163365.70527,-97339985.63834,  -0.00112,  -0.00144,  -0.00143,474910311.86287,   0.00025,274910316.43322,  -0.00011,  -0.00015,  -0.00017,  -4.57035,   1.00000
-420553732.07065,-464163434.61113,-97368435.29443,  -0.00112,  -0.00144,  -0.00144,474920316.94503,   0.00026,274920326.81462,  -0.00011,  -0.00015,  -0.00017,  -9.86959,   1.00000
-420532811.19129,-464163719.47980,-97397798.46664,  -0.00112,  -0.00145,  -0.00145,474930230.03634,   0.00026,274930230.81072,  -0.00012,  -0.00016,  -0.00018,  -0.77438,   1.00000
-420505451.87657,-464166400.97400,-97429120.34448,  -0.00113,  -0.00145,  -0.00145,474940081.62807,   0.00027,274940090.60455,  -0.00012,  -0.00016,  -0.00019,  -8.97648,   1.00000
-420484824.28711,-464166741.42464,-97458212.36133,  -0.00113,  -0.00146,  -0.00146,474949986.90669,   0.00028,274949993.99059,  -0.00012,  -0.00017,  -0.00019,  -7.08390,   1.00000
-420462515.78090,-464160360.80795,-97493985.02292,  -0.00114,  -0.00146,  -0.00147,474959752.01909,   0.00029,274959754.13852,  -0.00013,  -0.00017,  -0.00020,  -2.11943,   1.00000
-420431402.01870,-464160978.55456,-97529333.03933,  -0.00114,  -0.00147,  -0.00147,474969514.02101,   0.00030,274969519.78164,  -0.00013,  -0.00018,  -0.00020,  -5.76062,   1.00000
-420407303.26413,-464154852.32222,-97565834.72175,  -0.00114,  -0.00147,  -0.00148,474979172.30673,   0.00031,274979173.86130,  -0.00014,  -0.00018,  -0.00021,  -1.55457,   1.00000
-420380972.31839,-464153352.52766,-97599814.63178,  -0.00115,  -0.00148,  -0.00148,474988873.93082,   0.00032,274988877.37249,  -0.00014,  -0.00019,  -0.00022,  -3.44166,   1.00000
-420352966.09726,-464145125.87093,-97640462.88295,  -0.00115,  -0.00148,  -0.00149,474998435.35855,   0.00033,274998437.90935,  -0.00014,  -0.00019,  -0.00022,  -2.55081,   1.00000
-420325116.05983,-464136968.16291,-97680932.73587,  -0.00115,  -0.00149,  -0.00150,475007997.04414,   0.00034,275007998.55937,  -0.00015,  -0.00020,  -0.00023,  -1.51523,   1.00000
-420292944.03213,-464133605.11200,-97719914.29051,  -0.00116,  -0.00150,  -0.00150,475017502.65387,   0.00034,275017502.91709,  -0.00015,  -0.00020,  -0.00023,  -0.26321,   1.00000
-420265673.28378,-464121139.14290,-97763451.90508,  -0.00116,  -0.00150,  -0.00151,475026907.13057,   0.00035,275026908.45077,  -0.00015,  -0.00021,  -0.00024,  -1.32020,   1.00000
-420236188.53933,-464113333.79374,-97804436.79253,  -0.00117,  -0.00151,  -0.00152,475036362.70116,   0.00036,275036363.66634,  -0.00016,  -0.00021,  -0.00025,  -0.96518,   1.00000
-420205007.29139,-464098801.76137,-97852071.56393,  -0.00117,  -0.00151,  -0.00152,475045670.75081,   0.00037,275045676.27422,  -0.00016,  -0.00022,  -0.00025,  -5.52341,   1.00000
-420173987.31082,-464084360.05209,-97899500.39966,  -0.00117,  -0.00152,  -0.00153,475054979.32499,   0.00038,275054989.28400,  -0.00017,  -0.00022,  -0.00026,  -9.95902,   1.00000
-420141015.33157,-464070167.03267,-97947789.27299,  -0.00118,  -0.00152,  -0.00154,475064195.45338,   0.00039,275064196.76502,  -0.00017,  -0.00023,  -0.00026,  -1.31164,   1.00000
-420108197.81040,-464056047.19118,-97995868.09706,  -0.00118,  -0.00153,  -0.00154,475073398.14600,   0.00040,275073404.75739,  -0.00017,  -0.00023,  -0.00027,  -6.61139,   1.00000
-420071326.90660,-464039800.80684,-98048215.04190,  -0.00118,  -0.00153,  -0.00155,475082518.07263,   0.00040,275082519.82224,  -0.00018,  -0.00024,  -0.00027,  -1.74962,   1.00000
-420036724.96247,-464026001.76327,-98096931.89420,  -0.00119,  -0.00154,  -0.00156,475091615.05198,   0.00041,275091622.98784,  -0.00018,  -0.00024,  -0.00028,  -7.93586,   1.00000
-420004657.63611,-464007714.48541,-98147816.48108,  -0.00119,  -0.00154,  -0.00156,475100675.55736,   0.00042,275100677.11272,  -0.00018,  -0.00025,  -0.00029,  -1.55536,   1.00000
-419961913.92416,-463989644.02911,-98205066.55141,  -0.00119,  -0.00154,  -0.00157,475109592.88858,   0.00043,275109594.65974,  -0.00019,  -0.00025,  -0.00029,  -1.77116,   1.00000
-419928308.84820,-463964728.85915,-98262344.51774,  -0.00120,  -0.00155,  -0.00157,475118506.57787,   0.00044,275118507.40724,  -0.00019,  -0.00026,  -0.00030,  -0.82936,   1.00000
-419890364.04571,-463944651.43000,-98318085.44203,  -0.00120,  -0.00155,  -0.00158,475127358.29238,   0.00045,275127364.53391,  -0.00019,  -0.00026,  -0.00030,  -6.24153,   1.00000
-419848346.45941,-463922436.99746,-98378078.75880,  -0.00120,  -0.00156,  -0.00159,475136120.13441,   0.00045,275136129.09259,  -0.00020,  -0.00027,  -0.00031,  -8.95818,   1.00000
-419806520.55033,-463900334.10239,-98437825.73424,  -0.00121,  -0.00156,  -0.00159,475144889.62955,   0.00046,275144894.52427,  -0.00020,  -0.00027,  -0.00031,  -4.89472,   1.00000
-419769325.25224,-463876113.63175,-98496302.25533,  -0.00121,  -0.00157,  -0.00160,475153592.72019,   0.00047,275153598.81949,  -0.00021,  -0.00028,  -0.00032,  -6.09930,   1.00000
-419728036.43943,-463849758.68552,-98559029.76247,  -0.00121,  -0.00157,  -0.00161,475162205.81302,   0.00048,275162210.65089,  -0.00021,  -0.00028,  -0.00032,  -4.83787,   1.00000
-419682660.91629,-463821268.65646,-98625994.89999,  -0.00122,  -0.00158,  -0.00161,475170728.81501,   0.00048,275170730.17865,  -0.00021,  -0.00029,  -0.00033,  -1.36364,   1.00000
-419639574.07615,-463795268.69988,-98689288.00642,  -0.00122,  -0.00158,  -0.00162,475179230.48582,   0.00049,275179238.28574,  -0.00022,  -0.00029,  -0.00033,  -7.79992,   1.00000
-419592401.41974,-463767128.05685,-98756825.62247,  -0.00122,  -0.00159,  -0.00162,475187648.46685,   0.00050,275187654.08353,  -0.00022,  -0.00029,  -0.00034,  -5.61668,   1.00000
-419545419.95377,-463739103.58956,-98824093.09043,  -0.00123,  -0.00159,  -0.00163,475196067.70596,   0.00051,275196071.06855,  -0.00022,  -0.00030,  -0.00035,  -3.36259,   1.00000
-419505405.81477,-463704370.76292,-98892467.37707,  -0.00123,  -0.00160,  -0.00164,475204376.08385,   0.00052,275204377.65160,  -0.00023,  -0.00030,  -0.00035,  -1.56775,   1.00000
-419450194.95771,-463672048.42944,-98968199.88463,  -0.00123,  -0.00160,  -0.00164,475212602.10548,   0.00052,275212610.46665,  -0.00023,  -0.00031,  -0.00036,  -8.36117,   1.00000
-419408378.64335,-463637688.79633,-99037116.16405,  -0.00124,  -0.00160,  -0.00165,475220805.88596,   0.00053,275220813.74338,  -0.00023,  -0.00031,  -0.00036,  -7.85742,   1.00000
-419351367.49092,-463605735.29432,-99113397.90173,  -0.00124,  -0.00161,  -0.00165,475228939.64158,   0.00054,275228943.23380,  -0.00024,  -0.00032,  -0.00037,  -3.59222,   1.00000
-419301328.48236,-463567056.34055,-99190771.96610,  -0.00124,  -0.00161,  -0.00166,475236956.64033,   0.00055,275236962.61899,  -0.00024,  -0.00032,  -0.00037,  -5.97867,   1.00000
-419253592.99150,-463530910.48229,-99264456.30797,  -0.00125,  -0.00162,  -0.00167,475244965.65966,   0.00055,275244970.79695,  -0.00024,  -0.00033,  -0.00038,  -5.13729,   1.00000
-419199600.48991,-463490207.18379,-99345768.87331,  -0.00125,  -0.00162,  -0.00167,475252893.62910,   0.00056,275252899.77835,  -0.00024,  -0.00033,  -0.00038,  -6.14925,   1.00000
-419143411.54792,-463456753.62404,-99422114.46657,  -0.00125,  -0.00163,  -0.00168,475260757.52146,   0.00057,275260761.09383,  -0.00025,  -0.00033,  -0.00039,  -3.57237,   1.00000
-419087610.19833,-463416393.75548,-99503959.96585,  -0.00125,  -0.00163,  -0.00168,475268581.10339,   0.00057,275268587.18726,  -0.00025,  -0.00034,  -0.00039,  -6.08387,   1.00000
-419032118.35838,-463371639.81907,-99589037.62256,  -0.00126,  -0.00163,  -0.00169,475276258.85132,   0.00058,275276259.34045,  -0.00025,  -0.00034,  -0.00040,  -0.48913,   1.00000
-418976799.82320,-463327018.80134,-99673797.15349,  -0.00126,  -0.00164,  -0.00170,475283926.77368,   0.00059,275283933.31714,  -0.00026,  -0.00035,  -0.00040,  -6.54347,   1.00000
-418917157.44234,-463287262.27232,-99756988.11900,  -0.00126,  -0.00164,  -0.00170,475291551.81710,   0.00060,275291552.36579,  -0.00026,  -0.00035,  -0.00041,  -0.54870,   1.00000
-418855668.99771,-463240667.25498,-99846814.20365,  -0.00127,  -0.00165,  -0.00171,475299028.59167,   0.00060,275299030.31681,  -0.00026,  -0.00035,  -0.00041,  -1.72514,   1.00000
-418794373.38268,-463194211.21955,-99936314.48788,  -0.00127,  -0.00165,  -0.00171,475306507.32172,   0.00061,275306510.18404,  -0.00027,  -0.00036,  -0.00042,  -2.86231,   1.00000
-418731046.46351,-463147962.14763,-100026648.64543,  -0.00127,  -0.00165,  -0.00172,475313880.05624,   0.00062,275313885.79208,  -0.00027,  -0.00036,  -0.00042,  -5.73585,   1.00000
-418670213.87975,-463097210.32483,-100119071.19866,  -0.00127,  -0.00166,  -0.00173,475321208.61581,   0.00062,275321213.79631,  -0.00027,  -0.00037,  -0.00042,  -5.18050,   1.00000
-418607335.92625,-463046670.49427,-100212332.99567,  -0.00128,  -0.00166,  -0.00173,475328436.61544,   0.00063,275328437.55007,  -0.00027,  -0.00037,  -0.00043,  -0.93463,   1.00000
-418537972.47657,-462998555.64923,-100307404.08969,  -0.00128,  -0.00166,  -0.00174,475335614.21663,   0.00064,275335619.49284,  -0.00028,  -0.00037,  -0.00043,  -5.27621,   1.00000
-418468861.14321,-462945976.54654,-100405735.96822,  -0.00128,  -0.00167,  -0.00174,475342639.38429,   0.00064,275342647.71148,  -0.00028,  -0.00038,  -0.00044,  -8.32720,   1.00000
-418399950.96375,-462893542.22208,-100503732.51038,  -0.00128,  -0.00167,  -0.00175,475349677.37001,   0.00065,275349678.02583,  -0.00028,  -0.00038,  -0.00044,  -0.65582,   1.00000
-418333504.02182,-462836575.60844,-100603809.76054,  -0.00129,  -0.00168,  -0.00175,475356655.00694,   0.00066,275356661.00415,  -0.00029,  -0.00039,  -0.00045,  -5.99721,   1.00000
-418258311.07369,-462782083.16896,-100706882.82649,  -0.00129,  -0.00168,  -0.00176,475363489.89893,   0.00066,275363495.95374,  -0.00029,  -0.00039,  -0.00045,  -6.05481,   1.00000
-418183316.30115,-462727718.34383,-100809609.88304,  -0.00129,  -0.00168,  -0.00177,475370327.10208,   0.00067,275370333.18461,  -0.00029,  -0.00039,  -0.00046,  -6.08253,   1.00000
-418115211.26123,-462666576.41539,-100913469.97539,  -0.00129,  -0.00169,  -0.00177,475377053.23874,   0.00067,275377060.62781,  -0.00029,  -0.00040,  -0.00046,  -7.38907,   1.00000
-418036173.73632,-462605455.62620,-101023717.87443,  -0.00130,  -0.00169,  -0.00178,475383645.30894,   0.00068,275383653.01863,  -0.00030,  -0.00040,  -0.00046,  -7.70969,   1.00000
-417959480.22427,-462546897.26155,-101130234.19635,  -0.00130,  -0.00169,  -0.00178,475390230.57133,   0.00069,275390234.87917,  -0.00030,  -0.00040,  -0.00047,  -4.30783,   1.00000
-417878538.58666,-462486051.06202,-101240991.27679,  -0.00130,  -0.00170,  -0.00179,475396718.80217,   0.00069,275396725.65135,  -0.00030,  -0.00041,  -0.00047,  -6.84918,   1.00000
-417802203.03224,-462423086.22537,-101350457.67034,  -0.00130,  -0.00170,  -0.00179,475403148.05944,   0.00070,275403156.28418,  -0.00030,  -0.00041,  -0.00048,  -8.22474,   1.00000
-417721601.99499,-462357833.27192,-101464172.80740,  -0.00131,  -0.00170,  -0.00180,475409489.85307,   0.00070,275409495.81656,  -0.00031,  -0.00041,  -0.00048,  -5.96348,   1.00000
-417638883.70889,-462292713.91587,-101578761.32501,  -0.00131,  -0.00171,  -0.00181,475415725.22971,   0.00071,275415731.33920,  -0.00031,  -0.00042,  -0.00048,  -6.10949,   1.00000
-417551887.89292,-462225282.66370,-101697599.80795,  -0.00131,  -0.00171,  -0.00181,475421872.68626,   0.00072,275421875.86400,  -0.00031,  -0.00042,  -0.00049,  -3.17775,   1.00000
-417467230.83178,-462160407.30903,-101812706.76127,  -0.00131,  -0.00171,  -0.00182,475428004.26267,   0.00072,275428009.97883,  -0.00031,  -0.00042,  -0.00049,  -5.71616,   1.00000
-417380521.51681,-462088501.86220,-101934522.23597,  -0.00131,  -0.00172,  -0.00182,475433995.28342,   0.00073,275434003.45391,  -0.00032,  -0.00043,  -0.00050,  -8.17049,   1.00000
-417287264.37349,-462018962.57588,-102058141.34275,  -0.00132,  -0.00172,  -0.00183,475439950.41335,   0.00073,275439955.68116,  -0.00032,  -0.00043,  -0.00050,  -5.26781,   1.00000
-417194096.94950,-461944806.37629,-102185102.19548,  -0.00132,  -0.00172,  -0.00183,475445746.28760,   0.00074,275445754.33626,  -0.00032,  -0.00043,  -0.00050,  -8.04866,   1.00000
-417103272.58436,-461873216.34866,-102308332.87141,  -0.00132,  -0.00172,  -0.00184,475451535.75052,   0.00074,275451542.61857,  -0.00032,  -0.00044,  -0.00051,  -6.86805,   1.00000
-417008111.41182,-461799254.75422,-102435836.65712,  -0.00132,  -0.00173,  -0.00184,475457236.24033,   0.00075,275457239.98496,  -0.00033,  -0.00044,  -0.00051,  -3.74463,   1.00000
-416910775.21015,-461725361.57272,-102564251.34245,  -0.00132,  -0.00173,  -0.00185,475462829.81809,   0.00075,275462833.35519,  -0.00033,  -0.00044,  -0.00051,  -3.53710,   1.00000
-416811301.06093,-461644346.99431,-102699405.10635,  -0.00133,  -0.00173,  -0.00185,475468281.10126,   0.00076,275468286.21669,  -0.00033,  -0.00044,  -0.00052,  -5.11543,   1.00000
-416714164.31084,-461565897.63799,-102830830.28461,  -0.00133,  -0.00174,  -0.00186,475473726.15331,   0.00076,275473728.76774,  -0.00033,  -0.00045,  -0.00052,  -2.61443,   1.00000
-416612635.39793,-461485024.74665,-102966540.62240,  -0.00133,  -0.00174,  -0.00186,475479073.29921,   0.00077,275479080.53024,  -0.00033,  -0.00045,  -0.00053,  -7.23103,   1.00000
-416508897.16390,-461404193.30066,-103103185.26749,  -0.00133,  -0.00174,  -0.00187,475484321.24579,   0.00077,275484328.24729,  -0.00034,  -0.00045,  -0.00053,  -7.00150,   1.00000
-416400733.78157,-461328122.01853,-103238300.29558,  -0.00133,  -0.00174,  -0.00187,475489514.79517,   0.00078,275489521.63091,  -0.00034,  -0.00046,  -0.00053,  -6.83574,   1.00000
-416297131.31167,-461242645.22110,-103378008.17525,  -0.00133,  -0.00175,  -0.00188,475494612.99533,   0.00078,275494618.40698,  -0.00034,  -0.00046,  -0.00054,  -5.41165,   1.00000
-416182320.42605,-461156901.90787,-103524212.43279,  -0.00134,  -0.00175,  -0.00188,475499579.57443,   0.00079,275499580.42588,  -0.00034,  -0.00046,  -0.00054,  -0.85146,   1.00000
-416072031.23736,-461068947.47301,-103669175.75114,  -0.00134,  -0.00175,  -0.00189,475504479.46265,   0.00079,275504482.46124,  -0.00034,  -0.00046,  -0.00054,  -2.99859,   1.00000
-415959476.46148,-460980981.70154,-103815108.99121,  -0.00134,  -0.00175,  -0.00189,475509278.88520,   0.00080,275509280.36918,  -0.00035,  -0.00047,  -0.00054,  -1.48398,   1.00000
-415842439.72781,-460890494.90750,-103965362.34258,  -0.00134,  -0.00176,  -0.00190,475513979.63281,   0.00080,275513987.57252,  -0.00035,  -0.00047,  -0.00055,  -7.93971,   1.00000
-415727739.46459,-460802562.39474,-104111909.43763,  -0.00134,  -0.00176,  -0.00190,475518681.36414,   0.00080,275518684.41027,  -0.00035,  -0.00047,  -0.00055,  -3.04614,   1.00000
-415603906.73253,-460709486.93052,-104267488.04862,  -0.00134,  -0.00176,  -0.00191,475523188.91298,   0.00081,275523196.66846,  -0.00035,  -0.00047,  -0.00055,  -7.75548,   1.00000
-415484570.71282,-460614179.79451,-104421858.26896,  -0.00134,  -0.00176,  -0.00191,475527643.59714,   0.00081,275527648.77878,  -0.00035,  -0.00048,  -0.00056,  -5.18164,   1.00000
-415362905.45341,-460518801.90212,-104577239.38184,  -0.00135,  -0.00176,  -0.00192,475531996.34541,   0.00082,275531996.63494,  -0.00035,  -0.00048,  -0.00056,  -0.28953,   1.00000
-415234527.79906,-460425613.90724,-104734472.58784,  -0.00135,  -0.00177,  -0.00192,475536303.43620,   0.00082,275536303.60979,  -0.00036,  -0.00048,  -0.00056,  -0.17360,   1.00000
-415105950.09502,-460327525.32424,-104895236.81977,  -0.00135,  -0.00177,  -0.00193,475540448.06226,   0.00082,275540456.45039,  -0.00036,  -0.00048,  -0.00057,  -8.38813,   1.00000
-414972802.21674,-460226826.48682,-105060372.34533,  -0.00135,  -0.00177,  -0.00193,475544517.43997,   0.00083,275544518.47104,  -0.00036,  -0.00049,  -0.00057,  -1.03107,   1.00000
-414837261.05735,-460125982.21229,-105226546.63024,  -0.00135,  -0.00177,  -0.00194,475548471.57077,   0.00083,275548476.24408,  -0.00036,  -0.00049,  -0.00057,  -4.67332,   1.00000
-414706165.50517,-460022856.75616,-105391556.44153,  -0.00135,  -0.00177,  -0.00194,475552371.44139,   0.00084,275552373.67900,  -0.00036,  -0.00049,  -0.00057,  -2.23762,   1.00000
-414570425.02301,-459917052.63932,-105560957.49344,  -0.00135,  -0.00178,  -0.00195,475556171.09336,   0.00084,275556180.34468,  -0.00036,  -0.00049,  -0.00058,  -9.25132,   1.00000
-414425412.56925,-459813214.22062,-105733662.06806,  -0.00135,  -0.00178,  -0.00195,475559833.70117,   0.00084,275559838.40056,  -0.00036,  -0.00049,  -0.00058,  -4.69939,   1.00000
-414282582.63700,-459704527.93496,-105908542.49872,  -0.00135,  -0.00178,  -0.00196,475563445.10494,   0.00085,275563449.80615,  -0.00037,  -0.00049,  -0.00058,  -4.70120,   1.00000
-414137289.03532,-459595635.25965,-106084516.15518,  -0.00136,  -0.00178,  -0.00196,475566951.52626,   0.00085,275566956.68952,  -0.00037,  -0.00050,  -0.00058,  -5.16326,   1.00000
-413989516.07358,-459486519.62387,-106261597.02131,  -0.00136,  -0.00178,  -0.00197,475570352.56420,   0.00085,275570358.97432,  -0.00037,  -0.00050,  -0.00058,  -6.41012,   1.00000
-413837012.43798,-459374630.64848,-106443112.60832,  -0.00136,  -0.00178,  -0.00197,475573662.09126,   0.00086,275573670.39927,  -0.00037,  -0.00050,  -0.00059,  -8.30800,   1.00000
-413688885.24670,-459260394.20756,-106623518.65737,  -0.00136,  -0.00178,  -0.00198,475576920.31815,   0.00086,275576921.23237,  -0.00037,  -0.00050,  -0.00059,  -0.91423,   1.00000
-413531327.10204,-459147974.13990,-106807307.64546,  -0.00136,  -0.00179,  -0.00198,475580016.89377,   0.00086,275580023.19700,  -0.00037,  -0.00050,  -0.00059,  -6.30323,   1.00000
-413368982.53716,-459032722.60028,-106995562.27691,  -0.00136,  -0.00179,  -0.00198,475583029.22828,   0.00086,275583034.19839,  -0.00037,  -0.00051,  -0.00059,  -4.97010,   1.00000
-413213052.54065,-458910221.60675,-107185283.35263,  -0.00136,  -0.00179,  -0.00199,475585933.00794,   0.00087,275585934.41898,  -0.00037,  -0.00051,  -0.00060,  -1.41104,   1.00000
-413045534.55946,-458794328.11455,-107375879.89711,  -0.00136,  -0.00179,  -0.00199,475588729.23116,   0.00087,275588735.68210,  -0.00038,  -0.00051,  -0.00060,  -6.45094,   1.00000
-412882145.20987,-458668596.64858,-107571275.93377,  -0.00136,  -0.00179,  -0.00200,475591433.35228,   0.00087,275591439.95834,  -0.00038,  -0.00051,  -0.00060,  -6.60606,   1.00000
-412707130.92079,-458549437.21649,-107767571.21788,  -0.00136,  -0.00179,  -0.00200,475594036.84663,   0.00087,275594045.16438,  -0.00038,  -0.00051,  -0.00060,  -8.31775,   1.00000
-412538458.75808,-458422957.56140,-107965392.41873,  -0.00136,  -0.00179,  -0.00201,475596536.44925,   0.00088,275596539.24498,  -0.00038,  -0.00051,  -0.00060,  -2.79573,   1.00000
-412364840.96477,-458293503.79464,-108167740.57662,  -0.00136,  -0.00179,  -0.00201,475598938.37261,   0.00088,275598942.23452,  -0.00038,  -0.00051,  -0.00060,  -3.86191,   1.00000
-412181575.20606,-458165668.11056,-108373600.45957,  -0.00136,  -0.00180,  -0.00201,475601193.66661,   0.00088,275601195.74966,  -0.00038,  -0.00051,  -0.00061,  -2.08305,   1.00000
-412000496.01552,-458040233.81366,-108575873.70812,  -0.00136,  -0.00180,  -0.00202,475603429.37921,   0.00088,275603438.45184,  -0.00038,  -0.00052,  -0.00061,  -9.07264,   1.00000
-411816446.53068,-457906862.37919,-108785293.39021,  -0.00136,  -0.00180,  -0.00202,475605533.51920,   0.00088,275605539.60114,  -0.00038,  -0.00052,  -0.00061,  -6.08194,   1.00000
-411631642.50008,-457768085.01177,-108998585.68680,  -0.00136,  -0.00180,  -0.00203,475607480.06136,   0.00089,275607485.02120,  -0.00038,  -0.00052,  -0.00061,  -4.95984,   1.00000
-411435038.44402,-457635722.60411,-109212873.65250,  -0.00136,  -0.00180,  -0.00203,475609324.60808,   0.00089,275609330.92558,  -0.00038,  -0.00052,  -0.00061,  -6.31751,   1.00000
-411242603.10788,-457500816.41847,-109426205.33320,  -0.00136,  -0.00180,  -0.00203,475611114.47008,   0.00089,275611115.40864,  -0.00038,  -0.00052,  -0.00061,  -0.93856,   1.00000
-411047034.22882,-457357821.44193,-109646747.95730,  -0.00136,  -0.00180,  -0.00204,475612755.41158,   0.00089,275612758.15282,  -0.00038,  -0.00052,  -0.00061,  -2.74124,   1.00000
-410846594.65479,-457219184.10395,-109866043.97672,  -0.00136,  -0.00180,  -0.00204,475614344.51607,   0.00089,275614345.42199,  -0.00039,  -0.00052,  -0.00061,  -0.90592,   1.00000
-410635933.11726,-457074369.45089,-110094874.64071,  -0.00136,  -0.00180,  -0.00205,475615740.73933,   0.00089,275615746.53502,  -0.00039,  -0.00052,  -0.00062,  -5.79569,   1.00000
-410431642.96544,-456929541.31268,-110319530.32845,  -0.00136,  -0.00180,  -0.00205,475617065.74385,   0.00090,275617071.51830,  -0.00039,  -0.00052,  -0.00062,  -5.77444,   1.00000
-410222095.81874,-456781446.05348,-110548858.81255,  -0.00136,  -0.00180,  -0.00205,475618298.40717,   0.00090,275618304.84702,  -0.00039,  -0.00052,  -0.00062,  -6.43986,   1.00000
-410007258.10153,-456630051.54302,-110782870.81101,  -0.00136,  -0.00180,  -0.00206,475619442.05803,   0.00090,275619446.50535,  -0.00039,  -0.00052,  -0.00062,  -4.44732,   1.00000
-409784645.40798,-456482511.49562,-111017363.09517,  -0.00136,  -0.00180,  -0.00206,475620415.38514,   0.00090,275620422.98896,  -0.00039,  -0.00052,  -0.00062,  -7.60383,   1.00000
-409565670.99899,-456324674.71054,-111256892.28149,  -0.00136,  -0.00180,  -0.00207,475621292.89984,   0.00090,275621301.51070,  -0.00039,  -0.00052,  -0.00062,  -8.61086,   1.00000
-409334604.21855,-456172998.46263,-111497579.08014,  -0.00136,  -0.00180,  -0.00207,475622076.21014,   0.00090,275622079.65221,  -0.00039,  -0.00053,  -0.00062,  -3.44207,   1.00000
-409109414.75774,-456013591.52504,-111740082.40375,  -0.00136,  -0.00180,  -0.00207,475622742.72305,   0.00090,275622745.01446,  -0.00039,  -0.00053,  -0.00062,  -2.29141,   1.00000
-408871667.28577,-455852640.80248,-111989666.71836,  -0.00136,  -0.00180,  -0.00208,475623272.67406,   0.00090,275623273.97273,  -0.00039,  -0.00053,  -0.00062,  -1.29868,   1.00000
-408637807.89803,-455688904.87686,-112238461.73644,  -0.00136,  -0.00180,  -0.00208,475623735.50752,   0.00090,275623740.54859,  -0.00039,  -0.00053,  -0.00062,  -5.04107,   1.00000
-408393621.59343,-455526190.78335,-112491135.51102,  -0.00136,  -0.00180,  -0.00208,475624049.61144,   0.00090,275624055.71733,  -0.00039,  -0.00053,  -0.00062,  -6.10589,   1.00000
-408146166.98468,-455362554.00476,-112745384.82328,  -0.00136,  -0.00180,  -0.00209,475624256.74630,   0.00090,275624263.79049,  -0.00039,  -0.00053,  -0.00062,  -7.04419,   1.00000
-407893078.09264,-455195306.64232,-113004463.50571,  -0.00136,  -0.00180,  -0.00209,475624370.59308,   0.00090,275624379.57932,  -0.00039,  -0.00053,  -0.00062,  -8.98624,   1.00000
-407631940.57763,-455014519.13192,-113261583.52049,  -0.00136,  -0.00180,  -0.00209,475613413.47769,   0.00090,275624379.57932,  -0.00039,  -0.00053,  -0.00062,-10966.10163,   0.00000
-407350715.56146,-454813644.12037,-113518703.53528,  -0.00136,  -0.00180,  -0.00210,475584778.06163,   0.00090,275624379.57932,  -0.00039,  -0.00053,  -0.00062,-39601.51769,   0.00000
-407049403.04413,-454592681.60767,-113775823.55006,  -0.00135,  -0.00180,  -0.00210,475538491.69829,   0.00090,275624379.57932,  -0.00039,  -0.00053,  -0.00062,-85887.88103,   0.00000
-406728003.02565,-454351631.59380,-114024908.56439,  -0.00135,  -0.00180,  -0.00210,475468801.40230,   0.00090,275624379.57932,  -0.00039,  -0.00053,  -0.00062,-155578.17702,   0.00000
-406386515.50602,-454090494.07879,-114273993.57871,  -0.00135,  -0.00180,  -0.00211,475381488.92236,   0.00090,275624379.57932,  -0.00039,  -0.00053,  -0.00062,-242890.65697,   0.00000
-406010879.23442,-453803242.81227,-114519061.09280,  -0.00135,  -0.00180,  -0.00211,475265199.32636,   0.00090,275624379.57932,  -0.00039,  -0.00053,  -0.00062,-359180.25296,   0.00000
-405623190.46212,-453487869.04414,-114760111.10666,  -0.00135,  -0.00180,  -0.00211,475127217.73958,   0.00090,275624379.57932,  -0.00039,  -0.00053,  -0.00062,-497161.83974,   0.00000
-405201352.93787,-453146381.52450,-115001161.12052,  -0.00135,  -0.00180,  -0.00212,474963213.11866,   0.00090,275624379.57932,  -0.00039,  -0.00053,  -0.00062,-661166.46066,   0.00000
-404759427.91246,-452784806.50371,-115234176.13392,  -0.00135,  -0.00180,  -0.00212,474775844.25128,   0.00090,275624379.57932,  -0.00039,  -0.00053,  -0.00062,-848535.32804,   0.00000
-404311476.63670,-452409170.23211,-115467191.14732,  -0.00135,  -0.00180,  -0.00212,474579418.52137,   0.00090,275624379.57932,  -0.00039,  -0.00053,  -0.00062,-1044961.05795,   0.00000
-403829376.60898,-452007420.20901,-115696188.66048,  -0.00135,  -0.00180,  -0.00212,474354111.21066,   0.00090,275624379.57932,  -0.00039,  -0.00053,  -0.00062,-1270268.36866,   0.00000
-403307101.57895,-451565495.18360,-115921168.67342,  -0.00134,  -0.00179,  -0.00213,474090282.14961,   0.00090,275624379.57932,  -0.00039,  -0.00053,  -0.00062,-1534097.42971,   0.00000
-402784826.54892,-451123570.15819,-116146148.68636,  -0.00134,  -0.00179,  -0.00213,473827127.39568,   0.00090,275624379.57932,  -0.00039,  -0.00053,  -0.00062,-1797252.18364,   0.00000
-402236437.76739,-450647496.38082,-116367111.19906,  -0.00134,  -0.00179,  -0.00213,473533935.35789,   0.00090,275624379.57932,  -0.00039,  -0.00053,  -0.00062,-2090444.22143,   0.00000
-401653900.23389,-450145308.85194,-116580038.71130,  -0.00134,  -0.00179,  -0.00214,473208993.95502,   0.00090,275624379.57932,  -0.00039,  -0.00053,  -0.00062,-2415385.62430,   0.00000
-401045248.94889,-449608972.57110,-116792966.22355,  -0.00134,  -0.00179,  -0.00214,472857027.50871,   0.00090,275624379.57932,  -0.00039,  -0.00053,  -0.00062,-2767352.07061,   0.00000
-400422536.41309,-449066610.03992,-117005893.73579,  -0.00134,  -0.00179,  -0.00214,472497380.32751,   0.00090,275624379.57932,  -0.00039,  -0.00053,  -0.00062,-3126999.25181,   0.00000
-399773710.12578,-448490098.75677,-117210786.24757,  -0.00133,  -0.00179,  -0.00214,472104800.32959,   0.00090,275624379.57932,  -0.00039,  -0.00053,  -0.00062,-3519579.24974,   0.00000
-399110822.58766,-447907561.22327,-117415678.75935,  -0.00133,  -0.00179,  -0.00215,471704570.42527,   0.00090,275624379.57932,  -0.00039,  -0.00053,  -0.00062,-3919809.15405,   0.00000
-398415795.04770,-447276813.68700,-117616553.77090,  -0.00133,  -0.00178,  -0.00215,471264795.66886,   0.00090,275624379.57932,  -0.00039,  -0.00053,  -0.00062,-4359583.91046,   0.00000
-397692645.00612,-446634013.65004,-117813411.28222,  -0.00133,  -0.00178,  -0.00215,470806031.64869,   0.00090,275624379.57932,  -0.00039,  -0.00053,  -0.00062,-4818347.93063,   0.00000
-396949407.46338,-445971126.11193,-118006251.29331,  -0.00133,  -0.00178,  -0.00216,470327044.92519,   0.00090,275624379.57932,  -0.00039,  -0.00053,  -0.00062,-5297334.65413,   0.00000
-396180056.16914,-445274089.82185,-118195073.80417,  -0.00132,  -0.00178,  -0.00216,469818224.92459,   0.00090,275624379.57932,  -0.00039,  -0.00053,  -0.00062,-5806154.65473,   0.00000
-395390617.37375,-444556966.03061,-118383896.31503,  -0.00132,  -0.00178,  -0.00216,469292258.42440,   0.00090,275624379.57932,  -0.00039,  -0.00053,  -0.00062,-6332121.15492,   0.00000
-394581091.07720,-443819754.73822,-118568701.32565,  -0.00132,  -0.00178,  -0.00216,468746135.84274,   0.00090,275624379.57932,  -0.00039,  -0.00053,  -0.00062,-6878243.73658,   0.00000
-393737416.02869,-443056429.69433,-118749488.83605,  -0.00132,  -0.00177,  -0.00216,468171530.73223,   0.00090,275624379.57932,  -0.00039,  -0.00053,  -0.00062,-7452848.84709,   0.00000
-392867627.22868,-442258955.89848,-118926258.84621,  -0.00131,  -0.00177,  -0.00217,467567209.18142,   0.00090,275624379.57932,  -0.00039,  -0.00053,  -0.00062,-8057170.39790,   0.00000
-391997838.42867,-441461482.10262,-119099011.35615,  -0.00131,  -0.00177,  -0.00217,466960728.85981,   0.00090,275624379.57932,  -0.00039,  -0.00053,  -0.00062,-8663650.71951,   0.00000
-391073813.37554,-440617807.05411,-119267746.36585,  -0.00131,  -0.00177,  -0.00217,466307923.29211,   0.00090,275624379.57932,  -0.00039,  -0.00053,  -0.00062,-9316456.28721,   0.00000
-390143762.07206,-439760070.75479,-119436481.37555,  -0.00131,  -0.00177,  -0.00217,465646481.51872,   0.00090,275624379.57932,  -0.00039,  -0.00053,  -0.00062,-9977898.06060,   0.00000
-389173535.76627,-438862159.45316,-119601198.88502,  -0.00130,  -0.00176,  -0.00218,464947134.58253,   0.00090,275624379.57932,  -0.00039,  -0.00053,  -0.00062,-10677244.99679,   0.00000
-388203309.46048,-437964248.15153,-119761898.89426,  -0.00130,  -0.00176,  -0.00218,464245688.03327,   0.00090,275624379.57932,  -0.00039,  -0.00053,  -0.00062,-11378691.54605,   0.00000
-387192908.15238,-437026161.84759,-119918581.40327,  -0.00130,  -0.00176,  -0.00218,463506399.32542,   0.00090,275624379.57932,  -0.00039,  -0.00053,  -0.00062,-12117980.25390,   0.00000
-386148358.09232,-436061961.79215,-120071246.41205,  -0.00130,  -0.00176,  -0.00218,462738901.59753,   0.00090,275624379.57932,  -0.00039,  -0.00053,  -0.00062,-12885477.98179,   0.00000
-385097781.78191,-435083700.48590,-120219893.92060,  -0.00129,  -0.00176,  -0.00218,461959769.56669,   0.00090,275624379.57932,  -0.00039,  -0.00053,  -0.00062,-13664610.01263,   0.00000
-384007030.46920,-434065264.17734,-120368541.42914,  -0.00129,  -0.00175,  -0.00219,461146069.25126,   0.00090,275624379.57932,  -0.00039,  -0.00053,  -0.00062,-14478310.32806,   0.00000
-382902217.90567,-433040801.61843,-120509153.93723,  -0.00129,  -0.00175,  -0.00219,460318943.24269,   0.00090,275624379.57932,  -0.00039,  -0.00053,  -0.00062,-15305436.33663,   0.00000
-381771291.59064,-431982190.30756,-120649766.44531,  -0.00128,  -0.00175,  -0.00219,459465593.39929,   0.00090,275624379.57932,  -0.00039,  -0.00053,  -0.00062,-16158786.18003,   0.00000
-380606216.52365,-430897465.24519,-120786361.45317,  -0.00128,  -0.00174,  -0.00219,458584233.25913,   0.00090,275624379.57932,  -0.00039,  -0.00053,  -0.00062,-17040146.32019,   0.00000
-379429088.95596,-429784617.68120,-120918938.96079,  -0.00128,  -0.00174,  -0.00219,457681804.97533,   0.00090,275624379.57932,  -0.00039,  -0.00053,  -0.00062,-17942574.60399,   0.00000
-378223838.88666,-428659717.61652,-121051516.46841,  -0.00127,  -0.00174,  -0.00219,456764174.11412,   0.00090,275624379.57932,  -0.00039,  -0.00053,  -0.00062,-18860205.46520,   0.00000
-376978413.81505,-427494642.54953,-121176058.97558,  -0.00127,  -0.00174,  -0.00220,455805938.34971,   0.00090,275624379.57932,  -0.00039,  -0.00053,  -0.00062,-19818441.22961,   0.00000
-375726962.49309,-426315506.23173,-121300601.48274,  -0.00127,  -0.00173,  -0.00220,454839464.79826,   0.00090,275624379.57932,  -0.00039,  -0.00053,  -0.00062,-20784914.78106,   0.00000
-374441362.41917,-425110256.16243,-121417108.98944,  -0.00126,  -0.00173,  -0.00220,453841980.60012,   0.00090,275624379.57932,  -0.00039,  -0.00053,  -0.00062,-21782398.97920,   0.00000
-373129648.59375,-423870857.34116,-121533616.49614,  -0.00126,  -0.00173,  -0.00220,452818632.71058,   0.00090,275624379.57932,  -0.00039,  -0.00053,  -0.00062,-22805746.86875,   0.00000
-371803873.51751,-422625432.26955,-121646106.50260,  -0.00126,  -0.00172,  -0.00220,451785268.99463,   0.00090,275624379.57932,  -0.00039,  -0.00053,  -0.00062,-23839110.58469,   0.00000
-370437923.43897,-421339832.19563,-121754579.00884,  -0.00125,  -0.00172,  -0.00220,450714753.85725,   0.00090,275624379.57932,  -0.00039,  -0.00053,  -0.00062,-24909625.72207,   0.00000
-369051885.85927,-420034144.62055,-121859034.01485,  -0.00125,  -0.00172,  -0.00221,449624795.15591,   0.00090,275624379.57932,  -0.00039,  -0.00053,  -0.00062,-25999584.42341,   0.00000
-367645760.77842,-418708369.54432,-121963489.02085,  -0.00125,  -0.00171,  -0.00221,448518700.88304,   0.00090,275624379.57932,  -0.00039,  -0.00053,  -0.00062,-27105678.69628,   0.00000
-366213521.94607,-417348445.71612,-122059909.02640,  -0.00124,  -0.00171,  -0.00221,447380474.30346,   0.00090,275624379.57932,  -0.00039,  -0.00053,  -0.00062,-28243905.27587,   0.00000
-364747134.36175,-415962408.13642,-122156329.03194,  -0.00124,  -0.00171,  -0.00221,446218115.72982,   0.00090,275624379.57932,  -0.00039,  -0.00053,  -0.00062,-29406263.84950,   0.00000
-363260659.27628,-414556283.05557,-122248731.53725,  -0.00123,  -0.00170,  -0.00221,445036500.52125,   0.00090,275624379.57932,  -0.00039,  -0.00053,  -0.00062,-30587879.05807,   0.00000
-361754096.68965,-413130070.47356,-122337116.54234,  -0.00123,  -0.00170,  -0.00221,443835663.72411,   0.00090,275624379.57932,  -0.00039,  -0.00053,  -0.00062,-31788715.85521,   0.00000
-360213385.35106,-411677744.14006,-122421484.04719,  -0.00123,  -0.00170,  -0.00221,442607583.96675,   0.00090,275624379.57932,  -0.00039,  -0.00053,  -0.00062,-33016795.61257,   0.00000
-358646560.26097,-410191269.05458,-122501834.05181,  -0.00122,  -0.00169,  -0.00221,441350929.23692,   0.00090,275624379.57932,  -0.00039,  -0.00053,  -0.00062,-34273450.34240,   0.00000
-357059647.66972,-408684706.46796,-122578166.55620,  -0.00122,  -0.00169,  -0.00221,440075203.50982,   0.00090,275624379.57932,  -0.00039,  -0.00053,  -0.00062,-35549176.06950,   0.00000
-355452647.57732,-407158056.38017,-122654499.06059,  -0.00121,  -0.00169,  -0.00222,438783815.61043,   0.00090,275624379.57932,  -0.00039,  -0.00053,  -0.00062,-36840563.96889,   0.00000
-353811498.73295,-405605292.54089,-122722796.56451,  -0.00121,  -0.00168,  -0.00222,437462075.97319,   0.00090,275624379.57932,  -0.00039,  -0.00053,  -0.00062,-38162303.60613,   0.00000
-352150262.38743,-404032441.20045,-122791094.06844,  -0.00120,  -0.00168,  -0.00222,436124808.97988,   0.00090,275624379.57932,  -0.00039,  -0.00053,  -0.00062,-39499570.59944,   0.00000
-350448851.03960,-402419414.85770,-122855374.07214,  -0.00120,  -0.00167,  -0.00222,434751296.59576,   0.00090,275624379.57932,  -0.00039,  -0.00053,  -0.00062,-40873082.98356,   0.00000
-348741413.44142,-400792327.26414,-122911619.07537,  -0.00119,  -0.00167,  -0.00222,433363564.05164,   0.00090,275624379.57932,  -0.00039,  -0.00053,  -0.00062,-42260815.52768,   0.00000
-346999827.09128,-399139125.91909,-122971881.57884,  -0.00119,  -0.00167,  -0.00222,431955975.92655,   0.00090,275624379.57932,  -0.00039,  -0.00053,  -0.00062,-43668403.65277,   0.00000
-345224091.98918,-397459810.82253,-123024109.08184,  -0.00118,  -0.00166,  -0.00222,430518369.94671,   0.00090,275624379.57932,  -0.00039,  -0.00053,  -0.00062,-45106009.63261,   0.00000
-343422243.13557,-395746346.97400,-123072319.08461,  -0.00118,  -0.00166,  -0.00222,429052790.70017,   0.00090,275624379.57932,  -0.00039,  -0.00053,  -0.00062,-46571588.87915,   0.00000
-341614368.03162,-394018821.87467,-123116511.58715,  -0.00118,  -0.00165,  -0.00222,427576594.17470,   0.00090,275624379.57932,  -0.00039,  -0.00053,  -0.00062,-48047785.40462,   0.00000
-339758282.92489,-392259156.77349,-123160704.08969,  -0.00117,  -0.00165,  -0.00222,426069614.52021,   0.00090,275624379.57932,  -0.00039,  -0.00053,  -0.00062,-49554765.05911,   0.00000
-337896171.56782,-390485430.42150,-123200879.09200,  -0.00116,  -0.00164,  -0.00222,424552154.58921,   0.00090,275624379.57932,  -0.00039,  -0.00053,  -0.00062,-51072224.99011,   0.00000
-335999911.45879,-388685590.31801,-123233019.09385,  -0.00116,  -0.00164,  -0.00222,423005006.67719,   0.00090,275624379.57932,  -0.00039,  -0.00053,  -0.00062,-52619372.90213,   0.00000
-334063476.34744,-386845575.21221,-123265159.09570,  -0.00115,  -0.00164,  -0.00222,421425943.63215,   0.00090,275624379.57932,  -0.00039,  -0.00053,  -0.00062,-54198435.94717,   0.00000
-332121014.98575,-384991498.85560,-123293281.59732,  -0.00115,  -0.00163,  -0.00222,419836581.64403,   0.00090,275624379.57932,  -0.00039,  -0.00053,  -0.00062,-55787797.93529,   0.00000
-330144404.87209,-383111308.74749,-123317386.59870,  -0.00114,  -0.00163,  -0.00222,418221330.69100,   0.00090,275624379.57932,  -0.00039,  -0.00053,  -0.00062,-57403048.88832,   0.00000
-328133646.00648,-381205004.88787,-123341491.60009,  -0.00114,  -0.00162,  -0.00222,416583878.60513,   0.00090,275624379.57932,  -0.00039,  -0.00053,  -0.00062,-59040500.97419,   0.00000
-326116860.89051,-379284639.77745,-123357561.60101,  -0.00113,  -0.00162,  -0.00222,414932757.00097,   0.00090,275624379.57932,  -0.00039,  -0.00053,  -0.00062,-60691622.57835,   0.00000
-324059900.77223,-377324099.66472,-123373631.60194,  -0.00113,  -0.00161,  -0.00222,413250340.71847,   0.00090,275624379.57932,  -0.00039,  -0.00053,  -0.00062,-62374038.86085,   0.00000
-321968791.90200,-375337445.80049,-123381666.60240,  -0.00112,  -0.00161,  -0.00222,411538897.50503,   0.00090,275624379.57932,  -0.00039,  -0.00053,  -0.00062,-64085482.07429,   0.00000
-319871656.78141,-373336730.68545,-123389701.60286,  -0.00112,  -0.00160,  -0.00222,409821190.39186,   0.00090,275624379.57932,  -0.00039,  -0.00053,  -0.00062,-65803189.18746,   0.00000
-317740372.90886,-371309901.81891,-123393719.10309,  -0.00111,  -0.00160,  -0.00223,408078265.57980,   0.00090,275624379.57932,  -0.00039,  -0.00053,  -0.00062,-67546113.99953,   0.00000
-315589001.53516,-369262985.45121,-123393719.10309,  -0.00110,  -0.00159,  -0.00223,406317933.61128,   0.00090,275624379.57932,  -0.00039,  -0.00053,  -0.00062,-69306445.96805,   0.00000
-313397455.15914,-367175894.08120,-123389701.60286,  -0.00110,  -0.00159,  -0.00222,404523382.11611,   0.00090,275624379.57932,  -0.00039,  -0.00053,  -0.00062,-71100997.46321,   0.00000
-311185821.28198,-365068715.21004,-123381666.60240,  -0.00109,  -0.00158,  -0.00222,402711660.10660,   0.00090,275624379.57932,  -0.00039,  -0.00053,  -0.00062,-72912719.47273,   0.00000
-308946064.90319,-362949483.83818,-123369614.10171,  -0.00109,  -0.00158,  -0.00222,400884483.48362,   0.00090,275624379.57932,  -0.00039,  -0.00053,  -0.00062,-74739896.09570,   0.00000
-306688229.77336,-360788068.71390,-123357561.60101,  -0.00108,  -0.00157,  -0.00222,399033220.04947,   0.00090,275624379.57932,  -0.00039,  -0.00053,  -0.00062,-76591159.52985,   0.00000
-304402272.14192,-358614601.08893,-123341491.60009,  -0.00107,  -0.00156,  -0.00222,397166774.35934,   0.00090,275624379.57932,  -0.00039,  -0.00053,  -0.00062,-78457605.21998,   0.00000
-302082165.75852,-356415019.71245,-123317386.59870,  -0.00107,  -0.00156,  -0.00222,395272328.39522,   0.00090,275624379.57932,  -0.00039,  -0.00053,  -0.00062,-80352051.18410,   0.00000
-299750006.87442,-354187315.83436,-123293281.59732,  -0.00106,  -0.00155,  -0.00222,393363408.08988,   0.00090,275624379.57932,  -0.00039,  -0.00053,  -0.00062,-82260971.48944,   0.00000
-297369637.98754,-351927471.95442,-123265159.09570,  -0.00106,  -0.00155,  -0.00222,391423045.46459,   0.00090,275624379.57932,  -0.00039,  -0.00053,  -0.00062,-84201334.11473,   0.00000
-294983242.85033,-349653566.82367,-123233019.09385,  -0.00105,  -0.00154,  -0.00222,389473899.41321,   0.00090,275624379.57932,  -0.00039,  -0.00053,  -0.00062,-86150480.16611,   0.00000
-292562698.96115,-347353547.94142,-123196861.59177,  -0.00104,  -0.00154,  -0.00222,387501133.84303,   0.00090,275624379.57932,  -0.00039,  -0.00053,  -0.00062,-88123245.73629,   0.00000
-290122067.57081,-345033441.55801,-123160704.08969,  -0.00104,  -0.00153,  -0.00222,385516214.36024,   0.00090,275624379.57932,  -0.00039,  -0.00053,  -0.00062,-90108165.21908,   0.00000
-287641261.17816,-342673160.17229,-123116511.58715,  -0.00103,  -0.00152,  -0.00222,383495079.69064,   0.00090,275624379.57932,  -0.00039,  -0.00053,  -0.00062,-92129299.88868,   0.00000
-285154428.53517,-340298817.53577,-123072319.08461,  -0.00102,  -0.00152,  -0.00222,381469534.37784,   0.00090,275624379.57932,  -0.00039,  -0.00053,  -0.00062,-94154845.20148,   0.00000
-282625412.13975,-337906396.14820,-123024109.08184,  -0.00102,  -0.00151,  -0.00222,379422872.15603,   0.00090,275624379.57932,  -0.00039,  -0.00053,  -0.00062,-96201507.42330,   0.00000
-280084343.24364,-335485852.25902,-122971881.57884,  -0.00101,  -0.00151,  -0.00222,377359129.71041,   0.00090,275624379.57932,  -0.00039,  -0.00053,  -0.00062,-98265249.86891,   0.00000
-277509125.59557,-333039194.61834,-122915636.57560,  -0.00100,  -0.00150,  -0.00222,375272921.21550,   0.00090,275624379.57932,  -0.00039,  -0.00053,  -0.00062,-100351458.36382,   0.00000
-274907794.19599,-330558388.22569,-122855374.07214,  -0.00100,  -0.00149,  -0.00222,373162692.12125,   0.00090,275624379.57932,  -0.00039,  -0.00053,  -0.00062,-102461687.45807,   0.00000
-272278340.29480,-328065529.33235,-122791094.06844,  -0.00099,  -0.00149,  -0.00222,371039494.72102,   0.00090,275624379.57932,  -0.00039,  -0.00053,  -0.00062,-104584884.85830,   0.00000
-269622772.64210,-325538521.68705,-122722796.56451,  -0.00098,  -0.00148,  -0.00222,368892700.11777,   0.00090,275624379.57932,  -0.00039,  -0.00053,  -0.00062,-106731679.46155,   0.00000
-266947117.48825,-322991426.54059,-122654499.06059,  -0.00097,  -0.00148,  -0.00222,366735563.15824,   0.00090,275624379.57932,  -0.00039,  -0.00053,  -0.00062,-108888816.42108,   0.00000
-264243339.83278,-320432278.89344,-122582184.05643,  -0.00097,  -0.00147,  -0.00221,364566136.63631,   0.00090,275624379.57932,  -0.00039,  -0.00053,  -0.00062,-111058242.94301,   0.00000
-261513448.42581,-317838982.49433,-122501834.05181,  -0.00096,  -0.00146,  -0.00221,362369745.12577,   0.00090,275624379.57932,  -0.00039,  -0.00053,  -0.00062,-113254634.45355,   0.00000
-258757443.26734,-315211537.34325,-122421484.04719,  -0.00095,  -0.00146,  -0.00221,360154766.03564,   0.00090,275624379.57932,  -0.00039,  -0.00053,  -0.00062,-115469613.54368,   0.00000
-255973315.60726,-312572039.69148,-122341134.04257,  -0.00094,  -0.00145,  -0.00221,357932362.56362,   0.00090,275624379.57932,  -0.00039,  -0.00053,  -0.00062,-117692017.01570,   0.00000
-253169100.44601,-309912454.53855,-122252749.03749,  -0.00094,  -0.00144,  -0.00221,355692661.58846,   0.00090,275624379.57932,  -0.00039,  -0.00053,  -0.00062,-119931717.99086,   0.00000
-250324710.28246,-307212694.38332,-122160346.53217,  -0.00093,  -0.00144,  -0.00221,353424139.30890,   0.00090,275624379.57932,  -0.00039,  -0.00053,  -0.00062,-122200240.27042,   0.00000
-247480320.11891,-304512934.22808,-122067944.02686,  -0.00092,  -0.00143,  -0.00221,351162962.72824,   0.00090,275624379.57932,  -0.00039,  -0.00053,  -0.00062,-124461416.85108,   0.00000
-244581693.70224,-301766972.82019,-121967506.52108,  -0.00091,  -0.00142,  -0.00221,348862510.74667,   0.00090,275624379.57932,  -0.00039,  -0.00053,  -0.00062,-126761868.83265,   0.00000
-241677041.03522,-299006950.16149,-121867069.01531,  -0.00091,  -0.00142,  -0.00221,346561078.27563,   0.00090,275624379.57932,  -0.00039,  -0.00053,  -0.00062,-129063301.30369,   0.00000
-238738239.61624,-296220813.75128,-121762614.00930,  -0.00090,  -0.00141,  -0.00220,344241026.68479,   0.00090,275624379.57932,  -0.00039,  -0.00053,  -0.00062,-131383352.89453,   0.00000
-235779350.69610,-293414589.83992,-121658159.00330,  -0.00089,  -0.00140,  -0.00220,341913797.94416,   0.00090,275624379.57932,  -0.00039,  -0.00053,  -0.00062,-133710581.63516,   0.00000
-232786313.02400,-290582252.17707,-121545668.99683,  -0.00088,  -0.00139,  -0.00220,339564413.11297,   0.00090,275624379.57932,  -0.00039,  -0.00053,  -0.00062,-136059966.46635,   0.00000
-229767161.60040,-287715765.76224,-121429161.49013,  -0.00087,  -0.00139,  -0.00220,337195491.29810,   0.00090,275624379.57932,  -0.00039,  -0.00053,  -0.00062,-138428888.28122,   0.00000
-226733948.92599,-284843253.09707,-121312653.98343,  -0.00087,  -0.00138,  -0.00220,334829220.46975,   0.00090,275624379.57932,  -0.00039,  -0.00053,  -0.00062,-140795159.10957,   0.00000
-223674622.50008,-281936591.67994,-121192128.97650,  -0.00086,  -0.00137,  -0.00220,332444151.91616,   0.00090,275624379.57932,  -0.00039,  -0.00053,  -0.00062,-143180227.66316,   0.00000
-220587173.57255,-279017877.76211,-121067586.46934,  -0.00085,  -0.00137,  -0.00219,330051501.59388,   0.00090,275624379.57932,  -0.00039,  -0.00053,  -0.00062,-145572877.98544,   0.00000
-217459549.64271,-276058988.84198,-120939026.46195,  -0.00084,  -0.00136,  -0.00219,327634402.99755,   0.00090,275624379.57932,  -0.00039,  -0.00053,  -0.00062,-147989976.58177,   0.00000
-214325899.46253,-273086038.67103,-120806448.95432,  -0.00083,  -0.00135,  -0.00219,325214943.00769,   0.00090,275624379.57932,  -0.00039,  -0.00053,  -0.00062,-150409436.57164,   0.00000
-211158100.53038,-270086974.74859,-120673871.44670,  -0.00082,  -0.00134,  -0.00219,322785090.31914,   0.00090,275624379.57932,  -0.00039,  -0.00053,  -0.00062,-152839289.26018,   0.00000
-207976240.34742,-267081884.57579,-120533258.93862,  -0.00081,  -0.00134,  -0.00219,320351311.73404,   0.00090,275624379.57932,  -0.00039,  -0.00053,  -0.00062,-155273067.84528,   0.00000
-204754205.16216,-264036619.40069,-120392646.43053,  -0.00081,  -0.00133,  -0.00219,317899639.38432,   0.00090,275624379.57932,  -0.00039,  -0.00053,  -0.00062,-157724740.19500,   0.00000
-201512082.47574,-260971266.72443,-120248016.42221,  -0.00080,  -0.00132,  -0.00218,315440983.98262,   0.00090,275624379.57932,  -0.00039,  -0.00053,  -0.00062,-160183395.59670,   0.00000
-198243846.03781,-257871765.29621,-120099368.91367,  -0.00079,  -0.00131,  -0.00218,312967337.80436,   0.00090,275624379.57932,  -0.00039,  -0.00053,  -0.00062,-162657041.77496,   0.00000
-194947487.09827,-254760211.36730,-119950721.40512,  -0.00078,  -0.00131,  -0.00218,310494688.68241,   0.00090,275624379.57932,  -0.00039,  -0.00053,  -0.00062,-165129690.89691,   0.00000
-191631040.65758,-251628569.93723,-119794038.89611,  -0.00077,  -0.00130,  -0.00218,308011985.96977,   0.00090,275624379.57932,  -0.00039,  -0.00053,  -0.00062,-167612393.60955,   0.00000
-188294506.71572,-248476841.00600,-119637356.38710,  -0.00076,  -0.00129,  -0.00218,305529096.31984,   0.00090,275624379.57932,  -0.00039,  -0.00053,  -0.00062,-170095283.25948,   0.00000
-184931859.02237,-245290963.32282,-119476656.37786,  -0.00075,  -0.00128,  -0.00217,303033578.30169,   0.00090,275624379.57932,  -0.00039,  -0.00053,  -0.00062,-172590801.27763,   0.00000
-181541088.82740,-242093033.13894,-119311938.86839,  -0.00074,  -0.00127,  -0.00217,300536831.45844,   0.00090,275624379.57932,  -0.00039,  -0.00053,  -0.00062,-175087548.12088,   0.00000
-178130231.13128,-238875015.45390,-119143203.85869,  -0.00073,  -0.00127,  -0.00217,298037077.58235,   0.00090,275624379.57932,  -0.00039,  -0.00053,  -0.00062,-177587301.99697,   0.00000
-174679198.43284,-235616822.76655,-118974468.84898,  -0.00072,  -0.00126,  -0.00217,295525844.06662,   0.00090,275624379.57932,  -0.00039,  -0.00053,  -0.00062,-180098535.51271,   0.00000
-171214104.48360,-232352603.82886,-118801716.33905,  -0.00071,  -0.00125,  -0.00217,293021334.55859,   0.00090,275624379.57932,  -0.00039,  -0.00053,  -0.00062,-182603045.02073,   0.00000
-167722896.78286,-229054236.13920,-118620928.82866,  -0.00071,  -0.00124,  -0.00216,290502921.60564,   0.00090,275624379.57932,  -0.00039,  -0.00053,  -0.00062,-185121457.97368,   0.00000
-164217627.83130,-225749842.19920,-118444158.81849,  -0.00070,  -0.00123,  -0.00216,288002384.10284,   0.00090,275624379.57932,  -0.00039,  -0.00053,  -0.00062,-187621995.47648,   0.00000
-160672183.87744,-222405273.25689,-118259353.80787,  -0.00069,  -0.00123,  -0.00216,285484044.34142,   0.00090,275624379.57932,  -0.00039,  -0.00053,  -0.00062,-190140335.23790,   0.00000
-157112678.67277,-219054678.06423,-118070531.29701,  -0.00068,  -0.00122,  -0.00216,282975316.26868,   0.00090,275624379.57932,  -0.00039,  -0.00053,  -0.00062,-192649063.31064,   0.00000
-153527059.71660,-215669934.11961,-117881708.78615,  -0.00067,  -0.00121,  -0.00215,280466039.82078,   0.00090,275624379.57932,  -0.00039,  -0.00053,  -0.00062,-195158339.75854,   0.00000
-149907292.00846,-212259076.42348,-117688868.77506,  -0.00066,  -0.00120,  -0.00215,277954920.57393,   0.00090,275624379.57932,  -0.00039,  -0.00053,  -0.00062,-197669459.00539,   0.00000
-146273463.04951,-208842192.47701,-117492011.26374,  -0.00065,  -0.00119,  -0.00215,275456048.68842,   0.00090,275624379.57932,  -0.00039,  -0.00053,  -0.00062,-200168330.89090,   0.00000
-142613520.33907,-205391159.77858,-117295153.75242,  -0.00064,  -0.00118,  -0.00215,272959791.24691,   0.00090,275624379.57932,  -0.00039,  -0.00053,  -0.00062,-202664588.33241,   0.00000
-138925455.12700,-201928074.57945,-117090261.24064,  -0.00063,  -0.00117,  -0.00214,270467498.14709,   0.00090,275624379.57932,  -0.00039,  -0.00053,  -0.00062,-205156881.43223,   0.00000
-135225337.41425,-198436866.87871,-116885368.72886,  -0.00062,  -0.00117,  -0.00214,267984995.85794,   0.00090,275624379.57932,  -0.00039,  -0.00053,  -0.00062,-207639383.72138,   0.00000
-131497097.19987,-194933606.67727,-116676458.71685,  -0.00061,  -0.00116,  -0.00214,265513807.95648,   0.00090,275624379.57932,  -0.00039,  -0.00053,  -0.00062,-210110571.62284,   0.00000
-127728681.98319,-191390171.47352,-116467548.70484,  -0.00060,  -0.00115,  -0.00214,263045374.97344,   0.00090,275624379.57932,  -0.00039,  -0.00053,  -0.00062,-212579004.60588,   0.00000
-123960266.76651,-187846736.26977,-116250603.69236,  -0.00059,  -0.00114,  -0.00213,260594744.96107,   0.00090,275624379.57932,  -0.00039,  -0.00053,  -0.00062,-215029634.61825,   0.00000
-120151676.54751,-184263126.06372,-116033658.67989,  -0.00058,  -0.00113,  -0.00213,258149629.71392,   0.00090,275624379.57932,  -0.00039,  -0.00053,  -0.00062,-217474749.86540,   0.00000
-116329025.07771,-180673489.60731,-115812696.16718,  -0.00057,  -0.00112,  -0.00213,255725483.28148,   0.00090,275624379.57932,  -0.00039,  -0.00053,  -0.00062,-219898896.29785,   0.00000
-112472224.85594,-177057739.39941,-115591733.65448,  -0.00056,  -0.00111,  -0.00212,253317415.97214,   0.00090,275624379.57932,  -0.00039,  -0.00053,  -0.00062,-222306963.60718,   0.00000
-108609398.38383,-173427927.94069,-115362736.14131,  -0.00054,  -0.00110,  -0.00212,250924345.89042,   0.00090,275624379.57932,  -0.00039,  -0.00053,  -0.00062,-224700033.68890,   0.00000
-104706396.90941,-169757941.47967,-115133738.62814,  -0.00053,  -0.00109,  -0.00212,248543314.45756,   0.00090,275624379.57932,  -0.00039,  -0.00053,  -0.00062,-227081065.12176,   0.00000
-100775272.93337,-166075902.51795,-114900723.61474,  -0.00052,  -0.00109,  -0.00211,246184982.25850,   0.00090,275624379.57932,  -0.00039,  -0.00053,  -0.00062,-229439397.32082,   0.00000
-96838122.70698,-162379802.30542,-114667708.60135,  -0.00051,  -0.00108,  -0.00211,243857165.51503,   0.00090,275624379.57932,  -0.00039,  -0.00053,  -0.00062,-231767214.06429,   0.00000
-92866823.72863,-158657588.34140,-114426658.58749,  -0.00050,  -0.00107,  -0.00211,241542608.21754,   0.00090,275624379.57932,  -0.00039,  -0.00053,  -0.00062,-234081771.36178,   0.00000
-88875437.24913,-154915286.87621,-114185608.57363,  -0.00049,  -0.00106,  -0.00211,239258197.79571,   0.00090,275624379.57932,  -0.00039,  -0.00053,  -0.00062,-236366181.78361,   0.00000
-84863963.26847,-151152897.90988,-113940541.05953,  -0.00048,  -0.00105,  -0.00210,236999994.77396,   0.00090,275624379.57932,  -0.00039,  -0.00053,  -0.00062,-238624384.80536,   0.00000
-80832401.78665,-147370421.44239,-113695473.54544,  -0.00047,  -0.00104,  -0.00210,234775627.54974,   0.00090,275624379.57932,  -0.00039,  -0.00053,  -0.00062,-240848752.02958,   0.00000
-76772717.80322,-143575892.47420,-113446388.53112,  -0.00046,  -0.00103,  -0.00210,232584661.64958,   0.00090,275624379.57932,  -0.00039,  -0.00053,  -0.00062,-243039717.92974,   0.00000
-72700981.31910,-139753241.00440,-113193286.01657,  -0.00045,  -0.00102,  -0.00209,230422141.49281,   0.00090,275624379.57932,  -0.00039,  -0.00053,  -0.00062,-245202238.08651,   0.00000
-68601122.33336,-135918537.03390,-112936166.00178,  -0.00044,  -0.00101,  -0.00209,228297024.25118,   0.00090,275624379.57932,  -0.00039,  -0.00053,  -0.00062,-247327355.32814,   0.00000
-64461088.34530,-132043658.06110,-112679045.98700,  -0.00042,  -0.00100,  -0.00209,226205180.86623,   0.00090,275624379.57932,  -0.00039,  -0.00053,  -0.00062,-249419198.71309,   0.00000
-60321054.35725,-128168779.08829,-112417908.47198,  -0.00041,  -0.00099,  -0.00208,224160540.85657,   0.00090,275624379.57932,  -0.00039,  -0.00053,  -0.00062,-251463838.72275,   0.00000
-56146871.61724,-124267786.36398,-112152753.45674,  -0.00040,  -0.00098,  -0.00208,222154060.95062,   0.00090,275624379.57932,  -0.00039,  -0.00053,  -0.00062,-253470318.62870,   0.00000
-51952601.37607,-120346706.13852,-111883580.94126,  -0.00039,  -0.00097,  -0.00208,220190565.35173,   0.00090,275624379.57932,  -0.00039,  -0.00053,  -0.00062,-255433814.22760,   0.00000
-47738243.63374,-116405538.41190,-111614408.42578,  -0.00038,  -0.00096,  -0.00207,218278541.84479,   0.00090,275624379.57932,  -0.00039,  -0.00053,  -0.00062,-257345837.73453,   0.00000
-43503798.39026,-112444283.18413,-111341218.41007,  -0.00037,  -0.00095,  -0.00207,216414289.31684,   0.00090,275624379.57932,  -0.00039,  -0.00053,  -0.00062,-259210090.26248,   0.00000
-39249265.64562,-108462940.45520,-111068028.39436,  -0.00036,  -0.00094,  -0.00206,214606487.17481,   0.00090,275624379.57932,  -0.00039,  -0.00053,  -0.00062,-261017892.40451,   0.00000
-34966610.39937,-104469545.22558,-110790820.87842,  -0.00034,  -0.00093,  -0.00206,212855401.17344,   0.00090,275624379.57932,  -0.00039,  -0.00053,  -0.00062,-262768978.40588,   0.00000
-30677928.90277,-100462088.74516,-110509595.86225,  -0.00033,  -0.00092,  -0.00206,211160863.12045,   0.00090,275624379.57932,  -0.00039,  -0.00053,  -0.00062,-264463516.45887,   0.00000
-26349072.40386,-96414457.26242,-110224353.34585,  -0.00032,  -0.00091,  -0.00205,209518051.44688,   0.00090,275624379.57932,  -0.00039,  -0.00053,  -0.00062,-266106328.13244,   0.00000
-22006154.65414,-92360799.52933,-109939110.82945,  -0.00031,  -0.00090,  -0.00205,207947364.40707,   0.00090,275624379.57932,  -0.00039,  -0.00053,  -0.00062,-267677015.17225,   0.00000
-17635114.40281,-88295089.29555,-109649850.81282,  -0.00030,  -0.00089,  -0.00205,206444170.18312,   0.00090,275624379.57932,  -0.00039,  -0.00053,  -0.00062,-269180209.39620,   0.00000
-13252021.65078,-84201256.56016,-109360590.79619,  -0.00029,  -0.00088,  -0.00204,205009383.36344,   0.00090,275624379.57932,  -0.00039,  -0.00053,  -0.00062,-270614996.21588,   0.00000
-8848841.39760,-80087336.32361,-109067313.27932,  -0.00027,  -0.00087,  -0.00204,203643413.28488,   0.00090,275624379.57932,  -0.00039,  -0.00053,  -0.00062,-271980966.29444,   0.00000
-4417538.64280,-75961363.58636,-108770018.26223,  -0.00026,  -0.00086,  -0.00203,202353235.12327,   0.00090,275624379.57932,  -0.00039,  -0.00053,  -0.00062,-273271144.45605,   0.00000
33851.61316,-71815303.34797,-108472723.24513,  -0.00025,  -0.00085,  -0.00203,201143891.45437,   0.00090,275624379.57932,  -0.00039,  -0.00053,  -0.00062,-274480488.12495,   0.00000
4505329.37027,-67649155.60841,-108167393.22758,  -0.00024,  -0.00084,  -0.00203,200005107.05442,   0.00090,275624379.57932,  -0.00039,  -0.00053,  -0.00062,-275619272.52490,   0.00000
8996894.62853,-63462920.36770,-107866080.71025,  -0.00022,  -0.00083,  -0.00202,198959115.61246,   0.00090,275624379.57932,  -0.00039,  -0.00053,  -0.00062,-276665263.96686,   0.00000
13502521.13760,-59270658.87665,-107556733.19246,  -0.00021,  -0.00082,  -0.00202,197992386.14192,   0.00090,275624379.57932,  -0.00039,  -0.00053,  -0.00062,-277631993.43740,   0.00000
18034261.39818,-55044248.63363,-107251403.17491,  -0.00020,  -0.00081,  -0.00202,197120208.77907,   0.00090,275624379.57932,  -0.00039,  -0.00053,  -0.00062,-278504170.80025,   0.00000
22580062.90956,-50811812.14027,-106938038.15689,  -0.00019,  -0.00080,  -0.00201,196332028.52104,   0.00090,275624379.57932,  -0.00039,  -0.00053,  -0.00062,-279292351.05828,   0.00000
27160013.17291,-46553261.89540,-106624673.13887,  -0.00017,  -0.00079,  -0.00201,195641821.91160,   0.00090,275624379.57932,  -0.00039,  -0.00053,  -0.00062,-279982557.66772,   0.00000
31739963.43626,-42294711.65053,-106307290.62062,  -0.00016,  -0.00078,  -0.00200,195044663.17017,   0.00090,275624379.57932,  -0.00039,  -0.00053,  -0.00062,-280579716.40915,   0.00000
36360088.70191,-37995986.40336,-105989908.10237,  -0.00015,  -0.00077,  -0.00200,194547861.27780,   0.00090,275624379.57932,  -0.00039,  -0.00053,  -0.00062,-281076518.30152,   0.00000
40980213.96757,-33697261.15618,-105668508.08389,  -0.00014,  -0.00076,  -0.00199,194147637.43240,   0.00090,275624379.57932,  -0.00039,  -0.00053,  -0.00062,-281476742.14692,   0.00000
45634487.98519,-29372422.15750,-105343090.56518,  -0.00012,  -0.00075,  -0.00199,193848242.99586,   0.00090,275624379.57932,  -0.00039,  -0.00053,  -0.00062,-281776136.58346,   0.00000
50302823.25362,-25041556.90848,-105017673.04647,  -0.00011,  -0.00074,  -0.00199,193657557.47487,   0.00090,275624379.57932,  -0.00039,  -0.00053,  -0.00062,-281966822.10445,   0.00000
54997272.27355,-20676542.90749,-104688238.02753,  -0.00010,  -0.00073,  -0.00198,193567183.13810,   0.00090,275624379.57932,  -0.00039,  -0.00053,  -0.00062,-282057196.44122,   0.00000
59705782.54429,-16305502.65615,-104358803.00858,  -0.00009,  -0.00072,  -0.00198,193588382.85939,   0.00090,275624379.57932,  -0.00039,  -0.00053,  -0.00062,-282035996.71993,   0.00000
64434380.31619,-11914374.90366,-104025350.48941,  -0.00007,  -0.00071,  -0.00197,193714371.41622,   0.00090,275624379.57932,  -0.00039,  -0.00053,  -0.00062,-281910008.16310,   0.00000
69169004.33843,-7509185.90036,-103687880.47001,  -0.00006,  -0.00070,  -0.00197,193942444.07881,   0.00090,275624379.57932,  -0.00039,  -0.00053,  -0.00062,-281681935.50051,   0.00000
73931750.86228,-3091944.39637,-103350410.45060,  -0.00005,  -0.00068,  -0.00196,194288390.77369,   0.00090,275624379.57932,  -0.00039,  -0.00053,  -0.00062,-281335988.80563,   0.00000
78714584.88730,1345384.60877,-103012940.43120,  -0.00003,  -0.00067,  -0.00196,194748279.14920,   0.00090,275624379.57932,  -0.00039,  -0.00053,  -0.00062,-280876100.43012,   0.00000
83517506.41347,5802801.11508,-102671452.91156,  -0.00002,  -0.00066,  -0.00196,195316391.08859,   0.00090,275624379.57932,  -0.00039,  -0.00053,  -0.00062,-280307988.49073,   0.00000
88334489.19044,10266243.87172,-102325947.89169,  -0.00001,  -0.00065,  -0.00195,195993145.72520,   0.00090,275624379.57932,  -0.00039,  -0.00053,  -0.00062,-279631233.85412,   0.00000
93171559.46857,14749774.12953,-101980442.87183,   0.00001,  -0.00064,  -0.00195,196784826.79877,   0.00090,275624379.57932,  -0.00039,  -0.00053,  -0.00062,-278839552.78055,   0.00000
98028717.24786,19253391.88848,-101630920.35173,   0.00002,  -0.00063,  -0.00194,197685277.92831,   0.00090,275624379.57932,  -0.00039,  -0.00053,  -0.00062,-277939101.65101,   0.00000
102899936.27796,23763035.89779,-101281397.83163,   0.00003,  -0.00062,  -0.00194,198699845.29844,   0.00090,275624379.57932,  -0.00039,  -0.00053,  -0.00062,-276924534.28088,   0.00000
107797269.05955,28306828.65906,-100927857.81130,   0.00005,  -0.00061,  -0.00193,199823488.07731,   0.00090,275624379.57932,  -0.00039,  -0.00053,  -0.00062,-275800891.50201,   0.00000
112702636.84161,32842586.41986,-100570300.29074,   0.00006,  -0.00060,  -0.00193,201052803.12717,   0.00090,275624379.57932,  -0.00039,  -0.00053,  -0.00062,-274571576.45215,   0.00000
117634118.37517,37412492.93263,-100216760.27042,   0.00007,  -0.00059,  -0.00192,202402302.18129,   0.00090,275624379.57932,  -0.00039,  -0.00053,  -0.00062,-273222077.39803,   0.00000
122579661.15954,41988425.69575,-99855185.24963,   0.00009,  -0.00057,  -0.00192,203850553.81749,   0.00090,275624379.57932,  -0.00039,  -0.00053,  -0.00062,-271773825.76183,   0.00000
127545291.44506,46584445.96002,-99493610.22884,   0.00010,  -0.00056,  -0.00191,205409884.54194,   0.00090,275624379.57932,  -0.00039,  -0.00053,  -0.00062,-270214495.03738,   0.00000
132510921.73059,51180466.22429,-99132035.20804,   0.00011,  -0.00055,  -0.00191,207070265.75612,   0.00090,275624379.57932,  -0.00039,  -0.00053,  -0.00062,-268554113.82320,   0.00000
137510700.76807,55802600.24006,-98766442.68702,   0.00013,  -0.00054,  -0.00190,208839888.33251,   0.00090,275624379.57932,  -0.00039,  -0.00053,  -0.00062,-266784491.24681,   0.00000
142516506.05591,60438795.50664,-98400850.16600,   0.00014,  -0.00053,  -0.00190,210709417.14840,   0.00090,275624379.57932,  -0.00039,  -0.00053,  -0.00062,-264914962.43092,   0.00000
147550433.84536,65087043.27392,-98031240.14475,   0.00016,  -0.00052,  -0.00190,212683343.00144,   0.00090,275624379.57932,  -0.00039,  -0.00053,  -0.00062,-262941036.57788,   0.00000
152590387.88516,69749352.29200,-97657612.62327,   0.00017,  -0.00051,  -0.00189,214748098.49903,   0.00090,275624379.57932,  -0.00039,  -0.00053,  -0.00062,-260876281.08029,   0.00000
157650429.42611,74431748.81124,-97288002.60201,   0.00018,  -0.00050,  -0.00189,216920290.23855,   0.00090,275624379.57932,  -0.00039,  -0.00053,  -0.00062,-258704089.34077,   0.00000
162724532.21787,79120171.58082,-96910357.58030,   0.00020,  -0.00048,  -0.00188,219178772.34358,   0.00090,275624379.57932,  -0.00039,  -0.00053,  -0.00062,-256445607.23574,   0.00000
167818722.51079,83828681.85156,-96532712.55858,   0.00021,  -0.00047,  -0.00188,221535647.26649,   0.00090,275624379.57932,  -0.00039,  -0.00053,  -0.00062,-254088732.31283,   0.00000
172926974.05451,88543218.37265,-96155067.53687,   0.00023,  -0.00046,  -0.00187,223985535.44429,   0.00090,275624379.57932,  -0.00039,  -0.00053,  -0.00062,-251638844.13503,   0.00000
178055313.09939,93277842.39489,-95777422.51515,   0.00024,  -0.00045,  -0.00187,226529863.29146,   0.00090,275624379.57932,  -0.00039,  -0.00053,  -0.00062,-249094516.28786,   0.00000
183189678.39462,98026527.66794,-95391742.49298,   0.00025,  -0.00044,  -0.00186,229148344.80499,   0.00090,275624379.57932,  -0.00039,  -0.00053,  -0.00062,-246476034.77433,   0.00000
188352166.19146,102787265.44168,-95010079.97103,   0.00027,  -0.00043,  -0.00186,231866992.54414,   0.00090,275624379.57932,  -0.00039,  -0.00053,  -0.00062,-243757387.03518,   0.00000
193520680.23865,107562064.46623,-94624399.94886,   0.00028,  -0.00041,  -0.00185,234660816.29861,   0.00090,275624379.57932,  -0.00039,  -0.00053,  -0.00062,-240963563.28071,   0.00000
198703255.53665,112342889.74113,-94234702.42645,   0.00030,  -0.00040,  -0.00185,237532204.41131,   0.00090,275624379.57932,  -0.00039,  -0.00053,  -0.00062,-238092175.16801,   0.00000
203905918.33580,117143802.51718,-93849022.40427,   0.00031,  -0.00039,  -0.00184,240493027.73604,   0.00090,275624379.57932,  -0.00039,  -0.00053,  -0.00062,-235131351.84328,   0.00000
209108581.13495,121944715.29324,-93455307.38163,   0.00032,  -0.00038,  -0.00184,243513673.81265,   0.00090,275624379.57932,  -0.00039,  -0.00053,  -0.00062,-232110705.76667,   0.00000
214345392.68607,126771741.82079,-93065609.85923,   0.00034,  -0.00037,  -0.00183,246628681.06398,   0.00090,275624379.57932,  -0.00039,  -0.00053,  -0.00062,-228995698.51534,   0.00000
219582204.23719,131598768.34834,-92671894.83659,   0.00035,  -0.00036,  -0.00183,249804069.01699,   0.00090,275624379.57932,  -0.00039,  -0.00053,  -0.00062,-225820310.56233,   0.00000
224839103.28946,136445882.37705,-92274162.31372,   0.00037,  -0.00034,  -0.00182,253051959.95400,   0.00090,275624379.57932,  -0.00039,  -0.00053,  -0.00062,-222572419.62532,   0.00000
230116089.84288,141313083.90692,-91876429.79085,   0.00038,  -0.00033,  -0.00182,256375161.09971,   0.00090,275624379.57932,  -0.00039,  -0.00053,  -0.00062,-219249218.47961,   0.00000
235393076.39631,146180285.43678,-91478697.26798,   0.00040,  -0.00032,  -0.00181,259757204.57724,   0.00090,275624379.57932,  -0.00039,  -0.00053,  -0.00062,-215867175.00208,   0.00000
240684124.20055,151053513.21699,-91076947.24488,   0.00041,  -0.00031,  -0.00180,263201177.65631,   0.00090,275624379.57932,  -0.00039,  -0.00053,  -0.00062,-212423201.92301,   0.00000
246001285.75628,155960889.74917,-90675197.22178,   0.00043,  -0.00030,  -0.00180,266720502.57288,   0.00090,275624379.57932,  -0.00039,  -0.00053,  -0.00062,-208903877.00644,   0.00000
251326482.31248,160860231.28088,-90273447.19868,   0.00044,  -0.00028,  -0.00179,270296993.05561,   0.00090,275624379.57932,  -0.00039,  -0.00053,  -0.00062,-205327386.52371,   0.00000
256671766.36984,165779660.31374,-89867679.67534,   0.00046,  -0.00027,  -0.00179,273936001.16619,   0.00090,275624379.57932,  -0.00039,  -0.00053,  -0.00062,-201688378.41313,   0.00000
262023076.67754,170713150.59742,-89461912.15201,   0.00047,  -0.00026,  -0.00178,277630309.45358,   0.00090,275624379.57932,  -0.00039,  -0.00053,  -0.00062,-197994070.12574,   0.00000
267374386.98524,175646640.88110,-89052127.12845,   0.00049,  -0.00025,  -0.00178,281368506.36709,   0.00090,275624379.57932,  -0.00039,  -0.00053,  -0.00062,-194255873.21223,   0.00000
272753819.79455,180592183.66546,-88642342.10489,   0.00050,  -0.00024,  -0.00177,285172525.91248,   0.00090,275624379.57932,  -0.00039,  -0.00053,  -0.00062,-190451853.66684,   0.00000
278139278.85422,185551787.70064,-88232557.08132,   0.00051,  -0.00022,  -0.00177,289027051.20215,   0.00090,275624379.57932,  -0.00039,  -0.00053,  -0.00062,-186597328.37717,   0.00000
283544825.41504,190531479.23697,-87822772.05776,   0.00053,  -0.00021,  -0.00176,292940634.70145,   0.00090,275624379.57932,  -0.00039,  -0.00053,  -0.00062,-182683744.87788,   0.00000
288944345.72551,195497109.52250,-87408969.53397,   0.00054,  -0.00020,  -0.00176,296885759.54592,   0.00090,275624379.57932,  -0.00039,  -0.00053,  -0.00062,-178738620.03340,   0.00000
294384041.03829,200502914.81033,-86995167.01017,   0.00056,  -0.00019,  -0.00175,300903641.40874,   0.00090,275624379.57932,  -0.00039,  -0.00053,  -0.00062,-174720738.17059,   0.00000
299809675.10027,205502693.84782,-86577346.98615,   0.00057,  -0.00018,  -0.00175,304946575.02778,   0.00090,275624379.57932,  -0.00039,  -0.00053,  -0.00062,-170677804.55154,   0.00000
305263431.66386,210514525.38600,-86159526.96213,   0.00059,  -0.00016,  -0.00174,309047138.69292,   0.00090,275624379.57932,  -0.00039,  -0.00053,  -0.00062,-166577240.88640,   0.00000
310717188.22745,215526356.92418,-85741706.93810,   0.00060,  -0.00015,  -0.00174,313183586.57914,   0.00090,275624379.57932,  -0.00039,  -0.00053,  -0.00062,-162440793.00018,   0.00000
316182997.29173,220566310.96398,-85323886.91408,   0.00062,  -0.00014,  -0.00173,317367870.20877,   0.00090,275624379.57932,  -0.00039,  -0.00053,  -0.00062,-158256509.37055,   0.00000
321670902.60729,225604256.25366,-84902049.38982,   0.00063,  -0.00013,  -0.00172,321596329.66588,   0.00090,275624379.57932,  -0.00039,  -0.00053,  -0.00062,-154028049.91344,   0.00000
327150772.92238,230650236.54380,-84480211.86556,   0.00065,  -0.00011,  -0.00172,325853456.74389,   0.00090,275624379.57932,  -0.00039,  -0.00053,  -0.00062,-149770922.83543,   0.00000
332658765.73909,235708269.33464,-84058374.34131,   0.00066,  -0.00010,  -0.00171,330162462.42591,   0.00090,275624379.57932,  -0.00039,  -0.00053,  -0.00062,-145461917.15341,   0.00000
338172784.80614,240780363.37629,-83632519.31682,   0.00068,  -0.00009,  -0.00171,334505373.08600,   0.00090,275624379.57932,  -0.00039,  -0.00053,  -0.00062,-141119006.49333,   0.00000
343686803.87320,245852457.41793,-83206664.29234,   0.00070,  -0.00008,  -0.00170,338877340.06369,   0.00090,275624379.57932,  -0.00039,  -0.00053,  -0.00062,-136747039.51563,   0.00000
349220910.44141,250944638.96073,-82780809.26785,   0.00071,  -0.00007,  -0.00170,343294812.03992,   0.00090,275624379.57932,  -0.00039,  -0.00053,  -0.00062,-132329567.53940,   0.00000
354769078.26043,256042846.75388,-82354954.24336,   0.00073,  -0.00005,  -0.00169,347749865.55111,   0.00090,275624379.57932,  -0.00039,  -0.00053,  -0.00062,-127874514.02821,   0.00000
360317246.07945,261141054.54702,-81925081.71864,   0.00074,  -0.00004,  -0.00169,352228192.54478,   0.00090,275624379.57932,  -0.00039,  -0.00053,  -0.00062,-123396187.03454,   0.00000
365865413.89847,266239262.34017,-81495209.19393,   0.00076,  -0.00003,  -0.00168,356731713.40815,   0.00090,275624379.57932,  -0.00039,  -0.00053,  -0.00062,-118892666.17117,   0.00000
371433669.21865,271357557.63447,-81065336.66921,   0.00077,  -0.00002,  -0.00167,361277355.83630,   0.00090,275624379.57932,  -0.00039,  -0.00053,  -0.00062,-114347023.74302,   0.00000
377022012.03997,276495940.42993,-80635464.14449,   0.00079,  -0.00000,  -0.00167,365864429.93070,   0.00090,275624379.57932,  -0.00039,  -0.00053,  -0.00062,-109759949.64862,   0.00000
382610354.86130,281634323.22539,-80201574.11954,   0.00080,   0.00001,  -0.00166,370471651.80225,   0.00090,275624379.57932,  -0.00039,  -0.00053,  -0.00062,-105152727.77707,   0.00000
388198697.68263,286772706.02084,-79767684.09459,   0.00082,   0.00002,  -0.00166,375100883.85692,   0.00090,275624379.57932,  -0.00039,  -0.00053,  -0.00062,-100523495.72240,   0.00000
393801101.75477,291917115.06665,-79333794.06965,   0.00083,   0.00003,  -0.00165,379762005.63279,   0.00090,275624379.57932,  -0.00039,  -0.00053,  -0.00062,-95862373.94653,   0.00000
399423593.32807,297081611.61361,-78899904.04470,   0.00085,   0.00005,  -0.00165,384461793.44433,   0.00090,275624379.57932,  -0.00039,  -0.00053,  -0.00062,-91162586.13499,   0.00000
405046084.90136,302246108.16057,-78461996.51952,   0.00086,   0.00006,  -0.00164,389178998.27522,   0.00090,275624379.57932,  -0.00039,  -0.00053,  -0.00062,-86445381.30410,   0.00000
410668576.47465,307410604.70752,-78028106.49457,   0.00088,   0.00007,  -0.00164,393917809.15731,   0.00090,275624379.57932,  -0.00039,  -0.00053,  -0.00062,-81706570.42201,   0.00000
416297094.29829,312589162.50529,-77590198.96939,   0.00090,   0.00008,  -0.00163,398680338.24757,   0.00090,275624379.57932,  -0.00039,  -0.00053,  -0.00062,-76944041.33175,   0.00000
421939673.37274,317773746.55340,-77152291.44421,   0.00091,   0.00010,  -0.00162,403471584.33102,   0.00090,275624379.57932,  -0.00039,  -0.00053,  -0.00062,-72152795.24830,   0.00000
427596313.69800,322964356.85186,-76714383.91903,   0.00093,   0.00011,  -0.00162,408290956.23021,   0.00090,275624379.57932,  -0.00039,  -0.00053,  -0.00062,-67333423.34911,   0.00000
433244919.02279,328163002.15079,-76272458.89362,   0.00094,   0.00012,  -0.00161,413121805.89219,   0.00090,275624379.57932,  -0.00039,  -0.00053,  -0.00062,-62502573.68713,   0.00000
438921646.84920,333373699.95040,-75830533.86821,   0.00096,   0.00013,  -0.00161,417990564.59830,   0.00090,275624379.57932,  -0.00039,  -0.00053,  -0.00062,-57633814.98102,   0.00000
444584313.42481,338578371.49967,-75392626.34303,   0.00097,   0.00015,  -0.00160,422866452.76943,   0.00090,275624379.57932,  -0.00039,  -0.00053,  -0.00062,-52757926.80989,   0.00000
450261041.25122,343789069.29929,-74950701.31762,   0.00099,   0.00016,  -0.00160,427766207.18428,   0.00090,275624379.57932,  -0.00039,  -0.00053,  -0.00062,-47858172.39504,   0.00000
455943795.32798,349013828.34971,-74508776.29221,   0.00100,   0.00017,  -0.00159,432688549.17986,   0.00090,275624379.57932,  -0.00039,  -0.00053,  -0.00062,-42935830.39946,   0.00000
461626549.40474,354238587.40013,-74066851.26680,   0.00102,   0.00019,  -0.00158,437625189.54097,   0.00090,275624379.57932,  -0.00039,  -0.00053,  -0.00062,-37999190.03835,   0.00000
467323364.73230,359469372.70090,-73620908.74116,   0.00104,   0.00020,  -0.00158,442584494.73239,   0.00090,275624379.57932,  -0.00039,  -0.00053,  -0.00062,-33039884.84693,   0.00000
473026206.31022,364714219.25248,-73178983.71574,   0.00105,   0.00021,  -0.00157,447567158.12691,   0.00090,275624379.57932,  -0.00039,  -0.00053,  -0.00062,-28057221.45241,   0.00000
478729047.88813,369959065.80406,-72733041.19010,   0.00107,   0.00022,  -0.00157,452560875.65632,   0.00090,275624379.57932,  -0.00039,  -0.00053,  -0.00062,-23063503.92300,   0.00000
484445950.71685,375209938.60599,-72287098.66446,   0.00108,   0.00024,  -0.00156,457578097.88958,   0.00090,275624379.57932,  -0.00039,  -0.00053,  -0.00062,-18046281.68974,   0.00000
490148792.29476,380454785.15756,-71841156.13882,   0.00110,   0.00025,  -0.00155,462596675.10224,   0.00090,275624379.57932,  -0.00039,  -0.00053,  -0.00062,-13027704.47708,   0.00000
495871721.37383,385719719.21030,-71399231.11341,   0.00112,   0.00026,  -0.00155,467647853.97138,   0.00090,275624379.57932,  -0.00039,  -0.00053,  -0.00062,-7976525.60794,   0.00000
501602685.45336,390976618.26257,-70949271.08754,   0.00113,   0.00027,  -0.00154,472709684.28375,   0.00090,275624379.57932,  -0.00039,  -0.00053,  -0.00062,-2914695.29557,   0.00000
504892975.61991,394003592.82435,-70692884.84079,   0.00114,   0.00028,  -0.00154,475624382.78976,   0.00090,275624379.57932,  -0.00039,  -0.00053,  -0.00062,  -1.62737,   0.00000
505043845.27890,394546476.49834,-70130963.35218,   0.00115,   0.00029,  -0.00154,475634307.21670,   0.00091,275634313.73487,  -0.00038,  -0.00052,  -0.00063,  -6.51818,   1.00000
505386881.83096,395799741.20612,-68820730.60884,   0.00116,   0.00030,  -0.00153,475657668.19488,   0.00093,275657675.42845,  -0.00037,  -0.00052,  -0.00064,  -7.23356,   1.00000
505706769.44611,397037627.06855,-67524766.98595,   0.00118,   0.00031,  -0.00153,475680965.25716,   0.00095,275680975.01334,  -0.00035,  -0.00051,  -0.00065,  -9.75618,   1.00000
506015952.50839,398241606.59116,-66238438.88625,   0.00119,   0.00033,  -0.00152,475704223.10911,   0.00098,275704230.37908,  -0.00033,  -0.00050,  -0.00066,  -7.26997,   1.00000
506306064.24789,399424470.81835,-64966578.18674,   0.00121,   0.00034,  -0.00151,475727522.47716,   0.00100,275727531.33316,  -0.00031,  -0.00049,  -0.00067,  -8.85600,   1.00000
506578839.50253,400587053.26994,-63706519.64412,   0.00123,   0.00035,  -0.00151,475750717.55017,   0.00102,275750727.22652,  -0.00030,  -0.00048,  -0.00068,  -9.67636,   1.00000
506835485.12647,401725803.35378,-62460220.89361,   0.00124,   0.00036,  -0.00150,475773869.83233,   0.00104,275773875.58971,  -0.00028,  -0.00048,  -0.00069,  -5.75739,   1.00000
507074501.01138,402844473.11452,-61228494.93603,   0.00126,   0.00038,  -0.00150,475797062.49778,   0.00106,275797069.86660,  -0.00026,  -0.00047,  -0.00070,  -7.36883,   1.00000
507302767.44902,403934078.40941,-60007965.91589,   0.00127,   0.00039,  -0.00149,475820165.22833,   0.00108,275820173.59212,  -0.00025,  -0.00046,  -0.00071,  -8.36379,   1.00000
507511118.68515,405011208.88348,-58801480.14490,   0.00129,   0.00040,  -0.00149,475843215.15760,   0.00110,275843219.75086,  -0.00023,  -0.00045,  -0.00072,  -4.59326,   1.00000
507707608.05743,406063285.68739,-57607045.63354,   0.00131,   0.00042,  -0.00148,475866265.75775,   0.00113,275866269.05590,  -0.00021,  -0.00044,  -0.00073,  -3.29815,   1.00000
507888773.39699,407092431.83441,-56429963.78417,   0.00132,   0.00043,  -0.00147,475889273.64885,   0.00115,275889280.27621,  -0.00020,  -0.00043,  -0.00074,  -6.62736,   1.00000
508058137.54661,408101429.73343,-55262589.90532,   0.00134,   0.00044,  -0.00147,475912236.95809,   0.00117,275912241.13820,  -0.00018,  -0.00042,  -0.00075,  -4.18011,   1.00000
508214577.82796,409089506.33635,-54108668.37028,   0.00135,   0.00045,  -0.00146,475935157.90831,   0.00119,275935158.83239,  -0.00016,  -0.00042,  -0.00076,  -0.92409,   1.00000
508355553.25272,410064078.79885,-52967028.78307,   0.00137,   0.00047,  -0.00146,475958069.59384,   0.00121,275958070.74074,  -0.00014,  -0.00041,  -0.00077,  -1.14690,   1.00000
508487429.82050,411011443.20332,-51839803.47739,   0.00138,   0.00048,  -0.00145,475980898.79951,   0.00123,275980904.36375,  -0.00013,  -0.00040,  -0.00078,  -5.56423,   1.00000
508604623.79268,411946049.60113,-50724748.30452,   0.00140,   0.00049,  -0.00144,476003724.58278,   0.00125,276003733.68794,  -0.00011,  -0.00039,  -0.00078,  -9.10517,   1.00000
508710554.06321,412861232.68815,-49622871.74466,   0.00142,   0.00051,  -0.00144,476026519.26193,   0.00127,276026522.83518,  -0.00009,  -0.00038,  -0.00079,  -3.57325,   1.00000
508805599.37412,413757377.59212,-48534088.21666,   0.00143,   0.00052,  -0.00143,476049270.68761,   0.00130,276049272.67656,  -0.00008,  -0.00037,  -0.00080,  -1.98894,   1.00000
508890139.71767,414634871.66467,-47458310.78581,   0.00145,   0.00053,  -0.00143,476071976.82380,   0.00132,276071984.04706,  -0.00006,  -0.00036,  -0.00081,  -7.22326,   1.00000
508964567.41695,415494113.13417,-46395452.39209,   0.00146,   0.00054,  -0.00142,476094655.91146,   0.00134,276094657.70086,  -0.00004,  -0.00035,  -0.00082,  -1.78940,   1.00000
509029222.02793,416335460.06560,-45345418.92714,   0.00148,   0.00056,  -0.00141,476117285.86515,   0.00136,276117294.56963,  -0.00002,  -0.00034,  -0.00083,  -8.70448,   1.00000
509081316.77622,417166014.54721,-44307180.27734,   0.00150,   0.00057,  -0.00141,476139922.14077,   0.00138,276139931.76982,  -0.00001,  -0.00033,  -0.00083,  -9.62905,   1.00000
509126381.73488,417971692.89910,-43286376.08558,   0.00151,   0.00058,  -0.00140,476162497.50893,   0.00140,276162502.17887,   0.00001,  -0.00033,  -0.00084,  -4.66994,   1.00000
509161612.17309,418764716.05764,-42275351.55804,   0.00153,   0.00060,  -0.00140,476184977.52921,   0.00142,276184987.45645,   0.00003,  -0.00032,  -0.00085,  -9.92724,   1.00000
509187563.45350,419544689.91028,-41274735.15095,   0.00154,   0.00061,  -0.00139,476207511.99209,   0.00144,276207521.61745,   0.00004,  -0.00031,  -0.00085,  -9.62536,   1.00000
509203138.80652,420311675.18022,-40287571.05973,   0.00156,   0.00062,  -0.00139,476229967.27432,   0.00146,276229977.18267,   0.00006,  -0.00030,  -0.00086,  -9.90836,   1.00000
509212235.99717,421058668.34791,-39315442.40339,   0.00157,   0.00064,  -0.00138,476252443.05814,   0.00148,276252451.01284,   0.00008,  -0.00029,  -0.00087,  -7.95470,   1.00000
509215947.97806,421787736.38858,-38353414.08740,   0.00159,   0.00065,  -0.00137,476274802.32408,   0.00151,276274807.66748,   0.00010,  -0.00028,  -0.00088,  -5.34340,   1.00000
509208220.25149,422507393.50164,-37406447.87697,   0.00161,   0.00066,  -0.00137,476297174.33078,   0.00153,276297174.56757,   0.00011,  -0.00027,  -0.00088,  -0.23679,   1.00000
509192366.62561,423216264.28157,-36468447.05955,   0.00162,   0.00067,  -0.00136,476319456.11224,   0.00155,276319462.78051,   0.00013,  -0.00026,  -0.00089,  -6.66827,   1.00000
509171341.08737,423906432.68831,-35545143.16207,   0.00164,   0.00069,  -0.00136,476341771.25149,   0.00157,276341771.65511,   0.00015,  -0.00025,  -0.00089,  -0.40361,   1.00000
509141751.27992,424585693.13239,-34634421.86034,   0.00165,   0.00070,  -0.00135,476363999.34511,   0.00159,276364007.68174,   0.00017,  -0.00024,  -0.00090,  -8.33663,   1.00000
509106223.14156,425251001.81849,-33735207.81424,   0.00167,   0.00071,  -0.00135,476386211.28758,   0.00161,276386216.77695,   0.00018,  -0.00023,  -0.00091,  -5.48938,   1.00000
509064996.66473,425902647.32573,-32847391.48030,   0.00169,   0.00073,  -0.00134,476408395.67448,   0.00163,276408399.75970,   0.00020,  -0.00022,  -0.00091,  -4.08522,   1.00000
509014922.13052,426547250.87822,-31970167.81439,   0.00170,   0.00074,  -0.00133,476430590.30963,   0.00165,276430593.47215,   0.00022,  -0.00021,  -0.00092,  -3.16252,   1.00000
508960731.58045,427175749.19274,-31105663.61284,   0.00172,   0.00075,  -0.00133,476452675.60704,   0.00167,276452681.73686,   0.00023,  -0.00020,  -0.00092,  -6.12982,   1.00000
508903913.61271,427788000.38604,-30251379.90985,   0.00173,   0.00077,  -0.00132,476474781.00206,   0.00169,276474790.82245,   0.00025,  -0.00019,  -0.00093,  -9.82039,   1.00000
508837681.87342,428394600.40963,-29409637.43975,   0.00175,   0.00078,  -0.00132,476496783.91142,   0.00171,276496787.72912,   0.00027,  -0.00018,  -0.00093,  -3.81770,   1.00000
508768527.15730,428984811.26447,-28581820.07381,   0.00176,   0.00079,  -0.00131,476518806.80382,   0.00173,276518809.88919,   0.00029,  -0.00017,  -0.00094,  -3.08537,   1.00000
508692781.16520,429566505.90902,-27765405.62310,   0.00178,   0.00080,  -0.00130,476540765.59140,   0.00175,276540766.04718,   0.00030,  -0.00016,  -0.00094,  -0.45577,   1.00000
508610245.79310,430143207.35714,-26954992.95236,   0.00180,   0.00082,  -0.00130,476562727.74551,   0.00177,276562734.43206,   0.00032,  -0.00015,  -0.00095,  -6.68655,   1.00000
508526651.45718,430701536.48314,-26159554.47024,   0.00181,   0.00083,  -0.00129,476584646.74830,   0.00180,276584649.28875,   0.00034,  -0.00014,  -0.00095,  -2.54045,   1.00000
508437056.90786,431252109.62882,-25375091.70173,   0.00183,   0.00084,  -0.00129,476606499.46058,   0.00182,276606500.51898,   0.00035,  -0.00013,  -0.00096,  -1.05840,   1.00000
508343373.15153,431791100.70804,-24604709.09881,   0.00184,   0.00086,  -0.00128,476628335.47379,   0.00184,276628335.49736,   0.00037,  -0.00012,  -0.00096,  -0.02358,   1.00000
508244747.58532,432323366.60419,-23841034.41403,   0.00186,   0.00087,  -0.00128,476650103.52549,   0.00186,276650105.76437,   0.00039,  -0.00011,  -0.00097,  -2.23889,   1.00000
508143061.48700,432845023.52543,-23087267.38579,   0.00187,   0.00088,  -0.00127,476671853.23922,   0.00188,276671858.44552,   0.00041,  -0.00010,  -0.00097,  -5.20630,   1.00000
508037890.32272,433355812.47075,-22347233.21522,   0.00189,   0.00090,  -0.00126,476693593.38693,   0.00190,276693596.49168,   0.00042,  -0.00009,  -0.00097,  -3.10475,   1.00000
507927641.76889,433860031.65565,-21617421.90002,   0.00190,   0.00091,  -0.00126,476715273.92494,   0.00192,276715274.44823,   0.00044,  -0.00007,  -0.00098,  -0.52329,   1.00000
507814878.25061,434354307.26649,-20897118.39883,   0.00192,   0.00092,  -0.00125,476736933.56357,   0.00194,276736936.58480,   0.00046,  -0.00006,  -0.00098,  -3.02123,   1.00000
507697344.52358,434842422.05268,-20186758.32983,   0.00194,   0.00094,  -0.00125,476758532.51535,   0.00196,276758539.96618,   0.00047,  -0.00005,  -0.00098,  -7.45083,   1.00000
507577104.29353,435320555.36521,-19489608.84500,   0.00195,   0.00095,  -0.00124,476780127.89288,   0.00198,276780130.67710,   0.00049,  -0.00004,  -0.00099,  -2.78422,   1.00000
507452918.69667,435793365.01490,-18798136.00503,   0.00197,   0.00096,  -0.00124,476801653.11281,   0.00200,276801661.87996,   0.00051,  -0.00003,  -0.00099,  -8.76715,   1.00000
507326353.53881,436256583.60870,-18119643.06743,   0.00198,   0.00097,  -0.00123,476823173.05485,   0.00202,276823181.34758,   0.00052,  -0.00002,  -0.00099,  -8.29274,   1.00000
507201670.96721,436704946.50435,-17450423.64367,   0.00200,   0.00099,  -0.00122,476844648.28986,   0.00204,276844651.64948,   0.00054,  -0.00001,  -0.00100,  -3.35962,   1.00000
507066832.73079,437157734.75136,-16790488.00592,   0.00201,   0.00100,  -0.00122,476866051.84985,   0.00206,276866059.04685,   0.00056,  -0.00000,  -0.00100,  -7.19699,   1.00000
506932580.17258,437597881.85609,-16142699.22614,   0.00203,   0.00101,  -0.00121,476887496.09621,   0.00208,276887499.00476,   0.00057,   0.00001,  -0.00100,  -2.90854,   1.00000
506798586.41870,438027739.94744,-15500227.68927,   0.00204,   0.00103,  -0.00121,476908838.16215,   0.00210,276908846.60379,   0.00059,   0.00002,  -0.00101,  -8.44164,   1.00000
506660476.58955,438452697.66493,-14870518.28669,   0.00206,   0.00104,  -0.00120,476930131.99950,   0.00212,276930141.59427,   0.00061,   0.00003,  -0.00101,  -9.59477,   1.00000
506515155.70094,438879061.54651,-14249111.22878,   0.00207,   0.00105,  -0.00120,476951411.50647,   0.00214,276951418.84449,   0.00062,   0.00004,  -0.00101,  -7.33802,   1.00000
506372192.09640,439291314.63593,-13640105.06972,   0.00209,   0.00106,  -0.00119,476972648.56689,   0.00216,276972651.11865,   0.00064,   0.00005,  -0.00101,  -2.55176,   1.00000
506228740.59180,439696141.44630,-13035121.77583,   0.00210,   0.00108,  -0.00119,476993871.94766,   0.00218,276993871.97648,   0.00066,   0.00006,  -0.00102,  -0.02882,   1.00000
506081664.25265,440096753.29904,-12442358.05598,   0.00212,   0.00109,  -0.00118,477015033.97409,   0.00220,277015041.87398,   0.00067,   0.00008,  -0.00102,  -7.89989,   1.00000
505931458.00588,440493602.75104,-11857678.37279,   0.00213,   0.00110,  -0.00117,477036159.20769,   0.00222,277036159.80703,   0.00069,   0.00009,  -0.00102,  -0.59934,   1.00000
505778184.35046,440886777.15720,-11280953.54445,   0.00215,   0.00112,  -0.00117,477057216.82083,   0.00224,277057226.34502,   0.00071,   0.00010,  -0.00102,  -9.52419,   1.00000
505627905.77930,441266796.83431,-10715972.46396,   0.00216,   0.00113,  -0.00116,477078248.21034,   0.00226,277078249.43282,   0.00072,   0.00011,  -0.00102,  -1.22248,   1.00000
505471036.61200,441649227.92152,-10158417.54092,   0.00218,   0.00114,  -0.00116,477099252.42208,   0.00228,277099257.89208,   0.00074,   0.00012,  -0.00103,  -5.47000,   1.00000
505317649.52285,442019040.48298,-9608374.51486,   0.00219,   0.00116,  -0.00115,477120214.48482,   0.00230,277120222.43775,   0.00076,   0.00013,  -0.00103,  -7.95293,   1.00000
505161523.52889,442385840.26216,-9065763.87514,   0.00221,   0.00117,  -0.00115,477141127.64251,   0.00232,277141137.05929,   0.00077,   0.00014,  -0.00103,  -9.41679,   1.00000
505002513.65395,442749532.28238,-8534426.75436,   0.00222,   0.00118,  -0.00114,477161995.27146,   0.00234,277162003.01311,   0.00079,   0.00015,  -0.00103,  -7.74165,   1.00000
504840949.26985,443110425.97212,-8010234.48325,   0.00224,   0.00119,  -0.00114,477182813.13892,   0.00236,277182819.72030,   0.00081,   0.00016,  -0.00103,  -6.58138,   1.00000
504679499.56170,443464907.22822,-7492872.85246,   0.00225,   0.00121,  -0.00113,477203628.65177,   0.00238,277203629.71511,   0.00082,   0.00017,  -0.00103,  -1.06334,   1.00000
504515606.03399,443816805.36110,-6982444.26932,   0.00227,   0.00122,  -0.00113,477224383.81947,   0.00240,277224391.15952,   0.00084,   0.00018,  -0.00103,  -7.34005,   1.00000
504352905.52039,444160491.55859,-6482947.62358,   0.00228,   0.00123,  -0.00112,477245059.65296,   0.00242,277245068.94788,   0.00085,   0.00020,  -0.00104,  -9.29492,   1.00000
504184171.42491,444507457.69930,-5989961.41366,   0.00230,   0.00125,  -0.00111,477265726.11765,   0.00244,277265734.79257,   0.00087,   0.00021,  -0.00104,  -8.67491,   1.00000
504016960.86897,444846568.42930,-5503653.70465,   0.00231,   0.00126,  -0.00111,477286309.69942,   0.00246,277286316.85300,   0.00089,   0.00022,  -0.00104,  -7.15358,   1.00000
503850073.83097,445179701.05383,-5027610.41735,   0.00233,   0.00127,  -0.00110,477306891.30302,   0.00248,277306894.00494,   0.00090,   0.00023,  -0.00104,  -2.70191,   1.00000
503681057.66678,445510837.82056,-4557860.57120,   0.00234,   0.00128,  -0.00110,477327420.90874,   0.00249,277327423.96466,   0.00092,   0.00024,  -0.00104,  -3.05592,   1.00000
503509965.36144,445840047.06638,-4094302.05933,   0.00236,   0.00130,  -0.00109,477347898.35020,   0.00251,277347907.00605,   0.00093,   0.00025,  -0.00104,  -8.65585,   1.00000
503340516.73056,446161831.23946,-3640882.77790,   0.00237,   0.00131,  -0.00109,477368303.13524,   0.00253,277368307.60980,   0.00095,   0.00026,  -0.00104,  -4.47455,   1.00000
503171766.85824,446478189.62531,-3193308.68483,   0.00239,   0.00132,  -0.00108,477388702.10550,   0.00255,277388703.55371,   0.00097,   0.00027,  -0.00104,  -1.44821,   1.00000
502994607.69441,446802190.89104,-2751590.57696,   0.00240,   0.00134,  -0.00108,477409042.83702,   0.00257,277409047.63758,   0.00098,   0.00028,  -0.00104,  -4.80057,   1.00000
502819362.13994,447119094.14318,-2315675.19385,   0.00241,   0.00135,  -0.00107,477429308.51319,   0.00259,277429309.54630,   0.00100,   0.00029,  -0.00104,  -1.03311,   1.00000
502648686.95073,447425247.84075,-1889364.31758,   0.00243,   0.00136,  -0.00107,477449526.81458,   0.00261,277449531.45428,   0.00101,   0.00031,  -0.00104,  -4.63970,   1.00000
502472413.48727,447735548.22793,-1468524.16143,   0.00244,   0.00137,  -0.00106,477469743.15677,   0.00263,277469743.87712,   0.00103,   0.00032,  -0.00104,  -0.72036,   1.00000
502298113.65880,448039080.03284,-1057099.14278,   0.00246,   0.00139,  -0.00106,477489874.08293,   0.00265,277489874.82731,   0.00104,   0.00033,  -0.00104,  -0.74438,   1.00000
502119322.30666,448345205.77746,-650967.43307,   0.00247,   0.00140,  -0.00105,477509913.79102,   0.00267,277509918.96373,   0.00106,   0.00034,  -0.00104,  -5.17271,   1.00000
501941603.94004,448646396.74496,-250008.34286,   0.00248,   0.00141,  -0.00105,477529955.71646,   0.00269,277529959.54740,   0.00108,   0.00035,  -0.00104,  -3.83094,   1.00000
501762216.04655,448946516.58877,141878.96564,   0.00250,   0.00142,  -0.00104,477549952.93487,   0.00271,277549955.22847,   0.00109,   0.00036,  -0.00104,  -2.29360,   1.00000
501581206.89606,449245623.54666,528794.49417,   0.00251,   0.00144,  -0.00104,477569905.04708,   0.00272,277569906.12838,   0.00111,   0.00037,  -0.00104,  -1.08130,   1.00000
501402383.63646,449538403.75469,910840.49281,   0.00253,   0.00145,  -0.00103,477589770.07377,   0.00274,277589776.21894,   0.00112,   0.00038,  -0.00104,  -6.14517,   1.00000
501221969.37698,449830348.93373,1288084.28546,   0.00254,   0.00146,  -0.00103,477609599.47771,   0.00276,277609601.86767,   0.00114,   0.00039,  -0.00104,  -2.38996,   1.00000
501040024.65049,450121526.09081,1656637.52187,   0.00255,   0.00148,  -0.00102,477629382.85606,   0.00278,277629383.11078,   0.00115,   0.00040,  -0.00104,  -0.25472,   1.00000
500857574.21028,450410467.68497,2016727.14501,   0.00257,   0.00149,  -0.00102,477649040.99717,   0.00280,277649042.43294,   0.00117,   0.00042,  -0.00104,  -1.43577,   1.00000
500672655.09579,450700256.14104,2372243.68396,   0.00258,   0.00150,  -0.00101,477668731.62482,   0.00282,277668735.26372,   0.00118,   0.00043,  -0.00104,  -3.63889,   1.00000
500490072.52171,450984091.18390,2723424.69044,   0.00260,   0.00151,  -0.00101,477688343.81542,   0.00284,277688347.85276,   0.00120,   0.00044,  -0.00104,  -4.03734,   1.00000
500303162.39449,451271171.47157,3070366.90817,   0.00261,   0.00153,  -0.00100,477707872.84429,   0.00286,277707875.47268,   0.00121,   0.00045,  -0.00104,  -2.62840,   1.00000
500121562.54801,451548698.00300,3409090.79749,   0.00262,   0.00154,  -0.00100,477727358.73308,   0.00287,277727363.98924,   0.00123,   0.00046,  -0.00104,  -5.25616,   1.00000
499935631.94811,451829632.13863,3743789.81283,   0.00264,   0.00155,  -0.00099,477746761.14053,   0.00289,277746767.82183,   0.00124,   0.00047,  -0.00104,  -6.68130,   1.00000
499744583.14572,452115487.82672,4070378.55895,   0.00265,   0.00156,  -0.00099,477766156.88371,   0.00291,277766164.18789,   0.00126,   0.00048,  -0.00104,  -7.30417,   1.00000
499559804.13397,452390434.45905,4393232.18792,   0.00266,   0.00158,  -0.00098,477785441.10631,   0.00293,277785444.43363,   0.00127,   0.00049,  -0.00104,  -3.32732,   1.00000
499369797.65834,452670324.84857,4712112.67982,   0.00268,   0.00159,  -0.00098,477804710.42467,   0.00295,277804717.87979,   0.00129,   0.00050,  -0.00104,  -7.45513,   1.00000
499182386.56336,452944810.93093,5023337.69100,   0.00269,   0.00160,  -0.00097,477823907.80185,   0.00297,277823911.27862,   0.00130,   0.00051,  -0.00104,  -3.47677,   1.00000
498993743.52890,453219209.47736,5326906.59628,   0.00270,   0.00161,  -0.00097,477843055.55863,   0.00298,277843061.09766,   0.00132,   0.00053,  -0.00104,  -5.53902,   1.00000
498800678.23233,453497116.12140,5631008.81456,   0.00272,   0.00163,  -0.00096,477862120.92873,   0.00300,277862127.53835,   0.00133,   0.00054,  -0.00103,  -6.60962,   1.00000
498610262.81534,453769775.39256,5927718.25250,   0.00273,   0.00164,  -0.00096,477881104.26078,   0.00302,277881114.14164,   0.00135,   0.00055,  -0.00103,  -9.88086,   1.00000
498414866.67090,454047643.46956,6216862.64665,   0.00274,   0.00165,  -0.00095,477900088.21951,   0.00304,277900093.77046,   0.00136,   0.00056,  -0.00103,  -5.55094,   1.00000
498225667.47102,454314913.20974,6506924.04349,   0.00276,   0.00166,  -0.00095,477918952.74960,   0.00306,277918958.38266,   0.00137,   0.00057,  -0.00103,  -5.63306,   1.00000
498031656.11693,454587654.42768,6785556.62182,   0.00277,   0.00168,  -0.00094,477937814.99658,   0.00307,277937815.53286,   0.00139,   0.00058,  -0.00103,  -0.53628,   1.00000
497837008.39286,454858897.65732,7065313.48937,   0.00278,   0.00169,  -0.00094,477956553.27352,   0.00309,277956553.53722,   0.00140,   0.00059,  -0.00103,  -0.26370,   1.00000
497641443.04794,455130492.07647,7333959.77522,   0.00279,   0.00170,  -0.00093,477975246.95585,   0.00311,277975247.65188,   0.00142,   0.00060,  -0.00103,  -0.69603,   1.00000
497444408.64743,455401950.35938,7603540.28857,   0.00281,   0.00171,  -0.00093,477993895.01025,   0.00313,277993900.08091,   0.00143,   0.00061,  -0.00103,  -5.07065,   1.00000
497247116.22585,455672387.44818,7866515.56140,   0.00282,   0.00173,  -0.00092,478012431.71755,   0.00315,278012432.17359,   0.00144,   0.00062,  -0.00103,  -0.45604,   1.00000
497044709.18439,455947991.83112,8126374.50752,   0.00283,   0.00174,  -0.00092,478030951.99791,   0.00316,278030958.62760,   0.00146,   0.00063,  -0.00102,  -6.62969,   1.00000
496848964.66903,456213709.91993,8379781.02962,   0.00284,   0.00175,  -0.00091,478049365.19189,   0.00318,278049368.87399,   0.00147,   0.00064,  -0.00102,  -3.68210,   1.00000
496648095.69229,456484692.70109,8630204.27091,   0.00286,   0.00176,  -0.00091,478067770.88587,   0.00320,278067773.58161,   0.00149,   0.00065,  -0.00102,  -2.69574,   1.00000
496446969.45859,456754820.67525,8874363.85559,   0.00287,   0.00178,  -0.00091,478086055.21014,   0.00322,278086058.18408,   0.00150,   0.00067,  -0.00102,  -2.97394,   1.00000
496241501.33783,457028973.50838,9116120.14851,   0.00288,   0.00179,  -0.00090,478104253.53384,   0.00323,278104260.27859,   0.00151,   0.00068,  -0.00102,  -6.74476,   1.00000
496041993.47346,457294659.59493,9351294.27721,   0.00289,   0.00180,  -0.00090,478122422.13361,   0.00325,278122423.31558,   0.00153,   0.00069,  -0.00102,  -1.18197,   1.00000
495838089.40889,457564469.33589,9584211.41475,   0.00291,   0.00181,  -0.00089,478140495.64508,   0.00327,278140504.03061,   0.00154,   0.00070,  -0.00102,  -8.38554,   1.00000
495629826.26485,457838388.66245,9814921.42166,   0.00292,   0.00182,  -0.00089,478158500.74399,   0.00329,278158502.47242,   0.00155,   0.00071,  -0.00101,  -1.72843,   1.00000
495423712.27492,458108911.66951,10038985.41160,   0.00293,   0.00184,  -0.00088,478176490.08921,   0.00330,278176498.63193,   0.00157,   0.00072,  -0.00101,  -8.54272,   1.00000
495213923.98030,458382440.79163,10261487.81341,   0.00294,   0.00185,  -0.00088,478194332.60799,   0.00332,278194335.60528,   0.00158,   0.00073,  -0.00101,  -2.99729,   1.00000
495006321.02825,458652639.84021,10477461.27535,   0.00295,   0.00186,  -0.00087,478212167.97302,   0.00334,278212170.27452,   0.00159,   0.00074,  -0.00101,  -2.30150,   1.00000
494798146.97181,458922067.80247,10691753.47840,   0.00296,   0.00187,  -0.00087,478229884.66534,   0.00335,278229886.29294,   0.00161,   0.00075,  -0.00101,  -1.62760,   1.00000
494585807.49404,459195962.98544,10900192.14677,   0.00298,   0.00189,  -0.00087,478247519.39974,   0.00337,278247519.45243,   0.00162,   0.00076,  -0.00101,  -0.05268,   1.00000
494372219.03476,459470179.56751,11106541.06108,   0.00299,   0.00190,  -0.00086,478265104.70145,   0.00339,278265111.17304,   0.00163,   0.00077,  -0.00101,  -6.47159,   1.00000
494161542.86833,459740097.95206,11307138.73001,   0.00300,   0.00191,  -0.00086,478282621.62797,   0.00340,278282623.51663,   0.00165,   0.00078,  -0.00100,  -1.88866,   1.00000
493946371.54141,460014279.95894,11506058.28740,   0.00301,   0.00192,  -0.00085,478300051.65592,   0.00342,278300054.32231,   0.00166,   0.00079,  -0.00100,  -2.66640,   1.00000
493726717.94937,460292691.40328,11703338.16110,   0.00302,   0.00193,  -0.00085,478317403.32759,   0.00344,278317403.70860,   0.00167,   0.00080,  -0.00100,  -0.38101,   1.00000
493509979.01076,460566837.25485,11895027.09710,   0.00303,   0.00195,  -0.00084,478334669.22685,   0.00345,278334673.90366,   0.00169,   0.00081,  -0.00100,  -4.67681,   1.00000
493292285.83412,460841691.72376,12080919.41700,   0.00304,   0.00196,  -0.00084,478351898.10230,   0.00347,278351901.68316,   0.00170,   0.00082,  -0.00100,  -3.58086,   1.00000
493070051.82469,461120820.81837,12265368.93952,   0.00306,   0.00197,  -0.00084,478369039.76524,   0.00349,278369048.26932,   0.00171,   0.00083,  -0.00099,  -8.50408,   1.00000
492847150.61731,461399356.36068,12448706.58603,   0.00307,   0.00198,  -0.00083,478386070.79390,   0.00350,278386076.85654,   0.00172,   0.00084,  -0.00099,  -6.06264,   1.00000
492623296.18137,461678599.19395,12626380.57478,   0.00308,   0.00199,  -0.00083,478403056.05444,   0.00352,278403063.23802,   0.00174,   0.00085,  -0.00099,  -7.18359,   1.00000
492398723.40334,461957303.99744,12803061.08029,   0.00309,   0.00201,  -0.00082,478419922.12879,   0.00354,278419931.78759,   0.00175,   0.00087,  -0.00099,  -9.65881,   1.00000
492173194.65795,462236768.05499,12974177.30008,   0.00310,   0.00202,  -0.00082,478436750.56332,   0.00355,278436758.17336,   0.00176,   0.00088,  -0.00099,  -7.61005,   1.00000
491943044.22670,462520547.36804,13144099.85178,   0.00311,   0.00203,  -0.00081,478453499.82393,   0.00357,278453503.83177,   0.00177,   0.00089,  -0.00099,  -4.00784,   1.00000
491712469.39412,462804133.13054,13309212.69527,   0.00312,   0.00204,  -0.00081,478470124.96148,   0.00358,278470130.60326,   0.00179,   0.00090,  -0.00098,  -5.64178,   1.00000
491480595.60110,463088158.41230,13472886.60274,   0.00313,   0.00205,  -0.00081,478486708.72036,   0.00360,278486716.68530,   0.00180,   0.00091,  -0.00098,  -7.96494,   1.00000
491244403.62435,463376820.39046,13631532.16435,   0.00314,   0.00207,  -0.00080,478503216.27843,   0.00362,278503220.98306,   0.00181,   0.00092,  -0.00098,  -4.70463,   1.00000
491007405.42229,463665009.53173,13789511.75243,   0.00315,   0.00208,  -0.00080,478519604.43792,   0.00363,278519607.91138,   0.00182,   0.00093,  -0.00098,  -3.47346,   1.00000
490773321.12941,463949235.18004,13942534.61642,   0.00316,   0.00209,  -0.00079,478535914.41643,   0.00365,278535915.89962,   0.00183,   0.00094,  -0.00098,  -1.48319,   1.00000
490530606.04387,464242538.37166,14094316.16265,   0.00317,   0.00210,  -0.00079,478552176.30370,   0.00366,278552180.85751,   0.00185,   0.00095,  -0.00097,  -4.55381,   1.00000
490290821.60327,464531872.94565,14241232.33461,   0.00318,   0.00211,  -0.00079,478568359.98486,   0.00368,278568366.92981,   0.00186,   0.00096,  -0.00097,  -6.94495,   1.00000
490050137.95444,464820859.12297,14387680.60574,   0.00319,   0.00213,  -0.00078,478584432.16146,   0.00370,278584435.87650,   0.00187,   0.00097,  -0.00097,  -3.71504,   1.00000
489804640.63060,465114202.53223,14533337.32065,   0.00320,   0.00214,  -0.00078,478600424.40224,   0.00371,278600425.01319,   0.00188,   0.00098,  -0.00097,  -0.61095,   1.00000
489554694.54491,465412207.74068,14674261.20010,   0.00321,   0.00215,  -0.00078,478616331.40999,   0.00373,278616333.04938,   0.00189,   0.00099,  -0.00097,  -1.63939,   1.00000
489307656.12163,465706323.72058,14810492.66783,   0.00322,   0.00216,  -0.00077,478632160.08856,   0.00374,278632162.34892,   0.00190,   0.00100,  -0.00096,  -2.26036,   1.00000
489055744.94028,466004786.32180,14946077.88451,   0.00323,   0.00217,  -0.00077,478647908.53608,   0.00376,278647912.10564,   0.00192,   0.00101,  -0.00096,  -3.56956,   1.00000
488802828.22255,466302929.63968,15081399.67362,   0.00324,   0.00218,  -0.00076,478663537.46752,   0.00377,278663545.25188,   0.00193,   0.00102,  -0.00096,  -7.78435,   1.00000
488545391.28575,466605776.94759,15212150.70614,   0.00325,   0.00220,  -0.00076,478679096.20087,   0.00379,278679097.61374,   0.00194,   0.00103,  -0.00096,  -1.41287,   1.00000
488286940.10315,466909391.84457,15337997.15053,   0.00326,   0.00221,  -0.00076,478694600.22913,   0.00380,278694608.74301,   0.00195,   0.00104,  -0.00096,  -8.51389,   1.00000
488027436.49781,467212731.63005,15463725.84997,   0.00327,   0.00222,  -0.00075,478710000.00707,   0.00382,278710003.41851,   0.00196,   0.00104,  -0.00095,  -3.41144,   1.00000
487766825.50702,467515818.26841,15589355.58261,   0.00328,   0.00223,  -0.00075,478725280.16361,   0.00383,278725281.83420,   0.00197,   0.00105,  -0.00095,  -1.67060,   1.00000
487497704.00738,467828170.22381,15710181.63939,   0.00329,   0.00224,  -0.00075,478740513.04937,   0.00385,278740517.27059,   0.00198,   0.00106,  -0.00095,  -4.22122,   1.00000
487235341.94023,468132187.63498,15827004.74870,   0.00330,   0.00225,  -0.00074,478755636.26752,   0.00386,278755636.92606,   0.00199,   0.00107,  -0.00095,  -0.65854,   1.00000
486964004.66253,468445088.11875,15943089.54999,   0.00331,   0.00227,  -0.00074,478770709.89979,   0.00387,278770715.34702,   0.00200,   0.00108,  -0.00095,  -5.44723,   1.00000
486691750.74060,468757112.78921,16060024.88880,   0.00331,   0.00228,  -0.00074,478785593.27973,   0.00389,278785601.27093,   0.00201,   0.00109,  -0.00094,  -7.99120,   1.00000
486414542.70064,469074453.71803,16171868.55231,   0.00332,   0.00229,  -0.00073,478800483.06279,   0.00390,278800483.87043,   0.00202,   0.00110,  -0.00094,  -0.80764,   1.00000
486136089.69998,469391544.51599,16283835.04305,   0.00333,   0.00230,  -0.00073,478815245.82430,   0.00392,278815250.84598,   0.00204,   0.00111,  -0.00094,  -5.02168,   1.00000
485860440.64247,469704946.63225,16391561.66046,   0.00334,   0.00231,  -0.00072,478829930.36194,   0.00393,278829939.72795,   0.00205,   0.00112,  -0.00094,  -9.36601,   1.00000
485576320.72196,470026971.96091,16495533.94194,   0.00335,   0.00232,  -0.00072,478844502.78963,   0.00395,278844509.88536,   0.00206,   0.00113,  -0.00094,  -7.09574,   1.00000
485290264.49496,470348956.50229,16602885.63087,   0.00336,   0.00233,  -0.00072,478859039.40959,   0.00396,278859042.85512,   0.00207,   0.00114,  -0.00093,  -3.44553,   1.00000
484999978.17288,470675458.50064,16702953.79460,   0.00337,   0.00234,  -0.00071,478873412.24958,   0.00397,278873418.35138,   0.00208,   0.00115,  -0.00093,  -6.10181,   1.00000
484708150.37064,471002305.98302,16802491.64780,   0.00337,   0.00236,  -0.00071,478887750.83566,   0.00399,278887755.20392,   0.00209,   0.00116,  -0.00093,  -4.36826,   1.00000
484414913.75865,471328994.02488,16902348.04691,   0.00338,   0.00237,  -0.00071,478901976.81393,   0.00400,278901976.99917,   0.00210,   0.00117,  -0.00093,  -0.18525,   1.00000
484116751.86135,471660339.60560,16998155.35035,   0.00339,   0.00238,  -0.00070,478916115.46691,   0.00402,278916119.87132,   0.00211,   0.00118,  -0.00093,  -4.40441,   1.00000
483817121.08479,471991536.84585,17094340.31556,   0.00340,   0.00239,  -0.00070,478930141.44885,   0.00403,278930147.92598,   0.00212,   0.00119,  -0.00092,  -6.47713,   1.00000
483512521.01034,472327390.90664,17186529.42353,   0.00341,   0.00240,  -0.00070,478944093.85211,   0.00404,278944097.27982,   0.00213,   0.00120,  -0.00092,  -3.42771,   1.00000
483206382.40408,472663101.28814,17279152.45668,   0.00341,   0.00241,  -0.00069,478957926.51848,   0.00406,278957932.08812,   0.00214,   0.00120,  -0.00092,  -5.56964,   1.00000
482895213.59176,473003453.67855,17367829.90967,   0.00342,   0.00242,  -0.00069,478971685.23331,   0.00407,278971688.47924,   0.00215,   0.00121,  -0.00092,  -3.24592,   1.00000
482582441.21784,473343674.37490,17456995.40186,   0.00343,   0.00243,  -0.00069,478985324.19378,   0.00408,278985330.57512,   0.00216,   0.00122,  -0.00092,  -6.38134,   1.00000
482264575.14006,473688522.00358,17542263.32457,   0.00344,   0.00245,  -0.00069,478998888.83778,   0.00410,278998894.54467,   0.00216,   0.00123,  -0.00091,  -5.70689,   1.00000
481948914.68267,474029360.84490,17627628.86807,   0.00344,   0.00246,  -0.00068,479012374.80721,   0.00411,279012383.06321,   0.00217,   0.00124,  -0.00091,  -8.25600,   1.00000
481624199.39421,474378749.55130,17709589.37108,   0.00345,   0.00247,  -0.00068,479025751.57582,   0.00412,279025755.09813,   0.00218,   0.00125,  -0.00091,  -3.52231,   1.00000
481293849.60687,474732264.78684,17791700.68616,   0.00346,   0.00248,  -0.00068,479039045.88991,   0.00413,279039051.24119,   0.00219,   0.00126,  -0.00091,  -5.35128,   1.00000
480961741.98577,475085655.25034,17874408.85350,   0.00346,   0.00249,  -0.00067,479052227.01973,   0.00415,279052233.77123,   0.00220,   0.00127,  -0.00091,  -6.75150,   1.00000
480632667.73323,475435950.14589,17949344.77608,   0.00347,   0.00250,  -0.00067,479065331.51780,   0.00416,279065337.71769,   0.00221,   0.00128,  -0.00090,  -6.19989,   1.00000
480293425.23733,475793870.30691,18028927.97649,   0.00348,   0.00251,  -0.00067,479078323.87111,   0.00417,279078329.47124,   0.00222,   0.00128,  -0.00090,  -5.60013,   1.00000
479952753.70152,476152164.19533,18105196.65892,   0.00348,   0.00252,  -0.00066,479091203.53567,   0.00419,279091206.22947,   0.00223,   0.00129,  -0.00090,  -2.69380,   1.00000
479606702.20654,476515014.50644,18177738.89573,   0.00349,   0.00253,  -0.00066,479104000.99170,   0.00420,279104006.12172,   0.00224,   0.00130,  -0.00090,  -5.13003,   1.00000
479258689.93038,476877803.46302,18251006.84506,   0.00350,   0.00254,  -0.00066,479116684.86654,   0.00421,279116693.02796,   0.00225,   0.00131,  -0.00090,  -8.16141,   1.00000
478904782.75583,477244695.47764,18324550.70405,   0.00350,   0.00256,  -0.00066,479129304.64998,   0.00422,279129305.14415,   0.00225,   0.00132,  -0.00089,  -0.49416,   1.00000
478549280.55421,477611984.47248,18394865.15046,   0.00351,   0.00257,  -0.00065,479141798.70788,   0.00423,279141802.84732,   0.00226,   0.00133,  -0.00089,  -4.13944,   1.00000
478188254.84321,477983808.05662,18461528.24360,   0.00351,   0.00258,  -0.00065,479154222.45000,   0.00425,279154224.29845,   0.00227,   0.00133,  -0.00089,  -1.84845,   1.00000
477817119.53748,478363554.63687,18528997.61138,   0.00352,   0.00259,  -0.00065,479166532.23808,   0.00426,279166533.38919,   0.00228,   0.00134,  -0.00089,  -1.15112,   1.00000
477451834.34504,478735264.76302,18597276.26390,   0.00353,   0.00260,  -0.00064,479178728.21496,   0.00427,279178730.23955,   0.00229,   0.00135,  -0.00089,  -2.02459,   1.00000
477072860.97627,479119426.58713,18661935.71665,   0.00353,   0.00261,  -0.00064,479190846.69483,   0.00428,279190851.58514,   0.00230,   0.00136,  -0.00088,  -4.89030,   1.00000
476699693.27173,479495609.95478,18727444.03120,   0.00354,   0.00262,  -0.00064,479202857.69234,   0.00429,279202860.81864,   0.00230,   0.00137,  -0.00088,  -3.12630,   1.00000
476316605.84249,479880199.04874,18789832.91539,   0.00354,   0.00263,  -0.00064,479214753.82277,   0.00431,279214756.73230,   0.00231,   0.00138,  -0.00088,  -2.90953,   1.00000
475927734.83799,480269220.72772,18848666.29143,   0.00355,   0.00264,  -0.00063,479226572.19313,   0.00432,279226577.56404,   0.00232,   0.00138,  -0.00088,  -5.37091,   1.00000
475536008.69162,480657742.67918,18912377.13137,   0.00355,   0.00265,  -0.00063,479238281.74062,   0.00433,279238288.83054,   0.00233,   0.00139,  -0.00088,  -7.08993,   1.00000
475138419.48199,481050690.18513,18972532.62253,   0.00356,   0.00266,  -0.00063,479249924.93739,   0.00434,279249925.40270,   0.00234,   0.00140,  -0.00087,  -0.46531,   1.00000
474738804.73630,481444092.22652,19029639.23626,   0.00356,   0.00267,  -0.00063,479261447.72940,   0.00435,279261449.07839,   0.00234,   0.00141,  -0.00087,  -1.34899,   1.00000
474336645.82157,481837518.88678,19087692.64559,   0.00357,   0.00268,  -0.00062,479272861.39326,   0.00436,279272861.79191,   0.00235,   0.00142,  -0.00087,  -0.39866,   1.00000
473924165.70919,482239245.72611,19142717.91342,   0.00357,   0.00269,  -0.00062,479284157.57878,   0.00437,279284162.64971,   0.00236,   0.00142,  -0.00087,  -5.07092,   1.00000
473505155.33557,482644833.01028,19198235.73116,   0.00358,   0.00270,  -0.00062,479295386.06167,   0.00438,279295391.50712,   0.00237,   0.00143,  -0.00087,  -5.44545,   1.00000
473083457.04286,483050397.40617,19254729.41801,   0.00358,   0.00272,  -0.00061,479306504.90675,   0.00439,279306510.05348,   0.00237,   0.00144,  -0.00087,  -5.14673,   1.00000
472659481.66149,483456461.83997,19308233.65399,   0.00359,   0.00273,  -0.00061,479317513.86806,   0.00441,279317516.54631,   0.00238,   0.00145,  -0.00086,  -2.67825,   1.00000
472229272.81217,483866855.28369,19358288.35384,   0.00359,   0.00274,  -0.00061,479328443.26024,   0.00442,279328449.77556,   0.00239,   0.00146,  -0.00086,  -6.51533,   1.00000
471795738.24704,484276796.39415,19413342.06416,   0.00360,   0.00275,  -0.00061,479339273.41024,   0.00443,279339275.00466,   0.00239,   0.00146,  -0.00086,  -1.59441,   1.00000
471351916.18306,484695415.98486,19461451.79515,   0.00360,   0.00276,  -0.00060,479349983.20068,   0.00444,279349988.07844,   0.00240,   0.00147,  -0.00086,  -4.87775,   1.00000
470904650.91474,485113552.94138,19514584.81773,   0.00360,   0.00277,  -0.00060,479360593.14518,   0.00445,279360593.61091,   0.00241,   0.00148,  -0.00086,  -0.46573,   1.00000
470455286.82647,485532706.37501,19560813.53728,   0.00361,   0.00278,  -0.00060,479371081.20980,   0.00446,279371086.13259,   0.00241,   0.00149,  -0.00085,  -4.92279,   1.00000
469998466.77035,485955144.28515,19611593.95164,   0.00361,   0.00279,  -0.00060,479381510.01313,   0.00447,279381510.24269,   0.00242,   0.00149,  -0.00085,  -0.22956,   1.00000
469530562.00478,486385672.61362,19659441.16439,   0.00362,   0.00280,  -0.00060,479391816.62568,   0.00448,279391825.24468,   0.00243,   0.00150,  -0.00085,  -8.61901,   1.00000
469063803.83001,486813045.85559,19704900.28069,   0.00362,   0.00281,  -0.00059,479401985.72888,   0.00449,279401990.77663,   0.00243,   0.00151,  -0.00085,  -5.04775,   1.00000
468585989.96443,487247766.38035,19750456.90523,   0.00362,   0.00282,  -0.00059,479412119.69472,   0.00450,279412125.75116,   0.00244,   0.00151,  -0.00085,  -6.05644,   1.00000
468108708.90174,487678881.35531,19797618.88184,   0.00363,   0.00283,  -0.00059,479422110.77496,   0.00451,279422113.49671,   0.00245,   0.00152,  -0.00085,  -2.72175,   1.00000
467619991.61712,488118050.70544,19841886.95201,   0.00363,   0.00284,  -0.00059,479431987.50071,   0.00452,279431993.19396,   0.00245,   0.00153,  -0.00084,  -5.69325,   1.00000
467128548.73653,488556958.51999,19886288.33676,   0.00363,   0.00285,  -0.00058,479441834.99760,   0.00453,279441841.21834,   0.00246,   0.00154,  -0.00084,  -6.22075,   1.00000
466629382.33161,489000290.33398,19928325.63486,   0.00364,   0.00286,  -0.00058,479451536.08181,   0.00454,279451542.64870,   0.00247,   0.00154,  -0.00084,  -6.56689,   1.00000
466121900.75402,489447526.95601,19971985.97146,   0.00364,   0.00287,  -0.00058,479461090.28026,   0.00455,279461099.73253,   0.00247,   0.00155,  -0.00084,  -9.45227,   1.00000
465611565.81990,489894457.56274,20015790.07484,   0.00364,   0.00288,  -0.00058,479470624.60659,   0.00455,279470625.76396,   0.00248,   0.00156,  -0.00084,  -1.15737,   1.00000
465093199.53611,490345801.89493,20057246.11122,   0.00364,   0.00289,  -0.00058,479480000.80609,   0.00456,279480006.05366,   0.00248,   0.00156,  -0.00084,  -5.24758,   1.00000
464567127.48830,490800658.18972,20099344.45234,   0.00365,   0.00290,  -0.00057,479489312.72748,   0.00457,279489318.90801,   0.00249,   0.00157,  -0.00083,  -6.18054,   1.00000
464032835.51155,491259912.88665,20139112.93969,   0.00365,   0.00291,  -0.00057,479498483.52454,   0.00458,279498486.55847,   0.00250,   0.00158,  -0.00083,  -3.03393,   1.00000
463494523.51159,491719176.78954,20180054.44495,   0.00365,   0.00292,  -0.00057,479507539.45318,   0.00459,279507548.01473,   0.00250,   0.00158,  -0.00083,  -8.56156,   1.00000
462948282.48048,492181892.52943,20221647.33708,   0.00365,   0.00293,  -0.00057,479516538.64498,   0.00460,279516542.84453,   0.00251,   0.00159,  -0.00083,  -4.19955,   1.00000
462398354.30563,492645147.05969,20260440.18814,   0.00366,   0.00294,  -0.00056,479525421.68150,   0.00461,279525429.94911,   0.00251,   0.00160,  -0.00083,  -8.26761,   1.00000
461835454.15686,493115651.87497,20300383.18336,   0.00366,   0.00295,  -0.00056,479534209.91311,   0.00462,279534214.39396,   0.00252,   0.00160,  -0.00083,  -4.48086,   1.00000
461268704.99101,493586672.82656,20337541.09322,   0.00366,   0.00296,  -0.00056,479542889.79580,   0.00463,279542891.61444,   0.00252,   0.00161,  -0.00083,  -1.81864,   1.00000
460697533.79142,494057714.22556,20375902.26218,   0.00366,   0.00297,  -0.00056,479551461.58878,   0.00463,279551463.74091,   0.00253,   0.00162,  -0.00082,  -2.15213,   1.00000
460113530.03519,494536434.09503,20411450.43679,   0.00366,   0.00298,  -0.00056,479559926.05012,   0.00464,279559932.28540,   0.00253,   0.00162,  -0.00082,  -6.23529,   1.00000
459524447.13220,495014615.81964,20452184.81509,   0.00366,   0.00299,  -0.00055,479568290.57129,   0.00465,279568298.26389,   0.00254,   0.00163,  -0.00082,  -7.69260,   1.00000
458927830.22570,495497105.82056,20485641.09368,   0.00366,   0.00300,  -0.00055,479576592.47292,   0.00466,279576595.70437,   0.00254,   0.00164,  -0.00082,  -3.23145,   1.00000
458325954.31650,495979047.26469,20524298.99539,   0.00367,   0.00300,  -0.00055,479584785.11615,   0.00467,279584791.05186,   0.00255,   0.00164,  -0.00082,  -5.93571,   1.00000
457714613.53200,496465358.23785,20560679.33701,   0.00367,   0.00301,  -0.00055,479592842.31264,   0.00467,279592844.30747,   0.00255,   0.00165,  -0.00082,  -1.99483,   1.00000
457089365.75100,496958627.50437,20598230.64633,   0.00367,   0.00302,  -0.00055,479600795.66291,   0.00468,279600797.81658,   0.00256,   0.00165,  -0.00082,  -2.15367,   1.00000
456464678.18737,497448564.24634,20632543.38990,   0.00367,   0.00303,  -0.00055,479608677.20484,   0.00469,279608682.21489,   0.00256,   0.00166,  -0.00081,  -5.01004,   1.00000
455825856.20619,497945403.31787,20668038.73958,   0.00367,   0.00304,  -0.00054,479616460.86870,   0.00470,279616467.50799,   0.00257,   0.00167,  -0.00081,  -6.63929,   1.00000
455177040.28070,498446505.60721,20701278.28199,   0.00367,   0.00305,  -0.00054,479624103.39527,   0.00470,279624112.10935,   0.00257,   0.00167,  -0.00081,  -8.71408,   1.00000
454522358.72803,498946985.55108,20739732.53020,   0.00367,   0.00306,  -0.00054,479631647.97327,   0.00471,279631656.30220,   0.00258,   0.00168,  -0.00081,  -8.32893,   1.00000
453863162.71368,499448494.82572,20771465.48283,   0.00367,   0.00307,  -0.00054,479639090.68472,   0.00472,279639094.24591,   0.00258,   0.00168,  -0.00081,  -3.56119,   1.00000
453194112.11382,499952415.39324,20807880.47758,   0.00367,   0.00308,  -0.00054,479646467.29521,   0.00473,279646472.47418,   0.00258,   0.00169,  -0.00081,  -5.17896,   1.00000
452510753.03151,500463555.68513,20841495.69631,   0.00367,   0.00309,  -0.00053,479653745.48608,   0.00473,279653751.57939,   0.00259,   0.00169,  -0.00081,  -6.09331,   1.00000
451821590.12798,500974552.43072,20876357.16993,   0.00367,   0.00310,  -0.00053,479660921.34142,   0.00474,279660929.39682,   0.00259,   0.00170,  -0.00080,  -8.05541,   1.00000
451121592.94524,501489734.69036,20908973.68548,   0.00367,   0.00311,  -0.00053,479667961.41060,   0.00475,279667968.46382,   0.00260,   0.00171,  -0.00080,  -7.05322,   1.00000
450415065.88285,502004224.33644,20946816.61391,   0.00367,   0.00312,  -0.00053,479674904.93738,   0.00475,279674908.79689,   0.00260,   0.00171,  -0.00080,  -3.85951,   1.00000
449699602.53480,502522557.03701,20977395.40116,   0.00367,   0.00313,  -0.00053,479681782.05985,   0.00476,279681785.12301,   0.00260,   0.00172,  -0.00080,  -3.06317,   1.00000
448971877.99707,503043904.41684,21013694.80640,   0.00367,   0.00314,  -0.00053,479688520.42799,   0.00477,279688527.80599,   0.00261,   0.00172,  -0.00080,  -7.37800,   1.00000
448238235.82383,503565625.81342,21047262.85072,   0.00367,   0.00314,  -0.00052,479695163.24403,   0.00477,279695168.54595,   0.00261,   0.00173,  -0.00080,  -5.30192,   1.00000
447494349.64056,504089961.03436,21081528.19195,   0.00367,   0.00315,  -0.00052,479701745.87463,   0.00478,279701750.38313,   0.00261,   0.00173,  -0.00080,  -4.50850,   1.00000
446738702.25122,504618358.68452,21113554.83339,   0.00367,   0.00316,  -0.00052,479708194.54415,   0.00479,279708195.53522,   0.00262,   0.00174,  -0.00080,  -0.99108,   1.00000
445966431.85647,505152384.85707,21150737.45611,   0.00367,   0.00317,  -0.00052,479714545.05351,   0.00479,279714549.47560,   0.00262,   0.00174,  -0.00079,  -4.42209,   1.00000
445193886.74378,505683517.03244,21180729.50475,   0.00366,   0.00318,  -0.00052,479720830.99387,   0.00480,279720835.93261,   0.00263,   0.00175,  -0.00079,  -4.93874,   1.00000
444408116.30516,506217503.62974,21216446.90430,   0.00366,   0.00319,  -0.00052,479726985.32390,   0.00481,279726990.89569,   0.00263,   0.00175,  -0.00079,  -5.57178,   1.00000
443606219.18310,506758083.34759,21249354.79974,   0.00366,   0.00320,  -0.00052,479733051.37333,   0.00481,279733051.80259,   0.00263,   0.00176,  -0.00079,  -0.42926,   1.00000
442796984.07917,507298263.93918,21283518.37195,   0.00366,   0.00321,  -0.00051,479739013.28463,   0.00482,279739015.15182,   0.00263,   0.00176,  -0.00079,  -1.86719,   1.00000
441980283.03392,507838057.39775,21318934.28041,   0.00366,   0.00322,  -0.00051,479744875.60032,   0.00482,279744881.15702,   0.00264,   0.00177,  -0.00079,  -5.55669,   1.00000
441150594.90806,508381690.24844,21352105.78798,   0.00366,   0.00322,  -0.00051,479750604.52164,   0.00483,279750613.13400,   0.00264,   0.00177,  -0.00079,  -8.61237,   1.00000
440309508.17216,508927447.06248,21385963.22829,   0.00365,   0.00323,  -0.00051,479756285.75200,   0.00483,279756289.72523,   0.00264,   0.00178,  -0.00079,  -3.97323,   1.00000
439450949.94257,509478865.76470,21420980.52489,   0.00365,   0.00324,  -0.00051,479761874.00657,   0.00484,279761876.72119,   0.00265,   0.00178,  -0.00079,  -2.71462,   1.00000
438587942.30873,510027236.40436,21457818.71149,   0.00365,   0.00325,  -0.00051,479767321.55123,   0.00484,279767326.34626,   0.00265,   0.00178,  -0.00079,  -4.79503,   1.00000
437713596.31542,510578120.20415,21491348.90538,   0.00365,   0.00326,  -0.00051,479772715.21980,   0.00485,279772719.74931,   0.00265,   0.00179,  -0.00078,  -4.52952,   1.00000
436824834.29110,511132029.74078,21526610.92448,   0.00365,   0.00327,  -0.00050,479777978.25835,   0.00486,279777983.27583,   0.00265,   0.00179,  -0.00078,  -5.01748,   1.00000
435923954.53052,511687708.87063,21562539.38151,   0.00364,   0.00328,  -0.00050,479783185.74226,   0.00486,279783193.61872,   0.00266,   0.00180,  -0.00078,  -7.87646,   1.00000
435008733.75270,512246865.46652,21596212.87004,   0.00364,   0.00328,  -0.00050,479788264.27603,   0.00487,279788272.91155,   0.00266,   0.00180,  -0.00078,  -8.63552,   1.00000
434084171.27632,512804711.42569,21635110.59639,   0.00364,   0.00329,  -0.00050,479793253.03590,   0.00487,279793260.13893,   0.00266,   0.00181,  -0.00078,  -7.10302,   1.00000
433151065.64891,513362401.97670,21671265.12631,   0.00363,   0.00330,  -0.00050,479798146.25768,   0.00487,279798151.36317,   0.00267,   0.00181,  -0.00078,  -5.10549,   1.00000
432199457.24027,513925732.82391,21704575.30037,   0.00363,   0.00331,  -0.00050,479802951.92504,   0.00488,279802954.74312,   0.00267,   0.00181,  -0.00078,  -2.81808,   1.00000
431237999.51427,514487605.75261,21743107.38790,   0.00363,   0.00332,  -0.00050,479807660.39646,   0.00488,279807667.17775,   0.00267,   0.00182,  -0.00078,  -6.78129,   1.00000
430261136.57127,515052700.91057,21779369.75688,   0.00363,   0.00333,  -0.00049,479812247.35516,   0.00489,279812250.64626,   0.00267,   0.00182,  -0.00078,  -3.29110,   1.00000
429271039.11419,515619023.13860,21816275.71863,   0.00362,   0.00333,  -0.00049,479816775.29399,   0.00489,279816784.11130,   0.00267,   0.00183,  -0.00078,  -8.81731,   1.00000
428264608.00018,516187809.66739,21854887.55595,   0.00362,   0.00334,  -0.00049,479821183.02899,   0.00490,279821191.74066,   0.00268,   0.00183,  -0.00078,  -8.71167,   1.00000
427248545.47535,516756108.21810,21890747.69884,   0.00361,   0.00335,  -0.00049,479825503.58883,   0.00490,279825505.72047,   0.00268,   0.00183,  -0.00077,  -2.13164,   1.00000
426218278.84639,517324781.33911,21931219.19037,   0.00361,   0.00336,  -0.00049,479829769.63598,   0.00491,279829773.24111,   0.00268,   0.00184,  -0.00077,  -3.60512,   1.00000
425171459.45938,517896287.48047,21969402.79664,   0.00361,   0.00337,  -0.00049,479833906.79060,   0.00491,279833914.20959,   0.00268,   0.00184,  -0.00077,  -7.41899,   1.00000
424107819.03584,518470539.72517,22005301.75648,   0.00360,   0.00338,  -0.00049,479837923.47964,   0.00491,279837929.12737,   0.00268,   0.00184,  -0.00077,  -5.64773,   1.00000
423036081.51549,519041437.97307,22045328.05885,   0.00360,   0.00338,  -0.00049,479841926.05535,   0.00492,279841932.72445,   0.00269,   0.00185,  -0.00077,  -6.66910,   1.00000
421949981.11416,519612358.04112,22087640.84927,   0.00359,   0.00339,  -0.00048,479845762.89056,   0.00492,279845770.39783,   0.00269,   0.00185,  -0.00077,  -7.50727,   1.00000
420842959.28816,520187758.79458,22127046.46431,   0.00359,   0.00340,  -0.00048,479849521.76829,   0.00493,279849526.37791,   0.00269,   0.00185,  -0.00077,  -4.60962,   1.00000
419721095.14148,520763492.19107,22167051.90735,   0.00358,   0.00341,  -0.00048,479853231.54529,   0.00493,279853236.93465,   0.00269,   0.00186,  -0.00077,  -5.38936,   1.00000
418590875.28774,521335688.29542,22208869.85500,   0.00358,   0.00342,  -0.00048,479856812.37532,   0.00493,279856816.15104,   0.00269,   0.00186,  -0.00077,  -3.77571,   1.00000
417438553.95302,521911368.12691,22251743.71420,   0.00358,   0.00342,  -0.00048,479860308.83886,   0.00494,279860317.67866,   0.00269,   0.00186,  -0.00077,  -8.83981,   1.00000
416274582.80308,522485858.36584,22291831.99696,   0.00357,   0.00343,  -0.00048,479863725.54066,   0.00494,279863729.72163,   0.00270,   0.00187,  -0.00077,  -4.18097,   1.00000
415088013.00699,523063525.37010,22332967.24197,   0.00357,   0.00344,  -0.00048,479867059.68411,   0.00494,279867065.42527,   0.00270,   0.00187,  -0.00077,  -5.74116,   1.00000
413888406.20802,523638547.99524,22379268.37310,   0.00356,   0.00345,  -0.00048,479870308.14575,   0.00495,279870317.10146,   0.00270,   0.00187,  -0.00077,  -8.95571,   1.00000
412669384.94216,524215333.07490,22423231.70036,   0.00355,   0.00345,  -0.00047,479873443.29705,   0.00495,279873447.89567,   0.00270,   0.00187,  -0.00077,  -4.59862,   1.00000
411437775.65402,524790528.16752,22464392.56961,   0.00355,   0.00346,  -0.00047,479876485.04224,   0.00495,279876491.16026,   0.00270,   0.00188,  -0.00077,  -6.11803,   1.00000
410189274.17805,525364496.51957,22510089.05138,   0.00354,   0.00347,  -0.00047,479879490.78389,   0.00495,279879495.55212,   0.00270,   0.00188,  -0.00076,  -4.76824,   1.00000
408923200.32827,525937599.09274,22558038.69786,   0.00354,   0.00348,  -0.00047,479882330.41222,   0.00496,279882338.96380,   0.00270,   0.00188,  -0.00076,  -8.55158,   1.00000
407640715.55119,526510468.35192,22602543.90252,   0.00353,   0.00349,  -0.00047,479885139.55703,   0.00496,279885140.18808,   0.00270,   0.00188,  -0.00076,  -0.63105,   1.00000
406333789.45452,527085399.68290,22648041.19250,   0.00353,   0.00349,  -0.00047,479887862.42373,   0.00496,279887869.85300,   0.00271,   0.00189,  -0.00076,  -7.42927,   1.00000
405015717.11927,527656019.79253,22695322.05753,   0.00352,   0.00350,  -0.00047,479890464.60442,   0.00497,279890472.39276,   0.00271,   0.00189,  -0.00076,  -7.78834,   1.00000
403680122.55753,528225332.58026,22743119.70806,   0.00351,   0.00351,  -0.00047,479893034.76480,   0.00497,279893036.83136,   0.00271,   0.00189,  -0.00076,  -2.06656,   1.00000
402322308.86815,528794716.77372,22792517.44208,   0.00351,   0.00352,  -0.00047,479895486.41882,   0.00497,279895487.25366,   0.00271,   0.00189,  -0.00076,  -0.83484,   1.00000
400946504.07551,529362425.63773,22842412.75052,   0.00350,   0.00352,  -0.00046,479897895.72350,   0.00497,279897901.04196,   0.00271,   0.00190,  -0.00076,  -5.31846,   1.00000
399551287.87663,529929091.50347,22890551.97566,   0.00349,   0.00353,  -0.00046,479900150.84527,   0.00498,279900155.10655,   0.00271,   0.00190,  -0.00076,  -4.26128,   1.00000
398137138.02591,530493123.54864,22943157.04288,   0.00349,   0.00354,  -0.00046,479902371.55182,   0.00498,279902376.07540,   0.00271,   0.00190,  -0.00076,  -4.52359,   1.00000
396707690.03652,531054279.49359,22992898.21501,   0.00348,   0.00354,  -0.00046,479904514.15426,   0.00498,279904515.05900,   0.00271,   0.00190,  -0.00076,  -0.90474,   1.00000
395251536.67249,531616000.44615,23043560.78274,   0.00347,   0.00355,  -0.00046,479906579.61414,   0.00498,279906588.38275,   0.00271,   0.00190,  -0.00076,  -8.76861,   1.00000
393781952.90792,532172591.29103,23095976.69761,   0.00347,   0.00356,  -0.00046,479908536.59170,   0.00498,279908537.98452,   0.00271,   0.00191,  -0.00076,  -1.39282,   1.00000
392285032.46735,532729320.44387,23149293.00820,   0.00346,   0.00357,  -0.00046,479910414.65278,   0.00499,279910423.52143,   0.00271,   0.00191,  -0.00076,  -8.86865,   1.00000
390771238.25221,533281886.81927,23203700.03347,   0.00345,   0.00357,  -0.00046,479912224.56880,   0.00499,279912231.79162,   0.00271,   0.00191,  -0.00076,  -7.22282,   1.00000
389237546.06569,533831353.88462,23258537.59873,   0.00344,   0.00358,  -0.00046,479914007.05986,   0.00499,279914008.90958,   0.00271,   0.00191,  -0.00076,  -1.84972,   1.00000
387681104.02122,534377902.73821,23315554.17947,   0.00344,   0.00359,  -0.00046,479915629.30581,   0.00499,279915633.13453,   0.00271,   0.00191,  -0.00076,  -3.82872,   1.00000
386104669.60772,534921602.37638,23369001.47468,   0.00343,   0.00359,  -0.00045,479917220.69541,   0.00499,279917225.35535,   0.00272,   0.00191,  -0.00076,  -4.65994,   1.00000
384501586.18518,535462473.30144,23427937.17569,   0.00342,   0.00360,  -0.00045,479918706.12313,   0.00499,279918714.22276,   0.00272,   0.00191,  -0.00076,  -8.09963,   1.00000
382880175.08423,535998291.63137,23487924.33203,   0.00341,   0.00361,  -0.00045,479920123.69549,   0.00499,279920129.00790,   0.00272,   0.00192,  -0.00076,  -5.31241,   1.00000
381238009.44602,536530611.22478,23544310.70152,   0.00341,   0.00361,  -0.00045,479921512.43368,   0.00500,279921514.13943,   0.00272,   0.00192,  -0.00076,  -1.70574,   1.00000
379570699.98771,537058387.23194,23606823.84406,   0.00340,   0.00362,  -0.00045,479922750.03947,   0.00500,279922751.92189,   0.00272,   0.00192,  -0.00076,  -1.88242,   1.00000
377882065.27573,537582199.76888,23665714.14128,   0.00339,   0.00363,  -0.00045,479923955.37076,   0.00500,279923961.68277,   0.00272,   0.00192,  -0.00076,  -6.31201,   1.00000
376173938.64254,538100188.31190,23725626.02256,   0.00338,   0.00364,  -0.00045,479925091.59665,   0.00500,279925099.99008,   0.00272,   0.00192,  -0.00076,  -8.39343,   1.00000
374435008.14405,538615558.30458,23786313.09577,   0.00337,   0.00364,  -0.00045,479926181.91069,   0.00500,279926184.00923,   0.00272,   0.00192,  -0.00076,  -2.09855,   1.00000
372677920.52474,539123026.86748,23852657.19451,   0.00336,   0.00365,  -0.00045,479927150.46258,   0.00500,279927153.75446,   0.00272,   0.00192,  -0.00076,  -3.29188,   1.00000
370898466.97161,539625590.65277,23915334.09831,   0.00335,   0.00366,  -0.00045,479928094.81482,   0.00500,279928098.76066,   0.00272,   0.00192,  -0.00076,  -3.94584,   1.00000
369089533.69042,540123785.38206,23979426.62777,   0.00334,   0.00366,  -0.00044,479928942.69639,   0.00500,279928945.36529,   0.00272,   0.00192,  -0.00076,  -2.66890,   1.00000
367259515.47791,540614991.74826,24044491.02604,   0.00334,   0.00367,  -0.00044,479929717.48849,   0.00500,279929724.34592,   0.00272,   0.00192,  -0.00076,  -6.85743,   1.00000
365396976.60415,541102043.46642,24110260.39203,   0.00333,   0.00367,  -0.00044,479930448.30115,   0.00500,279930454.23101,   0.00272,   0.00193,  -0.00076,  -5.92986,   1.00000
363514897.34273,541580798.71692,24177667.35748,   0.00332,   0.00368,  -0.00044,479931070.54777,   0.00501,279931070.64391,   0.00272,   0.00193,  -0.00076,  -0.09614,   1.00000
361608594.08535,542052563.73640,24245323.67426,   0.00331,   0.00369,  -0.00044,479931660.59004,   0.00501,279931669.54295,   0.00272,   0.00193,  -0.00076,  -8.95291,   1.00000
359679541.76461,542515670.34010,24317890.80263,   0.00330,   0.00369,  -0.00044,479932200.48230,   0.00501,279932206.43398,   0.00272,   0.00193,  -0.00076,  -5.95168,   1.00000
357719091.59480,542973310.18488,24387818.09584,   0.00329,   0.00370,  -0.00044,479932642.98170,   0.00501,279932648.07618,   0.00272,   0.00193,  -0.00076,  -5.09448,   1.00000
355733597.81717,543423068.88237,24457952.67411,   0.00328,   0.00371,  -0.00044,479933073.79898,   0.00501,279933075.23351,   0.00272,   0.00193,  -0.00075,  -1.43453,   1.00000
353715474.51597,543865941.40617,24529397.45893,   0.00327,   0.00371,  -0.00044,479933405.39622,   0.00501,279933411.94250,   0.00272,   0.00193,  -0.00075,  -6.54627,   1.00000
351675538.14895,544299013.16741,24602424.87640,   0.00326,   0.00372,  -0.00044,479933630.23149,   0.00501,279933639.51994,   0.00272,   0.00193,  -0.00075,  -9.28845,   1.00000
349609679.94186,544723275.75002,24675616.63082,   0.00325,   0.00373,  -0.00043,479933853.28539,   0.00501,279933855.68803,   0.00272,   0.00193,  -0.00075,  -2.40264,   1.00000
347519472.76127,545137816.68546,24749664.50874,   0.00324,   0.00373,  -0.00043,479934010.22639,   0.00501,279934012.86558,   0.00272,   0.00193,  -0.00075,  -2.63919,   1.00000
345393269.84762,545544665.87382,24824255.29098,   0.00323,   0.00374,  -0.00043,479934129.10271,   0.00501,279934132.64603,   0.00272,   0.00193,  -0.00075,  -3.54332,   1.00000
343243728.41675,545940572.10665,24900385.40960,   0.00322,   0.00374,  -0.00043,479934136.61288,   0.00501,279934146.55876,   0.00272,   0.00193,  -0.00075,  -9.94588,   1.00000
341066750.54027,546325605.58948,24980594.99488,   0.00321,   0.00375,  -0.00043,479934148.59787,   0.00501,279934156.20666,   0.00272,   0.00193,  -0.00075,  -7.60879,   1.00000
338843064.16241,546681154.35993,25056927.49927,   0.00320,   0.00376,  -0.00043,479915969.77723,   0.00501,279934156.20666,   0.00272,   0.00193,  -0.00075,-18186.42942,   0.00000
336585229.03258,547010589.37887,25133260.00366,   0.00318,   0.00376,  -0.00043,479884943.56609,   0.00501,279934156.20666,   0.00272,   0.00193,  -0.00075,-49212.64056,   0.00000
334299271.40114,547327971.89712,25213610.00828,   0.00317,   0.00377,  -0.00043,479853881.76676,   0.00501,279934156.20666,   0.00272,   0.00193,  -0.00075,-80274.43990,   0.00000
331973138.76738,547605179.41306,25289942.51267,   0.00316,   0.00377,  -0.00043,479798010.35949,   0.00501,279934156.20666,   0.00272,   0.00193,  -0.00075,-136145.84716,   0.00000
329604822.38121,547864308.17796,25366275.01706,   0.00315,   0.00378,  -0.00043,479735619.74382,   0.00501,279934156.20666,   0.00272,   0.00193,  -0.00075,-198536.46284,   0.00000
327196330.99272,548083261.94055,25446625.02168,   0.00314,   0.00378,  -0.00042,479650352.67787,   0.00501,279934156.20666,   0.00272,   0.00193,  -0.00075,-283803.52879,   0.00000
324759717.10261,548290163.20244,25526975.02630,   0.00313,   0.00379,  -0.00042,479565738.96322,   0.00501,279934156.20666,   0.00272,   0.00193,  -0.00075,-368417.24344,   0.00000
322288954.46054,548470950.71284,25603307.53069,   0.00312,   0.00380,  -0.00042,479469511.81011,   0.00501,279934156.20666,   0.00272,   0.00193,  -0.00075,-464644.39654,   0.00000
319776008.06605,548633659.47220,25683657.53531,   0.00311,   0.00380,  -0.00042,479369019.56321,   0.00501,279934156.20666,   0.00272,   0.00193,  -0.00075,-565136.64344,   0.00000
317222886.66925,548756193.22924,25764007.53993,   0.00309,   0.00381,  -0.00042,479246333.31301,   0.00501,279934156.20666,   0.00272,   0.00193,  -0.00075,-687822.89365,   0.00000
314641642.77082,548866674.48559,25844357.54455,   0.00308,   0.00381,  -0.00042,479125735.12050,   0.00501,279934156.20666,   0.00272,   0.00193,  -0.00075,-808421.08615,   0.00000
312026250.12044,548951041.99044,25924707.54917,   0.00307,   0.00382,  -0.00042,478995577.76577,   0.00501,279934156.20666,   0.00272,   0.00193,  -0.00075,-938578.44089,   0.00000
309362647.46728,549003269.49345,26005057.55379,   0.00306,   0.00382,  -0.00042,478850207.99714,   0.00501,279934156.20666,   0.00272,   0.00193,  -0.00075,-1083948.20952,   0.00000
306664896.06216,549029383.24495,26085407.55841,   0.00304,   0.00383,  -0.00042,478696071.48767,   0.00501,279934156.20666,   0.00272,   0.00193,  -0.00075,-1238084.71899,   0.00000
303932995.90508,549029383.24495,26165757.56303,   0.00303,   0.00383,  -0.00041,478533515.00512,   0.00501,279934156.20666,   0.00272,   0.00193,  -0.00075,-1400641.20154,   0.00000
301166946.99603,549003269.49345,26250125.06788,   0.00302,   0.00384,  -0.00041,478363552.65787,   0.00501,279934156.20666,   0.00272,   0.00193,  -0.00075,-1570603.54878,   0.00000
298372775.58536,548965103.24125,26330475.07250,   0.00301,   0.00384,  -0.00041,478197279.35887,   0.00501,279934156.20666,   0.00272,   0.00193,  -0.00075,-1736876.84779,   0.00000
295530394.17193,548894796.98721,26414842.57735,   0.00299,   0.00385,  -0.00041,478018669.14552,   0.00501,279934156.20666,   0.00272,   0.00193,  -0.00075,-1915487.06114,   0.00000
292661899.00699,548790341.98120,26499210.08220,   0.00298,   0.00386,  -0.00041,477826775.45974,   0.00501,279934156.20666,   0.00272,   0.00193,  -0.00075,-2107380.74692,   0.00000
289751220.08962,548667808.22416,26579560.08682,   0.00297,   0.00386,  -0.00041,477634154.46480,   0.00501,279934156.20666,   0.00272,   0.00193,  -0.00075,-2300001.74186,   0.00000
286812418.67064,548533221.96642,26663927.59168,   0.00296,   0.00387,  -0.00041,477448231.84825,   0.00501,279934156.20666,   0.00272,   0.00193,  -0.00075,-2485924.35841,   0.00000
283819380.99854,548352434.45602,26752312.59676,   0.00294,   0.00387,  -0.00041,477239817.67631,   0.00501,279934156.20666,   0.00272,   0.00193,  -0.00075,-2694338.53035,   0.00000
280806255.82529,548151559.44447,26836680.10161,   0.00293,   0.00388,  -0.00041,477030943.01760,   0.00501,279934156.20666,   0.00272,   0.00193,  -0.00075,-2903213.18906,   0.00000
277750946.89961,547932605.68188,26921047.60646,   0.00292,   0.00388,  -0.00040,476824031.71437,   0.00501,279934156.20666,   0.00272,   0.00193,  -0.00075,-3110124.49229,   0.00000
274675550.47277,547693564.41814,27009432.61154,   0.00290,   0.00389,  -0.00040,476618710.90591,   0.00501,279934156.20666,   0.00272,   0.00193,  -0.00075,-3315445.30075,   0.00000
271545917.79282,547408321.90174,27097817.61662,   0.00289,   0.00389,  -0.00040,476392103.56359,   0.00501,279934156.20666,   0.00272,   0.00193,  -0.00075,-3542052.64307,   0.00000
268388162.61125,547111026.88464,27182185.12148,   0.00287,   0.00389,  -0.00040,476173468.26826,   0.00501,279934156.20666,   0.00272,   0.00193,  -0.00075,-3760687.93840,   0.00000
265196258.67771,546787618.11605,27270570.12656,   0.00286,   0.00390,  -0.00040,475952493.75446,   0.00501,279934156.20666,   0.00272,   0.00193,  -0.00075,-3981662.45220,   0.00000
261976232.24256,546452156.84676,27362972.63187,   0.00285,   0.00390,  -0.00040,475741763.61205,   0.00501,279934156.20666,   0.00272,   0.00193,  -0.00075,-4192392.59461,   0.00000
258701969.55429,546070494.32481,27451357.63695,   0.00283,   0.00391,  -0.00040,475511211.78626,   0.00501,279934156.20666,   0.00272,   0.00193,  -0.00075,-4422944.42040,   0.00000
255407619.36487,545668744.30171,27543760.14227,   0.00282,   0.00391,  -0.00040,475284600.80445,   0.00501,279934156.20666,   0.00272,   0.00193,  -0.00075,-4649555.40221,   0.00000
252071085.42302,545248915.52757,27632145.14735,   0.00280,   0.00392,  -0.00040,475063503.50654,   0.00501,279934156.20666,   0.00272,   0.00193,  -0.00075,-4870652.70012,   0.00000
248714463.98001,544808999.25228,27724547.65266,   0.00279,   0.00392,  -0.00039,474847137.15705,   0.00501,279934156.20666,   0.00272,   0.00193,  -0.00075,-5087019.04960,   0.00000
245303606.28389,544322881.72433,27816950.15797,   0.00277,   0.00393,  -0.00039,474613780.98725,   0.00501,279934156.20666,   0.00272,   0.00193,  -0.00075,-5320375.21941,   0.00000
241864626.08615,543824711.69568,27909352.66329,   0.00276,   0.00393,  -0.00039,474392927.59299,   0.00501,279934156.20666,   0.00272,   0.00193,  -0.00075,-5541228.61366,   0.00000
238405558.38725,543306454.16588,28005772.66883,   0.00275,   0.00394,  -0.00039,474178030.63381,   0.00501,279934156.20666,   0.00272,   0.00193,  -0.00075,-5756125.57285,   0.00000
234904306.93593,542770117.88504,28098175.17415,   0.00273,   0.00394,  -0.00039,473971431.90600,   0.00501,279934156.20666,   0.00272,   0.00193,  -0.00075,-5962724.30066,   0.00000
231362880.48229,542193606.60189,28194595.17969,   0.00272,   0.00394,  -0.00039,473755232.68305,   0.00501,279934156.20666,   0.00272,   0.00193,  -0.00075,-6178923.52360,   0.00000
227787305.27670,541590981.56724,28291015.18523,   0.00270,   0.00395,  -0.00039,473541383.75379,   0.00501,279934156.20666,   0.00272,   0.00193,  -0.00075,-6392772.45287,   0.00000
224183607.56949,540976304.03190,28387435.19078,   0.00269,   0.00395,  -0.00039,473342551.86866,   0.00501,279934156.20666,   0.00272,   0.00193,  -0.00075,-6591604.33800,   0.00000
220539734.85996,540321451.49424,28487872.69655,   0.00267,   0.00396,  -0.00038,473135680.98124,   0.00501,279934156.20666,   0.00272,   0.00193,  -0.00075,-6798475.22542,   0.00000
216867739.64882,539654546.45590,28584292.70210,   0.00265,   0.00396,  -0.00038,472944150.71723,   0.00501,279934156.20666,   0.00272,   0.00193,  -0.00075,-6990005.48942,   0.00000
213161595.68572,538961527.66605,28684730.20787,   0.00264,   0.00397,  -0.00038,472757798.63498,   0.00501,279934156.20666,   0.00272,   0.00193,  -0.00075,-7176357.57168,   0.00000
209421302.97065,538242395.12470,28785167.71365,   0.00262,   0.00397,  -0.00038,472576440.36425,   0.00501,279934156.20666,   0.00272,   0.00193,  -0.00075,-7357715.84241,   0.00000
205646861.50362,537497148.83185,28889622.71965,   0.00261,   0.00397,  -0.00038,472401360.94945,   0.00501,279934156.20666,   0.00272,   0.00193,  -0.00075,-7532795.25721,   0.00000
201838271.28463,536725788.78749,28990060.22543,   0.00259,   0.00398,  -0.00038,472231643.91811,   0.00501,279934156.20666,   0.00272,   0.00193,  -0.00075,-7702512.28855,   0.00000
197995532.31367,535928314.99164,29094515.23143,   0.00258,   0.00398,  -0.00038,472069327.60652,   0.00501,279934156.20666,   0.00272,   0.00193,  -0.00075,-7864828.60014,   0.00000
194118644.59075,535104727.44428,29198970.23744,   0.00256,   0.00399,  -0.00038,471914242.94480,   0.00501,279934156.20666,   0.00272,   0.00193,  -0.00075,-8019913.26186,   0.00000
190227695.61702,534275113.64658,29303425.24345,   0.00254,   0.00399,  -0.00037,471782388.12011,   0.00501,279934156.20666,   0.00272,   0.00193,  -0.00075,-8151768.08655,   0.00000
186282510.39017,533399298.59622,29407880.24945,   0.00253,   0.00399,  -0.00037,471643398.44807,   0.00501,279934156.20666,   0.00272,   0.00193,  -0.00075,-8290757.75859,   0.00000
182309202.66171,532511431.04517,29516352.75569,   0.00251,   0.00400,  -0.00037,471526224.51654,   0.00501,279934156.20666,   0.00272,   0.00193,  -0.00075,-8407931.69012,   0.00000
178301746.18128,531597449.74261,29624825.26193,   0.00249,   0.00400,  -0.00037,471418602.22622,   0.00501,279934156.20666,   0.00272,   0.00193,  -0.00075,-8515553.98044,   0.00000
