# sigma_xx, sigma_yy, sigma_xy, epsilon_xx, epsilon_yy, epsilon_xy, vonMises, epsPlastic, hardening, epsilonP__xx, epsilonP__yy, epsilonP__xy, yieldValue, iteration
   0.00000,   0.00000,   0.00000,   0.00000,   0.00000,   0.00000,   0.00000,   0.00000,274640135.82653,   0.00000,   0.00000,   0.00000,-474640135.82653,   0.00000
   0.00000,   0.00000,   0.00000,   0.00000,   0.00000,   0.00000,   0.00000,   0.00000,274640135.82653,   0.00000,   0.00000,   0.00000,-474640135.82653,   0.00000
-2742756.02743,-3858914.80782,-605720.31375,  -0.00000,  -0.00001,  -0.00001,3595909.28236,   0.00000,274640135.82653,   0.00000,   0.00000,   0.00000,-471044226.54417,   0.00000
-5475303.28552,-7694009.15386,-1211440.62750,  -0.00001,  -0.00002,  -0.00002,7173036.63110,   0.00000,274640135.82653,   0.00000,   0.00000,   0.00000,-467467099.19543,   0.00000
-8197641.77428,-11505283.03813,-1817160.94125,  -0.00001,  -0.00004,  -0.00002,10731397.91676,   0.00000,274640135.82653,   0.00000,   0.00000,   0.00000,-463908737.90977,   0.00000
-10943800.72482,-15326765.69173,-2429687.10122,  -0.00002,  -0.00005,  -0.00003,14305718.77317,   0.00000,274640135.82653,   0.00000,   0.00000,   0.00000,-460334417.05336,   0.00000
-13693362.59847,-19110816.19111,-3035407.41497,  -0.00003,  -0.00006,  -0.00004,17851645.12336,   0.00000,274640135.82653,   0.00000,   0.00000,   0.00000,-456788490.70317,   0.00000
-16442924.47212,-22894866.69049,-3647933.57494,  -0.00003,  -0.00007,  -0.00005,21401130.35056,   0.00000,274640135.82653,   0.00000,   0.00000,   0.00000,-453239005.47597,   0.00000
-19206098.03821,-26665305.49742,-4253653.88869,  -0.00004,  -0.00008,  -0.00006,24941069.77931,   0.00000,274640135.82653,   0.00000,   0.00000,   0.00000,-449699066.04722,   0.00000
-21959062.83498,-30411923.84258,-4866180.04866,  -0.00004,  -0.00010,  -0.00006,28465897.67781,   0.00000,274640135.82653,   0.00000,   0.00000,   0.00000,-446174238.14872,   0.00000
-24725639.32418,-34144930.49530,-5478706.20863,  -0.00005,  -0.00011,  -0.00007,31984792.44115,   0.00000,274640135.82653,   0.00000,   0.00000,   0.00000,-442655343.38538,   0.00000
-27482007.04405,-37854116.68623,-6091232.36860,  -0.00005,  -0.00012,  -0.00008,35485167.25551,   0.00000,274640135.82653,   0.00000,   0.00000,   0.00000,-439154968.57101,   0.00000
-30251986.45637,-41549691.18473,-6703758.52858,  -0.00006,  -0.00013,  -0.00009,38979737.84345,   0.00000,274640135.82653,   0.00000,   0.00000,   0.00000,-435660397.98308,   0.00000
-33021965.86868,-45245265.68322,-7316284.68855,  -0.00006,  -0.00014,  -0.00010,42474471.65532,   0.00000,274640135.82653,   0.00000,   0.00000,   0.00000,-432165664.17121,   0.00000
-35795348.20411,-48903408.02750,-7928810.84852,  -0.00007,  -0.00015,  -0.00010,45944900.42932,   0.00000,274640135.82653,   0.00000,   0.00000,   0.00000,-428695235.39721,   0.00000
-38592551.00131,-52571759.14110,-8541337.00849,  -0.00007,  -0.00016,  -0.00011,49428330.63917,   0.00000,274640135.82653,   0.00000,   0.00000,   0.00000,-425211805.18736,   0.00000
-41355724.56740,-56206081.02360,-9160669.01468,  -0.00008,  -0.00018,  -0.00012,52884117.30464,   0.00000,274640135.82653,   0.00000,   0.00000,   0.00000,-421756018.52189,   0.00000
-44156330.28772,-59836999.98299,-9773195.17466,  -0.00008,  -0.00019,  -0.00013,56343693.24541,   0.00000,274640135.82653,   0.00000,   0.00000,   0.00000,-418296442.58112,   0.00000
-46946727.23870,-63444098.48059,-10392527.18085,  -0.00009,  -0.00020,  -0.00014,59788543.28197,   0.00000,274640135.82653,   0.00000,   0.00000,   0.00000,-414851592.54455,   0.00000
-49726915.42035,-67027376.51643,-11005053.34082,  -0.00010,  -0.00021,  -0.00014,63211583.06924,   0.00000,274640135.82653,   0.00000,   0.00000,   0.00000,-411428552.75728,   0.00000
-52520715.29444,-70597042.85982,-11617579.50079,  -0.00010,  -0.00022,  -0.00015,66629312.37295,   0.00000,274640135.82653,   0.00000,   0.00000,   0.00000,-408010823.45358,   0.00000
-55328126.86097,-74153097.51076,-12236911.50698,  -0.00011,  -0.00023,  -0.00016,70045396.10755,   0.00000,274640135.82653,   0.00000,   0.00000,   0.00000,-404594739.71897,   0.00000
-58135538.42751,-77709152.16171,-12849437.66696,  -0.00011,  -0.00024,  -0.00017,73458245.97247,   0.00000,274640135.82653,   0.00000,   0.00000,   0.00000,-401181889.85405,   0.00000
-60922532.45538,-81217565.88910,-13468769.67315,  -0.00012,  -0.00025,  -0.00018,76838085.90423,   0.00000,274640135.82653,   0.00000,   0.00000,   0.00000,-397802049.92230,   0.00000
-63733346.94503,-84736188.38582,-14081295.83312,  -0.00012,  -0.00026,  -0.00018,80227731.60697,   0.00000,274640135.82653,   0.00000,   0.00000,   0.00000,-394412404.21956,   0.00000
-66547564.35778,-88217378.72833,-14700627.83931,  -0.00013,  -0.00027,  -0.00019,83597595.17990,   0.00000,274640135.82653,   0.00000,   0.00000,   0.00000,-391042540.64663,   0.00000
-69361781.77054,-91698569.07083,-15313153.99929,  -0.00014,  -0.00028,  -0.00020,86964281.51648,   0.00000,274640135.82653,   0.00000,   0.00000,   0.00000,-387675854.31005,   0.00000
-72189610.87574,-95166147.72089,-15925680.15926,  -0.00014,  -0.00029,  -0.00021,90326132.89362,   0.00000,274640135.82653,   0.00000,   0.00000,   0.00000,-384314002.93291,   0.00000
-75007231.21161,-98609905.90918,-16545012.16545,  -0.00015,  -0.00030,  -0.00022,93673659.84005,   0.00000,274640135.82653,   0.00000,   0.00000,   0.00000,-380966475.98648,   0.00000
-77814642.77815,-102029843.63568,-17157538.32542,  -0.00016,  -0.00031,  -0.00022,96999665.73116,   0.00000,274640135.82653,   0.00000,   0.00000,   0.00000,-377640470.09537,   0.00000
-80635666.03713,-105436169.66975,-17776870.33161,  -0.00016,  -0.00032,  -0.00023,100324633.57778,   0.00000,274640135.82653,   0.00000,   0.00000,   0.00000,-374315502.24875,   0.00000
-83470300.98855,-108828884.01137,-18389396.49159,  -0.00017,  -0.00033,  -0.00024,103641435.47624,   0.00000,274640135.82653,   0.00000,   0.00000,   0.00000,-370998700.35029,   0.00000
-86294727.17064,-112197777.89121,-19001922.65156,  -0.00017,  -0.00034,  -0.00025,106940468.77714,   0.00000,274640135.82653,   0.00000,   0.00000,   0.00000,-367699667.04939,   0.00000
-89142973.81451,-115576880.54038,-19614448.81153,  -0.00018,  -0.00035,  -0.00025,110253335.85387,   0.00000,274640135.82653,   0.00000,   0.00000,   0.00000,-364386799.97266,   0.00000
-91970802.91971,-118908342.26601,-20226974.97150,  -0.00019,  -0.00036,  -0.00026,113530252.74165,   0.00000,274640135.82653,   0.00000,   0.00000,   0.00000,-361109883.08488,   0.00000
-94822452.48669,-122250012.76096,-20839501.13147,  -0.00019,  -0.00037,  -0.00027,116821109.01437,   0.00000,274640135.82653,   0.00000,   0.00000,   0.00000,-357819026.81216,   0.00000
-97653684.51500,-125544042.33236,-21452027.29144,  -0.00020,  -0.00038,  -0.00028,120076137.45695,   0.00000,274640135.82653,   0.00000,   0.00000,   0.00000,-354563998.36958,   0.00000
-100508737.00509,-128848280.67310,-22064553.45141,  -0.00021,  -0.00039,  -0.00029,123345211.69495,   0.00000,274640135.82653,   0.00000,   0.00000,   0.00000,-351294924.13158,   0.00000
-103343371.95651,-132104878.09028,-22677079.61139,  -0.00021,  -0.00040,  -0.00029,126578582.73792,   0.00000,274640135.82653,   0.00000,   0.00000,   0.00000,-348061553.08861,   0.00000
-106201827.36971,-135371684.27679,-23282799.92514,  -0.00022,  -0.00041,  -0.00030,129822444.56700,   0.00000,274640135.82653,   0.00000,   0.00000,   0.00000,-344817691.25953,   0.00000
-109050074.01358,-138614670.00153,-23895326.08511,  -0.00023,  -0.00042,  -0.00031,133052490.33786,   0.00000,274640135.82653,   0.00000,   0.00000,   0.00000,-341587645.48867,   0.00000
-111901723.58056,-141820223.57205,-24501046.39886,  -0.00023,  -0.00043,  -0.00032,136256918.80396,   0.00000,274640135.82653,   0.00000,   0.00000,   0.00000,-338383217.02257,   0.00000
-114753373.14753,-145025777.14257,-25113572.55883,  -0.00024,  -0.00044,  -0.00033,139465731.07431,   0.00000,274640135.82653,   0.00000,   0.00000,   0.00000,-335174404.75222,   0.00000
-117618634.40696,-148217719.02064,-25719292.87258,  -0.00025,  -0.00045,  -0.00033,142667150.25861,   0.00000,274640135.82653,   0.00000,   0.00000,   0.00000,-331972985.56792,   0.00000
-120473686.89704,-151385840.43694,-26325013.18633,  -0.00025,  -0.00045,  -0.00034,145851261.68703,   0.00000,274640135.82653,   0.00000,   0.00000,   0.00000,-328788874.13949,   0.00000
-123342351.07958,-154540350.16079,-26930733.50008,  -0.00026,  -0.00046,  -0.00035,149031803.62835,   0.00000,274640135.82653,   0.00000,   0.00000,   0.00000,-325608332.19817,   0.00000
-126200806.49278,-157671039.42286,-27536453.81383,  -0.00027,  -0.00047,  -0.00036,152195127.26207,   0.00000,274640135.82653,   0.00000,   0.00000,   0.00000,-322445008.56446,   0.00000
-129072873.59842,-160788116.99250,-28135368.28135,  -0.00027,  -0.00048,  -0.00037,155351336.68311,   0.00000,274640135.82653,   0.00000,   0.00000,   0.00000,-319288799.14342,   0.00000
-131934731.93473,-163881374.10035,-28741088.59510,  -0.00028,  -0.00049,  -0.00037,158494112.28048,   0.00000,274640135.82653,   0.00000,   0.00000,   0.00000,-316146023.54605,   0.00000
-134786381.50171,-166950810.74643,-29340003.06263,  -0.00029,  -0.00050,  -0.00038,161616068.25150,   0.00000,274640135.82653,   0.00000,   0.00000,   0.00000,-313024067.57503,   0.00000
-137675463.22291,-170016844.46940,-29938917.53016,  -0.00029,  -0.00051,  -0.00039,164748684.69152,   0.00000,274640135.82653,   0.00000,   0.00000,   0.00000,-309891451.13501,   0.00000
-140530515.71300,-173048848.96126,-30537831.99769,  -0.00030,  -0.00051,  -0.00040,167850420.12062,   0.00000,274640135.82653,   0.00000,   0.00000,   0.00000,-306789715.70591,   0.00000
-143433209.12664,-176101270.99178,-31136746.46521,  -0.00031,  -0.00052,  -0.00040,170980886.75923,   0.00000,274640135.82653,   0.00000,   0.00000,   0.00000,-303659249.06730,   0.00000
-146291664.53984,-179095843.32942,-31728855.08652,  -0.00032,  -0.00053,  -0.00041,174058909.32150,   0.00000,274640135.82653,   0.00000,   0.00000,   0.00000,-300581226.50503,   0.00000
-149163731.64548,-182076803.97461,-32327769.55405,  -0.00032,  -0.00054,  -0.00042,177137742.75997,   0.00000,274640135.82653,   0.00000,   0.00000,   0.00000,-297502393.06656,   0.00000
-152059619.21290,-185067973.38914,-32919878.17535,  -0.00033,  -0.00055,  -0.00043,180227833.98998,   0.00000,274640135.82653,   0.00000,   0.00000,   0.00000,-294412301.83655,   0.00000
-154935089.24166,-188011501.88011,-33511986.79666,  -0.00034,  -0.00055,  -0.00044,183283353.50615,   0.00000,274640135.82653,   0.00000,   0.00000,   0.00000,-291356782.32038,   0.00000
-157824170.96286,-190941418.67864,-34104095.41796,  -0.00035,  -0.00056,  -0.00044,186336231.51317,   0.00000,274640135.82653,   0.00000,   0.00000,   0.00000,-288303904.31336,   0.00000
-160713252.68406,-193871335.47717,-34689398.19305,  -0.00035,  -0.00057,  -0.00045,189386415.62224,   0.00000,274640135.82653,   0.00000,   0.00000,   0.00000,-285253720.20429,   0.00000
-163605737.32837,-196763820.12148,-35281506.81435,  -0.00036,  -0.00058,  -0.00046,192420119.77522,   0.00000,274640135.82653,   0.00000,   0.00000,   0.00000,-282220016.05131,   0.00000
-166498221.97267,-199656304.76579,-35866809.58944,  -0.00037,  -0.00058,  -0.00047,195451176.24110,   0.00000,274640135.82653,   0.00000,   0.00000,   0.00000,-279188959.58543,   0.00000
-169380497.84765,-202524968.94833,-36452112.36452,  -0.00038,  -0.00059,  -0.00047,198465628.05458,   0.00000,274640135.82653,   0.00000,   0.00000,   0.00000,-276174507.77195,   0.00000
-172266176.64574,-205356200.97664,-37037415.13960,  -0.00038,  -0.00060,  -0.00048,201460139.14328,   0.00000,274640135.82653,   0.00000,   0.00000,   0.00000,-273179996.68325,   0.00000
-175175675.90560,-208197641.77428,-37615912.06847,  -0.00039,  -0.00061,  -0.00049,204466337.99191,   0.00000,274640135.82653,   0.00000,   0.00000,   0.00000,-270173797.83462,   0.00000
-178064757.62680,-210991441.64838,-38194408.99733,  -0.00040,  -0.00061,  -0.00050,207438533.24556,   0.00000,274640135.82653,   0.00000,   0.00000,   0.00000,-267201602.58097,   0.00000
-180953839.34800,-213785241.52247,-38772905.92619,  -0.00041,  -0.00062,  -0.00050,210411919.62447,   0.00000,274640135.82653,   0.00000,   0.00000,   0.00000,-264228216.20206,   0.00000
-183856532.76164,-216565429.70412,-39351402.85505,  -0.00041,  -0.00063,  -0.00051,213383316.31271,   0.00000,274640135.82653,   0.00000,   0.00000,   0.00000,-261256819.51382,   0.00000
-186762629.09840,-219308185.73154,-39923093.93769,  -0.00042,  -0.00063,  -0.00052,216331567.03370,   0.00000,274640135.82653,   0.00000,   0.00000,   0.00000,-258308568.79283,   0.00000
-189668725.43515,-222050941.75897,-40494785.02033,  -0.00043,  -0.00064,  -0.00053,219281120.66630,   0.00000,274640135.82653,   0.00000,   0.00000,   0.00000,-255359015.16023,   0.00000
-192564613.00257,-224769877.32462,-41066476.10297,  -0.00044,  -0.00065,  -0.00053,222214468.18390,   0.00000,274640135.82653,   0.00000,   0.00000,   0.00000,-252425667.64263,   0.00000
-195474112.26243,-227475201.19783,-41638167.18561,  -0.00045,  -0.00065,  -0.00054,225146160.54609,   0.00000,274640135.82653,   0.00000,   0.00000,   0.00000,-249493975.28044,   0.00000
-198373402.75296,-230156704.60926,-42203052.42203,  -0.00045,  -0.00066,  -0.00055,228057974.72977,   0.00000,274640135.82653,   0.00000,   0.00000,   0.00000,-246582161.09676,   0.00000
-201276096.16661,-232800775.86647,-42767937.65845,  -0.00046,  -0.00067,  -0.00056,230950917.41712,   0.00000,274640135.82653,   0.00000,   0.00000,   0.00000,-243689218.40941,   0.00000
-204178789.58025,-235444847.12368,-43332822.89487,  -0.00047,  -0.00067,  -0.00056,233845271.22232,   0.00000,274640135.82653,   0.00000,   0.00000,   0.00000,-240794864.60421,   0.00000
-207095094.68634,-238075306.68845,-43890902.28506,  -0.00048,  -0.00068,  -0.00057,236734525.63369,   0.00000,274640135.82653,   0.00000,   0.00000,   0.00000,-237905610.19284,   0.00000
-210001191.02309,-240681945.79143,-44448981.67526,  -0.00049,  -0.00069,  -0.00058,239607887.81468,   0.00000,274640135.82653,   0.00000,   0.00000,   0.00000,-235032248.01185,   0.00000
-212920899.05229,-243274973.20198,-45007061.06546,  -0.00049,  -0.00069,  -0.00059,242480107.36104,   0.00000,274640135.82653,   0.00000,   0.00000,   0.00000,-232160028.46549,   0.00000
-215830398.31215,-245844180.15075,-45565140.45565,  -0.00050,  -0.00070,  -0.00059,245336545.38031,   0.00000,274640135.82653,   0.00000,   0.00000,   0.00000,-229303590.44622,   0.00000
-218729688.80268,-248389566.63774,-46116413.99963,  -0.00051,  -0.00070,  -0.00060,248173431.06435,   0.00000,274640135.82653,   0.00000,   0.00000,   0.00000,-226466704.76218,   0.00000
-221642590.98566,-250921341.43229,-46667687.54360,  -0.00052,  -0.00071,  -0.00061,251009403.52578,   0.00000,274640135.82653,   0.00000,   0.00000,   0.00000,-223630732.30075,   0.00000
-224569104.86108,-253439504.53439,-47212155.24135,  -0.00053,  -0.00072,  -0.00061,253840787.61031,   0.00000,274640135.82653,   0.00000,   0.00000,   0.00000,-220799348.21622,   0.00000
-227485409.96716,-255933847.17472,-47763428.78533,  -0.00054,  -0.00072,  -0.00062,256660408.15942,   0.00000,274640135.82653,   0.00000,   0.00000,   0.00000,-217979727.66711,   0.00000
-230401715.07325,-258428189.81505,-48301090.63686,  -0.00054,  -0.00073,  -0.00063,259474020.88310,   0.00000,274640135.82653,   0.00000,   0.00000,   0.00000,-215166114.94343,   0.00000
-233321423.10244,-260885100.30116,-48845558.33461,  -0.00055,  -0.00073,  -0.00063,262273721.28420,   0.00000,274640135.82653,   0.00000,   0.00000,   0.00000,-212366414.54233,   0.00000
-236230922.36231,-263318190.32549,-49383220.18614,  -0.00056,  -0.00074,  -0.00064,265054195.15437,   0.00000,274640135.82653,   0.00000,   0.00000,   0.00000,-209585940.67216,   0.00000
-239154033.31462,-265737668.65738,-49920882.03767,  -0.00057,  -0.00074,  -0.00065,267834292.65374,   0.00000,274640135.82653,   0.00000,   0.00000,   0.00000,-206805843.17279,   0.00000
-242066935.49759,-268133326.52749,-50451738.04298,  -0.00058,  -0.00075,  -0.00066,270595275.29741,   0.00000,274640135.82653,   0.00000,   0.00000,   0.00000,-204044860.52912,   0.00000
-244979837.68057,-270528984.39760,-50982594.04829,  -0.00059,  -0.00075,  -0.00066,273357970.93053,   0.00000,274640135.82653,   0.00000,   0.00000,   0.00000,-201282164.89600,   0.00000
-247896142.78665,-272887210.11349,-51513450.05360,  -0.00060,  -0.00076,  -0.00067,276103507.50824,   0.00000,274640135.82653,   0.00000,   0.00000,   0.00000,-198536628.31829,   0.00000
-250826059.58518,-275231824.13693,-52037500.21268,  -0.00060,  -0.00076,  -0.00068,278845225.07875,   0.00000,274640135.82653,   0.00000,   0.00000,   0.00000,-195794910.74778,   0.00000
-253755976.38371,-277576438.16038,-52561550.37177,  -0.00061,  -0.00077,  -0.00068,281588785.67551,   0.00000,274640135.82653,   0.00000,   0.00000,   0.00000,-193051350.15102,   0.00000
-256665475.64358,-279873411.26027,-53085600.53086,  -0.00062,  -0.00077,  -0.00069,284300357.80467,   0.00000,274640135.82653,   0.00000,   0.00000,   0.00000,-190339778.02186,   0.00000
-259598795.36522,-282180593.12950,-53602844.84372,  -0.00063,  -0.00078,  -0.00070,287025215.90994,   0.00000,274640135.82653,   0.00000,   0.00000,   0.00000,-187614919.91659,   0.00000
-262511697.54819,-284440134.07517,-54120089.15659,  -0.00064,  -0.00078,  -0.00070,289718261.29255,   0.00000,274640135.82653,   0.00000,   0.00000,   0.00000,-184921874.53398,   0.00000
-265424599.73117,-286699675.02084,-54630527.62323,  -0.00065,  -0.00079,  -0.00071,292409402.99385,   0.00000,274640135.82653,   0.00000,   0.00000,   0.00000,-182230732.83268,   0.00000
-268340904.83726,-288921783.81229,-55140966.08987,  -0.00066,  -0.00079,  -0.00072,295084197.98211,   0.00000,274640135.82653,   0.00000,   0.00000,   0.00000,-179555937.84442,   0.00000
-271281030.40512,-291154101.37308,-55651404.55651,  -0.00067,  -0.00080,  -0.00072,297776359.14256,   0.00000,274640135.82653,   0.00000,   0.00000,   0.00000,-176863776.68397,   0.00000
-274176917.97254,-293328569.24098,-56155037.17693,  -0.00068,  -0.00080,  -0.00073,300417831.38676,   0.00000,274640135.82653,   0.00000,   0.00000,   0.00000,-174222304.43977,   0.00000
-277120446.46351,-295523454.64754,-56658669.79736,  -0.00068,  -0.00080,  -0.00074,303092192.23234,   0.00000,274640135.82653,   0.00000,   0.00000,   0.00000,-171547943.59419,   0.00000
-280029945.72338,-297684310.82300,-57162302.41778,  -0.00069,  -0.00081,  -0.00074,305736462.43561,   0.00000,274640135.82653,   0.00000,   0.00000,   0.00000,-168903673.39092,   0.00000
-282953056.67568,-299831555.30601,-57659129.19198,  -0.00070,  -0.00081,  -0.00075,308377794.78296,   0.00000,274640135.82653,   0.00000,   0.00000,   0.00000,-166262341.04356,   0.00000
-285879570.55110,-301941367.63480,-58149150.11995,  -0.00071,  -0.00082,  -0.00076,310999711.92209,   0.00000,274640135.82653,   0.00000,   0.00000,   0.00000,-163640423.90444,   0.00000
-288806084.42652,-304051179.96359,-58639171.04793,  -0.00072,  -0.00082,  -0.00076,313623820.57498,   0.00000,274640135.82653,   0.00000,   0.00000,   0.00000,-161016315.25155,   0.00000
-291722389.53261,-306137171.83060,-59129191.97591,  -0.00073,  -0.00082,  -0.00077,316233516.99503,   0.00000,274640135.82653,   0.00000,   0.00000,   0.00000,-158406618.83150,   0.00000
-294652306.33114,-308209552.00517,-59612407.05766,  -0.00074,  -0.00083,  -0.00077,318840667.83819,   0.00000,274640135.82653,   0.00000,   0.00000,   0.00000,-155799467.98834,   0.00000
-297572014.36034,-310258111.71797,-60095622.13942,  -0.00075,  -0.00083,  -0.00078,321433538.60897,   0.00000,274640135.82653,   0.00000,   0.00000,   0.00000,-153206597.21755,   0.00000
-300481513.62020,-312282850.96898,-60578837.22117,  -0.00076,  -0.00083,  -0.00079,324012163.13160,   0.00000,274640135.82653,   0.00000,   0.00000,   0.00000,-150627972.69493,   0.00000
-303404624.57251,-314293978.52756,-61048440.61048,  -0.00077,  -0.00084,  -0.00079,326584691.76161,   0.00000,274640135.82653,   0.00000,   0.00000,   0.00000,-148055444.06492,   0.00000
-306317526.75548,-316281285.62435,-61524849.84602,  -0.00078,  -0.00084,  -0.00080,329146926.32321,   0.00000,274640135.82653,   0.00000,   0.00000,   0.00000,-145493209.50332,   0.00000
-309254249.40023,-318278801.49048,-61994453.23533,  -0.00079,  -0.00085,  -0.00081,331723455.74472,   0.00000,274640135.82653,   0.00000,   0.00000,   0.00000,-142916680.08181,   0.00000
-312170554.50632,-320228676.43306,-62464056.62464,  -0.00080,  -0.00085,  -0.00081,334269609.64158,   0.00000,274640135.82653,   0.00000,   0.00000,   0.00000,-140370526.18494,   0.00000
-315076650.84307,-322154730.91385,-62926854.16773,  -0.00081,  -0.00085,  -0.00082,336798010.40597,   0.00000,274640135.82653,   0.00000,   0.00000,   0.00000,-137842125.42056,   0.00000
-317996358.87227,-324067173.70221,-63389651.71082,  -0.00081,  -0.00085,  -0.00082,339328424.82186,   0.00000,274640135.82653,   0.00000,   0.00000,   0.00000,-135311711.00467,   0.00000
-320916066.90147,-325979616.49057,-63845643.40769,  -0.00082,  -0.00086,  -0.00083,341857476.87460,   0.00000,274640135.82653,   0.00000,   0.00000,   0.00000,-132782658.95193,   0.00000
-323839177.85378,-327854627.12470,-64301635.10455,  -0.00083,  -0.00086,  -0.00084,344372469.23618,   0.00000,274640135.82653,   0.00000,   0.00000,   0.00000,-130267666.59035,   0.00000
-326762288.80608,-329729637.75883,-64750820.95520,  -0.00084,  -0.00086,  -0.00084,346886181.22405,   0.00000,274640135.82653,   0.00000,   0.00000,   0.00000,-127753954.60248,   0.00000
-329675190.98906,-331580827.93119,-65200006.80585,  -0.00085,  -0.00087,  -0.00085,349386214.51215,   0.00000,274640135.82653,   0.00000,   0.00000,   0.00000,-125253921.31438,   0.00000
-332567675.63337,-333384377.18000,-65642386.81027,  -0.00086,  -0.00087,  -0.00085,351852672.65021,   0.00000,274640135.82653,   0.00000,   0.00000,   0.00000,-122787463.17632,   0.00000
-335483980.73946,-335198135.19814,-66084766.81469,  -0.00087,  -0.00087,  -0.00086,354337798.79550,   0.00000,274640135.82653,   0.00000,   0.00000,   0.00000,-120302337.03102,   0.00000
-338413897.53799,-336998281.52383,-66520340.97290,  -0.00088,  -0.00087,  -0.00086,356821766.67383,   0.00000,274640135.82653,   0.00000,   0.00000,   0.00000,-117818369.15270,   0.00000
-341309785.10541,-338764398.61841,-66955915.13110,  -0.00089,  -0.00088,  -0.00087,359276170.65331,   0.00000,274640135.82653,   0.00000,   0.00000,   0.00000,-115363965.17322,   0.00000
-344219284.36527,-340516904.02055,-67391489.28930,  -0.00090,  -0.00088,  -0.00088,361733370.20842,   0.00000,274640135.82653,   0.00000,   0.00000,   0.00000,-112906765.61811,   0.00000
-347142395.31758,-342255797.73025,-67820257.60128,  -0.00091,  -0.00088,  -0.00088,364189700.97286,   0.00000,274640135.82653,   0.00000,   0.00000,   0.00000,-110450434.85367,   0.00000
-350055297.50055,-343970870.97817,-68242220.06704,  -0.00092,  -0.00088,  -0.00089,366629032.69780,   0.00000,274640135.82653,   0.00000,   0.00000,   0.00000,-108011103.12872,   0.00000
-352957990.91420,-345662123.76431,-68664182.53280,  -0.00093,  -0.00088,  -0.00089,369055210.37529,   0.00000,274640135.82653,   0.00000,   0.00000,   0.00000,-105584925.45124,   0.00000
-355850475.55850,-347329556.08868,-69086144.99855,  -0.00094,  -0.00089,  -0.00090,371468275.99484,   0.00000,274640135.82653,   0.00000,   0.00000,   0.00000,-103171859.83169,   0.00000
-358766780.66459,-349007197.18238,-69501301.61809,  -0.00095,  -0.00089,  -0.00090,373896684.67568,   0.00000,274640135.82653,   0.00000,   0.00000,   0.00000,-100743451.15085,   0.00000
-361662668.23201,-350637197.35253,-69909652.39140,  -0.00096,  -0.00089,  -0.00091,376292471.19293,   0.00000,274640135.82653,   0.00000,   0.00000,   0.00000,-98347664.63360,   0.00000
-364582376.26121,-352277406.29200,-70318003.16472,  -0.00097,  -0.00089,  -0.00091,378707553.24160,   0.00000,274640135.82653,   0.00000,   0.00000,   0.00000,-95932582.58493,   0.00000
-367457846.28996,-353859765.53860,-70719548.09181,  -0.00098,  -0.00089,  -0.00092,381073770.52289,   0.00000,274640135.82653,   0.00000,   0.00000,   0.00000,-93566365.30364,   0.00000
-370357136.78049,-355452333.55452,-71121093.01890,  -0.00099,  -0.00090,  -0.00092,383459373.71906,   0.00000,274640135.82653,   0.00000,   0.00000,   0.00000,-91180762.10747,   0.00000
-373270038.96347,-357031289.87801,-71522637.94600,  -0.00100,  -0.00090,  -0.00093,385848731.59318,   0.00000,274640135.82653,   0.00000,   0.00000,   0.00000,-88791404.23335,   0.00000
-376172732.37711,-358586425.73971,-71917377.02687,  -0.00101,  -0.00090,  -0.00093,388221639.14479,   0.00000,274640135.82653,   0.00000,   0.00000,   0.00000,-86418496.68174,   0.00000
-379065217.02142,-360117741.13964,-72305310.26151,  -0.00102,  -0.00090,  -0.00094,390578148.66771,   0.00000,274640135.82653,   0.00000,   0.00000,   0.00000,-84061987.15882,   0.00000
-381947492.89640,-361625236.07779,-72693243.49616,  -0.00103,  -0.00090,  -0.00095,392922090.70013,   0.00000,274640135.82653,   0.00000,   0.00000,   0.00000,-81718045.12640,   0.00000
-384843380.46382,-363119119.32350,-73074370.88459,  -0.00104,  -0.00090,  -0.00095,395266396.18633,   0.00000,274640135.82653,   0.00000,   0.00000,   0.00000,-79373739.64020,   0.00000
-387729059.26191,-364589182.10743,-73455498.27302,  -0.00105,  -0.00090,  -0.00095,397598296.26134,   0.00000,274640135.82653,   0.00000,   0.00000,   0.00000,-77041839.56519,   0.00000
-390614738.05999,-366059244.89136,-73829819.81522,  -0.00106,  -0.00090,  -0.00096,399929537.77419,   0.00000,274640135.82653,   0.00000,   0.00000,   0.00000,-74710598.05234,   0.00000
-393503819.78119,-367491875.52107,-74204141.35743,  -0.00107,  -0.00090,  -0.00096,402249725.64822,   0.00000,274640135.82653,   0.00000,   0.00000,   0.00000,-72390410.17831,   0.00000
-396369081.04061,-368914297.38145,-74571657.05341,  -0.00108,  -0.00091,  -0.00097,404552570.48828,   0.00000,274640135.82653,   0.00000,   0.00000,   0.00000,-70087565.33825,   0.00000
-399261565.68492,-370309495.85694,-74939172.74939,  -0.00109,  -0.00091,  -0.00097,406861414.10590,   0.00000,274640135.82653,   0.00000,   0.00000,   0.00000,-67778721.72063,   0.00000
-402130229.86746,-371694485.56310,-75299882.59915,  -0.00110,  -0.00091,  -0.00098,409152954.78544,   0.00000,274640135.82653,   0.00000,   0.00000,   0.00000,-65487181.04109,   0.00000
-405012505.74243,-373065863.57681,-75660592.44891,  -0.00112,  -0.00091,  -0.00098,411449272.58294,   0.00000,274640135.82653,   0.00000,   0.00000,   0.00000,-63190863.24359,   0.00000
-407884572.84808,-374413421.12875,-76014496.45245,  -0.00113,  -0.00091,  -0.00099,413729848.27767,   0.00000,274640135.82653,   0.00000,   0.00000,   0.00000,-60910287.54886,   0.00000
-410756639.95372,-375760978.68069,-76361594.60977,  -0.00114,  -0.00091,  -0.00099,416009967.10485,   0.00000,274640135.82653,   0.00000,   0.00000,   0.00000,-58630168.72168,   0.00000
-413632109.98247,-377071104.07840,-76708692.76709,  -0.00115,  -0.00091,  -0.00100,418279923.23825,   0.00000,274640135.82653,   0.00000,   0.00000,   0.00000,-56360212.58828,   0.00000
-416497371.24190,-378357409.01434,-77055790.92440,  -0.00116,  -0.00091,  -0.00100,420538116.83133,   0.00000,274640135.82653,   0.00000,   0.00000,   0.00000,-54102018.99520,   0.00000
-419362632.50132,-379643713.95028,-77396083.23550,  -0.00117,  -0.00091,  -0.00101,422795980.21531,   0.00000,274640135.82653,   0.00000,   0.00000,   0.00000,-51844155.61122,   0.00000
-422217684.99141,-380906198.42445,-77729569.70037,  -0.00118,  -0.00091,  -0.00101,425038386.78105,   0.00000,274640135.82653,   0.00000,   0.00000,   0.00000,-49601749.04548,   0.00000
-425086349.17394,-382155071.20617,-78063056.16525,  -0.00119,  -0.00091,  -0.00101,427286228.28130,   0.00000,274640135.82653,   0.00000,   0.00000,   0.00000,-47353907.54523,   0.00000
-427944804.58714,-383380123.52611,-78389736.78390,  -0.00120,  -0.00091,  -0.00102,429518795.09771,   0.00000,274640135.82653,   0.00000,   0.00000,   0.00000,-45121340.72882,   0.00000
-430793051.23101,-384581355.38427,-78716417.40255,  -0.00121,  -0.00091,  -0.00102,431739874.77607,   0.00000,274640135.82653,   0.00000,   0.00000,   0.00000,-42900261.05046,   0.00000
-433631089.10554,-385758766.78066,-79036292.17498,  -0.00122,  -0.00091,  -0.00103,433945802.90423,   0.00000,274640135.82653,   0.00000,   0.00000,   0.00000,-40694332.92230,   0.00000
-436482738.67252,-386922566.48461,-79356166.94741,  -0.00123,  -0.00091,  -0.00103,436157581.42952,   0.00000,274640135.82653,   0.00000,   0.00000,   0.00000,-38482554.39700,   0.00000
-439334388.23950,-388086366.18856,-79669235.87362,  -0.00124,  -0.00091,  -0.00104,438369259.26863,   0.00000,274640135.82653,   0.00000,   0.00000,   0.00000,-36270876.55790,   0.00000
-442175829.03714,-389226345.43072,-79975498.95360,  -0.00125,  -0.00091,  -0.00104,440565966.78221,   0.00000,274640135.82653,   0.00000,   0.00000,   0.00000,-34074169.04432,   0.00000
-444996852.29612,-390318683.74934,-80281762.03359,  -0.00126,  -0.00091,  -0.00104,442736684.40971,   0.00000,274640135.82653,   0.00000,   0.00000,   0.00000,-31903451.41682,   0.00000
-447851904.78621,-391445051.29907,-80588025.11357,  -0.00127,  -0.00091,  -0.00105,444943181.02299,   0.00000,274640135.82653,   0.00000,   0.00000,   0.00000,-29696954.80354,   0.00000
-450686539.73763,-392523777.92524,-80887482.34734,  -0.00129,  -0.00091,  -0.00105,447120167.85310,   0.00000,274640135.82653,   0.00000,   0.00000,   0.00000,-27519967.97343,   0.00000
-453510965.91973,-393578684.08963,-81180133.73488,  -0.00130,  -0.00091,  -0.00106,449282505.70427,   0.00000,274640135.82653,   0.00000,   0.00000,   0.00000,-25357630.12226,   0.00000
-456335392.10182,-394633590.25403,-81472785.12242,  -0.00131,  -0.00091,  -0.00106,451448591.36251,   0.00000,274640135.82653,   0.00000,   0.00000,   0.00000,-23191544.46402,   0.00000
-459163221.20702,-395651064.26420,-81758630.66374,  -0.00132,  -0.00090,  -0.00106,453602945.63097,   0.00000,274640135.82653,   0.00000,   0.00000,   0.00000,-21037190.19556,   0.00000
-461967229.85044,-396658329.50504,-82044476.20506,  -0.00133,  -0.00090,  -0.00107,455743667.39447,   0.00000,274640135.82653,   0.00000,   0.00000,   0.00000,-18896468.43206,   0.00000
-464784850.18631,-397651983.05344,-82323515.90016,  -0.00134,  -0.00090,  -0.00107,457887456.72900,   0.00000,274640135.82653,   0.00000,   0.00000,   0.00000,-16752679.09753,   0.00000
-467592261.75285,-398621816.14006,-82595749.74903,  -0.00135,  -0.00090,  -0.00107,460016926.41771,   0.00000,274640135.82653,   0.00000,   0.00000,   0.00000,-14623209.40882,   0.00000
-470423493.78116,-399601857.99602,-82867983.59791,  -0.00136,  -0.00090,  -0.00108,462167842.20883,   0.00000,274640135.82653,   0.00000,   0.00000,   0.00000,-12472293.61770,   0.00000
-473210487.80903,-400524050.15909,-83133411.60056,  -0.00137,  -0.00090,  -0.00108,464272540.37506,   0.00000,274640135.82653,   0.00000,   0.00000,   0.00000,-10367595.45147,   0.00000
-476021302.29867,-401456451.09149,-83398839.60322,  -0.00138,  -0.00090,  -0.00108,466398798.28513,   0.00000,274640135.82653,   0.00000,   0.00000,   0.00000,-8241337.54140,   0.00000
-478821908.01899,-402365031.56211,-83664267.60587,  -0.00139,  -0.00090,  -0.00109,468514647.70305,   0.00000,274640135.82653,   0.00000,   0.00000,   0.00000,-6125488.12348,   0.00000
-481612304.96997,-403249791.57096,-83916083.91608,  -0.00140,  -0.00090,  -0.00109,470612869.05778,   0.00000,274640135.82653,   0.00000,   0.00000,   0.00000,-4027266.76875,   0.00000
-484392493.15162,-404110731.11803,-84167900.22629,  -0.00142,  -0.00089,  -0.00109,472700827.32772,   0.00000,274640135.82653,   0.00000,   0.00000,   0.00000,-1939308.49881,   0.00000
-486969976.95431,-404908899.29683,-84401356.53156,  -0.00143,  -0.00089,  -0.00110,474640142.40115,   0.00000,274640135.82653,   0.00000,   0.00000,   0.00000,  -1.41213,   0.00000
-487017785.81139,-404847617.50242,-84388041.70430,  -0.00143,  -0.00089,  -0.00110,474640865.89234,   0.00000,274640874.93245,  -0.00000,  -0.00000,  -0.00000,  -9.04011,   1.00000
-487686190.90911,-403984552.26694,-84201877.20365,  -0.00144,  -0.00089,  -0.00110,474650945.60785,   0.00001,274650951.68464,  -0.00001,  -0.00000,  -0.00001,  -6.07679,   1.00000
-488350909.02506,-403125643.34259,-84009849.55373,  -0.00145,  -0.00089,  -0.00110,474661020.89221,   0.00002,274661026.60122,  -0.00001,  -0.00001,  -0.00001,  -5.70901,   1.00000
-489012469.58194,-402255603.05908,-83820920.56452,  -0.00146,  -0.00089,  -0.00111,474671043.89968,   0.00003,274671049.01889,  -0.00002,  -0.00001,  -0.00002,  -5.11921,   1.00000
-489674499.49383,-401377259.02438,-83629015.28881,  -0.00147,  -0.00089,  -0.00111,474680995.71187,   0.00004,274681001.96608,  -0.00003,  -0.00001,  -0.00002,  -6.25421,   1.00000
-490329174.96092,-400500167.14826,-83437287.91766,  -0.00148,  -0.00088,  -0.00111,474690962.85825,   0.00005,274690971.23714,  -0.00003,  -0.00002,  -0.00003,  -8.37890,   1.00000
-490984315.91249,-399614647.44270,-83242561.53793,  -0.00149,  -0.00088,  -0.00112,474700866.62417,   0.00006,274700871.67769,  -0.00004,  -0.00002,  -0.00003,  -5.05352,   1.00000
-491641593.26203,-398713687.38565,-83047212.99413,  -0.00150,  -0.00088,  -0.00112,474710803.51147,   0.00006,274710807.99498,  -0.00004,  -0.00002,  -0.00004,  -4.48350,   1.00000
-492293797.42925,-397808207.05634,-82852465.43890,  -0.00152,  -0.00088,  -0.00112,474720583.89785,   0.00007,274720590.13632,  -0.00005,  -0.00003,  -0.00004,  -6.23847,   1.00000
-492951579.49935,-396889996.52519,-82650996.12445,  -0.00153,  -0.00088,  -0.00112,474730386.51341,   0.00008,274730392.13828,  -0.00006,  -0.00003,  -0.00005,  -5.62487,   1.00000
-493601830.48066,-395973048.72927,-82449709.49308,  -0.00154,  -0.00087,  -0.00113,474740207.36242,   0.00009,274740211.82184,  -0.00006,  -0.00003,  -0.00006,  -4.45942,   1.00000
-494256263.34521,-395034405.28915,-82248112.48841,  -0.00155,  -0.00087,  -0.00113,474749894.35578,   0.00010,274749898.90913,  -0.00007,  -0.00004,  -0.00006,  -4.55334,   1.00000
-494903110.65411,-394097017.54240,-82046674.70136,  -0.00156,  -0.00087,  -0.00113,474759601.03861,   0.00011,274759604.42387,  -0.00008,  -0.00004,  -0.00007,  -3.38526,   1.00000
-495546061.29495,-393163671.31510,-81839339.78795,  -0.00157,  -0.00087,  -0.00113,474769307.29906,   0.00012,274769311.07292,  -0.00008,  -0.00004,  -0.00007,  -3.77386,   1.00000
-496194413.07927,-392201539.27069,-81634053.01804,  -0.00158,  -0.00086,  -0.00114,474778986.71554,   0.00013,274778991.59477,  -0.00009,  -0.00005,  -0.00008,  -4.87923,   1.00000
-496833769.02653,-391247354.78338,-81426476.46338,  -0.00159,  -0.00086,  -0.00114,474788586.61423,   0.00014,274788586.67405,  -0.00010,  -0.00005,  -0.00008,  -0.05982,   1.00000
-497474354.69396,-390277362.18954,-81218167.86887,  -0.00160,  -0.00086,  -0.00114,474798216.59819,   0.00014,274798222.89632,  -0.00010,  -0.00005,  -0.00009,  -6.29813,   1.00000
-498109953.22348,-389301995.73947,-81010252.86335,  -0.00162,  -0.00086,  -0.00114,474807701.81874,   0.00015,274807708.57548,  -0.00011,  -0.00006,  -0.00009,  -6.75674,   1.00000
-498750176.68614,-388313402.89315,-80795475.25215,  -0.00163,  -0.00085,  -0.00115,474817213.01151,   0.00016,274817219.85083,  -0.00012,  -0.00006,  -0.00010,  -6.83932,   1.00000
-499382649.09048,-387326109.77193,-80580876.97149,  -0.00164,  -0.00085,  -0.00115,474826747.31354,   0.00017,274826751.18431,  -0.00012,  -0.00006,  -0.00010,  -3.87077,   1.00000
-500014839.79360,-386329326.39758,-80363014.19727,  -0.00165,  -0.00085,  -0.00115,474836218.45325,   0.00018,274836221.12021,  -0.00013,  -0.00006,  -0.00011,  -2.66696,   1.00000
-500643078.31607,-385320328.88064,-80147965.53987,  -0.00166,  -0.00084,  -0.00115,474845639.40975,   0.00019,274845647.06564,  -0.00013,  -0.00007,  -0.00011,  -7.65590,   1.00000
-501267159.03035,-384315278.64441,-79926984.85914,  -0.00167,  -0.00084,  -0.00116,474855071.52169,   0.00020,274855076.97200,  -0.00014,  -0.00007,  -0.00012,  -5.45031,   1.00000
-501894579.24703,-383286834.28158,-79705285.79461,  -0.00168,  -0.00084,  -0.00116,474864379.94365,   0.00020,274864382.97704,  -0.00015,  -0.00007,  -0.00012,  -3.03338,   1.00000
-502514146.53110,-382259685.57748,-79483756.07818,  -0.00169,  -0.00083,  -0.00116,474873706.86462,   0.00021,274873710.42418,  -0.00015,  -0.00008,  -0.00013,  -3.55956,   1.00000
-503130314.17525,-381230210.54221,-79258837.46878,  -0.00171,  -0.00083,  -0.00116,474883144.38360,   0.00022,274883147.83471,  -0.00016,  -0.00008,  -0.00013,  -3.45111,   1.00000
-503748781.63364,-380183144.82882,-79030548.45416,  -0.00172,  -0.00083,  -0.00116,474892351.35032,   0.00023,274892358.33101,  -0.00017,  -0.00008,  -0.00014,  -6.98069,   1.00000
-504355811.73102,-379134865.84891,-78808566.65809,  -0.00173,  -0.00082,  -0.00117,474901599.11762,   0.00024,274901607.28790,  -0.00017,  -0.00008,  -0.00014,  -8.17028,   1.00000
-504966435.86407,-378072896.44579,-78579589.58288,  -0.00174,  -0.00082,  -0.00117,474910885.38607,   0.00025,274910888.02943,  -0.00018,  -0.00009,  -0.00015,  -2.64337,   1.00000
-505572077.42772,-377004303.84837,-78350718.51923,  -0.00175,  -0.00082,  -0.00117,474920021.45246,   0.00026,274920023.22541,  -0.00019,  -0.00009,  -0.00015,  -1.77296,   1.00000
-506177477.60647,-375936003.17743,-78112344.67882,  -0.00176,  -0.00081,  -0.00117,474929252.27335,   0.00026,274929254.07064,  -0.00019,  -0.00009,  -0.00016,  -1.79728,   1.00000
-506774380.59443,-374858389.97359,-77880198.39098,  -0.00177,  -0.00081,  -0.00117,474938346.39375,   0.00027,274938356.11542,  -0.00020,  -0.00009,  -0.00016,  -9.72168,   1.00000
-507370906.74957,-373764421.95927,-77647158.03114,  -0.00178,  -0.00081,  -0.00117,474947502.26647,   0.00028,274947508.67552,  -0.00021,  -0.00010,  -0.00017,  -6.40905,   1.00000
-507962956.78800,-372674301.35210,-77408156.27409,  -0.00180,  -0.00080,  -0.00118,474956659.38760,   0.00029,274956668.63603,  -0.00021,  -0.00010,  -0.00017,  -9.24842,   1.00000
-508550100.21518,-371577035.88844,-77169157.69180,  -0.00181,  -0.00080,  -0.00118,474965678.64044,   0.00030,274965684.64961,  -0.00022,  -0.00010,  -0.00017,  -6.00917,   1.00000
-509136557.39816,-370463307.26668,-76929247.08569,  -0.00182,  -0.00080,  -0.00118,474974747.09466,   0.00031,274974752.90176,  -0.00022,  -0.00010,  -0.00018,  -5.80709,   1.00000
-509714548.35250,-369339817.11562,-76695422.29653,  -0.00183,  -0.00079,  -0.00118,474983690.92343,   0.00031,274983694.39439,  -0.00023,  -0.00010,  -0.00018,  -3.47096,   1.00000
-510295300.78254,-368219156.24785,-76445934.43455,  -0.00184,  -0.00079,  -0.00118,474992714.27249,   0.00032,274992718.56338,  -0.00024,  -0.00011,  -0.00019,  -4.29089,   1.00000
-510867804.87603,-367082911.72111,-76205198.11430,  -0.00185,  -0.00078,  -0.00118,475001719.44631,   0.00033,275001722.46577,  -0.00024,  -0.00011,  -0.00019,  -3.01945,   1.00000
-511438844.39098,-365941293.55083,-75958126.58913,  -0.00186,  -0.00078,  -0.00118,475010568.90753,   0.00034,275010568.99588,  -0.00025,  -0.00011,  -0.00020,  -0.08835,   1.00000
-512001941.37357,-364795562.89866,-75713951.86584,  -0.00188,  -0.00078,  -0.00119,475019538.32838,   0.00035,275019546.83297,  -0.00026,  -0.00011,  -0.00020,  -8.50460,   1.00000
-512563603.69079,-363644226.76937,-75463394.66614,  -0.00189,  -0.00077,  -0.00119,475028365.42730,   0.00035,275028367.92632,  -0.00026,  -0.00012,  -0.00021,  -2.49902,   1.00000
-513123851.88139,-362476225.91800,-75211866.47424,  -0.00190,  -0.00077,  -0.00119,475037239.63758,   0.00036,275037245.50004,  -0.00027,  -0.00012,  -0.00021,  -5.86246,   1.00000
-513675952.51027,-361309722.42606,-74960551.54889,  -0.00191,  -0.00076,  -0.00119,475046141.71051,   0.00037,275046148.98263,  -0.00028,  -0.00012,  -0.00021,  -7.27212,   1.00000
-514223111.11621,-360134964.55323,-74708961.57762,  -0.00192,  -0.00076,  -0.00119,475054908.01119,   0.00038,275054912.67294,  -0.00028,  -0.00012,  -0.00022,  -4.66175,   1.00000
-514772018.16584,-358945724.38206,-74450172.56865,  -0.00193,  -0.00075,  -0.00119,475063715.06678,   0.00039,275063719.09557,  -0.00029,  -0.00012,  -0.00022,  -4.02880,   1.00000
-515312424.70725,-357745731.71105,-74197250.33710,  -0.00194,  -0.00075,  -0.00119,475072393.48462,   0.00039,275072402.41576,  -0.00030,  -0.00013,  -0.00023,  -8.93114,   1.00000
-515844697.52080,-356547243.88742,-73944519.72455,  -0.00195,  -0.00074,  -0.00119,475081108.76032,   0.00040,275081112.61019,  -0.00030,  -0.00013,  -0.00023,  -3.84986,   1.00000
-516378900.89357,-355351742.37978,-73676161.54974,  -0.00197,  -0.00074,  -0.00119,475089905.47245,   0.00041,275089910.29589,  -0.00031,  -0.00013,  -0.00024,  -4.82344,   1.00000
-516904158.54762,-354127607.03503,-73422017.21552,  -0.00198,  -0.00073,  -0.00120,475098533.24468,   0.00042,275098542.70806,  -0.00032,  -0.00013,  -0.00024,  -9.46339,   1.00000
-517424650.31012,-352907169.35160,-73161842.46701,  -0.00199,  -0.00073,  -0.00120,475107183.50086,   0.00043,275107187.51611,  -0.00032,  -0.00013,  -0.00024,  -4.01525,   1.00000
-517943178.39083,-351674818.22744,-72897788.99574,  -0.00200,  -0.00072,  -0.00120,475115779.17973,   0.00043,275115787.27660,  -0.00033,  -0.00013,  -0.00025,  -8.09687,   1.00000
-518456522.40111,-350441296.82895,-72630583.06599,  -0.00201,  -0.00072,  -0.00120,475124506.70666,   0.00044,275124506.75113,  -0.00033,  -0.00014,  -0.00025,  -0.04447,   1.00000
-518964771.47464,-349198463.79612,-72362859.80861,  -0.00202,  -0.00072,  -0.00120,475133087.27670,   0.00045,275133090.23514,  -0.00034,  -0.00014,  -0.00026,  -2.95844,   1.00000
-519461926.27610,-347959890.47776,-72098735.24810,  -0.00203,  -0.00071,  -0.00120,475141606.39803,   0.00046,275141609.80477,  -0.00035,  -0.00014,  -0.00026,  -3.40673,   1.00000
-519962502.82041,-346690603.33406,-71829364.96681,  -0.00204,  -0.00071,  -0.00120,475150121.51962,   0.00047,275150121.67016,  -0.00035,  -0.00014,  -0.00027,  -0.15054,   1.00000
-520458108.31073,-345424949.16491,-71553970.27675,  -0.00206,  -0.00070,  -0.00120,475158641.29085,   0.00047,275158647.83074,  -0.00036,  -0.00014,  -0.00027,  -6.53989,   1.00000
-520942139.99072,-344158915.92443,-71285081.72539,  -0.00207,  -0.00069,  -0.00120,475167211.72616,   0.00048,275167217.73924,  -0.00037,  -0.00014,  -0.00027,  -6.01308,   1.00000
-521424419.54857,-342884975.25648,-71009262.82081,  -0.00208,  -0.00069,  -0.00120,475175629.19644,   0.00049,275175638.66049,  -0.00037,  -0.00015,  -0.00028,  -9.46406,   1.00000
-521903658.94402,-341594069.26672,-70732372.36250,  -0.00209,  -0.00068,  -0.00120,475184120.37184,   0.00050,275184125.90113,  -0.00038,  -0.00015,  -0.00028,  -5.52930,   1.00000
-522374360.96547,-340290996.86254,-70461004.16032,  -0.00210,  -0.00068,  -0.00120,475192490.29552,   0.00050,275192494.90317,  -0.00039,  -0.00015,  -0.00029,  -4.60765,   1.00000
-522840098.77917,-338991540.42224,-70183585.86571,  -0.00211,  -0.00067,  -0.00120,475200873.38356,   0.00051,275200879.39104,  -0.00039,  -0.00015,  -0.00029,  -6.00749,   1.00000
-523297628.95867,-337693780.98856,-69906418.82530,  -0.00212,  -0.00067,  -0.00120,475209285.96319,   0.00052,275209293.77236,  -0.00040,  -0.00015,  -0.00029,  -7.80917,   1.00000
-523752554.23445,-336383235.38348,-69625161.18477,  -0.00213,  -0.00066,  -0.00120,475217665.48650,   0.00053,275217668.91789,  -0.00041,  -0.00015,  -0.00030,  -3.43139,   1.00000
-524201470.46870,-335057900.83678,-69346068.95565,  -0.00214,  -0.00066,  -0.00120,475226015.78902,   0.00054,275226020.11090,  -0.00041,  -0.00015,  -0.00030,  -4.32188,   1.00000
-524647544.26248,-333719609.36334,-69062825.77488,  -0.00216,  -0.00065,  -0.00120,475234333.31526,   0.00054,275234333.67810,  -0.00042,  -0.00016,  -0.00030,  -0.36285,   1.00000
-525088519.33968,-332384923.81493,-68773546.53085,  -0.00217,  -0.00065,  -0.00120,475242659.41966,   0.00055,275242664.15750,  -0.00043,  -0.00016,  -0.00031,  -4.73784,   1.00000
-525517698.56551,-331035479.31145,-68495919.40202,  -0.00218,  -0.00064,  -0.00120,475250891.38418,   0.00056,275250892.80613,  -0.00043,  -0.00016,  -0.00031,  -1.42195,   1.00000
-525945073.93735,-329691461.80925,-68205928.20930,  -0.00219,  -0.00063,  -0.00120,475259115.07280,   0.00057,275259124.47825,  -0.00044,  -0.00016,  -0.00032,  -9.40545,   1.00000
-526366200.17026,-328332346.73258,-67918033.68802,  -0.00220,  -0.00063,  -0.00120,475267329.77360,   0.00057,275267334.36468,  -0.00045,  -0.00016,  -0.00032,  -4.59108,   1.00000
-526779066.23158,-326975030.20405,-67630404.63410,  -0.00221,  -0.00062,  -0.00120,475275571.42960,   0.00058,275275575.97339,  -0.00045,  -0.00016,  -0.00032,  -4.54379,   1.00000
-527188775.76545,-325604317.92433,-67338524.71796,  -0.00222,  -0.00062,  -0.00120,475283774.31503,   0.00059,275283782.69556,  -0.00046,  -0.00016,  -0.00033,  -8.38053,   1.00000
-527592026.22648,-324218362.23951,-67048688.58292,  -0.00223,  -0.00061,  -0.00120,475291962.69170,   0.00060,275291969.28320,  -0.00047,  -0.00016,  -0.00033,  -6.59151,   1.00000
-527988006.04486,-322837745.59633,-66755960.27907,  -0.00224,  -0.00060,  -0.00120,475300075.35647,   0.00060,275300080.14883,  -0.00047,  -0.00017,  -0.00033,  -4.79236,   1.00000
-528377471.31615,-321441738.80707,-66465236.02661,  -0.00226,  -0.00060,  -0.00120,475308166.68309,   0.00061,275308171.62972,  -0.00048,  -0.00017,  -0.00034,  -4.94663,   1.00000
-528761825.30785,-320049308.85592,-66168449.38319,  -0.00227,  -0.00059,  -0.00120,475316276.11959,   0.00062,275316282.06773,  -0.00048,  -0.00017,  -0.00034,  -5.94814,   1.00000
-529139557.68906,-318641402.96313,-65873651.43349,  -0.00228,  -0.00059,  -0.00120,475324371.38011,   0.00063,275324373.95582,  -0.00049,  -0.00017,  -0.00034,  -2.57571,   1.00000
-529513660.56071,-317219635.70735,-65574472.13024,  -0.00229,  -0.00058,  -0.00120,475332428.60029,   0.00063,275332434.45443,  -0.00050,  -0.00017,  -0.00035,  -5.85414,   1.00000
-529877491.38402,-315801242.07735,-65278675.98139,  -0.00230,  -0.00057,  -0.00120,475340432.80449,   0.00064,275340433.58962,  -0.00050,  -0.00017,  -0.00035,  -0.78513,   1.00000
-530235039.50735,-314383377.56152,-64980072.15432,  -0.00231,  -0.00057,  -0.00120,475348558.34230,   0.00065,275348561.13656,  -0.00051,  -0.00017,  -0.00035,  -2.79425,   1.00000
-530588291.17215,-312935176.52224,-64681750.33194,  -0.00232,  -0.00056,  -0.00120,475356503.43022,   0.00066,275356513.19329,  -0.00052,  -0.00017,  -0.00036,  -9.76307,   1.00000
-530934999.25687,-311508261.21624,-64375741.06159,  -0.00233,  -0.00055,  -0.00120,475364533.71722,   0.00066,275364535.90299,  -0.00052,  -0.00017,  -0.00036,  -2.18577,   1.00000
-531274175.90732,-310048960.45332,-64076280.58448,  -0.00234,  -0.00055,  -0.00120,475372392.03497,   0.00067,275372397.71157,  -0.00053,  -0.00017,  -0.00036,  -5.67660,   1.00000
-531606864.95723,-308590446.52301,-63774048.25881,  -0.00235,  -0.00054,  -0.00120,475380384.97295,   0.00068,275380389.64884,  -0.00054,  -0.00017,  -0.00037,  -4.67589,   1.00000
-531932552.89590,-307136638.59776,-63468772.22309,  -0.00236,  -0.00053,  -0.00120,475388298.64105,   0.00068,275388307.26400,  -0.00054,  -0.00017,  -0.00037,  -8.62295,   1.00000
-532251139.85623,-305666857.24028,-63165344.43326,  -0.00238,  -0.00053,  -0.00120,475396205.83584,   0.00069,275396210.39670,  -0.00055,  -0.00018,  -0.00037,  -4.56086,   1.00000
-532562806.26726,-304201629.95602,-62858835.16372,  -0.00239,  -0.00052,  -0.00119,475404038.73035,   0.00070,275404039.31564,  -0.00056,  -0.00018,  -0.00038,  -0.58529,   1.00000
-532868943.07534,-302719361.99225,-62551152.48268,  -0.00240,  -0.00051,  -0.00119,475411943.66224,   0.00071,275411950.62784,  -0.00056,  -0.00018,  -0.00038,  -6.96560,   1.00000
-533169052.88676,-301223331.37879,-62241857.17758,  -0.00241,  -0.00051,  -0.00119,475419732.84585,   0.00071,275419740.05922,  -0.00057,  -0.00018,  -0.00038,  -7.21337,   1.00000
-533460899.08517,-299729358.34885,-61932858.64903,  -0.00242,  -0.00050,  -0.00119,475427558.16559,   0.00072,275427565.11430,  -0.00058,  -0.00018,  -0.00039,  -6.94871,   1.00000
-533745305.14004,-298219145.65440,-61625623.02690,  -0.00243,  -0.00049,  -0.00119,475435371.98900,   0.00073,275435378.25630,  -0.00058,  -0.00018,  -0.00039,  -6.26730,   1.00000
-534022838.44846,-296713178.45345,-61315219.00838,  -0.00244,  -0.00049,  -0.00119,475443116.19358,   0.00074,275443118.07423,  -0.00059,  -0.00018,  -0.00039,  -1.88066,   1.00000
-534295127.05247,-295210740.92032,-60998725.68099,  -0.00245,  -0.00048,  -0.00119,475450878.24462,   0.00074,275450880.85687,  -0.00059,  -0.00018,  -0.00040,  -2.61226,   1.00000
-534557509.94775,-293671928.00404,-60691776.97184,  -0.00246,  -0.00047,  -0.00119,475458592.87614,   0.00075,275458598.86054,  -0.00060,  -0.00018,  -0.00040,  -5.98440,   1.00000
-534816917.83602,-292156684.68971,-60370914.32519,  -0.00247,  -0.00047,  -0.00119,475466369.23230,   0.00076,275466374.61444,  -0.00061,  -0.00018,  -0.00040,  -5.38215,   1.00000
-535064712.45925,-290605300.12647,-60062428.64645,  -0.00248,  -0.00046,  -0.00119,475474007.31704,   0.00076,275474010.03387,  -0.00061,  -0.00018,  -0.00040,  -2.71683,   1.00000
-535306774.37257,-289076205.78237,-59746456.45087,  -0.00249,  -0.00045,  -0.00118,475481715.05199,   0.00077,275481715.73424,  -0.00062,  -0.00018,  -0.00041,  -0.68225,   1.00000
-535544187.34481,-287513006.79292,-59427072.08701,  -0.00250,  -0.00044,  -0.00118,475489344.56037,   0.00078,275489354.40014,  -0.00063,  -0.00018,  -0.00041,  -9.83977,   1.00000
-535771700.37407,-285971136.90683,-59109516.27203,  -0.00251,  -0.00044,  -0.00118,475496970.05214,   0.00078,275496978.44487,  -0.00063,  -0.00018,  -0.00041,  -8.39272,   1.00000
-535991498.58600,-284393571.91884,-58794899.83706,  -0.00252,  -0.00043,  -0.00118,475504547.02849,   0.00079,275504549.27141,  -0.00064,  -0.00018,  -0.00042,  -2.24293,   1.00000
-536205768.69421,-282838559.37502,-58472862.98965,  -0.00253,  -0.00042,  -0.00118,475512183.88476,   0.00080,275512190.26293,  -0.00065,  -0.00018,  -0.00042,  -6.37817,   1.00000
-536410676.32079,-281266760.59645,-58155236.32436,  -0.00254,  -0.00042,  -0.00118,475519721.51013,   0.00081,275519726.27591,  -0.00065,  -0.00018,  -0.00042,  -4.76578,   1.00000
-536607469.05700,-279678066.67080,-57839183.10967,  -0.00255,  -0.00041,  -0.00118,475527255.39750,   0.00081,275527255.66405,  -0.00066,  -0.00018,  -0.00042,  -0.26654,   1.00000
-536798875.74985,-278092904.12079,-57516994.50078,  -0.00257,  -0.00040,  -0.00118,475534806.30948,   0.00082,275534810.96160,  -0.00067,  -0.00018,  -0.00043,  -4.65211,   1.00000
-536982012.33556,-276490781.09518,-57196367.97210,  -0.00258,  -0.00039,  -0.00117,475542354.69141,   0.00083,275542360.63259,  -0.00067,  -0.00018,  -0.00043,  -5.94118,   1.00000
-537158453.42571,-274891959.89723,-56872343.94848,  -0.00259,  -0.00039,  -0.00117,475549833.54415,   0.00083,275549838.67643,  -0.00068,  -0.00018,  -0.00043,  -5.13229,   1.00000
-537326494.87393,-273276048.58328,-56549846.77816,  -0.00260,  -0.00038,  -0.00117,475557309.91800,   0.00084,275557312.00857,  -0.00068,  -0.00018,  -0.00044,  -2.09058,   1.00000
-537485148.16547,-271662094.14117,-56230368.60009,  -0.00261,  -0.00037,  -0.00117,475564716.97332,   0.00085,275564725.86328,  -0.00069,  -0.00018,  -0.00044,  -8.88996,   1.00000
-537637994.29958,-270032105.05013,-55905903.21469,  -0.00262,  -0.00036,  -0.00117,475572120.04005,   0.00085,275572124.05658,  -0.00070,  -0.00018,  -0.00044,  -4.01653,   1.00000
-537782707.29272,-268404488.86615,-55581762.09851,  -0.00263,  -0.00036,  -0.00117,475579555.98254,   0.00086,275579561.35885,  -0.00070,  -0.00018,  -0.00044,  -5.37630,   1.00000
-537922019.04409,-266780430.66133,-55251491.16629,  -0.00264,  -0.00035,  -0.00116,475587016.93992,   0.00087,275587025.90688,  -0.00071,  -0.00018,  -0.00045,  -8.96696,   1.00000
-538051460.14739,-265138398.69056,-54925334.05306,  -0.00265,  -0.00034,  -0.00116,475594384.56825,   0.00087,275594389.09935,  -0.00072,  -0.00018,  -0.00045,  -4.53110,   1.00000
-538170911.97743,-263478215.33650,-54603221.62759,  -0.00266,  -0.00033,  -0.00116,475601644.71754,   0.00088,275601651.69660,  -0.00072,  -0.00018,  -0.00045,  -6.97907,   1.00000
-538286055.01495,-261822363.04113,-54272331.11386,  -0.00267,  -0.00032,  -0.00116,475609038.67514,   0.00089,275609041.45222,  -0.00073,  -0.00018,  -0.00045,  -2.77708,   1.00000
-538391970.81998,-260168101.61952,-53944383.97209,  -0.00268,  -0.00032,  -0.00116,475616366.47059,   0.00089,275616371.95121,  -0.00073,  -0.00018,  -0.00046,  -5.48062,   1.00000
-538487798.61798,-258495349.28581,-53620402.56760,  -0.00269,  -0.00031,  -0.00116,475623596.96241,   0.00090,275623602.57809,  -0.00074,  -0.00018,  -0.00046,  -5.61567,   1.00000
-538578170.43553,-256826098.40545,-53290243.90636,  -0.00270,  -0.00030,  -0.00115,475630855.36932,   0.00091,275630861.89244,  -0.00075,  -0.00018,  -0.00046,  -6.52313,   1.00000
-538659452.88090,-255139232.01431,-52961450.95947,  -0.00271,  -0.00029,  -0.00115,475638119.40247,   0.00092,275638121.41713,  -0.00075,  -0.00018,  -0.00046,  -2.01466,   1.00000
-538731576.50904,-253453693.07395,-52635516.69207,  -0.00272,  -0.00028,  -0.00115,475645320.87606,   0.00092,275645321.97454,  -0.00076,  -0.00018,  -0.00047,  -1.09848,   1.00000
-538796983.52829,-251751423.55326,-52304392.24749,  -0.00273,  -0.00028,  -0.00115,475652509.14504,   0.00093,275652512.64451,  -0.00077,  -0.00018,  -0.00047,  -3.49947,   1.00000
-538854350.10004,-250051707.02801,-51973605.21544,  -0.00274,  -0.00027,  -0.00115,475659735.15177,   0.00094,275659744.16616,  -0.00077,  -0.00018,  -0.00047,  -9.01439,   1.00000
-538905132.12177,-248354115.82223,-51639131.22030,  -0.00275,  -0.00026,  -0.00114,475666900.56427,   0.00094,275666905.61123,  -0.00078,  -0.00018,  -0.00047,  -5.04696,   1.00000
-538944042.41407,-246637735.77496,-51312475.24354,  -0.00276,  -0.00025,  -0.00114,475674074.94866,   0.00095,275674080.36523,  -0.00078,  -0.00018,  -0.00048,  -5.41658,   1.00000
-538976362.49675,-244923324.26469,-50982072.94072,  -0.00277,  -0.00024,  -0.00114,475681182.07503,   0.00095,275681185.36199,  -0.00079,  -0.00018,  -0.00048,  -3.28696,   1.00000
-539001552.85591,-243191880.82539,-50646400.14651,  -0.00277,  -0.00023,  -0.00114,475688277.14906,   0.00096,275688282.98546,  -0.00080,  -0.00018,  -0.00048,  -5.83640,   1.00000
-539018763.68928,-241463069.71807,-50311078.60337,  -0.00278,  -0.00023,  -0.00114,475695417.49049,   0.00097,275695422.09180,  -0.00080,  -0.00018,  -0.00048,  -4.60132,   1.00000
-539025153.68459,-239714446.37211,-49979394.04206,  -0.00279,  -0.00022,  -0.00113,475702465.09186,   0.00097,275702465.45988,  -0.00081,  -0.00018,  -0.00048,  -0.36801,   1.00000
-539022473.05354,-237966565.18477,-49650413.55275,  -0.00280,  -0.00021,  -0.00113,475709445.80754,   0.00098,275709450.43879,  -0.00082,  -0.00018,  -0.00049,  -4.63125,   1.00000
-539014271.94638,-236222187.13465,-49315219.15963,  -0.00281,  -0.00020,  -0.00113,475716458.99936,   0.00099,275716466.54244,  -0.00082,  -0.00018,  -0.00049,  -7.54308,   1.00000
-538996176.47909,-234459658.44028,-48981220.25745,  -0.00282,  -0.00019,  -0.00113,475723480.68057,   0.00099,275723488.27665,  -0.00083,  -0.00018,  -0.00049,  -7.59609,   1.00000
-538969077.19200,-232697709.20399,-48649891.47056,  -0.00283,  -0.00018,  -0.00113,475730444.96217,   0.00100,275730451.56227,  -0.00083,  -0.00018,  -0.00049,  -6.60010,   1.00000
-538934243.27436,-230918336.02864,-48313163.80448,  -0.00284,  -0.00018,  -0.00112,475737409.91493,   0.00101,275737411.18437,  -0.00084,  -0.00018,  -0.00049,  -1.26944,   1.00000
-538891468.52253,-229141703.50013,-47976782.27250,  -0.00285,  -0.00017,  -0.00112,475744407.15792,   0.00101,275744413.47458,  -0.00085,  -0.00018,  -0.00050,  -6.31666,   1.00000
-538839747.12820,-227365485.57280,-47643036.49525,  -0.00286,  -0.00016,  -0.00112,475751356.42757,   0.00102,275751357.27726,  -0.00085,  -0.00017,  -0.00050,  -0.84969,   1.00000
-538778917.74658,-225569224.22676,-47306107.97605,  -0.00287,  -0.00015,  -0.00112,475758192.96795,   0.00103,275758197.98165,  -0.00086,  -0.00017,  -0.00050,  -5.01370,   1.00000
-538710209.41264,-223775707.82136,-46969517.74022,  -0.00288,  -0.00014,  -0.00111,475765073.85967,   0.00103,275765081.56164,  -0.00086,  -0.00017,  -0.00050,  -7.70196,   1.00000
-538631075.42998,-221963765.86007,-46634023.06585,  -0.00289,  -0.00013,  -0.00111,475771965.52956,   0.00104,275771974.20368,  -0.00087,  -0.00017,  -0.00051,  -8.67412,   1.00000
-538542943.64645,-220151956.16211,-46301079.04064,  -0.00290,  -0.00012,  -0.00111,475778807.00311,   0.00105,275778808.92129,  -0.00088,  -0.00017,  -0.00051,  -1.91819,   1.00000
-538448043.62606,-218340889.27729,-45964084.98272,  -0.00291,  -0.00012,  -0.00111,475785567.52501,   0.00105,275785575.66101,  -0.00088,  -0.00017,  -0.00051,  -8.13600,   1.00000
-538342519.22426,-216511239.28332,-45628138.43877,  -0.00291,  -0.00011,  -0.00110,475792349.45167,   0.00106,275792352.69910,  -0.00089,  -0.00017,  -0.00051,  -3.24743,   1.00000
-538229156.25062,-214684441.89837,-45292528.84859,  -0.00292,  -0.00010,  -0.00110,475799167.41927,   0.00106,275799173.41223,  -0.00089,  -0.00017,  -0.00051,  -5.99296,   1.00000
-538105962.64565,-212836681.91770,-44953500.87699,  -0.00293,  -0.00009,  -0.00110,475805889.32694,   0.00107,275805894.36456,  -0.00090,  -0.00017,  -0.00051,  -5.03762,   1.00000
-537973713.40529,-210988653.85099,-44616929.52255,  -0.00294,  -0.00008,  -0.00110,475812557.60056,   0.00108,275812557.82556,  -0.00091,  -0.00017,  -0.00052,  -0.22499,   1.00000
-537834855.72516,-209146706.23634,-44278586.54454,  -0.00295,  -0.00007,  -0.00109,475819364.74628,   0.00108,275819367.01050,  -0.00091,  -0.00017,  -0.00052,  -2.26422,   1.00000
-537685872.63461,-207301140.53826,-43944780.26105,  -0.00296,  -0.00006,  -0.00109,475826015.45882,   0.00109,275826016.37525,  -0.00092,  -0.00017,  -0.00052,  -0.91643,   1.00000
-537527910.58774,-205437397.15590,-43605337.95513,  -0.00297,  -0.00005,  -0.00109,475832660.13984,   0.00110,275832669.35848,  -0.00092,  -0.00017,  -0.00052,  -9.21864,   1.00000
-537358727.92552,-203554842.22234,-43266854.17262,  -0.00298,  -0.00004,  -0.00109,475839329.18602,   0.00110,275839336.34302,  -0.00093,  -0.00017,  -0.00052,  -7.15699,   1.00000
-537183998.57370,-201693516.85429,-42930142.76888,  -0.00299,  -0.00003,  -0.00108,475845967.37702,   0.00111,275845976.25618,  -0.00093,  -0.00016,  -0.00053,  -8.87916,   1.00000
-536996747.77161,-199809680.36541,-42596385.42039,  -0.00299,  -0.00003,  -0.00108,475852522.43542,   0.00111,275852528.40994,  -0.00094,  -0.00016,  -0.00053,  -5.97452,   1.00000
-536800057.62610,-197907478.79819,-42256917.55656,  -0.00300,  -0.00002,  -0.00108,475859083.39789,   0.00112,275859086.81371,  -0.00095,  -0.00016,  -0.00053,  -3.41582,   1.00000
-536595538.68613,-196008274.65709,-41917782.62067,  -0.00301,  -0.00001,  -0.00108,475865686.55961,   0.00113,275865690.62742,  -0.00095,  -0.00016,  -0.00053,  -4.06781,   1.00000
-536381951.66231,-194108225.81079,-41580958.41088,  -0.00302,   0.00000,  -0.00107,475872231.49652,   0.00113,275872237.33175,  -0.00096,  -0.00016,  -0.00053,  -5.83522,   1.00000
-536159336.11959,-192207231.27297,-41246418.82106,  -0.00303,   0.00001,  -0.00107,475878716.84055,   0.00114,275878726.69265,  -0.00096,  -0.00016,  -0.00053,  -9.85210,   1.00000
-535926965.90046,-190287708.70012,-40906118.32473,  -0.00304,   0.00002,  -0.00107,475885219.39539,   0.00114,275885224.15334,  -0.00097,  -0.00016,  -0.00053,  -4.75795,   1.00000
-535685468.28867,-188367090.23953,-40568069.46784,  -0.00304,   0.00003,  -0.00106,475891661.47020,   0.00115,275891664.74394,  -0.00097,  -0.00016,  -0.00054,  -3.27374,   1.00000
-535436288.32966,-186449528.25405,-40230353.94701,  -0.00305,   0.00004,  -0.00106,475898146.89001,   0.00116,275898150.82465,  -0.00098,  -0.00016,  -0.00054,  -3.93465,   1.00000
-535173746.86833,-184508520.18293,-39895353.66461,  -0.00306,   0.00005,  -0.00106,475904544.01468,   0.00116,275904552.76947,  -0.00099,  -0.00016,  -0.00054,  -8.75479,   1.00000
-534903513.63375,-182570614.53322,-39560674.82220,  -0.00307,   0.00006,  -0.00106,475910995.84464,   0.00117,275911000.67602,  -0.00099,  -0.00015,  -0.00054,  -4.83138,   1.00000
-534626017.55255,-180631823.30341,-39221537.62206,  -0.00308,   0.00007,  -0.00105,475917376.16772,   0.00117,275917383.11859,  -0.00100,  -0.00015,  -0.00054,  -6.95087,   1.00000
-534334821.67928,-178669204.90732,-38885024.09266,  -0.00309,   0.00008,  -0.00105,475923674.54621,   0.00118,275923682.77090,  -0.00100,  -0.00015,  -0.00054,  -8.22469,   1.00000
-534035912.66571,-176709700.11151,-38548825.85050,  -0.00309,   0.00009,  -0.00105,475930020.14752,   0.00119,275930028.92153,  -0.00101,  -0.00015,  -0.00055,  -8.77401,   1.00000
-533731160.55950,-174753807.88498,-38206315.78573,  -0.00310,   0.00010,  -0.00104,475936403.44652,   0.00119,275936413.05947,  -0.00101,  -0.00015,  -0.00055,  -9.61295,   1.00000
-533410625.49226,-172773369.48541,-37873008.12508,  -0.00311,   0.00011,  -0.00104,475942723.17065,   0.00120,275942724.01175,  -0.00102,  -0.00015,  -0.00055,  -0.84110,   1.00000
-533082562.97594,-170791609.32385,-37535123.62402,  -0.00312,   0.00011,  -0.00104,475948968.32296,   0.00120,275948970.62816,  -0.00103,  -0.00015,  -0.00055,  -2.30520,   1.00000
-532745209.86386,-168807997.31307,-37199300.17525,  -0.00313,   0.00012,  -0.00103,475955155.90765,   0.00121,275955160.98277,  -0.00103,  -0.00015,  -0.00055,  -5.07512,   1.00000
-532396798.64578,-166810097.48876,-36862469.84638,  -0.00313,   0.00013,  -0.00103,475961472.17733,   0.00121,275961477.70786,  -0.00104,  -0.00015,  -0.00055,  -5.53054,   1.00000
-532039048.89362,-164805454.54467,-36522723.19336,  -0.00314,   0.00014,  -0.00103,475967622.88548,   0.00122,275967627.35538,  -0.00104,  -0.00014,  -0.00055,  -4.46990,   1.00000
-531671934.87886,-162803653.24272,-36189955.92604,  -0.00315,   0.00015,  -0.00103,475973824.12470,   0.00123,275973832.37373,  -0.00105,  -0.00014,  -0.00056,  -8.24903,   1.00000
-531297174.19470,-160800106.00160,-35852515.64941,  -0.00316,   0.00016,  -0.00102,475979966.07390,   0.00123,275979973.32331,  -0.00105,  -0.00014,  -0.00056,  -7.24941,   1.00000
-530909377.87879,-158777066.66321,-35515756.56964,  -0.00316,   0.00017,  -0.00102,475986131.76055,   0.00124,275986139.39115,  -0.00106,  -0.00014,  -0.00056,  -7.63060,   1.00000
-530512129.10825,-156751777.66215,-35180955.03895,  -0.00317,   0.00018,  -0.00102,475992246.17059,   0.00124,275992249.87267,  -0.00106,  -0.00014,  -0.00056,  -3.70208,   1.00000
-530107286.39770,-154729805.07509,-34846471.27630,  -0.00318,   0.00019,  -0.00101,475998403.63024,   0.00125,275998408.11183,  -0.00107,  -0.00014,  -0.00056,  -4.48159,   1.00000
-529688879.46195,-152682909.37597,-34507569.55812,  -0.00319,   0.00020,  -0.00101,476004472.38576,   0.00125,276004481.98022,  -0.00107,  -0.00014,  -0.00056,  -9.59445,   1.00000
-529260883.04292,-150633522.33375,-34170570.75743,  -0.00319,   0.00021,  -0.00101,476010496.77658,   0.00126,276010500.73952,  -0.00108,  -0.00013,  -0.00056,  -3.96294,   1.00000
-528823684.56053,-148587174.47460,-33840562.27395,  -0.00320,   0.00022,  -0.00100,476016566.57251,   0.00127,276016575.37979,  -0.00108,  -0.00013,  -0.00056,  -8.80729,   1.00000
-528380063.82120,-146538808.04767,-33499058.28929,  -0.00321,   0.00023,  -0.00100,476022573.07614,   0.00127,276022579.70437,  -0.00109,  -0.00013,  -0.00056,  -6.62823,   1.00000
-527919208.03177,-144464414.67229,-33166384.91509,  -0.00322,   0.00024,  -0.00100,476028513.00939,   0.00128,276028516.61868,  -0.00110,  -0.00013,  -0.00057,  -3.60929,   1.00000
-527450710.51985,-142393411.06211,-32834010.56159,  -0.00322,   0.00025,  -0.00099,476034501.32571,   0.00128,276034502.47506,  -0.00110,  -0.00013,  -0.00057,  -1.14935,   1.00000
-526974018.75658,-140319825.11437,-32496757.17634,  -0.00323,   0.00026,  -0.00099,476040424.01227,   0.00129,276040426.24610,  -0.00111,  -0.00013,  -0.00057,  -2.23383,   1.00000
-526481905.35248,-138226313.27081,-32166771.47009,  -0.00324,   0.00027,  -0.00099,476046385.47497,   0.00129,276046387.78439,  -0.00111,  -0.00013,  -0.00057,  -2.30943,   1.00000
-525987912.01690,-136153209.32762,-31831608.95188,  -0.00324,   0.00028,  -0.00098,476052299.32736,   0.00130,276052305.73180,  -0.00112,  -0.00013,  -0.00057,  -6.40443,   1.00000
-525477655.68980,-134053853.00049,-31498457.42843,  -0.00325,   0.00029,  -0.00098,476058143.70069,   0.00130,276058151.11712,  -0.00112,  -0.00012,  -0.00057,  -7.41643,   1.00000
-524959818.46425,-131957976.62294,-31165611.37590,  -0.00326,   0.00030,  -0.00098,476064038.90743,   0.00131,276064045.91053,  -0.00113,  -0.00012,  -0.00057,  -7.00311,   1.00000
-524425397.77048,-129835670.99464,-30834717.63751,  -0.00326,   0.00031,  -0.00097,476069863.90502,   0.00132,276069869.59706,  -0.00113,  -0.00012,  -0.00057,  -5.69204,   1.00000
-523882348.97792,-127710276.51640,-30498813.34744,  -0.00327,   0.00032,  -0.00097,476075627.91566,   0.00132,276075632.81440,  -0.00114,  -0.00012,  -0.00057,  -4.89874,   1.00000
-523330280.90031,-125588196.03280,-30169914.56431,  -0.00328,   0.00033,  -0.00097,476081445.99092,   0.00133,276081452.93217,  -0.00114,  -0.00012,  -0.00058,  -6.94125,   1.00000
-522769578.59042,-123462884.59466,-29835975.15026,  -0.00328,   0.00034,  -0.00096,476087210.77176,   0.00133,276087212.42365,  -0.00115,  -0.00012,  -0.00058,  -1.65189,   1.00000
-522201326.14379,-121341149.22263,-29502347.69460,  -0.00329,   0.00035,  -0.00096,476093011.96259,   0.00134,276093021.95038,  -0.00115,  -0.00011,  -0.00058,  -9.98779,   1.00000
-521615863.33476,-119192495.94032,-29170555.52122,  -0.00330,   0.00036,  -0.00096,476098757.84995,   0.00134,276098762.83245,  -0.00116,  -0.00011,  -0.00058,  -4.98250,   1.00000
-521020190.51537,-117040184.49481,-28840374.31660,  -0.00330,   0.00037,  -0.00095,476104448.68744,   0.00135,276104450.55381,  -0.00116,  -0.00011,  -0.00058,  -1.86637,   1.00000
-520414276.69340,-114884112.53929,-28511780.22074,  -0.00331,   0.00038,  -0.00095,476110083.07283,   0.00135,276110085.09326,  -0.00117,  -0.00011,  -0.00058,  -2.02043,   1.00000
-519802075.98935,-112731830.85666,-28176766.54104,  -0.00332,   0.00039,  -0.00095,476115757.66812,   0.00136,276115764.01034,  -0.00117,  -0.00011,  -0.00058,  -6.34222,   1.00000
-519173553.67613,-110559636.43415,-27848945.17511,  -0.00332,   0.00040,  -0.00094,476121480.24069,   0.00136,276121486.88039,  -0.00118,  -0.00011,  -0.00058,  -6.63970,   1.00000
-518540755.98300,-108399493.39958,-27517041.60408,  -0.00333,   0.00041,  -0.00094,476127055.80028,   0.00137,276127059.50532,  -0.00118,  -0.00011,  -0.00058,  -3.70505,   1.00000
-517892728.11563,-106219528.11116,-27185587.52437,  -0.00334,   0.00042,  -0.00094,476132663.55260,   0.00137,276132670.73846,  -0.00119,  -0.00010,  -0.00058,  -7.18585,   1.00000
-517225188.10382,-104011819.88272,-26862502.22141,  -0.00334,   0.00043,  -0.00093,476138218.22793,   0.00138,276138223.88208,  -0.00119,  -0.00010,  -0.00058,  -5.65415,   1.00000
-516559112.91599,-101831540.78368,-26532844.36102,  -0.00335,   0.00044,  -0.00093,476143828.00841,   0.00138,276143834.41701,  -0.00120,  -0.00010,  -0.00059,  -6.40860,   1.00000
-515874536.25812,-99623491.01595,-26204796.33864,  -0.00335,   0.00045,  -0.00093,476149376.71587,   0.00139,276149381.55815,  -0.00120,  -0.00010,  -0.00059,  -4.84228,   1.00000
-515188548.92621,-97434817.91891,-25871360.22610,  -0.00336,   0.00046,  -0.00092,476154874.03669,   0.00139,276154881.52176,  -0.00121,  -0.00010,  -0.00059,  -7.48507,   1.00000
-514485768.39129,-95226242.07904,-25545078.97630,  -0.00337,   0.00047,  -0.00092,476160424.55284,   0.00140,276160428.65401,  -0.00121,  -0.00010,  -0.00059,  -4.10117,   1.00000
-513763990.53307,-92989644.37765,-25220328.54701,  -0.00337,   0.00049,  -0.00092,476165912.33760,   0.00140,276165914.56371,  -0.00122,  -0.00009,  -0.00059,  -2.22612,   1.00000
-513040801.67177,-90772260.65893,-24890145.01747,  -0.00338,   0.00050,  -0.00091,476171347.37834,   0.00141,276171353.09616,  -0.00122,  -0.00009,  -0.00059,  -5.71782,   1.00000
-512297221.02187,-88526529.33048,-24568180.93538,  -0.00338,   0.00051,  -0.00091,476176732.57179,   0.00141,276176737.00450,  -0.00122,  -0.00009,  -0.00059,  -4.43271,   1.00000
-511555656.90192,-86308420.40856,-24239676.95248,  -0.00339,   0.00052,  -0.00091,476182169.61556,   0.00142,276182176.61966,  -0.00123,  -0.00009,  -0.00059,  -7.00410,   1.00000
-510794580.37803,-84061906.33470,-23912623.74277,  -0.00339,   0.00053,  -0.00090,476187549.17677,   0.00142,276187556.88487,  -0.00123,  -0.00009,  -0.00059,  -7.70811,   1.00000
-510025945.82922,-81819343.48535,-23585871.78631,  -0.00340,   0.00054,  -0.00090,476192988.59063,   0.00143,276192990.14830,  -0.00124,  -0.00009,  -0.00059,  -1.55767,   1.00000
-509237420.35093,-79548260.47787,-23260524.49984,  -0.00341,   0.00055,  -0.00090,476198363.15510,   0.00143,276198365.90162,  -0.00124,  -0.00008,  -0.00059,  -2.74652,   1.00000
-508446575.17483,-77295971.93479,-22936419.80504,  -0.00341,   0.00056,  -0.00089,476203688.49866,   0.00144,276203698.33488,  -0.00125,  -0.00008,  -0.00059,  -9.83623,   1.00000
-507635560.40583,-75014950.95930,-22613666.38256,  -0.00342,   0.00057,  -0.00089,476208968.95030,   0.00144,276208974.23897,  -0.00125,  -0.00008,  -0.00059,  -5.28866,   1.00000
-506826037.43529,-72761685.69646,-22291149.36075,  -0.00342,   0.00058,  -0.00088,476214305.02303,   0.00145,276214309.62313,  -0.00126,  -0.00008,  -0.00060,  -4.60010,   1.00000
-505996113.27083,-70479553.17462,-21969949.21250,  -0.00343,   0.00059,  -0.00088,476219581.80514,   0.00145,276219589.43207,  -0.00126,  -0.00008,  -0.00060,  -7.62694,   1.00000
-505146423.17925,-68168527.02360,-21643284.69108,  -0.00343,   0.00060,  -0.00088,476224804.73475,   0.00146,276224810.26987,  -0.00127,  -0.00007,  -0.00060,  -5.53512,   1.00000
-504297469.33001,-65885340.98706,-21323626.66839,  -0.00344,   0.00061,  -0.00087,476230087.42287,   0.00146,276230095.16983,  -0.00127,  -0.00007,  -0.00060,  -7.74696,   1.00000
-503437066.51102,-63596842.73083,-21005185.52126,  -0.00344,   0.00062,  -0.00087,476235324.03122,   0.00147,276235330.56211,  -0.00128,  -0.00007,  -0.00060,  -6.53088,   1.00000
-502556461.72252,-61279213.13298,-20681217.83765,  -0.00345,   0.00063,  -0.00087,476240499.08187,   0.00147,276240508.75823,  -0.00128,  -0.00007,  -0.00060,  -9.67637,   1.00000
-501668227.77720,-58965790.16097,-20357551.39627,  -0.00345,   0.00064,  -0.00086,476245736.37718,   0.00148,276245742.04400,  -0.00128,  -0.00007,  -0.00060,  -5.66682,   1.00000
-500777120.95339,-56670634.34559,-20041796.41382,  -0.00346,   0.00065,  -0.00086,476250931.09388,   0.00148,276250933.96120,  -0.00129,  -0.00007,  -0.00060,  -2.86731,   1.00000
-499865375.25195,-54346121.84750,-19720455.06382,  -0.00346,   0.00066,  -0.00086,476256064.30639,   0.00149,276256070.48461,  -0.00129,  -0.00006,  -0.00060,  -6.17821,   1.00000
-498931796.50745,-51992181.68211,-19400262.45753,  -0.00347,   0.00067,  -0.00085,476261149.43535,   0.00149,276261157.84649,  -0.00130,  -0.00006,  -0.00060,  -8.41114,   1.00000
-498000527.38161,-49666339.42523,-19080356.13656,  -0.00347,   0.00068,  -0.00085,476266298.71142,   0.00150,276266302.30593,  -0.00130,  -0.00006,  -0.00060,  -3.59451,   1.00000
-497057288.15916,-47334738.40950,-18761565.38919,  -0.00348,   0.00070,  -0.00085,476271390.56471,   0.00150,276271399.05721,  -0.00131,  -0.00006,  -0.00060,  -8.49251,   1.00000
-496091822.38822,-44973516.31852,-18443870.98699,  -0.00348,   0.00071,  -0.00084,476276441.65108,   0.00151,276276448.30401,  -0.00131,  -0.00006,  -0.00060,  -6.65293,   1.00000
-495129005.05623,-42640474.26557,-18126479.30886,  -0.00348,   0.00072,  -0.00084,476281548.93060,   0.00151,276281553.35505,  -0.00131,  -0.00005,  -0.00060,  -4.42445,   1.00000
-494143710.60425,-40277711.97739,-17810155.50107,  -0.00349,   0.00073,  -0.00083,476286602.45448,   0.00152,276286612.03448,  -0.00132,  -0.00005,  -0.00060,  -9.58001,   1.00000
-493146085.99484,-37908966.71436,-17494881.17898,  -0.00349,   0.00074,  -0.00083,476291618.58308,   0.00152,276291624.45530,  -0.00132,  -0.00005,  -0.00060,  -5.87223,   1.00000
-492136760.01053,-35534142.72785,-17173872.72895,  -0.00350,   0.00075,  -0.00083,476296581.65345,   0.00153,276296586.97531,  -0.00133,  -0.00005,  -0.00060,  -5.32186,   1.00000
-491119123.27038,-33163827.11864,-16859942.90366,  -0.00350,   0.00076,  -0.00082,476301601.92505,   0.00153,276301610.15252,  -0.00133,  -0.00005,  -0.00060,  -8.22747,   1.00000
-490089003.05650,-30787352.12325,-16547023.55903,  -0.00351,   0.00077,  -0.00082,476306583.22642,   0.00154,276306587.47346,  -0.00134,  -0.00005,  -0.00060,  -4.24704,   1.00000
-489041266.65918,-28391672.36986,-16227626.00484,  -0.00351,   0.00078,  -0.00082,476311616.14483,   0.00154,276311621.14961,  -0.00134,  -0.00004,  -0.00061,  -5.00478,   1.00000
-487985842.33837,-26002666.48116,-15916684.27556,  -0.00351,   0.00079,  -0.00081,476316502.33426,   0.00154,276316507.99355,  -0.00134,  -0.00004,  -0.00061,  -5.65928,   1.00000
-486912576.55706,-23594479.85542,-15599249.82751,  -0.00352,   0.00080,  -0.00081,476321443.45567,   0.00155,276321452.63565,  -0.00135,  -0.00004,  -0.00061,  -9.17998,   1.00000
-485836825.67995,-21203704.71284,-15289577.05246,  -0.00352,   0.00081,  -0.00081,476326349.45939,   0.00155,276326351.91829,  -0.00135,  -0.00004,  -0.00061,  -2.45890,   1.00000
-484743108.55545,-18793844.41619,-14973415.14925,  -0.00353,   0.00082,  -0.00080,476331305.71024,   0.00156,276331310.15273,  -0.00136,  -0.00004,  -0.00061,  -4.44249,   1.00000
-483630293.33767,-16366335.06235,-14665574.86982,  -0.00353,   0.00083,  -0.00080,476336120.18088,   0.00156,276336126.40544,  -0.00136,  -0.00003,  -0.00061,  -6.22455,   1.00000
-482510459.53406,-13943542.76944,-14351264.92402,  -0.00353,   0.00085,  -0.00079,476340988.29543,   0.00157,276340997.74519,  -0.00136,  -0.00003,  -0.00061,  -9.44976,   1.00000
-481383091.47125,-11525578.68382,-14037284.86716,  -0.00354,   0.00086,  -0.00079,476345921.69969,   0.00157,276345927.39830,  -0.00137,  -0.00003,  -0.00061,  -5.69862,   1.00000
-480236243.22834,-9089563.38054,-13731550.51413,  -0.00354,   0.00087,  -0.00079,476350709.18456,   0.00158,276350715.80266,  -0.00137,  -0.00003,  -0.00061,  -6.61810,   1.00000
-479082406.56682,-6658362.46736,-13419352.51458,  -0.00354,   0.00088,  -0.00078,476355559.24506,   0.00158,276355559.69927,  -0.00138,  -0.00003,  -0.00061,  -0.45421,   1.00000
-477915179.99241,-4220429.48796,-13108027.36214,  -0.00355,   0.00089,  -0.00078,476360352.16822,   0.00159,276360361.20894,  -0.00138,  -0.00002,  -0.00061,  -9.04072,   1.00000
-476739951.43989,-1787489.24517,-12803814.98257,  -0.00355,   0.00090,  -0.00078,476365219.04427,   0.00159,276365224.43223,  -0.00139,  -0.00002,  -0.00061,  -5.38797,   1.00000
-475545720.88259,664137.18476,-12494176.34064,  -0.00355,   0.00091,  -0.00077,476369934.66373,   0.00159,276369941.69467,  -0.00139,  -0.00002,  -0.00061,  -7.03094,   1.00000
-474332056.55371,3134394.72167,-12184820.03428,  -0.00356,   0.00092,  -0.00077,476374724.05338,   0.00160,276374728.07360,  -0.00139,  -0.00002,  -0.00061,  -4.02022,   1.00000
-473122798.63587,5575932.09769,-11875853.36721,  -0.00356,   0.00093,  -0.00076,476379556.53707,   0.00160,276379564.26961,  -0.00140,  -0.00002,  -0.00061,  -7.73254,   1.00000
-471893562.92207,8036492.34592,-11568176.67191,  -0.00356,   0.00094,  -0.00076,476384253.59951,   0.00161,276384258.59543,  -0.00140,  -0.00001,  -0.00061,  -4.99592,   1.00000
-470644703.85125,10515514.33475,-11260788.65702,  -0.00357,   0.00095,  -0.00076,476389022.24801,   0.00161,276389023.89207,  -0.00140,  -0.00001,  -0.00061,  -1.64405,   1.00000
-469381822.41898,13001534.51556,-10954189.91025,  -0.00357,   0.00096,  -0.00075,476393746.71804,   0.00162,276393749.60381,  -0.00141,  -0.00001,  -0.00061,  -2.88578,   1.00000
-468117127.32511,15471092.83859,-10648417.75439,  -0.00357,   0.00098,  -0.00075,476398414.71916,   0.00162,276398423.73880,  -0.00141,  -0.00001,  -0.00061,  -9.01964,   1.00000
-466832634.10222,17958931.46527,-10342942.49814,  -0.00358,   0.00099,  -0.00075,476403165.54610,   0.00163,276403170.67030,  -0.00142,  -0.00001,  -0.00061,  -5.12419,   1.00000
-465546395.23389,20430411.44664,-10038280.28307,  -0.00358,   0.00100,  -0.00074,476407864.58916,   0.00163,276407865.37488,  -0.00142,  -0.00000,  -0.00061,  -0.78573,   1.00000
-464233404.44305,22932584.98831,-9734311.15653,  -0.00358,   0.00101,  -0.00074,476412531.00429,   0.00163,276412534.64005,  -0.00142,  -0.00000,  -0.00061,  -3.63576,   1.00000
-462905972.05593,25441982.84039,-9431072.59590,  -0.00358,   0.00102,  -0.00073,476417164.51508,   0.00164,276417165.96969,  -0.00143,   0.00000,  -0.00061,  -1.45461,   1.00000
-461571016.21082,27945935.83900,-9128190.99420,  -0.00359,   0.00103,  -0.00073,476421855.03234,   0.00164,276421858.98500,  -0.00143,   0.00000,  -0.00061,  -3.95266,   1.00000
-460234308.23319,30433787.60434,-8826080.41723,  -0.00359,   0.00104,  -0.00073,476426496.08772,   0.00165,276426499.02606,  -0.00144,   0.00000,  -0.00061,  -2.93834,   1.00000
-458870203.34699,32952388.17957,-8524620.35603,  -0.00359,   0.00105,  -0.00072,476431107.22099,   0.00165,276431117.07259,  -0.00144,   0.00001,  -0.00061,  -9.85159,   1.00000
-457498646.00473,35465409.43094,-8223529.28738,  -0.00359,   0.00106,  -0.00072,476435790.48886,   0.00166,276435797.14375,  -0.00144,   0.00001,  -0.00061,  -6.65489,   1.00000
-456112320.28038,37985798.64449,-7923128.44384,  -0.00360,   0.00107,  -0.00072,476440435.16547,   0.00166,276440440.72758,  -0.00145,   0.00001,  -0.00061,  -5.56211,   1.00000
-454724210.30753,40490337.53210,-7623457.30111,  -0.00360,   0.00108,  -0.00071,476445026.14290,   0.00166,276445030.73017,  -0.00145,   0.00001,  -0.00061,  -4.58727,   1.00000
-453308061.54858,43025647.63883,-7324398.79343,  -0.00360,   0.00109,  -0.00071,476449596.91530,   0.00167,276449602.28349,  -0.00145,   0.00002,  -0.00061,  -5.36818,   1.00000
-451884484.60334,45555200.92820,-7025721.04730,  -0.00360,   0.00111,  -0.00071,476454231.29402,   0.00167,276454236.68633,  -0.00146,   0.00002,  -0.00061,  -5.39231,   1.00000
-450445800.47755,48092247.22015,-6727695.64070,  -0.00361,   0.00112,  -0.00070,476458833.34480,   0.00168,276458836.11934,  -0.00146,   0.00002,  -0.00061,  -2.77454,   1.00000
-449005282.10510,50613687.36989,-6430359.63195,  -0.00361,   0.00113,  -0.00070,476463377.66752,   0.00168,276463381.46583,  -0.00147,   0.00002,  -0.00061,  -3.79830,   1.00000
-447536313.51476,53165934.10313,-6126812.70756,  -0.00361,   0.00114,  -0.00069,476467908.80224,   0.00169,276467910.61638,  -0.00147,   0.00002,  -0.00061,  -1.81414,   1.00000
-446059696.68230,55712182.09712,-5830462.16867,  -0.00361,   0.00115,  -0.00069,476472498.84267,   0.00169,276472505.00202,  -0.00147,   0.00003,  -0.00061,  -6.15935,   1.00000
-444567619.31196,58266025.22510,-5534728.77223,  -0.00361,   0.00116,  -0.00069,476477056.76672,   0.00169,276477066.09107,  -0.00148,   0.00003,  -0.00061,  -9.32435,   1.00000
-443073652.16339,60804500.96521,-5239645.58443,  -0.00361,   0.00117,  -0.00068,476481565.80000,   0.00170,276481572.62128,  -0.00148,   0.00003,  -0.00061,  -6.82128,   1.00000
-441558717.01183,63359918.26777,-4944927.21955,  -0.00362,   0.00118,  -0.00068,476486160.29004,   0.00170,276486164.63438,  -0.00148,   0.00003,  -0.00061,  -4.34434,   1.00000
-440028085.57100,65922982.82134,-4650804.76877,  -0.00362,   0.00119,  -0.00068,476490723.55749,   0.00171,276490724.54156,  -0.00149,   0.00003,  -0.00061,  -0.98406,   1.00000
-438495526.07005,68470839.39289,-4357306.87750,  -0.00362,   0.00120,  -0.00067,476495222.78857,   0.00171,276495229.58605,  -0.00149,   0.00004,  -0.00061,  -6.79747,   1.00000
-436933336.19955,71049369.41480,-4057552.16129,  -0.00362,   0.00121,  -0.00067,476499719.18000,   0.00172,276499725.60175,  -0.00149,   0.00004,  -0.00062,  -6.42176,   1.00000
-435377716.05163,73598738.74347,-3765061.78430,  -0.00362,   0.00123,  -0.00066,476504257.93281,   0.00172,276504263.32968,  -0.00150,   0.00004,  -0.00062,  -5.39687,   1.00000
-433792053.39337,76178670.76671,-3473102.17062,  -0.00362,   0.00124,  -0.00066,476508787.74661,   0.00172,276508794.77312,  -0.00150,   0.00004,  -0.00062,  -7.02651,   1.00000
-432204379.24860,78743617.81093,-3181729.88792,  -0.00363,   0.00125,  -0.00066,476513262.62616,   0.00173,276513271.06506,  -0.00151,   0.00005,  -0.00062,  -8.43890,   1.00000
-430609590.53702,81302167.46600,-2890796.11498,  -0.00363,   0.00126,  -0.00065,476517811.88742,   0.00173,276517811.98910,  -0.00151,   0.00005,  -0.00062,  -0.10168,   1.00000
-428975136.30184,83905483.87183,-2600476.87457,  -0.00363,   0.00127,  -0.00065,476522246.70971,   0.00174,276522255.17585,  -0.00151,   0.00005,  -0.00062,  -8.46614,   1.00000
-427357117.60954,86465267.18933,-2303748.03268,  -0.00363,   0.00128,  -0.00065,476526827.70860,   0.00174,276526831.39122,  -0.00152,   0.00005,  -0.00062,  -3.68262,   1.00000
-425713339.68622,89047298.26749,-2014436.38763,  -0.00363,   0.00129,  -0.00064,476531284.92566,   0.00175,276531284.98993,  -0.00152,   0.00005,  -0.00062,  -0.06427,   1.00000
-424062460.59364,91622692.13608,-1725581.10792,  -0.00363,   0.00130,  -0.00064,476535796.51787,   0.00175,276535804.38641,  -0.00152,   0.00006,  -0.00062,  -7.86854,   1.00000
-422395038.87251,94205944.01451,-1437246.88922,  -0.00363,   0.00131,  -0.00063,476540291.23639,   0.00175,276540295.81262,  -0.00153,   0.00006,  -0.00062,  -4.57623,   1.00000
-420710934.14417,96797058.51731,-1149425.18086,  -0.00363,   0.00132,  -0.00063,476544756.65149,   0.00176,276544760.03716,  -0.00153,   0.00006,  -0.00062,  -3.38567,   1.00000
-419010016.27129,99396041.20037,-862107.77584,  -0.00363,   0.00133,  -0.00063,476549192.91936,   0.00176,276549197.77006,  -0.00153,   0.00006,  -0.00062,  -4.85070,   1.00000
-417316794.42479,101965849.22595,-575273.02228,  -0.00363,   0.00134,  -0.00062,476553664.84193,   0.00177,276553671.93171,  -0.00154,   0.00007,  -0.00062,  -7.08978,   1.00000
-415591959.29938,104565859.91695,-282136.53726,  -0.00364,   0.00135,  -0.00062,476558144.50732,   0.00177,276558150.16504,  -0.00154,   0.00007,  -0.00062,  -5.65772,   1.00000
-413860134.38904,107158835.82357,3702.54886,  -0.00364,   0.00137,  -0.00062,476562689.65123,   0.00177,276562695.64273,  -0.00154,   0.00007,  -0.00062,  -5.99149,   1.00000
-412126194.39069,109737507.93405,289050.94529,  -0.00364,   0.00138,  -0.00061,476567175.67270,   0.00178,276567184.18132,  -0.00155,   0.00007,  -0.00062,  -8.50862,   1.00000
-410375199.78393,112324120.86754,573915.91304,  -0.00364,   0.00139,  -0.00061,476571646.66644,   0.00178,276571647.41764,  -0.00155,   0.00008,  -0.00062,  -0.75119,   1.00000
-408591951.50281,114940685.94091,858293.56360,  -0.00364,   0.00140,  -0.00060,476576114.90362,   0.00179,276576119.36645,  -0.00155,   0.00008,  -0.00062,  -4.46283,   1.00000
-406816886.66114,117527984.52771,1142172.46336,  -0.00364,   0.00141,  -0.00060,476580621.56863,   0.00179,276580625.90035,  -0.00156,   0.00008,  -0.00062,  -4.33172,   1.00000
-405024507.61063,120123183.15181,1425578.52958,  -0.00364,   0.00142,  -0.00060,476585103.44625,   0.00180,276585108.81129,  -0.00156,   0.00008,  -0.00062,  -5.36504,   1.00000
-403214683.25300,122726270.51367,1708518.00749,  -0.00364,   0.00143,  -0.00059,476589561.00438,   0.00180,276589568.88233,  -0.00157,   0.00009,  -0.00062,  -7.87795,   1.00000
-401402493.63727,125315414.08974,1997817.66437,  -0.00364,   0.00144,  -0.00059,476593966.01275,   0.00180,276593972.02937,  -0.00157,   0.00009,  -0.00062,  -6.01662,   1.00000
-399568371.14173,127918964.23797,2279752.69622,  -0.00364,   0.00145,  -0.00059,476598477.36259,   0.00181,276598477.96951,  -0.00157,   0.00009,  -0.00062,  -0.60692,   1.00000
-397731930.62274,130508667.65231,2561264.72891,  -0.00364,   0.00146,  -0.00058,476602922.30395,   0.00181,276602926.40027,  -0.00158,   0.00009,  -0.00062,  -4.09632,   1.00000
-395873486.83737,133112481.84062,2842192.68399,  -0.00364,   0.00147,  -0.00058,476607476.76482,   0.00182,276607479.40467,  -0.00158,   0.00009,  -0.00062,  -2.63986,   1.00000
-394001465.93133,135718012.47057,3122813.39894,  -0.00364,   0.00148,  -0.00057,476611881.74684,   0.00182,276611885.94684,  -0.00158,   0.00010,  -0.00062,  -4.20000,   1.00000
-392134182.12271,138300351.94874,3402767.68934,  -0.00364,   0.00149,  -0.00057,476616445.39476,   0.00183,276616449.57627,  -0.00159,   0.00010,  -0.00062,  -4.18151,   1.00000
-390237608.78710,140906130.38565,3682394.54792,  -0.00364,   0.00150,  -0.00057,476620897.95359,   0.00183,276620904.74078,  -0.00159,   0.00010,  -0.00062,  -6.78719,   1.00000
-388334514.33497,143504099.56317,3961452.14458,  -0.00364,   0.00152,  -0.00056,476625424.97588,   0.00183,276625428.84949,  -0.00159,   0.00010,  -0.00062,  -3.87361,   1.00000
-386428876.77534,146088501.53871,4246924.33558,  -0.00364,   0.00153,  -0.00056,476629889.69012,   0.00184,276629895.64718,  -0.00160,   0.00011,  -0.00061,  -5.95706,   1.00000
-384489523.97146,148702084.87898,4525091.64822,  -0.00364,   0.00154,  -0.00056,476634374.84419,   0.00184,276634382.81592,  -0.00160,   0.00011,  -0.00061,  -7.97173,   1.00000
-382559504.09419,151286452.43436,4802741.41183,  -0.00364,   0.00155,  -0.00055,476638892.72449,   0.00185,276638899.01765,  -0.00160,   0.00011,  -0.00061,  -6.29316,   1.00000
-380611253.74230,153878643.35422,5079959.01077,  -0.00364,   0.00156,  -0.00055,476643393.61591,   0.00185,276643397.31387,  -0.00161,   0.00011,  -0.00061,  -3.69796,   1.00000
-378644643.53428,156478619.88571,5356747.67835,  -0.00364,   0.00157,  -0.00054,476647878.46267,   0.00185,276647878.59160,  -0.00161,   0.00012,  -0.00061,  -0.12892,   1.00000
-376671750.85628,159070421.13376,5632928.38564,  -0.00364,   0.00158,  -0.00054,476652421.01274,   0.00186,276652429.53375,  -0.00161,   0.00012,  -0.00061,  -8.52101,   1.00000
-374684026.22866,161665003.79247,5908964.06887,  -0.00364,   0.00159,  -0.00054,476656831.53866,   0.00186,276656836.13155,  -0.00162,   0.00012,  -0.00061,  -4.59289,   1.00000
-372702504.26438,164235373.44109,6184189.88375,  -0.00364,   0.00160,  -0.00053,476661391.51196,   0.00187,276661397.38613,  -0.00162,   0.00013,  -0.00061,  -5.87417,   1.00000
-370673907.27117,166850293.29493,6459088.95413,  -0.00363,   0.00161,  -0.00053,476665895.08754,   0.00187,276665901.99847,  -0.00162,   0.00013,  -0.00061,  -6.91094,   1.00000
-368671050.34509,169415231.98933,6740366.46913,  -0.00363,   0.00162,  -0.00053,476670382.27158,   0.00188,276670390.16070,  -0.00163,   0.00013,  -0.00061,  -7.88912,   1.00000
-366646365.78865,171992559.77363,7014088.23881,  -0.00363,   0.00163,  -0.00052,476674980.93425,   0.00188,276674990.54541,  -0.00163,   0.00013,  -0.00061,  -9.61116,   1.00000
-364590089.70832,174593672.92188,7287612.39711,  -0.00363,   0.00164,  -0.00052,476679488.64443,   0.00188,276679493.34068,  -0.00163,   0.00014,  -0.00061,  -4.69625,   1.00000
-362543975.71438,177165683.99625,7560612.79900,  -0.00363,   0.00165,  -0.00052,476684018.97535,   0.00189,276684020.86647,  -0.00164,   0.00014,  -0.00061,  -1.89112,   1.00000
-360478951.62297,179745342.10718,7833196.82570,  -0.00363,   0.00166,  -0.00051,476688527.20814,   0.00189,276688535.25432,  -0.00164,   0.00014,  -0.00061,  -8.04618,   1.00000
-358408094.53854,182316325.50198,8105115.72702,  -0.00363,   0.00167,  -0.00051,476693119.63208,   0.00190,276693119.73628,  -0.00164,   0.00014,  -0.00061,  -0.10419,   1.00000
-356317958.33472,184894700.14108,8383402.00515,  -0.00363,   0.00168,  -0.00050,476697686.08711,   0.00190,276697694.24862,  -0.00165,   0.00015,  -0.00061,  -8.16151,   1.00000
-354225283.73992,187460558.25123,8654625.06399,  -0.00363,   0.00169,  -0.00050,476702202.19973,   0.00191,276702207.34208,  -0.00165,   0.00015,  -0.00061,  -5.14236,   1.00000
-352126932.86421,190017602.81019,8925165.24635,  -0.00363,   0.00170,  -0.00050,476706783.69190,   0.00191,276706790.52179,  -0.00165,   0.00015,  -0.00061,  -6.82990,   1.00000
-350009423.44826,192582167.08846,9195288.63279,  -0.00362,   0.00171,  -0.00049,476711360.10299,   0.00191,276711362.65359,  -0.00166,   0.00015,  -0.00061,  -2.55060,   1.00000
-347872624.51673,195154175.65250,9464994.63411,  -0.00362,   0.00172,  -0.00049,476715920.44179,   0.00192,276715924.80384,  -0.00166,   0.00016,  -0.00061,  -4.36205,   1.00000
-345746429.96384,197697075.44051,9740960.94589,  -0.00362,   0.00173,  -0.00049,476720509.81552,   0.00192,276720509.84606,  -0.00166,   0.00016,  -0.00061,  -0.03054,   1.00000
-343584701.75069,200267378.33248,10009524.63329,  -0.00362,   0.00174,  -0.00048,476725129.71961,   0.00193,276725133.73531,  -0.00167,   0.00016,  -0.00061,  -4.01570,   1.00000
-341434038.12892,202808731.24498,10277557.58390,  -0.00362,   0.00175,  -0.00048,476729768.85094,   0.00193,276729777.52185,  -0.00167,   0.00017,  -0.00061,  -8.67091,   1.00000
-339266364.59117,205354400.81495,10545683.43644,  -0.00362,   0.00176,  -0.00047,476734277.57157,   0.00194,276734281.69676,  -0.00167,   0.00017,  -0.00061,  -4.12520,   1.00000
-337090700.33839,207893591.04751,10819339.72084,  -0.00361,   0.00177,  -0.00047,476738980.98572,   0.00194,276738990.02735,  -0.00168,   0.00017,  -0.00061,  -9.04163,   1.00000
-334898076.80765,210437391.75586,11086313.08539,  -0.00361,   0.00178,  -0.00047,476743552.13197,   0.00194,276743557.18812,  -0.00168,   0.00017,  -0.00061,  -5.05615,   1.00000
-332700218.33547,212971812.38064,11352541.10971,  -0.00361,   0.00179,  -0.00046,476748190.55392,   0.00195,276748195.29575,  -0.00168,   0.00018,  -0.00061,  -4.74182,   1.00000
-330498997.14183,215493943.33754,11625361.71711,  -0.00361,   0.00180,  -0.00046,476752772.40439,   0.00195,276752775.60370,  -0.00169,   0.00018,  -0.00061,  -3.19931,   1.00000
-328276372.18371,218026060.84934,11890391.11692,  -0.00361,   0.00181,  -0.00046,476757473.19098,   0.00196,276757478.12181,  -0.00169,   0.00018,  -0.00061,  -4.93083,   1.00000
-326050668.67532,220546147.91269,12155237.71883,  -0.00361,   0.00182,  -0.00045,476762110.82200,   0.00196,276762120.25678,  -0.00169,   0.00019,  -0.00061,  -9.43477,   1.00000
-323821506.71534,223054100.08309,12426696.41931,  -0.00360,   0.00183,  -0.00045,476766696.50355,   0.00197,276766704.47430,  -0.00170,   0.00019,  -0.00061,  -7.97075,   1.00000
-321571069.29917,225571659.35226,12690323.90441,  -0.00360,   0.00184,  -0.00044,476771411.45106,   0.00197,276771412.21595,  -0.00170,   0.00019,  -0.00061,  -0.76489,   1.00000
-319317102.12652,228077081.59045,12960568.14297,  -0.00360,   0.00185,  -0.00044,476776057.06662,   0.00197,276776062.49695,  -0.00170,   0.00019,  -0.00061,  -5.43033,   1.00000
-317058730.33670,230573023.74412,13223227.08663,  -0.00360,   0.00186,  -0.00044,476780776.79704,   0.00198,276780780.36659,  -0.00171,   0.00020,  -0.00061,  -3.56955,   1.00000
-314796827.64136,233056997.02927,13492518.00017,  -0.00360,   0.00187,  -0.00043,476785438.12469,   0.00198,276785440.06733,  -0.00171,   0.00020,  -0.00061,  -1.94265,   1.00000
-312515274.70438,235548274.52724,13754590.20170,  -0.00359,   0.00188,  -0.00043,476790086.44390,   0.00199,276790093.01686,  -0.00171,   0.00020,  -0.00061,  -6.57296,   1.00000
-310228751.06454,238029344.25254,14022625.36440,  -0.00359,   0.00189,  -0.00043,476794814.32044,   0.00199,276794820.03845,  -0.00171,   0.00021,  -0.00061,  -5.71801,   1.00000
-307922506.25337,240517570.44899,14283432.43085,  -0.00359,   0.00190,  -0.00042,476799532.26559,   0.00200,276799541.46532,  -0.00172,   0.00021,  -0.00061,  -9.19973,   1.00000
-305628258.77632,242977089.53095,14550502.69087,  -0.00359,   0.00191,  -0.00042,476804273.03154,   0.00200,276804277.71803,  -0.00172,   0.00021,  -0.00061,  -4.68649,   1.00000
-303313869.84476,245443443.97791,14817119.67916,  -0.00358,   0.00192,  -0.00041,476809007.63268,   0.00201,276809012.12638,  -0.00172,   0.00021,  -0.00061,  -4.49370,   1.00000
-300996509.04775,247898756.63653,15076843.97066,  -0.00358,   0.00193,  -0.00041,476813680.61130,   0.00201,276813681.37189,  -0.00173,   0.00022,  -0.00061,  -0.76059,   1.00000
-298657606.08033,250361631.36258,15342149.41494,  -0.00358,   0.00194,  -0.00041,476818479.35173,   0.00201,276818485.83723,  -0.00173,   0.00022,  -0.00061,  -6.48550,   1.00000
-296332171.19062,252795214.04092,15607697.90667,  -0.00358,   0.00195,  -0.00040,476823165.61774,   0.00202,276823167.31209,  -0.00173,   0.00022,  -0.00061,  -1.69435,   1.00000
-293985737.52390,255236473.87041,15872013.82235,  -0.00357,   0.00196,  -0.00040,476827974.16195,   0.00202,276827980.85932,  -0.00174,   0.00023,  -0.00061,  -6.69737,   1.00000
-291636275.77952,257666901.00030,16129460.90224,  -0.00357,   0.00197,  -0.00039,476832720.29928,   0.00203,276832728.68596,  -0.00174,   0.00023,  -0.00060,  -8.38668,   1.00000
-289265994.63589,260103526.71528,16393222.80724,  -0.00357,   0.00198,  -0.00039,476837476.38796,   0.00203,276837481.40915,  -0.00174,   0.00023,  -0.00060,  -5.02119,   1.00000
-286908662.80786,262512126.31455,16656479.10260,  -0.00356,   0.00199,  -0.00039,476842233.10905,   0.00204,276842241.31719,  -0.00175,   0.00024,  -0.00060,  -8.20814,   1.00000
-284530885.25074,264927269.43568,16919264.72284,  -0.00356,   0.00200,  -0.00038,476846996.22425,   0.00204,276847002.69056,  -0.00175,   0.00024,  -0.00060,  -6.46631,   1.00000
-282149310.75710,267331897.72179,17181141.85233,  -0.00356,   0.00201,  -0.00038,476851824.67080,   0.00205,276851834.40798,  -0.00175,   0.00024,  -0.00060,  -9.73717,   1.00000
-279764150.79836,269725615.65653,17442954.54152,  -0.00356,   0.00202,  -0.00038,476856598.58636,   0.00205,276856603.77635,  -0.00176,   0.00025,  -0.00060,  -5.18999,   1.00000
-277375356.70154,272108784.23193,17703848.67749,  -0.00355,   0.00203,  -0.00037,476861435.66389,   0.00205,276861442.95978,  -0.00176,   0.00025,  -0.00060,  -7.29589,   1.00000
-274982498.95890,274480759.56724,17971458.78602,  -0.00355,   0.00204,  -0.00037,476866215.28571,   0.00206,276866223.63804,  -0.00176,   0.00025,  -0.00060,  -8.35233,   1.00000
-272569465.20552,276859514.96714,18231806.83042,  -0.00355,   0.00205,  -0.00036,476871000.02289,   0.00206,276871003.53709,  -0.00177,   0.00026,  -0.00060,  -3.51421,   1.00000
-270152967.41237,279227547.65984,18491214.86035,  -0.00354,   0.00206,  -0.00036,476875848.45373,   0.00207,276875853.42412,  -0.00177,   0.00026,  -0.00060,  -4.97039,   1.00000
-267732715.68450,281584937.90631,18750590.57032,  -0.00354,   0.00206,  -0.00036,476880633.24611,   0.00207,276880640.69978,  -0.00177,   0.00026,  -0.00060,  -7.45367,   1.00000
-265308711.47749,283931096.26894,19015777.94104,  -0.00354,   0.00207,  -0.00035,476885492.06906,   0.00208,276885502.00510,  -0.00178,   0.00026,  -0.00060,  -9.93604,   1.00000
-262864456.16808,286283822.32942,19273686.36172,  -0.00353,   0.00208,  -0.00035,476890360.00776,   0.00208,276890364.13831,  -0.00178,   0.00027,  -0.00060,  -4.13055,   1.00000
-260433483.50118,288608607.03278,19537880.31927,  -0.00353,   0.00209,  -0.00035,476895228.09737,   0.00209,276895231.95482,  -0.00178,   0.00027,  -0.00060,  -3.85745,   1.00000
-257999120.56969,290923548.47685,19795300.55217,  -0.00353,   0.00210,  -0.00034,476900030.09539,   0.00209,276900031.61707,  -0.00179,   0.00027,  -0.00060,  -1.52168,   1.00000
-255561305.98259,293227148.92501,20058508.77013,  -0.00352,   0.00211,  -0.00034,476904902.92436,   0.00210,276904904.59478,  -0.00179,   0.00028,  -0.00060,  -1.67043,   1.00000
-253102711.48902,295536726.03641,20321188.17455,  -0.00352,   0.00212,  -0.00033,476909779.48696,   0.00210,276909784.11801,  -0.00179,   0.00028,  -0.00060,  -4.63105,   1.00000
-250640596.65277,297836584.13178,20577112.17361,  -0.00352,   0.00213,  -0.00033,476914595.42120,   0.00210,276914595.63678,  -0.00179,   0.00028,  -0.00060,  -0.21558,   1.00000
-248175189.28365,300124884.42807,20838798.52499,  -0.00351,   0.00214,  -0.00033,476919476.85380,   0.00211,276919480.93658,  -0.00180,   0.00029,  -0.00060,  -4.08278,   1.00000
-245707089.09633,302402110.79848,21099469.13505,  -0.00351,   0.00215,  -0.00032,476924433.65987,   0.00211,276924434.75729,  -0.00180,   0.00029,  -0.00060,  -1.09742,   1.00000
-243251792.51123,304653459.67663,21360727.16702,  -0.00350,   0.00216,  -0.00032,476929247.59262,   0.00212,276929252.96268,  -0.00180,   0.00029,  -0.00060,  -5.37006,   1.00000
-240758768.45675,306926373.41875,21620866.40711,  -0.00350,   0.00216,  -0.00031,476934151.17034,   0.00212,276934151.59382,  -0.00181,   0.00030,  -0.00060,  -0.42348,   1.00000
-238280013.95106,309172434.83052,21880557.60412,  -0.00350,   0.00217,  -0.00031,476939040.12510,   0.00213,276939046.15338,  -0.00181,   0.00030,  -0.00059,  -6.02828,   1.00000
-235815650.58610,311391874.25519,22139815.48098,  -0.00349,   0.00218,  -0.00031,476943929.74103,   0.00213,276943934.95313,  -0.00181,   0.00030,  -0.00059,  -5.21210,   1.00000
-233329893.39159,313616441.65563,22405269.06597,  -0.00349,   0.00219,  -0.00030,476948834.54097,   0.00214,276948837.92204,  -0.00182,   0.00031,  -0.00059,  -3.38107,   1.00000
-230823628.03159,315847183.72233,22663395.91723,  -0.00349,   0.00220,  -0.00030,476953742.11431,   0.00214,276953745.58874,  -0.00182,   0.00031,  -0.00059,  -3.47443,   1.00000
-228331384.85850,318050779.21360,22927844.70898,  -0.00348,   0.00221,  -0.00029,476958648.66039,   0.00215,276958652.06660,  -0.00182,   0.00031,  -0.00059,  -3.40621,   1.00000
-225818606.07829,320260498.50975,23184961.30581,  -0.00348,   0.00222,  -0.00029,476963558.78046,   0.00215,276963563.73102,  -0.00183,   0.00032,  -0.00059,  -4.95056,   1.00000
-223319952.72436,322443215.77703,23448409.43064,  -0.00347,   0.00222,  -0.00029,476968464.47489,   0.00216,276968473.08627,  -0.00183,   0.00032,  -0.00059,  -8.61137,   1.00000
-220836491.75389,324600472.37381,23704703.15568,  -0.00347,   0.00223,  -0.00028,476973365.24301,   0.00216,276973367.30131,  -0.00183,   0.00033,  -0.00059,  -2.05830,   1.00000
-218331525.91536,326762563.53080,23967162.88318,  -0.00347,   0.00224,  -0.00028,476978271.96996,   0.00216,276978278.00149,  -0.00183,   0.00033,  -0.00059,  -6.03153,   1.00000
-215805486.84165,328929982.10940,24229019.95511,  -0.00346,   0.00225,  -0.00027,476983199.31769,   0.00217,276983200.69427,  -0.00184,   0.00033,  -0.00059,  -1.37658,   1.00000
-213294244.10529,331071370.27086,24490474.31406,  -0.00346,   0.00226,  -0.00027,476988107.23610,   0.00217,276988113.17774,  -0.00184,   0.00034,  -0.00059,  -5.94164,   1.00000
-210778471.50426,333203537.68369,24752031.21484,  -0.00345,   0.00227,  -0.00027,476992959.16728,   0.00218,276992960.75972,  -0.00184,   0.00034,  -0.00059,  -1.59244,   1.00000
-208261025.22667,335324382.84636,25012486.73647,  -0.00345,   0.00227,  -0.00026,476997871.68609,   0.00218,276997874.08027,  -0.00185,   0.00034,  -0.00059,  -2.39418,   1.00000
-205741543.35002,337433124.34734,25278567.77847,  -0.00344,   0.00228,  -0.00026,477002857.23913,   0.00219,277002858.89389,  -0.00185,   0.00035,  -0.00059,  -1.65476,   1.00000
-203217946.89585,339533512.82214,25538017.99468,  -0.00344,   0.00229,  -0.00025,477007772.19794,   0.00219,277007772.57329,  -0.00185,   0.00035,  -0.00059,  -0.37535,   1.00000
-200709398.92605,341608441.72194,25797107.71970,  -0.00343,   0.00230,  -0.00025,477012670.25009,   0.00220,277012672.20334,  -0.00186,   0.00035,  -0.00059,  -1.95324,   1.00000
-198179222.85865,343687752.47863,26062303.87914,  -0.00343,   0.00231,  -0.00025,477017587.01267,   0.00220,277017591.63859,  -0.00186,   0.00036,  -0.00059,  -4.62593,   1.00000
-195644261.63422,345758158.87848,26327629.31037,  -0.00343,   0.00231,  -0.00024,477022445.42006,   0.00221,277022446.06312,  -0.00186,   0.00036,  -0.00059,  -0.64305,   1.00000
-193128012.25467,347800745.81486,26591317.48433,  -0.00342,   0.00232,  -0.00024,477027409.17413,   0.00221,277027414.78105,  -0.00186,   0.00036,  -0.00058,  -5.60692,   1.00000
-190587404.45926,349851798.53841,26848915.41749,  -0.00342,   0.00233,  -0.00023,477032261.68175,   0.00222,277032262.08131,  -0.00187,   0.00037,  -0.00058,  -0.39956,   1.00000
-188065307.63761,351874254.29757,27111607.66381,  -0.00341,   0.00234,  -0.00023,477037219.16521,   0.00222,277037228.71127,  -0.00187,   0.00037,  -0.00058,  -9.54606,   1.00000
-185537847.47803,353887307.71906,27381188.67657,  -0.00341,   0.00235,  -0.00023,477042133.58511,   0.00223,277042135.78925,  -0.00187,   0.00037,  -0.00058,  -2.20413,   1.00000
-183005886.03236,355892676.04900,27644202.48438,  -0.00340,   0.00235,  -0.00022,477046969.90294,   0.00223,277046970.51991,  -0.00188,   0.00038,  -0.00058,  -0.61697,   1.00000
-180473002.86673,357886644.61749,27906052.89247,  -0.00340,   0.00236,  -0.00022,477051858.77788,   0.00223,277051868.50187,  -0.00188,   0.00038,  -0.00058,  -9.72400,   1.00000
-177934558.47427,359871340.13613,28174811.67062,  -0.00339,   0.00237,  -0.00021,477056701.66501,   0.00224,277056707.32805,  -0.00188,   0.00038,  -0.00058,  -5.66304,   1.00000
-175416321.33770,361829348.63195,28435175.04984,  -0.00339,   0.00238,  -0.00021,477061646.07150,   0.00224,277061648.10489,  -0.00188,   0.00039,  -0.00058,  -2.03339,   1.00000
-172871909.77554,363794344.55012,28702948.32994,  -0.00338,   0.00238,  -0.00021,477066476.65971,   0.00225,277066483.83360,  -0.00189,   0.00039,  -0.00058,  -7.17389,   1.00000
-170326832.95529,365747858.53271,28969523.26034,  -0.00338,   0.00239,  -0.00020,477071378.60460,   0.00225,277071382.30440,  -0.00189,   0.00040,  -0.00058,  -3.69980,   1.00000
-167797209.36905,367677112.53056,29235810.29151,  -0.00337,   0.00240,  -0.00020,477076255.74173,   0.00226,277076259.38527,  -0.00189,   0.00040,  -0.00058,  -3.64353,   1.00000
-165283079.05609,369582343.97155,29501828.49762,  -0.00337,   0.00241,  -0.00019,477081111.16273,   0.00226,277081113.71708,  -0.00190,   0.00040,  -0.00058,  -2.55435,   1.00000
-162747681.39793,371492228.04454,29767131.43523,  -0.00336,   0.00241,  -0.00019,477085975.91121,   0.00227,277085985.56058,  -0.00190,   0.00041,  -0.00058,  -9.64937,   1.00000
-160206397.89946,373393178.32932,30039373.31217,  -0.00336,   0.00242,  -0.00019,477090791.67190,   0.00227,277090798.34327,  -0.00190,   0.00041,  -0.00058,  -6.67136,   1.00000
-157702086.62949,375255486.72706,30304168.37642,  -0.00335,   0.00243,  -0.00018,477095618.91201,   0.00228,277095622.07856,  -0.00190,   0.00041,  -0.00057,  -3.16654,   1.00000
-155154944.45562,377137223.61184,30575426.26918,  -0.00335,   0.00244,  -0.00018,477100426.82746,   0.00228,277100429.53438,  -0.00191,   0.00042,  -0.00057,  -2.70692,   1.00000
-152644456.70958,378979591.25060,30845965.97799,  -0.00334,   0.00244,  -0.00017,477105245.63292,   0.00228,277105253.29707,  -0.00191,   0.00042,  -0.00057,  -7.66415,   1.00000
-150112671.53487,380826441.16663,31115753.86505,  -0.00334,   0.00245,  -0.00017,477110089.32676,   0.00229,277110095.89033,  -0.00191,   0.00042,  -0.00057,  -6.56357,   1.00000
-147575224.64662,382665620.69238,31385794.67891,  -0.00333,   0.00246,  -0.00016,477114864.00077,   0.00229,277114872.07349,  -0.00191,   0.00043,  -0.00057,  -8.07271,   1.00000
-145053340.92952,384481572.31048,31655627.89587,  -0.00333,   0.00246,  -0.00016,477119611.92459,   0.00230,277119621.48619,  -0.00192,   0.00043,  -0.00057,  -9.56160,   1.00000
-142546571.29382,386273483.31425,31931976.07994,  -0.00332,   0.00247,  -0.00016,477124347.33162,   0.00230,277124350.47020,  -0.00192,   0.00044,  -0.00057,  -3.13859,   1.00000
-140040342.23455,388055298.22852,32200376.46792,  -0.00332,   0.00248,  -0.00015,477129124.49386,   0.00231,277129130.23252,  -0.00192,   0.00044,  -0.00057,  -5.73867,   1.00000
-137512320.22020,389840333.28300,32474697.88177,  -0.00331,   0.00248,  -0.00015,477133933.41832,   0.00231,277133937.94490,  -0.00192,   0.00044,  -0.00057,  -4.52658,   1.00000
-134993785.55323,391606554.32437,32750391.34756,  -0.00331,   0.00249,  -0.00014,477138586.93650,   0.00232,277138591.08794,  -0.00193,   0.00045,  -0.00057,  -4.15144,   1.00000
-132497074.39788,393346205.36170,33024364.50231,  -0.00330,   0.00250,  -0.00014,477143332.11805,   0.00232,277143339.34826,  -0.00193,   0.00045,  -0.00057,  -7.23020,   1.00000
-129994330.45099,395078842.03510,33298654.36363,  -0.00329,   0.00250,  -0.00013,477148014.84046,   0.00232,277148019.78547,  -0.00193,   0.00045,  -0.00057,  -4.94501,   1.00000
-127469723.97164,396814496.97418,33578827.03469,  -0.00329,   0.00251,  -0.00013,477152724.82780,   0.00233,277152729.79420,  -0.00193,   0.00046,  -0.00057,  -4.96639,   1.00000
-124961179.39108,398528957.19165,33852160.84071,  -0.00328,   0.00252,  -0.00013,477157396.43015,   0.00233,277157400.57922,  -0.00194,   0.00046,  -0.00057,  -4.14908,   1.00000
-122467794.14614,400220164.01114,34132070.34186,  -0.00328,   0.00252,  -0.00012,477162043.35722,   0.00234,277162047.03513,  -0.00194,   0.00046,  -0.00056,  -3.67790,   1.00000
-119974909.86803,401900334.75698,34410697.47473,  -0.00327,   0.00253,  -0.00012,477166745.29572,   0.00234,277166749.89690,  -0.00194,   0.00047,  -0.00056,  -4.60118,   1.00000
-117490748.29557,403562983.39129,34690857.41562,  -0.00327,   0.00254,  -0.00011,477171291.22199,   0.00235,277171295.07496,  -0.00194,   0.00047,  -0.00056,  -3.85297,   1.00000
-114992137.59147,405225369.36445,34968534.72494,  -0.00326,   0.00254,  -0.00011,477175982.60636,   0.00235,277175986.37006,  -0.00195,   0.00047,  -0.00056,  -3.76370,   1.00000
-112501586.00738,406869243.95637,35254465.34145,  -0.00325,   0.00255,  -0.00010,477180527.42547,   0.00236,277180528.20669,  -0.00195,   0.00048,  -0.00056,  -0.78121,   1.00000
-110012111.08398,408503361.56762,35532411.33007,  -0.00325,   0.00255,  -0.00010,477185116.02202,   0.00236,277185117.41129,  -0.00195,   0.00048,  -0.00056,  -1.38927,   1.00000
-107537773.35704,410114863.14457,35816983.43208,  -0.00324,   0.00256,  -0.00009,477189670.65560,   0.00236,277189679.34928,  -0.00195,   0.00048,  -0.00056,  -8.69369,   1.00000
-105056751.46212,411719975.58445,36101939.78381,  -0.00324,   0.00257,  -0.00009,477194166.60146,   0.00237,277194173.53957,  -0.00196,   0.00049,  -0.00056,  -6.93811,   1.00000
-102613508.93673,413289298.44720,36386440.67177,  -0.00323,   0.00257,  -0.00008,477198659.61802,   0.00237,277198661.37346,  -0.00196,   0.00049,  -0.00056,  -1.75544,   1.00000
-100126447.89578,414877288.00353,36670490.26764,  -0.00323,   0.00258,  -0.00008,477203136.40967,   0.00238,277203142.52968,  -0.00196,   0.00050,  -0.00056,  -6.12001,   1.00000
-97676825.09023,416428438.48307,36960778.62608,  -0.00322,   0.00258,  -0.00008,477207619.12967,   0.00238,277207624.49802,  -0.00196,   0.00050,  -0.00056,  -5.36835,   1.00000
-95220664.84976,417974839.57878,37244815.20931,  -0.00321,   0.00259,  -0.00007,477212020.41695,   0.00239,277212029.56427,  -0.00197,   0.00050,  -0.00056,  -9.14732,   1.00000
-92765041.31038,419509220.04942,37534211.93105,  -0.00321,   0.00260,  -0.00007,477216491.66769,   0.00239,277216496.80579,  -0.00197,   0.00051,  -0.00055,  -5.13811,   1.00000
-90302347.78070,421037546.45182,37824034.70529,  -0.00320,   0.00260,  -0.00006,477220893.60113,   0.00239,277220896.47561,  -0.00197,   0.00051,  -0.00055,  -2.87448,   1.00000
-87877205.85510,422529758.87002,38120150.97171,  -0.00320,   0.00261,  -0.00006,477225285.13281,   0.00240,277225292.85754,  -0.00197,   0.00051,  -0.00055,  -7.72472,   1.00000
-85422628.27843,424031883.14628,38410454.56904,  -0.00319,   0.00261,  -0.00005,477229578.23188,   0.00240,277229584.89797,  -0.00197,   0.00052,  -0.00055,  -6.66609,   1.00000
-82991371.57612,425507723.14096,38705693.08116,  -0.00318,   0.00262,  -0.00005,477233959.18466,   0.00241,277233965.39924,  -0.00198,   0.00052,  -0.00055,  -6.21457,   1.00000
-80566933.77674,426968447.70038,39002804.25726,  -0.00318,   0.00262,  -0.00004,477238180.59779,   0.00241,277238184.22760,  -0.00198,   0.00052,  -0.00055,  -3.62982,   1.00000
-78143605.20861,428418731.10038,39298586.07297,  -0.00317,   0.00263,  -0.00004,477242446.75191,   0.00241,277242454.76998,  -0.00198,   0.00053,  -0.00055,  -8.01808,   1.00000
-75735518.35727,429849377.68548,39594474.35087,  -0.00317,   0.00263,  -0.00003,477246675.07418,   0.00242,277246682.42747,  -0.00198,   0.00053,  -0.00055,  -7.35329,   1.00000
-73328280.47350,431268235.46044,39895682.46730,  -0.00316,   0.00264,  -0.00003,477250963.54236,   0.00242,277250970.24926,  -0.00199,   0.00053,  -0.00055,  -6.70690,   1.00000
-70927692.52378,432674074.65131,40192210.70042,  -0.00315,   0.00264,  -0.00002,477255076.00753,   0.00243,277255086.00383,  -0.00199,   0.00054,  -0.00055,  -9.99630,   1.00000
-68527975.20871,434068190.21339,40494058.96501,  -0.00315,   0.00265,  -0.00002,477259256.33093,   0.00243,277259261.60048,  -0.00199,   0.00054,  -0.00055,  -5.26956,   1.00000
-66120433.94646,435456956.86386,40796425.33674,  -0.00314,   0.00265,  -0.00001,477263366.47601,   0.00243,277263369.51677,  -0.00199,   0.00054,  -0.00055,  -3.04075,   1.00000
-63736822.48949,436820169.51775,41103721.90306,  -0.00313,   0.00266,  -0.00001,477267556.51920,   0.00244,277267560.01388,  -0.00199,   0.00055,  -0.00054,  -3.49468,   1.00000
-61359289.27634,438171025.45947,41406444.64766,  -0.00313,   0.00266,  -0.00001,477271572.18030,   0.00244,277271577.39317,  -0.00199,   0.00055,  -0.00054,  -5.21287,   1.00000
-58982759.09918,439510252.38268,41714466.22163,  -0.00312,   0.00267,  -0.00000,477275649.11151,   0.00245,277275653.83019,  -0.00200,   0.00055,  -0.00054,  -4.71868,   1.00000
-56611625.59991,440835868.88665,42024610.34371,  -0.00312,   0.00267,   0.00000,477279559.83276,   0.00245,277279566.76334,  -0.00200,   0.00055,  -0.00054,  -6.93058,   1.00000
-54241848.73067,442151468.56072,42333407.03796,  -0.00311,   0.00268,   0.00001,477283526.25265,   0.00245,277283528.74774,  -0.00200,   0.00056,  -0.00054,  -2.49509,   1.00000
-51886560.53745,443447082.76801,42649078.45677,  -0.00310,   0.00268,   0.00001,477287445.84862,   0.00246,277287453.36550,  -0.00200,   0.00056,  -0.00054,  -7.51688,   1.00000
-49532727.47424,444732754.37069,42963387.22531,  -0.00310,   0.00268,   0.00002,477291418.47294,   0.00246,277291426.38607,  -0.00200,   0.00056,  -0.00054,  -7.91313,   1.00000
-47206920.26412,445992130.11283,43279599.40274,  -0.00309,   0.00269,   0.00002,477295254.05293,   0.00246,277295254.21886,  -0.00201,   0.00057,  -0.00054,  -0.16593,   1.00000
-44859352.44623,447254951.75475,43594778.08625,  -0.00308,   0.00269,   0.00003,477299104.24627,   0.00247,277299110.96447,  -0.00201,   0.00057,  -0.00054,  -6.71820,   1.00000
-42526428.24162,448499882.45422,43910259.17514,  -0.00308,   0.00270,   0.00003,477302914.62601,   0.00247,277302918.57975,  -0.00201,   0.00057,  -0.00054,  -3.95374,   1.00000
-40207778.54220,449725417.37932,44232683.08250,  -0.00307,   0.00270,   0.00004,477306680.48658,   0.00247,277306686.75095,  -0.00201,   0.00058,  -0.00054,  -6.26437,   1.00000
-37903645.01577,450933419.79604,44555446.72894,  -0.00306,   0.00271,   0.00004,477310401.27340,   0.00248,277310404.47683,  -0.00201,   0.00058,  -0.00054,  -3.20342,   1.00000
-35590622.14038,452136964.13835,44878864.81450,  -0.00306,   0.00271,   0.00005,477314047.65840,   0.00248,277314054.62785,  -0.00201,   0.00058,  -0.00053,  -6.96945,   1.00000
-33279141.81026,453330893.57860,45200920.86615,  -0.00305,   0.00271,   0.00005,477317748.66248,   0.00249,277317751.48924,  -0.00202,   0.00059,  -0.00053,  -2.82676,   1.00000
-30994518.00172,454498186.14518,45531721.65607,  -0.00304,   0.00272,   0.00006,477321303.31522,   0.00249,277321309.87803,  -0.00202,   0.00059,  -0.00053,  -6.56280,   1.00000
-28711440.60641,455656058.27195,45861164.68385,  -0.00304,   0.00272,   0.00006,477324911.76779,   0.00249,277324914.05583,  -0.00202,   0.00059,  -0.00053,  -2.28804,   1.00000
-26419168.74290,456809631.61570,46191295.15388,  -0.00303,   0.00272,   0.00007,477328450.85847,   0.00250,277328451.16032,  -0.00202,   0.00059,  -0.00053,  -0.30185,   1.00000
-24164512.65901,457933773.51110,46521600.80257,  -0.00303,   0.00273,   0.00007,477331948.52729,   0.00250,277331950.07861,  -0.00202,   0.00060,  -0.00053,  -1.55132,   1.00000
-21900216.68104,459052018.27258,46859228.62721,  -0.00302,   0.00273,   0.00008,477335391.06319,   0.00250,277335392.43956,  -0.00202,   0.00060,  -0.00053,  -1.37637,   1.00000
-19649934.77149,460153702.12565,47197329.58698,  -0.00301,   0.00273,   0.00009,477338772.26612,   0.00251,277338781.39386,  -0.00203,   0.00060,  -0.00053,  -9.12774,   1.00000
-17377741.80943,461258519.29979,47534308.67833,  -0.00301,   0.00274,   0.00009,477342194.34008,   0.00251,277342202.27684,  -0.00203,   0.00061,  -0.00053,  -7.93677,   1.00000
-15155285.57841,462327501.04620,47873428.56702,  -0.00300,   0.00274,   0.00010,477345474.16099,   0.00251,277345482.98451,  -0.00203,   0.00061,  -0.00053,  -8.82352,   1.00000
-12910640.61703,463397782.02834,48218013.20525,  -0.00299,   0.00274,   0.00010,477348805.01454,   0.00251,277348806.81226,  -0.00203,   0.00061,  -0.00053,  -1.79772,   1.00000
-10691896.52783,464444940.53408,48565047.10642,  -0.00299,   0.00275,   0.00011,477351975.05350,   0.00252,277351976.91851,  -0.00203,   0.00061,  -0.00053,  -1.86501,   1.00000
-8474733.73635,465483112.76669,48910726.78150,  -0.00298,   0.00275,   0.00011,477355184.74739,   0.00252,277355190.86081,  -0.00203,   0.00062,  -0.00052,  -6.11342,   1.00000
-6270992.37887,466503525.88864,49263568.56143,  -0.00297,   0.00275,   0.00012,477358358.70940,   0.00252,277358360.43955,  -0.00203,   0.00062,  -0.00052,  -1.73015,   1.00000
-4080994.12792,467510223.01038,49610443.03888,  -0.00297,   0.00276,   0.00012,477361454.01852,   0.00253,277361462.36111,  -0.00203,   0.00062,  -0.00052,  -8.34259,   1.00000
-1880624.22114,468511277.89570,49964717.15810,  -0.00296,   0.00276,   0.00013,477364500.98648,   0.00253,277364509.44033,  -0.00204,   0.00062,  -0.00052,  -8.45385,   1.00000
306544.53300,469494816.94161,50326196.56064,  -0.00295,   0.00276,   0.00013,477367504.35693,   0.00253,277367511.76038,  -0.00204,   0.00063,  -0.00052,  -7.40345,   1.00000
2480235.28289,470465003.83592,50681773.88261,  -0.00294,   0.00276,   0.00014,477370436.98912,   0.00254,277370445.50904,  -0.00204,   0.00063,  -0.00052,  -8.51992,   1.00000
4652486.39379,471424446.43130,51042559.53517,  -0.00294,   0.00277,   0.00014,477373425.26756,   0.00254,277373433.61365,  -0.00204,   0.00063,  -0.00052,  -8.34610,   1.00000
6799990.38101,472362307.30820,51406104.82430,  -0.00293,   0.00277,   0.00015,477376259.28431,   0.00254,277376263.93403,  -0.00204,   0.00063,  -0.00052,  -4.64972,   1.00000
8934600.59975,473283178.21690,51776941.77024,  -0.00292,   0.00277,   0.00016,477379045.20439,   0.00254,277379047.87552,  -0.00204,   0.00064,  -0.00052,  -2.67113,   1.00000
11091208.92304,474209045.12115,52140029.88137,  -0.00292,   0.00277,   0.00016,477381849.19992,   0.00255,277381854.59955,  -0.00204,   0.00064,  -0.00052,  -5.39963,   1.00000
13234994.59320,475117935.36747,52510422.30468,  -0.00291,   0.00278,   0.00017,477384611.85490,   0.00255,277384615.17500,  -0.00204,   0.00064,  -0.00052,  -3.32010,   1.00000
15330928.90557,475994676.19230,52883609.42688,  -0.00290,   0.00278,   0.00017,477387219.18631,   0.00255,277387222.51778,  -0.00205,   0.00064,  -0.00052,  -3.33148,   1.00000
17449199.50690,476872195.56113,53262132.17614,  -0.00290,   0.00278,   0.00018,477389873.74569,   0.00255,277389877.20474,  -0.00205,   0.00064,  -0.00052,  -3.45905,   1.00000
19578521.70265,477746324.34224,53641587.46672,  -0.00289,   0.00278,   0.00018,477392461.05582,   0.00256,277392467.46246,  -0.00205,   0.00065,  -0.00051,  -6.40664,   1.00000
21671460.39754,478594954.81129,54021778.04997,  -0.00288,   0.00278,   0.00019,477395002.97758,   0.00256,277395003.33199,  -0.00205,   0.00065,  -0.00051,  -0.35441,   1.00000
23740934.27807,479423454.47999,54405072.10306,  -0.00288,   0.00279,   0.00019,477397376.98626,   0.00256,277397377.97360,  -0.00205,   0.00065,  -0.00051,  -0.98734,   1.00000
25832793.73628,480252493.18851,54793659.31713,  -0.00287,   0.00279,   0.00020,477399792.78610,   0.00256,277399801.65468,  -0.00205,   0.00065,  -0.00051,  -8.86858,   1.00000
27888517.29792,481056644.88204,55183084.39337,  -0.00286,   0.00279,   0.00021,477402164.66798,   0.00257,277402168.51220,  -0.00205,   0.00065,  -0.00051,  -3.84422,   1.00000
29955777.02244,481857701.03947,55573533.84650,  -0.00285,   0.00279,   0.00021,477404465.59677,   0.00257,277404471.08283,  -0.00205,   0.00066,  -0.00051,  -5.48605,   1.00000
32010924.88640,482642621.04908,55971460.69522,  -0.00285,   0.00279,   0.00022,477406719.17444,   0.00257,277406725.60036,  -0.00205,   0.00066,  -0.00051,  -6.42592,   1.00000
34064565.41740,483419461.06134,56368053.17313,  -0.00284,   0.00279,   0.00022,477409015.78220,   0.00257,277409020.36751,  -0.00205,   0.00066,  -0.00051,  -4.58531,   1.00000
36095631.08200,484177006.47065,56767986.50485,  -0.00283,   0.00279,   0.00023,477411150.31970,   0.00257,277411152.25281,  -0.00205,   0.00066,  -0.00051,  -1.93311,   1.00000
38114800.89595,484921063.60956,57168968.25773,  -0.00283,   0.00280,   0.00023,477413216.18153,   0.00258,277413222.22202,  -0.00205,   0.00066,  -0.00051,  -6.04049,   1.00000
40122189.44293,485649384.03398,57577519.91381,  -0.00282,   0.00280,   0.00024,477415238.66284,   0.00258,277415243.09952,  -0.00206,   0.00066,  -0.00051,  -4.43668,   1.00000
42141665.46552,486374711.39118,57987179.89531,  -0.00281,   0.00280,   0.00025,477417195.50866,   0.00258,277417201.03549,  -0.00206,   0.00067,  -0.00051,  -5.52682,   1.00000
44125701.99227,487074101.37014,58404429.89198,  -0.00281,   0.00280,   0.00025,477419106.70778,   0.00258,277419110.39949,  -0.00206,   0.00067,  -0.00051,  -3.69171,   1.00000
46132152.74572,487778350.92538,58813894.39378,  -0.00280,   0.00280,   0.00026,477421042.97860,   0.00258,277421045.49723,  -0.00206,   0.00067,  -0.00051,  -2.51863,   1.00000
48093191.94359,488451621.41215,59233468.06439,  -0.00279,   0.00280,   0.00026,477422826.43853,   0.00258,277422828.93176,  -0.00206,   0.00067,  -0.00051,  -2.49323,   1.00000
50066661.72263,489119542.29571,59660689.56236,  -0.00278,   0.00280,   0.00027,477424557.64522,   0.00259,277424563.60320,  -0.00206,   0.00067,  -0.00050,  -5.95798,   1.00000
52028894.78203,489777060.40319,60082660.96032,  -0.00278,   0.00280,   0.00028,477426218.47913,   0.00259,277426221.43170,  -0.00206,   0.00067,  -0.00050,  -2.95257,   1.00000
53989753.24594,490424421.86513,60509806.62117,  -0.00277,   0.00280,   0.00028,477427925.01803,   0.00259,277427931.87533,  -0.00206,   0.00068,  -0.00050,  -6.85731,   1.00000
55929618.70760,491051342.90601,60947212.73727,  -0.00276,   0.00280,   0.00029,477429489.52208,   0.00259,277429490.57570,  -0.00206,   0.00068,  -0.00050,  -1.05363,   1.00000
57858554.36641,491668191.54142,61379464.80634,  -0.00276,   0.00280,   0.00030,477430966.94306,   0.00259,277430971.52499,  -0.00206,   0.00068,  -0.00050,  -4.58192,   1.00000
59786143.12304,492274971.20734,61816894.97824,  -0.00275,   0.00280,   0.00030,477432501.84342,   0.00259,277432504.81468,  -0.00206,   0.00068,  -0.00050,  -2.97125,   1.00000
61693292.90814,492864249.16208,62258281.84167,  -0.00274,   0.00280,   0.00031,477433862.41246,   0.00260,277433871.59979,  -0.00206,   0.00068,  -0.00050,  -9.18733,   1.00000
63589629.71463,493438546.36181,62707491.06769,  -0.00274,   0.00280,   0.00031,477435182.93151,   0.00260,277435188.17426,  -0.00206,   0.00068,  -0.00050,  -5.24275,   1.00000
65475338.48993,494000545.08687,63158110.08624,  -0.00273,   0.00280,   0.00032,477436431.58196,   0.00260,277436440.19336,  -0.00206,   0.00068,  -0.00050,  -8.61140,   1.00000
67383621.91706,494564551.49258,63607358.29896,  -0.00272,   0.00280,   0.00033,477437729.37806,   0.00260,277437734.62525,  -0.00206,   0.00068,  -0.00050,  -5.24719,   1.00000
69248209.34633,495099433.02261,64067299.88887,  -0.00271,   0.00280,   0.00033,477438865.86340,   0.00260,277438871.83148,  -0.00206,   0.00068,  -0.00050,  -5.96808,   1.00000
71126346.64164,495634179.46866,64522183.94810,  -0.00271,   0.00280,   0.00034,477439928.42254,   0.00260,277439934.58061,  -0.00206,   0.00069,  -0.00050,  -6.15807,   1.00000
72970154.48708,496142204.72858,64991552.01633,  -0.00270,   0.00280,   0.00035,477440952.29952,   0.00260,277440956.43698,  -0.00206,   0.00069,  -0.00050,  -4.13746,   1.00000
74813005.42125,496645785.54170,65453290.21777,  -0.00269,   0.00280,   0.00035,477441994.20591,   0.00260,277442000.77740,  -0.00206,   0.00069,  -0.00050,  -6.57149,   1.00000
76660288.51209,497138988.09851,65925618.76327,  -0.00269,   0.00280,   0.00036,477442893.64497,   0.00260,277442898.25678,  -0.00206,   0.00069,  -0.00050,  -4.61181,   1.00000
78473839.58136,497611354.57134,66399735.14385,  -0.00268,   0.00280,   0.00036,477443718.74178,   0.00260,277443723.73647,  -0.00207,   0.00069,  -0.00050,  -4.99468,   1.00000
80301011.48510,498077990.71338,66881678.29736,  -0.00267,   0.00280,   0.00037,477444496.77577,   0.00261,277444505.89555,  -0.00207,   0.00069,  -0.00050,  -9.11979,   1.00000
82118351.82401,498532807.94476,67365273.66471,  -0.00266,   0.00280,   0.00038,477445213.68711,   0.00261,277445222.80788,  -0.00207,   0.00069,  -0.00050,  -9.12077,   1.00000
83902257.95836,498967178.68141,67850782.10785,  -0.00266,   0.00280,   0.00038,477445857.92658,   0.00261,277445866.22229,  -0.00207,   0.00069,  -0.00050,  -8.29571,   1.00000
85700227.05143,499398635.58662,68337792.77386,  -0.00265,   0.00280,   0.00039,477446448.77421,   0.00261,277446451.72611,  -0.00207,   0.00069,  -0.00050,  -2.95190,   1.00000
87464717.09107,499806958.92025,68833160.72494,  -0.00264,   0.00279,   0.00040,477446971.61567,   0.00261,277446978.44270,  -0.00207,   0.00069,  -0.00050,  -6.82703,   1.00000
89243420.05758,500212315.72471,69330063.55897,  -0.00264,   0.00279,   0.00040,477447446.48530,   0.00261,277447447.83894,  -0.00207,   0.00069,  -0.00050,  -1.35365,   1.00000
91012464.61643,500603125.36194,69835115.01580,  -0.00263,   0.00279,   0.00041,477447864.66339,   0.00261,277447867.36577,  -0.00207,   0.00069,  -0.00050,  -2.70238,   1.00000
92748566.73948,500974057.96785,70342288.18221,  -0.00262,   0.00279,   0.00042,477448206.67686,   0.00261,277448211.20035,  -0.00207,   0.00069,  -0.00050,  -4.52349,   1.00000
94499105.48955,501341932.35840,70851048.24374,  -0.00261,   0.00279,   0.00042,477448492.55037,   0.00261,277448498.61678,  -0.00207,   0.00069,  -0.00050,  -6.06641,   1.00000
96240207.92250,501695313.44073,71368028.78870,  -0.00261,   0.00279,   0.00043,477448730.72366,   0.00261,277448736.24794,  -0.00207,   0.00069,  -0.00050,  -5.52428,   1.00000
97940523.56716,502024801.49313,71890360.63765,  -0.00260,   0.00279,   0.00044,477448790.37099,   0.00261,277448793.55768,  -0.00207,   0.00069,  -0.00050,  -3.18669,   1.00000
99663634.48387,502355466.85623,72411234.38092,  -0.00259,   0.00278,   0.00045,477448891.59244,   0.00261,277448898.68320,  -0.00207,   0.00069,  -0.00050,  -7.09076,   1.00000
101377524.64659,502671662.40416,72940399.63005,  -0.00259,   0.00278,   0.00045,477448949.66654,   0.00261,277448954.20700,  -0.00207,   0.00069,  -0.00050,  -4.54046,   1.00000
103048359.89407,502940493.32993,73464449.78914,  -0.00258,   0.00278,   0.00046,477422231.88107,   0.00261,277448954.20700,  -0.00207,   0.00069,  -0.00050,-26722.32593,   0.00000
104743015.60332,503219533.02502,74002111.64067,  -0.00257,   0.00278,   0.00047,477410938.20512,   0.00261,277448954.20700,  -0.00207,   0.00069,  -0.00050,-38016.00188,   0.00000
106403642.08147,503464543.48901,74532967.64598,  -0.00256,   0.00278,   0.00047,477381723.89717,   0.00261,277448954.20700,  -0.00207,   0.00069,  -0.00050,-67230.30983,   0.00000
108067671.48272,503672121.79878,75077435.34373,  -0.00256,   0.00277,   0.00048,477329465.25100,   0.00261,277448954.20700,  -0.00207,   0.00069,  -0.00050,-119488.95601,   0.00000
109707880.42220,503869491.33922,75615097.19526,  -0.00255,   0.00277,   0.00049,477278491.23596,   0.00261,277448954.20700,  -0.00207,   0.00069,  -0.00050,-170462.97104,   0.00000
111351492.28479,504029428.72543,76159564.89301,  -0.00254,   0.00277,   0.00049,477201455.13754,   0.00261,277448954.20700,  -0.00207,   0.00069,  -0.00050,-247499.06947,   0.00000
112961074.91627,504155336.88054,76704032.59076,  -0.00254,   0.00277,   0.00050,477109426.88195,   0.00261,277448954.20700,  -0.00207,   0.00069,  -0.00050,-339527.32506,   0.00000
114570657.54775,504281245.03564,77248500.28852,  -0.00253,   0.00276,   0.00051,477024284.73125,   0.00261,277448954.20700,  -0.00207,   0.00069,  -0.00050,-424669.47575,   0.00000
116183643.10235,504369721.03653,77799773.83249,  -0.00252,   0.00276,   0.00052,476913364.44644,   0.00261,277448954.20700,  -0.00207,   0.00069,  -0.00050,-535589.76057,   0.00000
117762599.42583,504424167.80630,78351047.37646,  -0.00251,   0.00276,   0.00052,476787300.11557,   0.00261,277448954.20700,  -0.00207,   0.00069,  -0.00050,-661654.09143,   0.00000
119331346.97998,504454794.11430,78909126.76666,  -0.00251,   0.00276,   0.00053,476652169.26604,   0.00261,277448954.20700,  -0.00207,   0.00069,  -0.00050,-796784.94097,   0.00000
120889885.76479,504461599.96052,79467206.15686,  -0.00250,   0.00275,   0.00054,476504643.92924,   0.00261,277448954.20700,  -0.00207,   0.00069,  -0.00050,-944310.27777,   0.00000
122438215.78028,504444585.34497,80025285.54705,  -0.00249,   0.00275,   0.00054,476344728.48801,   0.00261,277448954.20700,  -0.00207,   0.00069,  -0.00050,-1104225.71899,   0.00000
123976337.02643,504403750.26764,80583364.93725,  -0.00249,   0.00275,   0.00055,476172429.06305,   0.00261,277448954.20700,  -0.00207,   0.00069,  -0.00050,-1276525.14396,   0.00000
125504249.50324,504339094.72853,81148250.17367,  -0.00248,   0.00274,   0.00056,475991234.22040,   0.00261,277448954.20700,  -0.00207,   0.00069,  -0.00050,-1457719.98661,   0.00000
127021953.21073,504250618.72764,81719941.25631,  -0.00247,   0.00274,   0.00057,475801230.53958,   0.00261,277448954.20700,  -0.00207,   0.00069,  -0.00050,-1647723.66742,   0.00000
128519239.37955,504114501.80320,82284826.49273,  -0.00246,   0.00274,   0.00057,475576062.79107,   0.00261,277448954.20700,  -0.00207,   0.00069,  -0.00050,-1872891.41593,   0.00000
129992705.08659,503968176.10943,82856517.57537,  -0.00246,   0.00273,   0.00058,475358230.10749,   0.00261,277448954.20700,  -0.00207,   0.00069,  -0.00050,-2090724.09951,   0.00000
131479782.48608,503808238.72322,83435014.50423,  -0.00245,   0.00273,   0.00059,475135014.39266,   0.00261,277448954.20700,  -0.00207,   0.00069,  -0.00050,-2313939.81434,   0.00000
132946442.34690,503600660.41345,84013511.43309,  -0.00244,   0.00272,   0.00060,474880275.27578,   0.00261,277448954.20700,  -0.00207,   0.00069,  -0.00050,-2568678.93123,   0.00000
134389281.74594,503382873.33435,84592008.36195,  -0.00244,   0.00272,   0.00060,474629283.82059,   0.00261,277448954.20700,  -0.00207,   0.00069,  -0.00050,-2819670.38641,   0.00000
135811703.60632,503117445.33170,85170505.29081,  -0.00243,   0.00272,   0.00061,474346698.29510,   0.00261,277448954.20700,  -0.00207,   0.00069,  -0.00050,-3102255.91190,   0.00000
137257945.92847,502862226.09837,85755808.06590,  -0.00242,   0.00271,   0.00062,474078581.85003,   0.00261,277448954.20700,  -0.00207,   0.00069,  -0.00050,-3370372.35697,   0.00000
138659950.25019,502549157.17217,86341110.84098,  -0.00242,   0.00271,   0.00063,473775430.25133,   0.00261,277448954.20700,  -0.00207,   0.00069,  -0.00050,-3673523.95567,   0.00000
140051745.80257,502212267.78418,86933219.46229,  -0.00241,   0.00270,   0.00063,473463940.00691,   0.00261,277448954.20700,  -0.00207,   0.00069,  -0.00050,-3985014.20009,   0.00000
141443541.35494,501875378.39620,87525328.08359,  -0.00240,   0.00270,   0.00064,473159792.41749,   0.00261,277448954.20700,  -0.00207,   0.00069,  -0.00050,-4289161.78951,   0.00000
142791098.90688,501480639.31533,88117436.70490,  -0.00239,   0.00270,   0.00065,472820479.59147,   0.00261,277448954.20700,  -0.00207,   0.00069,  -0.00050,-4628474.61553,   0.00000
144152268.15126,501072288.54201,88716351.17243,  -0.00239,   0.00269,   0.00066,472476857.37278,   0.00261,277448954.20700,  -0.00207,   0.00069,  -0.00050,-4972096.83423,   0.00000
145503228.62631,500640117.30692,89315265.63995,  -0.00238,   0.00269,   0.00066,472121396.65425,   0.00261,277448954.20700,  -0.00207,   0.00069,  -0.00050,-5327557.55275,   0.00000
146820159.87025,500173916.84072,89914180.10748,  -0.00237,   0.00268,   0.00067,471750115.37024,   0.00261,277448954.20700,  -0.00207,   0.00069,  -0.00050,-5698838.83677,   0.00000
148126882.34485,499683895.91274,90519900.42123,  -0.00237,   0.00268,   0.00068,471370882.17779,   0.00261,277448954.20700,  -0.00207,   0.00069,  -0.00050,-6078072.02922,   0.00000
149447216.51190,499180263.29232,91132426.58120,  -0.00236,   0.00267,   0.00069,470987964.19948,   0.00261,277448954.20700,  -0.00207,   0.00069,  -0.00050,-6460990.00753,   0.00000
150723312.67851,498618780.97902,91738146.89495,  -0.00235,   0.00267,   0.00070,470566035.83776,   0.00261,277448954.20700,  -0.00207,   0.00069,  -0.00050,-6882918.36924,   0.00000
151999408.84512,498057298.66571,92350673.05492,  -0.00235,   0.00266,   0.00070,470155738.57644,   0.00261,277448954.20700,  -0.00207,   0.00069,  -0.00050,-7293215.63057,   0.00000
153241475.78062,497461787.12129,92963199.21489,  -0.00234,   0.00266,   0.00071,469729571.52728,   0.00261,277448954.20700,  -0.00207,   0.00069,  -0.00050,-7719382.67972,   0.00000
154486945.63922,496828843.42266,93582531.22109,  -0.00233,   0.00265,   0.00072,469280956.30766,   0.00261,277448954.20700,  -0.00207,   0.00069,  -0.00050,-8167997.89934,   0.00000
155732415.49783,496195899.72402,94201863.22728,  -0.00233,   0.00265,   0.00073,468840210.75634,   0.00261,277448954.20700,  -0.00207,   0.00069,  -0.00050,-8608743.45066,   0.00000
156933647.35600,495505106.33249,94828001.07970,  -0.00232,   0.00264,   0.00074,468368557.67661,   0.00261,277448954.20700,  -0.00207,   0.00069,  -0.00050,-9080396.53040,   0.00000
158134879.21417,494814312.94097,95447333.08589,  -0.00231,   0.00264,   0.00074,467900654.93071,   0.00261,277448954.20700,  -0.00207,   0.00069,  -0.00050,-9548299.27629,   0.00000
159315693.53367,494075878.62589,96080276.78453,  -0.00231,   0.00263,   0.00075,467410613.42838,   0.00261,277448954.20700,  -0.00207,   0.00069,  -0.00050,-10038340.77862,   0.00000
160496507.85317,493337444.31082,96706414.63694,  -0.00230,   0.00262,   0.00076,466924424.16615,   0.00261,277448954.20700,  -0.00207,   0.00069,  -0.00050,-10524530.04085,   0.00000
161656904.63400,492551369.07219,97339358.33558,  -0.00229,   0.00262,   0.00077,466412187.16585,   0.00261,277448954.20700,  -0.00207,   0.00069,  -0.00050,-11036767.04116,   0.00000
162783272.18373,491731264.60245,97972302.03422,  -0.00228,   0.00261,   0.00078,465884236.58779,   0.00261,277448954.20700,  -0.00207,   0.00069,  -0.00050,-11564717.61922,   0.00000
163923251.42590,490897548.44027,98612051.57907,  -0.00228,   0.00261,   0.00079,465354406.14146,   0.00261,277448954.20700,  -0.00207,   0.00069,  -0.00050,-12094548.06554,   0.00000
165029201.43695,490029803.04697,99251801.12393,  -0.00227,   0.00260,   0.00079,464808969.58112,   0.00261,277448954.20700,  -0.00207,   0.00069,  -0.00050,-12639984.62589,   0.00000
166135151.44801,489162057.65368,99891550.66879,  -0.00226,   0.00259,   0.00080,464271860.38868,   0.00261,277448954.20700,  -0.00207,   0.00069,  -0.00050,-13177093.81832,   0.00000
167220683.92041,488246671.33683,100538106.05987,  -0.00226,   0.00259,   0.00081,463709347.77058,   0.00261,277448954.20700,  -0.00207,   0.00069,  -0.00050,-13739606.43642,   0.00000
168272187.16169,487297255.78888,101184661.45095,  -0.00225,   0.00258,   0.00082,463131273.59411,   0.00261,277448954.20700,  -0.00207,   0.00069,  -0.00050,-14317680.61290,   0.00000
169337302.09542,486334228.54848,101838022.68826,  -0.00224,   0.00258,   0.00083,462552187.49337,   0.00261,277448954.20700,  -0.00207,   0.00069,  -0.00050,-14896766.71363,   0.00000
170368387.79804,485337172.07697,102491383.92556,  -0.00224,   0.00257,   0.00084,461957679.82824,   0.00261,277448954.20700,  -0.00207,   0.00069,  -0.00050,-15491274.37877,   0.00000
171379055.96199,484292474.68191,103144745.16286,  -0.00223,   0.00256,   0.00084,461333838.01712,   0.00261,277448954.20700,  -0.00207,   0.00069,  -0.00050,-16115116.18989,   0.00000
172389724.12594,483247777.28684,103804912.24639,  -0.00222,   0.00256,   0.00085,460723409.04862,   0.00261,277448954.20700,  -0.00207,   0.00069,  -0.00050,-16725545.15839,   0.00000
173366363.05879,482169050.66067,104465079.32991,  -0.00222,   0.00255,   0.00086,460097655.89591,   0.00261,277448954.20700,  -0.00207,   0.00069,  -0.00050,-17351298.31109,   0.00000
174356613.68408,481076712.34206,105125246.41344,  -0.00221,   0.00254,   0.00087,459467167.17024,   0.00261,277448954.20700,  -0.00207,   0.00069,  -0.00050,-17981787.03676,   0.00000
175312835.07825,479950344.79233,105792219.34318,  -0.00220,   0.00253,   0.00088,458826164.23630,   0.00261,277448954.20700,  -0.00207,   0.00069,  -0.00050,-18622789.97071,   0.00000
176248638.93376,478776336.31905,106465998.11915,  -0.00220,   0.00253,   0.00089,458161228.80673,   0.00261,277448954.20700,  -0.00207,   0.00069,  -0.00050,-19287725.40027,   0.00000
177184442.78928,477602327.84577,107132971.04890,  -0.00219,   0.00252,   0.00090,457500850.76787,   0.00261,277448954.20700,  -0.00207,   0.00069,  -0.00050,-19948103.43913,   0.00000
178086217.41368,476394290.14139,107806749.82487,  -0.00219,   0.00251,   0.00091,456830219.34487,   0.00261,277448954.20700,  -0.00207,   0.00069,  -0.00050,-20618734.86214,   0.00000
178991394.96119,475148820.28278,108480528.60084,  -0.00218,   0.00251,   0.00091,456136871.98717,   0.00261,277448954.20700,  -0.00207,   0.00069,  -0.00050,-21312082.21983,   0.00000
179872752.04693,473893141.65484,109161113.22303,  -0.00217,   0.00250,   0.00092,455452411.33523,   0.00261,277448954.20700,  -0.00207,   0.00069,  -0.00050,-21996542.87177,   0.00000
180743900.36333,472613642.56512,109841697.84522,  -0.00217,   0.00249,   0.00093,454758810.02092,   0.00261,277448954.20700,  -0.00207,   0.00069,  -0.00050,-22690144.18609,   0.00000
181570810.67929,471276293.78251,110529088.31363,  -0.00216,   0.00248,   0.00094,454036698.67800,   0.00261,277448954.20700,  -0.00207,   0.00069,  -0.00050,-23412255.52900,   0.00000
182421541.45703,469949153.76924,111209672.93582,  -0.00215,   0.00248,   0.00095,453325215.42757,   0.00261,277448954.20700,  -0.00207,   0.00069,  -0.00050,-24123738.77944,   0.00000
183238243.00366,468587984.52486,111903869.25045,  -0.00215,   0.00247,   0.00096,452609259.54166,   0.00261,277448954.20700,  -0.00207,   0.00069,  -0.00050,-24839694.66535,   0.00000
184034527.01162,467179174.35693,112591259.71887,  -0.00214,   0.00246,   0.00097,451861001.85566,   0.00261,277448954.20700,  -0.00207,   0.00069,  -0.00050,-25587952.35135,   0.00000
184806990.55781,465760155.41966,113285456.03350,  -0.00213,   0.00245,   0.00098,451122153.23224,   0.00261,277448954.20700,  -0.00207,   0.00069,  -0.00050,-26326800.97477,   0.00000
185582857.02711,464303704.32817,113986458.19436,  -0.00213,   0.00244,   0.00099,450367468.46636,   0.00261,277448954.20700,  -0.00207,   0.00069,  -0.00050,-27081485.74064,   0.00000
186334903.03463,462837044.46735,114680654.50899,  -0.00212,   0.00244,   0.00099,449612152.38734,   0.00261,277448954.20700,  -0.00207,   0.00069,  -0.00050,-27836801.81967,   0.00000
187042711.04171,461312534.91365,115381656.66985,  -0.00212,   0.00243,   0.00100,448829437.02720,   0.00261,277448954.20700,  -0.00207,   0.00069,  -0.00050,-28619517.17981,   0.00000
187774339.51056,459798234.12927,116089464.67693,  -0.00211,   0.00242,   0.00101,448068745.16329,   0.00261,277448954.20700,  -0.00207,   0.00069,  -0.00050,-29380209.04372,   0.00000
188471938.74831,458249904.11379,116797272.68400,  -0.00210,   0.00241,   0.00102,447294318.29116,   0.00261,277448954.20700,  -0.00207,   0.00069,  -0.00050,-30154635.91584,   0.00000
189149120.44738,456653933.17475,117505080.69108,  -0.00210,   0.00240,   0.00103,446493949.12563,   0.00261,277448954.20700,  -0.00207,   0.00069,  -0.00050,-30955005.08137,   0.00000
189826302.14646,455057962.23572,118212888.69816,  -0.00209,   0.00239,   0.00104,445704683.51847,   0.00261,277448954.20700,  -0.00207,   0.00069,  -0.00050,-31744270.68853,   0.00000
190483066.30688,453414350.37313,118927502.55146,  -0.00208,   0.00238,   0.00105,444895345.55525,   0.00261,277448954.20700,  -0.00207,   0.00069,  -0.00050,-32553608.65176,   0.00000
191116010.00552,451760529.74120,119648922.25098,  -0.00208,   0.00238,   0.00106,444096644.18663,   0.00261,277448954.20700,  -0.00207,   0.00069,  -0.00050,-33352310.02037,   0.00000
191738744.93482,450082888.64750,120363536.10428,  -0.00207,   0.00237,   0.00107,443285649.71938,   0.00261,277448954.20700,  -0.00207,   0.00069,  -0.00050,-34163304.48763,   0.00000
192317241.86368,448347397.86092,121084955.80380,  -0.00207,   0.00236,   0.00108,442448952.19603,   0.00261,277448954.20700,  -0.00207,   0.00069,  -0.00050,-35000002.01097,   0.00000
192895738.79254,446611907.07433,121813181.34955,  -0.00206,   0.00235,   0.00109,441629687.93746,   0.00261,277448954.20700,  -0.00207,   0.00069,  -0.00050,-35819266.26955,   0.00000
193464026.95207,444852595.82597,122541406.89529,  -0.00205,   0.00234,   0.00110,440804238.13828,   0.00261,277448954.20700,  -0.00207,   0.00069,  -0.00050,-36644716.06872,   0.00000
194022106.34227,443069464.11583,123269632.44104,  -0.00205,   0.00233,   0.00111,439972799.09573,   0.00261,277448954.20700,  -0.00207,   0.00069,  -0.00050,-37476155.11128,   0.00000
194546156.50136,441252303.17458,123997857.98678,  -0.00204,   0.00232,   0.00112,439128988.78606,   0.00261,277448954.20700,  -0.00207,   0.00069,  -0.00050,-38319965.42095,   0.00000
195059997.89111,439411321.77156,124732889.37874,  -0.00204,   0.00231,   0.00113,438285320.37764,   0.00261,277448954.20700,  -0.00207,   0.00069,  -0.00050,-39163633.82937,   0.00000
195563630.51153,437546519.90676,125474726.61693,  -0.00203,   0.00230,   0.00113,437442139.91052,   0.00261,277448954.20700,  -0.00207,   0.00069,  -0.00050,-40006814.29649,   0.00000
196057054.36262,435657897.58018,126209758.00890,  -0.00202,   0.00229,   0.00114,436587994.83030,   0.00261,277448954.20700,  -0.00207,   0.00069,  -0.00050,-40860959.37671,   0.00000
196516448.98260,433735246.02249,126951595.24709,  -0.00202,   0.00228,   0.00115,435728115.48410,   0.00261,277448954.20700,  -0.00207,   0.00069,  -0.00050,-41720838.72290,   0.00000
196941814.37147,431778565.23369,127700238.33150,  -0.00201,   0.00227,   0.00116,434862744.10338,   0.00261,277448954.20700,  -0.00207,   0.00069,  -0.00050,-42586210.10363,   0.00000
197380791.45278,429808272.75245,128448881.41590,  -0.00201,   0.00226,   0.00117,433999742.53809,   0.00261,277448954.20700,  -0.00207,   0.00069,  -0.00050,-43449211.66891,   0.00000
197785739.30298,427803951.04010,129197524.50031,  -0.00200,   0.00225,   0.00118,433125731.71652,   0.00261,277448954.20700,  -0.00207,   0.00069,  -0.00050,-44323222.49048,   0.00000
198190687.15319,425799629.32775,129946167.58472,  -0.00200,   0.00224,   0.00119,432265394.28195,   0.00261,277448954.20700,  -0.00207,   0.00069,  -0.00050,-45183559.92505,   0.00000
198551397.00295,423737457.92251,130701616.51536,  -0.00199,   0.00223,   0.00120,431382850.77717,   0.00261,277448954.20700,  -0.00207,   0.00069,  -0.00050,-46066103.42983,   0.00000
198912106.85271,421675286.51727,131457065.44599,  -0.00198,   0.00222,   0.00121,430514383.07001,   0.00261,277448954.20700,  -0.00207,   0.00069,  -0.00050,-46934571.13700,   0.00000
199252399.16380,419565474.18848,132219320.22284,  -0.00198,   0.00221,   0.00122,429631381.86794,   0.00261,277448954.20700,  -0.00207,   0.00069,  -0.00050,-47817572.33907,   0.00000
199568871.01312,417445453.09036,132981574.99969,  -0.00197,   0.00220,   0.00123,428755898.69839,   0.00261,277448954.20700,  -0.00207,   0.00069,  -0.00050,-48693055.50862,   0.00000
199875134.09311,415301611.53046,133743829.77655,  -0.00197,   0.00219,   0.00124,427877632.60621,   0.00261,277448954.20700,  -0.00207,   0.00069,  -0.00050,-49571321.60080,   0.00000
200171188.40376,413133949.50878,134512890.39962,  -0.00196,   0.00218,   0.00125,427003283.72457,   0.00261,277448954.20700,  -0.00207,   0.00069,  -0.00050,-50445670.48243,   0.00000
200433213.48330,410932258.25600,135281951.02270,  -0.00196,   0.00217,   0.00126,426119630.75402,   0.00261,277448954.20700,  -0.00207,   0.00069,  -0.00050,-51329323.45299,   0.00000
200685029.79351,408706746.54143,136051011.64577,  -0.00195,   0.00216,   0.00127,425234045.62046,   0.00261,277448954.20700,  -0.00207,   0.00069,  -0.00050,-52214908.58654,   0.00000
200902816.87261,406447205.59576,136826878.11507,  -0.00195,   0.00215,   0.00128,424346165.26359,   0.00261,277448954.20700,  -0.00207,   0.00069,  -0.00050,-53102788.94342,   0.00000
201120603.95172,404187664.65009,137602744.58437,  -0.00194,   0.00214,   0.00129,423474018.46676,   0.00261,277448954.20700,  -0.00207,   0.00069,  -0.00050,-53974935.74024,   0.00000
201317973.49215,401880482.78086,138385416.89989,  -0.00193,   0.00213,   0.00130,422590410.85115,   0.00261,277448954.20700,  -0.00207,   0.00069,  -0.00050,-54858543.35586,   0.00000
201491522.57081,399563092.14231,139168089.21540,  -0.00193,   0.00212,   0.00131,421715773.52403,   0.00261,277448954.20700,  -0.00207,   0.00069,  -0.00050,-55733180.68298,   0.00000
201654862.88013,397221881.04197,139950761.53092,  -0.00192,   0.00211,   0.00132,420840622.45282,   0.00261,277448954.20700,  -0.00207,   0.00069,  -0.00050,-56608331.75419,   0.00000
201807994.42013,394856849.47986,140733433.84644,  -0.00192,   0.00210,   0.00133,419965269.42485,   0.00261,277448954.20700,  -0.00207,   0.00069,  -0.00050,-57483684.78215,   0.00000
201927096.72901,392457788.68664,141522912.00818,  -0.00191,   0.00208,   0.00134,419089501.54574,   0.00261,277448954.20700,  -0.00207,   0.00069,  -0.00050,-58359452.66126,   0.00000
202012169.80678,390024698.66231,142319196.01615,  -0.00191,   0.00207,   0.00135,418213710.11207,   0.00261,277448954.20700,  -0.00207,   0.00069,  -0.00050,-59235244.09493,   0.00000
202110854.57700,387577996.94553,143108674.17789,  -0.00190,   0.00206,   0.00136,417339261.21456,   0.00261,277448954.20700,  -0.00207,   0.00069,  -0.00050,-60109692.99245,   0.00000
202185718.88544,385121086.45942,143904958.18585,  -0.00190,   0.00205,   0.00137,416481984.48983,   0.00261,277448954.20700,  -0.00207,   0.00069,  -0.00050,-60966969.71718,   0.00000
202226553.96277,382630146.74221,144701242.19381,  -0.00189,   0.00204,   0.00138,415618552.01972,   0.00261,277448954.20700,  -0.00207,   0.00069,  -0.00050,-61830402.18728,   0.00000
202257180.27077,380115386.56321,145504332.04800,  -0.00189,   0.00203,   0.00140,414763956.65918,   0.00261,277448954.20700,  -0.00207,   0.00069,  -0.00050,-62684997.54783,   0.00000
202277597.80944,377576805.92244,146307421.90218,  -0.00188,   0.00202,   0.00141,413911496.29672,   0.00261,277448954.20700,  -0.00207,   0.00069,  -0.00050,-63537457.91029,   0.00000
202263986.11700,375004196.05056,147117317.60259,  -0.00188,   0.00200,   0.00142,413061180.75586,   0.00261,277448954.20700,  -0.00207,   0.00069,  -0.00050,-64387773.45115,   0.00000
202240165.65522,372407765.71691,147920407.45677,  -0.00187,   0.00199,   0.00143,412206454.54331,   0.00261,277448954.20700,  -0.00207,   0.00069,  -0.00050,-65242499.66370,   0.00000
202192524.73167,369801126.61392,148730303.15718,  -0.00187,   0.00198,   0.00144,411370606.74687,   0.00261,277448954.20700,  -0.00207,   0.00069,  -0.00050,-66078347.46014,   0.00000
202134675.03878,367170667.04915,149547004.70381,  -0.00186,   0.00197,   0.00145,410545639.33166,   0.00261,277448954.20700,  -0.00207,   0.00069,  -0.00050,-66903314.87534,   0.00000
202042796.11478,364506178.25327,150363706.25044,  -0.00186,   0.00196,   0.00146,409716890.62496,   0.00261,277448954.20700,  -0.00207,   0.00069,  -0.00050,-67732063.58204,   0.00000
201940708.42145,361817868.99562,151180407.79707,  -0.00185,   0.00195,   0.00147,408892419.05767,   0.00261,277448954.20700,  -0.00207,   0.00069,  -0.00050,-68556535.14933,   0.00000
201838620.72813,359129559.73797,151997109.34369,  -0.00185,   0.00193,   0.00148,408088248.10490,   0.00261,277448954.20700,  -0.00207,   0.00069,  -0.00050,-69360706.10210,   0.00000
201702503.80369,356407221.24921,152820616.73655,  -0.00184,   0.00192,   0.00149,407288842.46784,   0.00261,277448954.20700,  -0.00207,   0.00069,  -0.00050,-70160111.73916,   0.00000
201556178.10992,353661062.29867,153644124.12940,  -0.00184,   0.00191,   0.00150,406494795.16441,   0.00261,277448954.20700,  -0.00207,   0.00069,  -0.00050,-70954159.04260,   0.00000
201375823.18504,350880874.11702,154474437.36847,  -0.00183,   0.00190,   0.00151,405706470.88787,   0.00261,277448954.20700,  -0.00207,   0.00069,  -0.00050,-71742483.31913,   0.00000
201171647.79838,348090477.16604,155304750.60754,  -0.00183,   0.00188,   0.00152,404931813.98970,   0.00261,277448954.20700,  -0.00207,   0.00069,  -0.00050,-72517140.21730,   0.00000
200970875.33483,345262648.06084,156135063.84661,  -0.00183,   0.00187,   0.00153,404156314.76544,   0.00261,277448954.20700,  -0.00207,   0.00069,  -0.00050,-73292639.44157,   0.00000
200722461.94773,342414401.41697,156965377.08569,  -0.00182,   0.00186,   0.00154,403387228.57855,   0.00261,277448954.20700,  -0.00207,   0.00069,  -0.00050,-74061725.62846,   0.00000
200497869.02241,339576363.54244,157802496.17098,  -0.00182,   0.00185,   0.00156,402656240.84568,   0.00261,277448954.20700,  -0.00207,   0.00069,  -0.00050,-74792713.36133,   0.00000
200205217.63487,336670267.20568,158639615.25627,  -0.00181,   0.00183,   0.00157,401902272.27206,   0.00261,277448954.20700,  -0.00207,   0.00069,  -0.00050,-75546681.93495,   0.00000
199936386.70910,333774379.63826,159483540.18779,  -0.00181,   0.00182,   0.00158,401187301.10105,   0.00261,277448954.20700,  -0.00207,   0.00069,  -0.00050,-76261653.10595,   0.00000
199609706.09045,330834254.07040,160327465.11931,  -0.00180,   0.00181,   0.00159,400465102.63310,   0.00261,277448954.20700,  -0.00207,   0.00069,  -0.00050,-76983851.57391,   0.00000
199306845.93358,327904337.27187,161171390.05082,  -0.00180,   0.00180,   0.00160,399774367.51353,   0.00261,277448954.20700,  -0.00207,   0.00069,  -0.00050,-77674586.69348,   0.00000
198935927.31448,324906362.01112,162015314.98234,  -0.00180,   0.00178,   0.00161,399062633.80727,   0.00261,277448954.20700,  -0.00207,   0.00069,  -0.00050,-78386320.39973,   0.00000
198599037.92650,321942415.98148,162866045.76008,  -0.00179,   0.00177,   0.00162,398405684.66858,   0.00261,277448954.20700,  -0.00207,   0.00069,  -0.00050,-79043269.53842,   0.00000
198194090.07630,318910411.48962,163716776.53781,  -0.00179,   0.00176,   0.00163,397728723.92676,   0.00261,277448954.20700,  -0.00207,   0.00069,  -0.00050,-79720230.28025,   0.00000
197789142.22609,315878406.99777,164574313.16177,  -0.00178,   0.00174,   0.00164,397085012.66121,   0.00261,277448954.20700,  -0.00207,   0.00069,  -0.00050,-80363941.54579,   0.00000
197373985.60656,312822582.04413,165431849.78573,  -0.00178,   0.00173,   0.00165,396452404.45201,   0.00261,277448954.20700,  -0.00207,   0.00069,  -0.00050,-80996549.75500,   0.00000
196924799.75591,309732727.85939,166289386.40969,  -0.00177,   0.00172,   0.00167,395823400.20784,   0.00261,277448954.20700,  -0.00207,   0.00069,  -0.00050,-81625553.99916,   0.00000
196475613.90527,306642873.67464,167146923.03365,  -0.00177,   0.00170,   0.00168,395220133.11425,   0.00261,277448954.20700,  -0.00207,   0.00069,  -0.00050,-82228821.09275,   0.00000
195992398.82351,303518990.25879,168011265.50384,  -0.00177,   0.00169,   0.00169,394629875.78692,   0.00261,277448954.20700,  -0.00207,   0.00069,  -0.00050,-82819078.42008,   0.00000
195498974.97242,300371286.38116,168875607.97402,  -0.00176,   0.00168,   0.00170,394052525.94630,   0.00261,277448954.20700,  -0.00207,   0.00069,  -0.00050,-83396428.26071,   0.00000
194981730.65956,297213373.73419,169746756.29042,  -0.00176,   0.00166,   0.00171,393502694.58411,   0.00261,277448954.20700,  -0.00207,   0.00069,  -0.00050,-83946259.62289,   0.00000
194430457.11558,294021431.85612,170611098.76060,  -0.00176,   0.00165,   0.00172,392949773.77298,   0.00261,277448954.20700,  -0.00207,   0.00069,  -0.00050,-84499180.43403,   0.00000
193879183.57161,290829489.97805,171482247.07701,  -0.00175,   0.00164,   0.00173,392432961.37752,   0.00261,277448954.20700,  -0.00207,   0.00069,  -0.00050,-85015992.82948,   0.00000
193293880.79652,287603518.86886,172360201.23963,  -0.00175,   0.00162,   0.00174,391931658.63494,   0.00261,277448954.20700,  -0.00207,   0.00069,  -0.00050,-85517295.57206,   0.00000
192698369.25211,284353727.29790,173231349.55604,  -0.00174,   0.00161,   0.00176,391436464.32925,   0.00261,277448954.20700,  -0.00207,   0.00069,  -0.00050,-86012489.87775,   0.00000
192079037.24591,281093726.95761,174109303.71866,  -0.00174,   0.00160,   0.00177,390970556.89469,   0.00261,277448954.20700,  -0.00207,   0.00069,  -0.00050,-86478397.31231,   0.00000
191449496.47039,277809906.15554,174994063.72751,  -0.00174,   0.00158,   0.00178,390529709.53380,   0.00261,277448954.20700,  -0.00207,   0.00069,  -0.00050,-86919244.67320,   0.00000
190796135.23309,274515876.58414,175872017.89014,  -0.00173,   0.00157,   0.00179,390100581.17684,   0.00261,277448954.20700,  -0.00207,   0.00069,  -0.00050,-87348373.03016,   0.00000
190132565.22645,271198026.55096,176756777.89898,  -0.00173,   0.00156,   0.00180,389697396.82468,   0.00261,277448954.20700,  -0.00207,   0.00069,  -0.00050,-87751557.38232,   0.00000
189421354.29626,267859758.97912,177648343.75405,  -0.00173,   0.00154,   0.00181,389317022.17109,   0.00261,277448954.20700,  -0.00207,   0.00069,  -0.00050,-88131932.03592,   0.00000
188723755.05852,264507879.71483,178533103.76290,  -0.00172,   0.00153,   0.00182,388952903.66562,   0.00261,277448954.20700,  -0.00207,   0.00069,  -0.00050,-88496050.54138,   0.00000
187992126.58966,261121971.21943,179424669.61797,  -0.00172,   0.00151,   0.00184,388608395.49211,   0.00261,277448954.20700,  -0.00207,   0.00069,  -0.00050,-88840558.71489,   0.00000
187236677.65903,257725853.95470,180316235.47304,  -0.00172,   0.00150,   0.00185,388286351.73241,   0.00261,277448954.20700,  -0.00207,   0.00069,  -0.00050,-89162602.47460,   0.00000
186447199.49729,254295707.45886,181214607.17433,  -0.00171,   0.00149,   0.00186,387984979.20994,   0.00261,277448954.20700,  -0.00207,   0.00069,  -0.00050,-89463974.99706,   0.00000
185657721.33555,250865560.96302,182106173.02940,  -0.00171,   0.00147,   0.00187,387704998.06565,   0.00261,277448954.20700,  -0.00207,   0.00069,  -0.00050,-89743956.14136,   0.00000
184834213.94270,247401385.23607,183004544.73069,  -0.00171,   0.00146,   0.00188,387446617.83059,   0.00261,277448954.20700,  -0.00207,   0.00069,  -0.00050,-90002336.37642,   0.00000
184010706.54985,243937209.50912,183909722.27821,  -0.00171,   0.00144,   0.00189,387229391.80522,   0.00261,277448954.20700,  -0.00207,   0.00069,  -0.00050,-90219562.40179,   0.00000
183163378.69522,240462825.01284,184808093.97950,  -0.00170,   0.00143,   0.00191,387026232.74044,   0.00261,277448954.20700,  -0.00207,   0.00069,  -0.00050,-90422721.46656,   0.00000
182295633.30193,236940799.59301,185713271.52701,  -0.00170,   0.00142,   0.00192,386843152.94399,   0.00261,277448954.20700,  -0.00207,   0.00069,  -0.00050,-90605801.26302,   0.00000
181414276.21619,233432385.86561,186618449.07452,  -0.00170,   0.00140,   0.00193,386695212.87917,   0.00261,277448954.20700,  -0.00207,   0.00069,  -0.00050,-90753741.32783,   0.00000
180498889.89934,229889942.90711,187530432.46826,  -0.00169,   0.00139,   0.00194,386571267.57711,   0.00261,277448954.20700,  -0.00207,   0.00069,  -0.00050,-90877686.62990,   0.00000
179549474.35139,226313470.71750,188442415.86199,  -0.00169,   0.00137,   0.00195,386462117.61285,   0.00261,277448954.20700,  -0.00207,   0.00069,  -0.00050,-90986836.59415,   0.00000
178600058.80343,222736998.52789,189354399.25573,  -0.00169,   0.00136,   0.00197,386386045.34263,   0.00261,277448954.20700,  -0.00207,   0.00069,  -0.00050,-91062908.86438,   0.00000
177650643.25548,219160526.33828,190266382.64946,  -0.00169,   0.00134,   0.00198,386343070.30577,   0.00261,277448954.20700,  -0.00207,   0.00069,  -0.00050,-91105883.90123,   0.00000
176643378.01464,215539816.14823,191185171.88942,  -0.00168,   0.00133,   0.00199,386318423.02914,   0.00261,277448954.20700,  -0.00207,   0.00069,  -0.00050,-91130531.17787,   0.00000
175636112.77379,211919105.95817,192103961.12938,  -0.00168,   0.00131,   0.00200,386327450.78780,   0.00261,277448954.20700,  -0.00207,   0.00069,  -0.00050,-91121503.41920,   0.00000
174618638.76362,208274575.30634,193022750.36934,  -0.00168,   0.00130,   0.00201,386360830.53806,   0.00261,277448954.20700,  -0.00207,   0.00069,  -0.00050,-91088123.66894,   0.00000
173553523.82989,204609627.11585,193941539.60929,  -0.00168,   0.00129,   0.00202,386413205.91415,   0.00261,277448954.20700,  -0.00207,   0.00069,  -0.00050,-91035748.29285,   0.00000
172488408.89616,200944678.92535,194867134.69547,  -0.00167,   0.00127,   0.00204,386510009.96252,   0.00261,277448954.20700,  -0.00207,   0.00069,  -0.00050,-90938944.24448,   0.00000
171413085.19310,197255910.27308,195792729.78165,  -0.00167,   0.00126,   0.00205,386632221.71289,   0.00261,277448954.20700,  -0.00207,   0.00069,  -0.00050,-90816732.49411,   0.00000
170279911.79715,193522903.62037,196725130.71405,  -0.00167,   0.00124,   0.00206,386775943.91518,   0.00261,277448954.20700,  -0.00207,   0.00069,  -0.00050,-90673010.29182,   0.00000
169156947.17054,189813717.42943,197650725.80023,  -0.00167,   0.00123,   0.00207,386952761.14412,   0.00261,277448954.20700,  -0.00207,   0.00069,  -0.00050,-90496193.06289,   0.00000
168023773.77459,186080710.77671,198583126.73263,  -0.00166,   0.00121,   0.00209,387166386.57557,   0.00261,277448954.20700,  -0.00207,   0.00069,  -0.00050,-90282567.63143,   0.00000
166842959.45509,182327286.58533,199515527.66503,  -0.00166,   0.00120,   0.00210,387400472.13234,   0.00261,277448954.20700,  -0.00207,   0.00069,  -0.00050,-90048482.07467,   0.00000
165651936.36626,178550041.93218,200447928.59743,  -0.00166,   0.00118,   0.00211,387661756.62365,   0.00261,277448954.20700,  -0.00207,   0.00069,  -0.00050,-89787197.58335,   0.00000
164437092.81565,174762588.50969,201387135.37606,  -0.00166,   0.00117,   0.00212,387961857.31811,   0.00261,277448954.20700,  -0.00207,   0.00069,  -0.00050,-89487096.88889,   0.00000
163222249.26504,170975135.08720,202326342.15468,  -0.00166,   0.00115,   0.00213,388297436.95391,   0.00261,277448954.20700,  -0.00207,   0.00069,  -0.00050,-89151517.25310,   0.00000
161973376.48332,167153652.43360,203265548.93330,  -0.00166,   0.00114,   0.00215,388653993.78442,   0.00261,277448954.20700,  -0.00207,   0.00069,  -0.00050,-88794960.42258,   0.00000
160700683.23982,163321961.01066,204211561.55815,  -0.00165,   0.00112,   0.00216,389050006.35096,   0.00261,277448954.20700,  -0.00207,   0.00069,  -0.00050,-88398947.85604,   0.00000
159404169.53455,159480060.81840,205150768.33677,  -0.00165,   0.00111,   0.00217,389464126.28003,   0.00261,277448954.20700,  -0.00207,   0.00069,  -0.00050,-87984827.92698,   0.00000
158107655.82928,155638160.62613,206096780.96161,  -0.00165,   0.00109,   0.00218,389924778.01360,   0.00261,277448954.20700,  -0.00207,   0.00069,  -0.00050,-87524176.19340,   0.00000
156777112.89290,151762231.20276,207042793.58646,  -0.00165,   0.00108,   0.00220,390407669.77709,   0.00261,277448954.20700,  -0.00207,   0.00069,  -0.00050,-87041284.42992,   0.00000
155422749.49474,147876093.01005,207995612.05753,  -0.00165,   0.00106,   0.00221,390930665.06711,   0.00261,277448954.20700,  -0.00207,   0.00069,  -0.00050,-86518289.13989,   0.00000
154068386.09658,143989954.81734,208948430.52859,  -0.00165,   0.00105,   0.00222,391489737.52956,   0.00261,277448954.20700,  -0.00207,   0.00069,  -0.00050,-85959216.67744,   0.00000
152656173.00553,140059578.62419,209894443.15344,  -0.00165,   0.00103,   0.00223,392054416.19196,   0.00261,277448954.20700,  -0.00207,   0.00069,  -0.00050,-85394538.01504,   0.00000
151254168.68382,136153022.89282,210854067.47073,  -0.00164,   0.00102,   0.00224,392683167.70966,   0.00261,277448954.20700,  -0.00207,   0.00069,  -0.00050,-84765786.49735,   0.00000
149841955.59278,132222646.69967,211806885.94179,  -0.00164,   0.00100,   0.00226,393331171.91252,   0.00261,277448954.20700,  -0.00207,   0.00069,  -0.00050,-84117782.29448,   0.00000
148382101.57818,128271852.96785,212766510.25908,  -0.00164,   0.00099,   0.00227,394013239.47216,   0.00261,277448954.20700,  -0.00207,   0.00069,  -0.00050,-83435714.73484,   0.00000
146912038.79425,124297238.77426,213726134.57637,  -0.00164,   0.00097,   0.00228,394726198.45614,   0.00261,277448954.20700,  -0.00207,   0.00069,  -0.00050,-82722755.75087,   0.00000
145428364.31787,120336236.27311,214685758.89366,  -0.00164,   0.00096,   0.00229,395474199.05023,   0.00261,277448954.20700,  -0.00207,   0.00069,  -0.00050,-81974755.15678,   0.00000
143910660.61039,116341204.54086,215645383.21095,  -0.00164,   0.00094,   0.00231,396246903.34467,   0.00261,277448954.20700,  -0.00207,   0.00069,  -0.00050,-81202050.86233,   0.00000
142392956.90290,112346172.80860,216611813.37446,  -0.00164,   0.00093,   0.00232,397066928.93952,   0.00261,277448954.20700,  -0.00207,   0.00069,  -0.00050,-80382025.26748,   0.00000
140827612.27186,108330723.53767,217578243.53797,  -0.00164,   0.00091,   0.00233,397910644.60768,   0.00261,277448954.20700,  -0.00207,   0.00069,  -0.00050,-79538309.59933,   0.00000
139262267.64082,104315274.26675,218544673.70148,  -0.00164,   0.00090,   0.00234,398790417.63777,   0.00261,277448954.20700,  -0.00207,   0.00069,  -0.00050,-78658536.56924,   0.00000
137696923.00979,100299824.99583,219511103.86499,  -0.00164,   0.00088,   0.00236,399706009.93766,   0.00261,277448954.20700,  -0.00207,   0.00069,  -0.00050,-77742944.26934,   0.00000
136073728.68586,96240137.72446,220484339.87472,  -0.00164,   0.00087,   0.00237,400652594.83530,   0.00261,277448954.20700,  -0.00207,   0.00069,  -0.00050,-76796359.37170,   0.00000
134460743.13127,92204270.91487,221450770.03823,  -0.00163,   0.00085,   0.00238,401627681.91802,   0.00261,277448954.20700,  -0.00207,   0.00069,  -0.00050,-75821272.28898,   0.00000
132789907.88379,88124166.10484,222424006.04796,  -0.00163,   0.00083,   0.00240,402634255.60592,   0.00261,277448954.20700,  -0.00207,   0.00069,  -0.00050,-74814698.60108,   0.00000
131119072.63632,84044061.29481,223397242.05770,  -0.00163,   0.00082,   0.00241,403676627.19970,   0.00261,277448954.20700,  -0.00207,   0.00069,  -0.00050,-73772327.00731,   0.00000
129448237.38884,79963956.48478,224377283.91365,  -0.00163,   0.00080,   0.00242,404765838.34062,   0.00261,277448954.20700,  -0.00207,   0.00069,  -0.00050,-72683115.86639,   0.00000
127739969.98714,75887254.59785,225350519.92338,  -0.00163,   0.00079,   0.00243,405870804.82242,   0.00261,277448954.20700,  -0.00207,   0.00069,  -0.00050,-71578149.38459,   0.00000
126021493.81611,71786732.24916,226330561.77934,  -0.00163,   0.00077,   0.00245,407019225.81432,   0.00261,277448954.20700,  -0.00207,   0.00069,  -0.00050,-70429728.39268,   0.00000
124255376.72152,67665792.36179,227310603.63529,  -0.00163,   0.00076,   0.00246,408191806.81905,   0.00261,277448954.20700,  -0.00207,   0.00069,  -0.00050,-69257147.38795,   0.00000
122489259.62694,63544852.47443,228290645.49125,  -0.00163,   0.00074,   0.00247,409399391.21069,   0.00261,277448954.20700,  -0.00207,   0.00069,  -0.00050,-68049562.99631,   0.00000
120689113.30125,59389883.35596,229277493.19342,  -0.00163,   0.00073,   0.00248,410645607.07301,   0.00261,277448954.20700,  -0.00207,   0.00069,  -0.00050,-66803347.13400,   0.00000
118899175.74489,55258734.69926,230264340.89560,  -0.00163,   0.00071,   0.00250,411928784.87571,   0.00261,277448954.20700,  -0.00207,   0.00069,  -0.00050,-65520169.33129,   0.00000
117061597.26497,51107168.50390,231244382.75155,  -0.00163,   0.00070,   0.00251,413224596.45137,   0.00261,277448954.20700,  -0.00207,   0.00069,  -0.00050,-64224357.75564,   0.00000
115224018.78506,46955602.30854,232231230.45373,  -0.00163,   0.00068,   0.00252,414566066.00738,   0.00261,277448954.20700,  -0.00207,   0.00069,  -0.00050,-62882888.19963,   0.00000
113362619.84337,42793827.34384,233224884.00213,  -0.00163,   0.00067,   0.00254,415947970.79572,   0.00261,277448954.20700,  -0.00207,   0.00069,  -0.00050,-61500983.41128,   0.00000
111453579.97812,38611634.84048,234211731.70430,  -0.00163,   0.00065,   0.00255,417342496.88595,   0.00261,277448954.20700,  -0.00207,   0.00069,  -0.00050,-60106457.32105,   0.00000
109568360.57465,34439651.10646,235205385.25270,  -0.00164,   0.00064,   0.00256,418786985.05621,   0.00261,277448954.20700,  -0.00207,   0.00069,  -0.00050,-58661969.15080,   0.00000
107635500.24763,30247249.83376,236199038.80110,  -0.00164,   0.00062,   0.00257,420255371.12663,   0.00261,277448954.20700,  -0.00207,   0.00069,  -0.00050,-57193583.08038,   0.00000
105678819.45884,26044639.79174,237192692.34950,  -0.00164,   0.00060,   0.00259,421752402.80250,   0.00261,277448954.20700,  -0.00207,   0.00069,  -0.00050,-55696551.40450,   0.00000
103722138.67004,21842029.74971,238186345.89789,  -0.00164,   0.00059,   0.00260,423282482.97315,   0.00261,277448954.20700,  -0.00207,   0.00069,  -0.00050,-54166471.23386,   0.00000
101717816.95769,17619002.16902,239179999.44629,  -0.00164,   0.00057,   0.00261,424836431.45551,   0.00261,277448954.20700,  -0.00207,   0.00069,  -0.00050,-52612522.75150,   0.00000
99723704.01467,13419795.05010,240180458.84091,  -0.00164,   0.00056,   0.00263,426434748.58315,   0.00261,277448954.20700,  -0.00207,   0.00069,  -0.00050,-51014205.62386,   0.00000
97695561.84054,9186558.70008,241174112.38931,  -0.00164,   0.00054,   0.00264,428049281.17078,   0.00261,277448954.20700,  -0.00207,   0.00069,  -0.00050,-49399673.03623,   0.00000
95653807.97397,4966934.04250,242174571.78393,  -0.00164,   0.00053,   0.00265,429703135.79816,   0.00261,277448954.20700,  -0.00207,   0.00069,  -0.00050,-47745818.40884,   0.00000
93578024.87629,713280.15381,243175031.17855,  -0.00164,   0.00051,   0.00266,431384857.78527,   0.00261,277448954.20700,  -0.00207,   0.00069,  -0.00050,-46064096.42174,   0.00000
91512450.54794,-3516553.27311,244182296.41939,  -0.00164,   0.00050,   0.00268,433109322.01196,   0.00261,277448954.20700,  -0.00207,   0.00069,  -0.00050,-44339632.19504,   0.00000
89399235.29604,-7766804.23869,245182755.81401,  -0.00164,   0.00048,   0.00269,434845540.53697,   0.00261,277448954.20700,  -0.00207,   0.00069,  -0.00050,-42603413.67003,   0.00000
87286020.04414,-12017055.20427,246190021.05485,  -0.00165,   0.00047,   0.00270,436624276.96285,   0.00261,277448954.20700,  -0.00207,   0.00069,  -0.00050,-40824677.24416,   0.00000
85125163.86868,-16287723.70851,247190480.44947,  -0.00165,   0.00045,   0.00272,438414734.57394,   0.00261,277448954.20700,  -0.00207,   0.00069,  -0.00050,-39034219.63307,   0.00000
82974516.46256,-20534571.75098,248197745.69032,  -0.00165,   0.00044,   0.00273,440246122.16152,   0.00261,277448954.20700,  -0.00207,   0.00069,  -0.00050,-37202832.04548,   0.00000
80789839.82533,-24815449.02456,249205010.93116,  -0.00165,   0.00042,   0.00274,442105251.38340,   0.00261,277448954.20700,  -0.00207,   0.00069,  -0.00050,-35343702.82361,   0.00000
78591551.49566,-29082714.60569,250212276.17200,  -0.00165,   0.00041,   0.00276,443989460.86525,   0.00261,277448954.20700,  -0.00207,   0.00069,  -0.00050,-33459493.34175,   0.00000
76369442.70420,-33360188.95616,251226347.25906,  -0.00165,   0.00039,   0.00277,445911342.86607,   0.00261,277448954.20700,  -0.00207,   0.00069,  -0.00050,-31537611.34093,   0.00000
74123513.45098,-37647872.07596,252233612.49991,  -0.00166,   0.00038,   0.00278,447847782.05842,   0.00261,277448954.20700,  -0.00207,   0.00069,  -0.00050,-29601172.14859,   0.00000
71863972.50530,-41921943.50331,253247683.58697,  -0.00166,   0.00036,   0.00280,449819658.32223,   0.00261,277448954.20700,  -0.00207,   0.00069,  -0.00050,-27629295.88478,   0.00000
69580611.09785,-46206223.70000,254261754.67403,  -0.00166,   0.00035,   0.00281,451817057.55836,   0.00261,277448954.20700,  -0.00207,   0.00069,  -0.00050,-25631896.64865,   0.00000
67273429.22863,-50500712.66602,255275825.76110,  -0.00166,   0.00033,   0.00282,453839877.08609,   0.00261,277448954.20700,  -0.00207,   0.00069,  -0.00050,-23609077.12091,   0.00000
64966247.35940,-54795201.63205,256289896.84816,  -0.00166,   0.00032,   0.00284,455890885.76162,   0.00261,277448954.20700,  -0.00207,   0.00069,  -0.00050,-21558068.44538,   0.00000
62611424.56662,-59110108.13673,257303967.93522,  -0.00167,   0.00030,   0.00285,457964146.18675,   0.00261,277448954.20700,  -0.00207,   0.00069,  -0.00050,-19484808.02025,   0.00000
60266810.54318,-63401194.17964,258318039.02229,  -0.00167,   0.00029,   0.00286,460062403.90544,   0.00261,277448954.20700,  -0.00207,   0.00069,  -0.00050,-17386550.30157,   0.00000
57874555.59618,-67712697.76122,259338915.95557,  -0.00167,   0.00027,   0.00288,462194045.72295,   0.00261,277448954.20700,  -0.00207,   0.00069,  -0.00050,-15254908.48406,   0.00000
55492509.41851,-72000380.88102,260359792.88886,  -0.00167,   0.00026,   0.00289,464349674.83798,   0.00261,277448954.20700,  -0.00207,   0.00069,  -0.00050,-13099279.36902,   0.00000
53086642.77907,-76298272.77015,261373863.97592,  -0.00168,   0.00024,   0.00290,466517874.82323,   0.00261,277448954.20700,  -0.00207,   0.00069,  -0.00050,-10931079.38377,   0.00000
50633135.21607,-80616582.19795,262394740.90921,  -0.00168,   0.00023,   0.00291,468719125.04677,   0.00261,277448954.20700,  -0.00207,   0.00069,  -0.00050,-8729829.16024,   0.00000
48179627.65307,-84934891.62575,263415617.84250,  -0.00168,   0.00021,   0.00293,470946607.33419,   0.00261,277448954.20700,  -0.00207,   0.00069,  -0.00050,-6502346.87282,   0.00000
45712508.39763,-89239589.36111,264436494.77578,  -0.00168,   0.00020,   0.00294,473194127.73123,   0.00261,277448954.20700,  -0.00207,   0.00069,  -0.00050,-4254826.47578,   0.00000
43221568.68042,-93554495.86579,265457371.70907,  -0.00169,   0.00018,   0.00295,475465002.23295,   0.00261,277448954.20700,  -0.00207,   0.00069,  -0.00050,-1983951.97405,   0.00000
41061027.16735,-97264991.07302,266343898.25383,  -0.00169,   0.00017,   0.00297,477448953.59870,   0.00261,277448954.20700,  -0.00207,   0.00069,  -0.00050,  -5.01538,   0.00000
40687000.07959,-97794345.77189,266309166.57558,  -0.00169,   0.00017,   0.00297,477451401.92607,   0.00261,277451407.06114,  -0.00207,   0.00069,  -0.00049,  -5.13506,   1.00000
37950426.15898,-101642517.99318,266050168.10001,  -0.00169,   0.00015,   0.00298,477469254.53005,   0.00263,277469259.64121,  -0.00206,   0.00069,  -0.00048,  -5.11115,   1.00000
35197653.20799,-105477905.91502,265780072.68396,  -0.00170,   0.00014,   0.00299,477487360.34448,   0.00265,277487364.08261,  -0.00206,   0.00069,  -0.00046,  -3.73814,   1.00000
32441423.83980,-109282140.48915,265500286.78239,  -0.00170,   0.00012,   0.00301,477505504.98708,   0.00266,277505510.94540,  -0.00206,   0.00068,  -0.00044,  -5.95832,   1.00000
29680137.43204,-113050342.16952,265212118.33469,  -0.00170,   0.00011,   0.00302,477523866.68070,   0.00268,277523871.92411,  -0.00206,   0.00068,  -0.00043,  -5.24341,   1.00000
26893929.18638,-116830232.00539,264910143.20721,  -0.00171,   0.00009,   0.00303,477542419.52532,   0.00270,277542427.92752,  -0.00206,   0.00068,  -0.00041,  -8.40220,   1.00000
24104117.19997,-120576089.98729,264599461.10083,  -0.00171,   0.00008,   0.00305,477561102.46934,   0.00272,277561107.83483,  -0.00206,   0.00068,  -0.00039,  -5.36549,   1.00000
21310924.33401,-124287900.69756,264280304.25120,  -0.00171,   0.00007,   0.00306,477579904.77877,   0.00273,277579908.44940,  -0.00205,   0.00067,  -0.00037,  -3.67063,   1.00000
18504106.47735,-127988120.32887,263950124.89207,  -0.00172,   0.00005,   0.00307,477598860.97001,   0.00275,277598865.45504,  -0.00205,   0.00067,  -0.00036,  -4.48503,   1.00000
15694389.21633,-131654085.81313,263611801.05235,  -0.00172,   0.00004,   0.00309,477617930.55854,   0.00277,277617938.71298,  -0.00205,   0.00067,  -0.00034,  -8.15444,   1.00000
12871018.99018,-135305215.86971,263263278.63441,  -0.00173,   0.00002,   0.00310,477637249.60094,   0.00279,277637252.03203,  -0.00205,   0.00066,  -0.00032,  -2.43110,   1.00000
10045765.71149,-138924837.61133,262906305.04014,  -0.00173,   0.00001,   0.00311,477656581.62930,   0.00281,277656590.98501,  -0.00205,   0.00066,  -0.00030,  -9.35571,   1.00000
7207906.56390,-142532225.87864,262538688.12993,  -0.00173,  -0.00001,   0.00313,477676079.15028,   0.00283,277676081.36327,  -0.00204,   0.00066,  -0.00028,  -2.21299,   1.00000
4367708.55446,-146101885.88891,262164244.00423,  -0.00174,  -0.00002,   0.00314,477695761.85901,   0.00284,277695764.94197,  -0.00204,   0.00065,  -0.00027,  -3.08296,   1.00000
1515467.22093,-149658959.54630,261779348.57237,  -0.00174,  -0.00003,   0.00316,477715591.20236,   0.00286,277715597.39037,  -0.00204,   0.00065,  -0.00025,  -6.18801,   1.00000
-1337952.35302,-153184484.69804,261386576.59121,  -0.00175,  -0.00005,   0.00317,477735439.54073,   0.00288,277735447.69057,  -0.00204,   0.00065,  -0.00023,  -8.14984,   1.00000
-4203184.86944,-156693868.13890,260984240.27983,  -0.00175,  -0.00006,   0.00318,477755526.18781,   0.00290,277755529.74423,  -0.00204,   0.00064,  -0.00021,  -3.55642,   1.00000
-7069416.36673,-160168322.51368,260575040.59416,  -0.00176,  -0.00008,   0.00320,477775707.80225,   0.00292,277775710.70579,  -0.00204,   0.00064,  -0.00019,  -2.90354,   1.00000
-9936460.62635,-163607903.07879,260159187.27538,  -0.00176,  -0.00009,   0.00321,477795985.62972,   0.00294,277795987.66711,  -0.00203,   0.00064,  -0.00017,  -2.03739,   1.00000
-12814282.18977,-167037822.89885,259732593.32445,  -0.00176,  -0.00010,   0.00322,477816314.51111,   0.00296,277816322.76190,  -0.00203,   0.00063,  -0.00015,  -8.25079,   1.00000
-15716239.06611,-170439406.37687,259300411.61712,  -0.00177,  -0.00012,   0.00324,477836829.21475,   0.00298,277836834.21455,  -0.00203,   0.00063,  -0.00014,  -4.99980,   1.00000
-18604710.29040,-173817333.30619,258858384.64165,  -0.00177,  -0.00013,   0.00325,477857478.09457,   0.00300,277857486.55975,  -0.00203,   0.00062,  -0.00012,  -8.46517,   1.00000
-21493022.58661,-177156515.40885,258411121.44541,  -0.00178,  -0.00015,   0.00326,477878305.68533,   0.00302,277878310.51614,  -0.00203,   0.00062,  -0.00010,  -4.83081,   1.00000
-24381228.10672,-180464425.34238,257957148.23173,  -0.00178,  -0.00016,   0.00328,477899131.35542,   0.00304,277899136.32574,  -0.00203,   0.00061,  -0.00008,  -4.97031,   1.00000
-27279074.61100,-183758680.92506,257493678.43057,  -0.00179,  -0.00017,   0.00329,477920095.05219,   0.00306,277920098.32159,  -0.00202,   0.00061,  -0.00006,  -3.26939,   1.00000
-30199976.69130,-187027871.99073,257024320.38568,  -0.00179,  -0.00019,   0.00330,477941136.46761,   0.00308,277941145.97417,  -0.00202,   0.00061,  -0.00004,  -9.50655,   1.00000
-33096278.25032,-190252050.41048,256549769.24225,  -0.00180,  -0.00020,   0.00332,477962261.91625,   0.00310,277962269.61469,  -0.00202,   0.00060,  -0.00002,  -7.69844,   1.00000
-36001537.64575,-193462365.03276,256066004.24765,  -0.00181,  -0.00021,   0.00333,477983525.21110,   0.00312,277983525.64846,  -0.00202,   0.00060,   0.00000,  -0.43736,   1.00000
-38918970.55051,-196622609.76815,255581614.74352,  -0.00181,  -0.00023,   0.00334,478004887.80591,   0.00314,278004888.91912,  -0.00202,   0.00059,   0.00002,  -1.11321,   1.00000
-41821619.08358,-199763134.89533,255087690.46792,  -0.00182,  -0.00024,   0.00336,478026285.50762,   0.00316,278026293.79693,  -0.00202,   0.00059,   0.00004,  -8.28930,   1.00000
-44756196.89747,-202899387.60623,254584274.21664,  -0.00182,  -0.00025,   0.00337,478047834.15979,   0.00318,278047835.07211,  -0.00201,   0.00058,   0.00006,  -0.91232,   1.00000
-47654944.36995,-205966035.77959,254081813.20342,  -0.00183,  -0.00027,   0.00338,478069456.29553,   0.00320,278069461.63841,  -0.00201,   0.00058,   0.00008,  -5.34287,   1.00000
-50585819.65104,-209032586.05605,253568976.04873,  -0.00183,  -0.00028,   0.00340,478091141.23441,   0.00322,278091141.66093,  -0.00201,   0.00057,   0.00010,  -0.42652,   1.00000
-53514536.87418,-212064319.82335,253051624.60505,  -0.00184,  -0.00029,   0.00341,478112885.91908,   0.00324,278112888.36749,  -0.00201,   0.00057,   0.00012,  -2.44841,   1.00000
-56426192.86068,-215067825.31522,252527414.53345,  -0.00185,  -0.00030,   0.00342,478134825.55662,   0.00326,278134830.12083,  -0.00201,   0.00056,   0.00014,  -4.56421,   1.00000
-59350271.38378,-218030258.06174,252001547.32383,  -0.00185,  -0.00032,   0.00344,478156703.09928,   0.00328,278156703.10285,  -0.00201,   0.00056,   0.00016,  -0.00357,   1.00000
-62281268.45750,-220978446.78593,251467192.51594,  -0.00186,  -0.00033,   0.00345,478178689.52155,   0.00331,278178698.59126,  -0.00201,   0.00055,   0.00018,  -9.06971,   1.00000
-65208549.35590,-223887595.31350,250930005.95306,  -0.00186,  -0.00034,   0.00346,478200824.54759,   0.00333,278200832.66921,  -0.00200,   0.00055,   0.00020,  -8.12162,   1.00000
-68133830.49798,-226766826.30597,250387870.58796,  -0.00187,  -0.00036,   0.00348,478222936.58694,   0.00335,278222944.18885,  -0.00200,   0.00054,   0.00022,  -7.60190,   1.00000
-71056063.19212,-229611759.67461,249842061.48347,  -0.00188,  -0.00037,   0.00349,478245108.33994,   0.00337,278245110.70968,  -0.00200,   0.00054,   0.00024,  -2.36974,   1.00000
-73997523.59128,-232427172.56594,249292826.25180,  -0.00188,  -0.00038,   0.00351,478267423.64631,   0.00339,278267424.13281,  -0.00200,   0.00053,   0.00026,  -0.48650,   1.00000
-76922367.93970,-235223621.18830,248735364.99496,  -0.00189,  -0.00039,   0.00352,478289755.39391,   0.00341,278289761.05268,  -0.00200,   0.00053,   0.00029,  -5.65876,   1.00000
-79843695.36111,-237985940.00207,248174576.64040,  -0.00190,  -0.00041,   0.00353,478312144.84452,   0.00343,278312148.21741,  -0.00200,   0.00052,   0.00031,  -3.37289,   1.00000
-82751059.47393,-240689932.15323,247616599.63965,  -0.00190,  -0.00042,   0.00355,478334585.45760,   0.00345,278334594.79889,  -0.00200,   0.00052,   0.00033,  -9.34128,   1.00000
-85688454.22006,-243393640.13012,247048280.24643,  -0.00191,  -0.00043,   0.00356,478357093.36313,   0.00348,278357094.50544,  -0.00200,   0.00051,   0.00035,  -1.14231,   1.00000
-88621818.42553,-246063487.23629,246476910.11554,  -0.00192,  -0.00044,   0.00357,478379634.20828,   0.00350,278379640.50881,  -0.00200,   0.00050,   0.00037,  -6.30054,   1.00000
-91527719.33122,-248690719.37037,245904022.21245,  -0.00193,  -0.00045,   0.00359,478402202.50840,   0.00352,278402211.31380,  -0.00199,   0.00050,   0.00039,  -8.80540,   1.00000
-94452851.06098,-251293393.07507,245326988.33510,  -0.00193,  -0.00047,   0.00360,478424839.09670,   0.00354,278424843.77689,  -0.00199,   0.00049,   0.00041,  -4.68019,   1.00000
-97372135.11840,-253857706.30533,244748639.63122,  -0.00194,  -0.00048,   0.00361,478447584.03916,   0.00356,278447593.66149,  -0.00199,   0.00049,   0.00043,  -9.62233,   1.00000
-100297196.11472,-256412798.25037,244161373.76770,  -0.00195,  -0.00049,   0.00363,478470370.30835,   0.00359,278470376.74706,  -0.00199,   0.00048,   0.00045,  -6.43870,   1.00000
-103208925.00669,-258915564.53488,243576623.31938,  -0.00196,  -0.00050,   0.00364,478493123.21006,   0.00361,278493127.87283,  -0.00199,   0.00048,   0.00047,  -4.66277,   1.00000
-106116002.19353,-261385368.84603,242989525.68839,  -0.00196,  -0.00051,   0.00365,478515909.22068,   0.00363,278515915.34760,  -0.00199,   0.00047,   0.00049,  -6.12692,   1.00000
-109020032.58882,-263827450.96312,242398727.46514,  -0.00197,  -0.00052,   0.00367,478538653.94104,   0.00365,278538662.58858,  -0.00199,   0.00046,   0.00052,  -8.64754,   1.00000
-111925967.85661,-266250459.56741,241802123.89043,  -0.00198,  -0.00054,   0.00368,478561584.82991,   0.00367,278561590.57866,  -0.00199,   0.00046,   0.00054,  -5.74876,   1.00000
-114841511.82715,-268630488.51156,241206785.27679,  -0.00199,  -0.00055,   0.00369,478584496.78595,   0.00370,278584504.06810,  -0.00199,   0.00045,   0.00056,  -7.28215,   1.00000
-117728815.18995,-270969696.11653,240611274.27636,  -0.00200,  -0.00056,   0.00371,478607422.41426,   0.00372,278607423.28239,  -0.00199,   0.00044,   0.00058,  -0.86814,   1.00000
-120635885.68396,-273290170.09007,240010449.91067,  -0.00200,  -0.00057,   0.00372,478630317.11755,   0.00374,278630324.82593,  -0.00199,   0.00044,   0.00060,  -7.70837,   1.00000
-123520882.47528,-275583377.56372,239406035.15268,  -0.00201,  -0.00058,   0.00373,478653375.00877,   0.00376,278653376.01361,  -0.00199,   0.00043,   0.00062,  -1.00484,   1.00000
-126417251.09444,-277839565.07263,238801590.00681,  -0.00202,  -0.00059,   0.00375,478676330.52159,   0.00378,278676335.18539,  -0.00199,   0.00043,   0.00064,  -4.66380,   1.00000
-129306027.69339,-280058541.20765,238197063.41900,  -0.00203,  -0.00060,   0.00376,478699384.66676,   0.00381,278699394.46962,  -0.00199,   0.00042,   0.00066,  -9.80286,   1.00000
-132191244.87174,-282251120.20741,237589310.72634,  -0.00204,  -0.00061,   0.00377,478722398.52202,   0.00383,278722406.65655,  -0.00199,   0.00041,   0.00069,  -8.13453,   1.00000
-135070751.80735,-284412103.69401,236980027.01360,  -0.00205,  -0.00062,   0.00379,478745439.31247,   0.00385,278745443.65227,  -0.00199,   0.00041,   0.00071,  -4.33980,   1.00000
-137936642.30262,-286523693.96455,236374682.80105,  -0.00206,  -0.00064,   0.00380,478768420.23581,   0.00387,278768428.29779,  -0.00199,   0.00040,   0.00073,  -8.06199,   1.00000
-140804537.08706,-288622099.12645,235762572.08071,  -0.00206,  -0.00065,   0.00381,478791503.56935,   0.00389,278791511.44048,  -0.00199,   0.00039,   0.00075,  -7.87113,   1.00000
-143666477.90140,-290689374.38308,235149162.39528,  -0.00207,  -0.00066,   0.00383,478814615.89684,   0.00392,278814616.11316,  -0.00199,   0.00039,   0.00077,  -0.21631,   1.00000
-146537356.56487,-292715548.28322,234537633.76175,  -0.00208,  -0.00067,   0.00384,478837687.90331,   0.00394,278837697.35517,  -0.00199,   0.00038,   0.00079,  -9.45187,   1.00000
-149379515.40499,-294703444.55309,233927285.68893,  -0.00209,  -0.00068,   0.00385,478860759.60338,   0.00396,278860765.04535,  -0.00199,   0.00037,   0.00081,  -5.44196,   1.00000
-152247971.15074,-296691392.36363,233306102.48748,  -0.00210,  -0.00069,   0.00387,478883886.60576,   0.00398,278883892.77187,  -0.00199,   0.00037,   0.00083,  -6.16611,   1.00000
-155100113.60969,-298625623.29054,232691142.60647,  -0.00211,  -0.00070,   0.00388,478907030.19562,   0.00401,278907031.75802,  -0.00199,   0.00036,   0.00086,  -1.56240,   1.00000
-157948352.42483,-300535086.59160,232073302.67392,  -0.00212,  -0.00071,   0.00389,478930111.78593,   0.00403,278930118.56690,  -0.00199,   0.00035,   0.00088,  -6.78097,   1.00000
-160760586.77503,-302389838.35945,231462643.45256,  -0.00213,  -0.00072,   0.00391,478953106.99063,   0.00405,278953107.18239,  -0.00199,   0.00035,   0.00090,  -0.19175,   1.00000
-163596012.12542,-304239315.21995,230842906.34676,  -0.00214,  -0.00073,   0.00392,478976220.32722,   0.00407,278976226.86144,  -0.00199,   0.00034,   0.00092,  -6.53422,   1.00000
-166439940.83166,-306048788.67112,230225230.72261,  -0.00215,  -0.00074,   0.00393,478999314.46393,   0.00410,278999320.45717,  -0.00199,   0.00033,   0.00094,  -5.99324,   1.00000
-169254928.72430,-307821586.59715,229609385.57559,  -0.00216,  -0.00075,   0.00395,479022389.04518,   0.00412,279022391.24532,  -0.00199,   0.00033,   0.00096,  -2.20015,   1.00000
-172063267.41511,-309565004.50783,228992775.63324,  -0.00217,  -0.00075,   0.00396,479045475.64208,   0.00414,279045475.82137,  -0.00199,   0.00032,   0.00098,  -0.17929,   1.00000
-174882881.40732,-311274715.09162,228376325.50046,  -0.00218,  -0.00076,   0.00397,479068460.16776,   0.00416,279068465.10744,  -0.00199,   0.00031,   0.00100,  -4.93968,   1.00000
-177677559.68624,-312959805.50663,227758287.63827,  -0.00219,  -0.00077,   0.00399,479091570.91339,   0.00419,279091575.78996,  -0.00199,   0.00030,   0.00103,  -4.87657,   1.00000
-180483493.59094,-314611493.92144,227140402.16081,  -0.00220,  -0.00078,   0.00400,479114588.48671,   0.00421,279114591.30359,  -0.00199,   0.00030,   0.00105,  -2.81688,   1.00000
