# sigma_xx, sigma_yy, sigma_xy, epsilon_xx, epsilon_yy, epsilon_xy, vonMises, epsPlastic, hardening, epsilonP__xx, epsilonP__yy, epsilonP__xy, yieldValue, iteration
   0.00000,   0.00000,   0.00000,   0.00000,   0.00000,   0.00000,   0.00000,   0.00000,274640135.82653,   0.00000,   0.00000,   0.00000,-474640135.82653,   0.00000
   0.00000,   0.00000,   0.00000,   0.00000,   0.00000,   0.00000,   0.00000,   0.00000,274640135.82653,   0.00000,   0.00000,   0.00000,-474640135.82653,   0.00000
2174898.05165,2509497.75191,217489.80517,   0.00001,   0.00001,   0.00000,2389929.74305,   0.00000,274640135.82653,   0.00000,   0.00000,   0.00000,-472250206.08348,   0.00000
4321912.79495,4991112.19546,429402.94866,   0.00001,   0.00001,   0.00001,4751014.64671,   0.00000,274640135.82653,   0.00000,   0.00000,   0.00000,-469889121.17982,   0.00000
6496810.84661,7500609.94737,646892.75383,   0.00001,   0.00002,   0.00001,7140943.03309,   0.00000,274640135.82653,   0.00000,   0.00000,   0.00000,-467499192.79344,   0.00000
8671708.89826,10010107.69928,858805.89732,   0.00002,   0.00003,   0.00001,9529359.58324,   0.00000,274640135.82653,   0.00000,   0.00000,   0.00000,-465110776.24329,   0.00000
10818723.64156,12491722.14283,1070719.04081,   0.00002,   0.00004,   0.00001,11890447.06682,   0.00000,274640135.82653,   0.00000,   0.00000,   0.00000,-462749688.75971,   0.00000
12974103.37737,14992854.90223,1282632.18431,   0.00003,   0.00004,   0.00002,14266381.57009,   0.00000,274640135.82653,   0.00000,   0.00000,   0.00000,-460373754.25644,   0.00000
15129483.11317,17493987.66164,1488968.66613,   0.00003,   0.00005,   0.00002,16640821.96692,   0.00000,274640135.82653,   0.00000,   0.00000,   0.00000,-457999313.85961,   0.00000
17284862.84898,19995120.42104,1700881.80963,   0.00004,   0.00006,   0.00002,19016766.47131,   0.00000,274640135.82653,   0.00000,   0.00000,   0.00000,-455623369.35522,   0.00000
19440242.58478,22496253.18044,1907218.29145,   0.00004,   0.00006,   0.00002,21391219.33577,   0.00000,274640135.82653,   0.00000,   0.00000,   0.00000,-453248916.49076,   0.00000
21595622.32059,24997385.93984,2113554.77327,   0.00005,   0.00007,   0.00003,23765677.83210,   0.00000,274640135.82653,   0.00000,   0.00000,   0.00000,-450874457.99443,   0.00000
23751002.05639,27498518.69924,2319891.25510,   0.00005,   0.00008,   0.00003,26140140.42557,   0.00000,274640135.82653,   0.00000,   0.00000,   0.00000,-448499995.40096,   0.00000
25886863.47635,29991286.46614,2526227.73692,   0.00006,   0.00009,   0.00003,28502142.13080,   0.00000,274640135.82653,   0.00000,   0.00000,   0.00000,-446137993.69573,   0.00000
28042243.21216,32492419.22554,2726987.55707,   0.00006,   0.00009,   0.00004,30875131.94196,   0.00000,274640135.82653,   0.00000,   0.00000,   0.00000,-443765003.88457,   0.00000
30178104.63211,34985186.99244,2927747.37723,   0.00007,   0.00010,   0.00004,33235670.42449,   0.00000,274640135.82653,   0.00000,   0.00000,   0.00000,-441404465.40204,   0.00000
32313966.05207,37477954.75933,3134083.85905,   0.00007,   0.00011,   0.00004,35597690.68450,   0.00000,274640135.82653,   0.00000,   0.00000,   0.00000,-439042445.14203,   0.00000
34449827.47203,39970722.52623,3329267.01753,   0.00008,   0.00011,   0.00004,37956775.86127,   0.00000,274640135.82653,   0.00000,   0.00000,   0.00000,-436683359.96526,   0.00000
36585688.89199,42463490.29312,3530026.83768,   0.00008,   0.00012,   0.00005,40317339.48151,   0.00000,274640135.82653,   0.00000,   0.00000,   0.00000,-434322796.34502,   0.00000
38721550.31194,44956258.06002,3730786.65784,   0.00009,   0.00013,   0.00005,42677908.76168,   0.00000,274640135.82653,   0.00000,   0.00000,   0.00000,-431962227.06485,   0.00000
40857411.73190,47449025.82691,3925969.81632,   0.00009,   0.00014,   0.00005,45037023.41254,   0.00000,274640135.82653,   0.00000,   0.00000,   0.00000,-429603112.41399,   0.00000
42973754.83601,49933428.60130,4121152.97480,   0.00010,   0.00014,   0.00005,47383706.93897,   0.00000,274640135.82653,   0.00000,   0.00000,   0.00000,-427256428.88756,   0.00000
45109616.25597,52426196.36820,4316336.13328,   0.00010,   0.00015,   0.00006,49742840.86494,   0.00000,274640135.82653,   0.00000,   0.00000,   0.00000,-424897294.96159,   0.00000
47225959.36008,54910599.14259,4511519.29176,   0.00011,   0.00016,   0.00006,52089546.27459,   0.00000,274640135.82653,   0.00000,   0.00000,   0.00000,-422550589.55194,   0.00000
49361820.78004,57403366.90948,4701125.78857,   0.00011,   0.00016,   0.00006,54447249.00992,   0.00000,274640135.82653,   0.00000,   0.00000,   0.00000,-420192886.81661,   0.00000
51478163.88414,59887769.68387,4896308.94706,   0.00012,   0.00017,   0.00006,56793973.41324,   0.00000,274640135.82653,   0.00000,   0.00000,   0.00000,-417846162.41329,   0.00000
53586141.99575,62352654.14241,5085915.44387,   0.00012,   0.00018,   0.00007,59124356.41604,   0.00000,274640135.82653,   0.00000,   0.00000,   0.00000,-415515779.41049,   0.00000
55702485.09986,64837056.91680,5275521.94068,   0.00013,   0.00019,   0.00007,61469659.13640,   0.00000,274640135.82653,   0.00000,   0.00000,   0.00000,-413170476.69013,   0.00000
57799309.88812,67313094.69869,5459551.77582,   0.00013,   0.00019,   0.00007,63801117.84458,   0.00000,274640135.82653,   0.00000,   0.00000,   0.00000,-410839017.98195,   0.00000
59907287.99972,69777979.15723,5649158.27263,   0.00014,   0.00020,   0.00007,66131528.07024,   0.00000,274640135.82653,   0.00000,   0.00000,   0.00000,-408508607.75629,   0.00000
62023631.10383,72262381.93162,5833188.10777,   0.00014,   0.00021,   0.00008,68475437.84910,   0.00000,274640135.82653,   0.00000,   0.00000,   0.00000,-406164697.97743,   0.00000
64112090.89959,74718901.39765,6017217.94291,   0.00015,   0.00021,   0.00008,70792020.47253,   0.00000,274640135.82653,   0.00000,   0.00000,   0.00000,-403848115.35400,   0.00000
66208915.68785,77194939.17953,6201247.77805,   0.00015,   0.00022,   0.00008,73123541.72112,   0.00000,274640135.82653,   0.00000,   0.00000,   0.00000,-401516594.10541,   0.00000
68297375.48360,79651458.64557,6385277.61319,   0.00016,   0.00023,   0.00008,75440149.08505,   0.00000,274640135.82653,   0.00000,   0.00000,   0.00000,-399199986.74148,   0.00000
70385835.27936,82107978.11160,6563730.78666,   0.00016,   0.00024,   0.00009,77755353.13136,   0.00000,274640135.82653,   0.00000,   0.00000,   0.00000,-396884782.69517,   0.00000
72482660.06762,84584015.89349,6742183.96013,   0.00016,   0.00024,   0.00009,80085506.91381,   0.00000,274640135.82653,   0.00000,   0.00000,   0.00000,-394554628.91272,   0.00000
74571119.86337,87040535.35952,6920637.13360,   0.00017,   0.00025,   0.00009,82400741.33821,   0.00000,274640135.82653,   0.00000,   0.00000,   0.00000,-392239394.48832,   0.00000
76659579.65913,89497054.82556,7099090.30706,   0.00017,   0.00026,   0.00009,84715987.99441,   0.00000,274640135.82653,   0.00000,   0.00000,   0.00000,-389924147.83212,   0.00000
78720156.14653,91925690.98324,7277543.48053,   0.00018,   0.00026,   0.00009,87003901.15239,   0.00000,274640135.82653,   0.00000,   0.00000,   0.00000,-387636234.67414,   0.00000
80808615.94228,94382210.44927,7450419.99233,   0.00018,   0.00027,   0.00010,89317772.80030,   0.00000,274640135.82653,   0.00000,   0.00000,   0.00000,-385322363.02623,   0.00000
82877557.42219,96830364.92280,7623296.50413,   0.00019,   0.00028,   0.00010,91619260.61162,   0.00000,274640135.82653,   0.00000,   0.00000,   0.00000,-383020875.21491,   0.00000
84938133.90959,99259001.08048,7796173.01593,   0.00019,   0.00029,   0.00010,93905817.19529,   0.00000,274640135.82653,   0.00000,   0.00000,   0.00000,-380734318.63124,   0.00000
87007075.38949,101707155.55401,7963472.86606,   0.00020,   0.00029,   0.00010,96205952.04064,   0.00000,274640135.82653,   0.00000,   0.00000,   0.00000,-378434183.78588,   0.00000
89067651.87690,104135791.71169,8136349.37785,   0.00020,   0.00030,   0.00011,98492536.90396,   0.00000,274640135.82653,   0.00000,   0.00000,   0.00000,-376147598.92257,   0.00000
91108710.04845,106556062.87686,8303649.22798,   0.00021,   0.00031,   0.00011,100765360.70228,   0.00000,274640135.82653,   0.00000,   0.00000,   0.00000,-373874775.12424,   0.00000
93169286.53585,108984699.03454,8470949.07811,   0.00021,   0.00031,   0.00011,103050593.68935,   0.00000,274640135.82653,   0.00000,   0.00000,   0.00000,-371589542.13718,   0.00000
95210344.70740,111404970.19971,8638248.92824,   0.00022,   0.00032,   0.00011,105323452.01002,   0.00000,274640135.82653,   0.00000,   0.00000,   0.00000,-369316683.81651,   0.00000
97270921.19480,113833606.35739,8799972.11669,   0.00022,   0.00033,   0.00011,107607345.57115,   0.00000,274640135.82653,   0.00000,   0.00000,   0.00000,-367032790.25538,   0.00000
99303614.37385,116234359.20672,8967271.96682,   0.00023,   0.00034,   0.00012,109865272.05551,   0.00000,274640135.82653,   0.00000,   0.00000,   0.00000,-364774863.77102,   0.00000
101344672.54540,118654630.37189,9128995.15528,   0.00023,   0.00034,   0.00012,112136813.57442,   0.00000,274640135.82653,   0.00000,   0.00000,   0.00000,-362503322.25211,   0.00000
103377365.72444,121055383.22122,9285141.68206,   0.00023,   0.00035,   0.00012,114392047.34140,   0.00000,274640135.82653,   0.00000,   0.00000,   0.00000,-360248088.48513,   0.00000
105410058.90349,123456136.07054,9446864.87052,   0.00024,   0.00036,   0.00012,116648657.27456,   0.00000,274640135.82653,   0.00000,   0.00000,   0.00000,-357991478.55197,   0.00000
107423233.76669,125848523.92736,9603011.39730,   0.00024,   0.00036,   0.00012,118891548.08580,   0.00000,274640135.82653,   0.00000,   0.00000,   0.00000,-355748587.74073,   0.00000
109455926.94573,128249276.77669,9759157.92409,   0.00025,   0.00037,   0.00013,121146840.47776,   0.00000,274640135.82653,   0.00000,   0.00000,   0.00000,-353493295.34877,   0.00000
111469101.80893,130641664.63351,9915304.45087,   0.00025,   0.00038,   0.00013,123389772.54150,   0.00000,274640135.82653,   0.00000,   0.00000,   0.00000,-351250363.28503,   0.00000
113473911.67962,133014534.17448,10071450.97766,   0.00026,   0.00038,   0.00013,125617744.78510,   0.00000,274640135.82653,   0.00000,   0.00000,   0.00000,-349022391.04143,   0.00000
115478721.55031,135387403.71545,10222020.84277,   0.00026,   0.00039,   0.00013,127844393.89726,   0.00000,274640135.82653,   0.00000,   0.00000,   0.00000,-346795741.92926,   0.00000
117491896.41351,137779791.57227,10378167.36956,   0.00027,   0.00040,   0.00013,130087381.26009,   0.00000,274640135.82653,   0.00000,   0.00000,   0.00000,-344552754.56644,   0.00000
119496706.28420,140152661.11324,10528737.23467,   0.00027,   0.00040,   0.00014,132314068.68949,   0.00000,274640135.82653,   0.00000,   0.00000,   0.00000,-342326067.13704,   0.00000
121473632.84654,142497647.34586,10673730.43812,   0.00027,   0.00041,   0.00014,134512087.35742,   0.00000,274640135.82653,   0.00000,   0.00000,   0.00000,-340128048.46911,   0.00000
123478442.71723,144870516.88683,10824300.30323,   0.00028,   0.00042,   0.00014,136738813.39717,   0.00000,274640135.82653,   0.00000,   0.00000,   0.00000,-337901322.42936,   0.00000
125455369.27957,147215503.11945,10969293.50667,   0.00028,   0.00043,   0.00014,138936873.91173,   0.00000,274640135.82653,   0.00000,   0.00000,   0.00000,-335703261.91480,   0.00000
127432295.84190,149560489.35206,11114286.71012,   0.00029,   0.00043,   0.00014,141134955.20465,   0.00000,274640135.82653,   0.00000,   0.00000,   0.00000,-333505180.62188,   0.00000
129409222.40424,151905475.58468,11259279.91356,   0.00029,   0.00044,   0.00015,143333056.32000,   0.00000,274640135.82653,   0.00000,   0.00000,   0.00000,-331307079.50653,   0.00000
131386148.96657,154250461.81729,11404273.11701,   0.00030,   0.00045,   0.00015,145531176.35959,   0.00000,274640135.82653,   0.00000,   0.00000,   0.00000,-329108959.46693,   0.00000
133363075.52891,156595448.04991,11543689.65878,   0.00030,   0.00045,   0.00015,147728006.86239,   0.00000,274640135.82653,   0.00000,   0.00000,   0.00000,-326912128.96414,   0.00000
135331637.09874,158920915.96668,11683106.20055,   0.00031,   0.00046,   0.00015,149909861.97042,   0.00000,274640135.82653,   0.00000,   0.00000,   0.00000,-324730273.85611,   0.00000
137280680.35272,161238018.89094,11822522.74232,   0.00031,   0.00047,   0.00015,152079371.16482,   0.00000,274640135.82653,   0.00000,   0.00000,   0.00000,-322560764.66171,   0.00000
139229723.60671,163555121.81520,11956362.62243,   0.00031,   0.00047,   0.00016,154247603.62570,   0.00000,274640135.82653,   0.00000,   0.00000,   0.00000,-320392532.20083,   0.00000
141178766.86069,165872224.73947,12095779.16420,   0.00032,   0.00048,   0.00016,156417155.79800,   0.00000,274640135.82653,   0.00000,   0.00000,   0.00000,-318222980.02853,   0.00000
143119445.12216,168169809.34788,12229619.04430,   0.00032,   0.00049,   0.00016,158570430.07420,   0.00000,274640135.82653,   0.00000,   0.00000,   0.00000,-316069705.75233,   0.00000
145060123.38364,170467393.95629,12363458.92440,   0.00033,   0.00049,   0.00016,160723725.52883,   0.00000,274640135.82653,   0.00000,   0.00000,   0.00000,-313916410.29770,   0.00000
147000801.64512,172764978.56471,12491722.14283,   0.00033,   0.00050,   0.00016,162875757.93788,   0.00000,274640135.82653,   0.00000,   0.00000,   0.00000,-311764377.88865,   0.00000
148921961.59074,175054198.18061,12625562.02293,   0.00034,   0.00051,   0.00016,165016734.95778,   0.00000,274640135.82653,   0.00000,   0.00000,   0.00000,-309623400.86875,   0.00000
150854274.85971,177332264.47318,12753825.24136,   0.00034,   0.00051,   0.00017,167153804.24975,   0.00000,274640135.82653,   0.00000,   0.00000,   0.00000,-307486331.57678,   0.00000
152775434.80534,179621484.08909,12882088.45980,   0.00034,   0.00052,   0.00017,169293547.73143,   0.00000,274640135.82653,   0.00000,   0.00000,   0.00000,-305346588.09510,   0.00000
154688229.75846,181891185.38915,13010351.67823,   0.00035,   0.00053,   0.00017,171418301.30979,   0.00000,274640135.82653,   0.00000,   0.00000,   0.00000,-303221834.51674,   0.00000
156592659.71908,184141368.37336,13133038.23499,   0.00035,   0.00053,   0.00017,173526793.51114,   0.00000,274640135.82653,   0.00000,   0.00000,   0.00000,-301113342.31539,   0.00000
158485936.35635,186402704.68091,13261301.45342,   0.00036,   0.00054,   0.00017,175639231.07641,   0.00000,274640135.82653,   0.00000,   0.00000,   0.00000,-299000904.75012,   0.00000
160390366.31696,188652887.66512,13383988.01018,   0.00036,   0.00055,   0.00017,177747768.69904,   0.00000,274640135.82653,   0.00000,   0.00000,   0.00000,-296892367.12749,   0.00000
162275277.96173,190894705.65683,13501097.90527,   0.00037,   0.00055,   0.00018,179842714.60758,   0.00000,274640135.82653,   0.00000,   0.00000,   0.00000,-294797421.21895,   0.00000
164179707.92235,193144888.64104,13623784.46203,   0.00037,   0.00056,   0.00018,181951300.09717,   0.00000,274640135.82653,   0.00000,   0.00000,   0.00000,-292688835.72936,   0.00000
166056254.57461,195367188.31689,13740894.35712,   0.00037,   0.00057,   0.00018,184031277.03931,   0.00000,274640135.82653,   0.00000,   0.00000,   0.00000,-290608858.78722,   0.00000
167932801.22687,197589487.99275,13858004.25220,   0.00038,   0.00057,   0.00018,186111278.88201,   0.00000,274640135.82653,   0.00000,   0.00000,   0.00000,-288528856.94452,   0.00000
169789829.56328,199803422.67610,13975114.14729,   0.00038,   0.00058,   0.00018,188178947.54772,   0.00000,274640135.82653,   0.00000,   0.00000,   0.00000,-286461188.27881,   0.00000
171666376.21554,202025722.35196,14092224.04238,   0.00039,   0.00058,   0.00018,190258996.87452,   0.00000,274640135.82653,   0.00000,   0.00000,   0.00000,-284381138.95201,   0.00000
173515039.55944,204220138.71946,14203757.27580,   0.00039,   0.00059,   0.00018,192310448.82018,   0.00000,274640135.82653,   0.00000,   0.00000,   0.00000,-282329687.00635,   0.00000
175383221.21920,206422920.07947,14315290.50922,   0.00040,   0.00060,   0.00019,194374283.76572,   0.00000,274640135.82653,   0.00000,   0.00000,   0.00000,-280265852.06081,   0.00000
177231884.56310,208617336.44697,14426823.74264,   0.00040,   0.00060,   0.00019,196425787.54046,   0.00000,274640135.82653,   0.00000,   0.00000,   0.00000,-278214348.28607,   0.00000
179080547.90701,210811752.81447,14538356.97606,   0.00040,   0.00061,   0.00019,198477316.17195,   0.00000,274640135.82653,   0.00000,   0.00000,   0.00000,-276162819.65458,   0.00000
180901327.94256,212978285.87362,14644313.54780,   0.00041,   0.00062,   0.00019,200500258.66676,   0.00000,274640135.82653,   0.00000,   0.00000,   0.00000,-274139877.15977,   0.00000
182741626.29396,215153183.92527,14750270.11955,   0.00041,   0.00062,   0.00019,202535585.03807,   0.00000,274640135.82653,   0.00000,   0.00000,   0.00000,-272104550.78846,   0.00000
184554041.33700,217300198.66857,14856226.69130,   0.00042,   0.00063,   0.00019,204543548.13123,   0.00000,274640135.82653,   0.00000,   0.00000,   0.00000,-270096587.69530,   0.00000
186394339.68840,219475096.72023,14962183.26304,   0.00042,   0.00064,   0.00019,206578926.80766,   0.00000,274640135.82653,   0.00000,   0.00000,   0.00000,-268061209.01887,   0.00000
188206754.73145,221622111.46353,15062563.17312,   0.00042,   0.00064,   0.00020,208585730.26179,   0.00000,274640135.82653,   0.00000,   0.00000,   0.00000,-266054405.56473,   0.00000
189991286.46614,223741242.89847,15168519.74487,   0.00043,   0.00065,   0.00020,210566374.58709,   0.00000,274640135.82653,   0.00000,   0.00000,   0.00000,-264073761.23944,   0.00000
191803701.50918,225888257.64177,15268899.65494,   0.00043,   0.00065,   0.00020,212573231.61660,   0.00000,274640135.82653,   0.00000,   0.00000,   0.00000,-262066904.20993,   0.00000
193607751.55972,228015754.06922,15363702.90335,   0.00044,   0.00066,   0.00020,214563879.07320,   0.00000,274640135.82653,   0.00000,   0.00000,   0.00000,-260076256.75333,   0.00000
195383918.30191,230115367.18832,15464082.81343,   0.00044,   0.00067,   0.00020,216528356.61009,   0.00000,274640135.82653,   0.00000,   0.00000,   0.00000,-258111779.21644,   0.00000
197168450.03660,232234498.62326,15558886.06183,   0.00044,   0.00067,   0.00020,218506706.32388,   0.00000,274640135.82653,   0.00000,   0.00000,   0.00000,-256133429.50265,   0.00000
198944616.77878,234334111.74236,15653689.31024,   0.00045,   0.00068,   0.00020,220470044.17748,   0.00000,274640135.82653,   0.00000,   0.00000,   0.00000,-254170091.64905,   0.00000
200720783.52096,236433724.86145,15748492.55864,   0.00045,   0.00068,   0.00020,222433409.67078,   0.00000,274640135.82653,   0.00000,   0.00000,   0.00000,-252206726.15575,   0.00000
202488585.27064,238513819.66470,15843295.80705,   0.00046,   0.00069,   0.00021,224381758.37318,   0.00000,274640135.82653,   0.00000,   0.00000,   0.00000,-250258377.45335,   0.00000
204264752.01283,240613432.78380,15932522.39378,   0.00046,   0.00070,   0.00021,226343998.33398,   0.00000,274640135.82653,   0.00000,   0.00000,   0.00000,-248296137.49255,   0.00000
206004670.45415,242665644.27869,16027325.64219,   0.00046,   0.00070,   0.00021,228264996.40475,   0.00000,274640135.82653,   0.00000,   0.00000,   0.00000,-246375139.42178,   0.00000
207752953.88798,244737374.08944,16116552.22892,   0.00047,   0.00071,   0.00021,230199890.31003,   0.00000,274640135.82653,   0.00000,   0.00000,   0.00000,-244440245.51650,   0.00000
209492872.32930,246789585.58433,16200202.15399,   0.00047,   0.00071,   0.00021,232118598.16511,   0.00000,274640135.82653,   0.00000,   0.00000,   0.00000,-242521537.66142,   0.00000
211232790.77063,248841797.07922,16289428.74072,   0.00048,   0.00072,   0.00021,234038503.41138,   0.00000,274640135.82653,   0.00000,   0.00000,   0.00000,-240601632.41515,   0.00000
212953190.89610,250885643.58161,16373078.66578,   0.00048,   0.00073,   0.00021,235944913.97878,   0.00000,274640135.82653,   0.00000,   0.00000,   0.00000,-238695221.84775,   0.00000
214684744.34492,252918336.76066,16456728.59085,   0.00048,   0.00073,   0.00021,237848665.76114,   0.00000,274640135.82653,   0.00000,   0.00000,   0.00000,-236791470.06539,   0.00000
216396779.47789,254942664.94720,16540378.51591,   0.00049,   0.00074,   0.00022,239740086.96304,   0.00000,274640135.82653,   0.00000,   0.00000,   0.00000,-234900048.86349,   0.00000
218100449.61835,256947474.81789,16624028.44097,   0.00049,   0.00074,   0.00022,241616485.60840,   0.00000,274640135.82653,   0.00000,   0.00000,   0.00000,-233023650.21813,   0.00000
219804119.75881,258952284.68858,16702101.70437,   0.00050,   0.00075,   0.00022,243491762.52371,   0.00000,274640135.82653,   0.00000,   0.00000,   0.00000,-231148373.30282,   0.00000
221507789.89927,260957094.55927,16780174.96776,   0.00050,   0.00076,   0.00022,245367071.40194,   0.00000,274640135.82653,   0.00000,   0.00000,   0.00000,-229273064.42459,   0.00000
223203095.04723,262942386.11411,16858248.23115,   0.00050,   0.00076,   0.00022,247227359.43771,   0.00000,274640135.82653,   0.00000,   0.00000,   0.00000,-227412776.38882,   0.00000
224887246.87184,264938830.99230,16936321.49455,   0.00051,   0.00077,   0.00022,249090366.41179,   0.00000,274640135.82653,   0.00000,   0.00000,   0.00000,-225549769.41474,   0.00000
226554668.71144,266896239.23879,17008818.09627,   0.00051,   0.00077,   0.00022,250922161.34248,   0.00000,274640135.82653,   0.00000,   0.00000,   0.00000,-223717974.48405,   0.00000
228230455.54355,268873165.80112,17086891.35966,   0.00051,   0.00078,   0.00022,252770173.43887,   0.00000,274640135.82653,   0.00000,   0.00000,   0.00000,-221869962.38766,   0.00000
229897877.38315,270830574.04761,17159387.96138,   0.00052,   0.00078,   0.00022,254602029.73633,   0.00000,274640135.82653,   0.00000,   0.00000,   0.00000,-220038106.09020,   0.00000
231565299.22275,272787982.29410,17226307.90143,   0.00052,   0.00079,   0.00022,256432793.13623,   0.00000,274640135.82653,   0.00000,   0.00000,   0.00000,-218207342.69030,   0.00000
233204837.75400,274717507.23223,17298804.50315,   0.00053,   0.00080,   0.00022,258237292.70034,   0.00000,274640135.82653,   0.00000,   0.00000,   0.00000,-216402843.12619,   0.00000
234863894.60109,276655397.16287,17371301.10488,   0.00053,   0.00080,   0.00023,260054186.72401,   0.00000,274640135.82653,   0.00000,   0.00000,   0.00000,-214585949.10252,   0.00000
236495068.13983,278565403.78516,17438221.04493,   0.00053,   0.00081,   0.00023,261842570.92864,   0.00000,274640135.82653,   0.00000,   0.00000,   0.00000,-212797564.89789,   0.00000
238134606.67108,280494928.72329,17505140.98498,   0.00054,   0.00081,   0.00023,263646043.57326,   0.00000,274640135.82653,   0.00000,   0.00000,   0.00000,-210994092.25327,   0.00000
239746261.89397,282396570.35307,17566484.26336,   0.00054,   0.00082,   0.00023,265421014.67971,   0.00000,274640135.82653,   0.00000,   0.00000,   0.00000,-209219121.14682,   0.00000
241369070.44021,284287058.65951,17633404.20341,   0.00054,   0.00082,   0.00023,267194437.87441,   0.00000,274640135.82653,   0.00000,   0.00000,   0.00000,-207445697.95212,   0.00000
242972360.67059,286169181.97344,17694747.48179,   0.00055,   0.00083,   0.00023,268954418.68700,   0.00000,274640135.82653,   0.00000,   0.00000,   0.00000,-205685717.13953,   0.00000
244575650.90098,288051305.28737,17761667.42184,   0.00055,   0.00083,   0.00023,270715530.57901,   0.00000,274640135.82653,   0.00000,   0.00000,   0.00000,-203924605.24752,   0.00000
246190094.45471,289922275.27796,17817434.03855,   0.00055,   0.00084,   0.00023,272471794.58050,   0.00000,274640135.82653,   0.00000,   0.00000,   0.00000,-202168341.24603,   0.00000
247773866.36924,291796033.59939,17878777.31693,   0.00056,   0.00084,   0.00023,274219500.90906,   0.00000,274640135.82653,   0.00000,   0.00000,   0.00000,-200420634.91747,   0.00000
249360426.61462,293639120.28162,17940120.59531,   0.00056,   0.00085,   0.00023,275949493.20110,   0.00000,274640135.82653,   0.00000,   0.00000,   0.00000,-198690642.62543,   0.00000
250927468.54414,295473841.97135,17995887.21202,   0.00057,   0.00086,   0.00023,277666055.61725,   0.00000,274640135.82653,   0.00000,   0.00000,   0.00000,-196974080.20928,   0.00000
252514028.78952,297316928.65358,18051653.82873,   0.00057,   0.00086,   0.00023,279395028.47354,   0.00000,274640135.82653,   0.00000,   0.00000,   0.00000,-195245107.35299,   0.00000
254081070.71904,299151650.34331,18107420.44544,   0.00057,   0.00087,   0.00024,281111658.95393,   0.00000,274640135.82653,   0.00000,   0.00000,   0.00000,-193528476.87260,   0.00000
255639747.65606,300966853.71719,18163187.06214,   0.00058,   0.00087,   0.00024,282813262.01885,   0.00000,274640135.82653,   0.00000,   0.00000,   0.00000,-191826873.80768,   0.00000
257178906.27723,302773692.09857,18213377.01718,   0.00058,   0.00088,   0.00024,284501446.01501,   0.00000,274640135.82653,   0.00000,   0.00000,   0.00000,-190138689.81152,   0.00000
258729218.22174,304569377.15660,18269143.63389,   0.00058,   0.00088,   0.00024,286188053.28757,   0.00000,274640135.82653,   0.00000,   0.00000,   0.00000,-188452082.53896,   0.00000
260260011.85041,306356697.22213,18319333.58893,   0.00059,   0.00089,   0.00024,287861244.35423,   0.00000,274640135.82653,   0.00000,   0.00000,   0.00000,-186778891.47229,   0.00000
261810323.79492,308152382.28016,18369523.54397,   0.00059,   0.00089,   0.00024,289546852.08665,   0.00000,274640135.82653,   0.00000,   0.00000,   0.00000,-185093283.73988,   0.00000
263313234.11523,309911819.03733,18414136.83734,   0.00059,   0.00090,   0.00024,291191608.36876,   0.00000,274640135.82653,   0.00000,   0.00000,   0.00000,-183448527.45777,   0.00000
264835662.75139,311679620.78701,18464326.79237,   0.00060,   0.00090,   0.00024,292849841.10181,   0.00000,274640135.82653,   0.00000,   0.00000,   0.00000,-181790294.72472,   0.00000
266349726.39504,313427904.22084,18508940.08574,   0.00060,   0.00091,   0.00024,294491993.01590,   0.00000,274640135.82653,   0.00000,   0.00000,   0.00000,-180148142.81062,   0.00000
267844271.72284,315167822.66216,18553553.37911,   0.00060,   0.00091,   0.00024,296121794.93225,   0.00000,274640135.82653,   0.00000,   0.00000,   0.00000,-178518340.89428,   0.00000
269358335.36649,316916106.09599,18598166.67248,   0.00061,   0.00092,   0.00024,297764020.25150,   0.00000,274640135.82653,   0.00000,   0.00000,   0.00000,-176876115.57503,   0.00000
270844515.70179,318636506.22146,18642779.96584,   0.00061,   0.00092,   0.00024,299378830.75605,   0.00000,274640135.82653,   0.00000,   0.00000,   0.00000,-175261305.07048,   0.00000
272311177.72124,320348541.35443,18687393.25921,   0.00061,   0.00093,   0.00024,300981283.27656,   0.00000,274640135.82653,   0.00000,   0.00000,   0.00000,-173658852.54997,   0.00000
273797358.05653,322068941.47991,18726429.89091,   0.00062,   0.00093,   0.00024,302595123.20069,   0.00000,274640135.82653,   0.00000,   0.00000,   0.00000,-172045012.62584,   0.00000
275275173.39932,323769823.28953,18765466.52260,   0.00062,   0.00094,   0.00024,304193940.63147,   0.00000,274640135.82653,   0.00000,   0.00000,   0.00000,-170446195.19506,   0.00000
276725105.43376,325442821.79081,18804503.15430,   0.00062,   0.00094,   0.00024,305765339.88732,   0.00000,274640135.82653,   0.00000,   0.00000,   0.00000,-168874795.93921,   0.00000
278183402.46070,327135338.60793,18843539.78600,   0.00063,   0.00095,   0.00024,307351835.17696,   0.00000,274640135.82653,   0.00000,   0.00000,   0.00000,-167288300.64957,   0.00000
279633334.49514,328808337.10920,18876999.75602,   0.00063,   0.00095,   0.00025,308922281.41898,   0.00000,274640135.82653,   0.00000,   0.00000,   0.00000,-165717854.40755,   0.00000
281074901.53707,330461817.29462,18916036.38772,   0.00063,   0.00096,   0.00025,310478726.33041,   0.00000,274640135.82653,   0.00000,   0.00000,   0.00000,-164161409.49612,   0.00000
282496950.26315,332106932.48754,18949496.35774,   0.00064,   0.00096,   0.00025,312021787.96026,   0.00000,274640135.82653,   0.00000,   0.00000,   0.00000,-162618347.86627,   0.00000
283938517.30508,333760412.67296,18982956.32777,   0.00064,   0.00096,   0.00025,313577288.49578,   0.00000,274640135.82653,   0.00000,   0.00000,   0.00000,-161062847.33075,   0.00000
285352201.03865,335386009.55003,19016416.29779,   0.00064,   0.00097,   0.00025,315105363.78053,   0.00000,274640135.82653,   0.00000,   0.00000,   0.00000,-159534772.04600,   0.00000
286765884.77223,337011606.42710,19049876.26782,   0.00065,   0.00097,   0.00025,316633474.85327,   0.00000,274640135.82653,   0.00000,   0.00000,   0.00000,-158006660.97326,   0.00000
288179568.50580,338637203.30417,19077759.57617,   0.00065,   0.00098,   0.00025,318160617.87876,   0.00000,274640135.82653,   0.00000,   0.00000,   0.00000,-156479517.94777,   0.00000
289565368.93102,340234916.87289,19111219.54620,   0.00065,   0.00098,   0.00025,319661333.99862,   0.00000,274640135.82653,   0.00000,   0.00000,   0.00000,-154978801.82791,   0.00000
290962322.67959,341821477.11826,19139102.85455,   0.00066,   0.00099,   0.00025,321158434.87062,   0.00000,274640135.82653,   0.00000,   0.00000,   0.00000,-153481700.95591,   0.00000
292348123.10481,343419190.68698,19166986.16291,   0.00066,   0.00099,   0.00025,322658224.52744,   0.00000,274640135.82653,   0.00000,   0.00000,   0.00000,-151981911.29909,   0.00000
293725558.53752,344997385.93984,19194869.47126,   0.00066,   0.00100,   0.00025,324142991.91313,   0.00000,274640135.82653,   0.00000,   0.00000,   0.00000,-150497143.91340,   0.00000
295094628.97773,346556062.87686,19217176.11795,   0.00067,   0.00100,   0.00025,325611749.70727,   0.00000,274640135.82653,   0.00000,   0.00000,   0.00000,-149028386.11926,   0.00000
296463699.41794,348114739.81388,19245059.42630,   0.00067,   0.00101,   0.00025,327081534.93905,   0.00000,274640135.82653,   0.00000,   0.00000,   0.00000,-147558600.88748,   0.00000
297813251.54230,349665051.75839,19267366.07298,   0.00067,   0.00101,   0.00025,328537957.29975,   0.00000,274640135.82653,   0.00000,   0.00000,   0.00000,-146102178.52678,   0.00000
299173956.99000,351204210.37956,19289672.71967,   0.00068,   0.00101,   0.00025,329991780.23017,   0.00000,274640135.82653,   0.00000,   0.00000,   0.00000,-144648355.59636,   0.00000
300515144.12185,352735004.00823,19311979.36635,   0.00068,   0.00102,   0.00025,331433224.00454,   0.00000,274640135.82653,   0.00000,   0.00000,   0.00000,-143206911.82199,   0.00000
301847966.26120,354246279.32104,19334286.01304,   0.00068,   0.00102,   0.00025,332859649.14220,   0.00000,274640135.82653,   0.00000,   0.00000,   0.00000,-141780486.68433,   0.00000
303161270.08470,355749189.64135,19356592.65972,   0.00069,   0.00103,   0.00025,334273687.99347,   0.00000,274640135.82653,   0.00000,   0.00000,   0.00000,-140366447.83306,   0.00000
304494092.22404,357260464.95417,19373322.64473,   0.00069,   0.00103,   0.00025,335699222.43840,   0.00000,274640135.82653,   0.00000,   0.00000,   0.00000,-138940913.38813,   0.00000
305799031.05503,358743856.95863,19395629.29142,   0.00069,   0.00104,   0.00025,337098279.06960,   0.00000,274640135.82653,   0.00000,   0.00000,   0.00000,-137541856.75693,   0.00000
307123488.20188,360235613.95560,19412359.27643,   0.00069,   0.00104,   0.00025,338508840.81911,   0.00000,274640135.82653,   0.00000,   0.00000,   0.00000,-136131295.00742,   0.00000
308420062.04036,361699487.64421,19429089.26144,   0.00070,   0.00104,   0.00025,339891959.51134,   0.00000,274640135.82653,   0.00000,   0.00000,   0.00000,-134748176.31519,   0.00000
309716635.87885,363163361.33282,19445819.24645,   0.00070,   0.00105,   0.00025,341275118.73371,   0.00000,274640135.82653,   0.00000,   0.00000,   0.00000,-133365017.09282,   0.00000
310993691.40148,364618870.02893,19456972.56980,   0.00070,   0.00105,   0.00025,342644932.06891,   0.00000,274640135.82653,   0.00000,   0.00000,   0.00000,-131995203.75762,   0.00000
312281900.24746,366063225.40169,19473702.55481,   0.00071,   0.00106,   0.00025,344013118.71509,   0.00000,274640135.82653,   0.00000,   0.00000,   0.00000,-130627017.11144,   0.00000
313550590.77760,367499215.78195,19484855.87815,   0.00071,   0.00106,   0.00025,345367962.01207,   0.00000,274640135.82653,   0.00000,   0.00000,   0.00000,-129272173.81446,   0.00000
314810916.31522,368915687.84636,19501585.86316,   0.00071,   0.00106,   0.00025,346708735.95851,   0.00000,274640135.82653,   0.00000,   0.00000,   0.00000,-127931399.86802,   0.00000
316071241.85285,370332159.91077,19512739.18650,   0.00072,   0.00107,   0.00025,348048608.50349,   0.00000,274640135.82653,   0.00000,   0.00000,   0.00000,-126591527.32304,   0.00000
317331567.39047,371748631.97518,19523892.50985,   0.00072,   0.00107,   0.00025,349388523.15749,   0.00000,274640135.82653,   0.00000,   0.00000,   0.00000,-125251612.66904,   0.00000
318583527.93559,373145585.72375,19529469.17152,   0.00072,   0.00108,   0.00025,350712497.32780,   0.00000,274640135.82653,   0.00000,   0.00000,   0.00000,-123927638.49873,   0.00000
319815970.16486,374534174.47980,19540622.49486,   0.00072,   0.00108,   0.00025,352024999.16492,   0.00000,274640135.82653,   0.00000,   0.00000,   0.00000,-122615136.66161,   0.00000
321059565.71747,375911609.91252,19551775.81820,   0.00073,   0.00108,   0.00025,353334941.36864,   0.00000,274640135.82653,   0.00000,   0.00000,   0.00000,-121305194.45789,   0.00000
322283642.95424,377280680.35272,19557352.47987,   0.00073,   0.00109,   0.00025,354631550.07840,   0.00000,274640135.82653,   0.00000,   0.00000,   0.00000,-120008585.74813,   0.00000
323507720.19100,378649750.79293,19562929.14154,   0.00073,   0.00109,   0.00025,355928203.09524,   0.00000,274640135.82653,   0.00000,   0.00000,   0.00000,-118711932.73129,   0.00000
324703914.11941,379990937.92478,19568505.80321,   0.00074,   0.00110,   0.00025,357197395.19410,   0.00000,274640135.82653,   0.00000,   0.00000,   0.00000,-117442740.63243,   0.00000
325911261.37116,381320971.73330,19574082.46488,   0.00074,   0.00110,   0.00025,358464041.43277,   0.00000,274640135.82653,   0.00000,   0.00000,   0.00000,-116176094.39376,   0.00000
327107455.29957,382662158.86515,19579659.12656,   0.00074,   0.00110,   0.00025,359733316.87323,   0.00000,274640135.82653,   0.00000,   0.00000,   0.00000,-114906818.95330,   0.00000
328314802.55132,383992192.67366,19585235.78823,   0.00075,   0.00111,   0.00025,361000051.34678,   0.00000,274640135.82653,   0.00000,   0.00000,   0.00000,-113640084.47975,   0.00000
329494266.49472,385294343.17382,19585235.78823,   0.00075,   0.00111,   0.00025,362238415.86537,   0.00000,274640135.82653,   0.00000,   0.00000,   0.00000,-112401719.96115,   0.00000
330673730.43812,386596493.67397,19585235.78823,   0.00075,   0.00111,   0.00025,363476828.10331,   0.00000,274640135.82653,   0.00000,   0.00000,   0.00000,-111163307.72322,   0.00000
331833676.06567,387890279.18162,19590812.44990,   0.00075,   0.00112,   0.00025,364703715.09105,   0.00000,274640135.82653,   0.00000,   0.00000,   0.00000,-109936420.73547,   0.00000
333004775.01656,389172911.36593,19590812.44990,   0.00076,   0.00112,   0.00025,365927174.62667,   0.00000,274640135.82653,   0.00000,   0.00000,   0.00000,-108712961.19986,   0.00000
334156355.65160,390447178.55774,19590812.44990,   0.00076,   0.00112,   0.00025,367138206.67712,   0.00000,274640135.82653,   0.00000,   0.00000,   0.00000,-107501929.14941,   0.00000
335299571.29413,391701927.43369,19590812.44990,   0.00076,   0.00113,   0.00025,368334242.12125,   0.00000,274640135.82653,   0.00000,   0.00000,   0.00000,-106305893.70528,   0.00000
336462305.25252,392965041.30215,19585235.78823,   0.00076,   0.00113,   0.00025,369541915.40867,   0.00000,274640135.82653,   0.00000,   0.00000,   0.00000,-105098220.41786,   0.00000
337586002.57921,394211425.18560,19585235.78823,   0.00077,   0.00114,   0.00025,370725561.65910,   0.00000,274640135.82653,   0.00000,   0.00000,   0.00000,-103914574.16743,   0.00000
338720853.22924,395446655.74570,19579659.12656,   0.00077,   0.00114,   0.00025,371905813.97244,   0.00000,274640135.82653,   0.00000,   0.00000,   0.00000,-102734321.85408,   0.00000
339855703.87927,396681886.30581,19579659.12656,   0.00077,   0.00114,   0.00025,373086995.01635,   0.00000,274640135.82653,   0.00000,   0.00000,   0.00000,-101553140.81018,   0.00000
340962671.22094,397889233.55756,19574082.46488,   0.00078,   0.00115,   0.00025,374239820.88539,   0.00000,274640135.82653,   0.00000,   0.00000,   0.00000,-100400314.94114,   0.00000
342069638.56262,399096580.80931,19568505.80321,   0.00078,   0.00115,   0.00025,375392693.78763,   0.00000,274640135.82653,   0.00000,   0.00000,   0.00000,-99247442.03889,   0.00000
343176605.90429,400303928.06106,19562929.14154,   0.00078,   0.00115,   0.00025,376545613.29107,   0.00000,274640135.82653,   0.00000,   0.00000,   0.00000,-98094522.53546,   0.00000
344275208.25346,401491756.99697,19557352.47987,   0.00078,   0.00116,   0.00025,377683547.17986,   0.00000,274640135.82653,   0.00000,   0.00000,   0.00000,-96956588.64667,   0.00000
345373810.60263,402679585.93287,19546199.15653,   0.00079,   0.00116,   0.00025,378820665.53466,   0.00000,274640135.82653,   0.00000,   0.00000,   0.00000,-95819470.29187,   0.00000
346464047.95929,403847896.55293,19540622.49486,   0.00079,   0.00116,   0.00025,379943668.01073,   0.00000,274640135.82653,   0.00000,   0.00000,   0.00000,-94696467.81580,   0.00000
347543131.99261,405027360.49632,19535045.83319,   0.00079,   0.00117,   0.00025,381069243.02989,   0.00000,274640135.82653,   0.00000,   0.00000,   0.00000,-93570892.79664,   0.00000
348605486.04092,406167787.80802,19523892.50985,   0.00079,   0.00117,   0.00025,382163950.16264,   0.00000,274640135.82653,   0.00000,   0.00000,   0.00000,-92476185.66389,   0.00000
349667840.08923,407308215.11972,19512739.18650,   0.00080,   0.00117,   0.00025,383258708.49447,   0.00000,274640135.82653,   0.00000,   0.00000,   0.00000,-91381427.33206,   0.00000
350730194.13753,408448642.43142,19501585.86316,   0.00080,   0.00117,   0.00025,384353517.58788,   0.00000,274640135.82653,   0.00000,   0.00000,   0.00000,-90286618.23865,   0.00000
351792548.18584,409589069.74313,19490432.53982,   0.00080,   0.00118,   0.00025,385448377.01032,   0.00000,274640135.82653,   0.00000,   0.00000,   0.00000,-89191758.81621,   0.00000
352846537.24164,410709978.73898,19479279.21648,   0.00080,   0.00118,   0.00025,386528263.68447,   0.00000,274640135.82653,   0.00000,   0.00000,   0.00000,-88111872.14206,   0.00000
353872642.98909,411803004.42648,19468125.89314,   0.00081,   0.00118,   0.00025,387580660.14816,   0.00000,274640135.82653,   0.00000,   0.00000,   0.00000,-87059475.67837,   0.00000
354918267.05239,412904395.10648,19456972.56980,   0.00081,   0.00119,   0.00025,388645628.76862,   0.00000,274640135.82653,   0.00000,   0.00000,   0.00000,-85994507.05791,   0.00000
355944372.79983,413997420.79398,19440242.58478,   0.00081,   0.00119,   0.00025,389697289.90838,   0.00000,274640135.82653,   0.00000,   0.00000,   0.00000,-84942845.91815,   0.00000
356970478.54728,415090446.48148,19429089.26144,   0.00081,   0.00119,   0.00025,390749836.24073,   0.00000,274640135.82653,   0.00000,   0.00000,   0.00000,-83890299.58580,   0.00000
357988219.30222,416163953.85312,19412359.27643,   0.00082,   0.00120,   0.00025,391786584.69404,   0.00000,274640135.82653,   0.00000,   0.00000,   0.00000,-82853551.13249,   0.00000
359005960.05716,417237461.22477,19395629.29142,   0.00082,   0.00120,   0.00025,392823388.27249,   0.00000,274640135.82653,   0.00000,   0.00000,   0.00000,-81816747.55404,   0.00000
359995817.50375,418283085.28807,19384475.96807,   0.00082,   0.00120,   0.00025,393833518.82198,   0.00000,274640135.82653,   0.00000,   0.00000,   0.00000,-80806617.00455,   0.00000
361005193.26618,419337074.34387,19367745.98306,   0.00082,   0.00120,   0.00025,394855414.89340,   0.00000,274640135.82653,   0.00000,   0.00000,   0.00000,-79784720.93313,   0.00000
361986685.72026,420363180.09132,19351015.99805,   0.00083,   0.00121,   0.00025,395849813.58542,   0.00000,274640135.82653,   0.00000,   0.00000,   0.00000,-78790322.24111,   0.00000
362968178.17434,421389285.83876,19328709.35136,   0.00083,   0.00121,   0.00025,396843450.51845,   0.00000,274640135.82653,   0.00000,   0.00000,   0.00000,-77796685.30808,   0.00000
363949670.62842,422415391.58621,19311979.36635,   0.00083,   0.00121,   0.00025,397837957.97338,   0.00000,274640135.82653,   0.00000,   0.00000,   0.00000,-76802177.85315,   0.00000
364922798.08999,423421979.01781,19295249.38134,   0.00083,   0.00121,   0.00025,398817511.49024,   0.00000,274640135.82653,   0.00000,   0.00000,   0.00000,-75822624.33628,   0.00000
365895925.55157,424428566.44941,19272942.73466,   0.00084,   0.00122,   0.00025,399796313.34839,   0.00000,274640135.82653,   0.00000,   0.00000,   0.00000,-74843822.47814,   0.00000
366849534.69729,425426788.88850,19256212.74964,   0.00084,   0.00122,   0.00025,400763420.79645,   0.00000,274640135.82653,   0.00000,   0.00000,   0.00000,-73876715.03008,   0.00000
367814297.16636,426413858.00425,19233906.10296,   0.00084,   0.00122,   0.00025,401727334.70123,   0.00000,274640135.82653,   0.00000,   0.00000,   0.00000,-72912801.12530,   0.00000
368759541.31958,427392562.12750,19217176.11795,   0.00084,   0.00123,   0.00025,402679544.89450,   0.00000,274640135.82653,   0.00000,   0.00000,   0.00000,-71960590.93203,   0.00000
369696420.48029,428351747.93489,19194869.47126,   0.00085,   0.00123,   0.00025,403616011.07844,   0.00000,274640135.82653,   0.00000,   0.00000,   0.00000,-71024124.74809,   0.00000
370652817.95685,429319298.73479,19172562.82458,   0.00085,   0.00123,   0.00025,404565106.43154,   0.00000,274640135.82653,   0.00000,   0.00000,   0.00000,-70075029.39498,   0.00000
371589697.11756,430278484.54219,19150256.17790,   0.00085,   0.00123,   0.00025,405501692.29196,   0.00000,274640135.82653,   0.00000,   0.00000,   0.00000,-69138443.53456,   0.00000
372498692.96992,431209787.04123,19127949.53121,   0.00085,   0.00124,   0.00025,406410765.10786,   0.00000,274640135.82653,   0.00000,   0.00000,   0.00000,-68229370.71867,   0.00000
373427207.13813,432149454.53278,19105642.88453,   0.00086,   0.00124,   0.00025,407332472.28967,   0.00000,274640135.82653,   0.00000,   0.00000,   0.00000,-67307663.53686,   0.00000
374355721.30633,433089122.02433,19077759.57617,   0.00086,   0.00124,   0.00025,408253457.73990,   0.00000,274640135.82653,   0.00000,   0.00000,   0.00000,-66386678.08663,   0.00000
375256352.16618,434000906.20752,19055452.92949,   0.00086,   0.00124,   0.00025,409147712.18817,   0.00000,274640135.82653,   0.00000,   0.00000,   0.00000,-65492423.63836,   0.00000
376156983.02604,434912690.39071,19033146.28281,   0.00086,   0.00125,   0.00025,410042022.98947,   0.00000,274640135.82653,   0.00000,   0.00000,   0.00000,-64598112.83706,   0.00000
377068767.20923,435813321.25057,19005262.97445,   0.00087,   0.00125,   0.00025,410933223.85640,   0.00000,274640135.82653,   0.00000,   0.00000,   0.00000,-63706911.97013,   0.00000
377961033.07657,436705587.11791,18977379.66610,   0.00087,   0.00125,   0.00025,411811899.17714,   0.00000,274640135.82653,   0.00000,   0.00000,   0.00000,-62828236.64938,   0.00000
378853298.94392,437597852.98526,18955073.01941,   0.00087,   0.00125,   0.00025,412691406.77178,   0.00000,274640135.82653,   0.00000,   0.00000,   0.00000,-61948729.05475,   0.00000
379717681.50291,438462235.54425,18927189.71106,   0.00087,   0.00125,   0.00025,413542623.76209,   0.00000,274640135.82653,   0.00000,   0.00000,   0.00000,-61097512.06444,   0.00000
380601582.37775,439334983.09574,18899306.40270,   0.00088,   0.00126,   0.00025,414406507.51111,   0.00000,274640135.82653,   0.00000,   0.00000,   0.00000,-60233628.31542,   0.00000
381485483.25259,440207730.64724,18871423.09435,   0.00088,   0.00126,   0.00025,415270457.68437,   0.00000,274640135.82653,   0.00000,   0.00000,   0.00000,-59369678.14216,   0.00000
382341500.81907,441052594.89038,18843539.78600,   0.00088,   0.00126,   0.00024,416106886.04322,   0.00000,274640135.82653,   0.00000,   0.00000,   0.00000,-58533249.78331,   0.00000
383217036.70140,441905824.12603,18815656.47764,   0.00088,   0.00126,   0.00024,416955994.05465,   0.00000,274640135.82653,   0.00000,   0.00000,   0.00000,-57684141.77188,   0.00000
384064689.27538,442731170.05333,18787773.16929,   0.00088,   0.00127,   0.00024,417777580.16426,   0.00000,274640135.82653,   0.00000,   0.00000,   0.00000,-56862555.66227,   0.00000
384920706.84187,443576034.29647,18759889.86093,   0.00089,   0.00127,   0.00024,418614200.07102,   0.00000,274640135.82653,   0.00000,   0.00000,   0.00000,-56025935.75551,   0.00000
385759994.42334,444381861.90792,18726429.89091,   0.00089,   0.00127,   0.00024,419420201.52609,   0.00000,274640135.82653,   0.00000,   0.00000,   0.00000,-55219934.30044,   0.00000
386607646.99732,445207207.83521,18698546.58255,   0.00089,   0.00127,   0.00024,420241985.65911,   0.00000,274640135.82653,   0.00000,   0.00000,   0.00000,-54398150.16742,   0.00000
387446934.57879,446013035.44666,18665086.61253,   0.00089,   0.00127,   0.00024,421048130.16045,   0.00000,274640135.82653,   0.00000,   0.00000,   0.00000,-53592005.66608,   0.00000
388266703.84441,446810498.06560,18637203.30417,   0.00090,   0.00128,   0.00024,421842448.32618,   0.00000,274640135.82653,   0.00000,   0.00000,   0.00000,-52797687.50035,   0.00000
389097626.43338,447596807.36119,18603743.33415,   0.00090,   0.00128,   0.00024,422633774.45579,   0.00000,274640135.82653,   0.00000,   0.00000,   0.00000,-52006361.37073,   0.00000
389928549.02234,448383116.65679,18570283.36412,   0.00090,   0.00128,   0.00024,423425177.37388,   0.00000,274640135.82653,   0.00000,   0.00000,   0.00000,-51214958.45265,   0.00000
390739953.29546,449161060.95988,18542400.05577,   0.00090,   0.00128,   0.00024,424204737.83519,   0.00000,274640135.82653,   0.00000,   0.00000,   0.00000,-50435397.99134,   0.00000
391542992.57607,449919486.94713,18508940.08574,   0.00090,   0.00128,   0.00024,424968681.22476,   0.00000,274640135.82653,   0.00000,   0.00000,   0.00000,-49671454.60177,   0.00000
392365550.17253,450686277.92688,18475480.11572,   0.00091,   0.00129,   0.00024,425745354.38018,   0.00000,274640135.82653,   0.00000,   0.00000,   0.00000,-48894781.44635,   0.00000
393168589.45314,451444703.91412,18442020.14569,   0.00091,   0.00129,   0.00024,426509445.72405,   0.00000,274640135.82653,   0.00000,   0.00000,   0.00000,-48130690.10248,   0.00000
393963263.74124,452183611.58551,18408560.17566,   0.00091,   0.00129,   0.00024,427258663.57145,   0.00000,274640135.82653,   0.00000,   0.00000,   0.00000,-47381472.25508,   0.00000
394757938.02935,452922519.25691,18375100.20564,   0.00091,   0.00129,   0.00024,428007956.95991,   0.00000,274640135.82653,   0.00000,   0.00000,   0.00000,-46632178.86662,   0.00000
395544247.32495,453641908.61246,18341640.23561,   0.00092,   0.00129,   0.00024,428742385.17301,   0.00000,274640135.82653,   0.00000,   0.00000,   0.00000,-45897750.65352,   0.00000
396319403.29720,454372451.29135,18302603.60392,   0.00092,   0.00129,   0.00024,429478440.72541,   0.00000,274640135.82653,   0.00000,   0.00000,   0.00000,-45161695.10112,   0.00000
397097347.60029,455072322.33104,18269143.63389,   0.00092,   0.00130,   0.00024,430198087.72976,   0.00000,274640135.82653,   0.00000,   0.00000,   0.00000,-44442048.09677,   0.00000
397883656.89589,455791711.68659,18235683.66387,   0.00092,   0.00130,   0.00024,430932751.49889,   0.00000,274640135.82653,   0.00000,   0.00000,   0.00000,-43707384.32764,   0.00000
398642082.88313,456483217.73378,18196647.03217,   0.00092,   0.00130,   0.00024,431639168.15906,   0.00000,274640135.82653,   0.00000,   0.00000,   0.00000,-43000967.66747,   0.00000
399420027.18623,457183088.77348,18163187.06214,   0.00093,   0.00130,   0.00024,432359060.41586,   0.00000,274640135.82653,   0.00000,   0.00000,   0.00000,-42281075.41067,   0.00000
400178453.17347,457874594.82068,18124150.43045,   0.00093,   0.00130,   0.00024,433065637.46183,   0.00000,274640135.82653,   0.00000,   0.00000,   0.00000,-41574498.36470,   0.00000
400928514.16821,458546582.55202,18085113.79875,   0.00093,   0.00130,   0.00024,433757369.78997,   0.00000,274640135.82653,   0.00000,   0.00000,   0.00000,-40882766.03656,   0.00000
401678575.16294,459218570.28336,18051653.82873,   0.00093,   0.00131,   0.00023,434449880.48807,   0.00000,274640135.82653,   0.00000,   0.00000,   0.00000,-40190255.33846,   0.00000
402448154.47353,459898923.00721,18012617.19703,   0.00093,   0.00131,   0.00023,435154486.07200,   0.00000,274640135.82653,   0.00000,   0.00000,   0.00000,-39485649.75453,   0.00000
403189850.47576,460551392.42271,17973580.56533,   0.00094,   0.00131,   0.00023,435831552.70914,   0.00000,274640135.82653,   0.00000,   0.00000,   0.00000,-38808583.11739,   0.00000
403931546.47799,461203861.83821,17934543.93364,   0.00094,   0.00131,   0.00023,436508706.50993,   0.00000,274640135.82653,   0.00000,   0.00000,   0.00000,-38131429.31660,   0.00000
404664877.48771,461836812.93785,17895507.30194,   0.00094,   0.00131,   0.00023,437171036.40876,   0.00000,274640135.82653,   0.00000,   0.00000,   0.00000,-37469099.41777,   0.00000
405387055.17410,462480917.36084,17856470.67025,   0.00094,   0.00131,   0.00023,437835639.13519,   0.00000,274640135.82653,   0.00000,   0.00000,   0.00000,-36804496.69134,   0.00000
406120386.18382,463113868.46049,17817434.03855,   0.00094,   0.00132,   0.00023,438498144.80273,   0.00000,274640135.82653,   0.00000,   0.00000,   0.00000,-36141991.02380,   0.00000
406845352.20104,463727301.24429,17778397.40685,   0.00095,   0.00132,   0.00023,439145838.61173,   0.00000,274640135.82653,   0.00000,   0.00000,   0.00000,-35494297.21480,   0.00000
407578683.21076,464360252.34394,17733784.11349,   0.00095,   0.00132,   0.00023,439807853.58602,   0.00000,274640135.82653,   0.00000,   0.00000,   0.00000,-34832282.24051,   0.00000
408284130.91213,464965320.13523,17694747.48179,   0.00095,   0.00132,   0.00023,440442994.16925,   0.00000,274640135.82653,   0.00000,   0.00000,   0.00000,-34197141.65728,   0.00000
409000731.93684,465559234.60319,17655710.85009,   0.00095,   0.00132,   0.00023,441076075.42621,   0.00000,274640135.82653,   0.00000,   0.00000,   0.00000,-33564060.40032,   0.00000
409706179.63821,466164302.39448,17611097.55673,   0.00096,   0.00132,   0.00023,441710728.09518,   0.00000,274640135.82653,   0.00000,   0.00000,   0.00000,-32929407.73135,   0.00000
410422780.66293,466758216.86243,17572060.92503,   0.00096,   0.00132,   0.00023,442344004.83017,   0.00000,274640135.82653,   0.00000,   0.00000,   0.00000,-32296130.99636,   0.00000
411119863.37179,467343766.33788,17527447.63166,   0.00096,   0.00132,   0.00023,442963956.64960,   0.00000,274640135.82653,   0.00000,   0.00000,   0.00000,-31676179.17693,   0.00000
411808581.08815,467909797.49747,17488410.99997,   0.00096,   0.00133,   0.00023,443569780.10815,   0.00000,274640135.82653,   0.00000,   0.00000,   0.00000,-31070355.71838,   0.00000
412516817.12035,468484193.64958,17443797.70660,   0.00096,   0.00133,   0.00023,444187813.77517,   0.00000,274640135.82653,   0.00000,   0.00000,   0.00000,-30452322.05136,   0.00000
413205534.83671,469050224.80917,17399184.41323,   0.00097,   0.00133,   0.00023,444793180.32138,   0.00000,274640135.82653,   0.00000,   0.00000,   0.00000,-29846955.50515,   0.00000
413894252.55307,469616255.96877,17360147.78153,   0.00097,   0.00133,   0.00023,445399298.50485,   0.00000,274640135.82653,   0.00000,   0.00000,   0.00000,-29240837.32168,   0.00000
414574605.27692,470162768.81252,17315534.48817,   0.00097,   0.00133,   0.00023,445989990.27495,   0.00000,274640135.82653,   0.00000,   0.00000,   0.00000,-28650145.55158,   0.00000
415254958.00077,470709281.65627,17270921.19480,   0.00097,   0.00133,   0.00022,446580786.81643,   0.00000,274640135.82653,   0.00000,   0.00000,   0.00000,-28059349.01010,   0.00000
415926945.73211,471236276.18417,17226307.90143,   0.00097,   0.00133,   0.00022,447156822.77950,   0.00000,274640135.82653,   0.00000,   0.00000,   0.00000,-27483313.04703,   0.00000
416607298.45596,471782789.02792,17181694.60807,   0.00098,   0.00133,   0.00022,447747830.64088,   0.00000,274640135.82653,   0.00000,   0.00000,   0.00000,-26892305.18565,   0.00000
417279286.18731,472309783.55582,17137081.31470,   0.00098,   0.00134,   0.00022,448324083.28132,   0.00000,274640135.82653,   0.00000,   0.00000,   0.00000,-26316052.54521,   0.00000
417951273.91865,472836778.08372,17092468.02133,   0.00098,   0.00134,   0.00022,448900445.21287,   0.00000,274640135.82653,   0.00000,   0.00000,   0.00000,-25739690.61366,   0.00000
418614896.65749,473344254.29577,17047854.72796,   0.00098,   0.00134,   0.00022,449462063.73332,   0.00000,274640135.82653,   0.00000,   0.00000,   0.00000,-25178072.09321,   0.00000
419278519.39633,473851730.50782,16997664.77293,   0.00098,   0.00134,   0.00022,450023165.15367,   0.00000,274640135.82653,   0.00000,   0.00000,   0.00000,-24616970.67286,   0.00000
419942142.13516,474359206.71988,16953051.47956,   0.00099,   0.00134,   0.00022,450585015.49974,   0.00000,274640135.82653,   0.00000,   0.00000,   0.00000,-24055120.32678,   0.00000
420605764.87400,474866682.93193,16908438.18619,   0.00099,   0.00134,   0.00022,451146979.88787,   0.00000,274640135.82653,   0.00000,   0.00000,   0.00000,-23493155.93866,   0.00000
421261022.62033,475354640.82813,16858248.23115,   0.00099,   0.00134,   0.00022,451693594.41292,   0.00000,274640135.82653,   0.00000,   0.00000,   0.00000,-22946541.41361,   0.00000
421916280.36667,475842598.72434,16813634.93779,   0.00099,   0.00134,   0.00022,452240955.75794,   0.00000,274640135.82653,   0.00000,   0.00000,   0.00000,-22399180.06859,   0.00000
422552019.79715,476322191.62804,16763444.98275,   0.00099,   0.00134,   0.00022,452774971.46864,   0.00000,274640135.82653,   0.00000,   0.00000,   0.00000,-21865164.35789,   0.00000
423198912.55097,476790631.20839,16718831.68938,   0.00100,   0.00134,   0.00022,453307739.78580,   0.00000,274640135.82653,   0.00000,   0.00000,   0.00000,-21332396.04073,   0.00000
423854170.29731,477278589.10460,16668641.73434,   0.00100,   0.00135,   0.00022,453854844.37461,   0.00000,274640135.82653,   0.00000,   0.00000,   0.00000,-20785291.45192,   0.00000
424501063.05113,477747028.68495,16618451.77930,   0.00100,   0.00135,   0.00022,454387250.28458,   0.00000,274640135.82653,   0.00000,   0.00000,   0.00000,-20252885.54195,   0.00000
425120072.49660,478187584.95696,16573838.48594,   0.00100,   0.00135,   0.00022,454892710.45938,   0.00000,274640135.82653,   0.00000,   0.00000,   0.00000,-19747425.36715,   0.00000
425766965.25043,478656024.53731,16523648.53090,   0.00100,   0.00135,   0.00021,455425370.87942,   0.00000,274640135.82653,   0.00000,   0.00000,   0.00000,-19214764.94711,   0.00000
426405493.01175,479104945.80182,16473458.57586,   0.00101,   0.00135,   0.00021,455943348.95436,   0.00000,274640135.82653,   0.00000,   0.00000,   0.00000,-18696786.87217,   0.00000
427044020.77306,479553867.06633,16423268.62082,   0.00101,   0.00135,   0.00021,456461462.53938,   0.00000,274640135.82653,   0.00000,   0.00000,   0.00000,-18178673.28715,   0.00000
427654665.22603,479974905.02248,16373078.66578,   0.00101,   0.00135,   0.00021,456952019.28827,   0.00000,274640135.82653,   0.00000,   0.00000,   0.00000,-17688116.53826,   0.00000
428293192.98735,480423826.28699,16322888.71075,   0.00101,   0.00135,   0.00021,457470400.75120,   0.00000,274640135.82653,   0.00000,   0.00000,   0.00000,-17169735.07533,   0.00000
428923355.75616,480853229.23565,16272698.75571,   0.00101,   0.00135,   0.00021,457974120.05911,   0.00000,274640135.82653,   0.00000,   0.00000,   0.00000,-16666015.76742,   0.00000
429525635.21662,481254748.87595,16222508.80067,   0.00102,   0.00135,   0.00021,458450283.33212,   0.00000,274640135.82653,   0.00000,   0.00000,   0.00000,-16189852.49441,   0.00000
430155797.98543,481684151.82461,16166742.18396,   0.00102,   0.00135,   0.00021,458953693.32097,   0.00000,274640135.82653,   0.00000,   0.00000,   0.00000,-15686442.50556,   0.00000
430777595.76174,482094036.45743,16116552.22892,   0.00102,   0.00135,   0.00021,459443050.67018,   0.00000,274640135.82653,   0.00000,   0.00000,   0.00000,-15197085.15635,   0.00000
431379875.22220,482495556.09773,16066362.27388,   0.00102,   0.00135,   0.00021,459919633.85598,   0.00000,274640135.82653,   0.00000,   0.00000,   0.00000,-14720501.97055,   0.00000
432001672.99850,482905440.73054,16010595.65717,   0.00102,   0.00135,   0.00021,460408698.20724,   0.00000,274640135.82653,   0.00000,   0.00000,   0.00000,-14231437.61929,   0.00000
432615105.78230,483295807.04751,15960405.70214,   0.00103,   0.00136,   0.00021,460883720.49928,   0.00000,274640135.82653,   0.00000,   0.00000,   0.00000,-13756415.32724,   0.00000
433236903.55861,483705691.68032,15904639.08543,   0.00103,   0.00136,   0.00021,461373089.05596,   0.00000,274640135.82653,   0.00000,   0.00000,   0.00000,-13267046.77057,   0.00000
433830818.02656,484087693.00478,15854449.13039,   0.00103,   0.00136,   0.00021,461835472.87656,   0.00000,274640135.82653,   0.00000,   0.00000,   0.00000,-12804662.94997,   0.00000
434435885.81785,484458541.00589,15798682.51368,   0.00103,   0.00136,   0.00021,462295615.96827,   0.00000,274640135.82653,   0.00000,   0.00000,   0.00000,-12344519.85826,   0.00000
435049318.60165,484848907.32285,15742915.89697,   0.00103,   0.00136,   0.00020,462770681.86650,   0.00000,274640135.82653,   0.00000,   0.00000,   0.00000,-11869453.96003,   0.00000
435654386.39295,485219755.32397,15692725.94193,   0.00104,   0.00136,   0.00020,463231719.02530,   0.00000,274640135.82653,   0.00000,   0.00000,   0.00000,-11408416.80123,   0.00000
436259454.18424,485590603.32508,15636959.32522,   0.00104,   0.00136,   0.00020,463692352.02877,   0.00000,274640135.82653,   0.00000,   0.00000,   0.00000,-10947783.79776,   0.00000
436864521.97553,485961451.32620,15581192.70851,   0.00104,   0.00136,   0.00020,464153149.62034,   0.00000,274640135.82653,   0.00000,   0.00000,   0.00000,-10486986.20619,   0.00000
437441706.45847,486304416.01896,15525426.09181,   0.00104,   0.00136,   0.00020,464586390.83944,   0.00000,274640135.82653,   0.00000,   0.00000,   0.00000,-10053744.98709,   0.00000
438046774.24976,486675264.02008,15469659.47510,   0.00104,   0.00136,   0.00020,465047514.36957,   0.00000,274640135.82653,   0.00000,   0.00000,   0.00000,-9592621.45696,   0.00000
438643477.04855,487026593.70534,15413892.85839,   0.00105,   0.00136,   0.00020,465494069.49455,   0.00000,274640135.82653,   0.00000,   0.00000,   0.00000,-9146066.33198,   0.00000
439231814.85483,487358405.07476,15358126.24168,   0.00105,   0.00136,   0.00020,465926068.76725,   0.00000,274640135.82653,   0.00000,   0.00000,   0.00000,-8714067.05928,   0.00000
439828517.65362,487709734.76003,15296782.96330,   0.00105,   0.00136,   0.00020,466372421.29377,   0.00000,274640135.82653,   0.00000,   0.00000,   0.00000,-8267714.53276,   0.00000
440416855.45990,488041546.12945,15241016.34659,   0.00105,   0.00136,   0.00020,466804777.15992,   0.00000,274640135.82653,   0.00000,   0.00000,   0.00000,-7835358.66661,   0.00000
441024711.58203,488381722.49137,15185249.72988,   0.00105,   0.00136,   0.00020,467250329.28189,   0.00000,274640135.82653,   0.00000,   0.00000,   0.00000,-7389806.54464,   0.00000
441613049.38831,488713533.86079,15123906.45150,   0.00106,   0.00136,   0.00020,467682506.88069,   0.00000,274640135.82653,   0.00000,   0.00000,   0.00000,-6957628.94584,   0.00000
442201387.19459,489045345.23021,15068139.83479,   0.00106,   0.00136,   0.00020,468115405.62189,   0.00000,274640135.82653,   0.00000,   0.00000,   0.00000,-6524730.20464,   0.00000
442781360.00836,489357638.28378,15006796.55641,   0.00106,   0.00136,   0.00020,468533245.49750,   0.00000,274640135.82653,   0.00000,   0.00000,   0.00000,-6106890.32903,   0.00000
443361332.82214,489669931.33735,14945453.27803,   0.00106,   0.00136,   0.00019,468951276.16646,   0.00000,274640135.82653,   0.00000,   0.00000,   0.00000,-5688859.66007,   0.00000
443960823.95176,489990589.38343,14889686.66132,   0.00106,   0.00136,   0.00019,469383077.45762,   0.00000,274640135.82653,   0.00000,   0.00000,   0.00000,-5257058.36891,   0.00000
444540796.76554,490302882.43700,14828343.38294,   0.00107,   0.00136,   0.00019,469801491.91167,   0.00000,274640135.82653,   0.00000,   0.00000,   0.00000,-4838643.91486,   0.00000
445140287.89516,490623540.48308,14767000.10456,   0.00107,   0.00136,   0.00019,470233158.33852,   0.00000,274640135.82653,   0.00000,   0.00000,   0.00000,-4406977.48801,   0.00000
445711895.71643,490916315.22080,14705656.82618,   0.00107,   0.00136,   0.00019,470637280.78636,   0.00000,274640135.82653,   0.00000,   0.00000,   0.00000,-4002855.04017,   0.00000
446303021.85354,491217454.95103,14644313.54780,   0.00107,   0.00136,   0.00019,471054676.85841,   0.00000,274640135.82653,   0.00000,   0.00000,   0.00000,-3585458.96812,   0.00000
446874629.67481,491510229.68875,14582970.26942,   0.00107,   0.00136,   0.00019,471459200.49118,   0.00000,274640135.82653,   0.00000,   0.00000,   0.00000,-3180935.33535,   0.00000
447457390.81942,491791851.10313,14521626.99104,   0.00108,   0.00137,   0.00019,471862348.40355,   0.00000,274640135.82653,   0.00000,   0.00000,   0.00000,-2777787.42298,   0.00000
448048516.95654,492092990.83336,14460283.71266,   0.00108,   0.00137,   0.00019,472280372.06921,   0.00000,274640135.82653,   0.00000,   0.00000,   0.00000,-2359763.75732,   0.00000
448631278.10115,492374612.24774,14393363.77261,   0.00108,   0.00137,   0.00019,472683443.37579,   0.00000,274640135.82653,   0.00000,   0.00000,   0.00000,-1956692.45074,   0.00000
449194520.92991,492647868.66962,14332020.49423,   0.00108,   0.00137,   0.00019,473074135.01302,   0.00000,274640135.82653,   0.00000,   0.00000,   0.00000,-1566000.81351,   0.00000
449777282.07452,492929490.08400,14265100.55418,   0.00109,   0.00137,   0.00019,473477643.23346,   0.00000,274640135.82653,   0.00000,   0.00000,   0.00000,-1162492.59307,   0.00000
450351678.22662,493191593.18253,14203757.27580,   0.00109,   0.00137,   0.00018,473867238.95274,   0.00000,274640135.82653,   0.00000,   0.00000,   0.00000,-772896.87379,   0.00000
450953957.68708,493481579.58942,14136837.33575,   0.00109,   0.00137,   0.00018,474284324.53093,   0.00000,274640135.82653,   0.00000,   0.00000,   0.00000,-355811.29560,   0.00000
451477942.11024,493720679.27766,14080877.83425,   0.00109,   0.00137,   0.00018,474640135.74780,   0.00000,274640135.82653,   0.00000,   0.00000,   0.00000,  -0.07873,   0.00000
451496248.01143,493707940.81081,14074281.72069,   0.00109,   0.00137,   0.00018,474640135.74780,   0.00000,274640249.15287,   0.00000,   0.00000,   0.00000,   0.00051,   1.00000
451704969.33886,493563318.27222,13993638.10954,   0.00109,   0.00137,   0.00018,475030035.04916,   0.00000,274641539.04090,   0.00000,   0.00000,   0.00000,   0.06518,   1.00000
451913262.00207,493418587.73516,13913064.95351,   0.00110,   0.00137,   0.00018,475031560.46409,   0.00000,274642829.55510,   0.00000,   0.00000,   0.00000,   0.06446,   1.00000
452133629.71874,493264118.25704,13832612.72394,   0.00110,   0.00137,   0.00018,475031635.64479,   0.00000,274644115.89026,   0.00000,   0.00000,   0.00000,   0.06324,   1.00000
452346397.20299,493114879.30226,13752685.07883,   0.00110,   0.00137,   0.00018,475020015.04220,   0.00000,274645359.37632,   0.00000,   0.00000,   0.00000,   0.05836,   1.00000
452560497.12670,492964467.78443,13671869.56866,   0.00110,   0.00137,   0.00018,475049275.80103,   0.00001,274646695.38572,   0.00000,   0.00001,   0.00000,   0.06653,   1.00000
452772393.32298,492814992.87144,13592076.44187,   0.00110,   0.00137,   0.00018,475023085.59255,   0.00001,274647940.20232,   0.00001,   0.00001,   0.00000,   0.05704,   1.00000
452996762.30689,492656208.86011,13506842.50843,   0.00111,   0.00137,   0.00018,475022699.51052,   0.00001,274649179.47429,   0.00001,   0.00001,   0.00000,   0.05578,   1.00000
453214846.93379,492501129.11347,13426742.44781,   0.00111,   0.00137,   0.00018,475039268.52820,   0.00001,274650469.28771,   0.00001,   0.00001,   0.00000,   0.05964,   1.00000
453438282.83194,492342069.90586,13341645.53457,   0.00111,   0.00137,   0.00018,475025769.89550,   0.00001,274651710.05459,   0.00001,   0.00001,   0.00000,   0.05445,   1.00000
453660805.91808,492182386.11264,13262175.29355,   0.00111,   0.00137,   0.00017,475027752.26075,   0.00001,274652953.12743,   0.00001,   0.00001,   0.00000,   0.05393,   1.00000
453883300.75493,492023053.43975,13177215.02263,   0.00112,   0.00137,   0.00017,475028798.69726,   0.00001,274654195.40380,   0.00001,   0.00001,   0.00000,   0.05313,   1.00000
454105324.36484,491863583.58693,13092325.75553,   0.00112,   0.00137,   0.00017,475030314.20408,   0.00001,274655438.43796,   0.00001,   0.00001,   0.00000,   0.05247,   1.00000
454333451.24827,491698121.89873,13012630.85345,   0.00112,   0.00137,   0.00017,475045523.36021,   0.00002,274656727.47756,   0.00001,   0.00001,   0.00000,   0.05565,   1.00000
454559905.70468,491533972.87384,12928351.71228,   0.00112,   0.00137,   0.00017,475018849.92278,   0.00002,274657923.97506,   0.00001,   0.00002,   0.00000,   0.04728,   1.00000
454792859.59895,491364290.24145,12843711.88364,   0.00112,   0.00137,   0.00017,475033580.28992,   0.00002,274659165.04394,   0.00001,   0.00002,   0.00000,   0.05014,   1.00000
455018346.58092,491199842.27447,12759567.59649,   0.00113,   0.00137,   0.00017,475021861.56327,   0.00002,274660363.15999,   0.00001,   0.00002,   0.00000,   0.04607,   1.00000
455250726.53121,491030320.00783,12669510.72831,   0.00113,   0.00137,   0.00017,475036161.56744,   0.00002,274661604.41077,   0.00001,   0.00002,   0.00000,   0.04872,   1.00000
455482176.14861,490860179.95308,12585086.43349,   0.00113,   0.00137,   0.00017,475038150.08307,   0.00002,274662847.98663,   0.00002,   0.00002,   0.00000,   0.04819,   1.00000
455718517.72460,490685418.97166,12501188.83699,   0.00113,   0.00136,   0.00017,475025175.68607,   0.00002,274664044.46825,   0.00002,   0.00002,   0.00000,   0.04394,   1.00000
455949364.36621,490515429.89028,12411346.95151,   0.00114,   0.00136,   0.00016,475040752.19870,   0.00002,274665288.29391,   0.00002,   0.00002,   0.00000,   0.04678,   1.00000
456185103.68646,490340789.63198,12322030.00836,   0.00114,   0.00136,   0.00016,475027795.64729,   0.00002,274666485.09502,   0.00002,   0.00002,   0.00000,   0.04265,   1.00000
456426785.69280,490160130.04681,12237933.27378,   0.00114,   0.00136,   0.00016,475043044.28369,   0.00003,274667728.14546,   0.00002,   0.00002,   0.00000,   0.04530,   1.00000
456666889.62519,489980630.18810,12149197.38774,   0.00114,   0.00136,   0.00016,475016378.49988,   0.00003,274668878.93572,   0.00002,   0.00003,   0.00000,   0.03822,   1.00000
456907897.34738,489800073.81832,12059685.67908,   0.00114,   0.00136,   0.00016,475045660.79157,   0.00003,274670122.43900,   0.00002,   0.00003,   0.00000,   0.04392,   1.00000
457146952.87792,489620208.59691,11971085.98128,   0.00115,   0.00136,   0.00016,475019425.33669,   0.00003,274671275.12413,   0.00002,   0.00003,   0.00000,   0.03714,   1.00000
457386876.26990,489439310.21688,11881722.98928,   0.00115,   0.00136,   0.00016,475048711.80303,   0.00003,274672520.51156,   0.00002,   0.00003,   0.00000,   0.04267,   1.00000
457632069.60106,489254095.30937,11787304.66142,   0.00115,   0.00136,   0.00016,475035406.21493,   0.00003,274673717.75131,   0.00002,   0.00003,   0.00000,   0.03878,   1.00000
457876313.09564,489068263.26544,11698521.52615,   0.00115,   0.00136,   0.00016,475037362.18796,   0.00003,274674917.36218,   0.00002,   0.00003,   0.00000,   0.03830,   1.00000
458125428.76583,488877644.59724,11610231.47621,   0.00116,   0.00136,   0.00016,475024452.05037,   0.00003,274676070.30000,   0.00002,   0.00003,   0.00000,   0.03479,   1.00000
458375686.90548,488686437.39625,11515642.76797,   0.00116,   0.00136,   0.00015,475053367.25341,   0.00003,274677314.67332,   0.00003,   0.00003,   0.00000,   0.03983,   1.00000
458624065.20118,488495831.96008,11421932.51331,   0.00116,   0.00136,   0.00015,475027155.77004,   0.00003,274678468.36751,   0.00003,   0.00003,   0.00000,   0.03365,   1.00000
458878584.93225,488299592.53924,11327912.68025,   0.00116,   0.00136,   0.00015,475042057.97614,   0.00004,274679667.26961,   0.00003,   0.00003,   0.00000,   0.03571,   1.00000
459125444.84365,488108169.03201,11239907.32288,   0.00117,   0.00136,   0.00015,475030627.60303,   0.00004,274680824.40610,   0.00003,   0.00004,   0.00001,   0.03270,   1.00000
459379171.91926,487911924.35605,11140472.36854,   0.00117,   0.00136,   0.00015,475044757.18257,   0.00004,274682024.18339,   0.00003,   0.00004,   0.00001,   0.03452,   1.00000
459631927.46855,487715065.23382,11046678.42063,   0.00117,   0.00136,   0.00015,475046726.07801,   0.00004,274683226.36857,   0.00003,   0.00004,   0.00001,   0.03405,   1.00000
459889531.22888,487513298.13446,10953356.89429,   0.00117,   0.00136,   0.00015,475033900.98155,   0.00004,274684382.19239,   0.00003,   0.00004,   0.00001,   0.03091,   1.00000
460147711.79504,487310584.34842,10859346.60827,   0.00118,   0.00136,   0.00015,475063269.95135,   0.00004,274685630.87525,   0.00003,   0.00004,   0.00001,   0.03541,   1.00000
460404477.24896,487108763.39226,10760607.55951,   0.00118,   0.00136,   0.00015,475036699.37136,   0.00004,274686787.75404,   0.00003,   0.00004,   0.00001,   0.02984,   1.00000
460667221.67567,486901268.63552,10661584.13089,   0.00118,   0.00136,   0.00014,475051700.35542,   0.00004,274687990.12730,   0.00003,   0.00004,   0.00001,   0.03162,   1.00000
460928971.62644,486693160.00231,10568202.19076,   0.00118,   0.00136,   0.00014,475053683.93867,   0.00004,274689194.95098,   0.00003,   0.00004,   0.00001,   0.03116,   1.00000
461183898.07235,486490658.50823,10469688.48017,   0.00118,   0.00136,   0.00014,475041450.32478,   0.00005,274690355.38343,   0.00004,   0.00004,   0.00001,   0.02837,   1.00000
461456738.03164,486272233.76691,10370922.79084,   0.00119,   0.00136,   0.00014,475055604.65518,   0.00005,274691558.49694,   0.00004,   0.00004,   0.00001,   0.02989,   1.00000
461717280.17588,486064191.02393,10266651.95970,   0.00119,   0.00136,   0.00014,475057743.99721,   0.00005,274692764.57275,   0.00004,   0.00005,   0.00001,   0.02946,   1.00000
461982294.95739,485850724.11709,10168395.72413,   0.00119,   0.00136,   0.00014,475045381.92433,   0.00005,274693925.84513,   0.00004,   0.00005,   0.00001,   0.02678,   1.00000
462253144.04495,485631552.81656,10069873.55158,   0.00119,   0.00136,   0.00014,475060470.95955,   0.00005,274695132.86602,   0.00004,   0.00005,   0.00001,   0.02836,   1.00000
462517198.13279,485417955.05761,9966207.37817,   0.00120,   0.00136,   0.00014,475048248.05973,   0.00005,274696295.54943,   0.00004,   0.00005,   0.00001,   0.02579,   1.00000
462787044.90950,485198643.70271,9862286.87321,   0.00120,   0.00135,   0.00014,475063362.62484,   0.00005,274697504.05383,   0.00004,   0.00005,   0.00001,   0.02730,   1.00000
463061345.99961,484973840.62719,9764365.92719,   0.00120,   0.00135,   0.00013,475051051.07338,   0.00005,274698667.93426,   0.00004,   0.00005,   0.00001,   0.02481,   1.00000
463329823.89108,484754024.41929,9660609.87039,   0.00120,   0.00135,   0.00013,475066625.96997,   0.00005,274699879.14172,   0.00004,   0.00005,   0.00001,   0.02632,   1.00000
463609805.33218,484523910.79186,9551393.41707,   0.00121,   0.00135,   0.00013,475067205.10373,   0.00006,274701088.15173,   0.00004,   0.00005,   0.00001,   0.02567,   1.00000
463882368.37704,484298647.91728,9448152.37711,   0.00121,   0.00135,   0.00013,475055667.04661,   0.00006,274702255.09862,   0.00004,   0.00005,   0.00001,   0.02342,   1.00000
464160591.33752,484067642.54196,9344673.34507,   0.00121,   0.00135,   0.00013,475070863.98807,   0.00006,274703468.10777,   0.00004,   0.00005,   0.00001,   0.02478,   1.00000
464438409.20493,483836696.82815,9235715.19577,   0.00122,   0.00135,   0.00013,475072226.28594,   0.00006,274704681.49686,   0.00005,   0.00006,   0.00001,   0.02427,   1.00000
464715499.79078,483605472.76471,9126846.95692,   0.00122,   0.00135,   0.00013,475073921.21707,   0.00006,274705896.36098,   0.00005,   0.00006,   0.00001,   0.02381,   1.00000
464997036.56139,483368645.95226,9023956.73500,   0.00122,   0.00135,   0.00013,475061684.64612,   0.00006,274707066.86442,   0.00005,   0.00006,   0.00001,   0.02164,   1.00000
465272666.08287,483136870.88803,8915263.34799,   0.00122,   0.00135,   0.00012,475077271.57541,   0.00006,274708284.69098,   0.00005,   0.00006,   0.00001,   0.02293,   1.00000
465559308.39458,482894300.99046,8806674.03142,   0.00123,   0.00135,   0.00012,475078357.05618,   0.00006,274709501.97601,   0.00005,   0.00006,   0.00001,   0.02241,   1.00000
465845479.14780,482651743.35612,8692609.70164,   0.00123,   0.00135,   0.00012,475079782.47027,   0.00006,274710719.84035,   0.00005,   0.00006,   0.00001,   0.02194,   1.00000
466124365.36839,482414062.14207,8584499.96984,   0.00123,   0.00135,   0.00012,475068182.67026,   0.00007,274711895.45022,   0.00005,   0.00006,   0.00001,   0.02001,   1.00000
466415197.22947,482165414.35109,8470329.46714,   0.00123,   0.00135,   0.00012,475096855.74882,   0.00007,274713161.38640,   0.00005,   0.00006,   0.00001,   0.02269,   1.00000
466699045.14436,481921950.35586,8356545.46140,   0.00124,   0.00135,   0.00012,475084999.82079,   0.00007,274714384.07189,   0.00005,   0.00006,   0.00001,   0.02071,   1.00000
466987329.33522,481672767.61115,8248717.07902,   0.00124,   0.00135,   0.00012,475072842.76540,   0.00007,274715562.66892,   0.00005,   0.00006,   0.00001,   0.01883,   1.00000
467281530.98929,481418358.54300,8129563.57244,   0.00124,   0.00134,   0.00011,475087657.22541,   0.00007,274716786.00236,   0.00005,   0.00007,   0.00001,   0.01983,   1.00000
467569132.14788,481168491.41341,8015790.00467,   0.00124,   0.00134,   0.00011,475103896.94802,   0.00007,274718058.60718,   0.00006,   0.00007,   0.00001,   0.02100,   1.00000
467861425.61999,480913145.27267,7902398.23024,   0.00125,   0.00134,   0.00011,475091543.44161,   0.00007,274719286.32379,   0.00006,   0.00007,   0.00001,   0.01912,   1.00000
468153170.17341,480657756.08600,7783536.08051,   0.00125,   0.00134,   0.00011,475093049.62216,   0.00007,274720514.86417,   0.00006,   0.00007,   0.00001,   0.01873,   1.00000
468449326.76025,480396551.04869,7670614.14122,   0.00125,   0.00134,   0.00011,475080964.98469,   0.00007,274721699.55947,   0.00006,   0.00007,   0.00001,   0.01705,   1.00000
468745446.90531,480135007.43135,7551687.44847,   0.00126,   0.00134,   0.00011,475110319.45651,   0.00008,274722976.74940,   0.00006,   0.00007,   0.00001,   0.01939,   1.00000
469040708.40576,479873134.72764,7432866.17560,   0.00126,   0.00134,   0.00011,475112175.17375,   0.00008,274724255.75090,   0.00006,   0.00007,   0.00001,   0.01904,   1.00000
469340870.78406,479605922.61620,7308843.83473,   0.00126,   0.00134,   0.00010,475099658.70596,   0.00008,274725489.33161,   0.00006,   0.00007,   0.00001,   0.01733,   1.00000
469639906.00473,479338098.42850,7190494.49086,   0.00126,   0.00134,   0.00010,475101749.38508,   0.00008,274726725.64709,   0.00006,   0.00007,   0.00001,   0.01705,   1.00000
469938072.50800,479069928.61977,7072246.58717,   0.00127,   0.00134,   0.00010,475103579.91862,   0.00008,274727963.83573,   0.00006,   0.00007,   0.00001,   0.01676,   1.00000
470241542.95272,478796152.77010,6948292.20736,   0.00127,   0.00134,   0.00010,475118950.88698,   0.00008,274729248.37699,   0.00006,   0.00008,   0.00001,   0.01768,   1.00000
470538192.00865,478527530.82398,6824686.07866,   0.00127,   0.00134,   0.00010,475107061.82679,   0.00008,274730489.56206,   0.00006,   0.00008,   0.00001,   0.01618,   1.00000
470845367.36124,478247680.93519,6701191.73780,   0.00128,   0.00134,   0.00010,475108641.26406,   0.00008,274731731.78424,   0.00007,   0.00008,   0.00001,   0.01590,   1.00000
471151974.17389,477967332.00435,6577342.78022,   0.00128,   0.00133,   0.00010,475138395.60381,   0.00008,274733067.59046,   0.00007,   0.00008,   0.00001,   0.01804,   1.00000
471457526.88535,477686960.34314,6448495.37427,   0.00128,   0.00133,   0.00009,475112269.58947,   0.00009,274734313.11958,   0.00007,   0.00008,   0.00001,   0.01540,   1.00000
471767753.97617,477400471.06199,6325108.07539,   0.00128,   0.00133,   0.00009,475128221.39322,   0.00009,274735606.88329,   0.00007,   0.00008,   0.00001,   0.01633,   1.00000
472065921.14106,477124790.13344,6196262.32705,   0.00129,   0.00133,   0.00009,475130131.63977,   0.00009,274736902.60422,   0.00007,   0.00008,   0.00001,   0.01610,   1.00000
472379988.77160,476832304.63124,6067751.47970,   0.00129,   0.00133,   0.00009,475117876.86949,   0.00009,274738153.75867,   0.00007,   0.00008,   0.00001,   0.01477,   1.00000
472693321.15305,476539388.98038,5938936.82055,   0.00129,   0.00133,   0.00009,475147688.17874,   0.00009,274739498.64197,   0.00007,   0.00008,   0.00001,   0.01681,   1.00000
473000116.87879,476251813.10398,5804879.84610,   0.00130,   0.00133,   0.00009,475135631.24661,   0.00009,274740799.45338,   0.00007,   0.00008,   0.00001,   0.01549,   1.00000
473316978.10031,475952605.79447,5676516.51538,   0.00130,   0.00133,   0.00008,475137709.00453,   0.00009,274742102.75857,   0.00007,   0.00009,   0.00001,   0.01534,   1.00000
473621806.28047,475664262.30454,5542702.24463,   0.00130,   0.00133,   0.00008,475139590.84180,   0.00009,274743407.90836,   0.00007,   0.00009,   0.00001,   0.01520,   1.00000
473936858.71089,475364449.98545,5409013.43846,   0.00131,   0.00133,   0.00008,475141513.04872,   0.00010,274744715.03178,   0.00008,   0.00009,   0.00001,   0.01507,   1.00000
474256541.96865,475058712.92316,5275264.24038,   0.00131,   0.00133,   0.00008,475157454.01309,   0.00010,274746070.15168,   0.00008,   0.00009,   0.00001,   0.01602,   1.00000
474569538.26676,474758086.63233,5141824.92384,   0.00131,   0.00132,   0.00008,475145603.00746,   0.00010,274747381.86589,   0.00008,   0.00009,   0.00001,   0.01488,   1.00000
474887299.69869,474451716.33539,5002766.41383,   0.00131,   0.00132,   0.00008,475161391.57615,   0.00010,274748741.06323,   0.00008,   0.00009,   0.00001,   0.01584,   1.00000
475209345.36231,474139103.89437,4869583.17843,   0.00132,   0.00132,   0.00007,475149738.27329,   0.00010,274750057.49983,   0.00008,   0.00009,   0.00001,   0.01476,   1.00000
475524967.40047,473831912.23901,4730790.76155,   0.00132,   0.00132,   0.00007,475165545.06467,   0.00010,274751421.46734,   0.00008,   0.00009,   0.00001,   0.01576,   1.00000
475845047.85461,473518611.56139,4592295.69055,   0.00132,   0.00132,   0.00007,475153744.15440,   0.00010,274752742.18213,   0.00008,   0.00009,   0.00001,   0.01472,   1.00000
476169725.53594,473199516.57466,4448206.48569,   0.00133,   0.00132,   0.00007,475169654.22350,   0.00010,274754110.75652,   0.00008,   0.00010,   0.00001,   0.01576,   1.00000
476487606.79278,472885576.64587,4309678.58932,   0.00133,   0.00132,   0.00007,475185836.05643,   0.00011,274755527.92631,   0.00008,   0.00010,   0.00001,   0.01688,   1.00000
476810058.80983,472565611.11829,4165869.68847,   0.00133,   0.00132,   0.00007,475173992.90693,   0.00011,274756901.54092,   0.00009,   0.00010,   0.00001,   0.01587,   1.00000
477136908.83850,472239417.48882,4022344.62423,   0.00134,   0.00132,   0.00006,475162295.52381,   0.00011,274758232.22825,   0.00009,   0.00010,   0.00001,   0.01492,   1.00000
477457101.84734,471918579.31513,3878823.01697,   0.00134,   0.00132,   0.00006,475178271.82123,   0.00011,274759610.96990,   0.00009,   0.00010,   0.00001,   0.01607,   1.00000
477781580.21491,471591793.68491,3735313.73402,   0.00134,   0.00131,   0.00006,475194478.35028,   0.00011,274761038.36571,   0.00009,   0.00010,   0.00001,   0.01731,   1.00000
478110547.49257,471258841.89012,3586509.65947,   0.00135,   0.00131,   0.00006,475182760.87068,   0.00011,274762422.60263,   0.00009,   0.00010,   0.00001,   0.01638,   1.00000
478438331.40681,470925425.00272,3437856.35001,   0.00135,   0.00131,   0.00006,475184977.47084,   0.00011,274763809.56333,   0.00009,   0.00010,   0.00001,   0.01658,   1.00000
478770151.07067,470585915.18765,3294807.23300,   0.00135,   0.00131,   0.00005,475201394.42004,   0.00011,274765245.85332,   0.00009,   0.00010,   0.00001,   0.01796,   1.00000
479095673.09745,470251688.06091,3140881.17690,   0.00136,   0.00131,   0.00005,475189356.00478,   0.00012,274766637.91340,   0.00009,   0.00011,   0.00001,   0.01705,   1.00000
479425187.81661,469911376.76471,2992576.78897,   0.00136,   0.00131,   0.00005,475205797.80362,   0.00012,274768079.37481,   0.00009,   0.00011,   0.00001,   0.01852,   1.00000
479753586.72021,469570709.05518,2838860.49561,   0.00136,   0.00131,   0.00005,475207987.86212,   0.00012,274769523.29985,   0.00010,   0.00011,   0.00001,   0.01884,   1.00000
480086178.55401,469223484.07211,2690971.56621,   0.00137,   0.00131,   0.00005,475196637.22498,   0.00012,274770925.24097,   0.00010,   0.00011,   0.00001,   0.01804,   1.00000
480417332.67826,468876384.47663,2537487.93522,   0.00137,   0.00131,   0.00004,475226695.18135,   0.00012,274772421.25750,   0.00010,   0.00011,   0.00001,   0.02089,   1.00000
480752820.96949,468522858.29665,2378687.52039,   0.00137,   0.00131,   0.00004,475215262.19016,   0.00012,274773874.85589,   0.00010,   0.00011,   0.00001,   0.02008,   1.00000
481086938.52486,468168761.24060,2225629.01664,   0.00138,   0.00130,   0.00004,475217705.19501,   0.00012,274775331.72711,   0.00010,   0.00011,   0.00001,   0.02057,   1.00000
481419851.53961,467814256.38467,2067166.77182,   0.00138,   0.00130,   0.00004,475219987.34877,   0.00012,274776791.33643,   0.00010,   0.00011,   0.00001,   0.02107,   1.00000
481751477.07026,467459265.66561,1908877.51487,   0.00138,   0.00130,   0.00004,475222354.28318,   0.00013,274778253.95757,   0.00010,   0.00011,   0.00001,   0.02162,   1.00000
482092422.42482,467092136.87253,1750759.45226,   0.00139,   0.00130,   0.00003,475225250.63074,   0.00013,274779721.32553,   0.00010,   0.00012,   0.00001,   0.02227,   1.00000
482426517.31538,466730671.80512,1592760.70028,   0.00139,   0.00130,   0.00003,475241329.70805,   0.00013,274781236.70418,   0.00011,   0.00012,   0.00001,   0.02432,   1.00000
482764844.42683,466362578.97136,1429421.26255,   0.00139,   0.00130,   0.00003,475230073.28829,   0.00013,274782710.20408,   0.00011,   0.00012,   0.00001,   0.02357,   1.00000
483106844.81961,465988470.89674,1266217.90279,   0.00140,   0.00130,   0.00003,475246743.12228,   0.00013,274784233.64912,   0.00011,   0.00012,   0.00001,   0.02586,   1.00000
483442450.87887,465619349.47876,1103241.95781,   0.00140,   0.00130,   0.00003,475235000.18173,   0.00013,274785713.59805,   0.00011,   0.00012,   0.00001,   0.02506,   1.00000
483781686.42587,465244225.66465,940414.87446,   0.00140,   0.00129,   0.00002,475251696.32837,   0.00013,274787243.57094,   0.00011,   0.00012,   0.00001,   0.02752,   1.00000
484119561.92149,464868624.93785,772206.74810,   0.00141,   0.00129,   0.00002,475254176.72196,   0.00014,274788776.73499,   0.00011,   0.00012,   0.00001,   0.02842,   1.00000
484460947.39039,464487000.35303,609742.89710,   0.00141,   0.00129,   0.00002,475271002.77586,   0.00014,274790360.19214,   0.00011,   0.00012,   0.00001,   0.03120,   1.00000
484801510.13291,464104029.61347,441936.16388,   0.00142,   0.00129,   0.00002,475245704.53146,   0.00014,274791855.45958,   0.00011,   0.00012,   0.00001,   0.02864,   1.00000
485145547.95392,463715047.31458,268741.05945,   0.00142,   0.00129,   0.00002,475262508.52499,   0.00014,274793401.08818,   0.00012,   0.00013,   0.00001,   0.03154,   1.00000
485482628.85174,463331928.58802,101317.37715,   0.00142,   0.00129,   0.00001,475278641.13772,   0.00014,274794994.71547,   0.00012,   0.00013,   0.00001,   0.03454,   1.00000
485828592.95448,462936396.41052,-71471.45695,   0.00143,   0.00129,   0.00001,475282045.74909,   0.00014,274796594.39445,   0.00012,   0.00013,   0.00001,   0.03590,   1.00000
486173727.12559,462539348.72886,-244065.04353,   0.00143,   0.00129,   0.00001,475256851.45027,   0.00014,274798106.17543,   0.00012,   0.00013,   0.00001,   0.03308,   1.00000
486516681.66529,462142753.64420,-416428.49821,   0.00143,   0.00128,   0.00001,475287283.55060,   0.00015,274799713.06571,   0.00012,   0.00013,   0.00001,   0.03856,   1.00000
486858137.06477,461745635.45689,-588578.30836,   0.00144,   0.00128,   0.00000,475289949.00971,   0.00015,274801323.55402,   0.00012,   0.00013,   0.00001,   0.03997,   1.00000
487208272.71892,461335958.01940,-766081.80110,   0.00144,   0.00128,   0.00000,475293553.97702,   0.00015,274802940.72606,   0.00012,   0.00013,   0.00001,   0.04163,   1.00000
487552127.89784,460931190.27573,-943397.06546,   0.00144,   0.00128,  -0.00000,475281895.73114,   0.00015,274804514.41484,   0.00013,   0.00013,   0.00001,   0.04070,   1.00000
487893671.87123,460527004.66292,-1120417.18112,   0.00145,   0.00128,  -0.00000,475312409.57541,   0.00015,274806183.33594,   0.00013,   0.00013,   0.00001,   0.04726,   1.00000
488244550.80796,460109006.61726,-1302865.07191,   0.00145,   0.00128,  -0.00001,475288354.23515,   0.00015,274807767.87646,   0.00013,   0.00014,   0.00001,   0.04403,   1.00000
488593053.34943,459691667.84410,-1479414.14300,   0.00146,   0.00128,  -0.00001,475318883.77414,   0.00015,274809447.70027,   0.00013,   0.00014,   0.00001,   0.05112,   1.00000
488935283.87217,459279190.59355,-1661361.22258,   0.00146,   0.00127,  -0.00001,475307311.53474,   0.00016,274811084.13110,   0.00013,   0.00014,   0.00001,   0.05010,   1.00000
489285976.35205,458854007.83492,-1843070.41905,   0.00146,   0.00127,  -0.00001,475311138.72339,   0.00016,274812727.93648,   0.00013,   0.00014,   0.00001,   0.05225,   1.00000
489629509.86691,458434925.99690,-2030046.25269,   0.00147,   0.00127,  -0.00001,475327392.91730,   0.00016,274814419.95124,   0.00013,   0.00014,   0.00001,   0.05717,   1.00000
489981397.01234,458003088.50759,-2216767.52093,   0.00147,   0.00127,  -0.00002,475331362.07606,   0.00016,274816119.64617,   0.00014,   0.00014,   0.00001,   0.05963,   1.00000
490327089.79933,457576117.79458,-2403326.53574,   0.00148,   0.00127,  -0.00002,475319770.72406,   0.00016,274817775.83293,   0.00014,   0.00014,   0.00001,   0.05847,   1.00000
490675622.36311,457143146.79989,-2589547.30316,   0.00148,   0.00127,  -0.00002,475337107.42894,   0.00016,274819483.79059,   0.00014,   0.00014,   0.00001,   0.06424,   1.00000
491027904.41245,456702759.57266,-2775609.60817,   0.00148,   0.00127,  -0.00002,475326703.12372,   0.00016,274821152.12632,   0.00014,   0.00015,   0.00001,   0.06333,   1.00000
491372946.46403,456268571.21765,-2966895.24908,   0.00149,   0.00126,  -0.00003,475342993.91436,   0.00017,274822868.77961,   0.00014,   0.00015,   0.00001,   0.06923,   1.00000
491726127.14390,455821487.20239,-3157910.51502,   0.00149,   0.00126,  -0.00003,475347179.56328,   0.00017,274824593.79040,   0.00014,   0.00015,   0.00001,   0.07222,   1.00000
492077551.76188,455373815.70818,-3348663.62700,   0.00149,   0.00126,  -0.00003,475350161.43832,   0.00017,274826323.17882,   0.00014,   0.00015,   0.00001,   0.07496,   1.00000
492427094.33630,454925445.57352,-3544721.94745,   0.00150,   0.00126,  -0.00003,475353269.44248,   0.00017,274828057.35391,   0.00015,   0.00015,   0.00001,   0.07783,   1.00000
492775011.16204,454476613.20967,-3734940.90005,   0.00150,   0.00126,  -0.00004,475356136.23472,   0.00017,274829795.51303,   0.00015,   0.00015,   0.00001,   0.08069,   1.00000
493125197.66717,454021551.53468,-3935886.65428,   0.00151,   0.00126,  -0.00004,475373992.70850,   0.00017,274831587.00089,   0.00015,   0.00015,   0.00001,   0.08849,   1.00000
493479118.94025,453558976.06029,-4131113.93991,   0.00151,   0.00125,  -0.00004,475363735.61818,   0.00018,274833339.10480,   0.00015,   0.00015,   0.00001,   0.08737,   1.00000
493825824.98810,453102896.83034,-4325922.79127,   0.00152,   0.00125,  -0.00005,475379983.33259,   0.00018,274835139.22533,   0.00015,   0.00015,   0.00001,   0.09512,   1.00000
494175959.45268,452638982.91782,-4526166.82664,   0.00152,   0.00125,  -0.00005,475370051.29632,   0.00018,274836901.00699,   0.00015,   0.00016,   0.00001,   0.09399,   1.00000
494528463.36932,452169090.86855,-4725952.41459,   0.00152,   0.00125,  -0.00005,475387776.63905,   0.00018,274838715.68142,   0.00015,   0.00016,   0.00001,   0.10286,   1.00000
494878915.04353,451698445.96893,-4931012.00887,   0.00153,   0.00125,  -0.00005,475391105.99463,   0.00018,274840535.66899,   0.00016,   0.00016,   0.00001,   0.10670,   1.00000
495227674.62042,451227374.59406,-5130203.37961,   0.00153,   0.00125,  -0.00006,475394096.90856,   0.00018,274842359.84474,   0.00016,   0.00016,   0.00001,   0.11049,   1.00000
495579736.88408,450748300.01209,-5334842.30408,   0.00154,   0.00125,  -0.00006,475384340.59632,   0.00019,274844146.19583,   0.00016,   0.00016,   0.00001,   0.10923,   1.00000
495933992.79590,450263253.50247,-5538979.32079,   0.00154,   0.00124,  -0.00006,475402200.22329,   0.00019,274845985.88248,   0.00016,   0.00016,   0.00001,   0.11941,   1.00000
496286092.85769,449777410.97488,-5748376.35421,   0.00154,   0.00124,  -0.00006,475405642.30511,   0.00019,274847831.21901,   0.00016,   0.00016,   0.00001,   0.12381,   1.00000
496636238.78543,449290955.94726,-5957458.41873,   0.00155,   0.00124,  -0.00007,475408898.48019,   0.00019,274849681.58317,   0.00016,   0.00016,   0.00001,   0.12823,   1.00000
496984435.23446,448803896.42053,-6166224.58357,   0.00155,   0.00124,  -0.00007,475412156.00028,   0.00019,274851536.97208,   0.00017,   0.00017,   0.00001,   0.13276,   1.00000
497334681.30818,448310913.19065,-6374437.80973,   0.00156,   0.00124,  -0.00007,475430160.60266,   0.00019,274853446.03765,   0.00017,   0.00017,   0.00001,   0.14471,   1.00000
497688264.28310,447809899.80153,-6582540.52601,   0.00156,   0.00124,  -0.00008,475420493.27444,   0.00020,274855317.32071,   0.00017,   0.00017,   0.00001,   0.14315,   1.00000
498034269.40590,447315527.98938,-6795665.72972,   0.00157,   0.00123,  -0.00008,475437043.43956,   0.00020,274857237.47021,   0.00017,   0.00017,   0.00001,   0.15507,   1.00000
498383591.51100,446813064.41529,-7008683.37242,   0.00157,   0.00123,  -0.00008,475427428.65073,   0.00020,274859119.97608,   0.00017,   0.00017,   0.00001,   0.15335,   1.00000
498734518.70808,446304457.07224,-7226665.75205,   0.00157,   0.00123,  -0.00008,475445825.24387,   0.00020,274861057.46132,   0.00018,   0.00017,   0.00001,   0.16712,   1.00000
499088940.62757,445787902.61109,-7438977.85709,   0.00158,   0.00123,  -0.00009,475436068.25592,   0.00020,274862956.78875,   0.00018,   0.00017,   0.00001,   0.16522,   1.00000
499435708.62559,445278081.85104,-7656270.32155,   0.00158,   0.00123,  -0.00009,475452666.80042,   0.00020,274864905.14518,   0.00018,   0.00017,   0.00001,   0.17873,   1.00000
499785396.35870,444759768.47993,-7879030.54805,   0.00159,   0.00122,  -0.00009,475443487.59885,   0.00021,274866817.22000,   0.00018,   0.00018,   0.00001,   0.17697,   1.00000
500137065.86923,444235813.63231,-8095572.37770,   0.00159,   0.00122,  -0.00010,475461500.48312,   0.00021,274868783.01223,   0.00018,   0.00018,   0.00001,   0.19226,   1.00000
500486295.03053,443710980.36742,-8317321.98476,   0.00160,   0.00122,  -0.00010,475465303.13463,   0.00021,274870755.39525,   0.00018,   0.00018,   0.00001,   0.19889,   1.00000
500833383.44718,443185532.87220,-8538707.33115,   0.00160,   0.00122,  -0.00010,475468830.54202,   0.00021,274872733.44830,   0.00019,   0.00018,   0.00001,   0.20547,   1.00000
501182047.17549,442654240.81708,-8759400.15089,   0.00160,   0.00122,  -0.00011,475487245.26888,   0.00021,274874766.41959,   0.00019,   0.00018,   0.00001,   0.22290,   1.00000
501529749.27109,442119487.15300,-8985904.09206,   0.00161,   0.00122,  -0.00011,475463462.01494,   0.00022,274876714.52925,   0.00019,   0.00018,   0.00001,   0.21017,   1.00000
501878933.65361,441578872.43358,-9211693.07858,   0.00161,   0.00121,  -0.00011,475481916.63657,   0.00022,274878717.83802,   0.00019,   0.00018,   0.00001,   0.22817,   1.00000
502225903.42570,441037633.95447,-9437102.25376,   0.00162,   0.00121,  -0.00011,475485535.52881,   0.00022,274880727.07946,   0.00019,   0.00018,   0.00001,   0.23556,   1.00000
502573909.77777,440490269.87379,-9667328.17743,   0.00162,   0.00121,  -0.00012,475504433.39974,   0.00022,274882792.85823,   0.00020,   0.00019,   0.00001,   0.25554,   1.00000
502920024.06014,439942610.62905,-9891595.18433,   0.00163,   0.00121,  -0.00012,475507797.94532,   0.00022,274884863.56257,   0.00020,   0.00019,   0.00001,   0.26337,   1.00000
503268323.48229,439385730.25861,-10126911.45200,   0.00163,   0.00121,  -0.00012,475499496.87817,   0.00023,274886900.54014,   0.00020,   0.00019,   0.00001,   0.26146,   1.00000
503614706.00895,438828534.51492,-10356263.96497,   0.00164,   0.00120,  -0.00013,475502861.82148,   0.00023,274888942.56336,   0.00020,   0.00019,   0.00001,   0.26944,   1.00000
503958408.54252,438270381.48281,-10590777.54394,   0.00164,   0.00120,  -0.00013,475506948.70554,   0.00023,274890992.02353,   0.00020,   0.00019,   0.00001,   0.27823,   1.00000
504303703.71171,437706794.99931,-10818919.06049,   0.00165,   0.00120,  -0.00013,475525300.90579,   0.00023,274893096.23471,   0.00020,   0.00019,   0.00001,   0.30060,   1.00000
504645854.56052,437141916.09532,-11057766.76992,   0.00165,   0.00120,  -0.00014,475529870.92990,   0.00023,274895209.32858,   0.00021,   0.00019,   0.00001,   0.31064,   1.00000
504991222.90938,436568617.65801,-11290987.14230,   0.00165,   0.00120,  -0.00014,475520685.59692,   0.00023,274897285.63600,   0.00021,   0.00019,   0.00001,   0.30729,   1.00000
505337202.26025,435989209.65420,-11528915.21054,   0.00166,   0.00119,  -0.00014,475539940.03671,   0.00024,274899419.71191,   0.00021,   0.00020,   0.00001,   0.33258,   1.00000
505677395.67337,435414290.35975,-11766853.81430,   0.00166,   0.00119,  -0.00015,475528791.81157,   0.00024,274901510.41244,   0.00021,   0.00020,   0.00001,   0.32684,   1.00000
506018127.16823,434833278.14530,-12009468.52286,   0.00167,   0.00119,  -0.00015,475548109.26496,   0.00024,274903659.10866,   0.00021,   0.00020,   0.00001,   0.35348,   1.00000
506356908.11122,434252038.93227,-12246083.43990,   0.00167,   0.00119,  -0.00015,475551602.14709,   0.00024,274905813.04888,   0.00022,   0.00020,   0.00001,   0.36353,   1.00000
506701204.47112,433656397.36583,-12487734.97984,   0.00168,   0.00119,  -0.00016,475558523.05547,   0.00024,274907983.64815,   0.00022,   0.00020,   0.00000,   0.37792,   1.00000
507043017.13458,433060134.59643,-12728935.37860,   0.00168,   0.00118,  -0.00016,475562524.58535,   0.00025,274910161.16007,   0.00022,   0.00020,   0.00000,   0.38920,   1.00000
507381862.96616,432462857.14813,-12975236.12079,   0.00169,   0.00118,  -0.00016,475566984.55984,   0.00025,274912347.10448,   0.00022,   0.00020,   0.00000,   0.40126,   1.00000
507718222.82640,431864968.11481,-13221073.40457,   0.00169,   0.00118,  -0.00017,475571007.49401,   0.00025,274914540.01346,   0.00022,   0.00020,   0.00000,   0.41300,   1.00000
508057131.25135,431257979.17154,-13466865.46645,   0.00170,   0.00118,  -0.00017,475562597.50770,   0.00025,274916698.47998,   0.00023,   0.00021,   0.00000,   0.40920,   1.00000
508391684.95050,430653885.39603,-13711250.68575,   0.00170,   0.00118,  -0.00017,475594190.14589,   0.00025,274918955.88411,   0.00023,   0.00021,   0.00000,   0.45754,   1.00000
508728205.37404,430040218.15275,-13961143.07246,   0.00171,   0.00117,  -0.00018,475586390.80119,   0.00026,274921180.69064,   0.00023,   0.00021,   0.00000,   0.45431,   1.00000
509067154.87763,429417327.64254,-14210993.55827,   0.00171,   0.00117,  -0.00018,475578142.37835,   0.00026,274923371.50611,   0.00023,   0.00021,   0.00000,   0.45032,   1.00000
509397985.17356,428802002.91167,-14465467.92398,   0.00172,   0.00117,  -0.00019,475595129.03238,   0.00026,274925612.60455,   0.00024,   0.00021,   0.00000,   0.48146,   1.00000
509734848.07402,428172883.99340,-14713793.54660,   0.00172,   0.00117,  -0.00019,475601629.48094,   0.00026,274927868.88586,   0.00024,   0.00021,   0.00000,   0.49861,   1.00000
510063573.57452,427551430.70562,-14966715.91101,   0.00173,   0.00116,  -0.00019,475618669.35324,   0.00026,274930175.50311,   0.00024,   0.00021,   0.00000,   0.53217,   1.00000
510394647.49076,426920648.77301,-15219599.57834,   0.00173,   0.00116,  -0.00020,475610605.28981,   0.00027,274932448.49313,   0.00024,   0.00022,   0.00000,   0.52771,   1.00000
510730426.09705,426275077.12537,-15477411.59581,   0.00174,   0.00116,  -0.00020,475618352.75655,   0.00027,274934740.81513,   0.00024,   0.00022,   0.00000,   0.54818,   1.00000
511055607.09991,425642631.52566,-15734823.37913,   0.00174,   0.00116,  -0.00020,475619669.55151,   0.00027,274937030.90862,   0.00025,   0.00022,   0.00000,   0.55841,   1.00000
511386003.69455,424995833.75587,-15991597.96238,   0.00175,   0.00116,  -0.00021,475626962.49616,   0.00027,274939338.79979,   0.00025,   0.00022,   0.00000,   0.57889,   1.00000
511713697.99155,424348439.94662,-16247851.37902,   0.00175,   0.00115,  -0.00021,475631291.90541,   0.00028,274941654.53628,   0.00025,   0.00022,   0.00000,   0.59474,   1.00000
512040967.38868,423695103.36190,-16508494.26889,   0.00176,   0.00115,  -0.00021,475651494.46625,   0.00028,274944031.26663,   0.00025,   0.00022,  -0.00000,   0.63923,   1.00000
512362618.75547,423046040.44126,-16769234.51917,   0.00176,   0.00115,  -0.00022,475640619.28890,   0.00028,274946364.73870,   0.00026,   0.00022,  -0.00000,   0.62844,   1.00000
512689256.67533,422382537.27900,-17029303.77401,   0.00177,   0.00115,  -0.00022,475648154.48331,   0.00028,274948716.79034,   0.00026,   0.00022,  -0.00000,   0.65126,   1.00000
513012459.48449,421717925.81554,-17294371.98327,   0.00177,   0.00114,  -0.00023,475653198.88925,   0.00028,274951079.03835,   0.00026,   0.00023,  -0.00000,   0.66991,   1.00000
513336353.49662,421048464.00472,-17552673.88065,   0.00178,   0.00114,  -0.00023,475672376.89696,   0.00029,274953498.88664,   0.00026,   0.00023,  -0.00000,   0.71673,   1.00000
513658091.85751,420373001.05349,-17822720.25628,   0.00178,   0.00114,  -0.00023,475650728.38685,   0.00029,274955839.18786,   0.00026,   0.00023,  -0.00000,   0.68345,   1.00000
513975680.26775,419701909.39094,-18085427.83595,   0.00179,   0.00114,  -0.00024,475681984.32923,   0.00029,274958277.79489,   0.00027,   0.00023,  -0.00000,   0.75622,   1.00000
514294520.44468,419020494.75353,-18353656.03028,   0.00179,   0.00113,  -0.00024,475675147.34879,   0.00029,274960686.51203,   0.00027,   0.00023,  -0.00000,   0.75187,   1.00000
514610508.88948,418338509.69774,-18621309.15423,   0.00180,   0.00113,  -0.00025,475679712.19871,   0.00029,274963103.74917,   0.00027,   0.00023,  -0.00000,   0.77143,   1.00000
514926337.18968,417651256.78543,-18887659.68639,   0.00180,   0.00113,  -0.00025,475699678.84229,   0.00030,274965581.30873,   0.00027,   0.00023,  -0.00000,   0.82552,   1.00000
515240598.23720,416958234.59119,-19160265.65380,   0.00181,   0.00113,  -0.00025,475677633.86783,   0.00030,274967977.68594,   0.00028,   0.00023,  -0.00000,   0.78662,   1.00000
515554601.63667,416259950.38427,-19431538.03045,   0.00181,   0.00112,  -0.00026,475697656.40843,   0.00030,274970434.73850,   0.00028,   0.00024,  -0.00000,   0.84217,   1.00000
515868294.55812,415556454.27051,-19701454.58612,   0.00182,   0.00112,  -0.00026,475717767.57188,   0.00030,274972952.64259,   0.00028,   0.00024,  -0.00001,   0.90052,   1.00000
516175683.33065,414856487.79737,-19977064.16822,   0.00182,   0.00112,  -0.00027,475707773.24905,   0.00031,274975429.77718,   0.00028,   0.00024,  -0.00001,   0.88720,   1.00000
516487343.18902,414141828.03870,-20251880.67111,   0.00183,   0.00112,  -0.00027,475716077.40516,   0.00031,274977927.99042,   0.00029,   0.00024,  -0.00001,   0.91858,   1.00000
516796004.16476,413426620.89401,-20526079.19847,   0.00183,   0.00111,  -0.00027,475720861.57470,   0.00031,274980435.36374,   0.00029,   0.00024,  -0.00001,   0.94172,   1.00000
517101678.23195,412710882.26739,-20799658.45310,   0.00184,   0.00111,  -0.00028,475725647.00847,   0.00031,274982951.88942,   0.00029,   0.00024,  -0.00001,   0.96517,   1.00000
517403563.59782,411994009.21288,-21078144.44101,   0.00184,   0.00111,  -0.00028,475731176.25275,   0.00032,274985480.07406,   0.00029,   0.00024,  -0.00001,   0.99095,   1.00000
517709485.07718,411262371.56235,-21355797.20847,   0.00185,   0.00111,  -0.00029,475739736.27581,   0.00032,274988030.17764,   0.00030,   0.00024,  -0.00001,   0.00000,   2.00000
518009895.45129,410534739.28396,-21633645.91144,   0.00186,   0.00110,  -0.00029,475729111.90061,   0.00032,274990537.24792,   0.00030,   0.00025,  -0.00001,   0.00000,   2.00000
518308869.06661,409801433.08517,-21915538.61378,   0.00186,   0.00110,  -0.00029,475750238.96750,   0.00032,274993108.88234,   0.00030,   0.00025,  -0.00001,   0.00000,   2.00000
518607184.72690,409063134.48819,-22195916.30177,   0.00187,   0.00110,  -0.00030,475770704.20662,   0.00032,274995742.71419,   0.00030,   0.00025,  -0.00001,   0.00000,   2.00000
518904506.30578,408318963.23093,-22477150.64501,   0.00187,   0.00109,  -0.00030,475748487.33331,   0.00033,274998293.96657,   0.00031,   0.00025,  -0.00001,   0.00000,   2.00000
519201093.66527,407569827.75385,-22756848.69427,   0.00188,   0.00109,  -0.00031,475768990.36867,   0.00033,275000907.71622,   0.00031,   0.00025,  -0.00001,  -0.00000,   2.00000
519493671.90261,406819547.76492,-23041400.55133,   0.00188,   0.00109,  -0.00031,475774814.28038,   0.00033,275003534.02733,   0.00031,   0.00025,  -0.00001,  -0.00000,   2.00000
519787535.58363,406058789.29928,-23325945.93445,   0.00189,   0.00109,  -0.00032,475768266.86181,   0.00033,275006130.89155,   0.00031,   0.00025,  -0.00001,  -0.00000,   2.00000
520072927.51185,405306894.64439,-23614652.37478,   0.00189,   0.00108,  -0.00032,475785707.37094,   0.00034,275008779.87562,   0.00032,   0.00025,  -0.00001,  -0.00000,   2.00000
520362765.95648,404540777.91529,-23896906.40691,   0.00190,   0.00108,  -0.00032,475794007.12901,   0.00034,275011449.81933,   0.00032,   0.00026,  -0.00001,   0.00000,   2.00000
520650584.55830,403767729.93908,-24185617.95491,   0.00190,   0.00108,  -0.00033,475772855.65729,   0.00034,275014040.49784,   0.00032,   0.00026,  -0.00001,   0.00000,   2.00000
520932147.30869,402999329.94902,-24477502.69566,   0.00191,   0.00108,  -0.00033,475805926.46352,   0.00034,275016736.69392,   0.00033,   0.00026,  -0.00001,   0.00000,   2.00000
521217986.55927,402216677.85395,-24762900.20187,   0.00192,   0.00107,  -0.00034,475814422.68721,   0.00035,275019454.49044,   0.00033,   0.00026,  -0.00002,   0.00000,   2.00000
521497416.51261,401437159.31811,-25054070.97722,   0.00192,   0.00107,  -0.00034,475804890.51050,   0.00035,275022132.38096,   0.00033,   0.00026,  -0.00002,  -0.00000,   2.00000
521780040.67396,400642630.15731,-25344256.77808,   0.00193,   0.00107,  -0.00035,475814351.60938,   0.00035,275024835.28841,   0.00033,   0.00026,  -0.00002,   0.00000,   2.00000
522051989.20748,399861507.66232,-25639500.14785,   0.00193,   0.00106,  -0.00035,475816234.98318,   0.00035,275027537.27163,   0.00034,   0.00026,  -0.00002,   0.00000,   2.00000
522330182.41053,399061879.73374,-25927214.69737,   0.00194,   0.00106,  -0.00036,475840575.64469,   0.00036,275030315.10117,   0.00034,   0.00026,  -0.00002,   0.00000,   2.00000
522601944.78420,398265306.05468,-26220719.70011,   0.00194,   0.00106,  -0.00036,475831158.38044,   0.00036,275033053.20744,   0.00034,   0.00026,  -0.00002,   0.00000,   2.00000
522873554.35089,397457090.93757,-26519731.42946,   0.00195,   0.00105,  -0.00036,475826109.24302,   0.00036,275035766.65433,   0.00034,   0.00027,  -0.00002,   0.00000,   2.00000
523144918.05610,396645039.71578,-26811441.04057,   0.00195,   0.00105,  -0.00037,475846244.80017,   0.00036,275038541.73278,   0.00035,   0.00027,  -0.00002,   0.00000,   2.00000
523411876.31954,395831838.95729,-27107900.55652,   0.00196,   0.00105,  -0.00037,475852606.21465,   0.00037,275041331.13525,   0.00035,   0.00027,  -0.00002,   0.00000,   2.00000
523675482.01685,395018250.89664,-27403594.37130,   0.00197,   0.00105,  -0.00038,475858037.96199,   0.00037,275044131.65165,   0.00035,   0.00027,  -0.00002,   0.00000,   2.00000
523938733.48968,394192858.46659,-27704788.68008,   0.00197,   0.00104,  -0.00038,475853259.58250,   0.00037,275046908.26127,   0.00036,   0.00027,  -0.00002,   0.00000,   2.00000
524201650.31676,393363796.35751,-27998612.30586,   0.00198,   0.00104,  -0.00039,475873518.58308,   0.00037,275049747.00267,   0.00036,   0.00027,  -0.00002,   0.00000,   2.00000
524458100.99659,392537615.79519,-28298261.45804,   0.00198,   0.00104,  -0.00039,475864263.94517,   0.00038,275052546.32524,   0.00036,   0.00027,  -0.00002,   0.00000,   2.00000
524715986.15844,391695489.72773,-28602291.35002,   0.00199,   0.00103,  -0.00040,475875436.53641,   0.00038,275055376.61244,   0.00037,   0.00027,  -0.00002,   0.00000,   2.00000
524971525.14369,390853775.53246,-28900025.00390,   0.00199,   0.00103,  -0.00040,475880017.28268,   0.00038,275058215.11253,   0.00037,   0.00028,  -0.00003,   0.00000,   2.00000
525222481.98997,390010914.26783,-29202457.89396,   0.00200,   0.00103,  -0.00041,475886621.20277,   0.00038,275061068.79217,   0.00037,   0.00028,  -0.00003,   0.00000,   2.00000
525471876.26588,389163804.98367,-29502928.13533,   0.00201,   0.00102,  -0.00041,475908043.80446,   0.00039,275063988.72350,   0.00037,   0.00028,  -0.00003,   0.00000,   2.00000
525720528.87399,388304605.08138,-29808879.52350,   0.00201,   0.00102,  -0.00042,475903778.50044,   0.00039,275066886.19046,   0.00038,   0.00028,  -0.00003,   0.00000,   2.00000
525963809.05031,387448928.52972,-30115181.36066,   0.00202,   0.00102,  -0.00042,475893659.60883,   0.00039,275069741.01993,   0.00038,   0.00028,  -0.00003,   0.00000,   2.00000
526207258.78942,386585260.04163,-30418274.58444,   0.00202,   0.00101,  -0.00042,475931015.18092,   0.00040,275072717.37631,   0.00038,   0.00028,  -0.00003,  -0.00000,   2.00000
526449180.41631,385714004.96215,-30722559.50178,   0.00203,   0.00101,  -0.00043,475910046.24668,   0.00040,275075613.33387,   0.00039,   0.00028,  -0.00003,   0.00000,   2.00000
526687558.00199,384842435.50708,-31026012.04444,   0.00203,   0.00101,  -0.00043,475915794.98441,   0.00040,275078521.52934,   0.00039,   0.00028,  -0.00003,  -0.00000,   2.00000
526922950.09663,383965988.85314,-31332879.75616,   0.00204,   0.00100,  -0.00044,475938531.47100,   0.00040,275081500.81084,   0.00039,   0.00028,  -0.00003,  -0.00000,   2.00000
527158501.91041,383078022.17818,-31639734.92739,   0.00205,   0.00100,  -0.00044,475933563.37649,   0.00041,275084455.02347,   0.00040,   0.00029,  -0.00003,   0.00000,   2.00000
527389187.99021,382188924.70456,-31951207.55938,   0.00205,   0.00100,  -0.00045,475940563.09978,   0.00041,275087425.75501,   0.00040,   0.00029,  -0.00003,  -0.00000,   2.00000
527616260.75412,381299557.63246,-32261806.32245,   0.00206,   0.00099,  -0.00045,475946464.26418,   0.00041,275090409.16355,   0.00040,   0.00029,  -0.00003,  -0.00000,   2.00000
527839739.40126,380409942.71347,-32571530.08851,   0.00206,   0.00099,  -0.00046,475952366.48354,   0.00041,275093405.23296,   0.00040,   0.00029,  -0.00004,  -0.00000,   2.00000
528064930.82271,379505048.98521,-32879953.10545,   0.00207,   0.00099,  -0.00046,475963502.47178,   0.00042,275096432.18979,   0.00041,   0.00029,  -0.00004,   0.00000,   2.00000
528284799.50762,378603506.75951,-33188796.21475,   0.00208,   0.00098,  -0.00047,475953562.47092,   0.00042,275099416.58839,   0.00041,   0.00029,  -0.00004,   0.00000,   2.00000
528504937.37004,377685768.99913,-33501790.58717,   0.00208,   0.00098,  -0.00047,475965984.91123,   0.00042,275102436.48731,   0.00041,   0.00029,  -0.00004,  -0.00000,   2.00000
528717850.91040,376779393.12268,-33812997.69968,   0.00209,   0.00098,  -0.00048,475982649.94360,   0.00043,275105506.59235,   0.00042,   0.00029,  -0.00004,  -0.00000,   2.00000
528929287.79718,375860322.38457,-34129655.38426,   0.00209,   0.00097,  -0.00048,475979304.05213,   0.00043,275108556.99779,   0.00042,   0.00029,  -0.00004,   0.00000,   2.00000
529143445.10733,374926810.11319,-34439471.91518,   0.00210,   0.00097,  -0.00049,475989607.22413,   0.00043,275111635.46339,   0.00042,   0.00029,  -0.00004,   0.00000,   2.00000
529347474.09941,374007374.47788,-34754302.21198,   0.00211,   0.00097,  -0.00049,475991518.16668,   0.00043,275114712.56063,   0.00043,   0.00030,  -0.00004,   0.00000,   2.00000
529552815.49106,373072614.53005,-35067735.94375,   0.00211,   0.00096,  -0.00050,476003116.28459,   0.00044,275117822.24250,   0.00043,   0.00030,  -0.00004,   0.00000,   2.00000
529756391.86850,372124969.68202,-35386606.25085,   0.00212,   0.00096,  -0.00050,476000094.13107,   0.00044,275120913.27294,   0.00043,   0.00030,  -0.00004,   0.00000,   2.00000
529954241.83012,371189943.29692,-35698159.10764,   0.00212,   0.00095,  -0.00051,476015504.27691,   0.00044,275124050.28019,   0.00044,   0.00030,  -0.00005,   0.00000,   2.00000
530150280.71545,370241973.18726,-36015152.96948,   0.00213,   0.00095,  -0.00051,476012568.24125,   0.00044,275127168.83445,   0.00044,   0.00030,  -0.00005,   0.00000,   2.00000
530345898.62475,369277712.82117,-36336141.20830,   0.00214,   0.00095,  -0.00052,476025766.23176,   0.00045,275130325.70024,   0.00044,   0.00030,  -0.00005,   0.00000,   2.00000
530534369.87752,368329505.53796,-36651221.90667,   0.00214,   0.00094,  -0.00052,476025136.43098,   0.00045,275133472.13709,   0.00045,   0.00030,  -0.00005,   0.00000,   2.00000
530722344.74893,367365014.89242,-36970275.28936,   0.00215,   0.00094,  -0.00053,476038439.31671,   0.00045,275136657.25262,   0.00045,   0.00030,  -0.00005,  -0.00000,   2.00000
530909665.23210,366388326.33762,-37289293.99915,   0.00215,   0.00094,  -0.00054,476034549.35726,   0.00046,275139820.44589,   0.00045,   0.00030,  -0.00005,  -0.00000,   2.00000
531089978.61113,365423703.07176,-37606388.53639,   0.00216,   0.00093,  -0.00054,476051192.16047,   0.00046,275143034.12311,   0.00046,   0.00030,  -0.00005,   0.00000,   2.00000
531268118.67552,364445883.84281,-37928896.02899,   0.00217,   0.00093,  -0.00055,476048703.69826,   0.00046,275146230.71715,   0.00046,   0.00031,  -0.00005,   0.00000,   2.00000
531446900.52941,363452678.52539,-38249853.25496,   0.00217,   0.00092,  -0.00055,476061058.00847,   0.00047,275149462.73804,   0.00046,   0.00031,  -0.00005,   0.00000,   2.00000
531617306.64866,362474763.44201,-38570368.40973,   0.00218,   0.00092,  -0.00056,476061642.16484,   0.00047,275152688.45851,   0.00047,   0.00031,  -0.00005,   0.00000,   2.00000
531788307.02851,361481483.42330,-38889314.97078,   0.00218,   0.00092,  -0.00056,476074079.74034,   0.00047,275155949.88911,   0.00047,   0.00031,  -0.00006,   0.00000,   2.00000
531953875.21114,360487237.43603,-39212685.04469,   0.00219,   0.00091,  -0.00057,476082004.36767,   0.00047,275159230.98831,   0.00047,   0.00031,  -0.00006,  -0.00000,   2.00000
532118489.42201,359480553.47482,-39536005.40850,   0.00220,   0.00091,  -0.00057,476078536.90680,   0.00048,275162491.35501,   0.00048,   0.00031,  -0.00006,  -0.00000,   2.00000
532279166.96271,358473867.30566,-39858300.12586,   0.00220,   0.00090,  -0.00058,476085143.08978,   0.00048,275165766.78355,   0.00048,   0.00031,  -0.00006,   0.00000,   2.00000
532435932.10454,357467204.18801,-40179568.44017,   0.00221,   0.00090,  -0.00058,476091750.16068,   0.00048,275169057.24962,   0.00048,   0.00031,  -0.00006,   0.00000,   2.00000
532590027.62514,356447002.22641,-40506219.30840,   0.00222,   0.00090,  -0.00059,476089844.62748,   0.00049,275172332.49344,   0.00049,   0.00031,  -0.00006,   0.00000,   2.00000
532741488.07901,355424040.01239,-40830209.65047,   0.00222,   0.00089,  -0.00059,476112667.11162,   0.00049,275175680.59026,   0.00049,   0.00031,  -0.00006,   0.00000,   2.00000
532888987.21559,354401161.74363,-41153144.74088,   0.00223,   0.00089,  -0.00060,476119409.61854,   0.00049,275179044.10600,   0.00049,   0.00031,  -0.00006,   0.00000,   2.00000
533033951.49405,353368353.19689,-41477665.26900,   0.00223,   0.00088,  -0.00060,476100147.35458,   0.00050,275182330.26646,   0.00050,   0.00032,  -0.00007,   0.00000,   2.00000
533174586.88998,352331924.10377,-41804895.84779,   0.00224,   0.00088,  -0.00061,476124503.09841,   0.00050,275185694.98284,   0.00050,   0.00032,  -0.00007,   0.00000,   2.00000
533311233.07263,351295603.03779,-42131051.76502,   0.00225,   0.00088,  -0.00062,476131311.84722,   0.00050,275189075.39477,   0.00051,   0.00032,  -0.00007,  -0.00000,   2.00000
533447794.70088,350243928.93043,-42455462.95488,   0.00225,   0.00087,  -0.00062,476144573.21702,   0.00050,275192494.60896,   0.00051,   0.00032,  -0.00007,  -0.00000,   2.00000
533579048.33882,349194969.20540,-42780480.72223,   0.00226,   0.00087,  -0.00063,476135294.27416,   0.00051,275195871.80833,   0.00051,   0.00032,  -0.00007,   0.00000,   2.00000
533708384.84625,348129625.40860,-43109135.91454,   0.00227,   0.00086,  -0.00063,476150195.78795,   0.00051,275199293.81920,   0.00052,   0.00032,  -0.00007,   0.00000,   2.00000
533829893.67425,347079959.16186,-43437381.83280,   0.00227,   0.00086,  -0.00064,476150603.38738,   0.00051,275202708.49153,   0.00052,   0.00032,  -0.00007,   0.00000,   2.00000
533951128.27538,346014949.79332,-43763825.40392,   0.00228,   0.00085,  -0.00064,476164099.92071,   0.00052,275206162.90899,   0.00052,   0.00032,  -0.00007,   0.00000,   2.00000
534070733.66290,344937016.09016,-44090190.98832,   0.00228,   0.00085,  -0.00065,476161522.93642,   0.00052,275209599.22734,   0.00053,   0.00032,  -0.00008,  -0.00000,   2.00000
534184484.83087,343858245.81806,-44420839.87300,   0.00229,   0.00085,  -0.00065,476170113.30690,   0.00052,275213057.68991,   0.00053,   0.00032,  -0.00008,   0.00000,   2.00000
534294145.93311,342779689.71398,-44750361.16602,   0.00230,   0.00084,  -0.00066,476177169.00468,   0.00053,275216532.72306,   0.00053,   0.00032,  -0.00008,   0.00000,   2.00000
534399744.62320,341701374.92139,-45078754.45846,   0.00230,   0.00084,  -0.00067,476184225.42307,   0.00053,275220024.29580,   0.00054,   0.00032,  -0.00008,   0.00000,   2.00000
534503559.42901,340609997.53889,-45407062.64721,   0.00231,   0.00083,  -0.00067,476181860.57740,   0.00053,275223498.38663,   0.00054,   0.00033,  -0.00008,  -0.00000,   2.00000
534602664.64940,339515622.39376,-45737811.61827,   0.00232,   0.00083,  -0.00068,476206825.68104,   0.00054,275227053.85189,   0.00055,   0.00033,  -0.00008,  -0.00000,   2.00000
534698652.54242,338410299.84076,-46070277.10230,   0.00232,   0.00082,  -0.00068,476188409.45720,   0.00054,275230533.56714,   0.00055,   0.00033,  -0.00008,  -0.00000,   2.00000
534791674.94132,337303110.70090,-46399752.52189,   0.00233,   0.00082,  -0.00069,476211848.36985,   0.00054,275234089.31039,   0.00055,   0.00033,  -0.00009,  -0.00000,   2.00000
534880567.27149,336196251.23230,-46728066.33803,   0.00234,   0.00081,  -0.00069,476219087.56445,   0.00055,275237662.19095,   0.00056,   0.00033,  -0.00009,   0.00000,   2.00000
534965543.61411,335075117.20655,-47061650.51013,   0.00234,   0.00081,  -0.00070,476218742.93777,   0.00055,275241224.68866,   0.00056,   0.00033,  -0.00009,   0.00000,   2.00000
535048213.78193,333955379.57604,-47388681.03621,   0.00235,   0.00081,  -0.00071,476224386.59874,   0.00055,275244798.56706,   0.00056,   0.00033,  -0.00009,   0.00000,   2.00000
535124864.46954,332834951.37873,-47719914.12885,   0.00235,   0.00080,  -0.00071,476233350.69910,   0.00056,275248395.89309,   0.00057,   0.00033,  -0.00009,   0.00000,   2.00000
535197413.61674,331700129.43535,-48056396.86600,   0.00236,   0.00080,  -0.00072,476233224.87478,   0.00056,275251983.56089,   0.00057,   0.00033,  -0.00009,   0.00000,   2.00000
535267673.73194,330566748.23571,-48386312.44604,   0.00237,   0.00079,  -0.00072,476238908.93134,   0.00056,275255582.75170,   0.00058,   0.00033,  -0.00009,   0.00000,   2.00000
535332996.30344,329430872.37828,-48718472.53394,   0.00237,   0.00079,  -0.00073,476264291.60417,   0.00057,275259265.37010,   0.00058,   0.00033,  -0.00010,   0.00000,   2.00000
535394823.65278,328283395.14133,-49052435.80690,   0.00238,   0.00078,  -0.00074,476246413.63873,   0.00057,275262873.20351,   0.00058,   0.00033,  -0.00010,   0.00000,   2.00000
535453581.48587,327134588.90601,-49383235.60558,   0.00239,   0.00078,  -0.00074,476270167.16074,   0.00057,275266558.68444,   0.00059,   0.00033,  -0.00010,  -0.00000,   2.00000
535508158.03745,325986275.45819,-49712818.23865,   0.00239,   0.00077,  -0.00075,476277669.32498,   0.00058,275270262.15338,   0.00059,   0.00033,  -0.00010,   0.00000,   2.00000
535558271.18130,324823391.81195,-50047614.21604,   0.00240,   0.00077,  -0.00075,476278025.89351,   0.00058,275273957.42563,   0.00060,   0.00033,  -0.00010,  -0.00000,   2.00000
535605021.29782,323663711.04151,-50377817.63351,   0.00241,   0.00076,  -0.00076,476267497.95214,   0.00058,275277604.52963,   0.00060,   0.00034,  -0.00010,   0.00000,   2.00000
535648293.68119,322487757.42616,-50711230.33094,   0.00241,   0.00076,  -0.00076,476284272.74075,   0.00059,275281303.92428,   0.00060,   0.00034,  -0.00011,   0.00000,   2.00000
535685287.96494,321311241.54096,-51048740.02012,   0.00242,   0.00075,  -0.00077,476293697.78753,   0.00059,275285028.48750,   0.00061,   0.00034,  -0.00011,   0.00000,   2.00000
535721180.41805,320134876.17364,-51377618.41135,   0.00243,   0.00075,  -0.00078,476315893.93295,   0.00059,275288825.19512,   0.00061,   0.00034,  -0.00011,   0.00000,   2.00000
535751157.99702,318945236.39874,-51713715.96198,   0.00243,   0.00074,  -0.00078,476300340.03997,   0.00060,275292554.78508,   0.00062,   0.00034,  -0.00011,   0.00000,   2.00000
535776857.94402,317756163.75925,-52048547.02983,   0.00244,   0.00074,  -0.00079,476308047.94795,   0.00060,275296303.21288,   0.00062,   0.00034,  -0.00011,  -0.00000,   2.00000
535798312.90102,316567687.94415,-52382111.82699,   0.00244,   0.00073,  -0.00079,476315756.36738,   0.00060,275300070.43635,   0.00062,   0.00034,  -0.00011,  -0.00000,   2.00000
535817975.52471,315364136.50497,-52713423.18707,   0.00245,   0.00073,  -0.00080,476331227.18837,   0.00061,275303885.17877,   0.00063,   0.00034,  -0.00012,   0.00000,   2.00000
535830156.11208,314161413.98870,-53050874.92558,   0.00246,   0.00072,  -0.00081,476324551.52298,   0.00061,275307665.33649,   0.00063,   0.00034,  -0.00012,   0.00000,   2.00000
535841293.24097,312959219.11417,-53379608.35881,   0.00246,   0.00072,  -0.00081,476346833.11914,   0.00061,275311518.30616,   0.00064,   0.00034,  -0.00012,   0.00000,   2.00000
535847272.01022,311742110.43112,-53713481.08391,   0.00247,   0.00071,  -0.00082,476348064.44261,   0.00062,275315365.88046,   0.00064,   0.00034,  -0.00012,  -0.00000,   2.00000
535845716.54750,310525735.99645,-54053500.80670,   0.00248,   0.00071,  -0.00083,476341495.52378,   0.00062,275319179.07377,   0.00064,   0.00034,  -0.00012,   0.00000,   2.00000
535844220.61640,309295441.67419,-54385852.19175,   0.00248,   0.00070,  -0.00083,476355430.06892,   0.00062,275323034.24112,   0.00065,   0.00034,  -0.00012,  -0.00000,   2.00000
535836248.41745,308064784.41819,-54722204.90511,   0.00249,   0.00070,  -0.00084,476365315.47560,   0.00063,275326916.23090,   0.00065,   0.00034,  -0.00013,   0.00000,   2.00000
535826143.09452,306835994.04813,-55051926.89194,   0.00250,   0.00069,  -0.00084,476371366.98636,   0.00063,275330810.67528,   0.00066,   0.00034,  -0.00013,   0.00000,   2.00000
535810542.68974,305592118.92424,-55386750.27288,   0.00250,   0.00069,  -0.00085,476372990.76477,   0.00064,275334701.06962,   0.00066,   0.00034,  -0.00013,   0.00000,   2.00000
535788416.35087,304347929.28182,-55725542.79615,   0.00251,   0.00068,  -0.00086,476382996.26755,   0.00064,275338618.73838,   0.00067,   0.00034,  -0.00013,   0.00000,   2.00000
535764183.30187,303105660.36103,-56057690.56730,   0.00252,   0.00068,  -0.00086,476389097.53133,   0.00064,275342548.99991,   0.00067,   0.00034,  -0.00013,  -0.00000,   2.00000
535734263.44452,301848214.03736,-56394909.72148,   0.00252,   0.00067,  -0.00087,476390962.33777,   0.00065,275346476.00894,   0.00067,   0.00034,  -0.00014,   0.00000,   2.00000
535703360.66613,300591977.12545,-56723249.83457,   0.00253,   0.00067,  -0.00087,476413496.49526,   0.00065,275350477.24935,   0.00068,   0.00034,  -0.00014,   0.00000,   2.00000
535665497.00994,299321236.34121,-57058890.08011,   0.00254,   0.00066,  -0.00088,476399179.69987,   0.00065,275354414.29833,   0.00068,   0.00034,  -0.00014,  -0.00000,   2.00000
535620360.42353,298065323.22269,-57397346.10980,   0.00254,   0.00066,  -0.00089,476417428.59685,   0.00066,275358409.59757,   0.00069,   0.00034,  -0.00014,   0.00000,   2.00000
535575576.42320,296780633.65032,-57729096.66947,   0.00255,   0.00065,  -0.00089,476423962.71937,   0.00066,275362419.04387,   0.00069,   0.00035,  -0.00014,   0.00000,   2.00000
535522429.82460,295511489.27358,-58065927.31510,   0.00256,   0.00065,  -0.00090,476425861.73703,   0.00066,275366425.09327,   0.00069,   0.00035,  -0.00014,   0.00000,   2.00000
535467801.43965,294229207.58672,-58397215.73504,   0.00256,   0.00064,  -0.00091,476424104.50228,   0.00067,275370413.97919,   0.00070,   0.00035,  -0.00015,   0.00000,   2.00000
535407696.21909,292946335.03996,-58730102.49524,   0.00257,   0.00063,  -0.00091,476450829.16058,   0.00067,275374493.25948,   0.00070,   0.00035,  -0.00015,   0.00000,   2.00000
535342539.72605,291649602.20111,-59065029.89435,   0.00258,   0.00063,  -0.00092,476434914.08320,   0.00068,275378501.63972,   0.00071,   0.00035,  -0.00015,  -0.00000,   2.00000
535271849.02098,290352405.58132,-59401499.92705,   0.00258,   0.00062,  -0.00092,476461754.78033,   0.00068,275382601.02653,   0.00071,   0.00035,  -0.00015,  -0.00000,   2.00000
535199463.13869,289041995.13810,-59732402.77304,   0.00259,   0.00062,  -0.00093,476460325.07272,   0.00068,275386684.18250,   0.00072,   0.00035,  -0.00015,   0.00000,   2.00000
535118914.85601,287747230.95843,-60068411.23806,   0.00259,   0.00061,  -0.00094,476462183.95436,   0.00069,275390763.54470,   0.00072,   0.00035,  -0.00016,   0.00000,   2.00000
535035477.35062,286437870.49645,-60401752.92634,   0.00260,   0.00061,  -0.00094,476479300.39042,   0.00069,275394897.08631,   0.00073,   0.00035,  -0.00016,   0.00000,   2.00000
534947864.67339,285114115.87784,-60734782.72331,   0.00261,   0.00060,  -0.00095,476480158.69937,   0.00069,275399022.93934,   0.00073,   0.00035,  -0.00016,   0.00000,   2.00000
534854670.57229,283791587.31699,-61068778.79120,   0.00261,   0.00060,  -0.00096,476472281.73538,   0.00070,275403107.84472,   0.00073,   0.00035,  -0.00016,   0.00000,   2.00000
534755920.08158,282469027.27891,-61404195.80729,   0.00262,   0.00059,  -0.00096,476499350.20348,   0.00070,275407285.01499,   0.00074,   0.00035,  -0.00016,   0.00000,   2.00000
534652838.80159,281131999.13319,-61739274.78596,   0.00263,   0.00058,  -0.00097,476500428.02485,   0.00071,275411455.17750,   0.00074,   0.00035,  -0.00017,   0.00000,   2.00000
534547796.58220,279797271.02396,-62067663.77161,   0.00263,   0.00058,  -0.00098,476506880.37828,   0.00071,275415638.83192,   0.00075,   0.00035,  -0.00017,   0.00000,   2.00000
534434756.75438,278462560.12932,-62402298.25468,   0.00264,   0.00057,  -0.00098,476501259.48898,   0.00071,275419789.78096,   0.00075,   0.00035,  -0.00017,   0.00000,   2.00000
534316024.56815,277112325.25122,-62739371.35798,   0.00265,   0.00057,  -0.00099,476521099.97007,   0.00072,275424005.58298,   0.00076,   0.00035,  -0.00017,   0.00000,   2.00000
534195366.72425,275764452.90695,-63069740.17491,   0.00265,   0.00056,  -0.00100,476527611.19134,   0.00072,275428235.00900,   0.00076,   0.00035,  -0.00018,   0.00000,   2.00000
534067904.73128,274416781.34890,-63403879.93195,   0.00266,   0.00056,  -0.00100,476538542.25467,   0.00073,275432494.98022,   0.00077,   0.00035,  -0.00018,   0.00000,   2.00000
533938303.95434,273055601.14479,-63732422.70515,   0.00267,   0.00055,  -0.00101,476537790.50449,   0.00073,275436740.58417,   0.00077,   0.00035,  -0.00018,   0.00000,   2.00000
533800576.75206,271694285.34638,-64067221.13549,   0.00267,   0.00054,  -0.00101,476532386.48737,   0.00073,275440953.94134,   0.00077,   0.00035,  -0.00018,   0.00000,   2.00000
533659796.90517,270334709.52667,-64398034.45651,   0.00268,   0.00054,  -0.00102,476557544.28249,   0.00074,275445252.73779,   0.00078,   0.00035,  -0.00018,   0.00000,   2.00000
533511734.23872,268959375.54470,-64733675.27766,   0.00269,   0.00053,  -0.00103,476561508.53724,   0.00074,275449555.18125,   0.00078,   0.00035,  -0.00019,   0.00000,   2.00000
533361837.35816,267586533.42288,-65062601.97128,   0.00269,   0.00053,  -0.00103,476568109.11248,   0.00075,275453871.39705,   0.00079,   0.00035,  -0.00019,   0.00000,   2.00000
533204508.01546,266197888.01139,-65396338.33391,   0.00270,   0.00052,  -0.00104,476572249.26242,   0.00075,275458191.89527,   0.00079,   0.00035,  -0.00019,  -0.00000,   2.00000
533045347.23921,264811770.45110,-65723359.80221,   0.00271,   0.00051,  -0.00105,476578891.96761,   0.00075,275462526.30544,   0.00080,   0.00035,  -0.00019,   0.00000,   2.00000
532879294.02217,263426045.29332,-66054087.67314,   0.00271,   0.00051,  -0.00105,476590140.55288,   0.00076,275466892.42100,   0.00080,   0.00035,  -0.00020,   0.00000,   2.00000
532706833.87354,262024795.12009,-66386967.51569,   0.00272,   0.00050,  -0.00106,476575795.96620,   0.00076,275471191.00561,   0.00081,   0.00035,  -0.00020,   0.00000,   2.00000
532528781.61609,260624731.49140,-66720934.10381,   0.00273,   0.00050,  -0.00107,476603522.64289,   0.00077,275475585.42726,   0.00081,   0.00035,  -0.00020,  -0.00000,   2.00000
532348991.61757,259227292.30881,-67048177.13856,   0.00273,   0.00049,  -0.00107,476610216.93590,   0.00077,275479993.76048,   0.00082,   0.00035,  -0.00020,   0.00000,   2.00000
532161407.52529,257813949.86331,-67380166.01378,   0.00274,   0.00048,  -0.00108,476614857.75538,   0.00077,275484408.03106,   0.00082,   0.00035,  -0.00020,  -0.00000,   2.00000
531969468.56649,256402197.96037,-67710611.46827,   0.00275,   0.00048,  -0.00109,476623979.37449,   0.00078,275488845.64602,   0.00083,   0.00035,  -0.00021,  -0.00000,   2.00000
531774417.32990,254992115.46982,-68036971.82496,   0.00275,   0.00047,  -0.00109,476614302.71389,   0.00078,275493233.23890,   0.00083,   0.00035,  -0.00021,   0.00000,   2.00000
531570186.07197,253566041.30915,-68370586.59030,   0.00276,   0.00047,  -0.00110,476637933.21587,   0.00079,275497700.93834,   0.00084,   0.00035,  -0.00021,   0.00000,   2.00000
531364263.48899,252142697.44387,-68697462.81866,   0.00277,   0.00046,  -0.00111,476644737.51778,   0.00079,275502182.81228,   0.00084,   0.00035,  -0.00021,   0.00000,   2.00000
531152874.71328,250704433.47466,-69023854.57065,   0.00277,   0.00045,  -0.00111,476647401.24961,   0.00079,275506662.66202,   0.00084,   0.00035,  -0.00022,   0.00000,   2.00000
530934205.49125,249282241.23936,-69355470.18995,   0.00278,   0.00045,  -0.00112,476649188.33359,   0.00080,275511136.98656,   0.00085,   0.00035,  -0.00022,  -0.00000,   2.00000
530712917.41545,247830706.76292,-69679792.38767,   0.00279,   0.00044,  -0.00113,476659424.28219,   0.00080,275515638.98206,   0.00085,   0.00035,  -0.00022,  -0.00000,   2.00000
530484388.67278,246395267.18905,-70009350.64919,   0.00279,   0.00043,  -0.00113,476661219.25384,   0.00081,275520135.39598,   0.00086,   0.00035,  -0.00022,   0.00000,   2.00000
530251753.21635,244946207.74207,-70335683.52870,   0.00280,   0.00043,  -0.00114,476680496.83414,   0.00081,275524694.95249,   0.00086,   0.00035,  -0.00023,   0.00000,   2.00000
530012112.11387,243497927.35481,-70665586.10328,   0.00281,   0.00042,  -0.00115,476692344.39493,   0.00081,275529288.28704,   0.00087,   0.00035,  -0.00023,   0.00000,   2.00000
529767843.69916,242034160.15874,-70992519.76055,   0.00281,   0.00041,  -0.00115,476676614.40655,   0.00082,275533806.74609,   0.00087,   0.00035,  -0.00023,   0.00000,   2.00000
529520818.95811,240589111.72866,-71316828.47222,   0.00282,   0.00041,  -0.00116,476692197.62765,   0.00082,275538373.83275,   0.00088,   0.00035,  -0.00023,   0.00000,   2.00000
529265235.22830,239112640.99649,-71644027.20256,   0.00282,   0.00040,  -0.00117,476708079.44734,   0.00083,275542990.72104,   0.00088,   0.00035,  -0.00024,   0.00000,   2.00000
529005363.63085,237653384.28695,-71971339.39166,   0.00283,   0.00040,  -0.00117,476707363.42819,   0.00083,275547591.64769,   0.00089,   0.00035,  -0.00024,   0.00000,   2.00000
528741204.58031,236180765.52829,-72295312.43265,   0.00284,   0.00039,  -0.00118,476727070.04501,   0.00084,275552257.44563,   0.00089,   0.00035,  -0.00024,   0.00000,   2.00000
528471127.09373,234708330.42398,-72620456.87054,   0.00284,   0.00038,  -0.00119,476720251.71755,   0.00084,275556882.92037,   0.00090,   0.00034,  -0.00024,   0.00000,   2.00000
528194977.05078,233220758.46748,-72945016.22430,   0.00285,   0.00038,  -0.00120,476723766.66124,   0.00084,275561509.13548,   0.00090,   0.00034,  -0.00025,  -0.00000,   2.00000
527914547.37087,231735167.28418,-73267958.98329,   0.00286,   0.00037,  -0.00120,476733325.37495,   0.00085,275566160.04086,   0.00091,   0.00034,  -0.00025,   0.00000,   2.00000
527627075.56956,230250579.34827,-73594404.42978,   0.00286,   0.00036,  -0.00121,476745473.01474,   0.00085,275570845.85233,   0.00091,   0.00034,  -0.00025,   0.00000,   2.00000
527333379.76253,228750824.57254,-73920227.36631,   0.00287,   0.00036,  -0.00122,476749235.73264,   0.00086,275575533.17086,   0.00092,   0.00034,  -0.00026,   0.00000,   2.00000
527038252.42740,227254138.08535,-74239299.93007,   0.00288,   0.00035,  -0.00122,476756288.97069,   0.00086,275580235.04722,   0.00092,   0.00034,  -0.00026,   0.00000,   2.00000
526736087.60100,225758551.79977,-74561858.83038,   0.00288,   0.00034,  -0.00123,476768544.54190,   0.00087,275584972.16711,   0.00093,   0.00034,  -0.00026,   0.00000,   2.00000
526427562.16710,224247770.02255,-74883776.53633,   0.00289,   0.00034,  -0.00124,476772523.79472,   0.00087,275589711.45299,   0.00093,   0.00034,  -0.00026,   0.00000,   2.00000
526114206.78058,222755516.94867,-75208155.84971,   0.00290,   0.00033,  -0.00124,476790547.42537,   0.00087,275594508.92638,   0.00094,   0.00034,  -0.00027,  -0.00000,   2.00000
525795014.93582,221231643.11440,-75527762.39368,   0.00290,   0.00032,  -0.00125,476786406.08243,   0.00088,275599275.89036,   0.00094,   0.00034,  -0.00027,   0.00000,   2.00000
525469182.26755,219724061.59781,-75852701.79684,   0.00291,   0.00032,  -0.00126,476788133.70326,   0.00088,275604035.82739,   0.00095,   0.00034,  -0.00027,   0.00000,   2.00000
525141604.81520,218204606.00848,-76168985.73066,   0.00292,   0.00031,  -0.00126,476805976.29621,   0.00089,275608853.34017,   0.00095,   0.00034,  -0.00027,   0.00000,   2.00000
524805048.94717,216683964.58158,-76491600.29502,   0.00292,   0.00030,  -0.00127,476802196.17619,   0.00089,275613641.53692,   0.00096,   0.00034,  -0.00028,  -0.00000,   2.00000
524463785.97129,215150574.79557,-76810608.49537,   0.00293,   0.00029,  -0.00128,476822879.31685,   0.00090,275618498.74801,   0.00096,   0.00034,  -0.00028,   0.00000,   2.00000
524116368.28304,213616910.32394,-77130854.60240,   0.00294,   0.00029,  -0.00129,476816531.91310,   0.00090,275623316.11351,   0.00097,   0.00034,  -0.00028,   0.00000,   2.00000
523764804.97970,212085551.84436,-77449426.69458,   0.00294,   0.00028,  -0.00129,476826409.98822,   0.00091,275628158.98739,   0.00097,   0.00034,  -0.00029,   0.00000,   2.00000
523408474.98377,210541600.88342,-77764344.28555,   0.00295,   0.00027,  -0.00130,476847294.70291,   0.00091,275633071.67904,   0.00098,   0.00034,  -0.00029,   0.00000,   2.00000
523045785.22536,209014033.72329,-78084643.01434,   0.00296,   0.00027,  -0.00131,476848995.27657,   0.00091,275637976.58241,   0.00098,   0.00034,  -0.00029,  -0.00000,   2.00000
522673425.41684,207453432.66752,-78405134.23586,   0.00296,   0.00026,  -0.00131,476848595.95444,   0.00092,275642865.30897,   0.00099,   0.00034,  -0.00029,  -0.00000,   2.00000
522302735.67099,205913939.81940,-78717925.68937,   0.00297,   0.00025,  -0.00132,476861000.62857,   0.00092,275647789.54116,   0.00099,   0.00033,  -0.00030,   0.00000,   2.00000
521919977.17328,204355241.28322,-79037992.65865,   0.00297,   0.00025,  -0.00133,476852450.95935,   0.00093,275652664.44878,   0.00100,   0.00033,  -0.00030,   0.00000,   2.00000
521535283.89500,202801986.85996,-79353377.42157,   0.00298,   0.00024,  -0.00133,476878694.36256,   0.00093,275657631.02776,   0.00100,   0.00033,  -0.00030,   0.00000,   2.00000
521146563.54573,201251252.23709,-79667062.68661,   0.00299,   0.00023,  -0.00134,476888760.57247,   0.00094,275662623.44357,   0.00101,   0.00033,  -0.00031,   0.00000,   2.00000
520748514.59126,199682056.05522,-79982954.26315,   0.00299,   0.00023,  -0.00135,476877713.72582,   0.00094,275667555.96335,   0.00101,   0.00033,  -0.00031,   0.00000,   2.00000
520345656.33109,198117669.67724,-80299170.70974,   0.00300,   0.00022,  -0.00136,476906836.96112,   0.00095,275672591.90750,   0.00102,   0.00033,  -0.00031,  -0.00000,   2.00000
519939523.89810,196553549.48644,-80611639.91084,   0.00301,   0.00021,  -0.00136,476897993.36828,   0.00095,275677576.57260,   0.00102,   0.00033,  -0.00031,  -0.00000,   2.00000
519523110.09452,194973145.98558,-80928326.31460,   0.00301,   0.00020,  -0.00137,476906181.51101,   0.00096,275682579.44842,   0.00103,   0.00033,  -0.00032,   0.00000,   2.00000
519102660.38091,193395364.78531,-81243277.31336,   0.00302,   0.00020,  -0.00138,476916399.08657,   0.00096,275687608.72598,   0.00103,   0.00033,  -0.00032,  -0.00000,   2.00000
518678224.67840,191820236.86751,-81556497.30365,   0.00303,   0.00019,  -0.00138,476926615.25229,   0.00097,275692664.30011,   0.00104,   0.00033,  -0.00032,   0.00000,   2.00000
518249852.66591,190247792.69958,-81867990.75888,   0.00303,   0.00018,  -0.00139,476936829.96843,   0.00097,275697746.06510,   0.00105,   0.00033,  -0.00033,  -0.00000,   2.00000
517814067.01686,188659955.58342,-82178625.72520,   0.00304,   0.00017,  -0.00140,476942482.18296,   0.00097,275702835.32438,   0.00105,   0.00033,  -0.00033,   0.00000,   2.00000
517374341.35634,187074864.68398,-82487525.28411,   0.00304,   0.00017,  -0.00140,476952779.48447,   0.00098,275707951.02954,   0.00106,   0.00033,  -0.00033,   0.00000,   2.00000
516924584.01833,185470731.17318,-82798610.37512,   0.00305,   0.00016,  -0.00141,476942494.25914,   0.00098,275713008.82498,   0.00106,   0.00032,  -0.00034,   0.00000,   2.00000
516474003.59804,183890420.39776,-83109033.46144,   0.00306,   0.00015,  -0.00142,476976278.74249,   0.00099,275718189.46639,   0.00107,   0.00032,  -0.00034,  -0.00000,   2.00000
516016383.13483,182291790.99636,-83416633.91236,   0.00306,   0.00015,  -0.00143,476963209.54266,   0.00099,275723300.35737,   0.00107,   0.00032,  -0.00034,   0.00000,   2.00000
515551793.04925,180695151.57531,-83727491.14648,   0.00307,   0.00014,  -0.00143,476976492.29632,   0.00100,275728449.90627,   0.00108,   0.00032,  -0.00035,  -0.00000,   2.00000
515079484.47225,179083080.53147,-84037416.33025,   0.00308,   0.00013,  -0.00144,476982601.86300,   0.00100,275733608.53463,   0.00108,   0.00032,  -0.00035,  -0.00000,   2.00000
514603282.93964,177473897.85717,-84345573.73584,   0.00308,   0.00012,  -0.00145,476993057.75325,   0.00101,275738794.07292,   0.00109,   0.00032,  -0.00035,   0.00000,   2.00000
514123239.46557,175867633.53817,-84651968.31832,   0.00309,   0.00012,  -0.00146,477003511.91469,   0.00101,275744006.40849,   0.00109,   0.00032,  -0.00035,  -0.00000,   2.00000
513639404.79627,174264317.03433,-84956605.10582,   0.00310,   0.00011,  -0.00146,477013964.30508,   0.00102,275749245.42818,   0.00110,   0.00032,  -0.00036,   0.00000,   2.00000
513144962.14575,172641462.69158,-85263407.35054,   0.00310,   0.00010,  -0.00147,477004322.62460,   0.00102,275754428.12155,   0.00110,   0.00032,  -0.00036,  -0.00000,   2.00000
512643554.30658,171020787.64749,-85573410.38616,   0.00311,   0.00009,  -0.00148,477017832.73027,   0.00103,275759650.28056,   0.00111,   0.00032,  -0.00036,   0.00000,   2.00000
512144317.88490,169408121.55043,-85873518.48558,   0.00311,   0.00009,  -0.00148,477041355.50070,   0.00103,275764953.16985,   0.00111,   0.00031,  -0.00037,  -0.00000,   2.00000
511635389.00311,167793466.85923,-86179981.76099,   0.00312,   0.00008,  -0.00149,477038921.01516,   0.00104,275770229.08256,   0.00112,   0.00031,  -0.00037,   0.00000,   2.00000
511118426.92134,166163365.46548,-86485430.54789,   0.00313,   0.00007,  -0.00150,477045594.93938,   0.00104,275775515.85160,   0.00113,   0.00031,  -0.00037,   0.00000,   2.00000
510594796.54333,164531949.82739,-86792249.25160,   0.00313,   0.00006,  -0.00151,477040237.01637,   0.00105,275780763.49784,   0.00113,   0.00031,  -0.00038,   0.00000,   2.00000
510070398.22370,162908075.53636,-87094110.05229,   0.00314,   0.00006,  -0.00151,477066778.96244,   0.00105,275786104.54043,   0.00114,   0.00031,  -0.00038,   0.00000,   2.00000
509537845.61912,161268774.64246,-87394929.13010,   0.00315,   0.00005,  -0.00152,477073690.64861,   0.00106,275791457.16256,   0.00114,   0.00031,  -0.00038,  -0.00000,   2.00000
509003148.50098,159646687.66586,-87696404.47126,   0.00315,   0.00004,  -0.00153,477072105.81219,   0.00106,275796785.89549,   0.00115,   0.00031,  -0.00039,   0.00000,   2.00000
508460238.11892,158009130.42138,-87996826.79035,   0.00316,   0.00003,  -0.00153,477079080.26621,   0.00107,275802126.45696,   0.00115,   0.00031,  -0.00039,  -0.00000,   2.00000
507910509.13302,156374061.51010,-88300397.53708,   0.00316,   0.00003,  -0.00154,477092849.21666,   0.00107,275807507.10740,   0.00116,   0.00030,  -0.00039,  -0.00000,   2.00000
507355644.33247,154724254.32245,-88597935.99084,   0.00317,   0.00002,  -0.00155,477096931.79206,   0.00108,275812887.33234,   0.00116,   0.00030,  -0.00040,   0.00000,   2.00000
506793952.41056,153077022.81801,-88898606.17419,   0.00318,   0.00001,  -0.00156,477110810.33436,   0.00108,275818308.00917,   0.00117,   0.00030,  -0.00040,  -0.00000,   2.00000
506225461.51937,151428223.92655,-89200675.17760,   0.00318,   0.00000,  -0.00156,477105722.92138,   0.00109,275823689.72571,   0.00117,   0.00030,  -0.00040,   0.00000,   2.00000
505656611.95121,149783387.40676,-89496008.40978,   0.00319,  -0.00000,  -0.00157,477113323.84183,   0.00109,275829085.61183,   0.00118,   0.00030,  -0.00041,   0.00000,   2.00000
505084320.79635,148146174.51804,-89791248.84811,   0.00319,  -0.00001,  -0.00158,477143037.60872,   0.00110,275834588.18452,   0.00119,   0.00030,  -0.00041,   0.00000,   2.00000
504500234.53689,146488513.18847,-90088585.63091,   0.00320,  -0.00002,  -0.00159,477134745.46857,   0.00110,275840037.89755,   0.00119,   0.00030,  -0.00041,  -0.00000,   2.00000
503909398.10556,144833584.34408,-90389015.90337,   0.00321,  -0.00003,  -0.00159,477148760.02135,   0.00111,275845528.43197,   0.00120,   0.00030,  -0.00042,  -0.00000,   2.00000
503314917.16112,143177556.80964,-90685948.99628,   0.00321,  -0.00004,  -0.00160,477140638.07322,   0.00111,275850966.69228,   0.00120,   0.00029,  -0.00042,   0.00000,   2.00000
502715214.35353,141511283.05257,-90978459.01497,   0.00322,  -0.00004,  -0.00161,477164139.85748,   0.00112,275856485.71256,   0.00121,   0.00029,  -0.00043,   0.00000,   2.00000
502110580.91365,139861468.75654,-91276672.91269,   0.00322,  -0.00005,  -0.00162,477165534.69017,   0.00112,275861992.21773,   0.00121,   0.00029,  -0.00043,  -0.00000,   2.00000
501500513.22261,138196826.32572,-91568788.67363,   0.00323,  -0.00006,  -0.00162,477170163.41692,   0.00113,275867499.85519,   0.00122,   0.00029,  -0.00043,   0.00000,   2.00000
500883781.17842,136535067.67483,-91863979.82602,   0.00324,  -0.00007,  -0.00163,477184282.33185,   0.00113,275873048.57552,   0.00122,   0.00029,  -0.00044,   0.00000,   2.00000
500263691.89958,134876834.06027,-92157341.24932,   0.00324,  -0.00007,  -0.00164,477195202.36922,   0.00114,275878624.73411,   0.00123,   0.00029,  -0.00044,  -0.00000,   2.00000
499631151.08328,133197694.03861,-92452742.19916,   0.00325,  -0.00008,  -0.00164,477187585.02321,   0.00114,275884150.03685,   0.00124,   0.00029,  -0.00044,   0.00000,   2.00000
498998902.68163,131527667.52692,-92743018.10052,   0.00325,  -0.00009,  -0.00165,477214261.41759,   0.00115,275889769.43565,   0.00124,   0.00028,  -0.00045,   0.00000,   2.00000
498365234.06187,129874641.85147,-93034173.51326,   0.00326,  -0.00010,  -0.00166,477212312.88725,   0.00115,275895361.56225,   0.00125,   0.00028,  -0.00045,   0.00000,   2.00000
497717034.51793,128187177.58801,-93324639.49651,   0.00327,  -0.00011,  -0.00167,477217855.31115,   0.00116,275900958.25333,   0.00125,   0.00028,  -0.00045,   0.00000,   2.00000
497071218.72381,126522396.80957,-93612703.40970,   0.00327,  -0.00011,  -0.00167,477231544.64883,   0.00116,275906593.90162,   0.00126,   0.00028,  -0.00046,   0.00000,   2.00000
496415058.33773,124854946.01600,-93907106.79019,   0.00328,  -0.00012,  -0.00168,477230189.25680,   0.00117,275912204.60914,   0.00126,   0.00028,  -0.00046,   0.00000,   2.00000
495757067.82944,123178450.62348,-94192036.22488,   0.00328,  -0.00013,  -0.00169,477250953.48253,   0.00117,275917884.26633,   0.00127,   0.00028,  -0.00046,   0.00000,   2.00000
495088649.50125,121499267.94354,-94483298.04432,   0.00329,  -0.00014,  -0.00170,477249743.76805,   0.00118,275923539.36555,   0.00127,   0.00027,  -0.00047,   0.00000,   2.00000
494417045.40982,119823806.72119,-94772706.15205,   0.00330,  -0.00015,  -0.00170,477260812.82671,   0.00118,275929222.10580,   0.00128,   0.00027,  -0.00047,   0.00000,   2.00000
493739620.10353,118133481.79857,-95055922.57575,   0.00330,  -0.00015,  -0.00171,477266180.53194,   0.00119,275934908.16211,   0.00129,   0.00027,  -0.00048,   0.00000,   2.00000
493057693.12666,116459517.08031,-95344967.60686,   0.00331,  -0.00016,  -0.00172,477267420.39971,   0.00120,275940579.88320,   0.00129,   0.00027,  -0.00048,   0.00000,   2.00000
492370684.09510,114776281.47896,-95629328.18970,   0.00331,  -0.00017,  -0.00173,477291731.00600,   0.00120,275946335.57447,   0.00130,   0.00027,  -0.00048,   0.00000,   2.00000
491676448.47510,113090717.57777,-95915168.29421,   0.00332,  -0.00018,  -0.00173,477287377.79221,   0.00121,275952052.77415,   0.00130,   0.00027,  -0.00049,   0.00000,   2.00000
490975810.99346,111408520.94115,-96203988.55694,   0.00333,  -0.00019,  -0.00174,477301888.93695,   0.00121,275957812.03916,   0.00131,   0.00026,  -0.00049,   0.00000,   2.00000
490271240.58125,109724352.30768,-96489450.71104,   0.00333,  -0.00019,  -0.00175,477294182.74996,   0.00122,275963518.34789,   0.00131,   0.00026,  -0.00049,  -0.00000,   2.00000
489567937.65521,108050358.85590,-96769722.50730,   0.00334,  -0.00020,  -0.00176,477320738.04854,   0.00122,275969318.19530,   0.00132,   0.00026,  -0.00050,   0.00000,   2.00000
488847654.79276,106354224.35938,-97056760.77462,   0.00334,  -0.00021,  -0.00176,477317841.38552,   0.00123,275975085.39447,   0.00133,   0.00026,  -0.00050,   0.00000,   2.00000
488127706.94870,104662433.57579,-97337103.25679,   0.00335,  -0.00022,  -0.00177,477325647.50952,   0.00123,275980865.79110,   0.00133,   0.00026,  -0.00051,   0.00000,   2.00000
487401452.40281,102974169.13169,-97620407.56406,   0.00335,  -0.00023,  -0.00178,477340270.52126,   0.00124,275986688.50808,   0.00134,   0.00026,  -0.00051,   0.00000,   2.00000
486672290.54566,101289873.85487,-97901847.07258,   0.00336,  -0.00023,  -0.00179,477351492.76303,   0.00124,275992538.79985,   0.00134,   0.00025,  -0.00051,   0.00000,   2.00000
485935758.77709,99602957.58821,-98184787.97543,   0.00337,  -0.00024,  -0.00179,477347349.06740,   0.00125,275998350.64405,   0.00135,   0.00025,  -0.00052,   0.00000,   2.00000
485199727.92460,97920394.83916,-98461064.94213,   0.00337,  -0.00025,  -0.00180,477355081.92349,   0.00125,276004175.08458,   0.00135,   0.00025,  -0.00052,   0.00000,   2.00000
484450813.79444,96222163.27354,-98740674.78630,   0.00338,  -0.00026,  -0.00181,477368032.82035,   0.00126,276010034.51605,   0.00136,   0.00025,  -0.00053,  -0.00000,   2.00000
483695688.10891,94527628.64176,-99023207.76261,   0.00338,  -0.00027,  -0.00182,477382803.37209,   0.00126,276015936.62124,   0.00137,   0.00025,  -0.00053,   0.00000,   2.00000
482936440.79820,92830699.70137,-99302439.43016,   0.00339,  -0.00028,  -0.00182,477375348.08034,   0.00127,276021785.61242,   0.00137,   0.00024,  -0.00053,   0.00000,   2.00000
482174396.20949,91137831.19391,-99579802.61992,   0.00339,  -0.00028,  -0.00183,477386611.09777,   0.00128,276027662.19666,   0.00138,   0.00024,  -0.00054,  -0.00000,   2.00000
481409605.69169,89449044.73201,-99855304.44814,   0.00340,  -0.00029,  -0.00184,477397871.13053,   0.00128,276033566.23357,   0.00138,   0.00024,  -0.00054,   0.00000,   2.00000
480638740.55527,87764047.16624,-100133730.43705,   0.00340,  -0.00030,  -0.00185,477412647.79344,   0.00129,276039512.76681,   0.00139,   0.00024,  -0.00055,  -0.00000,   2.00000
479863728.13504,86076448.14510,-100408899.23140,   0.00341,  -0.00031,  -0.00185,477405201.00086,   0.00129,276045405.74192,   0.00139,   0.00024,  -0.00055,  -0.00000,   2.00000
479080527.70297,84380399.72611,-100683893.26170,   0.00342,  -0.00032,  -0.00186,477433844.81814,   0.00130,276051401.15383,   0.00140,   0.00023,  -0.00055,   0.00000,   2.00000
478284741.26358,82674278.05587,-100963792.15877,   0.00342,  -0.00033,  -0.00187,477414900.47217,   0.00130,276057293.05385,   0.00141,   0.00023,  -0.00056,  -0.00000,   2.00000
477491291.30372,80979517.45554,-101238404.50112,   0.00343,  -0.00033,  -0.00188,477441387.74925,   0.00131,276063278.14381,   0.00141,   0.00023,  -0.00056,  -0.00000,   2.00000
476702499.83431,79308358.20139,-101510882.46191,   0.00343,  -0.00034,  -0.00188,477453901.12149,   0.00131,276069295.57693,   0.00142,   0.00023,  -0.00057,  -0.00000,   2.00000
475898844.74204,77614709.35128,-101785164.86134,   0.00344,  -0.00035,  -0.00189,477448949.59575,   0.00132,276075269.65468,   0.00142,   0.00023,  -0.00057,   0.00000,   2.00000
475085307.37733,75905890.31783,-102057813.85573,   0.00344,  -0.00036,  -0.00190,477459234.25530,   0.00133,276081266.53376,   0.00143,   0.00022,  -0.00057,   0.00000,   2.00000
474271376.41668,74213359.63845,-102331750.76758,   0.00345,  -0.00037,  -0.00191,477456609.16782,   0.00133,276087230.09365,   0.00144,   0.00022,  -0.00058,  -0.00000,   2.00000
473460217.54432,72532514.01763,-102600412.17783,   0.00345,  -0.00037,  -0.00192,477482957.93044,   0.00134,276093286.08812,   0.00144,   0.00022,  -0.00058,   0.00000,   2.00000
472633858.34548,70829032.56992,-102870835.59462,   0.00346,  -0.00038,  -0.00192,477478373.64803,   0.00134,276099299.94775,   0.00145,   0.00022,  -0.00059,  -0.00000,   2.00000
471809164.00036,69149094.74627,-103143922.82851,   0.00346,  -0.00039,  -0.00193,477494249.85755,   0.00135,276105360.61327,   0.00145,   0.00021,  -0.00059,  -0.00000,   2.00000
470972521.41283,67446604.22951,-103414002.49508,   0.00347,  -0.00040,  -0.00194,477486190.58520,   0.00135,276111363.89453,   0.00146,   0.00021,  -0.00059,   0.00000,   2.00000
470135497.11206,65755921.70411,-103683519.16439,   0.00348,  -0.00041,  -0.00195,477516171.42358,   0.00136,276117475.40336,   0.00146,   0.00021,  -0.00060,  -0.00000,   2.00000
469294049.14193,64062071.22393,-103949850.22547,   0.00348,  -0.00042,  -0.00195,477509025.13106,   0.00136,276123533.14463,   0.00147,   0.00021,  -0.00060,   0.00000,   2.00000
468446852.71748,62372433.33560,-104219038.76183,   0.00349,  -0.00042,  -0.00196,477524069.13864,   0.00137,276129633.91291,   0.00148,   0.00021,  -0.00061,   0.00000,   2.00000
467591761.56566,60679376.90149,-104489770.29477,   0.00349,  -0.00043,  -0.00197,477520599.93905,   0.00138,276135696.85323,   0.00148,   0.00020,  -0.00061,   0.00000,   2.00000
466734377.86000,58990695.13556,-104758619.39452,   0.00350,  -0.00044,  -0.00198,477531995.03827,   0.00138,276141786.87409,   0.00149,   0.00020,  -0.00061,   0.00000,   2.00000
465874751.13708,57306405.77391,-105025593.64355,   0.00350,  -0.00045,  -0.00198,477543386.80687,   0.00139,276147903.83012,   0.00149,   0.00020,  -0.00062,   0.00000,   2.00000
465004985.37606,55607072.36784,-105290800.87565,   0.00351,  -0.00046,  -0.00199,477554349.30095,   0.00139,276154045.76230,   0.00150,   0.00020,  -0.00062,   0.00000,   2.00000
464135182.17763,53923670.16451,-105557461.65885,   0.00351,  -0.00047,  -0.00200,477551424.52311,   0.00140,276160151.83881,   0.00151,   0.00019,  -0.00063,  -0.00000,   2.00000
463269085.53554,52252732.74631,-105818829.61602,   0.00352,  -0.00047,  -0.00201,477577559.17411,   0.00140,276166349.16822,   0.00151,   0.00019,  -0.00063,   0.00000,   2.00000
462381027.88239,50550599.23148,-106085272.69507,   0.00352,  -0.00048,  -0.00201,477559181.58329,   0.00141,276172442.75984,   0.00152,   0.00019,  -0.00064,   0.00000,   2.00000
461493315.09031,48861032.82391,-106351086.63905,   0.00353,  -0.00049,  -0.00202,477589093.33020,   0.00142,276178644.28483,   0.00152,   0.00019,  -0.00064,   0.00000,   2.00000
460609122.13737,47187302.35696,-106613716.65723,   0.00353,  -0.00050,  -0.00203,477582318.39006,   0.00142,276184792.62112,   0.00153,   0.00018,  -0.00064,  -0.00000,   2.00000
459711246.45989,45498534.57125,-106879205.74147,   0.00354,  -0.00051,  -0.00204,477597301.80332,   0.00143,276190983.31423,   0.00153,   0.00018,  -0.00065,   0.00000,   2.00000
458814757.65092,43814314.95461,-107138129.85111,   0.00354,  -0.00052,  -0.00205,477605017.72194,   0.00143,276197184.30463,   0.00154,   0.00018,  -0.00065,   0.00000,   2.00000
457915004.00365,42145760.58165,-107403296.46843,   0.00355,  -0.00052,  -0.00205,477605625.07681,   0.00144,276203364.30778,   0.00155,   0.00018,  -0.00066,   0.00000,   2.00000
457004941.50729,40462227.66534,-107666591.60270,   0.00355,  -0.00053,  -0.00206,477617020.89570,   0.00145,276209570.76092,   0.00155,   0.00017,  -0.00066,   0.00000,   2.00000
456096353.76542,38783228.89631,-107923340.78329,   0.00356,  -0.00054,  -0.00207,477624688.86865,   0.00145,276215787.15154,   0.00156,   0.00017,  -0.00067,   0.00000,   2.00000
455176101.63369,37100348.64518,-108186335.39980,   0.00356,  -0.00055,  -0.00208,477625364.30407,   0.00146,276221982.69734,   0.00156,   0.00017,  -0.00067,   0.00000,   2.00000
454260299.43617,35430550.61486,-108444014.45544,   0.00357,  -0.00056,  -0.00208,477651331.21644,   0.00146,276228268.63055,   0.00157,   0.00017,  -0.00067,   0.00000,   2.00000
453329837.55571,33748220.92690,-108706709.19371,   0.00357,  -0.00057,  -0.00209,477633784.51060,   0.00147,276234453.17891,   0.00158,   0.00016,  -0.00068,  -0.00000,   2.00000
452403964.34139,32079071.86585,-108964086.43824,   0.00358,  -0.00058,  -0.00210,477659686.00060,   0.00147,276240727.90873,   0.00158,   0.00016,  -0.00068,   0.00000,   2.00000
451469785.89144,30405872.36462,-109223043.70073,   0.00358,  -0.00058,  -0.00211,477656672.03207,   0.00148,276246965.12059,   0.00159,   0.00016,  -0.00069,   0.00000,   2.00000
450533815.86642,28737271.26056,-109480135.43081,   0.00359,  -0.00059,  -0.00212,477668094.09022,   0.00149,276253228.52648,   0.00159,   0.00016,  -0.00069,   0.00000,   2.00000
449592665.59536,27073389.39682,-109740008.80822,   0.00359,  -0.00060,  -0.00212,477683367.94961,   0.00149,276259534.98554,   0.00160,   0.00015,  -0.00070,   0.00000,   2.00000
448646573.80252,25405235.50130,-109996814.43070,   0.00360,  -0.00061,  -0.00213,477676582.41247,   0.00150,276265786.99926,   0.00160,   0.00015,  -0.00070,  -0.00000,   2.00000
447689942.96776,23722254.15041,-110251631.12052,   0.00360,  -0.00062,  -0.00214,477688536.98591,   0.00150,276272067.48139,   0.00161,   0.00015,  -0.00071,   0.00000,   2.00000
446737017.87210,22063551.01059,-110509343.76531,   0.00361,  -0.00063,  -0.00215,477703326.72153,   0.00151,276278388.77765,   0.00162,   0.00014,  -0.00071,   0.00000,   2.00000
445779074.42431,20400426.48982,-110764007.00137,   0.00361,  -0.00063,  -0.00215,477696575.19065,   0.00152,276284655.53498,   0.00162,   0.00014,  -0.00071,   0.00000,   2.00000
444816063.11227,18742110.97669,-111021437.81754,   0.00362,  -0.00064,  -0.00216,477711863.38676,   0.00152,276290965.34862,   0.00163,   0.00014,  -0.00072,   0.00000,   2.00000
443851468.88895,17088459.57669,-111277003.99670,   0.00362,  -0.00065,  -0.00217,477723282.41746,   0.00153,276297300.91285,   0.00163,   0.00014,  -0.00072,   0.00000,   2.00000
442881776.64775,15430239.85505,-111529538.30886,   0.00362,  -0.00066,  -0.00218,477716567.03780,   0.00153,276303581.86109,   0.00164,   0.00013,  -0.00073,  -0.00000,   2.00000
441907094.36833,13776886.91578,-111784834.67177,   0.00363,  -0.00067,  -0.00219,477731866.42450,   0.00154,276309905.82555,   0.00165,   0.00013,  -0.00073,  -0.00000,   2.00000
440930906.16485,12128217.80572,-112038272.48698,   0.00363,  -0.00068,  -0.00219,477743270.00287,   0.00154,276316255.35653,   0.00165,   0.00013,  -0.00074,   0.00000,   2.00000
439936931.78245,10455657.58046,-112293065.61693,   0.00364,  -0.00068,  -0.00220,477741491.87961,   0.00155,276322571.96445,   0.00166,   0.00013,  -0.00074,   0.00000,   2.00000
438950634.20382,8807254.10999,-112546217.75597,   0.00364,  -0.00069,  -0.00221,477751987.90878,   0.00156,276328910.11279,   0.00166,   0.00012,  -0.00075,   0.00000,   2.00000
437962906.76761,7163554.09864,-112797517.23753,   0.00365,  -0.00070,  -0.00222,477763376.99210,   0.00156,276335273.64733,   0.00167,   0.00012,  -0.00075,   0.00000,   2.00000
436973794.00503,5524568.83503,-113046972.02946,   0.00365,  -0.00071,  -0.00222,477774762.43832,   0.00157,276341662.42201,   0.00168,   0.00012,  -0.00076,   0.00000,   2.00000
435975974.51500,3880966.95055,-113298023.77831,   0.00366,  -0.00072,  -0.00223,477772121.17927,   0.00157,276348014.04714,   0.00168,   0.00011,  -0.00076,  -0.00000,   2.00000
434969380.14912,2232704.69783,-113550661.30318,   0.00366,  -0.00073,  -0.00224,477769501.54319,   0.00158,276354328.73678,   0.00169,   0.00011,  -0.00076,   0.00000,   2.00000
433968886.87969,598586.05420,-113798008.91947,   0.00367,  -0.00074,  -0.00225,477794839.17183,   0.00159,276360730.81576,   0.00169,   0.00011,  -0.00077,   0.00000,   2.00000
432969057.85581,-1020890.36972,-114047275.63462,   0.00367,  -0.00074,  -0.00226,477790964.00121,   0.00159,276367090.02436,   0.00170,   0.00011,  -0.00077,   0.00000,   2.00000
431950928.37963,-2664545.23593,-114297821.85266,   0.00367,  -0.00075,  -0.00226,477789660.56516,   0.00160,276373417.98057,   0.00170,   0.00010,  -0.00078,   0.00000,   2.00000
430935703.47967,-4293571.44067,-114547651.96456,   0.00368,  -0.00076,  -0.00227,477818926.06127,   0.00160,276379850.78112,   0.00171,   0.00010,  -0.00078,  -0.00000,   2.00000
429915029.45285,-5927764.16531,-114794502.11883,   0.00368,  -0.00077,  -0.00228,477812429.17872,   0.00161,276386228.80316,   0.00172,   0.00010,  -0.00079,   0.00000,   2.00000
428881980.48929,-7566444.09144,-115047500.69468,   0.00369,  -0.00078,  -0.00229,477813994.42220,   0.00162,276392588.14561,   0.00172,   0.00009,  -0.00079,   0.00000,   2.00000
427868576.87194,-9171760.08093,-115291034.11026,   0.00369,  -0.00079,  -0.00230,477833575.34012,   0.00162,276399009.05573,   0.00173,   0.00009,  -0.00080,   0.00000,   2.00000
426836567.23257,-10801367.58088,-115535797.77681,   0.00370,  -0.00079,  -0.00230,477832641.65334,   0.00163,276405399.87695,   0.00173,   0.00009,  -0.00080,   0.00000,   2.00000
425801825.83275,-12416219.82202,-115787108.20761,   0.00370,  -0.00080,  -0.00231,477832658.62199,   0.00163,276411764.91410,   0.00174,   0.00008,  -0.00081,  -0.00000,   2.00000
424756218.72494,-14045636.51788,-116036155.85392,   0.00370,  -0.00081,  -0.00232,477845621.85529,   0.00164,276418162.02123,   0.00174,   0.00008,  -0.00081,   0.00000,   2.00000
423722724.77619,-15651409.24649,-116279243.58138,   0.00371,  -0.00082,  -0.00233,477851160.75702,   0.00165,276424557.86750,   0.00175,   0.00008,  -0.00082,   0.00000,   2.00000
422684792.89431,-17252001.26893,-116525061.32329,   0.00371,  -0.00083,  -0.00233,477866476.28291,   0.00165,276430996.07860,   0.00176,   0.00008,  -0.00082,   0.00000,   2.00000
421637776.79270,-18857725.03414,-116772479.41575,   0.00372,  -0.00084,  -0.00234,477864105.43540,   0.00166,276437397.48010,   0.00176,   0.00007,  -0.00082,   0.00000,   2.00000
420593184.48665,-20459171.55936,-117013541.05369,   0.00372,  -0.00084,  -0.00235,477871249.01617,   0.00166,276443804.68781,   0.00177,   0.00007,  -0.00083,  -0.00000,   2.00000
419526057.64447,-22084572.37595,-117260252.35345,   0.00373,  -0.00085,  -0.00236,477874955.81834,   0.00167,276450202.33952,   0.00177,   0.00007,  -0.00083,  -0.00000,   2.00000
418477887.46925,-23666692.86109,-117506107.45033,   0.00373,  -0.00086,  -0.00237,477882333.06255,   0.00168,276456606.78385,   0.00178,   0.00006,  -0.00084,  -0.00000,   2.00000
417418820.17263,-25263324.11216,-117749647.28556,   0.00373,  -0.00087,  -0.00237,477895508.00097,   0.00168,276463043.93065,   0.00179,   0.00006,  -0.00084,   0.00000,   2.00000
416353898.89861,-26865766.39181,-117990266.43028,   0.00374,  -0.00088,  -0.00238,477889128.38166,   0.00169,276469426.12605,   0.00179,   0.00006,  -0.00085,   0.00000,   2.00000
415284665.89375,-28462898.17906,-118233583.78207,   0.00374,  -0.00089,  -0.00239,477904486.85118,   0.00169,276475850.86944,   0.00180,   0.00005,  -0.00085,   0.00000,   2.00000
414224699.55408,-30036064.61331,-118475631.34077,   0.00375,  -0.00089,  -0.00240,477913542.90093,   0.00170,276482289.70566,   0.00180,   0.00005,  -0.00086,   0.00000,   2.00000
413145262.12052,-31633834.19539,-118718725.32101,   0.00375,  -0.00090,  -0.00241,477913511.33571,   0.00171,276488701.88558,   0.00181,   0.00005,  -0.00086,   0.00000,   2.00000
412075183.25459,-33207652.74861,-118960570.93088,   0.00375,  -0.00091,  -0.00241,477922469.28793,   0.00171,276495127.73566,   0.00181,   0.00004,  -0.00087,  -0.00000,   2.00000
411004353.60489,-34776734.11836,-119200620.42147,   0.00376,  -0.00092,  -0.00242,477933593.58111,   0.00172,276501576.88250,   0.00182,   0.00004,  -0.00087,   0.00000,   2.00000
409924115.49642,-36351339.16850,-119442277.89107,   0.00376,  -0.00093,  -0.00243,477931416.82538,   0.00172,276507989.57001,   0.00183,   0.00004,  -0.00088,   0.00000,   2.00000
408834397.96069,-37931496.71692,-119685528.29525,   0.00376,  -0.00094,  -0.00244,477929272.31663,   0.00173,276514366.07202,   0.00183,   0.00003,  -0.00088,  -0.00000,   2.00000
407752737.65849,-39496566.91900,-119923572.76641,   0.00377,  -0.00094,  -0.00245,477953633.56007,   0.00174,276520825.43252,   0.00184,   0.00003,  -0.00089,   0.00000,   2.00000
406671930.48991,-41048159.70581,-120163864.54161,   0.00377,  -0.00095,  -0.00245,477949029.29546,   0.00174,276527237.24775,   0.00184,   0.00003,  -0.00089,   0.00000,   2.00000
405571194.69540,-42624524.18260,-120405110.28552,   0.00378,  -0.00096,  -0.00246,477949425.60113,   0.00175,276533624.17894,   0.00185,   0.00002,  -0.00090,  -0.00000,   2.00000
404489160.85011,-44166632.02366,-120641829.34931,   0.00378,  -0.00097,  -0.00247,477971083.52186,   0.00175,276540081.75663,   0.00185,   0.00002,  -0.00090,   0.00000,   2.00000
403378088.25351,-45743996.22335,-120882868.43669,   0.00378,  -0.00098,  -0.00248,477958514.91288,   0.00176,276546455.93440,   0.00186,   0.00002,  -0.00091,   0.00000,   2.00000
402285908.48365,-47287057.06421,-121119406.60730,   0.00379,  -0.00098,  -0.00248,477980017.82146,   0.00177,276552900.11877,   0.00186,   0.00001,  -0.00091,   0.00000,   2.00000
401184076.40552,-48835924.22068,-121357554.84147,   0.00379,  -0.00099,  -0.00249,477977970.39790,   0.00177,276559308.12546,   0.00187,   0.00001,  -0.00092,   0.00000,   2.00000
400081696.31256,-50380066.21892,-121593922.87291,   0.00379,  -0.00100,  -0.00250,477988978.45734,   0.00178,276565738.79018,   0.00188,   0.00001,  -0.00092,  -0.00000,   2.00000
398980158.11867,-51911085.66620,-121832625.23918,   0.00380,  -0.00101,  -0.00251,477984153.61878,   0.00178,276572120.74635,   0.00188,   0.00000,  -0.00092,  -0.00000,   2.00000
397867519.82145,-53456402.09077,-122068814.57145,   0.00380,  -0.00102,  -0.00252,477997942.61104,   0.00179,276578537.96035,   0.00189,   0.00000,  -0.00093,  -0.00000,   2.00000
396755696.83751,-54988674.71857,-122307352.82253,   0.00381,  -0.00103,  -0.00252,477993089.93950,   0.00180,276584906.32816,   0.00189,  -0.00000,  -0.00093,  -0.00000,   2.00000
395643402.94643,-56516269.04854,-122544120.46585,   0.00381,  -0.00103,  -0.00253,478003994.54585,   0.00180,276591296.97535,   0.00190,  -0.00001,  -0.00094,  -0.00000,   2.00000
394530674.44168,-58039180.07472,-122779124.98917,   0.00381,  -0.00104,  -0.00254,478014896.10258,   0.00181,276597709.76935,   0.00190,  -0.00001,  -0.00094,   0.00000,   2.00000
393408055.34825,-59568136.26229,-123015730.72401,   0.00382,  -0.00105,  -0.00255,478012963.04387,   0.00181,276604086.77959,   0.00191,  -0.00001,  -0.00095,   0.00000,   2.00000
392281667.17514,-61091578.96095,-123254993.23491,   0.00382,  -0.00106,  -0.00256,478028194.40435,   0.00182,276610505.48517,   0.00191,  -0.00002,  -0.00095,   0.00000,   2.00000
391172389.78987,-62593104.06913,-123484456.97164,   0.00382,  -0.00107,  -0.00256,478027300.51042,   0.00183,276616892.95991,   0.00192,  -0.00002,  -0.00096,   0.00000,   2.00000
390049799.81713,-64099984.67099,-123719973.10572,   0.00383,  -0.00107,  -0.00257,478029663.95214,   0.00183,276623264.01178,   0.00193,  -0.00002,  -0.00096,  -0.00000,   2.00000
388906338.06021,-65631897.96538,-123956231.73557,   0.00383,  -0.00108,  -0.00258,478031010.18798,   0.00184,276629614.13434,   0.00193,  -0.00003,  -0.00097,   0.00000,   2.00000
387793988.11453,-67110589.22779,-124189100.84605,   0.00383,  -0.00109,  -0.00259,478048001.69922,   0.00184,276636013.90629,   0.00194,  -0.00003,  -0.00097,   0.00000,   2.00000
386660711.16399,-68614399.37940,-124422715.92842,   0.00384,  -0.00110,  -0.00260,478049389.43839,   0.00185,276642392.71929,   0.00194,  -0.00003,  -0.00098,   0.00000,   2.00000
385517298.30766,-70124476.23217,-124657918.13778,   0.00384,  -0.00111,  -0.00260,478047582.47616,   0.00186,276648736.22708,   0.00195,  -0.00004,  -0.00098,   0.00000,   2.00000
384384540.40724,-71611123.99961,-124892265.61825,   0.00384,  -0.00111,  -0.00261,478054960.32090,   0.00186,276655085.99509,   0.00195,  -0.00004,  -0.00099,  -0.00000,   2.00000
383251555.12998,-73093171.39242,-125124879.94543,   0.00385,  -0.00112,  -0.00262,478065659.77376,   0.00187,276661456.97272,   0.00196,  -0.00004,  -0.00099,   0.00000,   2.00000
382108360.55774,-74581620.75382,-125359092.53403,   0.00385,  -0.00113,  -0.00263,478063846.14086,   0.00187,276667792.53400,   0.00196,  -0.00005,  -0.00100,  -0.00000,   2.00000
380968273.46092,-76066401.93228,-125587176.87435,   0.00385,  -0.00114,  -0.00263,478070143.65058,   0.00188,276674129.44804,   0.00197,  -0.00005,  -0.00100,   0.00000,   2.00000
379825617.89567,-77537987.54482,-125822207.10236,   0.00385,  -0.00115,  -0.00264,478069174.06470,   0.00189,276680434.83266,   0.00198,  -0.00005,  -0.00101,  -0.00000,   2.00000
378682796.34485,-79005016.55777,-126055509.92582,   0.00386,  -0.00115,  -0.00265,478079780.51409,   0.00189,276686761.12536,   0.00198,  -0.00006,  -0.00101,   0.00000,   2.00000
377543150.35644,-80468473.37641,-126282716.90387,   0.00386,  -0.00116,  -0.00266,478085952.00430,   0.00190,276693088.15775,   0.00199,  -0.00006,  -0.00102,  -0.00000,   2.00000
376389816.99969,-81937508.85443,-126515907.20709,   0.00386,  -0.00117,  -0.00267,478088610.77714,   0.00190,276699400.03189,   0.00199,  -0.00006,  -0.00102,   0.00000,   2.00000
375236364.99843,-83401967.64923,-126747369.00439,   0.00387,  -0.00118,  -0.00267,478099222.20156,   0.00191,276705732.76186,   0.00200,  -0.00007,  -0.00103,  -0.00000,   2.00000
374086921.52839,-84855466.58277,-126977070.23272,   0.00387,  -0.00119,  -0.00268,478089267.39289,   0.00191,276711993.16886,   0.00200,  -0.00007,  -0.00103,   0.00000,   2.00000
372937394.19774,-86304459.35516,-127205074.44994,   0.00387,  -0.00119,  -0.00269,478099745.83975,   0.00192,276718274.00739,   0.00201,  -0.00007,  -0.00104,  -0.00000,   2.00000
371784525.34108,-87747889.67372,-127435744.49435,   0.00388,  -0.00120,  -0.00270,478114694.12671,   0.00193,276724595.40263,   0.00201,  -0.00008,  -0.00104,   0.00000,   2.00000
370624398.09697,-89199112.92009,-127663647.50910,   0.00388,  -0.00121,  -0.00271,478108540.90321,   0.00193,276730861.63290,   0.00202,  -0.00008,  -0.00105,   0.00000,   2.00000
369475499.83939,-90627302.51094,-127890930.62040,   0.00388,  -0.00122,  -0.00271,478115027.68573,   0.00194,276737130.12639,   0.00202,  -0.00008,  -0.00105,   0.00000,   2.00000
368312709.40423,-92061240.62709,-128124165.38286,   0.00388,  -0.00122,  -0.00272,478117785.71974,   0.00194,276743383.97730,   0.00203,  -0.00009,  -0.00106,   0.00000,   2.00000
367153200.66243,-93491805.76355,-128351354.59975,   0.00389,  -0.00123,  -0.00273,478123706.85633,   0.00195,276749637.55221,   0.00203,  -0.00009,  -0.00106,  -0.00000,   2.00000
365982987.85389,-94929238.30349,-128580134.20870,   0.00389,  -0.00124,  -0.00274,478122045.18299,   0.00196,276755856.48394,   0.00204,  -0.00009,  -0.00107,   0.00000,   2.00000
364824143.70224,-96343758.95727,-128808349.43326,   0.00389,  -0.00125,  -0.00274,478128277.04125,   0.00196,276762076.65029,   0.00204,  -0.00010,  -0.00107,   0.00000,   2.00000
363668628.45150,-97755013.43964,-129030567.88577,   0.00389,  -0.00126,  -0.00275,478134042.13455,   0.00197,276768295.90589,   0.00205,  -0.00010,  -0.00108,  -0.00000,   2.00000
362499059.57037,-99172107.64921,-129258724.93577,   0.00390,  -0.00126,  -0.00276,478136884.20789,   0.00197,276774500.99549,   0.00205,  -0.00011,  -0.00108,  -0.00000,   2.00000
361318632.72322,-100596192.85917,-129488457.33710,   0.00390,  -0.00127,  -0.00277,478135273.51907,   0.00198,276780671.77938,   0.00206,  -0.00011,  -0.00109,  -0.00000,   2.00000
360160694.22973,-101986045.85599,-129714430.63261,   0.00390,  -0.00128,  -0.00278,478153136.96923,   0.00198,276786896.67151,   0.00206,  -0.00011,  -0.00109,   0.00000,   2.00000
358984085.55445,-103395665.07062,-129940936.90238,   0.00390,  -0.00129,  -0.00278,478135077.69244,   0.00199,276793012.49246,   0.00207,  -0.00012,  -0.00109,   0.00000,   2.00000
357818652.21462,-104789420.81096,-130162537.60348,   0.00391,  -0.00129,  -0.00279,478157081.71738,   0.00200,276799201.43981,   0.00207,  -0.00012,  -0.00110,  -0.00000,   2.00000
356650509.14591,-106170811.64383,-130391266.43422,   0.00391,  -0.00130,  -0.00280,478155588.49003,   0.00200,276805356.55056,   0.00208,  -0.00012,  -0.00110,   0.00000,   2.00000
355474584.12660,-107560643.01058,-130617276.00011,   0.00391,  -0.00131,  -0.00281,478149377.35921,   0.00201,276811456.54910,   0.00208,  -0.00013,  -0.00111,   0.00000,   2.00000
354298807.62586,-108946148.04681,-130841636.93654,   0.00391,  -0.00132,  -0.00282,478159474.75870,   0.00201,276817575.67906,   0.00209,  -0.00013,  -0.00111,  -0.00000,   2.00000
353123208.43636,-110327325.15578,-131064355.71813,   0.00392,  -0.00132,  -0.00282,478169570.28378,   0.00202,276823713.82834,   0.00209,  -0.00013,  -0.00112,   0.00000,   2.00000
351948052.72902,-111697561.33038,-131289932.45077,   0.00392,  -0.00133,  -0.00283,478163395.87529,   0.00203,276829797.01409,   0.00210,  -0.00014,  -0.00112,   0.00000,   2.00000
350773103.97367,-113063525.74441,-131513876.72656,   0.00392,  -0.00134,  -0.00284,478173401.80498,   0.00203,276835898.93337,   0.00210,  -0.00014,  -0.00113,   0.00000,   2.00000
349590162.57208,-114438133.45583,-131735122.55986,   0.00392,  -0.00135,  -0.00285,478167207.20295,   0.00204,276841945.91383,   0.00211,  -0.00014,  -0.00113,  -0.00000,   2.00000
348415854.68982,-115789020.21938,-131960335.29634,   0.00393,  -0.00135,  -0.00285,478177076.83384,   0.00204,276848011.13206,   0.00211,  -0.00015,  -0.00114,  -0.00000,   2.00000
347233474.23037,-117148666.86124,-132182857.32514,   0.00393,  -0.00136,  -0.00286,478170846.46610,   0.00205,276854021.35356,   0.00212,  -0.00015,  -0.00114,   0.00000,   2.00000
346048136.80210,-118502743.52734,-132408031.83050,   0.00393,  -0.00137,  -0.00287,478185388.17137,   0.00205,276860071.18543,   0.00212,  -0.00015,  -0.00115,   0.00000,   2.00000
344877937.71531,-119835881.82608,-132628668.88788,   0.00393,  -0.00138,  -0.00288,478185801.75385,   0.00206,276866096.21274,   0.00213,  -0.00016,  -0.00115,   0.00000,   2.00000
343696366.71349,-121176565.71138,-132850906.06243,   0.00393,  -0.00138,  -0.00288,478184186.42919,   0.00206,276872087.31515,   0.00213,  -0.00016,  -0.00116,   0.00000,   2.00000
342515084.29752,-122513075.52885,-133071542.07246,   0.00394,  -0.00139,  -0.00289,478193994.32320,   0.00207,276878096.54860,   0.00214,  -0.00017,  -0.00116,   0.00000,   2.00000
341325514.88384,-123858534.97863,-133289504.57675,   0.00394,  -0.00140,  -0.00290,478187787.04170,   0.00208,276884051.01561,   0.00214,  -0.00017,  -0.00117,   0.00000,   2.00000
340144809.12955,-125180437.67995,-133511527.53847,   0.00394,  -0.00141,  -0.00291,478197237.27969,   0.00208,276890022.11610,   0.00215,  -0.00017,  -0.00117,   0.00000,   2.00000
338955733.71104,-126511401.13274,-133730883.06566,   0.00394,  -0.00141,  -0.00292,478190997.75801,   0.00209,276895938.42104,   0.00215,  -0.00018,  -0.00118,   0.00000,   2.00000
337778744.33088,-127820314.98471,-133950084.57144,   0.00394,  -0.00142,  -0.00292,478195601.07006,   0.00209,276901849.45137,   0.00216,  -0.00018,  -0.00118,  -0.00000,   2.00000
336590140.25144,-129136963.12325,-134170878.34864,   0.00395,  -0.00143,  -0.00293,478194000.90814,   0.00210,276907727.00704,   0.00216,  -0.00018,  -0.00119,   0.00000,   2.00000
335401870.70587,-130449530.99709,-134390093.07502,   0.00395,  -0.00143,  -0.00294,478203619.55624,   0.00210,276913622.25210,   0.00217,  -0.00019,  -0.00119,   0.00000,   2.00000
334225778.56639,-131740171.43531,-134609206.10911,   0.00395,  -0.00144,  -0.00295,478208022.04637,   0.00211,276919511.34602,   0.00217,  -0.00019,  -0.00120,   0.00000,   2.00000
333029281.15668,-133057949.35799,-134824200.13755,   0.00395,  -0.00145,  -0.00295,478206963.95617,   0.00212,276925369.47635,   0.00218,  -0.00019,  -0.00120,   0.00000,   2.00000
331841544.90396,-134346383.48909,-135047974.40182,   0.00395,  -0.00146,  -0.00296,478199655.37534,   0.00212,276931168.30443,   0.00218,  -0.00020,  -0.00121,   0.00000,   2.00000
330657655.26878,-135638266.24870,-135261329.92319,   0.00396,  -0.00146,  -0.00297,478220720.73948,   0.00213,276937037.20626,   0.00219,  -0.00020,  -0.00121,   0.00000,   2.00000
329461557.93320,-136932127.64674,-135480915.50322,   0.00396,  -0.00147,  -0.00298,478202863.39751,   0.00213,276942798.70861,   0.00219,  -0.00020,  -0.00121,  -0.00000,   2.00000
328278131.48690,-138210109.53966,-135695824.86114,   0.00396,  -0.00148,  -0.00298,478223257.93767,   0.00214,276948627.37827,   0.00220,  -0.00021,  -0.00122,  -0.00000,   2.00000
327085465.27861,-139491770.58620,-135912770.66358,   0.00396,  -0.00148,  -0.00299,478200614.58311,   0.00214,276954326.98621,   0.00220,  -0.00021,  -0.00122,   0.00000,   2.00000
325902467.14154,-140756025.14924,-136129275.13971,   0.00396,  -0.00149,  -0.00300,478225597.84173,   0.00215,276960114.91122,   0.00220,  -0.00021,  -0.00123,  -0.00000,   2.00000
324710588.58320,-142029863.61761,-136343159.38740,   0.00396,  -0.00150,  -0.00301,478219294.13795,   0.00215,276965848.29961,   0.00221,  -0.00022,  -0.00123,  -0.00000,   2.00000
323518592.68602,-143294075.38600,-136560200.63880,   0.00397,  -0.00150,  -0.00301,478212237.91523,   0.00216,276971523.94972,   0.00221,  -0.00022,  -0.00124,   0.00000,   2.00000
322330108.11492,-144556006.21096,-136771528.95427,   0.00397,  -0.00151,  -0.00302,478216679.40424,   0.00216,276977194.46232,   0.00222,  -0.00022,  -0.00124,   0.00000,   2.00000
321138362.12847,-145806828.19335,-136990235.92068,   0.00397,  -0.00152,  -0.00303,478214307.87426,   0.00217,276982828.81497,   0.00222,  -0.00023,  -0.00125,  -0.00000,   2.00000
319950131.51617,-147055443.46821,-137203243.70061,   0.00397,  -0.00152,  -0.00304,478218655.80458,   0.00217,276988457.75823,   0.00223,  -0.00023,  -0.00125,   0.00000,   2.00000
318762353.24896,-148300235.68259,-137414754.76546,   0.00397,  -0.00153,  -0.00304,478227779.20716,   0.00218,276994103.05332,   0.00223,  -0.00024,  -0.00126,   0.00000,   2.00000
317562338.85323,-149553198.37785,-137627840.59084,   0.00397,  -0.00154,  -0.00305,478226255.94476,   0.00219,276999716.12143,   0.00224,  -0.00024,  -0.00126,   0.00000,   2.00000
316377844.89072,-150786488.99930,-137836912.41748,   0.00397,  -0.00154,  -0.00306,478224792.86946,   0.00219,277005297.35531,   0.00224,  -0.00024,  -0.00127,  -0.00000,   2.00000
315189987.59941,-152008889.69400,-138053410.55346,   0.00398,  -0.00155,  -0.00307,478222257.57279,   0.00220,277010841.99722,   0.00224,  -0.00025,  -0.00127,   0.00000,   2.00000
314005657.47416,-153229252.56282,-138264261.85951,   0.00398,  -0.00156,  -0.00307,478226377.56047,   0.00220,277016380.52028,   0.00225,  -0.00025,  -0.00127,  -0.00000,   2.00000
312808928.09370,-154457932.20534,-138476691.35958,   0.00398,  -0.00156,  -0.00308,478224802.84551,   0.00221,277021886.99754,   0.00225,  -0.00025,  -0.00128,   0.00000,   2.00000
311615710.13367,-155684581.66061,-138683485.04177,   0.00398,  -0.00157,  -0.00309,478228894.45724,   0.00221,277027387.37936,   0.00226,  -0.00026,  -0.00128,  -0.00000,   2.00000
310422051.35015,-156902185.41671,-138893575.46852,   0.00398,  -0.00158,  -0.00309,478221423.75481,   0.00222,277032828.98626,   0.00226,  -0.00026,  -0.00129,   0.00000,   2.00000
309240930.97071,-158098760.41819,-139103943.60422,   0.00398,  -0.00158,  -0.00310,478224280.03904,   0.00222,277038259.12517,   0.00227,  -0.00026,  -0.00129,   0.00000,   2.00000
308047246.56011,-159303791.51809,-139315891.22837,   0.00398,  -0.00159,  -0.00311,478222657.97363,   0.00223,277043657.43116,   0.00227,  -0.00027,  -0.00130,   0.00000,   2.00000
306857062.56046,-160506944.41081,-139522244.00160,   0.00398,  -0.00160,  -0.00312,478226534.41299,   0.00223,277049049.09612,   0.00227,  -0.00027,  -0.00130,   0.00000,   2.00000
305667378.47163,-161706463.13690,-139727159.25540,   0.00398,  -0.00160,  -0.00312,478235267.65444,   0.00224,277054456.27485,   0.00228,  -0.00027,  -0.00131,  -0.00000,   2.00000
304477110.54323,-162897204.52685,-139935433.34417,   0.00399,  -0.00161,  -0.00313,478227610.43622,   0.00224,277059804.16818,   0.00228,  -0.00028,  -0.00131,   0.00000,   2.00000
303286211.33369,-164079245.57332,-140147071.68988,   0.00399,  -0.00162,  -0.00314,478219880.24445,   0.00225,277065092.69828,   0.00229,  -0.00028,  -0.00132,  -0.00000,   2.00000
302098797.81676,-165259557.14907,-140353154.98051,   0.00399,  -0.00162,  -0.00314,478223545.40344,   0.00225,277070374.06660,   0.00229,  -0.00028,  -0.00132,   0.98602,   1.00000
300911892.01006,-166436332.27817,-140557823.54207,   0.00399,  -0.00163,  -0.00315,478232097.38874,   0.00226,277075670.57679,   0.00229,  -0.00029,  -0.00132,   0.96492,   1.00000
299727243.49968,-167606399.31633,-140761786.92717,   0.00399,  -0.00164,  -0.00316,478219324.25864,   0.00226,277080884.92033,   0.00230,  -0.00029,  -0.00133,   0.90982,   1.00000
298529685.57139,-168785117.93528,-140967324.71640,   0.00399,  -0.00164,  -0.00317,478217678.28848,   0.00227,277086068.19857,   0.00230,  -0.00029,  -0.00133,   0.87412,   1.00000
297346076.39892,-169948181.42411,-141168484.24244,   0.00399,  -0.00165,  -0.00317,478236200.62689,   0.00227,277091312.49321,   0.00231,  -0.00030,  -0.00134,   0.87008,   1.00000
296148158.12937,-171114992.61158,-141376049.76489,   0.00399,  -0.00166,  -0.00318,478218240.26712,   0.00228,277096451.16767,   0.00231,  -0.00030,  -0.00134,   0.81189,   1.00000
294979383.92770,-172251027.81778,-141577046.78213,   0.00399,  -0.00166,  -0.00319,478225258.02764,   0.00228,277101598.57634,   0.00231,  -0.00030,  -0.00135,   0.79208,   1.00000
293771824.80344,-173425040.59415,-141780678.54102,   0.00399,  -0.00167,  -0.00319,478220033.34337,   0.00229,277106698.86038,   0.00232,  -0.00031,  -0.00135,   0.75516,   1.00000
292605653.33795,-174551329.14032,-141979703.53514,   0.00399,  -0.00167,  -0.00320,478220424.31061,   0.00229,277111777.81249,   0.00232,  -0.00031,  -0.00135,   0.72779,   1.00000
291400512.76974,-175715619.46111,-142181330.27494,   0.00399,  -0.00168,  -0.00321,478215299.94110,   0.00230,277116810.38514,   0.00233,  -0.00031,  -0.00136,   0.69360,   1.00000
290233925.24188,-176830409.26619,-142382518.97659,   0.00400,  -0.00169,  -0.00321,478220361.97153,   0.00230,277121843.21548,   0.00233,  -0.00032,  -0.00136,   0.67387,   1.00000
289031113.23059,-177985165.04485,-142582183.81879,   0.00400,  -0.00169,  -0.00322,478210374.94747,   0.00230,277126807.67627,   0.00233,  -0.00032,  -0.00137,   0.63617,   1.00000
287854766.27101,-179107449.46154,-142779525.34794,   0.00400,  -0.00170,  -0.00323,478221729.88998,   0.00231,277131801.39162,   0.00234,  -0.00032,  -0.00137,   0.62482,   1.00000
286677315.26312,-180221772.77304,-142980417.71517,   0.00400,  -0.00170,  -0.00323,478213416.77017,   0.00231,277136734.51513,   0.00234,  -0.00032,  -0.00138,   0.59176,   1.00000
285489409.38999,-181347032.33900,-143178809.72910,   0.00400,  -0.00171,  -0.00324,478206680.79119,   0.00232,277141614.51231,   0.00234,  -0.00033,  -0.00138,   0.56170,   1.00000
284302000.95278,-182469017.61770,-143375863.10919,   0.00400,  -0.00172,  -0.00325,478214661.49891,   0.00232,277146508.73794,   0.00235,  -0.00033,  -0.00138,   0.54788,   1.00000
283130199.78141,-183572954.39081,-143569538.66488,   0.00400,  -0.00172,  -0.00325,478210881.45499,   0.00233,277151363.47026,   0.00235,  -0.00033,  -0.00139,   0.52287,   1.00000
281944925.77989,-184685908.26519,-143764793.76972,   0.00400,  -0.00173,  -0.00326,478209132.32879,   0.00233,277156188.14850,   0.00236,  -0.00034,  -0.00139,   0.50060,   1.00000
280758337.21798,-185791113.13779,-143963640.23618,   0.00400,  -0.00173,  -0.00327,478200653.91151,   0.00234,277160952.20745,   0.00236,  -0.00034,  -0.00140,   0.47308,   1.00000
279575106.04960,-186895178.46519,-144157119.76750,   0.00400,  -0.00174,  -0.00327,478203412.52856,   0.00234,277165707.16984,   0.00236,  -0.00034,  -0.00140,   0.45669,   1.00000
278404598.63633,-187979376.15287,-144351358.99723,   0.00400,  -0.00174,  -0.00328,478204335.06096,   0.00235,277170444.68839,   0.00237,  -0.00035,  -0.00140,   0.43941,   1.00000
277223302.45688,-189074763.43931,-144543129.20362,   0.00400,  -0.00175,  -0.00329,478197490.79061,   0.00235,277175129.41195,   0.00237,  -0.00035,  -0.00141,   0.41625,   1.00000
276040530.51974,-190162609.27082,-144738542.77094,   0.00400,  -0.00176,  -0.00329,478188822.96745,   0.00235,277179753.25652,   0.00237,  -0.00035,  -0.00141,   0.39278,   1.00000
274861072.05288,-191249454.65142,-144928635.36754,   0.00400,  -0.00176,  -0.00330,478191353.76682,   0.00236,277184367.57345,   0.00238,  -0.00036,  -0.00142,   0.37885,   1.00000
273682097.96833,-192333209.65070,-145117454.83165,   0.00400,  -0.00177,  -0.00331,478198931.37797,   0.00236,277188995.41726,   0.00238,  -0.00036,  -0.00142,   0.36903,   1.00000
