# sigma_xx, sigma_yy, sigma_xy, epsilon_xx, epsilon_yy, epsilon_xy, vonMises, epsPlastic, hardening, epsilonP__xx, epsilonP__yy, epsilonP__xy, yieldValue, iteration
   0.00000,   0.00000,   0.00000,   0.00000,   0.00000,   0.00000,   0.00000,   0.00000,274640135.82653,   0.00000,   0.00000,   0.00000,-474640135.82653,   0.00000
   0.00000,   0.00000,   0.00000,   0.00000,   0.00000,   0.00000,   0.00000,   0.00000,274640135.82653,   0.00000,   0.00000,   0.00000,-474640135.82653,   0.00000
24469.05964,2789472.79882,336449.57003,  -0.00001,   0.00001,   0.00000,2837797.80701,   0.00000,274640135.82653,   0.00000,   0.00000,   0.00000,-471802338.01952,   0.00000
48938.11928,5578945.59763,666781.87516,  -0.00001,   0.00003,   0.00001,5673429.30007,   0.00000,274640135.82653,   0.00000,   0.00000,   0.00000,-468966706.52646,   0.00000
103993.50346,8399004.72100,997114.18028,  -0.00002,   0.00004,   0.00001,8524280.79612,   0.00000,274640135.82653,   0.00000,   0.00000,   0.00000,-466115855.03041,   0.00000
159048.88765,11219063.84436,1327446.48540,  -0.00002,   0.00005,   0.00002,11375177.05280,   0.00000,274640135.82653,   0.00000,   0.00000,   0.00000,-463264958.77373,   0.00000
214104.27184,14039122.96773,1651661.52562,  -0.00003,   0.00006,   0.00002,14223956.39503,   0.00000,274640135.82653,   0.00000,   0.00000,   0.00000,-460416179.43150,   0.00000
278335.55339,16880592.51828,1981993.83074,  -0.00003,   0.00008,   0.00003,17091468.74975,   0.00000,274640135.82653,   0.00000,   0.00000,   0.00000,-457548667.07678,   0.00000
354801.36476,19709827.53901,2306208.87095,  -0.00004,   0.00009,   0.00003,19939054.89198,   0.00000,274640135.82653,   0.00000,   0.00000,   0.00000,-454701080.93455,   0.00000
440443.07350,22560472.98692,2624306.64626,  -0.00004,   0.00010,   0.00003,22801168.46904,   0.00000,274640135.82653,   0.00000,   0.00000,   0.00000,-451838967.35749,   0.00000
535260.67960,25432528.86202,2948521.68647,  -0.00005,   0.00011,   0.00004,25682062.53471,   0.00000,274640135.82653,   0.00000,   0.00000,   0.00000,-448958073.29182,   0.00000
620902.38833,28283174.30993,3266619.46177,  -0.00005,   0.00013,   0.00004,28544260.13172,   0.00000,274640135.82653,   0.00000,   0.00000,   0.00000,-446095875.69481,   0.00000
737130.42162,31164406.08240,3584717.23708,  -0.00006,   0.00014,   0.00005,31421997.53264,   0.00000,274640135.82653,   0.00000,   0.00000,   0.00000,-443218138.29389,   0.00000
853358.45490,34045637.85486,3902815.01238,  -0.00006,   0.00015,   0.00005,34299802.32805,   0.00000,274640135.82653,   0.00000,   0.00000,   0.00000,-440340333.49848,   0.00000
969586.48819,36926869.62732,4214795.52277,  -0.00007,   0.00017,   0.00005,37175576.77409,   0.00000,274640135.82653,   0.00000,   0.00000,   0.00000,-437464559.05244,   0.00000
1094990.41883,39829511.82697,4526776.03317,  -0.00007,   0.00018,   0.00006,40068081.88968,   0.00000,274640135.82653,   0.00000,   0.00000,   0.00000,-434572053.93685,   0.00000
1232628.87930,42719919.49679,4838756.54356,  -0.00008,   0.00019,   0.00006,42942913.08164,   0.00000,274640135.82653,   0.00000,   0.00000,   0.00000,-431697222.74489,   0.00000
1379443.23713,45631737.59380,5144619.78905,  -0.00008,   0.00020,   0.00007,45832447.95964,   0.00000,274640135.82653,   0.00000,   0.00000,   0.00000,-428807687.86689,   0.00000
1526257.59497,48543555.69082,5456600.29944,  -0.00009,   0.00022,   0.00007,48724118.78400,   0.00000,274640135.82653,   0.00000,   0.00000,   0.00000,-425916017.04253,   0.00000
1673071.95280,51455373.78783,5762463.54492,  -0.00009,   0.00023,   0.00007,51613797.35128,   0.00000,274640135.82653,   0.00000,   0.00000,   0.00000,-423026338.47525,   0.00000
1841296.73782,54376367.78220,6062209.52550,  -0.00010,   0.00024,   0.00008,54500530.92625,   0.00000,274640135.82653,   0.00000,   0.00000,   0.00000,-420139604.90028,   0.00000
2018697.42020,57318772.20376,6368072.77098,  -0.00010,   0.00026,   0.00008,57406137.13789,   0.00000,274640135.82653,   0.00000,   0.00000,   0.00000,-417233998.68864,   0.00000
2208332.63240,60248942.09550,6667818.75156,  -0.00011,   0.00027,   0.00009,60292134.41616,   0.00000,274640135.82653,   0.00000,   0.00000,   0.00000,-414348001.41037,   0.00000
2385733.31478,63191346.51706,6967564.73213,  -0.00011,   0.00028,   0.00009,63195895.21786,   0.00000,274640135.82653,   0.00000,   0.00000,   0.00000,-411444240.60867,   0.00000
2575368.52698,66121516.40880,7261193.44780,  -0.00012,   0.00030,   0.00009,66080064.87431,   0.00000,274640135.82653,   0.00000,   0.00000,   0.00000,-408560070.95222,   0.00000
2774179.63654,69073096.72772,7554822.16346,  -0.00012,   0.00031,   0.00010,68981110.45498,   0.00000,274640135.82653,   0.00000,   0.00000,   0.00000,-405659025.37155,   0.00000
2994401.17329,72033852.94401,7848450.87913,  -0.00013,   0.00032,   0.00010,71881421.09182,   0.00000,274640135.82653,   0.00000,   0.00000,   0.00000,-402758714.73471,   0.00000
3214622.71004,74994609.16030,8142079.59479,  -0.00013,   0.00033,   0.00011,74781857.48509,   0.00000,274640135.82653,   0.00000,   0.00000,   0.00000,-399858278.34144,   0.00000
3434844.24679,77955365.37659,8429591.04555,  -0.00014,   0.00035,   0.00011,77680413.38273,   0.00000,274640135.82653,   0.00000,   0.00000,   0.00000,-396959722.44380,   0.00000
3655065.78354,80916121.59287,8717102.49630,  -0.00014,   0.00036,   0.00011,80579079.91493,   0.00000,274640135.82653,   0.00000,   0.00000,   0.00000,-394061055.91160,   0.00000
3896697.74747,83886053.70653,9004613.94706,  -0.00015,   0.00037,   0.00012,83477091.94907,   0.00000,274640135.82653,   0.00000,   0.00000,   0.00000,-391163043.87746,   0.00000
4138329.71140,86855985.82018,9286008.13290,  -0.00015,   0.00039,   0.00012,86373255.00406,   0.00000,274640135.82653,   0.00000,   0.00000,   0.00000,-388266880.82247,   0.00000
4389137.57270,89847328.36102,9567402.31875,  -0.00016,   0.00040,   0.00012,89286394.36619,   0.00000,274640135.82653,   0.00000,   0.00000,   0.00000,-385353741.46034,   0.00000
4652179.96382,92826436.37203,9848796.50459,  -0.00016,   0.00041,   0.00013,92182108.66709,   0.00000,274640135.82653,   0.00000,   0.00000,   0.00000,-382458027.15944,   0.00000
4915222.35493,95805544.38305,10124073.42553,  -0.00016,   0.00043,   0.00013,95076005.28014,   0.00000,274640135.82653,   0.00000,   0.00000,   0.00000,-379564130.54639,   0.00000
5178264.74605,98784652.39407,10399350.34647,  -0.00017,   0.00044,   0.00014,97970038.04398,   0.00000,274640135.82653,   0.00000,   0.00000,   0.00000,-376670097.78254,   0.00000
5462717.56435,101772936.30245,10674627.26740,  -0.00017,   0.00045,   0.00014,100863561.51747,   0.00000,274640135.82653,   0.00000,   0.00000,   0.00000,-373776574.30905,   0.00000
5747170.38265,104761220.21083,10949904.18834,  -0.00018,   0.00047,   0.00014,103757235.17242,   0.00000,274640135.82653,   0.00000,   0.00000,   0.00000,-370882900.65411,   0.00000
6031623.20095,107749504.11921,11219063.84436,  -0.00018,   0.00048,   0.00015,106649115.73975,   0.00000,274640135.82653,   0.00000,   0.00000,   0.00000,-367991020.08678,   0.00000
6346662.34380,110768374.35214,11488223.50039,  -0.00019,   0.00049,   0.00015,109557479.19117,   0.00000,274640135.82653,   0.00000,   0.00000,   0.00000,-365082656.63536,   0.00000
6621939.26474,113735247.83334,11751265.89151,  -0.00019,   0.00050,   0.00015,112430803.27955,   0.00000,274640135.82653,   0.00000,   0.00000,   0.00000,-362209332.54698,   0.00000
6949212.93740,116741883.53645,12020425.54753,  -0.00020,   0.00052,   0.00016,115322012.71098,   0.00000,274640135.82653,   0.00000,   0.00000,   0.00000,-359318123.11555,   0.00000
7255076.18289,119739343.34220,12277350.67374,  -0.00020,   0.00053,   0.00016,118210102.93161,   0.00000,274640135.82653,   0.00000,   0.00000,   0.00000,-356430032.89492,   0.00000
7582349.85556,122745979.04531,12540393.06486,  -0.00020,   0.00054,   0.00016,121099747.39570,   0.00000,274640135.82653,   0.00000,   0.00000,   0.00000,-353540388.43083,   0.00000
7909623.52822,125752614.74842,12797318.19106,  -0.00021,   0.00056,   0.00017,123987662.60690,   0.00000,274640135.82653,   0.00000,   0.00000,   0.00000,-350652473.21963,   0.00000
8249131.73071,128747015.92171,13054243.31727,  -0.00021,   0.00057,   0.00017,126858310.70348,   0.00000,274640135.82653,   0.00000,   0.00000,   0.00000,-347781825.12305,   0.00000
8597815.83056,131762827.52219,13311168.44348,  -0.00022,   0.00058,   0.00017,129746114.56741,   0.00000,274640135.82653,   0.00000,   0.00000,   0.00000,-344894021.25912,   0.00000
8937324.03305,134757228.69548,13561976.30477,  -0.00022,   0.00060,   0.00018,132615229.26038,   0.00000,274640135.82653,   0.00000,   0.00000,   0.00000,-342024906.56615,   0.00000
9276832.23554,137751629.86877,13812784.16607,  -0.00023,   0.00061,   0.00018,135484506.14967,   0.00000,274640135.82653,   0.00000,   0.00000,   0.00000,-339155629.67686,   0.00000
9637750.86521,140755206.93943,14063592.02737,  -0.00023,   0.00062,   0.00018,138353549.88931,   0.00000,274640135.82653,   0.00000,   0.00000,   0.00000,-336286585.93722,   0.00000
9998669.49488,143758784.01008,14308282.62376,  -0.00023,   0.00063,   0.00019,141220910.83953,   0.00000,274640135.82653,   0.00000,   0.00000,   0.00000,-333419224.98700,   0.00000
10371822.65437,146750126.55092,14552973.22014,  -0.00024,   0.00065,   0.00019,144071076.72753,   0.00000,274640135.82653,   0.00000,   0.00000,   0.00000,-330569059.09900,   0.00000
10754151.71123,149762879.51894,14791546.55162,  -0.00024,   0.00066,   0.00019,146936614.50415,   0.00000,274640135.82653,   0.00000,   0.00000,   0.00000,-327703521.32238,   0.00000
11127304.87072,152754222.05977,15036237.14801,  -0.00025,   0.00067,   0.00020,149787154.83758,   0.00000,274640135.82653,   0.00000,   0.00000,   0.00000,-324852980.98895,   0.00000
11521868.45739,155754740.49798,15274810.47949,  -0.00025,   0.00069,   0.00020,152635731.44667,   0.00000,274640135.82653,   0.00000,   0.00000,   0.00000,-322004404.37986,   0.00000
11895021.61688,158746083.03881,15507266.54605,  -0.00026,   0.00070,   0.00020,155482951.72552,   0.00000,274640135.82653,   0.00000,   0.00000,   0.00000,-319157184.10101,   0.00000
12310995.63074,161755777.37438,15739722.61262,  -0.00026,   0.00071,   0.00020,158329826.82575,   0.00000,274640135.82653,   0.00000,   0.00000,   0.00000,-316310309.00078,   0.00000
12696383.32005,164734885.38540,15972178.67919,  -0.00026,   0.00072,   0.00021,161160090.70670,   0.00000,274640135.82653,   0.00000,   0.00000,   0.00000,-313480045.11983,   0.00000
13112357.33391,167744579.72096,16204634.74576,  -0.00027,   0.00074,   0.00021,164007382.85887,   0.00000,274640135.82653,   0.00000,   0.00000,   0.00000,-310632752.96766,   0.00000
13540565.87759,170742039.52671,16430973.54742,  -0.00027,   0.00075,   0.00021,166835781.01501,   0.00000,274640135.82653,   0.00000,   0.00000,   0.00000,-307804354.81152,   0.00000
13938188.09672,173708913.00791,16657312.34908,  -0.00028,   0.00076,   0.00022,169647488.06366,   0.00000,274640135.82653,   0.00000,   0.00000,   0.00000,-304992647.76287,   0.00000
14366396.64040,176706372.81365,16883651.15073,  -0.00028,   0.00078,   0.00022,172476301.94667,   0.00000,274640135.82653,   0.00000,   0.00000,   0.00000,-302163833.87986,   0.00000
14785429.28671,179682422.19221,17103872.68748,  -0.00028,   0.00079,   0.00022,175286415.33044,   0.00000,274640135.82653,   0.00000,   0.00000,   0.00000,-299353720.49609,   0.00000
15225872.36021,182667647.46814,17324094.22423,  -0.00029,   0.00080,   0.00023,178096589.12527,   0.00000,274640135.82653,   0.00000,   0.00000,   0.00000,-296543546.70126,   0.00000
15666315.43371,185652872.74407,17538198.49607,  -0.00029,   0.00081,   0.00023,180905199.90115,   0.00000,274640135.82653,   0.00000,   0.00000,   0.00000,-293734935.92538,   0.00000
16118993.03702,188625863.49017,17752302.76791,  -0.00029,   0.00083,   0.00023,183696793.91441,   0.00000,274640135.82653,   0.00000,   0.00000,   0.00000,-290943341.91212,   0.00000
16550260.21316,191589678.33892,17966407.03975,  -0.00030,   0.00084,   0.00023,186488692.08138,   0.00000,274640135.82653,   0.00000,   0.00000,   0.00000,-288151443.74515,   0.00000
17002937.81647,194562669.08503,18180511.31159,  -0.00030,   0.00085,   0.00024,189280712.45289,   0.00000,274640135.82653,   0.00000,   0.00000,   0.00000,-285359423.37364,   0.00000
17467849.94961,197523425.30131,18388498.31852,  -0.00031,   0.00086,   0.00024,192053977.78010,   0.00000,274640135.82653,   0.00000,   0.00000,   0.00000,-282586158.04643,   0.00000
17932762.08275,200484181.51760,18596485.32545,  -0.00031,   0.00088,   0.00024,194827471.53717,   0.00000,274640135.82653,   0.00000,   0.00000,   0.00000,-279812664.28935,   0.00000
18397674.21588,203444937.73389,18798355.06747,  -0.00031,   0.00089,   0.00024,197599437.95601,   0.00000,274640135.82653,   0.00000,   0.00000,   0.00000,-277040697.87052,   0.00000
18853410.45165,206384283.52299,19000224.80949,  -0.00032,   0.00090,   0.00025,200354439.90928,   0.00000,274640135.82653,   0.00000,   0.00000,   0.00000,-274285695.91725,   0.00000
19330557.11461,209332805.20946,19202094.55151,  -0.00032,   0.00091,   0.00025,203109663.31924,   0.00000,274640135.82653,   0.00000,   0.00000,   0.00000,-271530472.50729,   0.00000
19829114.20475,212290502.79330,19397847.02862,  -0.00032,   0.00093,   0.00025,205863421.05858,   0.00000,274640135.82653,   0.00000,   0.00000,   0.00000,-268776714.76795,   0.00000
20297084.97034,215217614.05258,19599716.77063,  -0.00033,   0.00094,   0.00025,208601892.48832,   0.00000,274640135.82653,   0.00000,   0.00000,   0.00000,-266038243.33821,   0.00000
20786466.16311,218153901.20923,19789351.98283,  -0.00033,   0.00095,   0.00026,211337191.37488,   0.00000,274640135.82653,   0.00000,   0.00000,   0.00000,-263302944.45165,   0.00000
21266671.45852,221068777.93870,19985104.45994,  -0.00033,   0.00096,   0.00026,214057216.70829,   0.00000,274640135.82653,   0.00000,   0.00000,   0.00000,-260582919.11824,   0.00000
21768287.18112,223992830.56553,20174739.67215,  -0.00034,   0.00098,   0.00026,216775844.06896,   0.00000,274640135.82653,   0.00000,   0.00000,   0.00000,-257864291.75757,   0.00000
22269902.90371,226916883.19236,20358257.61944,  -0.00034,   0.00099,   0.00026,219493005.48552,   0.00000,274640135.82653,   0.00000,   0.00000,   0.00000,-255147130.34101,   0.00000
22762342.72894,229819525.39200,20547892.83164,  -0.00034,   0.00100,   0.00027,222194859.06429,   0.00000,274640135.82653,   0.00000,   0.00000,   0.00000,-252445276.76224,   0.00000
23276192.98136,232731343.48901,20725293.51402,  -0.00035,   0.00101,   0.00027,224893692.91239,   0.00000,274640135.82653,   0.00000,   0.00000,   0.00000,-249746442.91414,   0.00000
23780867.33641,235621751.15884,20908811.46131,  -0.00035,   0.00103,   0.00027,227577206.36022,   0.00000,274640135.82653,   0.00000,   0.00000,   0.00000,-247062929.46631,   0.00000
24306952.11864,238521334.72603,21086212.14369,  -0.00035,   0.00104,   0.00027,230259448.02772,   0.00000,274640135.82653,   0.00000,   0.00000,   0.00000,-244380687.79881,   0.00000
24811626.47369,241411742.39586,21263612.82607,  -0.00036,   0.00105,   0.00028,232941734.96271,   0.00000,274640135.82653,   0.00000,   0.00000,   0.00000,-241698400.86382,   0.00000
25328535.35856,244289915.53586,21441013.50845,  -0.00036,   0.00106,   0.00028,235607179.33321,   0.00000,274640135.82653,   0.00000,   0.00000,   0.00000,-239032956.49332,   0.00000
25857678.77324,247155854.14605,21612296.92592,  -0.00036,   0.00107,   0.00028,238254135.83401,   0.00000,274640135.82653,   0.00000,   0.00000,   0.00000,-236385999.99252,   0.00000
26395998.08530,250043203.18342,21783580.34339,  -0.00037,   0.00109,   0.00028,240918628.12661,   0.00000,274640135.82653,   0.00000,   0.00000,   0.00000,-233721507.69992,   0.00000
26915965.60262,252887731.36643,21948746.49595,  -0.00037,   0.00110,   0.00029,243547118.27371,   0.00000,274640135.82653,   0.00000,   0.00000,   0.00000,-231093017.55282,   0.00000
27457343.54713,255741435.44680,22113912.64852,  -0.00037,   0.00111,   0.00029,246176120.82538,   0.00000,274640135.82653,   0.00000,   0.00000,   0.00000,-228464015.00115,   0.00000
27977311.06445,258585963.62980,22279078.80108,  -0.00038,   0.00112,   0.00029,248805069.55457,   0.00000,274640135.82653,   0.00000,   0.00000,   0.00000,-225835066.27196,   0.00000
28530923.53878,261427433.18035,22444244.95364,  -0.00038,   0.00113,   0.00029,251417546.53336,   0.00000,274640135.82653,   0.00000,   0.00000,   0.00000,-223222589.29317,   0.00000
29053949.68855,264238316.40635,22603293.84129,  -0.00038,   0.00115,   0.00029,254010983.57460,   0.00000,274640135.82653,   0.00000,   0.00000,   0.00000,-220629152.25193,   0.00000
29607562.16288,267079785.95690,22756225.46403,  -0.00039,   0.00116,   0.00030,256620684.72934,   0.00000,274640135.82653,   0.00000,   0.00000,   0.00000,-218019451.09719,   0.00000
30164233.26966,269887610.55045,22915274.35168,  -0.00039,   0.00117,   0.00030,259197954.95331,   0.00000,274640135.82653,   0.00000,   0.00000,   0.00000,-215442180.87322,   0.00000
30699493.94926,272686259.24663,23068205.97443,  -0.00039,   0.00118,   0.00030,261773472.92174,   0.00000,274640135.82653,   0.00000,   0.00000,   0.00000,-212866662.90479,   0.00000
31246989.15868,275472673.41299,23215020.33226,  -0.00039,   0.00119,   0.00030,264330641.42512,   0.00000,274640135.82653,   0.00000,   0.00000,   0.00000,-210309494.40141,   0.00000
31794484.36809,278259087.57935,23367951.95500,  -0.00040,   0.00120,   0.00030,266889655.81700,   0.00000,274640135.82653,   0.00000,   0.00000,   0.00000,-207750480.00953,   0.00000
32363390.00469,281054677.64308,23514766.31283,  -0.00040,   0.00122,   0.00031,269447715.51580,   0.00000,274640135.82653,   0.00000,   0.00000,   0.00000,-205192420.31072,   0.00000
32913943.84657,283807446.85244,23655463.40576,  -0.00040,   0.00123,   0.00031,271969695.12488,   0.00000,274640135.82653,   0.00000,   0.00000,   0.00000,-202670440.70165,   0.00000
33473673.58580,286581626.48898,23802277.76359,  -0.00041,   0.00124,   0.00031,274510875.78423,   0.00000,274640135.82653,   0.00000,   0.00000,   0.00000,-200129260.04230,   0.00000
34036461.95749,289322161.16852,23936857.59160,  -0.00041,   0.00125,   0.00031,277014819.83428,   0.00000,274640135.82653,   0.00000,   0.00000,   0.00000,-197625315.99225,   0.00000
34599250.32919,292062695.84806,24077554.68453,  -0.00041,   0.00126,   0.00031,279520593.19963,   0.00000,274640135.82653,   0.00000,   0.00000,   0.00000,-195119542.62690,   0.00000
35183449.12806,294812406.42496,24212134.51254,  -0.00041,   0.00127,   0.00031,282025522.14970,   0.00000,274640135.82653,   0.00000,   0.00000,   0.00000,-192614613.67683,   0.00000
35727885.70502,297510120.25014,24346714.34055,  -0.00042,   0.00128,   0.00032,284495401.35714,   0.00000,274640135.82653,   0.00000,   0.00000,   0.00000,-190144734.46939,   0.00000
36302908.60653,300238420.39986,24481294.16856,  -0.00042,   0.00130,   0.00032,286983420.45152,   0.00000,274640135.82653,   0.00000,   0.00000,   0.00000,-187656715.37501,   0.00000
36880990.14050,302933075.59257,24609756.73167,  -0.00042,   0.00131,   0.00032,289435838.01377,   0.00000,274640135.82653,   0.00000,   0.00000,   0.00000,-185204297.81276,   0.00000
37437661.24728,305618554.88792,24738219.29477,  -0.00043,   0.00132,   0.00032,291887947.89148,   0.00000,274640135.82653,   0.00000,   0.00000,   0.00000,-182752187.93505,   0.00000
38037153.20843,308322385.97801,24860564.59296,  -0.00043,   0.00133,   0.00032,294339864.61569,   0.00000,274640135.82653,   0.00000,   0.00000,   0.00000,-180300271.21084,   0.00000
38596882.94767,310974220.31635,24982909.89116,  -0.00043,   0.00134,   0.00032,296756612.14746,   0.00000,274640135.82653,   0.00000,   0.00000,   0.00000,-177883523.67907,   0.00000
39178023.11409,313635230.55207,25105255.18935,  -0.00043,   0.00135,   0.00033,299174177.59724,   0.00000,274640135.82653,   0.00000,   0.00000,   0.00000,-175465958.22929,   0.00000
39759163.28051,316296240.78778,25221483.22264,  -0.00044,   0.00136,   0.00033,301590448.73239,   0.00000,274640135.82653,   0.00000,   0.00000,   0.00000,-173049687.09414,   0.00000
40321951.65220,318914430.16913,25337711.25592,  -0.00044,   0.00137,   0.00033,303972071.34166,   0.00000,274640135.82653,   0.00000,   0.00000,   0.00000,-170668064.48487,   0.00000
40915326.34844,321563205.87502,25453939.28920,  -0.00044,   0.00138,   0.00033,306372004.05522,   0.00000,274640135.82653,   0.00000,   0.00000,   0.00000,-168268131.77131,   0.00000
41490349.24995,324169160.72655,25564050.05758,  -0.00044,   0.00139,   0.00033,308735751.28007,   0.00000,274640135.82653,   0.00000,   0.00000,   0.00000,-165904384.54646,   0.00000
42065372.15146,326775115.57807,25674160.82595,  -0.00045,   0.00140,   0.00033,311099730.71513,   0.00000,274640135.82653,   0.00000,   0.00000,   0.00000,-163540405.11140,   0.00000
42652629.58279,329368835.89978,25784271.59433,  -0.00045,   0.00142,   0.00034,313447150.09632,   0.00000,274640135.82653,   0.00000,   0.00000,   0.00000,-161192985.73021,   0.00000
43230711.11675,331941145.79430,25888265.09779,  -0.00045,   0.00143,   0.00034,315775828.21144,   0.00000,274640135.82653,   0.00000,   0.00000,   0.00000,-158864307.61509,   0.00000
43808792.65072,334513455.68883,25992258.60126,  -0.00045,   0.00144,   0.00034,318104737.86605,   0.00000,274640135.82653,   0.00000,   0.00000,   0.00000,-156535397.96047,   0.00000
44377698.28732,337064355.15617,26096252.10472,  -0.00046,   0.00145,   0.00034,320416389.23022,   0.00000,274640135.82653,   0.00000,   0.00000,   0.00000,-154223746.59631,   0.00000
44958838.45374,339603020.09369,26194128.34328,  -0.00046,   0.00146,   0.00034,322710006.30916,   0.00000,274640135.82653,   0.00000,   0.00000,   0.00000,-151930129.51737,   0.00000
45539978.62016,342141685.03121,26292004.58183,  -0.00046,   0.00147,   0.00034,325003855.02656,   0.00000,274640135.82653,   0.00000,   0.00000,   0.00000,-149636280.79997,   0.00000
46133353.31640,344668115.43891,26389880.82039,  -0.00046,   0.00148,   0.00034,327281190.37171,   0.00000,274640135.82653,   0.00000,   0.00000,   0.00000,-147358945.45482,   0.00000
46717552.11527,347173135.41942,26481639.79403,  -0.00046,   0.00149,   0.00034,329539782.61230,   0.00000,274640135.82653,   0.00000,   0.00000,   0.00000,-145100353.21423,   0.00000
47292575.01678,349656744.97276,26573398.76768,  -0.00047,   0.00150,   0.00035,331781096.02735,   0.00000,274640135.82653,   0.00000,   0.00000,   0.00000,-142859039.79918,   0.00000
47867597.91829,352140354.52609,26665157.74132,  -0.00047,   0.00151,   0.00035,334022626.81901,   0.00000,274640135.82653,   0.00000,   0.00000,   0.00000,-140617509.00751,   0.00000
48454855.34962,354611729.54960,26750799.45006,  -0.00047,   0.00152,   0.00035,336246200.71334,   0.00000,274640135.82653,   0.00000,   0.00000,   0.00000,-138393935.11319,   0.00000
49032936.88359,357061694.14593,26836441.15879,  -0.00047,   0.00153,   0.00035,338452481.94598,   0.00000,274640135.82653,   0.00000,   0.00000,   0.00000,-136187653.88055,   0.00000
49601842.52019,359490248.31508,26922082.86753,  -0.00048,   0.00154,   0.00035,340641451.33607,   0.00000,274640135.82653,   0.00000,   0.00000,   0.00000,-133998684.49046,   0.00000
50170748.15679,361918802.48422,27001607.31136,  -0.00048,   0.00155,   0.00035,342829180.29504,   0.00000,274640135.82653,   0.00000,   0.00000,   0.00000,-131810955.53149,   0.00000
50751888.32321,364335122.12355,27081131.75518,  -0.00048,   0.00156,   0.00035,345000439.19152,   0.00000,274640135.82653,   0.00000,   0.00000,   0.00000,-129639696.63501,   0.00000
51323852.59227,366730031.33569,27160656.19901,  -0.00048,   0.00157,   0.00035,347154374.01024,   0.00000,274640135.82653,   0.00000,   0.00000,   0.00000,-127485761.81629,   0.00000
51917227.28851,369134116.44520,27234063.37792,  -0.00048,   0.00158,   0.00035,349307969.01000,   0.00000,274640135.82653,   0.00000,   0.00000,   0.00000,-125332166.81653,   0.00000
52470839.76283,371486204.80297,27307470.55684,  -0.00049,   0.00159,   0.00035,351425796.01197,   0.00000,274640135.82653,   0.00000,   0.00000,   0.00000,-123214339.81456,   0.00000
53045862.66434,373847469.05811,27374760.47085,  -0.00049,   0.00160,   0.00036,353543299.60897,   0.00000,274640135.82653,   0.00000,   0.00000,   0.00000,-121096836.21756,   0.00000
53633120.09567,376196498.78343,27448167.64976,  -0.00049,   0.00161,   0.00036,355645794.28312,   0.00000,274640135.82653,   0.00000,   0.00000,   0.00000,-118994341.54341,   0.00000
54189791.20246,378514942.18420,27515457.56377,  -0.00049,   0.00162,   0.00036,357728598.88208,   0.00000,274640135.82653,   0.00000,   0.00000,   0.00000,-116911536.94445,   0.00000
54767872.73642,380842561.48234,27576630.21287,  -0.00049,   0.00163,   0.00036,359811132.65478,   0.00000,274640135.82653,   0.00000,   0.00000,   0.00000,-114829003.17175,   0.00000
55327602.47566,383127359.92610,27643920.12687,  -0.00050,   0.00164,   0.00036,361860136.25716,   0.00000,274640135.82653,   0.00000,   0.00000,   0.00000,-112779999.56936,   0.00000
55887332.21489,385412158.36987,27705092.77597,  -0.00050,   0.00164,   0.00036,363907934.62649,   0.00000,274640135.82653,   0.00000,   0.00000,   0.00000,-110732201.20004,   0.00000
56437886.05677,387675546.38646,27760148.16016,  -0.00050,   0.00165,   0.00036,365936952.78321,   0.00000,274640135.82653,   0.00000,   0.00000,   0.00000,-108703183.04332,   0.00000
57009850.32582,389948110.30040,27821320.80925,  -0.00050,   0.00166,   0.00036,367968539.46048,   0.00000,274640135.82653,   0.00000,   0.00000,   0.00000,-106671596.36605,   0.00000
57563462.80015,392177853.35998,27876376.19344,  -0.00050,   0.00167,   0.00036,369963758.61927,   0.00000,274640135.82653,   0.00000,   0.00000,   0.00000,-104676377.20726,   0.00000
58117075.27447,394407596.41956,27925314.31272,  -0.00050,   0.00168,   0.00036,371957793.46637,   0.00000,274640135.82653,   0.00000,   0.00000,   0.00000,-102682342.36016,   0.00000
58673746.38126,396603694.52214,27980369.69690,  -0.00051,   0.00169,   0.00036,373919212.80123,   0.00000,274640135.82653,   0.00000,   0.00000,   0.00000,-100720923.02530,   0.00000
59209007.06085,398790616.72736,28029307.81618,  -0.00051,   0.00170,   0.00036,375878427.62690,   0.00000,274640135.82653,   0.00000,   0.00000,   0.00000,-98761708.19963,   0.00000
59756502.27027,400965304.40275,28078245.93546,  -0.00051,   0.00171,   0.00037,377821246.70267,   0.00000,274640135.82653,   0.00000,   0.00000,   0.00000,-96818889.12386,   0.00000
60325407.90687,403149167.97551,28121066.78983,  -0.00051,   0.00172,   0.00037,379763942.02877,   0.00000,274640135.82653,   0.00000,   0.00000,   0.00000,-94876193.79776,   0.00000
60854551.32156,405281034.79653,28163887.64420,  -0.00051,   0.00173,   0.00037,381670553.94977,   0.00000,274640135.82653,   0.00000,   0.00000,   0.00000,-92969581.87676,   0.00000
61405105.16343,407422077.51492,28206708.49856,  -0.00052,   0.00173,   0.00037,383578409.04301,   0.00000,274640135.82653,   0.00000,   0.00000,   0.00000,-91061726.78352,   0.00000
61915896.78339,409511123.48158,28249529.35293,  -0.00052,   0.00174,   0.00037,385450123.62495,   0.00000,274640135.82653,   0.00000,   0.00000,   0.00000,-89190012.20158,   0.00000
62448098.83053,411609345.34560,28286232.94239,  -0.00052,   0.00175,   0.00037,387321739.73053,   0.00000,274640135.82653,   0.00000,   0.00000,   0.00000,-87318396.09600,   0.00000
62992535.40749,413695332.67981,28322936.53185,  -0.00052,   0.00176,   0.00037,389176998.43096,   0.00000,274640135.82653,   0.00000,   0.00000,   0.00000,-85463137.39557,   0.00000
63515561.55727,415772144.11664,28353522.85640,  -0.00052,   0.00177,   0.00037,391030009.00820,   0.00000,274640135.82653,   0.00000,   0.00000,   0.00000,-83610126.81833,   0.00000
64041646.33951,417815310.59648,28390226.44585,  -0.00052,   0.00178,   0.00037,392850354.14417,   0.00000,274640135.82653,   0.00000,   0.00000,   0.00000,-81789781.68236,   0.00000
64558555.22437,419837066.64913,28414695.50549,  -0.00052,   0.00178,   0.00037,394650579.49369,   0.00000,274640135.82653,   0.00000,   0.00000,   0.00000,-79989556.33284,   0.00000
65075464.10924,421858822.70178,28445281.83004,  -0.00053,   0.00179,   0.00037,396452299.55146,   0.00000,274640135.82653,   0.00000,   0.00000,   0.00000,-78187836.27507,   0.00000
65574021.19938,423837757.90007,28475868.15459,  -0.00053,   0.00180,   0.00037,398218879.96157,   0.00000,274640135.82653,   0.00000,   0.00000,   0.00000,-76421255.86496,   0.00000
66093988.71670,425825868.99571,28500337.21423,  -0.00053,   0.00181,   0.00037,399985454.15268,   0.00000,274640135.82653,   0.00000,   0.00000,   0.00000,-74654681.67385,   0.00000
66583369.90948,427783393.76681,28518689.00896,  -0.00053,   0.00182,   0.00037,401732079.93788,   0.00000,274640135.82653,   0.00000,   0.00000,   0.00000,-72908055.88865,   0.00000
67084985.63207,429728684.00809,28543158.06860,  -0.00053,   0.00182,   0.00037,403463666.49526,   0.00000,274640135.82653,   0.00000,   0.00000,   0.00000,-71176469.33127,   0.00000
67577425.45730,431652563.82219,28561509.86333,  -0.00053,   0.00183,   0.00037,405176449.05347,   0.00000,274640135.82653,   0.00000,   0.00000,   0.00000,-69463686.77306,   0.00000
68069865.28253,433576443.63629,28579861.65805,  -0.00054,   0.00184,   0.00037,406889388.41539,   0.00000,274640135.82653,   0.00000,   0.00000,   0.00000,-67750747.41114,   0.00000
68565363.74022,435466678.49338,28598213.45278,  -0.00054,   0.00185,   0.00037,408568328.94060,   0.00000,274640135.82653,   0.00000,   0.00000,   0.00000,-66071806.88593,   0.00000
69030275.87335,437326327.02592,28610447.98260,  -0.00054,   0.00186,   0.00037,410227268.10532,   0.00000,274640135.82653,   0.00000,   0.00000,   0.00000,-64412867.72121,   0.00000
69516598.43367,439195151.45583,28622682.51242,  -0.00054,   0.00186,   0.00037,411887556.74935,   0.00000,274640135.82653,   0.00000,   0.00000,   0.00000,-62752579.07718,   0.00000
69993745.09663,441042565.45856,28634917.04224,  -0.00054,   0.00187,   0.00037,413530317.41034,   0.00000,274640135.82653,   0.00000,   0.00000,   0.00000,-61109818.41619,   0.00000
70452539.96486,442847158.60692,28641034.30715,  -0.00054,   0.00188,   0.00037,415136586.76656,   0.00000,274640135.82653,   0.00000,   0.00000,   0.00000,-59503549.05997,   0.00000
70911334.83308,444651751.75527,28653268.83697,  -0.00054,   0.00188,   0.00037,416744259.63550,   0.00000,274640135.82653,   0.00000,   0.00000,   0.00000,-57895876.19103,   0.00000
71360953.80394,446434934.47645,28653268.83697,  -0.00055,   0.00189,   0.00037,418331857.68991,   0.00000,274640135.82653,   0.00000,   0.00000,   0.00000,-56308278.13662,   0.00000
71801396.87744,448196706.77044,28659386.10188,  -0.00055,   0.00190,   0.00037,419903155.69979,   0.00000,274640135.82653,   0.00000,   0.00000,   0.00000,-54736980.12674,   0.00000
72254074.48076,449946244.53461,28659386.10188,  -0.00055,   0.00191,   0.00037,421456885.12603,   0.00000,274640135.82653,   0.00000,   0.00000,   0.00000,-53183250.70050,   0.00000
72676165.75953,451665195.97423,28659386.10188,  -0.00055,   0.00191,   0.00037,422991797.68492,   0.00000,274640135.82653,   0.00000,   0.00000,   0.00000,-51648338.14161,   0.00000
73119667.46548,453393323.31121,28659386.10188,  -0.00055,   0.00192,   0.00037,424528095.17990,   0.00000,274640135.82653,   0.00000,   0.00000,   0.00000,-50112040.64663,   0.00000
73544817.37670,455078629.79383,28659386.10188,  -0.00055,   0.00193,   0.00037,426029113.99690,   0.00000,274640135.82653,   0.00000,   0.00000,   0.00000,-48611021.82962,   0.00000
73960791.39056,456742525.84927,28653268.83697,  -0.00055,   0.00193,   0.00037,427511314.88404,   0.00000,274640135.82653,   0.00000,   0.00000,   0.00000,-47128820.94249,   0.00000
74376765.40442,458406421.90470,28647151.57206,  -0.00056,   0.00194,   0.00037,428993638.47636,   0.00000,274640135.82653,   0.00000,   0.00000,   0.00000,-45646497.35017,   0.00000
74795798.05073,460036673.00313,28641034.30715,  -0.00056,   0.00195,   0.00037,430441945.40323,   0.00000,274640135.82653,   0.00000,   0.00000,   0.00000,-44198190.42330,   0.00000
75193420.26986,461657748.20420,28628799.77733,  -0.00056,   0.00195,   0.00037,431887863.19758,   0.00000,274640135.82653,   0.00000,   0.00000,   0.00000,-42752272.62895,   0.00000
75581866.59163,463257412.97808,28616565.24751,  -0.00056,   0.00196,   0.00037,433316180.94761,   0.00000,274640135.82653,   0.00000,   0.00000,   0.00000,-41323954.87892,   0.00000
75982547.44321,464844843.22215,28604330.71769,  -0.00056,   0.00197,   0.00037,434728195.12857,   0.00000,274640135.82653,   0.00000,   0.00000,   0.00000,-39911940.69796,   0.00000
76364876.50007,466389452.61184,28592096.18787,  -0.00056,   0.00197,   0.00037,436104880.52080,   0.00000,274640135.82653,   0.00000,   0.00000,   0.00000,-38535255.30573,   0.00000
76725795.12974,467924886.10417,28579861.65805,  -0.00056,   0.00198,   0.00037,437480357.50619,   0.00000,274640135.82653,   0.00000,   0.00000,   0.00000,-37159778.32034,   0.00000
77098948.28923,469448085.06669,28561509.86333,  -0.00056,   0.00199,   0.00037,438838328.20535,   0.00000,274640135.82653,   0.00000,   0.00000,   0.00000,-35801807.62118,   0.00000
77462925.55136,470949873.60201,28543158.06860,  -0.00057,   0.00199,   0.00037,440178678.38079,   0.00000,274640135.82653,   0.00000,   0.00000,   0.00000,-34461457.44574,   0.00000
77817726.91612,472430251.71016,28518689.00896,  -0.00057,   0.00200,   0.00037,441500215.07038,   0.00000,274640135.82653,   0.00000,   0.00000,   0.00000,-33139920.75615,   0.00000
78163352.38352,473889219.39112,28500337.21423,  -0.00057,   0.00200,   0.00037,442805306.57266,   0.00000,274640135.82653,   0.00000,   0.00000,   0.00000,-31834829.25387,   0.00000
78499801.95355,475326776.64489,28475868.15459,  -0.00057,   0.00201,   0.00037,444091579.37750,   0.00000,274640135.82653,   0.00000,   0.00000,   0.00000,-30548556.44903,   0.00000
78836251.52358,476764333.89867,28451399.09495,  -0.00057,   0.00202,   0.00037,445377949.63245,   0.00000,274640135.82653,   0.00000,   0.00000,   0.00000,-29262186.19408,   0.00000
79154349.29888,478159070.29808,28420812.77040,  -0.00057,   0.00202,   0.00037,446627770.34802,   0.00000,274640135.82653,   0.00000,   0.00000,   0.00000,-28012365.47851,   0.00000
79463271.17682,479532396.27030,28396343.71076,  -0.00057,   0.00203,   0.00037,447861110.95336,   0.00000,274640135.82653,   0.00000,   0.00000,   0.00000,-26779024.87317,   0.00000
79793603.48195,480914898.13989,28365757.38622,  -0.00057,   0.00203,   0.00037,449094727.52982,   0.00000,274640135.82653,   0.00000,   0.00000,   0.00000,-25545408.29671,   0.00000
80084173.56516,482245403.25775,28335171.06167,  -0.00058,   0.00204,   0.00037,450291599.96677,   0.00000,274640135.82653,   0.00000,   0.00000,   0.00000,-24348535.85976,   0.00000
80374743.64837,483575908.37561,28304584.73712,  -0.00058,   0.00204,   0.00037,451488557.39547,   0.00000,274640135.82653,   0.00000,   0.00000,   0.00000,-23151578.43106,   0.00000
80668372.36403,484872768.53646,28267881.14766,  -0.00058,   0.00205,   0.00037,452650317.83964,   0.00000,274640135.82653,   0.00000,   0.00000,   0.00000,-21989817.98689,   0.00000
80940590.65251,486160452.79995,28231177.55820,  -0.00058,   0.00205,   0.00037,453810807.53908,   0.00000,274640135.82653,   0.00000,   0.00000,   0.00000,-20829328.28744,   0.00000
81194457.14627,487405316.20907,28194473.96874,  -0.00058,   0.00206,   0.00037,454935882.47957,   0.00000,274640135.82653,   0.00000,   0.00000,   0.00000,-19704253.34696,   0.00000
81469734.06720,488659355.51556,28157770.37929,  -0.00058,   0.00206,   0.00037,456062403.24845,   0.00000,274640135.82653,   0.00000,   0.00000,   0.00000,-18577732.57808,   0.00000
81714424.66359,489882808.49749,28121066.78983,  -0.00058,   0.00207,   0.00037,457169885.93162,   0.00000,274640135.82653,   0.00000,   0.00000,   0.00000,-17470249.89491,   0.00000
81962173.89243,491072616.52243,28078245.93546,  -0.00058,   0.00207,   0.00037,458242181.75826,   0.00000,274640135.82653,   0.00000,   0.00000,   0.00000,-16397954.06827,   0.00000
82188512.69409,492253248.65000,28035425.08109,  -0.00059,   0.00208,   0.00036,459313188.60707,   0.00000,274640135.82653,   0.00000,   0.00000,   0.00000,-15326947.21946,   0.00000
82405675.59838,493412470.35038,27992604.22672,  -0.00059,   0.00208,   0.00036,460366518.08574,   0.00000,274640135.82653,   0.00000,   0.00000,   0.00000,-14273617.74079,   0.00000
82635073.03250,494559457.52095,27949783.37236,  -0.00059,   0.00209,   0.00036,461403539.86400,   0.00000,274640135.82653,   0.00000,   0.00000,   0.00000,-13236595.96253,   0.00000
82833884.14206,495675858.36697,27900845.25308,  -0.00059,   0.00209,   0.00036,462420397.26142,   0.00000,274640135.82653,   0.00000,   0.00000,   0.00000,-12219738.56511,   0.00000
83023519.35426,496770848.78580,27851907.13380,  -0.00059,   0.00210,   0.00036,463419575.52902,   0.00000,274640135.82653,   0.00000,   0.00000,   0.00000,-11220560.29751,   0.00000
83225389.09628,497853604.67481,27802969.01452,  -0.00059,   0.00210,   0.00036,464402446.56327,   0.00000,274640135.82653,   0.00000,   0.00000,   0.00000,-10237689.26326,   0.00000
83396672.51375,498905774.23928,27754030.89525,  -0.00059,   0.00211,   0.00036,465366257.67132,   0.00000,274640135.82653,   0.00000,   0.00000,   0.00000,-9273878.15521,   0.00000
83558780.03386,499936533.37656,27705092.77597,  -0.00059,   0.00211,   0.00036,466312381.13436,   0.00000,274640135.82653,   0.00000,   0.00000,   0.00000,-8327754.69217,   0.00000
83711711.65660,500945882.08666,27650037.39178,  -0.00060,   0.00212,   0.00036,467239728.52762,   0.00000,274640135.82653,   0.00000,   0.00000,   0.00000,-7400407.29891,   0.00000
83855467.38198,501933820.36957,27594982.00759,  -0.00060,   0.00212,   0.00036,468149392.21869,   0.00000,274640135.82653,   0.00000,   0.00000,   0.00000,-6490743.60784,   0.00000
83990047.20999,502900348.22531,27539926.62341,  -0.00060,   0.00212,   0.00036,469041370.20243,   0.00000,274640135.82653,   0.00000,   0.00000,   0.00000,-5598765.62410,   0.00000
84115451.14064,503845465.65385,27484871.23922,  -0.00060,   0.00213,   0.00036,469915660.70201,   0.00000,274640135.82653,   0.00000,   0.00000,   0.00000,-4724475.12452,   0.00000
84240855.07129,504790583.08240,27429815.85503,  -0.00060,   0.00213,   0.00036,470790025.88685,   0.00000,274640135.82653,   0.00000,   0.00000,   0.00000,-3850109.93968,   0.00000
84347907.20721,505692879.65658,27368643.20594,  -0.00060,   0.00214,   0.00036,471627872.15111,   0.00000,274640135.82653,   0.00000,   0.00000,   0.00000,-3012263.67542,   0.00000
84445783.44576,506573765.80357,27307470.55684,  -0.00060,   0.00214,   0.00035,472448035.09007,   0.00000,274640135.82653,   0.00000,   0.00000,   0.00000,-2192100.73646,   0.00000
84522249.25713,507445476.05320,27246297.90774,  -0.00060,   0.00214,   0.00035,473266913.08817,   0.00000,274640135.82653,   0.00000,   0.00000,   0.00000,-1373222.73836,   0.00000
84601773.70096,508283541.34583,27185125.25865,  -0.00061,   0.00215,   0.00035,474051708.65796,   0.00000,274640135.82653,   0.00000,   0.00000,   0.00000,-588427.16857,   0.00000
84645418.40397,508906052.63616,27139183.46600,  -0.00061,   0.00215,   0.00035,474640134.57608,   0.00000,274640135.82653,   0.00000,   0.00000,   0.00000,  -4.23940,   0.00000
84644509.65400,508911507.77961,27112095.66323,  -0.00061,   0.00215,   0.00035,474641178.07619,   0.00000,274641183.29750,  -0.00000,   0.00000,   0.00000,  -5.22131,   1.00000
84646773.49588,508936004.58158,26999508.11536,  -0.00061,   0.00215,   0.00035,474645196.57785,   0.00000,274645201.15785,  -0.00000,   0.00000,   0.00000,  -4.58000,   1.00000
84627759.18319,508952618.06865,26887186.32221,  -0.00061,   0.00216,   0.00035,474649205.02483,   0.00001,274649211.73312,  -0.00000,   0.00001,   0.00000,  -6.70828,   1.00000
84593230.20206,508962916.70553,26777177.97606,  -0.00061,   0.00216,   0.00035,474653030.94084,   0.00001,274653031.58697,  -0.00000,   0.00001,   0.00000,  -0.64613,   1.00000
84558746.51265,508973110.61262,26667339.90999,  -0.00061,   0.00217,   0.00035,474656846.31116,   0.00002,274656851.56857,  -0.00001,   0.00001,   0.00000,  -5.25742,   1.00000
84516535.97616,508980112.45963,26558729.30463,  -0.00061,   0.00217,   0.00035,474660575.62622,   0.00002,274660576.24366,  -0.00001,   0.00002,   0.00000,  -0.61744,   1.00000
84458908.56721,508981853.20500,26446339.05730,  -0.00062,   0.00217,   0.00035,474664101.10177,   0.00002,274664104.92301,  -0.00001,   0.00002,   0.00000,  -3.82124,   1.00000
84401273.87845,508982461.98012,26340158.14287,  -0.00062,   0.00217,   0.00035,474667636.62136,   0.00003,274667639.25471,  -0.00001,   0.00002,   0.00000,  -2.63335,   1.00000
84314731.87425,508973147.99053,26229203.41871,  -0.00062,   0.00218,   0.00035,474671063.17780,   0.00003,274671065.80921,  -0.00001,   0.00003,   0.00000,  -2.63140,   1.00000
84220510.58962,508960640.74077,26119441.24641,  -0.00062,   0.00218,   0.00034,474674392.42821,   0.00003,274674397.38396,  -0.00001,   0.00003,   0.00000,  -4.95575,   1.00000
84139893.54237,508952731.95590,26010783.30740,  -0.00062,   0.00218,   0.00034,474677636.83432,   0.00003,274677641.14403,  -0.00001,   0.00003,   0.00001,  -4.30971,   1.00000
84030373.33877,508934871.36954,25897324.49615,  -0.00062,   0.00219,   0.00034,474680770.56192,   0.00004,274680777.40664,  -0.00001,   0.00003,   0.00001,  -6.84472,   1.00000
83913101.91890,508912789.31092,25791086.38164,  -0.00062,   0.00219,   0.00034,474683816.29336,   0.00004,274683824.17947,  -0.00001,   0.00004,   0.00001,  -7.88611,   1.00000
83766948.49207,508880744.88120,25680024.04053,  -0.00063,   0.00219,   0.00034,474686757.69355,   0.00004,274686763.67114,  -0.00001,   0.00004,   0.00001,  -5.97760,   1.00000
83634351.01325,508852286.20153,25576086.38400,  -0.00063,   0.00219,   0.00034,474689616.17885,   0.00005,274689620.86958,  -0.00002,   0.00004,   0.00001,  -4.69073,   1.00000
83472863.65575,508813840.03802,25467301.89545,  -0.00063,   0.00220,   0.00034,474692368.67994,   0.00005,274692370.96971,  -0.00002,   0.00004,   0.00001,  -2.28977,   1.00000
83325078.77953,508781009.60679,25353514.99005,  -0.00063,   0.00220,   0.00034,474695027.30717,   0.00005,274695028.22180,  -0.00002,   0.00005,   0.00001,  -0.91464,   1.00000
83156068.59028,508739261.66442,25245977.45522,  -0.00063,   0.00220,   0.00034,474697682.00163,   0.00005,274697684.38308,  -0.00002,   0.00005,   0.00001,  -2.38145,   1.00000
82950260.95479,508683336.42264,25140624.89891,  -0.00063,   0.00220,   0.00034,474700137.04216,   0.00005,274700143.82161,  -0.00002,   0.00005,   0.00001,  -6.77945,   1.00000
82765999.65428,508636154.21173,25029244.35273,  -0.00063,   0.00221,   0.00033,474702599.02916,   0.00006,274702605.80500,  -0.00002,   0.00005,   0.00001,  -6.77585,   1.00000
82566204.82809,508582601.91370,24919952.33678,  -0.00064,   0.00221,   0.00033,474704874.57031,   0.00006,274704878.10385,  -0.00002,   0.00005,   0.00001,  -3.53354,   1.00000
82345200.91729,508520105.75972,24816885.94857,  -0.00064,   0.00221,   0.00033,474707144.75482,   0.00006,274707149.59653,  -0.00002,   0.00006,   0.00001,  -4.84170,   1.00000
82108716.52629,508452197.28437,24709814.82606,  -0.00064,   0.00221,   0.00033,474709222.32996,   0.00006,274709226.43858,  -0.00002,   0.00006,   0.00001,  -4.10862,   1.00000
81872473.67951,508385149.96877,24596768.67209,  -0.00064,   0.00221,   0.00033,474711297.45628,   0.00006,274711299.19077,  -0.00002,   0.00006,   0.00001,  -1.73449,   1.00000
81607147.25355,508305963.42771,24490913.18387,  -0.00064,   0.00222,   0.00033,474713275.37522,   0.00007,274713276.19206,  -0.00002,   0.00006,   0.00001,  -0.81684,   1.00000
81326217.15625,508220307.19127,24387072.24105,  -0.00064,   0.00222,   0.00033,474715058.79860,   0.00007,274715064.00498,  -0.00002,   0.00006,   0.00001,  -5.20639,   1.00000
81066836.21792,508143375.54603,24277170.24845,  -0.00065,   0.00222,   0.00033,474716851.63990,   0.00007,274716854.59094,  -0.00002,   0.00006,   0.00001,  -2.95103,   1.00000
80757082.66993,508047300.69247,24168432.94050,  -0.00065,   0.00222,   0.00033,474718535.27370,   0.00007,274718538.05495,  -0.00002,   0.00007,   0.00001,  -2.78125,   1.00000
80460828.77163,507954827.74303,24066712.73933,  -0.00065,   0.00222,   0.00032,474720133.93319,   0.00007,274720139.29601,  -0.00002,   0.00007,   0.00001,  -5.36282,   1.00000
80143488.08399,507855212.35273,23959051.12653,  -0.00065,   0.00222,   0.00032,474721724.41249,   0.00007,274721730.42198,  -0.00003,   0.00007,   0.00001,  -6.00949,   1.00000
79831738.91137,507756958.74478,23853277.76681,  -0.00065,   0.00222,   0.00032,474723131.21554,   0.00008,274723139.08673,  -0.00003,   0.00007,   0.00001,  -7.87119,   1.00000
79469602.02068,507640339.74696,23742557.44785,  -0.00065,   0.00223,   0.00032,474724429.02899,   0.00008,274724436.41699,  -0.00003,   0.00007,   0.00001,  -7.38800,   1.00000
79128880.20748,507530515.64379,23637886.27718,  -0.00066,   0.00223,   0.00032,474725743.58411,   0.00008,274725746.66532,  -0.00003,   0.00007,   0.00001,  -3.08121,   1.00000
78751009.30766,507406043.61186,23535185.95975,  -0.00066,   0.00223,   0.00032,474726859.81737,   0.00008,274726862.02995,  -0.00003,   0.00007,   0.00001,  -2.21259,   1.00000
78373335.05887,507282238.55309,23426451.06210,  -0.00066,   0.00223,   0.00032,474727968.60544,   0.00008,274727974.35963,  -0.00003,   0.00007,   0.00001,  -5.75419,   1.00000
77979765.97396,507151693.74839,23319599.32774,  -0.00066,   0.00223,   0.00032,474728896.44495,   0.00008,274728898.22442,  -0.00003,   0.00008,   0.00001,  -1.77947,   1.00000
77564979.68118,507012825.04934,23212830.03724,  -0.00066,   0.00223,   0.00031,474729815.57874,   0.00008,274729818.05522,  -0.00003,   0.00008,   0.00001,  -2.47648,   1.00000
77163543.15580,506877508.68036,23113010.87911,  -0.00067,   0.00223,   0.00031,474730650.47277,   0.00008,274730655.55619,  -0.00003,   0.00008,   0.00001,  -5.08342,   1.00000
76732870.50826,506731486.98512,23008107.88499,  -0.00067,   0.00223,   0.00031,474731388.08240,   0.00008,274731389.21128,  -0.00003,   0.00008,   0.00001,  -1.12888,   1.00000
76272930.00538,506574662.11984,22898108.72741,  -0.00067,   0.00223,   0.00031,474732013.41067,   0.00008,274732019.45604,  -0.00003,   0.00008,   0.00001,  -6.04537,   1.00000
75804923.00636,506413254.62122,22795090.19474,  -0.00067,   0.00223,   0.00031,474732557.80813,   0.00008,274732561.70573,  -0.00003,   0.00008,   0.00001,  -3.89759,   1.00000
75328872.22359,506248139.62811,22692971.04143,  -0.00067,   0.00224,   0.00031,474733008.38259,   0.00008,274733011.27351,  -0.00003,   0.00008,   0.00001,  -2.89093,   1.00000
74852926.38714,506083494.68577,22584777.02217,  -0.00068,   0.00224,   0.00031,474733451.59999,   0.00009,274733458.62208,  -0.00003,   0.00008,   0.00001,  -7.02209,   1.00000
74339338.69038,505902733.42197,22484481.04863,  -0.00068,   0.00224,   0.00031,474733708.49411,   0.00009,274733717.56072,  -0.00003,   0.00008,   0.00001,  -9.06660,   1.00000
73825821.84626,505722376.28309,22378098.38461,  -0.00068,   0.00224,   0.00030,474733969.34649,   0.00009,274733974.53228,  -0.00003,   0.00008,   0.00001,  -5.18579,   1.00000
73304091.82480,505537288.04129,22278655.53798,  -0.00068,   0.00224,   0.00030,474734139.46408,   0.00009,274734143.84516,  -0.00003,   0.00008,   0.00001,  -4.38108,   1.00000
72744362.08557,505332359.66682,22174662.03451,  -0.00068,   0.00224,   0.00030,474728978.16075,   0.00009,274734143.84516,  -0.00003,   0.00008,   0.00001,-5165.68441,   0.00000
72184632.34633,505127431.29234,22070668.53105,  -0.00069,   0.00224,   0.00030,474724391.94054,   0.00009,274734143.84516,  -0.00003,   0.00008,   0.00001,-9751.90462,   0.00000
71615726.70973,504901092.49068,21966675.02758,  -0.00069,   0.00224,   0.00030,474702718.85728,   0.00009,274734143.84516,  -0.00003,   0.00008,   0.00001,-31424.98788,   0.00000
71025410.64595,504665577.79166,21862681.52412,  -0.00069,   0.00224,   0.00030,474680740.07059,   0.00009,274734143.84516,  -0.00003,   0.00008,   0.00001,-53403.77457,   0.00000
70416742.78743,504387242.23827,21752570.75574,  -0.00069,   0.00224,   0.00030,474623244.37286,   0.00009,274734143.84516,  -0.00003,   0.00008,   0.00001,-110899.47230,   0.00000
69777488.60437,504078320.36033,21648577.25228,  -0.00069,   0.00224,   0.00029,474548748.19107,   0.00009,274734143.84516,  -0.00003,   0.00008,   0.00001,-185395.65408,   0.00000
69159644.84849,503778574.37976,21544583.74882,  -0.00070,   0.00224,   0.00029,474475782.79615,   0.00009,274734143.84516,  -0.00003,   0.00008,   0.00001,-258361.04901,   0.00000
68489804.34088,503439066.17727,21434472.98044,  -0.00070,   0.00224,   0.00029,474383403.38581,   0.00009,274734143.84516,  -0.00003,   0.00008,   0.00001,-350740.45935,   0.00000
67832198.36309,503087323.44496,21330479.47698,  -0.00070,   0.00224,   0.00029,474275775.35867,   0.00009,274734143.84516,  -0.00003,   0.00008,   0.00001,-458368.48649,   0.00000
67144006.06075,502704994.38811,21220368.70860,  -0.00070,   0.00224,   0.00029,474149674.56179,   0.00009,274734143.84516,  -0.00003,   0.00008,   0.00001,-584469.28337,   0.00000
66425227.43386,502292079.00670,21116375.20514,  -0.00071,   0.00224,   0.00029,474006837.28368,   0.00009,274734143.84516,  -0.00003,   0.00008,   0.00001,-727306.56148,   0.00000
65718683.33679,501866929.09548,21006264.43676,  -0.00071,   0.00223,   0.00029,473847143.60812,   0.00009,274734143.84516,  -0.00003,   0.00008,   0.00001,-887000.23704,   0.00000
64990728.81254,501432603.28689,20896153.66839,  -0.00071,   0.00223,   0.00028,473687584.64527,   0.00009,274734143.84516,  -0.00003,   0.00008,   0.00001,-1046559.19989,   0.00000
64223012.06638,500946280.72657,20786042.90001,  -0.00071,   0.00223,   0.00028,473493052.91554,   0.00009,274734143.84516,  -0.00003,   0.00008,   0.00001,-1241090.92962,   0.00000
63455295.32021,500459958.16625,20675932.13164,  -0.00072,   0.00223,   0.00028,473299474.22229,   0.00009,274734143.84516,  -0.00003,   0.00008,   0.00001,-1434669.62287,   0.00000
62678402.67668,499952225.17875,20565821.36327,  -0.00072,   0.00223,   0.00028,473089274.61893,   0.00009,274734143.84516,  -0.00003,   0.00008,   0.00001,-1644869.22623,   0.00000
61870923.70860,499413905.86670,20455710.59489,  -0.00072,   0.00223,   0.00028,472861892.30315,   0.00009,274734143.84516,  -0.00003,   0.00008,   0.00001,-1872251.54201,   0.00000
61063444.74052,498875586.55464,20345599.82652,  -0.00072,   0.00223,   0.00028,472635550.53418,   0.00009,274734143.84516,  -0.00003,   0.00008,   0.00001,-2098593.31098,   0.00000
60216203.55053,498285270.49086,20235489.05814,  -0.00073,   0.00223,   0.00028,472374618.00603,   0.00009,274734143.84516,  -0.00003,   0.00008,   0.00001,-2359525.83913,   0.00000
59368962.36054,497694954.42707,20125378.28977,  -0.00073,   0.00223,   0.00027,472114817.48770,   0.00009,274734143.84516,  -0.00003,   0.00008,   0.00001,-2619326.35746,   0.00000
58512545.27318,497083227.93610,20009150.25648,  -0.00073,   0.00223,   0.00027,471837839.57259,   0.00009,274734143.84516,  -0.00003,   0.00008,   0.00001,-2896304.27257,   0.00000
57625541.86128,496440915.12059,19899039.48811,  -0.00074,   0.00223,   0.00027,471544826.99133,   0.00009,274734143.84516,  -0.00003,   0.00008,   0.00001,-3189316.85382,   0.00000
56729362.55201,495777191.87789,19782811.45483,  -0.00074,   0.00222,   0.00027,471234760.37533,   0.00009,274734143.84516,  -0.00003,   0.00008,   0.00001,-3499383.46983,   0.00000
55811772.81556,495104292.73782,19672700.68645,  -0.00074,   0.00222,   0.00027,470926333.75385,   0.00009,274734143.84516,  -0.00003,   0.00008,   0.00001,-3807810.09131,   0.00000
54875831.28437,494388572.74339,19556472.65317,  -0.00074,   0.00222,   0.00027,470583468.34489,   0.00009,274734143.84516,  -0.00003,   0.00008,   0.00001,-4150675.50027,   0.00000
53918479.32601,493663676.85159,19446361.88479,  -0.00075,   0.00222,   0.00027,470242401.82357,   0.00009,274734143.84516,  -0.00003,   0.00008,   0.00001,-4491742.02159,   0.00000
52951951.47028,492917370.53261,19330133.85151,  -0.00075,   0.00222,   0.00026,469884527.17465,   0.00009,274734143.84516,  -0.00003,   0.00008,   0.00001,-4849616.67051,   0.00000
51954837.29000,492140477.88908,19220023.08313,  -0.00075,   0.00222,   0.00026,469511133.52520,   0.00009,274734143.84516,  -0.00003,   0.00008,   0.00001,-5223010.31996,   0.00000
50957723.10972,491363585.24555,19103795.04985,  -0.00076,   0.00222,   0.00026,469138527.39107,   0.00009,274734143.84516,  -0.00003,   0.00008,   0.00001,-5595616.45409,   0.00000
49942257.13471,490543871.74765,18987567.01657,  -0.00076,   0.00221,   0.00026,468732582.69703,   0.00009,274734143.84516,  -0.00003,   0.00008,   0.00001,-6001561.14812,   0.00000
48905380.73252,489714982.35239,18871338.98328,  -0.00076,   0.00221,   0.00026,468328073.94784,   0.00009,274734143.84516,  -0.00003,   0.00008,   0.00001,-6406069.89732,   0.00000
47837918.00578,488855506.63258,18761228.21491,  -0.00076,   0.00221,   0.00026,467908424.98672,   0.00009,274734143.84516,  -0.00003,   0.00008,   0.00001,-6825718.85844,   0.00000
46770455.27904,487996030.91277,18645000.18162,  -0.00077,   0.00221,   0.00026,467489800.13342,   0.00009,274734143.84516,  -0.00003,   0.00008,   0.00001,-7244343.71174,   0.00000
45684640.75757,487093734.33859,18528772.14834,  -0.00077,   0.00221,   0.00025,467038152.99878,   0.00009,274734143.84516,  -0.00003,   0.00008,   0.00001,-7695990.84638,   0.00000
44577415.80892,486182261.86704,18412544.11506,  -0.00077,   0.00220,   0.00025,466588313.45261,   0.00009,274734143.84516,  -0.00003,   0.00008,   0.00001,-8145830.39254,   0.00000
43439604.53572,485240203.07095,18296316.08177,  -0.00078,   0.00220,   0.00025,466123027.68563,   0.00009,274734143.84516,  -0.00003,   0.00008,   0.00001,-8611116.15953,   0.00000
42292617.36515,484276733.84768,18180088.04849,  -0.00078,   0.00220,   0.00025,465642391.35914,   0.00009,274734143.84516,  -0.00003,   0.00008,   0.00001,-9091752.48602,   0.00000
41145630.19458,483313264.62440,18063860.01520,  -0.00078,   0.00220,   0.00025,465163793.63358,   0.00009,274734143.84516,  -0.00003,   0.00008,   0.00001,-9570350.21158,   0.00000
39968056.69947,482319209.07658,17947631.98192,  -0.00079,   0.00220,   0.00025,464670050.66633,   0.00009,274734143.84516,  -0.00003,   0.00008,   0.00001,-10064093.17883,   0.00000
38781307.30699,481303743.10157,17831403.94864,  -0.00079,   0.00219,   0.00024,464161148.14914,   0.00009,274734143.84516,  -0.00003,   0.00008,   0.00001,-10572995.69601,   0.00000
37563971.58996,480257690.80201,17715175.91535,  -0.00079,   0.00219,   0.00024,463637355.75995,   0.00009,274734143.84516,  -0.00003,   0.00008,   0.00001,-11096788.08521,   0.00000
36325225.44575,479202462.60509,17598947.88207,  -0.00080,   0.00219,   0.00024,463116134.01160,   0.00009,274734143.84516,  -0.00003,   0.00008,   0.00001,-11618009.83356,   0.00000
35068127.50681,478104413.55380,17476602.58387,  -0.00080,   0.00219,   0.00024,462562073.89280,   0.00009,274734143.84516,  -0.00003,   0.00008,   0.00001,-12172069.95236,   0.00000
33811029.56787,477006364.50251,17360374.55059,  -0.00081,   0.00218,   0.00024,462011178.45318,   0.00009,274734143.84516,  -0.00003,   0.00008,   0.00001,-12722965.39198,   0.00000
32532521.20175,475899139.55386,17244146.51731,  -0.00081,   0.00218,   0.00024,461463150.08216,   0.00009,274734143.84516,  -0.00003,   0.00008,   0.00001,-13270993.76300,   0.00000
31214250.61371,474739917.85348,17127918.48402,  -0.00081,   0.00218,   0.00024,460883678.43467,   0.00009,274734143.84516,  -0.00003,   0.00008,   0.00001,-13850465.41048,   0.00000
29895980.02567,473580696.15309,17011690.45074,  -0.00082,   0.00218,   0.00023,460306940.19728,   0.00009,274734143.84516,  -0.00003,   0.00008,   0.00001,-14427203.64788,   0.00000
28568533.54027,472400064.02552,16895462.41745,  -0.00082,   0.00217,   0.00023,459715754.00166,   0.00009,274734143.84516,  -0.00003,   0.00008,   0.00001,-15018389.84350,   0.00000
27198266.20050,471201080.10322,16773117.11926,  -0.00082,   0.00217,   0.00023,459127829.19121,   0.00009,274734143.84516,  -0.00003,   0.00008,   0.00001,-15606314.65395,   0.00000
25840233.39055,469989861.65110,16656889.08598,  -0.00083,   0.00217,   0.00023,458525785.38433,   0.00009,274734143.84516,  -0.00003,   0.00008,   0.00001,-16208358.46083,   0.00000
24451614.25605,468748056.87444,16540661.05269,  -0.00083,   0.00216,   0.00023,457910205.16855,   0.00009,274734143.84516,  -0.00003,   0.00008,   0.00001,-16823938.67661,   0.00000
23032408.79700,467475665.77322,16424433.01941,  -0.00084,   0.00216,   0.00023,457281297.78988,   0.00009,274734143.84516,  -0.00003,   0.00008,   0.00001,-17452846.05528,   0.00000
21613203.33796,466203274.67201,16302087.72121,  -0.00084,   0.00216,   0.00022,456654959.34385,   0.00009,274734143.84516,  -0.00003,   0.00008,   0.00001,-18079184.50131,   0.00000
20163411.55436,464900297.24625,16185859.68793,  -0.00084,   0.00216,   0.00022,456016249.36130,   0.00009,274734143.84516,  -0.00003,   0.00008,   0.00001,-18717894.48386,   0.00000
18683033.44622,463566733.49593,16069631.65465,  -0.00085,   0.00215,   0.00022,455364731.33186,   0.00009,274734143.84516,  -0.00003,   0.00008,   0.00001,-19369412.51330,   0.00000
17202655.33807,462233169.74562,15953403.62136,  -0.00085,   0.00215,   0.00022,454716757.90554,   0.00009,274734143.84516,  -0.00003,   0.00008,   0.00001,-20017385.93962,   0.00000
15713101.33256,460878195.56813,15831058.32317,  -0.00086,   0.00215,   0.00022,454054681.88048,   0.00009,274734143.84516,  -0.00003,   0.00008,   0.00001,-20679461.96468,   0.00000
14192961.00251,459492635.06608,15714830.28988,  -0.00086,   0.00214,   0.00022,453380886.72184,   0.00009,274734143.84516,  -0.00003,   0.00008,   0.00001,-21353257.12332,   0.00000
12642234.34790,458076488.23949,15598602.25660,  -0.00086,   0.00214,   0.00022,452694967.97581,   0.00009,274734143.84516,  -0.00003,   0.00008,   0.00001,-22039175.86935,   0.00000
11091507.69330,456660341.41290,15482374.22332,  -0.00087,   0.00214,   0.00021,452012996.50234,   0.00009,274734143.84516,  -0.00003,   0.00008,   0.00001,-22721147.34282,   0.00000
9519370.61151,455235018.68894,15360028.92512,  -0.00087,   0.00213,   0.00021,451335552.84851,   0.00009,274734143.84516,  -0.00003,   0.00008,   0.00001,-23398590.99665,   0.00000
7928881.73499,453766875.11062,15243800.89184,  -0.00088,   0.00213,   0.00021,450629005.52684,   0.00009,274734143.84516,  -0.00003,   0.00008,   0.00001,-24105138.31832,   0.00000
6316982.43129,452289555.63493,15127572.85855,  -0.00088,   0.00213,   0.00021,449927962.68786,   0.00009,274734143.84516,  -0.00003,   0.00008,   0.00001,-24806181.15730,   0.00000
4683672.70040,450803060.26187,15011344.82527,  -0.00089,   0.00212,   0.00021,449232616.09685,   0.00009,274734143.84516,  -0.00003,   0.00008,   0.00001,-25501527.74831,   0.00000
3032011.17478,449273744.03445,14888999.52708,  -0.00089,   0.00212,   0.00021,448507451.53096,   0.00009,274734143.84516,  -0.00003,   0.00008,   0.00001,-26226692.31419,   0.00000
1380349.64917,447744427.80703,14772771.49379,  -0.00090,   0.00211,   0.00021,447787492.53009,   0.00009,274734143.84516,  -0.00003,   0.00008,   0.00001,-26946651.31507,   0.00000
-314132.73081,446196759.78488,14656543.46051,  -0.00090,   0.00211,   0.00020,447075222.89561,   0.00009,274734143.84516,  -0.00003,   0.00008,   0.00001,-27658920.94955,   0.00000
-2005556.47834,444615446.80573,14540315.42722,  -0.00091,   0.00211,   0.00020,446332702.70385,   0.00009,274734143.84516,  -0.00003,   0.00008,   0.00001,-28401441.14131,   0.00000
-3730625.18287,443037192.45903,14424087.39394,  -0.00091,   0.00210,   0.00020,445615125.48927,   0.00009,274734143.84516,  -0.00003,   0.00008,   0.00001,-29119018.35589,   0.00000
-5474045.68213,441416117.25796,14307859.36066,  -0.00091,   0.00210,   0.00020,444869228.26869,   0.00009,274734143.84516,  -0.00003,   0.00008,   0.00001,-29864915.57647,   0.00000
-7217466.18140,439795042.05689,14185514.06246,  -0.00092,   0.00209,   0.00020,444127980.54879,   0.00009,274734143.84516,  -0.00003,   0.00008,   0.00001,-30606163.29637,   0.00000
-9012883.43239,438134204.63391,14069286.02918,  -0.00092,   0.00209,   0.00020,443379634.48965,   0.00009,274734143.84516,  -0.00003,   0.00008,   0.00001,-31354509.35551,   0.00000
-10786890.25620,436482543.10830,13953057.99590,  -0.00093,   0.00209,   0.00019,442634974.00595,   0.00009,274734143.84516,  -0.00003,   0.00008,   0.00001,-32099169.83920,   0.00000
-12612893.83174,434791119.36077,13836829.96261,  -0.00093,   0.00208,   0.00019,441883186.35531,   0.00009,274734143.84516,  -0.00003,   0.00008,   0.00001,-32850957.48985,   0.00000
-14438897.40728,433099695.61324,13720601.92933,  -0.00094,   0.00208,   0.00019,441137251.79655,   0.00009,274734143.84516,  -0.00003,   0.00008,   0.00001,-33596892.04861,   0.00000
-16283252.77755,431365451.01135,13604373.89604,  -0.00094,   0.00207,   0.00019,440364129.20771,   0.00009,274734143.84516,  -0.00003,   0.00008,   0.00001,-34370014.63744,   0.00000
-18139842.67764,429643440.93927,13488145.86276,  -0.00095,   0.00207,   0.00019,439615735.49757,   0.00009,274734143.84516,  -0.00003,   0.00008,   0.00001,-35118408.34759,   0.00000
-20027018.90228,427890844.54264,13371917.82947,  -0.00095,   0.00207,   0.00019,438859270.06344,   0.00009,274734143.84516,  -0.00003,   0.00008,   0.00001,-35874873.78172,   0.00000
-21923371.02428,426116837.71883,13255689.79619,  -0.00096,   0.00206,   0.00019,438092742.52547,   0.00009,274734143.84516,  -0.00003,   0.00008,   0.00001,-36641401.31969,   0.00000
-23850309.47083,424312244.57048,13139461.76291,  -0.00097,   0.00206,   0.00018,437318685.70394,   0.00009,274734143.84516,  -0.00003,   0.00008,   0.00001,-37415458.14122,   0.00000
-25798658.34457,422498475.52476,13023233.72962,  -0.00097,   0.00205,   0.00018,436553822.87252,   0.00009,274734143.84516,  -0.00003,   0.00008,   0.00001,-38180320.97264,   0.00000
-27747007.21830,420684706.47903,12913122.96125,  -0.00098,   0.00205,   0.00018,435796404.86822,   0.00009,274734143.84516,  -0.00003,   0.00008,   0.00001,-38937738.97694,   0.00000
-29725942.41659,418840351.10876,12796894.92796,  -0.00098,   0.00204,   0.00018,435031696.64711,   0.00009,274734143.84516,  -0.00003,   0.00008,   0.00001,-39702447.19805,   0.00000
-31714053.51223,416974585.31131,12680666.89468,  -0.00099,   0.00204,   0.00018,434257916.72254,   0.00009,274734143.84516,  -0.00003,   0.00008,   0.00001,-40476227.12262,   0.00000
-33723575.03507,415099643.61649,12564438.86140,  -0.00099,   0.00203,   0.00018,433494213.33383,   0.00009,274734143.84516,  -0.00003,   0.00008,   0.00001,-41239930.51133,   0.00000
-35763682.88245,413194115.59712,12448210.82811,  -0.00100,   0.00203,   0.00017,432724664.60207,   0.00009,274734143.84516,  -0.00003,   0.00008,   0.00001,-42009479.24309,   0.00000
-37803790.72983,411288587.57776,12338100.05974,  -0.00100,   0.00202,   0.00017,431963404.35141,   0.00009,274734143.84516,  -0.00003,   0.00008,   0.00001,-42770739.49375,   0.00000
-39874484.90176,409352473.23384,12221872.02645,  -0.00101,   0.00202,   0.00017,431196316.50768,   0.00009,274734143.84516,  -0.00003,   0.00008,   0.00001,-43537827.33748,   0.00000
-41954354.97105,407394948.46274,12105643.99317,  -0.00101,   0.00201,   0.00017,430421240.25736,   0.00009,274734143.84516,  -0.00003,   0.00008,   0.00001,-44312903.58780,   0.00000
-44055635.46753,405428247.79428,11995533.22480,  -0.00102,   0.00201,   0.00017,429658050.86265,   0.00009,274734143.84516,  -0.00003,   0.00008,   0.00001,-45076092.98251,   0.00000
-46178326.39119,403452371.22845,11879305.19151,  -0.00103,   0.00201,   0.00017,428906006.76084,   0.00009,274734143.84516,  -0.00003,   0.00008,   0.00001,-45828137.08432,   0.00000
-48310193.21221,401455084.23543,11769194.42314,  -0.00103,   0.00200,   0.00017,428147140.50689,   0.00009,274734143.84516,  -0.00003,   0.00008,   0.00001,-46587003.33827,   0.00000
-50472646.35779,399427210.91787,11652966.38985,  -0.00104,   0.00200,   0.00016,427384028.82112,   0.00009,274734143.84516,  -0.00003,   0.00008,   0.00001,-47350115.02404,   0.00000
-52635099.50336,397399337.60031,11542855.62148,  -0.00104,   0.00199,   0.00016,426630464.74643,   0.00009,274734143.84516,  -0.00003,   0.00008,   0.00001,-48103679.09873,   0.00000
-54818963.07612,395362288.38539,11432744.85310,  -0.00105,   0.00199,   0.00016,425889576.58457,   0.00009,274734143.84516,  -0.00003,   0.00008,   0.00001,-48844567.26058,   0.00000
-57033412.97343,393294652.84591,11316516.81982,  -0.00106,   0.00198,   0.00016,425145411.79153,   0.00009,274734143.84516,  -0.00003,   0.00008,   0.00001,-49588732.05363,   0.00000
-59257038.76810,391205606.87926,11206406.05145,  -0.00106,   0.00197,   0.00016,424395640.78845,   0.00009,274734143.84516,  -0.00003,   0.00008,   0.00001,-50338503.05671,   0.00000
-61502074.98995,389107385.01523,11096295.28307,  -0.00107,   0.00197,   0.00016,423659482.58105,   0.00009,274734143.84516,  -0.00003,   0.00008,   0.00001,-51074661.26411,   0.00000
-63768521.63899,386999987.25385,10980067.24979,  -0.00107,   0.00196,   0.00016,422936776.80998,   0.00009,274734143.84516,  -0.00003,   0.00008,   0.00001,-51797367.03518,   0.00000
-66044144.18539,384871179.06528,10869956.48141,  -0.00108,   0.00196,   0.00015,422209200.46938,   0.00009,274734143.84516,  -0.00003,   0.00008,   0.00001,-52524943.37578,   0.00000
-68328942.62916,382720960.44952,10759845.71304,  -0.00109,   0.00195,   0.00015,421476475.44918,   0.00009,274734143.84516,  -0.00003,   0.00008,   0.00001,-53257668.39598,   0.00000
-70656561.92730,380552390.03904,10649734.94466,  -0.00109,   0.00195,   0.00015,420762694.85823,   0.00009,274734143.84516,  -0.00003,   0.00008,   0.00001,-53971448.98693,   0.00000
-72984181.22543,378383819.62855,10539624.17629,  -0.00110,   0.00194,   0.00015,420059864.73801,   0.00009,274734143.84516,  -0.00003,   0.00008,   0.00001,-54674279.10715,   0.00000
-75320976.42093,376193838.79089,10429513.40792,  -0.00111,   0.00194,   0.00015,419352674.18281,   0.00009,274734143.84516,  -0.00003,   0.00008,   0.00001,-55381469.66235,   0.00000
-77700592.47080,373985506.15849,10319402.63954,  -0.00111,   0.00193,   0.00015,418665626.13075,   0.00009,274734143.84516,  -0.00003,   0.00008,   0.00001,-56068517.71441,   0.00000
-80067973.99085,371764938.99627,10209291.87117,  -0.00112,   0.00193,   0.00015,417970339.51430,   0.00009,274734143.84516,  -0.00003,   0.00008,   0.00001,-56763804.33086,   0.00000
-82478176.36527,369526020.03933,10099181.10279,  -0.00113,   0.00192,   0.00014,417295988.10897,   0.00009,274734143.84516,  -0.00003,   0.00008,   0.00001,-57438155.73619,   0.00000
-84897554.63705,367265690.65520,9989070.33442,  -0.00113,   0.00192,   0.00014,416618513.67041,   0.00009,274734143.84516,  -0.00003,   0.00008,   0.00001,-58115630.17475,   0.00000
-87316932.90883,365005361.27107,9878959.56604,  -0.00114,   0.00191,   0.00014,415953231.38187,   0.00009,274734143.84516,  -0.00003,   0.00008,   0.00001,-58780912.46329,   0.00000
-89788307.93234,362705269.66503,9774966.06258,  -0.00114,   0.00190,   0.00014,415295551.63771,   0.00009,274734143.84516,  -0.00003,   0.00008,   0.00001,-59438592.20745,   0.00000
-92238272.52867,360414353.95635,9664855.29420,  -0.00115,   0.00190,   0.00014,414645187.05019,   0.00009,274734143.84516,  -0.00003,   0.00008,   0.00001,-60088956.79497,   0.00000
-94731057.97937,358105086.45294,9554744.52583,  -0.00116,   0.00189,   0.00014,414017849.16318,   0.00009,274734143.84516,  -0.00003,   0.00008,   0.00001,-60716294.68198,   0.00000
-97233019.32743,355774408.52235,9450751.02237,  -0.00117,   0.00189,   0.00014,413389235.26342,   0.00009,274734143.84516,  -0.00003,   0.00008,   0.00001,-61344908.58174,   0.00000
-99756391.10267,353434554.69440,9340640.25399,  -0.00117,   0.00188,   0.00013,412778900.09812,   0.00009,274734143.84516,  -0.00003,   0.00008,   0.00001,-61955243.74704,   0.00000
-102288938.77528,351073290.43926,9236646.75053,  -0.00118,   0.00188,   0.00013,412167858.39823,   0.00009,274734143.84516,  -0.00003,   0.00008,   0.00001,-62566285.44693,   0.00000
-104842896.87508,348702850.28676,9132653.24706,  -0.00119,   0.00187,   0.00013,411576170.18229,   0.00009,274734143.84516,  -0.00003,   0.00008,   0.00001,-63157973.66287,   0.00000
-107406030.87224,346310999.70707,9022542.47869,  -0.00119,   0.00186,   0.00013,410983543.13781,   0.00009,274734143.84516,  -0.00003,   0.00008,   0.00001,-63750600.70735,   0.00000
-109990575.29658,343909973.23002,8918548.97522,  -0.00120,   0.00186,   0.00013,410411346.93672,   0.00009,274734143.84516,  -0.00003,   0.00008,   0.00001,-64322796.90844,   0.00000
-112596530.14811,341499770.85560,8814555.47176,  -0.00121,   0.00185,   0.00013,409859549.73018,   0.00009,274734143.84516,  -0.00003,   0.00008,   0.00001,-64874594.11498,   0.00000
-115211660.89700,339068158.05400,8704444.70338,  -0.00121,   0.00185,   0.00013,409307769.69445,   0.00009,274734143.84516,  -0.00003,   0.00008,   0.00001,-65426374.15071,   0.00000
-117848202.07307,336627369.35504,8600451.19992,  -0.00122,   0.00184,   0.00012,408777467.65245,   0.00009,274734143.84516,  -0.00003,   0.00008,   0.00001,-65956676.19271,   0.00000
-120484743.24915,334186580.65607,8496457.69645,  -0.00123,   0.00183,   0.00012,408262412.90894,   0.00009,274734143.84516,  -0.00003,   0.00008,   0.00001,-66471730.93622,   0.00000
-123151870.74977,331715205.63256,8392464.19299,  -0.00124,   0.00183,   0.00012,407754839.83946,   0.00009,274734143.84516,  -0.00003,   0.00008,   0.00001,-66979304.00570,   0.00000
-125849584.57494,329213244.28450,8288470.68953,  -0.00124,   0.00182,   0.00012,407255355.29799,   0.00009,274734143.84516,  -0.00003,   0.00008,   0.00001,-67478788.54717,   0.00000
-128538122.50275,326732693.36362,8184477.18606,  -0.00125,   0.00182,   0.00012,406786019.68950,   0.00009,274734143.84516,  -0.00003,   0.00008,   0.00001,-67948124.15566,   0.00000
-131257246.75510,324221556.11819,8080483.68260,  -0.00126,   0.00181,   0.00012,406325477.56915,   0.00009,274734143.84516,  -0.00003,   0.00008,   0.00001,-68408666.27601,   0.00000
-133985546.90482,321689008.44558,7982607.44404,  -0.00127,   0.00180,   0.00012,405867944.93869,   0.00009,274734143.84516,  -0.00003,   0.00008,   0.00001,-68866198.90647,   0.00000
-136726081.58436,319168695.30279,7878613.94058,  -0.00127,   0.00180,   0.00012,405447382.76713,   0.00009,274734143.84516,  -0.00003,   0.00008,   0.00001,-69286761.07803,   0.00000
-139484968.05863,316605561.30563,7774620.43711,  -0.00128,   0.00179,   0.00011,405016281.81926,   0.00009,274734143.84516,  -0.00003,   0.00008,   0.00001,-69717862.02590,   0.00000
-142256089.06272,314054661.83829,7676744.19856,  -0.00129,   0.00179,   0.00011,404623418.31299,   0.00009,274734143.84516,  -0.00003,   0.00008,   0.00001,-70110725.53217,   0.00000
-145057796.39136,311473176.04641,7572750.69509,  -0.00130,   0.00178,   0.00011,404241210.04906,   0.00009,274734143.84516,  -0.00003,   0.00008,   0.00001,-70492933.79610,   0.00000
-147859503.71999,308891690.25452,7474874.45654,  -0.00130,   0.00177,   0.00011,403877088.25495,   0.00009,274734143.84516,  -0.00003,   0.00008,   0.00001,-70857055.59020,   0.00000
-150682621.47581,306301028.56527,7370880.95307,  -0.00131,   0.00177,   0.00011,403537859.58443,   0.00009,274734143.84516,  -0.00003,   0.00008,   0.00001,-71196284.26072,   0.00000
-153514915.12900,303688956.44883,7273004.71452,  -0.00132,   0.00176,   0.00011,403203776.77253,   0.00009,274734143.84516,  -0.00003,   0.00008,   0.00001,-71530367.07263,   0.00000
-156368619.20937,301067708.43503,7169011.21105,  -0.00133,   0.00175,   0.00011,402895316.62394,   0.00009,274734143.84516,  -0.00003,   0.00008,   0.00001,-71838827.22121,   0.00000
-159252909.61428,298415874.09668,7071134.97250,  -0.00134,   0.00175,   0.00010,402600449.83567,   0.00009,274734143.84516,  -0.00003,   0.00008,   0.00001,-72133694.00949,   0.00000
-162137200.01920,295764039.75833,6973258.73394,  -0.00134,   0.00174,   0.00010,402324584.29622,   0.00009,274734143.84516,  -0.00003,   0.00008,   0.00001,-72409559.54894,   0.00000
-165021490.42412,293112205.41998,6875382.49539,  -0.00135,   0.00173,   0.00010,402067759.11685,   0.00009,274734143.84516,  -0.00003,   0.00008,   0.00001,-72666384.72831,   0.00000
-167927191.25622,290451195.18427,6777506.25683,  -0.00136,   0.00173,   0.00010,401838145.93025,   0.00009,274734143.84516,  -0.00003,   0.00008,   0.00001,-72895997.91491,   0.00000
-170863478.41287,287759598.62401,6679630.01828,  -0.00137,   0.00172,   0.00010,401623422.11918,   0.00009,274734143.84516,  -0.00003,   0.00008,   0.00001,-73110721.72597,   0.00000
-173799765.56952,285068002.06374,6581753.77972,  -0.00138,   0.00172,   0.00010,401428492.62494,   0.00009,274734143.84516,  -0.00003,   0.00008,   0.00001,-73305651.22022,   0.00000
-176757463.15335,282367229.60612,6483877.54117,  -0.00138,   0.00171,   0.00010,401261872.50045,   0.00009,274734143.84516,  -0.00003,   0.00008,   0.00001,-73472271.34471,   0.00000
-179724336.63455,279645046.72131,6386001.30261,  -0.00139,   0.00170,   0.00010,401102920.56718,   0.00009,274734143.84516,  -0.00003,   0.00008,   0.00001,-73631223.27797,   0.00000
-182712620.54293,276913687.93913,6288125.06406,  -0.00140,   0.00170,   0.00009,400972990.87563,   0.00009,274734143.84516,  -0.00003,   0.00008,   0.00001,-73761152.96953,   0.00000
-185700904.45131,274182329.15696,6196366.09041,  -0.00141,   0.00169,   0.00009,400863900.72338,   0.00009,274734143.84516,  -0.00003,   0.00008,   0.00001,-73870243.12178,   0.00000
-188719774.68424,271420384.05023,6098489.85186,  -0.00142,   0.00168,   0.00009,400771938.50485,   0.00009,274734143.84516,  -0.00003,   0.00008,   0.00001,-73962205.34031,   0.00000
-191750879.44699,268670673.47333,6000613.61330,  -0.00143,   0.00168,   0.00009,400722086.44476,   0.00009,274734143.84516,  -0.00003,   0.00008,   0.00001,-74012057.40040,   0.00000
-194791160.10710,265899552.46924,5908854.63966,  -0.00143,   0.00167,   0.00009,400681661.72925,   0.00009,274734143.84516,  -0.00003,   0.00008,   0.00001,-74052482.11590,   0.00000
-197840616.66458,263107021.03797,5810978.40110,  -0.00144,   0.00166,   0.00009,400650435.94456,   0.00009,274734143.84516,  -0.00003,   0.00008,   0.00001,-74083707.90060,   0.00000
-200902307.75188,260326724.13652,5719219.42746,  -0.00145,   0.00166,   0.00009,400662087.82561,   0.00009,274734143.84516,  -0.00003,   0.00008,   0.00001,-74072056.01955,   0.00000
-203973174.73654,257525016.80788,5621343.18890,  -0.00146,   0.00165,   0.00009,400683396.26709,   0.00009,274734143.84516,  -0.00003,   0.00008,   0.00001,-74050747.57807,   0.00000
-207065452.14839,254714133.58188,5529584.21526,  -0.00147,   0.00164,   0.00008,400736344.07586,   0.00009,274734143.84516,  -0.00003,   0.00008,   0.00001,-73997799.76930,   0.00000
-210188315.88478,251872664.03133,5437825.24161,  -0.00148,   0.00164,   0.00008,400809640.50401,   0.00009,274734143.84516,  -0.00003,   0.00008,   0.00001,-73924503.34114,   0.00000
-213311179.62118,249031194.48078,5346066.26797,  -0.00149,   0.00163,   0.00008,400905318.38166,   0.00009,274734143.84516,  -0.00003,   0.00008,   0.00001,-73828825.46350,   0.00000
-216424867.46021,246211135.35742,5254307.29432,  -0.00149,   0.00162,   0.00008,401034514.72603,   0.00009,274734143.84516,  -0.00003,   0.00008,   0.00001,-73699629.11913,   0.00000
-219578317.52115,243339079.48232,5162548.32068,  -0.00150,   0.00161,   0.00008,401173885.62080,   0.00009,274734143.84516,  -0.00003,   0.00008,   0.00001,-73560258.22436,   0.00000
-222744002.11192,240479258.13704,5070789.34703,  -0.00151,   0.00161,   0.00008,401357216.41342,   0.00009,274734143.84516,  -0.00003,   0.00008,   0.00001,-73376927.43174,   0.00000
-225897452.17286,237607202.26194,4979030.37339,  -0.00152,   0.00160,   0.00008,401542121.45703,   0.00009,274734143.84516,  -0.00003,   0.00008,   0.00001,-73192022.38813,   0.00000
-229084547.19081,234738205.01930,4887271.39974,  -0.00153,   0.00159,   0.00008,401781416.10549,   0.00009,274734143.84516,  -0.00003,   0.00008,   0.00001,-72952727.73967,   0.00000
-232289994.00348,231826386.92229,4795512.42609,  -0.00154,   0.00159,   0.00008,402022456.87759,   0.00009,274734143.84516,  -0.00003,   0.00008,   0.00001,-72711686.96757,   0.00000
-235486264.91879,228935979.25246,4703753.45245,  -0.00155,   0.00158,   0.00007,402297300.65090,   0.00009,274734143.84516,  -0.00003,   0.00008,   0.00001,-72436843.19426,   0.00000
-238703946.26129,226036395.68527,4618111.74371,  -0.00156,   0.00157,   0.00007,402606242.68891,   0.00009,274734143.84516,  -0.00003,   0.00008,   0.00001,-72127901.15624,   0.00000
-241930803.50115,223115401.69090,4526352.77007,  -0.00157,   0.00157,   0.00007,402927968.95619,   0.00009,274734143.84516,  -0.00003,   0.00008,   0.00001,-71806174.88897,   0.00000
-245179071.16819,220185231.79916,4434593.79642,  -0.00157,   0.00156,   0.00007,403284168.70147,   0.00009,274734143.84516,  -0.00003,   0.00008,   0.00001,-71449975.14369,   0.00000
-248427338.83523,217255061.90742,4348952.08769,  -0.00158,   0.00155,   0.00007,403664144.60053,   0.00009,274734143.84516,  -0.00003,   0.00008,   0.00001,-71069999.24463,   0.00000
-251684782.39964,214303481.58849,4257193.11404,  -0.00159,   0.00155,   0.00007,404057555.45865,   0.00009,274734143.84516,  -0.00003,   0.00008,   0.00001,-70676588.38651,   0.00000
-254954460.49387,211364135.79939,4171551.40531,  -0.00160,   0.00154,   0.00007,404495994.49415,   0.00009,274734143.84516,  -0.00003,   0.00008,   0.00001,-70238149.35101,   0.00000
-258254724.91264,208394203.68574,4085909.69657,  -0.00161,   0.00153,   0.00007,404959897.75521,   0.00009,274734143.84516,  -0.00003,   0.00008,   0.00001,-69774246.08995,   0.00000
-261554989.33142,205424271.57208,3994150.72293,  -0.00162,   0.00152,   0.00006,405447588.07338,   0.00009,274734143.84516,  -0.00003,   0.00008,   0.00001,-69286555.77178,   0.00000
-264855253.75020,202454339.45843,3908509.01419,  -0.00163,   0.00152,   0.00006,405959344.98773,   0.00009,274734143.84516,  -0.00003,   0.00008,   0.00001,-68774798.85743,   0.00000
-268186104.49352,199453821.02023,3822867.30545,  -0.00164,   0.00151,   0.00006,406497477.96518,   0.00009,274734143.84516,  -0.00003,   0.00008,   0.00001,-68236665.87998,   0.00000
-271507779.33948,196474713.00921,3737225.59672,  -0.00165,   0.00150,   0.00006,407068913.92599,   0.00009,274734143.84516,  -0.00003,   0.00008,   0.00001,-67665229.91917,   0.00000
-274838630.08280,193474194.57101,3651583.88798,  -0.00166,   0.00150,   0.00006,407655150.01977,   0.00009,274734143.84516,  -0.00003,   0.00008,   0.00001,-67078993.82539,   0.00000
-278190891.25331,190464500.23545,3565942.17925,  -0.00167,   0.00149,   0.00006,408277521.70520,   0.00009,274734143.84516,  -0.00003,   0.00008,   0.00001,-66456622.13996,   0.00000
-281543152.42382,187454805.89988,3480300.47051,  -0.00168,   0.00148,   0.00006,408923960.40810,   0.00009,274734143.84516,  -0.00003,   0.00008,   0.00001,-65810183.43706,   0.00000
-284925999.91888,184414525.23977,3394658.76178,  -0.00169,   0.00147,   0.00006,409598103.84939,   0.00009,274734143.84516,  -0.00003,   0.00008,   0.00001,-65136039.99577,   0.00000
-288299671.51657,181395655.00684,3315134.31795,  -0.00169,   0.00147,   0.00006,410305206.34226,   0.00009,274734143.84516,  -0.00003,   0.00008,   0.00001,-64428937.50290,   0.00000
-291703929.43881,178346198.44936,3229492.60922,  -0.00170,   0.00146,   0.00005,411040295.72181,   0.00009,274734143.84516,  -0.00003,   0.00008,   0.00001,-63693848.12335,   0.00000
-295099011.46368,175318152.31906,3143850.90048,  -0.00171,   0.00145,   0.00005,411807899.31212,   0.00009,274734143.84516,  -0.00003,   0.00008,   0.00001,-62926244.53304,   0.00000
-298503269.38592,172268695.76159,3064326.45665,  -0.00172,   0.00145,   0.00005,412591377.22578,   0.00009,274734143.84516,  -0.00003,   0.00008,   0.00001,-62142766.61938,   0.00000
-301916703.20553,169197828.77692,2978684.74792,  -0.00173,   0.00144,   0.00005,413390698.10491,   0.00009,274734143.84516,  -0.00003,   0.00008,   0.00001,-61343445.74025,   0.00000
-305342371.55495,166139196.32208,2893043.03918,  -0.00174,   0.00143,   0.00005,414235007.85019,   0.00009,274734143.84516,  -0.00003,   0.00008,   0.00001,-60499135.99497,   0.00000
-308789450.33156,163071387.96987,2813518.59536,  -0.00175,   0.00142,   0.00005,415116458.51155,   0.00009,274734143.84516,  -0.00003,   0.00008,   0.00001,-59617685.33361,   0.00000
-312224294.57835,159991345.08785,2733994.15153,  -0.00176,   0.00142,   0.00005,416001021.22317,   0.00009,274734143.84516,  -0.00003,   0.00008,   0.00001,-58733122.62199,   0.00000
-315680549.25232,156902126.30845,2648352.44279,  -0.00177,   0.00141,   0.00005,416922627.28264,   0.00009,274734143.84516,  -0.00003,   0.00008,   0.00001,-57811516.56252,   0.00000
-319149038.45612,153825142.05888,2568827.99897,  -0.00178,   0.00140,   0.00005,417889011.44590,   0.00009,274734143.84516,  -0.00003,   0.00008,   0.00001,-56845132.39926,   0.00000
-322605293.13009,150735923.27949,2489303.55514,  -0.00179,   0.00139,   0.00005,418858317.73268,   0.00009,274734143.84516,  -0.00003,   0.00008,   0.00001,-55875826.11248,   0.00000
-326092134.12861,147616118.17555,2409779.11132,  -0.00180,   0.00139,   0.00004,419857683.50658,   0.00009,274734143.84516,  -0.00003,   0.00008,   0.00001,-54876460.33858,   0.00000
-329569799.22977,144517723.49879,2330254.66749,  -0.00181,   0.00138,   0.00004,420887861.96410,   0.00009,274734143.84516,  -0.00003,   0.00008,   0.00001,-53846281.88106,   0.00000
-333068874.75811,141410152.92467,2250730.22367,  -0.00182,   0.00137,   0.00004,421955239.99166,   0.00009,274734143.84516,  -0.00003,   0.00008,   0.00001,-52778903.85350,   0.00000
-336577126.18381,138281171.92337,2171205.77984,  -0.00183,   0.00136,   0.00004,423039319.96159,   0.00009,274734143.84516,  -0.00003,   0.00008,   0.00001,-51694823.88357,   0.00000
-340085377.60952,135152190.92206,2091681.33601,  -0.00184,   0.00136,   0.00004,424146894.42664,   0.00009,274734143.84516,  -0.00003,   0.00008,   0.00001,-50587249.41852,   0.00000
-343584453.13786,132044620.34794,2012156.89219,  -0.00185,   0.00135,   0.00004,425284238.12668,   0.00009,274734143.84516,  -0.00003,   0.00008,   0.00001,-49449905.71848,   0.00000
-347114114.99075,128906463.44927,1932632.44836,  -0.00186,   0.00134,   0.00004,426452275.55511,   0.00009,274734143.84516,  -0.00003,   0.00008,   0.00001,-48281868.29005,   0.00000
-350643776.84364,125768306.55061,1853108.00454,  -0.00187,   0.00134,   0.00004,427643427.65409,   0.00009,274734143.84516,  -0.00003,   0.00008,   0.00001,-47090716.19107,   0.00000
-354173438.69652,122630149.65194,1773583.56071,  -0.00188,   0.00133,   0.00004,428857501.82061,   0.00009,274734143.84516,  -0.00003,   0.00008,   0.00001,-45876642.02455,   0.00000
-357733686.87396,119461406.42872,1700176.38179,  -0.00189,   0.00132,   0.00004,430102847.59630,   0.00009,274734143.84516,  -0.00003,   0.00008,   0.00001,-44631296.24886,   0.00000
-361284759.15403,116314073.63269,1620651.93797,  -0.00190,   0.00131,   0.00003,431376891.52149,   0.00009,274734143.84516,  -0.00003,   0.00008,   0.00001,-43357252.32367,   0.00000
-364835831.43411,113166740.83665,1547244.75905,  -0.00191,   0.00131,   0.00003,432673501.62989,   0.00009,274734143.84516,  -0.00003,   0.00008,   0.00001,-42060642.21527,   0.00000
-368396079.61154,109997997.61343,1467720.31523,  -0.00192,   0.00130,   0.00003,433986779.34564,   0.00009,274734143.84516,  -0.00003,   0.00008,   0.00001,-40747364.49952,   0.00000
-371977738.21617,106820078.49285,1394313.13631,  -0.00193,   0.00129,   0.00003,435337214.60363,   0.00009,274734143.84516,  -0.00003,   0.00008,   0.00001,-39396929.24153,   0.00000
-375528810.49624,103672745.69682,1314788.69248,  -0.00194,   0.00128,   0.00003,436700371.64326,   0.00009,274734143.84516,  -0.00003,   0.00008,   0.00001,-38033772.20190,   0.00000
-379110469.10086,100494826.57624,1241381.51357,  -0.00195,   0.00128,   0.00003,438094991.84558,   0.00009,274734143.84516,  -0.00003,   0.00008,   0.00001,-36639151.99958,   0.00000
-382692127.70548,97316907.45565,1167974.33465,  -0.00196,   0.00127,   0.00003,439511492.40099,   0.00009,274734143.84516,  -0.00003,   0.00008,   0.00001,-35222651.44417,   0.00000
-386295196.73729,94129812.43771,1088449.89082,  -0.00197,   0.00126,   0.00003,440964680.21353,   0.00009,274734143.84516,  -0.00003,   0.00008,   0.00001,-33769463.63163,   0.00000
-389876855.34191,90951893.31713,1015042.71191,  -0.00198,   0.00125,   0.00003,442424387.11972,   0.00009,274734143.84516,  -0.00003,   0.00008,   0.00001,-32309756.72544,   0.00000
-393489100.27108,87743387.87200,941635.53299,  -0.00199,   0.00125,   0.00003,443915871.45350,   0.00009,274734143.84516,  -0.00003,   0.00008,   0.00001,-30818272.39166,   0.00000
-397092169.30288,84556292.85405,868228.35408,  -0.00200,   0.00124,   0.00002,445433340.46964,   0.00009,274734143.84516,  -0.00003,   0.00008,   0.00001,-29300803.37552,   0.00000
-400695238.33469,81369197.83610,794821.17516,  -0.00201,   0.00123,   0.00002,446971772.84782,   0.00009,274734143.84516,  -0.00003,   0.00008,   0.00001,-27762370.99734,   0.00000
-404328893.69104,78151516.49361,721413.99624,  -0.00202,   0.00122,   0.00002,448542073.07930,   0.00009,274734143.84516,  -0.00003,   0.00008,   0.00001,-26192070.76586,   0.00000
-407931962.72285,74964421.47566,648006.81733,  -0.00203,   0.00122,   0.00002,450121976.82800,   0.00009,274734143.84516,  -0.00003,   0.00008,   0.00001,-24612167.01716,   0.00000
-411565618.07920,71746740.13317,574599.63841,  -0.00204,   0.00121,   0.00002,451733698.81708,   0.00009,274734143.84516,  -0.00003,   0.00008,   0.00001,-23000445.02808,   0.00000
-415177863.00837,68538234.68804,501192.45949,  -0.00205,   0.00120,   0.00002,453350260.76990,   0.00009,274734143.84516,  -0.00003,   0.00008,   0.00001,-21383883.07526,   0.00000
-418802342.46736,65341963.77272,427785.28058,  -0.00206,   0.00119,   0.00002,455006473.33417,   0.00009,274734143.84516,  -0.00003,   0.00008,   0.00001,-19727670.51099,   0.00000
-422435997.82371,62124282.43023,360495.36657,  -0.00207,   0.00119,   0.00002,456678795.03324,   0.00009,274734143.84516,  -0.00003,   0.00008,   0.00001,-18055348.81192,   0.00000
-426091063.60725,58897425.19037,287088.18766,  -0.00208,   0.00118,   0.00002,458386752.62489,   0.00009,274734143.84516,  -0.00003,   0.00008,   0.00001,-16347391.22027,   0.00000
-429724718.96360,55679743.84788,213681.00874,  -0.00209,   0.00117,   0.00002,460098540.77037,   0.00009,274734143.84516,  -0.00003,   0.00008,   0.00001,-14635603.07478,   0.00000
-433358374.31996,52462062.50538,146391.09473,  -0.00210,   0.00116,   0.00001,461829716.46205,   0.00009,274734143.84516,  -0.00003,   0.00008,   0.00001,-12904427.38311,   0.00000
-437013440.10350,49235205.26552,72983.91582,  -0.00211,   0.00116,   0.00001,463596068.44307,   0.00009,274734143.84516,  -0.00003,   0.00008,   0.00001,-11138075.40209,   0.00000
-440647095.45985,46017523.92303,-423.26310,  -0.00212,   0.00115,   0.00001,465365408.57984,   0.00009,274734143.84516,  -0.00003,   0.00008,   0.00001,-9368735.26532,   0.00000
-444302161.24339,42790666.68317,-67713.17711,  -0.00213,   0.00114,   0.00001,467169617.03896,   0.00009,274734143.84516,  -0.00003,   0.00008,   0.00001,-7564526.80619,   0.00000
-447957227.02692,39563809.44331,-135003.09111,  -0.00214,   0.00113,   0.00001,468992453.36110,   0.00009,274734143.84516,  -0.00003,   0.00008,   0.00001,-5741690.48406,   0.00000
-451600058.28064,36324717.67363,-208410.27003,  -0.00215,   0.00113,   0.00001,470814690.37840,   0.00009,274734143.84516,  -0.00003,   0.00008,   0.00001,-3919453.46676,   0.00000
-455255124.06418,33097860.43377,-275700.18404,  -0.00217,   0.00112,   0.00001,472674195.34156,   0.00009,274734143.84516,  -0.00003,   0.00008,   0.00001,-2059948.50360,   0.00000
-458910189.84772,29871003.19391,-349107.36295,  -0.00218,   0.00111,   0.00001,474551696.39607,   0.00009,274734143.84516,  -0.00003,   0.00008,   0.00001,-182447.44909,   0.00000
-459265118.53104,29556366.91537,-355625.25196,  -0.00218,   0.00111,   0.00001,474734257.96677,   0.00009,274734143.84516,  -0.00003,   0.00008,   0.00001,  -0.96716,   0.00000
-460997749.41097,26389875.71025,-414857.02206,  -0.00219,   0.00110,   0.00001,474743657.28327,   0.00009,274743661.49943,  -0.00004,   0.00008,   0.00001,  -4.21616,   1.00000
-462881238.14504,22914777.59326,-480150.59040,  -0.00220,   0.00110,   0.00001,474754294.25840,   0.00010,274754297.10156,  -0.00005,   0.00009,   0.00001,  -2.84316,   1.00000
-464751462.04616,19428704.63144,-545152.81452,  -0.00221,   0.00109,   0.00001,474765001.33813,   0.00011,274765008.23788,  -0.00005,   0.00009,   0.00001,  -6.89975,   1.00000
-466586001.91187,15974090.52069,-609854.13130,  -0.00222,   0.00108,   0.00000,474775811.87806,   0.00012,274775818.70709,  -0.00006,   0.00010,   0.00001,  -6.82903,   1.00000
-468407191.79767,12508929.96473,-674255.95338,  -0.00223,   0.00107,   0.00000,474786696.60921,   0.00013,274786703.68370,  -0.00007,   0.00010,   0.00001,  -7.07449,   1.00000
-470193016.72491,9075755.99829,-738348.32033,  -0.00224,   0.00106,   0.00000,474797677.84861,   0.00014,274797684.36226,  -0.00008,   0.00011,   0.00001,  -6.51365,   1.00000
-471970994.00260,5621684.37021,-802104.11397,  -0.00225,   0.00106,   0.00000,474808829.51791,   0.00015,274808830.87587,  -0.00009,   0.00011,   0.00001,  -1.35795,   1.00000
-473718945.68947,2189729.57446,-865574.62521,  -0.00226,   0.00105,   0.00000,474819964.26477,   0.00016,274819968.41826,  -0.00010,   0.00012,   0.00001,  -4.15349,   1.00000
-475432052.02591,-1209484.43524,-928723.83400,  -0.00227,   0.00104,   0.00000,474831189.85921,   0.00017,274831196.19770,  -0.00011,   0.00012,   0.00001,  -6.33849,   1.00000
-477131645.99425,-4618212.09982,-991554.27767,  -0.00228,   0.00103,  -0.00000,474842489.55954,   0.00018,274842495.89932,  -0.00012,   0.00012,   0.00001,  -6.33978,   1.00000
-478807110.09957,-8014959.44934,-1054059.07492,  -0.00229,   0.00103,  -0.00000,474853874.16233,   0.00019,274853875.16047,  -0.00013,   0.00013,   0.00001,  -0.99814,   1.00000
-480458511.84585,-11399512.32720,-1116234.64734,  -0.00230,   0.00102,  -0.00000,474865323.74695,   0.00021,274865332.91185,  -0.00014,   0.00013,   0.00001,  -9.16490,   1.00000
-482070902.27148,-14740250.59632,-1178118.82573,  -0.00231,   0.00101,  -0.00000,474876771.16459,   0.00022,274876780.43872,  -0.00015,   0.00014,   0.00001,  -9.27413,   1.00000
-483674758.42511,-18099897.53636,-1233537.39889,  -0.00232,   0.00100,  -0.00000,474888386.36414,   0.00023,274888390.46649,  -0.00015,   0.00014,   0.00001,  -4.10235,   1.00000
-485254791.99175,-21446731.25517,-1294734.03372,  -0.00233,   0.00100,  -0.00000,474900068.77975,   0.00024,274900075.70290,  -0.00016,   0.00015,   0.00001,  -6.92315,   1.00000
-486811162.91296,-24780549.11049,-1355588.49493,  -0.00234,   0.00099,  -0.00001,474911832.74508,   0.00025,274911834.64686,  -0.00017,   0.00015,   0.00001,  -1.90179,   1.00000
-488339495.34525,-28091439.60654,-1410062.97943,  -0.00235,   0.00098,  -0.00001,474923569.72997,   0.00026,274923572.29646,  -0.00018,   0.00016,   0.00001,  -2.56649,   1.00000
-489848903.03861,-31398683.94235,-1470253.18656,  -0.00236,   0.00097,  -0.00001,474935468.46780,   0.00027,274935475.08956,  -0.00019,   0.00016,   0.00001,  -6.62176,   1.00000
-491330704.66218,-34682839.61824,-1524062.99488,  -0.00237,   0.00097,  -0.00001,474947349.69525,   0.00028,274947354.00803,  -0.00020,   0.00017,   0.00001,  -4.31278,   1.00000
-492789376.23015,-37953373.00983,-1583638.67367,  -0.00238,   0.00096,  -0.00001,474959295.69925,   0.00029,274959302.10727,  -0.00021,   0.00017,   0.00001,  -6.40802,   1.00000
-494229286.40836,-41219384.95740,-1636710.77226,  -0.00239,   0.00095,  -0.00001,474971403.86844,   0.00030,274971411.50839,  -0.00022,   0.00017,   0.00001,  -7.63996,   1.00000
-495642110.16661,-44462101.16850,-1695606.34165,  -0.00240,   0.00094,  -0.00001,474983489.61594,   0.00031,274983494.03155,  -0.00023,   0.00018,   0.00001,  -4.41561,   1.00000
-497028343.45428,-47681609.83130,-1748123.77841,  -0.00241,   0.00094,  -0.00001,474995543.53232,   0.00032,274995547.57842,  -0.00024,   0.00018,   0.00001,  -4.04610,   1.00000
-498395996.68271,-50895910.03927,-1800243.37157,  -0.00242,   0.00093,  -0.00001,475007755.71097,   0.00034,275007759.32115,  -0.00025,   0.00019,   0.00001,  -3.61017,   1.00000
-499741122.12316,-54095736.92434,-1858116.72478,  -0.00243,   0.00092,  -0.00001,475020032.64593,   0.00035,275020034.62309,  -0.00026,   0.00019,   0.00001,  -1.97716,   1.00000
-501060314.15835,-57272202.65760,-1909612.91647,  -0.00244,   0.00091,  -0.00001,475032267.98822,   0.00036,275032277.43924,  -0.00028,   0.00020,   0.00001,  -9.45102,   1.00000
-502357479.02643,-60434036.72672,-1960775.12093,  -0.00245,   0.00090,  -0.00001,475044580.12767,   0.00037,275044580.92558,  -0.00029,   0.00020,   0.00001,  -0.79792,   1.00000
-503632641.43962,-63581086.90216,-2017687.11835,  -0.00246,   0.00090,  -0.00002,475056938.24729,   0.00038,275056944.57183,  -0.00030,   0.00020,   0.00001,  -6.32454,   1.00000
-504886113.36173,-66713214.75638,-2068144.77028,  -0.00247,   0.00089,  -0.00002,475069359.61900,   0.00039,275069366.36224,  -0.00031,   0.00021,   0.00001,  -6.74324,   1.00000
-506117953.24673,-69830277.03799,-2118263.45520,  -0.00248,   0.00088,  -0.00002,475081839.70863,   0.00040,275081845.64242,  -0.00032,   0.00021,   0.00001,  -5.93379,   1.00000
-507325061.52521,-72923955.65297,-2168127.13027,  -0.00249,   0.00087,  -0.00002,475094278.43017,   0.00041,275094286.99181,  -0.00033,   0.00022,   0.00001,  -8.56164,   1.00000
-508514124.75039,-76010522.59529,-2217563.41035,  -0.00250,   0.00087,  -0.00002,475106875.35431,   0.00043,275106877.88467,  -0.00034,   0.00022,   0.00001,  -2.53035,   1.00000
-509678907.67720,-79073666.35281,-2266746.39480,  -0.00251,   0.00086,  -0.00002,475119425.16216,   0.00044,275119428.71358,  -0.00035,   0.00022,   0.00001,  -3.55142,   1.00000
-510819780.99302,-82113524.08418,-2315679.01800,  -0.00252,   0.00085,  -0.00002,475131933.47740,   0.00045,275131938.25166,  -0.00036,   0.00023,   0.00001,  -4.77426,   1.00000
-511942935.93117,-85145717.47631,-2364175.94064,  -0.00253,   0.00084,  -0.00002,475144590.88916,   0.00046,275144594.12340,  -0.00037,   0.00023,   0.00001,  -3.23423,   1.00000
-513042634.28358,-88154609.57528,-2412424.63766,  -0.00254,   0.00084,  -0.00002,475157201.39672,   0.00047,275157206.66189,  -0.00038,   0.00024,   0.00001,  -5.26517,   1.00000
-514122003.69506,-91147869.43995,-2460329.73571,  -0.00255,   0.00083,  -0.00002,475169867.71584,   0.00048,275169869.08427,  -0.00039,   0.00024,   0.00001,  -1.36843,   1.00000
-515181185.85436,-94125388.19092,-2507890.26158,  -0.00256,   0.00082,  -0.00002,475182577.95703,   0.00050,275182580.44337,  -0.00040,   0.00024,   0.00001,  -2.48634,   1.00000
-516225112.15914,-97100897.69587,-2549114.26098,  -0.00257,   0.00081,  -0.00002,475195247.13933,   0.00051,275195254.00940,  -0.00042,   0.00025,   0.00001,  -6.87008,   1.00000
-517244309.88955,-100046552.56037,-2596015.63546,  -0.00258,   0.00081,  -0.00002,475208056.16903,   0.00052,275208060.41488,  -0.00043,   0.00025,   0.00001,  -4.24584,   1.00000
-518241327.93882,-102969085.63674,-2642676.98562,  -0.00259,   0.00080,  -0.00003,475220814.07339,   0.00053,275220818.46668,  -0.00044,   0.00026,   0.00001,  -4.39329,   1.00000
-519216512.22393,-105868661.86884,-2689101.56622,  -0.00260,   0.00079,  -0.00003,475233517.93011,   0.00054,275233527.16691,  -0.00045,   0.00026,   0.00001,  -9.23679,   1.00000
-520172656.42309,-108752325.86119,-2729098.65140,  -0.00261,   0.00078,  -0.00003,475246271.49870,   0.00055,275246279.16264,  -0.00046,   0.00026,   0.00001,  -7.66394,   1.00000
-521109694.74378,-111619965.64266,-2774867.39622,  -0.00262,   0.00077,  -0.00003,475259070.53929,   0.00057,275259074.63579,  -0.00047,   0.00027,   0.00001,  -4.09650,   1.00000
-522027887.29480,-114471511.59953,-2820290.67415,  -0.00263,   0.00077,  -0.00003,475271904.11813,   0.00058,275271912.16431,  -0.00048,   0.00027,   0.00001,  -8.04618,   1.00000
-522925403.05912,-117300368.17233,-2859402.67812,  -0.00264,   0.00076,  -0.00003,475284693.40326,   0.00059,275284696.04879,  -0.00049,   0.00027,   0.00001,  -2.64553,   1.00000
-523804385.00215,-120113108.34322,-2904286.72142,  -0.00265,   0.00075,  -0.00003,475297511.39788,   0.00060,275297520.71291,  -0.00050,   0.00028,   0.00001,  -9.31504,   1.00000
-524665253.66140,-122909697.59307,-2942743.91977,  -0.00266,   0.00074,  -0.00003,475310376.19877,   0.00061,275310383.99662,  -0.00052,   0.00028,   0.00001,  -7.79785,   1.00000
-525505986.89598,-125683820.16010,-2987095.57260,  -0.00267,   0.00074,  -0.00003,475323188.13976,   0.00062,275323192.26921,  -0.00053,   0.00028,   0.00001,  -4.12945,   1.00000
-526329026.90529,-128441804.45057,-3025021.72823,  -0.00268,   0.00073,  -0.00003,475336032.73108,   0.00064,275336037.43583,  -0.00054,   0.00029,   0.00001,  -4.70474,   1.00000
-527132473.59743,-131177552.94446,-3068847.48550,  -0.00269,   0.00072,  -0.00003,475348819.95019,   0.00065,275348825.99703,  -0.00055,   0.00029,   0.00001,  -6.04684,   1.00000
-527918663.35287,-133897190.42410,-3106249.36914,  -0.00270,   0.00071,  -0.00003,475361644.72934,   0.00066,275361649.69216,  -0.00056,   0.00029,   0.00001,  -4.96282,   1.00000
-528687631.63915,-136600641.97745,-3143343.99477,  -0.00271,   0.00071,  -0.00003,475374504.13734,   0.00067,275374508.30063,  -0.00057,   0.00030,   0.00001,  -4.16329,   1.00000
-529437757.30474,-139282152.06989,-3186345.27832,  -0.00272,   0.00070,  -0.00004,475387299.90328,   0.00068,275387308.04495,  -0.00058,   0.00030,   0.00001,  -8.14167,   1.00000
-530176779.44786,-141968197.45925,-3222900.38269,  -0.00273,   0.00069,  -0.00004,475400153.66342,   0.00070,275400157.16956,  -0.00060,   0.00030,   0.00001,  -3.50614,   1.00000
-530891932.91734,-144611801.05728,-3259309.79823,  -0.00274,   0.00068,  -0.00004,475412923.84291,   0.00071,275412928.86493,  -0.00061,   0.00031,   0.00001,  -5.02202,   1.00000
-531590707.44393,-147239311.85521,-3295415.60016,  -0.00275,   0.00068,  -0.00004,475425729.77869,   0.00072,275425732.25613,  -0.00062,   0.00031,   0.00001,  -2.47744,   1.00000
-532271684.98979,-149845401.45282,-3337438.81346,  -0.00276,   0.00067,  -0.00004,475438473.57220,   0.00073,275438473.97061,  -0.00063,   0.00031,   0.00000,  -0.39841,   1.00000
-532936820.84992,-152435483.86478,-3373044.02464,  -0.00277,   0.00066,  -0.00004,475451240.27714,   0.00074,275451245.28447,  -0.00064,   0.00031,   0.00000,  -5.00733,   1.00000
-533586147.33824,-155009499.95809,-3408348.05356,  -0.00278,   0.00065,  -0.00004,475464036.84656,   0.00075,275464046.05595,  -0.00065,   0.00032,   0.00000,  -9.20939,   1.00000
-534218543.93986,-157562468.93533,-3443496.14103,  -0.00279,   0.00064,  -0.00004,475476776.05645,   0.00077,275476782.50503,  -0.00066,   0.00032,   0.00000,  -6.44858,   1.00000
-534835532.94539,-160099446.22189,-3478345.15473,  -0.00280,   0.00064,  -0.00004,475489541.41204,   0.00078,275489547.00107,  -0.00068,   0.00032,   0.00000,  -5.58903,   1.00000
-535436074.16975,-162615657.88574,-3513043.70649,  -0.00281,   0.00063,  -0.00004,475502236.25479,   0.00079,275502246.03469,  -0.00069,   0.00033,   0.00000,  -9.77990,   1.00000
-536020467.26352,-165111318.21056,-3547595.24868,  -0.00281,   0.00062,  -0.00004,475514877.87981,   0.00080,275514878.97293,  -0.00070,   0.00033,   0.00000,  -1.09311,   1.00000
-536590068.94671,-167591176.63924,-3581851.44043,  -0.00282,   0.00061,  -0.00004,475527530.78142,   0.00081,275527538.03176,  -0.00071,   0.00033,   0.00000,  -7.25034,   1.00000
-537145069.65675,-170055221.49788,-3615813.17484,  -0.00283,   0.00061,  -0.00004,475540221.99286,   0.00082,275540222.38913,  -0.00072,   0.00033,   0.00000,  -0.39627,   1.00000
-537684576.19374,-172499085.32650,-3649635.68178,  -0.00284,   0.00060,  -0.00004,475552836.02283,   0.00084,275552839.10360,  -0.00073,   0.00034,   0.00000,  -3.08077,   1.00000
-538209854.68926,-174927230.82704,-3683165.98608,  -0.00285,   0.00059,  -0.00005,475565475.42886,   0.00085,275565479.92025,  -0.00074,   0.00034,   0.00000,  -4.49139,   1.00000
-538719169.13943,-177331351.61050,-3716720.85708,  -0.00286,   0.00058,  -0.00005,475577959.01628,   0.00086,275577959.85831,  -0.00075,   0.00034,   0.00000,  -0.84203,   1.00000
-539215597.91542,-179724031.36912,-3749827.10703,  -0.00287,   0.00058,  -0.00005,475590549.80349,   0.00087,275590554.87206,  -0.00077,   0.00034,   0.00000,  -5.06857,   1.00000
-539697627.22301,-182097180.58945,-3776725.14358,  -0.00288,   0.00057,  -0.00005,475603076.81834,   0.00088,275603079.47681,  -0.00078,   0.00034,   0.00000,  -2.65847,   1.00000
-540165173.10632,-184450929.47913,-3809614.31231,  -0.00289,   0.00056,  -0.00005,475615528.39937,   0.00089,275615534.78482,  -0.00079,   0.00035,   0.00000,  -6.38545,   1.00000
-540619460.12959,-186789296.03805,-3842217.79542,  -0.00290,   0.00055,  -0.00005,475628007.28709,   0.00091,275628011.31329,  -0.00080,   0.00035,   0.00000,  -4.02620,   1.00000
-541060024.14520,-189108656.18774,-3868621.60239,  -0.00290,   0.00055,  -0.00005,475640408.49095,   0.00092,275640416.22470,  -0.00081,   0.00035,   0.00000,  -7.73375,   1.00000
-541486792.61803,-191409142.14554,-3901025.23232,  -0.00291,   0.00054,  -0.00005,475652749.19008,   0.00093,275652750.56525,  -0.00082,   0.00035,   0.00000,  -1.37517,   1.00000
-541900852.70483,-193694480.82462,-3933147.15692,  -0.00292,   0.00053,  -0.00005,475665103.49272,   0.00094,275665104.65198,  -0.00083,   0.00035,  -0.00000,  -1.15926,   1.00000
-542301858.08742,-195961346.21526,-3959078.04884,  -0.00293,   0.00052,  -0.00005,475677385.65830,   0.00095,275677385.95366,  -0.00085,   0.00036,  -0.00000,  -0.29536,   1.00000
-542690331.17305,-198213140.87184,-3990845.55718,  -0.00294,   0.00052,  -0.00005,475689678.51446,   0.00096,275689686.76252,  -0.00086,   0.00036,  -0.00000,  -8.24806,   1.00000
-543066166.98877,-200446781.70347,-4016427.52769,  -0.00295,   0.00051,  -0.00005,475701906.31158,   0.00097,275701914.02372,  -0.00087,   0.00036,  -0.00000,  -7.71214,   1.00000
-543429238.73812,-202662383.65644,-4048023.05525,  -0.00296,   0.00050,  -0.00005,475714067.34035,   0.00099,275714068.99615,  -0.00088,   0.00036,  -0.00000,  -1.65580,   1.00000
-543780654.27944,-204863265.15414,-4073263.05167,  -0.00296,   0.00049,  -0.00005,475726235.80218,   0.00100,275726240.60571,  -0.00089,   0.00036,  -0.00000,  -4.80352,   1.00000
-544119689.19852,-207046421.27872,-4104521.86511,  -0.00297,   0.00048,  -0.00006,475738335.26552,   0.00101,275738339.30512,  -0.00090,   0.00037,  -0.00000,  -4.03960,   1.00000
-544447409.16579,-209214995.63795,-4129427.79230,  -0.00298,   0.00048,  -0.00006,475750449.22216,   0.00102,275750453.71068,  -0.00091,   0.00037,  -0.00000,  -4.48852,   1.00000
-544762814.96953,-211363478.00075,-4154456.94849,  -0.00299,   0.00047,  -0.00006,475762398.35265,   0.00103,275762403.62119,  -0.00092,   0.00037,  -0.00000,  -5.26854,   1.00000
-545066915.50448,-213497516.57431,-4185332.36331,  -0.00300,   0.00046,  -0.00006,475774368.95540,   0.00104,275774370.05715,  -0.00093,   0.00037,  -0.00000,  -1.10175,   1.00000
-545360191.17029,-215617232.99029,-4209858.74954,  -0.00301,   0.00045,  -0.00006,475786341.33881,   0.00105,275786351.06446,  -0.00094,   0.00037,  -0.00000,  -9.72565,   1.00000
-545641802.92919,-217717660.34319,-4234520.37470,  -0.00301,   0.00045,  -0.00006,475798164.66476,   0.00106,275798167.19163,  -0.00096,   0.00037,  -0.00000,  -2.52686,   1.00000
-545912761.28990,-219803956.66023,-4258951.43552,  -0.00302,   0.00044,  -0.00006,475809997.14363,   0.00107,275809997.99216,  -0.00097,   0.00037,  -0.00000,  -0.84853,   1.00000
-546173200.52921,-221876140.24013,-4283153.00607,  -0.00303,   0.00043,  -0.00006,475821837.61065,   0.00108,275821843.02543,  -0.00098,   0.00038,  -0.00000,  -5.41478,   1.00000
-546422559.13105,-223929819.61116,-4307500.76143,  -0.00304,   0.00042,  -0.00006,475833516.92494,   0.00110,275833523.04302,  -0.00099,   0.00038,  -0.00000,  -6.11807,   1.00000
-546661735.95083,-225969633.09465,-4331621.73397,  -0.00305,   0.00042,  -0.00006,475845211.78062,   0.00111,275845216.67801,  -0.00100,   0.00038,  -0.00000,  -4.89738,   1.00000
-546892558.91094,-228012457.92058,-4355642.27096,  -0.00305,   0.00041,  -0.00006,475856858.98404,   0.00112,275856864.42691,  -0.00101,   0.00038,  -0.00001,  -5.44286,   1.00000
-547111081.54756,-230020587.39025,-4379693.13441,  -0.00306,   0.00040,  -0.00006,475868405.09333,   0.00113,275868406.30477,  -0.00102,   0.00038,  -0.00001,  -1.21144,   1.00000
-547319854.88556,-232015110.59057,-4403520.74800,  -0.00307,   0.00039,  -0.00006,475879954.84109,   0.00114,275879960.91507,  -0.00103,   0.00038,  -0.00001,  -6.07398,   1.00000
-547518489.18563,-233992491.44593,-4427512.75569,  -0.00308,   0.00039,  -0.00006,475891348.17050,   0.00115,275891350.49518,  -0.00104,   0.00038,  -0.00001,  -2.32468,   1.00000
-547707673.73362,-235956504.72973,-4451283.98502,  -0.00308,   0.00038,  -0.00006,475902743.70976,   0.00116,275902752.33648,  -0.00105,   0.00038,  -0.00001,  -8.62672,   1.00000
-547889156.52301,-237925796.11379,-4474765.76849,  -0.00309,   0.00037,  -0.00006,475914193.03281,   0.00117,275914197.34059,  -0.00106,   0.00038,  -0.00001,  -4.30778,   1.00000
-548059301.26219,-239859961.06260,-4498491.89410,  -0.00310,   0.00036,  -0.00007,475925440.84990,   0.00118,275925446.20077,  -0.00107,   0.00038,  -0.00001,  -5.35088,   1.00000
-548220614.32366,-241781095.34617,-4515919.61139,  -0.00311,   0.00035,  -0.00007,475936697.47509,   0.00119,275936705.64434,  -0.00108,   0.00039,  -0.00001,  -8.16926,   1.00000
-548372422.14846,-243686335.92314,-4539644.04731,  -0.00311,   0.00035,  -0.00007,475947793.89991,   0.00120,275947801.17784,  -0.00109,   0.00039,  -0.00001,  -7.27793,   1.00000
-548516754.62239,-245597092.21075,-4563079.13775,  -0.00312,   0.00034,  -0.00007,475958934.06193,   0.00121,275958940.17001,  -0.00110,   0.00039,  -0.00001,  -6.10808,   1.00000
-548651294.95764,-247476573.74137,-4580293.08395,  -0.00313,   0.00033,  -0.00007,475970054.31937,   0.00122,275970056.66741,  -0.00111,   0.00039,  -0.00001,  -2.34804,   1.00000
-548777887.97977,-249359164.01217,-4603736.63051,  -0.00313,   0.00032,  -0.00007,475981040.38950,   0.00123,275981042.46109,  -0.00112,   0.00039,  -0.00001,  -2.07159,   1.00000
-548894738.90489,-251209691.25791,-4627247.70120,  -0.00314,   0.00032,  -0.00007,475991911.43321,   0.00124,275991918.51636,  -0.00113,   0.00039,  -0.00001,  -7.08316,   1.00000
-549003552.86267,-253047801.28374,-4644466.50287,  -0.00315,   0.00031,  -0.00007,476002796.26154,   0.00125,276002803.87933,  -0.00114,   0.00039,  -0.00001,  -7.61779,   1.00000
-549104973.76194,-254890636.23319,-4661634.26894,  -0.00316,   0.00030,  -0.00007,476013639.54265,   0.00126,276013645.82236,  -0.00115,   0.00039,  -0.00001,  -6.27970,   1.00000
-549197074.92896,-256701994.44896,-4684994.10456,  -0.00316,   0.00029,  -0.00007,476024373.42439,   0.00127,276024377.93632,  -0.00116,   0.00039,  -0.00001,  -4.51193,   1.00000
-549282091.89913,-258518418.19104,-4702189.15372,  -0.00317,   0.00029,  -0.00007,476035065.13193,   0.00128,276035066.30709,  -0.00117,   0.00039,  -0.00001,  -1.17516,   1.00000
-549359049.87532,-260321853.48770,-4719416.94121,  -0.00318,   0.00028,  -0.00007,476045676.04190,   0.00129,276045677.99364,  -0.00118,   0.00039,  -0.00001,  -1.95173,   1.00000
-549427284.96689,-262094545.57003,-4742845.84626,  -0.00318,   0.00027,  -0.00007,476056174.69648,   0.00130,276056179.21846,  -0.00119,   0.00039,  -0.00001,  -4.52199,   1.00000
-549488690.78035,-263873204.28758,-4759902.46752,  -0.00319,   0.00026,  -0.00007,476066715.59247,   0.00131,276066723.67851,  -0.00120,   0.00039,  -0.00001,  -8.08604,   1.00000
-549542282.24148,-265638903.81990,-4777207.78982,  -0.00320,   0.00025,  -0.00007,476077097.62107,   0.00132,276077105.35203,  -0.00121,   0.00039,  -0.00001,  -7.73096,   1.00000
-549588047.90083,-267375046.31621,-4794429.08623,  -0.00320,   0.00025,  -0.00007,476087458.01219,   0.00133,276087460.96001,  -0.00122,   0.00039,  -0.00001,  -2.94782,   1.00000
-549626756.52178,-269116830.33623,-4811604.59437,  -0.00321,   0.00024,  -0.00007,476097767.15299,   0.00134,276097775.20134,  -0.00123,   0.00039,  -0.00001,  -8.04835,   1.00000
-549657997.26986,-270846416.62241,-4829036.14024,  -0.00321,   0.00023,  -0.00008,476107923.90135,   0.00135,276107927.27567,  -0.00124,   0.00039,  -0.00001,  -3.37432,   1.00000
-549682072.00510,-272564432.16784,-4846298.20702,  -0.00322,   0.00022,  -0.00008,476118081.94693,   0.00136,276118088.39869,  -0.00125,   0.00039,  -0.00001,  -6.45176,   1.00000
-549698993.21523,-274270830.21907,-4863606.52220,  -0.00323,   0.00022,  -0.00008,476128172.04654,   0.00137,276128173.03046,  -0.00126,   0.00039,  -0.00001,  -0.98392,   1.00000
-549708840.66827,-275965775.82620,-4880962.40684,  -0.00323,   0.00021,  -0.00008,476138177.02923,   0.00138,276138181.33085,  -0.00127,   0.00039,  -0.00001,  -4.30162,   1.00000
-549711729.81988,-277649448.85124,-4898367.55769,  -0.00324,   0.00020,  -0.00008,476148113.04006,   0.00139,276148113.31171,  -0.00128,   0.00039,  -0.00001,  -0.27165,   1.00000
-549707952.34710,-279322105.90178,-4909739.62586,  -0.00324,   0.00019,  -0.00008,476157962.72674,   0.00140,276157968.26354,  -0.00129,   0.00039,  -0.00001,  -5.53680,   1.00000
-549697294.17414,-280983538.06505,-4927061.06052,  -0.00325,   0.00019,  -0.00008,476167828.70767,   0.00141,276167832.51181,  -0.00130,   0.00039,  -0.00001,  -3.80414,   1.00000
-549679548.30417,-282651528.26656,-4944557.35905,  -0.00326,   0.00018,  -0.00008,476177565.42353,   0.00142,276177573.51693,  -0.00131,   0.00039,  -0.00002,  -8.09340,   1.00000
-549655637.70601,-284291768.20831,-4956121.12614,  -0.00326,   0.00017,  -0.00008,476187196.16738,   0.00142,276187200.50918,  -0.00132,   0.00039,  -0.00002,  -4.34180,   1.00000
-549624982.07449,-285921467.60766,-4973855.69705,  -0.00327,   0.00016,  -0.00008,476196747.96476,   0.00143,276196752.60914,  -0.00132,   0.00039,  -0.00002,  -4.64438,   1.00000
-549587624.79588,-287557939.13223,-4985463.03636,  -0.00327,   0.00015,  -0.00008,476206263.55911,   0.00144,276206266.07022,  -0.00133,   0.00039,  -0.00002,  -2.51110,   1.00000
-549544230.79820,-289166594.10181,-5003122.36218,  -0.00328,   0.00015,  -0.00008,476215750.39043,   0.00145,276215750.79211,  -0.00134,   0.00039,  -0.00002,  -0.40168,   1.00000
-549494021.61161,-290782755.12974,-5014876.72208,  -0.00328,   0.00014,  -0.00008,476225106.33293,   0.00146,276225113.80350,  -0.00135,   0.00039,  -0.00002,  -7.47057,   1.00000
-549437484.07270,-292388949.07052,-5026720.80079,  -0.00329,   0.00013,  -0.00008,476234397.81348,   0.00147,276234401.76012,  -0.00136,   0.00039,  -0.00002,  -3.94664,   1.00000
-549375425.79560,-293968623.58364,-5038759.43517,  -0.00329,   0.00012,  -0.00008,476243571.77592,   0.00148,276243576.14874,  -0.00137,   0.00039,  -0.00002,  -4.37282,   1.00000
-549306483.35297,-295555448.42833,-5050785.56873,  -0.00330,   0.00012,  -0.00008,476252709.22262,   0.00149,276252714.41498,  -0.00138,   0.00039,  -0.00002,  -5.19236,   1.00000
-549231350.91464,-297131795.28501,-5068765.10183,  -0.00330,   0.00011,  -0.00008,476261861.17693,   0.00149,276261861.88541,  -0.00139,   0.00039,  -0.00002,  -0.70848,   1.00000
-549150215.67088,-298699760.20311,-5080948.37545,  -0.00331,   0.00010,  -0.00008,476270843.62742,   0.00150,276270851.12212,  -0.00139,   0.00039,  -0.00002,  -7.49469,   1.00000
-549063316.91335,-300258632.53454,-5087140.32816,  -0.00331,   0.00009,  -0.00008,476279758.82907,   0.00151,276279765.12668,  -0.00140,   0.00039,  -0.00002,  -6.29762,   1.00000
-548970256.18146,-301808340.60894,-5099541.91518,  -0.00332,   0.00008,  -0.00009,476288600.06776,   0.00152,276288605.85712,  -0.00141,   0.00039,  -0.00002,  -5.78937,   1.00000
-548871318.29383,-303349139.67645,-5112039.10881,  -0.00332,   0.00008,  -0.00009,476297366.38164,   0.00153,276297372.59331,  -0.00142,   0.00039,  -0.00002,  -6.21167,   1.00000
-548766568.74701,-304881179.43202,-5124632.82731,  -0.00333,   0.00007,  -0.00009,476306064.85602,   0.00153,276306065.46351,  -0.00143,   0.00039,  -0.00002,  -0.60749,   1.00000
-548654572.72830,-306422043.23122,-5137438.97411,  -0.00333,   0.00006,  -0.00009,476314636.96568,   0.00154,276314642.96511,  -0.00143,   0.00039,  -0.00002,  -5.99943,   1.00000
-548538509.85197,-307936987.03034,-5144140.12489,  -0.00334,   0.00005,  -0.00009,476323183.67983,   0.00155,276323187.88668,  -0.00144,   0.00038,  -0.00002,  -4.20685,   1.00000
-548415170.14569,-309459553.86064,-5156940.69120,  -0.00334,   0.00005,  -0.00009,476331693.83292,   0.00156,276331700.94258,  -0.00145,   0.00038,  -0.00002,  -7.10967,   1.00000
-548287784.46653,-310957869.60556,-5163867.55750,  -0.00335,   0.00004,  -0.00009,476340095.37392,   0.00157,276340099.43157,  -0.00146,   0.00038,  -0.00002,  -4.05765,   1.00000
-548152838.62627,-312465451.28217,-5177122.28110,  -0.00335,   0.00003,  -0.00009,476348377.16884,   0.00157,276348385.47299,  -0.00147,   0.00038,  -0.00002,  -8.30416,   1.00000
-548012751.73413,-313963567.12705,-5184159.30916,  -0.00335,   0.00002,  -0.00009,476356679.07990,   0.00158,276356679.34185,  -0.00147,   0.00038,  -0.00002,  -0.26195,   1.00000
-547866779.67246,-315455343.92089,-5191553.28959,  -0.00336,   0.00001,  -0.00009,476364813.50871,   0.00159,276364819.93294,  -0.00148,   0.00038,  -0.00002,  -6.42423,   1.00000
-547715252.02460,-316939362.84746,-5199074.30732,  -0.00336,   0.00001,  -0.00009,476372884.56100,   0.00160,276372888.48228,  -0.00149,   0.00038,  -0.00002,  -3.92128,   1.00000
-547558200.11754,-318415752.06626,-5206722.57349,  -0.00337,  -0.00000,  -0.00009,476380884.86974,   0.00160,276380885.21054,  -0.00150,   0.00038,  -0.00002,  -0.34080,   1.00000
-547395653.52584,-319884638.23958,-5214498.29806,  -0.00337,  -0.00001,  -0.00009,476388807.23220,   0.00161,276388810.34049,  -0.00150,   0.00038,  -0.00002,  -3.10828,   1.00000
-547227655.85485,-321346154.80164,-5222401.86336,  -0.00337,  -0.00002,  -0.00009,476396658.22903,   0.00162,276396664.03684,  -0.00151,   0.00038,  -0.00002,  -5.80781,   1.00000
-547052323.84312,-322815925.51619,-5230311.54984,  -0.00338,  -0.00003,  -0.00009,476404484.69610,   0.00163,276404488.60757,  -0.00152,   0.00038,  -0.00002,  -3.91147,   1.00000
-546873477.88305,-324262992.54774,-5238471.54556,  -0.00338,  -0.00003,  -0.00009,476412199.06397,   0.00163,276412200.10374,  -0.00152,   0.00038,  -0.00002,  -1.03977,   1.00000
-546686844.08322,-325720454.67435,-5246868.23898,  -0.00338,  -0.00004,  -0.00009,476419795.50247,   0.00164,276419803.46093,  -0.00153,   0.00037,  -0.00002,  -7.95846,   1.00000
-546494996.42038,-327171066.42990,-5249303.11036,  -0.00339,  -0.00005,  -0.00009,476427331.91260,   0.00165,276427335.69930,  -0.00154,   0.00037,  -0.00002,  -3.78670,   1.00000
-546297895.51527,-328612547.14157,-5257747.33742,  -0.00339,  -0.00006,  -0.00009,476434870.21955,   0.00166,276434878.36058,  -0.00155,   0.00037,  -0.00002,  -8.14103,   1.00000
-546095220.29244,-330049578.34129,-5260463.13111,  -0.00339,  -0.00007,  -0.00009,476442267.24217,   0.00166,276442270.82773,  -0.00155,   0.00037,  -0.00002,  -3.58556,   1.00000
-545886919.72705,-331479859.40425,-5269420.94534,  -0.00340,  -0.00007,  -0.00009,476449585.27561,   0.00167,276449594.66934,  -0.00156,   0.00037,  -0.00002,  -9.39373,   1.00000
-545673024.89999,-332906084.45955,-5272649.67219,  -0.00340,  -0.00008,  -0.00009,476456759.38403,   0.00168,276456769.28274,  -0.00157,   0.00037,  -0.00003,  -9.89870,   1.00000
-545451885.61420,-334338569.48445,-5275668.03729,  -0.00340,  -0.00009,  -0.00009,476463989.64231,   0.00168,276463997.19308,  -0.00157,   0.00037,  -0.00003,  -7.55077,   1.00000
-545227237.79063,-335752154.90095,-5279200.39068,  -0.00340,  -0.00010,  -0.00009,476471027.68251,   0.00169,276471034.22081,  -0.00158,   0.00037,  -0.00003,  -6.53830,   1.00000
-544995311.32695,-337171985.65457,-5282520.29480,  -0.00341,  -0.00011,  -0.00009,476478122.31839,   0.00170,276478124.96832,  -0.00159,   0.00037,  -0.00003,  -2.64992,   1.00000
-544757432.38681,-338588150.84175,-5286224.33114,  -0.00341,  -0.00011,  -0.00009,476485064.66099,   0.00170,276485069.23147,  -0.00159,   0.00037,  -0.00003,  -4.57048,   1.00000
-544516167.69568,-339986163.68876,-5290443.65225,  -0.00341,  -0.00012,  -0.00010,476491817.18320,   0.00171,276491823.50051,  -0.00160,   0.00036,  -0.00003,  -6.31731,   1.00000
-544264890.45261,-341405059.60152,-5294313.59710,  -0.00342,  -0.00013,  -0.00010,476498675.34581,   0.00171,276498676.54091,  -0.00160,   0.00036,  -0.00003,  -1.19510,   1.00000
-544011058.56185,-342803544.94932,-5292374.38937,  -0.00342,  -0.00014,  -0.00010,476505415.05927,   0.00172,276505417.28168,  -0.00161,   0.00036,  -0.00003,  -2.22241,   1.00000
-543750970.56511,-344198926.73219,-5296932.32182,  -0.00342,  -0.00015,  -0.00010,476512005.25491,   0.00173,276512014.19809,  -0.00162,   0.00036,  -0.00003,  -8.94317,   1.00000
-543482921.96541,-345603302.68296,-5295411.55896,  -0.00342,  -0.00015,  -0.00010,476518583.75213,   0.00173,276518588.21615,  -0.00162,   0.00036,  -0.00003,  -4.46403,   1.00000
-543212001.53537,-346987561.18670,-5300287.80696,  -0.00342,  -0.00016,  -0.00010,476525044.21359,   0.00174,276525052.14549,  -0.00163,   0.00036,  -0.00003,  -7.93190,   1.00000
-542933024.12683,-348380885.70584,-5299082.95648,  -0.00343,  -0.00017,  -0.00010,476531492.37902,   0.00175,276531493.96639,  -0.00163,   0.00036,  -0.00003,  -1.58737,   1.00000
-542647806.66565,-349771746.58465,-5298279.57520,  -0.00343,  -0.00018,  -0.00010,476537785.45831,   0.00175,276537793.20679,  -0.00164,   0.00036,  -0.00003,  -7.74848,   1.00000
-542357075.98013,-351157331.17067,-5297642.99736,  -0.00343,  -0.00019,  -0.00010,476544017.71703,   0.00176,276544027.19709,  -0.00165,   0.00035,  -0.00003,  -9.48006,   1.00000
-542060831.07429,-352537738.85035,-5297172.66327,  -0.00343,  -0.00019,  -0.00010,476550188.65495,   0.00176,276550196.18746,  -0.00165,   0.00035,  -0.00003,  -7.53250,   1.00000
-541755944.15159,-353927073.31723,-5296728.73025,  -0.00343,  -0.00020,  -0.00010,476556341.35999,   0.00177,276556346.03839,  -0.00166,   0.00035,  -0.00003,  -4.67840,   1.00000
-541448601.47151,-355297329.81134,-5296588.86481,  -0.00343,  -0.00021,  -0.00010,476562377.69511,   0.00177,276562385.95598,  -0.00166,   0.00035,  -0.00003,  -8.26087,   1.00000
-541131869.22946,-356679925.32046,-5290611.95906,  -0.00343,  -0.00022,  -0.00010,476568322.53287,   0.00178,276568330.54812,  -0.00167,   0.00035,  -0.00003,  -8.01525,   1.00000
-540809233.10619,-358057466.21051,-5290911.47188,  -0.00344,  -0.00023,  -0.00010,476574205.39235,   0.00179,276574212.50773,  -0.00167,   0.00035,  -0.00003,  -7.11538,   1.00000
-540481148.76441,-359430327.51554,-5285278.23725,  -0.00344,  -0.00023,  -0.00010,476580023.38473,   0.00179,276580030.36609,  -0.00168,   0.00035,  -0.00003,  -6.98135,   1.00000
-540147373.68230,-360798459.74086,-5279825.91660,  -0.00344,  -0.00024,  -0.00010,476585777.24765,   0.00180,276585785.24796,  -0.00168,   0.00035,  -0.00003,  -8.00031,   1.00000
-539806681.59542,-362165231.86331,-5280879.50980,  -0.00344,  -0.00025,  -0.00010,476591397.03680,   0.00180,276591402.84728,  -0.00169,   0.00034,  -0.00003,  -5.81048,   1.00000
-539456992.46193,-363541136.63639,-5275852.90577,  -0.00344,  -0.00026,  -0.00010,476596999.99952,   0.00181,276597003.98427,  -0.00169,   0.00034,  -0.00003,  -3.98475,   1.00000
-539101433.78923,-364912455.99644,-5271002.56625,  -0.00344,  -0.00027,  -0.00010,476602537.36618,   0.00181,276602543.44266,  -0.00170,   0.00034,  -0.00003,  -6.07647,   1.00000
-538740230.61336,-366279427.87993,-5260232.62327,  -0.00344,  -0.00028,  -0.00010,476608017.20720,   0.00182,276608020.59684,  -0.00170,   0.00034,  -0.00003,  -3.38964,   1.00000
-538371779.06770,-367645455.64217,-5255981.38965,  -0.00344,  -0.00028,  -0.00010,476613356.45545,   0.00182,276613362.75140,  -0.00171,   0.00034,  -0.00003,  -6.29595,   1.00000
-537998519.21576,-369003526.04651,-5251672.77404,  -0.00344,  -0.00029,  -0.00010,476618713.97950,   0.00183,276618718.77655,  -0.00171,   0.00034,  -0.00003,  -4.79705,   1.00000
-537613475.89468,-370378063.44394,-5241752.83558,  -0.00344,  -0.00030,  -0.00010,476623907.47755,   0.00183,276623911.96584,  -0.00172,   0.00034,  -0.00003,  -4.48829,   1.00000
-537227039.91807,-371731370.39775,-5238033.71968,  -0.00344,  -0.00031,  -0.00010,476629071.06595,   0.00184,276629073.08512,  -0.00172,   0.00033,  -0.00003,  -2.01917,   1.00000
-536829743.68477,-373097568.27139,-5228468.56529,  -0.00344,  -0.00032,  -0.00010,476634144.66523,   0.00184,276634147.17348,  -0.00173,   0.00033,  -0.00003,  -2.50825,   1.00000
-536426252.20740,-374459664.58868,-5219087.67261,  -0.00344,  -0.00033,  -0.00010,476639157.65640,   0.00185,276639162.23423,  -0.00173,   0.00033,  -0.00003,  -4.57783,   1.00000
-536016538.32106,-375817736.27365,-5209889.78252,  -0.00344,  -0.00033,  -0.00010,476644109.44553,   0.00185,276644118.55859,  -0.00174,   0.00033,  -0.00003,  -9.11306,   1.00000
-535596637.18380,-377184636.99823,-5200725.40596,  -0.00344,  -0.00034,  -0.00010,476649061.27117,   0.00186,276649064.46333,  -0.00174,   0.00033,  -0.00003,  -3.19216,   1.00000
-535172959.05570,-378538807.34656,-5192115.50193,  -0.00344,  -0.00035,  -0.00010,476653821.25487,   0.00186,276653830.99804,  -0.00175,   0.00033,  -0.00003,  -9.74317,   1.00000
-534739120.77743,-379901978.71871,-5177437.01515,  -0.00344,  -0.00036,  -0.00010,476658586.62642,   0.00186,276658587.35981,  -0.00175,   0.00033,  -0.00003,  -0.73338,   1.00000
-534298555.96430,-381261135.80488,-5169048.86301,  -0.00344,  -0.00037,  -0.00010,476663281.02063,   0.00187,276663287.55533,  -0.00175,   0.00032,  -0.00003,  -6.53470,   1.00000
-533846062.29728,-382633255.14292,-5154811.53596,  -0.00344,  -0.00038,  -0.00010,476667898.91439,   0.00187,276667906.01334,  -0.00176,   0.00032,  -0.00003,  -7.09895,   1.00000
-533392597.38765,-383984975.76815,-5140689.15454,  -0.00344,  -0.00038,  -0.00010,476672488.23040,   0.00188,276672492.33966,  -0.00176,   0.00032,  -0.00003,  -4.10926,   1.00000
-532925141.53388,-385353793.79938,-5127049.13382,  -0.00344,  -0.00039,  -0.00010,476676921.68994,   0.00188,276676926.61086,  -0.00177,   0.00032,  -0.00003,  -4.92092,   1.00000
-532452481.88536,-386714660.47771,-5113370.75702,  -0.00344,  -0.00040,  -0.00010,476681374.73888,   0.00189,276681378.04740,  -0.00177,   0.00032,  -0.00003,  -3.30851,   1.00000
-531971333.42839,-388076189.01108,-5100096.11591,  -0.00344,  -0.00041,  -0.00010,476685696.52139,   0.00189,276685702.42919,  -0.00177,   0.00032,  -0.00003,  -5.90779,   1.00000
-531483270.63034,-389434157.56299,-5087001.49990,  -0.00344,  -0.00042,  -0.00010,476689965.31577,   0.00189,276689972.35685,  -0.00178,   0.00032,  -0.00003,  -7.04108,   1.00000
-530984075.46027,-390800774.02885,-5067834.83263,  -0.00343,  -0.00043,  -0.00010,476694235.89630,   0.00190,276694236.82659,  -0.00178,   0.00032,  -0.00003,  -0.93029,   1.00000
-530482000.30825,-392151733.79590,-5055110.73627,  -0.00343,  -0.00044,  -0.00010,476698396.51024,   0.00190,276698398.96301,  -0.00178,   0.00031,  -0.00003,  -2.45277,   1.00000
-529966762.30688,-393515774.93583,-5036527.61556,  -0.00343,  -0.00044,  -0.00010,476702478.43411,   0.00191,276702485.26589,  -0.00179,   0.00031,  -0.00003,  -6.83177,   1.00000
-529444275.59957,-394876362.37246,-5018130.94049,  -0.00343,  -0.00045,  -0.00010,476706511.19152,   0.00191,276706518.93385,  -0.00179,   0.00031,  -0.00004,  -7.74233,   1.00000
-528907992.25014,-396249787.74801,-4999982.05251,  -0.00343,  -0.00046,  -0.00010,476710476.44314,   0.00191,276710479.38439,  -0.00180,   0.00031,  -0.00004,  -2.94124,   1.00000
-528368809.03901,-397608142.06883,-4982165.80086,  -0.00343,  -0.00047,  -0.00010,476714336.31034,   0.00192,276714338.21943,  -0.00180,   0.00031,  -0.00004,  -1.90909,   1.00000
-527817495.24636,-398974717.75343,-4964376.43269,  -0.00343,  -0.00048,  -0.00010,476718189.92297,   0.00192,276718196.06731,  -0.00180,   0.00031,  -0.00004,  -6.14435,   1.00000
-527254093.95648,-400349495.32228,-4940511.22165,  -0.00342,  -0.00049,  -0.00010,476722050.60180,   0.00192,276722052.88129,  -0.00181,   0.00031,  -0.00004,  -2.27949,   1.00000
-526687656.01896,-401709447.78085,-4916986.76169,  -0.00342,  -0.00050,  -0.00010,476725801.96924,   0.00193,276725808.99000,  -0.00181,   0.00030,  -0.00004,  -7.02076,   1.00000
-526111113.21191,-403070742.01924,-4899960.07006,  -0.00342,  -0.00051,  -0.00010,476729439.57363,   0.00193,276729445.72959,  -0.00181,   0.00030,  -0.00004,  -6.15596,   1.00000
-525519889.13189,-404444949.92295,-4877057.74542,  -0.00342,  -0.00051,  -0.00010,476733010.42058,   0.00193,276733013.30899,  -0.00181,   0.00030,  -0.00004,  -2.88842,   1.00000
-524922849.24381,-405810982.91386,-4854126.73019,  -0.00341,  -0.00052,  -0.00010,476736595.76869,   0.00194,276736602.08805,  -0.00182,   0.00030,  -0.00004,  -6.31937,   1.00000
-524310734.41156,-407189776.17298,-4825326.53864,  -0.00341,  -0.00053,  -0.00010,476740118.69935,   0.00194,276740123.38069,  -0.00182,   0.00030,  -0.00004,  -4.68134,   1.00000
-523695046.46843,-408554110.23862,-4802967.28367,  -0.00341,  -0.00054,  -0.00010,476743541.56752,   0.00194,276743546.56047,  -0.00182,   0.00030,  -0.00004,  -4.99295,   1.00000
-523066117.82178,-409926080.81498,-4780628.66443,  -0.00341,  -0.00055,  -0.00010,476746971.55930,   0.00195,276746973.79605,  -0.00183,   0.00030,  -0.00004,  -2.23675,   1.00000
-522426471.58960,-411299889.12503,-4752559.62472,  -0.00340,  -0.00056,  -0.00010,476750278.07018,   0.00195,276750284.59341,  -0.00183,   0.00029,  -0.00004,  -6.52322,   1.00000
-521778254.82944,-412670432.29862,-4724668.92450,  -0.00340,  -0.00057,  -0.00010,476753544.72855,   0.00195,276753549.22949,  -0.00183,   0.00029,  -0.00004,  -4.50094,   1.00000
-521116303.11382,-414048306.18036,-4696803.12219,  -0.00340,  -0.00058,  -0.00010,476756812.71829,   0.00196,276756820.07965,  -0.00183,   0.00029,  -0.00004,  -7.36136,   1.00000
-520442897.69615,-415427939.76988,-4669308.56710,  -0.00340,  -0.00058,  -0.00010,476759970.50248,   0.00196,276759977.46154,  -0.00184,   0.00029,  -0.00004,  -6.95907,   1.00000
-519760724.89287,-416804398.99208,-4635879.75159,  -0.00339,  -0.00059,  -0.00010,476763081.35683,   0.00196,276763089.71112,  -0.00184,   0.00029,  -0.00004,  -8.35429,   1.00000
-519069316.66061,-418177411.30530,-4608732.86252,  -0.00339,  -0.00060,  -0.00010,476766149.12467,   0.00197,276766158.63914,  -0.00184,   0.00029,  -0.00004,  -9.51447,   1.00000
-518363766.08180,-419557525.12595,-4575497.17253,  -0.00339,  -0.00061,  -0.00010,476769228.85941,   0.00197,276769235.73567,  -0.00185,   0.00029,  -0.00004,  -6.87626,   1.00000
-517646045.82442,-420939492.28234,-4542626.17530,  -0.00338,  -0.00062,  -0.00010,476772196.72186,   0.00197,276772202.27395,  -0.00185,   0.00029,  -0.00004,  -5.55210,   1.00000
-516918874.71797,-422318079.61390,-4509923.82185,  -0.00338,  -0.00063,  -0.00010,476775120.11432,   0.00197,276775126.55673,  -0.00185,   0.00028,  -0.00004,  -6.44241,   1.00000
-516182173.33560,-423693309.67229,-4477387.65856,  -0.00337,  -0.00064,  -0.00010,476778003.18058,   0.00198,276778008.95997,  -0.00185,   0.00028,  -0.00004,  -5.77939,   1.00000
-515427425.15835,-425080412.22530,-4445053.67373,  -0.00337,  -0.00065,  -0.00010,476780830.79225,   0.00198,276780835.99091,  -0.00185,   0.00028,  -0.00004,  -5.19866,   1.00000
-514662981.85364,-426464175.46329,-4406773.96791,  -0.00337,  -0.00066,  -0.00010,476783611.94234,   0.00198,276783621.91510,  -0.00186,   0.00028,  -0.00004,  -9.97276,   1.00000
-513888398.74745,-427844328.07383,-4374766.22550,  -0.00336,  -0.00067,  -0.00009,476786361.49088,   0.00198,276786368.44312,  -0.00186,   0.00028,  -0.00004,  -6.95224,   1.00000
-513095219.54178,-429236197.88136,-4336842.32220,  -0.00336,  -0.00067,  -0.00009,476789053.25630,   0.00199,276789061.82453,  -0.00186,   0.00028,  -0.00004,  -8.56822,   1.00000
-512295055.00345,-430618975.69597,-4298899.10222,  -0.00335,  -0.00068,  -0.00009,476791773.59851,   0.00199,276791782.89909,  -0.00186,   0.00028,  -0.00004,  -9.30059,   1.00000
-511481353.43780,-432003814.30677,-4255186.94520,  -0.00335,  -0.00069,  -0.00009,476794394.58330,   0.00199,276794398.74332,  -0.00187,   0.00028,  -0.00004,  -4.16001,   1.00000
-510653487.81484,-433390440.27972,-4217919.30929,  -0.00335,  -0.00070,  -0.00009,476796907.45511,   0.00199,276796911.63040,  -0.00187,   0.00027,  -0.00004,  -4.17528,   1.00000
-509813057.41555,-434777238.40467,-4174379.15915,  -0.00334,  -0.00071,  -0.00009,476799500.48684,   0.00200,276799506.79506,  -0.00187,   0.00027,  -0.00004,  -6.30822,   1.00000
-508958060.65166,-436165731.16629,-4137274.72753,  -0.00334,  -0.00072,  -0.00009,476801991.41313,   0.00200,276802000.55130,  -0.00187,   0.00027,  -0.00004,  -9.13817,   1.00000
-508088575.85250,-437556223.54495,-4094377.24620,  -0.00333,  -0.00073,  -0.00009,476804386.48726,   0.00200,276804392.54544,  -0.00187,   0.00027,  -0.00004,  -6.05818,   1.00000
-507211654.77614,-438937271.29048,-4051461.16790,  -0.00333,  -0.00074,  -0.00009,476806810.11003,   0.00200,276806814.60030,  -0.00188,   0.00027,  -0.00004,  -4.49027,   1.00000
-506314202.27677,-440329177.65101,-4002612.10218,  -0.00332,  -0.00075,  -0.00009,476809188.78241,   0.00201,276809191.06267,  -0.00188,   0.00027,  -0.00004,  -2.28026,   1.00000
-505405104.79618,-441716968.83622,-3960021.88521,  -0.00332,  -0.00076,  -0.00009,476811529.75465,   0.00201,276811534.34035,  -0.00188,   0.00027,  -0.00004,  -4.58570,   1.00000
-504478857.98184,-443109548.95700,-3911328.39494,  -0.00331,  -0.00077,  -0.00009,476813891.13395,   0.00201,276813898.84198,  -0.00188,   0.00027,  -0.00004,  -7.70803,   1.00000
-503542548.46572,-444495183.03274,-3863075.79175,  -0.00331,  -0.00078,  -0.00009,476816105.71932,   0.00201,276816111.09691,  -0.00188,   0.00026,  -0.00004,  -5.37759,   1.00000
-502588546.74009,-445885215.57425,-3814829.30060,  -0.00330,  -0.00079,  -0.00009,476818339.66557,   0.00201,276818346.75730,  -0.00188,   0.00026,  -0.00004,  -7.09172,   1.00000
-501622451.21701,-447271028.16875,-3766721.62034,  -0.00330,  -0.00080,  -0.00009,476820544.09498,   0.00202,276820551.10090,  -0.00189,   0.00026,  -0.00004,  -7.00593,   1.00000
-500638484.45607,-448660978.23108,-3712510.51060,  -0.00329,  -0.00080,  -0.00009,476822777.90855,   0.00202,276822779.86134,  -0.00189,   0.00026,  -0.00004,  -1.95279,   1.00000
-499637587.59333,-450052188.44028,-3664697.51839,  -0.00329,  -0.00081,  -0.00009,476824906.60228,   0.00202,276824915.69638,  -0.00189,   0.00026,  -0.00004,  -9.09410,   1.00000
-498624222.81491,-451439049.35770,-3610905.29955,  -0.00328,  -0.00082,  -0.00009,476827014.37704,   0.00202,276827021.74580,  -0.00189,   0.00026,  -0.00004,  -7.36876,   1.00000
-497592232.66141,-452829334.54847,-3557118.88611,  -0.00327,  -0.00083,  -0.00009,476829147.51967,   0.00202,276829155.44783,  -0.00189,   0.00026,  -0.00004,  -7.92816,   1.00000
-496553212.21901,-454207051.88391,-3503591.05819,  -0.00327,  -0.00084,  -0.00009,476831200.08187,   0.00203,276831204.74161,  -0.00189,   0.00026,  -0.00004,  -4.65974,   1.00000
-495490724.12707,-455593957.40172,-3444096.33459,  -0.00326,  -0.00085,  -0.00008,476833217.44056,   0.00203,276833219.74102,  -0.00190,   0.00025,  -0.00004,  -2.30046,   1.00000
-494408867.22081,-456983549.74468,-3390717.71787,  -0.00326,  -0.00086,  -0.00008,476835259.24152,   0.00203,276835265.63563,  -0.00190,   0.00025,  -0.00004,  -6.39410,   1.00000
-493313667.82834,-458368228.97678,-3331352.72698,  -0.00325,  -0.00087,  -0.00008,476837277.99116,   0.00203,276837285.34999,  -0.00190,   0.00025,  -0.00004,  -7.35883,   1.00000
-492204866.21742,-459747822.43935,-3272114.67215,  -0.00324,  -0.00088,  -0.00008,476839276.20489,   0.00203,276839279.89745,  -0.00190,   0.00025,  -0.00004,  -3.69256,   1.00000
-491077391.12988,-461128355.20835,-3207019.28569,  -0.00324,  -0.00089,  -0.00008,476841178.29992,   0.00204,276841187.42817,  -0.00190,   0.00025,  -0.00004,  -9.12825,   1.00000
-489929822.70366,-462510789.50645,-3148042.06959,  -0.00323,  -0.00090,  -0.00008,476843121.99036,   0.00204,276843129.24503,  -0.00190,   0.00025,  -0.00004,  -7.25468,   1.00000
-488774197.95574,-463880739.53551,-3083187.11607,  -0.00322,  -0.00091,  -0.00008,476844984.05046,   0.00204,276844989.95600,  -0.00190,   0.00025,  -0.00004,  -5.90554,   1.00000
-487592193.42328,-465259310.02869,-3024336.24617,  -0.00322,  -0.00092,  -0.00008,476846940.84937,   0.00204,276846944.31400,  -0.00191,   0.00025,  -0.00004,  -3.46464,   1.00000
-486396510.98233,-466631426.69694,-2953606.78741,  -0.00321,  -0.00093,  -0.00008,476848747.29423,   0.00204,276848757.11871,  -0.00191,   0.00025,  -0.00004,  -9.82448,   1.00000
-485185524.91901,-467998569.69218,-2888885.45319,  -0.00320,  -0.00094,  -0.00008,476850668.55872,   0.00204,276850668.66036,  -0.00191,   0.00024,  -0.00004,  -0.10163,   1.00000
-483948120.66879,-469372585.03258,-2824283.23898,  -0.00320,  -0.00095,  -0.00008,476852552.03940,   0.00205,276852557.71416,  -0.00191,   0.00024,  -0.00004,  -5.67476,   1.00000
-482701795.69167,-470733915.15855,-2753786.95780,  -0.00319,  -0.00096,  -0.00008,476854365.95703,   0.00205,276854368.57643,  -0.00191,   0.00024,  -0.00004,  -2.61940,   1.00000
-481428447.18247,-472101731.04020,-2683406.88037,  -0.00318,  -0.00097,  -0.00008,476856155.39520,   0.00205,276856159.19336,  -0.00191,   0.00024,  -0.00004,  -3.79816,   1.00000
-480145532.17707,-473457126.73352,-2613035.74499,  -0.00317,  -0.00098,  -0.00007,476857990.09064,   0.00205,276857992.38466,  -0.00191,   0.00024,  -0.00004,  -2.29402,   1.00000
-478835069.11031,-474818481.67379,-2542776.41746,  -0.00317,  -0.00099,  -0.00007,476859801.82595,   0.00205,276859807.63954,  -0.00191,   0.00024,  -0.00004,  -5.81359,   1.00000
-477508904.94741,-476173225.36863,-2466514.65743,  -0.00316,  -0.00100,  -0.00007,476861605.22174,   0.00206,276861606.50558,  -0.00192,   0.00024,  -0.00004,  -1.28384,   1.00000
-476166691.21691,-477521053.75105,-2396474.22950,  -0.00315,  -0.00101,  -0.00007,476863380.55581,   0.00206,276863390.39318,  -0.00192,   0.00024,  -0.00004,  -9.83736,   1.00000
-474802172.76074,-478868129.27113,-2320515.00259,  -0.00314,  -0.00102,  -0.00007,476865090.58200,   0.00206,276865099.78195,  -0.00192,   0.00023,  -0.00004,  -9.19995,   1.00000
-473421765.19143,-480208100.36003,-2238377.76555,  -0.00314,  -0.00103,  -0.00007,476866912.12722,   0.00206,276866914.17215,  -0.00192,   0.00023,  -0.00004,  -2.04493,   1.00000
-472018326.74936,-481546749.79558,-2162546.37906,  -0.00313,  -0.00104,  -0.00007,476868652.52014,   0.00206,276868656.84741,  -0.00192,   0.00023,  -0.00004,  -4.32727,   1.00000
-470592172.05565,-482883675.12191,-2086735.54608,  -0.00312,  -0.00105,  -0.00007,476870445.68644,   0.00206,276870447.81059,  -0.00192,   0.00023,  -0.00004,  -2.12416,   1.00000
-469149234.08234,-484212973.51463,-2004917.00937,  -0.00311,  -0.00106,  -0.00007,476872227.10014,   0.00207,276872227.28359,  -0.00192,   0.00023,  -0.00004,  -0.18345,   1.00000
-467689285.22048,-485534439.05070,-1923205.55850,  -0.00310,  -0.00107,  -0.00007,476873987.99225,   0.00207,276873996.24590,  -0.00192,   0.00023,  -0.00004,  -8.25365,   1.00000
-466205304.19306,-486854067.44711,-1835557.77480,  -0.00310,  -0.00108,  -0.00006,476875694.34053,   0.00207,276875696.90239,  -0.00192,   0.00023,  -0.00004,  -2.56186,   1.00000
-464704891.07515,-488164767.38923,-1753992.38947,  -0.00309,  -0.00109,  -0.00006,476877500.32992,   0.00207,276877508.23745,  -0.00193,   0.00023,  -0.00004,  -7.90753,   1.00000
-463173918.22664,-489478392.06632,-1666417.39631,  -0.00308,  -0.00110,  -0.00006,476879314.84332,   0.00207,276879314.97960,  -0.00193,   0.00022,  -0.00004,  -0.13629,   1.00000
-461631138.93928,-490778210.25199,-1579014.10900,  -0.00307,  -0.00111,  -0.00006,476881049.93592,   0.00207,276881053.23881,  -0.00193,   0.00022,  -0.00004,  -3.30289,   1.00000
-460064516.62455,-492074339.44857,-1491656.02843,  -0.00306,  -0.00112,  -0.00006,476882844.09496,   0.00208,276882847.04183,  -0.00193,   0.00022,  -0.00004,  -2.94688,   1.00000
-458479845.44041,-493361494.03448,-1404404.14953,  -0.00305,  -0.00113,  -0.00006,476884627.54933,   0.00208,276884635.47225,  -0.00193,   0.00022,  -0.00004,  -7.92292,   1.00000
-456871122.88120,-494644386.90062,-1311094.63825,  -0.00305,  -0.00114,  -0.00006,476886477.95078,   0.00208,276886481.43601,  -0.00193,   0.00022,  -0.00004,  -3.48523,   1.00000
-455244007.62581,-495917813.45378,-1224009.05664,  -0.00304,  -0.00115,  -0.00006,476888315.98685,   0.00208,276888324.02793,  -0.00193,   0.00022,  -0.00004,  -8.04108,   1.00000
-453590574.56809,-497187642.76673,-1130960.06949,  -0.00303,  -0.00116,  -0.00006,476890102.76820,   0.00208,276890107.10711,  -0.00193,   0.00022,  -0.00004,  -4.33891,   1.00000
-451918396.38558,-498447716.40910,-1031909.00651,  -0.00302,  -0.00117,  -0.00005,476891879.58289,   0.00208,276891888.32238,  -0.00193,   0.00022,  -0.00004,  -8.73950,   1.00000
-450229576.98781,-499696345.15884,-939010.85195,  -0.00301,  -0.00118,  -0.00005,476893783.22709,   0.00209,276893788.03211,  -0.00194,   0.00021,  -0.00004,  -4.80502,   1.00000
-448513642.25563,-500940677.51910,-840146.47968,  -0.00300,  -0.00119,  -0.00005,476895627.35774,   0.00209,276895631.52239,  -0.00194,   0.00021,  -0.00004,  -4.16465,   1.00000
-446772731.78467,-502178777.48167,-741368.55311,  -0.00299,  -0.00120,  -0.00005,476897539.35363,   0.00209,276897539.78814,  -0.00194,   0.00021,  -0.00004,  -0.43451,   1.00000
-445012493.90551,-503406150.28315,-642710.61238,  -0.00298,  -0.00121,  -0.00005,476899449.27712,   0.00209,276899450.11367,  -0.00194,   0.00021,  -0.00004,  -0.83655,   1.00000
-443232804.96196,-504622637.46112,-544172.29842,  -0.00297,  -0.00122,  -0.00005,476901359.77363,   0.00209,276901363.23712,  -0.00194,   0.00021,  -0.00004,  -3.46349,   1.00000
-441427860.28272,-505831976.45131,-439625.52763,  -0.00296,  -0.00123,  -0.00005,476903341.37931,   0.00209,276903344.48499,  -0.00194,   0.00021,  -0.00004,  -3.10568,   1.00000
-439603207.61474,-507029939.27285,-335209.67289,  -0.00295,  -0.00124,  -0.00005,476905324.88086,   0.00210,276905330.52110,  -0.00194,   0.00021,  -0.00004,  -5.64023,   1.00000
-437749717.24025,-508221997.87467,-230932.74557,  -0.00294,  -0.00126,  -0.00004,476907263.72381,   0.00210,276907267.63474,  -0.00194,   0.00020,  -0.00004,  -3.91093,   1.00000
-435879649.91629,-509400210.32248,-126773.71609,  -0.00293,  -0.00127,  -0.00004,476909327.18894,   0.00210,276909331.26944,  -0.00194,   0.00020,  -0.00004,  -4.08050,   1.00000
-433989528.65613,-510566390.14531,-16641.17127,  -0.00292,  -0.00128,  -0.00004,476911400.10818,   0.00210,276911402.46530,  -0.00194,   0.00020,  -0.00004,  -2.35712,   1.00000
-432069822.67402,-511725861.85092,87240.83879,  -0.00291,  -0.00129,  -0.00004,476913419.60348,   0.00210,276913428.28672,  -0.00195,   0.00020,  -0.00004,  -8.68324,   1.00000
-430133715.83191,-512870644.69090,197084.04837,  -0.00290,  -0.00130,  -0.00004,476915581.69700,   0.00211,276915583.60007,  -0.00195,   0.00020,  -0.00004,  -1.90307,   1.00000
-428167534.75080,-514008107.19568,312896.40405,  -0.00289,  -0.00131,  -0.00004,476917688.59001,   0.00211,276917696.14578,  -0.00195,   0.00020,  -0.00004,  -7.55577,   1.00000
-426190481.11826,-515127154.22487,422429.69085,  -0.00288,  -0.00132,  -0.00004,476919864.19102,   0.00211,276919873.64950,  -0.00195,   0.00019,  -0.00004,  -9.45847,   1.00000
-424177549.86931,-516241451.77439,537914.77103,  -0.00287,  -0.00133,  -0.00003,476922073.55660,   0.00211,276922077.49626,  -0.00195,   0.00019,  -0.00004,  -3.93966,   1.00000
-422143734.91664,-517342168.39315,653236.43831,  -0.00286,  -0.00134,  -0.00003,476924288.63004,   0.00211,276924295.44372,  -0.00195,   0.00019,  -0.00004,  -6.81368,   1.00000
-420099142.22386,-518423884.02512,768367.99694,  -0.00285,  -0.00135,  -0.00003,476926571.92249,   0.00212,276926580.78632,  -0.00195,   0.00019,  -0.00004,  -8.86383,   1.00000
-418018155.31167,-519499731.49561,883320.95631,  -0.00284,  -0.00136,  -0.00003,476928894.61346,   0.00212,276928896.98503,  -0.00195,   0.00019,  -0.00004,  -2.37158,   1.00000
-415926451.78921,-520556100.87226,1004176.25127,  -0.00283,  -0.00137,  -0.00003,476931274.47264,   0.00212,276931282.55862,  -0.00195,   0.00018,  -0.00004,  -8.08598,   1.00000
-413803102.85098,-521603209.56142,1124879.78504,  -0.00282,  -0.00138,  -0.00003,476933628.13281,   0.00212,276933633.87249,  -0.00195,   0.00018,  -0.00004,  -5.73969,   1.00000
-411664151.56484,-522633090.06229,1245303.91840,  -0.00281,  -0.00140,  -0.00002,476936122.82674,   0.00213,276936124.45617,  -0.00196,   0.00018,  -0.00004,  -1.62943,   1.00000
-409493129.93006,-523653046.01894,1365573.60409,  -0.00280,  -0.00141,  -0.00002,476938576.36695,   0.00213,276938583.60654,  -0.00196,   0.00018,  -0.00004,  -7.23959,   1.00000
-407311672.28338,-524652885.88783,1485599.51997,  -0.00279,  -0.00142,  -0.00002,476941113.50065,   0.00213,276941115.13245,  -0.00196,   0.00018,  -0.00004,  -1.63180,   1.00000
-405092833.78997,-525644443.47380,1611511.46130,  -0.00278,  -0.00143,  -0.00002,476943685.01710,   0.00213,276943687.39423,  -0.00196,   0.00017,  -0.00004,  -2.37713,   1.00000
-402863709.30035,-526615456.43375,1737151.64077,  -0.00277,  -0.00144,  -0.00002,476946332.57824,   0.00213,276946333.99988,  -0.00196,   0.00017,  -0.00004,  -1.42164,   1.00000
-400597003.34508,-527577420.37386,1862545.18036,  -0.00275,  -0.00145,  -0.00002,476949019.46303,   0.00214,276949024.57475,  -0.00196,   0.00017,  -0.00004,  -5.11172,   1.00000
-398324768.58960,-528516364.76717,1993840.17895,  -0.00274,  -0.00146,  -0.00001,476951713.07266,   0.00214,276951721.27572,  -0.00196,   0.00017,  -0.00004,  -8.20306,   1.00000
-396021824.73632,-529442897.60447,2124711.18400,  -0.00273,  -0.00147,  -0.00001,476954576.74829,   0.00214,276954585.62886,  -0.00196,   0.00016,  -0.00004,  -8.88058,   1.00000
-393701823.03530,-530350919.46000,2255423.04102,  -0.00272,  -0.00148,  -0.00001,476957398.71903,   0.00215,276957406.95963,  -0.00196,   0.00016,  -0.00004,  -8.24060,   1.00000
-391355756.16531,-531243935.12250,2385777.37588,  -0.00271,  -0.00150,  -0.00001,476960323.66552,   0.00215,276960328.24782,  -0.00196,   0.00016,  -0.00004,  -4.58230,   1.00000
-388988039.20119,-532119857.77618,2515867.33664,  -0.00270,  -0.00151,  -0.00001,476963275.68307,   0.00215,276963279.63021,  -0.00197,   0.00016,  -0.00004,  -3.94714,   1.00000
-386598551.46774,-532978369.92548,2651794.34281,  -0.00269,  -0.00152,  -0.00001,476966259.88455,   0.00215,276966262.54807,  -0.00197,   0.00015,  -0.00004,  -2.66352,   1.00000
-384183137.91229,-533820901.48081,2787316.19648,  -0.00267,  -0.00153,  -0.00000,476969345.65503,   0.00216,276969349.96480,  -0.00197,   0.00015,  -0.00004,  -4.30977,   1.00000
-381758544.99688,-534641498.52341,2922458.48596,  -0.00266,  -0.00154,  -0.00000,476972515.28893,   0.00216,276972519.40880,  -0.00197,   0.00015,  -0.00004,  -4.11987,   1.00000
-379295692.86025,-535449664.67232,3057253.37154,  -0.00265,  -0.00155,  -0.00000,476975738.23088,   0.00216,276975747.80852,  -0.00197,   0.00015,  -0.00004,  -9.57764,   1.00000
-376827796.91447,-536234082.16678,3197890.17202,  -0.00264,  -0.00156,   0.00000,476978983.91434,   0.00217,276978987.56993,  -0.00197,   0.00014,  -0.00004,  -3.65559,   1.00000
-374330671.03911,-537002904.39249,3331807.73931,  -0.00263,  -0.00157,   0.00000,476982406.26233,   0.00217,276982410.13861,  -0.00197,   0.00014,  -0.00004,  -3.87628,   1.00000
-371815716.64849,-537751711.94157,3471651.22341,  -0.00261,  -0.00159,   0.00001,476985796.19845,   0.00217,276985797.65935,  -0.00197,   0.00014,  -0.00004,  -1.46091,   1.00000
-369275397.55665,-538482715.10104,3617098.88397,  -0.00260,  -0.00160,   0.00001,476989292.56315,   0.00218,276989298.85829,  -0.00197,   0.00013,  -0.00004,  -6.29514,   1.00000
-366713655.87827,-539194796.60752,3756077.26950,  -0.00259,  -0.00161,   0.00001,476992833.64754,   0.00218,276992839.96560,  -0.00197,   0.00013,  -0.00004,  -6.31806,   1.00000
-364143783.57956,-539883930.62478,3900693.25686,  -0.00258,  -0.00162,   0.00001,476996459.83869,   0.00218,276996469.73865,  -0.00197,   0.00013,  -0.00004,  -9.89996,   1.00000
-361549170.55927,-540554760.32671,4044751.97202,  -0.00257,  -0.00163,   0.00001,477000216.41664,   0.00219,277000216.56300,  -0.00198,   0.00012,  -0.00004,  -0.14636,   1.00000
-358919490.76299,-541209296.25524,4188529.94443,  -0.00255,  -0.00164,   0.00002,477003951.28742,   0.00219,277003961.23257,  -0.00198,   0.00012,  -0.00004,  -9.94515,   1.00000
-356293019.51752,-541838312.07649,4331490.91523,  -0.00254,  -0.00165,   0.00002,477007913.27970,   0.00219,277007918.13600,  -0.00198,   0.00012,  -0.00004,  -4.85630,   1.00000
-353634483.07016,-542449595.10944,4480454.63864,  -0.00253,  -0.00167,   0.00002,477011794.52279,   0.00220,277011800.08392,  -0.00198,   0.00011,  -0.00004,  -5.56113,   1.00000
-350951704.10911,-543041454.61702,4628788.58377,  -0.00252,  -0.00168,   0.00002,477015799.73957,   0.00220,277015805.45288,  -0.00198,   0.00011,  -0.00004,  -5.71331,   1.00000
-348259227.41528,-543610670.48343,4776349.88993,  -0.00250,  -0.00169,   0.00002,477019977.54904,   0.00220,277019980.78554,  -0.00198,   0.00010,  -0.00004,  -3.23650,   1.00000
-345548705.85110,-544158734.28413,4923674.12735,  -0.00249,  -0.00170,   0.00003,477024126.75289,   0.00221,277024128.66834,  -0.00198,   0.00010,  -0.00004,  -1.91545,   1.00000
-342814460.20208,-544686574.09759,5076419.93676,  -0.00248,  -0.00171,   0.00003,477028399.95681,   0.00221,277028404.89943,  -0.00198,   0.00010,  -0.00004,  -4.94262,   1.00000
-340071717.36911,-545191753.78782,5222222.00427,  -0.00247,  -0.00172,   0.00003,477032850.18382,   0.00222,277032853.41875,  -0.00198,   0.00009,  -0.00004,  -3.23493,   1.00000
-337295986.02417,-545677756.73182,5374010.35733,  -0.00245,  -0.00174,   0.00003,477037230.55285,   0.00222,277037234.14820,  -0.00198,   0.00009,  -0.00004,  -3.59535,   1.00000
-334527048.84190,-546138009.61299,5530884.95442,  -0.00244,  -0.00175,   0.00003,477041829.82190,   0.00222,277041834.44408,  -0.00198,   0.00008,  -0.00004,  -4.62219,   1.00000
-331722895.57574,-546579736.34948,5681268.41295,  -0.00243,  -0.00176,   0.00004,477046439.31644,   0.00223,277046445.24943,  -0.00198,   0.00008,  -0.00004,  -5.93299,   1.00000
-328896129.36853,-547000183.04808,5836970.94222,  -0.00241,  -0.00177,   0.00004,477051183.72055,   0.00223,277051192.03841,  -0.00198,   0.00008,  -0.00004,  -8.31785,   1.00000
-326064725.85539,-547397178.66801,5985882.95902,  -0.00240,  -0.00178,   0.00004,477056032.39960,   0.00224,277056037.78117,  -0.00198,   0.00007,  -0.00004,  -5.38157,   1.00000
-323213086.08831,-547772021.70208,6146445.99023,  -0.00239,  -0.00180,   0.00004,477060936.95259,   0.00224,277060943.74657,  -0.00199,   0.00007,  -0.00004,  -6.79398,   1.00000
-320357345.01575,-548123537.49514,6300181.83427,  -0.00237,  -0.00181,   0.00005,477065945.67478,   0.00225,277065949.54271,  -0.00199,   0.00006,  -0.00004,  -3.86793,   1.00000
-317480247.38738,-548453635.88699,6453056.12633,  -0.00236,  -0.00182,   0.00005,477071093.23141,   0.00225,277071095.05040,  -0.00199,   0.00006,  -0.00004,  -1.81899,   1.00000
-314583515.26175,-548761518.05139,6611435.66458,  -0.00235,  -0.00183,   0.00005,477076301.67948,   0.00226,277076302.96881,  -0.00199,   0.00005,  -0.00004,  -1.28934,   1.00000
-311683388.21088,-549045837.83894,6769047.89119,  -0.00233,  -0.00184,   0.00005,477081606.79512,   0.00226,277081613.88253,  -0.00199,   0.00005,  -0.00004,  -7.08741,   1.00000
-308746600.80896,-549309726.40762,6925881.55304,  -0.00232,  -0.00186,   0.00005,477087027.41042,   0.00227,277087028.40510,  -0.00199,   0.00004,  -0.00004,  -0.99468,   1.00000
-305823064.18158,-549548406.51388,7087861.90283,  -0.00231,  -0.00187,   0.00006,477092583.73007,   0.00227,277092588.91103,  -0.00199,   0.00004,  -0.00004,  -5.18096,   1.00000
-302864526.00773,-549766395.08799,7243237.98900,  -0.00229,  -0.00188,   0.00006,477098171.35295,   0.00228,277098173.53117,  -0.00199,   0.00003,  -0.00004,  -2.17823,   1.00000
-299903529.85294,-549960569.41352,7403894.56181,  -0.00228,  -0.00189,   0.00006,477103858.76127,   0.00228,277103865.24952,  -0.00199,   0.00003,  -0.00003,  -6.48825,   1.00000
-296939741.17125,-550131650.40869,7563375.94985,  -0.00227,  -0.00190,   0.00006,477109742.88212,   0.00229,277109744.69399,  -0.00199,   0.00002,  -0.00003,  -1.81187,   1.00000
-293957708.05520,-550280389.20144,7722160.42961,  -0.00225,  -0.00192,   0.00007,477115682.14897,   0.00229,277115691.88793,  -0.00199,   0.00002,  -0.00003,  -9.73896,   1.00000
-290956789.57881,-550406463.38475,7885983.27602,  -0.00224,  -0.00193,   0.00007,477121784.22762,   0.00230,277121791.86871,  -0.00199,   0.00001,  -0.00003,  -7.64109,   1.00000
-287938586.63883,-550510124.53847,8043329.75035,  -0.00223,  -0.00194,   0.00007,477127870.87464,   0.00231,277127878.07072,  -0.00199,   0.00000,  -0.00003,  -7.19608,   1.00000
-284936147.90448,-550590106.59924,8205357.76910,  -0.00221,  -0.00195,   0.00007,477134188.15597,   0.00231,277134194.30878,  -0.00199,  -0.00000,  -0.00003,  -6.15281,   1.00000
-281899041.44673,-550647921.72823,8366794.20937,  -0.00220,  -0.00196,   0.00008,477140536.63298,   0.00232,277140544.70788,  -0.00199,  -0.00001,  -0.00003,  -8.07489,   1.00000
-278861797.96288,-550682874.00912,8527301.58077,  -0.00219,  -0.00198,   0.00008,477146998.68409,   0.00232,277147004.45558,  -0.00199,  -0.00001,  -0.00003,  -5.77149,   1.00000
-275824627.73906,-550694948.15761,8692578.31898,  -0.00217,  -0.00199,   0.00008,477153649.12556,   0.00233,277153658.81394,  -0.00199,  -0.00002,  -0.00003,  -9.68837,   1.00000
-272753041.28450,-550684350.26741,8857214.33176,  -0.00216,  -0.00200,   0.00008,477160344.72002,   0.00234,277160351.33497,  -0.00199,  -0.00003,  -0.00003,  -6.61495,   1.00000
-269700049.92551,-550651835.14495,9014613.27118,  -0.00214,  -0.00201,   0.00009,477167185.38207,   0.00234,277167188.42482,  -0.00199,  -0.00003,  -0.00003,  -3.04276,   1.00000
-266630784.99725,-550596555.28385,9176896.92207,  -0.00213,  -0.00203,   0.00009,477174178.63704,   0.00235,277174186.79430,  -0.00199,  -0.00004,  -0.00003,  -8.15726,   1.00000
-263544515.00284,-550518135.16547,9344842.76001,  -0.00212,  -0.00204,   0.00009,477181172.99442,   0.00236,277181178.29286,  -0.00199,  -0.00005,  -0.00003,  -5.29844,   1.00000
-260460773.17092,-550418221.90238,9505255.56444,  -0.00210,  -0.00205,   0.00009,477188356.27973,   0.00236,277188364.60867,  -0.00199,  -0.00005,  -0.00003,  -8.32895,   1.00000
-257360938.46679,-550295340.87898,9670904.28983,  -0.00209,  -0.00206,   0.00010,477195629.32664,   0.00237,277195630.27582,  -0.00199,  -0.00006,  -0.00003,  -0.94918,   1.00000
-254264411.43385,-550150888.26152,9835072.02331,  -0.00207,  -0.00207,   0.00010,477203085.59169,   0.00238,277203093.58626,  -0.00199,  -0.00007,  -0.00003,  -7.99457,   1.00000
-251170696.18245,-549985025.22594,9998179.57295,  -0.00206,  -0.00209,   0.00010,477210661.76475,   0.00238,277210668.64950,  -0.00199,  -0.00007,  -0.00003,  -6.88475,   1.00000
-248060527.89531,-549796619.62322,10160832.91260,  -0.00204,  -0.00210,   0.00010,477218227.15238,   0.00239,277218236.87182,  -0.00199,  -0.00008,  -0.00003,  -9.71944,   1.00000
-244956281.72257,-549587553.71381,10321514.96544,  -0.00203,  -0.00211,   0.00011,477226085.33826,   0.00240,277226089.58650,  -0.00199,  -0.00009,  -0.00003,  -4.24824,   1.00000
-241835629.35599,-549355542.20677,10487820.74579,  -0.00202,  -0.00212,   0.00011,477233929.26479,   0.00241,277233938.26029,  -0.00199,  -0.00010,  -0.00003,  -8.99549,   1.00000
-238718868.58436,-549102779.03210,10653014.85789,  -0.00200,  -0.00214,   0.00011,477241894.83802,   0.00241,277241899.36255,  -0.00199,  -0.00010,  -0.00003,  -4.52453,   1.00000
-235589478.11188,-548828573.52464,10810705.45962,  -0.00199,  -0.00215,   0.00011,477250020.59944,   0.00242,277250027.02772,  -0.00199,  -0.00011,  -0.00003,  -6.42828,   1.00000
-232464310.84187,-548533056.00528,10979455.63785,  -0.00197,  -0.00216,   0.00012,477258269.54148,   0.00243,277258271.40733,  -0.00198,  -0.00012,  -0.00003,  -1.86584,   1.00000
-229327255.40119,-548216276.47346,11140647.37224,  -0.00196,  -0.00217,   0.00012,477266680.04583,   0.00244,277266683.97149,  -0.00198,  -0.00013,  -0.00002,  -3.92566,   1.00000
-226212244.67423,-547881281.50663,11301020.94118,  -0.00194,  -0.00219,   0.00012,477275143.89944,   0.00245,277275151.26854,  -0.00198,  -0.00013,  -0.00002,  -7.36909,   1.00000
-223085685.65257,-547524478.26992,11466001.73158,  -0.00193,  -0.00220,   0.00013,477283784.96293,   0.00245,277283791.02890,  -0.00198,  -0.00014,  -0.00002,  -6.06597,   1.00000
-219945737.24915,-547145917.38746,11629968.24456,  -0.00192,  -0.00221,   0.00013,477292508.37332,   0.00246,277292514.72729,  -0.00198,  -0.00015,  -0.00002,  -6.35397,   1.00000
-216811781.09145,-546748061.50487,11792750.76172,  -0.00190,  -0.00222,   0.00013,477301348.27779,   0.00247,277301351.17124,  -0.00198,  -0.00016,  -0.00002,  -2.89345,   1.00000
-213684086.17990,-546331219.76652,11954346.68121,  -0.00189,  -0.00224,   0.00013,477310299.64215,   0.00248,277310299.82998,  -0.00198,  -0.00017,  -0.00002,  -0.18783,   1.00000
-210543526.53257,-545892906.27662,12114913.19606,  -0.00187,  -0.00225,   0.00014,477319324.41141,   0.00249,277319333.33468,  -0.00198,  -0.00018,  -0.00002,  -8.92328,   1.00000
-207431958.12911,-545438964.29042,12279674.52240,  -0.00186,  -0.00226,   0.00014,477328586.86227,   0.00250,277328596.24617,  -0.00198,  -0.00018,  -0.00002,  -9.38390,   1.00000
-204288638.85863,-544961462.79332,12437451.28360,  -0.00184,  -0.00227,   0.00014,477337908.63013,   0.00250,277337915.57237,  -0.00198,  -0.00019,  -0.00002,  -6.94223,   1.00000
-201172128.54381,-544468448.59668,12599941.21572,  -0.00183,  -0.00229,   0.00015,477347374.19085,   0.00251,277347374.90649,  -0.00197,  -0.00020,  -0.00002,  -0.71564,   1.00000
-198043564.39128,-543954506.71097,12761354.80053,  -0.00181,  -0.00230,   0.00015,477356916.69994,   0.00252,277356919.80048,  -0.00197,  -0.00021,  -0.00002,  -3.10054,   1.00000
-194922845.88557,-543423034.53816,12921531.77558,  -0.00180,  -0.00231,   0.00015,477366571.78014,   0.00253,277366575.72995,  -0.00197,  -0.00022,  -0.00002,  -3.94981,   1.00000
-191813791.03300,-542875126.19245,13079913.40843,  -0.00178,  -0.00233,   0.00015,477376423.23510,   0.00254,277376431.35887,  -0.00197,  -0.00023,  -0.00002,  -8.12377,   1.00000
-188713017.55882,-542309823.44084,13243127.98327,  -0.00177,  -0.00234,   0.00016,477386390.33766,   0.00255,277386399.17176,  -0.00197,  -0.00024,  -0.00002,  -8.83409,   1.00000
-185601105.64167,-541724743.42852,13399149.41439,  -0.00175,  -0.00235,   0.00016,477396447.76581,   0.00256,277396450.45050,  -0.00197,  -0.00025,  -0.00001,  -2.68469,   1.00000
-182497909.16289,-541122641.88396,13559997.40163,  -0.00174,  -0.00236,   0.00016,477406608.93244,   0.00257,277406613.84521,  -0.00196,  -0.00026,  -0.00001,  -4.91277,   1.00000
-179403791.59559,-540504409.06215,13719571.18605,  -0.00172,  -0.00238,   0.00017,477416878.83358,   0.00258,277416886.14345,  -0.00196,  -0.00027,  -0.00001,  -7.30986,   1.00000
-176298842.72801,-539866162.81618,13878014.62160,  -0.00171,  -0.00239,   0.00017,477427244.54949,   0.00259,277427244.91402,  -0.00196,  -0.00028,  -0.00001,  -0.36454,   1.00000
-173227912.30076,-539217577.90930,14034446.24353,  -0.00169,  -0.00240,   0.00017,477437815.50421,   0.00260,277437823.59716,  -0.00196,  -0.00029,  -0.00001,  -8.09295,   1.00000
-170142076.77709,-538548298.30836,14190341.97511,  -0.00168,  -0.00241,   0.00017,477448392.39232,   0.00261,277448398.07648,  -0.00196,  -0.00030,  -0.00001,  -5.68416,   1.00000
-167070730.39963,-537865094.19570,14344359.26672,  -0.00166,  -0.00243,   0.00018,477459167.14939,   0.00262,277459169.92480,  -0.00195,  -0.00031,  -0.00001,  -2.77541,   1.00000
-164009437.66610,-537166557.07936,14503169.44728,  -0.00165,  -0.00244,   0.00018,477470047.75219,   0.00263,277470050.88233,  -0.00195,  -0.00032,  -0.00001,  -3.13014,   1.00000
-160958647.78410,-536454212.34815,14654608.02451,  -0.00164,  -0.00245,   0.00018,477481032.32901,   0.00264,277481034.68792,  -0.00195,  -0.00033,  -0.00001,  -2.35892,   1.00000
-157897834.00810,-535722180.15179,14810972.84553,  -0.00162,  -0.00247,   0.00019,477492097.48944,   0.00265,277492107.37319,  -0.00195,  -0.00034,  -0.00001,  -9.88375,   1.00000
-154868251.51787,-534981213.63846,14965904.92391,  -0.00161,  -0.00248,   0.00019,477503302.66267,   0.00266,277503303.54756,  -0.00194,  -0.00035,  -0.00001,  -0.88489,   1.00000
-151829016.61223,-534221525.07224,15119665.04916,  -0.00159,  -0.00249,   0.00019,477514577.93950,   0.00267,277514585.28452,  -0.00194,  -0.00036,  -0.00000,  -7.34502,   1.00000
-148806188.43621,-533449951.79048,15271491.15724,  -0.00158,  -0.00250,   0.00020,477526055.89774,   0.00268,277526061.33313,  -0.00194,  -0.00037,  -0.00000,  -5.43538,   1.00000
-145789237.26866,-532663751.04138,15422658.97573,  -0.00156,  -0.00252,   0.00020,477537544.72451,   0.00269,277537549.39999,  -0.00194,  -0.00038,  -0.00000,  -4.67549,   1.00000
-142789120.57392,-531865726.86797,15577952.99577,  -0.00155,  -0.00253,   0.00020,477549225.55355,   0.00270,277549233.33702,  -0.00193,  -0.00039,  -0.00000,  -7.78347,   1.00000
-139800745.31675,-531055906.10094,15725861.07740,  -0.00153,  -0.00254,   0.00020,477561012.26745,   0.00272,277561015.37935,  -0.00193,  -0.00040,   0.00000,  -3.11190,   1.00000
-136824020.91496,-530233275.11923,15878545.68589,  -0.00152,  -0.00256,   0.00021,477572899.83581,   0.00273,277572900.76531,  -0.00193,  -0.00041,   0.00000,  -0.92950,   1.00000
-133853381.78384,-529397587.39235,16024511.49137,  -0.00150,  -0.00257,   0.00021,477584789.20161,   0.00274,277584791.66232,  -0.00192,  -0.00042,   0.00000,  -2.46071,   1.00000
-130900607.03909,-528551470.02962,16174598.46822,  -0.00149,  -0.00258,   0.00021,477596869.77850,   0.00275,277596875.43368,  -0.00192,  -0.00043,   0.00000,  -5.65518,   1.00000
-127939141.44637,-527687920.56242,16323483.06821,  -0.00147,  -0.00259,   0.00022,477609039.08069,   0.00276,277609043.09154,  -0.00192,  -0.00044,   0.00000,  -4.01085,   1.00000
-125017140.08305,-526821435.47423,16470286.00913,  -0.00146,  -0.00261,   0.00022,477621410.69670,   0.00277,277621413.38030,  -0.00191,  -0.00045,   0.00001,  -2.68360,   1.00000
-122101231.34620,-525942190.78838,16616469.07128,  -0.00144,  -0.00262,   0.00022,477633783.11061,   0.00279,277633788.58412,  -0.00191,  -0.00046,   0.00001,  -5.47351,   1.00000
-119176879.53862,-525046005.55506,16761455.51271,  -0.00143,  -0.00263,   0.00023,477646240.62410,   0.00280,277646246.59221,  -0.00191,  -0.00048,   0.00001,  -5.96811,   1.00000
-116286152.50485,-524146021.11001,16905056.81089,  -0.00141,  -0.00265,   0.00023,477658810.66046,   0.00281,277658812.18261,  -0.00190,  -0.00049,   0.00001,  -1.52215,   1.00000
-113408120.80945,-523236092.82366,17047376.77226,  -0.00140,  -0.00266,   0.00023,477671464.33144,   0.00282,277671471.40651,  -0.00190,  -0.00050,   0.00001,  -7.07507,   1.00000
-110549612.94776,-522318179.55742,17193785.34309,  -0.00138,  -0.00267,   0.00024,477684313.95294,   0.00283,277684317.77085,  -0.00190,  -0.00051,   0.00001,  -3.81791,   1.00000
-107676182.75142,-521382294.36621,17333613.63441,  -0.00137,  -0.00268,   0.00024,477697147.24273,   0.00285,277697150.82448,  -0.00189,  -0.00052,   0.00001,  -3.58175,   1.00000
-104843888.62572,-520446605.62544,17471390.20651,  -0.00135,  -0.00270,   0.00024,477710176.53031,   0.00286,277710177.20966,  -0.00189,  -0.00053,   0.00001,  -0.67934,   1.00000
-102017505.42453,-519498825.45667,17614671.34908,  -0.00134,  -0.00271,   0.00025,477723200.98573,   0.00287,277723205.91587,  -0.00188,  -0.00055,   0.00002,  -4.93014,   1.00000
-99204252.98918,-518542403.88869,17756665.74517,  -0.00132,  -0.00272,   0.00025,477736322.83506,   0.00288,277736323.97176,  -0.00188,  -0.00056,   0.00002,  -1.13670,   1.00000
-96411615.15453,-517580997.95848,17890610.98132,  -0.00131,  -0.00274,   0.00025,477749611.07445,   0.00290,277749618.13990,  -0.00188,  -0.00057,   0.00002,  -7.06545,   1.00000
-93624804.10398,-516608039.82009,18030090.65581,  -0.00129,  -0.00275,   0.00025,477762908.49200,   0.00291,277762912.09747,  -0.00187,  -0.00058,   0.00002,  -3.60547,   1.00000
-90858877.31232,-515630012.27195,18167580.93280,  -0.00128,  -0.00276,   0.00026,477776374.58262,   0.00292,277776383.94101,  -0.00187,  -0.00059,   0.00002,  -9.35838,   1.00000
-88098825.84432,-514642210.28643,18298483.64078,  -0.00126,  -0.00277,   0.00026,477789845.82989,   0.00293,277789846.78637,  -0.00186,  -0.00061,   0.00002,  -0.95648,   1.00000
-85373364.59507,-513653959.12082,18434163.65854,  -0.00125,  -0.00279,   0.00026,477803400.51576,   0.00295,277803405.14870,  -0.00186,  -0.00062,   0.00002,  -4.63294,   1.00000
-82647962.15641,-512653895.71693,18567924.05809,  -0.00123,  -0.00280,   0.00027,477817126.19086,   0.00296,277817131.25106,  -0.00185,  -0.00063,   0.00003,  -5.06021,   1.00000
-79949455.68425,-511651726.46096,18701131.29965,  -0.00122,  -0.00281,   0.00027,477830853.50351,   0.00297,277830855.40748,  -0.00185,  -0.00064,   0.00003,  -1.90397,   1.00000
-77264461.06551,-510642935.88474,18833111.08470,  -0.00120,  -0.00283,   0.00027,477844652.46989,   0.00299,277844661.07137,  -0.00185,  -0.00065,   0.00003,  -8.60148,   1.00000
-74601153.40985,-509631049.03115,18963129.94060,  -0.00119,  -0.00284,   0.00028,477858635.00298,   0.00300,277858638.09798,  -0.00184,  -0.00067,   0.00003,  -3.09500,   1.00000
-71943262.84632,-508609711.85015,19092682.96482,  -0.00117,  -0.00285,   0.00028,477872599.65374,   0.00301,277872603.86804,  -0.00184,  -0.00068,   0.00003,  -4.21430,   1.00000
-69298998.29438,-507582408.51424,19221030.40919,  -0.00116,  -0.00287,   0.00028,477886643.63613,   0.00303,277886648.59248,  -0.00183,  -0.00069,   0.00003,  -4.95635,   1.00000
-66689657.63359,-506557743.85245,19348148.37719,  -0.00114,  -0.00288,   0.00029,477900772.46211,   0.00304,277900774.98549,  -0.00183,  -0.00070,   0.00003,  -2.52338,   1.00000
-64093898.14677,-505527656.77129,19474082.44935,  -0.00113,  -0.00289,   0.00029,477914972.62440,   0.00305,277914977.61648,  -0.00182,  -0.00072,   0.00004,  -4.99208,   1.00000
-61511743.65181,-504492355.04340,19598840.43002,  -0.00111,  -0.00290,   0.00029,477929252.21752,   0.00307,277929255.62667,  -0.00182,  -0.00073,   0.00004,  -3.40915,   1.00000
-58943214.57751,-503452027.40415,19722429.50439,  -0.00110,  -0.00292,   0.00030,477943603.61656,   0.00308,277943608.24197,  -0.00181,  -0.00074,   0.00004,  -4.62541,   1.00000
-56388312.92266,-502406110.59238,19850904.08385,  -0.00108,  -0.00293,   0.00030,477958035.80997,   0.00309,277958038.59981,  -0.00181,  -0.00075,   0.00004,  -2.78984,   1.00000
-53859521.85179,-501361288.86111,19972893.40229,  -0.00107,  -0.00294,   0.00030,477972447.09512,   0.00311,277972449.01114,  -0.00180,  -0.00077,   0.00004,  -1.91602,   1.00000
-51353189.97764,-500315978.84804,20092972.18420,  -0.00105,  -0.00296,   0.00031,477987018.54182,   0.00312,277987021.18150,  -0.00180,  -0.00078,   0.00004,  -2.63967,   1.00000
-48851401.91161,-499262506.98903,20212690.44191,  -0.00104,  -0.00297,   0.00031,478001564.35946,   0.00314,278001573.52100,  -0.00179,  -0.00079,   0.00005,  -9.16154,   1.00000
-46372258.41178,-498209061.24242,20330508.65534,  -0.00102,  -0.00298,   0.00031,478016280.54889,   0.00315,278016285.84916,  -0.00178,  -0.00080,   0.00005,  -5.30026,   1.00000
-43918796.06098,-497156830.15653,20447988.35896,  -0.00101,  -0.00299,   0.00031,478030967.26943,   0.00316,278030976.54194,  -0.00178,  -0.00082,   0.00005,  -9.27250,   1.00000
-41478761.89635,-496101003.88209,20564363.56413,  -0.00099,  -0.00301,   0.00032,478045727.38505,   0.00318,278045734.54652,  -0.00177,  -0.00083,   0.00005,  -7.16147,   1.00000
-39073445.87304,-495051069.77625,20679650.50557,  -0.00098,  -0.00302,   0.00032,478060549.00483,   0.00319,278060557.89725,  -0.00177,  -0.00084,   0.00005,  -8.89242,   1.00000
-36660145.54683,-493988566.86011,20793842.48370,  -0.00097,  -0.00303,   0.00032,478075443.16371,   0.00321,278075447.72056,  -0.00176,  -0.00086,   0.00005,  -4.55686,   1.00000
-34281549.53198,-492932436.75994,20906969.06516,  -0.00095,  -0.00304,   0.00033,478090397.48584,   0.00322,278090400.54927,  -0.00176,  -0.00087,   0.00006,  -3.06342,   1.00000
-31927941.35874,-491878513.79090,21019836.31825,  -0.00094,  -0.00306,   0.00033,478105321.01321,   0.00323,278105324.59822,  -0.00175,  -0.00088,   0.00006,  -3.58501,   1.00000
-29575847.97280,-490816842.16742,21130832.83507,  -0.00092,  -0.00307,   0.00033,478120398.35274,   0.00325,278120403.11804,  -0.00174,  -0.00089,   0.00006,  -4.76530,   1.00000
-27248559.42576,-489757690.28825,21241597.34356,  -0.00091,  -0.00308,   0.00034,478135445.27920,   0.00326,278135450.75888,  -0.00174,  -0.00091,   0.00006,  -5.47968,   1.00000
-24955611.99826,-488706731.33019,21345310.69703,  -0.00089,  -0.00310,   0.00034,478150544.40615,   0.00328,278150550.92138,  -0.00173,  -0.00092,   0.00006,  -6.51523,   1.00000
-22644523.71477,-487638183.51855,21454837.01342,  -0.00088,  -0.00311,   0.00034,478165628.37833,   0.00329,278165629.13548,  -0.00173,  -0.00093,   0.00006,  -0.75715,   1.00000
-20398951.40050,-486592162.82968,21562611.42764,  -0.00086,  -0.00312,   0.00035,478180843.29970,   0.00331,278180847.00433,  -0.00172,  -0.00095,   0.00007,  -3.70462,   1.00000
-18134868.75215,-485530220.85697,21664097.97754,  -0.00085,  -0.00313,   0.00035,478196028.23860,   0.00332,278196032.96764,  -0.00171,  -0.00096,   0.00007,  -4.72904,   1.00000
-15915053.04886,-484480715.37138,21769897.51079,  -0.00084,  -0.00315,   0.00035,478211356.52232,   0.00334,278211364.12309,  -0.00171,  -0.00097,   0.00007,  -7.60077,   1.00000
-13719007.29045,-483435564.36552,21869521.34011,  -0.00082,  -0.00316,   0.00036,478226649.10415,   0.00335,278226651.47315,  -0.00170,  -0.00099,   0.00007,  -2.36900,   1.00000
-11504155.21966,-482372858.11426,21974992.33176,  -0.00081,  -0.00317,   0.00036,478241914.16383,   0.00337,278241914.67488,  -0.00170,  -0.00100,   0.00007,  -0.51105,   1.00000
-9354645.20943,-481335267.02809,22072747.08993,  -0.00079,  -0.00318,   0.00036,478257301.57986,   0.00338,278257303.74153,  -0.00169,  -0.00101,   0.00008,  -2.16167,   1.00000
-7185976.93986,-480280976.07543,22170327.67962,  -0.00078,  -0.00320,   0.00037,478272659.17475,   0.00340,278272662.96591,  -0.00168,  -0.00103,   0.00008,  -3.79117,   1.00000
-5051062.55013,-479235160.90703,22273084.70504,  -0.00076,  -0.00321,   0.00037,478288068.86159,   0.00341,278288071.89274,  -0.00168,  -0.00104,   0.00008,  -3.03116,   1.00000
-2949598.15427,-478199685.05625,22368921.56489,  -0.00075,  -0.00322,   0.00037,478303510.29935,   0.00342,278303519.66296,  -0.00167,  -0.00105,   0.00008,  -9.36360,   1.00000
-860307.56557,-477163463.53032,22463860.21729,  -0.00074,  -0.00323,   0.00037,478319013.59580,   0.00344,278319016.79429,  -0.00166,  -0.00107,   0.00008,  -3.19849,   1.00000
1206376.78989,-476132466.52172,22552760.90460,  -0.00072,  -0.00325,   0.00038,478334461.70102,   0.00345,278334461.71781,  -0.00166,  -0.00108,   0.00008,  -0.01679,   1.00000
3261007.16721,-475100099.18991,22646852.45288,  -0.00071,  -0.00326,   0.00038,478349958.73803,   0.00347,278349958.95913,  -0.00165,  -0.00109,   0.00009,  -0.22110,   1.00000
5314429.20195,-474061613.79928,22740884.10230,  -0.00069,  -0.00327,   0.00038,478365411.73968,   0.00348,278365415.56198,  -0.00164,  -0.00110,   0.00009,  -3.82230,   1.00000
7324114.56065,-473040039.04533,22827273.05448,  -0.00068,  -0.00328,   0.00039,478380992.32428,   0.00350,278380992.73150,  -0.00164,  -0.00112,   0.00009,  -0.40722,   1.00000
9311724.02882,-472022484.94714,22919788.26276,  -0.00067,  -0.00330,   0.00039,478396517.22950,   0.00351,278396522.28294,  -0.00163,  -0.00113,   0.00009,  -5.05344,   1.00000
11287855.81706,-471005641.91267,23005418.54960,  -0.00065,  -0.00331,   0.00039,478412083.90400,   0.00353,278412091.31645,  -0.00162,  -0.00114,   0.00009,  -7.41245,   1.00000
13242348.39620,-469993814.87895,23091163.98489,  -0.00064,  -0.00332,   0.00040,478427604.99237,   0.00354,278427605.96908,  -0.00162,  -0.00116,   0.00010,  -0.97671,   1.00000
15185472.03813,-468982035.77942,23176111.04308,  -0.00063,  -0.00333,   0.00040,478443161.10149,   0.00356,278443163.27430,  -0.00161,  -0.00117,   0.00010,  -2.17282,   1.00000
17096218.71510,-467981456.78843,23260370.79450,  -0.00061,  -0.00335,   0.00040,478458746.89521,   0.00357,278458751.45051,  -0.00160,  -0.00118,   0.00010,  -4.55529,   1.00000
19006941.25537,-466975040.14558,23344676.30117,  -0.00060,  -0.00336,   0.00041,478474284.39306,   0.00359,278474293.38201,  -0.00160,  -0.00120,   0.00010,  -8.98895,   1.00000
20874446.13685,-465987090.04315,23421455.11119,  -0.00058,  -0.00337,   0.00041,478489944.17704,   0.00360,278489946.11413,  -0.00159,  -0.00121,   0.00010,  -1.93709,   1.00000
22753372.62126,-464986317.49164,23505198.37987,  -0.00057,  -0.00338,   0.00041,478505466.44566,   0.00362,278505469.03686,  -0.00158,  -0.00122,   0.00011,  -2.59119,   1.00000
24589213.69367,-464004368.10379,23581431.82001,  -0.00056,  -0.00340,   0.00041,478521093.98814,   0.00363,278521100.51227,  -0.00157,  -0.00124,   0.00011,  -6.52413,   1.00000
26404692.97833,-463028001.65778,23657905.06099,  -0.00054,  -0.00341,   0.00042,478536665.02187,   0.00365,278536670.08007,  -0.00157,  -0.00125,   0.00011,  -5.05820,   1.00000
28220989.07414,-462045879.65430,23734502.09956,  -0.00053,  -0.00342,   0.00042,478552181.71173,   0.00366,278552189.96034,  -0.00156,  -0.00126,   0.00011,  -8.24861,   1.00000
30005798.95260,-461075859.22884,23810522.08945,  -0.00052,  -0.00343,   0.00042,478567725.98540,   0.00368,278567732.92051,  -0.00155,  -0.00128,   0.00011,  -6.93511,   1.00000
31759449.19512,-460118924.07097,23879947.19705,  -0.00050,  -0.00344,   0.00043,478583290.69092,   0.00369,278583292.54557,  -0.00155,  -0.00129,   0.00012,  -1.85465,   1.00000
33502769.51618,-459162026.95509,23954758.19983,  -0.00049,  -0.00346,   0.00043,478598885.75263,   0.00371,278598891.28765,  -0.00154,  -0.00130,   0.00012,  -5.53503,   1.00000
35238352.63726,-458205175.77381,24024662.13246,  -0.00048,  -0.00347,   0.00043,478614326.29871,   0.00372,278614332.60758,  -0.00153,  -0.00131,   0.00012,  -6.30887,   1.00000
36952290.38698,-457255958.89055,24093091.67715,  -0.00046,  -0.00348,   0.00043,478629888.20126,   0.00374,278629893.07109,  -0.00152,  -0.00133,   0.00012,  -4.86983,   1.00000
38626243.43885,-456324335.88780,24162014.01213,  -0.00045,  -0.00349,   0.00044,478645369.61521,   0.00375,278645370.26968,  -0.00152,  -0.00134,   0.00012,  -0.65447,   1.00000
40311367.29201,-455382105.24777,24230166.46464,  -0.00044,  -0.00350,   0.00044,478660888.64290,   0.00377,278660893.99055,  -0.00151,  -0.00135,   0.00013,  -5.34765,   1.00000
41957010.55107,-454458456.59056,24292803.72212,  -0.00042,  -0.00352,   0.00044,478676319.34043,   0.00378,278676327.39765,  -0.00150,  -0.00137,   0.00013,  -8.05723,   1.00000
43593188.09594,-453536002.36887,24354866.80955,  -0.00041,  -0.00353,   0.00045,478691790.57572,   0.00380,278691790.69886,  -0.00149,  -0.00138,   0.00013,  -0.12314,   1.00000
45211001.01170,-452619620.58949,24417351.83618,  -0.00040,  -0.00354,   0.00045,478707178.65050,   0.00381,278707182.22063,  -0.00149,  -0.00139,   0.00013,  -3.57013,   1.00000
46798771.65126,-451716375.30334,24479430.72629,  -0.00039,  -0.00355,   0.00045,478722579.19411,   0.00383,278722586.11081,  -0.00148,  -0.00140,   0.00013,  -6.91670,   1.00000
48389536.91592,-450808211.96380,24535757.69438,  -0.00037,  -0.00356,   0.00045,478737926.31112,   0.00384,278737927.85589,  -0.00147,  -0.00142,   0.00014,  -1.54477,   1.00000
49950315.51019,-449912490.62368,24597759.66541,  -0.00036,  -0.00357,   0.00046,478753280.34289,   0.00386,278753285.43498,  -0.00147,  -0.00143,   0.00014,  -5.09210,   1.00000
51493649.11646,-449023801.84269,24654187.23644,  -0.00035,  -0.00359,   0.00046,478768557.30351,   0.00387,278768562.76667,  -0.00146,  -0.00144,   0.00014,  -5.46317,   1.00000
53028215.00817,-448136526.51662,24710104.64972,  -0.00034,  -0.00360,   0.00046,478783861.34233,   0.00389,278783866.29287,  -0.00145,  -0.00146,   0.00014,  -4.95054,   1.00000
54524964.69509,-447268385.55178,24760673.75117,  -0.00032,  -0.00361,   0.00046,478799066.74342,   0.00390,278799070.34973,  -0.00144,  -0.00147,   0.00014,  -3.60631,   1.00000
56025210.14046,-446393532.61790,24817646.22478,  -0.00031,  -0.00362,   0.00047,478814210.62563,   0.00392,278814219.80512,  -0.00144,  -0.00148,   0.00015,  -9.17949,   1.00000
57505029.90435,-445528407.14643,24867250.82502,  -0.00030,  -0.00363,   0.00047,478829463.28073,   0.00393,278829473.01137,  -0.00143,  -0.00149,   0.00015,  -9.73064,   1.00000
58959816.95895,-444675136.78488,24912412.71882,  -0.00029,  -0.00364,   0.00047,478844533.10436,   0.00395,278844539.51381,  -0.00142,  -0.00151,   0.00015,  -6.40945,   1.00000
60406284.52541,-443822570.91504,24963185.69773,  -0.00027,  -0.00365,   0.00048,478859632.96339,   0.00396,278859634.23221,  -0.00141,  -0.00152,   0.00015,  -1.26882,   1.00000
61824257.73118,-442984663.03518,25007666.75560,  -0.00026,  -0.00367,   0.00048,478874721.29621,   0.00398,278874727.52088,  -0.00141,  -0.00153,   0.00015,  -6.22467,   1.00000
63238348.94753,-442145460.06791,25053605.20045,  -0.00025,  -0.00368,   0.00048,478889647.96311,   0.00399,278889655.84354,  -0.00140,  -0.00154,   0.00015,  -7.88043,   1.00000
64611726.18804,-441327824.04227,25098490.25994,  -0.00024,  -0.00369,   0.00048,478904665.46177,   0.00400,278904669.77812,  -0.00139,  -0.00155,   0.00016,  -4.31635,   1.00000
66002423.55586,-440497282.93072,25138617.54233,  -0.00022,  -0.00370,   0.00049,478919528.42164,   0.00402,278919532.17807,  -0.00138,  -0.00157,   0.00016,  -3.75642,   1.00000
67344234.48169,-439692310.16047,25184803.16305,  -0.00021,  -0.00371,   0.00049,478934378.07126,   0.00403,278934380.30900,  -0.00138,  -0.00158,   0.00016,  -2.23774,   1.00000
68679089.85734,-438890665.08250,25218531.03498,  -0.00020,  -0.00372,   0.00049,478949232.82914,   0.00405,278949237.67455,  -0.00137,  -0.00159,   0.00016,  -4.84541,   1.00000
69998405.00859,-438094486.31934,25259005.86800,  -0.00019,  -0.00373,   0.00049,478964010.19793,   0.00406,278964015.68723,  -0.00136,  -0.00160,   0.00016,  -5.48930,   1.00000
71302769.41981,-437305428.30766,25294134.82165,  -0.00018,  -0.00374,   0.00050,478978695.18806,   0.00408,278978703.45515,  -0.00135,  -0.00162,   0.00017,  -8.26708,   1.00000
72612592.35488,-436510121.66619,25329774.24831,  -0.00017,  -0.00376,   0.00050,478993318.11547,   0.00409,278993326.67134,  -0.00135,  -0.00163,   0.00017,  -8.55587,   1.00000
73874489.06563,-435741591.50176,25365513.60394,  -0.00015,  -0.00377,   0.00050,479007922.66643,   0.00410,279007925.60501,  -0.00134,  -0.00164,   0.00017,  -2.93859,   1.00000
75142402.65194,-434967570.21412,25395738.12695,  -0.00014,  -0.00378,   0.00050,479022449.01558,   0.00412,279022453.84933,  -0.00133,  -0.00165,   0.00017,  -4.83374,   1.00000
76362743.06279,-434220457.24139,25426112.63395,  -0.00013,  -0.00379,   0.00050,479036951.42959,   0.00413,279036955.70934,  -0.00133,  -0.00166,   0.00017,  -4.27975,   1.00000
77589444.02767,-433467785.26040,25451011.61086,  -0.00012,  -0.00380,   0.00051,479051384.63571,   0.00415,279051385.85278,  -0.00132,  -0.00167,   0.00018,  -1.21707,   1.00000
78801724.68550,-432720495.46076,25482747.28579,  -0.00011,  -0.00381,   0.00051,479065727.83073,   0.00416,279065732.78187,  -0.00131,  -0.00169,   0.00018,  -4.95114,   1.00000
80000197.77680,-431980242.44519,25509226.64868,  -0.00010,  -0.00382,   0.00051,479079981.07963,   0.00417,279079985.51279,  -0.00130,  -0.00170,   0.00018,  -4.43316,   1.00000
81192609.74897,-431242498.29905,25529425.69548,  -0.00009,  -0.00383,   0.00051,479094240.01718,   0.00419,279094248.29644,  -0.00130,  -0.00171,   0.00018,  -8.27926,   1.00000
82350921.28097,-430523679.82187,25550700.79780,  -0.00007,  -0.00384,   0.00052,479108390.37067,   0.00420,279108398.43572,  -0.00129,  -0.00172,   0.00018,  -8.06506,   1.00000
83495712.63063,-429811011.04022,25572824.39437,  -0.00006,  -0.00385,   0.00052,479122451.93157,   0.00422,279122457.84374,  -0.00128,  -0.00173,   0.00019,  -5.91217,   1.00000
84647404.01728,-429091665.41507,25595561.96440,  -0.00005,  -0.00386,   0.00052,479136446.40666,   0.00423,279136449.34544,  -0.00127,  -0.00174,   0.00019,  -2.93878,   1.00000
85752904.07300,-428400461.32664,25612522.50911,  -0.00004,  -0.00387,   0.00052,479150397.48981,   0.00424,279150402.69587,  -0.00127,  -0.00176,   0.00019,  -5.20605,   1.00000
86865850.26931,-427703320.90492,25624100.85481,  -0.00003,  -0.00388,   0.00052,479164275.50828,   0.00426,279164282.07084,  -0.00126,  -0.00177,   0.00019,  -6.56256,   1.00000
87965556.01263,-427011417.93652,25642626.19501,  -0.00002,  -0.00389,   0.00053,479178066.82884,   0.00427,279178074.39836,  -0.00125,  -0.00178,   0.00019,  -7.56952,   1.00000
89039739.15941,-426334887.57376,25655177.73280,  -0.00001,  -0.00390,   0.00053,479191843.76378,   0.00428,279191850.07643,  -0.00125,  -0.00179,   0.00019,  -6.31265,   1.00000
90094248.83256,-425669588.24798,25663686.42628,   0.00000,  -0.00391,   0.00053,479205413.40737,   0.00430,279205421.65272,  -0.00124,  -0.00180,   0.00020,  -8.24534,   1.00000
91143516.04512,-425005892.53344,25672072.28931,   0.00001,  -0.00392,   0.00053,479218996.36543,   0.00431,279219004.75971,  -0.00123,  -0.00181,   0.00020,  -8.39428,   1.00000
92180396.79418,-424348171.31861,25681407.25243,   0.00002,  -0.00393,   0.00053,479232493.57802,   0.00432,279232493.63436,  -0.00122,  -0.00182,   0.00020,  -0.05634,   1.00000
93205273.84962,-423697200.55093,25685656.52909,   0.00003,  -0.00394,   0.00054,479245879.78275,   0.00434,279245882.74251,  -0.00122,  -0.00183,   0.00020,  -2.95976,   1.00000
94218034.91395,-423052134.23073,25690881.84240,   0.00004,  -0.00395,   0.00054,479259169.30521,   0.00435,279259176.93217,  -0.00121,  -0.00184,   0.00020,  -7.62697,   1.00000
95205767.86598,-422421675.09455,25696262.33921,   0.00005,  -0.00396,   0.00054,479272452.22301,   0.00436,279272456.50868,  -0.00120,  -0.00185,   0.00021,  -4.28567,   1.00000
96181946.96554,-421797893.28599,25696587.88872,   0.00006,  -0.00397,   0.00054,479285631.11381,   0.00437,279285634.92949,  -0.00120,  -0.00186,   0.00021,  -3.81568,   1.00000
97159536.25985,-421171144.68937,25698735.67804,   0.00007,  -0.00398,   0.00054,479298630.03725,   0.00439,279298636.62805,  -0.00119,  -0.00188,   0.00021,  -6.59081,   1.00000
98112681.11477,-420559827.92123,25695032.16739,   0.00008,  -0.00399,   0.00054,479311614.06483,   0.00440,279311617.14013,  -0.00118,  -0.00189,   0.00021,  -3.07530,   1.00000
99054399.11410,-419954271.67799,25692358.78954,   0.00009,  -0.00400,   0.00055,479324497.83150,   0.00441,279324500.78237,  -0.00118,  -0.00190,   0.00021,  -2.95087,   1.00000
