# sigma_xx, sigma_yy, sigma_xy, epsilon_xx, epsilon_yy, epsilon_xy, vonMises, epsPlastic, hardening, epsilonP__xx, epsilonP__yy, epsilonP__xy, yieldValue, iteration
   0.00000,   0.00000,   0.00000,   0.00000,   0.00000,   0.00000,1181185.37500,   0.00000,274640576.00000,   0.00000,   0.00000,   0.00000,-473459392.00000,   0.00000
   0.00000,   0.00000,   0.00000,   0.00000,   0.00000,   0.00000,1181185.37500,   0.00000,274640576.00000,   0.00000,   0.00000,   0.00000,-473459392.00000,   0.00000
-2472271.32545,-1268480.50942,832528.22791,  -0.00001,  -0.00000,   0.00001,2182308.75000,   0.00000,274640576.00000,   0.00000,   0.00000,   0.00000,-472458272.00000,   0.00000
-4936104.86481,-2517272.85128,1665056.45582,  -0.00002,  -0.00000,   0.00002,4756611.50000,   0.00000,274640576.00000,   0.00000,   0.00000,   0.00000,-469883968.00000,   0.00000
-7399938.40416,-3766065.19315,2497584.68373,  -0.00003,  -0.00000,   0.00003,7345136.00000,   0.00000,274640576.00000,   0.00000,   0.00000,   0.00000,-467295440.00000,   0.00000
-9852521.56206,-5026107.91647,3324487.72091,  -0.00004,  -0.00000,   0.00004,9885823.00000,   0.00000,274640576.00000,   0.00000,   0.00000,   0.00000,-464754752.00000,   0.00000
-12296666.93386,-6266462.47224,4157015.94882,  -0.00004,  -0.00000,   0.00005,12455609.00000,   0.00000,274640576.00000,   0.00000,   0.00000,   0.00000,-462184960.00000,   0.00000
-14721124.13812,-7498379.24192,4983918.98600,  -0.00005,  -0.00001,   0.00006,15034857.00000,   0.00000,274640576.00000,   0.00000,   0.00000,   0.00000,-459605712.00000,   0.00000
-17145581.34237,-8730296.01160,5810822.02318,  -0.00006,  -0.00001,   0.00008,17618982.00000,   0.00000,274640576.00000,   0.00000,   0.00000,   0.00000,-457021600.00000,   0.00000
-19541912.59297,-9934086.82763,6637725.06037,  -0.00007,  -0.00001,   0.00009,20178872.00000,   0.00000,274640576.00000,   0.00000,   0.00000,   0.00000,-454461696.00000,   0.00000
-21946681.62967,-11157565.81122,7459002.90682,  -0.00008,  -0.00001,   0.00010,22728550.00000,   0.00000,274640576.00000,   0.00000,   0.00000,   0.00000,-451912032.00000,   0.00000
-24331762.49882,-12372607.00871,8285905.94400,  -0.00009,  -0.00001,   0.00011,25253110.00000,   0.00000,274640576.00000,   0.00000,   0.00000,   0.00000,-449387472.00000,   0.00000
-26708405.58188,-13567960.03865,9107183.79045,  -0.00010,  -0.00001,   0.00012,27745328.00000,   0.00000,274640576.00000,   0.00000,   0.00000,   0.00000,-446895248.00000,   0.00000
-29085048.66493,-14763313.06858,9928461.63690,  -0.00010,  -0.00001,   0.00013,30219064.00000,   0.00000,274640576.00000,   0.00000,   0.00000,   0.00000,-444421504.00000,   0.00000
-31442003.58043,-15950228.31243,10749739.48335,  -0.00011,  -0.00001,   0.00014,32666022.00000,   0.00000,274640576.00000,   0.00000,   0.00000,   0.00000,-441974560.00000,   0.00000
-33798958.49594,-17137143.55627,11571017.32981,  -0.00012,  -0.00001,   0.00015,35107496.00000,   0.00000,274640576.00000,   0.00000,   0.00000,   0.00000,-439533088.00000,   0.00000
-36136225.24389,-18315621.01403,12392295.17626,  -0.00013,  -0.00001,   0.00016,37537380.00000,   0.00000,274640576.00000,   0.00000,   0.00000,   0.00000,-437103200.00000,   0.00000
-38473491.99184,-19494098.47178,13207947.83198,  -0.00014,  -0.00001,   0.00017,39970892.00000,   0.00000,274640576.00000,   0.00000,   0.00000,   0.00000,-434669680.00000,   0.00000
-40810758.73979,-20672575.92953,14023600.48770,  -0.00015,  -0.00001,   0.00018,42417888.00000,   0.00000,274640576.00000,   0.00000,   0.00000,   0.00000,-432222688.00000,   0.00000
-43119899.53409,-21822927.43363,14839253.14343,  -0.00015,  -0.00002,   0.00019,44859356.00000,   0.00000,274640576.00000,   0.00000,   0.00000,   0.00000,-429781216.00000,   0.00000
-45437478.11449,-22992967.10529,15654905.79915,  -0.00016,  -0.00002,   0.00020,47322304.00000,   0.00000,274640576.00000,   0.00000,   0.00000,   0.00000,-427318272.00000,   0.00000
-47726930.74125,-24134880.82330,16470558.45487,  -0.00017,  -0.00002,   0.00021,49776600.00000,   0.00000,274640576.00000,   0.00000,   0.00000,   0.00000,-424863968.00000,   0.00000
-50016383.36800,-25276794.54131,17280585.91987,  -0.00018,  -0.00002,   0.00022,52234508.00000,   0.00000,274640576.00000,   0.00000,   0.00000,   0.00000,-422406064.00000,   0.00000
-52286147.82720,-26410270.47323,18090613.38486,  -0.00019,  -0.00002,   0.00024,54682940.00000,   0.00000,274640576.00000,   0.00000,   0.00000,   0.00000,-419957632.00000,   0.00000
-54555912.28640,-27543746.40515,18900640.84985,  -0.00019,  -0.00002,   0.00025,57132360.00000,   0.00000,274640576.00000,   0.00000,   0.00000,   0.00000,-417508224.00000,   0.00000
-56825676.74560,-28677222.33707,19710668.31485,  -0.00020,  -0.00002,   0.00026,59579164.00000,   0.00000,274640576.00000,   0.00000,   0.00000,   0.00000,-415061408.00000,   0.00000
-59075753.03725,-29802260.48289,20520695.77984,  -0.00021,  -0.00002,   0.00027,62006704.00000,   0.00000,274640576.00000,   0.00000,   0.00000,   0.00000,-412633872.00000,   0.00000
-61317391.54281,-30907610.46117,21325098.05411,  -0.00022,  -0.00002,   0.00028,64415732.00000,   0.00000,274640576.00000,   0.00000,   0.00000,   0.00000,-410224848.00000,   0.00000
-63547779.66690,-32024210.82090,22135125.51910,  -0.00023,  -0.00002,   0.00029,66815288.00000,   0.00000,274640576.00000,   0.00000,   0.00000,   0.00000,-407825280.00000,   0.00000
-65769730.00491,-33121123.01308,22939527.79336,  -0.00023,  -0.00002,   0.00030,69195984.00000,   0.00000,274640576.00000,   0.00000,   0.00000,   0.00000,-405444592.00000,   0.00000
-67991680.34291,-34218035.20526,23743930.06763,  -0.00024,  -0.00002,   0.00031,71570616.00000,   0.00000,274640576.00000,   0.00000,   0.00000,   0.00000,-403069952.00000,   0.00000
-70193942.51336,-35306509.61134,24542707.15116,  -0.00025,  -0.00002,   0.00032,73921104.00000,   0.00000,274640576.00000,   0.00000,   0.00000,   0.00000,-400719472.00000,   0.00000
-72376516.51626,-36386546.23133,25347109.42543,  -0.00026,  -0.00002,   0.00033,76260160.00000,   0.00000,274640576.00000,   0.00000,   0.00000,   0.00000,-398380416.00000,   0.00000
-74570340.90062,-37455332.46987,26145886.50896,  -0.00027,  -0.00003,   0.00034,78600040.00000,   0.00000,274640576.00000,   0.00000,   0.00000,   0.00000,-396040544.00000,   0.00000
-76752914.90352,-38535369.08986,26944663.59250,  -0.00027,  -0.00003,   0.00035,80932088.00000,   0.00000,274640576.00000,   0.00000,   0.00000,   0.00000,-393708480.00000,   0.00000
-78907362.95278,-39587279.75620,27743440.67604,  -0.00028,  -0.00003,   0.00036,83245680.00000,   0.00000,274640576.00000,   0.00000,   0.00000,   0.00000,-391394896.00000,   0.00000
-81070248.78812,-40658878.59010,28542217.75957,  -0.00029,  -0.00003,   0.00037,85567440.00000,   0.00000,274640576.00000,   0.00000,   0.00000,   0.00000,-389073136.00000,   0.00000
-83224696.83738,-41710789.25645,29340994.84311,  -0.00030,  -0.00003,   0.00038,87886176.00000,   0.00000,274640576.00000,   0.00000,   0.00000,   0.00000,-386754400.00000,   0.00000
-85359456.71908,-42754262.13670,30134146.73591,  -0.00031,  -0.00003,   0.00039,90188360.00000,   0.00000,274640576.00000,   0.00000,   0.00000,   0.00000,-384452224.00000,   0.00000
-87494216.60078,-43797735.01695,30927298.62872,  -0.00031,  -0.00003,   0.00040,92493392.00000,   0.00000,274640576.00000,   0.00000,   0.00000,   0.00000,-382147184.00000,   0.00000
-89620538.69639,-44821519.72965,31720450.52153,  -0.00032,  -0.00003,   0.00041,94794920.00000,   0.00000,274640576.00000,   0.00000,   0.00000,   0.00000,-379845664.00000,   0.00000
-91735610.41054,-45856554.82381,32513602.41433,  -0.00033,  -0.00003,   0.00042,97090320.00000,   0.00000,274640576.00000,   0.00000,   0.00000,   0.00000,-377550256.00000,   0.00000
-93822556.17105,-46863463.96433,33301129.11641,  -0.00034,  -0.00003,   0.00043,99361008.00000,   0.00000,274640576.00000,   0.00000,   0.00000,   0.00000,-375279568.00000,   0.00000
-95937627.88520,-47898499.05848,34094281.00922,  -0.00034,  -0.00003,   0.00044,101657400.00000,   0.00000,274640576.00000,   0.00000,   0.00000,   0.00000,-372983168.00000,   0.00000
-98004885.47815,-48896970.41290,34881807.71129,  -0.00035,  -0.00003,   0.00045,103913512.00000,   0.00000,274640576.00000,   0.00000,   0.00000,   0.00000,-370727072.00000,   0.00000
-100091831.23865,-49903879.55342,35669334.41337,  -0.00036,  -0.00003,   0.00046,106182216.00000,   0.00000,274640576.00000,   0.00000,   0.00000,   0.00000,-368458368.00000,   0.00000
-102150651.04551,-50882662.74028,36456861.11545,  -0.00037,  -0.00003,   0.00047,108429080.00000,   0.00000,274640576.00000,   0.00000,   0.00000,   0.00000,-366211488.00000,   0.00000
-104217908.63846,-51881134.09470,37238762.62680,  -0.00037,  -0.00003,   0.00048,110674216.00000,   0.00000,274640576.00000,   0.00000,   0.00000,   0.00000,-363966368.00000,   0.00000
-106257040.27777,-52851479.49548,38026289.32887,  -0.00038,  -0.00003,   0.00049,112903112.00000,   0.00000,274640576.00000,   0.00000,   0.00000,   0.00000,-361737472.00000,   0.00000
-108304609.70317,-53841513.06380,38808190.84022,  -0.00039,  -0.00003,   0.00050,115130688.00000,   0.00000,274640576.00000,   0.00000,   0.00000,   0.00000,-359509888.00000,   0.00000
-110324053.17493,-54803420.67848,39590092.35157,  -0.00040,  -0.00003,   0.00051,117337464.00000,   0.00000,274640576.00000,   0.00000,   0.00000,   0.00000,-357303104.00000,   0.00000
-112343496.64668,-55765328.29316,40371993.86292,  -0.00040,  -0.00003,   0.00052,119544280.00000,   0.00000,274640576.00000,   0.00000,   0.00000,   0.00000,-355096288.00000,   0.00000
-114362940.11844,-56727235.90784,41148270.18354,  -0.00041,  -0.00004,   0.00053,121746392.00000,   0.00000,274640576.00000,   0.00000,   0.00000,   0.00000,-352894176.00000,   0.00000
-116362695.42264,-57680705.73643,41930171.69488,  -0.00042,  -0.00004,   0.00055,123942544.00000,   0.00000,274640576.00000,   0.00000,   0.00000,   0.00000,-350698032.00000,   0.00000
-118354012.94075,-58614487.39746,42706448.01550,  -0.00042,  -0.00004,   0.00056,126129944.00000,   0.00000,274640576.00000,   0.00000,   0.00000,   0.00000,-348510624.00000,   0.00000
-120353768.24495,-59567957.22605,43482724.33612,  -0.00043,  -0.00004,   0.00057,128327136.00000,   0.00000,274640576.00000,   0.00000,   0.00000,   0.00000,-346313440.00000,   0.00000
-122325397.59551,-60493301.10099,44253375.46601,  -0.00044,  -0.00004,   0.00058,130502216.00000,   0.00000,274640576.00000,   0.00000,   0.00000,   0.00000,-344138368.00000,   0.00000
-124297026.94607,-61418644.97593,45029651.78663,  -0.00045,  -0.00004,   0.00059,132685752.00000,   0.00000,274640576.00000,   0.00000,   0.00000,   0.00000,-341954816.00000,   0.00000
-126248968.12908,-62335551.06478,45800302.91652,  -0.00045,  -0.00004,   0.00060,134850896.00000,   0.00000,274640576.00000,   0.00000,   0.00000,   0.00000,-339789680.00000,   0.00000
-128200909.31208,-63252457.15363,46576579.23714,  -0.00046,  -0.00004,   0.00061,137021376.00000,   0.00000,274640576.00000,   0.00000,   0.00000,   0.00000,-337619200.00000,   0.00000
-130144412.70899,-64149675.07492,47347230.36703,  -0.00047,  -0.00004,   0.00062,139177648.00000,   0.00000,274640576.00000,   0.00000,   0.00000,   0.00000,-335462928.00000,   0.00000
-132076665.72445,-65058143.37767,48112256.30619,  -0.00047,  -0.00004,   0.00063,141316528.00000,   0.00000,274640576.00000,   0.00000,   0.00000,   0.00000,-333324048.00000,   0.00000
-134000480.95381,-65946923.51288,48882907.43608,  -0.00048,  -0.00004,   0.00064,143450336.00000,   0.00000,274640576.00000,   0.00000,   0.00000,   0.00000,-331190240.00000,   0.00000
-135904608.01562,-66827265.86198,49647933.37524,  -0.00049,  -0.00004,   0.00065,145559968.00000,   0.00000,274640576.00000,   0.00000,   0.00000,   0.00000,-329080608.00000,   0.00000
-137808735.07742,-67707608.21109,50412959.31440,  -0.00049,  -0.00004,   0.00066,147665312.00000,   0.00000,274640576.00000,   0.00000,   0.00000,   0.00000,-326975264.00000,   0.00000
-139712862.13923,-68587950.56020,51177985.25356,  -0.00050,  -0.00004,   0.00067,149767424.00000,   0.00000,274640576.00000,   0.00000,   0.00000,   0.00000,-324873152.00000,   0.00000
-141588863.24739,-69440166.95566,51943011.19272,  -0.00051,  -0.00004,   0.00068,151848112.00000,   0.00000,274640576.00000,   0.00000,   0.00000,   0.00000,-322792464.00000,   0.00000
-143473302.14165,-70312071.51867,52708037.13188,  -0.00052,  -0.00004,   0.00069,153933536.00000,   0.00000,274640576.00000,   0.00000,   0.00000,   0.00000,-320707040.00000,   0.00000
-145349303.24981,-71164287.91414,53467437.88032,  -0.00052,  -0.00004,   0.00070,156007856.00000,   0.00000,274640576.00000,   0.00000,   0.00000,   0.00000,-318632720.00000,   0.00000
-147205616.19042,-72008066.52351,54226838.62875,  -0.00053,  -0.00004,   0.00070,158069840.00000,   0.00000,274640576.00000,   0.00000,   0.00000,   0.00000,-316570736.00000,   0.00000
-149061929.13103,-72851845.13287,54986239.37718,  -0.00054,  -0.00004,   0.00071,160133632.00000,   0.00000,274640576.00000,   0.00000,   0.00000,   0.00000,-314506944.00000,   0.00000
-150898553.90409,-73687185.95615,55745640.12561,  -0.00054,  -0.00004,   0.00072,162186336.00000,   0.00000,274640576.00000,   0.00000,   0.00000,   0.00000,-312454240.00000,   0.00000
-152726740.89106,-74502838.61187,56499415.68331,  -0.00055,  -0.00004,   0.00073,164230448.00000,   0.00000,274640576.00000,   0.00000,   0.00000,   0.00000,-310410128.00000,   0.00000
-154563365.66412,-75338179.43515,57258816.43174,  -0.00056,  -0.00004,   0.00074,166289184.00000,   0.00000,274640576.00000,   0.00000,   0.00000,   0.00000,-308351392.00000,   0.00000
-156371864.48353,-76145394.30478,58012591.98945,  -0.00056,  -0.00004,   0.00075,168326064.00000,   0.00000,274640576.00000,   0.00000,   0.00000,   0.00000,-306314512.00000,   0.00000
-158180363.30294,-76952609.17440,58766367.54715,  -0.00057,  -0.00004,   0.00076,170366112.00000,   0.00000,274640576.00000,   0.00000,   0.00000,   0.00000,-304274464.00000,   0.00000
-159969173.95480,-77751386.25794,59520143.10485,  -0.00058,  -0.00004,   0.00077,172395360.00000,   0.00000,274640576.00000,   0.00000,   0.00000,   0.00000,-302245216.00000,   0.00000
-161749546.82057,-78530475.17392,60268293.47183,  -0.00058,  -0.00004,   0.00078,174415952.00000,   0.00000,274640576.00000,   0.00000,   0.00000,   0.00000,-300224624.00000,   0.00000
-163538357.47243,-79329252.25746,61022069.02953,  -0.00059,  -0.00004,   0.00079,176450272.00000,   0.00000,274640576.00000,   0.00000,   0.00000,   0.00000,-298190304.00000,   0.00000
-165299042.17065,-80099903.38735,61770219.39650,  -0.00060,  -0.00004,   0.00080,178460592.00000,   0.00000,274640576.00000,   0.00000,   0.00000,   0.00000,-296179984.00000,   0.00000
-167059726.86886,-80870554.51724,62518369.76347,  -0.00060,  -0.00004,   0.00081,180471376.00000,   0.00000,274640576.00000,   0.00000,   0.00000,   0.00000,-294169200.00000,   0.00000
-168820411.56708,-81641205.64713,63260894.93972,  -0.00061,  -0.00004,   0.00082,182475872.00000,   0.00000,274640576.00000,   0.00000,   0.00000,   0.00000,-292164704.00000,   0.00000
-170561408.09774,-82403418.99093,64009045.30669,  -0.00062,  -0.00004,   0.00083,184471360.00000,   0.00000,274640576.00000,   0.00000,   0.00000,   0.00000,-290169216.00000,   0.00000
-172302404.62841,-83165632.33472,64751570.48294,  -0.00062,  -0.00004,   0.00084,186459888.00000,   0.00000,274640576.00000,   0.00000,   0.00000,   0.00000,-288180688.00000,   0.00000
-174034963.37298,-83908157.51097,65494095.65918,  -0.00063,  -0.00004,   0.00085,188442768.00000,   0.00000,274640576.00000,   0.00000,   0.00000,   0.00000,-286197808.00000,   0.00000
-175747833.94999,-84642244.90112,66236620.83543,  -0.00063,  -0.00004,   0.00086,190413904.00000,   0.00000,274640576.00000,   0.00000,   0.00000,   0.00000,-284226672.00000,   0.00000
-177469142.31311,-85396020.45882,66979146.01167,  -0.00064,  -0.00004,   0.00087,192393872.00000,   0.00000,274640576.00000,   0.00000,   0.00000,   0.00000,-282246704.00000,   0.00000
-179153886.93648,-86101981.89532,67716045.99718,  -0.00065,  -0.00004,   0.00088,194344752.00000,   0.00000,274640576.00000,   0.00000,   0.00000,   0.00000,-280295824.00000,   0.00000
-180847069.34595,-86827631.49938,68458571.17343,  -0.00065,  -0.00004,   0.00089,196302784.00000,   0.00000,274640576.00000,   0.00000,   0.00000,   0.00000,-278337792.00000,   0.00000
-182540251.75541,-87553281.10344,69195471.15894,  -0.00066,  -0.00004,   0.00090,198241600.00000,   0.00000,274640576.00000,   0.00000,   0.00000,   0.00000,-276398976.00000,   0.00000
-184205308.21123,-88250804.75385,69932371.14446,  -0.00067,  -0.00004,   0.00091,200145296.00000,   0.00000,274640576.00000,   0.00000,   0.00000,   0.00000,-274495280.00000,   0.00000
-185870364.66705,-88948328.40426,70669271.12997,  -0.00067,  -0.00004,   0.00092,202041344.00000,   0.00000,274640576.00000,   0.00000,   0.00000,   0.00000,-272599232.00000,   0.00000
-187535421.12287,-89645852.05467,71400545.92476,  -0.00068,  -0.00004,   0.00093,203937072.00000,   0.00000,274640576.00000,   0.00000,   0.00000,   0.00000,-270703504.00000,   0.00000
-189180789.41114,-90334937.91899,72131820.71955,  -0.00068,  -0.00004,   0.00094,205832816.00000,   0.00000,274640576.00000,   0.00000,   0.00000,   0.00000,-268807760.00000,   0.00000
-190826157.69941,-91024023.78331,72863095.51433,  -0.00069,  -0.00004,   0.00095,207742448.00000,   0.00000,274640576.00000,   0.00000,   0.00000,   0.00000,-266898128.00000,   0.00000
-192443400.03403,-91684983.69398,73594370.30912,  -0.00070,  -0.00004,   0.00096,209643056.00000,   0.00000,274640576.00000,   0.00000,   0.00000,   0.00000,-264997520.00000,   0.00000
-194080330.53621,-92354381.39074,74325645.10390,  -0.00070,  -0.00004,   0.00097,211563104.00000,   0.00000,274640576.00000,   0.00000,   0.00000,   0.00000,-263077472.00000,   0.00000
-195677884.70328,-93006903.51532,75056919.89869,  -0.00071,  -0.00004,   0.00098,213457952.00000,   0.00000,274640576.00000,   0.00000,   0.00000,   0.00000,-261182624.00000,   0.00000
-197295127.03790,-93667863.42599,75782569.50275,  -0.00072,  -0.00004,   0.00099,215360128.00000,   0.00000,274640576.00000,   0.00000,   0.00000,   0.00000,-259280448.00000,   0.00000
-198892681.20497,-94320385.55057,76508219.10680,  -0.00072,  -0.00004,   0.00099,217246352.00000,   0.00000,274640576.00000,   0.00000,   0.00000,   0.00000,-257394224.00000,   0.00000
-200462109.41840,-94944781.72151,77233868.71086,  -0.00073,  -0.00004,   0.00100,219109552.00000,   0.00000,274640576.00000,   0.00000,   0.00000,   0.00000,-255531024.00000,   0.00000
-202059663.58547,-95597303.84608,77959518.31492,  -0.00073,  -0.00004,   0.00101,220987408.00000,   0.00000,274640576.00000,   0.00000,   0.00000,   0.00000,-253653168.00000,   0.00000
-203629091.79889,-96221700.01702,78679542.72825,  -0.00074,  -0.00004,   0.00102,222835408.00000,   0.00000,274640576.00000,   0.00000,   0.00000,   0.00000,-251805168.00000,   0.00000
-205178831.84477,-96837658.40186,79399567.14157,  -0.00074,  -0.00004,   0.00103,224665360.00000,   0.00000,274640576.00000,   0.00000,   0.00000,   0.00000,-249975216.00000,   0.00000
-206748260.05819,-97462054.57279,80125216.74563,  -0.00075,  -0.00004,   0.00104,226511408.00000,   0.00000,274640576.00000,   0.00000,   0.00000,   0.00000,-248129168.00000,   0.00000
-208289562.31797,-98058324.79007,80839615.96823,  -0.00076,  -0.00004,   0.00105,228324400.00000,   0.00000,274640576.00000,   0.00000,   0.00000,   0.00000,-246316176.00000,   0.00000
-209811176.41020,-98646157.22127,81559640.38156,  -0.00076,  -0.00004,   0.00106,230128864.00000,   0.00000,274640576.00000,   0.00000,   0.00000,   0.00000,-244511712.00000,   0.00000
-211341228.28852,-99253677.82001,82279664.79488,  -0.00077,  -0.00004,   0.00107,231938656.00000,   0.00000,274640576.00000,   0.00000,   0.00000,   0.00000,-242701920.00000,   0.00000
-212862842.38075,-99841510.25121,82994064.01748,  -0.00077,  -0.00004,   0.00108,233737648.00000,   0.00000,274640576.00000,   0.00000,   0.00000,   0.00000,-240902928.00000,   0.00000
-214376018.68688,-100409654.51485,83708463.24008,  -0.00078,  -0.00004,   0.00109,235532416.00000,   0.00000,274640576.00000,   0.00000,   0.00000,   0.00000,-239108160.00000,   0.00000
-215877944.61156,-100989049.15995,84422862.46268,  -0.00079,  -0.00004,   0.00110,237320144.00000,   0.00000,274640576.00000,   0.00000,   0.00000,   0.00000,-237320432.00000,   0.00000
-217351744.58259,-101540317.85140,85137261.68528,  -0.00079,  -0.00004,   0.00111,239090208.00000,   0.00000,274640576.00000,   0.00000,   0.00000,   0.00000,-235550368.00000,   0.00000
-218853670.50727,-102119712.49650,85846035.71715,  -0.00080,  -0.00004,   0.00112,240874096.00000,   0.00000,274640576.00000,   0.00000,   0.00000,   0.00000,-233766480.00000,   0.00000
-220327470.47830,-102670981.18796,86560434.93975,  -0.00080,  -0.00004,   0.00113,242646144.00000,   0.00000,274640576.00000,   0.00000,   0.00000,   0.00000,-231994432.00000,   0.00000
-221773144.49568,-103194123.92576,87269208.97162,  -0.00081,  -0.00004,   0.00113,244394208.00000,   0.00000,274640576.00000,   0.00000,   0.00000,   0.00000,-230246368.00000,   0.00000
-223246944.46671,-103745392.61722,87977983.00349,  -0.00081,  -0.00004,   0.00114,246162016.00000,   0.00000,274640576.00000,   0.00000,   0.00000,   0.00000,-228478560.00000,   0.00000
-224701056.27019,-104288223.52258,88681131.84463,  -0.00082,  -0.00004,   0.00115,247911536.00000,   0.00000,274640576.00000,   0.00000,   0.00000,   0.00000,-226729040.00000,   0.00000
-226127042.12002,-104802928.47429,89389905.87650,  -0.00082,  -0.00004,   0.00116,249649472.00000,   0.00000,274640576.00000,   0.00000,   0.00000,   0.00000,-224991104.00000,   0.00000
-227572716.13741,-105326071.21210,90093054.71764,  -0.00083,  -0.00004,   0.00117,251396288.00000,   0.00000,274640576.00000,   0.00000,   0.00000,   0.00000,-223244288.00000,   0.00000
-228998701.98724,-105840776.16382,90796203.55878,  -0.00084,  -0.00004,   0.00118,253131280.00000,   0.00000,274640576.00000,   0.00000,   0.00000,   0.00000,-221509296.00000,   0.00000
-230396561.88343,-106327355.16189,91499352.39992,  -0.00084,  -0.00003,   0.00119,254849456.00000,   0.00000,274640576.00000,   0.00000,   0.00000,   0.00000,-219791120.00000,   0.00000
-231802859.56571,-106833622.32751,92202501.24106,  -0.00085,  -0.00003,   0.00120,256575216.00000,   0.00000,274640576.00000,   0.00000,   0.00000,   0.00000,-218065360.00000,   0.00000
-233200719.46189,-107320201.32558,92905650.08220,  -0.00085,  -0.00003,   0.00121,258297616.00000,   0.00000,274640576.00000,   0.00000,   0.00000,   0.00000,-216342960.00000,   0.00000
-234598579.35808,-107806780.32365,93603173.73261,  -0.00086,  -0.00003,   0.00122,260015968.00000,   0.00000,274640576.00000,   0.00000,   0.00000,   0.00000,-214624608.00000,   0.00000
-235976751.08672,-108284921.53562,94300697.38302,  -0.00086,  -0.00003,   0.00123,261722928.00000,   0.00000,274640576.00000,   0.00000,   0.00000,   0.00000,-212917648.00000,   0.00000
-237354922.81535,-108763062.74760,94998221.03343,  -0.00087,  -0.00003,   0.00123,263431456.00000,   0.00000,274640576.00000,   0.00000,   0.00000,   0.00000,-211209120.00000,   0.00000
-238704968.59034,-109213078.00593,95695744.68384,  -0.00087,  -0.00003,   0.00124,265122400.00000,   0.00000,274640576.00000,   0.00000,   0.00000,   0.00000,-209518176.00000,   0.00000
-240063452.15142,-109682781.43181,96387643.14353,  -0.00088,  -0.00003,   0.00125,266813392.00000,   0.00000,274640576.00000,   0.00000,   0.00000,   0.00000,-207827184.00000,   0.00000
-241413497.92641,-110132796.69014,97085166.79394,  -0.00088,  -0.00003,   0.00126,268505472.00000,   0.00000,274640576.00000,   0.00000,   0.00000,   0.00000,-206135104.00000,   0.00000
-242743855.53385,-110574374.16237,97777065.25362,  -0.00089,  -0.00003,   0.00127,270177760.00000,   0.00000,274640576.00000,   0.00000,   0.00000,   0.00000,-204462816.00000,   0.00000
-244065775.35520,-110996263.46706,98468963.71330,  -0.00089,  -0.00003,   0.00128,271843840.00000,   0.00000,274640576.00000,   0.00000,   0.00000,   0.00000,-202796736.00000,   0.00000
-245396132.96263,-111437840.93929,99160862.17298,  -0.00090,  -0.00003,   0.00129,273513952.00000,   0.00000,274640576.00000,   0.00000,   0.00000,   0.00000,-201126624.00000,   0.00000
-246698364.61643,-111851292.45788,99847135.44194,  -0.00090,  -0.00003,   0.00130,275157440.00000,   0.00000,274640576.00000,   0.00000,   0.00000,   0.00000,-199483136.00000,   0.00000
-248000596.27022,-112264743.97648,100539033.90162,  -0.00091,  -0.00003,   0.00131,276804992.00000,   0.00000,274640576.00000,   0.00000,   0.00000,   0.00000,-197835584.00000,   0.00000
-249302827.92401,-112678195.49507,101225307.17057,  -0.00091,  -0.00003,   0.00132,278443808.00000,   0.00000,274640576.00000,   0.00000,   0.00000,   0.00000,-196196768.00000,   0.00000
-250585371.41025,-113083209.22756,101911580.43952,  -0.00092,  -0.00003,   0.00132,280066528.00000,   0.00000,274640576.00000,   0.00000,   0.00000,   0.00000,-194574048.00000,   0.00000
-251867914.89649,-113488222.96006,102597853.70848,  -0.00092,  -0.00003,   0.00133,281686304.00000,   0.00000,274640576.00000,   0.00000,   0.00000,   0.00000,-192954272.00000,   0.00000
-253142020.59664,-113873548.52500,103278501.78670,  -0.00093,  -0.00002,   0.00134,283291680.00000,   0.00000,274640576.00000,   0.00000,   0.00000,   0.00000,-191348896.00000,   0.00000
-254396438.12923,-114250436.30386,103964775.05565,  -0.00093,  -0.00002,   0.00135,284887008.00000,   0.00000,274640576.00000,   0.00000,   0.00000,   0.00000,-189753568.00000,   0.00000
-255650855.66182,-114627324.08271,104645423.13388,  -0.00094,  -0.00002,   0.00136,286473088.00000,   0.00000,274640576.00000,   0.00000,   0.00000,   0.00000,-188167488.00000,   0.00000
-256905273.19442,-115004211.86156,105326071.21210,  -0.00094,  -0.00002,   0.00137,288056480.00000,   0.00000,274640576.00000,   0.00000,   0.00000,   0.00000,-186584096.00000,   0.00000
-258131564.77337,-115352973.68676,106006719.29033,  -0.00095,  -0.00002,   0.00138,289619168.00000,   0.00000,274640576.00000,   0.00000,   0.00000,   0.00000,-185021408.00000,   0.00000
-259366294.13841,-115721423.67952,106687367.36855,  -0.00095,  -0.00002,   0.00139,291184416.00000,   0.00000,274640576.00000,   0.00000,   0.00000,   0.00000,-183456160.00000,   0.00000
-260572897.54981,-116061747.71863,107362390.25604,  -0.00096,  -0.00002,   0.00140,292724192.00000,   0.00000,274640576.00000,   0.00000,   0.00000,   0.00000,-181916384.00000,   0.00000
-261779500.96120,-116402071.75775,108037413.14354,  -0.00096,  -0.00002,   0.00140,294263168.00000,   0.00000,274640576.00000,   0.00000,   0.00000,   0.00000,-180377408.00000,   0.00000
-262986104.37260,-116742395.79686,108712436.03103,  -0.00097,  -0.00002,   0.00141,295802560.00000,   0.00000,274640576.00000,   0.00000,   0.00000,   0.00000,-178838016.00000,   0.00000
-264184269.99790,-117063031.66842,109387458.91853,  -0.00097,  -0.00002,   0.00142,297339552.00000,   0.00000,274640576.00000,   0.00000,   0.00000,   0.00000,-177301024.00000,   0.00000
-265371185.24175,-117394917.92144,110062481.80602,  -0.00098,  -0.00002,   0.00143,298873696.00000,   0.00000,274640576.00000,   0.00000,   0.00000,   0.00000,-175766880.00000,   0.00000
-266549662.69950,-117707116.00690,110737504.69352,  -0.00098,  -0.00002,   0.00144,300411392.00000,   0.00000,274640576.00000,   0.00000,   0.00000,   0.00000,-174229184.00000,   0.00000
-267708451.98970,-118010876.30627,111406902.39028,  -0.00099,  -0.00001,   0.00145,301939136.00000,   0.00000,274640576.00000,   0.00000,   0.00000,   0.00000,-172701440.00000,   0.00000
-268867241.27990,-118314636.60565,112076300.08705,  -0.00099,  -0.00001,   0.00146,303471360.00000,   0.00000,274640576.00000,   0.00000,   0.00000,   0.00000,-171169216.00000,   0.00000
-270017592.78401,-118598708.73747,112745697.78382,  -0.00100,  -0.00001,   0.00147,304993632.00000,   0.00000,274640576.00000,   0.00000,   0.00000,   0.00000,-169646944.00000,   0.00000
-271156693.90665,-118894031.25075,113415095.48058,  -0.00100,  -0.00001,   0.00147,306499168.00000,   0.00000,274640576.00000,   0.00000,   0.00000,   0.00000,-168141408.00000,   0.00000
-272287357.24321,-119169665.59647,114078867.98662,  -0.00101,  -0.00001,   0.00148,307997760.00000,   0.00000,274640576.00000,   0.00000,   0.00000,   0.00000,-166642816.00000,   0.00000
-273418020.57976,-119445299.94220,114742640.49265,  -0.00101,  -0.00001,   0.00149,309509792.00000,   0.00000,274640576.00000,   0.00000,   0.00000,   0.00000,-165130784.00000,   0.00000
-274528995.74876,-119712496.50183,115412038.18942,  -0.00102,  -0.00001,   0.00150,311021728.00000,   0.00000,274640576.00000,   0.00000,   0.00000,   0.00000,-163618848.00000,   0.00000
-275631533.13167,-119960004.89392,116075810.69546,  -0.00102,  -0.00001,   0.00151,312519072.00000,   0.00000,274640576.00000,   0.00000,   0.00000,   0.00000,-162121504.00000,   0.00000
-276742508.30067,-120227201.45355,116733958.01076,  -0.00102,  -0.00001,   0.00152,314007904.00000,   0.00000,274640576.00000,   0.00000,   0.00000,   0.00000,-160632672.00000,   0.00000
-277825357.51603,-120466272.05954,117397730.51680,  -0.00103,  -0.00001,   0.00153,315479712.00000,   0.00000,274640576.00000,   0.00000,   0.00000,   0.00000,-159160864.00000,   0.00000
-278908206.73138,-120705342.66552,118055877.83211,  -0.00103,  -0.00001,   0.00153,316942656.00000,   0.00000,274640576.00000,   0.00000,   0.00000,   0.00000,-157697920.00000,   0.00000
-279991055.94674,-120944413.27151,118719650.33814,  -0.00104,  -0.00000,   0.00154,318411456.00000,   0.00000,274640576.00000,   0.00000,   0.00000,   0.00000,-156229120.00000,   0.00000
-281054216.99454,-121175046.09141,119377797.65345,  -0.00104,  -0.00000,   0.00155,319861792.00000,   0.00000,274640576.00000,   0.00000,   0.00000,   0.00000,-154778784.00000,   0.00000
-282108940.25626,-121385990.74375,120030319.77803,  -0.00105,  -0.00000,   0.00156,321302848.00000,   0.00000,274640576.00000,   0.00000,   0.00000,   0.00000,-153337728.00000,   0.00000
-283152413.13651,-121608185.77755,120688467.09334,  -0.00105,  -0.00000,   0.00157,322743488.00000,   0.00000,274640576.00000,   0.00000,   0.00000,   0.00000,-151897088.00000,   0.00000
-284187448.23067,-121810692.64380,121346614.40864,  -0.00106,  -0.00000,   0.00158,324181568.00000,   0.00000,274640576.00000,   0.00000,   0.00000,   0.00000,-150459008.00000,   0.00000
-285222483.32483,-122013199.51005,121999136.53322,  -0.00106,   0.00000,   0.00159,325614848.00000,   0.00000,274640576.00000,   0.00000,   0.00000,   0.00000,-149025728.00000,   0.00000
-286249080.63289,-122196018.20874,122651658.65780,  -0.00106,   0.00000,   0.00159,327045248.00000,   0.00000,274640576.00000,   0.00000,   0.00000,   0.00000,-147595328.00000,   0.00000
-287264427.55950,-122390087.28890,123304180.78238,  -0.00107,   0.00000,   0.00160,328468480.00000,   0.00000,274640576.00000,   0.00000,   0.00000,   0.00000,-146172096.00000,   0.00000
-288271336.70001,-122564468.20150,123951077.71623,  -0.00107,   0.00000,   0.00161,329881984.00000,   0.00000,274640576.00000,   0.00000,   0.00000,   0.00000,-144758592.00000,   0.00000
-289258557.67297,-122730411.32801,124603599.84081,  -0.00108,   0.00001,   0.00162,331289888.00000,   0.00000,274640576.00000,   0.00000,   0.00000,   0.00000,-143350688.00000,   0.00000
-290245778.64593,-122896354.45452,125250496.77466,  -0.00108,   0.00001,   0.00163,332692320.00000,   0.00000,274640576.00000,   0.00000,   0.00000,   0.00000,-141948256.00000,   0.00000
-291232999.61889,-123062297.58103,125897393.70851,  -0.00109,   0.00001,   0.00164,334095264.00000,   0.00000,274640576.00000,   0.00000,   0.00000,   0.00000,-140545312.00000,   0.00000
-292200532.42430,-123219802.92144,126544290.64235,  -0.00109,   0.00001,   0.00165,335485792.00000,   0.00000,274640576.00000,   0.00000,   0.00000,   0.00000,-139154784.00000,   0.00000
-293159627.44362,-123357620.09431,127191187.57620,  -0.00109,   0.00001,   0.00165,336872000.00000,   0.00000,274640576.00000,   0.00000,   0.00000,   0.00000,-137768576.00000,   0.00000
-294118722.46293,-123495437.26717,127832459.31932,  -0.00110,   0.00001,   0.00166,338252256.00000,   0.00000,274640576.00000,   0.00000,   0.00000,   0.00000,-136388320.00000,   0.00000
-295058129.31470,-123624816.65394,128479356.25317,  -0.00110,   0.00001,   0.00167,339626144.00000,   0.00000,274640576.00000,   0.00000,   0.00000,   0.00000,-135014432.00000,   0.00000
-295997536.16646,-123754196.04071,129120627.99629,  -0.00111,   0.00001,   0.00168,340993536.00000,   0.00000,274640576.00000,   0.00000,   0.00000,   0.00000,-133647040.00000,   0.00000
-296936943.01822,-123883575.42748,129761899.73941,  -0.00111,   0.00002,   0.00169,342361120.00000,   0.00000,274640576.00000,   0.00000,   0.00000,   0.00000,-132279456.00000,   0.00000
-297848223.91634,-123984828.86060,130403171.48253,  -0.00111,   0.00002,   0.00170,343711424.00000,   0.00000,274640576.00000,   0.00000,   0.00000,   0.00000,-130929152.00000,   0.00000
-298767942.60055,-124105770.46128,131038818.03492,  -0.00112,   0.00002,   0.00170,345059712.00000,   0.00000,274640576.00000,   0.00000,   0.00000,   0.00000,-129580864.00000,   0.00000
-299679223.49867,-124207023.89440,131680089.77804,  -0.00112,   0.00002,   0.00171,346410112.00000,   0.00000,274640576.00000,   0.00000,   0.00000,   0.00000,-128230464.00000,   0.00000
-300570816.22924,-124299839.54143,132315736.33044,  -0.00113,   0.00002,   0.00172,347741248.00000,   0.00000,274640576.00000,   0.00000,   0.00000,   0.00000,-126899328.00000,   0.00000
-301462408.95980,-124392655.18846,132951382.88283,  -0.00113,   0.00002,   0.00173,349072384.00000,   0.00000,274640576.00000,   0.00000,   0.00000,   0.00000,-125568192.00000,   0.00000
-302325875.73672,-124457344.88185,133587029.43522,  -0.00113,   0.00002,   0.00174,350386336.00000,   0.00000,274640576.00000,   0.00000,   0.00000,   0.00000,-124254240.00000,   0.00000
-303209030.68120,-124530472.36133,134222675.98761,  -0.00114,   0.00002,   0.00174,351713088.00000,   0.00000,274640576.00000,   0.00000,   0.00000,   0.00000,-122927488.00000,   0.00000
-304061247.07666,-124606412.43617,134852697.34927,  -0.00114,   0.00003,   0.00175,353011840.00000,   0.00000,274640576.00000,   0.00000,   0.00000,   0.00000,-121628736.00000,   0.00000
-304924713.85358,-124671102.12956,135482718.71093,  -0.00114,   0.00003,   0.00176,354318816.00000,   0.00000,274640576.00000,   0.00000,   0.00000,   0.00000,-120321760.00000,   0.00000
-305760054.67685,-124707665.86930,136112740.07259,  -0.00115,   0.00003,   0.00177,355608384.00000,   0.00000,274640576.00000,   0.00000,   0.00000,   0.00000,-119032192.00000,   0.00000
-306603833.28622,-124763917.77659,136742761.43425,  -0.00115,   0.00003,   0.00178,356901920.00000,   0.00000,274640576.00000,   0.00000,   0.00000,   0.00000,-117738656.00000,   0.00000
-307427923.72804,-124811731.89778,137372782.79592,  -0.00116,   0.00003,   0.00179,358182304.00000,   0.00000,274640576.00000,   0.00000,   0.00000,   0.00000,-116458272.00000,   0.00000
-308243576.38376,-124839857.85143,137997178.96685,  -0.00116,   0.00003,   0.00179,359451936.00000,   0.00000,274640576.00000,   0.00000,   0.00000,   0.00000,-115188640.00000,   0.00000
-309059229.03948,-124867983.80508,138627200.32851,  -0.00116,   0.00003,   0.00180,360728192.00000,   0.00000,274640576.00000,   0.00000,   0.00000,   0.00000,-113912384.00000,   0.00000
-309855193.52766,-124887671.97263,139251596.49944,  -0.00117,   0.00004,   0.00181,361985728.00000,   0.00000,274640576.00000,   0.00000,   0.00000,   0.00000,-112654848.00000,   0.00000
-310651158.01583,-124907360.14018,139875992.67038,  -0.00117,   0.00004,   0.00182,363244288.00000,   0.00000,274640576.00000,   0.00000,   0.00000,   0.00000,-111396288.00000,   0.00000
-311438684.71790,-124907360.14018,140500388.84131,  -0.00117,   0.00004,   0.00183,364500096.00000,   0.00000,274640576.00000,   0.00000,   0.00000,   0.00000,-110140480.00000,   0.00000
-312214961.03852,-124918610.52164,141119159.82151,  -0.00118,   0.00004,   0.00183,365742432.00000,   0.00000,274640576.00000,   0.00000,   0.00000,   0.00000,-108898144.00000,   0.00000
-312982799.57305,-124910172.73554,141737930.80172,  -0.00118,   0.00004,   0.00184,366982656.00000,   0.00000,274640576.00000,   0.00000,   0.00000,   0.00000,-107657920.00000,   0.00000
-313730949.94002,-124893297.16336,142362326.97265,  -0.00118,   0.00004,   0.00185,368218688.00000,   0.00000,274640576.00000,   0.00000,   0.00000,   0.00000,-106421888.00000,   0.00000
-314479100.30699,-124876421.59117,142981097.95285,  -0.00119,   0.00005,   0.00186,369450368.00000,   0.00000,274640576.00000,   0.00000,   0.00000,   0.00000,-105190208.00000,   0.00000
-315218812.88787,-124839857.85143,143594243.74233,  -0.00119,   0.00005,   0.00187,370673312.00000,   0.00000,274640576.00000,   0.00000,   0.00000,   0.00000,-103967264.00000,   0.00000
-315966963.25485,-124822982.27924,144213014.72253,  -0.00119,   0.00005,   0.00187,371908736.00000,   0.00000,274640576.00000,   0.00000,   0.00000,   0.00000,-102731840.00000,   0.00000
-316686987.66818,-124777980.75341,144826160.51200,  -0.00120,   0.00005,   0.00188,373122400.00000,   0.00000,274640576.00000,   0.00000,   0.00000,   0.00000,-101518176.00000,   0.00000
-317395761.70004,-124744229.60904,145444931.49221,  -0.00120,   0.00005,   0.00189,374335424.00000,   0.00000,274640576.00000,   0.00000,   0.00000,   0.00000,-100305152.00000,   0.00000
-318115786.11337,-124699228.08320,146058077.28168,  -0.00120,   0.00005,   0.00190,375551520.00000,   0.00000,274640576.00000,   0.00000,   0.00000,   0.00000,-99089056.00000,   0.00000
-318807684.57305,-124626100.60372,146665597.88043,  -0.00121,   0.00005,   0.00191,376745216.00000,   0.00000,274640576.00000,   0.00000,   0.00000,   0.00000,-97895360.00000,   0.00000
-319488332.65128,-124564223.50570,147278743.66990,  -0.00121,   0.00006,   0.00191,377936928.00000,   0.00000,274640576.00000,   0.00000,   0.00000,   0.00000,-96703648.00000,   0.00000
-320188668.89705,-124510784.19378,147891889.45938,  -0.00121,   0.00006,   0.00192,379141536.00000,   0.00000,274640576.00000,   0.00000,   0.00000,   0.00000,-95499040.00000,   0.00000
-320860879.18918,-124429218.92820,148499410.05812,  -0.00122,   0.00006,   0.00193,380322496.00000,   0.00000,274640576.00000,   0.00000,   0.00000,   0.00000,-94318080.00000,   0.00000
-321513401.31376,-124339215.87654,149106930.65687,  -0.00122,   0.00006,   0.00194,381490464.00000,   0.00000,274640576.00000,   0.00000,   0.00000,   0.00000,-93150112.00000,   0.00000
-322165923.43834,-124249212.82487,149714451.25561,  -0.00122,   0.00006,   0.00195,382657568.00000,   0.00000,274640576.00000,   0.00000,   0.00000,   0.00000,-91983008.00000,   0.00000
-322818445.56292,-124159209.77321,150316346.66363,  -0.00123,   0.00006,   0.00195,383817440.00000,   0.00000,274640576.00000,   0.00000,   0.00000,   0.00000,-90823136.00000,   0.00000
-323470967.68750,-124069206.72154,150923867.26237,  -0.00123,   0.00007,   0.00196,384983264.00000,   0.00000,274640576.00000,   0.00000,   0.00000,   0.00000,-89657312.00000,   0.00000
-324095363.85843,-123951077.71623,151525762.67039,  -0.00123,   0.00007,   0.00197,386125792.00000,   0.00000,274640576.00000,   0.00000,   0.00000,   0.00000,-88514784.00000,   0.00000
-324700071.86181,-123824510.92482,152127658.07841,  -0.00124,   0.00007,   0.00198,387255680.00000,   0.00000,274640576.00000,   0.00000,   0.00000,   0.00000,-87384896.00000,   0.00000
-325332905.81884,-123726070.08706,152729553.48642,  -0.00124,   0.00007,   0.00199,388401888.00000,   0.00000,274640576.00000,   0.00000,   0.00000,   0.00000,-86238688.00000,   0.00000
-325937613.82222,-123599503.29566,153331448.89444,  -0.00124,   0.00007,   0.00199,389532384.00000,   0.00000,274640576.00000,   0.00000,   0.00000,   0.00000,-85108192.00000,   0.00000
-326514195.87195,-123444810.55061,153927719.11173,  -0.00124,   0.00008,   0.00200,390640864.00000,   0.00000,274640576.00000,   0.00000,   0.00000,   0.00000,-83999712.00000,   0.00000
-327118903.87533,-123318243.75920,154529614.51974,  -0.00125,   0.00008,   0.00201,391773152.00000,   0.00000,274640576.00000,   0.00000,   0.00000,   0.00000,-82867424.00000,   0.00000
-327703923.71116,-123183239.18170,155125884.73703,  -0.00125,   0.00008,   0.00202,392887520.00000,   0.00000,274640576.00000,   0.00000,   0.00000,   0.00000,-81753056.00000,   0.00000
-328260817.59335,-123020108.65056,155722154.95432,  -0.00125,   0.00008,   0.00202,393987072.00000,   0.00000,274640576.00000,   0.00000,   0.00000,   0.00000,-80653504.00000,   0.00000
-328817711.47553,-122856978.11941,156312799.98087,  -0.00126,   0.00008,   0.00203,395081184.00000,   0.00000,274640576.00000,   0.00000,   0.00000,   0.00000,-79559392.00000,   0.00000
-329374605.35771,-122693847.58827,156909070.19816,  -0.00126,   0.00008,   0.00204,396183232.00000,   0.00000,274640576.00000,   0.00000,   0.00000,   0.00000,-78457344.00000,   0.00000
-329911811.07234,-122522279.27103,157499715.22472,  -0.00126,   0.00009,   0.00205,397267456.00000,   0.00000,274640576.00000,   0.00000,   0.00000,   0.00000,-77373120.00000,   0.00000
-330449016.78698,-122350710.95379,158090360.25128,  -0.00126,   0.00009,   0.00206,398352768.00000,   0.00000,274640576.00000,   0.00000,   0.00000,   0.00000,-76287808.00000,   0.00000
-330986222.50161,-122179142.63655,158681005.27784,  -0.00127,   0.00009,   0.00206,399439072.00000,   0.00000,274640576.00000,   0.00000,   0.00000,   0.00000,-75201504.00000,   0.00000
-331495302.26259,-121979448.36567,159271650.30439,  -0.00127,   0.00009,   0.00207,400510080.00000,   0.00000,274640576.00000,   0.00000,   0.00000,   0.00000,-74130496.00000,   0.00000
-332004382.02358,-121779754.09479,159856670.14022,  -0.00127,   0.00009,   0.00208,401575264.00000,   0.00000,274640576.00000,   0.00000,   0.00000,   0.00000,-73065312.00000,   0.00000
-332521899.57066,-121599747.99146,160447315.16678,  -0.00128,   0.00010,   0.00209,402651360.00000,   0.00000,274640576.00000,   0.00000,   0.00000,   0.00000,-71989216.00000,   0.00000
-333011291.16409,-121391615.93448,161032335.00261,  -0.00128,   0.00010,   0.00209,403705440.00000,   0.00000,274640576.00000,   0.00000,   0.00000,   0.00000,-70935136.00000,   0.00000
-333472556.80388,-121155357.92385,161617354.83844,  -0.00128,   0.00010,   0.00210,404744128.00000,   0.00000,274640576.00000,   0.00000,   0.00000,   0.00000,-69896448.00000,   0.00000
-333961948.39731,-120947225.86688,162202374.67427,  -0.00128,   0.00010,   0.00211,405799168.00000,   0.00000,274640576.00000,   0.00000,   0.00000,   0.00000,-68841408.00000,   0.00000
-334431651.82319,-120730656.02381,162781769.31937,  -0.00129,   0.00010,   0.00212,406835520.00000,   0.00000,274640576.00000,   0.00000,   0.00000,   0.00000,-67805056.00000,   0.00000
-334873229.29543,-120485960.22709,163361163.96447,  -0.00129,   0.00010,   0.00212,407856576.00000,   0.00000,274640576.00000,   0.00000,   0.00000,   0.00000,-66784000.00000,   0.00000
-335334494.93522,-120249702.21647,163946183.80029,  -0.00129,   0.00011,   0.00213,408897056.00000,   0.00000,274640576.00000,   0.00000,   0.00000,   0.00000,-65743520.00000,   0.00000
-335756384.23990,-119996568.63366,164519953.25467,  -0.00129,   0.00011,   0.00214,409900064.00000,   0.00000,274640576.00000,   0.00000,   0.00000,   0.00000,-64740512.00000,   0.00000
-336197961.71214,-119751872.83694,165099347.89976,  -0.00130,   0.00011,   0.00215,410922528.00000,   0.00000,274640576.00000,   0.00000,   0.00000,   0.00000,-63718048.00000,   0.00000
-336619851.01682,-119498739.25413,165678742.54486,  -0.00130,   0.00011,   0.00215,411933376.00000,   0.00000,274640576.00000,   0.00000,   0.00000,   0.00000,-62707200.00000,   0.00000
-337041740.32151,-119245605.67132,166252511.99924,  -0.00130,   0.00011,   0.00216,412937920.00000,   0.00000,274640576.00000,   0.00000,   0.00000,   0.00000,-61702656.00000,   0.00000
-337435503.67255,-118964346.13486,166826281.45361,  -0.00130,   0.00012,   0.00217,413927648.00000,   0.00000,274640576.00000,   0.00000,   0.00000,   0.00000,-60712928.00000,   0.00000
-337837704.80968,-118702774.76596,167400050.90798,  -0.00131,   0.00012,   0.00218,414921504.00000,   0.00000,274640576.00000,   0.00000,   0.00000,   0.00000,-59719072.00000,   0.00000
-338211779.99317,-118413077.44341,167973820.36235,  -0.00131,   0.00012,   0.00218,415900576.00000,   0.00000,274640576.00000,   0.00000,   0.00000,   0.00000,-58740000.00000,   0.00000
-338605543.34420,-118131817.90695,168541964.62599,  -0.00131,   0.00012,   0.00219,416885888.00000,   0.00000,274640576.00000,   0.00000,   0.00000,   0.00000,-57754688.00000,   0.00000
-338959930.36014,-117833682.79831,169115734.08036,  -0.00131,   0.00012,   0.00220,417854688.00000,   0.00000,274640576.00000,   0.00000,   0.00000,   0.00000,-56785888.00000,   0.00000
-339334005.54363,-117543985.47576,169683878.34400,  -0.00131,   0.00013,   0.00221,418829824.00000,   0.00000,274640576.00000,   0.00000,   0.00000,   0.00000,-55810752.00000,   0.00000
-339688392.55956,-117245850.36711,170246397.41691,  -0.00132,   0.00013,   0.00221,419787008.00000,   0.00000,274640576.00000,   0.00000,   0.00000,   0.00000,-54853568.00000,   0.00000
-340014653.62185,-116919589.30482,170814541.68055,  -0.00132,   0.00013,   0.00222,420737088.00000,   0.00000,274640576.00000,   0.00000,   0.00000,   0.00000,-53903488.00000,   0.00000
-340369040.63778,-116621454.19618,171382685.94420,  -0.00132,   0.00013,   0.00223,421703360.00000,   0.00000,274640576.00000,   0.00000,   0.00000,   0.00000,-52937216.00000,   0.00000
-340675613.53252,-116286755.34780,171945205.01711,  -0.00132,   0.00014,   0.00224,422636896.00000,   0.00000,274640576.00000,   0.00000,   0.00000,   0.00000,-52003680.00000,   0.00000
-341001874.59481,-115960494.28551,172507724.09002,  -0.00133,   0.00014,   0.00224,423583616.00000,   0.00000,274640576.00000,   0.00000,   0.00000,   0.00000,-51056960.00000,   0.00000
-341308447.48955,-115625795.43713,173070243.16293,  -0.00133,   0.00014,   0.00225,424519680.00000,   0.00000,274640576.00000,   0.00000,   0.00000,   0.00000,-50120896.00000,   0.00000
-341595332.21673,-115282658.80265,173627137.04512,  -0.00133,   0.00014,   0.00226,425438112.00000,   0.00000,274640576.00000,   0.00000,   0.00000,   0.00000,-49202464.00000,   0.00000
-341901905.11147,-114947959.95427,174189656.11803,  -0.00133,   0.00014,   0.00226,426376864.00000,   0.00000,274640576.00000,   0.00000,   0.00000,   0.00000,-48263712.00000,   0.00000
-342188789.83866,-114604823.31979,174746550.00021,  -0.00133,   0.00015,   0.00227,427298048.00000,   0.00000,274640576.00000,   0.00000,   0.00000,   0.00000,-47342528.00000,   0.00000
-342447548.61219,-114233560.73167,175303443.88239,  -0.00134,   0.00015,   0.00228,428205568.00000,   0.00000,274640576.00000,   0.00000,   0.00000,   0.00000,-46435008.00000,   0.00000
-342714745.17183,-113881986.31110,175860337.76458,  -0.00134,   0.00015,   0.00229,429117376.00000,   0.00000,274640576.00000,   0.00000,   0.00000,   0.00000,-45523200.00000,   0.00000
-342973503.94537,-113510723.72298,176411606.45603,  -0.00134,   0.00015,   0.00229,430020544.00000,   0.00000,274640576.00000,   0.00000,   0.00000,   0.00000,-44620032.00000,   0.00000
-343212574.55136,-113131023.34876,176962875.14749,  -0.00134,   0.00015,   0.00230,430913344.00000,   0.00000,274640576.00000,   0.00000,   0.00000,   0.00000,-43727232.00000,   0.00000
-343451645.15734,-112751322.97454,177519769.02967,  -0.00134,   0.00016,   0.00231,431814208.00000,   0.00000,274640576.00000,   0.00000,   0.00000,   0.00000,-42826368.00000,   0.00000
-343671027.59578,-112363184.81424,178065412.53039,  -0.00134,   0.00016,   0.00231,432690496.00000,   0.00000,274640576.00000,   0.00000,   0.00000,   0.00000,-41950080.00000,   0.00000
-343890410.03421,-111975046.65393,178616681.22185,  -0.00135,   0.00016,   0.00232,433574880.00000,   0.00000,274640576.00000,   0.00000,   0.00000,   0.00000,-41065696.00000,   0.00000
-344109792.47265,-111586908.49362,179167949.91330,  -0.00135,   0.00016,   0.00233,434460416.00000,   0.00000,274640576.00000,   0.00000,   0.00000,   0.00000,-40180160.00000,   0.00000
-344301048.95744,-111170644.37966,179713593.41403,  -0.00135,   0.00017,   0.00234,435325536.00000,   0.00000,274640576.00000,   0.00000,   0.00000,   0.00000,-39315040.00000,   0.00000
-344500743.22832,-110774068.43326,180259236.91475,  -0.00135,   0.00017,   0.00234,436194336.00000,   0.00000,274640576.00000,   0.00000,   0.00000,   0.00000,-38446240.00000,   0.00000
-344672311.54556,-110349366.53321,180804880.41548,  -0.00135,   0.00017,   0.00235,437049760.00000,   0.00000,274640576.00000,   0.00000,   0.00000,   0.00000,-37590816.00000,   0.00000
-344843879.86280,-109924664.63316,181344898.72547,  -0.00135,   0.00017,   0.00236,437899232.00000,   0.00000,274640576.00000,   0.00000,   0.00000,   0.00000,-36741344.00000,   0.00000
-345023885.96613,-109519650.90066,181890542.22620,  -0.00136,   0.00017,   0.00236,438759168.00000,   0.00000,274640576.00000,   0.00000,   0.00000,   0.00000,-35881408.00000,   0.00000
-345175766.11582,-109086511.21452,182430560.53619,  -0.00136,   0.00018,   0.00237,439598688.00000,   0.00000,274640576.00000,   0.00000,   0.00000,   0.00000,-35041888.00000,   0.00000
-345319208.47941,-108633683.36083,182970578.84619,  -0.00136,   0.00018,   0.00238,440436384.00000,   0.00000,274640576.00000,   0.00000,   0.00000,   0.00000,-34204192.00000,   0.00000
-345451400.46155,-108192105.88859,183504971.96546,  -0.00136,   0.00018,   0.00239,441258784.00000,   0.00000,274640576.00000,   0.00000,   0.00000,   0.00000,-33381792.00000,   0.00000
-345583592.44368,-107750528.41635,184044990.27545,  -0.00136,   0.00018,   0.00239,442089184.00000,   0.00000,274640576.00000,   0.00000,   0.00000,   0.00000,-32551392.00000,   0.00000
-345715784.42582,-107308950.94412,184579383.39472,  -0.00136,   0.00019,   0.00240,442913280.00000,   0.00000,274640576.00000,   0.00000,   0.00000,   0.00000,-31727296.00000,   0.00000
-345819850.45430,-106839247.51824,185113776.51399,  -0.00137,   0.00019,   0.00241,443724064.00000,   0.00000,274640576.00000,   0.00000,   0.00000,   0.00000,-30916512.00000,   0.00000
-345923916.48279,-106369544.09235,185648169.63325,  -0.00137,   0.00019,   0.00241,444535808.00000,   0.00000,274640576.00000,   0.00000,   0.00000,   0.00000,-30104768.00000,   0.00000
-346016732.12982,-105911091.04793,186176937.56179,  -0.00137,   0.00019,   0.00242,445332128.00000,   0.00000,274640576.00000,   0.00000,   0.00000,   0.00000,-29308448.00000,   0.00000
-346101109.99076,-105432949.83596,186711330.68106,  -0.00137,   0.00020,   0.00243,446133984.00000,   0.00000,274640576.00000,   0.00000,   0.00000,   0.00000,-28506592.00000,   0.00000
-346165799.68415,-104946370.83789,187240098.60959,  -0.00137,   0.00020,   0.00243,446918272.00000,   0.00000,274640576.00000,   0.00000,   0.00000,   0.00000,-27722304.00000,   0.00000
-346250177.54508,-104468229.62591,187768866.53813,  -0.00137,   0.00020,   0.00244,447715104.00000,   0.00000,274640576.00000,   0.00000,   0.00000,   0.00000,-26925472.00000,   0.00000
-346295179.07092,-103973212.84175,188292009.27594,  -0.00137,   0.00020,   0.00245,448482944.00000,   0.00000,274640576.00000,   0.00000,   0.00000,   0.00000,-26157632.00000,   0.00000
-346331742.81065,-103458507.89003,188820777.20448,  -0.00137,   0.00020,   0.00245,449256832.00000,   0.00000,274640576.00000,   0.00000,   0.00000,   0.00000,-25383744.00000,   0.00000
-346376744.33649,-102963491.10587,189343919.94229,  -0.00138,   0.00021,   0.00246,450027264.00000,   0.00000,274640576.00000,   0.00000,   0.00000,   0.00000,-24613312.00000,   0.00000
-346421745.86232,-102468474.32171,189867062.68009,  -0.00138,   0.00021,   0.00247,450799200.00000,   0.00000,274640576.00000,   0.00000,   0.00000,   0.00000,-23841376.00000,   0.00000
-346438621.43451,-101945331.58390,190384580.22717,  -0.00138,   0.00021,   0.00247,451551520.00000,   0.00000,274640576.00000,   0.00000,   0.00000,   0.00000,-23089056.00000,   0.00000
-346444246.62524,-101433439.22755,190907722.96498,  -0.00138,   0.00021,   0.00248,452303264.00000,   0.00000,274640576.00000,   0.00000,   0.00000,   0.00000,-22337312.00000,   0.00000
-346441434.02987,-100901858.70365,191425240.51206,  -0.00138,   0.00022,   0.00249,453046912.00000,   0.00000,274640576.00000,   0.00000,   0.00000,   0.00000,-21593664.00000,   0.00000
-346438621.43451,-100370278.17974,191942758.05914,  -0.00138,   0.00022,   0.00250,453791744.00000,   0.00000,274640576.00000,   0.00000,   0.00000,   0.00000,-20848832.00000,   0.00000
-346416120.67159,-99830259.86975,192460275.60622,  -0.00138,   0.00022,   0.00250,454526176.00000,   0.00000,274640576.00000,   0.00000,   0.00000,   0.00000,-20114400.00000,   0.00000
-346393619.90867,-99290241.55975,192972167.96257,  -0.00138,   0.00022,   0.00251,455254048.00000,   0.00000,274640576.00000,   0.00000,   0.00000,   0.00000,-19386528.00000,   0.00000
-346351430.97821,-98741785.46366,193484060.31892,  -0.00138,   0.00023,   0.00252,455970880.00000,   0.00000,274640576.00000,   0.00000,   0.00000,   0.00000,-18669696.00000,   0.00000
-346309242.04774,-98193329.36757,193995952.67527,  -0.00138,   0.00023,   0.00252,456687808.00000,   0.00000,274640576.00000,   0.00000,   0.00000,   0.00000,-17952768.00000,   0.00000
-346267053.11727,-97644873.27148,194507845.03162,  -0.00139,   0.00023,   0.00253,457404544.00000,   0.00000,274640576.00000,   0.00000,   0.00000,   0.00000,-17236032.00000,   0.00000
-346196738.23316,-97068291.22175,195019737.38797,  -0.00139,   0.00023,   0.00254,458107392.00000,   0.00000,274640576.00000,   0.00000,   0.00000,   0.00000,-16533184.00000,   0.00000
-346134861.13514,-96511397.33957,195526004.55359,  -0.00139,   0.00024,   0.00254,458804960.00000,   0.00000,274640576.00000,   0.00000,   0.00000,   0.00000,-15835616.00000,   0.00000
-346053295.86956,-95946065.67129,196032271.71921,  -0.00139,   0.00024,   0.00255,459491008.00000,   0.00000,274640576.00000,   0.00000,   0.00000,   0.00000,-15149568.00000,   0.00000
-345963292.81790,-95361045.83546,196538538.88483,  -0.00139,   0.00024,   0.00256,460175072.00000,   0.00000,274640576.00000,   0.00000,   0.00000,   0.00000,-14465504.00000,   0.00000
-345853601.59868,-94767588.21354,197039180.85973,  -0.00139,   0.00024,   0.00256,460841056.00000,   0.00000,274640576.00000,   0.00000,   0.00000,   0.00000,-13799520.00000,   0.00000
-345752348.16555,-94193818.75917,197545448.02535,  -0.00139,   0.00025,   0.00257,461516992.00000,   0.00000,274640576.00000,   0.00000,   0.00000,   0.00000,-13123584.00000,   0.00000
-345622968.77878,-93591923.35115,198046090.00024,  -0.00139,   0.00025,   0.00257,462173408.00000,   0.00000,274640576.00000,   0.00000,   0.00000,   0.00000,-12467168.00000,   0.00000
-345493589.39202,-92990027.94313,198541106.78440,  -0.00139,   0.00025,   0.00258,462824128.00000,   0.00000,274640576.00000,   0.00000,   0.00000,   0.00000,-11816448.00000,   0.00000
-345364210.00525,-92388132.53512,199041748.75929,  -0.00139,   0.00025,   0.00259,463483552.00000,   0.00000,274640576.00000,   0.00000,   0.00000,   0.00000,-11157024.00000,   0.00000
-345215142.45092,-91777799.34101,199536765.54346,  -0.00139,   0.00026,   0.00259,464126464.00000,   0.00000,274640576.00000,   0.00000,   0.00000,   0.00000,-10514112.00000,   0.00000
-345066074.89660,-91167466.14690,200031782.32762,  -0.00139,   0.00026,   0.00260,464771328.00000,   0.00000,274640576.00000,   0.00000,   0.00000,   0.00000,-9869248.00000,   0.00000
-344897319.17473,-90548695.16670,200526799.11178,  -0.00139,   0.00026,   0.00261,465407072.00000,   0.00000,274640576.00000,   0.00000,   0.00000,   0.00000,-9233504.00000,   0.00000
-344728563.45285,-89929924.18649,201016190.70522,  -0.00139,   0.00026,   0.00261,466037632.00000,   0.00000,274640576.00000,   0.00000,   0.00000,   0.00000,-8602944.00000,   0.00000
-344531681.77734,-89283027.25264,201511207.48938,  -0.00139,   0.00027,   0.00262,466664512.00000,   0.00000,274640576.00000,   0.00000,   0.00000,   0.00000,-7976064.00000,   0.00000
-344343237.88791,-88655818.48635,202000599.08281,  -0.00139,   0.00027,   0.00263,467288224.00000,   0.00000,274640576.00000,   0.00000,   0.00000,   0.00000,-7352352.00000,   0.00000
-344154793.99848,-88028609.72005,202484365.48552,  -0.00139,   0.00027,   0.00263,467906688.00000,   0.00000,274640576.00000,   0.00000,   0.00000,   0.00000,-6733888.00000,   0.00000
-343938224.15541,-87373275.00011,202973757.07895,  -0.00139,   0.00027,   0.00264,468521536.00000,   0.00000,274640576.00000,   0.00000,   0.00000,   0.00000,-6119040.00000,   0.00000
-343710403.93088,-86729190.66162,203457523.48166,  -0.00139,   0.00028,   0.00264,469121728.00000,   0.00000,274640576.00000,   0.00000,   0.00000,   0.00000,-5518848.00000,   0.00000
-343493834.08781,-86073855.94168,203941289.88436,  -0.00140,   0.00028,   0.00265,469733056.00000,   0.00000,274640576.00000,   0.00000,   0.00000,   0.00000,-4907520.00000,   0.00000
-343237887.90964,-85401645.64955,204425056.28706,  -0.00140,   0.00028,   0.00266,470324032.00000,   0.00000,274640576.00000,   0.00000,   0.00000,   0.00000,-4316544.00000,   0.00000
-343001629.89901,-84737873.14351,204903197.49904,  -0.00140,   0.00028,   0.00266,470920512.00000,   0.00000,274640576.00000,   0.00000,   0.00000,   0.00000,-3720064.00000,   0.00000
-342734433.33938,-84076913.23284,205381338.71102,  -0.00140,   0.00029,   0.00267,471498368.00000,   0.00000,274640576.00000,   0.00000,   0.00000,   0.00000,-3142208.00000,   0.00000
-342478487.16121,-83404702.94071,205859479.92299,  -0.00140,   0.00029,   0.00268,472086848.00000,   0.00000,274640576.00000,   0.00000,   0.00000,   0.00000,-2553728.00000,   0.00000
-342202852.81548,-82724054.86249,206331995.94424,  -0.00140,   0.00029,   0.00268,472658624.00000,   0.00000,274640576.00000,   0.00000,   0.00000,   0.00000,-1981952.00000,   0.00000
-341907530.30220,-82034968.99817,206810137.15621,  -0.00140,   0.00029,   0.00269,473228192.00000,   0.00000,274640576.00000,   0.00000,   0.00000,   0.00000,-1412384.00000,   0.00000
-341612207.78892,-81345883.13385,207282653.17746,  -0.00140,   0.00030,   0.00269,473791680.00000,   0.00000,274640576.00000,   0.00000,   0.00000,   0.00000,-848896.00000,   0.00000
-341316885.27564,-80656797.26953,207749544.00798,  -0.00140,   0.00030,   0.00270,474349024.00000,   0.00000,274640576.00000,   0.00000,   0.00000,   0.00000,-291552.00000,   0.00000
-341150766.36192,-80288962.53201,207998722.37856,  -0.00140,   0.00030,   0.00270,474641440.00000,   0.00000,274640576.00000,   0.00000,   0.00000,   0.00000, 864.00000,   0.00000
-340827418.48184,-79934475.88408,208102087.30313,  -0.00140,   0.00030,   0.00271,474641440.00000,   0.00000,274641792.00000,  -0.00000,   0.00000,   0.00000, -64.00000,   2.00000
-340137107.84909,-79178444.30534,208323826.81292,  -0.00140,   0.00030,   0.00271,475179520.00000,   0.00000,274644256.00000,  -0.00000,   0.00000,   0.00000, 128.00000,   2.00000
-339439356.20233,-78403016.02410,208545782.09067,  -0.00140,   0.00031,   0.00272,475182176.00000,   0.00001,274646720.00000,  -0.00000,   0.00000,   0.00001, 128.00000,   2.00000
-338748852.83171,-77647319.05245,208766417.88221,  -0.00140,   0.00031,   0.00273,475187872.00000,   0.00001,274649216.00000,  -0.00001,   0.00000,   0.00001,-192.00000,   2.00000
-338050652.95600,-76885095.97341,208989223.82870,  -0.00139,   0.00031,   0.00273,475173696.00000,   0.00001,274651616.00000,  -0.00001,   0.00000,   0.00001, 128.00000,   2.00000
-337352228.25670,-76123154.95859,209211349.60298,  -0.00139,   0.00031,   0.00274,475177984.00000,   0.00001,274654016.00000,  -0.00001,   0.00000,   0.00002,  32.00000,   2.00000
-336633449.92130,-75334517.70460,209438340.57965,  -0.00139,   0.00032,   0.00274,475169888.00000,   0.00001,274656384.00000,  -0.00001,   0.00000,   0.00002,  32.00000,   2.00000
-335926803.57785,-74566477.17921,209661755.24680,  -0.00139,   0.00032,   0.00275,475167712.00000,   0.00002,274658720.00000,  -0.00001,   0.00000,   0.00002,   0.00000,   2.00000
-335207560.89101,-73778663.64556,209887355.93097,  -0.00139,   0.00032,   0.00276,475177632.00000,   0.00002,274661088.00000,  -0.00001,   0.00000,   0.00003, -64.00000,   2.00000
-334474936.98664,-72996493.24475,210119105.59476,  -0.00139,   0.00032,   0.00276,475154176.00000,   0.00002,274663360.00000,  -0.00001,   0.00000,   0.00003,  64.00000,   2.00000
-333752075.83708,-72203420.05192,210343695.59291,  -0.00139,   0.00033,   0.00277,475159648.00000,   0.00002,274665600.00000,  -0.00002,   0.00000,   0.00003, 128.00000,   2.00000
-333023512.23511,-71422888.59854,210571717.58721,  -0.00139,   0.00033,   0.00277,475154176.00000,   0.00002,274667840.00000,  -0.00002,   0.00001,   0.00004,  32.00000,   2.00000
-332269449.79991,-70615190.67833,210806758.30813,  -0.00139,   0.00033,   0.00278,475153024.00000,   0.00003,274670048.00000,  -0.00002,   0.00001,   0.00004,   0.00000,   2.00000
-331524688.86628,-69809298.08079,211036683.66911,  -0.00139,   0.00033,   0.00278,475141600.00000,   0.00003,274672224.00000,  -0.00002,   0.00001,   0.00004,  32.00000,   2.00000
-330782191.52065,-69022991.56087,211267470.44184,  -0.00139,   0.00034,   0.00279,475153888.00000,   0.00003,274674400.00000,  -0.00002,   0.00001,   0.00004,  96.00000,   2.00000
-330023656.50837,-68210710.66951,211500788.49054,  -0.00139,   0.00034,   0.00280,475137760.00000,   0.00003,274676544.00000,  -0.00002,   0.00001,   0.00005,  96.00000,   2.00000
-329264696.20178,-67399074.90115,211733409.43388,  -0.00139,   0.00034,   0.00280,475141024.00000,   0.00003,274678656.00000,  -0.00002,   0.00001,   0.00005,  64.00000,   2.00000
-328497244.53377,-66581007.38037,211967955.81490,  -0.00139,   0.00035,   0.00281,475126176.00000,   0.00004,274680704.00000,  -0.00002,   0.00001,   0.00005,  64.00000,   2.00000
-327711502.69818,-65755369.49761,212208692.92065,  -0.00139,   0.00035,   0.00281,475126432.00000,   0.00004,274682752.00000,  -0.00003,   0.00001,   0.00005,  96.00000,   2.00000
-326950726.67315,-64958195.79766,212441088.88099,  -0.00139,   0.00035,   0.00282,475133728.00000,   0.00004,274684832.00000,  -0.00003,   0.00001,   0.00006, -64.00000,   2.00000
-326160816.50562,-64127201.13554,212680704.47538,  -0.00139,   0.00035,   0.00282,475107328.00000,   0.00004,274686784.00000,  -0.00003,   0.00001,   0.00006,  64.00000,   2.00000
-325365633.55864,-63296329.97509,212921580.11670,  -0.00139,   0.00036,   0.00283,475118304.00000,   0.00004,274688768.00000,  -0.00003,   0.00001,   0.00006, 128.00000,   2.00000
-324574687.62696,-62466585.00225,213159226.24630,  -0.00139,   0.00036,   0.00284,475114464.00000,   0.00005,274690720.00000,  -0.00003,   0.00001,   0.00006, -32.00000,   2.00000
-323788098.10615,-61637953.51295,213393678.70105,  -0.00138,   0.00036,   0.00284,475110560.00000,   0.00005,274692640.00000,  -0.00003,   0.00001,   0.00007,   0.00000,   2.00000
-322970013.21676,-60793899.60839,213638673.80860,  -0.00138,   0.00036,   0.00285,475101184.00000,   0.00005,274694528.00000,  -0.00003,   0.00001,   0.00007,  64.00000,   2.00000
-322169329.66935,-59958712.63683,213875530.37668,  -0.00138,   0.00037,   0.00285,475107904.00000,   0.00005,274696448.00000,  -0.00003,   0.00001,   0.00007,   0.00000,   2.00000
-321354911.12850,-59116302.95254,214115837.81742,  -0.00138,   0.00037,   0.00286,475101856.00000,   0.00005,274698304.00000,  -0.00004,   0.00001,   0.00007, 128.00000,   2.00000
-320531351.24313,-58267062.09150,214357353.04686,  -0.00138,   0.00037,   0.00286,475088320.00000,   0.00005,274700128.00000,  -0.00004,   0.00001,   0.00008,  96.00000,   2.00000
-319707151.58933,-57418387.85678,214597450.69425,  -0.00138,   0.00037,   0.00287,475092704.00000,   0.00006,274701920.00000,  -0.00004,   0.00001,   0.00008, -96.00000,   2.00000
-318869100.17855,-56562406.77788,214840928.98103,  -0.00138,   0.00038,   0.00287,475086848.00000,   0.00006,274703712.00000,  -0.00004,   0.00001,   0.00008,  96.00000,   2.00000
-318030221.29874,-55706973.05245,215082834.35286,  -0.00138,   0.00038,   0.00288,475091360.00000,   0.00006,274705504.00000,  -0.00004,   0.00001,   0.00008, -96.00000,   2.00000
-317181985.49755,-54844556.17781,215325954.46050,  -0.00138,   0.00038,   0.00289,475078048.00000,   0.00006,274707200.00000,  -0.00004,   0.00001,   0.00009, 128.00000,   2.00000
-316333033.20904,-53982680.15661,215567641.20035,  -0.00138,   0.00038,   0.00289,475082432.00000,   0.00006,274708960.00000,  -0.00004,   0.00001,   0.00009, -32.00000,   2.00000
-315488053.01001,-53121699.65699,215805870.21231,  -0.00137,   0.00039,   0.00290,475079136.00000,   0.00006,274710656.00000,  -0.00004,   0.00001,   0.00009,  96.00000,   2.00000
-314616152.55203,-52233285.33260,216049811.85879,  -0.00137,   0.00039,   0.00290,475080256.00000,   0.00007,274712352.00000,  -0.00004,   0.00001,   0.00009,  96.00000,   2.00000
-313747250.98912,-51357710.51305,216292669.86707,  -0.00137,   0.00039,   0.00291,475059872.00000,   0.00007,274713984.00000,  -0.00004,   0.00001,   0.00010,  64.00000,   2.00000
-312872941.14326,-50482326.04179,216536266.14238,  -0.00137,   0.00040,   0.00291,475071360.00000,   0.00007,274715616.00000,  -0.00005,   0.00001,   0.00010,   0.00000,   2.00000
-312002592.87272,-49607764.79759,216776622.79683,  -0.00137,   0.00040,   0.00292,475067680.00000,   0.00007,274717248.00000,  -0.00005,   0.00002,   0.00010,  96.00000,   2.00000
-311117864.52912,-48725655.82326,217020461.76527,  -0.00137,   0.00040,   0.00292,475061568.00000,   0.00007,274718848.00000,  -0.00005,   0.00002,   0.00010,  32.00000,   2.00000
-310218720.24714,-47835973.04219,217267809.90045,  -0.00137,   0.00040,   0.00293,475055456.00000,   0.00007,274720384.00000,  -0.00005,   0.00002,   0.00010, -64.00000,   2.00000
-309323499.53614,-46947048.40074,217512046.80922,  -0.00136,   0.00041,   0.00293,475051520.00000,   0.00007,274721920.00000,  -0.00005,   0.00002,   0.00011, 128.00000,   2.00000
-308419447.52030,-46038950.55848,217755442.65490,  -0.00136,   0.00041,   0.00294,475054368.00000,   0.00008,274723456.00000,  -0.00005,   0.00002,   0.00011,  32.00000,   2.00000
-307509038.99509,-45142884.12910,218002189.00232,  -0.00136,   0.00041,   0.00294,475048640.00000,   0.00008,274724960.00000,  -0.00005,   0.00002,   0.00011,   0.00000,   2.00000
-306602547.65893,-44247524.39636,218245933.25785,  -0.00136,   0.00041,   0.00295,475044544.00000,   0.00008,274726464.00000,  -0.00005,   0.00002,   0.00011,   0.00000,   2.00000
-305681461.15732,-43344469.45359,218493262.52885,  -0.00136,   0.00042,   0.00295,475038080.00000,   0.00008,274727904.00000,  -0.00005,   0.00002,   0.00011, -64.00000,   2.00000
-304750464.25155,-42433897.80468,218742318.07297,  -0.00136,   0.00042,   0.00296,475023840.00000,   0.00008,274729248.00000,  -0.00005,   0.00002,   0.00012,  64.00000,   2.00000
-303818742.02221,-41523764.60385,218990386.68929,  -0.00136,   0.00042,   0.00296,475027264.00000,   0.00008,274730624.00000,  -0.00005,   0.00002,   0.00012, 128.00000,   2.00000
-302886276.59891,-40614068.84807,219237458.63878,  -0.00135,   0.00042,   0.00297,475030496.00000,   0.00008,274732032.00000,  -0.00005,   0.00002,   0.00012,   0.00000,   2.00000
-301930938.57356,-39676909.46217,219488348.32133,  -0.00135,   0.00043,   0.00297,475023584.00000,   0.00008,274733376.00000,  -0.00006,   0.00002,   0.00012,-128.00000,   2.00000
-300987805.14329,-38760005.74177,219736266.77563,  -0.00135,   0.00043,   0.00298,475019200.00000,   0.00009,274734688.00000,  -0.00006,   0.00002,   0.00012,   0.00000,   2.00000
-300029935.26023,-37835241.21045,219987812.86338,  -0.00135,   0.00043,   0.00298,475012928.00000,   0.00009,274736000.00000,  -0.00006,   0.00002,   0.00012,  64.00000,   2.00000
-299075848.78931,-36910983.80628,220236443.24299,  -0.00135,   0.00043,   0.00299,475008256.00000,   0.00009,274737248.00000,  -0.00006,   0.00002,   0.00013,-128.00000,   2.00000
-298107146.27874,-35978797.19290,220488846.71249,  -0.00134,   0.00044,   0.00299,475001440.00000,   0.00009,274738464.00000,  -0.00006,   0.00002,   0.00013,  32.00000,   2.00000
-297123615.17600,-35038636.30056,220744872.41208,  -0.00134,   0.00044,   0.00300,474994912.00000,   0.00009,274739648.00000,  -0.00006,   0.00002,   0.00013,  32.00000,   2.00000
-296139431.62316,-34098779.84712,221000043.09130,  -0.00134,   0.00044,   0.00300,474997760.00000,   0.00009,274740864.00000,  -0.00006,   0.00002,   0.00013,  32.00000,   2.00000
-295159187.31654,-33159293.56623,221252503.21257,  -0.00134,   0.00045,   0.00301,474992832.00000,   0.00009,274742016.00000,  -0.00006,   0.00002,   0.00013, -32.00000,   2.00000
-294168624.46969,-32211793.69887,221506735.66631,  -0.00134,   0.00045,   0.00301,474978144.00000,   0.00009,274743104.00000,  -0.00006,   0.00002,   0.00013,  32.00000,   2.00000
-293173038.23997,-31264431.60951,221762182.91139,  -0.00133,   0.00045,   0.00302,474988512.00000,   0.00009,274744256.00000,  -0.00006,   0.00002,   0.00014,-192.00000,   2.00000
-292167207.73728,-30308963.19931,222019523.08503,  -0.00133,   0.00045,   0.00302,474973600.00000,   0.00010,274745312.00000,  -0.00006,   0.00002,   0.00014,-160.00000,   2.00000
-291165439.14315,-29353705.52412,222274349.79677,  -0.00133,   0.00046,   0.00303,474968128.00000,   0.00010,274746336.00000,  -0.00006,   0.00002,   0.00014, 128.00000,   2.00000
-290144390.02218,-28390141.81315,222534894.86102,  -0.00133,   0.00046,   0.00303,474968928.00000,   0.00010,274747360.00000,  -0.00006,   0.00002,   0.00014,  64.00000,   2.00000
-289131831.31572,-27426785.98471,222791006.68550,  -0.00133,   0.00046,   0.00304,474955296.00000,   0.00010,274748320.00000,  -0.00006,   0.00002,   0.00014, -96.00000,   2.00000
-288100173.00071,-26455092.25982,223052992.79822,  -0.00132,   0.00046,   0.00304,474955712.00000,   0.00010,274749280.00000,  -0.00006,   0.00002,   0.00014,  32.00000,   2.00000
-287057578.37706,-25475145.66146,223316400.78219,  -0.00132,   0.00047,   0.00305,474940576.00000,   0.00010,274750176.00000,  -0.00006,   0.00002,   0.00014,-896.00000,   1.00000
-286015030.32793,-24495313.22256,223579564.60456,  -0.00132,   0.00047,   0.00305,474941824.00000,   0.00010,274751072.00000,  -0.00007,   0.00002,   0.00014,-928.00000,   1.00000
-284976274.08625,-23515667.56183,223839955.30232,  -0.00132,   0.00047,   0.00306,474936544.00000,   0.00010,274751936.00000,  -0.00007,   0.00002,   0.00015,-992.00000,   1.00000
-283930790.06583,-22547509.41246,224103755.13992,  -0.00131,   0.00047,   0.00306,474930016.00000,   0.00010,274752768.00000,  -0.00007,   0.00002,   0.00015,-864.00000,   1.00000
-282875725.95074,-21559958.60909,224366085.67276,  -0.00131,   0.00048,   0.00306,474933632.00000,   0.00010,274753600.00000,  -0.00007,   0.00002,   0.00015,-928.00000,   1.00000
-281809247.43510,-20564375.09233,224629242.43045,  -0.00131,   0.00048,   0.00307,474920640.00000,   0.00010,274754368.00000,  -0.00007,   0.00002,   0.00015,-864.00000,   1.00000
-280740848.01874,-19569302.23209,224890031.20649,  -0.00131,   0.00048,   0.00307,474925952.00000,   0.00010,274755168.00000,  -0.00007,   0.00002,   0.00015,-832.00000,   1.00000
-279668598.48792,-18585991.43037,225150817.65809,  -0.00130,   0.00048,   0.00308,474914624.00000,   0.00011,274755936.00000,  -0.00007,   0.00002,   0.00015,-704.00000,   1.00000
-278580836.44650,-17583779.43455,225410149.42800,  -0.00130,   0.00049,   0.00308,474929632.00000,   0.00011,274756736.00000,  -0.00007,   0.00002,   0.00015,-992.00000,   1.00000
-277493086.40725,-16593208.50136,225667388.45728,  -0.00130,   0.00049,   0.00309,474911072.00000,   0.00011,274757440.00000,  -0.00007,   0.00002,   0.00015,-704.00000,   1.00000
-276374882.20075,-15575188.53682,225927455.07113,  -0.00130,   0.00049,   0.00309,474917216.00000,   0.00011,274758208.00000,  -0.00007,   0.00002,   0.00015,-896.00000,   1.00000
-275278183.56544,-14566055.24270,226177370.76733,  -0.00129,   0.00050,   0.00310,474915488.00000,   0.00011,274758944.00000,  -0.00007,   0.00002,   0.00015,-768.00000,   1.00000
-274154167.86281,-13559982.31110,226435817.63446,  -0.00129,   0.00050,   0.00310,474910080.00000,   0.00011,274759648.00000,  -0.00007,   0.00002,   0.00016,-736.00000,   1.00000
-273039466.76557,-12543101.73468,226686606.86664,  -0.00129,   0.00050,   0.00310,474914880.00000,   0.00011,274760384.00000,  -0.00007,   0.00003,   0.00016,-832.00000,   1.00000
-271902364.34667,-11528897.89869,226944989.31137,  -0.00129,   0.00050,   0.00311,474899936.00000,   0.00011,274761024.00000,  -0.00007,   0.00003,   0.00016,-672.00000,   1.00000
-270768410.35088,-10514822.07459,227200408.23100,  -0.00128,   0.00051,   0.00311,474895040.00000,   0.00011,274761664.00000,  -0.00007,   0.00003,   0.00016,-704.00000,   1.00000
-269624664.09845,-9481483.50421,227454293.99616,  -0.00128,   0.00051,   0.00312,474898752.00000,   0.00011,274762304.00000,  -0.00007,   0.00003,   0.00016,-640.00000,   1.00000
-268473123.08977,-8459525.98766,227711043.98390,  -0.00128,   0.00051,   0.00312,474893408.00000,   0.00011,274762912.00000,  -0.00007,   0.00003,   0.00016,-608.00000,   1.00000
-267324250.29438,-7437728.74524,227964302.60542,  -0.00127,   0.00051,   0.00312,474889536.00000,   0.00011,274763520.00000,  -0.00007,   0.00003,   0.00016,-640.00000,   1.00000
-266149963.95085,-6387919.20640,228219769.58825,  -0.00127,   0.00052,   0.00313,474885536.00000,   0.00011,274764096.00000,  -0.00007,   0.00003,   0.00016,-512.00000,   1.00000
-264987199.35362,-5357779.38318,228472263.31768,  -0.00127,   0.00052,   0.00313,474880640.00000,   0.00011,274764640.00000,  -0.00007,   0.00003,   0.00016,-608.00000,   1.00000
-263808252.23801,-4319012.25418,228727944.99070,  -0.00126,   0.00052,   0.00314,474874688.00000,   0.00011,274765152.00000,  -0.00007,   0.00003,   0.00016,-544.00000,   1.00000
-262629022.22320,-3280252.38720,228983323.28329,  -0.00126,   0.00052,   0.00314,474875936.00000,   0.00011,274765664.00000,  -0.00007,   0.00003,   0.00016,-544.00000,   1.00000
-261438393.55817,-2232523.73798,229240550.49421,  -0.00126,   0.00053,   0.00314,474861152.00000,   0.00011,274766112.00000,  -0.00007,   0.00003,   0.00016,-416.00000,   1.00000
-260232029.65608,-1177178.30567,229493997.95204,  -0.00126,   0.00053,   0.00315,474857344.00000,   0.00011,274766528.00000,  -0.00007,   0.00003,   0.00017,-416.00000,   1.00000
-259024462.32978,-136268.41302,229726486.36333,  -0.00125,   0.00053,   0.00315,474910592.00000,   0.00012,274767200.00000,  -0.00007,   0.00003,   0.00017,-768.00000,   1.00000
-257774896.15935,920344.77363,229949255.31702,  -0.00125,   0.00053,   0.00316,474919328.00000,   0.00012,274767936.00000,  -0.00007,   0.00003,   0.00017,-992.00000,   1.00000
-256559151.49049,1953093.04160,230177692.59907,  -0.00125,   0.00054,   0.00316,474898432.00000,   0.00012,274768544.00000,  -0.00007,   0.00003,   0.00017,-608.00000,   1.00000
-255319072.33158,3026557.63454,230432137.16057,  -0.00124,   0.00054,   0.00316,474846560.00000,   0.00012,274768896.00000,  -0.00007,   0.00003,   0.00017,-352.00000,   1.00000
-254100562.88953,4091709.21858,230688476.35373,  -0.00124,   0.00054,   0.00317,474842912.00000,   0.00012,274769248.00000,  -0.00007,   0.00003,   0.00017,-384.00000,   1.00000
-252853026.78092,5174483.24378,230948882.05515,  -0.00124,   0.00054,   0.00317,474823232.00000,   0.00012,274769504.00000,  -0.00007,   0.00003,   0.00017,-288.00000,   1.00000
-251610642.66909,6236974.85841,231205662.45782,  -0.00123,   0.00055,   0.00318,474830688.00000,   0.00012,274769792.00000,  -0.00007,   0.00003,   0.00017,-416.00000,   1.00000
-250360865.34754,7319119.65845,231457572.73607,  -0.00123,   0.00055,   0.00318,474829312.00000,   0.00012,274770048.00000,  -0.00008,   0.00003,   0.00017,-192.00000,   1.00000
-249102178.86486,8390199.31906,231711630.02923,  -0.00123,   0.00055,   0.00318,474825120.00000,   0.00012,274770336.00000,  -0.00008,   0.00003,   0.00017,-320.00000,   1.00000
-247845942.05528,9461512.82566,231962381.64798,  -0.00122,   0.00055,   0.00319,474820640.00000,   0.00012,274770560.00000,  -0.00008,   0.00003,   0.00017,-256.00000,   1.00000
-246563507.35978,10561135.28296,232214954.34390,  -0.00122,   0.00056,   0.00319,474817120.00000,   0.00012,274770784.00000,  -0.00008,   0.00003,   0.00017,-160.00000,   1.00000
-245288645.89122,11640890.96949,232466479.49817,  -0.00121,   0.00056,   0.00319,474819392.00000,   0.00012,274771008.00000,  -0.00008,   0.00003,   0.00017,-128.00000,   1.00000
-244000312.82256,12729859.94171,232718704.76508,  -0.00121,   0.00056,   0.00320,474806816.00000,   0.00012,274771168.00000,  -0.00008,   0.00003,   0.00017,-224.00000,   1.00000
-242710541.78191,13818572.74674,232969297.73341,  -0.00121,   0.00056,   0.00320,474810208.00000,   0.00012,274771360.00000,  -0.00008,   0.00003,   0.00017,-320.00000,   1.00000
-241414257.79627,14927184.11860,233216168.20583,  -0.00120,   0.00057,   0.00320,474806528.00000,   0.00012,274771520.00000,  -0.00008,   0.00003,   0.00017,-128.00000,   1.00000
-240093314.88784,16033841.98995,233469606.11924,  -0.00120,   0.00057,   0.00321,474793472.00000,   0.00012,274771616.00000,  -0.00008,   0.00003,   0.00017, -32.00000,   1.00000
-238786783.77509,17131230.39807,233717309.59268,  -0.00120,   0.00057,   0.00321,474805024.00000,   0.00012,274771776.00000,  -0.00008,   0.00003,   0.00017,-160.00000,   1.00000
-237475575.95392,18218321.96970,233966375.37084,  -0.00119,   0.00057,   0.00321,474791168.00000,   0.00012,274771872.00000,  -0.00008,   0.00003,   0.00017, -32.00000,   1.00000
-236141476.64719,19334331.19917,234215442.17343,  -0.00119,   0.00058,   0.00322,474780000.00000,   0.00012,274771904.00000,  -0.00008,   0.00003,   0.00017,-128.00000,   1.00000
-234805784.83905,20450067.60685,234462742.21980,  -0.00118,   0.00058,   0.00322,474783552.00000,   0.00012,274771968.00000,  -0.00008,   0.00003,   0.00017,-288.00000,   1.00000
-233452590.00189,21574582.96363,234712411.43058,  -0.00118,   0.00058,   0.00322,474778880.00000,   0.00012,274772000.00000,  -0.00008,   0.00003,   0.00017, -32.00000,   1.00000
-232110982.01299,22679932.94190,234959919.82266,  -0.00118,   0.00058,   0.00323,474772640.00000,   0.00012,274772000.00000,  -0.00008,   0.00003,   0.00017, 640.00000,   0.00000
-230741248.07045,23813408.87382,235207428.21474,  -0.00117,   0.00059,   0.00323,474770112.00000,   0.00012,274772000.00000,  -0.00008,   0.00003,   0.00017,-1888.00000,   0.00000
-229379951.91400,24927196.63819,235449311.41610,  -0.00117,   0.00059,   0.00323,474760864.00000,   0.00012,274772000.00000,  -0.00008,   0.00003,   0.00017,-11136.00000,   0.00000
-228018655.75755,26040984.40256,235691194.61745,  -0.00116,   0.00059,   0.00324,474754688.00000,   0.00012,274772000.00000,  -0.00008,   0.00003,   0.00017,-17312.00000,   0.00000
-226629233.64746,27182898.12057,235933077.81880,  -0.00116,   0.00059,   0.00324,474745376.00000,   0.00012,274772000.00000,  -0.00008,   0.00003,   0.00017,-26624.00000,   0.00000
-225228561.15591,28313561.45712,236169335.82942,  -0.00116,   0.00060,   0.00324,474721984.00000,   0.00012,274772000.00000,  -0.00008,   0.00003,   0.00017,-50016.00000,   0.00000
-223827888.66436,29444224.79367,236399968.64932,  -0.00115,   0.00060,   0.00325,474693376.00000,   0.00012,274772000.00000,  -0.00008,   0.00003,   0.00017,-78624.00000,   0.00000
-222427216.17281,30574888.13023,236630601.46921,  -0.00115,   0.00060,   0.00325,474668160.00000,   0.00012,274772000.00000,  -0.00008,   0.00003,   0.00017,-103840.00000,   0.00000
-221006855.51370,31713989.25288,236861234.28911,  -0.00114,   0.00060,   0.00325,474639136.00000,   0.00012,274772000.00000,  -0.00008,   0.00003,   0.00017,-132864.00000,   0.00000
-219586494.85460,32853090.37552,237086241.91827,  -0.00114,   0.00061,   0.00325,474605376.00000,   0.00012,274772000.00000,  -0.00008,   0.00003,   0.00017,-166624.00000,   0.00000
-218146446.02794,34000629.28426,237305624.35671,  -0.00113,   0.00061,   0.00326,474559712.00000,   0.00012,274772000.00000,  -0.00008,   0.00003,   0.00017,-212288.00000,   0.00000
-216686709.03373,35156605.97910,237530631.98587,  -0.00113,   0.00061,   0.00326,474519328.00000,   0.00012,274772000.00000,  -0.00008,   0.00003,   0.00017,-252672.00000,   0.00000
-215255097.99317,36284456.72029,237744389.23358,  -0.00113,   0.00061,   0.00326,474471968.00000,   0.00012,274772000.00000,  -0.00008,   0.00003,   0.00017,-300032.00000,   0.00000
-213775672.83141,37448871.20122,237963771.67201,  -0.00112,   0.00062,   0.00327,474424928.00000,   0.00012,274772000.00000,  -0.00008,   0.00003,   0.00017,-347072.00000,   0.00000
-212324373.62330,38585159.72850,238171903.72899,  -0.00112,   0.00062,   0.00327,474370720.00000,   0.00012,274772000.00000,  -0.00008,   0.00003,   0.00017,-401280.00000,   0.00000
-210825260.29399,39758011.99552,238385660.97670,  -0.00111,   0.00062,   0.00327,474317632.00000,   0.00012,274772000.00000,  -0.00008,   0.00003,   0.00017,-454368.00000,   0.00000
-209354272.91832,40902738.30890,238588167.84295,  -0.00111,   0.00062,   0.00327,474257280.00000,   0.00012,274772000.00000,  -0.00008,   0.00003,   0.00017,-514720.00000,   0.00000
-207863597.37511,42055902.40837,238796299.89992,  -0.00110,   0.00062,   0.00328,474203296.00000,   0.00012,274772000.00000,  -0.00008,   0.00003,   0.00017,-568704.00000,   0.00000
-206353233.66434,43217504.29393,238998806.76617,  -0.00110,   0.00063,   0.00328,474138752.00000,   0.00012,274772000.00000,  -0.00008,   0.00003,   0.00017,-633248.00000,   0.00000
-204842869.95357,44379106.17950,239195688.44169,  -0.00109,   0.00063,   0.00328,474070560.00000,   0.00012,274772000.00000,  -0.00008,   0.00003,   0.00017,-701440.00000,   0.00000
-203332506.24280,45540708.06506,239392570.11721,  -0.00109,   0.00063,   0.00328,474007200.00000,   0.00012,274772000.00000,  -0.00008,   0.00003,   0.00017,-764800.00000,   0.00000
-201802454.36448,46710747.73672,239583826.60200,  -0.00109,   0.00063,   0.00329,473933280.00000,   0.00012,274772000.00000,  -0.00008,   0.00003,   0.00017,-838720.00000,   0.00000
-200252714.31860,47889225.19447,239775083.08679,  -0.00108,   0.00064,   0.00329,473857408.00000,   0.00012,274772000.00000,  -0.00008,   0.00003,   0.00017,-914592.00000,   0.00000
-198711412.05882,49048014.48467,239966339.57158,  -0.00108,   0.00064,   0.00329,473784032.00000,   0.00012,274772000.00000,  -0.00008,   0.00003,   0.00017,-987968.00000,   0.00000
-197161672.01295,50226491.94242,240151970.86564,  -0.00107,   0.00064,   0.00329,473708992.00000,   0.00012,274772000.00000,  -0.00008,   0.00003,   0.00017,-1063008.00000,   0.00000
-195600681.58562,51393719.01871,240331976.96897,  -0.00107,   0.00064,   0.00330,473620992.00000,   0.00012,274772000.00000,  -0.00008,   0.00003,   0.00017,-1151008.00000,   0.00000
-194039691.15829,52560946.09501,240511983.07231,  -0.00106,   0.00065,   0.00330,473537408.00000,   0.00012,274772000.00000,  -0.00008,   0.00003,   0.00017,-1234592.00000,   0.00000
-192470262.94486,53747861.33885,240686363.98491,  -0.00106,   0.00065,   0.00330,473451808.00000,   0.00012,274772000.00000,  -0.00008,   0.00003,   0.00017,-1320192.00000,   0.00000
-190869896.18242,54931963.98733,240860744.89751,  -0.00105,   0.00065,   0.00330,473355232.00000,   0.00012,274772000.00000,  -0.00008,   0.00003,   0.00017,-1416768.00000,   0.00000
-189289217.58754,56107628.84972,241035125.81011,  -0.00105,   0.00065,   0.00331,473269472.00000,   0.00012,274772000.00000,  -0.00008,   0.00003,   0.00017,-1502528.00000,   0.00000
-187688850.82511,57291731.49820,241203881.53199,  -0.00104,   0.00065,   0.00331,473172736.00000,   0.00012,274772000.00000,  -0.00008,   0.00003,   0.00017,-1599264.00000,   0.00000
-186088484.06267,58475834.14668,241367012.06313,  -0.00104,   0.00066,   0.00331,473071552.00000,   0.00012,274772000.00000,  -0.00008,   0.00003,   0.00017,-1700448.00000,   0.00000
-184476866.91878,59648686.41370,241530142.59428,  -0.00103,   0.00066,   0.00331,472965728.00000,   0.00012,274772000.00000,  -0.00008,   0.00003,   0.00017,-1806272.00000,   0.00000
-182856811.98879,60841226.84828,241693273.12542,  -0.00103,   0.00066,   0.00331,472866464.00000,   0.00012,274772000.00000,  -0.00008,   0.00003,   0.00017,-1905536.00000,   0.00000
-181217068.89125,62042205.06894,241850778.46584,  -0.00102,   0.00066,   0.00332,472756416.00000,   0.00012,274772000.00000,  -0.00008,   0.00003,   0.00017,-2015584.00000,   0.00000
-179585763.57980,63223495.12206,242002658.61552,  -0.00102,   0.00067,   0.00332,472639424.00000,   0.00012,274772000.00000,  -0.00008,   0.00003,   0.00017,-2132576.00000,   0.00000
-177934770.10081,64413222.96127,242154538.76521,  -0.00101,   0.00067,   0.00332,472520672.00000,   0.00012,274772000.00000,  -0.00008,   0.00003,   0.00017,-2251328.00000,   0.00000
-176283776.62181,65602950.80048,242306418.91490,  -0.00101,   0.00067,   0.00332,472406016.00000,   0.00012,274772000.00000,  -0.00008,   0.00003,   0.00017,-2365984.00000,   0.00000
-174624345.35672,66812366.80724,242452673.87385,  -0.00100,   0.00067,   0.00332,472289984.00000,   0.00012,274772000.00000,  -0.00008,   0.00003,   0.00017,-2482016.00000,   0.00000
-172953663.71017,68010532.43254,242593303.64208,  -0.00100,   0.00067,   0.00333,472161152.00000,   0.00012,274772000.00000,  -0.00008,   0.00003,   0.00017,-2610848.00000,   0.00000
-171291419.84971,69189009.89029,242733933.41031,  -0.00099,   0.00068,   0.00333,472034624.00000,   0.00012,274772000.00000,  -0.00008,   0.00003,   0.00017,-2737376.00000,   0.00000
-169601050.03561,70395613.30169,242868937.98781,  -0.00099,   0.00068,   0.00333,471900864.00000,   0.00012,274772000.00000,  -0.00008,   0.00003,   0.00017,-2871136.00000,   0.00000
-167910680.22151,71602216.71309,243003942.56531,  -0.00098,   0.00068,   0.00333,471772608.00000,   0.00012,274772000.00000,  -0.00008,   0.00003,   0.00017,-2999392.00000,   0.00000
-166228748.19350,72789131.95693,243138947.14281,  -0.00097,   0.00068,   0.00333,471646784.00000,   0.00012,274772000.00000,  -0.00008,   0.00003,   0.00017,-3125216.00000,   0.00000
-164518690.21185,74004173.15442,243262701.33885,  -0.00097,   0.00069,   0.00333,471506464.00000,   0.00012,274772000.00000,  -0.00008,   0.00003,   0.00017,-3265536.00000,   0.00000
-162817070.01629,75199526.18436,243392080.72562,  -0.00096,   0.00069,   0.00334,471377888.00000,   0.00012,274772000.00000,  -0.00008,   0.00003,   0.00017,-3394112.00000,   0.00000
-161095761.65318,76403317.00039,243515834.92166,  -0.00096,   0.00069,   0.00334,471241344.00000,   0.00012,274772000.00000,  -0.00008,   0.00003,   0.00017,-3530656.00000,   0.00000
-159374453.29006,77607107.81643,243633963.92697,  -0.00095,   0.00069,   0.00334,471102176.00000,   0.00012,274772000.00000,  -0.00008,   0.00003,   0.00017,-3669824.00000,   0.00000
-157653144.92695,78810898.63246,243752092.93228,  -0.00095,   0.00069,   0.00334,470968416.00000,   0.00012,274772000.00000,  -0.00008,   0.00003,   0.00017,-3803584.00000,   0.00000
-155912148.39629,80023127.23459,243864596.74686,  -0.00094,   0.00070,   0.00334,470824736.00000,   0.00012,274772000.00000,  -0.00008,   0.00003,   0.00017,-3947264.00000,   0.00000
-154171151.86562,81235355.83671,243977100.56145,  -0.00094,   0.00070,   0.00334,470684480.00000,   0.00012,274772000.00000,  -0.00008,   0.00003,   0.00017,-4087520.00000,   0.00000
-152418904.95350,82436334.05738,244083979.18530,  -0.00093,   0.00070,   0.00335,470530976.00000,   0.00012,274772000.00000,  -0.00008,   0.00003,   0.00017,-4241024.00000,   0.00000
-150658220.25529,83657000.44560,244185232.61842,  -0.00092,   0.00070,   0.00335,470378368.00000,   0.00012,274772000.00000,  -0.00008,   0.00003,   0.00017,-4393632.00000,   0.00000
-148905973.34317,84857978.66627,244292111.24228,  -0.00092,   0.00070,   0.00335,470239776.00000,   0.00012,274772000.00000,  -0.00008,   0.00003,   0.00017,-4532224.00000,   0.00000
-147134038.26349,86067394.67303,244387739.48467,  -0.00091,   0.00071,   0.00335,470085440.00000,   0.00012,274772000.00000,  -0.00008,   0.00003,   0.00017,-4686560.00000,   0.00000
-145362103.18382,87276810.67979,244483367.72707,  -0.00091,   0.00071,   0.00335,469934848.00000,   0.00012,274772000.00000,  -0.00008,   0.00003,   0.00017,-4837152.00000,   0.00000
-143590168.10414,88486226.68655,244578995.96946,  -0.00090,   0.00071,   0.00335,469785760.00000,   0.00012,274772000.00000,  -0.00008,   0.00003,   0.00017,-4986240.00000,   0.00000
-141798544.85692,89704080.47941,244668999.02113,  -0.00090,   0.00071,   0.00335,469624960.00000,   0.00012,274772000.00000,  -0.00008,   0.00003,   0.00017,-5147040.00000,   0.00000
-140006921.60969,90921934.27226,244753376.88207,  -0.00089,   0.00071,   0.00335,469459200.00000,   0.00012,274772000.00000,  -0.00008,   0.00003,   0.00017,-5312800.00000,   0.00000
-138204047.98101,92128537.68366,244837754.74300,  -0.00088,   0.00072,   0.00336,469290624.00000,   0.00012,274772000.00000,  -0.00008,   0.00003,   0.00017,-5481376.00000,   0.00000
-136392736.56623,93354829.26261,244916507.41321,  -0.00088,   0.00072,   0.00336,469123008.00000,   0.00012,274772000.00000,  -0.00008,   0.00003,   0.00017,-5648992.00000,   0.00000
-134589862.93755,94561432.67400,244995260.08342,  -0.00087,   0.00072,   0.00336,468958272.00000,   0.00012,274772000.00000,  -0.00008,   0.00003,   0.00017,-5813728.00000,   0.00000
-132767301.14131,95776473.87149,245068387.56290,  -0.00087,   0.00072,   0.00336,468786176.00000,   0.00012,274772000.00000,  -0.00008,   0.00003,   0.00017,-5985824.00000,   0.00000
-130936301.55898,97011203.23654,245141515.04237,  -0.00086,   0.00072,   0.00336,468624160.00000,   0.00012,274772000.00000,  -0.00008,   0.00003,   0.00017,-6147840.00000,   0.00000
-129122177.54884,98206556.26648,245209017.33112,  -0.00086,   0.00073,   0.00336,468452736.00000,   0.00012,274772000.00000,  -0.00008,   0.00003,   0.00017,-6319264.00000,   0.00000
-127299615.75260,99421597.46397,245276519.61987,  -0.00085,   0.00073,   0.00336,468291936.00000,   0.00012,274772000.00000,  -0.00008,   0.00003,   0.00017,-6480064.00000,   0.00000
-125457365.78882,100645076.44755,245338396.71789,  -0.00084,   0.00073,   0.00336,468124800.00000,   0.00012,274772000.00000,  -0.00008,   0.00003,   0.00017,-6647200.00000,   0.00000
-123603865.44357,101857305.04968,245400273.81591,  -0.00084,   0.00073,   0.00336,467956960.00000,   0.00012,274772000.00000,  -0.00008,   0.00003,   0.00017,-6815040.00000,   0.00000
-121761615.47978,103080784.03326,245456525.72321,  -0.00083,   0.00073,   0.00336,467795328.00000,   0.00012,274772000.00000,  -0.00008,   0.00003,   0.00017,-6976672.00000,   0.00000
-119908115.13454,104293012.63539,245507152.43977,  -0.00083,   0.00074,   0.00336,467623136.00000,   0.00012,274772000.00000,  -0.00008,   0.00003,   0.00017,-7148864.00000,   0.00000
-118034926.62174,105513679.02361,245557779.15633,  -0.00082,   0.00074,   0.00336,467452544.00000,   0.00012,274772000.00000,  -0.00008,   0.00003,   0.00017,-7319456.00000,   0.00000
-116181426.27649,106725907.62573,245602780.68216,  -0.00081,   0.00074,   0.00337,467282208.00000,   0.00012,274772000.00000,  -0.00008,   0.00003,   0.00017,-7489792.00000,   0.00000
-114308237.76369,107946574.01395,245647782.20800,  -0.00081,   0.00074,   0.00337,467112128.00000,   0.00012,274772000.00000,  -0.00008,   0.00003,   0.00017,-7659872.00000,   0.00000
-112435049.25090,109167240.40217,245687158.54310,  -0.00080,   0.00074,   0.00337,466937344.00000,   0.00012,274772000.00000,  -0.00008,   0.00003,   0.00017,-7834656.00000,   0.00000
-110550610.35664,110376656.40893,245726534.87820,  -0.00079,   0.00075,   0.00337,466758496.00000,   0.00012,274772000.00000,  -0.00008,   0.00003,   0.00017,-8013504.00000,   0.00000
-108657733.67629,111605760.58325,245760286.02258,  -0.00079,   0.00075,   0.00337,466579264.00000,   0.00012,274772000.00000,  -0.00008,   0.00003,   0.00017,-8192736.00000,   0.00000
-106773294.78203,112815176.59001,245794037.16695,  -0.00078,   0.00075,   0.00337,466400672.00000,   0.00012,274772000.00000,  -0.00008,   0.00003,   0.00017,-8371328.00000,   0.00000
-104888855.88778,114024592.59677,245822163.12060,  -0.00078,   0.00075,   0.00337,466218272.00000,   0.00012,274772000.00000,  -0.00008,   0.00003,   0.00017,-8553728.00000,   0.00000
-102984728.82597,115242446.38963,245844663.88352,  -0.00077,   0.00075,   0.00337,466028928.00000,   0.00012,274772000.00000,  -0.00008,   0.00003,   0.00017,-8743072.00000,   0.00000
-101080601.76416,116460300.18248,245867164.64643,  -0.00076,   0.00076,   0.00337,465846048.00000,   0.00012,274772000.00000,  -0.00008,   0.00003,   0.00017,-8925952.00000,   0.00000
-99176474.70235,117678153.97534,245884040.21862,  -0.00076,   0.00076,   0.00337,465660864.00000,   0.00012,274772000.00000,  -0.00008,   0.00003,   0.00017,-9111136.00000,   0.00000
-97261097.25909,118884757.38673,245900915.79081,  -0.00075,   0.00076,   0.00337,465474656.00000,   0.00012,274772000.00000,  -0.00008,   0.00003,   0.00017,-9297344.00000,   0.00000
-95337282.02973,120111048.96568,245912166.17226,  -0.00074,   0.00076,   0.00337,465291072.00000,   0.00012,274772000.00000,  -0.00008,   0.00003,   0.00017,-9480928.00000,   0.00000
-93421904.58646,121317652.37708,245923416.55372,  -0.00074,   0.00076,   0.00337,465110336.00000,   0.00012,274772000.00000,  -0.00008,   0.00003,   0.00017,-9661664.00000,   0.00000
-91506527.14319,122524255.78848,245929041.74445,  -0.00073,   0.00076,   0.00337,464927552.00000,   0.00012,274772000.00000,  -0.00008,   0.00003,   0.00017,-9844448.00000,   0.00000
-89571461.53237,123739296.98597,245929041.74445,  -0.00072,   0.00077,   0.00337,464739520.00000,   0.00012,274772000.00000,  -0.00008,   0.00003,   0.00017,-10032480.00000,   0.00000
-87636395.92156,124954338.18346,245929041.74445,  -0.00072,   0.00077,   0.00337,464558208.00000,   0.00012,274772000.00000,  -0.00008,   0.00003,   0.00017,-10213792.00000,   0.00000
-85701330.31074,126169379.38095,245923416.55372,  -0.00071,   0.00077,   0.00337,464374432.00000,   0.00012,274772000.00000,  -0.00008,   0.00003,   0.00017,-10397568.00000,   0.00000
-83774702.48601,127364732.41089,245917791.36299,  -0.00071,   0.00077,   0.00337,464192224.00000,   0.00012,274772000.00000,  -0.00008,   0.00003,   0.00017,-10579776.00000,   0.00000
-81828386.49374,128568523.22692,245906540.98154,  -0.00070,   0.00077,   0.00337,464003744.00000,   0.00012,274772000.00000,  -0.00008,   0.00003,   0.00017,-10768256.00000,   0.00000
-79873632.71537,129792002.21050,245895290.60008,  -0.00069,   0.00077,   0.00337,463825440.00000,   0.00012,274772000.00000,  -0.00008,   0.00003,   0.00017,-10946560.00000,   0.00000
-77927316.72309,130995793.02653,245878415.02789,  -0.00069,   0.00078,   0.00337,463638944.00000,   0.00012,274772000.00000,  -0.00008,   0.00003,   0.00017,-11133056.00000,   0.00000
-75981000.73081,132199583.84257,245855914.26497,  -0.00068,   0.00078,   0.00337,463448768.00000,   0.00012,274772000.00000,  -0.00008,   0.00003,   0.00017,-11323232.00000,   0.00000
-74043122.52463,133383686.49105,245833413.50206,  -0.00067,   0.00078,   0.00337,463258912.00000,   0.00012,274772000.00000,  -0.00008,   0.00003,   0.00017,-11513088.00000,   0.00000
-72077118.36480,134595915.09317,245805287.54841,  -0.00067,   0.00078,   0.00337,463066944.00000,   0.00012,274772000.00000,  -0.00008,   0.00003,   0.00017,-11705056.00000,   0.00000
-70119551.99107,135788455.52775,245777161.59477,  -0.00066,   0.00078,   0.00337,462875296.00000,   0.00012,274772000.00000,  -0.00008,   0.00003,   0.00017,-11896704.00000,   0.00000
-68153547.83124,137000684.12987,245743410.45039,  -0.00065,   0.00078,   0.00337,462684896.00000,   0.00012,274772000.00000,  -0.00008,   0.00003,   0.00017,-12087104.00000,   0.00000
-66176293.28995,138201662.35054,245704034.11529,  -0.00065,   0.00079,   0.00337,462483488.00000,   0.00012,274772000.00000,  -0.00008,   0.00003,   0.00017,-12288512.00000,   0.00000
-64218726.91622,139394202.78512,245664657.78018,  -0.00064,   0.00079,   0.00337,462290368.00000,   0.00012,274772000.00000,  -0.00008,   0.00003,   0.00017,-12481632.00000,   0.00000
-62249910.16102,140575492.83823,245625281.44508,  -0.00063,   0.00079,   0.00337,462096000.00000,   0.00012,274772000.00000,  -0.00008,   0.00003,   0.00017,-12676000.00000,   0.00000
-60272655.61974,141776471.05890,245580279.91925,  -0.00063,   0.00079,   0.00337,461903936.00000,   0.00012,274772000.00000,  -0.00008,   0.00003,   0.00017,-12868064.00000,   0.00000
-58295401.07845,142977449.27957,245529653.20268,  -0.00062,   0.00079,   0.00336,461709632.00000,   0.00012,274772000.00000,  -0.00008,   0.00003,   0.00017,-13062368.00000,   0.00000
-56306896.15570,144167177.11878,245473401.29539,  -0.00061,   0.00079,   0.00336,461505920.00000,   0.00012,274772000.00000,  -0.00008,   0.00003,   0.00017,-13266080.00000,   0.00000
-54338079.40051,145348467.17189,245417149.38810,  -0.00061,   0.00080,   0.00336,461311808.00000,   0.00012,274772000.00000,  -0.00008,   0.00003,   0.00017,-13460192.00000,   0.00000
-52349574.47777,146538195.01110,245360897.48081,  -0.00060,   0.00080,   0.00336,461122784.00000,   0.00012,274772000.00000,  -0.00008,   0.00003,   0.00017,-13649216.00000,   0.00000
-50361069.55502,147727922.85031,245299020.38279,  -0.00059,   0.00080,   0.00336,460932032.00000,   0.00012,274772000.00000,  -0.00008,   0.00003,   0.00017,-13839968.00000,   0.00000
-48381002.41837,148897962.52197,245231518.09404,  -0.00059,   0.00080,   0.00336,460734560.00000,   0.00012,274772000.00000,  -0.00008,   0.00003,   0.00017,-14037440.00000,   0.00000
-46392497.49563,150087690.36118,245164015.80529,  -0.00058,   0.00080,   0.00336,460549376.00000,   0.00012,274772000.00000,  -0.00008,   0.00003,   0.00017,-14222624.00000,   0.00000
-44412430.35897,151257730.03284,245090888.32581,  -0.00057,   0.00080,   0.00336,460356896.00000,   0.00012,274772000.00000,  -0.00008,   0.00003,   0.00017,-14415104.00000,   0.00000
-42432363.22232,152427769.70449,245012135.65560,  -0.00057,   0.00080,   0.00336,460162016.00000,   0.00012,274772000.00000,  -0.00008,   0.00003,   0.00017,-14609984.00000,   0.00000
-40432607.91812,153606247.16225,244933382.98540,  -0.00056,   0.00081,   0.00336,459971744.00000,   0.00012,274772000.00000,  -0.00008,   0.00003,   0.00017,-14800256.00000,   0.00000
-38432852.61392,154784724.62000,244849005.12446,  -0.00055,   0.00081,   0.00336,459778752.00000,   0.00012,274772000.00000,  -0.00008,   0.00003,   0.00017,-14993248.00000,   0.00000
-36433097.30971,155963202.07775,244764627.26352,  -0.00055,   0.00081,   0.00335,459591776.00000,   0.00012,274772000.00000,  -0.00008,   0.00003,   0.00017,-15180224.00000,   0.00000
-34461467.95915,157113553.58185,244674624.21186,  -0.00054,   0.00081,   0.00335,459397696.00000,   0.00012,274772000.00000,  -0.00008,   0.00003,   0.00017,-15374304.00000,   0.00000
-32450462.27349,158280780.65815,244584621.16019,  -0.00053,   0.00081,   0.00335,459206336.00000,   0.00012,274772000.00000,  -0.00008,   0.00003,   0.00017,-15565664.00000,   0.00000
-30450706.96929,159459258.11590,244488992.91780,  -0.00053,   0.00081,   0.00335,459018464.00000,   0.00012,274772000.00000,  -0.00008,   0.00003,   0.00017,-15753536.00000,   0.00000
-28467827.23727,160598359.23855,244387739.48467,  -0.00052,   0.00081,   0.00335,458816320.00000,   0.00012,274772000.00000,  -0.00008,   0.00003,   0.00017,-15955680.00000,   0.00000
-26476509.71916,161757148.52874,244286486.05155,  -0.00051,   0.00082,   0.00335,458625248.00000,   0.00012,274772000.00000,  -0.00008,   0.00003,   0.00017,-16146752.00000,   0.00000
-24465504.03350,162924375.60504,244179607.42769,  -0.00051,   0.00082,   0.00335,458429792.00000,   0.00012,274772000.00000,  -0.00008,   0.00003,   0.00017,-16342208.00000,   0.00000
-22482624.30149,164063476.72769,244072728.80384,  -0.00050,   0.00082,   0.00335,458236128.00000,   0.00012,274772000.00000,  -0.00008,   0.00003,   0.00017,-16535872.00000,   0.00000
-20480056.40192,165211015.63643,243960224.98926,  -0.00049,   0.00082,   0.00334,458038144.00000,   0.00012,274772000.00000,  -0.00008,   0.00003,   0.00017,-16733856.00000,   0.00000
-18469050.71626,166378242.71272,243842095.98395,  -0.00048,   0.00082,   0.00334,457843264.00000,   0.00012,274772000.00000,  -0.00008,   0.00003,   0.00017,-16928736.00000,   0.00000
-16494608.77034,167497655.66782,243723966.97864,  -0.00048,   0.00082,   0.00334,457644544.00000,   0.00012,274772000.00000,  -0.00008,   0.00003,   0.00017,-17127456.00000,   0.00000
-14492040.87077,168645194.57656,243600212.78259,  -0.00047,   0.00082,   0.00334,457447904.00000,   0.00012,274772000.00000,  -0.00008,   0.00003,   0.00017,-17324096.00000,   0.00000
-12489472.97120,169792733.48530,243476458.58655,  -0.00046,   0.00083,   0.00334,457258176.00000,   0.00012,274772000.00000,  -0.00008,   0.00003,   0.00017,-17513824.00000,   0.00000
-10495342.85773,170920584.22649,243347079.19978,  -0.00046,   0.00083,   0.00334,457060480.00000,   0.00012,274772000.00000,  -0.00008,   0.00003,   0.00017,-17711520.00000,   0.00000
-8501212.74425,172048434.96768,243212074.62229,  -0.00045,   0.00083,   0.00333,456860544.00000,   0.00012,274772000.00000,  -0.00008,   0.00003,   0.00017,-17911456.00000,   0.00000
-6507082.63078,173176285.70886,243077070.04479,  -0.00044,   0.00083,   0.00333,456667680.00000,   0.00012,274772000.00000,  -0.00008,   0.00003,   0.00017,-18104320.00000,   0.00000
-4512952.51730,174304136.45005,242936440.27656,  -0.00044,   0.00083,   0.00333,456472704.00000,   0.00012,274772000.00000,  -0.00008,   0.00003,   0.00017,-18299296.00000,   0.00000
-2527260.18992,175412299.02369,242790185.31760,  -0.00043,   0.00083,   0.00333,456270048.00000,   0.00012,274772000.00000,  -0.00008,   0.00003,   0.00017,-18501952.00000,   0.00000
-533130.07645,176540149.76488,242643930.35864,  -0.00042,   0.00083,   0.00333,456080256.00000,   0.00012,274772000.00000,  -0.00008,   0.00003,   0.00017,-18691744.00000,   0.00000
1452562.25093,177648312.33852,242497675.39969,  -0.00042,   0.00083,   0.00332,455891680.00000,   0.00012,274772000.00000,  -0.00008,   0.00003,   0.00017,-18880320.00000,   0.00000
3438254.57831,178756474.91216,242345795.25000,  -0.00041,   0.00083,   0.00332,455701312.00000,   0.00012,274772000.00000,  -0.00008,   0.00003,   0.00017,-19070688.00000,   0.00000
5423946.90569,179864637.48579,242188289.90958,  -0.00040,   0.00084,   0.00332,455509280.00000,   0.00012,274772000.00000,  -0.00008,   0.00003,   0.00017,-19262720.00000,   0.00000
7409639.23307,180972800.05943,242025159.37844,  -0.00040,   0.00084,   0.00332,455315776.00000,   0.00012,274772000.00000,  -0.00008,   0.00003,   0.00017,-19456224.00000,   0.00000
9386893.77436,182061274.46551,241862028.84730,  -0.00039,   0.00084,   0.00332,455123392.00000,   0.00012,274772000.00000,  -0.00008,   0.00003,   0.00017,-19648608.00000,   0.00000
11364148.31565,183149748.87160,241698898.31615,  -0.00038,   0.00084,   0.00331,454938720.00000,   0.00012,274772000.00000,  -0.00008,   0.00003,   0.00017,-19833280.00000,   0.00000
13341402.85693,184238223.27769,241530142.59428,  -0.00037,   0.00084,   0.00331,454752768.00000,   0.00012,274772000.00000,  -0.00008,   0.00003,   0.00017,-20019232.00000,   0.00000
15318657.39822,185326697.68377,241355761.68167,  -0.00037,   0.00084,   0.00331,454565664.00000,   0.00012,274772000.00000,  -0.00008,   0.00003,   0.00017,-20206336.00000,   0.00000
17295911.93951,186415172.08986,241175755.57834,  -0.00036,   0.00084,   0.00331,454377120.00000,   0.00012,274772000.00000,  -0.00008,   0.00003,   0.00017,-20394880.00000,   0.00000
19264728.69470,187483958.32839,240995749.47501,  -0.00035,   0.00084,   0.00331,454190016.00000,   0.00012,274772000.00000,  -0.00008,   0.00003,   0.00017,-20581984.00000,   0.00000
21241983.23599,188572432.73448,240815743.37168,  -0.00035,   0.00084,   0.00330,454016224.00000,   0.00012,274772000.00000,  -0.00008,   0.00003,   0.00017,-20755776.00000,   0.00000
23191111.82363,189632781.18691,240624486.88689,  -0.00034,   0.00085,   0.00330,453823712.00000,   0.00012,274772000.00000,  -0.00008,   0.00003,   0.00017,-20948288.00000,   0.00000
25159928.57882,190701567.42545,240438855.59283,  -0.00033,   0.00085,   0.00330,453645408.00000,   0.00012,274772000.00000,  -0.00008,   0.00003,   0.00017,-21126592.00000,   0.00000
27128745.33401,191770353.66398,240241973.91731,  -0.00033,   0.00085,   0.00330,453452448.00000,   0.00012,274772000.00000,  -0.00008,   0.00003,   0.00017,-21319552.00000,   0.00000
29069436.13556,192811013.94887,240045092.24179,  -0.00032,   0.00085,   0.00329,453254240.00000,   0.00012,274772000.00000,  -0.00008,   0.00003,   0.00017,-21517760.00000,   0.00000
31029815.10466,193860112.01985,239848210.56627,  -0.00031,   0.00085,   0.00329,453057024.00000,   0.00012,274772000.00000,  -0.00008,   0.00003,   0.00017,-21714976.00000,   0.00000
32970505.90621,194900772.30474,239640078.50929,  -0.00031,   0.00085,   0.00329,452842464.00000,   0.00012,274772000.00000,  -0.00008,   0.00003,   0.00017,-21929536.00000,   0.00000
34911196.70776,195941432.58963,239431946.45231,  -0.00030,   0.00085,   0.00329,452630432.00000,   0.00012,274772000.00000,  -0.00008,   0.00003,   0.00017,-22141568.00000,   0.00000
36851887.50930,196982092.87451,239223814.39534,  -0.00029,   0.00085,   0.00328,452424000.00000,   0.00012,274772000.00000,  -0.00008,   0.00003,   0.00017,-22348000.00000,   0.00000
38792578.31085,198022753.15940,239010057.14763,  -0.00029,   0.00085,   0.00328,452218496.00000,   0.00012,274772000.00000,  -0.00008,   0.00003,   0.00017,-22553504.00000,   0.00000
40724831.32631,199043725.27674,238790674.70919,  -0.00028,   0.00085,   0.00328,452011680.00000,   0.00012,274772000.00000,  -0.00008,   0.00003,   0.00017,-22760320.00000,   0.00000
42657084.34176,200064697.39407,238571292.27076,  -0.00027,   0.00086,   0.00327,451821056.00000,   0.00012,274772000.00000,  -0.00008,   0.00003,   0.00017,-22950944.00000,   0.00000
44569649.18966,201077231.72532,238346284.64159,  -0.00027,   0.00086,   0.00327,451635296.00000,   0.00012,274772000.00000,  -0.00008,   0.00003,   0.00017,-23136704.00000,   0.00000
46501902.20511,202098203.84265,238121277.01243,  -0.00026,   0.00086,   0.00327,451460672.00000,   0.00012,274772000.00000,  -0.00008,   0.00003,   0.00017,-23311328.00000,   0.00000
48406029.26692,203091050.00634,237890644.19253,  -0.00025,   0.00086,   0.00327,451275072.00000,   0.00012,274772000.00000,  -0.00008,   0.00003,   0.00017,-23496928.00000,   0.00000
50310156.32873,204083896.17003,237654386.18191,  -0.00025,   0.00086,   0.00326,451084128.00000,   0.00012,274772000.00000,  -0.00008,   0.00003,   0.00017,-23687872.00000,   0.00000
52222721.17663,205096430.50127,237418128.17129,  -0.00024,   0.00086,   0.00326,450902912.00000,   0.00012,274772000.00000,  -0.00008,   0.00003,   0.00017,-23869088.00000,   0.00000
54118410.45235,206069588.49741,237176244.96994,  -0.00023,   0.00086,   0.00326,450702400.00000,   0.00012,274772000.00000,  -0.00008,   0.00003,   0.00017,-24069600.00000,   0.00000
56002849.34660,207053996.87501,236934361.76858,  -0.00023,   0.00086,   0.00325,450511648.00000,   0.00012,274772000.00000,  -0.00008,   0.00003,   0.00017,-24260352.00000,   0.00000
57898538.62232,208027154.87115,236681228.18577,  -0.00022,   0.00086,   0.00325,450302176.00000,   0.00012,274772000.00000,  -0.00008,   0.00003,   0.00017,-24469824.00000,   0.00000
59782977.51657,209011563.24874,236433719.79369,  -0.00021,   0.00086,   0.00325,450112576.00000,   0.00012,274772000.00000,  -0.00008,   0.00003,   0.00017,-24659424.00000,   0.00000
61658978.62474,209976283.45879,236180586.21088,  -0.00020,   0.00086,   0.00324,449912960.00000,   0.00012,274772000.00000,  -0.00008,   0.00003,   0.00017,-24859040.00000,   0.00000
63534979.73290,210941003.66883,235921827.43734,  -0.00020,   0.00086,   0.00324,449710560.00000,   0.00012,274772000.00000,  -0.00008,   0.00003,   0.00017,-25061440.00000,   0.00000
65382854.88742,211877597.92523,235657443.47307,  -0.00019,   0.00086,   0.00324,449496928.00000,   0.00012,274772000.00000,  -0.00008,   0.00003,   0.00017,-25275072.00000,   0.00000
67258855.99558,212842318.13528,235393059.50880,  -0.00019,   0.00087,   0.00323,449298304.00000,   0.00012,274772000.00000,  -0.00008,   0.00003,   0.00017,-25473696.00000,   0.00000
69106731.15010,213778912.39168,235128675.54454,  -0.00018,   0.00087,   0.00323,449097728.00000,   0.00012,274772000.00000,  -0.00008,   0.00003,   0.00017,-25674272.00000,   0.00000
70934918.13706,214707068.86198,234853041.19881,  -0.00017,   0.00087,   0.00323,448884224.00000,   0.00012,274772000.00000,  -0.00008,   0.00003,   0.00017,-25887776.00000,   0.00000
72774355.50548,215623974.95083,234583032.04381,  -0.00017,   0.00087,   0.00322,448680448.00000,   0.00012,274772000.00000,  -0.00008,   0.00003,   0.00017,-26091552.00000,   0.00000
74602542.49245,216552131.42113,234301772.50735,  -0.00016,   0.00087,   0.00322,448470592.00000,   0.00012,274772000.00000,  -0.00008,   0.00003,   0.00017,-26301408.00000,   0.00000
76422291.69332,217460599.72389,234020512.97090,  -0.00015,   0.00087,   0.00321,448260160.00000,   0.00012,274772000.00000,  -0.00008,   0.00003,   0.00017,-26511840.00000,   0.00000
78242040.89419,218369068.02664,233733628.24371,  -0.00015,   0.00087,   0.00321,448046816.00000,   0.00012,274772000.00000,  -0.00008,   0.00003,   0.00017,-26725184.00000,   0.00000
80061790.09506,219277536.32939,233446743.51653,  -0.00014,   0.00087,   0.00321,447839616.00000,   0.00012,274772000.00000,  -0.00008,   0.00003,   0.00017,-26932384.00000,   0.00000
81861851.12838,220177566.84605,233154233.59861,  -0.00013,   0.00087,   0.00320,447627456.00000,   0.00012,274772000.00000,  -0.00008,   0.00003,   0.00017,-27144544.00000,   0.00000
83653474.37561,221057909.19516,232861723.68070,  -0.00013,   0.00087,   0.00320,447413760.00000,   0.00012,274772000.00000,  -0.00008,   0.00003,   0.00017,-27358240.00000,   0.00000
85425409.45528,221929813.75818,232563588.57206,  -0.00012,   0.00087,   0.00320,447194464.00000,   0.00012,274772000.00000,  -0.00008,   0.00003,   0.00017,-27577536.00000,   0.00000
87197344.53496,222801718.32119,232265453.46341,  -0.00011,   0.00087,   0.00319,446980640.00000,   0.00012,274772000.00000,  -0.00008,   0.00003,   0.00017,-27791360.00000,   0.00000
88969279.61463,223673622.88420,231956067.97331,  -0.00011,   0.00087,   0.00319,446754592.00000,   0.00012,274772000.00000,  -0.00008,   0.00003,   0.00017,-28017408.00000,   0.00000
90741214.69430,224545527.44722,231652307.67394,  -0.00010,   0.00087,   0.00318,446542592.00000,   0.00012,274772000.00000,  -0.00008,   0.00003,   0.00017,-28229408.00000,   0.00000
92485023.82033,225389306.05659,231337296.99311,  -0.00009,   0.00087,   0.00318,446308288.00000,   0.00012,274772000.00000,  -0.00008,   0.00003,   0.00017,-28463712.00000,   0.00000
94228832.94636,226233084.66595,231022286.31228,  -0.00009,   0.00087,   0.00318,446079168.00000,   0.00012,274772000.00000,  -0.00008,   0.00003,   0.00017,-28692832.00000,   0.00000
95972642.07239,227076863.27532,230707275.63144,  -0.00008,   0.00087,   0.00317,445854944.00000,   0.00012,274772000.00000,  -0.00008,   0.00003,   0.00017,-28917056.00000,   0.00000
97688325.24477,227892515.93105,230386639.75988,  -0.00008,   0.00087,   0.00317,445616928.00000,   0.00012,274772000.00000,  -0.00008,   0.00003,   0.00017,-29155072.00000,   0.00000
99412446.20325,228727856.75432,230060378.69760,  -0.00007,   0.00087,   0.00316,445382784.00000,   0.00012,274772000.00000,  -0.00008,   0.00003,   0.00017,-29389216.00000,   0.00000
101108441.20808,229535071.62395,229734117.63531,  -0.00006,   0.00088,   0.00316,445143168.00000,   0.00012,274772000.00000,  -0.00008,   0.00003,   0.00017,-29628832.00000,   0.00000
102804436.21291,230342286.49358,229402231.38229,  -0.00006,   0.00088,   0.00315,444899936.00000,   0.00012,274772000.00000,  -0.00008,   0.00003,   0.00017,-29872064.00000,   0.00000
104491993.43165,231129813.19566,229064719.93854,  -0.00005,   0.00088,   0.00315,444645216.00000,   0.00012,274772000.00000,  -0.00008,   0.00003,   0.00017,-30126784.00000,   0.00000
106168300.26892,231928590.27919,228727208.49479,  -0.00005,   0.00088,   0.00315,444400448.00000,   0.00012,274772000.00000,  -0.00008,   0.00003,   0.00017,-30371552.00000,   0.00000
107836169.32011,232707679.19518,228389697.05105,  -0.00004,   0.00088,   0.00314,444152864.00000,   0.00012,274772000.00000,  -0.00008,   0.00003,   0.00017,-30619136.00000,   0.00000
109484350.20374,233478330.32507,228040935.22584,  -0.00003,   0.00088,   0.00314,443890016.00000,   0.00012,274772000.00000,  -0.00008,   0.00003,   0.00017,-30881984.00000,   0.00000
111132531.08738,234248981.45496,227697798.59136,  -0.00003,   0.00088,   0.00313,443640768.00000,   0.00012,274772000.00000,  -0.00008,   0.00003,   0.00017,-31131232.00000,   0.00000
112772274.18491,234999944.41729,227343411.57543,  -0.00002,   0.00088,   0.00313,443371616.00000,   0.00012,274772000.00000,  -0.00008,   0.00003,   0.00017,-31400384.00000,   0.00000
114392329.11490,235742469.59354,226989024.55949,  -0.00002,   0.00088,   0.00312,443104352.00000,   0.00012,274772000.00000,  -0.00008,   0.00003,   0.00017,-31667648.00000,   0.00000
115992695.87734,236476556.98369,226634637.54356,  -0.00001,   0.00088,   0.00312,442838688.00000,   0.00012,274772000.00000,  -0.00008,   0.00003,   0.00017,-31933312.00000,   0.00000
117612750.80733,237219082.15993,226274625.33690,  -0.00000,   0.00088,   0.00311,442572960.00000,   0.00012,274772000.00000,  -0.00008,   0.00003,   0.00017,-32199040.00000,   0.00000
119193429.40221,237944731.76399,225908987.93950,   0.00000,   0.00088,   0.00311,442297024.00000,   0.00012,274772000.00000,  -0.00008,   0.00003,   0.00017,-32474976.00000,   0.00000
120765670.21100,238650693.20049,225543350.54211,   0.00001,   0.00088,   0.00310,442018144.00000,   0.00012,274772000.00000,  -0.00008,   0.00003,   0.00017,-32753856.00000,   0.00000
122337911.01979,239356654.63700,225172087.95399,   0.00001,   0.00088,   0.00310,441735744.00000,   0.00012,274772000.00000,  -0.00008,   0.00003,   0.00017,-33036256.00000,   0.00000
123890463.66103,240054178.28741,224800825.36587,   0.00002,   0.00088,   0.00309,441454816.00000,   0.00012,274772000.00000,  -0.00008,   0.00003,   0.00017,-33317184.00000,   0.00000
125434578.51617,240732013.77027,224423937.58701,   0.00003,   0.00088,   0.00309,441162432.00000,   0.00012,274772000.00000,  -0.00008,   0.00003,   0.00017,-33609568.00000,   0.00000
126967442.98986,241421099.63459,224041424.61743,   0.00003,   0.00088,   0.00309,440871008.00000,   0.00012,274772000.00000,  -0.00008,   0.00003,   0.00017,-33900992.00000,   0.00000
128491869.67745,242090497.33135,223658911.64785,   0.00004,   0.00088,   0.00308,440576768.00000,   0.00012,274772000.00000,  -0.00008,   0.00003,   0.00017,-34195232.00000,   0.00000
129988170.41140,242731769.07447,223270773.48754,   0.00004,   0.00088,   0.00308,440267168.00000,   0.00012,274772000.00000,  -0.00008,   0.00003,   0.00017,-34504832.00000,   0.00000
131492908.93144,243392728.98514,222882635.32723,   0.00005,   0.00088,   0.00307,439970816.00000,   0.00012,274772000.00000,  -0.00008,   0.00003,   0.00017,-34801184.00000,   0.00000
132969521.49783,244025562.94217,222488871.97620,   0.00005,   0.00088,   0.00306,439659168.00000,   0.00012,274772000.00000,  -0.00008,   0.00003,   0.00017,-35112832.00000,   0.00000
134426445.89667,244649959.11310,222095108.62516,   0.00006,   0.00088,   0.00306,439348736.00000,   0.00012,274772000.00000,  -0.00008,   0.00003,   0.00017,-35423264.00000,   0.00000
135883370.29552,245274355.28404,221695720.08339,   0.00006,   0.00088,   0.00305,439034784.00000,   0.00012,274772000.00000,  -0.00008,   0.00003,   0.00017,-35737216.00000,   0.00000
137340294.69436,245898751.45497,221296331.54162,   0.00007,   0.00088,   0.00305,438725696.00000,   0.00012,274772000.00000,  -0.00008,   0.00003,   0.00017,-36046304.00000,   0.00000
138749404.97201,246486583.88616,220891317.80912,   0.00007,   0.00088,   0.00304,438396992.00000,   0.00012,274772000.00000,  -0.00008,   0.00003,   0.00017,-36375008.00000,   0.00000
140178203.41720,247082854.10345,220480678.88590,   0.00008,   0.00088,   0.00304,438068576.00000,   0.00012,274772000.00000,  -0.00008,   0.00003,   0.00017,-36703424.00000,   0.00000
141567625.52730,247662248.74855,220070039.96267,   0.00009,   0.00088,   0.00303,437736608.00000,   0.00012,274772000.00000,  -0.00008,   0.00003,   0.00017,-37035392.00000,   0.00000
142948609.85130,248221955.22610,219653775.84872,   0.00009,   0.00088,   0.00303,437392448.00000,   0.00012,274772000.00000,  -0.00008,   0.00003,   0.00017,-37379552.00000,   0.00000
144338031.96139,248801349.87120,219237511.73476,   0.00010,   0.00088,   0.00302,437061088.00000,   0.00012,274772000.00000,  -0.00008,   0.00003,   0.00017,-37710912.00000,   0.00000
145679639.95029,249344180.77656,218815622.43008,   0.00010,   0.00088,   0.00302,436708800.00000,   0.00012,274772000.00000,  -0.00008,   0.00003,   0.00017,-38063200.00000,   0.00000
147012810.15309,249867323.51437,218393733.12539,   0.00011,   0.00088,   0.00301,436352192.00000,   0.00012,274772000.00000,  -0.00008,   0.00003,   0.00017,-38419808.00000,   0.00000
148354418.14198,250410154.41973,217966218.62998,   0.00011,   0.00088,   0.00301,435999744.00000,   0.00012,274772000.00000,  -0.00008,   0.00003,   0.00017,-38772256.00000,   0.00000
149667900.17723,250924859.37144,217538704.13457,   0.00012,   0.00088,   0.00300,435638432.00000,   0.00012,274772000.00000,  -0.00008,   0.00003,   0.00017,-39133568.00000,   0.00000
150961694.04493,251431126.53706,217105564.44842,   0.00012,   0.00088,   0.00299,435268256.00000,   0.00012,274772000.00000,  -0.00008,   0.00003,   0.00017,-39503744.00000,   0.00000
152235799.74508,251928955.91659,216666799.57155,   0.00013,   0.00088,   0.00299,434888768.00000,   0.00012,274772000.00000,  -0.00008,   0.00003,   0.00017,-39883232.00000,   0.00000
153501467.65913,252407097.12856,216228034.69468,   0.00013,   0.00088,   0.00298,434504640.00000,   0.00012,274772000.00000,  -0.00008,   0.00003,   0.00017,-40267360.00000,   0.00000
154747447.40563,252876800.55445,215783644.62708,   0.00013,   0.00088,   0.00298,434111040.00000,   0.00012,274772000.00000,  -0.00008,   0.00003,   0.00017,-40660960.00000,   0.00000
155993427.15213,253346503.98033,215339254.55948,   0.00014,   0.00088,   0.00297,433721056.00000,   0.00012,274772000.00000,  -0.00008,   0.00003,   0.00017,-41050944.00000,   0.00000
157219718.73108,253807769.62012,214889239.30115,   0.00014,   0.00088,   0.00297,433321568.00000,   0.00012,274772000.00000,  -0.00008,   0.00003,   0.00017,-41450432.00000,   0.00000
158417884.35638,254240909.30626,214439224.04282,   0.00015,   0.00088,   0.00296,432912096.00000,   0.00012,274772000.00000,  -0.00008,   0.00003,   0.00017,-41859904.00000,   0.00000
159596361.81414,254665611.20631,213983583.59376,   0.00015,   0.00088,   0.00295,432492960.00000,   0.00012,274772000.00000,  -0.00008,   0.00003,   0.00017,-42279040.00000,   0.00000
160774839.27189,255090313.10636,213527943.14470,   0.00016,   0.00088,   0.00295,432077120.00000,   0.00012,274772000.00000,  -0.00008,   0.00003,   0.00017,-42694880.00000,   0.00000
161913940.39453,255498139.43422,213066677.50491,   0.00016,   0.00087,   0.00294,431646624.00000,   0.00012,274772000.00000,  -0.00008,   0.00003,   0.00017,-43125376.00000,   0.00000
163044603.73109,255886277.59453,212605411.86513,   0.00017,   0.00087,   0.00294,431210432.00000,   0.00012,274772000.00000,  -0.00008,   0.00003,   0.00017,-43561568.00000,   0.00000
164175267.06764,256274415.75484,212138521.03461,   0.00017,   0.00087,   0.00293,430769280.00000,   0.00012,274772000.00000,  -0.00008,   0.00003,   0.00017,-44002720.00000,   0.00000
165266554.06909,256645678.34296,211671630.20409,   0.00018,   0.00087,   0.00292,430321184.00000,   0.00012,274772000.00000,  -0.00008,   0.00003,   0.00017,-44450816.00000,   0.00000
166349403.28445,256997252.76353,211199114.18285,   0.00018,   0.00087,   0.00292,429859200.00000,   0.00012,274772000.00000,  -0.00008,   0.00003,   0.00017,-44912800.00000,   0.00000
167412564.33225,257340389.39801,210720972.97087,   0.00018,   0.00087,   0.00291,429386848.00000,   0.00012,274772000.00000,  -0.00008,   0.00003,   0.00017,-45385152.00000,   0.00000
168456037.21250,257675088.24639,210242831.75889,   0.00019,   0.00087,   0.00291,428912544.00000,   0.00012,274772000.00000,  -0.00008,   0.00003,   0.00017,-45859456.00000,   0.00000
169499510.09276,258009787.09477,209764690.54692,   0.00019,   0.00087,   0.00290,428441088.00000,   0.00012,274772000.00000,  -0.00008,   0.00003,   0.00017,-46330912.00000,   0.00000
170514857.01936,258316359.98951,209280924.14421,   0.00020,   0.00087,   0.00289,427950464.00000,   0.00012,274772000.00000,  -0.00008,   0.00003,   0.00017,-46821536.00000,   0.00000
171490827.61087,258606057.31206,208791532.55078,   0.00020,   0.00087,   0.00289,427443872.00000,   0.00012,274772000.00000,  -0.00008,   0.00003,   0.00017,-47328128.00000,   0.00000
172466798.20237,258895754.63461,208302140.95735,   0.00020,   0.00087,   0.00288,426940064.00000,   0.00012,274772000.00000,  -0.00008,   0.00003,   0.00017,-47831936.00000,   0.00000
173434331.00778,259165763.78961,207812749.36391,   0.00021,   0.00087,   0.00287,426430304.00000,   0.00012,274772000.00000,  -0.00008,   0.00003,   0.00017,-48341696.00000,   0.00000
174362487.47808,259418897.37242,207317732.57975,   0.00021,   0.00087,   0.00287,425904320.00000,   0.00012,274772000.00000,  -0.00008,   0.00003,   0.00017,-48867680.00000,   0.00000
175270955.78084,259663593.16913,206817090.60486,   0.00022,   0.00087,   0.00286,425367360.00000,   0.00012,274772000.00000,  -0.00008,   0.00003,   0.00017,-49404640.00000,   0.00000
176179424.08359,259908288.96585,206316448.62997,   0.00022,   0.00087,   0.00285,424833184.00000,   0.00012,274772000.00000,  -0.00008,   0.00003,   0.00017,-49938816.00000,   0.00000
177059766.43270,260124858.80892,205815806.65507,   0.00022,   0.00087,   0.00285,424287232.00000,   0.00012,274772000.00000,  -0.00008,   0.00003,   0.00017,-50484768.00000,   0.00000
177920420.61425,260332990.86590,205309539.48945,   0.00023,   0.00087,   0.00284,423730240.00000,   0.00012,274772000.00000,  -0.00008,   0.00003,   0.00017,-51041760.00000,   0.00000
178761386.62826,260532685.13678,204797647.13310,   0.00023,   0.00086,   0.00283,423161824.00000,   0.00012,274772000.00000,  -0.00008,   0.00003,   0.00017,-51610176.00000,   0.00000
179582664.47471,260723941.62157,204285754.77675,   0.00023,   0.00086,   0.00283,422590560.00000,   0.00012,274772000.00000,  -0.00008,   0.00003,   0.00017,-52181440.00000,   0.00000
180375816.36752,260887072.15272,203773862.42040,   0.00024,   0.00086,   0.00282,422007104.00000,   0.00012,274772000.00000,  -0.00008,   0.00003,   0.00017,-52764896.00000,   0.00000
181149280.09277,261041764.89777,203256344.87332,   0.00024,   0.00086,   0.00281,421412352.00000,   0.00012,274772000.00000,  -0.00008,   0.00003,   0.00017,-53359648.00000,   0.00000
181914306.03193,261176769.47527,202733202.13552,   0.00024,   0.00086,   0.00281,420802784.00000,   0.00012,274772000.00000,  -0.00008,   0.00003,   0.00017,-53969216.00000,   0.00000
182639955.63599,261294898.48058,202210059.39771,   0.00025,   0.00086,   0.00280,420183936.00000,   0.00012,274772000.00000,  -0.00008,   0.00003,   0.00017,-54588064.00000,   0.00000
183365605.24005,261413027.48589,201686916.65990,   0.00025,   0.00086,   0.00279,419567584.00000,   0.00012,274772000.00000,  -0.00008,   0.00003,   0.00017,-55204416.00000,   0.00000
184051878.50900,261514280.91901,201158148.73136,   0.00025,   0.00086,   0.00279,418933600.00000,   0.00012,274772000.00000,  -0.00008,   0.00003,   0.00017,-55838400.00000,   0.00000
184738151.77795,261615534.35214,200629380.80282,   0.00025,   0.00086,   0.00278,418301824.00000,   0.00012,274772000.00000,  -0.00008,   0.00003,   0.00017,-56470176.00000,   0.00000
185396299.09326,261688661.83162,200094987.68356,   0.00026,   0.00086,   0.00277,417649216.00000,   0.00012,274772000.00000,  -0.00008,   0.00003,   0.00017,-57122784.00000,   0.00000
186006632.28737,261725225.57136,199554969.37356,   0.00026,   0.00086,   0.00277,416969664.00000,   0.00012,274772000.00000,  -0.00008,   0.00003,   0.00017,-57802336.00000,   0.00000
186625403.26757,261781477.47865,199020576.25429,   0.00026,   0.00086,   0.00276,416309376.00000,   0.00012,274772000.00000,  -0.00008,   0.00003,   0.00017,-58462624.00000,   0.00000
187216048.29413,261809603.43229,198474932.75357,   0.00027,   0.00085,   0.00275,415619872.00000,   0.00012,274772000.00000,  -0.00008,   0.00003,   0.00017,-59152128.00000,   0.00000
187787005.15314,261829291.59985,197934914.44357,   0.00027,   0.00085,   0.00275,414934272.00000,   0.00012,274772000.00000,  -0.00008,   0.00003,   0.00017,-59837728.00000,   0.00000
188338273.84459,261840541.98130,197383645.75212,   0.00027,   0.00085,   0.00274,414228512.00000,   0.00012,274772000.00000,  -0.00008,   0.00003,   0.00017,-60543488.00000,   0.00000
188841728.41485,261815228.62302,196838002.25139,   0.00027,   0.00085,   0.00273,413511232.00000,   0.00012,274772000.00000,  -0.00008,   0.00003,   0.00017,-61260768.00000,   0.00000
189345182.98510,261789915.26474,196286733.55994,   0.00027,   0.00085,   0.00272,412787424.00000,   0.00012,274772000.00000,  -0.00008,   0.00003,   0.00017,-61984576.00000,   0.00000
189820511.60171,261736475.95282,195729839.67776,   0.00028,   0.00085,   0.00272,412042208.00000,   0.00012,274772000.00000,  -0.00008,   0.00003,   0.00017,-62729792.00000,   0.00000
190284589.83687,261694287.02235,195172945.79557,   0.00028,   0.00085,   0.00271,411301536.00000,   0.00012,274772000.00000,  -0.00008,   0.00003,   0.00017,-63470464.00000,   0.00000
190700853.95082,261615534.35214,194616051.91339,   0.00028,   0.00085,   0.00270,410540800.00000,   0.00012,274772000.00000,  -0.00008,   0.00003,   0.00017,-64231200.00000,   0.00000
191117118.06478,261536781.68193,194053532.84048,   0.00028,   0.00085,   0.00270,409773664.00000,   0.00012,274772000.00000,  -0.00008,   0.00003,   0.00017,-64998336.00000,   0.00000
191485568.05754,261421465.27198,193485388.57684,   0.00029,   0.00084,   0.00269,408978048.00000,   0.00012,274772000.00000,  -0.00008,   0.00003,   0.00017,-65793952.00000,   0.00000
191854018.05029,261306148.86204,192917244.31320,   0.00029,   0.00084,   0.00268,408183840.00000,   0.00012,274772000.00000,  -0.00008,   0.00003,   0.00017,-66588160.00000,   0.00000
192183091.70795,261173956.87990,192349100.04955,   0.00029,   0.00084,   0.00267,407378336.00000,   0.00012,274772000.00000,  -0.00008,   0.00003,   0.00017,-67393664.00000,   0.00000
192503727.57951,261022076.73022,191780955.78591,   0.00029,   0.00084,   0.00267,406564800.00000,   0.00012,274772000.00000,  -0.00008,   0.00003,   0.00017,-68207200.00000,   0.00000
192784987.11596,260853321.00834,191201561.14081,   0.00029,   0.00084,   0.00266,405723840.00000,   0.00012,274772000.00000,  -0.00008,   0.00003,   0.00017,-69048160.00000,   0.00000
193046558.48487,260676127.50038,190627791.68644,   0.00029,   0.00084,   0.00265,404885440.00000,   0.00012,274772000.00000,  -0.00008,   0.00003,   0.00017,-69886560.00000,   0.00000
193288441.68622,260490496.20631,190048397.04134,   0.00030,   0.00084,   0.00264,404033888.00000,   0.00012,274772000.00000,  -0.00008,   0.00003,   0.00017,-70738112.00000,   0.00000
193502198.93393,260276738.95861,189469002.39624,   0.00030,   0.00084,   0.00264,403167648.00000,   0.00012,274772000.00000,  -0.00008,   0.00003,   0.00017,-71604352.00000,   0.00000
193696268.01408,260054543.92481,188883982.56041,   0.00030,   0.00083,   0.00263,402287968.00000,   0.00012,274772000.00000,  -0.00008,   0.00003,   0.00017,-72484032.00000,   0.00000
193862211.14059,259804222.93736,188298962.72459,   0.00030,   0.00083,   0.00262,401393504.00000,   0.00012,274772000.00000,  -0.00008,   0.00003,   0.00017,-73378496.00000,   0.00000
193988777.93199,259537026.37773,187708317.69803,   0.00030,   0.00083,   0.00261,400478976.00000,   0.00012,274772000.00000,  -0.00008,   0.00003,   0.00017,-74293024.00000,   0.00000
194115344.72340,259269829.81809,187117672.67147,   0.00030,   0.00083,   0.00261,399565312.00000,   0.00012,274772000.00000,  -0.00008,   0.00003,   0.00017,-75206688.00000,   0.00000
194202535.17970,258985757.68627,186521402.45418,   0.00030,   0.00083,   0.00260,398631200.00000,   0.00012,274772000.00000,  -0.00008,   0.00003,   0.00017,-76140800.00000,   0.00000
194261599.68236,258673559.60081,185930757.42762,   0.00030,   0.00083,   0.00259,397689952.00000,   0.00012,274772000.00000,  -0.00008,   0.00003,   0.00017,-77082048.00000,   0.00000
194300976.01746,258352923.72925,185328862.01961,   0.00030,   0.00082,   0.00258,396726880.00000,   0.00012,274772000.00000,  -0.00008,   0.00003,   0.00017,-78045120.00000,   0.00000
194312226.39892,258004161.90404,184732591.80232,   0.00030,   0.00082,   0.00257,395756320.00000,   0.00012,274772000.00000,  -0.00008,   0.00003,   0.00017,-79015680.00000,   0.00000
194292538.23137,257658212.67420,184125071.20358,   0.00031,   0.00082,   0.00257,394766432.00000,   0.00012,274772000.00000,  -0.00008,   0.00003,   0.00017,-80005568.00000,   0.00000
194264412.27772,257292575.27681,183523175.79556,   0.00031,   0.00082,   0.00256,393775424.00000,   0.00012,274772000.00000,  -0.00008,   0.00003,   0.00017,-80996576.00000,   0.00000
194188472.20288,256890374.13968,182915655.19681,   0.00031,   0.00082,   0.00255,392753984.00000,   0.00012,274772000.00000,  -0.00008,   0.00003,   0.00017,-82018016.00000,   0.00000
194092843.96048,256479735.21645,182308134.59807,   0.00031,   0.00082,   0.00254,391725984.00000,   0.00012,274772000.00000,  -0.00008,   0.00003,   0.00017,-83046016.00000,   0.00000
193977527.55054,256060658.50713,181694988.80859,   0.00031,   0.00081,   0.00253,390683392.00000,   0.00012,274772000.00000,  -0.00008,   0.00003,   0.00017,-84088608.00000,   0.00000
193822834.80549,255624706.22562,181081843.01912,   0.00031,   0.00081,   0.00253,389627040.00000,   0.00012,274772000.00000,  -0.00008,   0.00003,   0.00017,-85144960.00000,   0.00000
193640016.10679,255160627.99047,180468697.22965,   0.00031,   0.00081,   0.00252,388554272.00000,   0.00012,274772000.00000,  -0.00008,   0.00003,   0.00017,-86217728.00000,   0.00000
193457197.40809,254696549.75532,179849926.24944,   0.00031,   0.00081,   0.00251,387473088.00000,   0.00012,274772000.00000,  -0.00008,   0.00003,   0.00017,-87298912.00000,   0.00000
193206876.42065,254187469.99433,179231155.26924,   0.00031,   0.00081,   0.00250,386361600.00000,   0.00012,274772000.00000,  -0.00008,   0.00003,   0.00017,-88410400.00000,   0.00000
192964993.21929,253698078.40090,178606759.09831,   0.00031,   0.00081,   0.00249,385250944.00000,   0.00012,274772000.00000,  -0.00008,   0.00003,   0.00017,-89521056.00000,   0.00000
192666858.11065,253152434.90017,177987988.11810,   0.00031,   0.00080,   0.00249,384114720.00000,   0.00012,274772000.00000,  -0.00008,   0.00003,   0.00017,-90657280.00000,   0.00000
192377160.78810,252626479.56700,177357966.75644,   0.00031,   0.00080,   0.00248,382971360.00000,   0.00012,274772000.00000,  -0.00008,   0.00003,   0.00017,-91800640.00000,   0.00000
192019961.17680,252055522.70799,176733570.58551,   0.00031,   0.00080,   0.00247,381804960.00000,   0.00012,274772000.00000,  -0.00008,   0.00003,   0.00017,-92967040.00000,   0.00000
191662761.56550,251484565.84899,176103549.22385,   0.00031,   0.00080,   0.00246,380629728.00000,   0.00012,274772000.00000,  -0.00008,   0.00003,   0.00017,-94142272.00000,   0.00000
191257747.83301,250877045.25024,175467902.67146,   0.00030,   0.00080,   0.00245,379422528.00000,   0.00012,274772000.00000,  -0.00008,   0.00003,   0.00017,-95349472.00000,   0.00000
190833045.93296,250261086.86540,174837881.30979,   0.00030,   0.00079,   0.00245,378215616.00000,   0.00012,274772000.00000,  -0.00008,   0.00003,   0.00017,-96556384.00000,   0.00000
190388655.86536,249636690.69447,174202234.75740,   0.00030,   0.00079,   0.00244,376993440.00000,   0.00012,274772000.00000,  -0.00008,   0.00003,   0.00017,-97778560.00000,   0.00000
189896451.67656,248975730.78380,173560963.01428,   0.00030,   0.00079,   0.00243,375739616.00000,   0.00012,274772000.00000,  -0.00008,   0.00003,   0.00017,-99032384.00000,   0.00000
189384559.32021,248306333.08703,172925316.46189,   0.00030,   0.00079,   0.00242,374486656.00000,   0.00012,274772000.00000,  -0.00008,   0.00003,   0.00017,-100285344.00000,   0.00000
188852978.79631,247628497.60417,172284044.71877,   0.00030,   0.00079,   0.00241,373219296.00000,   0.00012,274772000.00000,  -0.00008,   0.00003,   0.00017,-101552704.00000,   0.00000
188293272.31876,246922536.16767,171637147.78492,   0.00030,   0.00078,   0.00240,371928064.00000,   0.00012,274772000.00000,  -0.00008,   0.00003,   0.00017,-102843936.00000,   0.00000
187694189.50611,246199699.15898,170995876.04180,   0.00030,   0.00078,   0.00240,370631680.00000,   0.00012,274772000.00000,  -0.00008,   0.00003,   0.00017,-104140320.00000,   0.00000
187055730.35835,245459986.57810,170348979.10795,   0.00030,   0.00078,   0.00239,369315168.00000,   0.00012,274772000.00000,  -0.00008,   0.00003,   0.00017,-105456832.00000,   0.00000
186408833.42450,244700585.82967,169696456.98337,   0.00029,   0.00078,   0.00238,367983072.00000,   0.00012,274772000.00000,  -0.00008,   0.00003,   0.00017,-106788928.00000,   0.00000
185722560.15555,243924309.50905,169049560.04953,   0.00029,   0.00078,   0.00237,366647040.00000,   0.00012,274772000.00000,  -0.00008,   0.00003,   0.00017,-108124960.00000,   0.00000
185016598.71904,243139595.40233,168397037.92495,   0.00029,   0.00077,   0.00236,365298560.00000,   0.00012,274772000.00000,  -0.00008,   0.00003,   0.00017,-109473440.00000,   0.00000
184262823.16134,242318317.55588,167738890.60964,   0.00029,   0.00077,   0.00235,363920704.00000,   0.00012,274772000.00000,  -0.00008,   0.00003,   0.00017,-110851296.00000,   0.00000
183489359.43609,241488601.92334,167086368.48506,   0.00029,   0.00077,   0.00234,362544672.00000,   0.00012,274772000.00000,  -0.00008,   0.00003,   0.00017,-112227328.00000,   0.00000
182687769.75719,240630760.33715,166428221.16975,   0.00029,   0.00077,   0.00234,361144608.00000,   0.00012,274772000.00000,  -0.00008,   0.00003,   0.00017,-113627392.00000,   0.00000
181846803.74318,239756043.17877,165770073.85445,   0.00028,   0.00076,   0.00233,359729760.00000,   0.00012,274772000.00000,  -0.00008,   0.00003,   0.00017,-115042240.00000,   0.00000
180986149.56163,238872888.23429,165106301.34841,   0.00028,   0.00076,   0.00232,358299328.00000,   0.00012,274772000.00000,  -0.00008,   0.00003,   0.00017,-116472672.00000,   0.00000
180077681.25887,237953169.55008,164442528.84237,   0.00028,   0.00076,   0.00231,356844576.00000,   0.00012,274772000.00000,  -0.00008,   0.00003,   0.00017,-117927424.00000,   0.00000
179149524.78857,237025013.07978,163778756.33634,   0.00028,   0.00076,   0.00230,355382496.00000,   0.00012,274772000.00000,  -0.00008,   0.00003,   0.00017,-119389504.00000,   0.00000
178201680.15071,236088418.82338,163114983.83030,   0.00027,   0.00075,   0.00229,353913760.00000,   0.00012,274772000.00000,  -0.00008,   0.00003,   0.00017,-120858240.00000,   0.00000
177206021.39166,235115260.82724,162445586.13354,   0.00027,   0.00075,   0.00228,352414592.00000,   0.00012,274772000.00000,  -0.00008,   0.00003,   0.00017,-122357408.00000,   0.00000
176190674.46505,234133665.04501,161776188.43677,   0.00027,   0.00075,   0.00228,350909440.00000,   0.00012,274772000.00000,  -0.00008,   0.00003,   0.00017,-123862560.00000,   0.00000
175127513.41724,233115505.52304,161106790.74000,   0.00027,   0.00075,   0.00227,349382080.00000,   0.00012,274772000.00000,  -0.00008,   0.00003,   0.00017,-125389920.00000,   0.00000
174044664.20189,232088908.21497,160437393.04324,   0.00026,   0.00074,   0.00226,347849024.00000,   0.00012,274772000.00000,  -0.00008,   0.00003,   0.00017,-126922976.00000,   0.00000
172942126.81898,231053873.12081,159762370.15574,   0.00026,   0.00074,   0.00225,346302400.00000,   0.00012,274772000.00000,  -0.00008,   0.00003,   0.00017,-128469600.00000,   0.00000
171791775.31487,229982274.28692,159087347.26825,   0.00026,   0.00074,   0.00224,344733632.00000,   0.00012,274772000.00000,  -0.00008,   0.00003,   0.00017,-130038368.00000,   0.00000
170621735.64322,228902237.66692,158412324.38075,   0.00025,   0.00074,   0.00223,343158240.00000,   0.00012,274772000.00000,  -0.00008,   0.00003,   0.00017,-131613760.00000,   0.00000
169412319.63646,227805325.47474,157731676.30253,   0.00025,   0.00073,   0.00222,341562016.00000,   0.00012,274772000.00000,  -0.00008,   0.00003,   0.00017,-133209984.00000,   0.00000
168174777.67605,226680287.32892,157051028.22431,   0.00025,   0.00073,   0.00221,339949088.00000,   0.00012,274772000.00000,  -0.00008,   0.00003,   0.00017,-134822912.00000,   0.00000
166897859.38054,225538373.61091,156370380.14608,   0.00024,   0.00073,   0.00221,338322176.00000,   0.00012,274772000.00000,  -0.00008,   0.00003,   0.00017,-136449824.00000,   0.00000
165592815.13138,224368333.93925,155689732.06786,   0.00024,   0.00073,   0.00220,336678272.00000,   0.00012,274772000.00000,  -0.00008,   0.00003,   0.00017,-138093728.00000,   0.00000
164248394.54712,223181418.69541,155009083.98963,   0.00024,   0.00072,   0.00219,335020128.00000,   0.00012,274772000.00000,  -0.00008,   0.00003,   0.00017,-139751872.00000,   0.00000
162884285.79531,221986065.66547,154322810.72068,   0.00023,   0.00072,   0.00218,333346976.00000,   0.00012,274772000.00000,  -0.00008,   0.00003,   0.00017,-141425024.00000,   0.00000
161472362.92230,220754148.89579,153636537.45173,   0.00023,   0.00072,   0.00217,331650112.00000,   0.00012,274772000.00000,  -0.00008,   0.00003,   0.00017,-143121888.00000,   0.00000
160040751.88174,219513794.34002,152950264.18278,   0.00022,   0.00071,   0.00216,329946816.00000,   0.00012,274772000.00000,  -0.00008,   0.00003,   0.00017,-144825184.00000,   0.00000
158581014.88753,218245313.83060,152258365.72309,   0.00022,   0.00071,   0.00215,328219936.00000,   0.00012,274772000.00000,  -0.00008,   0.00003,   0.00017,-146552064.00000,   0.00000
157081901.55822,216959957.74899,151566467.26341,   0.00022,   0.00071,   0.00214,326481088.00000,   0.00012,274772000.00000,  -0.00008,   0.00003,   0.00017,-148290912.00000,   0.00000
155543411.89380,215657726.09520,150880193.99446,   0.00021,   0.00071,   0.00213,324739008.00000,   0.00012,274772000.00000,  -0.00008,   0.00003,   0.00017,-150032992.00000,   0.00000
153976796.27574,214327368.48777,150182670.34405,   0.00021,   0.00070,   0.00212,322967520.00000,   0.00012,274772000.00000,  -0.00008,   0.00003,   0.00017,-151804480.00000,   0.00000
152370804.32258,212980135.30814,149490771.88436,   0.00020,   0.00070,   0.00212,321194464.00000,   0.00012,274772000.00000,  -0.00008,   0.00003,   0.00017,-153577536.00000,   0.00000
150736686.41577,211604776.17487,148798873.42468,   0.00020,   0.00070,   0.00211,319409056.00000,   0.00012,274772000.00000,  -0.00008,   0.00003,   0.00017,-155362944.00000,   0.00000
149082880.34140,210220979.25551,148101349.77427,   0.00019,   0.00069,   0.00210,317613696.00000,   0.00012,274772000.00000,  -0.00008,   0.00003,   0.00017,-157158304.00000,   0.00000
147370009.76439,208811868.97786,147403826.12386,   0.00019,   0.00069,   0.00209,315803808.00000,   0.00012,274772000.00000,  -0.00008,   0.00003,   0.00017,-158968192.00000,   0.00000
145648701.40127,207383070.53266,146706302.47345,   0.00018,   0.00069,   0.00208,313988480.00000,   0.00012,274772000.00000,  -0.00008,   0.00003,   0.00017,-160783520.00000,   0.00000
143888016.70306,205937396.51528,146003153.63231,   0.00018,   0.00068,   0.00207,312156992.00000,   0.00012,274772000.00000,  -0.00008,   0.00003,   0.00017,-162615008.00000,   0.00000
142087955.66974,204474846.92571,145305629.98190,   0.00017,   0.00068,   0.00206,310324480.00000,   0.00012,274772000.00000,  -0.00008,   0.00003,   0.00017,-164447520.00000,   0.00000
140240080.51522,202975733.59639,144602481.14076,   0.00017,   0.00068,   0.00205,308465600.00000,   0.00012,274772000.00000,  -0.00008,   0.00003,   0.00017,-166306400.00000,   0.00000
138383767.57461,201456932.09953,143899332.29962,   0.00016,   0.00067,   0.00204,306599040.00000,   0.00012,274772000.00000,  -0.00008,   0.00003,   0.00017,-168172960.00000,   0.00000
136468390.13135,199912817.24439,143196183.45848,   0.00016,   0.00067,   0.00203,304715968.00000,   0.00012,274772000.00000,  -0.00008,   0.00003,   0.00017,-170056032.00000,   0.00000
134533324.52053,198360264.60315,142493034.61734,   0.00015,   0.00067,   0.00202,302827136.00000,   0.00012,274772000.00000,  -0.00008,   0.00003,   0.00017,-171944864.00000,   0.00000
132578570.74216,196799274.17582,141789885.77619,   0.00014,   0.00067,   0.00202,300931872.00000,   0.00012,274772000.00000,  -0.00008,   0.00003,   0.00017,-173840128.00000,   0.00000
130576002.84259,195201720.00875,141081111.74433,   0.00014,   0.00066,   0.00201,299005696.00000,   0.00012,274772000.00000,  -0.00008,   0.00003,   0.00017,-175766304.00000,   0.00000
128525620.82182,193567602.10194,140372337.71246,   0.00013,   0.00066,   0.00200,297056288.00000,   0.00012,274772000.00000,  -0.00008,   0.00003,   0.00017,-177715712.00000,   0.00000
126455550.63351,191925046.40903,139663563.68059,   0.00013,   0.00065,   0.00199,295098016.00000,   0.00012,274772000.00000,  -0.00008,   0.00003,   0.00017,-179673984.00000,   0.00000
124346104.11009,190265615.14394,138954789.64872,   0.00012,   0.00065,   0.00198,293124832.00000,   0.00012,274772000.00000,  -0.00008,   0.00003,   0.00017,-181647168.00000,   0.00000
122208531.63302,188578057.92520,138246015.61685,   0.00011,   0.00065,   0.00197,291134304.00000,   0.00012,274772000.00000,  -0.00008,   0.00003,   0.00017,-183637696.00000,   0.00000
120031582.82085,186873625.13428,137537241.58498,   0.00011,   0.00064,   0.00196,289139264.00000,   0.00012,274772000.00000,  -0.00008,   0.00003,   0.00017,-185632736.00000,   0.00000
117834945.84113,185160754.55726,136822842.36238,   0.00010,   0.00064,   0.00195,287160416.00000,   0.00012,274772000.00000,  -0.00008,   0.00003,   0.00017,-187611584.00000,   0.00000
115570806.57265,183402882.45441,136114068.33051,   0.00009,   0.00064,   0.00194,285172992.00000,   0.00012,274772000.00000,  -0.00008,   0.00003,   0.00017,-189599008.00000,   0.00000
113306667.30418,181645010.35156,135399669.10791,   0.00009,   0.00063,   0.00193,283188384.00000,   0.00012,274772000.00000,  -0.00008,   0.00003,   0.00017,-191583616.00000,   0.00000
110994713.91451,179850574.50897,134685269.88531,   0.00008,   0.00063,   0.00192,281096000.00000,   0.00012,274772000.00000,  -0.00008,   0.00003,   0.00017,-193676000.00000,   0.00000
108643384.18974,178039263.09419,133970870.66271,   0.00007,   0.00063,   0.00191,278931712.00000,   0.00012,274772000.00000,  -0.00008,   0.00003,   0.00017,-195840288.00000,   0.00000
106244240.34377,176191387.93967,133256471.44012,   0.00006,   0.00062,   0.00190,276791584.00000,   0.00012,274772000.00000,  -0.00008,   0.00003,   0.00017,-197980416.00000,   0.00000
103825408.33024,174335074.99906,132542072.21752,   0.00006,   0.00062,   0.00190,274735648.00000,   0.00012,274772000.00000,  -0.00008,   0.00003,   0.00017,-200036352.00000,   0.00000
101378450.36308,172450636.10481,131827672.99492,   0.00005,   0.00062,   0.00189,272726784.00000,   0.00012,274772000.00000,  -0.00008,   0.00003,   0.00017,-202045216.00000,   0.00000
98880865.67935,170560572.01982,131107648.58159,   0.00004,   0.00061,   0.00188,270721760.00000,   0.00012,274772000.00000,  -0.00008,   0.00003,   0.00017,-204050240.00000,   0.00000
96366405.42343,168631131.59973,130393249.35899,   0.00003,   0.00061,   0.00187,268707776.00000,   0.00012,274772000.00000,  -0.00008,   0.00003,   0.00017,-206064224.00000,   0.00000
93792880.66485,166676377.82136,129673224.94566,   0.00003,   0.00060,   0.00186,266676896.00000,   0.00012,274772000.00000,  -0.00008,   0.00003,   0.00017,-208095104.00000,   0.00000
91199667.73873,164713186.25690,128953200.53234,   0.00002,   0.00060,   0.00185,264653952.00000,   0.00012,274772000.00000,  -0.00008,   0.00003,   0.00017,-210118048.00000,   0.00000
88567078.47750,162733119.12025,128238801.30974,   0.00001,   0.00060,   0.00184,262646912.00000,   0.00012,274772000.00000,  -0.00008,   0.00003,   0.00017,-212125088.00000,   0.00000
85906363.26262,160724926.02995,127518776.89641,   0.00000,   0.00059,   0.00183,260635152.00000,   0.00012,274772000.00000,  -0.00008,   0.00003,   0.00017,-214136848.00000,   0.00000
83197833.92655,158680169.19991,126798752.48308,  -0.00001,   0.00059,   0.00182,258621088.00000,   0.00012,274772000.00000,  -0.00008,   0.00003,   0.00017,-216150912.00000,   0.00000
80469616.42292,156626974.58378,126078728.06975,  -0.00002,   0.00058,   0.00181,256614736.00000,   0.00012,274772000.00000,  -0.00008,   0.00003,   0.00017,-218157264.00000,   0.00000
77702022.58420,154556904.39547,125358703.65643,  -0.00002,   0.00058,   0.00180,254608736.00000,   0.00012,274772000.00000,  -0.00008,   0.00003,   0.00017,-220163264.00000,   0.00000
74886614.62427,152450270.46741,124633054.05237,  -0.00003,   0.00058,   0.00179,252584240.00000,   0.00012,274772000.00000,  -0.00008,   0.00003,   0.00017,-222187760.00000,   0.00000
72051518.49679,150335198.75326,123913029.63904,  -0.00004,   0.00057,   0.00178,250570112.00000,   0.00012,274772000.00000,  -0.00008,   0.00003,   0.00017,-224201888.00000,   0.00000
69168608.24812,148183563.29937,123193005.22571,  -0.00005,   0.00057,   0.00177,248547232.00000,   0.00012,274772000.00000,  -0.00008,   0.00003,   0.00017,-226224768.00000,   0.00000
66246321.66434,146015052.27329,122472980.81239,  -0.00006,   0.00056,   0.00176,246527024.00000,   0.00012,274772000.00000,  -0.00008,   0.00003,   0.00017,-228244976.00000,   0.00000
63295909.12691,143818415.29357,121747331.20833,  -0.00007,   0.00056,   0.00176,244499616.00000,   0.00012,274772000.00000,  -0.00008,   0.00003,   0.00017,-230272384.00000,   0.00000
60306120.25438,141604902.74166,121027306.79500,  -0.00008,   0.00055,   0.00175,242491728.00000,   0.00012,274772000.00000,  -0.00008,   0.00003,   0.00017,-232280272.00000,   0.00000
57276955.04675,139374514.61756,120301657.19094,  -0.00009,   0.00055,   0.00174,240491024.00000,   0.00012,274772000.00000,  -0.00008,   0.00003,   0.00017,-234280976.00000,   0.00000
54219663.88547,137116000.53982,119581632.77762,  -0.00010,   0.00055,   0.00173,238512912.00000,   0.00012,274772000.00000,  -0.00008,   0.00003,   0.00017,-236259088.00000,   0.00000
51114558.60300,134820922.72234,118855983.17356,  -0.00011,   0.00054,   0.00172,236541456.00000,   0.00012,274772000.00000,  -0.00008,   0.00003,   0.00017,-238230544.00000,   0.00000
47998202.93906,132537095.28631,118135958.76023,  -0.00012,   0.00054,   0.00171,234616080.00000,   0.00012,274772000.00000,  -0.00008,   0.00003,   0.00017,-240155920.00000,   0.00000
44825595.36784,130197015.94300,117410309.15618,  -0.00013,   0.00053,   0.00170,232693952.00000,   0.00012,274772000.00000,  -0.00008,   0.00003,   0.00017,-242078048.00000,   0.00000
41622049.24760,127859749.19505,116684659.55212,  -0.00014,   0.00053,   0.00169,230810480.00000,   0.00012,274772000.00000,  -0.00008,   0.00003,   0.00017,-243961520.00000,   0.00000
38381939.38763,125474668.32590,115964635.13879,  -0.00015,   0.00052,   0.00168,228951056.00000,   0.00012,274772000.00000,  -0.00008,   0.00003,   0.00017,-245820944.00000,   0.00000
35110890.97864,123092400.05212,115238985.53473,  -0.00016,   0.00052,   0.00167,227121456.00000,   0.00012,274772000.00000,  -0.00008,   0.00003,   0.00017,-247650544.00000,   0.00000
31792028.44846,120673568.03859,114513335.93068,  -0.00017,   0.00052,   0.00166,225312528.00000,   0.00012,274772000.00000,  -0.00008,   0.00003,   0.00017,-249459472.00000,   0.00000
28445039.96463,118226610.07143,113793311.51735,  -0.00018,   0.00051,   0.00165,223532352.00000,   0.00012,274772000.00000,  -0.00008,   0.00003,   0.00017,-251239648.00000,   0.00000
25058675.14570,115762776.53207,113067661.91329,  -0.00019,   0.00051,   0.00164,221767728.00000,   0.00012,274772000.00000,  -0.00008,   0.00003,   0.00017,-253004272.00000,   0.00000
21652622.15921,113290505.20662,112342012.30924,  -0.00020,   0.00050,   0.00163,220028928.00000,   0.00012,274772000.00000,  -0.00008,   0.00003,   0.00017,-254743072.00000,   0.00000
18198755.05153,110781670.14143,111616362.70518,  -0.00021,   0.00050,   0.00162,218319488.00000,   0.00012,274772000.00000,  -0.00008,   0.00003,   0.00017,-256452512.00000,   0.00000
14705511.60875,108255959.50405,110896338.29185,  -0.00022,   0.00049,   0.00161,216686976.00000,   0.00012,274772000.00000,  -0.00008,   0.00003,   0.00017,-258085024.00000,   0.00000
11164454.04476,105693685.12694,110170688.68779,  -0.00023,   0.00049,   0.00160,215128400.00000,   0.00012,274772000.00000,  -0.00008,   0.00003,   0.00017,-259643600.00000,   0.00000
7595270.52713,103103284.79618,109450664.27447,  -0.00024,   0.00048,   0.00160,213656864.00000,   0.00012,274772000.00000,  -0.00008,   0.00003,   0.00017,-261115136.00000,   0.00000
4014836.62805,100524134.84687,108725014.67041,  -0.00025,   0.00048,   0.00159,212201120.00000,   0.00012,274772000.00000,  -0.00008,   0.00003,   0.00017,-262570880.00000,   0.00000
358462.65412,97880295.20419,107999365.06635,  -0.00027,   0.00047,   0.00158,210703728.00000,   0.00012,274772000.00000,  -0.00008,   0.00003,   0.00017,-264068272.00000,   0.00000
-3309161.70127,95247705.94296,107279340.65302,  -0.00028,   0.00047,   0.00157,209241984.00000,   0.00012,274772000.00000,  -0.00008,   0.00003,   0.00017,-265530016.00000,   0.00000
-7004912.01030,92586990.72808,106553691.04897,  -0.00029,   0.00046,   0.00156,207799840.00000,   0.00012,274772000.00000,  -0.00008,   0.00003,   0.00017,-266972160.00000,   0.00000
-10748476.44054,89889711.77347,105833666.63564,  -0.00030,   0.00046,   0.00155,206403120.00000,   0.00012,274772000.00000,  -0.00008,   0.00003,   0.00017,-268368880.00000,   0.00000
-14531417.20587,87175557.24667,105113642.22231,  -0.00031,   0.00045,   0.00154,205058608.00000,   0.00012,274772000.00000,  -0.00008,   0.00003,   0.00017,-269713392.00000,   0.00000
-18362172.09240,84424838.98012,104387992.61825,  -0.00032,   0.00045,   0.00153,203759568.00000,   0.00012,274772000.00000,  -0.00008,   0.00003,   0.00017,-271012432.00000,   0.00000
-22212615.14649,81665682.92749,103667968.20493,  -0.00034,   0.00044,   0.00152,202535904.00000,   0.00012,274772000.00000,  -0.00008,   0.00003,   0.00017,-272236096.00000,   0.00000
-26102434.53568,78889651.30267,102947943.79160,  -0.00035,   0.00044,   0.00151,201387616.00000,   0.00012,274772000.00000,  -0.00008,   0.00003,   0.00017,-273384384.00000,   0.00000
-30020379.87851,76085493.72420,102227919.37827,  -0.00036,   0.00043,   0.00150,200310864.00000,   0.00012,274772000.00000,  -0.00008,   0.00003,   0.00017,-274461136.00000,   0.00000
-33977701.55645,73264460.57354,101507894.96494,  -0.00037,   0.00043,   0.00149,199317648.00000,   0.00012,274772000.00000,  -0.00008,   0.00003,   0.00017,-275454352.00000,   0.00000
-37982837.35559,70406863.68315,100782245.36089,  -0.00039,   0.00042,   0.00148,198394624.00000,   0.00012,274772000.00000,  -0.00008,   0.00003,   0.00017,-276377376.00000,   0.00000
-42016099.10837,67521140.83911,100067846.13829,  -0.00040,   0.00042,   0.00147,197562800.00000,   0.00012,274772000.00000,  -0.00008,   0.00003,   0.00017,-277209200.00000,   0.00000
-46088737.19625,64618542.42288,99347821.72496,  -0.00041,   0.00041,   0.00146,196801312.00000,   0.00012,274772000.00000,  -0.00008,   0.00003,   0.00017,-277970688.00000,   0.00000
-50181063.45169,61707506.22056,98627797.31163,  -0.00042,   0.00041,   0.00145,196108000.00000,   0.00012,274772000.00000,  -0.00008,   0.00003,   0.00017,-278664000.00000,   0.00000
-54340891.99588,58751468.49241,97907772.89831,  -0.00044,   0.00040,   0.00145,195478240.00000,   0.00012,274772000.00000,  -0.00008,   0.00003,   0.00017,-279293760.00000,   0.00000
-58500720.54006,55795430.76425,97193373.67571,  -0.00045,   0.00040,   0.00144,194906352.00000,   0.00012,274772000.00000,  -0.00008,   0.00003,   0.00017,-279865648.00000,   0.00000
-62728051.37300,52794391.51026,96473349.26238,  -0.00046,   0.00039,   0.00143,194395760.00000,   0.00012,274772000.00000,  -0.00008,   0.00003,   0.00017,-280376240.00000,   0.00000
-66975070.37349,49784914.47018,95758950.03978,  -0.00048,   0.00039,   0.00142,193983712.00000,   0.00012,274772000.00000,  -0.00008,   0.00003,   0.00017,-280788288.00000,   0.00000
-71250215.32762,46747311.47646,95044550.81718,  -0.00049,   0.00038,   0.00141,193673424.00000,   0.00012,274772000.00000,  -0.00008,   0.00003,   0.00017,-281098576.00000,   0.00000
-75584424.78441,43684395.12445,94324526.40385,  -0.00051,   0.00037,   0.00140,193474048.00000,   0.00012,274772000.00000,  -0.00008,   0.00003,   0.00017,-281297952.00000,   0.00000
-79927072.02729,40601790.60489,93610127.18125,  -0.00052,   0.00037,   0.00139,193371792.00000,   0.00012,274772000.00000,  -0.00008,   0.00003,   0.00017,-281400208.00000,   0.00000
-84328783.77283,37493872.72705,92901353.14939,  -0.00053,   0.00036,   0.00138,193385776.00000,   0.00012,274772000.00000,  -0.00008,   0.00003,   0.00017,-281386224.00000,   0.00000
-88750183.68592,34377517.06312,92186953.92679,  -0.00055,   0.00036,   0.00137,193484448.00000,   0.00012,274772000.00000,  -0.00008,   0.00003,   0.00017,-281287552.00000,   0.00000
-93219397.72021,31224597.65944,91472554.70419,  -0.00056,   0.00035,   0.00136,193674384.00000,   0.00012,274772000.00000,  -0.00008,   0.00003,   0.00017,-281097616.00000,   0.00000
-97716737.70814,28043552.30212,90763780.67232,  -0.00058,   0.00035,   0.00135,193929120.00000,   0.00012,274772000.00000,  -0.00008,   0.00003,   0.00017,-280842880.00000,   0.00000
-102253454.03118,24845631.37262,90049381.44972,  -0.00059,   0.00034,   0.00134,194224192.00000,   0.00012,274772000.00000,  -0.00008,   0.00003,   0.00017,-280547808.00000,   0.00000
-106818296.30787,21619584.48946,89340607.41785,  -0.00060,   0.00033,   0.00133,194891696.00000,   0.00012,274772000.00000,  -0.00008,   0.00003,   0.00017,-279880304.00000,   0.00000
-111422514.91965,18376662.03412,88631833.38598,  -0.00062,   0.00033,   0.00132,195553312.00000,   0.00012,274772000.00000,  -0.00008,   0.00003,   0.00017,-279218688.00000,   0.00000
-116066109.86654,15116864.00660,87923059.35411,  -0.00063,   0.00032,   0.00132,196230960.00000,   0.00012,274772000.00000,  -0.00008,   0.00003,   0.00017,-278541040.00000,   0.00000
-120737830.76708,11828940.02543,87214285.32224,  -0.00065,   0.00032,   0.00131,196993952.00000,   0.00012,274772000.00000,  -0.00008,   0.00003,   0.00017,-277778048.00000,   0.00000
-125457365.78882,8504452.30451,86511136.48110,  -0.00066,   0.00031,   0.00130,197879408.00000,   0.00012,274772000.00000,  -0.00008,   0.00003,   0.00017,-276892592.00000,   0.00000
-130196588.97810,5171526.79751,85802362.44923,  -0.00068,   0.00031,   0.00129,198873680.00000,   0.00012,274772000.00000,  -0.00008,   0.00003,   0.00017,-275898320.00000,   0.00000
-134975188.50249,1821725.71832,85099213.60809,  -0.00069,   0.00030,   0.00128,200000832.00000,   0.00012,274772000.00000,  -0.00008,   0.00003,   0.00017,-274771168.00000,   0.00000
-139781913.98053,-1556201.31452,84396064.76695,  -0.00071,   0.00029,   0.00127,201234432.00000,   0.00012,274772000.00000,  -0.00008,   0.00003,   0.00017,-273537568.00000,   0.00000
-144636453.57976,-4970692.08710,83692915.92581,  -0.00072,   0.00029,   0.00126,202576384.00000,   0.00012,274772000.00000,  -0.00008,   0.00003,   0.00017,-272195616.00000,   0.00000
-149530369.51410,-8402058.43187,82989767.08467,  -0.00074,   0.00028,   0.00125,204023712.00000,   0.00012,274772000.00000,  -0.00008,   0.00003,   0.00017,-270748288.00000,   0.00000
-154443973.61599,-11841862.56272,82292243.43426,  -0.00076,   0.00028,   0.00124,205577248.00000,   0.00012,274772000.00000,  -0.00008,   0.00003,   0.00017,-269194752.00000,   0.00000
-159405391.83907,-15318230.43332,81589094.59312,  -0.00077,   0.00027,   0.00123,207248768.00000,   0.00012,274772000.00000,  -0.00008,   0.00003,   0.00017,-267523232.00000,   0.00000
-164394936.01581,-18822724.25757,80891570.94271,  -0.00079,   0.00026,   0.00122,209058928.00000,   0.00012,274772000.00000,  -0.00008,   0.00003,   0.00017,-265713072.00000,   0.00000
-169423856.52764,-22344093.65400,80194047.29230,  -0.00080,   0.00026,   0.00122,211026000.00000,   0.00012,274772000.00000,  -0.00008,   0.00003,   0.00017,-263746000.00000,   0.00000
-174472465.20703,-25873900.83652,79496523.64188,  -0.00082,   0.00025,   0.00121,213136752.00000,   0.00012,274772000.00000,  -0.00008,   0.00003,   0.00017,-261635248.00000,   0.00000
-179568888.00762,-29440271.75879,78804625.18220,  -0.00084,   0.00024,   0.00120,215400592.00000,   0.00012,274772000.00000,  -0.00008,   0.00003,   0.00017,-259371408.00000,   0.00000
-184684998.97575,-33015080.46714,78107101.53179,  -0.00085,   0.00024,   0.00119,217777408.00000,   0.00012,274772000.00000,  -0.00008,   0.00003,   0.00017,-256994592.00000,   0.00000
-189848924.06509,-36626452.91524,77415203.07211,  -0.00087,   0.00023,   0.00118,220273232.00000,   0.00012,274772000.00000,  -0.00008,   0.00003,   0.00017,-254498768.00000,   0.00000
-195060663.27562,-40274389.10308,76723304.61243,  -0.00089,   0.00023,   0.00117,222854976.00000,   0.00012,274772000.00000,  -0.00008,   0.00003,   0.00017,-251917024.00000,   0.00000
-200292090.65371,-43930763.07701,76037031.34347,  -0.00090,   0.00022,   0.00116,225481392.00000,   0.00012,274772000.00000,  -0.00008,   0.00003,   0.00017,-249290608.00000,   0.00000
-205543206.19934,-47595574.83703,75345132.88379,  -0.00092,   0.00021,   0.00115,228107680.00000,   0.00012,274772000.00000,  -0.00008,   0.00003,   0.00017,-246664320.00000,   0.00000
-210842135.86618,-51296950.33679,74658859.61484,  -0.00094,   0.00021,   0.00114,230720192.00000,   0.00012,274772000.00000,  -0.00008,   0.00003,   0.00017,-244051808.00000,   0.00000
-216180441.86811,-55015201.40875,73972586.34589,  -0.00095,   0.00020,   0.00113,233277952.00000,   0.00012,274772000.00000,  -0.00008,   0.00003,   0.00017,-241494048.00000,   0.00000
-221546873.82370,-58761578.43434,73286313.07693,  -0.00097,   0.00019,   0.00113,235794432.00000,   0.00012,274772000.00000,  -0.00008,   0.00003,   0.00017,-238977568.00000,   0.00000
-226941431.73293,-62536081.41358,72605664.99871,  -0.00099,   0.00019,   0.00112,238340944.00000,   0.00012,274772000.00000,  -0.00008,   0.00003,   0.00017,-236431056.00000,   0.00000
-232366928.19117,-66307771.79746,71925016.92049,  -0.00100,   0.00018,   0.00111,240950416.00000,   0.00012,274772000.00000,  -0.00008,   0.00003,   0.00017,-233821584.00000,   0.00000
-237848676.55670,-70135714.08863,71244368.84226,  -0.00102,   0.00017,   0.00110,243636432.00000,   0.00012,274772000.00000,  -0.00008,   0.00003,   0.00017,-231135568.00000,   0.00000
-243350113.08978,-73972094.16589,70563720.76404,  -0.00104,   0.00017,   0.00109,246416624.00000,   0.00012,274772000.00000,  -0.00008,   0.00003,   0.00017,-228355376.00000,   0.00000
-248871237.79041,-77816912.02925,69883072.68581,  -0.00106,   0.00016,   0.00108,249357984.00000,   0.00012,274772000.00000,  -0.00008,   0.00003,   0.00017,-225414016.00000,   0.00000
-254440176.61225,-81698293.63234,69208049.79832,  -0.00107,   0.00015,   0.00107,252562784.00000,   0.00012,274772000.00000,  -0.00008,   0.00003,   0.00017,-222209216.00000,   0.00000
-260028803.60163,-85588113.02153,68533026.91082,  -0.00109,   0.00015,   0.00106,256068208.00000,   0.00012,274772000.00000,  -0.00008,   0.00003,   0.00017,-218703792.00000,   0.00000
-265665244.71221,-89514496.15046,67863629.21406,  -0.00111,   0.00014,   0.00105,259891376.00000,   0.00012,274772000.00000,  -0.00008,   0.00003,   0.00017,-214880624.00000,   0.00000
-271329811.77644,-93469005.23303,67188606.32656,  -0.00113,   0.00013,   0.00105,263905920.00000,   0.00012,274772000.00000,  -0.00008,   0.00003,   0.00017,-210866080.00000,   0.00000
-277033755.17577,-97440389.88779,66519208.62980,  -0.00115,   0.00012,   0.00104,268217936.00000,   0.00012,274772000.00000,  -0.00008,   0.00003,   0.00017,-206554064.00000,   0.00000
-282757386.74265,-101420212.32865,65849810.93303,  -0.00116,   0.00012,   0.00103,272631072.00000,   0.00012,274772000.00000,  -0.00008,   0.00003,   0.00017,-202140928.00000,   0.00000
-288509144.26318,-105428160.72315,65186038.42700,  -0.00118,   0.00011,   0.00102,277128512.00000,   0.00012,274772000.00000,  -0.00008,   0.00003,   0.00017,-197643488.00000,   0.00000
-294300278.11881,-109452984.68983,64522265.92096,  -0.00120,   0.00010,   0.00101,281634304.00000,   0.00012,274772000.00000,  -0.00008,   0.00003,   0.00017,-193137696.00000,   0.00000
-300139226.09564,-113514372.39626,63858493.41492,  -0.00122,   0.00010,   0.00100,286099904.00000,   0.00012,274772000.00000,  -0.00008,   0.00003,   0.00017,-188672096.00000,   0.00000
-305986611.85857,-117595448.27024,63194720.90889,  -0.00124,   0.00009,   0.00099,290448480.00000,   0.00012,274772000.00000,  -0.00008,   0.00003,   0.00017,-184323520.00000,   0.00000
-311873373.95659,-121693399.71641,62536573.59358,  -0.00126,   0.00008,   0.00099,294675872.00000,   0.00012,274772000.00000,  -0.00008,   0.00003,   0.00017,-180096128.00000,   0.00000
-317799512.38972,-125808226.73476,61878426.27827,  -0.00128,   0.00008,   0.00098,298772928.00000,   0.00012,274772000.00000,  -0.00008,   0.00003,   0.00017,-175999072.00000,   0.00000
-323753776.77650,-129951179.70676,61220278.96296,  -0.00130,   0.00007,   0.00097,302810656.00000,   0.00012,274772000.00000,  -0.00008,   0.00003,   0.00017,-171961344.00000,   0.00000
-329727729.33083,-134102570.46485,60567756.83839,  -0.00131,   0.00006,   0.00096,306881920.00000,   0.00012,274772000.00000,  -0.00008,   0.00003,   0.00017,-167890080.00000,   0.00000
-335749496.00636,-138290524.96268,59909609.52308,  -0.00133,   0.00005,   0.00095,311048544.00000,   0.00012,274772000.00000,  -0.00008,   0.00003,   0.00017,-163723456.00000,   0.00000
-341799388.63553,-142506605.41416,59262712.58923,  -0.00135,   0.00005,   0.00094,315342816.00000,   0.00012,274772000.00000,  -0.00008,   0.00003,   0.00017,-159429184.00000,   0.00000
-347868969.43225,-146731123.65173,58610190.46465,  -0.00137,   0.00004,   0.00093,319775904.00000,   0.00012,274772000.00000,  -0.00008,   0.00003,   0.00017,-154996096.00000,   0.00000
-353977926.56408,-150972517.46149,57963293.53080,  -0.00139,   0.00003,   0.00093,324376896.00000,   0.00012,274772000.00000,  -0.00008,   0.00003,   0.00017,-150395104.00000,   0.00000
-360115009.64955,-155242037.22490,57322021.78768,  -0.00141,   0.00002,   0.00092,329126688.00000,   0.00012,274772000.00000,  -0.00008,   0.00003,   0.00017,-145645312.00000,   0.00000
-366271780.90258,-159519994.77440,56675124.85383,  -0.00143,   0.00002,   0.00091,333993664.00000,   0.00012,274772000.00000,  -0.00008,   0.00003,   0.00017,-140778336.00000,   0.00000
-372476366.27680,-163834516.06363,56033853.11071,  -0.00145,   0.00001,   0.00090,338990624.00000,   0.00012,274772000.00000,  -0.00008,   0.00003,   0.00017,-135781376.00000,   0.00000
-378709077.60467,-168177163.30652,55392581.36759,  -0.00147,   0.00000,   0.00089,344088672.00000,   0.00012,274772000.00000,  -0.00008,   0.00003,   0.00017,-130683328.00000,   0.00000
-384961477.10009,-172528248.33549,54756934.81520,  -0.00149,  -0.00001,   0.00088,349186784.00000,   0.00012,274772000.00000,  -0.00008,   0.00003,   0.00017,-125585216.00000,   0.00000
-391253252.93061,-176896208.93666,54121288.26281,  -0.00151,  -0.00001,   0.00088,353900864.00000,   0.00012,274772000.00000,  -0.00008,   0.00003,   0.00017,-120871136.00000,   0.00000
-397573154.71478,-181292295.49147,53485641.71042,  -0.00153,  -0.00002,   0.00087,358704064.00000,   0.00012,274772000.00000,  -0.00008,   0.00003,   0.00017,-116067936.00000,   0.00000
-403912744.66651,-185696819.83237,52855620.34876,  -0.00155,  -0.00003,   0.00086,363469568.00000,   0.00012,274772000.00000,  -0.00008,   0.00003,   0.00017,-111302432.00000,   0.00000
-410300148.73943,-190137907.91301,52225598.98710,  -0.00157,  -0.00004,   0.00085,368242816.00000,   0.00012,274772000.00000,  -0.00008,   0.00003,   0.00017,-106529184.00000,   0.00000
-416695990.59844,-194598684.16121,51601202.81616,  -0.00159,  -0.00004,   0.00084,373034528.00000,   0.00012,274772000.00000,  -0.00008,   0.00003,   0.00017,-101737472.00000,   0.00000
-423131208.79256,-199076335.98159,50976806.64523,  -0.00161,  -0.00005,   0.00084,377902496.00000,   0.00012,274772000.00000,  -0.00008,   0.00003,   0.00017,-96869504.00000,   0.00000
-429605803.32178,-203570863.37416,50352410.47430,  -0.00163,  -0.00006,   0.00083,382875200.00000,   0.00012,274772000.00000,  -0.00008,   0.00003,   0.00017,-91896800.00000,   0.00000
-436088835.63709,-208085078.93428,49728014.30337,  -0.00165,  -0.00007,   0.00082,387942080.00000,   0.00012,274772000.00000,  -0.00008,   0.00003,   0.00017,-86829920.00000,   0.00000
-442619682.07360,-212635858.23414,49114868.51389,  -0.00168,  -0.00008,   0.00081,393132800.00000,   0.00012,274772000.00000,  -0.00008,   0.00003,   0.00017,-81639200.00000,   0.00000
-449161778.89157,-217175387.15254,48496097.53369,  -0.00170,  -0.00008,   0.00080,398385024.00000,   0.00012,274772000.00000,  -0.00008,   0.00003,   0.00017,-76386976.00000,   0.00000
-455740439.44928,-221762730.19214,47882951.74421,  -0.00172,  -0.00009,   0.00079,403701856.00000,   0.00012,274772000.00000,  -0.00008,   0.00003,   0.00017,-71070144.00000,   0.00000
-462358476.34210,-226366948.80393,47269805.95474,  -0.00174,  -0.00010,   0.00079,409080128.00000,   0.00012,274772000.00000,  -0.00008,   0.00003,   0.00017,-65691872.00000,   0.00000
-468976513.23491,-230971167.41572,46656660.16526,  -0.00176,  -0.00011,   0.00078,414484864.00000,   0.00012,274772000.00000,  -0.00008,   0.00003,   0.00017,-60287136.00000,   0.00000
-475642364.24892,-235611949.76724,46049139.56652,  -0.00178,  -0.00012,   0.00077,419947168.00000,   0.00012,274772000.00000,  -0.00008,   0.00003,   0.00017,-54824832.00000,   0.00000
-482336341.21658,-240280858.07242,45447244.15850,  -0.00180,  -0.00012,   0.00076,425435296.00000,   0.00012,274772000.00000,  -0.00008,   0.00003,   0.00017,-49336704.00000,   0.00000
-489050006.35178,-244958204.16368,44845348.75049,  -0.00182,  -0.00013,   0.00076,430929376.00000,   0.00012,274772000.00000,  -0.00008,   0.00003,   0.00017,-43842624.00000,   0.00000
-495783359.65455,-249643988.04104,44243453.34247,  -0.00185,  -0.00014,   0.00075,436428096.00000,   0.00012,274772000.00000,  -0.00008,   0.00003,   0.00017,-38343904.00000,   0.00000
-502564527.07850,-254366335.65814,43647183.12518,  -0.00187,  -0.00015,   0.00074,441964544.00000,   0.00012,274772000.00000,  -0.00008,   0.00003,   0.00017,-32807456.00000,   0.00000
-509345694.50246,-259088683.27524,43050912.90790,  -0.00189,  -0.00016,   0.00073,447508704.00000,   0.00012,274772000.00000,  -0.00008,   0.00003,   0.00017,-27263296.00000,   0.00000
-516174676.04762,-263847594.63208,42454642.69061,  -0.00191,  -0.00017,   0.00072,453115168.00000,   0.00012,274772000.00000,  -0.00008,   0.00003,   0.00017,-21656832.00000,   0.00000
-523031783.54642,-268634631.94256,41863997.66405,  -0.00193,  -0.00017,   0.00072,458783136.00000,   0.00012,274772000.00000,  -0.00008,   0.00003,   0.00017,-15988864.00000,   0.00000
-529908579.21277,-273430107.03914,41273352.63749,  -0.00195,  -0.00018,   0.00071,464513504.00000,   0.00012,274772000.00000,  -0.00008,   0.00003,   0.00017,-10258496.00000,   0.00000
-536805063.04668,-278234019.92181,40688332.80166,  -0.00198,  -0.00019,   0.00070,470301920.00000,   0.00012,274772000.00000,  -0.00008,   0.00003,   0.00017,-4470080.00000,   0.00000
-542121932.62232,-281944166.92870,40243460.69257,  -0.00199,  -0.00020,   0.00070,474772000.00000,   0.00012,274772000.00000,  -0.00008,   0.00003,   0.00017,   0.00000,   0.00000
-542195838.26982,-282376876.45227,39979904.49176,  -0.00200,  -0.00020,   0.00069,474772000.00000,   0.00012,274777152.00000,  -0.00008,   0.00003,   0.00017,  64.00000,   2.00000
-542495639.46512,-284159412.80668,38872494.58093,  -0.00202,  -0.00021,   0.00069,480597600.00000,   0.00014,274799296.00000,  -0.00011,   0.00003,   0.00018,-160.00000,   2.00000
-542774128.29049,-285870189.60814,37783675.30778,  -0.00204,  -0.00022,   0.00068,480690080.00000,   0.00016,274821472.00000,  -0.00013,   0.00003,   0.00019,-416.00000,   2.00000
-543034027.93274,-287526650.54443,36706980.64507,  -0.00206,  -0.00023,   0.00067,480811136.00000,   0.00019,274843744.00000,  -0.00015,   0.00002,   0.00019,-768.00000,   2.00000
-543276947.84487,-289139976.19980,35637732.43921,  -0.00209,  -0.00023,   0.00066,480878560.00000,   0.00021,274865984.00000,  -0.00018,   0.00002,   0.00020,-544.00000,   2.00000
-543499266.77802,-290789699.96257,34571502.19239,  -0.00211,  -0.00024,   0.00066,480976608.00000,   0.00023,274888416.00000,  -0.00020,   0.00002,   0.00021,-128.00000,   2.00000
-543698266.62128,-292463743.21479,33514952.99729,  -0.00213,  -0.00025,   0.00065,481056512.00000,   0.00025,274911104.00000,  -0.00023,   0.00002,   0.00021,  96.00000,   2.00000
-543871625.80291,-294161423.01478,32473294.24845,  -0.00215,  -0.00026,   0.00064,481080480.00000,   0.00027,274933888.00000,  -0.00025,   0.00002,   0.00022, 512.00000,   2.00000
-544022012.46292,-295887211.09275,31439658.97462,  -0.00218,  -0.00027,   0.00063,481125440.00000,   0.00029,274956960.00000,  -0.00028,   0.00002,   0.00023, 672.00000,   2.00000
-544154385.20462,-297610265.28175,30418254.58001,  -0.00220,  -0.00028,   0.00063,481115680.00000,   0.00031,274980032.00000,  -0.00030,   0.00002,   0.00023, 608.00000,   2.00000
-544274308.96297,-299335839.71241,29411296.39083,  -0.00222,  -0.00029,   0.00062,481140832.00000,   0.00033,275003296.00000,  -0.00033,   0.00001,   0.00024, 736.00000,   2.00000
-544388711.80049,-301043227.31383,28416295.57385,  -0.00225,  -0.00030,   0.00061,481124832.00000,   0.00035,275026528.00000,  -0.00036,   0.00001,   0.00024, 704.00000,   2.00000
-544498216.41242,-302739650.15269,27439087.56894,  -0.00227,  -0.00030,   0.00061,481140256.00000,   0.00037,275049824.00000,  -0.00038,   0.00001,   0.00025, 512.00000,   2.00000
-544604310.28763,-304398792.26986,26478282.65425,  -0.00229,  -0.00031,   0.00060,481174912.00000,   0.00040,275073152.00000,  -0.00041,   0.00001,   0.00025, 416.00000,   2.00000
-544700475.00357,-306026746.14338,25544983.35573,  -0.00232,  -0.00032,   0.00059,481200672.00000,   0.00042,275096480.00000,  -0.00043,   0.00001,   0.00026, 416.00000,   2.00000
-544786000.41263,-307606742.38676,24633183.51846,  -0.00234,  -0.00033,   0.00058,481246880.00000,   0.00044,275119776.00000,  -0.00046,   0.00001,   0.00026, 256.00000,   2.00000
-544857293.42249,-309156093.07692,23746940.65262,  -0.00236,  -0.00034,   0.00058,481310784.00000,   0.00046,275143168.00000,  -0.00049,   0.00000,   0.00027, 384.00000,   2.00000
-544913888.18813,-310662380.16800,22879881.53572,  -0.00239,  -0.00035,   0.00057,481371648.00000,   0.00048,275166560.00000,  -0.00051,   0.00000,   0.00027, 448.00000,   2.00000
-544953328.13346,-312129929.10417,22033322.43872,  -0.00241,  -0.00036,   0.00056,481434240.00000,   0.00050,275190016.00000,  -0.00054,  -0.00000,   0.00028, 352.00000,   2.00000
-544975923.14433,-313594164.67341,21196456.53912,  -0.00243,  -0.00037,   0.00056,481508928.00000,   0.00052,275213568.00000,  -0.00056,  -0.00000,   0.00028, 416.00000,   2.00000
-544987454.16997,-315013219.78084,20374154.86965,  -0.00246,  -0.00038,   0.00055,481555168.00000,   0.00055,275237184.00000,  -0.00059,  -0.00001,   0.00028, 288.00000,   2.00000
-544987948.82321,-316418239.61825,19561003.53576,  -0.00248,  -0.00039,   0.00054,481598016.00000,   0.00057,275260768.00000,  -0.00062,  -0.00001,   0.00029, 384.00000,   2.00000
-544977840.88942,-317804793.22922,18761728.27224,  -0.00250,  -0.00040,   0.00054,481673568.00000,   0.00059,275284512.00000,  -0.00064,  -0.00001,   0.00029, 416.00000,   2.00000
-544959217.43838,-319161741.40474,17972823.45299,  -0.00253,  -0.00040,   0.00053,481706656.00000,   0.00061,275308256.00000,  -0.00067,  -0.00001,   0.00030, 352.00000,   2.00000
-544932415.24543,-320487837.59859,17199250.83507,  -0.00255,  -0.00041,   0.00052,481756352.00000,   0.00063,275332000.00000,  -0.00070,  -0.00002,   0.00030, 384.00000,   2.00000
-544896134.73532,-321797981.80727,16440595.06556,  -0.00257,  -0.00042,   0.00052,481814656.00000,   0.00065,275355840.00000,  -0.00072,  -0.00002,   0.00030, 288.00000,   2.00000
-544852083.17317,-323093483.29567,15685690.42390,  -0.00260,  -0.00043,   0.00051,481871616.00000,   0.00068,275379744.00000,  -0.00075,  -0.00002,   0.00030, 352.00000,   2.00000
-544800173.80057,-324361834.78986,14952031.53600,  -0.00262,  -0.00044,   0.00050,481904896.00000,   0.00070,275403648.00000,  -0.00078,  -0.00003,   0.00031, 416.00000,   2.00000
-544742254.81806,-325602745.18294,14227777.32935,  -0.00265,  -0.00045,   0.00050,481953440.00000,   0.00072,275427584.00000,  -0.00080,  -0.00003,   0.00031, 256.00000,   2.00000
-544676824.72585,-326830961.35944,13512649.54363,  -0.00267,  -0.00046,   0.00049,482010400.00000,   0.00074,275451616.00000,  -0.00083,  -0.00004,   0.00031, 224.00000,   2.00000
-544605706.06394,-328032931.35501,12812491.68091,  -0.00269,  -0.00047,   0.00048,482058816.00000,   0.00076,275475648.00000,  -0.00086,  -0.00004,   0.00032, 352.00000,   2.00000
-544527233.83999,-329223163.93657,12127001.57420,  -0.00272,  -0.00048,   0.00048,482115936.00000,   0.00079,275499776.00000,  -0.00088,  -0.00004,   0.00032, 448.00000,   2.00000
-544443344.37875,-330390437.86930,11451317.19522,  -0.00274,  -0.00049,   0.00047,482147072.00000,   0.00081,275523904.00000,  -0.00091,  -0.00005,   0.00032, 224.00000,   2.00000
-544353090.22325,-331547245.81304,10784786.51361,  -0.00277,  -0.00050,   0.00046,482203072.00000,   0.00083,275548096.00000,  -0.00094,  -0.00005,   0.00032, 256.00000,   2.00000
-544257794.09554,-332682100.68414,10133634.11723,  -0.00279,  -0.00051,   0.00046,482233856.00000,   0.00085,275572256.00000,  -0.00096,  -0.00006,   0.00033, 320.00000,   2.00000
-544158544.74757,-333791204.06764,9497006.93568,  -0.00282,  -0.00052,   0.00045,482297216.00000,   0.00088,275596544.00000,  -0.00099,  -0.00006,   0.00033, 288.00000,   2.00000
-544053137.06024,-334893403.29254,8869891.97028,  -0.00284,  -0.00053,   0.00044,482336160.00000,   0.00090,275620832.00000,  -0.00102,  -0.00007,   0.00033, 384.00000,   2.00000
-543941021.27799,-335988530.29903,8257813.13797,  -0.00286,  -0.00054,   0.00044,482375264.00000,   0.00092,275645120.00000,  -0.00104,  -0.00007,   0.00033, 320.00000,   2.00000
-543826253.63304,-337059117.09903,7654698.94423,  -0.00289,  -0.00055,   0.00043,482437440.00000,   0.00094,275669504.00000,  -0.00107,  -0.00007,   0.00033, 352.00000,   2.00000
-543707693.82630,-338110034.55909,7066711.97947,  -0.00291,  -0.00056,   0.00043,482466656.00000,   0.00097,275693888.00000,  -0.00110,  -0.00008,   0.00033, 384.00000,   2.00000
-543583303.63913,-339155153.84680,6493550.80944,  -0.00294,  -0.00057,   0.00042,482504864.00000,   0.00099,275718272.00000,  -0.00113,  -0.00008,   0.00034, 480.00000,   2.00000
-543456307.10718,-340178993.68710,5929443.52230,  -0.00296,  -0.00058,   0.00041,482549664.00000,   0.00101,275742720.00000,  -0.00115,  -0.00009,   0.00034, 352.00000,   2.00000
-543324664.53664,-341195308.32880,5374231.82391,  -0.00299,  -0.00059,   0.00041,482603456.00000,   0.00103,275767232.00000,  -0.00118,  -0.00009,   0.00034, 320.00000,   2.00000
-543190113.38939,-342193195.99091,4839270.92054,  -0.00301,  -0.00060,   0.00040,482631648.00000,   0.00106,275791712.00000,  -0.00121,  -0.00010,   0.00034, 416.00000,   2.00000
-543051367.97635,-343183994.93530,4307395.96478,  -0.00304,  -0.00061,   0.00040,482684896.00000,   0.00108,275816256.00000,  -0.00124,  -0.00010,   0.00034, 416.00000,   2.00000
-542910623.43379,-344154302.62721,3795335.87255,  -0.00306,  -0.00062,   0.00039,482728960.00000,   0.00110,275840864.00000,  -0.00126,  -0.00011,   0.00034, 352.00000,   2.00000
-542768031.10579,-345107283.60959,3291905.68216,  -0.00309,  -0.00063,   0.00038,482756128.00000,   0.00113,275865472.00000,  -0.00129,  -0.00012,   0.00034, 384.00000,   2.00000
-542621607.72778,-346053651.21090,2796779.17500,  -0.00311,  -0.00064,   0.00038,482808768.00000,   0.00115,275890112.00000,  -0.00132,  -0.00012,   0.00034, 320.00000,   2.00000
-542471141.44137,-346996134.61391,2315510.24663,  -0.00314,  -0.00065,   0.00037,482844928.00000,   0.00117,275914784.00000,  -0.00134,  -0.00013,   0.00034, 480.00000,   2.00000
-542321685.89364,-347908512.29327,1847966.42047,  -0.00316,  -0.00066,   0.00037,482862240.00000,   0.00119,275939424.00000,  -0.00137,  -0.00013,   0.00034, 320.00000,   2.00000
-542166424.01069,-348827786.64700,1388169.03695,  -0.00319,  -0.00067,   0.00036,482923776.00000,   0.00122,275964160.00000,  -0.00140,  -0.00014,   0.00034, 352.00000,   2.00000
-542013495.66674,-349714805.45284,941639.14789,  -0.00321,  -0.00068,   0.00036,482956736.00000,   0.00124,275988896.00000,  -0.00143,  -0.00014,   0.00034, 352.00000,   2.00000
-541857050.35042,-350598609.38073,502588.27922,  -0.00324,  -0.00069,   0.00035,482992352.00000,   0.00126,276013632.00000,  -0.00145,  -0.00015,   0.00034, 288.00000,   2.00000
-541697923.92350,-351476436.46606,76379.87679,  -0.00326,  -0.00070,   0.00034,483043968.00000,   0.00129,276038464.00000,  -0.00148,  -0.00016,   0.00034, 352.00000,   2.00000
-541538493.84817,-352338258.17738,-337217.91642,  -0.00329,  -0.00071,   0.00034,483069760.00000,   0.00131,276063264.00000,  -0.00151,  -0.00016,   0.00034, 416.00000,   2.00000
-541378691.11020,-353184175.93250,-744018.66302,  -0.00331,  -0.00072,   0.00033,483095456.00000,   0.00133,276088032.00000,  -0.00154,  -0.00017,   0.00034, 384.00000,   2.00000
-541216694.75244,-354024435.65692,-1138608.83435,  -0.00334,  -0.00073,   0.00033,483146752.00000,   0.00135,276112896.00000,  -0.00157,  -0.00017,   0.00034, 416.00000,   2.00000
-541054829.09053,-354849140.35187,-1526833.53357,  -0.00336,  -0.00074,   0.00032,483172192.00000,   0.00138,276137728.00000,  -0.00159,  -0.00018,   0.00034, 416.00000,   2.00000
-540893258.90182,-355658542.14185,-1903334.21663,  -0.00339,  -0.00075,   0.00032,483197472.00000,   0.00140,276162528.00000,  -0.00162,  -0.00019,   0.00034, 384.00000,   2.00000
-540729866.71711,-356462551.21364,-2268217.86087,  -0.00341,  -0.00076,   0.00031,483248576.00000,   0.00142,276187392.00000,  -0.00165,  -0.00019,   0.00034, 416.00000,   2.00000
-540564727.37070,-357261070.22237,-2627209.22979,  -0.00344,  -0.00077,   0.00031,483299744.00000,   0.00145,276212352.00000,  -0.00168,  -0.00020,   0.00034, 416.00000,   2.00000
-540399689.21637,-358047604.32177,-2975134.24326,  -0.00346,  -0.00078,   0.00030,483308704.00000,   0.00147,276237216.00000,  -0.00170,  -0.00021,   0.00034, 416.00000,   2.00000
-540236030.86006,-358816202.79302,-3317493.59362,  -0.00349,  -0.00079,   0.00030,483350112.00000,   0.00149,276262112.00000,  -0.00173,  -0.00021,   0.00034, 448.00000,   2.00000
-540071103.60805,-359579743.68776,-3648691.68327,  -0.00351,  -0.00080,   0.00029,483401056.00000,   0.00152,276287104.00000,  -0.00176,  -0.00022,   0.00034, 448.00000,   2.00000
-539906390.84452,-360331821.47701,-3969178.23582,  -0.00354,  -0.00081,   0.00029,483409984.00000,   0.00154,276312000.00000,  -0.00179,  -0.00023,   0.00034, 320.00000,   2.00000
-539743676.24855,-361066619.53605,-4284254.87636,  -0.00357,  -0.00082,   0.00028,483451136.00000,   0.00156,276336928.00000,  -0.00181,  -0.00023,   0.00034, 352.00000,   2.00000
-539579091.24090,-361799849.15891,-4588340.01383,  -0.00359,  -0.00083,   0.00028,483485984.00000,   0.00159,276361856.00000,  -0.00184,  -0.00024,   0.00034, 416.00000,   2.00000
-539416731.76109,-362516120.08442,-4881312.00783,  -0.00362,  -0.00085,   0.00027,483527296.00000,   0.00161,276386848.00000,  -0.00187,  -0.00025,   0.00033, 352.00000,   2.00000
-539251751.03763,-363234261.31561,-5168872.01127,  -0.00364,  -0.00086,   0.00027,483546400.00000,   0.00163,276411776.00000,  -0.00190,  -0.00026,   0.00033, 544.00000,   2.00000
-539088834.65440,-363935538.38521,-5450491.75393,  -0.00367,  -0.00087,   0.00026,483588000.00000,   0.00166,276436768.00000,  -0.00192,  -0.00026,   0.00033, 448.00000,   2.00000
-538927728.96332,-364623830.20264,-5715105.26026,  -0.00369,  -0.00088,   0.00026,483613120.00000,   0.00168,276461696.00000,  -0.00195,  -0.00027,   0.00033, 448.00000,   2.00000
-538765900.00333,-365308237.43119,-5973258.38992,  -0.00372,  -0.00089,   0.00025,483664576.00000,   0.00170,276486720.00000,  -0.00198,  -0.00028,   0.00033, 416.00000,   2.00000
-538604988.65096,-365983262.16148,-6219861.58126,  -0.00374,  -0.00090,   0.00025,483674208.00000,   0.00173,276511680.00000,  -0.00201,  -0.00028,   0.00033, 384.00000,   2.00000
-538446469.88554,-366642429.65449,-6459680.34331,  -0.00377,  -0.00091,   0.00024,483716192.00000,   0.00175,276536672.00000,  -0.00203,  -0.00029,   0.00033, 384.00000,   2.00000
-538286615.79141,-367301699.26896,-6687090.39537,  -0.00380,  -0.00092,   0.00024,483751968.00000,   0.00177,276561664.00000,  -0.00206,  -0.00030,   0.00032, 352.00000,   2.00000
-538125256.58805,-367960961.36397,-6907483.26773,  -0.00382,  -0.00093,   0.00023,483788352.00000,   0.00180,276586688.00000,  -0.00209,  -0.00031,   0.00032, 384.00000,   2.00000
-537969417.75677,-368596444.67443,-7110270.88180,  -0.00385,  -0.00094,   0.00023,483804128.00000,   0.00182,276611616.00000,  -0.00212,  -0.00031,   0.00032, 384.00000,   2.00000
-537811875.62950,-369232315.86144,-7311559.74667,  -0.00387,  -0.00095,   0.00022,483840896.00000,   0.00184,276636608.00000,  -0.00214,  -0.00032,   0.00032, 480.00000,   2.00000
-537653380.28944,-369868994.84341,-7494867.91097,  -0.00390,  -0.00096,   0.00022,483877088.00000,   0.00187,276661600.00000,  -0.00217,  -0.00033,   0.00032, 416.00000,   2.00000
-537501143.64817,-370478905.66909,-7671554.56894,  -0.00392,  -0.00098,   0.00022,483909536.00000,   0.00189,276686560.00000,  -0.00220,  -0.00034,   0.00031, 448.00000,   2.00000
-537346607.36108,-371093330.58389,-7836669.87547,  -0.00395,  -0.00099,   0.00021,483930144.00000,   0.00191,276711520.00000,  -0.00223,  -0.00035,   0.00031, 448.00000,   2.00000
-537191745.78212,-371705273.53671,-7995037.79840,  -0.00397,  -0.00100,   0.00021,483983008.00000,   0.00194,276736544.00000,  -0.00226,  -0.00035,   0.00031, 352.00000,   2.00000
-537038155.41242,-372309935.80484,-8142752.65045,  -0.00400,  -0.00101,   0.00020,483993600.00000,   0.00196,276761472.00000,  -0.00228,  -0.00036,   0.00031, 416.00000,   2.00000
