# sigma_xx, sigma_yy, sigma_xy, epsilon_xx, epsilon_yy, epsilon_xy, vonMises, epsPlastic, hardening, epsilonP__xx, epsilonP__yy, epsilonP__xy, yieldValue, iteration
   0.00000,   0.00000,   0.00000,   0.00000,   0.00000,   0.00000,   0.00000,   0.00000,274640135.82653,   0.00000,   0.00000,   0.00000,-474640135.82653,   0.00000
   0.00000,   0.00000,   0.00000,   0.00000,   0.00000,   0.00000,   0.00000,   0.00000,274640135.82653,   0.00000,   0.00000,   0.00000,-474640135.82653,   0.00000
482022.74271,225842.82351,-593258.76026,   0.00000,   0.00000,  -0.00001,1109214.76644,   0.00000,274640135.82653,   0.00000,   0.00000,   0.00000,-473530921.06009,   0.00000
977528.63906,438202.49337,-1186517.52052,   0.00000,   0.00000,  -0.00002,2223218.31089,   0.00000,274640135.82653,   0.00000,   0.00000,   0.00000,-472416917.51564,   0.00000
1473034.53541,650562.16324,-1786517.85759,   0.00001,   0.00000,  -0.00002,3348088.93302,   0.00000,274640135.82653,   0.00000,   0.00000,   0.00000,-471292046.89351,   0.00000
1968540.43176,862921.83310,-2379776.61785,   0.00001,   0.00000,  -0.00003,4462185.47981,   0.00000,274640135.82653,   0.00000,   0.00000,   0.00000,-470177950.34672,   0.00000
2487641.84699,1085393.86820,-2973035.37811,   0.00001,   0.00000,  -0.00004,5584190.96016,   0.00000,274640135.82653,   0.00000,   0.00000,   0.00000,-469055944.86637,   0.00000
3020226.41586,1294382.74965,-3573035.71519,   0.00001,   0.00000,  -0.00005,6722173.60673,   0.00000,274640135.82653,   0.00000,   0.00000,   0.00000,-467917962.21980,   0.00000
3552810.98473,1503371.63111,-4173036.05227,   0.00001,  -0.00000,  -0.00005,7860285.40130,   0.00000,274640135.82653,   0.00000,   0.00000,   0.00000,-466779850.42523,   0.00000
4108991.07247,1722472.87779,-4766294.81253,   0.00002,  -0.00000,  -0.00006,8995876.47151,   0.00000,274640135.82653,   0.00000,   0.00000,   0.00000,-465644259.35502,   0.00000
4665171.16021,1941574.12448,-5366295.14960,   0.00002,  -0.00000,  -0.00007,10142343.28555,   0.00000,274640135.82653,   0.00000,   0.00000,   0.00000,-464497792.54098,   0.00000
5244946.76682,2170787.73640,-5966295.48668,   0.00002,  -0.00000,  -0.00008,11297175.10562,   0.00000,274640135.82653,   0.00000,   0.00000,   0.00000,-463342960.72091,   0.00000
5814610.00821,2376405.82944,-6566295.82376,   0.00002,  -0.00000,  -0.00009,12449411.37684,   0.00000,274640135.82653,   0.00000,   0.00000,   0.00000,-462190724.44969,   0.00000
6407868.76847,2592136.28772,-7166296.16084,   0.00002,  -0.00000,  -0.00009,13610190.50274,   0.00000,274640135.82653,   0.00000,   0.00000,   0.00000,-461029945.32379,   0.00000
7001127.52872,2807866.74599,-7766296.49792,   0.00003,  -0.00000,  -0.00010,14771179.81223,   0.00000,274640135.82653,   0.00000,   0.00000,   0.00000,-459868956.01430,   0.00000
7617981.80785,3033709.56950,-8373038.41182,   0.00003,  -0.00000,  -0.00011,15951476.82829,   0.00000,274640135.82653,   0.00000,   0.00000,   0.00000,-458688658.99824,   0.00000
8234836.08699,3259552.39301,-8973038.74890,   0.00003,  -0.00000,  -0.00012,17121378.46894,   0.00000,274640135.82653,   0.00000,   0.00000,   0.00000,-457518757.35759,   0.00000
8865173.51976,3471912.06287,-9573039.08598,   0.00003,  -0.00000,  -0.00012,18297420.69391,   0.00000,274640135.82653,   0.00000,   0.00000,   0.00000,-456342715.13262,   0.00000
9495510.95253,3684271.73274,-10179780.99988,   0.00004,  -0.00000,  -0.00013,19484310.80322,   0.00000,274640135.82653,   0.00000,   0.00000,   0.00000,-455155825.02331,   0.00000
10149443.90418,3906743.76783,-10786522.91378,   0.00004,  -0.00000,  -0.00014,20680179.19217,   0.00000,274640135.82653,   0.00000,   0.00000,   0.00000,-453959956.63436,   0.00000
10803376.85583,4129215.80293,-11386523.25086,   0.00004,  -0.00000,  -0.00015,21865786.86956,   0.00000,274640135.82653,   0.00000,   0.00000,   0.00000,-452774348.95697,   0.00000
11457309.80748,4351687.83803,-11993265.16476,   0.00004,  -0.00000,  -0.00016,23062170.91375,   0.00000,274640135.82653,   0.00000,   0.00000,   0.00000,-451577964.91278,   0.00000
12124725.91277,4560676.71948,-12600007.07866,   0.00005,  -0.00000,  -0.00016,24265043.38643,   0.00000,274640135.82653,   0.00000,   0.00000,   0.00000,-450375092.44010,   0.00000
12825849.90216,4803373.48504,-13206748.99256,   0.00005,  -0.00000,  -0.00017,25479837.75583,   0.00000,274640135.82653,   0.00000,   0.00000,   0.00000,-449160298.07070,   0.00000
13516861.52633,5022474.73173,-13813490.90646,   0.00005,  -0.00000,  -0.00018,26692326.52941,   0.00000,274640135.82653,   0.00000,   0.00000,   0.00000,-447947809.29712,   0.00000
14197760.78526,5217980.45954,-14420232.82036,   0.00005,  -0.00000,  -0.00019,27902498.75593,   0.00000,274640135.82653,   0.00000,   0.00000,   0.00000,-446737637.07060,   0.00000
14912367.92830,5447194.07146,-15026974.73426,   0.00006,  -0.00000,  -0.00020,29124731.54044,   0.00000,274640135.82653,   0.00000,   0.00000,   0.00000,-445515404.28609,   0.00000
15626975.07133,5676407.68338,-15633716.64816,   0.00006,  -0.00000,  -0.00020,30347292.48895,   0.00000,274640135.82653,   0.00000,   0.00000,   0.00000,-444292843.33758,   0.00000
16355065.36801,5892138.14165,-16240458.56206,   0.00006,  -0.00001,  -0.00021,31576836.97785,   0.00000,274640135.82653,   0.00000,   0.00000,   0.00000,-443063298.84868,   0.00000
17083155.66469,6107868.59993,-16847200.47596,   0.00007,  -0.00001,  -0.00022,32806753.69276,   0.00000,274640135.82653,   0.00000,   0.00000,   0.00000,-441833382.13377,   0.00000
17834841.48025,6333711.42343,-17460683.96668,   0.00007,  -0.00001,  -0.00023,34056764.16741,   0.00000,274640135.82653,   0.00000,   0.00000,   0.00000,-440583371.65912,   0.00000
18586527.29580,6559554.24694,-18067425.88058,   0.00007,  -0.00001,  -0.00023,35296785.24494,   0.00000,274640135.82653,   0.00000,   0.00000,   0.00000,-439343350.58159,   0.00000
19328100.74612,6761801.55157,-18674167.79448,   0.00007,  -0.00001,  -0.00024,36534617.63191,   0.00000,274640135.82653,   0.00000,   0.00000,   0.00000,-438105518.19462,   0.00000
20103382.08055,6997756.74031,-19287651.28520,   0.00008,  -0.00001,  -0.00025,37795191.08715,   0.00000,274640135.82653,   0.00000,   0.00000,   0.00000,-436844944.73938,   0.00000
20868551.04975,7210116.41018,-19901134.77592,   0.00008,  -0.00001,  -0.00026,39053591.57993,   0.00000,274640135.82653,   0.00000,   0.00000,   0.00000,-435586544.24660,   0.00000
21657315.53782,7432588.44527,-20507876.68982,   0.00008,  -0.00001,  -0.00027,40311683.08386,   0.00000,274640135.82653,   0.00000,   0.00000,   0.00000,-434328452.74267,   0.00000
22446080.02589,7655060.48037,-21121360.18054,   0.00009,  -0.00001,  -0.00027,41580475.30957,   0.00000,274640135.82653,   0.00000,   0.00000,   0.00000,-433059660.51696,   0.00000
23248327.66760,7864049.36183,-21734843.67126,   0.00009,  -0.00001,  -0.00028,42856881.63632,   0.00000,274640135.82653,   0.00000,   0.00000,   0.00000,-431783254.19021,   0.00000
24037092.15567,8086521.39692,-22341585.58516,   0.00009,  -0.00001,  -0.00029,44116170.58340,   0.00000,274640135.82653,   0.00000,   0.00000,   0.00000,-430523965.24313,   0.00000
24862935.31626,8305622.64361,-22955069.07588,   0.00010,  -0.00001,  -0.00030,45403219.60307,   0.00000,274640135.82653,   0.00000,   0.00000,   0.00000,-429236916.22346,   0.00000
25665182.95797,8514611.52506,-23568552.56660,   0.00010,  -0.00001,  -0.00031,46680843.75133,   0.00000,274640135.82653,   0.00000,   0.00000,   0.00000,-427959292.07520,   0.00000
26491026.11855,8733712.77175,-24182036.05732,   0.00010,  -0.00001,  -0.00031,47968737.67443,   0.00000,274640135.82653,   0.00000,   0.00000,   0.00000,-426671398.15210,   0.00000
27316869.27914,8952814.01843,-24795519.54804,   0.00011,  -0.00001,  -0.00032,49257027.36476,   0.00000,274640135.82653,   0.00000,   0.00000,   0.00000,-425383108.46177,   0.00000
28166307.95860,9182027.63035,-25409003.03877,   0.00011,  -0.00001,  -0.00033,50555702.18852,   0.00000,274640135.82653,   0.00000,   0.00000,   0.00000,-424084433.63801,   0.00000
29005634.27283,9387645.72340,-26022486.52949,   0.00011,  -0.00001,  -0.00034,51852381.90087,   0.00000,274640135.82653,   0.00000,   0.00000,   0.00000,-422787753.92566,   0.00000
29878668.47116,9626971.70055,-26635970.02021,   0.00012,  -0.00001,  -0.00035,53161988.43782,   0.00000,274640135.82653,   0.00000,   0.00000,   0.00000,-421478147.38871,   0.00000
30717994.78539,9832589.79359,-27249453.51093,   0.00012,  -0.00002,  -0.00035,54459487.08545,   0.00000,274640135.82653,   0.00000,   0.00000,   0.00000,-420180648.74108,   0.00000
31580916.61849,10048320.25187,-27862937.00165,   0.00012,  -0.00002,  -0.00036,55767532.17950,   0.00000,274640135.82653,   0.00000,   0.00000,   0.00000,-418872603.64703,   0.00000
32467433.97047,10274163.07537,-28483162.06919,   0.00013,  -0.00002,  -0.00037,57096309.41361,   0.00000,274640135.82653,   0.00000,   0.00000,   0.00000,-417543826.41292,   0.00000
33343838.95721,10476410.38001,-29096645.55991,   0.00013,  -0.00002,  -0.00038,58413075.40964,   0.00000,274640135.82653,   0.00000,   0.00000,   0.00000,-416227060.41689,   0.00000
34230356.30919,10702253.20351,-29710129.05063,   0.00013,  -0.00002,  -0.00039,59732645.01790,   0.00000,274640135.82653,   0.00000,   0.00000,   0.00000,-414907490.80863,   0.00000
35106761.29593,10904500.50815,-30323612.54136,   0.00014,  -0.00002,  -0.00039,61050270.73081,   0.00000,274640135.82653,   0.00000,   0.00000,   0.00000,-413589865.09572,   0.00000
36006761.80155,11116860.17801,-30943837.60890,   0.00014,  -0.00002,  -0.00040,62388721.71425,   0.00000,274640135.82653,   0.00000,   0.00000,   0.00000,-412251414.11228,   0.00000
36906762.30717,11329219.84788,-31557321.09962,   0.00015,  -0.00002,  -0.00041,63717572.51545,   0.00000,274640135.82653,   0.00000,   0.00000,   0.00000,-410922563.31108,   0.00000
37806762.81279,11541579.51774,-32170804.59034,   0.00015,  -0.00002,  -0.00042,65046841.71275,   0.00000,274640135.82653,   0.00000,   0.00000,   0.00000,-409593294.11378,   0.00000
38720246.47205,11740456.03396,-32791029.65788,   0.00015,  -0.00002,  -0.00043,66394708.53528,   0.00000,274640135.82653,   0.00000,   0.00000,   0.00000,-408245427.29125,   0.00000
39643842.49654,11962928.06906,-33404513.14860,   0.00016,  -0.00002,  -0.00043,67735322.80719,   0.00000,274640135.82653,   0.00000,   0.00000,   0.00000,-406904813.01934,   0.00000
40557326.15580,12161804.58528,-34024738.21615,   0.00016,  -0.00002,  -0.00044,69084038.33377,   0.00000,274640135.82653,   0.00000,   0.00000,   0.00000,-405556097.49276,   0.00000
41494405.33394,12370793.46674,-34638221.70687,   0.00016,  -0.00002,  -0.00045,70433817.84090,   0.00000,274640135.82653,   0.00000,   0.00000,   0.00000,-404206317.98563,   0.00000
42407888.99320,12569669.98296,-35258446.77441,   0.00017,  -0.00003,  -0.00046,71783331.56000,   0.00000,274640135.82653,   0.00000,   0.00000,   0.00000,-402856804.26653,   0.00000
43344968.17133,12778658.86442,-35871930.26513,   0.00017,  -0.00003,  -0.00047,73133959.06988,   0.00000,274640135.82653,   0.00000,   0.00000,   0.00000,-401506176.75665,   0.00000
44305642.86834,12997760.11110,-36492155.33267,   0.00018,  -0.00003,  -0.00047,74505636.31554,   0.00000,274640135.82653,   0.00000,   0.00000,   0.00000,-400134499.51099,   0.00000
45232609.68124,13183153.47368,-37105638.82339,   0.00018,  -0.00003,  -0.00048,75854870.48384,   0.00000,274640135.82653,   0.00000,   0.00000,   0.00000,-398785265.34269,   0.00000
46193284.37825,13402254.72037,-37725863.89093,   0.00018,  -0.00003,  -0.00049,77227379.91531,   0.00000,274640135.82653,   0.00000,   0.00000,   0.00000,-397412755.91122,   0.00000
47143846.71003,13597760.44818,-38346088.95848,   0.00019,  -0.00003,  -0.00050,78598080.46568,   0.00000,274640135.82653,   0.00000,   0.00000,   0.00000,-396042055.36085,   0.00000
48118004.56068,13803378.54122,-38959572.44920,   0.00019,  -0.00003,  -0.00051,79970178.48378,   0.00000,274640135.82653,   0.00000,   0.00000,   0.00000,-394669957.34275,   0.00000
49068566.89245,13998884.26904,-39579797.51674,   0.00020,  -0.00003,  -0.00051,81341680.23148,   0.00000,274640135.82653,   0.00000,   0.00000,   0.00000,-393298455.59505,   0.00000
50032612.37787,14180906.84321,-40200022.58428,   0.00020,  -0.00003,  -0.00052,82722294.77189,   0.00000,274640135.82653,   0.00000,   0.00000,   0.00000,-391917841.05464,   0.00000
51006770.22852,14386524.93625,-40813506.07500,   0.00020,  -0.00003,  -0.00053,84095656.07973,   0.00000,274640135.82653,   0.00000,   0.00000,   0.00000,-390544479.74680,   0.00000
51970815.71394,14568547.51042,-41433731.14255,   0.00021,  -0.00004,  -0.00054,85477079.93275,   0.00000,274640135.82653,   0.00000,   0.00000,   0.00000,-389163055.89378,   0.00000
52968569.08347,14784277.96870,-42047214.63327,   0.00021,  -0.00004,  -0.00055,86862229.49084,   0.00000,274640135.82653,   0.00000,   0.00000,   0.00000,-387777906.33569,   0.00000
53932614.56888,14966300.54287,-42667439.70081,   0.00022,  -0.00004,  -0.00055,88244413.87046,   0.00000,274640135.82653,   0.00000,   0.00000,   0.00000,-386395721.95607,   0.00000
54920255.57318,15158435.48227,-43287664.76835,   0.00022,  -0.00004,  -0.00056,89638012.31068,   0.00000,274640135.82653,   0.00000,   0.00000,   0.00000,-385002123.51585,   0.00000
55897784.21224,15326974.90279,-43901148.25907,   0.00022,  -0.00004,  -0.00057,91020145.89727,   0.00000,274640135.82653,   0.00000,   0.00000,   0.00000,-383619989.92926,   0.00000
56909020.73540,15529222.20743,-44521373.32661,   0.00023,  -0.00004,  -0.00058,92425638.23684,   0.00000,274640135.82653,   0.00000,   0.00000,   0.00000,-382214497.58969,   0.00000
57896661.73970,15721357.14683,-45141598.39416,   0.00023,  -0.00004,  -0.00059,93820371.62076,   0.00000,274640135.82653,   0.00000,   0.00000,   0.00000,-380819764.20577,   0.00000
58897785.89763,15900008.93259,-45755081.88488,   0.00024,  -0.00004,  -0.00059,95214844.95967,   0.00000,274640135.82653,   0.00000,   0.00000,   0.00000,-379425290.86686,   0.00000
59875314.53669,16068548.35312,-46375306.95242,   0.00024,  -0.00004,  -0.00060,96608226.53919,   0.00000,274640135.82653,   0.00000,   0.00000,   0.00000,-378031909.28734,   0.00000
60876438.69463,16247200.13888,-46995532.01996,   0.00025,  -0.00004,  -0.00061,98013165.98701,   0.00000,274640135.82653,   0.00000,   0.00000,   0.00000,-376626969.83952,   0.00000
61901158.37144,16435964.28987,-47609015.51068,   0.00025,  -0.00005,  -0.00062,99420039.10208,   0.00000,274640135.82653,   0.00000,   0.00000,   0.00000,-375220096.72445,   0.00000
62902282.52937,16614616.07563,-48229240.57823,   0.00025,  -0.00005,  -0.00063,100825712.39766,   0.00000,274640135.82653,   0.00000,   0.00000,   0.00000,-373814423.42887,   0.00000
63893294.32208,16769672.34251,-48849465.64577,   0.00026,  -0.00005,  -0.00064,102229722.88316,   0.00000,274640135.82653,   0.00000,   0.00000,   0.00000,-372410412.94336,   0.00000
64907901.63365,16934840.97463,-49462949.13649,   0.00026,  -0.00005,  -0.00064,103635754.22118,   0.00000,274640135.82653,   0.00000,   0.00000,   0.00000,-371004381.60535,   0.00000
65932621.31046,17123605.12562,-50083174.20403,   0.00027,  -0.00005,  -0.00065,105053782.64586,   0.00000,274640135.82653,   0.00000,   0.00000,   0.00000,-369586353.18067,   0.00000
66923633.10316,17278661.39251,-50696657.69475,   0.00027,  -0.00005,  -0.00066,106449177.15020,   0.00000,274640135.82653,   0.00000,   0.00000,   0.00000,-368190958.67633,   0.00000
67938240.41474,17443830.02462,-51316882.76229,   0.00028,  -0.00005,  -0.00067,107865916.61841,   0.00000,274640135.82653,   0.00000,   0.00000,   0.00000,-366774219.20812,   0.00000
68942735.36109,17585403.13787,-51937107.82984,   0.00028,  -0.00005,  -0.00068,109281063.67080,   0.00000,274640135.82653,   0.00000,   0.00000,   0.00000,-365359072.15573,   0.00000
69980938.19154,17760684.13522,-52550591.32056,   0.00028,  -0.00006,  -0.00068,110700308.11535,   0.00000,274640135.82653,   0.00000,   0.00000,   0.00000,-363939827.71118,   0.00000
70995545.50312,17925852.76733,-53170816.38810,   0.00029,  -0.00006,  -0.00069,112118041.05061,   0.00000,274640135.82653,   0.00000,   0.00000,   0.00000,-362522094.77592,   0.00000
72000040.44946,18067425.88058,-53784299.87882,   0.00029,  -0.00006,  -0.00070,113524601.07316,   0.00000,274640135.82653,   0.00000,   0.00000,   0.00000,-361115534.75337,   0.00000
73028130.91468,18219111.35905,-54404524.94636,   0.00030,  -0.00006,  -0.00071,114952569.68874,   0.00000,274640135.82653,   0.00000,   0.00000,   0.00000,-359687566.13779,   0.00000
74056221.37990,18370796.83753,-55018008.43708,   0.00030,  -0.00006,  -0.00072,116371311.16018,   0.00000,274640135.82653,   0.00000,   0.00000,   0.00000,-358268824.66635,   0.00000
75060716.32625,18512369.95077,-55631491.92780,   0.00031,  -0.00006,  -0.00072,117778843.21703,   0.00000,274640135.82653,   0.00000,   0.00000,   0.00000,-356861292.60950,   0.00000
76088806.79146,18664055.42924,-56251716.99535,   0.00031,  -0.00006,  -0.00073,119207779.82702,   0.00000,274640135.82653,   0.00000,   0.00000,   0.00000,-355432355.99951,   0.00000
77106784.89145,18792145.38885,-56865200.48607,   0.00031,  -0.00006,  -0.00074,120625669.62064,   0.00000,274640135.82653,   0.00000,   0.00000,   0.00000,-354014466.20589,   0.00000
78134875.35667,18943830.86732,-57485425.55361,   0.00032,  -0.00007,  -0.00075,122055217.27716,   0.00000,274640135.82653,   0.00000,   0.00000,   0.00000,-352584918.54937,   0.00000
79152853.45666,19071920.82692,-58098909.04433,   0.00032,  -0.00007,  -0.00076,123473742.61937,   0.00000,274640135.82653,   0.00000,   0.00000,   0.00000,-351166393.20716,   0.00000
80170831.55665,19200010.78652,-58712392.53505,   0.00033,  -0.00007,  -0.00076,124892581.55553,   0.00000,274640135.82653,   0.00000,   0.00000,   0.00000,-349747554.27100,   0.00000
81188809.65663,19328100.74612,-59325876.02577,   0.00033,  -0.00007,  -0.00077,126311723.51800,   0.00000,274640135.82653,   0.00000,   0.00000,   0.00000,-348328412.30853,   0.00000
82206787.75662,19456190.70573,-59939359.51649,   0.00034,  -0.00007,  -0.00078,127731158.40657,   0.00000,274640135.82653,   0.00000,   0.00000,   0.00000,-346908977.41996,   0.00000
83214653.49138,19560685.14645,-60559584.58404,   0.00034,  -0.00007,  -0.00079,129158635.70643,   0.00000,274640135.82653,   0.00000,   0.00000,   0.00000,-345481500.12010,   0.00000
84232631.59137,19688775.10605,-61173068.07476,   0.00034,  -0.00007,  -0.00080,130578633.48583,   0.00000,274640135.82653,   0.00000,   0.00000,   0.00000,-344061502.34070,   0.00000
85240497.32612,19793269.54678,-61786551.56548,   0.00035,  -0.00008,  -0.00080,131997203.10271,   0.00000,274640135.82653,   0.00000,   0.00000,   0.00000,-342642932.72382,   0.00000
86248363.06088,19897763.98751,-62400035.05620,   0.00035,  -0.00008,  -0.00081,133416058.60965,   0.00000,274640135.82653,   0.00000,   0.00000,   0.00000,-341224077.21688,   0.00000
87279824.31451,20012370.79347,-63013518.54692,   0.00036,  -0.00008,  -0.00082,134846939.41342,   0.00000,274640135.82653,   0.00000,   0.00000,   0.00000,-339793196.41311,   0.00000
88287690.04926,20116865.23419,-63627002.03764,   0.00036,  -0.00008,  -0.00083,136266353.45316,   0.00000,274640135.82653,   0.00000,   0.00000,   0.00000,-338373782.37337,   0.00000
89295555.78402,20221359.67492,-64240485.52836,   0.00037,  -0.00008,  -0.00084,137686027.11153,   0.00000,274640135.82653,   0.00000,   0.00000,   0.00000,-336954108.71499,   0.00000
90293309.15354,20302258.59677,-64847227.44226,   0.00037,  -0.00008,  -0.00084,139094910.01068,   0.00000,274640135.82653,   0.00000,   0.00000,   0.00000,-335545225.81585,   0.00000
91301174.88830,20406753.03750,-65460710.93298,   0.00038,  -0.00009,  -0.00085,140515100.98596,   0.00000,274640135.82653,   0.00000,   0.00000,   0.00000,-334125034.84057,   0.00000
92298928.25782,20487651.95936,-66074194.42370,   0.00038,  -0.00009,  -0.00086,141933946.70835,   0.00000,274640135.82653,   0.00000,   0.00000,   0.00000,-332706189.11818,   0.00000
93296681.62735,20568550.88121,-66687677.91443,   0.00038,  -0.00009,  -0.00087,143353052.64201,   0.00000,274640135.82653,   0.00000,   0.00000,   0.00000,-331287083.18452,   0.00000
94318030.51575,20659562.16829,-67294419.82833,   0.00039,  -0.00009,  -0.00087,144774845.86218,   0.00000,274640135.82653,   0.00000,   0.00000,   0.00000,-329865289.96435,   0.00000
95315783.88527,20740461.09015,-67907903.31905,   0.00039,  -0.00009,  -0.00088,146194466.64123,   0.00000,274640135.82653,   0.00000,   0.00000,   0.00000,-328445669.18530,   0.00000
96313537.25480,20821360.01200,-68514645.23295,   0.00040,  -0.00009,  -0.00089,147604937.22182,   0.00000,274640135.82653,   0.00000,   0.00000,   0.00000,-327035198.60470,   0.00000
97277582.74022,20868551.04975,-69128128.72367,   0.00040,  -0.00009,  -0.00090,149011666.88482,   0.00000,274640135.82653,   0.00000,   0.00000,   0.00000,-325628468.94171,   0.00000
98265223.74451,20925854.45273,-69734870.63757,   0.00041,  -0.00010,  -0.00091,150421136.68234,   0.00000,274640135.82653,   0.00000,   0.00000,   0.00000,-324218999.14419,   0.00000
99262977.11403,21006753.37458,-70348354.12829,   0.00041,  -0.00010,  -0.00091,151841701.18613,   0.00000,274640135.82653,   0.00000,   0.00000,   0.00000,-322798434.64040,   0.00000
100250618.11832,21064056.77756,-70955096.04219,   0.00042,  -0.00010,  -0.00092,153251666.13148,   0.00000,274640135.82653,   0.00000,   0.00000,   0.00000,-321388469.69505,   0.00000
101214663.60374,21111247.81531,-71561837.95609,   0.00042,  -0.00010,  -0.00093,154649975.82223,   0.00000,274640135.82653,   0.00000,   0.00000,   0.00000,-319990160.00430,   0.00000
102192192.24280,21144955.69941,-72168579.86999,   0.00042,  -0.00010,  -0.00094,156059013.48680,   0.00000,274640135.82653,   0.00000,   0.00000,   0.00000,-318581122.33973,   0.00000
103156237.72822,21192146.73716,-72775321.78389,   0.00043,  -0.00010,  -0.00095,157457793.45916,   0.00000,274640135.82653,   0.00000,   0.00000,   0.00000,-317182342.36737,   0.00000
104133766.36728,21225854.62127,-73382063.69779,   0.00043,  -0.00011,  -0.00095,158867340.36233,   0.00000,274640135.82653,   0.00000,   0.00000,   0.00000,-315772795.46420,   0.00000
105087699.48747,21249450.14014,-73988805.61169,   0.00044,  -0.00011,  -0.00096,160265211.29602,   0.00000,274640135.82653,   0.00000,   0.00000,   0.00000,-314374924.53051,   0.00000
106051744.97289,21296641.17789,-74595547.52559,   0.00044,  -0.00011,  -0.00097,161664655.10496,   0.00000,274640135.82653,   0.00000,   0.00000,   0.00000,-312975480.72157,   0.00000
106995565.72785,21296641.17789,-75202289.43949,   0.00045,  -0.00011,  -0.00098,163061659.65908,   0.00000,274640135.82653,   0.00000,   0.00000,   0.00000,-311578476.16745,   0.00000
107949498.84803,21320236.69676,-75809031.35339,   0.00045,  -0.00011,  -0.00099,164460225.07533,   0.00000,274640135.82653,   0.00000,   0.00000,   0.00000,-310179910.75120,   0.00000
108903431.96822,21343832.21564,-76409031.69047,   0.00045,  -0.00012,  -0.00099,165849692.37262,   0.00000,274640135.82653,   0.00000,   0.00000,   0.00000,-308790443.45391,   0.00000
109823657.20430,21333719.85040,-77015773.60437,   0.00046,  -0.00012,  -0.00100,167235475.60335,   0.00000,274640135.82653,   0.00000,   0.00000,   0.00000,-307404660.22318,   0.00000
110777590.32449,21357315.36928,-77615773.94145,   0.00046,  -0.00012,  -0.00101,168625391.32368,   0.00000,274640135.82653,   0.00000,   0.00000,   0.00000,-306014744.50285,   0.00000
111697815.56057,21347203.00405,-78222515.85535,   0.00047,  -0.00012,  -0.00102,170011632.22979,   0.00000,274640135.82653,   0.00000,   0.00000,   0.00000,-304628503.59674,   0.00000
112618040.79665,21337090.63881,-78822516.19242,   0.00047,  -0.00012,  -0.00102,171388798.88276,   0.00000,274640135.82653,   0.00000,   0.00000,   0.00000,-303251336.94376,   0.00000
113561861.55161,21337090.63881,-79422516.52950,   0.00048,  -0.00012,  -0.00103,172778171.36026,   0.00000,274640135.82653,   0.00000,   0.00000,   0.00000,-301861964.46627,   0.00000
114448378.90358,21293270.38948,-80022516.86658,   0.00048,  -0.00013,  -0.00104,174142654.55911,   0.00000,274640135.82653,   0.00000,   0.00000,   0.00000,-300497481.26742,   0.00000
115368604.13967,21283158.02425,-80622517.20366,   0.00048,  -0.00013,  -0.00105,175520512.31820,   0.00000,274640135.82653,   0.00000,   0.00000,   0.00000,-299119623.50833,   0.00000
116278717.01052,21249450.14014,-81222517.54074,   0.00049,  -0.00013,  -0.00106,176897463.03541,   0.00000,274640135.82653,   0.00000,   0.00000,   0.00000,-297742672.79112,   0.00000
117165234.36249,21205629.89080,-81822517.87782,   0.00049,  -0.00013,  -0.00106,178262675.79592,   0.00000,274640135.82653,   0.00000,   0.00000,   0.00000,-296377460.03061,   0.00000
118051751.71447,21161809.64147,-82422518.21490,   0.00050,  -0.00013,  -0.00107,179628127.24957,   0.00000,274640135.82653,   0.00000,   0.00000,   0.00000,-295012008.57696,   0.00000
118938269.06644,21117989.39213,-83015776.97516,   0.00050,  -0.00014,  -0.00108,180984534.97576,   0.00000,274640135.82653,   0.00000,   0.00000,   0.00000,-293655600.85077,   0.00000
119824786.41842,21074169.14279,-83615777.31223,   0.00050,  -0.00014,  -0.00109,182350450.71342,   0.00000,274640135.82653,   0.00000,   0.00000,   0.00000,-292289685.11311,   0.00000
120687708.25152,21020236.52822,-84209036.07249,   0.00051,  -0.00014,  -0.00109,183695330.26723,   0.00000,274640135.82653,   0.00000,   0.00000,   0.00000,-290944805.55930,   0.00000
121540517.71939,20942708.39478,-84809036.40957,   0.00051,  -0.00014,  -0.00110,185048709.34924,   0.00000,274640135.82653,   0.00000,   0.00000,   0.00000,-289591426.47729,   0.00000
122393327.18726,20865180.26134,-85402295.16983,   0.00052,  -0.00014,  -0.00111,186393077.96585,   0.00000,274640135.82653,   0.00000,   0.00000,   0.00000,-288247057.86068,   0.00000
123246136.65513,20787652.12789,-85995553.93009,   0.00052,  -0.00015,  -0.00112,187737702.00399,   0.00000,274640135.82653,   0.00000,   0.00000,   0.00000,-286902433.82254,   0.00000
124098946.12300,20710123.99445,-86588812.69034,   0.00052,  -0.00015,  -0.00113,189082576.01452,   0.00000,274640135.82653,   0.00000,   0.00000,   0.00000,-285557559.81201,   0.00000
124928160.07200,20622483.49578,-87182071.45060,   0.00053,  -0.00015,  -0.00113,190415713.19752,   0.00000,274640135.82653,   0.00000,   0.00000,   0.00000,-284224422.62901,   0.00000
125747261.65576,20511247.47823,-87775330.21086,   0.00053,  -0.00015,  -0.00114,191748214.24040,   0.00000,274640135.82653,   0.00000,   0.00000,   0.00000,-282891921.58613,   0.00000
126576475.60476,20423606.97955,-88361847.39430,   0.00054,  -0.00015,  -0.00115,193072597.57088,   0.00000,274640135.82653,   0.00000,   0.00000,   0.00000,-281567538.25565,   0.00000
127395577.18853,20312370.96201,-88955106.15455,   0.00054,  -0.00016,  -0.00116,194405637.80772,   0.00000,274640135.82653,   0.00000,   0.00000,   0.00000,-280234498.01881,   0.00000
128191083.25342,20191022.57923,-89548364.91481,   0.00054,  -0.00016,  -0.00116,195726981.12116,   0.00000,274640135.82653,   0.00000,   0.00000,   0.00000,-278913154.70537,   0.00000
128986589.31831,20069674.19645,-90134882.09825,   0.00055,  -0.00016,  -0.00117,197039346.66860,   0.00000,274640135.82653,   0.00000,   0.00000,   0.00000,-277600789.15793,   0.00000
129782095.38320,19948325.81367,-90721399.28168,   0.00055,  -0.00016,  -0.00118,198351983.41388,   0.00000,274640135.82653,   0.00000,   0.00000,   0.00000,-276288152.41265,   0.00000
130543893.56399,19793269.54678,-91307916.46512,   0.00056,  -0.00016,  -0.00119,199652192.62709,   0.00000,274640135.82653,   0.00000,   0.00000,   0.00000,-274987943.19944,   0.00000
131339399.62888,19671921.16400,-91894433.64856,   0.00056,  -0.00017,  -0.00119,200965382.26445,   0.00000,274640135.82653,   0.00000,   0.00000,   0.00000,-273674753.56208,   0.00000
132101197.80966,19516864.89712,-92480950.83199,   0.00056,  -0.00017,  -0.00120,202266191.06546,   0.00000,274640135.82653,   0.00000,   0.00000,   0.00000,-272373944.76107,   0.00000
132839400.47157,19351696.26500,-93067468.01543,   0.00057,  -0.00017,  -0.00121,203555367.27004,   0.00000,274640135.82653,   0.00000,   0.00000,   0.00000,-271084768.55649,   0.00000
133577603.13348,19186527.63288,-93653985.19887,   0.00057,  -0.00017,  -0.00122,204844856.80321,   0.00000,274640135.82653,   0.00000,   0.00000,   0.00000,-269795279.02332,   0.00000
134315805.79540,19021359.00076,-94233760.80548,   0.00057,  -0.00018,  -0.00123,206125407.57953,   0.00000,274640135.82653,   0.00000,   0.00000,   0.00000,-268514728.24700,   0.00000
135054008.45731,18856190.36865,-94813536.41210,   0.00058,  -0.00018,  -0.00123,207406260.95417,   0.00000,274640135.82653,   0.00000,   0.00000,   0.00000,-267233874.87236,   0.00000
135758503.23511,18657313.85242,-95400053.59554,   0.00058,  -0.00018,  -0.00124,208684183.00371,   0.00000,274640135.82653,   0.00000,   0.00000,   0.00000,-265955952.82282,   0.00000
136462998.01292,18458437.33620,-95979829.20215,   0.00058,  -0.00018,  -0.00125,209953215.92931,   0.00000,274640135.82653,   0.00000,   0.00000,   0.00000,-264686919.89722,   0.00000
137167492.79073,18259560.81998,-96559604.80877,   0.00059,  -0.00018,  -0.00126,211222598.94522,   0.00000,274640135.82653,   0.00000,   0.00000,   0.00000,-263417536.88131,   0.00000
137848392.04966,18050571.93852,-97139380.41538,   0.00059,  -0.00019,  -0.00126,212480440.75428,   0.00000,274640135.82653,   0.00000,   0.00000,   0.00000,-262159695.07224,   0.00000
138529291.30859,17841583.05707,-97712414.44518,   0.00060,  -0.00019,  -0.00127,213729391.02950,   0.00000,274640135.82653,   0.00000,   0.00000,   0.00000,-260910744.79703,   0.00000
139210190.56752,17632594.17561,-98292190.05179,   0.00060,  -0.00019,  -0.00128,214987935.97631,   0.00000,274640135.82653,   0.00000,   0.00000,   0.00000,-259652199.85022,   0.00000
139857381.94235,17389897.41005,-98865224.08159,   0.00060,  -0.00019,  -0.00129,216225317.41170,   0.00000,274640135.82653,   0.00000,   0.00000,   0.00000,-258414818.41483,   0.00000
140504573.31718,17147200.64449,-99438258.11138,   0.00061,  -0.00020,  -0.00129,217463107.28839,   0.00000,274640135.82653,   0.00000,   0.00000,   0.00000,-257177028.53814,   0.00000
141151764.69200,16904503.87893,-100018033.71800,   0.00061,  -0.00020,  -0.00130,218710547.48171,   0.00000,274640135.82653,   0.00000,   0.00000,   0.00000,-255929588.34482,   0.00000
141775360.54796,16651694.74814,-100591067.74779,   0.00061,  -0.00020,  -0.00131,219937310.39039,   0.00000,274640135.82653,   0.00000,   0.00000,   0.00000,-254702825.43614,   0.00000
142398956.40391,16398885.61735,-101157360.20076,   0.00062,  -0.00020,  -0.00132,221155231.91794,   0.00000,274640135.82653,   0.00000,   0.00000,   0.00000,-253484903.90859,   0.00000
142998956.74099,16135964.12133,-101730394.23056,   0.00062,  -0.00021,  -0.00132,222371005.89486,   0.00000,274640135.82653,   0.00000,   0.00000,   0.00000,-252269129.93167,   0.00000
143588844.71283,15849447.10643,-102303428.26035,   0.00062,  -0.00021,  -0.00133,223586966.97630,   0.00000,274640135.82653,   0.00000,   0.00000,   0.00000,-251053168.85023,   0.00000
144178732.68468,15562930.09153,-102869720.71333,   0.00063,  -0.00021,  -0.00134,224794142.56837,   0.00000,274640135.82653,   0.00000,   0.00000,   0.00000,-249845993.25816,   0.00000
144745025.13765,15266300.71140,-103436013.16630,   0.00063,  -0.00021,  -0.00134,225990016.63458,   0.00000,274640135.82653,   0.00000,   0.00000,   0.00000,-248650119.19195,   0.00000
145311317.59063,14969671.33128,-104002305.61927,   0.00063,  -0.00022,  -0.00135,227186368.73065,   0.00000,274640135.82653,   0.00000,   0.00000,   0.00000,-247453767.09588,   0.00000
145854014.52473,14662929.58592,-104568598.07225,   0.00064,  -0.00022,  -0.00136,228371458.41941,   0.00000,274640135.82653,   0.00000,   0.00000,   0.00000,-246268677.40712,   0.00000
146396711.45883,14356187.84055,-105134890.52522,   0.00064,  -0.00022,  -0.00137,229557039.06345,   0.00000,274640135.82653,   0.00000,   0.00000,   0.00000,-245083096.76308,   0.00000
146929296.02769,14025850.57632,-105694441.40137,   0.00064,  -0.00022,  -0.00137,230733783.81515,   0.00000,274640135.82653,   0.00000,   0.00000,   0.00000,-243906352.01137,   0.00000
147438285.07769,13685400.94685,-106260733.85434,   0.00064,  -0.00023,  -0.00138,231908638.77250,   0.00000,274640135.82653,   0.00000,   0.00000,   0.00000,-242731497.05403,   0.00000
147923678.60881,13334838.95216,-106820284.73050,   0.00065,  -0.00023,  -0.00139,233063111.36964,   0.00000,274640135.82653,   0.00000,   0.00000,   0.00000,-241577024.45689,   0.00000
148432667.65880,12994389.32269,-107379835.60665,   0.00065,  -0.00023,  -0.00140,234229815.34200,   0.00000,274640135.82653,   0.00000,   0.00000,   0.00000,-240410320.48453,   0.00000
148894465.67105,12633714.96276,-107939386.48280,   0.00065,  -0.00023,  -0.00140,235373779.09457,   0.00000,274640135.82653,   0.00000,   0.00000,   0.00000,-239266356.73196,   0.00000
149369746.83694,12259557.44919,-108498937.35895,   0.00066,  -0.00024,  -0.00141,236530059.93008,   0.00000,274640135.82653,   0.00000,   0.00000,   0.00000,-238110075.89645,   0.00000
149831544.84918,11898883.08926,-109051746.65828,   0.00066,  -0.00024,  -0.00142,237665936.90112,   0.00000,274640135.82653,   0.00000,   0.00000,   0.00000,-236974198.92541,   0.00000
150259634.97732,11504500.84523,-109611297.53444,   0.00066,  -0.00024,  -0.00142,238800249.13547,   0.00000,274640135.82653,   0.00000,   0.00000,   0.00000,-235839886.69105,   0.00000
150687725.10546,11110118.60119,-110164106.83377,   0.00066,  -0.00024,  -0.00143,239925942.82106,   0.00000,274640135.82653,   0.00000,   0.00000,   0.00000,-234714193.00547,   0.00000
151082107.34950,10682028.47305,-110716916.13310,   0.00067,  -0.00025,  -0.00144,241040975.92538,   0.00000,274640135.82653,   0.00000,   0.00000,   0.00000,-233599159.90115,   0.00000
151486601.95877,10277533.86378,-111269725.43243,   0.00067,  -0.00025,  -0.00145,242156488.63332,   0.00000,274640135.82653,   0.00000,   0.00000,   0.00000,-232483647.19321,   0.00000
151891096.56803,9873039.25452,-111815793.15494,   0.00067,  -0.00025,  -0.00145,243263376.11432,   0.00000,274640135.82653,   0.00000,   0.00000,   0.00000,-231376759.71221,   0.00000
152261883.29319,9434836.76114,-112368602.45427,   0.00067,  -0.00025,  -0.00146,244369064.50584,   0.00000,274640135.82653,   0.00000,   0.00000,   0.00000,-230271071.32068,   0.00000
152609074.49948,8986521.90254,-112914670.17678,   0.00068,  -0.00026,  -0.00147,245454742.52573,   0.00000,274640135.82653,   0.00000,   0.00000,   0.00000,-229185393.30080,   0.00000
152979861.22464,8548319.40917,-113460737.89929,   0.00068,  -0.00026,  -0.00147,246552647.76933,   0.00000,274640135.82653,   0.00000,   0.00000,   0.00000,-228087488.05720,   0.00000
153303456.91205,8089892.18533,-114006805.62180,   0.00068,  -0.00026,  -0.00148,247628437.38747,   0.00000,274640135.82653,   0.00000,   0.00000,   0.00000,-227011698.43906,   0.00000
153616940.23424,7607869.44262,-114552873.34431,   0.00068,  -0.00026,  -0.00149,248705506.07741,   0.00000,274640135.82653,   0.00000,   0.00000,   0.00000,-225934629.74912,   0.00000
153940535.92165,7149442.21879,-115092199.49000,   0.00069,  -0.00027,  -0.00150,249773612.11209,   0.00000,274640135.82653,   0.00000,   0.00000,   0.00000,-224866523.71444,   0.00000
154230423.72496,6657307.11085,-115631525.63569,   0.00069,  -0.00027,  -0.00150,250831683.01928,   0.00000,274640135.82653,   0.00000,   0.00000,   0.00000,-223808452.80725,   0.00000
154496716.00939,6155059.63767,-116177593.35820,   0.00069,  -0.00027,  -0.00151,251888632.35858,   0.00000,274640135.82653,   0.00000,   0.00000,   0.00000,-222751503.46795,   0.00000
154763008.29382,5652812.16450,-116710177.92707,   0.00069,  -0.00028,  -0.00152,252927842.87406,   0.00000,274640135.82653,   0.00000,   0.00000,   0.00000,-221712292.95247,   0.00000
154995592.69415,5116856.80722,-117249504.07276,   0.00070,  -0.00028,  -0.00152,253966659.89959,   0.00000,274640135.82653,   0.00000,   0.00000,   0.00000,-220673475.92694,   0.00000
155238289.45971,4604496.96882,-117788830.21844,   0.00070,  -0.00028,  -0.00153,255005802.37740,   0.00000,274640135.82653,   0.00000,   0.00000,   0.00000,-219634333.44913,   0.00000
155470873.86004,4068541.61154,-118321414.78731,   0.00070,  -0.00028,  -0.00154,256037258.07347,   0.00000,274640135.82653,   0.00000,   0.00000,   0.00000,-218602877.75306,   0.00000
155656267.22262,3512361.52380,-118853999.35618,   0.00070,  -0.00029,  -0.00155,257047288.67292,   0.00000,274640135.82653,   0.00000,   0.00000,   0.00000,-217592847.15361,   0.00000
155865256.10408,2966293.80129,-119386583.92505,   0.00070,  -0.00029,  -0.00155,258069572.17030,   0.00000,274640135.82653,   0.00000,   0.00000,   0.00000,-216570563.65622,   0.00000
156027053.94778,2400001.34832,-119919168.49391,   0.00071,  -0.00029,  -0.00156,259070564.41646,   0.00000,274640135.82653,   0.00000,   0.00000,   0.00000,-215569571.41007,   0.00000
156188851.79149,1833708.89534,-120445011.48596,   0.00071,  -0.00030,  -0.00157,260063294.98977,   0.00000,274640135.82653,   0.00000,   0.00000,   0.00000,-214576840.83676,   0.00000
156340537.26996,1243820.92349,-120970854.47801,   0.00071,  -0.00030,  -0.00157,261058027.94077,   0.00000,274640135.82653,   0.00000,   0.00000,   0.00000,-213582107.88576,   0.00000
156478739.59480,667416.10529,-121496697.47005,   0.00071,  -0.00030,  -0.00158,262041881.09324,   0.00000,274640135.82653,   0.00000,   0.00000,   0.00000,-212598254.73329,   0.00000
156583234.03552,57303.40298,-122022540.46210,   0.00071,  -0.00031,  -0.00159,263016807.17213,   0.00000,274640135.82653,   0.00000,   0.00000,   0.00000,-211623328.65440,   0.00000
156687728.47625,-552809.29933,-122548383.45415,   0.00071,  -0.00031,  -0.00159,263992967.99013,   0.00000,274640135.82653,   0.00000,   0.00000,   0.00000,-210647167.83640,   0.00000
156782110.55175,-1186517.52052,-123067484.86937,   0.00072,  -0.00031,  -0.00160,264962035.45070,   0.00000,274640135.82653,   0.00000,   0.00000,   0.00000,-209678100.37583,   0.00000
156839413.95473,-1816854.95329,-123586586.28460,   0.00072,  -0.00031,  -0.00161,265909364.49501,   0.00000,274640135.82653,   0.00000,   0.00000,   0.00000,-208730771.33152,   0.00000
156886604.99247,-2470787.90494,-124105687.69982,   0.00072,  -0.00032,  -0.00161,266859158.17775,   0.00000,274640135.82653,   0.00000,   0.00000,   0.00000,-207780977.64878,   0.00000
156933796.03022,-3124720.85658,-124624789.11505,   0.00072,  -0.00032,  -0.00162,267810322.25879,   0.00000,274640135.82653,   0.00000,   0.00000,   0.00000,-206829813.56774,   0.00000
156957391.54910,-3788766.17346,-125143890.53028,   0.00072,  -0.00032,  -0.00163,268751990.46323,   0.00000,274640135.82653,   0.00000,   0.00000,   0.00000,-205888145.36329,   0.00000
156957391.54910,-4462923.85558,-125656250.36868,   0.00072,  -0.00033,  -0.00163,269674821.05017,   0.00000,274640135.82653,   0.00000,   0.00000,   0.00000,-204965314.77636,   0.00000
156957391.54910,-5137081.53769,-126168610.20708,   0.00072,  -0.00033,  -0.00164,270599094.40298,   0.00000,274640135.82653,   0.00000,   0.00000,   0.00000,-204041041.42355,   0.00000
156923683.66499,-5844947.10390,-126680970.04549,   0.00073,  -0.00033,  -0.00165,271515415.85517,   0.00000,274640135.82653,   0.00000,   0.00000,   0.00000,-203124719.97136,   0.00000
156876492.62724,-6539329.51648,-127186588.30707,   0.00073,  -0.00034,  -0.00165,272411726.22302,   0.00000,274640135.82653,   0.00000,   0.00000,   0.00000,-202228409.60351,   0.00000
156819189.22426,-7257307.44793,-127692206.56866,   0.00073,  -0.00034,  -0.00166,273311014.31410,   0.00000,274640135.82653,   0.00000,   0.00000,   0.00000,-201329121.51243,   0.00000
156738290.30241,-7985397.74461,-128197824.83024,   0.00073,  -0.00034,  -0.00167,274201244.86871,   0.00000,274640135.82653,   0.00000,   0.00000,   0.00000,-200438890.95782,   0.00000
156647279.01533,-8737083.56016,-128703443.09182,   0.00073,  -0.00035,  -0.00167,275094666.99546,   0.00000,274640135.82653,   0.00000,   0.00000,   0.00000,-199545468.83107,   0.00000
156542784.57460,-9475286.22207,-129209061.35341,   0.00073,  -0.00035,  -0.00168,275977638.13158,   0.00000,274640135.82653,   0.00000,   0.00000,   0.00000,-198662497.69495,   0.00000
156404582.24977,-10247196.76809,-129707938.03817,   0.00073,  -0.00035,  -0.00169,276843917.19959,   0.00000,274640135.82653,   0.00000,   0.00000,   0.00000,-197796218.62694,   0.00000
156276492.29016,-10995511.79523,-130206814.72293,   0.00073,  -0.00035,  -0.00169,277710329.54740,   0.00000,274640135.82653,   0.00000,   0.00000,   0.00000,-196929806.27913,   0.00000
156114694.44646,-11777534.70648,-130705691.40769,   0.00073,  -0.00036,  -0.00170,278569717.80327,   0.00000,274640135.82653,   0.00000,   0.00000,   0.00000,-196070418.02325,   0.00000
155952896.60275,-12559557.61773,-131204568.09245,   0.00073,  -0.00036,  -0.00171,279430964.46503,   0.00000,274640135.82653,   0.00000,   0.00000,   0.00000,-195209171.36150,   0.00000
155733795.35606,-13385400.77832,-131696703.20040,   0.00073,  -0.00036,  -0.00171,280265602.84332,   0.00000,274640135.82653,   0.00000,   0.00000,   0.00000,-194374532.98321,   0.00000
155524806.47461,-14187648.42003,-132188838.30834,   0.00074,  -0.00037,  -0.00172,281100432.21495,   0.00000,274640135.82653,   0.00000,   0.00000,   0.00000,-193539703.61158,   0.00000
155305705.22792,-15013491.58061,-132680973.41628,   0.00074,  -0.00037,  -0.00172,281939124.67715,   0.00000,274640135.82653,   0.00000,   0.00000,   0.00000,-192701011.14938,   0.00000
155063008.46236,-15849447.10643,-133173108.52422,   0.00074,  -0.00037,  -0.00173,282769579.37476,   0.00000,274640135.82653,   0.00000,   0.00000,   0.00000,-191870556.45177,   0.00000
154796716.17793,-16695514.99748,-133658502.05534,   0.00074,  -0.00038,  -0.00174,283582368.93721,   0.00000,274640135.82653,   0.00000,   0.00000,   0.00000,-191057766.88932,   0.00000
154506828.37462,-17551695.25376,-134143895.58646,   0.00074,  -0.00038,  -0.00174,284387118.12643,   0.00000,274640135.82653,   0.00000,   0.00000,   0.00000,-190253017.70010,   0.00000
154216940.57131,-18407875.51004,-134629289.11758,   0.00074,  -0.00038,  -0.00175,285194069.62358,   0.00000,274640135.82653,   0.00000,   0.00000,   0.00000,-189446066.20295,   0.00000
153893344.88390,-19297763.65043,-135107941.07188,   0.00074,  -0.00039,  -0.00176,285985716.25249,   0.00000,274640135.82653,   0.00000,   0.00000,   0.00000,-188654419.57404,   0.00000
153569749.19649,-20187651.79082,-135586593.02618,   0.00074,  -0.00039,  -0.00176,286779696.63283,   0.00000,274640135.82653,   0.00000,   0.00000,   0.00000,-187860439.19370,   0.00000
153222557.99020,-21087652.29643,-136065244.98047,   0.00074,  -0.00039,  -0.00177,287565989.04963,   0.00000,274640135.82653,   0.00000,   0.00000,   0.00000,-187074146.77690,   0.00000
152851771.26504,-21997765.16728,-136543896.93477,   0.00074,  -0.00040,  -0.00178,288344707.58332,   0.00000,274640135.82653,   0.00000,   0.00000,   0.00000,-186295428.24321,   0.00000
152457389.02101,-22917990.40337,-137022548.88907,   0.00074,  -0.00040,  -0.00178,289115968.84626,   0.00000,274640135.82653,   0.00000,   0.00000,   0.00000,-185524166.98027,   0.00000
152052894.41174,-23861811.15832,-137494459.26655,   0.00074,  -0.00041,  -0.00179,289882571.34618,   0.00000,274640135.82653,   0.00000,   0.00000,   0.00000,-184757564.48035,   0.00000
151634916.64883,-24792148.75963,-137966369.64403,   0.00074,  -0.00041,  -0.00179,290639487.09043,   0.00000,274640135.82653,   0.00000,   0.00000,   0.00000,-184000648.73610,   0.00000
151183231.00182,-25756194.24505,-138431538.44468,   0.00074,  -0.00041,  -0.00180,291382099.74345,   0.00000,274640135.82653,   0.00000,   0.00000,   0.00000,-183258036.08308,   0.00000
150731545.35480,-26720239.73047,-138903448.82216,   0.00074,  -0.00042,  -0.00181,292137052.23268,   0.00000,274640135.82653,   0.00000,   0.00000,   0.00000,-182503083.59385,   0.00000
150256264.18891,-27694397.58112,-139368617.62282,   0.00074,  -0.00042,  -0.00181,292875427.51002,   0.00000,274640135.82653,   0.00000,   0.00000,   0.00000,-181764708.31651,   0.00000
149747275.13892,-28702263.31588,-139827044.84665,   0.00074,  -0.00042,  -0.00182,293599999.08805,   0.00000,274640135.82653,   0.00000,   0.00000,   0.00000,-181040136.73848,   0.00000
149248398.45416,-29686533.53176,-140292213.64731,   0.00074,  -0.00043,  -0.00182,294334432.11714,   0.00000,274640135.82653,   0.00000,   0.00000,   0.00000,-180305703.70938,   0.00000
148715813.88529,-30704511.63175,-140750640.87115,   0.00074,  -0.00043,  -0.00183,295055309.20200,   0.00000,274640135.82653,   0.00000,   0.00000,   0.00000,-179584826.62453,   0.00000
148159633.79755,-31732602.09697,-141209068.09498,   0.00074,  -0.00043,  -0.00184,295769722.19238,   0.00000,274640135.82653,   0.00000,   0.00000,   0.00000,-178870413.63415,   0.00000
147579858.19093,-32770804.92742,-141667495.31882,   0.00074,  -0.00044,  -0.00184,296477804.62112,   0.00000,274640135.82653,   0.00000,   0.00000,   0.00000,-178162331.20541,   0.00000
147000082.58432,-33809007.75787,-142119180.96583,   0.00073,  -0.00044,  -0.00185,297179381.87745,   0.00000,274640135.82653,   0.00000,   0.00000,   0.00000,-177460753.94908,   0.00000
146396711.45883,-34857322.95355,-142570866.61285,   0.00073,  -0.00044,  -0.00185,297874778.32190,   0.00000,274640135.82653,   0.00000,   0.00000,   0.00000,-176765357.50463,   0.00000
145759632.44923,-35939346.03334,-143022552.25986,   0.00073,  -0.00045,  -0.00186,298567185.53468,   0.00000,274640135.82653,   0.00000,   0.00000,   0.00000,-176072950.29185,   0.00000
145122553.43964,-37021369.11313,-143467496.33005,   0.00073,  -0.00045,  -0.00187,299253304.76876,   0.00000,274640135.82653,   0.00000,   0.00000,   0.00000,-175386831.05777,   0.00000
144461878.91117,-38113504.55815,-143912440.40025,   0.00073,  -0.00046,  -0.00187,299933648.78665,   0.00000,274640135.82653,   0.00000,   0.00000,   0.00000,-174706487.03988,   0.00000
143777608.86383,-39215752.36840,-144357384.47044,   0.00073,  -0.00046,  -0.00188,300608360.66747,   0.00000,274640135.82653,   0.00000,   0.00000,   0.00000,-174031775.15906,   0.00000
143069743.29761,-40328112.54388,-144802328.54063,   0.00073,  -0.00046,  -0.00188,301277586.07353,   0.00000,274640135.82653,   0.00000,   0.00000,   0.00000,-173362549.75300,   0.00000
142361877.73139,-41440472.71937,-145240531.03401,   0.00073,  -0.00047,  -0.00189,301940716.17776,   0.00000,274640135.82653,   0.00000,   0.00000,   0.00000,-172699419.64877,   0.00000
141620304.28107,-42586540.77896,-145678733.52738,   0.00073,  -0.00047,  -0.00189,302601921.85443,   0.00000,274640135.82653,   0.00000,   0.00000,   0.00000,-172038213.97210,   0.00000
140855135.31187,-43742721.20378,-146110194.44393,   0.00073,  -0.00047,  -0.00190,303248328.07030,   0.00000,274640135.82653,   0.00000,   0.00000,   0.00000,-171391807.75623,   0.00000
140089966.34268,-44898901.62860,-146548396.93730,   0.00072,  -0.00048,  -0.00191,303908363.80396,   0.00000,274640135.82653,   0.00000,   0.00000,   0.00000,-170731772.02257,   0.00000
139277606.33573,-46075306.78388,-146979857.85385,   0.00072,  -0.00048,  -0.00191,304545037.40186,   0.00000,274640135.82653,   0.00000,   0.00000,   0.00000,-170095098.42467,   0.00000
138465246.32879,-47251711.93916,-147404577.19358,   0.00072,  -0.00049,  -0.00192,305176009.52245,   0.00000,274640135.82653,   0.00000,   0.00000,   0.00000,-169464126.30408,   0.00000
137652886.32185,-48428117.09445,-147836038.11013,   0.00072,  -0.00049,  -0.00192,305820784.49238,   0.00000,274640135.82653,   0.00000,   0.00000,   0.00000,-168819351.33415,   0.00000
136783222.91192,-49648342.49907,-148260757.44986,   0.00072,  -0.00049,  -0.00193,306446447.00364,   0.00000,274640135.82653,   0.00000,   0.00000,   0.00000,-168193688.82289,   0.00000
135913559.50200,-50868567.90369,-148685476.78959,   0.00072,  -0.00050,  -0.00193,307076453.04074,   0.00000,274640135.82653,   0.00000,   0.00000,   0.00000,-167563682.78579,   0.00000
135020300.57320,-52098905.67354,-149103454.55250,   0.00072,  -0.00050,  -0.00194,307692554.21818,   0.00000,274640135.82653,   0.00000,   0.00000,   0.00000,-166947581.60835,   0.00000
134103446.12553,-53339355.80863,-149521432.31541,   0.00071,  -0.00050,  -0.00194,308304701.12185,   0.00000,274640135.82653,   0.00000,   0.00000,   0.00000,-166335434.70468,   0.00000
133186591.67786,-54579805.94371,-149939410.07832,   0.00071,  -0.00051,  -0.00195,308921352.17819,   0.00000,274640135.82653,   0.00000,   0.00000,   0.00000,-165718783.64833,   0.00000
132212433.82721,-55864076.32813,-150350646.26441,   0.00071,  -0.00051,  -0.00195,309520271.83003,   0.00000,274640135.82653,   0.00000,   0.00000,   0.00000,-165119863.99650,   0.00000
131248388.34179,-57124751.19368,-150761882.45050,   0.00071,  -0.00052,  -0.00196,310119886.12455,   0.00000,274640135.82653,   0.00000,   0.00000,   0.00000,-164520249.70198,   0.00000
130274230.49114,-58409021.57810,-151173118.63658,   0.00071,  -0.00052,  -0.00197,310728361.54193,   0.00000,274640135.82653,   0.00000,   0.00000,   0.00000,-163911774.28460,   0.00000
129252881.60274,-59713516.69299,-151584354.82267,   0.00070,  -0.00052,  -0.00197,311325561.85234,   0.00000,274640135.82653,   0.00000,   0.00000,   0.00000,-163314573.97419,   0.00000
128231532.71434,-61018011.80787,-151988849.43194,   0.00070,  -0.00053,  -0.00198,311917918.65729,   0.00000,274640135.82653,   0.00000,   0.00000,   0.00000,-162722217.16924,   0.00000
127176475.94184,-62356214.80686,-152393344.04120,   0.00070,  -0.00053,  -0.00198,312511745.59433,   0.00000,274640135.82653,   0.00000,   0.00000,   0.00000,-162128390.23220,   0.00000
126107936.01569,-63680934.65221,-152791097.07365,   0.00070,  -0.00054,  -0.00199,313088649.15830,   0.00000,274640135.82653,   0.00000,   0.00000,   0.00000,-161551486.66823,   0.00000
125005688.20544,-65039362.38166,-153188850.10610,   0.00070,  -0.00054,  -0.00199,313667502.92017,   0.00000,274640135.82653,   0.00000,   0.00000,   0.00000,-160972632.90636,   0.00000
123903440.39519,-66397790.11112,-153586603.13854,   0.00069,  -0.00054,  -0.00200,314251774.36845,   0.00000,274640135.82653,   0.00000,   0.00000,   0.00000,-160388361.45808,   0.00000
122787709.43130,-67742734.68693,-153977614.59417,   0.00069,  -0.00055,  -0.00200,314819301.03060,   0.00000,274640135.82653,   0.00000,   0.00000,   0.00000,-159820834.79593,   0.00000
121628158.21807,-69144982.66572,-154375367.62661,   0.00069,  -0.00055,  -0.00201,315403989.79811,   0.00000,274640135.82653,   0.00000,   0.00000,   0.00000,-159236146.02842,   0.00000
120455123.85119,-70533747.49087,-154759637.50541,   0.00069,  -0.00056,  -0.00201,315962393.15658,   0.00000,274640135.82653,   0.00000,   0.00000,   0.00000,-158677742.66995,   0.00000
119282089.48432,-71922512.31602,-155150648.96104,   0.00068,  -0.00056,  -0.00202,316536417.83957,   0.00000,274640135.82653,   0.00000,   0.00000,   0.00000,-158103717.98696,   0.00000
118075347.23334,-73344985.02527,-155534918.83984,   0.00068,  -0.00056,  -0.00202,317103834.67070,   0.00000,274640135.82653,   0.00000,   0.00000,   0.00000,-157536301.15583,   0.00000
116845009.46349,-74777570.09976,-155919188.71865,   0.00068,  -0.00057,  -0.00203,317669966.07258,   0.00000,274640135.82653,   0.00000,   0.00000,   0.00000,-156970169.75395,   0.00000
115591076.17476,-76220267.53948,-156296717.02063,   0.00067,  -0.00057,  -0.00203,318225077.70527,   0.00000,274640135.82653,   0.00000,   0.00000,   0.00000,-156415058.12126,   0.00000
114313547.36716,-77673077.34443,-156674245.32261,   0.00067,  -0.00058,  -0.00204,318779291.20978,   0.00000,274640135.82653,   0.00000,   0.00000,   0.00000,-155860844.61675,   0.00000
113036018.55956,-79125887.14937,-157051773.62459,   0.00067,  -0.00058,  -0.00204,319339790.11896,   0.00000,274640135.82653,   0.00000,   0.00000,   0.00000,-155300345.70757,   0.00000
111734894.23309,-80588809.31956,-157422560.34975,   0.00067,  -0.00058,  -0.00205,319889687.83587,   0.00000,274640135.82653,   0.00000,   0.00000,   0.00000,-154750447.99066,   0.00000
110400062.02251,-82085439.37384,-157793347.07491,   0.00066,  -0.00059,  -0.00205,320444459.76347,   0.00000,274640135.82653,   0.00000,   0.00000,   0.00000,-154195676.06306,   0.00000
109075342.17716,-83558473.90925,-158164133.80008,   0.00066,  -0.00059,  -0.00206,321000463.59584,   0.00000,274640135.82653,   0.00000,   0.00000,   0.00000,-153639672.23069,   0.00000
107693318.92883,-85075328.69400,-158528178.94842,   0.00066,  -0.00060,  -0.00206,321545109.68513,   0.00000,274640135.82653,   0.00000,   0.00000,   0.00000,-153095026.14140,   0.00000
106311295.68050,-86592183.47875,-158892224.09676,   0.00065,  -0.00060,  -0.00207,322096634.07983,   0.00000,274640135.82653,   0.00000,   0.00000,   0.00000,-152543501.74670,   0.00000
104905676.91330,-88119150.62874,-159249527.66827,   0.00065,  -0.00061,  -0.00207,322638530.07601,   0.00000,274640135.82653,   0.00000,   0.00000,   0.00000,-152001605.75052,   0.00000
103466350.26199,-89679825.66282,-159613572.81661,   0.00065,  -0.00061,  -0.00207,323196656.70110,   0.00000,274640135.82653,   0.00000,   0.00000,   0.00000,-151443479.12543,   0.00000
102037135.97592,-91216905.17804,-159964134.81131,   0.00064,  -0.00061,  -0.00208,323736290.74167,   0.00000,274640135.82653,   0.00000,   0.00000,   0.00000,-150903845.08486,   0.00000
100574213.80574,-92787692.57736,-160321438.38283,   0.00064,  -0.00062,  -0.00208,324292566.09381,   0.00000,274640135.82653,   0.00000,   0.00000,   0.00000,-150347569.73272,   0.00000
99097808.48191,-94344996.82303,-160672000.37753,   0.00063,  -0.00062,  -0.00209,324834129.38575,   0.00000,274640135.82653,   0.00000,   0.00000,   0.00000,-149806006.44077,   0.00000
97587695.27399,-95936008.95281,-161022562.37223,   0.00063,  -0.00063,  -0.00209,325382923.44394,   0.00000,274640135.82653,   0.00000,   0.00000,   0.00000,-149257212.38259,   0.00000
96053986.54718,-97537133.44783,-161366382.79010,   0.00063,  -0.00063,  -0.00210,325923334.11580,   0.00000,274640135.82653,   0.00000,   0.00000,   0.00000,-148716801.71073,   0.00000
94510165.45515,-99161853.46172,-161710203.20798,   0.00062,  -0.00064,  -0.00210,326477590.65291,   0.00000,274640135.82653,   0.00000,   0.00000,   0.00000,-148162545.17362,   0.00000
92952861.20947,-100773090.32196,-162054023.62586,   0.00062,  -0.00064,  -0.00211,327027700.56740,   0.00000,274640135.82653,   0.00000,   0.00000,   0.00000,-147612435.25913,   0.00000
91371961.44492,-102394439.54744,-162391102.46691,   0.00062,  -0.00064,  -0.00211,327569912.92285,   0.00000,274640135.82653,   0.00000,   0.00000,   0.00000,-147070222.90368,   0.00000
89757353.79627,-104049496.65702,-162728181.30797,   0.00061,  -0.00065,  -0.00212,328120817.34363,   0.00000,274640135.82653,   0.00000,   0.00000,   0.00000,-146519318.48290,   0.00000
88119150.62874,-105714666.13183,-163058518.57220,   0.00061,  -0.00065,  -0.00212,328664423.64259,   0.00000,274640135.82653,   0.00000,   0.00000,   0.00000,-145975712.18394,   0.00000
86480947.46121,-107379835.60665,-163395597.41326,   0.00060,  -0.00066,  -0.00212,329226452.54034,   0.00000,274640135.82653,   0.00000,   0.00000,   0.00000,-145413683.28619,   0.00000
84819148.77480,-109055117.44670,-163719193.10067,   0.00060,  -0.00066,  -0.00213,329771423.01928,   0.00000,274640135.82653,   0.00000,   0.00000,   0.00000,-144868712.80725,   0.00000
83133754.56952,-110740511.65197,-164049530.36490,   0.00059,  -0.00067,  -0.00213,330329686.56356,   0.00000,274640135.82653,   0.00000,   0.00000,   0.00000,-144310449.26296,   0.00000
81424764.84537,-112436018.22248,-164373126.05232,   0.00059,  -0.00067,  -0.00214,330881399.55640,   0.00000,274640135.82653,   0.00000,   0.00000,   0.00000,-143758736.27013,   0.00000
79705662.75599,-114155120.31187,-164689980.16291,   0.00059,  -0.00067,  -0.00214,331438625.37190,   0.00000,274640135.82653,   0.00000,   0.00000,   0.00000,-143201510.45463,   0.00000
77973077.51296,-115860739.24761,-165013575.85032,   0.00058,  -0.00068,  -0.00215,332002968.00276,   0.00000,274640135.82653,   0.00000,   0.00000,   0.00000,-142637167.82377,   0.00000
76206784.38583,-117600066.06745,-165330429.96092,   0.00058,  -0.00068,  -0.00215,332568227.01101,   0.00000,274640135.82653,   0.00000,   0.00000,   0.00000,-142071908.81552,   0.00000
74416895.73983,-119349505.25253,-165640542.49469,   0.00057,  -0.00069,  -0.00215,333127852.96093,   0.00000,274640135.82653,   0.00000,   0.00000,   0.00000,-141512282.86560,   0.00000
72627007.09382,-121098944.43761,-165950655.02846,   0.00057,  -0.00069,  -0.00216,333696793.68127,   0.00000,274640135.82653,   0.00000,   0.00000,   0.00000,-140943342.14526,   0.00000
70789927.41007,-122868608.35315,-166260767.56223,   0.00056,  -0.00070,  -0.00216,334265907.77225,   0.00000,274640135.82653,   0.00000,   0.00000,   0.00000,-140374228.05428,   0.00000
68942735.36109,-124661867.78757,-166564138.51918,   0.00056,  -0.00070,  -0.00217,334841826.72086,   0.00000,274640135.82653,   0.00000,   0.00000,   0.00000,-139798309.10567,   0.00000
67082060.15846,-126441644.06834,-166867509.47613,   0.00055,  -0.00071,  -0.00217,335415794.61921,   0.00000,274640135.82653,   0.00000,   0.00000,   0.00000,-139224341.20732,   0.00000
65211272.59060,-128245015.86799,-167170880.43308,   0.00055,  -0.00071,  -0.00217,336006881.84966,   0.00000,274640135.82653,   0.00000,   0.00000,   0.00000,-138633253.97687,   0.00000
63303406.35023,-130045016.87922,-167467509.81321,   0.00054,  -0.00072,  -0.00218,336581967.35282,   0.00000,274640135.82653,   0.00000,   0.00000,   0.00000,-138058168.47370,   0.00000
61385427.74462,-131868613.40933,-167764139.19334,   0.00054,  -0.00072,  -0.00218,337174631.87487,   0.00000,274640135.82653,   0.00000,   0.00000,   0.00000,-137465503.95166,   0.00000
59443853.62014,-133702322.30468,-168054026.99664,   0.00053,  -0.00072,  -0.00218,337763426.03662,   0.00000,274640135.82653,   0.00000,   0.00000,   0.00000,-136876709.78991,   0.00000
57478683.97679,-135546143.56525,-168343914.79995,   0.00053,  -0.00073,  -0.00219,338358672.19253,   0.00000,274640135.82653,   0.00000,   0.00000,   0.00000,-136281463.63400,   0.00000
55513514.33343,-137389964.82582,-168633802.60326,   0.00052,  -0.00073,  -0.00219,338964350.08924,   0.00000,274640135.82653,   0.00000,   0.00000,   0.00000,-135675785.73729,   0.00000
53514636.80598,-139267493.97050,-168916948.82975,   0.00052,  -0.00074,  -0.00220,339574597.68637,   0.00000,274640135.82653,   0.00000,   0.00000,   0.00000,-135065538.14016,   0.00000
51502276.12487,-141131539.96154,-169200095.05623,   0.00051,  -0.00074,  -0.00220,340184079.66879,   0.00000,274640135.82653,   0.00000,   0.00000,   0.00000,-134456056.15774,   0.00000
49456207.55967,-143029293.83668,-169476499.70590,   0.00050,  -0.00075,  -0.00220,340798816.99090,   0.00000,274640135.82653,   0.00000,   0.00000,   0.00000,-133841318.83563,   0.00000
47396655.84082,-144913564.55818,-169752904.35556,   0.00050,  -0.00075,  -0.00221,341413163.38907,   0.00000,274640135.82653,   0.00000,   0.00000,   0.00000,-133226972.43746,   0.00000
45326991.75674,-146821430.79856,-170029309.00523,   0.00049,  -0.00076,  -0.00221,342046693.11273,   0.00000,274640135.82653,   0.00000,   0.00000,   0.00000,-132593442.71380,   0.00000
43233732.15378,-148739409.40416,-170298972.07807,   0.00049,  -0.00076,  -0.00221,342678197.38828,   0.00000,274640135.82653,   0.00000,   0.00000,   0.00000,-131961938.43825,   0.00000
41116877.03195,-150667500.37500,-170568635.15092,   0.00048,  -0.00077,  -0.00222,343317998.68851,   0.00000,274640135.82653,   0.00000,   0.00000,   0.00000,-131322137.13802,   0.00000
38976426.39125,-152605703.71107,-170831556.64694,   0.00047,  -0.00077,  -0.00222,343956319.66314,   0.00000,274640135.82653,   0.00000,   0.00000,   0.00000,-130683816.16339,   0.00000
36835975.75055,-154543907.04714,-171094478.14297,   0.00047,  -0.00078,  -0.00222,344606217.70408,   0.00000,274640135.82653,   0.00000,   0.00000,   0.00000,-130033918.12245,   0.00000
34661817.22574,-156515818.26731,-171357399.63899,   0.00046,  -0.00078,  -0.00223,345273573.93827,   0.00000,274640135.82653,   0.00000,   0.00000,   0.00000,-129366561.88826,   0.00000
32474175.54729,-158474246.33385,-171613579.55819,   0.00046,  -0.00078,  -0.00223,345931555.93275,   0.00000,274640135.82653,   0.00000,   0.00000,   0.00000,-128708579.89378,   0.00000
30252825.98473,-160466382.28448,-171869759.47739,   0.00045,  -0.00079,  -0.00223,346607699.75815,   0.00000,274640135.82653,   0.00000,   0.00000,   0.00000,-128032436.06838,   0.00000
28031476.42218,-162458518.23512,-172119197.81977,   0.00044,  -0.00079,  -0.00224,347285963.89059,   0.00000,274640135.82653,   0.00000,   0.00000,   0.00000,-127354171.93594,   0.00000
25786531.34075,-164460766.55099,-172368636.16216,   0.00044,  -0.00080,  -0.00224,347974139.61575,   0.00000,274640135.82653,   0.00000,   0.00000,   0.00000,-126665996.21078,   0.00000
23517990.74044,-166473127.23209,-172618074.50454,   0.00043,  -0.00080,  -0.00224,348672497.31035,   0.00000,274640135.82653,   0.00000,   0.00000,   0.00000,-125967638.51618,   0.00000
21225854.62127,-168495600.27843,-172860771.27010,   0.00043,  -0.00081,  -0.00225,349371301.14779,   0.00000,274640135.82653,   0.00000,   0.00000,   0.00000,-125268834.67874,   0.00000
18933718.50209,-170518073.32476,-173103468.03566,   0.00042,  -0.00081,  -0.00225,350082664.75858,   0.00000,274640135.82653,   0.00000,   0.00000,   0.00000,-124557471.06795,   0.00000
16617986.86404,-172550658.73633,-173339423.22440,   0.00041,  -0.00082,  -0.00225,350794810.15162,   0.00000,274640135.82653,   0.00000,   0.00000,   0.00000,-123845325.67491,   0.00000
14268547.34188,-174616952.03200,-173575378.41313,   0.00041,  -0.00082,  -0.00226,351527292.82481,   0.00000,274640135.82653,   0.00000,   0.00000,   0.00000,-123112843.00171,   0.00000
11905624.66608,-176669762.17402,-173811333.60187,   0.00040,  -0.00083,  -0.00226,352261907.83136,   0.00000,274640135.82653,   0.00000,   0.00000,   0.00000,-122378227.99517,   0.00000
9532589.62505,-178746167.83493,-174040547.21379,   0.00039,  -0.00083,  -0.00226,353008941.62766,   0.00000,274640135.82653,   0.00000,   0.00000,   0.00000,-121631194.19887,   0.00000
7146071.43038,-180809090.34219,-174263019.24889,   0.00039,  -0.00084,  -0.00227,353748311.36744,   0.00000,274640135.82653,   0.00000,   0.00000,   0.00000,-120891824.45909,   0.00000
4725845.35160,-182905720.73355,-174492232.86081,   0.00038,  -0.00084,  -0.00227,354519165.10635,   0.00000,274640135.82653,   0.00000,   0.00000,   0.00000,-120120970.72018,   0.00000
2282023.75395,-185012463.49015,-174714704.89590,   0.00037,  -0.00085,  -0.00227,355292423.83726,   0.00000,274640135.82653,   0.00000,   0.00000,   0.00000,-119347711.98927,   0.00000
-161797.84371,-187119206.24675,-174930435.35418,   0.00036,  -0.00085,  -0.00227,356069262.47638,   0.00000,274640135.82653,   0.00000,   0.00000,   0.00000,-118570873.35015,   0.00000
-2629214.96023,-189236061.36857,-175146165.81245,   0.00036,  -0.00086,  -0.00228,356858789.44821,   0.00000,274640135.82653,   0.00000,   0.00000,   0.00000,-117781346.37832,   0.00000
-5120227.59563,-191363028.85563,-175361896.27073,   0.00035,  -0.00086,  -0.00228,357661274.49488,   0.00000,274640135.82653,   0.00000,   0.00000,   0.00000,-116978861.33165,   0.00000
-7621352.59627,-193513591.86157,-175570885.15218,   0.00034,  -0.00087,  -0.00228,358477568.43934,   0.00000,274640135.82653,   0.00000,   0.00000,   0.00000,-116162567.38719,   0.00000
-10159556.26941,-195660784.07909,-175779874.03364,   0.00034,  -0.00087,  -0.00229,359296847.48173,   0.00000,274640135.82653,   0.00000,   0.00000,   0.00000,-115343288.34480,   0.00000
-12707872.30779,-197831571.81549,-175982121.33827,   0.00033,  -0.00088,  -0.00229,360130425.76912,   0.00000,274640135.82653,   0.00000,   0.00000,   0.00000,-114509710.05741,   0.00000
-15246075.98094,-199978764.03301,-176184368.64290,   0.00032,  -0.00088,  -0.00229,360967938.64312,   0.00000,274640135.82653,   0.00000,   0.00000,   0.00000,-113672197.18341,   0.00000
-17841583.05707,-202169776.49987,-176386615.94754,   0.00031,  -0.00089,  -0.00229,361829554.64308,   0.00000,274640135.82653,   0.00000,   0.00000,   0.00000,-112810581.18345,   0.00000
-20437090.13320,-204360788.96674,-176582121.67535,   0.00031,  -0.00089,  -0.00230,362695745.69123,   0.00000,274640135.82653,   0.00000,   0.00000,   0.00000,-111944390.13530,   0.00000
-23046080.36297,-206538318.27995,-176777627.40316,   0.00030,  -0.00089,  -0.00230,363566071.99761,   0.00000,274640135.82653,   0.00000,   0.00000,   0.00000,-111074063.82892,   0.00000
-25665182.95797,-208739443.11205,-176966391.55415,   0.00029,  -0.00090,  -0.00230,364451412.32827,   0.00000,274640135.82653,   0.00000,   0.00000,   0.00000,-110188723.49826,   0.00000
-28307881.07184,-210950680.30937,-177155155.70514,   0.00028,  -0.00090,  -0.00230,365351620.30882,   0.00000,274640135.82653,   0.00000,   0.00000,   0.00000,-109288515.51771,   0.00000
-30984287.06982,-213195625.39080,-177343919.85613,   0.00027,  -0.00091,  -0.00231,366277605.10531,   0.00000,274640135.82653,   0.00000,   0.00000,   0.00000,-108362530.72122,   0.00000
-33674176.22145,-215427087.31859,-177525942.43030,   0.00027,  -0.00091,  -0.00231,367198626.22405,   0.00000,274640135.82653,   0.00000,   0.00000,   0.00000,-107441509.60248,   0.00000
-36364065.37307,-217658549.24638,-177707965.00447,   0.00026,  -0.00092,  -0.00231,368134489.11340,   0.00000,274640135.82653,   0.00000,   0.00000,   0.00000,-106505646.71313,   0.00000
-39077550.04357,-219900123.53940,-177883246.00182,   0.00025,  -0.00092,  -0.00231,369076291.28987,   0.00000,274640135.82653,   0.00000,   0.00000,   0.00000,-105563844.53666,   0.00000
-41824742.59817,-222175405.71652,-178058526.99917,   0.00024,  -0.00093,  -0.00231,370045008.01161,   0.00000,274640135.82653,   0.00000,   0.00000,   0.00000,-104595127.81492,   0.00000
-44561822.78754,-224427092.37477,-178227066.41970,   0.00023,  -0.00093,  -0.00232,371008163.16697,   0.00000,274640135.82653,   0.00000,   0.00000,   0.00000,-103631972.65956,   0.00000
-47332610.86102,-226712486.91713,-178395605.84023,   0.00023,  -0.00094,  -0.00232,371998669.89519,   0.00000,274640135.82653,   0.00000,   0.00000,   0.00000,-102641465.93134,   0.00000
-50126994.45337,-229007993.82472,-178564145.26076,   0.00022,  -0.00094,  -0.00232,373005839.48570,   0.00000,274640135.82653,   0.00000,   0.00000,   0.00000,-101634296.34083,   0.00000
-52934861.19936,-231290017.57866,-178725943.10446,   0.00021,  -0.00095,  -0.00232,374009030.63983,   0.00000,274640135.82653,   0.00000,   0.00000,   0.00000,-100631105.18670,   0.00000
-55752840.31058,-233595636.85148,-178887740.94817,   0.00020,  -0.00095,  -0.00233,375038867.45874,   0.00000,274640135.82653,   0.00000,   0.00000,   0.00000,-99601268.36779,   0.00000
-58594414.94068,-235911368.48953,-179042797.21505,   0.00019,  -0.00096,  -0.00233,376076269.30467,   0.00000,274640135.82653,   0.00000,   0.00000,   0.00000,-98563866.52186,   0.00000
-61435989.57078,-238227100.12758,-179197853.48194,   0.00019,  -0.00096,  -0.00233,377129190.71378,   0.00000,274640135.82653,   0.00000,   0.00000,   0.00000,-97510945.11275,   0.00000
-64301159.71975,-240552944.13087,-179352909.74883,   0.00018,  -0.00097,  -0.00233,378199581.56485,   0.00000,274640135.82653,   0.00000,   0.00000,   0.00000,-96440554.26168,   0.00000
-67189925.38760,-242888900.49938,-179501224.43889,   0.00017,  -0.00097,  -0.00233,379278111.26210,   0.00000,274640135.82653,   0.00000,   0.00000,   0.00000,-95362024.56443,   0.00000
-70102286.57432,-245234969.23313,-179649539.12895,   0.00016,  -0.00098,  -0.00234,380374630.27157,   0.00000,274640135.82653,   0.00000,   0.00000,   0.00000,-94265505.55496,   0.00000
-73024760.12627,-247604633.48575,-179791112.24220,   0.00015,  -0.00098,  -0.00234,381489099.80827,   0.00000,274640135.82653,   0.00000,   0.00000,   0.00000,-93151036.01826,   0.00000
-75960716.83186,-249960814.58473,-179932685.35544,   0.00014,  -0.00099,  -0.00234,382610180.79946,   0.00000,274640135.82653,   0.00000,   0.00000,   0.00000,-92029955.02706,   0.00000
-78896673.53746,-252316995.68371,-180067516.89186,   0.00013,  -0.00099,  -0.00234,383737555.74419,   0.00000,274640135.82653,   0.00000,   0.00000,   0.00000,-90902580.08234,   0.00000
-81866338.12716,-254706884.66679,-180202348.42829,   0.00012,  -0.00100,  -0.00234,384895354.10131,   0.00000,274640135.82653,   0.00000,   0.00000,   0.00000,-89744781.72522,   0.00000
-84849485.87050,-257083290.49623,-180337179.96471,   0.00012,  -0.00100,  -0.00234,386060052.21109,   0.00000,274640135.82653,   0.00000,   0.00000,   0.00000,-88580083.61544,   0.00000
-87866341.49794,-259493404.20978,-180465269.92431,   0.00011,  -0.00101,  -0.00235,387246337.19690,   0.00000,274640135.82653,   0.00000,   0.00000,   0.00000,-87393798.62963,   0.00000
-90873084.76016,-261879922.40445,-180593359.88391,   0.00010,  -0.00101,  -0.00235,388436687.00217,   0.00000,274640135.82653,   0.00000,   0.00000,   0.00000,-86203448.82436,   0.00000
-93889940.38761,-264290036.11800,-180714708.26669,   0.00009,  -0.00102,  -0.00235,389645718.20158,   0.00000,274640135.82653,   0.00000,   0.00000,   0.00000,-84994417.62495,   0.00000
-96953987.05280,-266720374.56201,-180836056.64947,   0.00008,  -0.00102,  -0.00235,390877561.67823,   0.00000,274640135.82653,   0.00000,   0.00000,   0.00000,-83762574.14830,   0.00000
-100007921.35276,-269127117.48714,-180957405.03225,   0.00007,  -0.00103,  -0.00235,392113368.05662,   0.00000,274640135.82653,   0.00000,   0.00000,   0.00000,-82526767.76991,   0.00000
-103071968.01796,-271557455.93116,-181072011.83821,   0.00006,  -0.00103,  -0.00235,393368200.87995,   0.00000,274640135.82653,   0.00000,   0.00000,   0.00000,-81271934.94658,   0.00000
-106183205.72090,-274008019.10563,-181186618.64417,   0.00005,  -0.00104,  -0.00236,394646664.97591,   0.00000,274640135.82653,   0.00000,   0.00000,   0.00000,-79993470.85062,   0.00000
-109270847.90497,-276448469.91487,-181294483.87331,   0.00004,  -0.00104,  -0.00236,395928258.22260,   0.00000,274640135.82653,   0.00000,   0.00000,   0.00000,-78711877.60393,   0.00000
-112405681.12679,-278909145.45458,-181402349.10244,   0.00003,  -0.00105,  -0.00236,397233952.32548,   0.00000,274640135.82653,   0.00000,   0.00000,   0.00000,-77406183.50105,   0.00000
-115540514.34860,-281369820.99428,-181510214.33158,   0.00002,  -0.00105,  -0.00236,398555951.53319,   0.00000,274640135.82653,   0.00000,   0.00000,   0.00000,-76084184.29334,   0.00000
-118698943.08929,-283840608.89922,-181611337.98390,   0.00001,  -0.00106,  -0.00236,399889215.06030,   0.00000,274640135.82653,   0.00000,   0.00000,   0.00000,-74750920.76623,   0.00000
-121857371.82998,-286311396.80416,-181705720.05939,   0.00000,  -0.00107,  -0.00236,401229593.59529,   0.00000,274640135.82653,   0.00000,   0.00000,   0.00000,-73410542.23124,   0.00000
-125039396.08955,-288792297.07432,-181806843.71171,  -0.00001,  -0.00107,  -0.00236,402599816.52214,   0.00000,274640135.82653,   0.00000,   0.00000,   0.00000,-72040319.30439,   0.00000
-128231532.71434,-291296792.86337,-181894484.21038,  -0.00002,  -0.00108,  -0.00236,403980845.39938,   0.00000,274640135.82653,   0.00000,   0.00000,   0.00000,-70659290.42715,   0.00000
-131460748.01166,-293797917.86400,-181988866.28588,  -0.00003,  -0.00108,  -0.00237,405383883.64413,   0.00000,274640135.82653,   0.00000,   0.00000,   0.00000,-69256252.18240,   0.00000
-134666367.79009,-296288930.49940,-182076506.78455,  -0.00003,  -0.00109,  -0.00237,406789343.31185,   0.00000,274640135.82653,   0.00000,   0.00000,   0.00000,-67850792.51468,   0.00000
-137929290.97151,-298823763.38414,-182164147.28323,  -0.00004,  -0.00109,  -0.00237,408233892.18465,   0.00000,274640135.82653,   0.00000,   0.00000,   0.00000,-66406243.64188,   0.00000
-141158506.26882,-301324888.38477,-182245046.20508,  -0.00005,  -0.00110,  -0.00237,409667684.47731,   0.00000,274640135.82653,   0.00000,   0.00000,   0.00000,-64972451.34922,   0.00000
-144434912.60388,-303846238.11586,-182325945.12694,  -0.00006,  -0.00110,  -0.00237,411127992.65929,   0.00000,274640135.82653,   0.00000,   0.00000,   0.00000,-63512143.16723,   0.00000
-147721431.30418,-306391183.36583,-182400102.47197,  -0.00007,  -0.00111,  -0.00237,412608805.66275,   0.00000,274640135.82653,   0.00000,   0.00000,   0.00000,-62031330.16378,   0.00000
-151021433.15811,-308922645.46216,-182474259.81700,  -0.00008,  -0.00111,  -0.00237,414098176.74926,   0.00000,274640135.82653,   0.00000,   0.00000,   0.00000,-60541959.07726,   0.00000
-154331547.37727,-311477703.07736,-182548417.16203,  -0.00009,  -0.00112,  -0.00237,415617040.03307,   0.00000,274640135.82653,   0.00000,   0.00000,   0.00000,-59023095.79345,   0.00000
-157655144.75008,-314019277.53892,-182615832.93024,  -0.00010,  -0.00112,  -0.00237,417135618.22019,   0.00000,274640135.82653,   0.00000,   0.00000,   0.00000,-57504517.60634,   0.00000
-160988854.48812,-316584447.51935,-182683248.69845,  -0.00012,  -0.00113,  -0.00237,418683728.11790,   0.00000,274640135.82653,   0.00000,   0.00000,   0.00000,-55956407.70863,   0.00000
-164346159.74503,-319159729.86502,-182743922.88984,  -0.00013,  -0.00113,  -0.00238,420245096.93913,   0.00000,274640135.82653,   0.00000,   0.00000,   0.00000,-54395038.88740,   0.00000
-167693352.63672,-321711416.69181,-182804597.08123,  -0.00014,  -0.00114,  -0.00238,421809189.37824,   0.00000,274640135.82653,   0.00000,   0.00000,   0.00000,-52830946.44828,   0.00000
-171074253.41250,-324296811.40270,-182865271.27262,  -0.00015,  -0.00114,  -0.00238,423408915.21632,   0.00000,274640135.82653,   0.00000,   0.00000,   0.00000,-51231220.61021,   0.00000
-174478749.70716,-326892318.47883,-182919203.88719,  -0.00016,  -0.00115,  -0.00238,425022310.49082,   0.00000,274640135.82653,   0.00000,   0.00000,   0.00000,-49617825.33571,   0.00000
-177873133.63659,-329464230.03608,-182973136.50176,  -0.00017,  -0.00115,  -0.00238,426638256.10131,   0.00000,274640135.82653,   0.00000,   0.00000,   0.00000,-48001879.72522,   0.00000
-181277629.93125,-332059737.11221,-183027069.11633,  -0.00018,  -0.00116,  -0.00238,428283749.48528,   0.00000,274640135.82653,   0.00000,   0.00000,   0.00000,-46356386.34125,   0.00000
-184705721.74479,-334665356.55357,-183074260.15408,  -0.00019,  -0.00116,  -0.00238,429943080.52355,   0.00000,274640135.82653,   0.00000,   0.00000,   0.00000,-44697055.30298,   0.00000
-188157409.07720,-337281088.36016,-183114709.61501,  -0.00020,  -0.00117,  -0.00238,431616494.20711,   0.00000,274640135.82653,   0.00000,   0.00000,   0.00000,-43023641.61942,   0.00000
-191598984.04437,-339873224.64788,-183161900.65275,  -0.00021,  -0.00117,  -0.00238,433300658.34839,   0.00000,274640135.82653,   0.00000,   0.00000,   0.00000,-41339477.47813,   0.00000
-195074266.89566,-342499068.81970,-183202350.11368,  -0.00022,  -0.00118,  -0.00238,435012793.19845,   0.00000,274640135.82653,   0.00000,   0.00000,   0.00000,-39627342.62808,   0.00000
-198549549.74694,-345124912.99152,-183236057.99779,  -0.00023,  -0.00118,  -0.00238,436732288.75697,   0.00000,274640135.82653,   0.00000,   0.00000,   0.00000,-37907847.06956,   0.00000
-202048428.11709,-347760869.52858,-183269765.88189,  -0.00024,  -0.00119,  -0.00238,438474712.94271,   0.00000,274640135.82653,   0.00000,   0.00000,   0.00000,-36165422.88382,   0.00000
-205547306.48725,-350396826.06563,-183303473.76600,  -0.00025,  -0.00119,  -0.00238,440232890.19064,   0.00000,274640135.82653,   0.00000,   0.00000,   0.00000,-34407245.63589,   0.00000
-209069780.37628,-353042894.96792,-183330440.07328,  -0.00026,  -0.00120,  -0.00238,442005666.26680,   0.00000,274640135.82653,   0.00000,   0.00000,   0.00000,-32634469.55973,   0.00000
-212592254.26531,-355688963.87020,-183357406.38057,  -0.00027,  -0.00120,  -0.00238,443794099.07076,   0.00000,274640135.82653,   0.00000,   0.00000,   0.00000,-30846036.75577,   0.00000
-216128211.30798,-358321549.61885,-183384372.68785,  -0.00028,  -0.00121,  -0.00238,445591545.57797,   0.00000,274640135.82653,   0.00000,   0.00000,   0.00000,-29048590.24856,   0.00000
-219674280.71589,-360977730.88637,-183404597.41831,  -0.00030,  -0.00121,  -0.00238,447410245.16602,   0.00000,274640135.82653,   0.00000,   0.00000,   0.00000,-27229890.66051,   0.00000
-223243945.64267,-363644024.51911,-183424822.14878,  -0.00031,  -0.00122,  -0.00238,449252162.07879,   0.00000,274640135.82653,   0.00000,   0.00000,   0.00000,-25387973.74774,   0.00000
-226813610.56944,-366310318.15186,-183445046.87924,  -0.00032,  -0.00122,  -0.00238,451109468.91944,   0.00000,274640135.82653,   0.00000,   0.00000,   0.00000,-23530666.90709,   0.00000
-230406871.01510,-368986724.14985,-183458530.03288,  -0.00033,  -0.00123,  -0.00238,452981841.77492,   0.00000,274640135.82653,   0.00000,   0.00000,   0.00000,-21658294.05161,   0.00000
-234000131.46075,-371663130.14783,-183465271.60970,  -0.00034,  -0.00123,  -0.00239,454861341.70942,   0.00000,274640135.82653,   0.00000,   0.00000,   0.00000,-19778794.11711,   0.00000
-237616987.42527,-374349648.51104,-183478754.76335,  -0.00035,  -0.00124,  -0.00239,456772390.45177,   0.00000,274640135.82653,   0.00000,   0.00000,   0.00000,-17867745.37476,   0.00000
-241233843.38980,-377036166.87425,-183485496.34017,  -0.00036,  -0.00125,  -0.00239,458690458.58553,   0.00000,274640135.82653,   0.00000,   0.00000,   0.00000,-15949677.24100,   0.00000
-244850699.35433,-379722685.23746,-183485496.34017,  -0.00037,  -0.00125,  -0.00239,460615457.53345,   0.00000,274640135.82653,   0.00000,   0.00000,   0.00000,-14024678.29308,   0.00000
-248491150.83773,-382419315.96591,-183492237.91699,  -0.00038,  -0.00126,  -0.00239,462571911.67309,   0.00000,274640135.82653,   0.00000,   0.00000,   0.00000,-12068224.15344,   0.00000
-252155197.84000,-385126059.05958,-183485496.34017,  -0.00040,  -0.00126,  -0.00239,464535864.76243,   0.00000,274640135.82653,   0.00000,   0.00000,   0.00000,-10104271.06410,   0.00000
-255819244.84227,-387832802.15326,-183485496.34017,  -0.00041,  -0.00127,  -0.00239,466522728.26455,   0.00000,274640135.82653,   0.00000,   0.00000,   0.00000,-8117407.56198,   0.00000
-259483291.84455,-390539545.24694,-183478754.76335,  -0.00042,  -0.00127,  -0.00239,468516369.72527,   0.00000,274640135.82653,   0.00000,   0.00000,   0.00000,-6123766.10126,   0.00000
-263170934.36569,-393256400.70584,-183472013.18652,  -0.00043,  -0.00128,  -0.00239,470533550.17483,   0.00000,274640135.82653,   0.00000,   0.00000,   0.00000,-4106585.65170,   0.00000
-266858576.88684,-395973256.16475,-183458530.03288,  -0.00044,  -0.00128,  -0.00238,472557463.97225,   0.00000,274640135.82653,   0.00000,   0.00000,   0.00000,-2082671.85427,   0.00000
-270569814.92686,-398700223.98889,-183445046.87924,  -0.00045,  -0.00129,  -0.00238,474604997.04065,   0.00000,274640135.82653,   0.00000,   0.00000,   0.00000,-35138.78588,   0.00000
-270633281.87683,-398746858.65059,-183444816.29995,  -0.00045,  -0.00129,  -0.00238,474640138.87409,   0.00000,274640135.82653,   0.00000,   0.00000,   0.00000,  -4.79182,   0.00000
-273276216.47126,-399836220.11884,-182585956.48182,  -0.00047,  -0.00129,  -0.00238,474653619.47283,   0.00001,274653628.31691,  -0.00000,  -0.00001,  -0.00001,  -8.84408,   1.00000
-275949285.37159,-400933396.47725,-181705613.63839,  -0.00048,  -0.00130,  -0.00238,474667359.68622,   0.00002,274667366.34036,  -0.00000,  -0.00001,  -0.00002,  -6.65414,   1.00000
-278621207.69699,-402015899.21520,-180818381.36878,  -0.00049,  -0.00130,  -0.00238,474681226.05606,   0.00004,274681228.88471,  -0.00000,  -0.00002,  -0.00003,  -2.82865,   1.00000
-281291577.12837,-403083517.22480,-179924306.46554,  -0.00050,  -0.00131,  -0.00238,474695210.75990,   0.00005,274695215.81384,  -0.00001,  -0.00002,  -0.00004,  -5.05393,   1.00000
-283924504.37231,-404125438.77633,-179033800.46716,  -0.00051,  -0.00131,  -0.00238,474709052.65178,   0.00006,274709052.77820,  -0.00001,  -0.00003,  -0.00006,  -0.12641,   1.00000
-286558023.62195,-405164276.17901,-178130578.05574,  -0.00052,  -0.00132,  -0.00238,474723104.43576,   0.00008,274723109.35512,  -0.00001,  -0.00003,  -0.00007,  -4.91936,   1.00000
-289189277.89850,-406187961.68184,-177220756.02510,  -0.00054,  -0.00132,  -0.00238,474737279.38218,   0.00009,274737288.18870,  -0.00001,  -0.00004,  -0.00008,  -8.80652,   1.00000
-291803714.99035,-407200185.24213,-176304742.94234,  -0.00055,  -0.00133,  -0.00238,474751471.08448,   0.00010,274751475.06506,  -0.00001,  -0.00004,  -0.00009,  -3.98058,   1.00000
-294397266.28855,-408194974.45633,-175386314.41020,  -0.00056,  -0.00133,  -0.00238,474765711.50841,   0.00011,274765718.10243,  -0.00002,  -0.00005,  -0.00010,  -6.59402,   1.00000
-296987858.72372,-409174371.13603,-174461543.70509,  -0.00057,  -0.00134,  -0.00238,474780080.23867,   0.00013,274780081.13538,  -0.00002,  -0.00006,  -0.00011,  -0.89671,   1.00000
-299561331.72732,-410142318.57561,-173530814.82964,  -0.00058,  -0.00134,  -0.00238,474794444.87998,   0.00014,274794449.96091,  -0.00002,  -0.00006,  -0.00013,  -5.08092,   1.00000
-302111857.29607,-411081540.35674,-172603951.44627,  -0.00059,  -0.00135,  -0.00238,474808773.76923,   0.00015,274808774.97405,  -0.00002,  -0.00007,  -0.00014,  -1.20481,   1.00000
-304660481.57106,-412016598.13312,-171665041.37721,  -0.00061,  -0.00135,  -0.00238,474823304.25002,   0.00017,274823314.15860,  -0.00002,  -0.00007,  -0.00015,  -9.90858,   1.00000
-307191729.21111,-412940274.09491,-170720428.59186,  -0.00062,  -0.00136,  -0.00238,474837852.13579,   0.00018,274837856.58485,  -0.00003,  -0.00008,  -0.00016,  -4.44906,   1.00000
-309718802.10695,-413848111.01131,-169769900.40987,  -0.00063,  -0.00136,  -0.00238,474852515.44567,   0.00019,274852515.56205,  -0.00003,  -0.00008,  -0.00017,  -0.11638,   1.00000
-312222736.87324,-414727477.24321,-168823594.44265,  -0.00064,  -0.00137,  -0.00238,474867126.59579,   0.00021,274867126.89878,  -0.00003,  -0.00009,  -0.00018,  -0.30299,   1.00000
-314710374.33707,-415606754.98227,-167865930.76368,  -0.00066,  -0.00137,  -0.00238,474881826.56136,   0.00022,274881835.03534,  -0.00003,  -0.00010,  -0.00020,  -8.47399,   1.00000
-317193205.14242,-416470034.00223,-166902646.40983,  -0.00067,  -0.00138,  -0.00238,474896655.93181,   0.00023,274896657.12249,  -0.00004,  -0.00010,  -0.00021,  -1.19069,   1.00000
-319636002.07055,-417304124.50843,-165948097.78574,  -0.00068,  -0.00138,  -0.00238,474911357.64696,   0.00025,274911359.32004,  -0.00004,  -0.00011,  -0.00022,  -1.67308,   1.00000
-322095829.64330,-418140070.77763,-164974050.06097,  -0.00069,  -0.00139,  -0.00238,474926289.90177,   0.00026,274926293.57531,  -0.00004,  -0.00012,  -0.00023,  -3.67355,   1.00000
-324515791.12053,-418947151.00584,-164008941.49308,  -0.00070,  -0.00139,  -0.00237,474941097.97446,   0.00027,274941105.50180,  -0.00004,  -0.00012,  -0.00024,  -7.52733,   1.00000
-326931067.52748,-419749109.79162,-163032822.42585,  -0.00072,  -0.00140,  -0.00237,474956121.22811,   0.00029,274956122.66031,  -0.00005,  -0.00013,  -0.00025,  -1.43220,   1.00000
-329327659.01117,-420529139.23540,-162057502.33723,  -0.00073,  -0.00140,  -0.00237,474971040.33489,   0.00030,274971041.34259,  -0.00005,  -0.00013,  -0.00027,  -1.00770,   1.00000
-331718867.86215,-421303770.26025,-161071394.76676,  -0.00074,  -0.00141,  -0.00237,474986154.60957,   0.00032,274986163.63454,  -0.00005,  -0.00014,  -0.00028,  -9.02497,   1.00000
-334087082.23931,-422050889.30549,-160090372.12268,  -0.00075,  -0.00142,  -0.00237,475001224.47978,   0.00033,275001228.80972,  -0.00006,  -0.00015,  -0.00029,  -4.32994,   1.00000
-336433202.30284,-422792126.24383,-159103137.65980,  -0.00077,  -0.00142,  -0.00237,475016418.58409,   0.00034,275016423.96288,  -0.00006,  -0.00015,  -0.00030,  -5.37879,   1.00000
-338760903.37618,-423511891.13453,-158116978.86987,  -0.00078,  -0.00143,  -0.00237,475031512.40535,   0.00036,275031517.85073,  -0.00006,  -0.00016,  -0.00031,  -5.44539,   1.00000
-341082060.20111,-424215486.51831,-157126192.44103,  -0.00079,  -0.00143,  -0.00237,475046713.21373,   0.00037,275046717.01774,  -0.00007,  -0.00017,  -0.00033,  -3.80401,   1.00000
-343384988.41374,-424918877.77831,-156125331.21439,  -0.00080,  -0.00144,  -0.00237,475061991.93159,   0.00039,275062001.27447,  -0.00007,  -0.00017,  -0.00034,  -9.34287,   1.00000
-345660931.24847,-425589858.07970,-155134334.47527,  -0.00082,  -0.00144,  -0.00237,475077262.36622,   0.00040,275077263.60666,  -0.00007,  -0.00018,  -0.00035,  -1.24044,   1.00000
-347934185.32850,-426250237.77691,-154134708.74804,  -0.00083,  -0.00145,  -0.00237,475092578.99974,   0.00041,275092588.29674,  -0.00008,  -0.00018,  -0.00036,  -9.29700,   1.00000
-350184696.30388,-426894546.14537,-153135246.98587,  -0.00084,  -0.00145,  -0.00236,475107934.75449,   0.00043,275107941.84878,  -0.00008,  -0.00019,  -0.00037,  -7.09429,   1.00000
-352416881.07352,-427528445.27745,-152131680.67873,  -0.00085,  -0.00146,  -0.00236,475123282.03368,   0.00044,275123283.69287,  -0.00008,  -0.00020,  -0.00039,  -1.65920,   1.00000
-354641500.25526,-428146082.95953,-151124131.36759,  -0.00087,  -0.00146,  -0.00236,475138718.81013,   0.00046,275138725.55167,  -0.00009,  -0.00020,  -0.00040,  -6.74153,   1.00000
-356827769.43762,-428758702.68693,-150116012.73158,  -0.00088,  -0.00147,  -0.00236,475154209.17861,   0.00047,275154211.11858,  -0.00009,  -0.00021,  -0.00041,  -1.93997,   1.00000
-359006877.65602,-429344870.97923,-149109630.76899,  -0.00089,  -0.00147,  -0.00236,475169696.88398,   0.00048,275169702.15602,  -0.00009,  -0.00022,  -0.00042,  -5.27204,   1.00000
-361168341.86566,-429910765.07363,-148104899.42742,  -0.00090,  -0.00148,  -0.00236,475185082.49267,   0.00050,275185086.76059,  -0.00010,  -0.00022,  -0.00043,  -4.26792,   1.00000
-363321071.66348,-430470782.68353,-147091214.50663,  -0.00092,  -0.00148,  -0.00236,475200658.59549,   0.00051,275200659.16183,  -0.00010,  -0.00023,  -0.00044,  -0.56635,   1.00000
-365436444.32838,-431016312.60492,-146082884.72286,  -0.00093,  -0.00149,  -0.00236,475216177.62435,   0.00053,275216177.78613,  -0.00011,  -0.00024,  -0.00046,  -0.16178,   1.00000
-367543693.62586,-431545861.18118,-145071260.92693,  -0.00094,  -0.00149,  -0.00235,475231785.00606,   0.00054,275231790.28951,  -0.00011,  -0.00024,  -0.00047,  -5.28344,   1.00000
-369632654.55107,-432065706.99457,-144056231.94038,  -0.00095,  -0.00150,  -0.00235,475247382.04106,   0.00056,275247384.83912,  -0.00011,  -0.00025,  -0.00048,  -2.79806,   1.00000
-371713118.83905,-432569518.00120,-143038125.21682,  -0.00097,  -0.00150,  -0.00235,475263065.85568,   0.00057,275263071.80356,  -0.00012,  -0.00026,  -0.00049,  -5.94787,   1.00000
-373757994.36593,-433049685.28217,-142031059.62493,  -0.00098,  -0.00151,  -0.00235,475278604.75526,   0.00058,275278609.75817,  -0.00012,  -0.00027,  -0.00050,  -5.00291,   1.00000
-375793135.11777,-433524104.59695,-141015891.06383,  -0.00099,  -0.00151,  -0.00235,475294321.28966,   0.00060,275294328.08816,  -0.00013,  -0.00027,  -0.00052,  -6.79850,   1.00000
-377811450.66060,-433979260.09887,-140002821.65169,  -0.00100,  -0.00152,  -0.00235,475309927.14540,   0.00061,275309936.26881,  -0.00013,  -0.00028,  -0.00053,  -9.12341,   1.00000
-379805876.00037,-434430051.90048,-138986306.80767,  -0.00102,  -0.00152,  -0.00235,475325643.59166,   0.00063,275325646.97456,  -0.00014,  -0.00029,  -0.00054,  -3.38290,   1.00000
-381792970.57291,-434855207.87585,-137972389.74784,  -0.00103,  -0.00153,  -0.00235,475341354.82809,   0.00064,275341356.55642,  -0.00014,  -0.00029,  -0.00055,  -1.72833,   1.00000
-383742561.76869,-435277803.97968,-136959673.87391,  -0.00104,  -0.00153,  -0.00234,475357084.27760,   0.00066,275357090.02784,  -0.00015,  -0.00030,  -0.00056,  -5.75024,   1.00000
-385689350.76601,-435680089.47506,-135944891.65747,  -0.00106,  -0.00154,  -0.00234,475372785.83368,   0.00067,275372787.76854,  -0.00015,  -0.00031,  -0.00057,  -1.93486,   1.00000
-387613859.51269,-436068617.79471,-134932226.83154,  -0.00107,  -0.00154,  -0.00234,475388494.88507,   0.00068,275388494.94959,  -0.00016,  -0.00031,  -0.00059,  -0.06451,   1.00000
-389516216.18507,-436443581.36036,-133921782.59574,  -0.00108,  -0.00155,  -0.00234,475404208.59822,   0.00070,275404210.47506,  -0.00016,  -0.00032,  -0.00060,  -1.87684,   1.00000
-391407549.45440,-436812994.14269,-132904363.84161,  -0.00110,  -0.00155,  -0.00234,475420096.12447,   0.00071,275420097.28506,  -0.00017,  -0.00033,  -0.00061,  -1.16059,   1.00000
-393270190.27963,-437166195.73448,-131893762.06441,  -0.00111,  -0.00156,  -0.00234,475435785.03277,   0.00073,275435794.57930,  -0.00017,  -0.00033,  -0.00062,  -9.54653,   1.00000
-395123727.67556,-437504232.31871,-130881350.73289,  -0.00112,  -0.00156,  -0.00233,475451568.75375,   0.00074,275451574.09501,  -0.00018,  -0.00034,  -0.00063,  -5.34126,   1.00000
-396955334.07373,-437829256.92444,-129871562.73058,  -0.00113,  -0.00157,  -0.00233,475467354.22861,   0.00076,275467358.31160,  -0.00018,  -0.00035,  -0.00064,  -4.08300,   1.00000
-398765157.59802,-438141469.79255,-128864495.02737,  -0.00115,  -0.00157,  -0.00233,475483144.23339,   0.00077,275483146.21518,  -0.00019,  -0.00036,  -0.00066,  -1.98179,   1.00000
-400555657.03165,-438431406.93844,-127865032.05101,  -0.00116,  -0.00158,  -0.00233,475498845.38741,   0.00079,275498850.89715,  -0.00019,  -0.00036,  -0.00067,  -5.50974,   1.00000
-402326624.10148,-438723401.48005,-126858593.19778,  -0.00117,  -0.00158,  -0.00233,475514603.81327,   0.00080,275514613.70791,  -0.00020,  -0.00037,  -0.00068,  -9.89465,   1.00000
-404088308.16615,-439000615.94746,-125850868.99690,  -0.00119,  -0.00159,  -0.00233,475530450.23274,   0.00082,275530454.88421,  -0.00020,  -0.00038,  -0.00069,  -4.65147,   1.00000
-405816483.58917,-439268113.98902,-124850508.77719,  -0.00120,  -0.00159,  -0.00232,475546213.92042,   0.00083,275546219.19271,  -0.00021,  -0.00038,  -0.00070,  -5.27229,   1.00000
-407538049.58963,-439511487.11953,-123853717.01831,  -0.00121,  -0.00160,  -0.00232,475561967.14852,   0.00084,275561975.52776,  -0.00021,  -0.00039,  -0.00071,  -8.37924,   1.00000
-409240056.23601,-439757291.49779,-122850352.49173,  -0.00122,  -0.00160,  -0.00232,475577782.98907,   0.00086,275577787.03374,  -0.00022,  -0.00040,  -0.00072,  -4.04467,   1.00000
-410919477.70307,-439977198.29076,-121860110.58596,  -0.00124,  -0.00161,  -0.00232,475593535.81048,   0.00087,275593540.71091,  -0.00023,  -0.00041,  -0.00074,  -4.90043,   1.00000
-412579497.59409,-440199824.93793,-120863477.92812,  -0.00125,  -0.00161,  -0.00232,475609341.77865,   0.00089,275609348.04138,  -0.00023,  -0.00041,  -0.00075,  -6.26272,   1.00000
-414221621.97051,-440401559.47843,-119874883.58644,  -0.00126,  -0.00162,  -0.00232,475625063.00447,   0.00090,275625068.34419,  -0.00024,  -0.00042,  -0.00076,  -5.33972,   1.00000
-415854519.20629,-440589272.78710,-118885626.76643,  -0.00128,  -0.00162,  -0.00231,475640857.15167,   0.00092,275640862.67008,  -0.00024,  -0.00043,  -0.00077,  -5.51840,   1.00000
-417459746.48956,-440773443.66822,-117898901.06910,  -0.00129,  -0.00163,  -0.00231,475656547.46792,   0.00093,275656548.11768,  -0.00025,  -0.00043,  -0.00078,  -0.64976,   1.00000
-419051631.90026,-440939332.68493,-116916986.94885,  -0.00130,  -0.00163,  -0.00231,475672328.27637,   0.00095,275672333.07118,  -0.00026,  -0.00044,  -0.00079,  -4.79481,   1.00000
-420616378.59127,-441102120.63973,-115937673.81108,  -0.00132,  -0.00164,  -0.00231,475688001.55760,   0.00096,275688008.33640,  -0.00026,  -0.00045,  -0.00080,  -6.77879,   1.00000
-422172073.08826,-441251310.84732,-114958055.24733,  -0.00133,  -0.00164,  -0.00231,475703753.78542,   0.00098,275703755.18086,  -0.00027,  -0.00046,  -0.00081,  -1.39544,   1.00000
-423707753.76286,-441390173.86025,-113982351.10844,  -0.00134,  -0.00165,  -0.00231,475719493.16004,   0.00099,275719495.32627,  -0.00028,  -0.00046,  -0.00082,  -2.16622,   1.00000
-425223601.98289,-441518904.30466,-113010629.35854,  -0.00136,  -0.00165,  -0.00230,475735223.36880,   0.00100,275735228.13537,  -0.00028,  -0.00047,  -0.00083,  -4.76656,   1.00000
-426709237.69343,-441641060.83610,-112047033.91241,  -0.00137,  -0.00166,  -0.00230,475750873.01187,   0.00102,275750875.12151,  -0.00029,  -0.00048,  -0.00085,  -2.10963,   1.00000
-428193555.89537,-441744874.80351,-111082244.68559,  -0.00138,  -0.00166,  -0.00230,475766478.68254,   0.00103,275766485.88678,  -0.00030,  -0.00049,  -0.00086,  -7.20424,   1.00000
-429661384.75812,-441840901.75379,-110118795.49962,  -0.00140,  -0.00167,  -0.00230,475782262.90123,   0.00105,275782271.18571,  -0.00030,  -0.00049,  -0.00087,  -8.28447,   1.00000
-431107172.18913,-441925695.78617,-109162309.12495,  -0.00141,  -0.00167,  -0.00230,475797863.25854,   0.00106,275797864.66696,  -0.00031,  -0.00050,  -0.00088,  -1.40842,   1.00000
-432530385.68113,-442010696.28588,-108205939.97860,  -0.00142,  -0.00168,  -0.00229,475813523.94487,   0.00108,275813528.82786,  -0.00032,  -0.00051,  -0.00089,  -4.88299,   1.00000
-433938416.93750,-442077152.15527,-107257996.89108,  -0.00143,  -0.00168,  -0.00229,475829099.85908,   0.00109,275829102.94808,  -0.00032,  -0.00051,  -0.00090,  -3.08900,   1.00000
-435331788.98716,-442138779.61327,-106308863.76809,  -0.00145,  -0.00168,  -0.00229,475844643.32177,   0.00111,275844643.54424,  -0.00033,  -0.00052,  -0.00091,  -0.22248,   1.00000
-436712548.22868,-442183883.56801,-105365731.94224,  -0.00146,  -0.00169,  -0.00229,475860272.02552,   0.00112,275860274.48829,  -0.00034,  -0.00053,  -0.00092,  -2.46277,   1.00000
-438069008.00156,-442228168.29088,-104425432.36206,  -0.00147,  -0.00169,  -0.00229,475875788.81454,   0.00113,275875793.77684,  -0.00034,  -0.00054,  -0.00093,  -4.96231,   1.00000
-439403426.48309,-442260105.22275,-103495220.49180,  -0.00149,  -0.00170,  -0.00228,475891319.77691,   0.00115,275891324.10928,  -0.00035,  -0.00054,  -0.00094,  -4.33237,   1.00000
-440733386.77984,-442283888.99895,-102560049.42587,  -0.00150,  -0.00170,  -0.00228,475906893.82327,   0.00116,275906898.28918,  -0.00036,  -0.00055,  -0.00095,  -4.46591,   1.00000
-442035900.91029,-442303472.07157,-101633369.24016,  -0.00151,  -0.00171,  -0.00228,475922378.73056,   0.00118,275922382.55503,  -0.00037,  -0.00056,  -0.00096,  -3.82447,   1.00000
-443330171.90867,-442311160.03992,-100707477.89834,  -0.00153,  -0.00171,  -0.00228,475937925.90709,   0.00119,275937932.24385,  -0.00037,  -0.00057,  -0.00097,  -6.33676,   1.00000
-444601597.40202,-442305653.56393,-99793917.99947,  -0.00154,  -0.00172,  -0.00228,475953306.19887,   0.00121,275953314.07395,  -0.00038,  -0.00057,  -0.00098,  -7.87508,   1.00000
-445860899.24863,-442298009.09390,-98877444.93981,  -0.00155,  -0.00172,  -0.00227,475968832.60379,   0.00122,275968838.20632,  -0.00039,  -0.00058,  -0.00099,  -5.60252,   1.00000
-447101776.79641,-442281312.82094,-97967569.45904,  -0.00157,  -0.00173,  -0.00227,475984171.66558,   0.00124,275984173.70671,  -0.00039,  -0.00059,  -0.00100,  -2.04113,   1.00000
-448326782.68488,-442258936.47843,-97060697.31521,  -0.00158,  -0.00173,  -0.00227,475999665.70634,   0.00125,275999671.07595,  -0.00040,  -0.00059,  -0.00101,  -5.36962,   1.00000
-449530241.54293,-442224199.41941,-96166079.55657,  -0.00159,  -0.00174,  -0.00227,476014993.46605,   0.00126,276015000.72684,  -0.00041,  -0.00060,  -0.00102,  -7.26079,   1.00000
-450729722.59247,-442181985.43658,-95266789.86666,  -0.00161,  -0.00174,  -0.00227,476030367.93486,   0.00128,276030374.49670,  -0.00042,  -0.00061,  -0.00103,  -6.56184,   1.00000
-451903919.59088,-442137233.84248,-94376067.26051,  -0.00162,  -0.00175,  -0.00226,476045652.57512,   0.00129,276045656.98737,  -0.00043,  -0.00062,  -0.00104,  -4.41225,   1.00000
-453061919.83885,-442085857.97646,-93490212.95924,  -0.00163,  -0.00175,  -0.00226,476060921.77359,   0.00131,276060925.68199,  -0.00043,  -0.00062,  -0.00105,  -3.90840,   1.00000
-454212437.17196,-442023644.83275,-92605613.84677,  -0.00165,  -0.00176,  -0.00226,476076257.35130,   0.00132,276076257.96905,  -0.00044,  -0.00063,  -0.00106,  -0.61776,   1.00000
-455338479.22267,-441959475.08725,-91729595.47346,  -0.00166,  -0.00176,  -0.00226,476091492.33431,   0.00134,276091498.57804,  -0.00045,  -0.00064,  -0.00107,  -6.24373,   1.00000
-456448879.41367,-441889150.38969,-90858527.15893,  -0.00167,  -0.00177,  -0.00226,476106720.28669,   0.00135,276106724.85667,  -0.00046,  -0.00065,  -0.00107,  -4.56998,   1.00000
-457556565.78366,-441798836.77621,-89992283.59246,  -0.00169,  -0.00177,  -0.00225,476121935.92038,   0.00136,276121939.92442,  -0.00046,  -0.00065,  -0.00108,  -4.00404,   1.00000
-458636059.01194,-441716695.18664,-89131169.94752,  -0.00170,  -0.00178,  -0.00225,476137128.90413,   0.00138,276137137.50959,  -0.00047,  -0.00066,  -0.00109,  -8.60546,   1.00000
-459705012.02412,-441619335.92925,-88278431.23683,  -0.00171,  -0.00178,  -0.00225,476152242.54240,   0.00139,276152246.65450,  -0.00048,  -0.00067,  -0.00110,  -4.11211,   1.00000
-460759027.72193,-441516460.01408,-87430665.54912,  -0.00172,  -0.00178,  -0.00225,476167339.37387,   0.00141,276167341.56760,  -0.00049,  -0.00067,  -0.00111,  -2.19372,   1.00000
-461797125.16612,-441421020.61786,-86578686.97592,  -0.00174,  -0.00179,  -0.00224,476182476.64232,   0.00142,276182477.70300,  -0.00050,  -0.00068,  -0.00112,  -1.06069,   1.00000
-462821775.68349,-441307405.38970,-85740983.48740,  -0.00175,  -0.00179,  -0.00224,476197536.59803,   0.00143,276197543.54988,  -0.00051,  -0.00069,  -0.00113,  -6.95186,   1.00000
-463835446.82010,-441191921.41267,-84902364.28501,  -0.00176,  -0.00180,  -0.00224,476212573.99222,   0.00145,276212577.66557,  -0.00051,  -0.00070,  -0.00114,  -3.67335,   1.00000
-464831400.37059,-441068195.26116,-84074759.38706,  -0.00178,  -0.00180,  -0.00224,476227605.53880,   0.00146,276227614.42268,  -0.00052,  -0.00070,  -0.00115,  -8.88387,   1.00000
-465816673.12470,-440942804.33022,-83246236.48620,  -0.00179,  -0.00181,  -0.00224,476242613.76691,   0.00148,276242619.80778,  -0.00053,  -0.00071,  -0.00115,  -6.04088,   1.00000
-466792758.34548,-440803049.15800,-82425929.76130,  -0.00180,  -0.00181,  -0.00223,476257533.14594,   0.00149,276257538.75670,  -0.00054,  -0.00072,  -0.00116,  -5.61076,   1.00000
-467739440.02935,-440670015.63790,-81616888.85238,  -0.00182,  -0.00182,  -0.00223,476272453.25223,   0.00150,276272454.69976,  -0.00055,  -0.00072,  -0.00117,  -1.44752,   1.00000
-468688272.27814,-440521183.07456,-80806636.99080,  -0.00183,  -0.00182,  -0.00223,476287344.84199,   0.00152,276287345.51446,  -0.00056,  -0.00073,  -0.00118,  -0.67247,   1.00000
-469611447.96872,-440382492.12189,-80001684.81720,  -0.00184,  -0.00183,  -0.00223,476302215.36972,   0.00153,276302216.55574,  -0.00056,  -0.00074,  -0.00119,  -1.18603,   1.00000
-470523151.49727,-440226921.29433,-79210849.60702,  -0.00186,  -0.00183,  -0.00223,476317012.11720,   0.00155,276317017.95961,  -0.00057,  -0.00075,  -0.00120,  -5.84242,   1.00000
-471432359.72636,-440065415.01769,-78415736.79272,  -0.00187,  -0.00184,  -0.00222,476331864.97057,   0.00156,276331866.65646,  -0.00058,  -0.00075,  -0.00120,  -1.68589,   1.00000
-472321494.58873,-439904874.45106,-77628902.09753,  -0.00188,  -0.00184,  -0.00222,476346622.07404,   0.00157,276346624.55722,  -0.00059,  -0.00076,  -0.00121,  -2.48318,   1.00000
-473197980.77983,-439740494.36553,-76847102.39214,  -0.00190,  -0.00184,  -0.00222,476361363.71064,   0.00159,276361368.59009,  -0.00060,  -0.00077,  -0.00122,  -4.87946,   1.00000
-474061978.73819,-439572389.01213,-76070340.19144,  -0.00191,  -0.00185,  -0.00222,476376089.13941,   0.00160,276376098.80790,  -0.00061,  -0.00077,  -0.00123,  -9.66849,   1.00000
-474903656.21777,-439402857.18961,-75307846.50131,  -0.00192,  -0.00185,  -0.00221,476390748.64812,   0.00161,276390753.29230,  -0.00062,  -0.00078,  -0.00124,  -4.64418,   1.00000
-475743310.67446,-439227688.57371,-74541104.58455,  -0.00193,  -0.00186,  -0.00221,476405451.45643,   0.00163,276405456.15496,  -0.00063,  -0.00079,  -0.00124,  -4.69853,   1.00000
-476569274.92918,-439044464.89350,-73785272.77410,  -0.00195,  -0.00186,  -0.00221,476419996.53585,   0.00164,276419999.30893,  -0.00064,  -0.00079,  -0.00125,  -2.77308,   1.00000
-477385102.81858,-438862683.04020,-73028567.73033,  -0.00196,  -0.00187,  -0.00221,476434674.43732,   0.00166,276434675.18425,  -0.00064,  -0.00080,  -0.00126,  -0.74693,   1.00000
-478187719.68275,-438673064.05853,-72282658.23756,  -0.00197,  -0.00187,  -0.00221,476449187.47245,   0.00167,276449192.06708,  -0.00065,  -0.00081,  -0.00127,  -4.59463,   1.00000
-478975918.39706,-438477742.29788,-71547841.61692,  -0.00199,  -0.00188,  -0.00220,476463705.33470,   0.00168,276463709.93282,  -0.00066,  -0.00082,  -0.00127,  -4.59812,   1.00000
-479755891.00551,-438282251.39248,-70811761.01167,  -0.00200,  -0.00188,  -0.00220,476478196.04277,   0.00170,276478201.20791,  -0.00067,  -0.00082,  -0.00128,  -5.16514,   1.00000
-480524738.57473,-438083950.05767,-70080610.57059,  -0.00201,  -0.00189,  -0.00220,476492677.84409,   0.00171,276492679.73574,  -0.00068,  -0.00083,  -0.00129,  -1.89164,   1.00000
-481276240.44981,-437888111.45059,-69357312.97732,  -0.00203,  -0.00189,  -0.00220,476507066.41661,   0.00172,276507069.24993,  -0.00069,  -0.00084,  -0.00130,  -2.83332,   1.00000
-482020450.83417,-437681874.10991,-68642182.89395,  -0.00204,  -0.00189,  -0.00220,476521533.07450,   0.00174,276521535.86397,  -0.00070,  -0.00084,  -0.00130,  -2.78947,   1.00000
-482750683.69884,-437480955.64442,-67928603.68195,  -0.00205,  -0.00190,  -0.00219,476535900.34249,   0.00175,276535900.64837,  -0.00071,  -0.00085,  -0.00131,  -0.30589,   1.00000
-483475736.18232,-437267717.18687,-67222414.69509,  -0.00206,  -0.00190,  -0.00219,476550177.42887,   0.00176,276550185.66328,  -0.00072,  -0.00086,  -0.00132,  -8.23442,   1.00000
-484182415.22977,-437059591.60125,-66524754.62744,  -0.00208,  -0.00191,  -0.00219,476564537.18492,   0.00178,276564538.97127,  -0.00073,  -0.00086,  -0.00132,  -1.78636,   1.00000
-484887094.59066,-436841824.84073,-65828140.99944,  -0.00209,  -0.00191,  -0.00219,476578790.57966,   0.00179,276578800.55684,  -0.00074,  -0.00087,  -0.00133,  -9.97718,   1.00000
-485578979.71639,-436619505.44881,-65142560.75983,  -0.00210,  -0.00192,  -0.00218,476593058.87488,   0.00180,276593063.01306,  -0.00074,  -0.00088,  -0.00134,  -4.13819,   1.00000
-486257839.05303,-436402924.44506,-64458222.27131,  -0.00212,  -0.00192,  -0.00218,476607220.63643,   0.00182,276607225.70837,  -0.00075,  -0.00088,  -0.00134,  -5.07195,   1.00000
-486924343.68960,-436181998.28116,-63784871.84336,  -0.00213,  -0.00193,  -0.00218,476621389.03751,   0.00183,276621389.27229,  -0.00076,  -0.00089,  -0.00135,  -0.23478,   1.00000
-487584113.14860,-435961614.96593,-63109924.87668,  -0.00214,  -0.00193,  -0.00218,476635529.07063,   0.00184,276635529.77873,  -0.00077,  -0.00090,  -0.00136,  -0.70810,   1.00000
-488231826.56792,-435737088.81650,-62445959.82074,  -0.00215,  -0.00193,  -0.00218,476649667.95505,   0.00186,276649671.15070,  -0.00078,  -0.00090,  -0.00136,  -3.19565,   1.00000
-488869998.67677,-435506239.57939,-61791622.25304,  -0.00217,  -0.00194,  -0.00217,476663654.26146,   0.00187,276663659.64483,  -0.00079,  -0.00091,  -0.00137,  -5.38337,   1.00000
-489499505.62617,-435278516.74991,-61136912.28464,  -0.00218,  -0.00194,  -0.00217,476677774.31362,   0.00188,276677779.65605,  -0.00080,  -0.00092,  -0.00138,  -5.34243,   1.00000
-490122452.53766,-435046858.92937,-60485397.62013,  -0.00219,  -0.00195,  -0.00217,476691728.95528,   0.00190,276691736.09890,  -0.00081,  -0.00092,  -0.00138,  -7.14362,   1.00000
-490728629.19278,-434821574.71069,-59842523.68277,  -0.00220,  -0.00195,  -0.00217,476705755.11971,   0.00191,276705759.27292,  -0.00082,  -0.00093,  -0.00139,  -4.15321,   1.00000
-491331645.19777,-434584810.93733,-59206418.95783,  -0.00222,  -0.00196,  -0.00217,476719701.15762,   0.00192,276719706.83019,  -0.00083,  -0.00094,  -0.00140,  -5.67257,   1.00000
-491918178.15789,-434350016.30565,-58583683.68127,  -0.00223,  -0.00196,  -0.00216,476733579.62700,   0.00193,276733579.75937,  -0.00084,  -0.00094,  -0.00140,  -0.13236,   1.00000
-492504458.93537,-434106096.46432,-57961178.68263,  -0.00224,  -0.00196,  -0.00216,476747366.64385,   0.00195,276747367.22894,  -0.00085,  -0.00095,  -0.00141,  -0.58510,   1.00000
-493077108.25854,-433871218.44486,-57340919.68837,  -0.00226,  -0.00197,  -0.00216,476761204.74317,   0.00196,276761210.48690,  -0.00086,  -0.00096,  -0.00141,  -5.74374,   1.00000
-493641735.83610,-433635258.23897,-56725075.46656,  -0.00227,  -0.00197,  -0.00216,476775042.87714,   0.00197,276775044.36991,  -0.00087,  -0.00096,  -0.00142,  -1.49277,   1.00000
-494201451.27828,-433385992.96848,-56122077.64721,  -0.00228,  -0.00198,  -0.00215,476788810.12084,   0.00199,276788814.97951,  -0.00088,  -0.00097,  -0.00143,  -4.85867,   1.00000
-494745103.97842,-433153595.89967,-55517371.56768,  -0.00229,  -0.00198,  -0.00215,476802548.59509,   0.00200,276802555.31189,  -0.00089,  -0.00098,  -0.00143,  -6.71680,   1.00000
-495284246.12010,-432908013.27216,-54925408.42507,  -0.00231,  -0.00199,  -0.00215,476816227.58578,   0.00201,276816232.65549,  -0.00090,  -0.00098,  -0.00144,  -5.06971,   1.00000
-495815921.07131,-432661670.93076,-54337674.15661,  -0.00232,  -0.00199,  -0.00215,476829899.11902,   0.00203,276829901.58186,  -0.00091,  -0.00099,  -0.00144,  -2.46284,   1.00000
-496335133.85293,-432420100.86332,-53756507.60956,  -0.00233,  -0.00199,  -0.00215,476843482.09437,   0.00204,276843486.66361,  -0.00092,  -0.00099,  -0.00145,  -4.56924,   1.00000
-496852241.30273,-432172371.94051,-53177165.09257,  -0.00234,  -0.00200,  -0.00214,476857137.71561,   0.00205,276857139.13878,  -0.00093,  -0.00100,  -0.00145,  -1.42317,   1.00000
-497362675.69947,-431919229.41661,-52606262.56397,  -0.00236,  -0.00200,  -0.00214,476870637.46148,   0.00206,276870644.44843,  -0.00093,  -0.00101,  -0.00146,  -6.98695,   1.00000
-497855635.17673,-431681396.78584,-52039805.03713,  -0.00237,  -0.00201,  -0.00214,476884126.11694,   0.00208,276884130.19269,  -0.00094,  -0.00101,  -0.00146,  -4.07576,   1.00000
-498352263.16419,-431427166.54483,-51477054.64919,  -0.00238,  -0.00201,  -0.00214,476897614.65299,   0.00209,276897620.31507,  -0.00095,  -0.00102,  -0.00147,  -5.66208,   1.00000
-498829427.77181,-431186503.89333,-50925131.29790,  -0.00239,  -0.00201,  -0.00214,476911091.44576,   0.00210,276911100.30017,  -0.00096,  -0.00103,  -0.00147,  -8.85441,   1.00000
-499305615.14222,-430935074.26039,-50379063.57117,  -0.00240,  -0.00202,  -0.00213,476924504.86355,   0.00211,276924509.67575,  -0.00097,  -0.00103,  -0.00148,  -4.81220,   1.00000
-499777518.76430,-430685175.29834,-49830501.87343,  -0.00242,  -0.00202,  -0.00213,476937896.32998,   0.00213,276937902.93458,  -0.00098,  -0.00104,  -0.00148,  -6.60460,   1.00000
-500236048.23932,-430438684.74768,-49294516.18299,  -0.00243,  -0.00203,  -0.00213,476951220.35177,   0.00214,276951222.88663,  -0.00099,  -0.00104,  -0.00149,  -2.53487,   1.00000
-500688372.46677,-430191951.50744,-48762393.73515,  -0.00244,  -0.00203,  -0.00213,476964533.84396,   0.00215,276964536.08206,  -0.00100,  -0.00105,  -0.00149,  -2.23810,   1.00000
-501140129.55339,-429934563.49409,-48235896.27015,  -0.00245,  -0.00204,  -0.00213,476977777.84053,   0.00216,276977780.04985,  -0.00101,  -0.00106,  -0.00150,  -2.20932,   1.00000
-501573495.15395,-429691332.98680,-47720000.60305,  -0.00247,  -0.00204,  -0.00213,476991010.74763,   0.00218,276991013.62267,  -0.00102,  -0.00106,  -0.00150,  -2.87505,   1.00000
-502008716.28669,-429439250.28283,-47203119.36384,  -0.00248,  -0.00204,  -0.00212,477004169.35989,   0.00219,277004169.85288,  -0.00103,  -0.00107,  -0.00151,  -0.49299,   1.00000
-502436028.44213,-429185387.25201,-46696419.71635,  -0.00249,  -0.00205,  -0.00212,477017321.18869,   0.00220,277017328.62537,  -0.00104,  -0.00107,  -0.00151,  -7.43668,   1.00000
-502855180.15821,-428938811.44236,-46188971.49897,  -0.00250,  -0.00205,  -0.00212,477030393.30134,   0.00221,277030397.81968,  -0.00105,  -0.00108,  -0.00152,  -4.51834,   1.00000
-503271212.67281,-428684984.76096,-45689609.58194,  -0.00251,  -0.00206,  -0.00212,477043539.73264,   0.00223,277043544.81680,  -0.00106,  -0.00109,  -0.00152,  -5.08417,   1.00000
-503677248.06436,-428436815.08112,-45195887.16942,  -0.00253,  -0.00206,  -0.00212,477056603.97495,   0.00224,277056610.93316,  -0.00107,  -0.00109,  -0.00153,  -6.95821,   1.00000
-504071491.99590,-428192675.08876,-44714212.74423,  -0.00254,  -0.00206,  -0.00211,477069594.41254,   0.00225,277069604.36336,  -0.00108,  -0.00110,  -0.00153,  -9.95082,   1.00000
-504468133.56685,-427939703.76118,-44231153.30421,  -0.00255,  -0.00207,  -0.00211,477082517.99027,   0.00226,277082522.70478,  -0.00109,  -0.00110,  -0.00154,  -4.71451,   1.00000
-504852043.84787,-427695946.02331,-43756449.79774,  -0.00256,  -0.00207,  -0.00211,477095500.52745,   0.00228,277095505.43759,  -0.00110,  -0.00111,  -0.00154,  -4.91014,   1.00000
-505238444.71151,-427443328.90679,-43280277.90491,  -0.00258,  -0.00208,  -0.00211,477108404.98657,   0.00229,277108413.75593,  -0.00111,  -0.00112,  -0.00155,  -8.76936,   1.00000
-505613590.54773,-427194975.54014,-42815957.62613,  -0.00259,  -0.00208,  -0.00211,477121245.92061,   0.00230,277121249.72406,  -0.00112,  -0.00112,  -0.00155,  -3.80344,   1.00000
-505983874.38345,-426946905.58142,-42354977.47575,  -0.00260,  -0.00208,  -0.00210,477134073.64224,   0.00231,277134080.98004,  -0.00113,  -0.00113,  -0.00155,  -7.33780,   1.00000
-506343271.79924,-426703207.79626,-41905707.87114,  -0.00261,  -0.00209,  -0.00210,477146836.07222,   0.00232,277146839.92348,  -0.00114,  -0.00113,  -0.00156,  -3.85126,   1.00000
-506705516.11622,-426450648.11684,-41454671.02789,  -0.00262,  -0.00209,  -0.00210,477159521.37606,   0.00234,277159525.89380,  -0.00115,  -0.00114,  -0.00156,  -4.51774,   1.00000
-507055697.22332,-426207727.17158,-41011879.01330,  -0.00263,  -0.00209,  -0.00210,477172267.82897,   0.00235,277172275.90986,  -0.00116,  -0.00114,  -0.00157,  -8.08089,   1.00000
-507402863.57385,-425960030.25877,-40575586.46326,  -0.00265,  -0.00210,  -0.00210,477184879.12989,   0.00236,277184885.61211,  -0.00117,  -0.00115,  -0.00157,  -6.48223,   1.00000
-507745646.23532,-425712783.40772,-40142411.94256,  -0.00266,  -0.00210,  -0.00210,477197488.06482,   0.00237,277197491.26972,  -0.00118,  -0.00116,  -0.00157,  -3.20489,   1.00000
-508084097.30178,-425466002.58056,-39712337.85764,  -0.00267,  -0.00211,  -0.00209,477210088.70671,   0.00238,277210092.99528,  -0.00119,  -0.00116,  -0.00158,  -4.28857,   1.00000
-508414232.07833,-425225295.89825,-39287118.80881,  -0.00268,  -0.00211,  -0.00209,477222615.23325,   0.00240,277222615.71787,  -0.00120,  -0.00117,  -0.00158,  -0.48462,   1.00000
-508738471.62495,-424983654.65888,-38871468.88737,  -0.00269,  -0.00211,  -0.00209,477235138.67081,   0.00241,277235141.59774,  -0.00121,  -0.00117,  -0.00159,  -2.92693,   1.00000
-509058676.80946,-424742554.13814,-38458794.97769,  -0.00270,  -0.00212,  -0.00209,477247658.84178,   0.00242,277247663.76098,  -0.00122,  -0.00118,  -0.00159,  -4.91919,   1.00000
-509376522.81544,-424496718.95167,-38052180.34110,  -0.00272,  -0.00212,  -0.00209,477260043.41056,   0.00243,277260046.97863,  -0.00123,  -0.00118,  -0.00159,  -3.56807,   1.00000
-509690456.42625,-424251480.99166,-37648452.35531,  -0.00273,  -0.00213,  -0.00209,477272424.72587,   0.00244,277272426.87188,  -0.00124,  -0.00119,  -0.00160,  -2.14601,   1.00000
-509989340.32038,-424021996.69648,-37254475.50823,  -0.00274,  -0.00213,  -0.00209,477284789.59893,   0.00245,277284795.10157,  -0.00125,  -0.00119,  -0.00160,  -5.50264,   1.00000
-510290174.42815,-423782170.81623,-36864642.06696,  -0.00275,  -0.00213,  -0.00208,477297096.21833,   0.00247,277297099.91497,  -0.00126,  -0.00120,  -0.00160,  -3.69664,   1.00000
-510594595.80925,-423533365.86817,-36472342.13421,  -0.00276,  -0.00214,  -0.00208,477309334.43450,   0.00248,277309335.26537,  -0.00126,  -0.00121,  -0.00161,  -0.83087,   1.00000
-510882628.37174,-423299179.99622,-36096252.52388,  -0.00277,  -0.00214,  -0.00208,477321565.01904,   0.00249,277321565.32512,  -0.00127,  -0.00121,  -0.00161,  -0.30608,   1.00000
-511168831.06363,-423066962.89729,-35716266.68273,  -0.00278,  -0.00214,  -0.00208,477333781.72669,   0.00250,277333786.04761,  -0.00128,  -0.00122,  -0.00162,  -4.32092,   1.00000
-511451789.21620,-422828708.78115,-35348414.13029,  -0.00280,  -0.00215,  -0.00208,477345871.63657,   0.00251,277345875.39678,  -0.00129,  -0.00122,  -0.00162,  -3.76022,   1.00000
-511732984.82474,-422592440.83183,-34976577.31362,  -0.00281,  -0.00215,  -0.00208,477357948.06028,   0.00252,277357955.89367,  -0.00130,  -0.00123,  -0.00162,  -7.83339,   1.00000
-512009275.62864,-422355641.13393,-34613917.69984,  -0.00282,  -0.00216,  -0.00208,477370034.61504,   0.00253,277370039.87293,  -0.00131,  -0.00123,  -0.00163,  -5.25789,   1.00000
-512277034.99769,-422123931.35177,-34261935.36347,  -0.00283,  -0.00216,  -0.00207,477382046.89326,   0.00255,277382052.31981,  -0.00132,  -0.00124,  -0.00163,  -5.42656,   1.00000
-512543223.47766,-421894207.30548,-33905846.46486,  -0.00284,  -0.00216,  -0.00207,477394051.47675,   0.00256,277394056.24714,  -0.00133,  -0.00124,  -0.00163,  -4.77039,   1.00000
-512806678.59487,-421658497.39600,-33561562.80448,  -0.00285,  -0.00217,  -0.00207,477405927.88574,   0.00257,277405929.36243,  -0.00134,  -0.00125,  -0.00163,  -1.47669,   1.00000
-513061527.04420,-421434696.02063,-33218472.75213,  -0.00286,  -0.00217,  -0.00207,477417852.25222,   0.00258,277417859.43405,  -0.00135,  -0.00125,  -0.00164,  -7.18182,   1.00000
-513319014.88844,-421200533.99153,-32878961.51206,  -0.00287,  -0.00217,  -0.00207,477429718.42157,   0.00259,277429728.04887,  -0.00136,  -0.00126,  -0.00164,  -9.62730,   1.00000
-513568472.63067,-420971595.80083,-32549877.71851,  -0.00289,  -0.00218,  -0.00207,477441519.65810,   0.00260,277441525.22141,  -0.00137,  -0.00126,  -0.00164,  -5.56331,   1.00000
-513811521.95604,-420749040.37297,-32224541.88483,  -0.00290,  -0.00218,  -0.00207,477453237.05369,   0.00261,277453245.27886,  -0.00138,  -0.00127,  -0.00165,  -8.22518,   1.00000
-514051855.86260,-420527297.00403,-31901448.07184,  -0.00291,  -0.00218,  -0.00206,477464959.70148,   0.00262,277464963.22555,  -0.00139,  -0.00127,  -0.00165,  -3.52407,   1.00000
-514295051.67382,-420295164.75035,-31581713.40313,  -0.00292,  -0.00219,  -0.00206,477476613.12319,   0.00264,277476620.41069,  -0.00140,  -0.00128,  -0.00165,  -7.28750,   1.00000
-514526465.29169,-420080673.95036,-31264482.15931,  -0.00293,  -0.00219,  -0.00206,477488256.75736,   0.00265,277488259.43559,  -0.00141,  -0.00128,  -0.00166,  -2.67823,   1.00000
-514759446.71879,-419854636.30567,-30957130.29720,  -0.00294,  -0.00220,  -0.00206,477499837.77514,   0.00266,277499843.31986,  -0.00142,  -0.00129,  -0.00166,  -5.54472,   1.00000
-514986395.45120,-419635028.01414,-30653282.06274,  -0.00295,  -0.00220,  -0.00206,477511345.26609,   0.00267,277511350.42200,  -0.00143,  -0.00129,  -0.00166,  -5.15591,   1.00000
-515209487.66156,-419415188.89009,-30358098.48716,  -0.00296,  -0.00220,  -0.00206,477522852.53580,   0.00268,277522861.16588,  -0.00144,  -0.00130,  -0.00166,  -8.63008,   1.00000
-515437112.40241,-419186040.66938,-30059400.57805,  -0.00297,  -0.00221,  -0.00206,477534306.47558,   0.00269,277534306.50052,  -0.00144,  -0.00130,  -0.00167,  -0.02493,   1.00000
-515651930.66164,-418973569.18177,-29769627.64314,  -0.00298,  -0.00221,  -0.00206,477545733.53056,   0.00270,277545738.99576,  -0.00145,  -0.00131,  -0.00167,  -5.46519,   1.00000
-515866599.57720,-418756188.67733,-29484222.70093,  -0.00299,  -0.00221,  -0.00206,477557034.47322,   0.00271,277557036.44263,  -0.00146,  -0.00131,  -0.00167,  -1.96941,   1.00000
-516073458.63807,-418551016.56390,-29199690.30093,  -0.00300,  -0.00222,  -0.00205,477568385.87131,   0.00272,277568390.72957,  -0.00147,  -0.00132,  -0.00168,  -4.85826,   1.00000
-516282351.41132,-418334316.54360,-28924716.73927,  -0.00302,  -0.00222,  -0.00205,477579689.55030,   0.00273,277579690.27033,  -0.00148,  -0.00132,  -0.00168,  -0.72002,   1.00000
-516491228.79466,-418112689.81816,-28653924.23736,  -0.00303,  -0.00222,  -0.00205,477590845.80065,   0.00274,277590855.31791,  -0.00149,  -0.00133,  -0.00168,  -9.51726,   1.00000
-516689101.95203,-417908915.21910,-28385224.58174,  -0.00304,  -0.00223,  -0.00205,477601999.90888,   0.00275,277602002.11847,  -0.00150,  -0.00133,  -0.00168,  -2.20959,   1.00000
-516886964.90719,-417699474.52224,-28123631.53437,  -0.00305,  -0.00223,  -0.00205,477613219.90711,   0.00277,277613227.61235,  -0.00151,  -0.00134,  -0.00169,  -7.70524,   1.00000
-517083001.07935,-417491565.03973,-27860724.86792,  -0.00306,  -0.00223,  -0.00205,477624230.41444,   0.00278,277624238.77499,  -0.00152,  -0.00134,  -0.00169,  -8.36054,   1.00000
-517275789.64664,-417283563.94068,-27606162.69131,  -0.00307,  -0.00224,  -0.00205,477635248.80522,   0.00279,277635253.58505,  -0.00153,  -0.00135,  -0.00169,  -4.77983,   1.00000
-517465384.20433,-417075498.99889,-27359893.20789,  -0.00308,  -0.00224,  -0.00205,477646264.14563,   0.00280,277646272.08653,  -0.00154,  -0.00135,  -0.00169,  -7.94090,   1.00000
-517651089.30224,-416874832.74452,-27109873.69099,  -0.00309,  -0.00224,  -0.00205,477657200.21088,   0.00281,277657209.64570,  -0.00155,  -0.00136,  -0.00170,  -9.43482,   1.00000
-517839237.89655,-416662635.15560,-26869064.46784,  -0.00310,  -0.00225,  -0.00205,477668092.15948,   0.00282,277668093.01671,  -0.00155,  -0.00136,  -0.00170,  -0.85724,   1.00000
-518016796.56196,-416468360.59119,-26630105.39861,  -0.00311,  -0.00225,  -0.00205,477678949.09823,   0.00283,277678958.11191,  -0.00156,  -0.00136,  -0.00170,  -9.01368,   1.00000
-518193724.39682,-416268031.40688,-26401477.66320,  -0.00312,  -0.00225,  -0.00205,477689692.68966,   0.00284,277689693.88776,  -0.00157,  -0.00137,  -0.00170,  -1.19809,   1.00000
-518373352.71057,-416064040.64868,-26166491.14965,  -0.00313,  -0.00226,  -0.00204,477700494.87644,   0.00285,277700499.37083,  -0.00158,  -0.00137,  -0.00170,  -4.49440,   1.00000
-518542501.15783,-415870118.73236,-25948672.03695,  -0.00314,  -0.00226,  -0.00204,477711157.89632,   0.00286,277711162.72118,  -0.00159,  -0.00138,  -0.00171,  -4.82486,   1.00000
-518711250.10855,-415678000.92891,-25725620.31893,  -0.00315,  -0.00226,  -0.00204,477721810.85162,   0.00287,277721820.69367,  -0.00160,  -0.00138,  -0.00171,  -9.84204,   1.00000
-518883909.63325,-415475213.77396,-25504898.87743,  -0.00316,  -0.00227,  -0.00204,477732415.95930,   0.00288,277732420.30161,  -0.00161,  -0.00139,  -0.00171,  -4.34231,   1.00000
-519050646.53200,-415277941.84375,-25293380.95078,  -0.00317,  -0.00227,  -0.00204,477742947.41268,   0.00289,277742948.45656,  -0.00162,  -0.00139,  -0.00171,  -1.04388,   1.00000
-519211568.57553,-415086175.62208,-25090992.74662,  -0.00318,  -0.00227,  -0.00204,477753404.53784,   0.00290,277753405.09869,  -0.00163,  -0.00140,  -0.00172,  -0.56085,   1.00000
-519372180.95592,-414896186.43273,-24883245.72106,  -0.00319,  -0.00228,  -0.00204,477763852.13023,   0.00291,277763856.69608,  -0.00163,  -0.00140,  -0.00172,  -4.56585,   1.00000
-519530196.26628,-414706216.49644,-24683442.12023,  -0.00320,  -0.00228,  -0.00204,477774304.17378,   0.00292,277774311.84283,  -0.00164,  -0.00140,  -0.00172,  -7.66906,   1.00000
-519683718.23423,-414522617.45441,-24486029.55926,  -0.00321,  -0.00228,  -0.00204,477784689.14235,   0.00293,277784691.04908,  -0.00165,  -0.00141,  -0.00172,  -1.90674,   1.00000
-519838263.67450,-414333696.28418,-24291829.85319,  -0.00322,  -0.00228,  -0.00204,477794937.17627,   0.00294,277794937.19973,  -0.00166,  -0.00141,  -0.00172,  -0.02346,   1.00000
-519990326.51174,-414144810.38093,-24105469.29043,  -0.00323,  -0.00229,  -0.00204,477805179.34327,   0.00295,277805186.98576,  -0.00167,  -0.00142,  -0.00173,  -7.64249,   1.00000
-520138031.33389,-413962284.84481,-23921368.64190,  -0.00324,  -0.00229,  -0.00204,477815354.14977,   0.00296,277815360.95847,  -0.00168,  -0.00142,  -0.00173,  -6.80870,   1.00000
-520284467.59848,-413780632.86116,-23738400.60244,  -0.00325,  -0.00229,  -0.00204,477825530.99847,   0.00297,277825534.31782,  -0.00169,  -0.00143,  -0.00173,  -3.31935,   1.00000
-520430978.57830,-413592760.32573,-23565115.98498,  -0.00326,  -0.00230,  -0.00204,477835572.07763,   0.00298,277835579.02565,  -0.00169,  -0.00143,  -0.00173,  -6.94802,   1.00000
-520570817.83187,-413417510.21370,-23392064.39216,  -0.00326,  -0.00230,  -0.00204,477845674.62839,   0.00299,277845680.19004,  -0.00170,  -0.00143,  -0.00173,  -5.56166,   1.00000
-520711922.68883,-413236813.61117,-23221959.61459,  -0.00327,  -0.00230,  -0.00204,477855640.37433,   0.00300,277855648.65697,  -0.00171,  -0.00144,  -0.00173,  -8.28264,   1.00000
-520850799.14526,-413056187.26834,-23059527.19808,  -0.00328,  -0.00231,  -0.00204,477865618.10210,   0.00301,277865620.62772,  -0.00172,  -0.00144,  -0.00174,  -2.52562,   1.00000
-520990990.64978,-412870111.02244,-22899937.93716,  -0.00329,  -0.00231,  -0.00204,477875458.91710,   0.00302,277875460.14423,  -0.00173,  -0.00145,  -0.00174,  -1.22713,   1.00000
-521121643.22248,-412702113.83747,-22741557.09163,  -0.00330,  -0.00231,  -0.00204,477885272.14521,   0.00302,277885280.86159,  -0.00174,  -0.00145,  -0.00174,  -8.71639,   1.00000
-521256681.97269,-412523158.80642,-22584910.61092,  -0.00331,  -0.00231,  -0.00204,477895037.23975,   0.00303,277895044.32468,  -0.00174,  -0.00145,  -0.00174,  -7.08493,   1.00000
-521386664.47107,-412349699.59900,-22436880.16950,  -0.00332,  -0.00232,  -0.00204,477904734.18173,   0.00304,277904736.03183,  -0.00175,  -0.00146,  -0.00174,  -1.85011,   1.00000
-521515619.74324,-412177078.89394,-22289720.52614,  -0.00333,  -0.00232,  -0.00204,477914423.49210,   0.00305,277914427.41177,  -0.00176,  -0.00146,  -0.00175,  -3.91967,   1.00000
-521639625.88192,-412009935.12546,-22151104.27280,  -0.00334,  -0.00232,  -0.00204,477924043.93936,   0.00306,277924046.95126,  -0.00177,  -0.00147,  -0.00175,  -3.01191,   1.00000
-521763698.55136,-411844377.34746,-22006647.46218,  -0.00335,  -0.00233,  -0.00204,477933656.82267,   0.00307,277933662.32069,  -0.00178,  -0.00147,  -0.00175,  -5.49801,   1.00000
-521885415.77338,-411677817.67415,-21872478.56391,  -0.00336,  -0.00233,  -0.00203,477943071.58483,   0.00308,277943073.89851,  -0.00178,  -0.00147,  -0.00175,  -2.31368,   1.00000
-522008094.73283,-411505908.70583,-21744721.93029,  -0.00337,  -0.00233,  -0.00203,477952557.56932,   0.00309,277952564.31137,  -0.00179,  -0.00148,  -0.00175,  -6.74204,   1.00000
-522127992.93316,-411340995.40956,-21612052.72188,  -0.00337,  -0.00233,  -0.00203,477961975.09130,   0.00310,277961975.38760,  -0.00180,  -0.00148,  -0.00175,  -0.29630,   1.00000
-522243126.21109,-411181513.73903,-21487794.57257,  -0.00338,  -0.00234,  -0.00203,477971313.87454,   0.00311,277971314.56447,  -0.00181,  -0.00148,  -0.00176,  -0.68993,   1.00000
-522359946.54710,-411016295.30614,-21365978.39423,  -0.00339,  -0.00234,  -0.00203,477980516.14684,   0.00312,277980521.72969,  -0.00182,  -0.00149,  -0.00176,  -5.58285,   1.00000
-522474945.23828,-410851139.64528,-21251501.80295,  -0.00340,  -0.00234,  -0.00203,477989727.55589,   0.00312,277989732.35864,  -0.00182,  -0.00149,  -0.00176,  -4.80275,   1.00000
-522589126.19095,-410686790.88071,-21137667.73653,  -0.00341,  -0.00235,  -0.00204,477998940.19174,   0.00313,277998942.82698,  -0.00183,  -0.00150,  -0.00176,  -2.63525,   1.00000
-522699662.31085,-410528610.23120,-21025449.06351,  -0.00342,  -0.00235,  -0.00204,478008074.60378,   0.00314,278008077.76108,  -0.00184,  -0.00150,  -0.00176,  -3.15729,   1.00000
-522805632.85341,-410375838.38057,-20921485.53249,  -0.00343,  -0.00235,  -0.00204,478017138.02767,   0.00315,278017140.69977,  -0.00185,  -0.00150,  -0.00176,  -2.67209,   1.00000
-522913429.30948,-410217218.07343,-20819786.98550,  -0.00343,  -0.00235,  -0.00204,478026065.06539,   0.00316,278026071.83528,  -0.00186,  -0.00151,  -0.00176,  -6.76989,   1.00000
-523020495.25853,-410059362.02787,-20718642.65731,  -0.00344,  -0.00236,  -0.00204,478034993.16959,   0.00317,278035002.85944,  -0.00186,  -0.00151,  -0.00177,  -9.68985,   1.00000
-523126846.21131,-409902274.73149,-20618050.08460,  -0.00345,  -0.00236,  -0.00204,478043930.81577,   0.00318,278043933.73657,  -0.00187,  -0.00151,  -0.00177,  -2.92080,   1.00000
-523228730.29396,-409750576.53747,-20525620.33436,  -0.00346,  -0.00236,  -0.00204,478052788.45461,   0.00318,278052792.64213,  -0.00188,  -0.00152,  -0.00177,  -4.18752,   1.00000
-523332520.74747,-409592962.28302,-20435349.24741,  -0.00347,  -0.00236,  -0.00204,478061518.10021,   0.00319,278061519.89828,  -0.00189,  -0.00152,  -0.00177,  -1.79807,   1.00000
-523427512.64010,-409453447.20349,-20345800.95129,  -0.00348,  -0.00237,  -0.00204,478070226.90483,   0.00320,278070227.72696,  -0.00189,  -0.00152,  -0.00177,  -0.82213,   1.00000
-523526293.54569,-409301878.31674,-20264093.32074,  -0.00348,  -0.00237,  -0.00204,478078877.13763,   0.00321,278078882.84244,  -0.00190,  -0.00153,  -0.00177,  -5.70481,   1.00000
-523627035.24133,-409144337.86756,-20184455.54558,  -0.00349,  -0.00237,  -0.00204,478087399.28841,   0.00322,278087406.46622,  -0.00191,  -0.00153,  -0.00177,  -7.17781,   1.00000
-523721806.13735,-408999583.58453,-20104537.34112,  -0.00350,  -0.00237,  -0.00204,478095980.15134,   0.00323,278095986.10007,  -0.00192,  -0.00153,  -0.00178,  -5.94872,   1.00000
-523817644.46587,-408848097.53838,-20033327.41584,  -0.00351,  -0.00238,  -0.00204,478104430.78858,   0.00323,278104437.70191,  -0.00192,  -0.00154,  -0.00178,  -6.91333,   1.00000
-523910167.76811,-408702650.22895,-19963415.14264,  -0.00352,  -0.00238,  -0.00204,478112810.93350,   0.00324,278112813.84133,  -0.00193,  -0.00154,  -0.00178,  -2.90783,   1.00000
-524002122.23357,-408557880.57269,-19893860.82860,  -0.00352,  -0.00238,  -0.00204,478121183.91052,   0.00325,278121190.01700,  -0.00194,  -0.00154,  -0.00178,  -6.10649,   1.00000
-524089890.67590,-408418426.26295,-19832252.78558,  -0.00353,  -0.00238,  -0.00204,478129491.66649,   0.00326,278129494.06398,  -0.00194,  -0.00155,  -0.00178,  -2.39748,   1.00000
-524182447.97216,-408267525.70267,-19771639.75821,  -0.00354,  -0.00239,  -0.00204,478137734.83306,   0.00327,278137742.33447,  -0.00195,  -0.00155,  -0.00178,  -7.50142,   1.00000
-524263751.95600,-408140049.60878,-19712489.99934,  -0.00355,  -0.00239,  -0.00204,478145892.76094,   0.00327,278145895.40678,  -0.00196,  -0.00155,  -0.00178,  -2.64584,   1.00000
-524352590.90620,-407995748.72494,-19653397.51307,  -0.00356,  -0.00239,  -0.00204,478154065.91020,   0.00328,278154068.18904,  -0.00196,  -0.00156,  -0.00179,  -2.27884,   1.00000
-524439921.41567,-407849899.33381,-19603770.37166,  -0.00356,  -0.00239,  -0.00204,478162028.85990,   0.00329,278162037.61887,  -0.00197,  -0.00156,  -0.00179,  -8.75896,   1.00000
-524521466.42884,-407716858.13046,-19553712.33874,  -0.00357,  -0.00240,  -0.00204,478170057.44062,   0.00330,278170062.88985,  -0.00198,  -0.00156,  -0.00179,  -5.44923,   1.00000
-524604266.48264,-407576897.44536,-19512150.25875,  -0.00358,  -0.00240,  -0.00204,478177954.78937,   0.00330,278177960.30761,  -0.00199,  -0.00157,  -0.00179,  -5.51824,   1.00000
-524686609.22970,-407437572.45754,-19470789.25304,  -0.00359,  -0.00240,  -0.00204,478185852.87724,   0.00331,278185857.89136,  -0.00199,  -0.00157,  -0.00179,  -5.01411,   1.00000
-524765841.98104,-407304163.86552,-19430534.65299,  -0.00359,  -0.00240,  -0.00204,478193679.74670,   0.00332,278193680.02443,  -0.00200,  -0.00157,  -0.00179,  -0.27773,   1.00000
-524847270.66808,-407164451.07414,-19392043.94332,  -0.00360,  -0.00240,  -0.00205,478201370.75484,   0.00333,278201371.08555,  -0.00201,  -0.00158,  -0.00179,  -0.33071,   1.00000
-524919428.67680,-407042152.90171,-19360642.84291,  -0.00361,  -0.00241,  -0.00205,478209044.21244,   0.00333,278209045.64655,  -0.00201,  -0.00158,  -0.00179,  -1.43412,   1.00000
-524997388.91223,-406908867.71834,-19323382.75132,  -0.00361,  -0.00241,  -0.00205,478216657.25692,   0.00334,278216661.40561,  -0.00202,  -0.00158,  -0.00180,  -4.14869,   1.00000
-525075779.85191,-406767904.74941,-19301202.22578,  -0.00362,  -0.00241,  -0.00205,478224149.68127,   0.00335,278224152.77095,  -0.00203,  -0.00158,  -0.00180,  -3.08968,   1.00000
-525149384.26707,-406640426.58834,-19271789.80071,  -0.00363,  -0.00241,  -0.00205,478231688.97244,   0.00336,278231696.69129,  -0.00203,  -0.00159,  -0.00180,  -7.71885,   1.00000
-525224365.23182,-406505886.66045,-19250744.45741,  -0.00364,  -0.00242,  -0.00205,478239110.61835,   0.00336,278239112.88574,  -0.00204,  -0.00159,  -0.00180,  -2.26739,   1.00000
-525296333.70241,-406377170.74005,-19230691.80973,  -0.00364,  -0.00242,  -0.00205,478246446.64882,   0.00337,278246453.73745,  -0.00204,  -0.00159,  -0.00180,  -7.08863,   1.00000
-525365333.57542,-406254258.57964,-19211626.48019,  -0.00365,  -0.00242,  -0.00205,478253710.95039,   0.00338,278253719.13424,  -0.00205,  -0.00160,  -0.00180,  -8.18385,   1.00000
-525433099.88077,-406131213.92831,-19199319.16085,  -0.00366,  -0.00242,  -0.00205,478260979.22915,   0.00338,278260988.01561,  -0.00206,  -0.00160,  -0.00180,  -8.78646,   1.00000
-525503193.42056,-406001678.04340,-19188620.38478,  -0.00366,  -0.00242,  -0.00205,478268125.61592,   0.00339,278268126.00040,  -0.00206,  -0.00160,  -0.00180,  -0.38448,   1.00000
-525572929.04610,-405872670.51437,-19177967.53450,  -0.00367,  -0.00243,  -0.00205,478275259.10382,   0.00340,278275264.35904,  -0.00207,  -0.00160,  -0.00180,  -5.25523,   1.00000
-525636256.92789,-405754019.12511,-19175826.38993,  -0.00368,  -0.00243,  -0.00205,478282251.12394,   0.00340,278282254.85943,  -0.00208,  -0.00161,  -0.00181,  -3.73549,   1.00000
-525704524.76404,-405623560.97496,-19174350.17391,  -0.00368,  -0.00243,  -0.00206,478289186.92955,   0.00341,278289190.30768,  -0.00208,  -0.00161,  -0.00181,  -3.37813,   1.00000
-525772458.30156,-405493624.02012,-19172879.41243,  -0.00369,  -0.00243,  -0.00206,478296116.87495,   0.00342,278296126.18400,  -0.00209,  -0.00161,  -0.00181,  -9.30905,   1.00000
-525834926.03206,-405374662.18284,-19173206.59295,  -0.00370,  -0.00243,  -0.00206,478302902.16972,   0.00342,278302910.92925,  -0.00209,  -0.00161,  -0.00181,  -8.75953,   1.00000
-525896211.59150,-405255520.03558,-19180207.19490,  -0.00370,  -0.00244,  -0.00206,478309690.69889,   0.00343,278309699.27711,  -0.00210,  -0.00162,  -0.00181,  -8.57822,   1.00000
-525954654.65885,-405142071.03690,-19188075.28770,  -0.00371,  -0.00244,  -0.00206,478316406.91193,   0.00344,278316412.19899,  -0.00211,  -0.00162,  -0.00181,  -5.28706,   1.00000
-526018045.65681,-405016725.84609,-19196565.77473,  -0.00371,  -0.00244,  -0.00206,478323060.69899,   0.00344,278323070.22961,  -0.00211,  -0.00162,  -0.00181,  -9.53062,   1.00000
-526077702.46376,-404896426.63960,-19212595.01518,  -0.00372,  -0.00244,  -0.00206,478329650.86264,   0.00345,278329656.15956,  -0.00212,  -0.00162,  -0.00181,  -5.29692,   1.00000
-526140643.48273,-404770087.38193,-19223437.55867,  -0.00373,  -0.00244,  -0.00206,478336103.36313,   0.00346,278336108.24896,  -0.00212,  -0.00163,  -0.00181,  -4.88583,   1.00000
-526194652.74286,-404661135.80171,-19241156.37559,  -0.00373,  -0.00244,  -0.00206,478342542.39803,   0.00346,278342543.45644,  -0.00213,  -0.00163,  -0.00181,  -1.05841,   1.00000
-526252722.13209,-404539559.48354,-19266137.34021,  -0.00374,  -0.00245,  -0.00207,478348921.28474,   0.00347,278348927.19261,  -0.00213,  -0.00163,  -0.00182,  -5.90787,   1.00000
-526308900.11899,-404424285.10353,-19285245.40745,  -0.00374,  -0.00245,  -0.00207,478355225.87612,   0.00347,278355232.29594,  -0.00214,  -0.00163,  -0.00182,  -6.41983,   1.00000
-526361400.66996,-404313968.47341,-19311858.83755,  -0.00375,  -0.00245,  -0.00207,478361459.71133,   0.00348,278361465.28413,  -0.00214,  -0.00164,  -0.00182,  -5.57281,   1.00000
-526416334.24525,-404196834.04311,-19339932.84758,  -0.00376,  -0.00245,  -0.00207,478367558.39816,   0.00349,278367567.76216,  -0.00215,  -0.00164,  -0.00182,  -9.36400,   1.00000
-526470135.72133,-404079462.09921,-19374578.30873,  -0.00376,  -0.00245,  -0.00207,478373670.99076,   0.00349,278373674.03369,  -0.00215,  -0.00164,  -0.00182,  -3.04294,   1.00000
-526522080.46071,-403968333.87718,-19403323.34855,  -0.00377,  -0.00246,  -0.00207,478379697.79855,   0.00350,278379701.69731,  -0.00216,  -0.00164,  -0.00182,  -3.89877,   1.00000
-526575560.88848,-403849680.74544,-19440209.31318,  -0.00377,  -0.00246,  -0.00207,478385596.58968,   0.00350,278385602.20742,  -0.00217,  -0.00165,  -0.00182,  -5.61773,   1.00000
-526628816.16388,-403731431.62959,-19476960.62094,  -0.00378,  -0.00246,  -0.00208,478391501.80339,   0.00351,278391503.29378,  -0.00217,  -0.00165,  -0.00182,  -1.49039,   1.00000
-526679324.19138,-403618740.47678,-19514490.49008,  -0.00378,  -0.00246,  -0.00208,478397323.09737,   0.00351,278397329.09218,  -0.00218,  -0.00165,  -0.00182,  -5.99481,   1.00000
-526726206.38509,-403510929.52451,-19559478.37486,  -0.00379,  -0.00246,  -0.00208,478403078.14445,   0.00352,278403082.83970,  -0.00218,  -0.00165,  -0.00182,  -4.69524,   1.00000
-526770385.58800,-403408629.38391,-19605223.72457,  -0.00380,  -0.00246,  -0.00208,478408754.66040,   0.00353,278408761.23230,  -0.00219,  -0.00165,  -0.00183,  -6.57190,   1.00000
-526819547.10024,-403294196.18320,-19651475.87622,  -0.00380,  -0.00246,  -0.00208,478414380.65019,   0.00353,278414385.15629,  -0.00219,  -0.00166,  -0.00183,  -4.50610,   1.00000
-526871158.18035,-403172796.30910,-19699157.56190,  -0.00381,  -0.00247,  -0.00208,478419871.34081,   0.00354,278419878.80148,  -0.00220,  -0.00166,  -0.00183,  -7.46067,   1.00000
-526913987.74714,-403068738.43426,-19753609.85451,  -0.00381,  -0.00247,  -0.00208,478425351.95036,   0.00354,278425355.48226,  -0.00220,  -0.00166,  -0.00183,  -3.53190,   1.00000
-526959294.56016,-402957647.35149,-19809476.87527,  -0.00382,  -0.00247,  -0.00209,478430697.40417,   0.00355,278430701.86842,  -0.00220,  -0.00166,  -0.00183,  -4.46425,   1.00000
-527004407.50031,-402846885.00883,-19865158.65938,  -0.00382,  -0.00247,  -0.00209,478436043.71361,   0.00355,278436048.93897,  -0.00221,  -0.00166,  -0.00183,  -5.22536,   1.00000
-527046850.85409,-402741589.45864,-19921589.06629,  -0.00383,  -0.00247,  -0.00209,478441316.75214,   0.00356,278441320.66922,  -0.00221,  -0.00167,  -0.00183,  -3.91708,   1.00000
-527091773.39890,-402629213.45834,-19979447.78226,  -0.00383,  -0.00247,  -0.00209,478446454.65503,   0.00356,278446462.13480,  -0.00222,  -0.00167,  -0.00183,  -7.47977,   1.00000
-527127965.34661,-402534136.00576,-20044060.62557,  -0.00384,  -0.00247,  -0.00209,478451581.14920,   0.00357,278451586.56488,  -0.00222,  -0.00167,  -0.00183,  -5.41568,   1.00000
-527174261.76224,-402414255.23861,-20109830.08371,  -0.00384,  -0.00248,  -0.00209,478456594.63924,   0.00357,278456601.88673,  -0.00223,  -0.00167,  -0.00183,  -7.24749,   1.00000
-527210294.52475,-402317483.50141,-20176602.36552,  -0.00385,  -0.00248,  -0.00210,478461512.62520,   0.00358,278461520.76786,  -0.00223,  -0.00167,  -0.00183,  -8.14265,   1.00000
-527251300.73233,-402208421.16282,-20243856.20336,  -0.00385,  -0.00248,  -0.00210,478466379.27505,   0.00358,278466385.44477,  -0.00224,  -0.00168,  -0.00183,  -6.16972,   1.00000
-527291174.57167,-402098952.42416,-20317585.06855,  -0.00386,  -0.00248,  -0.00210,478471246.98675,   0.00359,278471254.35870,  -0.00224,  -0.00168,  -0.00184,  -7.37195,   1.00000
-527325956.36990,-401999988.81943,-20393002.55608,  -0.00386,  -0.00248,  -0.00210,478475966.34221,   0.00359,278475971.86474,  -0.00224,  -0.00168,  -0.00184,  -5.52253,   1.00000
-527365697.22930,-401888697.32090,-20468891.23522,  -0.00386,  -0.00248,  -0.00210,478480633.98890,   0.00360,278480635.28645,  -0.00225,  -0.00168,  -0.00184,  -1.29754,   1.00000
-527402798.64474,-401782771.74024,-20545522.51511,  -0.00387,  -0.00248,  -0.00210,478485219.11213,   0.00360,278485223.44064,  -0.00225,  -0.00168,  -0.00184,  -4.32851,   1.00000
-527437285.13962,-401682197.55651,-20622902.06097,  -0.00387,  -0.00248,  -0.00211,478489730.39074,   0.00360,278489736.24504,  -0.00226,  -0.00168,  -0.00184,  -5.85429,   1.00000
-527468196.49669,-401586252.14152,-20707713.48979,  -0.00388,  -0.00249,  -0.00211,478494167.42894,   0.00361,278494177.20593,  -0.00226,  -0.00169,  -0.00184,  -9.77699,   1.00000
-527505037.09384,-401478620.78193,-20786314.72665,  -0.00388,  -0.00249,  -0.00211,478498552.76283,   0.00361,278498560.61180,  -0.00226,  -0.00169,  -0.00184,  -7.84897,   1.00000
-527538298.50005,-401375617.82718,-20872358.55052,  -0.00389,  -0.00249,  -0.00211,478502872.02577,   0.00362,278502872.19419,  -0.00227,  -0.00169,  -0.00184,  -0.16842,   1.00000
-527574036.02458,-401265288.12296,-20959860.76889,  -0.00389,  -0.00249,  -0.00211,478507047.65805,   0.00362,278507053.72525,  -0.00227,  -0.00169,  -0.00184,  -6.06719,   1.00000
-527607175.74926,-401160270.01786,-21048122.42010,  -0.00389,  -0.00249,  -0.00212,478511157.05719,   0.00362,278511159.90636,  -0.00227,  -0.00169,  -0.00184,  -2.84917,   1.00000
-527639159.88768,-401054742.57398,-21142835.98833,  -0.00390,  -0.00249,  -0.00212,478515266.93329,   0.00363,278515270.57903,  -0.00228,  -0.00169,  -0.00184,  -3.64574,   1.00000
-527667107.80844,-400960279.44786,-21232620.74290,  -0.00390,  -0.00249,  -0.00212,478519219.99680,   0.00363,278519226.07773,  -0.00228,  -0.00170,  -0.00184,  -6.08093,   1.00000
-527698996.30140,-400852626.63217,-21329581.08217,  -0.00390,  -0.00249,  -0.00212,478523127.26164,   0.00364,278523131.28664,  -0.00229,  -0.00170,  -0.00184,  -4.02500,   1.00000
-527728283.39930,-400750225.23845,-21427309.73641,  -0.00391,  -0.00249,  -0.00212,478526952.74027,   0.00364,278526961.19522,  -0.00229,  -0.00170,  -0.00184,  -8.45495,   1.00000
-527754997.08802,-400653067.76800,-21525814.92041,  -0.00391,  -0.00249,  -0.00213,478530710.79507,   0.00364,278530715.70013,  -0.00229,  -0.00170,  -0.00185,  -4.90506,   1.00000
-527781555.80420,-400556063.82744,-21624088.86534,  -0.00392,  -0.00249,  -0.00213,478534462.72985,   0.00365,278534471.11614,  -0.00230,  -0.00170,  -0.00185,  -8.38629,   1.00000
-527809591.69812,-400450868.32124,-21730560.33291,  -0.00392,  -0.00250,  -0.00213,478538091.98550,   0.00365,278538100.11158,  -0.00230,  -0.00170,  -0.00185,  -8.12608,   1.00000
-527838701.99900,-400343979.93290,-21832896.30726,  -0.00392,  -0.00250,  -0.00213,478541510.17346,   0.00365,278541519.04080,  -0.00230,  -0.00170,  -0.00185,  -8.86734,   1.00000
-527861573.78300,-400249201.01784,-21940952.46564,  -0.00393,  -0.00250,  -0.00213,478544989.54927,   0.00366,278544997.31509,  -0.00230,  -0.00170,  -0.00185,  -7.76581,   1.00000
-527889346.85767,-400141849.29710,-22049514.87683,  -0.00393,  -0.00250,  -0.00213,478548415.44797,   0.00366,278548421.86130,  -0.00231,  -0.00171,  -0.00185,  -6.41333,   1.00000
-527912126.19720,-400044723.70757,-22159923.99946,  -0.00393,  -0.00250,  -0.00214,478551689.97807,   0.00366,278551694.65445,  -0.00231,  -0.00171,  -0.00185,  -4.67638,   1.00000
-527934749.03307,-399947710.62156,-22270106.26363,  -0.00394,  -0.00250,  -0.00214,478554959.36587,   0.00367,278554968.41731,  -0.00231,  -0.00171,  -0.00185,  -9.05144,   1.00000
-527959854.98598,-399843128.95211,-22381865.00952,  -0.00394,  -0.00250,  -0.00214,478558104.63542,   0.00367,278558112.05524,  -0.00232,  -0.00171,  -0.00185,  -7.41982,   1.00000
-527982391.98105,-399743695.10462,-22494458.81667,  -0.00394,  -0.00250,  -0.00214,478561174.49038,   0.00367,278561180.25259,  -0.00232,  -0.00171,  -0.00185,  -5.76221,   1.00000
-528007397.04131,-399636652.27162,-22608655.72671,  -0.00394,  -0.00250,  -0.00215,478564113.34561,   0.00368,278564118.34450,  -0.00232,  -0.00171,  -0.00185,  -4.99889,   1.00000
-528023737.65937,-399546717.52679,-22729620.77769,  -0.00395,  -0.00250,  -0.00215,478567030.66788,   0.00368,278567039.48583,  -0.00232,  -0.00171,  -0.00185,  -8.81795,   1.00000
-528044958.06428,-399444108.04627,-22851130.51273,  -0.00395,  -0.00250,  -0.00215,478569899.18381,   0.00368,278569906.96155,  -0.00233,  -0.00171,  -0.00185,  -7.77774,   1.00000
-528067300.13344,-399339620.07204,-22968672.42560,  -0.00395,  -0.00250,  -0.00215,478572554.95978,   0.00368,278572563.96700,  -0.00233,  -0.00171,  -0.00185,  -9.00722,   1.00000
-528088406.22802,-399234442.68520,-23092692.36742,  -0.00396,  -0.00250,  -0.00215,478575220.62052,   0.00369,278575225.86302,  -0.00233,  -0.00172,  -0.00185,  -5.24250,   1.00000
-528106944.06245,-399134344.28704,-23217593.49575,  -0.00396,  -0.00250,  -0.00216,478577810.04537,   0.00369,278577812.26958,  -0.00233,  -0.00172,  -0.00185,  -2.22421,   1.00000
-528125310.88653,-399034300.57562,-23342289.67574,  -0.00396,  -0.00250,  -0.00216,478580390.79229,   0.00369,278580399.72152,  -0.00234,  -0.00172,  -0.00185,  -8.92923,   1.00000
-528143734.01305,-398931532.43738,-23469772.34549,  -0.00396,  -0.00250,  -0.00216,478582775.32200,   0.00369,278582780.43259,  -0.00234,  -0.00172,  -0.00185,  -5.11059,   1.00000
-528159594.40799,-398833806.37321,-23598170.21481,  -0.00396,  -0.00250,  -0.00216,478585083.10806,   0.00370,278585085.57987,  -0.00234,  -0.00172,  -0.00185,  -2.47181,   1.00000
-528174176.38030,-398735320.26344,-23733053.04910,  -0.00397,  -0.00250,  -0.00216,478587390.41873,   0.00370,278587395.78295,  -0.00234,  -0.00172,  -0.00186,  -5.36421,   1.00000
-528192309.83357,-398629841.54343,-23862984.35804,  -0.00397,  -0.00250,  -0.00217,478589569.49589,   0.00370,278589571.75270,  -0.00234,  -0.00172,  -0.00186,  -2.25680,   1.00000
-528207879.73964,-398529378.70401,-23993861.90460,  -0.00397,  -0.00251,  -0.00217,478591671.46675,   0.00370,278591672.10582,  -0.00235,  -0.00172,  -0.00186,  -0.63907,   1.00000
-528219753.14841,-398433106.33591,-24132368.99836,  -0.00397,  -0.00251,  -0.00217,478593694.55328,   0.00370,278593700.93995,  -0.00235,  -0.00172,  -0.00186,  -6.38667,   1.00000
-528237580.22099,-398324823.05058,-24264836.00743,  -0.00398,  -0.00251,  -0.00217,478595666.45051,   0.00371,278595672.07205,  -0.00235,  -0.00172,  -0.00186,  -5.62154,   1.00000
-528249304.45718,-398225682.06137,-24406099.11651,  -0.00398,  -0.00251,  -0.00217,478597487.42455,   0.00371,278597495.00919,  -0.00235,  -0.00172,  -0.00186,  -7.58464,   1.00000
-528262013.24353,-398127359.16945,-24540525.20371,  -0.00398,  -0.00251,  -0.00218,478599311.12047,   0.00371,278599314.75436,  -0.00235,  -0.00172,  -0.00186,  -3.63389,   1.00000
-528271002.15043,-398033169.06368,-24682623.27418,  -0.00398,  -0.00251,  -0.00218,478601055.11020,   0.00371,278601062.97647,  -0.00235,  -0.00173,  -0.00186,  -7.86626,   1.00000
-528282394.56108,-397931060.19848,-24826556.27920,  -0.00398,  -0.00251,  -0.00218,478602671.75607,   0.00371,278602680.89354,  -0.00235,  -0.00173,  -0.00186,  -9.13747,   1.00000
-528297353.57538,-397821850.81915,-24965674.45748,  -0.00398,  -0.00251,  -0.00218,478604160.55970,   0.00371,278604164.22983,  -0.00236,  -0.00173,  -0.00186,  -3.67013,   1.00000
-528303609.18403,-397729606.50851,-25111668.39147,  -0.00399,  -0.00251,  -0.00219,478605625.16618,   0.00372,278605630.60421,  -0.00236,  -0.00173,  -0.00186,  -5.43803,   1.00000
-528312256.00284,-397629387.68197,-25259552.02645,  -0.00399,  -0.00251,  -0.00219,478606963.84152,   0.00372,278606966.58700,  -0.00236,  -0.00173,  -0.00186,  -2.74549,   1.00000
-528326852.97795,-397517076.13354,-25401483.61025,  -0.00399,  -0.00251,  -0.00219,478608242.37106,   0.00372,278608244.69132,  -0.00236,  -0.00173,  -0.00186,  -2.32026,   1.00000
-528332741.10145,-397421712.63631,-25550311.38996,  -0.00399,  -0.00251,  -0.00219,478609502.01656,   0.00372,278609505.80898,  -0.00236,  -0.00173,  -0.00186,  -3.79241,   1.00000
-528340993.32289,-397318318.78363,-25701078.70070,  -0.00399,  -0.00251,  -0.00219,478610627.53985,   0.00372,278610636.50511,  -0.00236,  -0.00173,  -0.00186,  -8.96526,   1.00000
-528351610.22795,-397206883.98022,-25853808.39989,  -0.00399,  -0.00251,  -0.00220,478611631.90368,   0.00372,278611636.71933,  -0.00236,  -0.00173,  -0.00186,  -4.81565,   1.00000
-528355933.29385,-397114087.57150,-26000121.78360,  -0.00399,  -0.00251,  -0.00220,478612604.75448,   0.00372,278612611.11238,  -0.00236,  -0.00173,  -0.00186,  -6.35790,   1.00000
-528366313.67802,-396999414.09519,-26155976.08451,  -0.00399,  -0.00251,  -0.00220,478613397.76339,   0.00372,278613404.85360,  -0.00236,  -0.00173,  -0.00186,  -7.09021,   1.00000
-528369190.12928,-396902507.70580,-26312103.65164,  -0.00400,  -0.00251,  -0.00220,478614171.89627,   0.00372,278614177.11738,  -0.00236,  -0.00173,  -0.00186,  -5.22111,   1.00000
-528376785.47791,-396792565.21973,-26469027.65684,  -0.00400,  -0.00251,  -0.00220,478614892.58963,   0.00372,278614895.76960,  -0.00237,  -0.00173,  -0.00186,  -3.17997,   1.00000
-528380654.23968,-396693221.82997,-26621707.64797,  -0.00400,  -0.00250,  -0.00221,478615450.95401,   0.00372,278615456.83497,  -0.00237,  -0.00173,  -0.00186,  -5.88097,   1.00000
-528383080.97674,-396592891.69503,-26780989.29715,  -0.00400,  -0.00250,  -0.00221,478616017.45178,   0.00373,278616023.29702,  -0.00237,  -0.00173,  -0.00186,  -5.84524,   1.00000
-528387821.96659,-396484384.69636,-26942366.05438,  -0.00400,  -0.00250,  -0.00221,478616454.48417,   0.00373,278616459.08416,  -0.00237,  -0.00173,  -0.00186,  -4.59999,   1.00000
-528391235.43566,-396381546.99949,-27098297.06074,  -0.00400,  -0.00250,  -0.00221,478616805.25735,   0.00373,278616814.09025,  -0.00237,  -0.00173,  -0.00186,  -8.83290,   1.00000
-528390800.82778,-396282584.70519,-27262127.15475,  -0.00400,  -0.00250,  -0.00222,478617095.16541,   0.00373,278617097.43446,  -0.00237,  -0.00173,  -0.00186,  -2.26905,   1.00000
-528396324.41858,-396171408.73136,-27420164.87765,  -0.00400,  -0.00250,  -0.00222,478617321.94690,   0.00373,278617322.43887,  -0.00237,  -0.00173,  -0.00186,  -0.49196,   1.00000
-528395575.00542,-396068943.22812,-27587422.32725,  -0.00400,  -0.00250,  -0.00222,478617396.34945,   0.00373,278617398.71277,  -0.00237,  -0.00173,  -0.00186,  -2.36332,   1.00000
-528400784.54814,-395954243.03299,-27748918.75998,  -0.00400,  -0.00250,  -0.00222,478617411.40514,   0.00373,278617416.54770,  -0.00237,  -0.00173,  -0.00186,  -5.14256,   1.00000
-528363705.87562,-395822782.28498,-27910716.60368,  -0.00400,  -0.00250,  -0.00222,478583861.87621,   0.00373,278617416.54770,  -0.00237,  -0.00173,  -0.00186,-33554.67150,   0.00000
-528326627.20310,-395691321.53696,-28072514.44739,  -0.00400,  -0.00250,  -0.00223,478550502.90697,   0.00373,278617416.54770,  -0.00237,  -0.00173,  -0.00186,-66913.64074,   0.00000
-528265953.01171,-395549748.42372,-28234312.29110,  -0.00400,  -0.00250,  -0.00223,478498260.12902,   0.00373,278617416.54770,  -0.00237,  -0.00173,  -0.00186,-119156.41869,   0.00000
-528171570.93622,-395374467.42637,-28396110.13480,  -0.00400,  -0.00250,  -0.00223,478413671.92172,   0.00373,278617416.54770,  -0.00237,  -0.00173,  -0.00186,-203744.62598,   0.00000
-528053593.34185,-395189074.06379,-28557907.97851,  -0.00400,  -0.00250,  -0.00223,478310206.26382,   0.00373,278617416.54770,  -0.00237,  -0.00173,  -0.00186,-307210.28388,   0.00000
-527901907.86337,-394969972.81710,-28719705.82222,  -0.00400,  -0.00250,  -0.00223,478174409.66826,   0.00373,278617416.54770,  -0.00237,  -0.00173,  -0.00186,-443006.87945,   0.00000
-527750222.38490,-394750871.57042,-28881503.66592,  -0.00400,  -0.00250,  -0.00224,478038817.81400,   0.00373,278617416.54770,  -0.00237,  -0.00173,  -0.00186,-578598.73370,   0.00000
-527551345.86868,-394511545.59327,-29043301.50963,  -0.00400,  -0.00250,  -0.00224,477865279.53338,   0.00373,278617416.54770,  -0.00237,  -0.00173,  -0.00186,-752137.01432,   0.00000
-527342356.98722,-394248624.09725,-29198357.77652,  -0.00400,  -0.00250,  -0.00224,477677268.34709,   0.00373,278617416.54770,  -0.00237,  -0.00173,  -0.00186,-940148.20062,   0.00000
-527086177.06802,-393965477.87076,-29353414.04340,  -0.00400,  -0.00250,  -0.00224,477451303.20322,   0.00373,278617416.54770,  -0.00237,  -0.00173,  -0.00186,-1166113.34449,   0.00000
-526829997.14882,-393682331.64427,-29515211.88711,  -0.00400,  -0.00249,  -0.00225,477226786.42887,   0.00373,278617416.54770,  -0.00237,  -0.00173,  -0.00186,-1390630.11884,   0.00000
-526540109.34551,-393365477.53368,-29670268.15399,  -0.00400,  -0.00249,  -0.00225,476968718.62685,   0.00373,278617416.54770,  -0.00237,  -0.00173,  -0.00186,-1648697.92085,   0.00000
-526226626.02333,-393038511.05786,-29825324.42088,  -0.00400,  -0.00249,  -0.00225,476691780.36725,   0.00373,278617416.54770,  -0.00237,  -0.00173,  -0.00186,-1925636.18046,   0.00000
-525889547.18227,-392701432.21680,-29973639.11094,  -0.00399,  -0.00249,  -0.00225,476394699.23482,   0.00373,278617416.54770,  -0.00237,  -0.00173,  -0.00186,-2222717.31288,   0.00000
-525518760.45711,-392330645.49164,-30128695.37783,  -0.00399,  -0.00249,  -0.00225,476066595.47974,   0.00373,278617416.54770,  -0.00237,  -0.00173,  -0.00186,-2550821.06796,   0.00000
-525124378.21308,-391949746.40125,-30283751.64471,  -0.00399,  -0.00249,  -0.00226,475719629.89662,   0.00373,278617416.54770,  -0.00237,  -0.00173,  -0.00186,-2897786.65108,   0.00000
-524729995.96904,-391568847.31085,-30432066.33478,  -0.00399,  -0.00249,  -0.00226,475371584.30770,   0.00373,278617416.54770,  -0.00237,  -0.00173,  -0.00186,-3245832.24001,   0.00000
-524278310.32203,-391144127.97112,-30580381.02484,  -0.00399,  -0.00249,  -0.00226,474972180.37081,   0.00373,278617416.54770,  -0.00237,  -0.00173,  -0.00186,-3645236.17689,   0.00000
-523826624.67501,-390719408.63139,-30728695.71491,  -0.00399,  -0.00249,  -0.00226,474572985.11641,   0.00373,278617416.54770,  -0.00237,  -0.00173,  -0.00186,-4044431.43129,   0.00000
-523317635.62502,-390250869.04233,-30877010.40497,  -0.00399,  -0.00249,  -0.00226,474122448.07777,   0.00373,278617416.54770,  -0.00237,  -0.00173,  -0.00186,-4494968.46993,   0.00000
-522808646.57503,-389782329.45326,-31018583.51822,  -0.00399,  -0.00248,  -0.00226,473670804.18549,   0.00373,278617416.54770,  -0.00237,  -0.00173,  -0.00186,-4946612.36221,   0.00000
-522276062.00616,-389303677.49896,-31166898.20828,  -0.00398,  -0.00248,  -0.00227,473201620.11766,   0.00373,278617416.54770,  -0.00237,  -0.00173,  -0.00186,-5415796.43004,   0.00000
-521709769.55318,-388791317.66056,-31308471.32152,  -0.00398,  -0.00248,  -0.00227,472698852.04427,   0.00373,278617416.54770,  -0.00237,  -0.00173,  -0.00186,-5918564.50343,   0.00000
-521119881.58134,-388268845.45692,-31450044.43477,  -0.00398,  -0.00248,  -0.00227,472177221.44382,   0.00373,278617416.54770,  -0.00237,  -0.00173,  -0.00186,-6440195.10388,   0.00000
-520506398.09062,-387736260.88805,-31591617.54801,  -0.00398,  -0.00248,  -0.00227,471636729.69209,   0.00373,278617416.54770,  -0.00237,  -0.00173,  -0.00186,-6980686.85561,   0.00000
-519869319.08102,-387193563.95395,-31726449.08443,  -0.00398,  -0.00248,  -0.00227,471076016.32683,   0.00373,278617416.54770,  -0.00237,  -0.00173,  -0.00186,-7541400.22088,   0.00000
-519222127.70619,-386627271.50098,-31868022.19767,  -0.00398,  -0.00248,  -0.00228,470503499.39871,   0.00373,278617416.54770,  -0.00237,  -0.00173,  -0.00186,-8113917.14899,   0.00000
-518517632.92839,-386017158.79867,-32002853.73410,  -0.00397,  -0.00248,  -0.00228,469878310.88060,   0.00373,278617416.54770,  -0.00237,  -0.00173,  -0.00186,-8739105.66710,   0.00000
-517813138.15058,-385407046.09636,-32137685.27052,  -0.00397,  -0.00247,  -0.00228,469253340.59676,   0.00373,278617416.54770,  -0.00237,  -0.00173,  -0.00186,-9364075.95095,   0.00000
-517061452.33503,-384776708.66359,-32265775.23012,  -0.00397,  -0.00247,  -0.00228,468589050.20082,   0.00373,278617416.54770,  -0.00237,  -0.00173,  -0.00186,-10028366.34688,   0.00000
-516309766.51947,-384146371.23081,-32400606.76654,  -0.00397,  -0.00247,  -0.00228,467926366.26956,   0.00373,278617416.54770,  -0.00237,  -0.00173,  -0.00186,-10691050.27815,   0.00000
-515524372.81982,-383482325.91393,-32528696.72614,  -0.00397,  -0.00247,  -0.00228,467230067.56572,   0.00373,278617416.54770,  -0.00237,  -0.00173,  -0.00186,-11387348.98199,   0.00000
-514715383.60128,-382808168.23182,-32656786.68574,  -0.00396,  -0.00247,  -0.00229,466514912.70225,   0.00373,278617416.54770,  -0.00237,  -0.00173,  -0.00186,-12102503.84546,   0.00000
-513882798.86388,-382123898.18448,-32778135.06852,  -0.00396,  -0.00247,  -0.00229,465779480.69421,   0.00373,278617416.54770,  -0.00237,  -0.00173,  -0.00186,-12837935.85349,   0.00000
-513016506.24236,-381405920.25303,-32906225.02813,  -0.00396,  -0.00247,  -0.00229,465013266.42325,   0.00373,278617416.54770,  -0.00237,  -0.00173,  -0.00186,-13604150.12445,   0.00000
-512126618.10198,-380677829.95635,-33027573.41091,  -0.00396,  -0.00246,  -0.00229,464226771.48473,   0.00373,278617416.54770,  -0.00237,  -0.00173,  -0.00186,-14390645.06297,   0.00000
-511203022.07748,-379916031.77557,-33142180.21686,  -0.00395,  -0.00246,  -0.00229,463406635.39754,   0.00373,278617416.54770,  -0.00237,  -0.00173,  -0.00186,-15210781.15016,   0.00000
-510255830.53412,-379144121.22955,-33263528.59964,  -0.00395,  -0.00246,  -0.00229,462569092.99214,   0.00373,278617416.54770,  -0.00237,  -0.00173,  -0.00186,-16048323.55556,   0.00000
-509308638.99075,-378372210.68353,-33378135.40560,  -0.00395,  -0.00246,  -0.00230,461730314.88356,   0.00373,278617416.54770,  -0.00237,  -0.00173,  -0.00186,-16887101.66415,   0.00000
-508304144.04441,-377556479.88818,-33492742.21156,  -0.00394,  -0.00246,  -0.00230,460840282.92114,   0.00373,278617416.54770,  -0.00237,  -0.00173,  -0.00186,-17777133.62656,   0.00000
-507299649.09806,-376740749.09282,-33600607.44070,  -0.00394,  -0.00246,  -0.00230,459948995.70220,   0.00373,278617416.54770,  -0.00237,  -0.00173,  -0.00186,-18668420.84551,   0.00000
-506247963.11397,-375904793.56700,-33708472.66984,  -0.00394,  -0.00245,  -0.00230,459019783.13012,   0.00373,278617416.54770,  -0.00237,  -0.00173,  -0.00186,-19597633.41759,   0.00000
-505186164.76464,-375045242.52231,-33816337.89898,  -0.00393,  -0.00245,  -0.00230,458077462.28324,   0.00373,278617416.54770,  -0.00237,  -0.00173,  -0.00186,-20539954.26447,   0.00000
-504100770.89644,-374175579.11239,-33924203.12811,  -0.00393,  -0.00245,  -0.00230,457116295.94113,   0.00373,278617416.54770,  -0.00237,  -0.00173,  -0.00186,-21501120.60658,   0.00000
-502968185.99050,-373285690.97200,-34025326.78043,  -0.00393,  -0.00245,  -0.00230,456115714.42581,   0.00373,278617416.54770,  -0.00237,  -0.00173,  -0.00186,-22501702.12190,   0.00000
-501825488.71932,-372372207.31274,-34126450.43275,  -0.00392,  -0.00245,  -0.00231,455102033.44366,   0.00373,278617416.54770,  -0.00237,  -0.00173,  -0.00186,-23515383.10404,   0.00000
-500659195.92927,-371448611.28825,-34220832.50824,  -0.00392,  -0.00244,  -0.00231,454067984.30694,   0.00373,278617416.54770,  -0.00237,  -0.00173,  -0.00186,-24549432.24077,   0.00000
-499469307.62034,-370514902.89853,-34315214.58374,  -0.00392,  -0.00244,  -0.00231,453015079.62394,   0.00373,278617416.54770,  -0.00237,  -0.00173,  -0.00186,-25602336.92376,   0.00000
-498269306.94618,-369557598.98993,-34409596.65923,  -0.00391,  -0.00244,  -0.00231,451949082.88122,   0.00373,278617416.54770,  -0.00237,  -0.00173,  -0.00186,-26668333.66648,   0.00000
-497022115.23428,-368580070.35087,-34497237.15791,  -0.00391,  -0.00244,  -0.00231,450843634.98602,   0.00373,278617416.54770,  -0.00237,  -0.00173,  -0.00186,-27773781.56169,   0.00000
-495741215.63827,-367568833.82770,-34584877.65658,  -0.00391,  -0.00244,  -0.00231,449706038.71756,   0.00373,278617416.54770,  -0.00237,  -0.00173,  -0.00186,-28911377.83014,   0.00000
-494470428.40749,-366581192.82341,-34672518.15526,  -0.00390,  -0.00243,  -0.00231,448581950.80217,   0.00373,278617416.54770,  -0.00237,  -0.00173,  -0.00186,-30035465.74554,   0.00000
-493132225.40850,-365526136.05090,-34753417.07711,  -0.00390,  -0.00243,  -0.00231,447391809.21480,   0.00373,278617416.54770,  -0.00237,  -0.00173,  -0.00186,-31225607.33290,   0.00000
-491804134.77474,-364494674.79727,-34834315.99896,  -0.00389,  -0.00243,  -0.00231,446215167.24757,   0.00373,278617416.54770,  -0.00237,  -0.00173,  -0.00186,-32402249.30014,   0.00000
-490418740.73800,-363419393.29431,-34908473.34400,  -0.00389,  -0.00243,  -0.00232,444985752.58531,   0.00373,278617416.54770,  -0.00237,  -0.00173,  -0.00186,-33631663.96240,   0.00000
-489033346.70126,-362344111.79134,-34982630.68903,  -0.00389,  -0.00243,  -0.00232,443756542.75588,   0.00373,278617416.54770,  -0.00237,  -0.00173,  -0.00186,-34860873.79182,   0.00000
-487614244.78042,-361235122.40427,-35056788.03406,  -0.00388,  -0.00242,  -0.00232,442495208.03471,   0.00373,278617416.54770,  -0.00237,  -0.00173,  -0.00186,-36122208.51300,   0.00000
-486171547.34070,-360116020.65196,-35124203.80227,  -0.00388,  -0.00242,  -0.00232,441213426.66508,   0.00373,278617416.54770,  -0.00237,  -0.00173,  -0.00186,-37403989.88262,   0.00000
-484705254.38211,-358986806.53443,-35191619.57048,  -0.00387,  -0.00242,  -0.00232,439912797.92057,   0.00373,278617416.54770,  -0.00237,  -0.00173,  -0.00186,-38704618.62714,   0.00000
-483215365.90464,-357847480.05166,-35252293.76187,  -0.00387,  -0.00242,  -0.00232,438591701.31329,   0.00373,278617416.54770,  -0.00237,  -0.00173,  -0.00186,-40025715.23442,   0.00000
-481691769.54307,-356674445.68479,-35312967.95326,  -0.00386,  -0.00241,  -0.00232,437238485.58240,   0.00373,278617416.54770,  -0.00237,  -0.00173,  -0.00186,-41378930.96530,   0.00000
-480144577.66263,-355491298.95268,-35366900.56783,  -0.00386,  -0.00241,  -0.00232,435864786.89938,   0.00373,278617416.54770,  -0.00237,  -0.00173,  -0.00186,-42752629.64833,   0.00000
-478563677.89808,-354274444.33647,-35420833.18240,  -0.00385,  -0.00241,  -0.00232,434458974.95195,   0.00373,278617416.54770,  -0.00237,  -0.00173,  -0.00186,-44158441.59576,   0.00000
-476959182.61465,-353047477.35503,-35474765.79697,  -0.00385,  -0.00241,  -0.00232,433034321.90626,   0.00373,278617416.54770,  -0.00237,  -0.00173,  -0.00186,-45583094.64144,   0.00000
-475354687.33123,-351820510.37359,-35521956.83472,  -0.00384,  -0.00240,  -0.00232,431608213.35333,   0.00373,278617416.54770,  -0.00237,  -0.00173,  -0.00186,-47009203.19437,   0.00000
-473692888.64482,-350549723.14281,-35562406.29564,  -0.00384,  -0.00240,  -0.00232,430129288.00958,   0.00373,278617416.54770,  -0.00237,  -0.00173,  -0.00186,-48488128.53813,   0.00000
-472031089.95842,-349278935.91203,-35602855.75657,  -0.00383,  -0.00240,  -0.00232,428650554.82895,   0.00373,278617416.54770,  -0.00237,  -0.00173,  -0.00186,-49966861.71875,   0.00000
-470322100.23427,-347987923.95079,-35643305.21750,  -0.00383,  -0.00240,  -0.00232,427133933.97872,   0.00373,278617416.54770,  -0.00237,  -0.00173,  -0.00186,-51483482.56898,   0.00000
-468602998.14489,-346673316.47067,-35677013.10160,  -0.00382,  -0.00239,  -0.00233,425602573.46463,   0.00373,278617416.54770,  -0.00237,  -0.00173,  -0.00186,-53014843.08307,   0.00000
-466860300.53663,-345348596.62532,-35703979.40889,  -0.00382,  -0.00239,  -0.00233,424050664.70260,   0.00373,278617416.54770,  -0.00237,  -0.00173,  -0.00186,-54566751.84510,   0.00000
-465094007.40950,-344013764.41474,-35730945.71617,  -0.00381,  -0.00239,  -0.00233,422479901.27894,   0.00373,278617416.54770,  -0.00237,  -0.00173,  -0.00186,-56137515.26876,   0.00000
-463304118.76349,-342668819.83893,-35757912.02346,  -0.00381,  -0.00239,  -0.00233,420890289.46586,   0.00373,278617416.54770,  -0.00237,  -0.00173,  -0.00186,-57727127.08185,   0.00000
-461480522.23338,-341290167.37901,-35778136.75392,  -0.00380,  -0.00238,  -0.00233,419266873.58287,   0.00373,278617416.54770,  -0.00237,  -0.00173,  -0.00186,-59350542.96484,   0.00000
-459623217.81917,-339877807.03499,-35791619.90756,  -0.00380,  -0.00238,  -0.00233,417609644.17197,   0.00373,278617416.54770,  -0.00237,  -0.00173,  -0.00186,-61007772.37574,   0.00000
-457752430.25131,-338478929.84461,-35805103.06120,  -0.00379,  -0.00238,  -0.00233,415946795.68446,   0.00373,278617416.54770,  -0.00237,  -0.00173,  -0.00186,-62670620.86325,   0.00000
-455847934.79934,-337046344.77012,-35818586.21485,  -0.00378,  -0.00238,  -0.00233,414251869.45129,   0.00373,278617416.54770,  -0.00237,  -0.00173,  -0.00186,-64365547.09641,   0.00000
-453943439.34738,-335613759.69564,-35818586.21485,  -0.00378,  -0.00237,  -0.00233,412553621.73943,   0.00373,278617416.54770,  -0.00237,  -0.00173,  -0.00186,-66063794.80828,   0.00000
-451981640.49244,-334137354.37181,-35825327.79167,  -0.00377,  -0.00237,  -0.00233,410806021.96681,   0.00373,278617416.54770,  -0.00237,  -0.00173,  -0.00186,-67811394.58089,   0.00000
-450019841.63749,-332660949.04799,-35825327.79167,  -0.00377,  -0.00237,  -0.00233,409056841.54348,   0.00373,278617416.54770,  -0.00237,  -0.00173,  -0.00186,-69560575.00422,   0.00000
-448010851.74480,-331164318.99370,-35818586.21485,  -0.00376,  -0.00236,  -0.00233,407268012.72762,   0.00373,278617416.54770,  -0.00237,  -0.00173,  -0.00186,-71349403.82009,   0.00000
-446001861.85211,-329667688.93942,-35805103.06120,  -0.00375,  -0.00236,  -0.00233,405477569.12364,   0.00373,278617416.54770,  -0.00237,  -0.00173,  -0.00186,-73139847.42407,   0.00000
-443959164.07532,-328137351.00103,-35791619.90756,  -0.00375,  -0.00236,  -0.00233,403655046.54710,   0.00373,278617416.54770,  -0.00237,  -0.00173,  -0.00186,-74962370.00060,   0.00000
-441892870.77965,-326596900.69740,-35778136.75392,  -0.00374,  -0.00236,  -0.00233,401813673.19052,   0.00373,278617416.54770,  -0.00237,  -0.00173,  -0.00186,-76803743.35718,   0.00000
-439792869.59987,-325022742.50967,-35757912.02346,  -0.00373,  -0.00235,  -0.00233,399938434.64048,   0.00373,278617416.54770,  -0.00237,  -0.00173,  -0.00186,-78678981.90722,   0.00000
-437679385.26645,-323462067.47559,-35730945.71617,  -0.00373,  -0.00235,  -0.00233,398055744.81269,   0.00373,278617416.54770,  -0.00237,  -0.00173,  -0.00186,-80561671.73501,   0.00000
-435532193.04893,-321867684.55739,-35703979.40889,  -0.00372,  -0.00235,  -0.00233,396140986.83975,   0.00373,278617416.54770,  -0.00237,  -0.00173,  -0.00186,-82476429.70795,   0.00000
-433351292.94730,-320239593.75509,-35670271.52478,  -0.00371,  -0.00234,  -0.00233,394192343.04181,   0.00373,278617416.54770,  -0.00237,  -0.00173,  -0.00186,-84425073.50590,   0.00000
-431180505.21090,-318635098.47167,-35629822.06385,  -0.00371,  -0.00234,  -0.00232,392255228.10530,   0.00373,278617416.54770,  -0.00237,  -0.00173,  -0.00186,-86362188.44240,   0.00000
-428952414.07152,-316986782.93891,-35589372.60293,  -0.00370,  -0.00234,  -0.00232,390267035.05695,   0.00373,278617416.54770,  -0.00237,  -0.00173,  -0.00186,-88350381.49075,   0.00000
-426690615.04804,-315304759.52204,-35542181.56518,  -0.00369,  -0.00233,  -0.00232,388244936.33598,   0.00373,278617416.54770,  -0.00237,  -0.00173,  -0.00186,-90372480.21172,   0.00000
-424438928.38979,-313646331.62405,-35494990.52743,  -0.00369,  -0.00233,  -0.00232,386236191.26595,   0.00373,278617416.54770,  -0.00237,  -0.00173,  -0.00186,-92381225.28176,   0.00000
-422153533.84743,-311954195.84195,-35441057.91286,  -0.00368,  -0.00233,  -0.00232,384193526.79087,   0.00373,278617416.54770,  -0.00237,  -0.00173,  -0.00186,-94423889.75683,   0.00000
-419844543.78620,-310251947.69462,-35380383.72147,  -0.00367,  -0.00232,  -0.00232,382130133.87269,   0.00373,278617416.54770,  -0.00237,  -0.00173,  -0.00186,-96487282.67502,   0.00000
-417478250.32199,-308505879.29795,-35319709.53008,  -0.00367,  -0.00232,  -0.00232,380015681.24727,   0.00373,278617416.54770,  -0.00237,  -0.00173,  -0.00186,-98601735.30043,   0.00000
-415122069.22302,-306783406.42016,-35245552.18505,  -0.00366,  -0.00232,  -0.00232,377910803.20734,   0.00373,278617416.54770,  -0.00237,  -0.00173,  -0.00186,-100706613.34036,   0.00000
-412755775.75881,-305037338.02349,-35178136.41684,  -0.00365,  -0.00231,  -0.00232,375794742.86465,   0.00373,278617416.54770,  -0.00237,  -0.00173,  -0.00186,-102822673.68305,   0.00000
-410332178.89162,-303247449.37748,-35097237.49499,  -0.00364,  -0.00231,  -0.00232,373623840.48779,   0.00373,278617416.54770,  -0.00237,  -0.00173,  -0.00186,-104993576.05992,   0.00000
-407895098.87079,-301471043.88512,-35016338.57313,  -0.00364,  -0.00231,  -0.00232,371447267.63431,   0.00373,278617416.54770,  -0.00237,  -0.00173,  -0.00186,-107170148.91339,   0.00000
-405424310.96585,-299660930.50865,-34935439.65128,  -0.00363,  -0.00230,  -0.00232,369238640.65327,   0.00373,278617416.54770,  -0.00237,  -0.00173,  -0.00186,-109378775.89444,   0.00000
-402953523.06091,-297850817.13219,-34841057.57578,  -0.00362,  -0.00230,  -0.00231,367026310.74968,   0.00373,278617416.54770,  -0.00237,  -0.00173,  -0.00186,-111591105.79802,   0.00000
-400449027.27187,-296006995.87161,-34746675.50029,  -0.00361,  -0.00230,  -0.00231,364781915.47887,   0.00373,278617416.54770,  -0.00237,  -0.00173,  -0.00186,-113835501.06883,   0.00000
-397897340.44508,-294142949.88058,-34645551.84797,  -0.00360,  -0.00229,  -0.00231,362497743.19037,   0.00373,278617416.54770,  -0.00237,  -0.00173,  -0.00186,-116119673.35733,   0.00000
-395345653.61829,-292278903.88954,-34544428.19566,  -0.00360,  -0.00229,  -0.00231,360213689.01638,   0.00373,278617416.54770,  -0.00237,  -0.00173,  -0.00186,-118403727.53132,   0.00000
-392770371.27262,-290404745.53327,-34436562.96652,  -0.00359,  -0.00229,  -0.00231,357908831.49524,   0.00373,278617416.54770,  -0.00237,  -0.00173,  -0.00186,-120708585.05247,   0.00000
-390171493.40809,-288520474.81177,-34321956.16056,  -0.00358,  -0.00228,  -0.00231,355583160.65563,   0.00373,278617416.54770,  -0.00237,  -0.00173,  -0.00186,-123034255.89207,   0.00000
-387538907.65944,-286602496.20616,-34200607.77778,  -0.00357,  -0.00228,  -0.00231,353223473.43627,   0.00373,278617416.54770,  -0.00237,  -0.00173,  -0.00186,-125393943.11144,   0.00000
-384906321.91080,-284684517.60056,-34079259.39500,  -0.00356,  -0.00228,  -0.00230,350863888.70403,   0.00373,278617416.54770,  -0.00237,  -0.00173,  -0.00186,-127753527.84367,   0.00000
-382216432.75918,-282722718.74561,-33951169.43540,  -0.00356,  -0.00227,  -0.00230,348451307.73930,   0.00373,278617416.54770,  -0.00237,  -0.00173,  -0.00186,-130166108.80840,   0.00000
-379536655.97278,-280784515.40954,-33816337.89898,  -0.00355,  -0.00227,  -0.00230,346050047.56537,   0.00373,278617416.54770,  -0.00237,  -0.00173,  -0.00186,-132567368.98234,   0.00000
-376799575.78341,-278802491.82414,-33674764.78573,  -0.00354,  -0.00226,  -0.00230,343595777.71174,   0.00373,278617416.54770,  -0.00237,  -0.00173,  -0.00186,-135021638.83596,   0.00000
-374062495.59404,-276820468.23873,-33533191.67249,  -0.00353,  -0.00226,  -0.00230,341141600.94643,   0.00373,278617416.54770,  -0.00237,  -0.00173,  -0.00186,-137475815.60127,   0.00000
-371291707.52057,-274804736.76922,-33384876.98242,  -0.00352,  -0.00226,  -0.00230,338653370.73171,   0.00373,278617416.54770,  -0.00237,  -0.00173,  -0.00186,-139964045.81599,   0.00000
-368507436.29345,-272802488.45335,-33229820.71554,  -0.00351,  -0.00225,  -0.00229,336157471.47706,   0.00373,278617416.54770,  -0.00237,  -0.00173,  -0.00186,-142459945.07064,   0.00000
-365689457.18222,-270766532.25337,-33074764.44865,  -0.00350,  -0.00225,  -0.00229,333629507.10316,   0.00373,278617416.54770,  -0.00237,  -0.00173,  -0.00186,-144987909.44454,   0.00000
-362871478.07100,-268730576.05340,-32906225.02813,  -0.00349,  -0.00225,  -0.00229,331097613.55960,   0.00373,278617416.54770,  -0.00237,  -0.00173,  -0.00186,-147519802.98811,   0.00000
-359996195.55679,-266650799.60409,-32737685.60760,  -0.00349,  -0.00224,  -0.00229,328514694.52985,   0.00373,278617416.54770,  -0.00237,  -0.00173,  -0.00186,-150102722.01785,   0.00000
-357131025.40782,-264594618.67365,-32562404.61025,  -0.00348,  -0.00224,  -0.00228,325943038.94636,   0.00373,278617416.54770,  -0.00237,  -0.00173,  -0.00186,-152674377.60134,   0.00000
-354208551.85587,-262494617.49387,-32387123.61290,  -0.00347,  -0.00223,  -0.00228,323320369.62798,   0.00373,278617416.54770,  -0.00237,  -0.00173,  -0.00186,-155297046.91972,   0.00000
-351286078.30392,-260394616.31410,-32198359.46191,  -0.00346,  -0.00223,  -0.00228,320693723.81635,   0.00373,278617416.54770,  -0.00237,  -0.00173,  -0.00186,-157923692.73136,   0.00000
-348329896.86786,-258260907.25021,-32009595.31092,  -0.00345,  -0.00223,  -0.00228,318034999.10249,   0.00373,278617416.54770,  -0.00237,  -0.00173,  -0.00186,-160582417.44522,   0.00000
-345360232.27816,-256140681.33997,-31814089.58311,  -0.00344,  -0.00222,  -0.00227,315368581.75963,   0.00373,278617416.54770,  -0.00237,  -0.00173,  -0.00186,-163248834.78808,   0.00000
-342356859.80436,-253986747.54563,-31611842.27847,  -0.00343,  -0.00222,  -0.00227,312668047.26256,   0.00373,278617416.54770,  -0.00237,  -0.00173,  -0.00186,-165949369.28515,   0.00000
-339353487.33055,-251832813.75129,-31402853.39702,  -0.00342,  -0.00222,  -0.00227,309965529.50120,   0.00373,278617416.54770,  -0.00237,  -0.00173,  -0.00186,-168651887.04651,   0.00000
-336302923.81900,-249658655.22648,-31193864.51556,  -0.00341,  -0.00221,  -0.00227,307225221.19703,   0.00373,278617416.54770,  -0.00237,  -0.00173,  -0.00186,-171392195.35067,   0.00000
-333242247.94222,-247460901.18279,-30971392.48047,  -0.00340,  -0.00221,  -0.00226,304467646.71531,   0.00373,278617416.54770,  -0.00237,  -0.00173,  -0.00186,-174149769.83239,   0.00000
-330157976.54656,-245253034.77388,-30748920.44537,  -0.00339,  -0.00220,  -0.00226,301691204.98605,   0.00373,278617416.54770,  -0.00237,  -0.00173,  -0.00186,-176926211.56165,   0.00000
-327060221.99726,-243058651.51861,-30519706.83345,  -0.00338,  -0.00220,  -0.00226,298907072.31932,   0.00373,278617416.54770,  -0.00237,  -0.00173,  -0.00186,-179710344.22838,   0.00000
-323928759.56385,-240830560.37923,-30290493.22154,  -0.00337,  -0.00220,  -0.00226,296090859.93197,   0.00373,278617416.54770,  -0.00237,  -0.00173,  -0.00186,-182526556.61574,   0.00000
-320787184.76522,-238578873.72098,-30047796.45598,  -0.00336,  -0.00219,  -0.00225,293257330.45524,   0.00373,278617416.54770,  -0.00237,  -0.00173,  -0.00186,-185360086.09246,   0.00000
-317608531.29406,-236330557.85114,-29798358.11359,  -0.00335,  -0.00219,  -0.00225,290397205.19453,   0.00373,278617416.54770,  -0.00237,  -0.00173,  -0.00186,-188220211.35318,   0.00000
-314419765.45768,-234058646.46243,-29548919.77121,  -0.00334,  -0.00218,  -0.00225,287523894.91860,   0.00373,278617416.54770,  -0.00237,  -0.00173,  -0.00186,-191093521.62910,   0.00000
-311207404.10242,-231776622.70848,-29292739.85201,  -0.00333,  -0.00218,  -0.00224,284629661.03640,   0.00373,278617416.54770,  -0.00237,  -0.00173,  -0.00186,-193987755.51130,   0.00000
-307971447.22828,-229484486.58930,-29029818.35599,  -0.00332,  -0.00217,  -0.00224,281714507.08658,   0.00373,278617416.54770,  -0.00237,  -0.00173,  -0.00186,-196902909.46112,   0.00000
-304711894.83528,-227182238.10489,-28760155.28314,  -0.00331,  -0.00217,  -0.00224,278778438.03695,   0.00373,278617416.54770,  -0.00237,  -0.00173,  -0.00186,-199838978.51075,   0.00000
-301442230.07704,-224856394.10161,-28483750.63348,  -0.00330,  -0.00217,  -0.00223,275827075.00820,   0.00373,278617416.54770,  -0.00237,  -0.00173,  -0.00186,-202790341.53951,   0.00000
-298135486.64628,-222533920.88674,-28200604.40699,  -0.00329,  -0.00216,  -0.00223,272849185.10219,   0.00373,278617416.54770,  -0.00237,  -0.00173,  -0.00186,-205768231.44552,   0.00000
-294818630.85030,-220187852.15299,-27917458.18050,  -0.00328,  -0.00216,  -0.00222,269858087.97284,   0.00373,278617416.54770,  -0.00237,  -0.00173,  -0.00186,-208759328.57486,   0.00000
-291478179.53544,-217831671.05401,-27627570.37720,  -0.00327,  -0.00215,  -0.00222,266846088.72969,   0.00373,278617416.54770,  -0.00237,  -0.00173,  -0.00186,-211771327.81802,   0.00000
-288104020.33647,-215441782.07093,-27324199.42025,  -0.00326,  -0.00215,  -0.00222,263797801.45922,   0.00373,278617416.54770,  -0.00237,  -0.00173,  -0.00186,-214819615.08848,   0.00000
-284716377.98386,-213065376.24149,-27020828.46330,  -0.00325,  -0.00215,  -0.00221,260744019.60632,   0.00373,278617416.54770,  -0.00237,  -0.00173,  -0.00186,-217873396.94139,   0.00000
-281328735.63126,-210688970.41205,-26710715.92953,  -0.00324,  -0.00214,  -0.00221,257688232.41293,   0.00373,278617416.54770,  -0.00237,  -0.00173,  -0.00186,-220929184.13477,   0.00000
-277907385.39454,-208278856.69850,-26393861.81893,  -0.00323,  -0.00214,  -0.00220,254598256.73317,   0.00373,278617416.54770,  -0.00237,  -0.00173,  -0.00186,-224019159.81453,   0.00000
-274462439.63895,-205858630.61972,-26070266.13152,  -0.00322,  -0.00213,  -0.00220,251487417.02335,   0.00373,278617416.54770,  -0.00237,  -0.00173,  -0.00186,-227129999.52436,   0.00000
-270993898.36449,-203428292.17571,-25739928.86729,  -0.00320,  -0.00213,  -0.00220,248355730.53236,   0.00373,278617416.54770,  -0.00237,  -0.00173,  -0.00186,-230261686.01534,   0.00000
-267501761.57116,-200987841.36647,-25409591.60305,  -0.00319,  -0.00212,  -0.00219,245205312.41637,   0.00373,278617416.54770,  -0.00237,  -0.00173,  -0.00186,-233412104.13133,   0.00000
-264009624.77782,-198547390.55723,-25065771.18517,  -0.00318,  -0.00212,  -0.00219,242050831.12046,   0.00373,278617416.54770,  -0.00237,  -0.00173,  -0.00186,-236566585.42725,   0.00000
-260460184.58151,-196063119.49865,-24721950.76730,  -0.00317,  -0.00212,  -0.00218,238845437.12358,   0.00373,278617416.54770,  -0.00237,  -0.00173,  -0.00186,-239771979.42413,   0.00000
-256910744.38519,-193578848.44007,-24364647.19578,  -0.00316,  -0.00211,  -0.00218,235635997.23492,   0.00373,278617416.54770,  -0.00237,  -0.00173,  -0.00186,-242981419.31279,   0.00000
-253371416.55411,-191118172.90036,-24007343.62426,  -0.00315,  -0.00211,  -0.00217,232440113.11753,   0.00373,278617416.54770,  -0.00237,  -0.00173,  -0.00186,-246177303.43017,   0.00000
-249774785.32005,-188613677.11132,-23636556.89910,  -0.00314,  -0.00210,  -0.00217,229189184.58853,   0.00373,278617416.54770,  -0.00237,  -0.00173,  -0.00186,-249428231.95917,   0.00000
-246178154.08598,-186109181.32228,-23265770.17394,  -0.00312,  -0.00210,  -0.00216,225938452.66049,   0.00373,278617416.54770,  -0.00237,  -0.00173,  -0.00186,-252678963.88721,   0.00000
-242557927.33305,-183594573.16800,-22888241.87196,  -0.00311,  -0.00209,  -0.00216,222667040.93688,   0.00373,278617416.54770,  -0.00237,  -0.00173,  -0.00186,-255950375.61082,   0.00000
-238903992.69601,-181046257.12962,-22503971.99315,  -0.00310,  -0.00209,  -0.00215,219361522.42864,   0.00373,278617416.54770,  -0.00237,  -0.00173,  -0.00186,-259255894.11907,   0.00000
-235236574.90532,-178511424.24489,-22112960.53753,  -0.00309,  -0.00208,  -0.00215,216048855.14506,   0.00373,278617416.54770,  -0.00237,  -0.00173,  -0.00186,-262568561.40265,   0.00000
-231569157.11464,-175976591.36015,-21715207.50508,  -0.00308,  -0.00208,  -0.00214,212734423.66319,   0.00373,278617416.54770,  -0.00237,  -0.00173,  -0.00186,-265882992.88451,   0.00000
-227868031.43985,-173408050.59131,-21310712.89582,  -0.00307,  -0.00208,  -0.00214,209385959.63070,   0.00373,278617416.54770,  -0.00237,  -0.00173,  -0.00186,-269231456.91700,   0.00000
-224143310.24619,-170829397.45723,-20899476.70973,  -0.00305,  -0.00207,  -0.00213,206017000.05222,   0.00373,278617416.54770,  -0.00237,  -0.00173,  -0.00186,-272600416.49549,   0.00000
-220394993.53365,-168240631.95792,-20481498.94682,  -0.00304,  -0.00207,  -0.00213,202627603.79860,   0.00373,278617416.54770,  -0.00237,  -0.00173,  -0.00186,-275989812.74911,   0.00000
-216656789.18634,-165675461.97749,-20056779.60709,  -0.00303,  -0.00206,  -0.00212,199250175.87848,   0.00373,278617416.54770,  -0.00237,  -0.00173,  -0.00186,-279367240.66922,   0.00000
-212884876.95493,-163076584.11295,-19625318.69054,  -0.00302,  -0.00206,  -0.00212,195838872.49488,   0.00373,278617416.54770,  -0.00237,  -0.00173,  -0.00186,-282778544.05283,   0.00000
-209079256.83941,-160443998.36431,-19193857.77399,  -0.00301,  -0.00205,  -0.00211,192395719.38595,   0.00373,278617416.54770,  -0.00237,  -0.00173,  -0.00186,-286221697.16175,   0.00000
-205260153.57025,-157824895.76931,-18748913.70379,  -0.00299,  -0.00205,  -0.00211,188943989.90356,   0.00373,278617416.54770,  -0.00237,  -0.00173,  -0.00186,-289673426.64414,   0.00000
-201441050.30110,-155205793.17431,-18297228.05678,  -0.00298,  -0.00204,  -0.00210,185490923.37662,   0.00373,278617416.54770,  -0.00237,  -0.00173,  -0.00186,-293126493.17108,   0.00000
-197598351.51306,-152576578.21407,-17845542.40976,  -0.00297,  -0.00204,  -0.00209,182019863.08446,   0.00373,278617416.54770,  -0.00237,  -0.00173,  -0.00186,-296597553.46324,   0.00000
-193721944.84092,-149913655.36974,-17380373.60911,  -0.00296,  -0.00204,  -0.00209,178513201.92973,   0.00373,278617416.54770,  -0.00237,  -0.00173,  -0.00186,-300104214.61797,   0.00000
-189855650.53402,-147274328.04427,-16908463.23163,  -0.00294,  -0.00203,  -0.00208,175019201.14475,   0.00373,278617416.54770,  -0.00237,  -0.00173,  -0.00186,-303598215.40295,   0.00000
-185955648.34300,-144601292.83470,-16436552.85415,  -0.00293,  -0.00203,  -0.00208,171493704.51711,   0.00373,278617416.54770,  -0.00237,  -0.00173,  -0.00186,-307123712.03059,   0.00000
-182042162.99835,-141941740.77877,-15951159.32303,  -0.00292,  -0.00202,  -0.00207,167960542.46326,   0.00373,278617416.54770,  -0.00237,  -0.00173,  -0.00186,-310656874.08444,   0.00000
-178094969.76959,-139248480.83874,-15459024.21509,  -0.00291,  -0.00202,  -0.00206,164394184.74125,   0.00373,278617416.54770,  -0.00237,  -0.00173,  -0.00186,-314223231.80646,   0.00000
-174147776.54083,-136555220.89870,-14966889.10715,  -0.00289,  -0.00201,  -0.00206,160829138.04064,   0.00373,278617416.54770,  -0.00237,  -0.00173,  -0.00186,-317788278.50707,   0.00000
-170176987.79320,-133851848.59344,-14461270.84557,  -0.00288,  -0.00201,  -0.00205,157243140.40832,   0.00373,278617416.54770,  -0.00237,  -0.00173,  -0.00186,-321374276.13938,   0.00000
-166216311.41079,-131172071.80705,-13955652.58398,  -0.00287,  -0.00200,  -0.00204,153672760.70410,   0.00373,278617416.54770,  -0.00237,  -0.00173,  -0.00186,-324944655.84361,   0.00000
-162198331.62541,-128448474.77132,-13436551.16876,  -0.00286,  -0.00200,  -0.00204,150049338.11030,   0.00373,278617416.54770,  -0.00237,  -0.00173,  -0.00186,-328568078.43740,   0.00000
-158180351.84003,-125724877.73559,-12910708.17671,  -0.00284,  -0.00199,  -0.00203,146426166.89471,   0.00373,278617416.54770,  -0.00237,  -0.00173,  -0.00186,-332191249.65300,   0.00000
-154138776.53577,-122991168.33463,-12384865.18467,  -0.00283,  -0.00199,  -0.00202,142786681.33052,   0.00373,278617416.54770,  -0.00237,  -0.00173,  -0.00186,-335830735.21718,   0.00000
-150097201.23152,-120257458.93367,-11845539.03898,  -0.00282,  -0.00199,  -0.00202,139146213.09591,   0.00373,278617416.54770,  -0.00237,  -0.00173,  -0.00186,-339471203.45180,   0.00000
-146032030.40839,-117513637.16748,-11306212.89329,  -0.00280,  -0.00198,  -0.00201,135490018.59639,   0.00373,278617416.54770,  -0.00237,  -0.00173,  -0.00186,-343127397.95132,   0.00000
-141943264.06638,-114759703.03605,-10753403.59396,  -0.00279,  -0.00198,  -0.00200,131815097.34882,   0.00373,278617416.54770,  -0.00237,  -0.00173,  -0.00186,-346802319.19888,   0.00000
-137854497.72438,-112005768.90463,-10193852.71780,  -0.00278,  -0.00197,  -0.00199,128142107.42716,   0.00373,278617416.54770,  -0.00237,  -0.00173,  -0.00186,-350475309.12054,   0.00000
-133742135.86350,-109241722.40798,-9634301.84165,  -0.00276,  -0.00197,  -0.00199,124454613.63754,   0.00373,278617416.54770,  -0.00237,  -0.00173,  -0.00186,-354162802.91016,   0.00000
-129606178.48375,-106467563.54609,-9061267.81186,  -0.00275,  -0.00196,  -0.00198,120750028.02481,   0.00373,278617416.54770,  -0.00237,  -0.00173,  -0.00186,-357867388.52289,   0.00000
-125470221.10400,-103693404.68420,-8481492.20524,  -0.00274,  -0.00196,  -0.00197,117049012.28211,   0.00373,278617416.54770,  -0.00237,  -0.00173,  -0.00186,-361568404.26559,   0.00000
-121310668.20538,-100909133.45708,-7901716.59863,  -0.00272,  -0.00195,  -0.00196,113335291.95888,   0.00373,278617416.54770,  -0.00237,  -0.00173,  -0.00186,-365282124.58882,   0.00000
-117151115.30675,-98124862.22996,-7308457.83837,  -0.00271,  -0.00195,  -0.00196,109625161.45315,   0.00373,278617416.54770,  -0.00237,  -0.00173,  -0.00186,-368992255.09456,   0.00000
-112944371.37038,-95320366.27238,-6708457.50129,  -0.00270,  -0.00194,  -0.00195,105884439.88265,   0.00373,278617416.54770,  -0.00237,  -0.00173,  -0.00186,-372732976.66506,   0.00000
-108761222.95288,-92525982.68003,-6101715.58739,  -0.00268,  -0.00194,  -0.00194,102169050.38828,   0.00373,278617416.54770,  -0.00237,  -0.00173,  -0.00186,-376448366.15943,   0.00000
-104530883.49763,-89711374.35722,-5488232.09667,  -0.00267,  -0.00194,  -0.00193,98425551.29208,   0.00373,278617416.54770,  -0.00237,  -0.00173,  -0.00186,-380191865.25562,   0.00000
-100300544.04238,-86896766.03440,-4868007.02913,  -0.00265,  -0.00193,  -0.00192,94691851.02726,   0.00373,278617416.54770,  -0.00237,  -0.00173,  -0.00186,-383925565.52045,   0.00000
-96046609.06826,-84072045.34636,-4247781.96158,  -0.00264,  -0.00193,  -0.00192,90952493.11624,   0.00373,278617416.54770,  -0.00237,  -0.00173,  -0.00186,-387664923.43146,   0.00000
-91792674.09414,-81247324.65831,-3614073.74040,  -0.00263,  -0.00192,  -0.00191,87225559.18484,   0.00373,278617416.54770,  -0.00237,  -0.00173,  -0.00186,-391391857.36286,   0.00000
-87525255.96638,-78436087.12391,-2973623.94240,  -0.00261,  -0.00192,  -0.00190,83512148.28287,   0.00373,278617416.54770,  -0.00237,  -0.00173,  -0.00186,-395105268.26483,   0.00000
-83247725.47338,-75601254.07063,-2326432.56757,  -0.00260,  -0.00191,  -0.00189,79801866.11041,   0.00373,278617416.54770,  -0.00237,  -0.00173,  -0.00186,-398815550.43730,   0.00000
-78946599.46152,-72756308.65212,-1672499.61592,  -0.00259,  -0.00191,  -0.00188,76095825.26432,   0.00373,278617416.54770,  -0.00237,  -0.00173,  -0.00186,-402521591.28338,   0.00000
-74631990.29601,-69924846.38726,-1011825.08745,  -0.00257,  -0.00190,  -0.00187,72414494.61830,   0.00373,278617416.54770,  -0.00237,  -0.00173,  -0.00186,-406202921.92940,   0.00000
-70307268.76526,-67069788.60352,-337667.40534,  -0.00256,  -0.00190,  -0.00187,68748214.44230,   0.00373,278617416.54770,  -0.00237,  -0.00173,  -0.00186,-409869202.10540,   0.00000
-65969064.08088,-64228213.97342,336490.27677,  -0.00254,  -0.00189,  -0.00186,65118702.37980,   0.00373,278617416.54770,  -0.00237,  -0.00173,  -0.00186,-413498714.16791,   0.00000
-61620747.03126,-61363043.82445,1017389.53570,  -0.00253,  -0.00189,  -0.00185,61517544.29364,   0.00373,278617416.54770,  -0.00237,  -0.00173,  -0.00186,-417099872.25407,   0.00000
