# sigma_xx, sigma_yy, sigma_xy, epsilon_xx, epsilon_yy, epsilon_xy, vonMises, epsPlastic, hardening, epsilonP__xx, epsilonP__yy, epsilonP__xy, yieldValue, iteration
   0.00000,   0.00000,   0.00000,   0.00000,   0.00000,   0.00000,   0.00000,   0.00000,274640135.82653,   0.00000,   0.00000,   0.00000,-474640135.82653,   0.00000
   0.00000,   0.00000,   0.00000,   0.00000,   0.00000,   0.00000,   0.00000,   0.00000,274640135.82653,   0.00000,   0.00000,   0.00000,-474640135.82653,   0.00000
1061711.64463,3323019.56307,452261.58369,  -0.00000,   0.00001,   0.00001,3042239.91291,   0.00000,274640135.82653,   0.00000,   0.00000,   0.00000,-471597895.91362,   0.00000
2151000.21510,6673616.05198,910038.55254,  -0.00000,   0.00003,   0.00001,6106841.57913,   0.00000,274640135.82653,   0.00000,   0.00000,   0.00000,-468533294.24740,   0.00000
3232015.70782,10004908.69280,1362300.13623,  -0.00000,   0.00004,   0.00002,9152905.90031,   0.00000,274640135.82653,   0.00000,   0.00000,   0.00000,-465487229.92622,   0.00000
4351638.89670,13352747.48912,1809046.33475,  -0.00001,   0.00005,   0.00002,12204271.26738,   0.00000,274640135.82653,   0.00000,   0.00000,   0.00000,-462435864.55915,   0.00000
5490565.93367,16708859.36319,2261307.91844,  -0.00001,   0.00007,   0.00003,15262101.49314,   0.00000,274640135.82653,   0.00000,   0.00000,   0.00000,-459378034.33339,   0.00000
6629492.97064,20064971.23727,2713569.50213,  -0.00001,   0.00008,   0.00004,18320017.47693,   0.00000,274640135.82653,   0.00000,   0.00000,   0.00000,-456320118.34960,   0.00000
7807027.70378,23437629.26684,3160315.70065,  -0.00001,   0.00009,   0.00004,21383561.72866,   0.00000,274640135.82653,   0.00000,   0.00000,   0.00000,-453256574.09787,   0.00000
8995593.20725,26799256.52608,3607061.89917,  -0.00001,   0.00010,   0.00005,24435186.19059,   0.00000,274640135.82653,   0.00000,   0.00000,   0.00000,-450204949.63594,   0.00000
10192431.78847,30180187.63340,4053808.09769,  -0.00001,   0.00012,   0.00005,27503090.15024,   0.00000,274640135.82653,   0.00000,   0.00000,   0.00000,-447137045.67629,   0.00000
11427878.06586,33577664.89623,4500554.29621,  -0.00001,   0.00013,   0.00006,30579396.39235,   0.00000,274640135.82653,   0.00000,   0.00000,   0.00000,-444060739.43418,   0.00000
12674355.11359,36964111.38872,4947300.49473,  -0.00001,   0.00014,   0.00006,33643957.56536,   0.00000,274640135.82653,   0.00000,   0.00000,   0.00000,-440996178.26117,   0.00000
13929105.23906,40369861.72929,5388531.30808,  -0.00002,   0.00016,   0.00007,36722451.78721,   0.00000,274640135.82653,   0.00000,   0.00000,   0.00000,-437917684.03932,   0.00000
15214189.98296,43772854.37729,5829762.12144,  -0.00002,   0.00017,   0.00008,39793519.74578,   0.00000,274640135.82653,   0.00000,   0.00000,   0.00000,-434846616.08075,   0.00000
16499274.72685,47175847.02528,6276508.31996,  -0.00002,   0.00018,   0.00008,42867272.11515,   0.00000,274640135.82653,   0.00000,   0.00000,   0.00000,-431772863.71138,   0.00000
17822967.16691,50595385.82877,6712223.74815,  -0.00002,   0.00020,   0.00009,45945110.38519,   0.00000,274640135.82653,   0.00000,   0.00000,   0.00000,-428695025.44134,   0.00000
19146659.60697,54014924.63226,7153454.56150,  -0.00002,   0.00021,   0.00009,49025677.12938,   0.00000,274640135.82653,   0.00000,   0.00000,   0.00000,-425614458.69715,   0.00000
20500686.66545,57431705.74317,7594685.37485,  -0.00002,   0.00022,   0.00010,52099206.44358,   0.00000,274640135.82653,   0.00000,   0.00000,   0.00000,-422540929.38295,   0.00000
21862986.80168,60867790.70216,8030400.80304,  -0.00002,   0.00023,   0.00010,55186850.27483,   0.00000,274640135.82653,   0.00000,   0.00000,   0.00000,-419453285.55170,   0.00000
23263894.63408,64320421.81666,8466116.23123,  -0.00002,   0.00025,   0.00011,58283851.21436,   0.00000,274640135.82653,   0.00000,   0.00000,   0.00000,-416356284.61217,   0.00000
24656529.38873,67753749.08307,8901831.65941,  -0.00002,   0.00026,   0.00012,61365059.04440,   0.00000,274640135.82653,   0.00000,   0.00000,   0.00000,-413275076.78213,   0.00000
26068467.99146,71195349.42723,9337547.08760,  -0.00002,   0.00027,   0.00012,64451210.01689,   0.00000,274640135.82653,   0.00000,   0.00000,   0.00000,-410188925.80964,   0.00000
27499710.44228,74645222.84914,9767747.13062,  -0.00002,   0.00029,   0.00013,67539973.39635,   0.00000,274640135.82653,   0.00000,   0.00000,   0.00000,-407100162.43018,   0.00000
28969560.58926,78111642.42655,10197947.17364,  -0.00002,   0.00030,   0.00013,70638506.10662,   0.00000,274640135.82653,   0.00000,   0.00000,   0.00000,-404001629.71991,   0.00000
30431137.65850,81558758.15588,10633662.60183,  -0.00002,   0.00031,   0.00014,73723698.46535,   0.00000,274640135.82653,   0.00000,   0.00000,   0.00000,-400916437.36118,   0.00000
31920291.65357,85033450.81104,11058347.25968,  -0.00002,   0.00032,   0.00014,76825525.43414,   0.00000,274640135.82653,   0.00000,   0.00000,   0.00000,-397814610.39239,   0.00000
33420476.41897,88497112.69587,11488547.30270,  -0.00002,   0.00034,   0.00015,79918781.82853,   0.00000,274640135.82653,   0.00000,   0.00000,   0.00000,-394721353.99800,   0.00000
34939965.03246,91969047.65844,11918747.34572,  -0.00002,   0.00035,   0.00015,83017354.74760,   0.00000,274640135.82653,   0.00000,   0.00000,   0.00000,-391622781.07893,   0.00000
36478757.49403,95449255.69877,12343432.00357,  -0.00002,   0.00036,   0.00016,86118934.33512,   0.00000,274640135.82653,   0.00000,   0.00000,   0.00000,-388521201.49141,   0.00000
38017549.95560,98929463.73910,12768116.66143,  -0.00002,   0.00038,   0.00017,89221025.99606,   0.00000,274640135.82653,   0.00000,   0.00000,   0.00000,-385419109.83047,   0.00000
39594950.11334,102426217.93493,13192801.31928,  -0.00002,   0.00039,   0.00017,92333521.67794,   0.00000,274640135.82653,   0.00000,   0.00000,   0.00000,-382306614.14859,   0.00000
41183381.04142,105911941.36042,13611970.59197,  -0.00002,   0.00040,   0.00018,95432990.04560,   0.00000,274640135.82653,   0.00000,   0.00000,   0.00000,-379207145.78093,   0.00000
42791115.81757,109405937.86367,14031139.86465,  -0.00002,   0.00041,   0.00018,98538090.76795,   0.00000,274640135.82653,   0.00000,   0.00000,   0.00000,-376102045.05858,   0.00000
44398850.59373,112899934.36692,14450309.13734,  -0.00002,   0.00043,   0.00019,101643790.26086,   0.00000,274640135.82653,   0.00000,   0.00000,   0.00000,-372996345.56567,   0.00000
46045193.06606,116410477.02566,14869478.41002,  -0.00002,   0.00044,   0.00019,104760298.97262,   0.00000,274640135.82653,   0.00000,   0.00000,   0.00000,-369879836.85391,   0.00000
47691535.53838,119921019.68441,15288647.68271,  -0.00002,   0.00045,   0.00020,107877449.89560,   0.00000,274640135.82653,   0.00000,   0.00000,   0.00000,-366762685.93093,   0.00000
49348908.78104,123420531.57282,15702301.57023,  -0.00002,   0.00047,   0.00020,110981803.37835,   0.00000,274640135.82653,   0.00000,   0.00000,   0.00000,-363658332.44818,   0.00000
51025585.87179,126928316.53899,16115955.45775,  -0.00002,   0.00048,   0.00021,114092016.80577,   0.00000,274640135.82653,   0.00000,   0.00000,   0.00000,-360548119.02076,   0.00000
52740870.65870,130452647.66065,16529609.34527,  -0.00001,   0.00049,   0.00021,117213439.74766,   0.00000,274640135.82653,   0.00000,   0.00000,   0.00000,-357426696.07887,   0.00000
54456155.44562,133976978.78231,16943263.23279,  -0.00001,   0.00050,   0.00022,120335593.37859,   0.00000,274640135.82653,   0.00000,   0.00000,   0.00000,-354304542.44794,   0.00000
56182471.00286,137490279.13364,17351401.73514,  -0.00001,   0.00052,   0.00023,123445197.19356,   0.00000,274640135.82653,   0.00000,   0.00000,   0.00000,-351194938.63297,   0.00000
57917059.63786,141022883.33306,17765055.62266,  -0.00001,   0.00053,   0.00023,126574090.08241,   0.00000,274640135.82653,   0.00000,   0.00000,   0.00000,-348066045.74412,   0.00000
59681982.89128,144552729.83989,18167678.73984,  -0.00001,   0.00054,   0.00024,129693603.88697,   0.00000,274640135.82653,   0.00000,   0.00000,   0.00000,-344946531.93956,   0.00000
61457936.91502,148071545.57639,18575817.24220,  -0.00001,   0.00055,   0.00024,132805390.97090,   0.00000,274640135.82653,   0.00000,   0.00000,   0.00000,-341834744.85563,   0.00000
63242164.01652,151609665.16097,18983955.74455,  -0.00001,   0.00057,   0.00025,135934213.11887,   0.00000,274640135.82653,   0.00000,   0.00000,   0.00000,-338705922.70766,   0.00000
65056725.73644,155145027.05296,19386578.86173,  -0.00001,   0.00058,   0.00025,139056275.76036,   0.00000,274640135.82653,   0.00000,   0.00000,   0.00000,-335583860.06617,   0.00000
66871287.45636,158680388.94496,19789201.97892,  -0.00001,   0.00059,   0.00026,142179149.53979,   0.00000,274640135.82653,   0.00000,   0.00000,   0.00000,-332460986.28674,   0.00000
68705153.02436,162224023.91471,20186309.71094,  -0.00000,   0.00060,   0.00026,145306114.45886,   0.00000,274640135.82653,   0.00000,   0.00000,   0.00000,-329334021.36767,   0.00000
70550049.36270,165756628.11412,20588932.82812,  -0.00000,   0.00062,   0.00027,148425548.33384,   0.00000,274640135.82653,   0.00000,   0.00000,   0.00000,-326214587.49269,   0.00000
72414249.54912,169297505.39129,20986040.56014,  -0.00000,   0.00063,   0.00027,151549195.84479,   0.00000,274640135.82653,   0.00000,   0.00000,   0.00000,-323090939.98174,   0.00000
74297753.58362,172846655.74620,21377632.90699,   0.00000,   0.00064,   0.00028,154677127.97939,   0.00000,274640135.82653,   0.00000,   0.00000,   0.00000,-319963007.84714,   0.00000
76192288.38846,176384775.33079,21774740.63901,   0.00000,   0.00065,   0.00028,157797693.57856,   0.00000,274640135.82653,   0.00000,   0.00000,   0.00000,-316842442.24797,   0.00000
78095096.27105,179942198.76345,22166332.98586,   0.00000,   0.00067,   0.00029,160933136.97270,   0.00000,274640135.82653,   0.00000,   0.00000,   0.00000,-313706998.85383,   0.00000
80028238.77205,183496864.50353,22557925.33272,   0.00001,   0.00068,   0.00029,164064826.77016,   0.00000,274640135.82653,   0.00000,   0.00000,   0.00000,-310575309.05637,   0.00000
81953108.19531,187032226.39553,22949517.67957,   0.00001,   0.00069,   0.00030,167181142.63491,   0.00000,274640135.82653,   0.00000,   0.00000,   0.00000,-307458993.19162,   0.00000
83905554.54440,190595165.21336,23341110.02642,   0.00001,   0.00070,   0.00030,170320545.75770,   0.00000,274640135.82653,   0.00000,   0.00000,   0.00000,-304319590.06883,   0.00000
85869031.66383,194147073.26086,23727186.98810,   0.00001,   0.00072,   0.00031,173448244.96221,   0.00000,274640135.82653,   0.00000,   0.00000,   0.00000,-301191890.86432,   0.00000
87851812.63134,197707254.38611,24113263.94979,   0.00001,   0.00073,   0.00031,176582862.26658,   0.00000,274640135.82653,   0.00000,   0.00000,   0.00000,-298057273.55995,   0.00000
89826320.52109,201248131.66327,24493825.52631,   0.00002,   0.00074,   0.00032,179699865.45348,   0.00000,274640135.82653,   0.00000,   0.00000,   0.00000,-294940270.37305,   0.00000
91839436.10702,204805555.09594,24879902.48799,   0.00002,   0.00075,   0.00032,182832161.76168,   0.00000,274640135.82653,   0.00000,   0.00000,   0.00000,-291807974.06484,   0.00000
93852551.69295,208362978.52861,25260464.06451,   0.00002,   0.00077,   0.00033,185963190.44800,   0.00000,274640135.82653,   0.00000,   0.00000,   0.00000,-288676945.37853,   0.00000
95884971.12696,211928675.03902,25635510.25586,   0.00002,   0.00078,   0.00033,189099059.39205,   0.00000,274640135.82653,   0.00000,   0.00000,   0.00000,-285541076.43448,   0.00000
97928421.33130,215483340.77910,26016071.83238,   0.00003,   0.00079,   0.00034,192228016.82594,   0.00000,274640135.82653,   0.00000,   0.00000,   0.00000,-282412119.00059,   0.00000
99991175.38373,219046279.59694,26391118.02373,   0.00003,   0.00080,   0.00034,195361936.23932,   0.00000,274640135.82653,   0.00000,   0.00000,   0.00000,-279278199.58721,   0.00000
102064960.20650,222598187.64443,26766164.21508,   0.00003,   0.00081,   0.00035,198486817.49914,   0.00000,274640135.82653,   0.00000,   0.00000,   0.00000,-276153318.32739,   0.00000
104138745.02926,226150095.69193,27135695.02126,   0.00003,   0.00083,   0.00035,201610502.39756,   0.00000,274640135.82653,   0.00000,   0.00000,   0.00000,-273029633.42897,   0.00000
106231833.70011,229710276.81718,27510741.21261,   0.00004,   0.00084,   0.00036,204743723.92546,   0.00000,274640135.82653,   0.00000,   0.00000,   0.00000,-269896411.90106,   0.00000
108344226.21904,233278731.02018,27880272.01880,   0.00004,   0.00085,   0.00036,207882088.69254,   0.00000,274640135.82653,   0.00000,   0.00000,   0.00000,-266758047.13399,   0.00000
110467649.50830,236836154.45285,28244287.43981,   0.00004,   0.00086,   0.00037,211009363.91985,   0.00000,274640135.82653,   0.00000,   0.00000,   0.00000,-263630771.90668,   0.00000
112610376.64565,240401850.96326,28613818.24600,   0.00004,   0.00087,   0.00037,214146341.72780,   0.00000,274640135.82653,   0.00000,   0.00000,   0.00000,-260493794.09873,   0.00000
114744830.70525,243948243.62559,28977833.66701,   0.00005,   0.00089,   0.00038,217265888.62043,   0.00000,274640135.82653,   0.00000,   0.00000,   0.00000,-257374247.20610,   0.00000
116898588.61294,247502909.36568,29336333.70286,   0.00005,   0.00090,   0.00038,220390768.42532,   0.00000,274640135.82653,   0.00000,   0.00000,   0.00000,-254249367.40121,   0.00000
119071650.36870,251065848.18351,29700349.12388,   0.00005,   0.00091,   0.00039,223525446.79621,   0.00000,274640135.82653,   0.00000,   0.00000,   0.00000,-251114689.03032,   0.00000
121255742.89481,254617756.23101,30058849.15973,   0.00006,   0.00092,   0.00039,226649277.57552,   0.00000,274640135.82653,   0.00000,   0.00000,   0.00000,-247990858.25101,   0.00000
123459139.26899,258177937.35626,30417349.19558,   0.00006,   0.00093,   0.00040,229780821.38982,   0.00000,274640135.82653,   0.00000,   0.00000,   0.00000,-244859314.43671,   0.00000
125654262.56543,261718814.63342,30770333.84626,   0.00006,   0.00095,   0.00040,232895013.50771,   0.00000,274640135.82653,   0.00000,   0.00000,   0.00000,-241745122.31882,   0.00000
127876962.78770,265287268.83642,31123318.49695,   0.00006,   0.00096,   0.00040,236033271.54500,   0.00000,274640135.82653,   0.00000,   0.00000,   0.00000,-238606864.28153,   0.00000
130102420.70255,268825388.42100,31476303.14763,   0.00007,   0.00097,   0.00041,239146751.03796,   0.00000,274640135.82653,   0.00000,   0.00000,   0.00000,-235493384.78856,   0.00000
132355455.54324,272391084.93142,31829287.79831,   0.00007,   0.00098,   0.00041,242284407.90815,   0.00000,274640135.82653,   0.00000,   0.00000,   0.00000,-232355727.91838,   0.00000
134600217.30618,275937477.59375,32176757.06383,   0.00007,   0.00099,   0.00042,245404760.91158,   0.00000,274640135.82653,   0.00000,   0.00000,   0.00000,-229235374.91495,   0.00000
136856009.83945,279472839.48575,32524226.32935,   0.00008,   0.00100,   0.00042,248516747.25026,   0.00000,274640135.82653,   0.00000,   0.00000,   0.00000,-226123388.57627,   0.00000
139131106.22080,283016474.45549,32866180.20969,   0.00008,   0.00102,   0.00043,251634559.96040,   0.00000,274640135.82653,   0.00000,   0.00000,   0.00000,-223005575.86613,   0.00000
141425506.45024,286568382.50299,33213649.47521,   0.00008,   0.00103,   0.00043,254762580.90890,   0.00000,274640135.82653,   0.00000,   0.00000,   0.00000,-219877554.91763,   0.00000
143719906.67968,290120290.55049,33550087.97039,   0.00009,   0.00104,   0.00044,257887492.30969,   0.00000,274640135.82653,   0.00000,   0.00000,   0.00000,-216752643.51684,   0.00000
146017064.60171,293641863.97957,33892041.85074,   0.00009,   0.00105,   0.00044,260990068.61615,   0.00000,274640135.82653,   0.00000,   0.00000,   0.00000,-213650067.21038,   0.00000
148341799.44956,297191014.33449,34228480.34592,   0.00010,   0.00106,   0.00044,264114946.98114,   0.00000,274640135.82653,   0.00000,   0.00000,   0.00000,-210525188.84539,   0.00000
150677565.06776,300729133.91907,34564918.84111,   0.00010,   0.00107,   0.00045,267231749.24039,   0.00000,274640135.82653,   0.00000,   0.00000,   0.00000,-207408386.58614,   0.00000
153013330.68595,304267253.50365,34901357.33629,   0.00010,   0.00109,   0.00045,270349790.59868,   0.00000,274640135.82653,   0.00000,   0.00000,   0.00000,-204290345.22785,   0.00000
155360127.07447,307794342.31790,35232280.44630,   0.00011,   0.00110,   0.00046,273457672.90119,   0.00000,274640135.82653,   0.00000,   0.00000,   0.00000,-201182462.92534,   0.00000
157706923.46300,311321431.13214,35563203.55632,   0.00011,   0.00111,   0.00046,276566784.73733,   0.00000,274640135.82653,   0.00000,   0.00000,   0.00000,-198073351.08920,   0.00000
160084054.46994,314845762.25381,35888611.28117,   0.00011,   0.00112,   0.00047,279672933.28014,   0.00000,274640135.82653,   0.00000,   0.00000,   0.00000,-194967202.54639,   0.00000
162461185.47689,318370093.37547,36214019.00602,   0.00012,   0.00113,   0.00047,282780366.83971,   0.00000,274640135.82653,   0.00000,   0.00000,   0.00000,-191859768.98682,   0.00000
164849347.25417,321883393.72680,36539426.73087,   0.00012,   0.00114,   0.00048,285879954.20604,   0.00000,274640135.82653,   0.00000,   0.00000,   0.00000,-188760181.62049,   0.00000
167237509.03144,325396694.07813,36859319.07055,   0.00013,   0.00115,   0.00048,288978699.19141,   0.00000,274640135.82653,   0.00000,   0.00000,   0.00000,-185661436.63512,   0.00000
169644974.65681,328918267.50721,37179211.41023,   0.00013,   0.00117,   0.00048,292085936.41956,   0.00000,274640135.82653,   0.00000,   0.00000,   0.00000,-182554199.40697,   0.00000
172063471.05250,332428810.16596,37499103.74991,   0.00013,   0.00118,   0.00049,295185442.20561,   0.00000,274640135.82653,   0.00000,   0.00000,   0.00000,-179454693.62092,   0.00000
174501271.29628,335947625.90245,37818996.08959,   0.00014,   0.00119,   0.00049,298293551.08725,   0.00000,274640135.82653,   0.00000,   0.00000,   0.00000,-176346584.73928,   0.00000
176930798.46231,339447137.79087,38133373.04411,   0.00014,   0.00120,   0.00050,301384598.30091,   0.00000,274640135.82653,   0.00000,   0.00000,   0.00000,-173255537.52562,   0.00000
179371356.39867,342935618.90895,38442234.61345,   0.00015,   0.00121,   0.00050,304465944.39752,   0.00000,274640135.82653,   0.00000,   0.00000,   0.00000,-170174191.42901,   0.00000
181820187.41279,346443403.87511,38751096.18280,   0.00015,   0.00122,   0.00050,307564871.83195,   0.00000,274640135.82653,   0.00000,   0.00000,   0.00000,-167075263.99458,   0.00000
184291079.96757,349929127.30060,39059957.75215,   0.00016,   0.00123,   0.00051,310647421.37259,   0.00000,274640135.82653,   0.00000,   0.00000,   0.00000,-163992714.45394,   0.00000
186742668.67427,353406577.64835,39368819.32150,   0.00016,   0.00124,   0.00051,313723855.95603,   0.00000,274640135.82653,   0.00000,   0.00000,   0.00000,-160916279.87050,   0.00000
189232865.07713,356900574.15160,39672165.50568,   0.00017,   0.00125,   0.00052,316814489.89651,   0.00000,274640135.82653,   0.00000,   0.00000,   0.00000,-157825645.93001,   0.00000
191723061.48000,360394570.65484,39975511.68986,   0.00017,   0.00127,   0.00052,319906475.45593,   0.00000,274640135.82653,   0.00000,   0.00000,   0.00000,-154733660.37060,   0.00000
194216015.57545,363858232.53967,40273342.48887,   0.00017,   0.00128,   0.00052,322972760.89539,   0.00000,274640135.82653,   0.00000,   0.00000,   0.00000,-151667374.93114,   0.00000
196717242.74865,367341198.27258,40571173.28789,   0.00018,   0.00129,   0.00053,326056654.85720,   0.00000,274640135.82653,   0.00000,   0.00000,   0.00000,-148583480.96933,   0.00000
199221227.61443,370793829.38708,40869004.08690,   0.00018,   0.00130,   0.00053,329116979.27416,   0.00000,274640135.82653,   0.00000,   0.00000,   0.00000,-145523156.55237,   0.00000
201752789.40605,374274037.42740,41161319.50075,   0.00019,   0.00131,   0.00054,332200503.82445,   0.00000,274640135.82653,   0.00000,   0.00000,   0.00000,-142439632.00208,   0.00000
204267805.04217,377715637.77156,41453634.91459,   0.00019,   0.00132,   0.00054,335252899.28518,   0.00000,274640135.82653,   0.00000,   0.00000,   0.00000,-139387236.54135,   0.00000
206810397.60412,381184815.04156,41745950.32844,   0.00020,   0.00133,   0.00054,338330598.26524,   0.00000,274640135.82653,   0.00000,   0.00000,   0.00000,-136309537.56129,   0.00000
209336444.01057,384615384.61538,42032750.35712,   0.00020,   0.00134,   0.00055,341375131.27708,   0.00000,274640135.82653,   0.00000,   0.00000,   0.00000,-133265004.54945,   0.00000
211909371.19094,388081804.19280,42319550.38580,   0.00021,   0.00135,   0.00055,344452798.33600,   0.00000,274640135.82653,   0.00000,   0.00000,   0.00000,-130187337.49053,   0.00000
214446448.36772,391501342.99629,42600835.02931,   0.00021,   0.00136,   0.00055,347489570.61222,   0.00000,274640135.82653,   0.00000,   0.00000,   0.00000,-127150565.21431,   0.00000
217030406.31843,394956731.80337,42882119.67283,   0.00022,   0.00137,   0.00056,350559589.57780,   0.00000,274640135.82653,   0.00000,   0.00000,   0.00000,-124080546.24872,   0.00000
219578514.26554,398365239.83652,43163404.31634,   0.00022,   0.00138,   0.00056,353590694.38443,   0.00000,274640135.82653,   0.00000,   0.00000,   0.00000,-121049441.44210,   0.00000
222165229.90883,401790294.02518,43439173.57469,   0.00023,   0.00139,   0.00056,356636905.14107,   0.00000,274640135.82653,   0.00000,   0.00000,   0.00000,-118003230.68546,   0.00000
224751945.55212,405215348.21384,43714942.83303,   0.00023,   0.00141,   0.00057,359684537.14272,   0.00000,274640135.82653,   0.00000,   0.00000,   0.00000,-114955598.68381,   0.00000
227330388.11765,408621098.55442,43990712.09138,   0.00024,   0.00142,   0.00057,362717331.91154,   0.00000,274640135.82653,   0.00000,   0.00000,   0.00000,-111922803.91499,   0.00000
229947438.37936,412043395.05049,44260965.96456,   0.00024,   0.00143,   0.00058,365765443.90267,   0.00000,274640135.82653,   0.00000,   0.00000,   0.00000,-108874691.92386,   0.00000
232528638.63748,415418810.77265,44525704.45257,   0.00025,   0.00144,   0.00058,368772559.53771,   0.00000,274640135.82653,   0.00000,   0.00000,   0.00000,-105867576.28882,   0.00000
235156719.66952,418830076.49839,44795958.32575,   0.00025,   0.00145,   0.00058,371815333.92808,   0.00000,274640135.82653,   0.00000,   0.00000,   0.00000,-102824801.89845,   0.00000
237776527.62381,422222038.37605,45055181.42860,   0.00026,   0.00146,   0.00059,374839358.56397,   0.00000,274640135.82653,   0.00000,   0.00000,   0.00000,-99800777.26256,   0.00000
240388062.50034,425594696.40562,45319919.91661,   0.00026,   0.00147,   0.00059,377850588.38863,   0.00000,274640135.82653,   0.00000,   0.00000,   0.00000,-96789547.43789,   0.00000
243018901.22497,428975627.51295,45579143.01945,   0.00027,   0.00148,   0.00059,380869353.63375,   0.00000,274640135.82653,   0.00000,   0.00000,   0.00000,-93770782.19278,   0.00000
245641466.87184,432337254.77219,45838366.12230,   0.00027,   0.00149,   0.00060,383873341.20983,   0.00000,274640135.82653,   0.00000,   0.00000,   0.00000,-90766794.61670,   0.00000
248283336.36680,435707155.10918,46092073.83998,   0.00028,   0.00150,   0.00060,386884933.53189,   0.00000,274640135.82653,   0.00000,   0.00000,   0.00000,-87755202.29464,   0.00000
250936236.63209,439066024.67583,46345781.55766,   0.00029,   0.00151,   0.00060,389889968.34892,   0.00000,274640135.82653,   0.00000,   0.00000,   0.00000,-84750167.47761,   0.00000
253580863.81962,442405590.39441,46593973.89017,   0.00029,   0.00152,   0.00061,392878307.29822,   0.00000,274640135.82653,   0.00000,   0.00000,   0.00000,-81761828.52831,   0.00000
256244794.85525,445753429.19073,46842166.22268,   0.00030,   0.00153,   0.00061,395876349.52848,   0.00000,274640135.82653,   0.00000,   0.00000,   0.00000,-78763786.29804,   0.00000
258900452.81312,449081964.13897,47090358.55519,   0.00030,   0.00154,   0.00061,398859670.46386,   0.00000,274640135.82653,   0.00000,   0.00000,   0.00000,-75780465.36267,   0.00000
261556110.77100,452410499.08720,47333035.50253,   0.00031,   0.00155,   0.00062,401842477.72283,   0.00000,274640135.82653,   0.00000,   0.00000,   0.00000,-72797658.10370,   0.00000
264222799.49920,455728003.26511,47575712.44988,   0.00031,   0.00156,   0.00062,404818869.55483,   0.00000,274640135.82653,   0.00000,   0.00000,   0.00000,-69821266.27170,   0.00000
266908792.07549,459053780.52076,47812874.01206,   0.00032,   0.00157,   0.00062,407803138.05192,   0.00000,274640135.82653,   0.00000,   0.00000,   0.00000,-66836997.77461,   0.00000
269586511.57404,462360253.92833,48050035.57423,   0.00033,   0.00158,   0.00062,410772712.63359,   0.00000,274640135.82653,   0.00000,   0.00000,   0.00000,-63867423.19294,   0.00000
272275261.84291,465655696.56557,48281681.75125,   0.00033,   0.00159,   0.00063,413734071.14080,   0.00000,274640135.82653,   0.00000,   0.00000,   0.00000,-60906064.68573,   0.00000
274964012.11179,468951139.20281,48513327.92826,   0.00034,   0.00160,   0.00063,416696917.62317,   0.00000,274640135.82653,   0.00000,   0.00000,   0.00000,-57943218.20336,   0.00000
277644489.30291,472227277.99196,48744974.10527,   0.00034,   0.00161,   0.00063,419645065.01156,   0.00000,274640135.82653,   0.00000,   0.00000,   0.00000,-54995070.81497,   0.00000
280344270.34212,475511689.85886,48971104.89711,   0.00035,   0.00162,   0.00064,422601238.42458,   0.00000,274640135.82653,   0.00000,   0.00000,   0.00000,-52038897.40195,   0.00000
283055082.15166,478785070.95543,49197235.68895,   0.00035,   0.00163,   0.00064,425551266.13336,   0.00000,274640135.82653,   0.00000,   0.00000,   0.00000,-49088869.69317,   0.00000
285757620.88345,482039148.20391,49417851.09563,   0.00036,   0.00164,   0.00064,428484737.36111,   0.00000,274640135.82653,   0.00000,   0.00000,   0.00000,-46155398.46542,   0.00000
288460159.61525,485293225.45240,49638466.50231,   0.00037,   0.00165,   0.00065,431419690.26825,   0.00000,274640135.82653,   0.00000,   0.00000,   0.00000,-43220445.55828,   0.00000
291173729.11737,488536271.93055,49859081.90899,   0.00037,   0.00166,   0.00065,434348576.09899,   0.00000,274640135.82653,   0.00000,   0.00000,   0.00000,-40291559.72754,   0.00000
293887298.61950,491779318.40870,50074181.93050,   0.00038,   0.00166,   0.00065,437277049.46446,   0.00000,274640135.82653,   0.00000,   0.00000,   0.00000,-37363086.36207,   0.00000
296611898.89196,495011334.11652,50289281.95201,   0.00038,   0.00167,   0.00065,440199526.71546,   0.00000,274640135.82653,   0.00000,   0.00000,   0.00000,-34440609.11107,   0.00000
299328226.08667,498224045.97625,50498866.58835,   0.00039,   0.00168,   0.00066,443105488.14641,   0.00000,274640135.82653,   0.00000,   0.00000,   0.00000,-31534647.68012,   0.00000
302044553.28138,501436757.83598,50708451.22469,   0.00040,   0.00169,   0.00066,446012930.11907,   0.00000,274640135.82653,   0.00000,   0.00000,   0.00000,-28627205.70746,   0.00000
304771911.24642,504638438.92538,50912520.47587,   0.00040,   0.00170,   0.00066,448912580.16429,   0.00000,274640135.82653,   0.00000,   0.00000,   0.00000,-25727555.66224,   0.00000
307510299.98180,507829089.24445,51116589.72704,   0.00041,   0.00171,   0.00066,451806385.67938,   0.00000,274640135.82653,   0.00000,   0.00000,   0.00000,-22833750.14715,   0.00000
310248688.71718,511019739.56351,51315143.59305,   0.00042,   0.00172,   0.00067,454699846.98924,   0.00000,274640135.82653,   0.00000,   0.00000,   0.00000,-19940288.83729,   0.00000
312978804.37480,514191086.03449,51513697.45906,   0.00042,   0.00173,   0.00067,457578710.92924,   0.00000,274640135.82653,   0.00000,   0.00000,   0.00000,-17061424.89729,   0.00000
315700646.95468,517343128.65739,51712251.32507,   0.00043,   0.00174,   0.00067,460442962.43210,   0.00000,274640135.82653,   0.00000,   0.00000,   0.00000,-14197173.39443,   0.00000
318441793.38264,520503444.35804,51905289.80591,   0.00043,   0.00175,   0.00067,463315700.58398,   0.00000,274640135.82653,   0.00000,   0.00000,   0.00000,-11324435.24255,   0.00000
321193970.58094,523652729.28835,52098328.28676,   0.00044,   0.00176,   0.00068,466182749.28813,   0.00000,274640135.82653,   0.00000,   0.00000,   0.00000,-8457386.53840,   0.00000
323946147.77923,526802014.21866,52285851.38243,   0.00045,   0.00177,   0.00068,469049481.89048,   0.00000,274640135.82653,   0.00000,   0.00000,   0.00000,-5590653.93605,   0.00000
326690051.89977,529931995.30089,52473374.47811,   0.00045,   0.00177,   0.00068,471901646.20715,   0.00000,274640135.82653,   0.00000,   0.00000,   0.00000,-2738489.61938,   0.00000
329331882.51369,532936012.36994,52649141.43427,   0.00046,   0.00178,   0.00068,474640135.45943,   0.00000,274640135.82653,   0.00000,   0.00000,   0.00000,  -0.36709,   0.00000
329364731.54482,532933534.06627,52642921.00526,   0.00046,   0.00178,   0.00068,474640135.45943,   0.00000,274640494.56762,   0.00000,   0.00000,   0.00000,   0.05423,   1.00000
330330415.99804,532858591.05286,52461082.61606,   0.00047,   0.00179,   0.00069,477486738.89348,   0.00001,274650984.73447,   0.00000,   0.00001,   0.00000,   0.00000,   2.00000
331304741.45345,532780524.92523,52275791.94157,   0.00047,   0.00180,   0.00069,477490248.56100,   0.00002,274661437.92887,   0.00000,   0.00002,   0.00001,   0.00000,   2.00000
332259529.55042,532701007.37106,52094595.40805,   0.00048,   0.00181,   0.00069,477477504.20670,   0.00003,274671794.76271,   0.00001,   0.00003,   0.00001,   0.00000,   2.00000
333223090.31714,532618335.03822,51909919.62517,   0.00049,   0.00182,   0.00069,477480941.48718,   0.00004,274682115.15167,   0.00001,   0.00004,   0.00002,   0.00000,   2.00000
334192244.35153,532531703.67702,51725009.85501,   0.00049,   0.00183,   0.00070,477502286.02003,   0.00005,274692464.96990,   0.00001,   0.00006,   0.00002,   0.00000,   2.00000
335140156.37258,532445056.96695,51542162.14864,   0.00050,   0.00184,   0.00070,477505409.05221,   0.00006,274702777.41671,   0.00001,   0.00007,   0.00003,  -0.00000,   2.00000
336098862.62681,532353858.97847,51357822.56701,   0.00051,   0.00184,   0.00070,477492895.34618,   0.00007,274712995.32151,   0.00001,   0.00008,   0.00003,   0.00000,   2.00000
337063086.38760,532258654.86575,51173243.55219,   0.00051,   0.00185,   0.00070,477514236.60160,   0.00008,274723243.04380,   0.00002,   0.00009,   0.00004,  -0.00000,   2.00000
338009460.46551,532164246.33363,50987446.92607,   0.00052,   0.00186,   0.00070,477499372.54687,   0.00008,274733388.21899,   0.00002,   0.00010,   0.00004,   0.00000,   2.00000
338975719.56884,532065674.32051,50795017.59899,   0.00053,   0.00187,   0.00071,477528176.83899,   0.00009,274743590.66271,   0.00002,   0.00011,   0.00005,   0.00000,   2.00000
339921953.40978,531963984.72442,50611923.98422,   0.00053,   0.00188,   0.00071,477516798.99650,   0.00010,274753703.69359,   0.00002,   0.00012,   0.00005,   0.00000,   2.00000
340878106.01217,531860821.48733,50420021.45990,   0.00054,   0.00189,   0.00071,477518619.33325,   0.00011,274763775.78012,   0.00002,   0.00013,   0.00006,  -0.00000,   2.00000
341827580.70330,531752437.13376,50236287.92082,   0.00055,   0.00189,   0.00071,477516398.43884,   0.00012,274773792.53792,   0.00003,   0.00014,   0.00006,  -0.00000,   2.00000
342771674.58536,531646095.14284,50042918.58588,   0.00055,   0.00190,   0.00071,477524846.75968,   0.00013,274783793.06963,   0.00003,   0.00015,   0.00006,   0.00000,   2.00000
343709273.56377,531534590.59946,49857718.64334,   0.00056,   0.00191,   0.00072,477522523.47734,   0.00014,274793738.43119,   0.00003,   0.00016,   0.00007,   0.00000,   2.00000
344655713.85281,531419521.28729,49668944.36553,   0.00057,   0.00192,   0.00072,477526114.46036,   0.00015,274803650.29680,   0.00003,   0.00017,   0.00007,   0.00000,   2.00000
345595657.45765,531304550.40012,49475823.72028,   0.00057,   0.00193,   0.00072,477536245.59828,   0.00016,274813552.58890,   0.00004,   0.00018,   0.00008,  -0.00000,   2.00000
346543238.29159,531183982.84422,49284432.34908,   0.00058,   0.00193,   0.00072,477541637.99135,   0.00017,274823428.13758,   0.00004,   0.00019,   0.00008,   0.00000,   2.00000
347486697.83620,531062090.76823,49090614.80277,   0.00059,   0.00194,   0.00072,477535817.55620,   0.00018,274833236.56030,   0.00004,   0.00020,   0.00009,   0.00000,   2.00000
348422545.03915,530938398.24688,48897749.69023,   0.00059,   0.00195,   0.00073,477547594.03119,   0.00018,274843041.88083,   0.00004,   0.00021,   0.00009,   0.00000,   2.00000
349353308.57188,530811515.68920,48707729.39019,   0.00060,   0.00196,   0.00073,477543400.24567,   0.00019,274852786.52583,   0.00005,   0.00022,   0.00009,   0.00000,   2.00000
350280226.17405,530683352.72774,48515246.10254,   0.00061,   0.00197,   0.00073,477537446.37536,   0.00020,274862464.51345,   0.00005,   0.00023,   0.00010,  -0.00000,   2.00000
351216028.17176,530551352.93584,48319160.98816,   0.00061,   0.00197,   0.00073,477541109.48010,   0.00021,274872110.76596,   0.00005,   0.00024,   0.00010,   0.00000,   2.00000
352144306.15688,530417610.16563,48124034.94113,   0.00062,   0.00198,   0.00073,477552734.42734,   0.00022,274881754.17088,   0.00005,   0.00025,   0.00011,   0.00000,   2.00000
353067714.71216,530280690.73963,47931728.95325,   0.00063,   0.00199,   0.00073,477548418.61404,   0.00023,274891337.49657,   0.00006,   0.00026,   0.00011,   0.00000,   2.00000
354000003.14166,530139827.29698,47735790.11875,   0.00063,   0.00200,   0.00073,477552133.51788,   0.00024,274900889.82534,   0.00006,   0.00027,   0.00011,   0.00000,   2.00000
354925931.73294,529999106.80007,47535518.02816,   0.00064,   0.00200,   0.00074,477562021.42664,   0.00025,274910433.50230,   0.00006,   0.00028,   0.00012,   0.00000,   2.00000
355847102.21165,529855191.65751,47338069.06868,   0.00065,   0.00201,   0.00074,477557655.18195,   0.00026,274919917.54945,   0.00006,   0.00029,   0.00012,   0.00000,   2.00000
356763609.76231,529708106.81426,47143414.66533,   0.00066,   0.00202,   0.00074,477553223.67669,   0.00026,274929342.12037,   0.00007,   0.00030,   0.00013,   0.00000,   2.00000
357676679.68516,529559693.81364,46946233.93280,   0.00066,   0.00203,   0.00074,477547090.48467,   0.00027,274938701.48227,   0.00007,   0.00031,   0.00013,  -0.00000,   2.00000
358595909.67775,529408692.85698,46743582.16638,   0.00067,   0.00203,   0.00074,477566682.81266,   0.00028,274948087.82121,   0.00007,   0.00032,   0.00013,   0.00000,   2.00000
359510581.17932,529254499.48772,46543727.43063,   0.00068,   0.00204,   0.00074,477562205.97872,   0.00029,274957415.13813,   0.00007,   0.00033,   0.00014,   0.00000,   2.00000
360420786.71238,529097136.37128,46346641.17824,   0.00068,   0.00205,   0.00074,477557665.57649,   0.00030,274966683.58736,   0.00008,   0.00034,   0.00014,   0.00000,   2.00000
361327744.23980,528938410.34146,46146996.01152,   0.00069,   0.00205,   0.00075,477551453.17504,   0.00031,274975887.56080,   0.00008,   0.00035,   0.00015,   0.00000,   2.00000
362240755.38822,528776989.19696,45941884.57334,   0.00070,   0.00206,   0.00075,477571054.04023,   0.00031,274985119.18192,   0.00008,   0.00036,   0.00015,  -0.00000,   2.00000
363149399.46049,528612371.37080,45739543.51908,   0.00071,   0.00207,   0.00075,477566473.17410,   0.00032,274994292.39527,   0.00008,   0.00037,   0.00015,   0.00000,   2.00000
364041719.64240,528447555.77976,45541070.00573,   0.00071,   0.00208,   0.00075,477551744.27399,   0.00033,275003371.64563,   0.00009,   0.00038,   0.00016,   0.00000,   2.00000
364940117.72349,528280013.33277,45337120.27771,   0.00072,   0.00208,   0.00075,477571293.93172,   0.00034,275012478.97240,   0.00009,   0.00039,   0.00016,   0.00000,   2.00000
365850501.25338,528106368.01663,45131223.83918,   0.00073,   0.00209,   0.00075,477559347.64650,   0.00035,275021502.51199,   0.00009,   0.00040,   0.00016,  -0.00000,   2.00000
366741732.91376,527934239.72150,44927432.91804,   0.00073,   0.00210,   0.00075,477560247.05203,   0.00036,275030488.36549,   0.00010,   0.00041,   0.00017,   0.00000,   2.00000
367640878.50902,527755869.95658,44725232.57111,   0.00074,   0.00210,   0.00075,477565620.20023,   0.00036,275039452.51000,   0.00010,   0.00042,   0.00017,   0.00000,   2.00000
368522181.78410,527580868.57093,44519802.48591,   0.00075,   0.00211,   0.00075,477564815.22896,   0.00037,275048373.36404,   0.00010,   0.00043,   0.00018,   0.00000,   2.00000
369412576.97302,527401295.92636,44310646.42454,   0.00076,   0.00212,   0.00075,477568631.24771,   0.00038,275057267.39338,   0.00010,   0.00044,   0.00018,   0.00000,   2.00000
370302268.77216,527216815.36062,44105905.72560,   0.00076,   0.00212,   0.00076,477548013.02656,   0.00039,275066048.62226,   0.00011,   0.00045,   0.00018,  -0.00000,   2.00000
371193473.88640,527029427.17211,43899322.21784,   0.00077,   0.00213,   0.00076,477584870.97349,   0.00040,275074920.11513,   0.00011,   0.00045,   0.00019,  -0.00000,   2.00000
372074616.86229,526843710.48003,43687578.26575,   0.00078,   0.00214,   0.00076,477550893.92634,   0.00041,275083632.16027,   0.00011,   0.00046,   0.00019,   0.00000,   2.00000
372959357.71024,526651629.73043,43481052.65941,   0.00078,   0.00214,   0.00076,477573498.12921,   0.00041,275092384.55394,   0.00011,   0.00047,   0.00019,  -0.00000,   2.00000
373829933.71625,526461332.17450,43272963.60065,   0.00079,   0.00215,   0.00076,477556635.62867,   0.00042,275101038.56194,   0.00012,   0.00048,   0.00020,   0.00000,   2.00000
374709642.23358,526266218.34849,43061095.31075,   0.00080,   0.00215,   0.00076,477560474.99335,   0.00043,275109667.28613,   0.00012,   0.00049,   0.00020,   0.00000,   2.00000
375585786.04981,526067896.95727,42851882.29461,   0.00081,   0.00216,   0.00076,477555426.73665,   0.00044,275118239.75302,   0.00012,   0.00050,   0.00020,   0.00000,   2.00000
376456172.78202,525869855.00390,42638324.78598,   0.00081,   0.00217,   0.00076,477564532.35776,   0.00044,275126805.86657,   0.00013,   0.00051,   0.00021,   0.00000,   2.00000
377326532.04167,525666766.51948,42429051.05779,   0.00082,   0.00217,   0.00076,477543734.43967,   0.00045,275135261.06392,   0.00013,   0.00052,   0.00021,  -0.00000,   2.00000
378191216.03771,525463967.52337,42215420.12632,   0.00083,   0.00218,   0.00076,477552734.86034,   0.00046,275143710.13531,   0.00013,   0.00053,   0.00021,   0.00000,   2.00000
379060475.88561,525256387.04562,42001698.44655,   0.00084,   0.00219,   0.00076,477573762.54095,   0.00047,275152195.08338,   0.00014,   0.00053,   0.00022,  -0.00000,   2.00000
379919694.41114,525048783.92476,41787960.93996,   0.00084,   0.00219,   0.00076,477540910.73437,   0.00048,275160527.82323,   0.00014,   0.00054,   0.00022,   0.00000,   2.00000
380783484.20460,524836370.84822,41574127.94804,   0.00085,   0.00220,   0.00076,477561876.77916,   0.00048,275168896.73374,   0.00014,   0.00055,   0.00022,   0.00000,   2.00000
381633973.58618,524625860.45380,41358634.09280,   0.00086,   0.00220,   0.00076,477544544.43988,   0.00049,275177168.35206,   0.00014,   0.00056,   0.00023,   0.00000,   2.00000
382492583.86999,524408576.50621,41144642.56189,   0.00087,   0.00221,   0.00076,477549858.84974,   0.00050,275185421.94811,   0.00015,   0.00057,   0.00023,  -0.00000,   2.00000
383349199.87546,524189626.57735,40927874.16953,   0.00087,   0.00221,   0.00076,477543101.64391,   0.00051,275193615.67378,   0.00015,   0.00058,   0.00023,   0.00000,   2.00000
384199192.06923,523969402.65904,40712104.09638,   0.00088,   0.00222,   0.00076,477553338.08279,   0.00051,275201808.91783,   0.00015,   0.00059,   0.00024,   0.00000,   2.00000
385050950.60668,523745496.26740,40495102.08537,   0.00089,   0.00223,   0.00076,477530939.29419,   0.00052,275209888.45822,   0.00016,   0.00059,   0.00024,   0.00000,   2.00000
385897230.24087,523521881.56263,40273744.32536,   0.00090,   0.00223,   0.00076,477539659.80615,   0.00053,275217962.79486,   0.00016,   0.00060,   0.00024,   0.00000,   2.00000
386736992.52219,523297025.76709,40053403.73860,   0.00090,   0.00224,   0.00076,477549769.83543,   0.00054,275226036.82244,   0.00016,   0.00061,   0.00024,   0.00000,   2.00000
387578771.64815,523068386.05014,39831790.53337,   0.00091,   0.00224,   0.00077,477527327.85947,   0.00054,275233997.91616,   0.00017,   0.00062,   0.00025,   0.00000,   2.00000
388424934.11481,522834777.42730,39610121.51731,   0.00092,   0.00225,   0.00077,477548204.47978,   0.00055,275241996.39159,   0.00017,   0.00063,   0.00025,   0.00000,   2.00000
389261309.83589,522599539.66593,39393547.83743,   0.00092,   0.00225,   0.00077,477516267.98421,   0.00056,275249849.76101,   0.00017,   0.00063,   0.00025,   0.00000,   2.00000
390093432.38678,522366121.57301,39167238.68687,   0.00093,   0.00226,   0.00077,477523421.05137,   0.00056,275257693.66798,   0.00018,   0.00064,   0.00026,   0.00000,   2.00000
390928853.47941,522126197.97192,38946255.30367,   0.00094,   0.00226,   0.00077,477545615.64909,   0.00057,275265580.02148,   0.00018,   0.00065,   0.00026,   0.00000,   2.00000
391756977.62771,521887624.24894,38719581.37271,   0.00095,   0.00227,   0.00076,477510831.07177,   0.00058,275273312.39211,   0.00018,   0.00066,   0.00026,   0.00000,   2.00000
392588384.34205,521642529.45069,38498233.16154,   0.00095,   0.00227,   0.00076,477532958.60061,   0.00059,275281087.44253,   0.00019,   0.00067,   0.00026,   0.00000,   2.00000
393408844.98585,521400919.49041,38269670.08543,   0.00096,   0.00228,   0.00076,477513586.49314,   0.00059,275288762.32519,   0.00019,   0.00067,   0.00027,  -0.00000,   2.00000
394237522.93388,521152038.54304,38042546.18897,   0.00097,   0.00228,   0.00076,477518869.88619,   0.00060,275296422.22625,   0.00019,   0.00068,   0.00027,   0.00000,   2.00000
395053354.64258,520903714.09998,37818917.64647,   0.00098,   0.00229,   0.00076,477502038.82909,   0.00061,275303991.43326,   0.00019,   0.00069,   0.00027,   0.00000,   2.00000
395878470.53327,520649504.52520,37591315.91334,   0.00098,   0.00229,   0.00076,477505975.21856,   0.00061,275311541.57568,   0.00020,   0.00070,   0.00028,  -0.00000,   2.00000
396698372.46265,520395569.28020,37359351.38873,   0.00099,   0.00230,   0.00076,477514311.30432,   0.00062,275319087.85500,   0.00020,   0.00070,   0.00028,   0.00000,   2.00000
397505717.61235,520142224.06482,37130860.43779,   0.00100,   0.00230,   0.00076,477497320.23337,   0.00063,275326543.69685,   0.00020,   0.00071,   0.00028,  -0.00000,   2.00000
398321338.18400,519881449.56365,36903759.97661,   0.00101,   0.00231,   0.00076,477502567.62727,   0.00063,275333985.60076,   0.00021,   0.00072,   0.00028,   0.00000,   2.00000
399136901.00256,519620040.87760,36668311.31723,   0.00101,   0.00231,   0.00076,477494106.88138,   0.00064,275341366.78121,   0.00021,   0.00073,   0.00029,  -0.00000,   2.00000
399939171.00625,519357844.56711,36441667.03003,   0.00102,   0.00232,   0.00076,477478196.40284,   0.00065,275348662.24129,   0.00021,   0.00073,   0.00029,   0.00000,   2.00000
400747662.18793,519093233.78625,36204242.11441,   0.00103,   0.00232,   0.00076,477496283.36370,   0.00066,275355988.34514,   0.00022,   0.00074,   0.00029,   0.00000,   2.00000
401558314.84122,518822740.67992,35970593.91670,   0.00104,   0.00233,   0.00076,477474924.78846,   0.00066,275363210.49927,   0.00022,   0.00075,   0.00029,   0.00000,   2.00000
402362914.49508,518551132.45986,35737946.19615,   0.00104,   0.00233,   0.00076,477484261.09229,   0.00067,275370433.83036,   0.00022,   0.00076,   0.00030,   0.00000,   2.00000
403156622.95027,518281538.22869,35503271.07252,   0.00105,   0.00234,   0.00076,477465615.45450,   0.00067,275377563.18337,   0.00023,   0.00076,   0.00030,   0.00000,   2.00000
403955442.36361,518008028.92678,35263223.52003,   0.00106,   0.00234,   0.00076,477484956.47860,   0.00068,275384728.16640,   0.00023,   0.00077,   0.00030,   0.00000,   2.00000
404746754.41190,517732715.32773,35027864.02380,   0.00107,   0.00234,   0.00076,477452123.56190,   0.00069,275391751.42197,   0.00023,   0.00078,   0.00030,   0.00000,   2.00000
405542142.84694,517452107.61907,34792510.50447,   0.00107,   0.00235,   0.00076,477472653.52710,   0.00069,275398814.80859,   0.00024,   0.00079,   0.00031,   0.00000,   2.00000
406337832.87193,517170555.50030,34548699.89374,   0.00108,   0.00235,   0.00076,477464088.85137,   0.00070,275405819.42739,   0.00024,   0.00079,   0.00031,  -0.00000,   2.00000
407121087.44483,516888360.23485,34313587.38466,   0.00109,   0.00236,   0.00076,477447622.86783,   0.00071,275412738.91195,   0.00024,   0.00080,   0.00031,   0.00000,   2.00000
407914605.58768,516600867.02041,34069002.36066,   0.00110,   0.00236,   0.00075,477450449.51918,   0.00071,275419638.95769,   0.00025,   0.00081,   0.00031,   0.00000,   2.00000
408696836.38227,516314030.55468,33827691.04215,   0.00110,   0.00236,   0.00075,477432672.18144,   0.00072,275426450.03486,   0.00025,   0.00081,   0.00031,  -0.00000,   2.00000
409483029.72121,516021805.23500,33586414.29014,   0.00111,   0.00237,   0.00075,477453147.26883,   0.00073,275433301.91775,   0.00025,   0.00082,   0.00032,   0.00000,   2.00000
410259088.43026,515731540.84355,33342973.05604,   0.00112,   0.00237,   0.00075,477434113.13982,   0.00073,275440060.99184,   0.00026,   0.00083,   0.00032,  -0.00000,   2.00000
411034798.79554,515438855.46280,33096396.99704,   0.00113,   0.00238,   0.00075,477426563.98587,   0.00074,275446766.50251,   0.00026,   0.00083,   0.00032,   0.00000,   2.00000
411818797.17258,515138057.19837,32851127.46212,   0.00113,   0.00238,   0.00075,477431784.76286,   0.00074,275453461.77321,   0.00026,   0.00084,   0.00032,   0.00000,   2.00000
412592887.54049,514839167.76768,32603642.26988,   0.00114,   0.00238,   0.00075,477412615.37625,   0.00075,275460064.71237,   0.00027,   0.00085,   0.00032,  -0.00000,   2.00000
413361343.68808,514539237.03274,32357160.97873,   0.00115,   0.00239,   0.00075,477421352.08526,   0.00076,275466669.81143,   0.00027,   0.00085,   0.00033,   0.00000,   2.00000
414134052.54504,514234030.71669,32108708.69232,   0.00115,   0.00239,   0.00075,477398545.65246,   0.00076,275473170.90337,   0.00027,   0.00086,   0.00033,   0.00000,   2.00000
414902087.59930,513928979.36677,31855849.51003,   0.00116,   0.00239,   0.00075,477406092.20581,   0.00077,275479670.60032,   0.00028,   0.00087,   0.00033,   0.00000,   2.00000
415669037.87688,513620103.93587,31605200.53089,   0.00117,   0.00240,   0.00074,477399564.52587,   0.00077,275486121.64934,   0.00028,   0.00087,   0.00033,  -0.00000,   2.00000
416434946.29803,513307390.61307,31356734.88406,   0.00118,   0.00240,   0.00074,477393003.44709,   0.00078,275492524.21008,   0.00028,   0.00088,   0.00033,   0.00000,   2.00000
417200767.42035,512991994.68355,31105020.18487,   0.00118,   0.00240,   0.00074,477385326.33030,   0.00079,275498874.78854,   0.00029,   0.00088,   0.00034,  -0.00000,   2.00000
417952756.98679,512681284.76100,30849799.10290,   0.00119,   0.00241,   0.00074,477380937.00797,   0.00079,275505184.73485,   0.00029,   0.00089,   0.00034,   0.00000,   2.00000
418713981.65864,512363259.71815,30590425.28334,   0.00120,   0.00241,   0.00074,477385046.67501,   0.00080,275511482.69027,   0.00029,   0.00090,   0.00034,   0.00000,   2.00000
419474290.57230,512041283.87986,30333214.31619,   0.00121,   0.00241,   0.00074,477378423.88974,   0.00080,275517732.81498,   0.00030,   0.00090,   0.00034,  -0.00000,   2.00000
420224647.40850,511719957.95393,30079031.33794,   0.00121,   0.00242,   0.00074,477359851.72196,   0.00081,275523895.43910,   0.00030,   0.00091,   0.00034,  -0.00000,   2.00000
420984191.92966,511391156.19232,29820650.71543,   0.00122,   0.00242,   0.00073,477363982.94647,   0.00082,275530046.85725,   0.00030,   0.00091,   0.00035,  -0.00000,   2.00000
421734811.45009,511064088.73642,29559841.68020,   0.00123,   0.00242,   0.00073,477344284.61118,   0.00082,275536107.57033,   0.00031,   0.00092,   0.00035,   0.00000,   2.00000
422480075.96966,510735982.66244,29300028.17823,   0.00124,   0.00243,   0.00073,477352544.31380,   0.00083,275542171.39552,   0.00031,   0.00093,   0.00035,   0.00000,   2.00000
423230253.22697,510401893.14741,29037968.80408,   0.00124,   0.00243,   0.00073,477329672.12574,   0.00083,275548134.45909,   0.00031,   0.00093,   0.00035,   0.00000,   2.00000
423975095.06894,510066753.06652,28776895.41297,   0.00125,   0.00243,   0.00073,477337862.13754,   0.00084,275554100.84289,   0.00032,   0.00094,   0.00035,   0.00000,   2.00000
424720207.86632,509728576.43332,28512454.73659,   0.00126,   0.00243,   0.00073,477330017.69036,   0.00084,275560017.12707,   0.00032,   0.00094,   0.00035,  -0.00000,   2.00000
425460866.46048,509390415.71759,28243584.95641,   0.00127,   0.00244,   0.00072,477337182.11731,   0.00085,275565933.54649,   0.00032,   0.00095,   0.00036,   0.00000,   2.00000
426197016.04849,509049711.73371,27978665.41159,   0.00127,   0.00244,   0.00072,477303213.90725,   0.00085,275571713.30746,   0.00033,   0.00095,   0.00036,   0.00000,   2.00000
426942271.05470,508701076.66688,27709492.42674,   0.00128,   0.00244,   0.00072,477307395.41186,   0.00086,275577483.87293,   0.00033,   0.00096,   0.00036,   0.00000,   2.00000
427673598.71424,508356159.53600,27442140.82353,   0.00129,   0.00244,   0.00072,477303287.70949,   0.00086,275583217.82524,   0.00033,   0.00097,   0.00036,  -0.00000,   2.00000
428405398.28157,508008021.57672,27171356.32406,   0.00129,   0.00245,   0.00072,477295335.48427,   0.00087,275588902.58578,   0.00034,   0.00097,   0.00036,   0.00000,   2.00000
429146227.25277,507651780.79802,26896313.51981,   0.00130,   0.00245,   0.00071,477299594.97826,   0.00087,275594578.88830,   0.00034,   0.00098,   0.00036,   0.00000,   2.00000
429878121.45549,507296029.38078,26624076.03110,   0.00131,   0.00245,   0.00071,477280419.67591,   0.00088,275600169.12644,   0.00034,   0.00098,   0.00037,  -0.00000,   2.00000
430596404.56778,506944075.75689,26353622.71188,   0.00132,   0.00245,   0.00071,477276026.11905,   0.00089,275605722.76201,   0.00035,   0.00099,   0.00037,   0.00000,   2.00000
431329420.67094,506581540.52413,26074412.58541,   0.00132,   0.00246,   0.00071,477264450.79745,   0.00089,275611216.13592,   0.00035,   0.00099,   0.00037,   0.00000,   2.00000
432057278.79176,506217903.02570,25796192.10534,   0.00133,   0.00246,   0.00070,477272274.53542,   0.00090,275616713.77816,   0.00035,   0.00100,   0.00037,  -0.00000,   2.00000
432776575.04477,505854720.77753,25520694.37155,   0.00134,   0.00246,   0.00070,477252873.75767,   0.00090,275622125.67929,   0.00035,   0.00100,   0.00037,   0.00000,   2.00000
433504834.15998,505483105.24418,25240883.62243,   0.00134,   0.00246,   0.00070,477257174.28482,   0.00091,275627530.56982,   0.00036,   0.00101,   0.00037,   0.00000,   2.00000
434225425.59927,505112822.54341,24958310.92595,   0.00135,   0.00246,   0.00070,477236827.88929,   0.00091,275632847.10258,   0.00036,   0.00101,   0.00037,   0.00000,   2.00000
434940986.36469,504741445.14047,24676716.02100,   0.00136,   0.00247,   0.00070,477244472.94286,   0.00092,275638168.14317,   0.00036,   0.00102,   0.00037,  -0.00000,   2.00000
435662217.36129,504362930.44149,24392462.75279,   0.00137,   0.00247,   0.00069,477221614.23841,   0.00092,275643393.02270,   0.00037,   0.00102,   0.00038,   0.00000,   2.00000
436370306.69049,503988274.31319,24109927.40993,   0.00137,   0.00247,   0.00069,477216752.61749,   0.00092,275648581.59677,   0.00037,   0.00103,   0.00038,   0.00000,   2.00000
437087290.76550,503604895.32069,23823045.76944,   0.00138,   0.00247,   0.00069,477221098.37015,   0.00093,275653764.36745,   0.00037,   0.00103,   0.00038,  -0.00000,   2.00000
437796973.80442,503222702.90136,23533295.98866,   0.00139,   0.00247,   0.00069,477200562.31190,   0.00093,275658859.44449,   0.00038,   0.00104,   0.00038,   0.00000,   2.00000
438514730.96172,502830773.08204,23244646.62720,   0.00139,   0.00248,   0.00068,477205779.33501,   0.00094,275663952.01007,   0.00038,   0.00104,   0.00038,   0.00000,   2.00000
439220257.28498,502443581.68521,22952233.56512,   0.00140,   0.00248,   0.00068,477199943.64992,   0.00094,275669005.76353,   0.00038,   0.00105,   0.00038,  -0.00000,   2.00000
439926629.26495,502052449.62178,22656181.33412,   0.00141,   0.00248,   0.00068,477191849.02636,   0.00095,275674013.46854,   0.00039,   0.00105,   0.00038,  -0.00000,   2.00000
440630342.91523,501657858.33502,22363458.96623,   0.00142,   0.00248,   0.00067,477157228.83226,   0.00095,275678888.19391,   0.00039,   0.00106,   0.00038,   0.00000,   2.00000
441337028.26564,501257042.82293,22070983.20860,   0.00142,   0.00248,   0.00067,477177119.28848,   0.00096,275683809.60531,   0.00039,   0.00106,   0.00039,   0.00000,   2.00000
442036814.37319,500857219.29772,21775494.32917,   0.00143,   0.00248,   0.00067,477156379.48800,   0.00096,275688644.14605,   0.00040,   0.00107,   0.00039,   0.00000,   2.00000
442740175.64207,500451934.31991,21474819.15447,   0.00144,   0.00248,   0.00067,477175544.24277,   0.00097,275693523.14705,   0.00040,   0.00107,   0.00039,   0.00000,   2.00000
443441834.34984,500043750.77978,21171888.97048,   0.00144,   0.00248,   0.00066,477140142.92112,   0.00097,275698267.48921,   0.00040,   0.00107,   0.00039,  -0.00000,   2.00000
444138640.54774,499634360.65254,20869916.25954,   0.00145,   0.00249,   0.00066,477147364.92221,   0.00098,275703017.51739,   0.00040,   0.00108,   0.00039,   0.00000,   2.00000
444828162.22764,499225057.81035,20570309.96784,   0.00146,   0.00249,   0.00066,477127212.71089,   0.00098,275707683.57188,   0.00041,   0.00108,   0.00039,   0.00000,   2.00000
445526934.72927,498807025.32711,20260813.36486,   0.00147,   0.00249,   0.00065,477131041.35995,   0.00098,275712344.53622,   0.00041,   0.00109,   0.00039,  -0.00000,   2.00000
446217864.88819,498388256.48477,19959112.15083,   0.00147,   0.00249,   0.00065,477111546.51448,   0.00099,275716924.15434,   0.00041,   0.00109,   0.00039,   0.00000,   2.00000
446910477.05042,497965761.57337,19648129.29071,   0.00148,   0.00249,   0.00065,477102651.51088,   0.00099,275721457.46342,   0.00042,   0.00110,   0.00039,   0.00000,   2.00000
447598308.23347,497542015.63668,19338094.77456,   0.00149,   0.00249,   0.00065,477109715.19805,   0.00100,275725996.88450,   0.00042,   0.00110,   0.00039,   0.00000,   2.00000
448287183.20035,497113714.08828,19024238.14300,   0.00149,   0.00249,   0.00064,477101556.44165,   0.00100,275730492.66177,   0.00042,   0.00110,   0.00039,   0.00000,   2.00000
448976483.60403,496680102.85944,18712016.10449,   0.00150,   0.00249,   0.00064,477094067.46807,   0.00100,275734947.20072,   0.00043,   0.00111,   0.00040,  -0.00000,   2.00000
449659533.11918,496247027.33430,18396529.98977,   0.00151,   0.00249,   0.00064,477073030.41674,   0.00101,275739316.47187,   0.00043,   0.00111,   0.00040,   0.99849,   1.00000
450343101.41618,495808557.89807,18082634.94872,   0.00151,   0.00249,   0.00063,477065452.72093,   0.00101,275743644.79846,   0.00043,   0.00112,   0.00040,   0.94541,   1.00000
451027775.81772,495365300.57635,17764836.23474,   0.00152,   0.00249,   0.00063,477057246.19241,   0.00102,275747930.32360,   0.00043,   0.00112,   0.00040,   0.89344,   1.00000
451708293.47471,494921364.60556,17442492.34131,   0.00153,   0.00249,   0.00063,477063531.06838,   0.00102,275752220.51319,   0.00044,   0.00112,   0.00040,   0.86254,   1.00000
452382233.23166,494477157.06226,17122269.08344,   0.00153,   0.00249,   0.00062,477042991.72387,   0.00102,275756427.95635,   0.00044,   0.00113,   0.00040,   0.79881,   1.00000
453064414.88215,494022742.87858,16797553.91735,   0.00154,   0.00250,   0.00062,477047771.77992,   0.00103,275760635.50363,   0.00044,   0.00113,   0.00040,   0.76826,   1.00000
453740640.04026,493568564.14644,16469432.13068,   0.00155,   0.00250,   0.00061,477026618.28295,   0.00103,275764758.72811,   0.00045,   0.00113,   0.00040,   0.70904,   1.00000
454412186.59892,493113021.13893,16142238.45270,   0.00155,   0.00250,   0.00061,477033401.26017,   0.00104,275768888.96477,   0.00045,   0.00114,   0.00040,   0.68336,   1.00000
455090174.48182,492648007.45245,15811638.55162,   0.00156,   0.00250,   0.00061,477010851.87308,   0.00104,275772930.74617,   0.00045,   0.00114,   0.00040,   0.62779,   1.00000
455756566.62796,492186887.56375,15482465.71455,   0.00157,   0.00250,   0.00060,477004507.66389,   0.00104,275776937.19820,   0.00045,   0.00115,   0.00040,   0.59161,   1.00000
456424167.63754,491720529.35044,15149269.98465,   0.00158,   0.00250,   0.00060,476996289.71910,   0.00105,275780902.39536,   0.00046,   0.00115,   0.00040,   0.55518,   1.00000
457099267.45011,491243001.43815,14817032.31871,   0.00158,   0.00250,   0.00060,477001762.74357,   0.00105,275784871.03080,   0.00046,   0.00115,   0.00040,   0.53220,   1.00000
457762413.41040,490771251.25683,14476221.40317,   0.00159,   0.00250,   0.00059,476966824.37143,   0.00105,275788711.81282,   0.00046,   0.00116,   0.00040,   0.47666,   1.00000
458427220.93205,490292206.66543,14141333.77392,   0.00160,   0.00250,   0.00059,476987083.27239,   0.00106,275792604.58683,   0.00047,   0.00116,   0.00040,   0.46791,   1.00000
459093650.30681,489808175.78337,13796883.20087,   0.00160,   0.00250,   0.00058,476978472.12010,   0.00106,275796455.41780,   0.00047,   0.00116,   0.00041,   0.43695,   1.00000
459754114.98932,489323422.21790,13454286.02908,   0.00161,   0.00250,   0.00058,476957624.92948,   0.00106,275800224.79294,   0.00047,   0.00117,   0.00041,   0.39929,   1.00000
460415332.61677,488832565.98693,13113060.02198,   0.00162,   0.00250,   0.00058,476949925.64611,   0.00107,275803955.73165,   0.00047,   0.00117,   0.00041,   0.37277,   1.00000
461078153.97527,488336469.94585,12762209.77695,   0.00162,   0.00249,   0.00057,476941336.99608,   0.00107,275807645.52076,   0.00048,   0.00117,   0.00041,   0.34693,   1.00000
461729400.52899,487843751.86386,12418168.50820,   0.00163,   0.00249,   0.00057,476935021.22418,   0.00108,275811301.74091,   0.00048,   0.00118,   0.00041,   0.32415,   1.00000
462387669.36153,487340938.95031,12064897.53546,   0.00164,   0.00249,   0.00056,476912231.28021,   0.00108,275814871.12868,   0.00048,   0.00118,   0.00041,   0.29348,   1.00000
463041323.42773,486836538.87280,11712514.70312,   0.00164,   0.00249,   0.00056,476918688.26897,   0.00108,275818448.85031,   0.00048,   0.00118,   0.00041,   0.27995,   1.00000
463696149.66453,486326173.85967,11355937.53907,   0.00165,   0.00249,   0.00056,476910585.09259,   0.00109,275821987.72214,   0.00049,   0.00118,   0.00041,   0.25977,   1.00000
464346347.75289,485814210.16063,11000254.45116,   0.00166,   0.00249,   0.00055,476917042.41774,   0.00109,275825535.09600,   0.00049,   0.00119,   0.00041,   0.24744,   1.00000
464996808.63326,485296687.62910,10641090.03010,   0.00166,   0.00249,   0.00055,476881464.07038,   0.00109,275828954.83449,   0.00049,   0.00119,   0.00041,   0.21780,   1.00000
465648922.38493,484772120.16555,10282452.68655,   0.00167,   0.00249,   0.00054,476901263.75427,   0.00109,275832426.75152,   0.00049,   0.00119,   0.00041,   0.21249,   1.00000
466289734.26609,484252141.76706,9920232.51285,   0.00167,   0.00249,   0.00054,476866358.57994,   0.00110,275835773.61003,   0.00050,   0.00120,   0.00041,   0.18688,   1.00000
466937914.80225,483720450.08009,9553400.91797,   0.00168,   0.00249,   0.00053,476871720.12672,   0.00110,275839126.21445,   0.00050,   0.00120,   0.00041,   0.17730,   1.00000
467581766.68322,483187386.87275,9181957.87251,   0.00169,   0.00249,   0.00053,476877776.40506,   0.00110,275842486.82245,   0.00050,   0.00120,   0.00041,   0.16839,   1.00000
468225750.80074,482647911.90077,8812333.38547,   0.00169,   0.00249,   0.00053,476842590.39854,   0.00111,275845722.02725,   0.00050,   0.00120,   0.00041,   0.14753,   1.00000
468865128.81489,482106696.27405,8443570.52357,   0.00170,   0.00249,   0.00052,476848877.02232,   0.00111,275848966.45451,   0.00051,   0.00121,   0.00041,   0.14034,   1.00000
469505623.59523,481558902.94121,8070460.58847,   0.00171,   0.00249,   0.00052,476840889.02920,   0.00111,275852173.94174,   0.00051,   0.00121,   0.00041,   0.12976,   1.00000
470135814.83296,481015058.51836,7692984.46903,   0.00171,   0.00248,   0.00051,476833324.73106,   0.00112,275855346.02687,   0.00051,   0.00121,   0.00041,   0.12019,   1.00000
470772575.41649,480459274.40189,7311395.30660,   0.00172,   0.00248,   0.00051,476811397.88252,   0.00112,275858436.44013,   0.00051,   0.00121,   0.00041,   0.10811,   1.00000
471404710.45711,479901656.75869,6930666.06037,   0.00173,   0.00248,   0.00050,476817633.62973,   0.00112,275861536.52767,   0.00052,   0.00122,   0.00041,   0.10330,   1.00000
472037680.11808,479336928.83985,6551029.62351,   0.00173,   0.00248,   0.00050,476809954.78488,   0.00112,275864601.32304,   0.00052,   0.00122,   0.00041,   0.09608,   1.00000
472671684.39619,478765247.27716,6166963.16668,   0.00174,   0.00248,   0.00049,476802071.75884,   0.00113,275867630.32207,   0.00052,   0.00122,   0.00041,   0.08952,   1.00000
473300947.36652,478191960.81722,5778653.36101,   0.00175,   0.00248,   0.00049,476780539.37511,   0.00113,275870579.58769,   0.00052,   0.00122,   0.00041,   0.08121,   1.00000
473925767.19298,477616956.88625,5385688.90551,   0.00175,   0.00248,   0.00048,476786520.51813,   0.00113,275873538.30433,   0.00053,   0.00123,   0.00041,   0.07851,   1.00000
474551399.12741,477034582.37845,4993760.02138,   0.00176,   0.00247,   0.00048,476778882.60120,   0.00114,275876462.48363,   0.00053,   0.00123,   0.00041,   0.07400,   1.00000
475177987.29214,476444935.95341,4597341.87605,   0.00176,   0.00247,   0.00047,476771097.77099,   0.00114,275879351.80157,   0.00053,   0.00123,   0.00041,   0.07006,   1.00000
475794321.95223,475858773.36806,4201923.80618,   0.00177,   0.00247,   0.00047,476763515.58395,   0.00114,275882207.06511,   0.00053,   0.00123,   0.00041,   0.06674,   1.00000
476417090.58169,475259628.53769,3802112.55897,   0.00178,   0.00247,   0.00046,476741962.25148,   0.00114,275884983.30798,   0.00054,   0.00124,   0.00041,   0.06193,   1.00000
477035172.78423,474658452.96287,3403135.05440,   0.00178,   0.00247,   0.00046,476748093.85868,   0.00115,275887770.22072,   0.00054,   0.00124,   0.00041,   0.06166,   1.00000
477648717.24984,474055160.31950,2999701.29751,   0.00179,   0.00247,   0.00045,476726543.65540,   0.00115,275890478.42143,   0.00054,   0.00124,   0.00041,   0.05793,   1.00000
478263092.29826,473444458.66281,2591501.33791,   0.00180,   0.00246,   0.00045,476746389.03393,   0.00115,275893241.85335,   0.00054,   0.00124,   0.00041,   0.06044,   1.00000
478878380.59516,472825717.72633,2178881.78045,   0.00180,   0.00246,   0.00044,476711233.68394,   0.00115,275895882.79449,   0.00054,   0.00125,   0.00041,   0.05571,   1.00000
479488929.09191,472204832.96604,1767093.71232,   0.00181,   0.00246,   0.00044,476717346.91059,   0.00116,275898534.91421,   0.00055,   0.00125,   0.00041,   0.05711,   1.00000
480094948.39980,471581441.53583,1356236.47701,   0.00181,   0.00246,   0.00043,476695884.86119,   0.00116,275901109.18058,   0.00055,   0.00125,   0.00041,   0.05506,   1.00000
480701542.51595,470950500.55094,940655.87708,   0.00182,   0.00246,   0.00043,476715829.67099,   0.00116,275903739.55978,   0.00055,   0.00125,   0.00041,   0.05921,   1.00000
481309121.54639,470311025.39857,520469.88423,   0.00183,   0.00245,   0.00042,476680781.17108,   0.00116,275906248.35215,   0.00055,   0.00125,   0.00041,   0.05581,   1.00000
481911928.81023,469669318.76429,95597.62721,   0.00183,   0.00245,   0.00042,476686854.50431,   0.00117,275908768.74701,   0.00056,   0.00126,   0.00041,   0.05868,   1.00000
482510301.88648,469024802.92030,-328462.28930,   0.00184,   0.00245,   0.00041,476665390.65588,   0.00117,275911211.82339,   0.00056,   0.00126,   0.00041,   0.05769,   1.00000
483103932.55596,468378035.47084,-751710.46520,   0.00184,   0.00245,   0.00040,476671408.65146,   0.00117,275913666.59447,   0.00056,   0.00126,   0.00041,   0.06118,   1.00000
483708637.24856,467711304.09256,-1185188.85962,   0.00185,   0.00245,   0.00040,476664558.97115,   0.00117,275916091.50606,   0.00056,   0.00126,   0.00041,   0.06300,   1.00000
484298548.64784,467053134.19384,-1612444.77167,   0.00186,   0.00244,   0.00039,476642506.90949,   0.00117,275918437.57758,   0.00056,   0.00126,   0.00041,   0.06233,   1.00000
484888500.52825,466387096.79146,-2049840.91767,   0.00186,   0.00244,   0.00039,476662713.86914,   0.00118,275920841.57610,   0.00057,   0.00126,   0.00041,   0.06936,   1.00000
485479574.18438,465711664.92700,-2486653.22448,   0.00187,   0.00244,   0.00038,476627829.82471,   0.00118,275923125.39670,   0.00057,   0.00127,   0.00041,   0.06648,   1.00000
486065693.91853,465033726.91747,-2928168.31342,   0.00187,   0.00244,   0.00038,476633960.54567,   0.00118,275925421.93770,   0.00057,   0.00127,   0.00041,   0.07147,   1.00000
486652365.06994,464347042.72468,-3368977.71655,   0.00188,   0.00243,   0.00037,476626632.05246,   0.00118,275927687.70288,   0.00057,   0.00127,   0.00041,   0.07405,   1.00000
487239419.82279,463651410.18113,-3814608.02645,   0.00189,   0.00243,   0.00036,476619464.34372,   0.00119,275929923.33495,   0.00057,   0.00127,   0.00041,   0.07680,   1.00000
487816802.98081,462958696.27057,-4259575.92714,   0.00189,   0.00243,   0.00036,476611359.78713,   0.00119,275932125.91899,   0.00058,   0.00127,   0.00041,   0.07937,   1.00000
488394548.21301,462256888.37540,-4709400.01569,   0.00190,   0.00243,   0.00035,476604221.57103,   0.00119,275934298.70671,   0.00058,   0.00127,   0.00041,   0.08227,   1.00000
488972572.13725,461545865.91480,-5164092.01763,   0.00190,   0.00242,   0.00035,476597161.20453,   0.00119,275936442.06743,   0.00058,   0.00128,   0.00041,   0.08529,   1.00000
489545598.60256,460832270.44894,-5617973.00398,   0.00191,   0.00242,   0.00034,476603252.32865,   0.00119,275938598.64534,   0.00058,   0.00128,   0.00041,   0.09192,   1.00000
490114253.77937,460114692.31368,-6076958.23003,   0.00192,   0.00242,   0.00033,476582026.60512,   0.00120,275940680.06596,   0.00058,   0.00128,   0.00041,   0.09110,   1.00000
490683071.26041,459387626.89351,-6540858.12307,   0.00192,   0.00241,   0.00033,476575082.24722,   0.00120,275942732.78044,   0.00058,   0.00128,   0.00041,   0.09424,   1.00000
491252213.42608,458651181.84805,-7004181.69145,   0.00193,   0.00241,   0.00032,476567977.28172,   0.00120,275944756.37843,   0.00059,   0.00128,   0.00041,   0.09736,   1.00000
491811577.00471,457917163.33462,-7472474.12183,   0.00193,   0.00241,   0.00032,476559988.22883,   0.00120,275946748.10146,   0.00059,   0.00128,   0.00041,   0.10013,   1.00000
492375652.55811,457168286.24639,-7939939.99406,   0.00194,   0.00240,   0.00031,476567259.06033,   0.00120,275948757.48385,   0.00059,   0.00128,   0.00041,   0.10815,   1.00000
492929938.91354,456421759.49081,-8412396.62454,   0.00194,   0.00240,   0.00030,476559308.58250,   0.00120,275950735.19703,   0.00059,   0.00129,   0.00041,   0.11103,   1.00000
493489807.05556,455658679.36925,-8884622.89309,   0.00195,   0.00240,   0.00030,476539219.97044,   0.00121,275952642.02956,   0.00059,   0.00129,   0.00041,   0.10934,   1.00000
494039893.85789,454897807.90366,-9361893.21616,   0.00196,   0.00240,   0.00029,476531234.73630,   0.00121,275954517.42054,   0.00059,   0.00129,   0.00041,   0.11189,   1.00000
494584494.88438,454133806.16363,-9843868.17465,   0.00196,   0.00239,   0.00028,476537643.41543,   0.00121,275956408.14770,   0.00060,   0.00129,   0.00041,   0.12018,   1.00000
495134555.17878,453352856.13575,-10325704.82959,   0.00197,   0.00239,   0.00028,476517721.92988,   0.00121,275958228.80307,   0.00060,   0.00129,   0.00041,   0.11771,   1.00000
495673689.77292,452575770.90441,-10811893.89590,   0.00197,   0.00239,   0.00027,476537212.65083,   0.00121,275960107.46681,   0.00060,   0.00129,   0.00041,   0.13220,   1.00000
496217767.70973,451781135.49356,-11303488.72062,   0.00198,   0.00238,   0.00026,476517842.35060,   0.00121,275961917.88761,   0.00060,   0.00129,   0.00041,   0.12944,   1.00000
496752432.19340,450988805.50127,-11794697.37503,   0.00198,   0.00238,   0.00026,476509536.88808,   0.00122,275963696.18502,   0.00060,   0.00130,   0.00041,   0.13149,   1.00000
497286647.19006,450185865.19382,-12290991.91529,   0.00199,   0.00237,   0.00025,476503195.55552,   0.00122,275965448.84908,   0.00060,   0.00130,   0.00041,   0.13438,   1.00000
497820772.77032,449372594.23455,-12786888.20177,   0.00200,   0.00237,   0.00024,476496506.96752,   0.00122,275967174.84121,   0.00061,   0.00130,   0.00041,   0.13700,   1.00000
498349034.55797,448555860.28562,-13287470.48592,   0.00200,   0.00237,   0.00024,476503175.69673,   0.00122,275968917.68148,   0.00061,   0.00130,   0.00041,   0.14670,   1.00000
498873189.98587,447733880.80422,-13788174.70730,   0.00201,   0.00236,   0.00023,476482000.31713,   0.00122,275970586.77617,   0.00061,   0.00130,   0.00041,   0.14114,   1.00000
499396646.76960,446900883.17478,-14294024.99861,   0.00201,   0.00236,   0.00022,476475884.42359,   0.00122,275972231.33970,   0.00061,   0.00130,   0.00041,   0.14365,   1.00000
499914097.06839,446064274.97055,-14804556.78876,   0.00202,   0.00236,   0.00022,476482636.92060,   0.00123,275973893.35465,   0.00061,   0.00130,   0.00041,   0.15367,   1.00000
500427424.97756,445222116.11143,-15315312.42807,   0.00202,   0.00235,   0.00021,476461522.12447,   0.00123,275975482.01579,   0.00061,   0.00130,   0.00041,   0.14691,   1.00000
500938469.97498,444371113.76573,-15830169.05959,   0.00203,   0.00235,   0.00020,476482964.45647,   0.00123,275977136.23471,   0.00062,   0.00130,   0.00041,   0.16656,   1.00000
501450514.90007,443506683.71395,-16345821.94815,   0.00203,   0.00235,   0.00020,476449253.46820,   0.00123,275978676.01863,   0.00062,   0.00130,   0.00041,   0.15079,   1.00000
501951201.79219,442646200.64697,-16865617.68000,   0.00204,   0.00234,   0.00019,476468789.65378,   0.00123,275980275.39161,   0.00062,   0.00131,   0.00041,   0.16980,   1.00000
502452242.80089,441771450.75157,-17391795.84789,   0.00204,   0.00234,   0.00018,476435744.55546,   0.00123,275981762.57279,   0.00062,   0.00131,   0.00041,   0.15316,   1.00000
502951252.02733,440888248.74640,-17916499.65009,   0.00205,   0.00233,   0.00018,476456815.75140,   0.00123,275983314.62456,   0.00062,   0.00131,   0.00041,   0.17389,   1.00000
503440280.25146,440006242.59941,-18446520.08658,   0.00206,   0.00233,   0.00017,476449100.50177,   0.00124,275984837.32516,   0.00062,   0.00131,   0.00041,   0.17430,   1.00000
503933760.27533,439104958.39857,-18976886.46122,   0.00206,   0.00232,   0.00016,476430408.39102,   0.00124,275986294.86061,   0.00062,   0.00131,   0.00041,   0.16625,   1.00000
504412164.03186,438212728.75692,-19512012.00054,   0.00207,   0.00232,   0.00015,476435203.63468,   0.00124,275987764.25345,   0.00063,   0.00131,   0.00041,   0.17568,   1.00000
504898408.51091,437295925.06956,-20046803.18598,   0.00207,   0.00232,   0.00015,476431442.63727,   0.00124,275989217.49053,   0.00063,   0.00131,   0.00041,   0.17862,   1.00000
505374572.79698,436380034.58564,-20586982.30240,   0.00208,   0.00231,   0.00014,476423811.27167,   0.00124,275990641.93545,   0.00063,   0.00131,   0.00041,   0.17824,   1.00000
505849100.66459,435451817.23986,-21132439.37907,   0.00208,   0.00231,   0.00013,476418592.05713,   0.00124,275992045.58314,   0.00063,   0.00131,   0.00041,   0.17966,   1.00000
506317694.12224,434520069.77796,-21677040.12452,   0.00209,   0.00230,   0.00012,476425117.79719,   0.00124,275993467.04030,   0.00063,   0.00131,   0.00041,   0.19111,   1.00000
506781139.02584,433580766.87825,-22227751.96257,   0.00209,   0.00230,   0.00012,476405183.33032,   0.00125,275994819.38571,   0.00063,   0.00131,   0.00041,   0.17931,   1.00000
507238619.07284,432637889.66387,-22777607.98094,   0.00210,   0.00230,   0.00011,476411705.20334,   0.00125,275996189.72686,   0.00063,   0.00132,   0.00041,   0.19071,   1.00000
507694180.43164,431682317.04546,-23332774.22159,   0.00210,   0.00229,   0.00010,476406761.34406,   0.00125,275997540.34101,   0.00063,   0.00132,   0.00040,   0.19180,   1.00000
508147684.28727,430713903.95257,-23893254.44143,   0.00211,   0.00229,   0.00009,476401942.26580,   0.00125,275998871.70091,   0.00064,   0.00132,   0.00040,   0.19288,   1.00000
508595039.91566,429741813.15065,-24452847.83814,   0.00211,   0.00228,   0.00009,476408619.56805,   0.00125,276000221.73416,   0.00064,   0.00132,   0.00040,   0.20510,   1.00000
509037916.06977,428762301.80311,-25013237.66232,   0.00212,   0.00228,   0.00008,476388139.52371,   0.00125,276001500.87884,   0.00064,   0.00132,   0.00040,   0.19030,   1.00000
509473691.26333,427778322.23807,-25578201.84867,   0.00212,   0.00227,   0.00007,476395667.16616,   0.00125,276002801.70305,   0.00064,   0.00132,   0.00040,   0.20327,   1.00000
509907101.94701,426781127.10419,-26148506.46603,   0.00213,   0.00227,   0.00006,476391143.43195,   0.00125,276004084.39202,   0.00064,   0.00132,   0.00040,   0.20406,   1.00000
510339002.53934,425771374.74394,-26718705.01048,   0.00213,   0.00226,   0.00006,476385822.61092,   0.00126,276005346.36264,   0.00064,   0.00132,   0.00040,   0.20384,   1.00000
510760491.02342,424761748.46053,-27294459.44556,   0.00214,   0.00226,   0.00005,476378531.51867,   0.00126,276006581.14330,   0.00064,   0.00132,   0.00040,   0.20126,   1.00000
511175658.33447,423748320.08140,-27869299.61837,   0.00214,   0.00225,   0.00004,476385307.42872,   0.00126,276007835.37633,   0.00064,   0.00132,   0.00040,   0.21401,   1.00000
511588135.22831,422721296.89113,-28449501.91637,   0.00215,   0.00225,   0.00003,476381094.14463,   0.00126,276009072.63147,   0.00065,   0.00132,   0.00040,   0.21456,   1.00000
511997768.81769,421680530.79827,-29035066.35472,   0.00215,   0.00224,   0.00002,476377017.78918,   0.00126,276010293.41380,   0.00065,   0.00132,   0.00040,   0.21513,   1.00000
512397950.87052,420640497.15974,-29620793.29623,   0.00216,   0.00224,   0.00002,476368860.52530,   0.00126,276011484.20518,   0.00065,   0.00132,   0.00040,   0.21067,   1.00000
512798041.17696,419581910.65189,-30210763.95374,   0.00216,   0.00223,   0.00001,476380032.25272,   0.00126,276012709.32950,   0.00065,   0.00132,   0.00040,   0.22945,   1.00000
513188641.32354,418523972.74773,-30800915.66983,   0.00217,   0.00223,   0.00000,476371939.19190,   0.00126,276013904.64649,   0.00065,   0.00133,   0.00040,   0.22458,   1.00000
513577231.05082,417452831.27226,-31391018.90103,   0.00217,   0.00222,  -0.00001,476367102.93305,   0.00126,276015081.06571,   0.00065,   0.00133,   0.00040,   0.22359,   1.00000
513953964.37750,416380388.21818,-31992198.06883,   0.00218,   0.00222,  -0.00002,476361176.93712,   0.00127,276016234.99595,   0.00065,   0.00133,   0.00040,   0.22101,   1.00000
514332547.28021,415290994.90395,-32586692.57963,   0.00218,   0.00221,  -0.00002,476370528.72240,   0.00127,276017417.47705,   0.00065,   0.00133,   0.00040,   0.23833,   1.00000
514699135.20403,414200156.19376,-33192267.20989,   0.00219,   0.00221,  -0.00003,476364755.75743,   0.00127,276018577.95647,   0.00066,   0.00133,   0.00040,   0.23561,   1.00000
515063391.89328,413095754.80014,-33797805.70344,   0.00219,   0.00220,  -0.00004,476360228.55188,   0.00127,276019720.64860,   0.00066,   0.00133,   0.00040,   0.23440,   1.00000
515425219.31063,411977685.99730,-34403316.80813,   0.00220,   0.00220,  -0.00005,476355784.18559,   0.00127,276020845.87243,   0.00066,   0.00133,   0.00040,   0.23313,   1.00000
515778823.57328,410854512.78350,-35013204.69909,   0.00220,   0.00219,  -0.00006,476364237.84640,   0.00127,276021996.89693,   0.00066,   0.00133,   0.00040,   0.25011,   1.00000
516122840.88954,409731595.67662,-35623388.66316,   0.00221,   0.00219,  -0.00007,476356273.47207,   0.00127,276023118.60728,   0.00066,   0.00133,   0.00040,   0.24339,   1.00000
516462905.36505,408593779.11755,-36238960.79662,   0.00221,   0.00218,  -0.00007,476353238.54575,   0.00127,276024227.62016,   0.00066,   0.00133,   0.00040,   0.24371,   1.00000
516794574.79641,407450783.57712,-36858863.46657,   0.00222,   0.00218,  -0.00008,476361843.68112,   0.00127,276025363.11261,   0.00066,   0.00133,   0.00040,   0.26160,   1.00000
517123446.91007,406293743.04080,-37478741.03147,   0.00222,   0.00217,  -0.00009,476357778.91659,   0.00127,276026482.41374,   0.00066,   0.00133,   0.00040,   0.26019,   1.00000
517443769.60105,405131474.75285,-38102907.04118,   0.00223,   0.00217,  -0.00010,476366536.77598,   0.00128,276027628.78148,   0.00066,   0.00133,   0.00040,   0.27926,   1.00000
517758587.10115,403959174.85495,-38728512.61191,   0.00223,   0.00216,  -0.00011,476347331.53049,   0.00128,276028707.82495,   0.00067,   0.00133,   0.00040,   0.25306,   1.00000
518066232.67338,402782675.56650,-39353009.96829,   0.00224,   0.00216,  -0.00012,476354800.80075,   0.00128,276029809.75973,   0.00067,   0.00133,   0.00040,   0.26980,   1.00000
518367769.02454,401589592.69427,-39988247.71436,   0.00224,   0.00215,  -0.00013,476353768.39766,   0.00128,276030905.82593,   0.00067,   0.00133,   0.00039,   0.27285,   1.00000
518663523.84618,400393394.22381,-40616961.06816,   0.00225,   0.00214,  -0.00013,476359988.42647,   0.00128,276032020.60204,   0.00067,   0.00133,   0.00039,   0.28834,   1.00000
518952888.32895,399180409.45154,-41256387.06385,   0.00225,   0.00214,  -0.00014,476359237.16927,   0.00128,276033130.45250,   0.00067,   0.00133,   0.00039,   0.29192,   1.00000
519233989.45834,397968298.87538,-41890855.48491,   0.00226,   0.00213,  -0.00015,476350138.72854,   0.00128,276034207.03598,   0.00067,   0.00134,   0.00039,   0.28042,   1.00000
519510069.31426,396740338.83899,-42530675.84244,   0.00226,   0.00213,  -0.00016,476348119.79856,   0.00128,276035274.47652,   0.00067,   0.00134,   0.00039,   0.28137,   1.00000
519779420.96847,395503010.84703,-43173004.16192,   0.00227,   0.00212,  -0.00017,476372780.91214,   0.00128,276036423.63830,   0.00067,   0.00134,   0.00039,   0.33273,   1.00000
520036515.30312,394269184.00832,-43817424.07235,   0.00227,   0.00212,  -0.00018,476349806.99625,   0.00128,276037492.05485,   0.00067,   0.00134,   0.00039,   0.29331,   1.00000
520290625.37439,393015422.21260,-44465479.80389,   0.00228,   0.00211,  -0.00019,476363524.13233,   0.00129,276038605.07129,   0.00068,   0.00134,   0.00039,   0.32455,   1.00000
520537126.01549,391757391.81187,-45112268.67791,   0.00228,   0.00211,  -0.00020,476371453.47682,   0.00129,276039742.87586,   0.00068,   0.00134,   0.00039,   0.34568,   1.00000
520775717.15882,390486853.65937,-45766086.35758,   0.00229,   0.00210,  -0.00020,476354592.28402,   0.00129,276040820.61113,   0.00068,   0.00134,   0.00039,   0.31602,   1.00000
521004844.43973,389210752.33233,-46423946.11124,   0.00229,   0.00209,  -0.00021,476364187.28928,   0.00129,276041929.01575,   0.00068,   0.00134,   0.00039,   0.34048,   1.00000
521231700.67097,387920688.74767,-47076430.40486,   0.00230,   0.00209,  -0.00022,476359746.97794,   0.00129,276043019.90541,   0.00068,   0.00134,   0.00039,   0.33584,   1.00000
521448979.31521,386625059.13952,-47732915.00338,   0.00230,   0.00208,  -0.00023,476369463.50232,   0.00129,276044141.96305,   0.00068,   0.00134,   0.00039,   0.36168,   1.00000
521656622.45655,385323881.50278,-48393363.48052,   0.00230,   0.00208,  -0.00024,476379267.65524,   0.00129,276045295.48047,   0.00068,   0.00134,   0.00039,   0.38898,   1.00000
521857743.77492,384010855.03819,-49055605.66716,   0.00231,   0.00207,  -0.00025,476361216.70130,   0.00129,276046384.43754,   0.00068,   0.00134,   0.00039,   0.35266,   1.00000
522049091.33701,382692211.76343,-49721780.81072,   0.00231,   0.00206,  -0.00026,476371125.82639,   0.00129,276047505.39884,   0.00068,   0.00134,   0.00039,   0.38005,   1.00000
522232534.01369,381369290.95502,-50386557.65153,   0.00232,   0.00206,  -0.00027,476379372.62278,   0.00130,276048652.60399,   0.00069,   0.00134,   0.00039,   0.40468,   1.00000
522409527.61122,380029478.15521,-51056536.01645,   0.00232,   0.00205,  -0.00028,476378813.43965,   0.00130,276049795.57370,   0.00069,   0.00134,   0.00039,   0.40829,   1.00000
522581848.85872,378673975.16398,-51726411.60101,   0.00233,   0.00205,  -0.00029,476376641.70290,   0.00130,276050928.73587,   0.00069,   0.00134,   0.00039,   0.40781,   1.00000
522740774.00260,377324292.28953,-52398749.50744,   0.00233,   0.00204,  -0.00030,476397416.90952,   0.00130,276052131.76763,   0.00069,   0.00134,   0.00039,   0.46691,   1.00000
522892770.65361,375962126.98753,-53072985.04968,   0.00234,   0.00203,  -0.00030,476379842.50558,   0.00130,276053271.29501,   0.00069,   0.00134,   0.00039,   0.42541,   1.00000
523039967.63036,374579510.73495,-53750315.65211,   0.00234,   0.00203,  -0.00031,476395331.24858,   0.00130,276054462.51463,   0.00069,   0.00134,   0.00038,   0.47202,   1.00000
523173644.88640,373207467.93191,-54426799.62281,   0.00235,   0.00202,  -0.00032,476398768.35425,   0.00130,276055663.35792,   0.00069,   0.00134,   0.00038,   0.48681,   1.00000
523305435.70263,371807753.92007,-55104535.78598,   0.00235,   0.00202,  -0.00033,476386650.25365,   0.00130,276056819.51300,   0.00069,   0.00134,   0.00038,   0.45790,   1.00000
523423759.36042,370414181.24146,-55784555.37702,   0.00235,   0.00201,  -0.00034,476407542.82448,   0.00130,276058046.48143,   0.00070,   0.00134,   0.00038,   0.52313,   1.00000
523532619.30615,369006152.94937,-56471800.26842,   0.00236,   0.00200,  -0.00035,476392334.72133,   0.00131,276059217.76050,   0.00070,   0.00134,   0.00038,   0.48346,   1.00000
523635258.54493,367590922.86043,-57155259.66732,   0.00236,   0.00200,  -0.00036,476416693.20132,   0.00131,276060472.22761,   0.00070,   0.00135,   0.00038,   0.56226,   1.00000
523727497.02030,366174461.77805,-57839288.18631,   0.00237,   0.00199,  -0.00037,476409887.79806,   0.00131,276061700.31574,   0.00070,   0.00135,   0.00038,   0.54615,   1.00000
523812076.71337,364740334.33351,-58528344.09552,   0.00237,   0.00198,  -0.00038,476410588.62597,   0.00131,276062928.47985,   0.00070,   0.00135,   0.00038,   0.55351,   1.00000
523890333.23877,363299241.08409,-59213462.95822,   0.00238,   0.00198,  -0.00039,476435125.23091,   0.00131,276064240.76311,   0.00070,   0.00135,   0.00038,   0.64018,   1.00000
523958582.46998,361843139.70318,-59905827.55581,   0.00238,   0.00197,  -0.00040,476420528.39085,   0.00131,276065498.95656,   0.00070,   0.00135,   0.00038,   0.59605,   1.00000
524016248.81334,360385581.92020,-60598782.50272,   0.00239,   0.00196,  -0.00041,476413919.70365,   0.00131,276066731.33424,   0.00070,   0.00135,   0.00038,   0.57902,   1.00000
524067507.47198,358921251.95646,-61287671.36580,   0.00239,   0.00196,  -0.00042,476438571.23022,   0.00131,276068048.65378,   0.00071,   0.00135,   0.00038,   0.66970,   1.00000
524105573.65575,357449928.06827,-61985161.87745,   0.00239,   0.00195,  -0.00043,476451952.20595,   0.00131,276069410.90394,   0.00071,   0.00135,   0.00038,   0.72479,   1.00000
524137976.47196,355966131.72053,-62679553.61020,   0.00240,   0.00195,  -0.00044,476433480.50461,   0.00132,276070704.86640,   0.00071,   0.00135,   0.00038,   0.66165,   1.00000
524159404.92866,354476785.97382,-63377315.85955,   0.00240,   0.00194,  -0.00045,476444840.59662,   0.00132,276072036.76959,   0.00071,   0.00135,   0.00038,   0.70911,   1.00000
524174321.62229,352981028.59293,-64070795.34487,   0.00241,   0.00193,  -0.00046,476469745.93383,   0.00132,276073454.90039,   0.00071,   0.00135,   0.00037,   0.81296,   1.00000
524178524.13732,351469522.34271,-64771550.08718,   0.00241,   0.00193,  -0.00047,476455939.60734,   0.00132,276074820.98677,   0.00071,   0.00135,   0.00037,   0.76274,   1.00000
524171741.85668,349966848.54568,-65468876.77540,   0.00242,   0.00192,  -0.00048,476474947.98308,   0.00132,276076252.42236,   0.00071,   0.00135,   0.00037,   0.84646,   1.00000
524154095.29964,348448224.72123,-66173498.44822,   0.00242,   0.00191,  -0.00049,476461302.89898,   0.00132,276077632.19577,   0.00072,   0.00135,   0.00037,   0.79477,   1.00000
524132050.76444,346910579.02115,-66875191.87442,   0.00243,   0.00191,  -0.00050,476476867.03523,   0.00132,276079065.17836,   0.00072,   0.00135,   0.00037,   0.86615,   1.00000
524099126.49292,345382080.23641,-67573355.08230,   0.00243,   0.00190,  -0.00051,476495896.17579,   0.00133,276080563.79257,   0.00072,   0.00135,   0.00037,   0.95682,   1.00000
524055017.75736,343837340.39955,-68278810.71631,   0.00243,   0.00189,  -0.00052,476482625.46446,   0.00133,276082011.71712,   0.00072,   0.00135,   0.00037,   0.90200,   1.00000
524002184.59099,342288815.26811,-68982258.83762,   0.00244,   0.00189,  -0.00053,476492197.68904,   0.00133,276083491.36440,   0.00072,   0.00135,   0.00037,   0.95102,   1.00000
523942053.79611,340719836.61910,-69687704.08676,   0.00244,   0.00188,  -0.00054,476510575.16537,   0.00133,276085034.56547,   0.00072,   0.00135,   0.00037,  -0.00000,   2.00000
523869119.24639,339162352.42201,-70392153.20601,   0.00245,   0.00187,  -0.00055,476513937.64385,   0.00133,276086586.92984,   0.00072,   0.00135,   0.00037,   0.00000,   2.00000
523786661.69459,337586359.08566,-71101192.65919,   0.00245,   0.00187,  -0.00056,476516844.06724,   0.00133,276088146.82099,   0.00073,   0.00135,   0.00037,  -0.00000,   2.00000
523695411.43782,336006755.95125,-71808105.80784,   0.00246,   0.00186,  -0.00057,476526657.62481,   0.00133,276089739.31525,   0.00073,   0.00135,   0.00036,  -0.00000,   2.00000
523593298.63788,334425342.20556,-72515628.34689,   0.00246,   0.00185,  -0.00058,476520773.06369,   0.00134,276091307.29087,   0.00073,   0.00135,   0.00036,  -0.00000,   2.00000
523486242.95552,332825204.29182,-73219834.51575,   0.00246,   0.00185,  -0.00059,476537186.85230,   0.00134,276092932.02010,   0.00073,   0.00135,   0.00036,   0.00000,   2.00000
523363182.29413,331231988.23040,-73930337.76946,   0.00247,   0.00184,  -0.00060,476561288.29326,   0.00134,276094641.53501,   0.00073,   0.00135,   0.00036,   0.00000,   2.00000
523233629.57035,329624914.86871,-74638008.66631,   0.00247,   0.00183,  -0.00061,476543978.86750,   0.00134,276096284.40580,   0.00073,   0.00135,   0.00036,  -0.00000,   2.00000
523092451.49310,328012827.64236,-75348486.75913,   0.00248,   0.00183,  -0.00062,476556556.58210,   0.00134,276097970.11229,   0.00074,   0.00135,   0.00036,  -0.00000,   2.00000
522946073.24926,326382185.21925,-76055448.65365,   0.00248,   0.00182,  -0.00063,476573419.36464,   0.00134,276099714.37307,   0.00074,   0.00135,   0.00036,   0.00000,   2.00000
522787331.82881,324763505.02803,-76761372.37906,   0.00249,   0.00181,  -0.00064,476576706.36062,   0.00134,276101467.25078,   0.00074,   0.00136,   0.00036,  -0.00000,   2.00000
522618264.92635,323126072.67411,-77471639.13615,   0.00249,   0.00181,  -0.00065,476580677.30736,   0.00135,276103231.27903,   0.00074,   0.00136,   0.00036,  -0.00000,   2.00000
522437431.64360,321483807.85631,-78184556.85304,   0.00249,   0.00180,  -0.00066,476593598.75698,   0.00135,276105039.45623,   0.00074,   0.00136,   0.00035,   0.00000,   2.00000
522250764.79551,319840060.81577,-78890100.69430,   0.00250,   0.00179,  -0.00067,476601132.56541,   0.00135,276106871.84867,   0.00075,   0.00136,   0.00035,   0.00000,   2.00000
522052376.15205,318191635.08872,-79598240.41619,   0.00250,   0.00179,  -0.00068,476614129.52045,   0.00135,276108748.65804,   0.00075,   0.00136,   0.00035,  -0.00000,   2.00000
521842243.03349,316538591.94469,-80308929.18612,   0.00251,   0.00178,  -0.00069,476627222.63484,   0.00135,276110670.22126,   0.00075,   0.00136,   0.00035,   0.00000,   2.00000
521624189.94478,314885273.93734,-81015250.02950,   0.00251,   0.00177,  -0.00070,476619074.72392,   0.00135,276112557.64479,   0.00075,   0.00136,   0.00035,   0.00000,   2.00000
521394526.72829,313210523.63113,-81727619.64938,   0.00251,   0.00177,  -0.00071,476642270.16163,   0.00136,276114527.52588,   0.00075,   0.00136,   0.00035,  -0.00000,   2.00000
521159178.25000,311534603.25909,-82432522.35616,   0.00252,   0.00176,  -0.00072,476649939.34406,   0.00136,276116521.97447,   0.00076,   0.00136,   0.00035,   0.00000,   2.00000
520909708.32936,309855059.49433,-83142961.43607,   0.00252,   0.00175,  -0.00074,476647619.69781,   0.00136,276118503.70420,   0.00076,   0.00136,   0.00035,  -0.00000,   2.00000
520653861.66636,308172068.65727,-83847711.33922,   0.00253,   0.00174,  -0.00075,476673825.26222,   0.00136,276120579.32309,   0.00076,   0.00136,   0.00034,  -0.00000,   2.00000
520387038.87280,306487137.48306,-84553057.27051,   0.00253,   0.00174,  -0.00076,476668705.85787,   0.00136,276122631.49668,   0.00076,   0.00136,   0.00034,   0.00000,   2.00000
520108421.36470,304797962.05894,-85260733.05348,   0.00254,   0.00173,  -0.00077,476682205.62104,   0.00137,276124730.05564,   0.00076,   0.00136,   0.00034,  -0.00000,   2.00000
519821727.51890,303091562.63249,-85967469.68838,   0.00254,   0.00172,  -0.00078,476684664.51906,   0.00137,276126833.51139,   0.00077,   0.00136,   0.00034,   0.00000,   2.00000
519528332.66112,301397000.38869,-86666650.15150,   0.00254,   0.00172,  -0.00079,476719135.87712,   0.00137,276129062.27765,   0.00077,   0.00136,   0.00034,   0.00000,   2.00000
519221172.15536,299684031.15024,-87372985.45239,   0.00255,   0.00171,  -0.00080,476709133.17641,   0.00137,276131248.68187,   0.00077,   0.00136,   0.00034,   0.00000,   2.00000
518905099.76318,297983621.97399,-88074950.37991,   0.00255,   0.00170,  -0.00081,476727903.17752,   0.00137,276133501.33134,   0.00077,   0.00136,   0.00033,  -0.00000,   2.00000
518577556.82310,296264380.00522,-88780752.15810,   0.00256,   0.00170,  -0.00082,476733766.27144,   0.00138,276135771.39819,   0.00077,   0.00136,   0.00033,   0.00000,   2.00000
518244820.94138,294544623.77999,-89478961.92134,   0.00256,   0.00169,  -0.00083,476741520.03254,   0.00138,276138066.00577,   0.00078,   0.00136,   0.00033,  -0.00000,   2.00000
517897779.02651,292821205.04243,-90182622.66875,   0.00256,   0.00168,  -0.00084,476739819.64891,   0.00138,276140349.26059,   0.00078,   0.00136,   0.00033,   0.00000,   2.00000
517544851.54433,291095641.27587,-90880145.26137,   0.00257,   0.00168,  -0.00085,476766306.56785,   0.00138,276142728.27453,   0.00078,   0.00136,   0.00033,   0.00000,   2.00000
517180180.13949,289366456.32877,-91579693.10912,   0.00257,   0.00167,  -0.00086,476780384.64505,   0.00139,276145155.74227,   0.00078,   0.00136,   0.00033,   0.00000,   2.00000
516807181.45358,287635399.39665,-92276414.54921,   0.00258,   0.00166,  -0.00088,476791349.60124,   0.00139,276147619.74180,   0.00079,   0.00136,   0.00032,   0.00000,   2.00000
516423281.47113,285902395.40513,-92973738.37587,   0.00258,   0.00165,  -0.00089,476786702.12365,   0.00139,276150060.60168,   0.00079,   0.00136,   0.00032,  -0.00000,   2.00000
516033581.65818,284152446.97519,-93666435.15138,   0.00259,   0.00165,  -0.00090,476805706.31401,   0.00139,276152568.81940,   0.00079,   0.00136,   0.00032,  -0.00000,   2.00000
515632417.03272,282414576.04422,-94359348.69659,   0.00259,   0.00164,  -0.00091,476827564.51425,   0.00139,276155155.24419,   0.00079,   0.00136,   0.00032,   0.00000,   2.00000
515220412.69365,280674790.29465,-95052867.06748,   0.00259,   0.00163,  -0.00092,476823028.21522,   0.00140,276157718.50101,   0.00080,   0.00136,   0.00032,   0.00000,   2.00000
514802639.59788,278918324.02197,-95741629.94653,   0.00260,   0.00163,  -0.00093,476842260.07182,   0.00140,276160349.97456,   0.00080,   0.00136,   0.00031,   0.00000,   2.00000
514370912.16893,277173852.98579,-96434070.37175,   0.00260,   0.00162,  -0.00094,476848532.22432,   0.00140,276162999.67574,   0.00080,   0.00136,   0.00031,   0.00000,   2.00000
513933430.15028,275412876.91116,-97121663.14347,   0.00261,   0.00161,  -0.00095,476867933.63725,   0.00140,276165718.22346,   0.00081,   0.00136,   0.00031,   0.00000,   2.00000
513485705.36181,273665698.07708,-97808188.23958,   0.00261,   0.00161,  -0.00096,476870840.12833,   0.00141,276168441.79830,   0.00081,   0.00136,   0.00031,   0.00000,   2.00000
513032283.61863,271902197.58080,-98489798.02654,   0.00261,   0.00160,  -0.00097,476890349.13669,   0.00141,276171234.62504,   0.00081,   0.00136,   0.00031,  -0.00000,   2.00000
512565194.97078,270150968.51497,-99175064.77522,   0.00262,   0.00159,  -0.00099,476896628.28074,   0.00141,276174045.34067,   0.00081,   0.00136,   0.00030,   0.00000,   2.00000
512093264.76957,268399490.13631,-99853666.07889,   0.00262,   0.00158,  -0.00100,476923367.06566,   0.00141,276176953.29529,   0.00082,   0.00136,   0.00030,   0.00000,   2.00000
511609789.66521,266630228.06118,-100534557.13860,   0.00263,   0.00158,  -0.00101,476912080.22778,   0.00142,276179810.61531,   0.00082,   0.00136,   0.00030,   0.00000,   2.00000
511119505.40517,264875986.63293,-101210738.44386,   0.00263,   0.00157,  -0.00102,476930341.61423,   0.00142,276182732.30758,   0.00082,   0.00136,   0.00030,   0.00000,   2.00000
510623648.06379,263105876.70948,-101881817.83665,   0.00264,   0.00156,  -0.00103,476950170.97582,   0.00142,276185724.42454,   0.00082,   0.00136,   0.00029,   0.00000,   2.00000
510114496.22110,261348371.92349,-102556541.52220,   0.00264,   0.00156,  -0.00104,476956443.08983,   0.00143,276188733.91439,   0.00083,   0.00136,   0.00029,   0.00000,   2.00000
509596692.18542,259574003.90960,-103229821.33039,   0.00264,   0.00155,  -0.00105,476960953.83281,   0.00143,276191753.87447,   0.00083,   0.00136,   0.00029,   0.00000,   2.00000
509075737.44086,257816416.14680,-103894581.68298,   0.00265,   0.00154,  -0.00106,476994552.16450,   0.00143,276194898.14643,   0.00083,   0.00136,   0.00029,   0.00000,   2.00000
508540519.42660,256055409.15144,-104564628.95173,   0.00265,   0.00154,  -0.00107,476994075.22042,   0.00143,276198032.92955,   0.00084,   0.00136,   0.00028,   0.00000,   2.00000
507997991.27666,254293924.44729,-105231540.09666,   0.00266,   0.00153,  -0.00109,477005455.38350,   0.00144,276201204.77817,   0.00084,   0.00136,   0.00028,   0.00000,   2.00000
507450599.11956,252517295.65640,-105892339.97925,   0.00266,   0.00152,  -0.00110,477006589.80954,   0.00144,276204373.33395,   0.00084,   0.00136,   0.00028,   0.00000,   2.00000
506896918.14279,250756602.02297,-106549118.95431,   0.00266,   0.00152,  -0.00111,477043648.03341,   0.00144,276207680.07370,   0.00085,   0.00136,   0.00028,   0.00000,   2.00000
506328997.53070,248992532.19449,-107211161.70482,   0.00267,   0.00151,  -0.00112,477043394.70544,   0.00145,276210977.60625,   0.00085,   0.00136,   0.00027,   0.00000,   2.00000
505757882.43024,247229889.16744,-107865454.00802,   0.00267,   0.00150,  -0.00113,477051108.47671,   0.00145,276214297.37498,   0.00085,   0.00136,   0.00027,   0.00000,   2.00000
505175920.42390,245465531.11064,-108521128.84515,   0.00268,   0.00149,  -0.00114,477066287.70465,   0.00145,276217668.87200,   0.00086,   0.00136,   0.00027,  -0.00000,   2.00000
504590493.17987,243702913.03681,-109169699.56130,   0.00268,   0.00149,  -0.00115,477093124.84645,   0.00146,276221138.18942,   0.00086,   0.00136,   0.00027,  -0.00000,   2.00000
503996611.75968,241955211.49912,-109817386.54876,   0.00268,   0.00148,  -0.00116,477095522.25541,   0.00146,276224608.15131,   0.00086,   0.00136,   0.00026,   0.00000,   2.00000
503394163.79054,240190946.91240,-110463477.17820,   0.00269,   0.00147,  -0.00118,477100725.45648,   0.00146,276228089.90747,   0.00087,   0.00136,   0.00026,  -0.00000,   2.00000
502788583.80555,238428833.03878,-111102399.89732,   0.00269,   0.00147,  -0.00119,477127533.70836,   0.00147,276231669.37561,   0.00087,   0.00136,   0.00026,   0.00000,   2.00000
502170870.79764,236680208.99087,-111744990.41797,   0.00270,   0.00146,  -0.00120,477133706.41206,   0.00147,276235264.13596,   0.00087,   0.00136,   0.00025,   0.00000,   2.00000
501544575.08237,234915089.78062,-112385929.06742,   0.00270,   0.00145,  -0.00121,477139143.77569,   0.00147,276238871.23351,   0.00088,   0.00136,   0.00025,   0.00000,   2.00000
500917627.01046,233169412.72308,-113018049.92598,   0.00271,   0.00145,  -0.00122,477171951.22908,   0.00148,276242599.93617,   0.00088,   0.00136,   0.00025,   0.00000,   2.00000
500280652.74016,231422045.66272,-113650955.59091,   0.00271,   0.00144,  -0.00123,477168185.09851,   0.00148,276246303.69423,   0.00088,   0.00136,   0.00024,   0.00000,   2.00000
499641200.78187,229677530.51458,-114276596.87338,   0.00271,   0.00143,  -0.00124,477194906.74207,   0.00148,276250104.65299,   0.00089,   0.00136,   0.00024,   0.00000,   2.00000
498991778.62434,227931325.56456,-114903048.83864,   0.00272,   0.00143,  -0.00126,477191177.46261,   0.00149,276253880.46491,   0.00089,   0.00136,   0.00024,   0.00000,   2.00000
498334601.99935,226201320.38227,-115529157.72507,   0.00272,   0.00142,  -0.00127,477212431.23349,   0.00149,276257731.46701,   0.00090,   0.00136,   0.00023,   0.00000,   2.00000
497676957.83748,224459011.28684,-116145060.98614,   0.00273,   0.00141,  -0.00128,477229343.03504,   0.00149,276261640.05535,   0.00090,   0.00136,   0.00023,   0.00000,   2.00000
497007894.60412,222730631.11258,-116764701.43454,   0.00273,   0.00140,  -0.00129,477235378.22257,   0.00150,276265562.27048,   0.00090,   0.00136,   0.00023,   0.00000,   2.00000
496334390.13693,220988587.05451,-117378512.42238,   0.00273,   0.00140,  -0.00130,477256404.65365,   0.00150,276269558.54169,   0.00091,   0.00136,   0.00022,   0.00000,   2.00000
495657759.33822,219264764.23745,-117987548.54472,   0.00274,   0.00139,  -0.00131,477273520.48870,   0.00150,276273612.87322,   0.00091,   0.00136,   0.00022,   0.00000,   2.00000
494971405.66888,217539268.27177,-118597474.99383,   0.00274,   0.00138,  -0.00132,477269872.47353,   0.00151,276277641.18225,   0.00091,   0.00136,   0.00022,  -0.00000,   2.00000
494279432.78504,215816172.29083,-119204381.60302,   0.00275,   0.00138,  -0.00134,477300594.31452,   0.00151,276281782.61497,   0.00092,   0.00136,   0.00021,   0.00000,   2.00000
493584792.43774,214110223.80105,-119806338.77524,   0.00275,   0.00137,  -0.00135,477298264.96978,   0.00152,276285902.92017,   0.00092,   0.00136,   0.00021,   0.00000,   2.00000
492881910.09413,212389571.71206,-120406731.96363,   0.00275,   0.00136,  -0.00136,477323574.92887,   0.00152,276290114.30749,   0.00093,   0.00136,   0.00021,   0.00000,   2.00000
492180834.11168,210689120.59504,-120998058.12338,   0.00276,   0.00136,  -0.00137,477336198.73923,   0.00152,276294364.96787,   0.00093,   0.00136,   0.00020,   0.00000,   2.00000
491470391.54922,208988597.10101,-121590499.02898,   0.00276,   0.00135,  -0.00138,477351825.80612,   0.00153,276298667.01848,   0.00093,   0.00136,   0.00020,   0.00000,   2.00000
490754822.27082,207289517.69495,-122179706.01714,   0.00277,   0.00134,  -0.00139,477363286.16988,   0.00153,276303003.35037,   0.00094,   0.00136,   0.00019,   0.00000,   2.00000
490032962.64984,205606277.24561,-122768458.79045,   0.00277,   0.00134,  -0.00141,477364864.11265,   0.00154,276307333.52475,   0.00094,   0.00136,   0.00019,   0.00000,   2.00000
489307376.77584,203910223.27825,-123351205.94838,   0.00278,   0.00133,  -0.00142,477386135.78155,   0.00154,276311737.94202,   0.00095,   0.00136,   0.00019,   0.00000,   2.00000
488580170.05001,202233371.80269,-123929301.46326,   0.00278,   0.00132,  -0.00143,477402619.39130,   0.00154,276316196.80119,   0.00095,   0.00136,   0.00018,  -0.00000,   2.00000
487848211.68211,200558186.56588,-124504200.23301,   0.00278,   0.00132,  -0.00144,477413993.82132,   0.00155,276320689.04535,   0.00095,   0.00136,   0.00018,   0.00000,   2.00000
487111567.46297,198884717.29230,-125075905.60050,   0.00279,   0.00131,  -0.00145,477425368.25893,   0.00155,276325214.56390,   0.00096,   0.00136,   0.00017,   0.00000,   2.00000
486378430.58713,197234201.40385,-125638746.03084,   0.00279,   0.00130,  -0.00146,477456526.81031,   0.00156,276329854.32315,   0.00096,   0.00135,   0.00017,   0.00000,   2.00000
485631921.42314,195580633.70249,-126206961.81869,   0.00280,   0.00130,  -0.00147,477457320.29263,   0.00156,276334483.40533,   0.00097,   0.00135,   0.00017,   0.00000,   2.00000
484885301.98107,193930317.04596,-126767767.11802,   0.00280,   0.00129,  -0.00149,477464259.71930,   0.00157,276339127.03343,   0.00097,   0.00135,   0.00016,   0.00000,   2.00000
484130050.72968,192280546.57549,-127329640.67957,   0.00280,   0.00128,  -0.00150,477479970.45820,   0.00157,276343821.23602,   0.00098,   0.00135,   0.00016,   0.00000,   2.00000
483379672.28946,190637819.62330,-127879814.33579,   0.00281,   0.00128,  -0.00151,477501708.21347,   0.00157,276348590.65770,   0.00098,   0.00135,   0.00015,   0.00000,   2.00000
482619717.08715,189009888.62641,-128434031.34402,   0.00281,   0.00127,  -0.00152,477507271.00031,   0.00158,276353368.37911,   0.00099,   0.00135,   0.00015,   0.00000,   2.00000
481864973.61217,187389187.21702,-128976586.51851,   0.00282,   0.00126,  -0.00153,477528844.45187,   0.00158,276358220.39351,   0.00099,   0.00135,   0.00014,   0.00000,   2.00000
481096989.98693,185765414.29309,-129524572.77427,   0.00282,   0.00126,  -0.00154,477529779.30888,   0.00159,276363061.24526,   0.00099,   0.00135,   0.00014,   0.00000,   2.00000
480334040.14580,184165679.69364,-130063755.07478,   0.00283,   0.00125,  -0.00156,477560261.80662,   0.00159,276368013.06219,   0.00100,   0.00135,   0.00014,   0.00000,   2.00000
479566667.94736,182565488.14415,-130600065.47438,   0.00283,   0.00124,  -0.00157,477552168.09218,   0.00160,276372915.83560,   0.00100,   0.00135,   0.00013,   0.00000,   2.00000
478796340.52201,180970267.42466,-131133087.27556,   0.00283,   0.00124,  -0.00158,477582554.39151,   0.00160,276377929.10468,   0.00101,   0.00135,   0.00013,   0.00000,   2.00000
478022416.29414,179377359.04836,-131663039.66751,   0.00284,   0.00123,  -0.00159,477593734.22354,   0.00161,276382972.89215,   0.00101,   0.00135,   0.00012,   0.00000,   2.00000
477249113.98273,177804864.03988,-132188647.54243,   0.00284,   0.00123,  -0.00160,477609188.28755,   0.00161,276388064.78121,   0.00102,   0.00135,   0.00012,  -0.00000,   2.00000
476476822.73627,176236019.72828,-132707110.25654,   0.00285,   0.00122,  -0.00161,477615671.25953,   0.00162,276393167.31102,   0.00102,   0.00135,   0.00011,   0.00000,   2.00000
475701071.76180,174686442.16192,-133225422.40389,   0.00285,   0.00121,  -0.00163,477635517.28035,   0.00162,276398335.97099,   0.00103,   0.00135,   0.00011,  -0.00000,   2.00000
474917816.20543,173121166.31061,-133741998.49388,   0.00285,   0.00121,  -0.00164,477642390.90045,   0.00163,276403516.58475,   0.00103,   0.00134,   0.00010,   0.00000,   2.00000
474135714.47876,171576544.73339,-134254326.03947,   0.00286,   0.00120,  -0.00165,477657564.88076,   0.00163,276408743.62558,   0.00104,   0.00134,   0.00010,   0.00000,   2.00000
473354969.04279,170035661.55388,-134759604.14123,   0.00286,   0.00119,  -0.00166,477663887.07993,   0.00164,276413979.99163,   0.00104,   0.00134,   0.00009,   0.00000,   2.00000
472576748.80070,168518794.12654,-135260348.63936,   0.00287,   0.00119,  -0.00167,477698082.51312,   0.00164,276419341.94876,   0.00105,   0.00134,   0.00009,   0.00000,   2.00000
471790159.23032,167000003.63527,-135762623.79136,   0.00287,   0.00118,  -0.00168,477694479.34565,   0.00165,276424671.18144,   0.00105,   0.00134,   0.00008,   0.00000,   2.00000
471005194.49622,165485002.75290,-136257929.03203,   0.00288,   0.00117,  -0.00169,477700662.42757,   0.00165,276430008.65080,   0.00106,   0.00134,   0.00008,   0.00000,   2.00000
470223269.94265,163994351.04028,-136748731.62834,   0.00288,   0.00117,  -0.00171,477734622.62094,   0.00166,276435470.52699,   0.00106,   0.00134,   0.00007,   0.00000,   2.00000
469443225.47234,162507556.93290,-137232640.20645,   0.00288,   0.00116,  -0.00172,477740700.86674,   0.00166,276440939.59909,   0.00107,   0.00134,   0.00007,   0.00000,   2.00000
468650448.05213,161017564.62956,-137722211.45793,   0.00289,   0.00116,  -0.00173,477741822.43494,   0.00167,276446395.05130,   0.00107,   0.00134,   0.00006,   0.00000,   2.00000
467870163.44882,159554555.89807,-138199270.37087,   0.00289,   0.00115,  -0.00174,477766001.32103,   0.00167,276451933.56681,   0.00108,   0.00134,   0.00006,   0.00000,   2.00000
467083043.31883,158093136.94145,-138677541.07457,   0.00290,   0.00114,  -0.00175,477781524.81031,   0.00168,276457518.53549,   0.00108,   0.00134,   0.00005,   0.00000,   2.00000
466302975.84611,156654018.55795,-139147879.80318,   0.00290,   0.00114,  -0.00176,477791081.51389,   0.00168,276463124.64096,   0.00109,   0.00133,   0.00004,   0.00000,   2.00000
465516232.45212,155216540.16358,-139619455.58803,   0.00291,   0.00113,  -0.00178,477806555.53713,   0.00169,276468776.69125,   0.00109,   0.00133,   0.00004,  -0.00000,   2.00000
464731854.16549,153782970.93845,-140084299.46432,   0.00291,   0.00113,  -0.00179,477812364.15609,   0.00169,276474433.80802,   0.00110,   0.00133,   0.00003,   0.00000,   2.00000
463945389.55048,152352210.51769,-140546417.31805,   0.00291,   0.00112,  -0.00180,477822983.58079,   0.00170,276480116.20642,   0.00110,   0.00133,   0.00003,   0.00000,   2.00000
463167996.61782,150947821.71655,-141000205.40881,   0.00292,   0.00111,  -0.00181,477851365.76945,   0.00170,276485898.60524,   0.00111,   0.00133,   0.00002,  -0.00000,   2.00000
462387731.26570,149559689.94960,-141454765.98808,   0.00292,   0.00111,  -0.00182,477851051.45359,   0.00171,276491659.54977,   0.00111,   0.00133,   0.00002,   0.00000,   2.00000
461605657.41617,148174384.63879,-141906680.24049,   0.00293,   0.00110,  -0.00183,477861512.62916,   0.00171,276497444.56703,   0.00112,   0.00133,   0.00001,   0.00000,   2.00000
460828009.98905,146797121.25961,-142351423.86703,   0.00293,   0.00110,  -0.00185,477886213.11363,   0.00172,276503313.70233,   0.00112,   0.00133,   0.00001,  -0.00000,   2.00000
460048688.34611,145422757.76227,-142793555.76084,   0.00294,   0.00109,  -0.00186,477896681.54287,   0.00172,276509206.48024,   0.00113,   0.00133,  -0.00000,   0.00000,   2.00000
459276545.83166,144084206.04527,-143231634.69264,   0.00294,   0.00108,  -0.00187,477894478.22628,   0.00173,276515069.07081,   0.00113,   0.00132,  -0.00001,   0.00000,   2.00000
458499362.40022,142734202.28347,-143667564.45162,   0.00295,   0.00108,  -0.00188,477920688.23149,   0.00174,276521021.89684,   0.00114,   0.00132,  -0.00001,  -0.00000,   2.00000
457730604.80306,141406744.24357,-144096024.28940,   0.00295,   0.00107,  -0.00189,477929242.79357,   0.00174,276526989.76357,   0.00114,   0.00132,  -0.00002,   0.00000,   2.00000
456955915.05882,140081178.98585,-144525867.89620,   0.00295,   0.00107,  -0.00190,477944523.72859,   0.00175,276533001.12454,   0.00115,   0.00132,  -0.00002,   0.00000,   2.00000
456189884.96944,138778173.07189,-144948324.16389,   0.00296,   0.00106,  -0.00191,477952892.04981,   0.00175,276539026.41172,   0.00115,   0.00132,  -0.00003,  -0.00000,   2.00000
455429117.62448,137483560.54008,-145363762.03574,   0.00296,   0.00106,  -0.00193,477977173.50399,   0.00176,276545133.09223,   0.00116,   0.00132,  -0.00004,  -0.00000,   2.00000
454666170.54984,136205025.22513,-145780361.34786,   0.00297,   0.00105,  -0.00194,477976309.88919,   0.00176,276551214.01001,   0.00116,   0.00132,  -0.00004,   0.00000,   2.00000
453902114.55553,134929385.78279,-146194550.83836,   0.00297,   0.00105,  -0.00195,477986420.99338,   0.00177,276557315.86841,   0.00117,   0.00132,  -0.00005,   0.00000,   2.00000
453153796.28738,133681918.32467,-146596963.89284,   0.00298,   0.00104,  -0.00196,478008411.12311,   0.00178,276563489.01340,   0.00117,   0.00132,  -0.00005,   0.00000,   2.00000
452393288.25225,132430758.43786,-147005463.70529,   0.00298,   0.00103,  -0.00197,478009504.48022,   0.00178,276569644.26859,   0.00118,   0.00131,  -0.00006,   0.00000,   2.00000
451643130.58813,131189122.81933,-147403200.69576,   0.00298,   0.00103,  -0.00198,478028413.07316,   0.00179,276575857.49845,   0.00119,   0.00131,  -0.00007,   0.00000,   2.00000
450893236.20904,129968221.30404,-147801515.76014,   0.00299,   0.00102,  -0.00199,478046369.30572,   0.00179,276582124.38453,   0.00119,   0.00131,  -0.00007,   0.00000,   2.00000
450147143.56107,128751147.79192,-148193729.92961,   0.00299,   0.00102,  -0.00201,478051199.39502,   0.00180,276588388.73449,   0.00120,   0.00131,  -0.00008,   0.00000,   2.00000
449410680.44561,127556653.83795,-148578974.22608,   0.00300,   0.00101,  -0.00202,478058719.56204,   0.00180,276594661.93660,   0.00120,   0.00131,  -0.00009,   0.00000,   2.00000
448674781.19913,126382908.83232,-148964902.10929,   0.00300,   0.00101,  -0.00203,478076420.32500,   0.00181,276600987.34963,   0.00121,   0.00131,  -0.00009,   0.00000,   2.00000
447938290.61490,125212016.67115,-149348633.89612,   0.00301,   0.00100,  -0.00204,478086210.74238,   0.00182,276607330.98186,   0.00121,   0.00131,  -0.00010,   0.00000,   2.00000
447205836.22456,124044863.26722,-149726405.66227,   0.00301,   0.00100,  -0.00205,478090799.61864,   0.00182,276613670.49965,   0.00122,   0.00130,  -0.00010,   0.00000,   2.00000
446485788.58805,122905320.03706,-150096546.33550,   0.00302,   0.00099,  -0.00206,478117002.76341,   0.00183,276620098.22460,   0.00122,   0.00130,  -0.00011,   0.00000,   2.00000
445758270.76336,121762647.79399,-150469193.13963,   0.00302,   0.00099,  -0.00207,478112858.41201,   0.00183,276626484.03105,   0.00123,   0.00130,  -0.00012,   0.00000,   2.00000
445043409.84161,120647650.29216,-150834263.67812,   0.00302,   0.00098,  -0.00209,478138886.64365,   0.00184,276632957.09280,   0.00124,   0.00130,  -0.00012,  -0.00000,   2.00000
444328224.34635,119535470.97514,-151197272.96987,   0.00303,   0.00098,  -0.00210,478148507.37647,   0.00185,276639446.82308,   0.00124,   0.00130,  -0.00013,   0.00000,   2.00000
443616254.25143,118439722.85299,-151558277.25452,   0.00303,   0.00097,  -0.00211,478141573.05927,   0.00185,276645882.17251,   0.00125,   0.00130,  -0.00014,  -0.00000,   2.00000
442917321.24056,117371705.36241,-151911820.93296,   0.00304,   0.00097,  -0.00212,478167268.62755,   0.00186,276652403.08168,   0.00125,   0.00130,  -0.00014,  -0.00000,   2.00000
442218220.01585,116306426.95482,-152263397.54556,   0.00304,   0.00096,  -0.00213,478176717.08084,   0.00186,276658939.55424,   0.00126,   0.00129,  -0.00015,   0.00000,   2.00000
441518972.29269,115243891.07788,-152613015.84020,   0.00305,   0.00096,  -0.00214,478186163.31473,   0.00187,276665491.49794,   0.00126,   0.00129,  -0.00016,  -0.00000,   2.00000
440833115.54220,114209195.95992,-152955262.23252,   0.00305,   0.00095,  -0.00215,478211656.18402,   0.00188,276672127.62625,   0.00127,   0.00129,  -0.00016,   0.00000,   2.00000
440150721.68949,113190677.49962,-153295749.78898,   0.00306,   0.00095,  -0.00216,478204382.95143,   0.00188,276678706.88412,   0.00127,   0.00129,  -0.00017,   0.00000,   2.00000
439468320.99730,112174814.52143,-153634370.05807,   0.00306,   0.00094,  -0.00218,478213663.31232,   0.00189,276685300.55646,   0.00128,   0.00129,  -0.00018,  -0.00000,   2.00000
438793364.17075,111167900.83240,-153966500.80827,   0.00307,   0.00094,  -0.00219,478236579.49718,   0.00190,276691967.13931,   0.00129,   0.00129,  -0.00018,   0.00000,   2.00000
438123630.63643,110195196.31914,-154299908.92860,   0.00307,   0.00093,  -0.00220,478236721.32588,   0.00190,276698608.35746,   0.00129,   0.00128,  -0.00019,   0.00000,   2.00000
437459813.79170,109213226.28173,-154623966.16852,   0.00307,   0.00093,  -0.00221,478251914.73267,   0.00191,276705289.02645,   0.00130,   0.00128,  -0.00020,   0.00000,   2.00000
436808868.07564,108271766.55335,-154944761.94769,   0.00308,   0.00092,  -0.00222,478265456.98969,   0.00191,276712001.77305,   0.00130,   0.00128,  -0.00021,   0.00000,   2.00000
436151742.46652,107313885.90331,-155264571.95372,   0.00308,   0.00092,  -0.00223,478272390.28867,   0.00192,276718718.05981,   0.00131,   0.00128,  -0.00021,  -0.00000,   2.00000
435507664.68922,106396501.21443,-155581189.67138,   0.00309,   0.00091,  -0.00224,478285763.89915,   0.00193,276725465.48030,   0.00131,   0.00128,  -0.00022,   0.00000,   2.00000
434868505.13021,105482317.84688,-155892477.94023,   0.00309,   0.00091,  -0.00225,478289380.36107,   0.00193,276732201.85742,   0.00132,   0.00128,  -0.00023,   0.00000,   2.00000
434229635.50702,104570609.90839,-156202108.15437,   0.00310,   0.00090,  -0.00226,478298361.99166,   0.00194,276738950.32765,   0.00133,   0.00127,  -0.00023,   0.00000,   2.00000
433597572.40310,103680357.71895,-156509383.27683,   0.00310,   0.00090,  -0.00228,478309381.99179,   0.00195,276745719.56007,   0.00133,   0.00127,  -0.00024,   0.00000,   2.00000
432980130.60318,102818052.34800,-156809692.12603,   0.00311,   0.00089,  -0.00229,478333800.55559,   0.00195,276752567.15173,   0.00134,   0.00127,  -0.00025,  -0.00000,   2.00000
432359969.16143,101952260.61860,-157109454.67464,   0.00311,   0.00089,  -0.00230,478323787.51149,   0.00196,276759344.28809,   0.00134,   0.00127,  -0.00025,   0.00000,   2.00000
431754592.14415,101114419.25522,-157402318.55631,   0.00312,   0.00089,  -0.00231,478348025.60525,   0.00197,276766198.92160,   0.00135,   0.00127,  -0.00026,   0.00000,   2.00000
431153076.70378,100291974.93507,-157694031.41156,   0.00312,   0.00088,  -0.00232,478339872.47972,   0.00197,276772990.90243,   0.00135,   0.00127,  -0.00027,   0.00000,   2.00000
430555257.35409,99477754.63767,-157983190.97815,   0.00313,   0.00088,  -0.00233,478367458.25199,   0.00198,276779874.73140,   0.00136,   0.00126,  -0.00028,  -0.00000,   2.00000
429962594.13561,98666462.39461,-158267268.84690,   0.00313,   0.00087,  -0.00234,478370721.95465,   0.00198,276786744.98846,   0.00137,   0.00126,  -0.00028,   0.00000,   2.00000
429383776.05773,97895478.74035,-158548578.03230,   0.00313,   0.00087,  -0.00235,478383169.74155,   0.00199,276793641.28213,   0.00137,   0.00126,  -0.00029,   0.00000,   2.00000
428803487.85708,97108267.40966,-158825531.40724,   0.00314,   0.00086,  -0.00236,478384436.65222,   0.00200,276800515.21895,   0.00138,   0.00126,  -0.00030,   0.00000,   2.00000
428237167.01813,96361324.40530,-159099795.58290,   0.00314,   0.00086,  -0.00237,478396704.00537,   0.00200,276807414.31628,   0.00138,   0.00126,  -0.00031,   0.00000,   2.00000
427671445.66133,95616476.70449,-159372685.60868,   0.00315,   0.00086,  -0.00238,478405242.09590,   0.00201,276814322.33580,   0.00139,   0.00125,  -0.00031,  -0.00000,   2.00000
427121140.73533,94899522.19866,-159638926.25289,   0.00315,   0.00085,  -0.00240,478428867.70966,   0.00202,276821304.39545,   0.00140,   0.00125,  -0.00032,  -0.00000,   2.00000
426568056.64338,94178447.21878,-159904946.11799,   0.00316,   0.00085,  -0.00241,478418541.57675,   0.00202,276828213.34337,   0.00140,   0.00125,  -0.00033,  -0.00000,   2.00000
426030513.67388,93485250.68546,-160164376.44671,   0.00316,   0.00084,  -0.00242,478442009.57632,   0.00203,276835195.59087,   0.00141,   0.00125,  -0.00033,  -0.00000,   2.00000
425490160.51241,92787817.29789,-160423647.44072,   0.00317,   0.00084,  -0.00243,478431613.52943,   0.00204,276842104.29728,   0.00141,   0.00125,  -0.00034,   0.00000,   2.00000
424972293.81894,92137306.33451,-160675787.50402,   0.00317,   0.00084,  -0.00244,478456625.25720,   0.00204,276849092.88280,   0.00142,   0.00125,  -0.00035,   0.00000,   2.00000
424448295.07113,91469586.20281,-160927304.50868,   0.00318,   0.00083,  -0.00245,478463265.29861,   0.00205,276856081.52098,   0.00142,   0.00124,  -0.00036,  -0.00000,   2.00000
423930500.37899,90835043.25266,-161181083.39888,   0.00318,   0.00083,  -0.00246,478461717.08953,   0.00206,276863034.66841,   0.00143,   0.00124,  -0.00036,   0.00000,   2.00000
423426342.07480,90209762.63819,-161425467.63831,   0.00319,   0.00082,  -0.00247,478477577.05376,   0.00206,276870027.81838,   0.00144,   0.00124,  -0.00037,   0.00000,   2.00000
422934475.35089,89605919.90754,-161664595.68764,   0.00319,   0.00082,  -0.00248,478481829.03477,   0.00207,276877010.44915,   0.00144,   0.00124,  -0.00038,   0.00000,   2.00000
422438689.48089,89003233.66867,-161906104.13280,   0.00320,   0.00082,  -0.00249,478495611.85385,   0.00208,276884023.89852,   0.00145,   0.00124,  -0.00039,  -0.00000,   2.00000
421963580.06414,88428855.81414,-162137736.17628,   0.00320,   0.00081,  -0.00250,478512939.94527,   0.00208,276891083.30723,   0.00145,   0.00123,  -0.00039,  -0.00000,   2.00000
421487832.66399,87868275.23293,-162372389.25875,   0.00321,   0.00081,  -0.00251,478509519.19973,   0.00209,276898098.51700,   0.00146,   0.00123,  -0.00040,   0.00000,   2.00000
421017524.10747,87309852.29466,-162602461.77626,   0.00321,   0.00081,  -0.00252,478511975.78312,   0.00210,276905095.16791,   0.00146,   0.00123,  -0.00041,   0.00000,   2.00000
420563362.10156,86779100.59586,-162826252.87731,   0.00321,   0.00080,  -0.00253,478534694.98798,   0.00210,276912161.10920,   0.00147,   0.00123,  -0.00042,  -0.00000,   2.00000
420113216.58986,86262528.51121,-163049657.74336,   0.00322,   0.00080,  -0.00254,478525506.85725,   0.00211,276919157.64131,   0.00148,   0.00123,  -0.00042,  -0.00000,   2.00000
419672302.47506,85754439.85742,-163267381.40091,   0.00322,   0.00080,  -0.00255,478546561.33271,   0.00212,276926216.18662,   0.00148,   0.00122,  -0.00043,   0.00000,   2.00000
419230722.95028,85259899.94671,-163488251.65008,   0.00323,   0.00079,  -0.00256,478542957.82773,   0.00212,276933229.49215,   0.00149,   0.00122,  -0.00044,   0.00000,   2.00000
418810126.48889,84793441.83742,-163699459.23007,   0.00323,   0.00079,  -0.00257,478559759.79946,   0.00213,276940286.18221,   0.00149,   0.00122,  -0.00045,  -0.00000,   2.00000
418390326.08999,84328327.95429,-163909728.17010,   0.00324,   0.00079,  -0.00258,478567651.70644,   0.00214,276947347.40454,   0.00150,   0.00122,  -0.00045,   0.00000,   2.00000
417978375.53304,83883665.05631,-164118539.02751,   0.00324,   0.00078,  -0.00260,478576997.86380,   0.00214,276954419.39467,   0.00151,   0.00122,  -0.00046,  -0.00000,   2.00000
417578960.67646,83459912.46551,-164322456.15259,   0.00325,   0.00078,  -0.00261,478580605.30002,   0.00215,276961477.13515,   0.00151,   0.00122,  -0.00047,  -0.00000,   2.00000
417180341.42388,83037377.83775,-164525484.69393,   0.00325,   0.00078,  -0.00262,478588408.89464,   0.00216,276968538.89197,   0.00152,   0.00121,  -0.00048,   0.00000,   2.00000
416794276.26568,82635684.17865,-164723672.37899,   0.00326,   0.00077,  -0.00263,478591915.26409,   0.00216,276975585.92931,   0.00152,   0.00121,  -0.00048,   0.00000,   2.00000
416416095.23007,82254260.79554,-164920497.81560,   0.00326,   0.00077,  -0.00264,478601064.56513,   0.00217,276982642.75381,   0.00153,   0.00121,  -0.00049,  -0.00000,   2.00000
416043376.26355,81874431.80213,-165113046.79010,   0.00327,   0.00077,  -0.00265,478603056.68891,   0.00218,276989678.23214,   0.00153,   0.00121,  -0.00050,   0.00000,   2.00000
415685667.01824,81533933.58305,-165303771.93541,   0.00327,   0.00077,  -0.00266,478613511.06246,   0.00218,276996729.09995,   0.00154,   0.00121,  -0.00051,   0.00000,   2.00000
415321608.97041,81175280.06816,-165494195.63486,   0.00328,   0.00076,  -0.00267,478619777.68987,   0.00219,277003777.14633,   0.00155,   0.00120,  -0.00052,   0.00000,   2.00000
414985966.12818,80863533.98520,-165674721.55274,   0.00328,   0.00076,  -0.00268,478637383.75057,   0.00220,277010871.49169,   0.00155,   0.00120,  -0.00052,   0.00000,   2.00000
414647048.64853,80546023.52444,-165855759.55146,   0.00329,   0.00076,  -0.00269,478626300.93956,   0.00220,277017887.35112,   0.00156,   0.00120,  -0.00053,  -0.00000,   2.00000
414320083.37999,80255207.56687,-166034292.04189,   0.00329,   0.00076,  -0.00270,478653899.05595,   0.00221,277024992.99761,   0.00156,   0.00120,  -0.00054,   0.00000,   2.00000
414001640.04241,79978159.56245,-166209461.20658,   0.00330,   0.00075,  -0.00271,478638383.15762,   0.00222,277032000.73173,   0.00157,   0.00120,  -0.00055,  -0.00000,   2.00000
413688009.33781,79708574.42750,-166382642.23274,   0.00330,   0.00075,  -0.00272,478664555.72088,   0.00222,277039092.03975,   0.00157,   0.00119,  -0.00055,   0.00000,   2.00000
413382868.15967,79452672.15597,-166552512.25636,   0.00331,   0.00075,  -0.00273,478648967.29838,   0.00223,277046085.10979,   0.00158,   0.00119,  -0.00056,   0.00000,   2.00000
413089727.71577,79223320.25516,-166719931.33226,   0.00331,   0.00074,  -0.00274,478676402.22721,   0.00224,277053167.19827,   0.00159,   0.00119,  -0.00057,   0.00000,   2.00000
412801978.05463,78995086.94400,-166883283.19279,   0.00332,   0.00074,  -0.00275,478678101.41572,   0.00224,277060226.10111,   0.00159,   0.00119,  -0.00058,   0.00000,   2.00000
412517973.82299,78779909.01787,-167046799.68574,   0.00332,   0.00074,  -0.00276,478668180.71433,   0.00225,277067211.40906,   0.00160,   0.00119,  -0.00058,  -0.00000,   2.00000
412250683.29183,78591657.94741,-167204505.26472,   0.00333,   0.00074,  -0.00277,478689727.50414,   0.00226,277074260.07499,   0.00160,   0.00118,  -0.00059,   0.00000,   2.00000
411991254.96611,78423060.24633,-167361113.02978,   0.00333,   0.00074,  -0.00278,478698419.05626,   0.00226,277081315.92160,   0.00161,   0.00118,  -0.00060,   0.00000,   2.00000
411737164.80983,78255389.76035,-167513725.98546,   0.00334,   0.00073,  -0.00278,478699993.05705,   0.00227,277088347.98364,   0.00161,   0.00118,  -0.00061,  -0.00000,   2.00000
411495608.50482,78107782.22172,-167661893.99726,   0.00334,   0.00073,  -0.00279,478702814.81578,   0.00228,277095361.73002,   0.00162,   0.00118,  -0.00061,   0.00000,   2.00000
411261877.67783,77979707.03307,-167809015.59900,   0.00335,   0.00073,  -0.00280,478711405.26959,   0.00228,277102382.25541,   0.00163,   0.00118,  -0.00062,   0.00000,   2.00000
411028748.14627,77851964.63330,-167955568.19700,   0.00335,   0.00073,  -0.00281,478718703.16518,   0.00229,277109403.91187,   0.00163,   0.00117,  -0.00063,   0.00000,   2.00000
410815340.54664,77763303.64085,-168097247.26346,   0.00335,   0.00073,  -0.00282,478722730.58926,   0.00230,277116412.38487,   0.00164,   0.00117,  -0.00064,   0.00000,   2.00000
410599964.82582,77656181.60355,-168235491.60019,   0.00336,   0.00072,  -0.00283,478722870.00483,   0.00230,277123390.87824,   0.00164,   0.00117,  -0.00065,  -0.00000,   2.00000
410399591.92865,77587613.70061,-168372268.98139,   0.00336,   0.00072,  -0.00284,478732642.19321,   0.00231,277130381.27888,   0.00165,   0.00117,  -0.00065,   0.00000,   2.00000
410206968.77431,77538339.65385,-168508054.53383,   0.00337,   0.00072,  -0.00285,478741131.47607,   0.00231,277137377.91375,   0.00165,   0.00117,  -0.00066,  -0.00000,   2.00000
410019550.56519,77489625.40274,-168639969.58950,   0.00337,   0.00072,  -0.00286,478742494.91585,   0.00232,277144349.79269,   0.00166,   0.00116,  -0.00067,   0.00000,   2.00000
409844550.63877,77460613.32481,-168767565.27977,   0.00338,   0.00072,  -0.00287,478745091.94541,   0.00233,277151302.33085,   0.00167,   0.00116,  -0.00068,  -0.00000,   2.00000
409670018.23589,77431634.85211,-168894679.20794,   0.00338,   0.00071,  -0.00288,478752233.15770,   0.00233,277158255.35102,   0.00167,   0.00116,  -0.00068,   0.00000,   2.00000
409510401.88953,77440974.63695,-169020371.40000,   0.00339,   0.00071,  -0.00289,478761921.13402,   0.00234,277165219.82091,   0.00168,   0.00116,  -0.00069,   0.00000,   2.00000
409355911.38501,77450698.23788,-169142245.65345,   0.00339,   0.00071,  -0.00290,478763198.65333,   0.00235,277172159.15526,   0.00168,   0.00116,  -0.00070,  -0.00000,   2.00000
409213760.22848,77479949.67567,-169259850.14929,   0.00340,   0.00071,  -0.00291,478765712.95791,   0.00235,277179078.78559,   0.00169,   0.00116,  -0.00071,   0.00000,   2.00000
409071989.64568,77509059.26755,-169377010.81750,   0.00340,   0.00071,  -0.00292,478772789.78499,   0.00236,277185998.61216,   0.00169,   0.00115,  -0.00071,   0.00000,   2.00000
408951541.26719,77564868.08674,-169485216.53071,   0.00341,   0.00071,  -0.00293,478788039.18359,   0.00237,277192954.03564,   0.00170,   0.00115,  -0.00072,   0.00000,   2.00000
408836838.08852,77651513.11781,-169596769.51920,   0.00341,   0.00071,  -0.00293,478784926.45639,   0.00237,277199865.11510,   0.00170,   0.00115,  -0.00073,   0.00000,   2.00000
408719922.23418,77719174.30431,-169705045.66744,   0.00342,   0.00070,  -0.00294,478784813.98441,   0.00238,277206745.11458,   0.00171,   0.00115,  -0.00074,  -0.00000,   2.00000
408617748.24973,77824861.41288,-169811955.78361,   0.00342,   0.00070,  -0.00295,478794407.29570,   0.00239,277213636.21695,   0.00172,   0.00115,  -0.00075,   0.00000,   2.00000
408520545.07921,77930652.68975,-169915133.27583,   0.00343,   0.00070,  -0.00296,478795546.13199,   0.00239,277220501.66952,   0.00172,   0.00114,  -0.00075,   0.00000,   2.00000
408430800.76878,78055213.11136,-170017433.45709,   0.00343,   0.00070,  -0.00297,478803839.31354,   0.00240,277227372.59428,   0.00173,   0.00114,  -0.00076,  -0.00000,   2.00000
408353198.94704,78198964.74524,-170115537.39597,   0.00344,   0.00070,  -0.00298,478806246.75701,   0.00241,277234223.37465,   0.00173,   0.00114,  -0.00077,   0.00000,   2.00000
408287698.88274,78361852.87760,-170209458.34569,   0.00344,   0.00070,  -0.00299,478808632.86494,   0.00241,277241053.95993,   0.00174,   0.00114,  -0.00078,  -0.00000,   2.00000
408222343.96866,78524200.37136,-170303008.41800,   0.00345,   0.00070,  -0.00300,478815592.33343,   0.00242,277247884.28450,   0.00174,   0.00114,  -0.00078,  -0.00000,   2.00000
408169046.63247,78705633.19432,-170392389.54979,   0.00345,   0.00070,  -0.00301,478817960.19752,   0.00243,277254694.38164,   0.00175,   0.00113,  -0.00079,   0.00000,   2.00000
408123043.41463,78905606.71502,-170480919.57445,   0.00346,   0.00070,  -0.00301,478826222.13977,   0.00243,277261509.86532,   0.00175,   0.00113,  -0.00080,   0.00000,   2.00000
408089021.36203,79124555.52086,-170565288.41692,   0.00346,   0.00069,  -0.00302,478828589.88601,   0.00244,277268305.09957,   0.00176,   0.00113,  -0.00081,  -0.00000,   2.00000
408055033.86868,79342796.93508,-170649307.69634,   0.00347,   0.00069,  -0.00303,478835522.12104,   0.00245,277275099.97085,   0.00177,   0.00113,  -0.00081,  -0.00000,   2.00000
408032978.87252,79579964.34824,-170729176.53085,   0.00347,   0.00069,  -0.00304,478837879.34033,   0.00245,277281874.59653,   0.00177,   0.00113,  -0.00082,   0.00000,   2.00000
408018082.28255,79835502.17139,-170808201.86715,   0.00348,   0.00069,  -0.00305,478846147.52521,   0.00246,277288654.65012,   0.00178,   0.00113,  -0.00083,  -0.00000,   2.00000
408010687.04384,80103199.71640,-170884516.29590,   0.00348,   0.00069,  -0.00306,478829858.81751,   0.00246,277295333.65113,   0.00178,   0.00112,  -0.00084,   0.00000,   2.00000
408007571.53086,80376702.92644,-170959058.10325,   0.00349,   0.00069,  -0.00307,478855350.48534,   0.00247,277302093.09599,   0.00179,   0.00112,  -0.00084,   0.00000,   2.00000
408020985.18049,80669489.48205,-171026168.18311,   0.00349,   0.00069,  -0.00307,478851785.99700,   0.00248,277308806.66364,   0.00179,   0.00112,  -0.00085,  -0.00000,   2.00000
408027584.49105,80972821.20699,-171100477.51159,   0.00350,   0.00069,  -0.00308,478853248.66170,   0.00248,277315496.34114,   0.00180,   0.00112,  -0.00086,   0.00000,   2.00000
408059733.82777,81302499.12343,-171162604.56205,   0.00350,   0.00069,  -0.00309,478862378.63201,   0.00249,277322195.36164,   0.00180,   0.00112,  -0.00087,   0.00000,   2.00000
408089707.99993,81643141.94453,-171228638.31904,   0.00351,   0.00069,  -0.00310,478857940.09675,   0.00250,277328844.91457,   0.00181,   0.00111,  -0.00087,   0.00000,   2.00000
408133278.31531,81990371.58628,-171286317.02816,   0.00351,   0.00069,  -0.00311,478871578.94527,   0.00250,277335523.46193,   0.00181,   0.00111,  -0.00088,   0.00000,   2.00000
408174612.83118,82348529.92650,-171347906.39594,   0.00352,   0.00069,  -0.00312,478867151.47879,   0.00251,277342152.65341,   0.00182,   0.00111,  -0.00089,   0.00000,   2.00000
408227517.71923,82725233.05057,-171405354.52899,   0.00352,   0.00069,  -0.00312,478869492.14738,   0.00251,277348761.96458,   0.00182,   0.00111,  -0.00090,   0.00000,   2.00000
408289181.68658,83107862.63240,-171457741.35906,   0.00353,   0.00069,  -0.00313,478889053.25769,   0.00252,277355425.97060,   0.00183,   0.00111,  -0.00090,   0.00000,   2.00000
408353253.66199,83501884.96101,-171510753.12420,   0.00353,   0.00069,  -0.00314,478878728.75060,   0.00253,277362015.10942,   0.00183,   0.00111,  -0.00091,  -0.00000,   2.00000
408428779.46291,83914358.32256,-171559627.17474,   0.00353,   0.00069,  -0.00315,478881086.62177,   0.00253,277368584.54046,   0.00184,   0.00110,  -0.00092,   0.00000,   2.00000
408510948.24660,84344674.91138,-171607641.20319,   0.00354,   0.00069,  -0.00316,478889400.91848,   0.00254,277375160.07184,   0.00185,   0.00110,  -0.00093,   0.00000,   2.00000
408604466.58859,84793339.17537,-171651506.92065,   0.00354,   0.00069,  -0.00316,478891805.52621,   0.00255,277381716.07742,   0.00185,   0.00110,  -0.00093,   0.00000,   2.00000
408693187.13966,85234166.55251,-171696557.72908,   0.00355,   0.00069,  -0.00317,478879960.36331,   0.00255,277388191.08644,   0.00186,   0.00110,  -0.00094,  -0.00000,   2.00000
408797508.48030,85699782.81337,-171735967.69549,   0.00355,   0.00069,  -0.00318,478900991.53397,   0.00256,277394727.47766,   0.00186,   0.00110,  -0.00095,   0.00000,   2.00000
408913053.23175,86183655.25957,-171771226.15846,   0.00356,   0.00069,  -0.00319,478903430.67686,   0.00256,277401244.58812,   0.00187,   0.00110,  -0.00096,   0.00000,   2.00000
409025948.27033,86678151.22485,-171810369.70312,   0.00356,   0.00069,  -0.00320,478899097.91203,   0.00257,277407713.25117,   0.00187,   0.00109,  -0.00096,   0.00000,   2.00000
409152051.12500,87178727.84217,-171841159.94231,   0.00357,   0.00069,  -0.00320,478912700.39675,   0.00258,277414211.10796,   0.00188,   0.00109,  -0.00097,   0.00000,   2.00000
409287175.52923,87709585.71699,-171871962.39996,   0.00357,   0.00069,  -0.00321,478904036.84496,   0.00258,277420641.83698,   0.00188,   0.00109,  -0.00098,   0.00000,   2.00000
409419413.38463,88220366.16267,-171899796.35615,   0.00358,   0.00069,  -0.00322,478903282.66657,   0.00259,277427039.93495,   0.00189,   0.00109,  -0.00098,  -0.00000,   2.00000
409560086.53484,88767166.92690,-171929384.50847,   0.00358,   0.00069,  -0.00323,478919262.18454,   0.00259,277433477.68145,   0.00189,   0.00109,  -0.00099,  -0.00000,   2.00000
409716493.49870,89332628.70090,-171951503.20768,   0.00359,   0.00069,  -0.00323,478915845.06601,   0.00260,277439871.16209,   0.00190,   0.00109,  -0.00100,   0.00000,   2.00000
409872091.19318,89896393.75297,-171973317.60596,   0.00359,   0.00069,  -0.00324,478922675.58819,   0.00261,277446264.78359,   0.00190,   0.00108,  -0.00101,  -0.00000,   2.00000
410029554.34021,90471266.62528,-171995715.64709,   0.00360,   0.00069,  -0.00325,478912465.79043,   0.00261,277452585.06487,   0.00191,   0.00108,  -0.00101,  -0.00000,   2.00000
410206857.93457,91071019.34364,-172009109.52536,   0.00360,   0.00069,  -0.00326,478927749.37758,   0.00262,277458942.15745,   0.00191,   0.00108,  -0.00102,   0.00000,   2.00000
410374255.26289,91662108.00850,-172026991.70189,   0.00361,   0.00070,  -0.00326,478921824.98225,   0.00263,277465244.53548,   0.00192,   0.00108,  -0.00103,  -0.00000,   2.00000
410568250.12689,92297062.64796,-172035198.26401,   0.00361,   0.00070,  -0.00327,478938900.68671,   0.00263,277471591.41428,   0.00192,   0.00108,  -0.00103,   0.00000,   2.00000
410752254.01410,92923277.81775,-172047886.30354,   0.00362,   0.00070,  -0.00328,478933018.37688,   0.00264,277477883.74813,   0.00193,   0.00108,  -0.00104,   0.00000,   2.00000
410944874.04644,93548965.53692,-172053731.14000,   0.00362,   0.00070,  -0.00329,478927922.44683,   0.00264,277484125.17686,   0.00193,   0.00107,  -0.00105,   0.00000,   2.00000
411136346.33774,94203416.66866,-172065982.37482,   0.00362,   0.00070,  -0.00329,478931474.63059,   0.00265,277490353.11946,   0.00194,   0.00107,  -0.00106,   0.00000,   2.00000
411345332.26630,94864085.93677,-172066567.37023,   0.00363,   0.00070,  -0.00330,478939159.46974,   0.00265,277496585.37817,   0.00194,   0.00107,  -0.00106,   0.00000,   2.00000
411551049.08950,95535067.35021,-172070952.92924,   0.00363,   0.00070,  -0.00331,478935033.95432,   0.00266,277502771.12640,   0.00195,   0.00107,  -0.00107,   0.00000,   2.00000
411776150.28841,96230555.42258,-172066237.37579,   0.00364,   0.00070,  -0.00331,478950539.53381,   0.00267,277508994.91553,   0.00195,   0.00107,  -0.00108,   0.00000,   2.00000
411997860.78541,96936273.99805,-172065296.75691,   0.00364,   0.00070,  -0.00332,478946506.20779,   0.00267,277515172.56817,   0.00196,   0.00107,  -0.00108,   0.00000,   2.00000
412223177.29313,97640625.68682,-172060750.50565,   0.00365,   0.00071,  -0.00333,478947409.37146,   0.00268,277521325.51577,   0.00196,   0.00107,  -0.00109,   0.00000,   2.00000
412449885.49860,98355948.99628,-172056699.54021,   0.00365,   0.00071,  -0.00334,478937397.76434,   0.00268,277527406.98222,   0.00197,   0.00106,  -0.00110,  -0.00000,   2.00000
412690930.13977,99094873.85504,-172046749.34719,   0.00366,   0.00071,  -0.00334,478958959.79150,   0.00269,277533552.81431,   0.00197,   0.00106,  -0.00111,   0.00000,   2.00000
412938064.26260,99845449.04580,-172034007.60153,   0.00366,   0.00071,  -0.00335,478943087.34474,   0.00270,277539601.99342,   0.00198,   0.00106,  -0.00111,   0.00000,   2.00000
413187901.29282,100599725.42976,-172019349.69878,   0.00367,   0.00071,  -0.00336,478968710.37615,   0.00270,277545733.01697,   0.00198,   0.00106,  -0.00112,   0.00000,   2.00000
413450378.86880,101384661.32640,-172001124.40279,   0.00367,   0.00071,  -0.00336,478954915.84395,   0.00271,277551776.34431,   0.00199,   0.00106,  -0.00113,   0.00000,   2.00000
413695960.29000,102141719.63396,-171988129.41723,   0.00368,   0.00071,  -0.00337,478946929.54751,   0.00271,277557757.38828,   0.00199,   0.00106,  -0.00113,   0.00000,   2.00000
413966995.86983,102941901.99244,-171965124.00104,   0.00368,   0.00072,  -0.00338,478964739.21154,   0.00272,277563786.89811,   0.00200,   0.00106,  -0.00114,   0.00000,   2.00000
414227695.22474,103733187.75535,-171946580.88306,   0.00368,   0.00072,  -0.00338,478958808.54914,   0.00272,277569762.94882,   0.00200,   0.00105,  -0.00115,   0.00000,   2.00000
414513633.28242,104567438.48313,-171917965.82212,   0.00369,   0.00072,  -0.00339,478976805.20586,   0.00273,277575788.15983,   0.00201,   0.00105,  -0.00115,   0.00000,   2.00000
414778676.73707,105368060.14445,-171896187.41092,   0.00369,   0.00072,  -0.00340,478949971.42406,   0.00274,277581670.45702,   0.00201,   0.00105,  -0.00116,   0.00000,   2.00000
415068829.13060,106211595.54875,-171864292.10710,   0.00370,   0.00072,  -0.00340,478968014.07607,   0.00274,277587602.48228,   0.00202,   0.00105,  -0.00117,   0.00000,   2.00000
415363791.95956,107071625.22072,-171831175.55378,   0.00370,   0.00073,  -0.00341,478977146.01769,   0.00275,277593545.82329,   0.00202,   0.00105,  -0.00117,   0.00000,   2.00000
415653135.69488,107923534.95035,-171799237.70780,   0.00371,   0.00073,  -0.00341,478965295.22531,   0.00275,277599410.72275,   0.00203,   0.00105,  -0.00118,   0.00000,   2.00000
415940815.84198,108772984.20301,-171766896.97753,   0.00371,   0.00073,  -0.00342,478972187.58045,   0.00276,277605277.68925,   0.00203,   0.00105,  -0.00119,   0.00000,   2.00000
416244476.34151,109658679.99450,-171729177.58792,   0.00371,   0.00073,  -0.00343,478977678.91017,   0.00276,277611140.63369,   0.00203,   0.00104,  -0.00119,   0.00000,   2.00000
416542488.40442,110536295.68142,-171692626.32469,   0.00372,   0.00073,  -0.00343,478965802.10544,   0.00277,277616925.42223,   0.00204,   0.00104,  -0.00120,   0.00000,   2.00000
416849960.72400,111431176.51386,-171651512.69734,   0.00372,   0.00074,  -0.00344,478969068.57945,   0.00277,277622697.04809,   0.00204,   0.00104,  -0.00121,   0.00000,   2.00000
417161948.74833,112342386.21084,-171609082.47440,   0.00373,   0.00074,  -0.00345,478978343.30532,   0.00278,277628481.17278,   0.00205,   0.00104,  -0.00121,  -0.00000,   2.00000
417483233.55586,113270753.14871,-171562044.96796,   0.00373,   0.00074,  -0.00345,478981760.20067,   0.00279,277634252.69558,   0.00205,   0.00104,  -0.00122,   0.00000,   2.00000
417798792.68648,114191067.78591,-171516158.26903,   0.00374,   0.00074,  -0.00346,478969890.45335,   0.00279,277639946.52660,   0.00206,   0.00104,  -0.00123,   0.00000,   2.00000
418127361.23574,115133876.85529,-171464036.32140,   0.00374,   0.00075,  -0.00346,478992189.97124,   0.00280,277645708.60652,   0.00206,   0.00104,  -0.00123,   0.00000,   2.00000
418456401.47209,116087520.70697,-171412132.17949,   0.00374,   0.00075,  -0.00347,478982815.82017,   0.00280,277651403.64178,   0.00207,   0.00104,  -0.00124,  -0.00000,   2.00000
418779688.54833,117033160.52263,-171361365.06182,   0.00375,   0.00075,  -0.00347,478970929.39540,   0.00281,277657021.29939,   0.00207,   0.00103,  -0.00125,  -0.00000,   2.00000
419107180.72325,117994955.08677,-171309178.97750,   0.00375,   0.00075,  -0.00348,478980374.12188,   0.00281,277662652.71589,   0.00208,   0.00103,  -0.00125,  -0.00000,   2.00000
419457133.26418,118980907.15827,-171244128.70511,   0.00376,   0.00076,  -0.00349,478991018.20186,   0.00282,277668302.83424,   0.00208,   0.00103,  -0.00126,  -0.00000,   2.00000
419789035.45982,119969629.62564,-171190660.29151,   0.00376,   0.00076,  -0.00349,478980640.97389,   0.00282,277673882.19674,   0.00209,   0.00103,  -0.00127,   0.00000,   2.00000
420137154.65451,120963591.44419,-171125252.20855,   0.00377,   0.00076,  -0.00350,478988779.22699,   0.00283,277679469.81258,   0.00209,   0.00103,  -0.00127,   0.00000,   2.00000
420480636.25682,121967443.95237,-171063244.66347,   0.00377,   0.00076,  -0.00350,478985464.74766,   0.00283,277685016.97236,   0.00209,   0.00103,  -0.00128,   0.00000,   2.00000
420832865.91581,122988232.23863,-170996441.77399,   0.00377,   0.00077,  -0.00351,478989248.81266,   0.00284,277690553.97327,   0.00210,   0.00103,  -0.00129,   0.00000,   2.00000
421185242.05504,124019892.91735,-170929712.51410,   0.00378,   0.00077,  -0.00351,478980097.35771,   0.00284,277696025.94812,   0.00210,   0.00103,  -0.00129,  -0.00000,   2.00000
421535352.36695,125048619.50209,-170862447.86626,   0.00378,   0.00077,  -0.00352,478987135.75690,   0.00285,277701501.90495,   0.00211,   0.00103,  -0.00130,  -0.00000,   2.00000
421894048.95847,126094220.54685,-170790327.56774,   0.00379,   0.00078,  -0.00352,478991035.15247,   0.00285,277706968.46205,   0.00211,   0.00102,  -0.00130,   0.00000,   2.00000
422250418.20596,127136833.51367,-170717667.04104,   0.00379,   0.00078,  -0.00353,478998114.83964,   0.00286,277712439.14124,   0.00212,   0.00102,  -0.00131,   0.00000,   2.00000
422611718.90027,128191440.60904,-170641740.48099,   0.00379,   0.00078,  -0.00354,478983168.05343,   0.00287,277717820.59739,   0.00212,   0.00102,  -0.00132,   0.00000,   2.00000
422976526.86086,129261787.12484,-170564184.74694,   0.00380,   0.00079,  -0.00354,478993076.81869,   0.00287,277723218.47201,   0.00213,   0.00102,  -0.00132,   0.00000,   2.00000
423341250.55475,130343052.16052,-170486593.04744,   0.00380,   0.00079,  -0.00355,478984120.14055,   0.00288,277728552.83288,   0.00213,   0.00102,  -0.00133,   0.00000,   2.00000
423703534.26427,131421252.35481,-170408421.12062,   0.00381,   0.00079,  -0.00355,478991196.52867,   0.00288,277733891.81096,   0.00213,   0.00102,  -0.00134,   0.00000,   2.00000
424079838.92107,132534886.38909,-170324146.39649,   0.00381,   0.00080,  -0.00356,478998328.00405,   0.00289,277739235.52002,   0.00214,   0.00102,  -0.00134,  -0.00000,   2.00000
424444385.44726,133622040.64732,-170242021.69442,   0.00381,   0.00080,  -0.00356,478983528.39630,   0.00289,277744491.34607,   0.00214,   0.00102,  -0.00135,  -0.00000,   2.00000
424822807.04111,134744600.78765,-170153735.27000,   0.00382,   0.00080,  -0.00357,478990754.91908,   0.00290,277749752.65559,   0.00215,   0.00102,  -0.00135,   0.00000,   2.00000
425198624.43932,135863971.13339,-170064833.76120,   0.00382,   0.00081,  -0.00357,478997909.82274,   0.00290,277755019.11243,   0.00215,   0.00102,  -0.00136,   0.00000,   2.00000
425574112.99094,136994304.90600,-169975778.54389,   0.00382,   0.00081,  -0.00358,478989176.21035,   0.00291,277760223.65233,   0.00216,   0.00102,  -0.00137,   0.00000,   2.00000
425946980.73350,138121436.44647,-169886095.81172,   0.00383,   0.00081,  -0.00358,478996308.06103,   0.00291,277765433.47497,   0.00216,   0.00101,  -0.00137,   0.00000,   2.00000
426324400.88783,139260774.42695,-169792926.16339,   0.00383,   0.00082,  -0.00359,478981729.40954,   0.00292,277770557.05327,   0.00216,   0.00101,  -0.00138,   0.00000,   2.00000
426704721.71015,140415501.93432,-169697912.08389,   0.00384,   0.00082,  -0.00359,478992042.01952,   0.00292,277775699.60539,   0.00217,   0.00101,  -0.00138,  -0.00000,   2.00000
427087846.72485,141585534.61601,-169601022.25394,   0.00384,   0.00082,  -0.00360,479002467.08025,   0.00293,277780861.45720,   0.00217,   0.00101,  -0.00139,  -0.00000,   2.00000
427469839.43766,142749201.52275,-169501789.23331,   0.00384,   0.00083,  -0.00360,478984812.51661,   0.00293,277785924.41525,   0.00218,   0.00101,  -0.00140,   0.00000,   2.00000
427854539.81512,143928139.75624,-169400647.22324,   0.00385,   0.00083,  -0.00360,478995270.34419,   0.00293,277791007.12676,   0.00218,   0.00101,  -0.00140,   0.00000,   2.00000
428241362.49386,145104990.65553,-169295522.35764,   0.00385,   0.00083,  -0.00361,478996612.09487,   0.00294,277796071.17660,   0.00218,   0.00101,  -0.00141,  -0.00000,   2.00000
428622605.63785,146291629.10669,-169193392.01406,   0.00385,   0.00084,  -0.00361,478994014.74290,   0.00294,277801100.10696,   0.00219,   0.00101,  -0.00141,   0.00000,   2.00000
429003171.61378,147489336.70668,-169090910.18830,   0.00386,   0.00084,  -0.00362,478985595.83877,   0.00295,277806069.65108,   0.00219,   0.00101,  -0.00142,   0.00000,   2.00000
429391133.16633,148703453.51367,-168983103.43363,   0.00386,   0.00085,  -0.00362,478990397.27251,   0.00295,277811035.51190,   0.00220,   0.00101,  -0.00143,   0.00000,   2.00000
429781095.99612,149915447.13687,-168871260.03874,   0.00386,   0.00085,  -0.00363,478991787.16678,   0.00296,277815983.39723,   0.00220,   0.00101,  -0.00143,   0.00000,   2.00000
430160039.14471,151118757.98144,-168763649.59937,   0.00387,   0.00085,  -0.00363,478985785.61946,   0.00296,277820882.46573,   0.00220,   0.00101,  -0.00144,   0.00000,   2.00000
430551471.19156,152356892.15088,-168649321.62648,   0.00387,   0.00086,  -0.00363,478994262.64976,   0.00297,277825793.49024,   0.00221,   0.00100,  -0.00144,  -0.00000,   2.00000
430936765.97954,153587682.29241,-168535870.80070,   0.00387,   0.00086,  -0.00364,478982481.14045,   0.00297,277830631.67103,   0.00221,   0.00100,  -0.00145,   0.00000,   2.00000
431324210.52381,154833408.17082,-168420303.70387,   0.00388,   0.00087,  -0.00364,478993341.41261,   0.00298,277835492.01258,   0.00222,   0.00100,  -0.00145,   0.00000,   2.00000
431713542.77387,156076981.53089,-168300648.91333,   0.00388,   0.00087,  -0.00365,478994790.53252,   0.00298,277840335.05969,   0.00222,   0.00100,  -0.00146,  -0.00000,   2.00000
432101846.39539,157331708.59150,-168180467.87068,   0.00388,   0.00088,  -0.00365,478986705.22214,   0.00299,277845121.06675,   0.00222,   0.00100,  -0.00147,   0.00000,   2.00000
432479086.20872,158577852.48920,-168064468.94199,   0.00389,   0.00088,  -0.00366,478980686.56602,   0.00299,277849858.98586,   0.00223,   0.00100,  -0.00147,   0.00000,   2.00000
432868237.47539,159858567.30715,-167941511.20167,   0.00389,   0.00088,  -0.00366,478989685.59021,   0.00300,277854611.60803,   0.00223,   0.00100,  -0.00148,   0.00000,   2.00000
433246250.83409,161113817.32328,-167820806.46663,   0.00389,   0.00089,  -0.00366,478974060.28972,   0.00300,277859276.28406,   0.00224,   0.00100,  -0.00148,  -0.00000,   2.00000
433631040.05582,162402124.85869,-167696409.54891,   0.00390,   0.00089,  -0.00367,478989006.25768,   0.00300,277863980.72626,   0.00224,   0.00100,  -0.00149,   0.00000,   2.00000
434017562.40497,163688242.89094,-167567848.43980,   0.00390,   0.00090,  -0.00367,478990529.23173,   0.00301,277868668.83593,   0.00224,   0.00100,  -0.00149,   0.00000,   2.00000
434402791.70381,164985579.83334,-167438607.70052,   0.00390,   0.00090,  -0.00367,478982704.94345,   0.00301,277873301.79515,   0.00225,   0.00100,  -0.00150,   0.00000,   2.00000
434781861.48124,166275928.57105,-167310149.65487,   0.00391,   0.00091,  -0.00368,478970896.37049,   0.00302,277877863.35445,   0.00225,   0.00100,  -0.00150,   0.00000,   2.00000
435162488.55246,167580864.03995,-167179348.94579,   0.00391,   0.00091,  -0.00368,478982166.23976,   0.00302,277882449.71747,   0.00225,   0.00100,  -0.00151,   0.00000,   2.00000
435539828.91199,168882107.13820,-167047700.21759,   0.00391,   0.00092,  -0.00369,478989466.39323,   0.00303,277887044.26340,   0.00226,   0.00100,  -0.00151,   0.00000,   2.00000
435912912.63614,170191485.48201,-166916893.48123,   0.00391,   0.00092,  -0.00369,478962657.62830,   0.00303,277891505.44808,   0.00226,   0.00100,  -0.00152,  -0.00000,   2.00000
436295157.48375,171520006.76523,-166778699.20705,   0.00392,   0.00093,  -0.00369,478987399.04505,   0.00303,277896047.61794,   0.00227,   0.00100,  -0.00152,   0.00000,   2.00000
436663437.89936,172837062.43898,-166646203.14865,   0.00392,   0.00093,  -0.00370,478962284.97478,   0.00304,277900463.84282,   0.00227,   0.00100,  -0.00153,   0.00000,   2.00000
437045702.43482,174174696.51668,-166502913.97889,   0.00392,   0.00094,  -0.00370,478981358.33581,   0.00304,277904937.64797,   0.00227,   0.00100,  -0.00153,   0.00000,   2.00000
437409070.17325,175499436.79068,-166368673.66164,   0.00392,   0.00094,  -0.00370,478961967.70736,   0.00305,277909309.64873,   0.00228,   0.00099,  -0.00154,  -0.00000,   2.00000
437778569.55901,176840126.77794,-166228558.67128,   0.00393,   0.00095,  -0.00371,478967768.23234,   0.00305,277913684.48318,   0.00228,   0.00099,  -0.00155,   0.00000,   2.00000
438149108.62307,178195058.26144,-166085904.51355,   0.00393,   0.00095,  -0.00371,478979444.88956,   0.00306,277918086.36204,   0.00228,   0.00099,  -0.00155,   0.00000,   2.00000
438513444.84512,179543344.59358,-165943920.90053,   0.00393,   0.00096,  -0.00371,478967685.33697,   0.00306,277922418.40341,   0.00229,   0.00099,  -0.00156,   0.00000,   2.00000
438876022.16419,180903065.98921,-165800950.46177,   0.00394,   0.00096,  -0.00372,478960304.03302,   0.00306,277926699.02234,   0.00229,   0.00099,  -0.00156,  -0.00000,   2.00000
439240072.32946,182260631.91553,-165653656.47916,   0.00394,   0.00097,  -0.00372,478961869.93131,   0.00307,277930965.36591,   0.00229,   0.00099,  -0.00157,   0.00000,   2.00000
439597305.43736,183627987.33921,-165508710.22976,   0.00394,   0.00097,  -0.00372,478960289.38414,   0.00307,277935204.53152,   0.00230,   0.00099,  -0.00157,   0.00000,   2.00000
439955980.71950,184993186.66091,-165359419.87104,   0.00394,   0.00098,  -0.00372,478961872.74416,   0.00308,277939429.67520,   0.00230,   0.00099,  -0.00158,   0.00000,   2.00000
440307761.04437,186368174.68295,-165212433.40342,   0.00395,   0.00098,  -0.00373,478960370.08793,   0.00308,277943628.16050,   0.00231,   0.00099,  -0.00158,   0.00000,   2.00000
440653381.48329,187736820.71229,-165066054.92739,   0.00395,   0.00099,  -0.00373,478948531.59038,   0.00308,277947757.66385,   0.00231,   0.00099,  -0.00159,  -0.00000,   2.00000
441004592.40085,189121194.57761,-164913563.60604,   0.00395,   0.00099,  -0.00373,478954776.77190,   0.00309,277951892.77978,   0.00231,   0.00099,  -0.00159,  -0.00000,   2.00000
441353728.12502,190517107.14752,-164759897.74462,   0.00395,   0.00100,  -0.00374,478947700.15619,   0.00309,277955978.77734,   0.00232,   0.00099,  -0.00159,  -0.00000,   2.00000
441699209.38548,191909083.17137,-164605220.47425,   0.00395,   0.00100,  -0.00374,478955028.79640,   0.00310,277960074.99255,   0.00232,   0.00099,  -0.00160,   0.00000,   2.00000
442042531.73419,193312622.15808,-164449317.17846,   0.00396,   0.00101,  -0.00374,478948048.36103,   0.00310,277964122.70594,   0.00232,   0.00099,  -0.00160,   0.00000,   2.00000
442374678.68245,194708213.19719,-164297360.28065,   0.00396,   0.00101,  -0.00374,478941915.77990,   0.00310,277968125.67521,   0.00233,   0.00099,  -0.00161,   0.00000,   2.00000
442708159.84180,196101696.76787,-164140970.36141,   0.00396,   0.00102,  -0.00375,478943502.67524,   0.00311,277972115.71529,   0.00233,   0.00099,  -0.00161,  -0.00000,   2.00000
443035843.61561,197520605.05974,-163986420.77173,   0.00396,   0.00102,  -0.00375,478928075.88564,   0.00311,277976023.30015,   0.00233,   0.00099,  -0.00162,  -0.00000,   2.00000
443363382.77960,198921758.72794,-163827680.15586,   0.00396,   0.00103,  -0.00375,478943847.59241,   0.00312,277979976.34090,   0.00233,   0.00099,  -0.00162,   0.00000,   2.00000
443681177.59446,200330790.34760,-163672566.59152,   0.00397,   0.00104,  -0.00376,478923524.54566,   0.00312,277983827.24420,   0.00234,   0.00099,  -0.00163,  -0.00000,   2.00000
444004016.96244,201755325.42681,-163511085.36533,   0.00397,   0.00104,  -0.00376,478930202.99281,   0.00312,277987686.65713,   0.00234,   0.00099,  -0.00163,   0.00000,   2.00000
444323079.90079,203175837.80351,-163348525.42780,   0.00397,   0.00105,  -0.00376,478937514.81328,   0.00313,277991557.10505,   0.00234,   0.00099,  -0.00164,   0.00000,   2.00000
444632272.50162,204604372.97518,-163189493.52900,   0.00397,   0.00105,  -0.00376,478917346.65560,   0.00313,277995326.61476,   0.00235,   0.00099,  -0.00164,   0.00000,   2.00000
444937686.71625,206028896.76994,-163029359.32694,   0.00397,   0.00106,  -0.00376,478924611.94521,   0.00313,277999107.37027,   0.00235,   0.00099,  -0.00165,   0.00000,   2.00000
445247891.99340,207468781.30817,-162862751.36551,   0.00398,   0.00106,  -0.00377,478931532.70537,   0.00314,278002897.85439,   0.00235,   0.00099,  -0.00165,   0.00000,   2.00000
445544545.13236,208899420.41238,-162701532.22390,   0.00398,   0.00107,  -0.00377,478906188.87512,   0.00314,278006566.96722,   0.00236,   0.00099,  -0.00165,   0.00000,   2.00000
445840916.41041,210343432.38095,-162537220.30442,   0.00398,   0.00108,  -0.00377,478918780.82742,   0.00314,278010269.33603,   0.00236,   0.00099,  -0.00166,  -0.00000,   2.00000
446131087.99492,211781874.70847,-162373296.28323,   0.00398,   0.00108,  -0.00377,478906930.08523,   0.00315,278013905.64178,   0.00236,   0.00099,  -0.00166,   0.00000,   2.00000
446422395.45632,213218275.16157,-162204793.28679,   0.00398,   0.00109,  -0.00378,478908547.23462,   0.00315,278017530.81950,   0.00237,   0.00099,  -0.00167,   0.00000,   2.00000
446698696.26735,214661152.65660,-162043074.97305,   0.00398,   0.00109,  -0.00378,478894178.37550,   0.00315,278021080.20047,   0.00237,   0.00099,  -0.00167,  -0.00000,   2.00000
446979449.82057,216119270.37144,-161874707.33272,   0.00398,   0.00110,  -0.00378,478901334.77087,   0.00316,278024641.25157,   0.00237,   0.00099,  -0.00168,  -0.00000,   2.00000
447249026.11631,217569973.38391,-161710126.91229,   0.00399,   0.00111,  -0.00378,478895064.50374,   0.00316,278028159.64138,   0.00237,   0.00099,  -0.00168,   0.00000,   2.00000
447519679.02871,219018654.89217,-161540912.23805,   0.00399,   0.00111,  -0.00378,478896697.60766,   0.00316,278031667.51816,   0.00238,   0.00099,  -0.00168,   0.00000,   2.00000
447787379.20287,220479269.76543,-161369945.05694,   0.00399,   0.00112,  -0.00379,478890453.37387,   0.00317,278035133.11878,   0.00238,   0.00099,  -0.00169,  -0.00000,   2.00000
448043926.02761,221932601.75046,-161202746.24467,   0.00399,   0.00112,  -0.00379,478884123.74746,   0.00317,278038556.35150,   0.00238,   0.00099,  -0.00169,   0.00000,   2.00000
448297439.10169,223397918.67732,-161033728.74587,   0.00399,   0.00113,  -0.00379,478877943.06142,   0.00317,278041938.02657,   0.00239,   0.00099,  -0.00170,   0.00000,   2.00000
448546993.54732,224859109.24754,-160863495.68186,   0.00399,   0.00114,  -0.00379,478885158.44257,   0.00318,278045332.30248,   0.00239,   0.00099,  -0.00170,   0.00000,   2.00000
448786222.86584,226329259.32377,-160696338.52831,   0.00399,   0.00114,  -0.00379,478865524.04459,   0.00318,278048631.09679,   0.00239,   0.00099,  -0.00170,   0.00000,   2.00000
449026424.20983,227797442.04686,-160524458.37381,   0.00399,   0.00115,  -0.00379,478867156.26004,   0.00318,278051920.40606,   0.00239,   0.00099,  -0.00171,   0.00000,   2.00000
449255493.55290,229258559.04223,-160356296.35957,   0.00399,   0.00115,  -0.00380,478860741.24412,   0.00319,278055167.98201,   0.00240,   0.00099,  -0.00171,   0.00000,   2.00000
449488457.65193,230734661.30232,-160181222.61807,   0.00399,   0.00116,  -0.00380,478868331.77691,   0.00319,278058430.20623,   0.00240,   0.00099,  -0.00172,  -0.00000,   2.00000
449703128.67802,232200888.43279,-160014790.50024,   0.00400,   0.00117,  -0.00380,478848353.72031,   0.00319,278061596.51058,   0.00240,   0.00099,  -0.00172,   0.00000,   2.00000
449921577.91715,233682052.40147,-159841381.75290,   0.00400,   0.00117,  -0.00380,478856027.26203,   0.00320,278064778.14692,   0.00240,   0.00099,  -0.00172,   0.00000,   2.00000
450133801.54223,235158506.75478,-159668138.91154,   0.00400,   0.00118,  -0.00380,478844094.69475,   0.00320,278067896.56900,   0.00241,   0.00099,  -0.00173,   0.00000,   2.00000
450334894.69409,236628103.68935,-159498559.50632,   0.00400,   0.00119,  -0.00380,478837614.20473,   0.00320,278070973.94835,   0.00241,   0.00099,  -0.00173,   0.00000,   2.00000
450534662.12713,238110287.57837,-159325434.51727,   0.00400,   0.00119,  -0.00381,478850930.50396,   0.00321,278074089.56970,   0.00241,   0.00099,  -0.00173,   0.00000,   2.00000
450721125.49323,239585297.81349,-159157374.29418,   0.00400,   0.00120,  -0.00381,478825386.73429,   0.00321,278077088.12365,   0.00241,   0.00099,  -0.00174,   0.00000,   2.00000
450911074.09910,241075105.95487,-158982197.05908,   0.00400,   0.00121,  -0.00381,478833279.14625,   0.00321,278080103.57772,   0.00242,   0.00099,  -0.00174,   0.00000,   2.00000
451089843.03633,242558167.37694,-158810625.92457,   0.00400,   0.00121,  -0.00381,478826825.08633,   0.00321,278083078.68216,   0.00242,   0.00099,  -0.00174,   0.00000,   2.00000
451262401.96128,244036889.18519,-158639139.15189,   0.00400,   0.00122,  -0.00381,478814820.95084,   0.00322,278085991.57342,   0.00242,   0.00099,  -0.00175,  -0.00000,   2.00000
451431214.79471,245527874.41378,-158465383.84189,   0.00400,   0.00123,  -0.00381,478809238.18475,   0.00322,278088868.12084,   0.00242,   0.00099,  -0.00175,   0.00000,   2.00000
451583937.56863,247009916.43903,-158298724.13558,   0.00400,   0.00123,  -0.00381,478808183.68922,   0.00322,278091726.54840,   0.00243,   0.00099,  -0.00175,   0.00000,   2.00000
451742420.81851,248492544.81164,-158123652.29275,   0.00400,   0.00124,  -0.00381,478804272.96175,   0.00322,278094555.59394,   0.00243,   0.00099,  -0.00176,   0.00000,   2.00000
451892082.99972,249985079.13732,-157949759.77637,   0.00400,   0.00125,  -0.00381,478804298.36644,   0.00323,278097371.02305,   0.00243,   0.00099,  -0.00176,  -0.00000,   2.00000
452023539.38714,251468869.80360,-157784319.91474,   0.00400,   0.00125,  -0.00382,478784148.23881,   0.00323,278100092.97106,   0.00243,   0.00099,  -0.00176,  -0.00000,   2.00000
452155808.65926,252950940.48101,-157613956.89632,   0.00400,   0.00126,  -0.00382,478785661.28217,   0.00323,278102807.74722,   0.00244,   0.00099,  -0.00177,   0.00000,   2.00000
452284035.94232,254445374.27514,-157441143.55184,   0.00400,   0.00127,  -0.00382,478780323.22123,   0.00324,278105488.25861,   0.00244,   0.00099,  -0.00177,   0.00000,   2.00000
452401077.07519,255933480.57735,-157271829.39925,   0.00400,   0.00127,  -0.00382,478773725.11312,   0.00324,278108129.73029,   0.00244,   0.00099,  -0.00177,   0.00000,   2.00000
452518875.93830,257419883.50840,-157097559.82966,   0.00400,   0.00128,  -0.00382,478775250.66392,   0.00324,278110764.45720,   0.00244,   0.00099,  -0.00178,  -0.00000,   2.00000
452620553.87473,258914147.40618,-156929201.84762,   0.00400,   0.00129,  -0.00382,478761889.05693,   0.00324,278113333.72909,   0.00244,   0.00099,  -0.00178,   0.00000,   2.00000
452711039.83344,260402223.39892,-156764300.37421,   0.00400,   0.00129,  -0.00382,478755249.89165,   0.00324,278115864.43430,   0.00245,   0.00099,  -0.00178,   0.00000,   2.00000
452807142.09394,261891160.76155,-156590839.82997,   0.00400,   0.00130,  -0.00382,478751331.18970,   0.00325,278118367.48674,   0.00245,   0.00099,  -0.00179,   0.00000,   2.00000
452889087.02861,263387479.83094,-156421868.20153,   0.00400,   0.00131,  -0.00382,478757087.92734,   0.00325,278120881.11781,   0.00245,   0.00099,  -0.00179,  -0.00000,   2.00000
452957693.43985,264878383.77088,-156257633.59989,   0.00400,   0.00131,  -0.00382,478731456.69822,   0.00325,278123281.85856,   0.00245,   0.00099,  -0.00179,   0.00000,   2.00000
453026976.09715,266367689.49732,-156088356.02755,   0.00400,   0.00132,  -0.00382,478732929.85107,   0.00325,278125676.82468,   0.00245,   0.00099,  -0.00179,  -0.00000,   2.00000
453086830.28503,267866900.59263,-155919911.53109,   0.00400,   0.00133,  -0.00382,478733387.54118,   0.00326,278128062.04890,   0.00246,   0.00099,  -0.00180,  -0.00000,   2.00000
453140291.33530,269362740.90550,-155751264.88168,   0.00399,   0.00133,  -0.00383,478721344.31905,   0.00326,278130388.56310,   0.00246,   0.00099,  -0.00180,   0.00000,   2.00000
453182499.37103,270852697.63639,-155585987.30119,   0.00399,   0.00134,  -0.00383,478714637.92721,   0.00326,278132677.62233,   0.00246,   0.00099,  -0.00180,  -0.00000,   2.00000
453213476.53604,272336838.45952,-155424072.62724,   0.00399,   0.00135,  -0.00383,478707890.26804,   0.00326,278134929.28780,   0.00246,   0.00099,  -0.00181,   0.00000,   2.00000
453239692.80298,273833525.94830,-155259288.17575,   0.00399,   0.00135,  -0.00383,478703106.78236,   0.00327,278137151.43249,   0.00246,   0.00099,  -0.00181,   0.00000,   2.00000
453259466.96493,275327102.72727,-155094232.80902,   0.00399,   0.00136,  -0.00383,478691023.68453,   0.00327,278139315.70017,   0.00247,   0.00099,  -0.00181,   0.00000,   2.00000
453267950.10587,276814991.92869,-154932489.92109,   0.00399,   0.00137,  -0.00383,478684258.89812,   0.00327,278141443.19334,   0.00247,   0.00099,  -0.00181,   0.00000,   2.00000
453265158.73071,278297258.39454,-154774052.45949,   0.00399,   0.00138,  -0.00383,478677457.24859,   0.00327,278143533.98616,   0.00247,   0.00099,  -0.00182,   0.00000,   2.00000
453257365.56163,279792129.68165,-154612612.72435,   0.00399,   0.00138,  -0.00383,478672835.64521,   0.00327,278145596.76278,   0.00247,   0.00099,  -0.00182,   0.00000,   2.00000
453250067.46608,281285514.61448,-154445993.15898,   0.00399,   0.00139,  -0.00383,478674296.41467,   0.00328,278147655.35584,   0.00247,   0.00099,  -0.00182,   0.00000,   2.00000
453219573.65642,282769290.58745,-154291075.03749,   0.00398,   0.00140,  -0.00383,478659315.83598,   0.00328,278149645.85383,   0.00247,   0.00099,  -0.00182,  -0.00000,   2.00000
453187405.89502,284253103.32372,-154132181.52591,   0.00398,   0.00140,  -0.00383,478641821.71423,   0.00328,278151558.86386,   0.00248,   0.00099,  -0.00183,   0.00000,   2.00000
453140318.77556,285744052.01250,-153977375.01787,   0.00398,   0.00141,  -0.00383,478648026.61973,   0.00328,278153486.85914,   0.00248,   0.00099,  -0.00183,   0.00000,   2.00000
453085434.22015,287217147.65506,-153824926.03289,   0.00398,   0.00142,  -0.00383,478628126.44471,   0.00328,278155328.48215,   0.00248,   0.00100,  -0.00183,   0.00000,   2.00000
453032226.07551,288704109.84651,-153664471.54764,   0.00398,   0.00143,  -0.00383,478637256.98554,   0.00328,278157196.73798,   0.00248,   0.00100,  -0.00183,   0.00000,   2.00000
452961670.91837,290199750.02508,-153509207.41133,   0.00398,   0.00143,  -0.00383,478624812.58919,   0.00329,278159007.90897,   0.00248,   0.00100,  -0.00183,   0.00000,   2.00000
452878529.54687,291675019.99484,-153359904.19772,   0.00397,   0.00144,  -0.00383,478610113.20938,   0.00329,278160753.61672,   0.00248,   0.00100,  -0.00184,  -0.00000,   2.00000
452789797.18184,293162976.37791,-153207295.00210,   0.00397,   0.00145,  -0.00383,478605898.36335,   0.00329,278162474.75197,   0.00248,   0.00100,  -0.00184,  -0.00000,   2.00000
452689543.62857,294645747.21790,-153057804.80909,   0.00397,   0.00145,  -0.00383,478599083.35404,   0.00329,278164161.41635,   0.00249,   0.00100,  -0.00184,  -0.00000,   2.00000
452582553.36652,296126253.96813,-152907789.32885,   0.00397,   0.00146,  -0.00383,478586953.89364,   0.00329,278165793.29089,   0.00249,   0.00100,  -0.00184,   0.00000,   2.00000
452464024.87543,297601695.01372,-152760871.78020,   0.00397,   0.00147,  -0.00383,478580082.82451,   0.00329,278167390.96994,   0.00249,   0.00100,  -0.00184,   0.00000,   2.00000
452333954.02239,299072123.59219,-152617041.69764,   0.00396,   0.00148,  -0.00383,478573191.42255,   0.00330,278168954.57438,   0.00249,   0.00100,  -0.00185,  -0.00000,   2.00000
452197931.47247,300555249.17385,-152469732.26436,   0.00396,   0.00148,  -0.00383,478569232.84311,   0.00330,278170495.57101,   0.00249,   0.00100,  -0.00185,  -0.00000,   2.00000
452049468.19488,302018691.49219,-152328385.73114,   0.00396,   0.00149,  -0.00383,478554143.52693,   0.00330,278171971.29311,   0.00249,   0.00100,  -0.00185,   0.00000,   2.00000
451894931.15676,303494865.81256,-152183500.61368,   0.00396,   0.00150,  -0.00383,478550242.80343,   0.00330,278173425.09184,   0.00249,   0.00100,  -0.00185,   0.00000,   2.00000
451728708.02422,304966158.74230,-152041626.26270,   0.00395,   0.00151,  -0.00383,478543385.37122,   0.00330,278174845.74297,   0.00249,   0.00100,  -0.00185,  -0.00000,   2.00000
451550787.14234,306432618.72618,-151902750.88271,   0.00395,   0.00151,  -0.00383,478536513.88668,   0.00330,278176233.38426,   0.00249,   0.00100,  -0.00186,   0.00000,   2.00000
451359353.97863,307911126.83052,-151764957.73220,   0.00395,   0.00152,  -0.00383,478519413.38562,   0.00330,278177548.97879,   0.00250,   0.00100,  -0.00186,   0.00000,   2.00000
451162678.06751,309371017.94160,-151628364.49382,   0.00395,   0.00153,  -0.00383,478517507.03830,   0.00331,278178851.13459,   0.00250,   0.00100,  -0.00186,   0.97985,   1.00000
450947595.62435,310840038.91023,-151496441.52592,   0.00394,   0.00153,  -0.00383,478505741.76246,   0.00331,278180102.19870,   0.00250,   0.00100,  -0.00186,   0.90451,   1.00000
450725359.39760,312307393.88141,-151363758.51642,   0.00394,   0.00154,  -0.00383,478493673.92529,   0.00331,278181301.29623,   0.00250,   0.00100,  -0.00186,   0.83093,   1.00000
450498443.35960,313770573.66837,-151229249.48359,   0.00394,   0.00155,  -0.00383,478500209.38474,   0.00331,278182519.79499,   0.00250,   0.00100,  -0.00186,   0.85801,   1.00000
450252369.67929,315228683.51825,-151102340.12668,   0.00393,   0.00156,  -0.00383,478480013.18009,   0.00331,278183655.54660,   0.00250,   0.00100,  -0.00186,   0.74538,   1.00000
449999043.19416,316685307.86406,-150974621.06516,   0.00393,   0.00156,  -0.00383,478467931.17970,   0.00331,278184739.95690,   0.00250,   0.00100,  -0.00187,   0.67945,   1.00000
449733722.64367,318137418.00492,-150849749.41485,   0.00393,   0.00157,  -0.00383,478461058.78606,   0.00331,278185793.16922,   0.00250,   0.00100,  -0.00187,   0.64083,   1.00000
449461070.31586,319588160.86199,-150724033.12093,   0.00392,   0.00158,  -0.00383,478448969.66272,   0.00331,278186795.48590,   0.00250,   0.00100,  -0.00187,   0.58029,   1.00000
449169315.07293,321048157.73192,-150602692.30601,   0.00392,   0.00159,  -0.00383,478437650.08331,   0.00331,278187750.11329,   0.00250,   0.00100,  -0.00187,   0.52627,   1.00000
448872456.85300,322490035.65754,-150482572.50489,   0.00392,   0.00159,  -0.00383,478435242.04289,   0.00331,278188691.20618,   0.00250,   0.00100,  -0.00187,   0.51133,   1.00000
448556317.72081,323941193.97836,-150366753.73876,   0.00391,   0.00160,  -0.00383,478424049.01065,   0.00332,278189585.46033,   0.00251,   0.00100,  -0.00187,   0.46158,   1.00000
448232572.74047,325391129.91583,-150249974.51156,   0.00391,   0.00161,  -0.00383,478412078.48865,   0.00332,278190430.17687,   0.00251,   0.00100,  -0.00187,   0.41173,   1.00000
447903781.31071,326823122.40139,-150134433.52450,   0.00391,   0.00162,  -0.00383,478409490.82701,   0.00332,278191261.22654,   0.00251,   0.00100,  -0.00187,   0.39838,   1.00000
447555414.60379,328264432.54088,-150023077.49155,   0.00390,   0.00162,  -0.00382,478398487.80990,   0.00332,278192046.78334,   0.00251,   0.00100,  -0.00187,   0.35583,   1.00000
447191839.63028,329704599.69980,-149915345.56714,   0.00390,   0.00163,  -0.00382,478373308.15241,   0.00332,278192733.39362,   0.00251,   0.00100,  -0.00188,   0.27173,   1.00000
446818626.88613,331137341.19392,-149809316.97451,   0.00390,   0.00164,  -0.00382,478384928.13915,   0.00332,278193460.87946,   0.00251,   0.00100,  -0.00188,   0.30493,   1.00000
446442186.93931,332572334.62984,-149698534.15730,   0.00389,   0.00165,  -0.00382,478367833.85698,   0.00332,278194120.41511,   0.00251,   0.00100,  -0.00188,   0.25051,   1.00000
446041047.87440,333999911.84721,-149598690.68420,   0.00389,   0.00165,  -0.00382,478353079.48056,   0.00332,278194721.21419,   0.00251,   0.00100,  -0.00188,   0.20778,   1.00000
445631899.14055,335426608.54127,-149497734.54629,   0.00388,   0.00166,  -0.00382,478341171.58687,   0.00332,278195274.33639,   0.00251,   0.00100,  -0.00188,   0.17603,   1.00000
445209964.48048,336862493.12923,-149396054.92747,   0.00388,   0.00167,  -0.00382,478343841.89396,   0.00332,278195835.05070,   0.00251,   0.00100,  -0.00188,   0.18080,   1.00000
444775355.57520,338280926.35591,-149300201.03751,   0.00387,   0.00168,  -0.00382,478327814.58982,   0.00332,278196332.80937,   0.00251,   0.00100,  -0.00188,   0.14240,   1.00000
444320316.42478,339695439.30806,-149211466.68665,   0.00387,   0.00168,  -0.00382,478308013.03164,   0.00332,278196753.71975,   0.00251,   0.00100,  -0.00188,   0.10177,   1.00000
443864446.26398,341122168.73092,-149113599.76365,   0.00387,   0.00169,  -0.00382,478318808.13817,   0.00332,278197213.40906,   0.00251,   0.00100,  -0.00188,   0.12132,   1.00000
443388119.53584,342531921.60263,-149026116.67407,   0.00386,   0.00170,  -0.00382,478289622.46716,   0.00332,278197561.21127,   0.00251,   0.00100,  -0.00188,   0.06941,   1.00000
442898778.69159,343937662.51322,-148941086.44722,   0.00386,   0.00171,  -0.00382,478282982.52912,   0.00332,278197882.50057,   0.00251,   0.00100,  -0.00188,   0.05919,   1.00000
442400628.04372,345355728.37283,-148851390.79863,   0.00385,   0.00171,  -0.00382,478280898.84301,   0.00332,278198194.53597,   0.00251,   0.00100,  -0.00188,   0.05580,   1.00000
441885028.61991,346753439.88135,-148771186.57620,   0.00385,   0.00172,  -0.00382,478269857.50030,   0.00332,278198463.72414,   0.00251,   0.00100,  -0.00188,   0.04150,   1.00000
441352933.59971,348150929.95023,-148694194.75157,   0.00384,   0.00173,  -0.00382,478245169.89047,   0.00332,278198639.05588,   0.00251,   0.00100,  -0.00188,   0.01759,   1.00000
440807128.27547,349557225.60504,-148616122.50703,   0.00384,   0.00174,  -0.00381,478248448.88843,   0.00332,278198825.92101,   0.00251,   0.00101,  -0.00188,   0.01997,   1.00000
440252783.61510,350950229.34598,-148540069.61326,   0.00383,   0.00174,  -0.00381,478227077.12912,   0.00332,278198931.84209,   0.00251,   0.00101,  -0.00188,   0.00641,   1.00000
439680005.98138,352348470.66556,-148466579.00244,   0.00383,   0.00175,  -0.00381,478235645.44028,   0.00332,278199069.40740,   0.00251,   0.00101,  -0.00188,   0.01081,   1.00000
439090608.30800,353734040.62587,-148399595.07682,   0.00382,   0.00176,  -0.00381,478201358.64032,   0.00332,278199077.98006,   0.00251,   0.00101,  -0.00188,   0.00004,   1.00000
438495538.01612,355115198.35595,-148330350.40716,   0.00382,   0.00177,  -0.00381,478207843.87063,   0.00332,278199110.78732,   0.00251,   0.00101,  -0.00188,   0.00061,   1.00000
437877814.87742,356505075.41802,-148264165.78516,   0.00381,   0.00177,  -0.00381,478198677.02848,   0.00332,278199110.78732,   0.00251,   0.00101,  -0.00188,-433.75884,   0.00000
437232514.81289,357867375.55425,-148197981.16316,   0.00380,   0.00178,  -0.00381,478181976.63141,   0.00332,278199110.78732,   0.00251,   0.00101,  -0.00188,-17134.15591,   0.00000
436548607.05220,359213129.53498,-148131796.54115,   0.00380,   0.00179,  -0.00381,478146269.31066,   0.00332,278199110.78732,   0.00251,   0.00101,  -0.00188,-52841.47667,   0.00000
435853668.52116,360569914.28604,-148060096.53398,   0.00379,   0.00180,  -0.00381,478109548.22992,   0.00332,278199110.78732,   0.00251,   0.00101,  -0.00188,-89562.55740,   0.00000
435131153.06430,361899122.11127,-147988396.52681,   0.00379,   0.00180,  -0.00381,478056700.79444,   0.00332,278199110.78732,   0.00251,   0.00101,  -0.00188,-142409.99288,   0.00000
434389333.75935,363220056.85875,-147916696.51964,   0.00378,   0.00181,  -0.00381,477997941.21869,   0.00332,278199110.78732,   0.00251,   0.00101,  -0.00188,-201169.56863,   0.00000
433628210.60631,364532718.52847,-147844996.51247,   0.00377,   0.00182,  -0.00380,477933349.38018,   0.00332,278199110.78732,   0.00251,   0.00101,  -0.00188,-265761.40715,   0.00000
432828479.75711,365828834.04270,-147773296.50530,   0.00377,   0.00183,  -0.00380,477850323.94674,   0.00332,278199110.78732,   0.00251,   0.00101,  -0.00188,-348786.84058,   0.00000
432009445.05982,367116676.47918,-147701596.49813,   0.00376,   0.00183,  -0.00380,477761685.27450,   0.00332,278199110.78732,   0.00251,   0.00101,  -0.00188,-437425.51283,   0.00000
431171106.51445,368396245.83790,-147624381.10580,   0.00376,   0.00184,  -0.00380,477662405.65619,   0.00332,278199110.78732,   0.00251,   0.00101,  -0.00188,-536705.13113,   0.00000
430294160.27290,369659269.04113,-147552681.09863,   0.00375,   0.00185,  -0.00380,477550202.48348,   0.00332,278199110.78732,   0.00251,   0.00101,  -0.00188,-648908.30384,   0.00000
429397910.18328,370914019.16660,-147475465.70629,   0.00374,   0.00186,  -0.00380,477427595.71702,   0.00332,278199110.78732,   0.00251,   0.00101,  -0.00188,-771515.07031,   0.00000
428474083.16782,372141192.36624,-147398250.31395,   0.00374,   0.00186,  -0.00380,477289203.08447,   0.00332,278199110.78732,   0.00251,   0.00101,  -0.00188,-909907.70285,   0.00000
427539225.38203,373379396.33622,-147321034.92161,   0.00373,   0.00187,  -0.00380,477156250.04457,   0.00332,278199110.78732,   0.00251,   0.00101,  -0.00188,-1042860.74276,   0.00000
426557486.82231,374581750.30261,-147243819.52928,   0.00372,   0.00188,  -0.00380,476995130.34628,   0.00332,278199110.78732,   0.00251,   0.00101,  -0.00188,-1203980.44105,   0.00000
425564717.49227,375795135.03933,-147166604.13694,   0.00372,   0.00189,  -0.00380,476839794.83168,   0.00332,278199110.78732,   0.00251,   0.00101,  -0.00188,-1359315.95564,   0.00000
424544371.23639,376980942.85022,-147089388.74460,   0.00371,   0.00189,  -0.00379,476668943.72728,   0.00332,278199110.78732,   0.00251,   0.00101,  -0.00188,-1530167.06005,   0.00000
423485417.28434,378150204.50561,-147012173.35227,   0.00370,   0.00190,  -0.00379,476480971.29915,   0.00332,278199110.78732,   0.00251,   0.00101,  -0.00188,-1718139.48818,   0.00000
422407159.48420,379311193.08324,-146929442.57476,   0.00369,   0.00191,  -0.00379,476283328.74129,   0.00332,278199110.78732,   0.00251,   0.00101,  -0.00188,-1915782.04603,   0.00000
421309597.83599,380463908.58313,-146852227.18243,   0.00369,   0.00191,  -0.00379,476086333.06589,   0.00332,278199110.78732,   0.00251,   0.00101,  -0.00188,-2112777.72143,   0.00000
420173428.49160,381600077.92752,-146769496.40492,   0.00368,   0.00192,  -0.00379,475867598.86976,   0.00332,278199110.78732,   0.00251,   0.00101,  -0.00188,-2331511.91756,   0.00000
419017955.29913,382727974.19415,-146692281.01259,   0.00367,   0.00193,  -0.00379,475649799.57658,   0.00332,278199110.78732,   0.00251,   0.00101,  -0.00188,-2549311.21075,   0.00000
417843178.25858,383847597.38304,-146609550.23508,   0.00367,   0.00194,  -0.00379,475422843.62124,   0.00332,278199110.78732,   0.00251,   0.00101,  -0.00188,-2776267.16608,   0.00000
416640824.29219,384939643.64609,-146526819.45758,   0.00366,   0.00194,  -0.00379,475180872.66520,   0.00332,278199110.78732,   0.00251,   0.00101,  -0.00188,-3018238.12212,   0.00000
415408135.70738,386034447.60172,-146449604.06524,   0.00365,   0.00195,  -0.00379,474939073.29529,   0.00332,278199110.78732,   0.00251,   0.00101,  -0.00188,-3260037.49204,   0.00000
414147870.19674,387101674.63152,-146366873.28774,   0.00364,   0.00196,  -0.00379,474677380.52373,   0.00332,278199110.78732,   0.00251,   0.00101,  -0.00188,-3521730.26359,   0.00000
412848996.98993,388152355.50582,-146284142.51023,   0.00363,   0.00197,  -0.00378,474400027.19257,   0.00332,278199110.78732,   0.00251,   0.00101,  -0.00188,-3799083.59475,   0.00000
411530819.93503,389194763.30237,-146201411.73273,   0.00363,   0.00197,  -0.00378,474119286.53037,   0.00332,278199110.78732,   0.00251,   0.00101,  -0.00188,-4079824.25695,   0.00000
410193339.03205,390228898.02117,-146118680.95523,   0.00362,   0.00198,  -0.00378,473835288.19967,   0.00332,278199110.78732,   0.00251,   0.00101,  -0.00188,-4363822.58765,   0.00000
408817250.43291,391246486.58446,-146035950.17772,   0.00361,   0.00199,  -0.00378,473536208.60727,   0.00332,278199110.78732,   0.00251,   0.00101,  -0.00188,-4662902.18006,   0.00000
407413584.90792,392236498.22193,-145958734.78538,   0.00360,   0.00200,  -0.00378,473227935.15710,   0.00332,278199110.78732,   0.00251,   0.00101,  -0.00188,-4971175.63022,   0.00000
405998888.61261,393237540.62972,-145876004.00788,   0.00359,   0.00200,  -0.00378,472923124.93119,   0.00332,278199110.78732,   0.00251,   0.00101,  -0.00188,-5275985.85613,   0.00000
404556615.39146,394211006.11169,-145793273.23038,   0.00358,   0.00201,  -0.00378,472604208.16118,   0.00332,278199110.78732,   0.00251,   0.00101,  -0.00188,-5594902.62614,   0.00000
403075734.47414,395167925.43815,-145710542.45287,   0.00358,   0.00202,  -0.00378,472270919.89247,   0.00332,278199110.78732,   0.00251,   0.00101,  -0.00188,-5928190.89485,   0.00000
401556245.86065,396108298.60911,-145627811.67537,   0.00357,   0.00202,  -0.00378,471923532.01875,   0.00332,278199110.78732,   0.00251,   0.00101,  -0.00188,-6275578.76858,   0.00000
400028484.16941,397029367.93198,-145545080.89787,   0.00356,   0.00203,  -0.00377,471574132.71243,   0.00332,278199110.78732,   0.00251,   0.00101,  -0.00188,-6624978.07490,   0.00000
398470387.85976,397953194.94744,-145462350.12036,   0.00355,   0.00204,  -0.00377,471222577.27836,   0.00332,278199110.78732,   0.00251,   0.00101,  -0.00188,-6976533.50896,   0.00000
396865410.77618,398841171.95932,-145385134.72802,   0.00354,   0.00205,  -0.00377,470851018.23825,   0.00332,278199110.78732,   0.00251,   0.00101,  -0.00188,-7348092.54907,   0.00000
395241129.84452,399720875.89344,-145302403.95052,   0.00353,   0.00205,  -0.00377,470472703.26410,   0.00332,278199110.78732,   0.00251,   0.00101,  -0.00188,-7726407.52322,   0.00000
393597545.06478,400592306.74982,-145219673.17302,   0.00352,   0.00206,  -0.00377,470092901.06215,   0.00332,278199110.78732,   0.00251,   0.00101,  -0.00188,-8106209.72517,   0.00000
391934656.43695,401455464.52844,-145142457.78068,   0.00351,   0.00207,  -0.00377,469716887.60705,   0.00332,278199110.78732,   0.00251,   0.00101,  -0.00188,-8482223.18027,   0.00000
390233160.11296,402302076.15156,-145059727.00318,   0.00350,   0.00207,  -0.00377,469323174.82273,   0.00332,278199110.78732,   0.00251,   0.00101,  -0.00188,-8875935.96460,   0.00000
388484783.01504,403112837.77110,-144982511.61084,   0.00349,   0.00208,  -0.00377,468910406.49253,   0.00332,278199110.78732,   0.00251,   0.00101,  -0.00188,-9288704.29479,   0.00000
386736405.91713,403923599.39064,-144899780.83334,   0.00348,   0.00209,  -0.00377,468503148.51619,   0.00332,278199110.78732,   0.00251,   0.00101,  -0.00188,-9695962.27113,   0.00000
384949421.12305,404717814.85467,-144822565.44100,   0.00347,   0.00210,  -0.00377,468089098.69805,   0.00332,278199110.78732,   0.00251,   0.00101,  -0.00188,-10110012.08927,   0.00000
383123828.63279,405495484.16321,-144745350.04866,   0.00346,   0.00210,  -0.00376,467663471.35437,   0.00332,278199110.78732,   0.00251,   0.00101,  -0.00188,-10535639.43295,   0.00000
381278932.29446,406264880.39400,-144668134.65632,   0.00345,   0.00211,  -0.00376,467237782.05814,   0.00332,278199110.78732,   0.00251,   0.00101,  -0.00188,-10961328.72918,   0.00000
379406459.03029,407006699.69895,-144590919.26399,   0.00344,   0.00212,  -0.00376,466800113.34635,   0.00332,278199110.78732,   0.00251,   0.00101,  -0.00188,-11398997.44097,   0.00000
377514681.91803,407740245.92615,-144513703.87165,   0.00343,   0.00212,  -0.00376,466362676.23568,   0.00332,278199110.78732,   0.00251,   0.00101,  -0.00188,-11836434.55164,   0.00000
375564993.26153,408448972.92010,-144436488.47931,   0.00342,   0.00213,  -0.00376,465903626.82995,   0.00332,278199110.78732,   0.00251,   0.00101,  -0.00188,-12295483.95737,   0.00000
373615304.60502,409157699.91405,-144359273.08698,   0.00341,   0.00214,  -0.00376,465456377.89999,   0.00332,278199110.78732,   0.00251,   0.00101,  -0.00188,-12742732.88733,   0.00000
371618735.17459,409830576.90441,-144282057.69464,   0.00340,   0.00215,  -0.00376,464986883.67660,   0.00332,278199110.78732,   0.00251,   0.00101,  -0.00188,-13212227.11072,   0.00000
369602861.89608,410495180.81703,-144210357.68747,   0.00339,   0.00215,  -0.00376,464523688.48563,   0.00332,278199110.78732,   0.00251,   0.00101,  -0.00188,-13675422.30169,   0.00000
367548380.92140,411143238.57414,-144138657.68030,   0.00338,   0.00216,  -0.00376,464051076.05964,   0.00332,278199110.78732,   0.00251,   0.00101,  -0.00188,-14148034.72769,   0.00000
365474596.09864,411783023.25350,-144061442.28796,   0.00337,   0.00217,  -0.00376,463575023.04554,   0.00332,278199110.78732,   0.00251,   0.00101,  -0.00188,-14624087.74178,   0.00000
363373234.35004,412395231.00703,-143989742.28079,   0.00336,   0.00217,  -0.00375,463093600.39204,   0.00332,278199110.78732,   0.00251,   0.00101,  -0.00188,-15105510.39528,   0.00000
361241537.98303,413010196.45314,-143918042.27362,   0.00335,   0.00218,  -0.00375,462616084.07493,   0.00332,278199110.78732,   0.00251,   0.00101,  -0.00188,-15583026.71240,   0.00000
359082264.69018,413597584.97342,-143851857.65162,   0.00334,   0.00219,  -0.00375,462133691.13028,   0.00332,278199110.78732,   0.00251,   0.00101,  -0.00188,-16065419.65705,   0.00000
356876110.62341,414149123.49011,-143780157.64445,   0.00333,   0.00219,  -0.00375,461625744.09240,   0.00332,278199110.78732,   0.00251,   0.00101,  -0.00188,-16573366.69492,   0.00000
354658925.78630,414711692.77714,-143713973.02245,   0.00332,   0.00220,  -0.00375,461138435.20174,   0.00332,278199110.78732,   0.00251,   0.00101,  -0.00188,-17060675.58559,   0.00000
352394860.17528,415238412.06058,-143642273.01528,   0.00331,   0.00221,  -0.00375,460626206.33442,   0.00332,278199110.78732,   0.00251,   0.00101,  -0.00188,-17572904.45290,   0.00000
350111490.71618,415756858.26627,-143576088.39327,   0.00329,   0.00221,  -0.00375,460122643.62755,   0.00332,278199110.78732,   0.00251,   0.00101,  -0.00188,-18076467.15977,   0.00000
