# sigma_xx, sigma_yy, sigma_xy, epsilon_xx, epsilon_yy, epsilon_xy, vonMises, epsPlastic, hardening, epsilonP__xx, epsilonP__yy, epsilonP__xy, yieldValue, iteration
   0.00000,   0.00000,   0.00000,   0.00000,   0.00000,   0.00000,1181185.37500,   0.00000,274640576.00000,   0.00000,   0.00000,   0.00000,-473459392.00000,   0.00000
   0.00000,   0.00000,   0.00000,   0.00000,   0.00000,   0.00000,1181185.37500,   0.00000,274640576.00000,   0.00000,   0.00000,   0.00000,-473459392.00000,   0.00000
-380774.81109,249473.15209,-551466.96779,  -0.00000,   0.00000,  -0.00001,755920.68750,   0.00000,274640576.00000,   0.00000,   0.00000,   0.00000,-473884640.00000,   0.00000
-761549.62218,498946.30419,-1109499.01852,  -0.00000,   0.00000,  -0.00001,1712325.12500,   0.00000,274640576.00000,   0.00000,   0.00000,   0.00000,-472928256.00000,   0.00000
-1142324.43327,748419.45628,-1667531.06926,  -0.00001,   0.00001,  -0.00002,3242517.50000,   0.00000,274640576.00000,   0.00000,   0.00000,   0.00000,-471398048.00000,   0.00000
-1532946.86878,974914.81805,-2225563.11999,  -0.00001,   0.00001,  -0.00003,4668146.00000,   0.00000,274640576.00000,   0.00000,   0.00000,   0.00000,-469972416.00000,   0.00000
-1900591.51397,1211257.80424,-2790160.25367,  -0.00001,   0.00001,  -0.00004,5857451.50000,   0.00000,274640576.00000,   0.00000,   0.00000,   0.00000,-468783136.00000,   0.00000
-2291213.94949,1437753.16601,-3354757.38736,  -0.00001,   0.00001,  -0.00004,6891726.00000,   0.00000,274640576.00000,   0.00000,   0.00000,   0.00000,-467748848.00000,   0.00000
-2658858.59468,1674096.15220,-3919354.52104,  -0.00002,   0.00001,  -0.00005,7881310.50000,   0.00000,274640576.00000,   0.00000,   0.00000,   0.00000,-466759264.00000,   0.00000
-3049481.03019,1900591.51397,-4490516.73768,  -0.00002,   0.00001,  -0.00006,8913320.00000,   0.00000,274640576.00000,   0.00000,   0.00000,   0.00000,-465727264.00000,   0.00000
-3426973.29981,2113956.70984,-5055113.87136,  -0.00002,   0.00002,  -0.00007,9965818.00000,   0.00000,274640576.00000,   0.00000,   0.00000,   0.00000,-464674752.00000,   0.00000
-3827443.35975,2317474.28129,-5632841.17095,  -0.00002,   0.00002,  -0.00007,11074221.00000,   0.00000,274640576.00000,   0.00000,   0.00000,   0.00000,-463566352.00000,   0.00000
-4204935.62936,2530839.47716,-6204003.38758,  -0.00002,   0.00002,  -0.00008,12182469.00000,   0.00000,274640576.00000,   0.00000,   0.00000,   0.00000,-462458112.00000,   0.00000
-4582427.89898,2744204.67303,-6781730.68717,  -0.00003,   0.00002,  -0.00009,13306024.00000,   0.00000,274640576.00000,   0.00000,   0.00000,   0.00000,-461334560.00000,   0.00000
-4969767.79302,2934592.07857,-7359457.98675,  -0.00003,   0.00002,  -0.00010,14424781.00000,   0.00000,274640576.00000,   0.00000,   0.00000,   0.00000,-460215792.00000,   0.00000
-5357107.68706,3124979.48412,-7937185.28634,  -0.00003,   0.00002,  -0.00010,15541119.00000,   0.00000,274640576.00000,   0.00000,   0.00000,   0.00000,-459099456.00000,   0.00000
-5744447.58110,3315366.88966,-8514912.58592,  -0.00003,   0.00003,  -0.00011,16655695.00000,   0.00000,274640576.00000,   0.00000,   0.00000,   0.00000,-457984880.00000,   0.00000
-6131787.47513,3505754.29521,-9099204.96845,  -0.00003,   0.00003,  -0.00012,17779898.00000,   0.00000,274640576.00000,   0.00000,   0.00000,   0.00000,-456860672.00000,   0.00000
-6528974.99360,3673163.91043,-9683497.35099,  -0.00004,   0.00003,  -0.00013,18900970.00000,   0.00000,274640576.00000,   0.00000,   0.00000,   0.00000,-455739600.00000,   0.00000
-6916314.88764,3863551.31597,-10267789.73352,  -0.00004,   0.00003,  -0.00013,20027366.00000,   0.00000,274640576.00000,   0.00000,   0.00000,   0.00000,-454613216.00000,   0.00000
-7290524.61578,4040808.55562,-10858647.19901,  -0.00004,   0.00003,  -0.00014,21155288.00000,   0.00000,274640576.00000,   0.00000,   0.00000,   0.00000,-453485280.00000,   0.00000
-7697559.75867,4185240.38051,-11442939.58154,  -0.00004,   0.00003,  -0.00015,22276962.00000,   0.00000,274640576.00000,   0.00000,   0.00000,   0.00000,-452363616.00000,   0.00000
-8104594.90156,4329672.20541,-12033797.04703,  -0.00005,   0.00004,  -0.00016,23409698.00000,   0.00000,274640576.00000,   0.00000,   0.00000,   0.00000,-451230880.00000,   0.00000
-8478804.62970,4506929.44505,-12631219.59546,  -0.00005,   0.00004,  -0.00016,24550678.00000,   0.00000,274640576.00000,   0.00000,   0.00000,   0.00000,-450089904.00000,   0.00000
-8895687.39701,4628383.47963,-13222077.06094,  -0.00005,   0.00004,  -0.00017,25680104.00000,   0.00000,274640576.00000,   0.00000,   0.00000,   0.00000,-448960480.00000,   0.00000
-9279744.74957,4782662.92895,-13819499.60938,  -0.00005,   0.00004,  -0.00018,26817152.00000,   0.00000,274640576.00000,   0.00000,   0.00000,   0.00000,-447823424.00000,   0.00000
-9673649.72656,4913964.58794,-14410357.07486,  -0.00005,   0.00004,  -0.00019,27939576.00000,   0.00000,274640576.00000,   0.00000,   0.00000,   0.00000,-446700992.00000,   0.00000
-10090532.49388,5035418.62251,-15014344.70625,  -0.00006,   0.00004,  -0.00020,29087674.00000,   0.00000,274640576.00000,   0.00000,   0.00000,   0.00000,-445552896.00000,   0.00000
-10484437.47087,5166720.28151,-15611767.25468,  -0.00006,   0.00004,  -0.00020,30218578.00000,   0.00000,274640576.00000,   0.00000,   0.00000,   0.00000,-444422000.00000,   0.00000
-10888190.07228,5275044.15018,-16209189.80311,  -0.00006,   0.00005,  -0.00021,31344666.00000,   0.00000,274640576.00000,   0.00000,   0.00000,   0.00000,-443295904.00000,   0.00000
-11314920.46402,5373520.39443,-16813177.43450,  -0.00006,   0.00005,  -0.00022,32486120.00000,   0.00000,274640576.00000,   0.00000,   0.00000,   0.00000,-442154464.00000,   0.00000
-11718673.06543,5481844.26310,-17417165.06588,  -0.00006,   0.00005,  -0.00023,33620628.00000,   0.00000,274640576.00000,   0.00000,   0.00000,   0.00000,-441019952.00000,   0.00000
-12122425.66685,5590168.13177,-18021152.69726,  -0.00007,   0.00005,  -0.00023,34754576.00000,   0.00000,274640576.00000,   0.00000,   0.00000,   0.00000,-439886000.00000,   0.00000
-12536025.89269,5675514.21012,-18625140.32865,  -0.00007,   0.00005,  -0.00024,35884252.00000,   0.00000,274640576.00000,   0.00000,   0.00000,   0.00000,-438756320.00000,   0.00000
-12949626.11853,5760860.28847,-19235693.04298,  -0.00007,   0.00005,  -0.00025,37024016.00000,   0.00000,274640576.00000,   0.00000,   0.00000,   0.00000,-437616560.00000,   0.00000
-13373073.96879,5823228.57649,-19839680.67437,  -0.00007,   0.00005,  -0.00026,38150140.00000,   0.00000,274640576.00000,   0.00000,   0.00000,   0.00000,-436490432.00000,   0.00000
-13796521.81905,5885596.86452,-20450233.38870,  -0.00007,   0.00005,  -0.00027,39287012.00000,   0.00000,274640576.00000,   0.00000,   0.00000,   0.00000,-435353568.00000,   0.00000
-14219969.66932,5947965.15254,-21060786.10303,  -0.00008,   0.00005,  -0.00027,40424752.00000,   0.00000,274640576.00000,   0.00000,   0.00000,   0.00000,-434215824.00000,   0.00000
-14643417.51958,6010333.44056,-21671338.81737,  -0.00008,   0.00006,  -0.00028,41563516.00000,   0.00000,274640576.00000,   0.00000,   0.00000,   0.00000,-433077056.00000,   0.00000
-15076712.99427,6049723.93826,-22281891.53170,  -0.00008,   0.00006,  -0.00029,42700492.00000,   0.00000,274640576.00000,   0.00000,   0.00000,   0.00000,-431940080.00000,   0.00000
-15510008.46896,6089114.43596,-22899009.32898,  -0.00008,   0.00006,  -0.00030,43849256.00000,   0.00000,274640576.00000,   0.00000,   0.00000,   0.00000,-430791328.00000,   0.00000
-15943303.94365,6128504.93366,-23509562.04332,  -0.00008,   0.00006,  -0.00031,44989804.00000,   0.00000,274640576.00000,   0.00000,   0.00000,   0.00000,-429650768.00000,   0.00000
-16386447.04276,6144917.64103,-24126679.84060,  -0.00009,   0.00006,  -0.00031,46139404.00000,   0.00000,274640576.00000,   0.00000,   0.00000,   0.00000,-428501168.00000,   0.00000
-16829590.14187,6161330.34841,-24743797.63788,  -0.00009,   0.00006,  -0.00032,47291244.00000,   0.00000,274640576.00000,   0.00000,   0.00000,   0.00000,-427349328.00000,   0.00000
-17272733.24098,6177743.05578,-25360915.43517,  -0.00009,   0.00006,  -0.00033,48445216.00000,   0.00000,274640576.00000,   0.00000,   0.00000,   0.00000,-426195360.00000,   0.00000
-17702746.17420,6181025.59726,-25978033.23245,  -0.00009,   0.00006,  -0.00034,49591796.00000,   0.00000,274640576.00000,   0.00000,   0.00000,   0.00000,-425048784.00000,   0.00000
-18145889.27331,6197438.30463,-26595151.02973,  -0.00009,   0.00006,  -0.00035,50749924.00000,   0.00000,274640576.00000,   0.00000,   0.00000,   0.00000,-423890656.00000,   0.00000
-18608727.62127,6167895.43136,-27218833.90997,  -0.00010,   0.00006,  -0.00035,51914516.00000,   0.00000,274640576.00000,   0.00000,   0.00000,   0.00000,-422726064.00000,   0.00000
-19061718.34481,6161330.34841,-27835951.70725,  -0.00010,   0.00007,  -0.00036,53073320.00000,   0.00000,274640576.00000,   0.00000,   0.00000,   0.00000,-421567264.00000,   0.00000
-19534404.31720,6108809.68481,-28459634.58748,  -0.00010,   0.00007,  -0.00037,54238476.00000,   0.00000,274640576.00000,   0.00000,   0.00000,   0.00000,-420402096.00000,   0.00000
-19974264.87484,6089114.43596,-29083317.46772,  -0.00010,   0.00007,  -0.00038,55400712.00000,   0.00000,274640576.00000,   0.00000,   0.00000,   0.00000,-419239872.00000,   0.00000
-20446950.84722,6036593.77236,-29700435.26500,  -0.00010,   0.00007,  -0.00039,56557592.00000,   0.00000,274640576.00000,   0.00000,   0.00000,   0.00000,-418082976.00000,   0.00000
-20919636.81961,5984073.10876,-30324118.14523,  -0.00011,   0.00007,  -0.00039,57725372.00000,   0.00000,274640576.00000,   0.00000,   0.00000,   0.00000,-416915200.00000,   0.00000
-21392322.79200,5931552.44517,-30947801.02547,  -0.00011,   0.00007,  -0.00040,58893296.00000,   0.00000,274640576.00000,   0.00000,   0.00000,   0.00000,-415747280.00000,   0.00000
-21851878.59849,5865901.61567,-31578048.98865,  -0.00011,   0.00007,  -0.00041,60062148.00000,   0.00000,274640576.00000,   0.00000,   0.00000,   0.00000,-414578432.00000,   0.00000
-22334412.19530,5790403.16174,-32201731.86888,  -0.00011,   0.00007,  -0.00042,61226936.00000,   0.00000,274640576.00000,   0.00000,   0.00000,   0.00000,-413413632.00000,   0.00000
-22826793.41653,5691926.91750,-32825414.74912,  -0.00011,   0.00007,  -0.00043,62388608.00000,   0.00000,274640576.00000,   0.00000,   0.00000,   0.00000,-412251968.00000,   0.00000
-23309327.01335,5616428.46357,-33449097.62935,  -0.00012,   0.00007,  -0.00043,63551524.00000,   0.00000,274640576.00000,   0.00000,   0.00000,   0.00000,-411089056.00000,   0.00000
-23811555.85901,5494974.42900,-34079345.59253,  -0.00012,   0.00007,  -0.00044,64719016.00000,   0.00000,274640576.00000,   0.00000,   0.00000,   0.00000,-409921568.00000,   0.00000
-24280959.28992,5406345.80918,-34703028.47276,  -0.00012,   0.00007,  -0.00045,65870056.00000,   0.00000,274640576.00000,   0.00000,   0.00000,   0.00000,-408770528.00000,   0.00000
-24783188.13558,5284891.77461,-35333276.43595,  -0.00012,   0.00007,  -0.00046,67034488.00000,   0.00000,274640576.00000,   0.00000,   0.00000,   0.00000,-407606080.00000,   0.00000
-25295264.60567,5140459.94971,-35956959.31618,  -0.00013,   0.00007,  -0.00047,68184816.00000,   0.00000,274640576.00000,   0.00000,   0.00000,   0.00000,-406455760.00000,   0.00000
-25797493.45133,5019005.91514,-36587207.27936,  -0.00013,   0.00007,  -0.00048,69345744.00000,   0.00000,274640576.00000,   0.00000,   0.00000,   0.00000,-405294832.00000,   0.00000
-26309569.92142,4874574.09024,-37217455.24255,  -0.00013,   0.00007,  -0.00048,70502848.00000,   0.00000,274640576.00000,   0.00000,   0.00000,   0.00000,-404137728.00000,   0.00000
-26831494.01593,4707164.47502,-37847703.20573,  -0.00013,   0.00007,  -0.00049,71656384.00000,   0.00000,274640576.00000,   0.00000,   0.00000,   0.00000,-402984192.00000,   0.00000
-27353418.11044,4539754.85980,-38471386.08596,  -0.00013,   0.00007,  -0.00050,72798104.00000,   0.00000,274640576.00000,   0.00000,   0.00000,   0.00000,-401842464.00000,   0.00000
-27852364.41462,4382192.86901,-39101634.04915,  -0.00014,   0.00007,  -0.00051,73941912.00000,   0.00000,274640576.00000,   0.00000,   0.00000,   0.00000,-400698656.00000,   0.00000
-28384136.13356,4191805.46346,-39731882.01233,  -0.00014,   0.00007,  -0.00052,75089392.00000,   0.00000,274640576.00000,   0.00000,   0.00000,   0.00000,-399551184.00000,   0.00000
-28915907.85250,4001418.05792,-40362129.97551,  -0.00014,   0.00007,  -0.00052,76235880.00000,   0.00000,274640576.00000,   0.00000,   0.00000,   0.00000,-398404704.00000,   0.00000
-29447679.57143,3811030.65237,-40992377.93870,  -0.00014,   0.00007,  -0.00053,77381536.00000,   0.00000,274640576.00000,   0.00000,   0.00000,   0.00000,-397259040.00000,   0.00000
-29989298.91479,3597665.45650,-41622625.90188,  -0.00014,   0.00007,  -0.00054,78525072.00000,   0.00000,274640576.00000,   0.00000,   0.00000,   0.00000,-396115504.00000,   0.00000
-30530918.25815,3384300.26063,-42252873.86506,  -0.00015,   0.00007,  -0.00055,79668320.00000,   0.00000,274640576.00000,   0.00000,   0.00000,   0.00000,-394972256.00000,   0.00000
-31105363.01626,3138109.65002,-42883121.82824,  -0.00015,   0.00007,  -0.00056,80816912.00000,   0.00000,274640576.00000,   0.00000,   0.00000,   0.00000,-393823664.00000,   0.00000
-31656829.98405,2901766.66382,-43513369.79143,  -0.00015,   0.00007,  -0.00057,81959160.00000,   0.00000,274640576.00000,   0.00000,   0.00000,   0.00000,-392681408.00000,   0.00000
-32208296.95183,2665423.67763,-44143617.75461,  -0.00015,   0.00007,  -0.00057,83101968.00000,   0.00000,274640576.00000,   0.00000,   0.00000,   0.00000,-391538608.00000,   0.00000
-32769611.54404,2406102.90111,-44773865.71779,  -0.00015,   0.00007,  -0.00058,84244488.00000,   0.00000,274640576.00000,   0.00000,   0.00000,   0.00000,-390396096.00000,   0.00000
-33330926.13625,2146782.12459,-45404113.68098,  -0.00016,   0.00007,  -0.00059,85388192.00000,   0.00000,274640576.00000,   0.00000,   0.00000,   0.00000,-389252384.00000,   0.00000
-33902088.35289,1864483.55775,-46034361.64416,  -0.00016,   0.00007,  -0.00060,86532248.00000,   0.00000,274640576.00000,   0.00000,   0.00000,   0.00000,-388108320.00000,   0.00000
-34496228.35985,1572337.36648,-46664609.60734,  -0.00016,   0.00007,  -0.00061,87684928.00000,   0.00000,274640576.00000,   0.00000,   0.00000,   0.00000,-386955648.00000,   0.00000
-35067390.57648,1290038.79964,-47294857.57053,  -0.00016,   0.00007,  -0.00061,88832600.00000,   0.00000,274640576.00000,   0.00000,   0.00000,   0.00000,-385807968.00000,   0.00000
-35648400.41754,984762.44247,-47925105.53371,  -0.00016,   0.00007,  -0.00062,89981520.00000,   0.00000,274640576.00000,   0.00000,   0.00000,   0.00000,-384659056.00000,   0.00000
-36252388.04892,669638.46088,-48555353.49689,  -0.00017,   0.00007,  -0.00063,91139768.00000,   0.00000,274640576.00000,   0.00000,   0.00000,   0.00000,-383500800.00000,   0.00000
-36843245.51441,341384.31339,-49185601.46007,  -0.00017,   0.00007,  -0.00064,92292656.00000,   0.00000,274640576.00000,   0.00000,   0.00000,   0.00000,-382347920.00000,   0.00000
-37457080.77022,3282.54147,-49815849.42326,  -0.00017,   0.00007,  -0.00065,93455200.00000,   0.00000,274640576.00000,   0.00000,   0.00000,   0.00000,-381185376.00000,   0.00000
-38047938.23570,-324971.60602,-50439532.30349,  -0.00017,   0.00007,  -0.00066,94603008.00000,   0.00000,274640576.00000,   0.00000,   0.00000,   0.00000,-380037568.00000,   0.00000
-38671621.11593,-686051.16826,-51069780.26667,  -0.00017,   0.00007,  -0.00066,95770392.00000,   0.00000,274640576.00000,   0.00000,   0.00000,   0.00000,-378870176.00000,   0.00000
-39305151.62059,-1070108.52082,-51700028.22986,  -0.00018,   0.00007,  -0.00067,96940128.00000,   0.00000,274640576.00000,   0.00000,   0.00000,   0.00000,-377700448.00000,   0.00000
-39905856.71050,-1421340.45864,-52330276.19304,  -0.00018,   0.00007,  -0.00068,98105824.00000,   0.00000,274640576.00000,   0.00000,   0.00000,   0.00000,-376534752.00000,   0.00000
-40549234.83958,-1828375.60153,-52953959.07327,  -0.00018,   0.00007,  -0.00069,99270424.00000,   0.00000,274640576.00000,   0.00000,   0.00000,   0.00000,-375370144.00000,   0.00000
-41182765.34424,-2212432.95409,-53584207.03646,  -0.00018,   0.00007,  -0.00070,100448424.00000,   0.00000,274640576.00000,   0.00000,   0.00000,   0.00000,-374192160.00000,   0.00000
-41826143.47332,-2619468.09698,-54207889.91669,  -0.00019,   0.00007,  -0.00070,101618400.00000,   0.00000,274640576.00000,   0.00000,   0.00000,   0.00000,-373022176.00000,   0.00000
-42479369.22683,-3049481.03019,-54838137.87987,  -0.00019,   0.00007,  -0.00071,102801312.00000,   0.00000,274640576.00000,   0.00000,   0.00000,   0.00000,-371839264.00000,   0.00000
-43122747.35591,-3456516.17308,-55461820.76011,  -0.00019,   0.00007,  -0.00072,103976248.00000,   0.00000,274640576.00000,   0.00000,   0.00000,   0.00000,-370664320.00000,   0.00000
-43785820.73384,-3909506.89662,-56092068.72329,  -0.00019,   0.00007,  -0.00073,105163944.00000,   0.00000,274640576.00000,   0.00000,   0.00000,   0.00000,-369476640.00000,   0.00000
-44439046.48735,-4339519.82983,-56715751.60352,  -0.00019,   0.00007,  -0.00074,106343384.00000,   0.00000,274640576.00000,   0.00000,   0.00000,   0.00000,-368297184.00000,   0.00000
-45111967.48971,-4815488.34370,-57339434.48375,  -0.00020,   0.00007,  -0.00075,107525200.00000,   0.00000,274640576.00000,   0.00000,   0.00000,   0.00000,-367115376.00000,   0.00000
-45775040.86764,-5268479.06723,-57963117.36399,  -0.00020,   0.00007,  -0.00075,108708704.00000,   0.00000,274640576.00000,   0.00000,   0.00000,   0.00000,-365931872.00000,   0.00000
-46470939.66032,-5754295.20552,-58586800.24422,  -0.00020,   0.00006,  -0.00076,109901864.00000,   0.00000,274640576.00000,   0.00000,   0.00000,   0.00000,-364738720.00000,   0.00000
-47153708.28710,-6253241.50971,-59210483.12445,  -0.00020,   0.00006,  -0.00077,111089520.00000,   0.00000,274640576.00000,   0.00000,   0.00000,   0.00000,-363551056.00000,   0.00000
-47836476.91389,-6752187.81389,-59834166.00469,  -0.00020,   0.00006,  -0.00078,112278808.00000,   0.00000,274640576.00000,   0.00000,   0.00000,   0.00000,-362361760.00000,   0.00000
-48542223.33099,-7260981.74250,-60457848.88492,  -0.00021,   0.00006,  -0.00079,113477096.00000,   0.00000,274640576.00000,   0.00000,   0.00000,   0.00000,-361163488.00000,   0.00000
-49234839.58220,-7782905.83702,-61074966.68220,  -0.00021,   0.00006,  -0.00079,114659096.00000,   0.00000,274640576.00000,   0.00000,   0.00000,   0.00000,-359981472.00000,   0.00000
-49950433.62373,-8314677.55595,-61698649.56244,  -0.00021,   0.00006,  -0.00080,115860472.00000,   0.00000,274640576.00000,   0.00000,   0.00000,   0.00000,-358780096.00000,   0.00000
-50666027.66526,-8846449.27489,-62315767.35972,  -0.00021,   0.00006,  -0.00081,117052400.00000,   0.00000,274640576.00000,   0.00000,   0.00000,   0.00000,-357588176.00000,   0.00000
-51401316.95564,-9424176.57447,-62939450.23995,  -0.00022,   0.00006,  -0.00082,118257320.00000,   0.00000,274640576.00000,   0.00000,   0.00000,   0.00000,-356383264.00000,   0.00000
-52126758.62160,-9978926.08373,-63556568.03724,  -0.00022,   0.00006,  -0.00083,119451896.00000,   0.00000,274640576.00000,   0.00000,   0.00000,   0.00000,-355188672.00000,   0.00000
-52839070.12165,-10546805.75889,-64173685.83452,  -0.00022,   0.00006,  -0.00083,120640392.00000,   0.00000,274640576.00000,   0.00000,   0.00000,   0.00000,-354000192.00000,   0.00000
-53574359.41203,-11124533.05848,-64790803.63180,  -0.00022,   0.00005,  -0.00084,121837400.00000,   0.00000,274640576.00000,   0.00000,   0.00000,   0.00000,-352803168.00000,   0.00000
-54342474.11716,-11735085.77281,-65407921.42909,  -0.00022,   0.00005,  -0.00085,123043944.00000,   0.00000,274640576.00000,   0.00000,   0.00000,   0.00000,-351596640.00000,   0.00000
-55087611.03197,-12335790.86272,-66018474.14342,  -0.00023,   0.00005,  -0.00086,124233048.00000,   0.00000,274640576.00000,   0.00000,   0.00000,   0.00000,-350407520.00000,   0.00000
-55842595.57120,-12959473.74295,-66635591.94070,  -0.00023,   0.00005,  -0.00087,125434288.00000,   0.00000,274640576.00000,   0.00000,   0.00000,   0.00000,-349206288.00000,   0.00000
-56597580.11042,-13583156.62318,-67246144.65504,  -0.00023,   0.00005,  -0.00087,126625944.00000,   0.00000,274640576.00000,   0.00000,   0.00000,   0.00000,-348014624.00000,   0.00000
-57385390.06440,-14239664.91817,-67863262.45232,  -0.00023,   0.00005,  -0.00088,127837824.00000,   0.00000,274640576.00000,   0.00000,   0.00000,   0.00000,-346802752.00000,   0.00000
-58150222.22806,-14886325.58872,-68473815.16665,  -0.00024,   0.00005,  -0.00089,129032408.00000,   0.00000,274640576.00000,   0.00000,   0.00000,   0.00000,-345608160.00000,   0.00000
-58938032.18204,-15542833.88371,-69084367.88099,  -0.00024,   0.00004,  -0.00090,130235696.00000,   0.00000,274640576.00000,   0.00000,   0.00000,   0.00000,-344404880.00000,   0.00000
-59735689.76044,-16222319.96901,-69694920.59532,  -0.00024,   0.00004,  -0.00091,131441424.00000,   0.00000,274640576.00000,   0.00000,   0.00000,   0.00000,-343199152.00000,   0.00000
-60520217.17294,-16914936.22022,-70305473.30966,  -0.00024,   0.00004,  -0.00091,132641984.00000,   0.00000,274640576.00000,   0.00000,   0.00000,   0.00000,-341998592.00000,   0.00000
-61327722.37577,-17617400.09585,-70909460.94104,  -0.00024,   0.00004,  -0.00092,133841576.00000,   0.00000,274640576.00000,   0.00000,   0.00000,   0.00000,-340799008.00000,   0.00000
-62135227.57860,-18319863.97148,-71520013.65537,  -0.00025,   0.00004,  -0.00093,135053024.00000,   0.00000,274640576.00000,   0.00000,   0.00000,   0.00000,-339587552.00000,   0.00000
-62952580.40585,-19045305.63744,-72124001.28676,  -0.00025,   0.00004,  -0.00094,136257520.00000,   0.00000,274640576.00000,   0.00000,   0.00000,   0.00000,-338383056.00000,   0.00000
-63769933.23311,-19770747.30339,-72727988.91814,  -0.00025,   0.00003,  -0.00095,137464016.00000,   0.00000,274640576.00000,   0.00000,   0.00000,   0.00000,-337176560.00000,   0.00000
-64587286.06036,-20496188.96935,-73331976.54952,  -0.00025,   0.00003,  -0.00095,138672480.00000,   0.00000,274640576.00000,   0.00000,   0.00000,   0.00000,-335968096.00000,   0.00000
-65437464.30236,-21254456.05005,-73935964.18091,  -0.00026,   0.00003,  -0.00096,139893296.00000,   0.00000,274640576.00000,   0.00000,   0.00000,   0.00000,-334747280.00000,   0.00000
-66274512.37846,-22025853.29666,-74539951.81229,  -0.00026,   0.00003,  -0.00097,141110496.00000,   0.00000,274640576.00000,   0.00000,   0.00000,   0.00000,-333530080.00000,   0.00000
-67111560.45457,-22797250.54326,-75137374.36073,  -0.00026,   0.00003,  -0.00098,142319936.00000,   0.00000,274640576.00000,   0.00000,   0.00000,   0.00000,-332320640.00000,   0.00000
-67971586.32099,-23578495.41429,-75734796.90916,  -0.00026,   0.00003,  -0.00098,143540304.00000,   0.00000,274640576.00000,   0.00000,   0.00000,   0.00000,-331100272.00000,   0.00000
-68841459.81184,-24382718.07564,-76338784.54054,  -0.00027,   0.00002,  -0.00099,144776128.00000,   0.00000,274640576.00000,   0.00000,   0.00000,   0.00000,-329864448.00000,   0.00000
-69688355.51237,-25177093.11257,-76929642.00603,  -0.00027,   0.00002,  -0.00100,145985728.00000,   0.00000,274640576.00000,   0.00000,   0.00000,   0.00000,-328654848.00000,   0.00000
-70568076.62765,-26004293.56425,-77527064.55446,  -0.00027,   0.00002,  -0.00101,147219408.00000,   0.00000,274640576.00000,   0.00000,   0.00000,   0.00000,-327421168.00000,   0.00000
-71447797.74292,-26831494.01593,-78124487.10289,  -0.00027,   0.00002,  -0.00102,148456000.00000,   0.00000,274640576.00000,   0.00000,   0.00000,   0.00000,-326184576.00000,   0.00000
-72337366.48263,-27681672.25793,-78715344.56838,  -0.00028,   0.00002,  -0.00102,149687712.00000,   0.00000,274640576.00000,   0.00000,   0.00000,   0.00000,-324952864.00000,   0.00000
-73226935.22233,-28531850.49993,-79306202.03386,  -0.00028,   0.00001,  -0.00103,150922144.00000,   0.00000,274640576.00000,   0.00000,   0.00000,   0.00000,-323718432.00000,   0.00000
-74139481.75235,-29391876.36636,-79897059.49935,  -0.00028,   0.00001,  -0.00104,152167776.00000,   0.00000,274640576.00000,   0.00000,   0.00000,   0.00000,-322472800.00000,   0.00000
-75038898.11648,-30265032.39868,-80487916.96483,  -0.00028,   0.00001,  -0.00105,153410240.00000,   0.00000,274640576.00000,   0.00000,   0.00000,   0.00000,-321230336.00000,   0.00000
-75948162.10503,-31161166.22134,-81078774.43031,  -0.00028,   0.00001,  -0.00105,154657952.00000,   0.00000,274640576.00000,   0.00000,   0.00000,   0.00000,-319982624.00000,   0.00000
-76880403.88390,-32067147.66841,-81663066.81285,  -0.00029,   0.00000,  -0.00106,155906288.00000,   0.00000,274640576.00000,   0.00000,   0.00000,   0.00000,-318734288.00000,   0.00000
-77789667.87245,-32963281.49106,-82253924.27833,  -0.00029,   0.00000,  -0.00107,157158288.00000,   0.00000,274640576.00000,   0.00000,   0.00000,   0.00000,-317482288.00000,   0.00000
-78731757.27575,-33892240.72846,-82838216.66087,  -0.00029,  -0.00000,  -0.00108,158413600.00000,   0.00000,274640576.00000,   0.00000,   0.00000,   0.00000,-316226976.00000,   0.00000
-79673846.67905,-34821199.96586,-83422509.04340,  -0.00029,  -0.00000,  -0.00108,159670608.00000,   0.00000,274640576.00000,   0.00000,   0.00000,   0.00000,-314969968.00000,   0.00000
-80625783.70678,-35773136.99359,-84000236.34299,  -0.00030,  -0.00001,  -0.00109,160922208.00000,   0.00000,274640576.00000,   0.00000,   0.00000,   0.00000,-313718368.00000,   0.00000
-81577720.73450,-36725074.02131,-84584528.72552,  -0.00030,  -0.00001,  -0.00110,162185312.00000,   0.00000,274640576.00000,   0.00000,   0.00000,   0.00000,-312455264.00000,   0.00000
-82529657.76223,-37677011.04903,-85162256.02510,  -0.00030,  -0.00001,  -0.00111,163439248.00000,   0.00000,274640576.00000,   0.00000,   0.00000,   0.00000,-311201328.00000,   0.00000
-83491442.41437,-38651925.86708,-85739983.32469,  -0.00030,  -0.00001,  -0.00111,164697680.00000,   0.00000,274640576.00000,   0.00000,   0.00000,   0.00000,-309942896.00000,   0.00000
-84463074.69095,-39649818.47546,-86317710.62427,  -0.00031,  -0.00002,  -0.00112,165960384.00000,   0.00000,274640576.00000,   0.00000,   0.00000,   0.00000,-308680192.00000,   0.00000
-85447837.13342,-40634580.91793,-86888872.84091,  -0.00031,  -0.00002,  -0.00113,167218944.00000,   0.00000,274640576.00000,   0.00000,   0.00000,   0.00000,-307421632.00000,   0.00000
-86429317.03442,-41655451.31663,-87460035.05754,  -0.00031,  -0.00002,  -0.00114,168476368.00000,   0.00000,274640576.00000,   0.00000,   0.00000,   0.00000,-306164208.00000,   0.00000
-87423927.10132,-42663191.54943,-88037762.35713,  -0.00031,  -0.00002,  -0.00114,169749856.00000,   0.00000,274640576.00000,   0.00000,   0.00000,   0.00000,-304890720.00000,   0.00000
-88438232.41707,-43716887.36287,-88608924.57376,  -0.00032,  -0.00003,  -0.00115,171020768.00000,   0.00000,274640576.00000,   0.00000,   0.00000,   0.00000,-303619808.00000,   0.00000
-89442690.10839,-44747605.38599,-89173521.70745,  -0.00032,  -0.00003,  -0.00116,172278128.00000,   0.00000,274640576.00000,   0.00000,   0.00000,   0.00000,-302362448.00000,   0.00000
-90456995.42414,-45801301.19944,-89744683.92408,  -0.00032,  -0.00003,  -0.00117,173549504.00000,   0.00000,274640576.00000,   0.00000,   0.00000,   0.00000,-301091072.00000,   0.00000
-91481148.36431,-46877974.80321,-90309281.05777,  -0.00032,  -0.00003,  -0.00117,174814544.00000,   0.00000,274640576.00000,   0.00000,   0.00000,   0.00000,-299826032.00000,   0.00000
-92505301.30448,-47954648.40698,-90873878.19145,  -0.00033,  -0.00004,  -0.00118,176079328.00000,   0.00000,274640576.00000,   0.00000,   0.00000,   0.00000,-298561248.00000,   0.00000
-93529454.24465,-49031322.01075,-91438475.32514,  -0.00033,  -0.00004,  -0.00119,177343648.00000,   0.00000,274640576.00000,   0.00000,   0.00000,   0.00000,-297296928.00000,   0.00000
-94563454.80925,-50130973.40485,-91996507.37587,  -0.00033,  -0.00004,  -0.00120,178600960.00000,   0.00000,274640576.00000,   0.00000,   0.00000,   0.00000,-296039616.00000,   0.00000
-95620433.16417,-51240472.42337,-92561104.50956,  -0.00034,  -0.00005,  -0.00120,179876416.00000,   0.00000,274640576.00000,   0.00000,   0.00000,   0.00000,-294764160.00000,   0.00000
-96654433.72877,-52340123.81746,-93119136.56029,  -0.00034,  -0.00005,  -0.00121,181132128.00000,   0.00000,274640576.00000,   0.00000,   0.00000,   0.00000,-293508448.00000,   0.00000
-97731107.33254,-53495578.41663,-93677168.61103,  -0.00034,  -0.00005,  -0.00122,182404800.00000,   0.00000,274640576.00000,   0.00000,   0.00000,   0.00000,-292235776.00000,   0.00000
-98797933.31189,-54628055.22548,-94228635.57881,  -0.00034,  -0.00006,  -0.00122,183665264.00000,   0.00000,274640576.00000,   0.00000,   0.00000,   0.00000,-290975312.00000,   0.00000
-99874606.91566,-55783509.82465,-94780102.54660,  -0.00035,  -0.00006,  -0.00123,184934160.00000,   0.00000,274640576.00000,   0.00000,   0.00000,   0.00000,-289706416.00000,   0.00000
-100951280.51943,-56938964.42382,-95338134.59733,  -0.00035,  -0.00006,  -0.00124,186220688.00000,   0.00000,274640576.00000,   0.00000,   0.00000,   0.00000,-288419888.00000,   0.00000
-102037801.74763,-58117396.81331,-95883036.48217,  -0.00035,  -0.00007,  -0.00125,187501456.00000,   0.00000,274640576.00000,   0.00000,   0.00000,   0.00000,-287139120.00000,   0.00000
-103124322.97582,-59295829.20280,-96434503.44995,  -0.00035,  -0.00007,  -0.00125,188802704.00000,   0.00000,274640576.00000,   0.00000,   0.00000,   0.00000,-285837872.00000,   0.00000
-104220691.82844,-60497239.38262,-96985970.41774,  -0.00036,  -0.00007,  -0.00126,190117536.00000,   0.00000,274640576.00000,   0.00000,   0.00000,   0.00000,-284523040.00000,   0.00000
-105317060.68106,-61698649.56244,-97530872.30257,  -0.00036,  -0.00008,  -0.00127,191428368.00000,   0.00000,274640576.00000,   0.00000,   0.00000,   0.00000,-283212208.00000,   0.00000
-106436407.32401,-62909907.36668,-98075774.18741,  -0.00036,  -0.00008,  -0.00127,192751824.00000,   0.00000,274640576.00000,   0.00000,   0.00000,   0.00000,-281888752.00000,   0.00000
-107565601.59138,-64144142.96125,-98614110.98929,  -0.00036,  -0.00008,  -0.00128,194071680.00000,   0.00000,274640576.00000,   0.00000,   0.00000,   0.00000,-280568896.00000,   0.00000
-108681665.69285,-65391508.72171,-99159012.87413,  -0.00037,  -0.00009,  -0.00129,195398048.00000,   0.00000,274640576.00000,   0.00000,   0.00000,   0.00000,-279242528.00000,   0.00000
-109810859.96022,-66625744.31628,-99697349.67601,  -0.00037,  -0.00009,  -0.00130,196720064.00000,   0.00000,274640576.00000,   0.00000,   0.00000,   0.00000,-277920512.00000,   0.00000
-110949901.85201,-67882957.70117,-100235686.47790,  -0.00037,  -0.00009,  -0.00130,198049376.00000,   0.00000,274640576.00000,   0.00000,   0.00000,   0.00000,-276591200.00000,   0.00000
-112098791.36823,-69163148.87639,-100767458.19683,  -0.00038,  -0.00010,  -0.00131,199376976.00000,   0.00000,274640576.00000,   0.00000,   0.00000,   0.00000,-275263600.00000,   0.00000
-113247680.88445,-70443340.05160,-101305794.99872,  -0.00038,  -0.00010,  -0.00132,200718544.00000,   0.00000,274640576.00000,   0.00000,   0.00000,   0.00000,-273922032.00000,   0.00000
-114396570.40067,-71723531.22682,-101837566.71766,  -0.00038,  -0.00010,  -0.00132,202054688.00000,   0.00000,274640576.00000,   0.00000,   0.00000,   0.00000,-272585888.00000,   0.00000
-115578285.33164,-73036547.81678,-102369338.43659,  -0.00038,  -0.00011,  -0.00133,203411024.00000,   0.00000,274640576.00000,   0.00000,   0.00000,   0.00000,-271229552.00000,   0.00000
-116737022.47228,-74339716.78232,-102894545.07258,  -0.00039,  -0.00011,  -0.00134,204753568.00000,   0.00000,274640576.00000,   0.00000,   0.00000,   0.00000,-269887008.00000,   0.00000
-117928585.02767,-75675711.16261,-103426316.79151,  -0.00039,  -0.00011,  -0.00134,206127680.00000,   0.00000,274640576.00000,   0.00000,   0.00000,   0.00000,-268512896.00000,   0.00000
-119097169.79274,-77001857.91847,-103951523.42750,  -0.00039,  -0.00012,  -0.00135,207488944.00000,   0.00000,274640576.00000,   0.00000,   0.00000,   0.00000,-267151632.00000,   0.00000
-120288732.34813,-78337852.29876,-104476730.06348,  -0.00039,  -0.00012,  -0.00136,208867072.00000,   0.00000,274640576.00000,   0.00000,   0.00000,   0.00000,-265773504.00000,   0.00000
-121490142.52795,-79696824.46938,-104995371.61652,  -0.00040,  -0.00013,  -0.00136,210248752.00000,   0.00000,274640576.00000,   0.00000,   0.00000,   0.00000,-264391824.00000,   0.00000
-122691552.70777,-81055796.63999,-105520578.25251,  -0.00040,  -0.00013,  -0.00137,211648256.00000,   0.00000,274640576.00000,   0.00000,   0.00000,   0.00000,-262992320.00000,   0.00000
-123902810.51201,-82437746.60093,-106039219.80554,  -0.00040,  -0.00013,  -0.00138,213051664.00000,   0.00000,274640576.00000,   0.00000,   0.00000,   0.00000,-261588912.00000,   0.00000
-125114068.31625,-83819696.56187,-106557861.35858,  -0.00041,  -0.00014,  -0.00139,214462576.00000,   0.00000,274640576.00000,   0.00000,   0.00000,   0.00000,-260178000.00000,   0.00000
-126325326.12050,-85201646.52280,-107069937.82866,  -0.00041,  -0.00014,  -0.00139,215870048.00000,   0.00000,274640576.00000,   0.00000,   0.00000,   0.00000,-258770528.00000,   0.00000
-127546431.54916,-86606574.27407,-107588579.38170,  -0.00041,  -0.00015,  -0.00140,217299312.00000,   0.00000,274640576.00000,   0.00000,   0.00000,   0.00000,-257341264.00000,   0.00000
-128790514.76815,-88021349.64975,-108100655.85179,  -0.00041,  -0.00015,  -0.00141,218732928.00000,   0.00000,274640576.00000,   0.00000,   0.00000,   0.00000,-255907648.00000,   0.00000
-130021467.82125,-89449255.19134,-108612732.32187,  -0.00042,  -0.00015,  -0.00141,220164928.00000,   0.00000,274640576.00000,   0.00000,   0.00000,   0.00000,-254475648.00000,   0.00000
-131275398.66466,-90887008.35735,-109118243.70901,  -0.00042,  -0.00016,  -0.00142,221597520.00000,   0.00000,274640576.00000,   0.00000,   0.00000,   0.00000,-253043056.00000,   0.00000
-132529329.50808,-92324761.52336,-109623755.09615,  -0.00042,  -0.00016,  -0.00143,223028144.00000,   0.00000,274640576.00000,   0.00000,   0.00000,   0.00000,-251612432.00000,   0.00000
-133760282.56117,-93752667.06495,-110129266.48328,  -0.00043,  -0.00017,  -0.00143,224444752.00000,   0.00000,274640576.00000,   0.00000,   0.00000,   0.00000,-250195824.00000,   0.00000
-135033908.65344,-95236375.81161,-110634777.87042,  -0.00043,  -0.00017,  -0.00144,225880368.00000,   0.00000,274640576.00000,   0.00000,   0.00000,   0.00000,-248760208.00000,   0.00000
-136297687.12128,-96697106.76794,-111140289.25755,  -0.00043,  -0.00017,  -0.00144,227304224.00000,   0.00000,274640576.00000,   0.00000,   0.00000,   0.00000,-247336352.00000,   0.00000
-137571313.21354,-98180815.51460,-111639235.56174,  -0.00043,  -0.00018,  -0.00145,228722368.00000,   0.00000,274640576.00000,   0.00000,   0.00000,   0.00000,-245918208.00000,   0.00000
-138867917.09613,-99674371.88569,-112138181.86593,  -0.00044,  -0.00018,  -0.00146,230152112.00000,   0.00000,274640576.00000,   0.00000,   0.00000,   0.00000,-244488464.00000,   0.00000
-140151390.81282,-101181058.42267,-112637128.17011,  -0.00044,  -0.00019,  -0.00146,231588256.00000,   0.00000,274640576.00000,   0.00000,   0.00000,   0.00000,-243052320.00000,   0.00000
-141425016.90509,-102664767.16933,-113129509.39135,  -0.00044,  -0.00019,  -0.00147,233026464.00000,   0.00000,274640576.00000,   0.00000,   0.00000,   0.00000,-241614112.00000,   0.00000
-142741316.03653,-104204279.12107,-113621890.61259,  -0.00045,  -0.00020,  -0.00148,234511024.00000,   0.00000,274640576.00000,   0.00000,   0.00000,   0.00000,-240129552.00000,   0.00000
-144024789.75322,-105710965.65805,-114114271.83382,  -0.00045,  -0.00020,  -0.00148,235982448.00000,   0.00000,274640576.00000,   0.00000,   0.00000,   0.00000,-238658128.00000,   0.00000
-145341088.88466,-107250477.60978,-114606653.05506,  -0.00045,  -0.00020,  -0.00149,237447584.00000,   0.00000,274640576.00000,   0.00000,   0.00000,   0.00000,-237192992.00000,   0.00000
-146644257.85020,-108803119.72742,-115092469.19335,  -0.00046,  -0.00021,  -0.00150,238865792.00000,   0.00000,274640576.00000,   0.00000,   0.00000,   0.00000,-235774784.00000,   0.00000
-147970404.60606,-110365609.46948,-115578285.33164,  -0.00046,  -0.00021,  -0.00150,240274912.00000,   0.00000,274640576.00000,   0.00000,   0.00000,   0.00000,-234365664.00000,   0.00000
-149296551.36193,-111928099.21153,-116064101.46992,  -0.00046,  -0.00022,  -0.00151,241683792.00000,   0.00000,274640576.00000,   0.00000,   0.00000,   0.00000,-232956784.00000,   0.00000
-150622698.11779,-113490588.95359,-116549917.60821,  -0.00046,  -0.00022,  -0.00152,243103648.00000,   0.00000,274640576.00000,   0.00000,   0.00000,   0.00000,-231536928.00000,   0.00000
-151958692.49808,-115076056.48597,-117029168.66355,  -0.00047,  -0.00023,  -0.00152,244539328.00000,   0.00000,274640576.00000,   0.00000,   0.00000,   0.00000,-230101248.00000,   0.00000
-153294686.87837,-116661524.01836,-117508419.71888,  -0.00047,  -0.00023,  -0.00153,245996144.00000,   0.00000,274640576.00000,   0.00000,   0.00000,   0.00000,-228644432.00000,   0.00000
-154653659.04898,-118256839.17516,-117987670.77422,  -0.00047,  -0.00024,  -0.00153,247438448.00000,   0.00000,274640576.00000,   0.00000,   0.00000,   0.00000,-227202128.00000,   0.00000
-155999501.05370,-119865284.49787,-118466921.82956,  -0.00048,  -0.00024,  -0.00154,248863376.00000,   0.00000,274640576.00000,   0.00000,   0.00000,   0.00000,-225777200.00000,   0.00000
-157345343.05841,-121473729.82058,-118939607.80194,  -0.00048,  -0.00025,  -0.00155,250361232.00000,   0.00000,274640576.00000,   0.00000,   0.00000,   0.00000,-224279344.00000,   0.00000
-158724010.47787,-123115000.55803,-119412293.77433,  -0.00048,  -0.00025,  -0.00155,251880896.00000,   0.00000,274640576.00000,   0.00000,   0.00000,   0.00000,-222759680.00000,   0.00000
-160079700.10701,-124746423.67106,-119884979.74672,  -0.00049,  -0.00026,  -0.00156,253373904.00000,   0.00000,274640576.00000,   0.00000,   0.00000,   0.00000,-221266672.00000,   0.00000
-161458367.52647,-126387694.40852,-120357665.71911,  -0.00049,  -0.00026,  -0.00156,254874496.00000,   0.00000,274640576.00000,   0.00000,   0.00000,   0.00000,-219766080.00000,   0.00000
-162814057.15561,-128019117.52155,-120823786.60854,  -0.00049,  -0.00026,  -0.00157,256356752.00000,   0.00000,274640576.00000,   0.00000,   0.00000,   0.00000,-218283824.00000,   0.00000
-164202572.19950,-129683366.04933,-121289907.49798,  -0.00049,  -0.00027,  -0.00158,257860944.00000,   0.00000,274640576.00000,   0.00000,   0.00000,   0.00000,-216779632.00000,   0.00000
-165591087.24339,-131347614.57711,-121756028.38742,  -0.00050,  -0.00027,  -0.00158,259368256.00000,   0.00000,274640576.00000,   0.00000,   0.00000,   0.00000,-215272320.00000,   0.00000
-166989449.91170,-133034840.89521,-122215584.19391,  -0.00050,  -0.00028,  -0.00159,260877456.00000,   0.00000,274640576.00000,   0.00000,   0.00000,   0.00000,-213763120.00000,   0.00000
-168377964.95559,-134699089.42299,-122681705.08334,  -0.00050,  -0.00028,  -0.00159,262390608.00000,   0.00000,274640576.00000,   0.00000,   0.00000,   0.00000,-212249968.00000,   0.00000
-169776327.62390,-136386315.74110,-123141260.88983,  -0.00051,  -0.00029,  -0.00160,263905632.00000,   0.00000,274640576.00000,   0.00000,   0.00000,   0.00000,-210734944.00000,   0.00000
-171184537.91664,-138096519.84953,-123594251.61337,  -0.00051,  -0.00029,  -0.00161,265422560.00000,   0.00000,274640576.00000,   0.00000,   0.00000,   0.00000,-209218016.00000,   0.00000
-172592748.20937,-139806723.95796,-124053807.41986,  -0.00051,  -0.00030,  -0.00161,266951584.00000,   0.00000,274640576.00000,   0.00000,   0.00000,   0.00000,-207688992.00000,   0.00000
-174023936.29243,-141526775.69081,-124506798.14339,  -0.00052,  -0.00030,  -0.00162,268485024.00000,   0.00000,274640576.00000,   0.00000,   0.00000,   0.00000,-206155552.00000,   0.00000
-175432146.58517,-143236979.79924,-124959788.86693,  -0.00052,  -0.00031,  -0.00162,270010304.00000,   0.00000,274640576.00000,   0.00000,   0.00000,   0.00000,-204630272.00000,   0.00000
-176840356.87791,-144947183.90767,-125412779.59047,  -0.00052,  -0.00031,  -0.00163,271538208.00000,   0.00000,274640576.00000,   0.00000,   0.00000,   0.00000,-203102368.00000,   0.00000
-178281392.58540,-146690213.43085,-125865770.31401,  -0.00053,  -0.00032,  -0.00164,273088352.00000,   0.00000,274640576.00000,   0.00000,   0.00000,   0.00000,-201552224.00000,   0.00000
-179709298.12698,-148446373.11992,-126312195.95460,  -0.00053,  -0.00032,  -0.00164,274629696.00000,   0.00000,274640576.00000,   0.00000,   0.00000,   0.00000,-200010880.00000,   0.00000
-181150333.83447,-150189402.64310,-126758621.59518,  -0.00053,  -0.00033,  -0.00165,276175744.00000,   0.00000,274640576.00000,   0.00000,   0.00000,   0.00000,-198464832.00000,   0.00000
-182578239.37605,-151945562.33218,-127205047.23577,  -0.00053,  -0.00034,  -0.00165,277722112.00000,   0.00000,274640576.00000,   0.00000,   0.00000,   0.00000,-196918464.00000,   0.00000
-184029122.70797,-153711569.64568,-127644907.79341,  -0.00054,  -0.00034,  -0.00166,279272704.00000,   0.00000,274640576.00000,   0.00000,   0.00000,   0.00000,-195367872.00000,   0.00000
-185480006.03988,-155477576.95918,-128091333.43400,  -0.00054,  -0.00035,  -0.00167,280834688.00000,   0.00000,274640576.00000,   0.00000,   0.00000,   0.00000,-193805888.00000,   0.00000
-186940736.99621,-157266562.06301,-128531193.99164,  -0.00054,  -0.00035,  -0.00167,282398784.00000,   0.00000,274640576.00000,   0.00000,   0.00000,   0.00000,-192241792.00000,   0.00000
-188378490.16222,-159045699.54241,-128971054.54927,  -0.00055,  -0.00036,  -0.00168,283954304.00000,   0.00000,274640576.00000,   0.00000,   0.00000,   0.00000,-190686272.00000,   0.00000
-189839221.11856,-160834684.64624,-129404350.02396,  -0.00055,  -0.00036,  -0.00168,285514336.00000,   0.00000,274640576.00000,   0.00000,   0.00000,   0.00000,-189126240.00000,   0.00000
-191299952.07489,-162623669.75007,-129844210.58160,  -0.00055,  -0.00037,  -0.00169,287085984.00000,   0.00000,274640576.00000,   0.00000,   0.00000,   0.00000,-187554592.00000,   0.00000
-192770530.65565,-164435632.64422,-130277506.05629,  -0.00056,  -0.00037,  -0.00169,288660768.00000,   0.00000,274640576.00000,   0.00000,   0.00000,   0.00000,-185979808.00000,   0.00000
-194241109.23642,-166247595.53837,-130710801.53098,  -0.00056,  -0.00038,  -0.00170,290238880.00000,   0.00000,274640576.00000,   0.00000,   0.00000,   0.00000,-184401696.00000,   0.00000
-195711687.81718,-168059558.43252,-131144097.00567,  -0.00056,  -0.00038,  -0.00170,291820768.00000,   0.00000,274640576.00000,   0.00000,   0.00000,   0.00000,-182819808.00000,   0.00000
-197215091.81268,-169904346.74142,-131570827.39740,  -0.00057,  -0.00039,  -0.00171,293418464.00000,   0.00000,274640576.00000,   0.00000,   0.00000,   0.00000,-181222112.00000,   0.00000
-198685670.39345,-171716309.63557,-131997557.78914,  -0.00057,  -0.00039,  -0.00172,295000096.00000,   0.00000,274640576.00000,   0.00000,   0.00000,   0.00000,-179640480.00000,   0.00000
-200166096.59863,-173551250.32005,-132424288.18088,  -0.00057,  -0.00040,  -0.00172,296595616.00000,   0.00000,274640576.00000,   0.00000,   0.00000,   0.00000,-178044960.00000,   0.00000
-201656370.42824,-175409168.79485,-132851018.57262,  -0.00058,  -0.00040,  -0.00173,298205568.00000,   0.00000,274640576.00000,   0.00000,   0.00000,   0.00000,-176435008.00000,   0.00000
-203136796.63343,-177244109.47932,-133277748.96436,  -0.00058,  -0.00041,  -0.00173,299810688.00000,   0.00000,274640576.00000,   0.00000,   0.00000,   0.00000,-174829888.00000,   0.00000
-204650048.25336,-179111875.57855,-133697914.27315,  -0.00058,  -0.00042,  -0.00174,301432832.00000,   0.00000,274640576.00000,   0.00000,   0.00000,   0.00000,-173207744.00000,   0.00000
-206140322.08297,-180969794.05335,-134118079.58194,  -0.00059,  -0.00042,  -0.00174,303047360.00000,   0.00000,274640576.00000,   0.00000,   0.00000,   0.00000,-171593216.00000,   0.00000
-207653573.70290,-182837560.15257,-134538244.89072,  -0.00059,  -0.00043,  -0.00175,304677184.00000,   0.00000,274640576.00000,   0.00000,   0.00000,   0.00000,-169963392.00000,   0.00000
-209143847.53251,-184695478.62737,-134958410.19951,  -0.00059,  -0.00043,  -0.00175,306298144.00000,   0.00000,274640576.00000,   0.00000,   0.00000,   0.00000,-168342432.00000,   0.00000
-210643968.98655,-186576374.89250,-135372010.42535,  -0.00059,  -0.00044,  -0.00176,307922944.00000,   0.00000,274640576.00000,   0.00000,   0.00000,   0.00000,-166717632.00000,   0.00000
-212167068.23091,-188467118.78205,-135792175.73414,  -0.00060,  -0.00044,  -0.00177,309570112.00000,   0.00000,274640576.00000,   0.00000,   0.00000,   0.00000,-165070464.00000,   0.00000
-213667189.68494,-190348015.04717,-136205775.95998,  -0.00060,  -0.00045,  -0.00177,311198848.00000,   0.00000,274640576.00000,   0.00000,   0.00000,   0.00000,-163441728.00000,   0.00000
-215190288.92930,-192238758.93672,-136619376.18582,  -0.00060,  -0.00046,  -0.00178,312840992.00000,   0.00000,274640576.00000,   0.00000,   0.00000,   0.00000,-161799584.00000,   0.00000
-216700258.00776,-194142632.99217,-137026411.32871,  -0.00061,  -0.00046,  -0.00178,314474656.00000,   0.00000,274640576.00000,   0.00000,   0.00000,   0.00000,-160165920.00000,   0.00000
-218233204.87654,-196056354.67204,-137440011.55455,  -0.00061,  -0.00047,  -0.00179,316130336.00000,   0.00000,274640576.00000,   0.00000,   0.00000,   0.00000,-158510240.00000,   0.00000
-219766151.74533,-197970076.35191,-137847046.69744,  -0.00061,  -0.00047,  -0.00179,317779232.00000,   0.00000,274640576.00000,   0.00000,   0.00000,   0.00000,-156861344.00000,   0.00000
-221276120.82379,-199873950.40736,-138254081.84032,  -0.00062,  -0.00048,  -0.00180,319418752.00000,   0.00000,274640576.00000,   0.00000,   0.00000,   0.00000,-155221824.00000,   0.00000
-222809067.69257,-201787672.08724,-138661116.98321,  -0.00062,  -0.00048,  -0.00180,321071840.00000,   0.00000,274640576.00000,   0.00000,   0.00000,   0.00000,-153568736.00000,   0.00000
-224328884.39545,-203714523.93301,-139061587.04315,  -0.00062,  -0.00049,  -0.00181,322717248.00000,   0.00000,274640576.00000,   0.00000,   0.00000,   0.00000,-151923328.00000,   0.00000
-225861831.26424,-205628245.61288,-139468622.18604,  -0.00063,  -0.00050,  -0.00181,324374496.00000,   0.00000,274640576.00000,   0.00000,   0.00000,   0.00000,-150266080.00000,   0.00000
-227404625.75745,-207564945.08308,-139869092.24598,  -0.00063,  -0.00050,  -0.00182,326035680.00000,   0.00000,274640576.00000,   0.00000,   0.00000,   0.00000,-148604896.00000,   0.00000
-228924442.46033,-209491796.92885,-140269562.30592,  -0.00063,  -0.00051,  -0.00182,327687296.00000,   0.00000,274640576.00000,   0.00000,   0.00000,   0.00000,-146953280.00000,   0.00000
-230477084.57796,-211451474.18938,-140670032.36586,  -0.00064,  -0.00051,  -0.00183,329362880.00000,   0.00000,274640576.00000,   0.00000,   0.00000,   0.00000,-145277696.00000,   0.00000
-232019879.07117,-213388173.65957,-141070502.42580,  -0.00064,  -0.00052,  -0.00183,331029664.00000,   0.00000,274640576.00000,   0.00000,   0.00000,   0.00000,-143610912.00000,   0.00000
-233549543.39848,-215338003.29567,-141464407.40279,  -0.00064,  -0.00052,  -0.00184,332688800.00000,   0.00000,274640576.00000,   0.00000,   0.00000,   0.00000,-141951776.00000,   0.00000
-235102185.51611,-217297680.55619,-141864877.46273,  -0.00065,  -0.00053,  -0.00184,334369536.00000,   0.00000,274640576.00000,   0.00000,   0.00000,   0.00000,-140271040.00000,   0.00000
-236654827.63375,-219257357.81672,-142258782.43972,  -0.00065,  -0.00054,  -0.00185,336043616.00000,   0.00000,274640576.00000,   0.00000,   0.00000,   0.00000,-138596960.00000,   0.00000
-238184491.96106,-221207187.45281,-142652687.41671,  -0.00065,  -0.00054,  -0.00185,337707648.00000,   0.00000,274640576.00000,   0.00000,   0.00000,   0.00000,-136932928.00000,   0.00000
-239737134.07869,-223166864.71334,-143046592.39369,  -0.00066,  -0.00055,  -0.00186,339385120.00000,   0.00000,274640576.00000,   0.00000,   0.00000,   0.00000,-135255456.00000,   0.00000
-241299623.82075,-225149519.76418,-143433932.28773,  -0.00066,  -0.00055,  -0.00186,341066720.00000,   0.00000,274640576.00000,   0.00000,   0.00000,   0.00000,-133573856.00000,   0.00000
-242829288.14806,-227099349.40028,-143827837.26472,  -0.00066,  -0.00056,  -0.00187,342736448.00000,   0.00000,274640576.00000,   0.00000,   0.00000,   0.00000,-131904128.00000,   0.00000
-244391777.89011,-229082004.45113,-144215177.15876,  -0.00067,  -0.00057,  -0.00187,344422368.00000,   0.00000,274640576.00000,   0.00000,   0.00000,   0.00000,-130218208.00000,   0.00000
-245931289.84185,-231054811.87755,-144602517.05280,  -0.00067,  -0.00057,  -0.00188,346099168.00000,   0.00000,274640576.00000,   0.00000,   0.00000,   0.00000,-128541408.00000,   0.00000
-247493779.58390,-233037466.92839,-144989856.94684,  -0.00067,  -0.00058,  -0.00188,347790368.00000,   0.00000,274640576.00000,   0.00000,   0.00000,   0.00000,-126850208.00000,   0.00000
-249066116.95039,-235043099.76957,-145377196.84088,  -0.00067,  -0.00058,  -0.00189,349495392.00000,   0.00000,274640576.00000,   0.00000,   0.00000,   0.00000,-125145184.00000,   0.00000
-250605628.90212,-237015907.19599,-145757971.65197,  -0.00068,  -0.00059,  -0.00189,351172736.00000,   0.00000,274640576.00000,   0.00000,   0.00000,   0.00000,-123467840.00000,   0.00000
-252168118.64418,-238998562.24683,-146145311.54601,  -0.00068,  -0.00060,  -0.00190,352873216.00000,   0.00000,274640576.00000,   0.00000,   0.00000,   0.00000,-121767360.00000,   0.00000
-253717478.22034,-240994347.46358,-146526086.35710,  -0.00068,  -0.00060,  -0.00190,354568352.00000,   0.00000,274640576.00000,   0.00000,   0.00000,   0.00000,-120072224.00000,   0.00000
-255289815.58682,-242999980.30475,-146906861.16819,  -0.00069,  -0.00061,  -0.00191,356278656.00000,   0.00000,274640576.00000,   0.00000,   0.00000,   0.00000,-118361920.00000,   0.00000
-256839175.16298,-244995765.52150,-147287635.97928,  -0.00069,  -0.00061,  -0.00191,357980800.00000,   0.00000,274640576.00000,   0.00000,   0.00000,   0.00000,-116659776.00000,   0.00000
-258411512.52946,-247001398.36267,-147668410.79037,  -0.00069,  -0.00062,  -0.00192,359698176.00000,   0.00000,274640576.00000,   0.00000,   0.00000,   0.00000,-114942400.00000,   0.00000
-259960872.10562,-248997183.57941,-148049185.60146,  -0.00070,  -0.00063,  -0.00192,361406720.00000,   0.00000,274640576.00000,   0.00000,   0.00000,   0.00000,-113233856.00000,   0.00000
-261510231.68178,-250992968.79616,-148423395.32960,  -0.00070,  -0.00063,  -0.00193,363109888.00000,   0.00000,274640576.00000,   0.00000,   0.00000,   0.00000,-111530688.00000,   0.00000
-263082569.04826,-252998601.63733,-148804170.14069,  -0.00070,  -0.00064,  -0.00193,364835744.00000,   0.00000,274640576.00000,   0.00000,   0.00000,   0.00000,-109804832.00000,   0.00000
-264641776.24884,-255017364.64440,-149178379.86883,  -0.00071,  -0.00064,  -0.00194,366555008.00000,   0.00000,274640576.00000,   0.00000,   0.00000,   0.00000,-108085568.00000,   0.00000
-266191135.82500,-257013149.86115,-149552589.59697,  -0.00071,  -0.00065,  -0.00194,368264576.00000,   0.00000,274640576.00000,   0.00000,   0.00000,   0.00000,-106376000.00000,   0.00000
-267750343.02558,-259031912.86822,-149926799.32511,  -0.00071,  -0.00066,  -0.00195,369986880.00000,   0.00000,274640576.00000,   0.00000,   0.00000,   0.00000,-104653696.00000,   0.00000
-269309550.22617,-261050675.87529,-150301009.05325,  -0.00072,  -0.00066,  -0.00195,371710208.00000,   0.00000,274640576.00000,   0.00000,   0.00000,   0.00000,-102930368.00000,   0.00000
-270868757.42675,-263069438.88236,-150675218.78139,  -0.00072,  -0.00067,  -0.00196,373434464.00000,   0.00000,274640576.00000,   0.00000,   0.00000,   0.00000,-101206112.00000,   0.00000
-272418117.00291,-265065224.09911,-151049428.50953,  -0.00072,  -0.00067,  -0.00196,375147968.00000,   0.00000,274640576.00000,   0.00000,   0.00000,   0.00000,-99492608.00000,   0.00000
-273977324.20349,-267083987.10618,-151417073.15472,  -0.00073,  -0.00068,  -0.00197,376866048.00000,   0.00000,274640576.00000,   0.00000,   0.00000,   0.00000,-97774528.00000,   0.00000
-275546379.02850,-269125727.90357,-151791282.88286,  -0.00073,  -0.00069,  -0.00197,378604832.00000,   0.00000,274640576.00000,   0.00000,   0.00000,   0.00000,-96035744.00000,   0.00000
-277105586.22908,-271144490.91064,-152158927.52805,  -0.00073,  -0.00069,  -0.00198,380325952.00000,   0.00000,274640576.00000,   0.00000,   0.00000,   0.00000,-94314624.00000,   0.00000
-278664793.42966,-273163253.91771,-152526572.17324,  -0.00074,  -0.00070,  -0.00198,382049248.00000,   0.00000,274640576.00000,   0.00000,   0.00000,   0.00000,-92591328.00000,   0.00000
-280224000.63025,-275182016.92478,-152894216.81843,  -0.00074,  -0.00071,  -0.00199,383775392.00000,   0.00000,274640576.00000,   0.00000,   0.00000,   0.00000,-90865184.00000,   0.00000
-281770077.66493,-277213910.09775,-153261861.46362,  -0.00074,  -0.00071,  -0.00199,385504640.00000,   0.00000,274640576.00000,   0.00000,   0.00000,   0.00000,-89135936.00000,   0.00000
-283329284.86551,-279232673.10482,-153629506.10881,  -0.00074,  -0.00072,  -0.00200,387237888.00000,   0.00000,274640576.00000,   0.00000,   0.00000,   0.00000,-87402688.00000,   0.00000
-284888492.06610,-281251436.11190,-153997150.75400,  -0.00075,  -0.00072,  -0.00200,388974688.00000,   0.00000,274640576.00000,   0.00000,   0.00000,   0.00000,-85665888.00000,   0.00000
-286434569.10078,-283283329.28487,-154364795.39919,  -0.00075,  -0.00073,  -0.00201,390714784.00000,   0.00000,274640576.00000,   0.00000,   0.00000,   0.00000,-83925792.00000,   0.00000
-287980646.13546,-285315222.45784,-154725874.96143,  -0.00075,  -0.00074,  -0.00201,392449696.00000,   0.00000,274640576.00000,   0.00000,   0.00000,   0.00000,-82190880.00000,   0.00000
-289539853.33605,-287333985.46491,-155093519.60662,  -0.00076,  -0.00074,  -0.00202,394194240.00000,   0.00000,274640576.00000,   0.00000,   0.00000,   0.00000,-80446336.00000,   0.00000
-291085930.37073,-289365878.63788,-155454599.16886,  -0.00076,  -0.00075,  -0.00202,395931296.00000,   0.00000,274640576.00000,   0.00000,   0.00000,   0.00000,-78709280.00000,   0.00000
-292632007.40541,-291397771.81085,-155815678.73110,  -0.00076,  -0.00076,  -0.00203,397667680.00000,   0.00000,274640576.00000,   0.00000,   0.00000,   0.00000,-76972896.00000,   0.00000
-294168236.81567,-293406687.19349,-156176758.29334,  -0.00077,  -0.00076,  -0.00203,399390048.00000,   0.00000,274640576.00000,   0.00000,   0.00000,   0.00000,-75250528.00000,   0.00000
-295714313.85036,-295438580.36646,-156544402.93853,  -0.00077,  -0.00077,  -0.00204,401129184.00000,   0.00000,274640576.00000,   0.00000,   0.00000,   0.00000,-73511392.00000,   0.00000
-297260390.88504,-297470473.53943,-156905482.50077,  -0.00077,  -0.00077,  -0.00204,402857568.00000,   0.00000,274640576.00000,   0.00000,   0.00000,   0.00000,-71783008.00000,   0.00000
-298806467.91972,-299502366.71240,-157259996.98006,  -0.00078,  -0.00078,  -0.00204,404578432.00000,   0.00000,274640576.00000,   0.00000,   0.00000,   0.00000,-70062144.00000,   0.00000
-300342697.32998,-301511282.09505,-157621076.54230,  -0.00078,  -0.00079,  -0.00205,406305152.00000,   0.00000,274640576.00000,   0.00000,   0.00000,   0.00000,-68335424.00000,   0.00000
-301865796.57434,-303533327.64359,-157982156.10454,  -0.00078,  -0.00079,  -0.00205,408057824.00000,   0.00000,274640576.00000,   0.00000,   0.00000,   0.00000,-66582752.00000,   0.00000
-303411873.60902,-305565220.81656,-158343235.66678,  -0.00078,  -0.00080,  -0.00206,409851104.00000,   0.00000,274640576.00000,   0.00000,   0.00000,   0.00000,-64789472.00000,   0.00000
-304934972.85338,-307587266.36511,-158704315.22902,  -0.00079,  -0.00080,  -0.00206,411636768.00000,   0.00000,274640576.00000,   0.00000,   0.00000,   0.00000,-63003808.00000,   0.00000
-306458072.09774,-309609311.91366,-159058829.70831,  -0.00079,  -0.00081,  -0.00207,413400256.00000,   0.00000,274640576.00000,   0.00000,   0.00000,   0.00000,-61240320.00000,   0.00000
-308004149.13242,-311641205.08663,-159419909.27055,  -0.00079,  -0.00082,  -0.00207,415170976.00000,   0.00000,274640576.00000,   0.00000,   0.00000,   0.00000,-59469600.00000,   0.00000
-309527248.37678,-313663250.63517,-159774423.74984,  -0.00080,  -0.00082,  -0.00208,416916288.00000,   0.00000,274640576.00000,   0.00000,   0.00000,   0.00000,-57724288.00000,   0.00000
-311050347.62114,-315685296.18372,-160135503.31208,  -0.00080,  -0.00083,  -0.00208,418666080.00000,   0.00000,274640576.00000,   0.00000,   0.00000,   0.00000,-55974496.00000,   0.00000
-312563599.24108,-317684363.94194,-160490017.79137,  -0.00080,  -0.00084,  -0.00209,420393568.00000,   0.00000,274640576.00000,   0.00000,   0.00000,   0.00000,-54247008.00000,   0.00000
-314063720.69511,-319696561.86606,-160844532.27067,  -0.00081,  -0.00084,  -0.00209,422120000.00000,   0.00000,274640576.00000,   0.00000,   0.00000,   0.00000,-52520576.00000,   0.00000
-315586819.93947,-321718607.41460,-161205611.83291,  -0.00081,  -0.00085,  -0.00210,423866432.00000,   0.00000,274640576.00000,   0.00000,   0.00000,   0.00000,-50774144.00000,   0.00000
-317109919.18383,-323740652.96315,-161560126.31220,  -0.00081,  -0.00085,  -0.00210,425606720.00000,   0.00000,274640576.00000,   0.00000,   0.00000,   0.00000,-49033856.00000,   0.00000
-318610040.63786,-325752850.88727,-161914640.79149,  -0.00081,  -0.00086,  -0.00210,427336896.00000,   0.00000,274640576.00000,   0.00000,   0.00000,   0.00000,-47303680.00000,   0.00000
-320110162.09190,-327765048.81139,-162269155.27078,  -0.00082,  -0.00087,  -0.00211,429069312.00000,   0.00000,274640576.00000,   0.00000,   0.00000,   0.00000,-45571264.00000,   0.00000
-321600435.92151,-329754268.94519,-162623669.75007,  -0.00082,  -0.00087,  -0.00211,430791072.00000,   0.00000,274640576.00000,   0.00000,   0.00000,   0.00000,-43849504.00000,   0.00000
-323100557.37554,-331766466.86931,-162978184.22936,  -0.00082,  -0.00088,  -0.00212,432527072.00000,   0.00000,274640576.00000,   0.00000,   0.00000,   0.00000,-42113504.00000,   0.00000
-324600678.82958,-333778664.79343,-163332698.70865,  -0.00083,  -0.00089,  -0.00212,434264800.00000,   0.00000,274640576.00000,   0.00000,   0.00000,   0.00000,-40375776.00000,   0.00000
-326090952.65919,-335767884.92723,-163687213.18794,  -0.00083,  -0.00089,  -0.00213,435991040.00000,   0.00000,274640576.00000,   0.00000,   0.00000,   0.00000,-38649536.00000,   0.00000
-327591074.11322,-337780082.85135,-164041727.66723,  -0.00083,  -0.00090,  -0.00213,437731520.00000,   0.00000,274640576.00000,   0.00000,   0.00000,   0.00000,-36909056.00000,   0.00000
-329058370.15251,-339759455.36072,-164396242.14652,  -0.00083,  -0.00090,  -0.00214,439448576.00000,   0.00000,274640576.00000,   0.00000,   0.00000,   0.00000,-35192000.00000,   0.00000
-330558491.60654,-341771653.28484,-164750756.62581,  -0.00084,  -0.00091,  -0.00214,441192384.00000,   0.00000,274640576.00000,   0.00000,   0.00000,   0.00000,-33448192.00000,   0.00000
-332025787.64583,-343751025.79421,-165105271.10510,  -0.00084,  -0.00092,  -0.00215,442913344.00000,   0.00000,274640576.00000,   0.00000,   0.00000,   0.00000,-31727232.00000,   0.00000
-333502931.30954,-345753376.09391,-165459785.58439,  -0.00084,  -0.00092,  -0.00215,444649632.00000,   0.00000,274640576.00000,   0.00000,   0.00000,   0.00000,-29990944.00000,   0.00000
-334970227.34882,-347732748.60328,-165814300.06368,  -0.00085,  -0.00093,  -0.00216,446376128.00000,   0.00000,274640576.00000,   0.00000,   0.00000,   0.00000,-28264448.00000,   0.00000
-336414545.59778,-349702273.48823,-166168814.54297,  -0.00085,  -0.00094,  -0.00216,448093376.00000,   0.00000,274640576.00000,   0.00000,   0.00000,   0.00000,-26547200.00000,   0.00000
-337881841.63707,-351681645.99760,-166523329.02226,  -0.00085,  -0.00094,  -0.00216,449826272.00000,   0.00000,274640576.00000,   0.00000,   0.00000,   0.00000,-24814304.00000,   0.00000
-339326159.88603,-353651170.88254,-166877843.50155,  -0.00085,  -0.00095,  -0.00217,451549888.00000,   0.00000,274640576.00000,   0.00000,   0.00000,   0.00000,-23090688.00000,   0.00000
-340803303.54974,-355653521.18224,-167232357.98084,  -0.00086,  -0.00095,  -0.00217,453301408.00000,   0.00000,274640576.00000,   0.00000,   0.00000,   0.00000,-21339168.00000,   0.00000
-342237774.17428,-357600068.27686,-167580307.37718,  -0.00086,  -0.00096,  -0.00218,455008768.00000,   0.00000,274640576.00000,   0.00000,   0.00000,   0.00000,-19631808.00000,   0.00000
-343682092.42324,-359569593.16181,-167934821.85647,  -0.00086,  -0.00097,  -0.00218,456736832.00000,   0.00000,274640576.00000,   0.00000,   0.00000,   0.00000,-17903744.00000,   0.00000
-345126410.67220,-361539118.04676,-168289336.33576,  -0.00087,  -0.00097,  -0.00219,458463552.00000,   0.00000,274640576.00000,   0.00000,   0.00000,   0.00000,-16177024.00000,   0.00000
-346547751.13084,-363498795.30728,-168643850.81505,  -0.00087,  -0.00098,  -0.00219,460174880.00000,   0.00000,274640576.00000,   0.00000,   0.00000,   0.00000,-14465696.00000,   0.00000
-347982221.75537,-365445342.40190,-168998365.29435,  -0.00087,  -0.00098,  -0.00220,461881056.00000,   0.00000,274640576.00000,   0.00000,   0.00000,   0.00000,-12759520.00000,   0.00000
-349403562.21401,-367405019.66242,-169352879.77364,  -0.00087,  -0.00099,  -0.00220,463581856.00000,   0.00000,274640576.00000,   0.00000,   0.00000,   0.00000,-11058720.00000,   0.00000
-350815055.04822,-369341719.13262,-169707394.25293,  -0.00088,  -0.00100,  -0.00221,465261536.00000,   0.00000,274640576.00000,   0.00000,   0.00000,   0.00000,-9379040.00000,   0.00000
-352226547.88243,-371278418.60282,-170061908.73222,  -0.00088,  -0.00100,  -0.00221,466927968.00000,   0.00000,274640576.00000,   0.00000,   0.00000,   0.00000,-7712608.00000,   0.00000
-353647888.34107,-373238095.86334,-170416423.21151,  -0.00088,  -0.00101,  -0.00222,468585952.00000,   0.00000,274640576.00000,   0.00000,   0.00000,   0.00000,-6054624.00000,   0.00000
-355036403.38496,-375164947.70911,-170770937.69080,  -0.00088,  -0.00101,  -0.00222,470197152.00000,   0.00000,274640576.00000,   0.00000,   0.00000,   0.00000,-4443424.00000,   0.00000
-356424918.42884,-377091799.55489,-171125452.17009,  -0.00089,  -0.00102,  -0.00222,471808992.00000,   0.00000,274640576.00000,   0.00000,   0.00000,   0.00000,-2831584.00000,   0.00000
-357826563.63863,-379005521.23476,-171479966.64938,  -0.00089,  -0.00103,  -0.00223,473454432.00000,   0.00000,274640576.00000,   0.00000,   0.00000,   0.00000,-1186144.00000,   0.00000
-358808287.16576,-380367865.70384,-171730619.46481,  -0.00089,  -0.00103,  -0.00223,474640128.00000,   0.00000,274640576.00000,   0.00000,   0.00000,   0.00000,-448.00000,   0.00000
-358873063.33710,-380563723.04644,-171635610.78226,  -0.00089,  -0.00103,  -0.00223,474640128.00000,   0.00000,274642592.00000,  -0.00000,  -0.00000,  -0.00000,  96.00000,   2.00000
-359076307.73922,-381226163.76696,-171316995.87807,  -0.00089,  -0.00104,  -0.00224,476313120.00000,   0.00001,274649440.00000,  -0.00000,  -0.00000,  -0.00001,  96.00000,   2.00000
-359290858.73247,-381872594.07184,-170999451.50698,  -0.00090,  -0.00104,  -0.00224,476321440.00000,   0.00001,274656288.00000,  -0.00001,  -0.00001,  -0.00002,  96.00000,   2.00000
-359484464.02510,-382522653.93228,-170685997.71592,  -0.00090,  -0.00105,  -0.00225,476338304.00000,   0.00002,274663168.00000,  -0.00001,  -0.00001,  -0.00003,  64.00000,   2.00000
-359680046.20165,-383161493.24271,-170374779.00830,  -0.00090,  -0.00106,  -0.00225,476326912.00000,   0.00003,274669952.00000,  -0.00001,  -0.00001,  -0.00004,  96.00000,   2.00000
-359873530.96075,-383797033.60278,-170064338.88758,  -0.00090,  -0.00106,  -0.00226,476335456.00000,   0.00003,274676736.00000,  -0.00002,  -0.00002,  -0.00005, 160.00000,   2.00000
-360059895.41734,-384423812.32798,-169758328.56863,  -0.00091,  -0.00107,  -0.00226,476350880.00000,   0.00004,274683584.00000,  -0.00002,  -0.00002,  -0.00005,  32.00000,   2.00000
-360248609.58116,-385039799.15715,-169454602.35620,  -0.00091,  -0.00107,  -0.00227,476338912.00000,   0.00005,274690304.00000,  -0.00002,  -0.00003,  -0.00006,  64.00000,   2.00000
-360416581.04999,-385659503.97314,-169154918.59743,  -0.00091,  -0.00108,  -0.00227,476354944.00000,   0.00005,274697088.00000,  -0.00002,  -0.00003,  -0.00007,  64.00000,   2.00000
-360587472.58930,-386281202.26364,-168852129.67595,  -0.00091,  -0.00109,  -0.00228,476356032.00000,   0.00006,274703840.00000,  -0.00003,  -0.00003,  -0.00008,   0.00000,   2.00000
-360751330.88248,-386881821.72146,-168559216.39042,  -0.00092,  -0.00109,  -0.00228,476357344.00000,   0.00006,274710560.00000,  -0.00003,  -0.00004,  -0.00009, 160.00000,   2.00000
-360918193.39436,-387484542.29841,-168263152.45275,  -0.00092,  -0.00110,  -0.00228,476358336.00000,   0.00007,274717248.00000,  -0.00003,  -0.00004,  -0.00010,  96.00000,   2.00000
-361064210.13410,-388078468.96524,-167976444.93889,  -0.00092,  -0.00110,  -0.00229,476360608.00000,   0.00008,274723936.00000,  -0.00003,  -0.00004,  -0.00011, 128.00000,   2.00000
-361208576.73893,-388669316.71646,-167690384.37221,  -0.00092,  -0.00111,  -0.00229,476368000.00000,   0.00008,274730592.00000,  -0.00004,  -0.00005,  -0.00011, 128.00000,   2.00000
-361351411.87317,-389257193.15730,-167405017.30787,  -0.00093,  -0.00112,  -0.00230,476375520.00000,   0.00009,274737248.00000,  -0.00004,  -0.00005,  -0.00012,  64.00000,   2.00000
-361492418.68186,-389829561.38752,-167125619.33903,  -0.00093,  -0.00112,  -0.00230,476369440.00000,   0.00009,274743872.00000,  -0.00004,  -0.00005,  -0.00013,  64.00000,   2.00000
-361631937.08704,-390399015.05316,-166846867.29572,  -0.00093,  -0.00113,  -0.00231,476376736.00000,   0.00010,274750496.00000,  -0.00005,  -0.00006,  -0.00014,   0.00000,   2.00000
-361756251.62737,-390977902.91880,-166568375.08650,  -0.00093,  -0.00113,  -0.00231,476385056.00000,   0.00011,274757088.00000,  -0.00005,  -0.00006,  -0.00015, 128.00000,   2.00000
-361878537.78288,-391528812.24053,-166300999.70258,  -0.00093,  -0.00114,  -0.00232,476365568.00000,   0.00011,274763616.00000,  -0.00005,  -0.00006,  -0.00016, -32.00000,   2.00000
-361999962.15843,-392089564.96526,-166029046.84568,  -0.00094,  -0.00115,  -0.00232,476385984.00000,   0.00012,274770176.00000,  -0.00005,  -0.00007,  -0.00016,  64.00000,   2.00000
-362120072.06902,-392647446.74464,-165757693.18316,  -0.00094,  -0.00115,  -0.00233,476393280.00000,   0.00012,274776736.00000,  -0.00006,  -0.00007,  -0.00017,   0.00000,   2.00000
-362219916.18803,-393184817.63769,-165501002.20643,  -0.00094,  -0.00116,  -0.00233,476381344.00000,   0.00013,274783200.00000,  -0.00006,  -0.00007,  -0.00018, 192.00000,   2.00000
-362323490.64391,-393736919.65087,-165235606.70371,  -0.00094,  -0.00116,  -0.00234,476395072.00000,   0.00014,274789696.00000,  -0.00006,  -0.00008,  -0.00019, -32.00000,   2.00000
-362421190.32306,-394268920.54303,-164980109.06041,  -0.00095,  -0.00117,  -0.00234,476395360.00000,   0.00014,274796192.00000,  -0.00007,  -0.00008,  -0.00020,  96.00000,   2.00000
-362522497.16991,-394791324.43731,-164726544.10898,  -0.00095,  -0.00117,  -0.00235,476382080.00000,   0.00015,274802592.00000,  -0.00007,  -0.00008,  -0.00020,  32.00000,   2.00000
-362604022.06742,-395317944.20257,-164476970.93299,  -0.00095,  -0.00118,  -0.00235,476397024.00000,   0.00015,274809024.00000,  -0.00007,  -0.00009,  -0.00021,  64.00000,   2.00000
-362684555.66082,-395829833.10193,-164233247.79539,  -0.00095,  -0.00119,  -0.00236,476390464.00000,   0.00016,274815392.00000,  -0.00007,  -0.00009,  -0.00022,  32.00000,   2.00000
-362764355.53734,-396351403.45026,-163984801.16194,  -0.00095,  -0.00119,  -0.00236,476410976.00000,   0.00017,274821792.00000,  -0.00008,  -0.00009,  -0.00023,  64.00000,   2.00000
-362829085.75986,-396858193.74603,-163746938.31079,  -0.00096,  -0.00120,  -0.00237,476392000.00000,   0.00017,274828128.00000,  -0.00008,  -0.00010,  -0.00024,  64.00000,   2.00000
-362907091.92601,-397350521.34537,-163510116.95674,  -0.00096,  -0.00120,  -0.00237,476397440.00000,   0.00018,274834432.00000,  -0.00008,  -0.00010,  -0.00024,   0.00000,   2.00000
-362965590.02044,-397847269.74646,-163277299.66628,  -0.00096,  -0.00121,  -0.00237,476412288.00000,   0.00018,274840768.00000,  -0.00008,  -0.00011,  -0.00025,   0.00000,   2.00000
-363028165.55211,-398334950.69910,-163046331.08910,  -0.00096,  -0.00121,  -0.00238,476398816.00000,   0.00019,274847040.00000,  -0.00009,  -0.00011,  -0.00026,  96.00000,   2.00000
-363075920.40911,-398832191.83804,-162815286.17534,  -0.00096,  -0.00122,  -0.00238,476407200.00000,   0.00019,274853312.00000,  -0.00009,  -0.00011,  -0.00027,  64.00000,   2.00000
-363118345.54724,-399309848.78354,-162594027.28088,  -0.00097,  -0.00122,  -0.00239,476406912.00000,   0.00020,274859552.00000,  -0.00009,  -0.00012,  -0.00028, 128.00000,   2.00000
-363160142.22277,-399773234.20485,-162378489.06870,  -0.00097,  -0.00123,  -0.00239,476399968.00000,   0.00021,274865728.00000,  -0.00009,  -0.00012,  -0.00028,   0.00000,   2.00000
-363201452.82767,-400246407.00311,-162158162.46650,  -0.00097,  -0.00124,  -0.00240,476420512.00000,   0.00021,274871968.00000,  -0.00010,  -0.00012,  -0.00029,  32.00000,   2.00000
-363232877.90166,-400710793.57178,-161944301.14128,  -0.00097,  -0.00124,  -0.00240,476394464.00000,   0.00022,274878080.00000,  -0.00010,  -0.00013,  -0.00030,   0.00000,   2.00000
-363259085.65010,-401167693.56163,-161734883.91393,  -0.00097,  -0.00125,  -0.00241,476407808.00000,   0.00022,274884224.00000,  -0.00010,  -0.00013,  -0.00031, -64.00000,   2.00000
-363280246.49210,-401617281.82548,-161529979.94640,  -0.00097,  -0.00125,  -0.00241,476421024.00000,   0.00023,274890368.00000,  -0.00010,  -0.00013,  -0.00031,  96.00000,   2.00000
-363305681.75030,-402058185.01771,-161326720.14241,  -0.00098,  -0.00126,  -0.00242,476407424.00000,   0.00023,274896448.00000,  -0.00011,  -0.00014,  -0.00032, -64.00000,   2.00000
-363316593.26058,-402508959.13584,-161123324.90301,  -0.00098,  -0.00126,  -0.00242,476415552.00000,   0.00024,274902528.00000,  -0.00011,  -0.00014,  -0.00033,  32.00000,   2.00000
-363322529.04679,-402940608.26696,-160929662.39644,  -0.00098,  -0.00127,  -0.00243,476414912.00000,   0.00024,274908576.00000,  -0.00011,  -0.00014,  -0.00034,   0.00000,   2.00000
-363328274.80878,-403358604.13068,-160741696.50942,  -0.00098,  -0.00127,  -0.00243,476407584.00000,   0.00025,274914592.00000,  -0.00011,  -0.00015,  -0.00034,  32.00000,   2.00000
-363324077.73963,-403791655.72389,-160549391.40557,  -0.00098,  -0.00128,  -0.00244,476409216.00000,   0.00026,274920576.00000,  -0.00012,  -0.00015,  -0.00035,-160.00000,   2.00000
-363315307.21736,-404206077.99159,-160366945.63548,  -0.00098,  -0.00128,  -0.00244,476408192.00000,   0.00026,274926496.00000,  -0.00012,  -0.00015,  -0.00036, 160.00000,   2.00000
-363306093.07186,-404618382.43041,-160184745.18610,  -0.00099,  -0.00129,  -0.00245,476414912.00000,   0.00027,274932448.00000,  -0.00012,  -0.00016,  -0.00037,  32.00000,   2.00000
-363277954.88975,-405023764.32669,-160011675.00535,  -0.00099,  -0.00129,  -0.00245,476415552.00000,   0.00027,274938400.00000,  -0.00012,  -0.00016,  -0.00037,   0.00000,   2.00000
-363254299.58269,-405432581.58930,-159834850.70701,  -0.00099,  -0.00130,  -0.00246,476415456.00000,   0.00028,274944288.00000,  -0.00013,  -0.00016,  -0.00038,  64.00000,   2.00000
-363230709.48242,-405828109.17362,-159663700.30764,  -0.00099,  -0.00131,  -0.00246,476407808.00000,   0.00028,274950144.00000,  -0.00013,  -0.00017,  -0.00039,   0.00000,   2.00000
-363202279.12441,-406216523.88953,-159496932.38223,  -0.00099,  -0.00131,  -0.00247,476420800.00000,   0.00029,274956000.00000,  -0.00013,  -0.00017,  -0.00039, -96.00000,   2.00000
-363159666.74216,-406603484.34911,-159335168.08995,  -0.00099,  -0.00132,  -0.00247,476414720.00000,   0.00029,274961824.00000,  -0.00013,  -0.00017,  -0.00040,  32.00000,   2.00000
-363117092.63358,-406977186.31012,-159178965.04215,  -0.00100,  -0.00132,  -0.00248,476407168.00000,   0.00030,274967584.00000,  -0.00014,  -0.00018,  -0.00041,   0.00000,   2.00000
-363074467.51621,-407349258.53591,-159023055.04592,  -0.00100,  -0.00133,  -0.00248,476413344.00000,   0.00030,274973344.00000,  -0.00014,  -0.00018,  -0.00042,-128.00000,   2.00000
-363017684.64518,-407719973.47940,-158872089.22531,  -0.00100,  -0.00133,  -0.00249,476407200.00000,   0.00031,274979072.00000,  -0.00014,  -0.00018,  -0.00042,   0.00000,   2.00000
-362960920.79418,-408089101.10794,-158721407.47954,  -0.00100,  -0.00134,  -0.00249,476413440.00000,   0.00031,274984800.00000,  -0.00014,  -0.00019,  -0.00043,  64.00000,   2.00000
-362885534.81401,-408440121.75904,-158584999.27965,  -0.00100,  -0.00134,  -0.00250,476399744.00000,   0.00032,274990432.00000,  -0.00015,  -0.00019,  -0.00044, -64.00000,   2.00000
-362829007.70086,-408794712.94113,-158440105.71593,  -0.00100,  -0.00135,  -0.00250,476411648.00000,   0.00032,274996096.00000,  -0.00015,  -0.00019,  -0.00044,  64.00000,   2.00000
-362753741.10154,-409142752.28283,-158304213.39834,  -0.00100,  -0.00135,  -0.00251,476411968.00000,   0.00033,275001728.00000,  -0.00015,  -0.00020,  -0.00045,  32.00000,   2.00000
-362664529.91351,-409478181.18558,-158178437.66798,  -0.00100,  -0.00136,  -0.00251,476391616.00000,   0.00033,275007264.00000,  -0.00015,  -0.00020,  -0.00046,  64.00000,   2.00000
-362589695.93173,-409812001.64358,-158048299.11770,  -0.00101,  -0.00136,  -0.00252,476409952.00000,   0.00034,275012832.00000,  -0.00016,  -0.00020,  -0.00046,  96.00000,   2.00000
-362500742.96572,-410144666.95226,-157922980.27405,  -0.00101,  -0.00137,  -0.00252,476403680.00000,   0.00034,275018368.00000,  -0.00016,  -0.00021,  -0.00047,  32.00000,   2.00000
-362397636.96158,-410476111.90695,-157802421.42214,  -0.00101,  -0.00137,  -0.00253,476397376.00000,   0.00035,275023872.00000,  -0.00016,  -0.00021,  -0.00048,  32.00000,   2.00000
-362304580.20392,-410789355.71809,-157686909.87035,  -0.00101,  -0.00138,  -0.00253,476407776.00000,   0.00035,275029376.00000,  -0.00016,  -0.00021,  -0.00048, -96.00000,   2.00000
-362197561.27331,-411101693.31310,-157576228.25117,  -0.00101,  -0.00138,  -0.00254,476401408.00000,   0.00036,275034816.00000,  -0.00016,  -0.00022,  -0.00049,  32.00000,   2.00000
-362076408.30148,-411412899.52209,-157470246.56876,  -0.00101,  -0.00139,  -0.00254,476395008.00000,   0.00036,275040224.00000,  -0.00017,  -0.00022,  -0.00050,   0.00000,   2.00000
-361955710.14507,-411711623.02098,-157369724.00482,  -0.00101,  -0.00139,  -0.00255,476386624.00000,   0.00037,275045600.00000,  -0.00017,  -0.00022,  -0.00050,   0.00000,   2.00000
-361835327.87259,-412009211.50625,-157269390.20937,  -0.00101,  -0.00139,  -0.00255,476392256.00000,   0.00037,275050944.00000,  -0.00017,  -0.00023,  -0.00051,  32.00000,   2.00000
-361715193.11626,-412305593.04365,-157169211.19568,  -0.00101,  -0.00140,  -0.00256,476398080.00000,   0.00038,275056288.00000,  -0.00017,  -0.00023,  -0.00052, 128.00000,   2.00000
-361580919.00276,-412600935.76513,-157073685.22721,  -0.00102,  -0.00140,  -0.00257,476391712.00000,   0.00038,275061600.00000,  -0.00017,  -0.00023,  -0.00052,  32.00000,   2.00000
-361442693.23841,-412878730.43007,-156987795.26345,  -0.00102,  -0.00141,  -0.00257,476389440.00000,   0.00039,275066880.00000,  -0.00018,  -0.00024,  -0.00053,   0.00000,   2.00000
-361304725.06815,-413155355.84598,-156902002.26089,  -0.00102,  -0.00141,  -0.00258,476395168.00000,   0.00039,275072128.00000,  -0.00018,  -0.00024,  -0.00054,  96.00000,   2.00000
-361152912.63404,-413420004.95462,-156826146.13847,  -0.00102,  -0.00142,  -0.00258,476374176.00000,   0.00040,275077312.00000,  -0.00018,  -0.00024,  -0.00054,  64.00000,   2.00000
-361001512.71001,-413683691.90699,-156750424.39230,  -0.00102,  -0.00142,  -0.00259,476379744.00000,   0.00040,275082464.00000,  -0.00018,  -0.00024,  -0.00055,  64.00000,   2.00000
-360836058.26916,-413946562.58367,-156679299.51928,  -0.00102,  -0.00143,  -0.00259,476373024.00000,   0.00041,275087584.00000,  -0.00019,  -0.00025,  -0.00055,   0.00000,   2.00000
-360666444.56187,-414203042.86454,-156612408.75353,  -0.00102,  -0.00143,  -0.00260,476384960.00000,   0.00041,275092736.00000,  -0.00019,  -0.00025,  -0.00056,   0.00000,   2.00000
-360501959.47056,-414452826.46898,-156546746.89240,  -0.00102,  -0.00144,  -0.00260,476369632.00000,   0.00042,275097824.00000,  -0.00019,  -0.00025,  -0.00057,   0.00000,   2.00000
-360318973.80537,-414696602.97839,-156489843.86341,  -0.00102,  -0.00144,  -0.00261,476369312.00000,   0.00042,275102848.00000,  -0.00019,  -0.00026,  -0.00057, -32.00000,   2.00000
-360136350.50770,-414939359.74944,-156432961.72279,  -0.00102,  -0.00145,  -0.00261,476374624.00000,   0.00043,275107904.00000,  -0.00019,  -0.00026,  -0.00058,  64.00000,   2.00000
-359954378.33011,-415170205.55838,-156381457.02094,  -0.00102,  -0.00145,  -0.00262,476365664.00000,   0.00043,275112896.00000,  -0.00020,  -0.00026,  -0.00059, -32.00000,   2.00000
-359753899.92807,-415395085.22874,-156338657.29183,  -0.00102,  -0.00145,  -0.00262,476365248.00000,   0.00044,275117856.00000,  -0.00020,  -0.00027,  -0.00059,  64.00000,   2.00000
-359558575.16066,-415613469.80520,-156297022.61888,  -0.00102,  -0.00146,  -0.00263,476349760.00000,   0.00044,275122720.00000,  -0.00020,  -0.00027,  -0.00060,  32.00000,   2.00000
-359344509.49120,-415836844.25007,-156258726.20750,  -0.00103,  -0.00146,  -0.00263,476363680.00000,   0.00044,275127648.00000,  -0.00020,  -0.00027,  -0.00060,  64.00000,   2.00000
-359135832.78669,-416042850.10349,-156226914.67740,  -0.00103,  -0.00147,  -0.00264,476333568.00000,   0.00045,275132416.00000,  -0.00020,  -0.00028,  -0.00061, -32.00000,   2.00000
-358922893.44053,-416253584.45493,-156193923.63298,  -0.00103,  -0.00147,  -0.00265,476359744.00000,   0.00045,275137280.00000,  -0.00020,  -0.00028,  -0.00062,   0.00000,   2.00000
-358706181.76300,-416447267.59452,-156170440.85704,  -0.00103,  -0.00148,  -0.00265,476356832.00000,   0.00046,275142112.00000,  -0.00021,  -0.00028,  -0.00062,  32.00000,   2.00000
-358465374.75501,-416646040.85810,-156151685.51381,  -0.00103,  -0.00148,  -0.00266,476331296.00000,   0.00046,275146816.00000,  -0.00021,  -0.00028,  -0.00063,  32.00000,   2.00000
-358239625.31287,-416843800.51981,-156128430.31107,  -0.00103,  -0.00149,  -0.00266,476348544.00000,   0.00047,275151584.00000,  -0.00021,  -0.00029,  -0.00063, 128.00000,   2.00000
-357995477.92656,-417024719.11639,-156119073.90844,  -0.00103,  -0.00149,  -0.00267,476333504.00000,   0.00047,275156256.00000,  -0.00021,  -0.00029,  -0.00064,  32.00000,   2.00000
-357751902.20281,-417204983.67883,-156109683.19604,  -0.00103,  -0.00149,  -0.00267,476338432.00000,   0.00048,275160960.00000,  -0.00021,  -0.00029,  -0.00064,   0.00000,   2.00000
-357494400.39946,-417373867.16959,-156109992.07968,  -0.00103,  -0.00150,  -0.00268,476316896.00000,   0.00048,275165536.00000,  -0.00022,  -0.00030,  -0.00065,-160.00000,   2.00000
-357237546.73871,-417542216.55936,-156110277.94983,  -0.00103,  -0.00150,  -0.00268,476321728.00000,   0.00048,275170112.00000,  -0.00022,  -0.00030,  -0.00065,  64.00000,   2.00000
-356981073.13517,-417709713.63630,-156110400.09378,  -0.00103,  -0.00151,  -0.00269,476326784.00000,   0.00049,275174688.00000,  -0.00022,  -0.00030,  -0.00066,   0.00000,   2.00000
-356706317.90628,-417860678.69512,-156124443.49606,  -0.00103,  -0.00151,  -0.00270,476311456.00000,   0.00049,275179168.00000,  -0.00022,  -0.00030,  -0.00067,   0.00000,   2.00000
-356436468.11770,-418016298.67373,-156134150.78109,  -0.00103,  -0.00151,  -0.00270,476309888.00000,   0.00050,275183648.00000,  -0.00022,  -0.00031,  -0.00067, -32.00000,   2.00000
-356162774.12310,-418165967.98145,-156147955.39744,  -0.00103,  -0.00152,  -0.00271,476321056.00000,   0.00050,275188160.00000,  -0.00022,  -0.00031,  -0.00068, -32.00000,   2.00000
-355875155.95717,-418304499.95739,-156171450.44087,  -0.00103,  -0.00152,  -0.00271,476299360.00000,   0.00050,275192544.00000,  -0.00023,  -0.00031,  -0.00068, 128.00000,   2.00000
-355573289.74156,-418442505.27199,-156199168.08118,  -0.00103,  -0.00153,  -0.00272,476292160.00000,   0.00051,275196896.00000,  -0.00023,  -0.00032,  -0.00069, -64.00000,   2.00000
-355267640.51432,-418574604.28789,-156230943.29738,  -0.00103,  -0.00153,  -0.00272,476303296.00000,   0.00051,275201280.00000,  -0.00023,  -0.00032,  -0.00069,  32.00000,   2.00000
-354967051.35847,-418700667.29561,-156263708.56868,  -0.00103,  -0.00153,  -0.00273,476287136.00000,   0.00052,275205600.00000,  -0.00023,  -0.00032,  -0.00070, -32.00000,   2.00000
-354662624.01527,-418820799.88432,-156300496.97769,  -0.00103,  -0.00154,  -0.00274,476298112.00000,   0.00052,275209920.00000,  -0.00023,  -0.00032,  -0.00070, -32.00000,   2.00000
-354344194.70950,-418929903.73079,-156346929.64736,  -0.00103,  -0.00154,  -0.00274,476276192.00000,   0.00052,275214144.00000,  -0.00023,  -0.00033,  -0.00071, -32.00000,   2.00000
-354011413.62152,-419049346.18241,-156392186.15544,  -0.00103,  -0.00154,  -0.00275,476283488.00000,   0.00053,275218368.00000,  -0.00024,  -0.00033,  -0.00071, 128.00000,   2.00000
-353679352.10499,-419146669.33623,-156447951.90036,  -0.00103,  -0.00155,  -0.00275,476258912.00000,   0.00053,275222496.00000,  -0.00024,  -0.00033,  -0.00072, -32.00000,   2.00000
-353347761.84182,-419254211.83730,-156498127.04367,  -0.00103,  -0.00155,  -0.00276,476278016.00000,   0.00054,275226656.00000,  -0.00024,  -0.00033,  -0.00072, -64.00000,   2.00000
-353012507.72374,-419345180.38151,-156557682.07590,  -0.00103,  -0.00156,  -0.00276,476274464.00000,   0.00054,275230816.00000,  -0.00024,  -0.00034,  -0.00073, -32.00000,   2.00000
-352663053.06514,-419425079.10368,-156626785.79751,  -0.00103,  -0.00156,  -0.00277,476252384.00000,   0.00054,275234848.00000,  -0.00024,  -0.00034,  -0.00073,  32.00000,   2.00000
-352299272.90235,-419504592.79332,-156700015.44583,  -0.00103,  -0.00156,  -0.00278,476244992.00000,   0.00055,275238848.00000,  -0.00024,  -0.00034,  -0.00074, -64.00000,   2.00000
-351936077.96242,-419583624.33926,-156772989.73695,  -0.00103,  -0.00157,  -0.00278,476249408.00000,   0.00055,275242848.00000,  -0.00024,  -0.00034,  -0.00074, -64.00000,   2.00000
-351573445.09381,-419662148.80078,-156845697.90793,  -0.00103,  -0.00157,  -0.00279,476253888.00000,   0.00055,275246848.00000,  -0.00025,  -0.00035,  -0.00075,   0.00000,   2.00000
-351196543.57979,-419729648.55325,-156927945.33945,  -0.00103,  -0.00157,  -0.00279,476231744.00000,   0.00056,275250752.00000,  -0.00025,  -0.00035,  -0.00075,  32.00000,   2.00000
-350815748.91950,-419791131.36204,-157014020.92399,  -0.00103,  -0.00158,  -0.00280,476242656.00000,   0.00056,275254688.00000,  -0.00025,  -0.00035,  -0.00076,  32.00000,   2.00000
-350425103.20650,-419847163.21076,-157105507.42225,  -0.00103,  -0.00158,  -0.00280,476213984.00000,   0.00057,275258496.00000,  -0.00025,  -0.00035,  -0.00076,  32.00000,   2.00000
-350030534.36396,-419897147.24045,-157200781.43495,  -0.00103,  -0.00158,  -0.00281,476224864.00000,   0.00057,275262304.00000,  -0.00025,  -0.00036,  -0.00077,  64.00000,   2.00000
-349636580.32995,-419936062.78332,-157301181.85852,  -0.00103,  -0.00159,  -0.00282,476214336.00000,   0.00057,275266080.00000,  -0.00025,  -0.00036,  -0.00077,  32.00000,   2.00000
-349228141.60744,-419985228.35050,-157400195.87245,  -0.00102,  -0.00159,  -0.00282,476221536.00000,   0.00058,275269856.00000,  -0.00025,  -0.00036,  -0.00078, 128.00000,   2.00000
-348815913.99855,-420007198.75601,-157513892.58189,  -0.00102,  -0.00159,  -0.00283,476202880.00000,   0.00058,275273568.00000,  -0.00026,  -0.00036,  -0.00078,  64.00000,   2.00000
-348393490.36541,-420044799.12019,-157621989.72838,  -0.00102,  -0.00160,  -0.00283,476203552.00000,   0.00058,275277248.00000,  -0.00026,  -0.00037,  -0.00078,  64.00000,   2.00000
-347967167.03392,-420065738.63350,-157739272.57054,  -0.00102,  -0.00160,  -0.00284,476199616.00000,   0.00059,275280896.00000,  -0.00026,  -0.00037,  -0.00079,   0.00000,   2.00000
-347526443.88871,-420075855.67858,-157866091.93713,  -0.00102,  -0.00160,  -0.00285,476177152.00000,   0.00059,275284448.00000,  -0.00026,  -0.00037,  -0.00079,  96.00000,   2.00000
-347086118.25581,-420085354.97310,-157992444.94305,  -0.00102,  -0.00161,  -0.00285,476181408.00000,   0.00059,275288032.00000,  -0.00026,  -0.00037,  -0.00080,   0.00000,   2.00000
-346646362.46109,-420094453.60961,-158118427.22027,  -0.00102,  -0.00161,  -0.00286,476185440.00000,   0.00060,275291584.00000,  -0.00026,  -0.00037,  -0.00080,  96.00000,   2.00000
-346191849.74303,-420092399.51397,-158253795.50843,  -0.00102,  -0.00161,  -0.00286,476163136.00000,   0.00060,275295040.00000,  -0.00026,  -0.00038,  -0.00081,   0.00000,   2.00000
-345737821.98625,-420089855.87923,-158388731.87263,  -0.00102,  -0.00162,  -0.00287,476167136.00000,   0.00060,275298496.00000,  -0.00026,  -0.00038,  -0.00081, -64.00000,   2.00000
-345264864.00299,-420081448.75819,-158531767.60586,  -0.00102,  -0.00162,  -0.00288,476165952.00000,   0.00060,275301952.00000,  -0.00027,  -0.00038,  -0.00081,  32.00000,   2.00000
-344796521.11966,-420067289.71625,-158675648.94122,  -0.00102,  -0.00162,  -0.00288,476148832.00000,   0.00061,275305312.00000,  -0.00027,  -0.00038,  -0.00082, -64.00000,   2.00000
-344309151.78615,-420047176.65226,-158827571.40155,  -0.00102,  -0.00163,  -0.00289,476147712.00000,   0.00061,275308640.00000,  -0.00027,  -0.00039,  -0.00082,   0.00000,   2.00000
-343822147.52628,-420015977.51492,-158984511.28899,  -0.00101,  -0.00163,  -0.00289,476136928.00000,   0.00061,275311936.00000,  -0.00027,  -0.00039,  -0.00083,  64.00000,   2.00000
-343320253.60878,-419984116.81443,-159145265.55964,  -0.00101,  -0.00163,  -0.00290,476129344.00000,   0.00062,275315200.00000,  -0.00027,  -0.00039,  -0.00083, -32.00000,   2.00000
-342814518.52724,-419946248.82623,-159309620.10951,  -0.00101,  -0.00163,  -0.00291,476139776.00000,   0.00062,275318464.00000,  -0.00027,  -0.00039,  -0.00084,   0.00000,   2.00000
-342313449.46935,-419902854.72878,-159474899.24071,  -0.00101,  -0.00164,  -0.00291,476122496.00000,   0.00062,275321664.00000,  -0.00027,  -0.00039,  -0.00084,  32.00000,   2.00000
-341793069.09254,-419853198.67563,-159648034.88699,  -0.00101,  -0.00164,  -0.00292,476121408.00000,   0.00063,275324864.00000,  -0.00027,  -0.00040,  -0.00084, -96.00000,   2.00000
-341277329.25313,-419798055.30491,-159822109.24223,  -0.00101,  -0.00164,  -0.00292,476103904.00000,   0.00063,275327936.00000,  -0.00027,  -0.00040,  -0.00085,   0.00000,   2.00000
-340742184.69560,-419736557.04589,-160003982.61827,  -0.00101,  -0.00165,  -0.00293,476103008.00000,   0.00063,275331040.00000,  -0.00028,  -0.00040,  -0.00085, -64.00000,   2.00000
-340207519.30636,-419674579.76922,-160185311.05325,  -0.00101,  -0.00165,  -0.00294,476106720.00000,   0.00063,275334112.00000,  -0.00028,  -0.00040,  -0.00085, -32.00000,   2.00000
-339657563.26072,-419601258.64632,-160375921.90923,  -0.00100,  -0.00165,  -0.00294,476084352.00000,   0.00064,275337120.00000,  -0.00028,  -0.00040,  -0.00086, -32.00000,   2.00000
-339107676.97447,-419516696.06197,-160571439.83509,  -0.00100,  -0.00165,  -0.00295,476073536.00000,   0.00064,275340064.00000,  -0.00028,  -0.00041,  -0.00086, -32.00000,   2.00000
-338538668.16055,-419436410.60777,-160769176.94245,  -0.00100,  -0.00166,  -0.00296,476087200.00000,   0.00064,275343040.00000,  -0.00028,  -0.00041,  -0.00087,  64.00000,   2.00000
-337973674.67115,-419339797.18667,-160973303.27060,  -0.00100,  -0.00166,  -0.00296,476054912.00000,   0.00065,275345888.00000,  -0.00028,  -0.00041,  -0.00087, -64.00000,   2.00000
-337405134.58189,-419247718.34914,-161175299.12906,  -0.00100,  -0.00166,  -0.00297,476080000.00000,   0.00065,275348800.00000,  -0.00028,  -0.00041,  -0.00087,  32.00000,   2.00000
-336825230.19246,-419149599.07716,-161382432.05783,  -0.00100,  -0.00166,  -0.00297,476051136.00000,   0.00065,275351616.00000,  -0.00028,  -0.00041,  -0.00088, -32.00000,   2.00000
-336241013.85239,-419034655.33870,-161598499.66076,  -0.00100,  -0.00167,  -0.00298,476046816.00000,   0.00065,275354400.00000,  -0.00028,  -0.00041,  -0.00088,   0.00000,   2.00000
-335641922.53902,-418929461.09572,-161812631.35581,  -0.00099,  -0.00167,  -0.00299,476053952.00000,   0.00066,275357184.00000,  -0.00028,  -0.00042,  -0.00088,  96.00000,   2.00000
-335042173.27621,-418802117.17567,-162037128.54648,  -0.00099,  -0.00167,  -0.00299,476028416.00000,   0.00066,275359872.00000,  -0.00029,  -0.00042,  -0.00089,  64.00000,   2.00000
-334427441.69317,-418684382.26785,-162259605.63382,  -0.00099,  -0.00167,  -0.00300,476035456.00000,   0.00066,275362560.00000,  -0.00029,  -0.00042,  -0.00089, -64.00000,   2.00000
-333808402.01984,-418549847.20164,-162491010.70760,  -0.00099,  -0.00168,  -0.00301,476031168.00000,   0.00066,275365248.00000,  -0.00029,  -0.00042,  -0.00089,   0.00000,   2.00000
-333177481.77915,-418408924.18335,-162727456.05356,  -0.00099,  -0.00168,  -0.00301,476002432.00000,   0.00067,275367808.00000,  -0.00029,  -0.00042,  -0.00090, -32.00000,   2.00000
-332546784.18043,-418267235.04301,-162963107.56867,  -0.00099,  -0.00168,  -0.00302,476006144.00000,   0.00067,275370368.00000,  -0.00029,  -0.00042,  -0.00090, -64.00000,   2.00000
-331896225.32664,-418118712.55190,-163206242.23730,  -0.00098,  -0.00168,  -0.00302,476005440.00000,   0.00067,275372928.00000,  -0.00029,  -0.00043,  -0.00090, -32.00000,   2.00000
-331245332.92070,-417958713.97031,-163454178.56995,  -0.00098,  -0.00168,  -0.00303,475994464.00000,   0.00067,275375424.00000,  -0.00029,  -0.00043,  -0.00091, -32.00000,   2.00000
-330598864.88312,-417803511.69169,-163697296.05553,  -0.00098,  -0.00169,  -0.00304,475991424.00000,   0.00067,275377888.00000,  -0.00029,  -0.00043,  -0.00091, -32.00000,   2.00000
-329931716.70460,-417630537.53991,-163953428.61182,  -0.00098,  -0.00169,  -0.00304,475976128.00000,   0.00068,275380288.00000,  -0.00029,  -0.00043,  -0.00091,   0.00000,   2.00000
-329248665.62207,-417456048.49333,-164212928.70657,  -0.00098,  -0.00169,  -0.00305,475968896.00000,   0.00068,275382656.00000,  -0.00029,  -0.00043,  -0.00091,-128.00000,   2.00000
-328581938.45552,-417281485.47632,-164467368.12774,  -0.00097,  -0.00169,  -0.00306,475983520.00000,   0.00068,275385088.00000,  -0.00029,  -0.00043,  -0.00092,  32.00000,   2.00000
-327878125.85086,-417088161.68249,-164738952.03415,  -0.00097,  -0.00169,  -0.00306,475957568.00000,   0.00068,275387392.00000,  -0.00029,  -0.00044,  -0.00092, -32.00000,   2.00000
-327177799.72770,-416888676.49736,-165011295.71413,  -0.00097,  -0.00170,  -0.00307,475940000.00000,   0.00069,275389600.00000,  -0.00029,  -0.00044,  -0.00092, -96.00000,   2.00000
-326478477.58060,-416699256.44951,-165277160.69559,  -0.00097,  -0.00170,  -0.00307,475958144.00000,   0.00069,275391904.00000,  -0.00029,  -0.00044,  -0.00093,  64.00000,   2.00000
-325761277.43437,-416486345.70594,-165557611.83418,  -0.00097,  -0.00170,  -0.00308,475921824.00000,   0.00069,275394048.00000,  -0.00030,  -0.00044,  -0.00093, -32.00000,   2.00000
-325040769.43435,-416277654.14059,-165835381.14693,  -0.00096,  -0.00170,  -0.00309,475946944.00000,   0.00069,275396288.00000,  -0.00030,  -0.00044,  -0.00093,  32.00000,   2.00000
-324319415.83333,-416057121.08703,-166117881.46069,  -0.00096,  -0.00170,  -0.00309,475936192.00000,   0.00069,275398464.00000,  -0.00030,  -0.00044,  -0.00093,  32.00000,   2.00000
-323585022.50711,-415829553.63449,-166405459.28642,  -0.00096,  -0.00171,  -0.00310,475907584.00000,   0.00070,275400512.00000,  -0.00030,  -0.00044,  -0.00094, 128.00000,   2.00000
-322829946.84513,-415594264.15402,-166700135.82285,  -0.00096,  -0.00171,  -0.00311,475907552.00000,   0.00070,275402560.00000,  -0.00030,  -0.00045,  -0.00094, -32.00000,   2.00000
-322074886.05339,-415358008.65169,-166993895.57889,  -0.00095,  -0.00171,  -0.00311,475911104.00000,   0.00070,275404640.00000,  -0.00030,  -0.00045,  -0.00094,  32.00000,   2.00000
-321306428.73517,-415114449.82052,-167292716.91596,  -0.00095,  -0.00171,  -0.00312,475882720.00000,   0.00070,275406560.00000,  -0.00030,  -0.00045,  -0.00094,  64.00000,   2.00000
-320533652.58885,-414864048.57723,-167594417.82373,  -0.00095,  -0.00171,  -0.00313,475893248.00000,   0.00070,275408544.00000,  -0.00030,  -0.00045,  -0.00095,   0.00000,   2.00000
-319759686.51878,-414601613.27195,-167900878.55704,  -0.00095,  -0.00171,  -0.00313,475882336.00000,   0.00070,275410464.00000,  -0.00030,  -0.00045,  -0.00095, -32.00000,   2.00000
-318969065.64833,-414337098.62191,-168210613.64035,  -0.00094,  -0.00171,  -0.00314,475875392.00000,   0.00071,275412352.00000,  -0.00030,  -0.00045,  -0.00095,  96.00000,   2.00000
-318178198.53054,-414071346.11175,-168519342.41960,  -0.00094,  -0.00172,  -0.00314,475879072.00000,   0.00071,275414240.00000,  -0.00030,  -0.00045,  -0.00095,  32.00000,   2.00000
-317369384.36279,-413792412.26977,-168837064.57828,  -0.00094,  -0.00172,  -0.00315,475857536.00000,   0.00071,275416032.00000,  -0.00030,  -0.00045,  -0.00096, -32.00000,   2.00000
-316559146.91946,-413501326.06349,-169159584.24988,  -0.00094,  -0.00172,  -0.00316,475846592.00000,   0.00071,275417792.00000,  -0.00030,  -0.00045,  -0.00096, -64.00000,   2.00000
-315727761.45683,-413202107.19743,-169489103.91455,  -0.00093,  -0.00172,  -0.00316,475846688.00000,   0.00071,275419520.00000,  -0.00030,  -0.00046,  -0.00096,  32.00000,   2.00000
-314900354.35945,-412907608.16252,-169813963.73449,  -0.00093,  -0.00172,  -0.00317,475843232.00000,   0.00071,275421248.00000,  -0.00030,  -0.00046,  -0.00096, 192.00000,   2.00000
-314054350.60590,-412599315.75900,-170147657.39233,  -0.00093,  -0.00172,  -0.00318,475821920.00000,   0.00072,275422880.00000,  -0.00030,  -0.00046,  -0.00096,-128.00000,   2.00000
-313208210.02810,-412290083.49876,-170480553.32973,  -0.00093,  -0.00172,  -0.00318,475825216.00000,   0.00072,275424512.00000,  -0.00030,  -0.00046,  -0.00097,  32.00000,   2.00000
-312340740.90314,-411972551.55696,-170820424.58674,  -0.00092,  -0.00173,  -0.00319,475825312.00000,   0.00072,275426144.00000,  -0.00030,  -0.00046,  -0.00097,  64.00000,   2.00000
-311475626.03446,-411648428.73274,-171161371.72280,  -0.00092,  -0.00173,  -0.00320,475807328.00000,   0.00072,275427712.00000,  -0.00030,  -0.00046,  -0.00097,-128.00000,   2.00000
-310608818.35127,-411312117.97004,-171507260.32190,  -0.00092,  -0.00173,  -0.00320,475795936.00000,   0.00072,275429216.00000,  -0.00031,  -0.00046,  -0.00097,  32.00000,   2.00000
-309720539.75896,-410967417.67302,-171860115.98565,  -0.00091,  -0.00173,  -0.00321,475796160.00000,   0.00072,275430720.00000,  -0.00031,  -0.00046,  -0.00097,  96.00000,   2.00000
-308818936.71132,-410625829.24548,-172212456.83592,  -0.00091,  -0.00173,  -0.00322,475782240.00000,   0.00072,275432128.00000,  -0.00031,  -0.00046,  -0.00098,  64.00000,   2.00000
-307915424.53033,-410271871.59219,-172569715.45821,  -0.00091,  -0.00173,  -0.00322,475770976.00000,   0.00073,275433504.00000,  -0.00031,  -0.00046,  -0.00098, 128.00000,   2.00000
-307007363.11157,-409910858.17442,-172929787.70403,  -0.00090,  -0.00173,  -0.00323,475781408.00000,   0.00073,275434944.00000,  -0.00031,  -0.00047,  -0.00098,  96.00000,   2.00000
-306084257.48813,-409541682.75187,-173295163.76213,  -0.00090,  -0.00173,  -0.00323,475752736.00000,   0.00073,275436224.00000,  -0.00031,  -0.00047,  -0.00098, -32.00000,   2.00000
-305156658.07618,-409165540.85503,-173663395.80870,  -0.00090,  -0.00173,  -0.00324,475763008.00000,   0.00073,275437568.00000,  -0.00031,  -0.00047,  -0.00098,  64.00000,   2.00000
-304213750.75511,-408781005.95465,-174036879.88879,  -0.00089,  -0.00174,  -0.00325,475734464.00000,   0.00073,275438784.00000,  -0.00031,  -0.00047,  -0.00098, -96.00000,   2.00000
-303270402.97079,-408395308.81391,-174409533.08150,  -0.00089,  -0.00174,  -0.00325,475737536.00000,   0.00073,275440000.00000,  -0.00031,  -0.00047,  -0.00099,   0.00000,   2.00000
-302305160.30048,-408000767.70721,-174788988.02522,  -0.00089,  -0.00174,  -0.00326,475737888.00000,   0.00073,275441216.00000,  -0.00031,  -0.00047,  -0.00099,   0.00000,   2.00000
-301341679.51591,-407599396.93416,-175169656.50316,  -0.00088,  -0.00174,  -0.00327,475719456.00000,   0.00073,275442336.00000,  -0.00031,  -0.00047,  -0.00099, -64.00000,   2.00000
-300360277.51119,-407194939.23172,-175553445.76706,  -0.00088,  -0.00174,  -0.00327,475712512.00000,   0.00074,275443456.00000,  -0.00031,  -0.00047,  -0.00099, -32.00000,   2.00000
-299372423.86032,-406771904.77154,-175945737.18281,  -0.00088,  -0.00174,  -0.00328,475708576.00000,   0.00074,275444544.00000,  -0.00031,  -0.00047,  -0.00099, -64.00000,   2.00000
-298387876.59305,-406353154.53396,-176333349.29598,  -0.00087,  -0.00174,  -0.00329,475704544.00000,   0.00074,275445600.00000,  -0.00031,  -0.00047,  -0.00099, -64.00000,   2.00000
-297383396.16543,-405919780.59498,-176729845.95844,  -0.00087,  -0.00174,  -0.00329,475683328.00000,   0.00074,275446560.00000,  -0.00031,  -0.00047,  -0.00099,   0.00000,   2.00000
-296360591.91588,-405482845.54350,-177129252.18510,  -0.00087,  -0.00174,  -0.00330,475676768.00000,   0.00074,275447520.00000,  -0.00031,  -0.00047,  -0.00100,   0.00000,   2.00000
-295331050.76392,-405027001.81857,-177537006.95009,  -0.00086,  -0.00174,  -0.00331,475672992.00000,   0.00074,275448416.00000,  -0.00031,  -0.00047,  -0.00100, 128.00000,   2.00000
-294304026.02256,-404574368.92654,-177939548.23168,  -0.00086,  -0.00174,  -0.00331,475669184.00000,   0.00074,275449344.00000,  -0.00031,  -0.00047,  -0.00100,-928.00000,   1.00000
-293258986.40040,-404118679.39571,-178345260.88503,  -0.00086,  -0.00174,  -0.00332,475661952.00000,   0.00074,275450208.00000,  -0.00031,  -0.00048,  -0.00100,-928.00000,   1.00000
-292210980.22184,-403649656.08074,-178755605.17208,  -0.00085,  -0.00174,  -0.00332,475651072.00000,   0.00074,275451040.00000,  -0.00031,  -0.00048,  -0.00100,-928.00000,   1.00000
-291142049.16812,-403164887.63934,-179174409.00048,  -0.00085,  -0.00174,  -0.00333,475630816.00000,   0.00074,275451776.00000,  -0.00031,  -0.00048,  -0.00100,-800.00000,   1.00000
-290074006.84482,-402689423.40508,-179585891.11922,  -0.00085,  -0.00174,  -0.00334,475648992.00000,   0.00074,275452576.00000,  -0.00031,  -0.00048,  -0.00100,-896.00000,   1.00000
-289000478.10740,-402188600.84116,-180007689.08629,  -0.00084,  -0.00174,  -0.00334,475624224.00000,   0.00074,275453312.00000,  -0.00031,  -0.00048,  -0.00100,-768.00000,   1.00000
-287896076.04102,-401698399.43512,-180426431.76410,  -0.00084,  -0.00174,  -0.00335,475616000.00000,   0.00074,275453984.00000,  -0.00031,  -0.00048,  -0.00100,-704.00000,   1.00000
-286801801.91887,-401190167.18942,-180848874.54228,  -0.00083,  -0.00174,  -0.00336,475623136.00000,   0.00075,275454656.00000,  -0.00031,  -0.00048,  -0.00101,-704.00000,   1.00000
-285685838.39950,-400665329.17776,-181279477.59351,  -0.00083,  -0.00174,  -0.00336,475603616.00000,   0.00075,275455296.00000,  -0.00031,  -0.00048,  -0.00101,-640.00000,   1.00000
-284554116.86159,-400141070.90664,-181708694.36925,  -0.00083,  -0.00174,  -0.00337,475591328.00000,   0.00075,275455840.00000,  -0.00031,  -0.00048,  -0.00101,-512.00000,   1.00000
-283434644.13984,-399610095.51082,-182135395.11915,  -0.00082,  -0.00174,  -0.00338,475613152.00000,   0.00075,275456512.00000,  -0.00031,  -0.00048,  -0.00101,-736.00000,   1.00000
-282278785.38934,-399065365.40634,-182570567.25362,  -0.00082,  -0.00174,  -0.00338,475577376.00000,   0.00075,275457024.00000,  -0.00031,  -0.00048,  -0.00101,-544.00000,   1.00000
-281118249.48427,-398505143.88173,-183009448.45799,  -0.00081,  -0.00174,  -0.00339,475568608.00000,   0.00075,275457472.00000,  -0.00031,  -0.00048,  -0.00101,-512.00000,   1.00000
-279955541.80660,-397941258.54208,-183446061.06617,  -0.00081,  -0.00174,  -0.00339,475573984.00000,   0.00075,275457952.00000,  -0.00031,  -0.00048,  -0.00101,-576.00000,   1.00000
-278790784.03703,-397373858.65529,-183880450.05969,  -0.00081,  -0.00174,  -0.00340,475579232.00000,   0.00075,275458464.00000,  -0.00031,  -0.00048,  -0.00101,-512.00000,   1.00000
-277584321.39725,-396785064.81929,-184326122.02615,  -0.00080,  -0.00174,  -0.00341,475552736.00000,   0.00075,275458880.00000,  -0.00031,  -0.00048,  -0.00101,-416.00000,   1.00000
-276393809.06345,-396194939.39000,-184765364.16711,  -0.00080,  -0.00174,  -0.00341,475567776.00000,   0.00075,275459328.00000,  -0.00031,  -0.00048,  -0.00101,-544.00000,   1.00000
-275182484.43348,-395597943.95834,-185205927.52031,  -0.00079,  -0.00174,  -0.00342,475564672.00000,   0.00075,275459776.00000,  -0.00031,  -0.00048,  -0.00101,-512.00000,   1.00000
-273947149.25511,-394981487.01532,-185653621.41116,  -0.00079,  -0.00174,  -0.00343,475548128.00000,   0.00075,275460160.00000,  -0.00031,  -0.00048,  -0.00101,-448.00000,   1.00000
-272728595.50726,-394357302.55666,-186097508.01460,  -0.00078,  -0.00174,  -0.00343,475541760.00000,   0.00075,275460480.00000,  -0.00031,  -0.00048,  -0.00101,-352.00000,   1.00000
-271470039.87937,-393722488.67573,-186546266.74020,  -0.00078,  -0.00174,  -0.00344,475530528.00000,   0.00075,275460800.00000,  -0.00031,  -0.00048,  -0.00101,-288.00000,   1.00000
-270204897.32084,-393076985.46312,-186995256.28462,  -0.00078,  -0.00174,  -0.00344,475545024.00000,   0.00075,275461152.00000,  -0.00031,  -0.00048,  -0.00101,-384.00000,   1.00000
-268937629.41719,-392420463.13493,-187444284.05441,  -0.00077,  -0.00174,  -0.00345,475529984.00000,   0.00075,275461440.00000,  -0.00031,  -0.00048,  -0.00101,-384.00000,   1.00000
-267667661.37573,-391759363.54591,-187890435.47118,  -0.00077,  -0.00174,  -0.00346,475536512.00000,   0.00075,275461760.00000,  -0.00031,  -0.00048,  -0.00101,-352.00000,   1.00000
-266376406.60897,-391083683.88660,-188340432.14345,  -0.00076,  -0.00174,  -0.00346,475513024.00000,   0.00075,275461984.00000,  -0.00031,  -0.00048,  -0.00101,-224.00000,   1.00000
-265059636.26040,-390393861.11868,-188794305.76634,  -0.00076,  -0.00174,  -0.00347,475519104.00000,   0.00075,275462240.00000,  -0.00031,  -0.00048,  -0.00102,-288.00000,   1.00000
-263740385.78750,-389692798.72456,-189248389.38306,  -0.00075,  -0.00174,  -0.00348,475503968.00000,   0.00075,275462400.00000,  -0.00031,  -0.00048,  -0.00102,-224.00000,   1.00000
-262414854.20490,-388981340.75960,-189702722.02169,  -0.00075,  -0.00174,  -0.00348,475518112.00000,   0.00075,275462656.00000,  -0.00031,  -0.00048,  -0.00102,-288.00000,   1.00000
-261067663.78018,-388255151.50656,-190161185.10129,  -0.00074,  -0.00174,  -0.00349,475494368.00000,   0.00075,275462784.00000,  -0.00031,  -0.00048,  -0.00102,-224.00000,   1.00000
-259718074.73631,-387524904.30370,-190617122.06070,  -0.00074,  -0.00174,  -0.00349,475500032.00000,   0.00075,275462944.00000,  -0.00031,  -0.00048,  -0.00102,-288.00000,   1.00000
-258347055.75071,-386787244.64714,-191074450.18029,  -0.00073,  -0.00174,  -0.00350,475497024.00000,   0.00075,275463104.00000,  -0.00031,  -0.00048,  -0.00102,-192.00000,   1.00000
-256973742.20011,-386039042.30816,-191532713.19355,  -0.00073,  -0.00174,  -0.00351,475480512.00000,   0.00075,275463168.00000,  -0.00031,  -0.00048,  -0.00102, -64.00000,   1.00000
-255595091.29177,-385281893.17072,-191992046.45657,  -0.00072,  -0.00174,  -0.00351,475492704.00000,   0.00075,275463296.00000,  -0.00031,  -0.00048,  -0.00102, -64.00000,   1.00000
-254194977.21388,-384510848.12835,-192456372.01909,  -0.00072,  -0.00174,  -0.00352,475467264.00000,   0.00075,275463328.00000,  -0.00031,  -0.00048,  -0.00102,  64.00000,   1.00000
-252793480.49187,-383737472.51052,-192919261.92452,  -0.00071,  -0.00174,  -0.00352,475470464.00000,   0.00075,275463360.00000,  -0.00031,  -0.00048,  -0.00102,  64.00000,   1.00000
-251362292.40881,-382936532.39064,-193385382.81396,  -0.00071,  -0.00174,  -0.00353,475452128.00000,   0.00075,275463360.00000,  -0.00031,  -0.00048,  -0.00102,-11232.00000,   0.00000
-249931104.32575,-382135592.27076,-193844938.62045,  -0.00070,  -0.00173,  -0.00354,475434752.00000,   0.00075,275463360.00000,  -0.00031,  -0.00048,  -0.00102,-28608.00000,   0.00000
-248467090.82794,-381301826.73613,-194311059.50989,  -0.00070,  -0.00173,  -0.00354,475406464.00000,   0.00075,275463360.00000,  -0.00031,  -0.00048,  -0.00102,-56896.00000,   0.00000
-247003077.33013,-380468061.20151,-194770615.31637,  -0.00069,  -0.00173,  -0.00355,475371424.00000,   0.00075,275463360.00000,  -0.00031,  -0.00048,  -0.00102,-91936.00000,   0.00000
-245539063.83232,-379634295.66688,-195230171.12286,  -0.00069,  -0.00173,  -0.00355,475338176.00000,   0.00075,275463360.00000,  -0.00031,  -0.00048,  -0.00102,-125184.00000,   0.00000
-244042224.91976,-378767704.71750,-195683161.84640,  -0.00068,  -0.00173,  -0.00356,475277216.00000,   0.00075,275463360.00000,  -0.00031,  -0.00048,  -0.00102,-186144.00000,   0.00000
-242545386.00720,-377901113.76813,-196142717.65289,  -0.00068,  -0.00173,  -0.00357,475227136.00000,   0.00075,275463360.00000,  -0.00031,  -0.00048,  -0.00102,-236224.00000,   0.00000
-241015721.67989,-377001697.40400,-196595708.37642,  -0.00067,  -0.00173,  -0.00357,475150848.00000,   0.00075,275463360.00000,  -0.00031,  -0.00048,  -0.00102,-312512.00000,   0.00000
-239486057.35258,-376102281.03987,-197048699.09996,  -0.00067,  -0.00173,  -0.00358,475078752.00000,   0.00075,275463360.00000,  -0.00031,  -0.00048,  -0.00102,-384608.00000,   0.00000
-237946545.40085,-375179886.88542,-197501689.82350,  -0.00066,  -0.00173,  -0.00358,474998176.00000,   0.00075,275463360.00000,  -0.00031,  -0.00048,  -0.00102,-465184.00000,   0.00000
-236384055.65879,-374247645.10655,-197948115.46409,  -0.00066,  -0.00173,  -0.00359,474905824.00000,   0.00075,275463360.00000,  -0.00031,  -0.00048,  -0.00102,-557536.00000,   0.00000
-234811718.29230,-373292425.53735,-198394541.10468,  -0.00065,  -0.00172,  -0.00360,474802912.00000,   0.00075,275463360.00000,  -0.00031,  -0.00048,  -0.00102,-660448.00000,   0.00000
-233216403.13550,-372327358.34373,-198840966.74526,  -0.00065,  -0.00172,  -0.00360,474692608.00000,   0.00075,275463360.00000,  -0.00031,  -0.00048,  -0.00102,-770752.00000,   0.00000
-231621087.97869,-371362291.15010,-199287392.38585,  -0.00064,  -0.00172,  -0.00361,474581088.00000,   0.00075,275463360.00000,  -0.00031,  -0.00048,  -0.00102,-882272.00000,   0.00000
-230015925.19746,-370374246.16615,-199727252.94349,  -0.00064,  -0.00172,  -0.00361,474448000.00000,   0.00075,275463360.00000,  -0.00031,  -0.00048,  -0.00102,-1015360.00000,   0.00000
-228387784.62590,-369376353.55778,-200173678.58408,  -0.00063,  -0.00172,  -0.00362,474319744.00000,   0.00075,275463360.00000,  -0.00031,  -0.00048,  -0.00102,-1143616.00000,   0.00000
-226749796.42992,-368355483.15908,-200606974.05877,  -0.00063,  -0.00172,  -0.00362,474168416.00000,   0.00075,275463360.00000,  -0.00031,  -0.00048,  -0.00102,-1294944.00000,   0.00000
-225111808.23394,-367334612.76039,-201046834.61640,  -0.00062,  -0.00172,  -0.00363,474033120.00000,   0.00075,275463360.00000,  -0.00031,  -0.00048,  -0.00102,-1430240.00000,   0.00000
-223440994.62321,-366280916.94694,-201480130.09109,  -0.00062,  -0.00171,  -0.00364,473876512.00000,   0.00075,275463360.00000,  -0.00031,  -0.00048,  -0.00102,-1586848.00000,   0.00000
-221747203.22216,-365217373.50907,-201913425.56578,  -0.00061,  -0.00171,  -0.00364,473719904.00000,   0.00075,275463360.00000,  -0.00031,  -0.00048,  -0.00102,-1743456.00000,   0.00000
-220066541.98700,-364140699.90530,-202346721.04047,  -0.00060,  -0.00171,  -0.00365,473563904.00000,   0.00075,275463360.00000,  -0.00031,  -0.00048,  -0.00102,-1899456.00000,   0.00000
-218362902.96152,-363054178.67710,-202773451.43221,  -0.00060,  -0.00171,  -0.00365,473398592.00000,   0.00075,275463360.00000,  -0.00031,  -0.00048,  -0.00102,-2064768.00000,   0.00000
-216636286.14572,-361957809.82448,-203200181.82395,  -0.00059,  -0.00171,  -0.00366,473231808.00000,   0.00075,275463360.00000,  -0.00031,  -0.00048,  -0.00102,-2231552.00000,   0.00000
-214922799.49582,-360848310.80596,-203626912.21568,  -0.00059,  -0.00171,  -0.00366,473064064.00000,   0.00075,275463360.00000,  -0.00031,  -0.00048,  -0.00102,-2399296.00000,   0.00000
-213153509.64084,-359696138.74827,-204047077.52447,  -0.00058,  -0.00170,  -0.00367,472865760.00000,   0.00075,275463360.00000,  -0.00031,  -0.00048,  -0.00102,-2597600.00000,   0.00000
-211417045.20061,-358576792.10532,-204467242.83326,  -0.00058,  -0.00170,  -0.00367,472692032.00000,   0.00075,275463360.00000,  -0.00031,  -0.00048,  -0.00102,-2771328.00000,   0.00000
-209637907.72121,-357401642.25730,-204887408.14205,  -0.00057,  -0.00170,  -0.00368,472490080.00000,   0.00075,275463360.00000,  -0.00031,  -0.00048,  -0.00102,-2973280.00000,   0.00000
-207868617.86623,-356249470.19961,-205301008.36789,  -0.00056,  -0.00170,  -0.00369,472297216.00000,   0.00075,275463360.00000,  -0.00031,  -0.00048,  -0.00102,-3166144.00000,   0.00000
-206066502.59650,-355064472.72717,-205714608.59373,  -0.00056,  -0.00170,  -0.00369,472089568.00000,   0.00075,275463360.00000,  -0.00031,  -0.00048,  -0.00102,-3373792.00000,   0.00000
-204254539.70235,-353856497.46440,-206128208.81957,  -0.00055,  -0.00170,  -0.00370,471873920.00000,   0.00075,275463360.00000,  -0.00031,  -0.00048,  -0.00102,-3589440.00000,   0.00000
-202442576.80820,-352648522.20163,-206535243.96246,  -0.00055,  -0.00169,  -0.00370,471655136.00000,   0.00075,275463360.00000,  -0.00031,  -0.00048,  -0.00102,-3808224.00000,   0.00000
-200630613.91405,-351440546.93886,-206942279.10534,  -0.00054,  -0.00169,  -0.00371,471441984.00000,   0.00075,275463360.00000,  -0.00031,  -0.00048,  -0.00102,-4021376.00000,   0.00000
-198785825.60515,-350199746.26135,-207349314.24823,  -0.00053,  -0.00169,  -0.00371,471215616.00000,   0.00075,275463360.00000,  -0.00031,  -0.00048,  -0.00102,-4247744.00000,   0.00000
-196908211.88150,-348926120.16908,-207749784.30817,  -0.00053,  -0.00169,  -0.00372,470967776.00000,   0.00075,275463360.00000,  -0.00031,  -0.00048,  -0.00102,-4495584.00000,   0.00000
-195063423.57260,-347685319.49157,-208143689.28516,  -0.00052,  -0.00169,  -0.00372,470737376.00000,   0.00075,275463360.00000,  -0.00031,  -0.00048,  -0.00102,-4725984.00000,   0.00000
-193175962.22453,-346388715.60898,-208544159.34510,  -0.00052,  -0.00168,  -0.00373,470491136.00000,   0.00075,275463360.00000,  -0.00031,  -0.00048,  -0.00102,-4972224.00000,   0.00000
-191275370.71055,-345105241.89229,-208938064.32209,  -0.00051,  -0.00168,  -0.00373,470250368.00000,   0.00075,275463360.00000,  -0.00031,  -0.00048,  -0.00102,-5212992.00000,   0.00000
-189387909.36248,-343808638.00970,-209325404.21613,  -0.00050,  -0.00168,  -0.00374,470002336.00000,   0.00075,275463360.00000,  -0.00031,  -0.00048,  -0.00102,-5461024.00000,   0.00000
-187467622.59966,-342479208.71236,-209719309.19312,  -0.00050,  -0.00168,  -0.00374,469752544.00000,   0.00075,275463360.00000,  -0.00031,  -0.00048,  -0.00102,-5710816.00000,   0.00000
-185524358.04651,-341139931.79059,-210100084.00421,  -0.00049,  -0.00167,  -0.00375,469487488.00000,   0.00075,275463360.00000,  -0.00031,  -0.00048,  -0.00102,-5975872.00000,   0.00000
-183604071.28368,-339810502.49325,-210487423.89825,  -0.00049,  -0.00167,  -0.00375,469245824.00000,   0.00075,275463360.00000,  -0.00031,  -0.00048,  -0.00102,-6217536.00000,   0.00000
-181650959.10611,-338448247.78116,-210868198.70934,  -0.00048,  -0.00167,  -0.00376,468985536.00000,   0.00075,275463360.00000,  -0.00031,  -0.00048,  -0.00102,-6477824.00000,   0.00000
-179697846.92854,-337085993.06908,-211242408.43748,  -0.00047,  -0.00167,  -0.00376,468724832.00000,   0.00075,275463360.00000,  -0.00031,  -0.00048,  -0.00102,-6738528.00000,   0.00000
-177711909.33622,-335690912.94224,-211616618.16562,  -0.00047,  -0.00166,  -0.00377,468454432.00000,   0.00075,275463360.00000,  -0.00031,  -0.00048,  -0.00102,-7008928.00000,   0.00000
-175725971.74390,-334295832.81540,-211990827.89376,  -0.00046,  -0.00166,  -0.00377,468192416.00000,   0.00075,275463360.00000,  -0.00031,  -0.00048,  -0.00102,-7270944.00000,   0.00000
-173730186.52715,-332877774.89824,-212358472.53895,  -0.00045,  -0.00166,  -0.00378,467917248.00000,   0.00075,275463360.00000,  -0.00031,  -0.00048,  -0.00102,-7546112.00000,   0.00000
-171711423.52008,-331449869.35665,-212726117.18414,  -0.00045,  -0.00166,  -0.00378,467644384.00000,   0.00075,275463360.00000,  -0.00031,  -0.00048,  -0.00102,-7818976.00000,   0.00000
-169692660.51301,-330021963.81507,-213087196.74638,  -0.00044,  -0.00165,  -0.00379,467370080.00000,   0.00075,275463360.00000,  -0.00031,  -0.00048,  -0.00102,-8093280.00000,   0.00000
-167664049.88151,-328571080.48316,-213448276.30862,  -0.00044,  -0.00165,  -0.00379,467090976.00000,   0.00075,275463360.00000,  -0.00031,  -0.00048,  -0.00102,-8372384.00000,   0.00000
-165635439.25002,-327120197.15124,-213809355.87086,  -0.00043,  -0.00165,  -0.00380,466818816.00000,   0.00075,275463360.00000,  -0.00031,  -0.00048,  -0.00102,-8644544.00000,   0.00000
-163574003.20377,-325636488.40458,-214163870.35015,  -0.00042,  -0.00165,  -0.00380,466527392.00000,   0.00075,275463360.00000,  -0.00031,  -0.00048,  -0.00102,-8935968.00000,   0.00000
-161512567.15753,-324152779.65792,-214511819.74649,  -0.00042,  -0.00164,  -0.00381,466233440.00000,   0.00075,275463360.00000,  -0.00031,  -0.00048,  -0.00102,-9229920.00000,   0.00000
-159441283.48686,-322646093.12094,-214859769.14283,  -0.00041,  -0.00164,  -0.00381,465934432.00000,   0.00075,275463360.00000,  -0.00031,  -0.00048,  -0.00102,-9528928.00000,   0.00000
-157347022.02587,-321129558.95953,-215201153.45622,  -0.00040,  -0.00164,  -0.00381,465627872.00000,   0.00075,275463360.00000,  -0.00031,  -0.00048,  -0.00102,-9835488.00000,   0.00000
-155275738.35520,-319622872.42255,-215542537.76961,  -0.00040,  -0.00163,  -0.00382,465333152.00000,   0.00075,275463360.00000,  -0.00031,  -0.00048,  -0.00102,-10130208.00000,   0.00000
-153171629.26978,-318083360.47081,-215883922.08300,  -0.00039,  -0.00163,  -0.00382,465028800.00000,   0.00075,275463360.00000,  -0.00031,  -0.00048,  -0.00102,-10434560.00000,   0.00000
-151034694.76961,-316511023.10433,-216218741.31344,  -0.00038,  -0.00163,  -0.00383,464706016.00000,   0.00075,275463360.00000,  -0.00031,  -0.00048,  -0.00102,-10757344.00000,   0.00000
-148907607.89387,-314961663.52817,-216546995.46094,  -0.00038,  -0.00163,  -0.00383,464393952.00000,   0.00075,275463360.00000,  -0.00031,  -0.00048,  -0.00102,-11069408.00000,   0.00000
-146783803.55960,-313376195.99579,-216875249.60843,  -0.00037,  -0.00162,  -0.00384,464071104.00000,   0.00075,275463360.00000,  -0.00031,  -0.00048,  -0.00102,-11392256.00000,   0.00000
-144623891.26911,-311794011.00488,-217203503.75592,  -0.00036,  -0.00162,  -0.00384,463759680.00000,   0.00075,275463360.00000,  -0.00031,  -0.00048,  -0.00102,-11703680.00000,   0.00000
-142477109.14452,-310198695.84808,-217525192.82046,  -0.00036,  -0.00162,  -0.00384,463441152.00000,   0.00075,275463360.00000,  -0.00031,  -0.00048,  -0.00102,-12022208.00000,   0.00000
-140297501.60518,-308570555.27652,-217840316.80205,  -0.00035,  -0.00161,  -0.00385,463106752.00000,   0.00075,275463360.00000,  -0.00031,  -0.00048,  -0.00102,-12356608.00000,   0.00000
-138117894.06584,-306942414.70496,-218155440.78364,  -0.00034,  -0.00161,  -0.00385,462782592.00000,   0.00075,275463360.00000,  -0.00031,  -0.00048,  -0.00102,-12680768.00000,   0.00000
-135938286.52649,-305314274.13341,-218463999.68228,  -0.00034,  -0.00161,  -0.00386,462459360.00000,   0.00075,275463360.00000,  -0.00031,  -0.00048,  -0.00102,-13004000.00000,   0.00000
-133748831.36273,-303663155.77153,-218772558.58093,  -0.00033,  -0.00160,  -0.00386,462135008.00000,   0.00075,275463360.00000,  -0.00031,  -0.00048,  -0.00102,-13328352.00000,   0.00000
-131536398.40864,-302002189.78522,-219074552.39662,  -0.00032,  -0.00160,  -0.00386,461807424.00000,   0.00075,275463360.00000,  -0.00031,  -0.00048,  -0.00102,-13655936.00000,   0.00000
-129323965.45455,-300341223.79892,-219376546.21231,  -0.00032,  -0.00160,  -0.00387,461490400.00000,   0.00075,275463360.00000,  -0.00031,  -0.00048,  -0.00102,-13972960.00000,   0.00000
-127101684.87603,-298657280.02229,-219671974.94505,  -0.00031,  -0.00159,  -0.00387,461162496.00000,   0.00075,275463360.00000,  -0.00031,  -0.00048,  -0.00102,-14300864.00000,   0.00000
-124869556.67309,-296950358.45533,-219967403.67779,  -0.00030,  -0.00159,  -0.00388,460833120.00000,   0.00075,275463360.00000,  -0.00031,  -0.00048,  -0.00102,-14630240.00000,   0.00000
-122614450.67983,-295233589.26395,-220256267.32759,  -0.00030,  -0.00159,  -0.00388,460499840.00000,   0.00075,275463360.00000,  -0.00031,  -0.00048,  -0.00102,-14963520.00000,   0.00000
-120359344.68656,-293516820.07258,-220538565.89443,  -0.00029,  -0.00158,  -0.00388,460165856.00000,   0.00075,275463360.00000,  -0.00031,  -0.00048,  -0.00102,-15297504.00000,   0.00000
-118094391.06888,-291777073.09087,-220820864.46127,  -0.00028,  -0.00158,  -0.00389,459829408.00000,   0.00075,275463360.00000,  -0.00031,  -0.00048,  -0.00102,-15633952.00000,   0.00000
-115829437.45119,-290037326.10917,-221096597.94516,  -0.00027,  -0.00158,  -0.00389,459491328.00000,   0.00075,275463360.00000,  -0.00031,  -0.00048,  -0.00102,-15972032.00000,   0.00000
-113541506.04317,-288287731.50304,-221372331.42906,  -0.00027,  -0.00157,  -0.00389,459157728.00000,   0.00075,275463360.00000,  -0.00031,  -0.00048,  -0.00102,-16305632.00000,   0.00000
-111266704.80106,-286525006.73101,-221641499.83000,  -0.00026,  -0.00157,  -0.00390,458814016.00000,   0.00075,275463360.00000,  -0.00031,  -0.00048,  -0.00102,-16649344.00000,   0.00000
-108959078.14420,-284729456.54424,-221904103.14799,  -0.00025,  -0.00157,  -0.00390,458453312.00000,   0.00075,275463360.00000,  -0.00031,  -0.00048,  -0.00102,-17010048.00000,   0.00000
-106651451.48733,-282933906.35746,-222166706.46598,  -0.00025,  -0.00156,  -0.00390,458100032.00000,   0.00075,275463360.00000,  -0.00031,  -0.00048,  -0.00102,-17363328.00000,   0.00000
-104343824.83047,-281138356.17068,-222429309.78398,  -0.00024,  -0.00156,  -0.00391,457753792.00000,   0.00075,275463360.00000,  -0.00031,  -0.00048,  -0.00102,-17709568.00000,   0.00000
-102013220.38328,-279332958.35948,-222678782.93607,  -0.00023,  -0.00156,  -0.00391,457391968.00000,   0.00075,275463360.00000,  -0.00031,  -0.00048,  -0.00102,-18071392.00000,   0.00000
-99685898.47757,-277491452.59206,-222928256.08816,  -0.00023,  -0.00155,  -0.00391,457019424.00000,   0.00075,275463360.00000,  -0.00031,  -0.00048,  -0.00102,-18443936.00000,   0.00000
-97345446.40596,-275663076.99053,-223177729.24026,  -0.00022,  -0.00155,  -0.00392,456663072.00000,   0.00075,275463360.00000,  -0.00031,  -0.00048,  -0.00102,-18800288.00000,   0.00000
-94995146.70992,-273811723.59868,-223414072.22645,  -0.00021,  -0.00154,  -0.00392,456285184.00000,   0.00075,275463360.00000,  -0.00031,  -0.00048,  -0.00102,-19178176.00000,   0.00000
-92644847.01389,-271960370.20683,-223650415.21264,  -0.00020,  -0.00154,  -0.00392,455917856.00000,   0.00075,275463360.00000,  -0.00031,  -0.00048,  -0.00102,-19545504.00000,   0.00000
-90261721.90310,-270076191.40023,-223886758.19884,  -0.00020,  -0.00154,  -0.00393,455548768.00000,   0.00075,275463360.00000,  -0.00031,  -0.00048,  -0.00102,-19914592.00000,   0.00000
-87901574.58264,-268201860.21806,-224116536.10208,  -0.00019,  -0.00153,  -0.00393,455185984.00000,   0.00075,275463360.00000,  -0.00031,  -0.00048,  -0.00102,-20277376.00000,   0.00000
-85518449.47185,-266317681.41146,-224339748.92238,  -0.00018,  -0.00153,  -0.00393,454825664.00000,   0.00075,275463360.00000,  -0.00031,  -0.00048,  -0.00102,-20637696.00000,   0.00000
-83125476.73664,-264410524.81453,-224556396.65972,  -0.00018,  -0.00152,  -0.00394,454461760.00000,   0.00075,275463360.00000,  -0.00031,  -0.00048,  -0.00102,-21001600.00000,   0.00000
-80722656.37701,-262480390.42729,-224773044.39706,  -0.00017,  -0.00152,  -0.00394,454105856.00000,   0.00075,275463360.00000,  -0.00031,  -0.00048,  -0.00102,-21357504.00000,   0.00000
-78319836.01737,-260550256.04004,-224983127.05146,  -0.00016,  -0.00152,  -0.00394,453759680.00000,   0.00075,275463360.00000,  -0.00031,  -0.00048,  -0.00102,-21703680.00000,   0.00000
-75917015.65774,-258620121.65279,-225193209.70585,  -0.00015,  -0.00151,  -0.00394,453433472.00000,   0.00075,275463360.00000,  -0.00031,  -0.00048,  -0.00102,-22029888.00000,   0.00000
-73514195.29810,-256689987.26554,-225390162.19435,  -0.00015,  -0.00151,  -0.00395,453107872.00000,   0.00075,275463360.00000,  -0.00031,  -0.00048,  -0.00102,-22355488.00000,   0.00000
-71078549.52372,-254727027.46355,-225593679.76579,  -0.00014,  -0.00150,  -0.00395,452800544.00000,   0.00075,275463360.00000,  -0.00031,  -0.00048,  -0.00102,-22662816.00000,   0.00000
-68656033.91523,-252750937.49565,-225784067.17134,  -0.00013,  -0.00150,  -0.00395,452485120.00000,   0.00075,275463360.00000,  -0.00031,  -0.00048,  -0.00102,-22978240.00000,   0.00000
-66220388.14085,-250787977.69365,-225974454.57688,  -0.00013,  -0.00150,  -0.00395,452195328.00000,   0.00075,275463360.00000,  -0.00031,  -0.00048,  -0.00102,-23268032.00000,   0.00000
-63765047.11761,-248779062.31101,-226158276.89948,  -0.00012,  -0.00149,  -0.00396,451893440.00000,   0.00075,275463360.00000,  -0.00031,  -0.00048,  -0.00102,-23569920.00000,   0.00000
-61319553.71881,-246793124.71868,-226335534.13912,  -0.00011,  -0.00149,  -0.00396,451605440.00000,   0.00075,275463360.00000,  -0.00031,  -0.00048,  -0.00102,-23857920.00000,   0.00000
-58864212.69557,-244784209.33604,-226512791.37877,  -0.00010,  -0.00148,  -0.00396,451320096.00000,   0.00075,275463360.00000,  -0.00031,  -0.00048,  -0.00102,-24143264.00000,   0.00000
-56399024.04791,-242752316.16307,-226683483.53546,  -0.00010,  -0.00148,  -0.00396,451025312.00000,   0.00075,275463360.00000,  -0.00031,  -0.00048,  -0.00102,-24438048.00000,   0.00000
-53920705.23435,-240733553.15600,-226847610.60921,  -0.00009,  -0.00147,  -0.00397,450735872.00000,   0.00075,275463360.00000,  -0.00031,  -0.00048,  -0.00102,-24727488.00000,   0.00000
-51445668.96227,-238678682.19270,-227005172.60000,  -0.00008,  -0.00147,  -0.00397,450422944.00000,   0.00075,275463360.00000,  -0.00031,  -0.00048,  -0.00102,-25040416.00000,   0.00000
-48980480.31461,-236646789.01973,-227162734.59080,  -0.00007,  -0.00146,  -0.00397,450120224.00000,   0.00075,275463360.00000,  -0.00031,  -0.00048,  -0.00102,-25343136.00000,   0.00000
-46482466.25221,-234582070.43201,-227313731.49865,  -0.00007,  -0.00146,  -0.00397,449797216.00000,   0.00075,275463360.00000,  -0.00031,  -0.00048,  -0.00102,-25666144.00000,   0.00000
-43974604.56537,-232494374.05397,-227458163.32354,  -0.00006,  -0.00146,  -0.00397,449453472.00000,   0.00075,275463360.00000,  -0.00031,  -0.00048,  -0.00102,-26009888.00000,   0.00000
-41499568.29329,-230439503.09068,-227602595.14844,  -0.00005,  -0.00145,  -0.00398,449117472.00000,   0.00075,275463360.00000,  -0.00031,  -0.00048,  -0.00102,-26345888.00000,   0.00000
-38991706.60646,-228351806.71263,-227740461.89038,  -0.00005,  -0.00145,  -0.00398,448760992.00000,   0.00075,275463360.00000,  -0.00031,  -0.00048,  -0.00102,-26702368.00000,   0.00000
-36473997.29520,-226241132.54426,-227871763.54938,  -0.00004,  -0.00144,  -0.00398,448389920.00000,   0.00075,275463360.00000,  -0.00031,  -0.00048,  -0.00102,-27073440.00000,   0.00000
-33956287.98394,-224130458.37590,-227996500.12543,  -0.00003,  -0.00144,  -0.00398,448020672.00000,   0.00075,275463360.00000,  -0.00031,  -0.00048,  -0.00102,-27442688.00000,   0.00000
-31438578.67269,-222019784.20753,-228121236.70147,  -0.00002,  -0.00143,  -0.00398,447663296.00000,   0.00075,275463360.00000,  -0.00031,  -0.00048,  -0.00102,-27800064.00000,   0.00000
-28911021.73700,-219886132.24883,-228232843.11162,  -0.00002,  -0.00143,  -0.00398,447280768.00000,   0.00075,275463360.00000,  -0.00031,  -0.00048,  -0.00102,-28182592.00000,   0.00000
-26383464.80132,-217752480.29014,-228344449.52177,  -0.00001,  -0.00142,  -0.00399,446896832.00000,   0.00075,275463360.00000,  -0.00031,  -0.00048,  -0.00102,-28566528.00000,   0.00000
-23846060.24122,-215595850.54113,-228456055.93191,  -0.00000,  -0.00142,  -0.00399,446501408.00000,   0.00075,275463360.00000,  -0.00031,  -0.00048,  -0.00102,-28961952.00000,   0.00000
-21308655.68111,-213439220.79211,-228554532.17616,   0.00001,  -0.00141,  -0.00399,446084128.00000,   0.00075,275463360.00000,  -0.00031,  -0.00048,  -0.00102,-29379232.00000,   0.00000
-18748273.33068,-211272743.41867,-228653008.42041,   0.00001,  -0.00141,  -0.00399,445666496.00000,   0.00075,275463360.00000,  -0.00031,  -0.00048,  -0.00102,-29796864.00000,   0.00000
-16210868.77057,-209116113.66965,-228744919.58171,   0.00002,  -0.00140,  -0.00399,445241248.00000,   0.00075,275463360.00000,  -0.00031,  -0.00048,  -0.00102,-30222112.00000,   0.00000
-13653768.96162,-206913528.33998,-228830265.66005,   0.00003,  -0.00140,  -0.00399,444792064.00000,   0.00075,275463360.00000,  -0.00031,  -0.00048,  -0.00102,-30671296.00000,   0.00000
-11106516.77708,-204733920.80064,-228909046.65545,   0.00004,  -0.00139,  -0.00399,444346816.00000,   0.00075,275463360.00000,  -0.00031,  -0.00048,  -0.00102,-31116544.00000,   0.00000
-8526439.17780,-202521487.84655,-228981262.56790,   0.00004,  -0.00139,  -0.00399,443890656.00000,   0.00075,275463360.00000,  -0.00031,  -0.00048,  -0.00102,-31572704.00000,   0.00000
-5969339.36885,-200318902.51689,-229053478.48035,   0.00005,  -0.00138,  -0.00399,443448192.00000,   0.00075,275463360.00000,  -0.00031,  -0.00048,  -0.00102,-32015168.00000,   0.00000
-3402391.93547,-198093339.39690,-229119129.30985,   0.00006,  -0.00138,  -0.00400,443004128.00000,   0.00075,275463360.00000,  -0.00031,  -0.00048,  -0.00102,-32459232.00000,   0.00000
-845292.12651,-195890754.06723,-229178215.05640,   0.00007,  -0.00137,  -0.00400,442579328.00000,   0.00075,275463360.00000,  -0.00031,  -0.00048,  -0.00102,-32884032.00000,   0.00000
1754480.72162,-193632365.53249,-229230735.71999,   0.00007,  -0.00137,  -0.00400,442152480.00000,   0.00075,275463360.00000,  -0.00031,  -0.00048,  -0.00102,-33310880.00000,   0.00000
4321428.15500,-191406802.41250,-229283256.38359,   0.00008,  -0.00136,  -0.00400,441761376.00000,   0.00075,275463360.00000,  -0.00031,  -0.00048,  -0.00102,-33701984.00000,   0.00000
6908070.83723,-189135283.71186,-229322646.88129,   0.00009,  -0.00136,  -0.00400,441362112.00000,   0.00075,275463360.00000,  -0.00031,  -0.00048,  -0.00102,-34101248.00000,   0.00000
9484865.89504,-186886742.80155,-229362037.37899,   0.00009,  -0.00135,  -0.00400,440999712.00000,   0.00075,275463360.00000,  -0.00031,  -0.00048,  -0.00102,-34463648.00000,   0.00000
12094486.36759,-184605376.47649,-229394862.79374,   0.00010,  -0.00135,  -0.00400,440647968.00000,   0.00075,275463360.00000,  -0.00031,  -0.00048,  -0.00102,-34815392.00000,   0.00000
14681129.04982,-182333857.77585,-229421123.12554,   0.00011,  -0.00134,  -0.00400,440310944.00000,   0.00075,275463360.00000,  -0.00031,  -0.00048,  -0.00102,-35152416.00000,   0.00000
17267771.73205,-180062339.07521,-229447383.45734,   0.00012,  -0.00134,  -0.00400,439997280.00000,   0.00075,275463360.00000,  -0.00031,  -0.00048,  -0.00102,-35466080.00000,   0.00000
19864262.03871,-177767842.58424,-229460513.62324,   0.00012,  -0.00133,  -0.00400,439676512.00000,   0.00075,275463360.00000,  -0.00031,  -0.00048,  -0.00102,-35786848.00000,   0.00000
22470599.96979,-175450368.30296,-229473643.78914,   0.00013,  -0.00133,  -0.00400,439367200.00000,   0.00075,275463360.00000,  -0.00031,  -0.00048,  -0.00102,-36096160.00000,   0.00000
25067090.27644,-173155871.81199,-229480208.87209,   0.00014,  -0.00132,  -0.00400,439071520.00000,   0.00075,275463360.00000,  -0.00031,  -0.00048,  -0.00102,-36391840.00000,   0.00000
27673428.20752,-170838397.53071,-229473643.78914,   0.00015,  -0.00131,  -0.00400,438763840.00000,   0.00075,275463360.00000,  -0.00031,  -0.00048,  -0.00102,-36699520.00000,   0.00000
30266635.97270,-168507793.08352,-229467078.70619,   0.00015,  -0.00131,  -0.00400,438461760.00000,   0.00075,275463360.00000,  -0.00031,  -0.00048,  -0.00102,-37001600.00000,   0.00000
32872973.90378,-166190318.80223,-229460513.62324,   0.00016,  -0.00130,  -0.00400,438182432.00000,   0.00075,275463360.00000,  -0.00031,  -0.00048,  -0.00102,-37280928.00000,   0.00000
35489159.45929,-163849866.73062,-229440818.37439,   0.00017,  -0.00130,  -0.00400,437888352.00000,   0.00075,275463360.00000,  -0.00031,  -0.00048,  -0.00102,-37575008.00000,   0.00000
38092214.84889,-161496284.49311,-229414558.04259,   0.00018,  -0.00129,  -0.00400,437586432.00000,   0.00075,275463360.00000,  -0.00031,  -0.00048,  -0.00102,-37876928.00000,   0.00000
40718248.02882,-159132854.63117,-229388297.71079,   0.00018,  -0.00129,  -0.00400,437296384.00000,   0.00075,275463360.00000,  -0.00031,  -0.00048,  -0.00102,-38166976.00000,   0.00000
43321303.41842,-156779272.39366,-229355472.29604,   0.00019,  -0.00128,  -0.00400,437001952.00000,   0.00075,275463360.00000,  -0.00031,  -0.00048,  -0.00102,-38461408.00000,   0.00000
45924358.80803,-154425690.15615,-229316081.79834,   0.00020,  -0.00128,  -0.00400,436704544.00000,   0.00075,275463360.00000,  -0.00031,  -0.00048,  -0.00102,-38758816.00000,   0.00000
48560239.61238,-152039282.50389,-229263561.13474,   0.00020,  -0.00127,  -0.00400,436390272.00000,   0.00075,275463360.00000,  -0.00031,  -0.00048,  -0.00102,-39073088.00000,   0.00000
51173142.62641,-149662722.47605,-229211040.47114,   0.00021,  -0.00126,  -0.00400,436083872.00000,   0.00075,275463360.00000,  -0.00031,  -0.00048,  -0.00102,-39379488.00000,   0.00000
53795893.26487,-147263184.65789,-229158519.80755,   0.00022,  -0.00126,  -0.00400,435785152.00000,   0.00075,275463360.00000,  -0.00031,  -0.00048,  -0.00102,-39678208.00000,   0.00000
56395666.11300,-144873494.46416,-229092868.97805,   0.00023,  -0.00125,  -0.00399,435482464.00000,   0.00075,275463360.00000,  -0.00031,  -0.00048,  -0.00102,-39980896.00000,   0.00000
59018416.75145,-142473956.64600,-229020653.06560,   0.00023,  -0.00125,  -0.00399,435196448.00000,   0.00075,275463360.00000,  -0.00031,  -0.00048,  -0.00102,-40266912.00000,   0.00000
61628037.22401,-140061288.66194,-228948437.15315,   0.00024,  -0.00124,  -0.00399,434929696.00000,   0.00075,275463360.00000,  -0.00031,  -0.00048,  -0.00102,-40533664.00000,   0.00000
64260635.48689,-137638773.05345,-228863091.07480,   0.00025,  -0.00124,  -0.00399,434676128.00000,   0.00075,275463360.00000,  -0.00031,  -0.00048,  -0.00102,-40787232.00000,   0.00000
66870255.95944,-135226105.06939,-228777744.99646,   0.00026,  -0.00123,  -0.00399,434449824.00000,   0.00075,275463360.00000,  -0.00031,  -0.00048,  -0.00102,-41013536.00000,   0.00000
69489724.05642,-132790459.29501,-228685833.83516,   0.00026,  -0.00122,  -0.00399,434236352.00000,   0.00075,275463360.00000,  -0.00031,  -0.00048,  -0.00102,-41227008.00000,   0.00000
72109192.15340,-130354813.52062,-228587357.59091,   0.00027,  -0.00122,  -0.00399,434038464.00000,   0.00075,275463360.00000,  -0.00031,  -0.00048,  -0.00102,-41424896.00000,   0.00000
74728660.25038,-127919167.74624,-228482316.26371,   0.00028,  -0.00121,  -0.00399,433852416.00000,   0.00075,275463360.00000,  -0.00031,  -0.00048,  -0.00102,-41610944.00000,   0.00000
77325150.55703,-125493369.59628,-228370709.85357,   0.00028,  -0.00121,  -0.00399,433669984.00000,   0.00075,275463360.00000,  -0.00031,  -0.00048,  -0.00102,-41793376.00000,   0.00000
79954466.27844,-123034746.03157,-228252538.36047,   0.00029,  -0.00120,  -0.00398,433491264.00000,   0.00075,275463360.00000,  -0.00031,  -0.00048,  -0.00102,-41972096.00000,   0.00000
82570651.83394,-120562992.30096,-228127801.78442,   0.00030,  -0.00119,  -0.00398,433304576.00000,   0.00075,275463360.00000,  -0.00031,  -0.00048,  -0.00102,-42158784.00000,   0.00000
85176989.76502,-118114216.36068,-227996500.12543,   0.00030,  -0.00119,  -0.00398,433121888.00000,   0.00075,275463360.00000,  -0.00031,  -0.00048,  -0.00102,-42341472.00000,   0.00000
87793175.32053,-115642462.63007,-227858633.38348,   0.00031,  -0.00118,  -0.00398,432931520.00000,   0.00075,275463360.00000,  -0.00031,  -0.00048,  -0.00102,-42531840.00000,   0.00000
90386383.08571,-113180556.52389,-227720766.64153,   0.00032,  -0.00117,  -0.00398,432743040.00000,   0.00075,275463360.00000,  -0.00031,  -0.00048,  -0.00102,-42720320.00000,   0.00000
93012416.26564,-110685825.00295,-227569769.73369,   0.00033,  -0.00117,  -0.00398,432539840.00000,   0.00075,275463360.00000,  -0.00031,  -0.00048,  -0.00102,-42923520.00000,   0.00000
95615471.65524,-108200941.10644,-227418772.82584,   0.00033,  -0.00116,  -0.00397,432337952.00000,   0.00075,275463360.00000,  -0.00031,  -0.00048,  -0.00102,-43125408.00000,   0.00000
98218527.04485,-105716057.20994,-227254645.75210,   0.00034,  -0.00116,  -0.00397,432121920.00000,   0.00075,275463360.00000,  -0.00031,  -0.00048,  -0.00102,-43341440.00000,   0.00000
100831430.05887,-103208195.52310,-227090518.67835,   0.00035,  -0.00115,  -0.00397,431908096.00000,   0.00075,275463360.00000,  -0.00031,  -0.00048,  -0.00102,-43555264.00000,   0.00000
103421355.28258,-100710181.46070,-226919826.52166,   0.00035,  -0.00114,  -0.00397,431687264.00000,   0.00075,275463360.00000,  -0.00031,  -0.00048,  -0.00102,-43776096.00000,   0.00000
106034258.29661,-98202319.77386,-226742569.28201,   0.00036,  -0.00114,  -0.00396,431469248.00000,   0.00075,275463360.00000,  -0.00031,  -0.00048,  -0.00102,-43994112.00000,   0.00000
108624183.52031,-95704305.71146,-226552181.87647,   0.00037,  -0.00113,  -0.00396,431234912.00000,   0.00075,275463360.00000,  -0.00031,  -0.00048,  -0.00102,-44228448.00000,   0.00000
111200978.57812,-93193161.48315,-226361794.47092,   0.00037,  -0.00112,  -0.00396,431001600.00000,   0.00075,275463360.00000,  -0.00031,  -0.00048,  -0.00102,-44461760.00000,   0.00000
113800751.42625,-90672169.63042,-226164841.98243,   0.00038,  -0.00112,  -0.00396,430775232.00000,   0.00075,275463360.00000,  -0.00031,  -0.00048,  -0.00102,-44688128.00000,   0.00000
116387394.10848,-88138047.61179,-225961324.41098,   0.00039,  -0.00111,  -0.00395,430544640.00000,   0.00075,275463360.00000,  -0.00031,  -0.00048,  -0.00102,-44918720.00000,   0.00000
118964189.16629,-85626903.38348,-225751241.75659,   0.00040,  -0.00111,  -0.00395,430327008.00000,   0.00075,275463360.00000,  -0.00031,  -0.00048,  -0.00102,-45136352.00000,   0.00000
121550831.84852,-83092781.36485,-225534594.01924,   0.00040,  -0.00110,  -0.00395,430117600.00000,   0.00075,275463360.00000,  -0.00031,  -0.00048,  -0.00102,-45345760.00000,   0.00000
124124344.36485,-80545529.18031,-225311381.19895,   0.00041,  -0.00109,  -0.00395,429912544.00000,   0.00075,275463360.00000,  -0.00031,  -0.00048,  -0.00102,-45550816.00000,   0.00000
126688009.25675,-78021254.78611,-225081603.29571,   0.00042,  -0.00109,  -0.00394,429723360.00000,   0.00075,275463360.00000,  -0.00031,  -0.00048,  -0.00102,-45740000.00000,   0.00000
129261521.77308,-75474002.60158,-224845260.30951,   0.00042,  -0.00108,  -0.00394,429539072.00000,   0.00075,275463360.00000,  -0.00031,  -0.00048,  -0.00102,-45924288.00000,   0.00000
131844881.91384,-72903772.62672,-224602352.24037,   0.00043,  -0.00107,  -0.00394,429353632.00000,   0.00075,275463360.00000,  -0.00031,  -0.00048,  -0.00102,-46109728.00000,   0.00000
134395416.63985,-70366368.06661,-224359444.17123,   0.00044,  -0.00107,  -0.00393,429172032.00000,   0.00075,275463360.00000,  -0.00031,  -0.00048,  -0.00102,-46291328.00000,   0.00000
136955798.99028,-67805985.71618,-224103405.93618,   0.00044,  -0.00106,  -0.00393,428966496.00000,   0.00075,275463360.00000,  -0.00031,  -0.00048,  -0.00102,-46496864.00000,   0.00000
139493203.55038,-65255450.99018,-223840802.61819,   0.00045,  -0.00105,  -0.00393,428743360.00000,   0.00075,275463360.00000,  -0.00031,  -0.00048,  -0.00102,-46720000.00000,   0.00000
142063433.52524,-62672090.84942,-223571634.21725,   0.00046,  -0.00105,  -0.00392,428516128.00000,   0.00075,275463360.00000,  -0.00031,  -0.00048,  -0.00102,-46947232.00000,   0.00000
144600838.08535,-60121556.12342,-223302465.81630,   0.00046,  -0.00104,  -0.00392,428300736.00000,   0.00075,275463360.00000,  -0.00031,  -0.00048,  -0.00102,-47162624.00000,   0.00000
147125112.47955,-57557891.23151,-223020167.24946,   0.00047,  -0.00103,  -0.00392,428069600.00000,   0.00075,275463360.00000,  -0.00031,  -0.00048,  -0.00102,-47393760.00000,   0.00000
149649386.87376,-54994226.33960,-222731303.59967,   0.00048,  -0.00103,  -0.00391,427797472.00000,   0.00075,275463360.00000,  -0.00031,  -0.00048,  -0.00102,-47665888.00000,   0.00000
152183508.89239,-52407583.65737,-222442439.94988,   0.00048,  -0.00102,  -0.00391,427470464.00000,   0.00075,275463360.00000,  -0.00031,  -0.00048,  -0.00102,-47992896.00000,   0.00000
154717630.91102,-49820940.97514,-222140446.13419,   0.00049,  -0.00101,  -0.00390,427168576.00000,   0.00075,275463360.00000,  -0.00031,  -0.00048,  -0.00102,-48294784.00000,   0.00000
157228775.13933,-47244145.91734,-221831887.23554,   0.00049,  -0.00101,  -0.00390,426931296.00000,   0.00075,275463360.00000,  -0.00031,  -0.00048,  -0.00102,-48532064.00000,   0.00000
159739919.36764,-44667350.85953,-221523328.33690,   0.00050,  -0.00100,  -0.00390,426748032.00000,   0.00075,275463360.00000,  -0.00031,  -0.00048,  -0.00102,-48715328.00000,   0.00000
162237933.43004,-42077425.63583,-221201639.27236,   0.00051,  -0.00099,  -0.00389,426576064.00000,   0.00075,275463360.00000,  -0.00031,  -0.00048,  -0.00102,-48887296.00000,   0.00000
164735947.49245,-39487500.41212,-220873385.12487,   0.00051,  -0.00098,  -0.00389,426430208.00000,   0.00075,275463360.00000,  -0.00031,  -0.00048,  -0.00102,-49033152.00000,   0.00000
167233961.55486,-36897575.18842,-220545130.97738,   0.00052,  -0.00098,  -0.00388,426314304.00000,   0.00075,275463360.00000,  -0.00031,  -0.00048,  -0.00102,-49149056.00000,   0.00000
169708997.82694,-34317497.58914,-220203746.66399,   0.00053,  -0.00097,  -0.00388,426192960.00000,   0.00075,275463360.00000,  -0.00031,  -0.00048,  -0.00102,-49270400.00000,   0.00000
172193881.72345,-31714442.19953,-219862362.35060,   0.00053,  -0.00096,  -0.00387,426085216.00000,   0.00075,275463360.00000,  -0.00031,  -0.00048,  -0.00102,-49378144.00000,   0.00000
174678765.61996,-29111386.80993,-219507847.87131,   0.00054,  -0.00096,  -0.00387,425966368.00000,   0.00075,275463360.00000,  -0.00031,  -0.00048,  -0.00102,-49496992.00000,   0.00000
177140671.72614,-26518179.04475,-219153333.39202,   0.00054,  -0.00095,  -0.00387,425845152.00000,   0.00075,275463360.00000,  -0.00031,  -0.00048,  -0.00102,-49618208.00000,   0.00000
179589447.66643,-23911841.11367,-218785688.74683,   0.00055,  -0.00094,  -0.00386,425698048.00000,   0.00075,275463360.00000,  -0.00031,  -0.00048,  -0.00102,-49765312.00000,   0.00000
182038223.60671,-21305503.18259,-218411479.01869,   0.00056,  -0.00094,  -0.00386,425545824.00000,   0.00075,275463360.00000,  -0.00031,  -0.00048,  -0.00102,-49917536.00000,   0.00000
184486999.54700,-18699165.25151,-218037269.29055,   0.00056,  -0.00093,  -0.00385,425400736.00000,   0.00075,275463360.00000,  -0.00031,  -0.00048,  -0.00102,-50062624.00000,   0.00000
186912797.69695,-16102674.94485,-217649929.39651,   0.00057,  -0.00092,  -0.00385,425237952.00000,   0.00075,275463360.00000,  -0.00031,  -0.00048,  -0.00102,-50225408.00000,   0.00000
189338595.84691,-13506184.63820,-217262589.50247,   0.00057,  -0.00091,  -0.00384,425088672.00000,   0.00075,275463360.00000,  -0.00031,  -0.00048,  -0.00102,-50374688.00000,   0.00000
191751263.83097,-10896564.16564,-216862119.44253,   0.00058,  -0.00091,  -0.00384,424925952.00000,   0.00075,275463360.00000,  -0.00031,  -0.00048,  -0.00102,-50537408.00000,   0.00000
194163931.81503,-8286943.69309,-216461649.38259,   0.00059,  -0.00090,  -0.00383,424781152.00000,   0.00075,275463360.00000,  -0.00031,  -0.00048,  -0.00102,-50682208.00000,   0.00000
196576599.79909,-5677323.22053,-216048049.15675,   0.00059,  -0.00089,  -0.00383,424635040.00000,   0.00075,275463360.00000,  -0.00031,  -0.00048,  -0.00102,-50828320.00000,   0.00000
198976137.61725,-3054572.58208,-215634448.93091,   0.00060,  -0.00089,  -0.00382,424498496.00000,   0.00075,275463360.00000,  -0.00031,  -0.00048,  -0.00102,-50964864.00000,   0.00000
201342850.02067,-464647.35837,-215207718.53917,   0.00060,  -0.00088,  -0.00381,424352960.00000,   0.00075,275463360.00000,  -0.00031,  -0.00048,  -0.00102,-51110400.00000,   0.00000
203719410.04850,2148255.65566,-214774423.06448,   0.00061,  -0.00087,  -0.00381,424214560.00000,   0.00075,275463360.00000,  -0.00031,  -0.00048,  -0.00102,-51248800.00000,   0.00000
206095970.07634,4761158.66969,-214341127.58980,   0.00062,  -0.00086,  -0.00380,424092608.00000,   0.00075,275463360.00000,  -0.00031,  -0.00048,  -0.00102,-51370752.00000,   0.00000
208459399.93827,7387191.84962,-213894701.94921,   0.00062,  -0.00086,  -0.00380,423956448.00000,   0.00075,275463360.00000,  -0.00031,  -0.00048,  -0.00102,-51506912.00000,   0.00000
210790004.38546,9980399.61480,-213448276.30862,   0.00063,  -0.00085,  -0.00379,423822656.00000,   0.00075,275463360.00000,  -0.00031,  -0.00048,  -0.00102,-51640704.00000,   0.00000
213130456.45707,12596585.17030,-212988720.50213,   0.00063,  -0.00084,  -0.00379,423673216.00000,   0.00075,275463360.00000,  -0.00031,  -0.00048,  -0.00102,-51790144.00000,   0.00000
215470908.52869,15212770.72580,-212522599.61269,   0.00064,  -0.00083,  -0.00378,423523424.00000,   0.00075,275463360.00000,  -0.00031,  -0.00048,  -0.00102,-51939936.00000,   0.00000
217798230.43440,17842086.44721,-212056478.72326,   0.00064,  -0.00083,  -0.00377,423467392.00000,   0.00075,275463360.00000,  -0.00031,  -0.00048,  -0.00102,-51995968.00000,   0.00000
220092726.92536,20438576.75386,-211577227.66792,   0.00065,  -0.00082,  -0.00377,423488480.00000,   0.00075,275463360.00000,  -0.00031,  -0.00048,  -0.00102,-51974880.00000,   0.00000
222397071.04075,23058044.85084,-211097976.61258,   0.00065,  -0.00081,  -0.00376,423350848.00000,   0.00075,275463360.00000,  -0.00031,  -0.00048,  -0.00102,-52112512.00000,   0.00000
224678437.36581,25667665.32340,-210605595.39135,   0.00066,  -0.00080,  -0.00375,423116992.00000,   0.00075,275463360.00000,  -0.00031,  -0.00048,  -0.00102,-52346368.00000,   0.00000
226959803.69088,28277285.79595,-210106649.08716,   0.00066,  -0.00080,  -0.00375,422871680.00000,   0.00075,275463360.00000,  -0.00031,  -0.00048,  -0.00102,-52591680.00000,   0.00000
229218192.22561,30877058.64408,-209607702.78297,   0.00067,  -0.00079,  -0.00374,422620416.00000,   0.00075,275463360.00000,  -0.00031,  -0.00048,  -0.00102,-52842944.00000,   0.00000
231486428.38478,33499809.28254,-209095626.31289,   0.00068,  -0.00078,  -0.00374,422356096.00000,   0.00075,275463360.00000,  -0.00031,  -0.00048,  -0.00102,-53107264.00000,   0.00000
233721839.12919,36089734.50624,-208583549.84280,   0.00068,  -0.00078,  -0.00373,422097248.00000,   0.00075,275463360.00000,  -0.00031,  -0.00048,  -0.00102,-53366112.00000,   0.00000
235944119.70771,38692789.89585,-208058343.20681,   0.00069,  -0.00077,  -0.00372,421829888.00000,   0.00075,275463360.00000,  -0.00031,  -0.00048,  -0.00102,-53633472.00000,   0.00000
238166400.28622,41295845.28545,-207526571.48788,   0.00069,  -0.00076,  -0.00371,421573088.00000,   0.00075,275463360.00000,  -0.00031,  -0.00048,  -0.00102,-53890272.00000,   0.00000
240375550.69884,43912030.84096,-206994799.76894,   0.00070,  -0.00075,  -0.00371,421321344.00000,   0.00075,275463360.00000,  -0.00031,  -0.00048,  -0.00102,-54142016.00000,   0.00000
242574853.48703,46505238.60614,-206449897.88411,   0.00070,  -0.00074,  -0.00370,421074368.00000,   0.00075,275463360.00000,  -0.00031,  -0.00048,  -0.00102,-54388992.00000,   0.00000
244761026.10932,49111576.53722,-205898430.91632,   0.00070,  -0.00074,  -0.00369,420862144.00000,   0.00075,275463360.00000,  -0.00031,  -0.00048,  -0.00102,-54601216.00000,   0.00000
246947198.73161,51717914.46830,-205346963.94854,   0.00071,  -0.00073,  -0.00369,420711104.00000,   0.00075,275463360.00000,  -0.00031,  -0.00048,  -0.00102,-54752256.00000,   0.00000
249087415.77325,54304557.15053,-204782366.81485,   0.00071,  -0.00072,  -0.00368,420564992.00000,   0.00075,275463360.00000,  -0.00031,  -0.00048,  -0.00102,-54898368.00000,   0.00000
251250610.60522,56901047.45718,-204211204.59822,   0.00072,  -0.00071,  -0.00367,420450144.00000,   0.00075,275463360.00000,  -0.00031,  -0.00048,  -0.00102,-55013216.00000,   0.00000
253367849.85654,59477842.51499,-203640042.38158,   0.00072,  -0.00071,  -0.00366,420334976.00000,   0.00075,275463360.00000,  -0.00031,  -0.00048,  -0.00102,-55128384.00000,   0.00000
255494936.73228,62077615.36312,-203055749.99905,   0.00073,  -0.00070,  -0.00366,420216608.00000,   0.00075,275463360.00000,  -0.00031,  -0.00048,  -0.00102,-55246752.00000,   0.00000
257599045.81770,64667540.58682,-202464892.53357,   0.00073,  -0.00069,  -0.00365,420088288.00000,   0.00075,275463360.00000,  -0.00031,  -0.00048,  -0.00102,-55375072.00000,   0.00000
259703154.90312,67257465.81053,-201874035.06808,   0.00074,  -0.00068,  -0.00364,419968320.00000,   0.00075,275463360.00000,  -0.00031,  -0.00048,  -0.00102,-55495040.00000,   0.00000
261784286.19821,69837543.40981,-201270047.43670,   0.00074,  -0.00068,  -0.00363,419828000.00000,   0.00075,275463360.00000,  -0.00031,  -0.00048,  -0.00102,-55635360.00000,   0.00000
263842439.70298,72407773.38466,-200659494.72236,   0.00075,  -0.00067,  -0.00363,419679520.00000,   0.00075,275463360.00000,  -0.00031,  -0.00048,  -0.00102,-55783840.00000,   0.00000
265900593.20775,74978003.35952,-200048942.00803,   0.00075,  -0.00066,  -0.00362,419547488.00000,   0.00075,275463360.00000,  -0.00031,  -0.00048,  -0.00102,-55915872.00000,   0.00000
267945616.54662,77561363.50027,-199425259.12780,   0.00075,  -0.00065,  -0.00361,419407872.00000,   0.00075,275463360.00000,  -0.00031,  -0.00048,  -0.00102,-56055488.00000,   0.00000
269967662.09517,80134876.01660,-198801576.24756,   0.00076,  -0.00065,  -0.00360,419280000.00000,   0.00075,275463360.00000,  -0.00031,  -0.00048,  -0.00102,-56183360.00000,   0.00000
271956882.22896,82675563.11819,-198164763.20143,   0.00076,  -0.00064,  -0.00359,419143264.00000,   0.00075,275463360.00000,  -0.00031,  -0.00048,  -0.00102,-56320096.00000,   0.00000
273955949.98718,85239228.01009,-197521385.07235,   0.00077,  -0.00063,  -0.00358,419022432.00000,   0.00075,275463360.00000,  -0.00031,  -0.00048,  -0.00102,-56440928.00000,   0.00000
275941887.57951,87816023.06790,-196878006.94327,   0.00077,  -0.00062,  -0.00358,418913824.00000,   0.00075,275463360.00000,  -0.00031,  -0.00048,  -0.00102,-56549536.00000,   0.00000
277917977.54740,90369840.33538,-196221498.64828,   0.00078,  -0.00061,  -0.00357,418802176.00000,   0.00075,275463360.00000,  -0.00031,  -0.00048,  -0.00102,-56661184.00000,   0.00000
279871089.72497,92913809.97844,-195564990.35330,   0.00078,  -0.00061,  -0.00356,418693856.00000,   0.00075,275463360.00000,  -0.00031,  -0.00048,  -0.00102,-56769504.00000,   0.00000
281811071.73665,95470909.78739,-194895351.89242,   0.00078,  -0.00060,  -0.00355,418571040.00000,   0.00075,275463360.00000,  -0.00031,  -0.00048,  -0.00102,-56892320.00000,   0.00000
283728075.95800,98018161.97192,-194225713.43154,   0.00079,  -0.00059,  -0.00354,418446976.00000,   0.00075,275463360.00000,  -0.00031,  -0.00048,  -0.00102,-57016384.00000,   0.00000
285612254.76459,100532588.74171,-193542944.80476,   0.00079,  -0.00058,  -0.00353,418298976.00000,   0.00075,275463360.00000,  -0.00031,  -0.00048,  -0.00102,-57164384.00000,   0.00000
287506281.19562,103069993.30181,-192860176.17797,   0.00079,  -0.00058,  -0.00352,418162944.00000,   0.00075,275463360.00000,  -0.00031,  -0.00048,  -0.00102,-57300416.00000,   0.00000
289377329.83632,105597550.23749,-192164277.38529,   0.00080,  -0.00057,  -0.00351,418005760.00000,   0.00075,275463360.00000,  -0.00031,  -0.00048,  -0.00102,-57457600.00000,   0.00000
291235248.31112,108138237.33908,-191468378.59261,   0.00080,  -0.00056,  -0.00351,417849280.00000,   0.00075,275463360.00000,  -0.00031,  -0.00048,  -0.00102,-57614080.00000,   0.00000
293083319.16149,110655946.65033,-190759349.63403,   0.00080,  -0.00055,  -0.00350,417681472.00000,   0.00075,275463360.00000,  -0.00031,  -0.00048,  -0.00102,-57781888.00000,   0.00000
294885434.43122,113153960.71274,-190050320.67545,   0.00081,  -0.00054,  -0.00349,417499744.00000,   0.00075,275463360.00000,  -0.00031,  -0.00048,  -0.00102,-57963616.00000,   0.00000
296697397.32537,115674952.56547,-189334726.63392,   0.00081,  -0.00054,  -0.00348,417322336.00000,   0.00075,275463360.00000,  -0.00031,  -0.00048,  -0.00102,-58141024.00000,   0.00000
298476534.80477,118163119.00345,-188606002.42649,   0.00081,  -0.00053,  -0.00347,417121184.00000,   0.00075,275463360.00000,  -0.00031,  -0.00048,  -0.00102,-58342176.00000,   0.00000
300265519.90860,120674263.23176,-187877278.21906,   0.00082,  -0.00052,  -0.00346,416932352.00000,   0.00075,275463360.00000,  -0.00031,  -0.00048,  -0.00102,-58531008.00000,   0.00000
302008549.43178,123165712.21122,-187141988.92868,   0.00082,  -0.00051,  -0.00345,416719808.00000,   0.00075,275463360.00000,  -0.00031,  -0.00048,  -0.00102,-58743552.00000,   0.00000
303751578.95496,125657161.19068,-186400134.55535,   0.00082,  -0.00050,  -0.00344,416508864.00000,   0.00075,275463360.00000,  -0.00031,  -0.00048,  -0.00102,-58954496.00000,   0.00000
305471630.68781,128138762.54571,-185645150.01612,   0.00083,  -0.00050,  -0.00343,416280928.00000,   0.00075,275463360.00000,  -0.00031,  -0.00048,  -0.00102,-59182432.00000,   0.00000
307168704.63034,130610516.27632,-184890165.47689,   0.00083,  -0.00049,  -0.00342,416056480.00000,   0.00075,275463360.00000,  -0.00031,  -0.00048,  -0.00102,-59406880.00000,   0.00000
308842800.78254,133072422.38250,-184128615.85471,   0.00083,  -0.00048,  -0.00341,415830016.00000,   0.00075,275463360.00000,  -0.00031,  -0.00048,  -0.00102,-59633344.00000,   0.00000
310526744.55917,135557306.27901,-183360501.14958,   0.00084,  -0.00047,  -0.00340,415620832.00000,   0.00075,275463360.00000,  -0.00031,  -0.00048,  -0.00102,-59842528.00000,   0.00000
312154885.13073,137999517.13635,-182585821.36150,   0.00084,  -0.00046,  -0.00339,415397824.00000,   0.00075,275463360.00000,  -0.00031,  -0.00048,  -0.00102,-60065536.00000,   0.00000
313792873.32671,140464705.78400,-181804576.49047,   0.00084,  -0.00046,  -0.00338,415195584.00000,   0.00075,275463360.00000,  -0.00031,  -0.00048,  -0.00102,-60267776.00000,   0.00000
315398036.10794,142897069.01691,-181023331.61944,   0.00084,  -0.00045,  -0.00337,415000928.00000,   0.00075,275463360.00000,  -0.00031,  -0.00048,  -0.00102,-60462432.00000,   0.00000
316990068.72327,145342562.41572,-180228956.58251,   0.00085,  -0.00044,  -0.00336,414805120.00000,   0.00075,275463360.00000,  -0.00031,  -0.00048,  -0.00102,-60658240.00000,   0.00000
318559123.54828,147778208.19011,-179428016.46264,   0.00085,  -0.00043,  -0.00335,414610400.00000,   0.00075,275463360.00000,  -0.00031,  -0.00048,  -0.00102,-60852960.00000,   0.00000
320095352.95854,150181028.54974,-178620511.25981,   0.00085,  -0.00042,  -0.00334,414409696.00000,   0.00075,275463360.00000,  -0.00031,  -0.00048,  -0.00102,-61053664.00000,   0.00000
321641429.99322,152606826.69970,-177813006.05698,   0.00085,  -0.00042,  -0.00333,414234112.00000,   0.00075,275463360.00000,  -0.00031,  -0.00048,  -0.00102,-61229248.00000,   0.00000
323141551.44726,155012929.60081,-176992370.68825,   0.00086,  -0.00041,  -0.00332,414033600.00000,   0.00075,275463360.00000,  -0.00031,  -0.00048,  -0.00102,-61429760.00000,   0.00000
324641672.90129,157419032.50192,-176171735.31952,   0.00086,  -0.00040,  -0.00331,413852352.00000,   0.00075,275463360.00000,  -0.00031,  -0.00048,  -0.00102,-61611008.00000,   0.00000
326118816.56500,159815287.77861,-175337969.78490,   0.00086,  -0.00039,  -0.00330,413659744.00000,   0.00075,275463360.00000,  -0.00031,  -0.00048,  -0.00102,-61803616.00000,   0.00000
327572982.43839,162201695.43087,-174504204.25027,   0.00086,  -0.00038,  -0.00329,413472640.00000,   0.00075,275463360.00000,  -0.00031,  -0.00048,  -0.00102,-61990720.00000,   0.00000
329004170.52145,164578255.45870,-173663873.63269,   0.00086,  -0.00038,  -0.00327,413282752.00000,   0.00075,275463360.00000,  -0.00031,  -0.00048,  -0.00102,-62180608.00000,   0.00000
330412380.81419,166944967.86212,-172816977.93216,   0.00086,  -0.00037,  -0.00326,413089760.00000,   0.00075,275463360.00000,  -0.00031,  -0.00048,  -0.00102,-62373600.00000,   0.00000
331797613.31660,169301832.64110,-171963517.14869,   0.00087,  -0.00036,  -0.00325,412893344.00000,   0.00075,275463360.00000,  -0.00031,  -0.00048,  -0.00102,-62570016.00000,   0.00000
333169715.65311,171671827.58599,-171103491.28226,   0.00087,  -0.00035,  -0.00324,412698944.00000,   0.00075,275463360.00000,  -0.00031,  -0.00048,  -0.00102,-62764416.00000,   0.00000
334508992.57488,174008997.11612,-170236900.33288,   0.00087,  -0.00034,  -0.00323,412492608.00000,   0.00075,275463360.00000,  -0.00031,  -0.00048,  -0.00102,-62970752.00000,   0.00000
335825291.70632,176336319.02184,-169363744.30056,   0.00087,  -0.00034,  -0.00322,412279584.00000,   0.00075,275463360.00000,  -0.00031,  -0.00048,  -0.00102,-63183776.00000,   0.00000
337151438.46218,178686618.71787,-168484023.18528,   0.00087,  -0.00033,  -0.00321,412081216.00000,   0.00075,275463360.00000,  -0.00031,  -0.00048,  -0.00102,-63382144.00000,   0.00000
338421782.01297,180994245.37474,-167604302.07000,   0.00087,  -0.00032,  -0.00320,411859712.00000,   0.00075,275463360.00000,  -0.00031,  -0.00048,  -0.00102,-63603648.00000,   0.00000
339669147.77344,183292024.40717,-166711450.78883,   0.00088,  -0.00031,  -0.00318,411620032.00000,   0.00075,275463360.00000,  -0.00031,  -0.00048,  -0.00102,-63843328.00000,   0.00000
340926361.15833,185612781.22994,-165818599.50765,   0.00088,  -0.00030,  -0.00317,411399936.00000,   0.00075,275463360.00000,  -0.00031,  -0.00048,  -0.00102,-64063424.00000,   0.00000
342127771.33815,187890865.01353,-164919183.14353,   0.00088,  -0.00030,  -0.00316,411146112.00000,   0.00075,275463360.00000,  -0.00031,  -0.00048,  -0.00102,-64317248.00000,   0.00000
343329181.51796,190168948.79711,-164013201.69645,   0.00088,  -0.00029,  -0.00315,410896064.00000,   0.00075,275463360.00000,  -0.00031,  -0.00048,  -0.00102,-64567296.00000,   0.00000
344494483.74156,192450315.12218,-163100655.16643,   0.00088,  -0.00028,  -0.00314,410626240.00000,   0.00075,275463360.00000,  -0.00031,  -0.00048,  -0.00102,-64837120.00000,   0.00000
345649938.34073,194708703.65692,-162181543.55345,   0.00088,  -0.00027,  -0.00313,410353504.00000,   0.00075,275463360.00000,  -0.00031,  -0.00048,  -0.00102,-65109856.00000,   0.00000
346769284.98367,196970374.73313,-161255866.85753,   0.00088,  -0.00026,  -0.00311,410062720.00000,   0.00075,275463360.00000,  -0.00031,  -0.00048,  -0.00102,-65400640.00000,   0.00000
347878784.00219,199209068.01902,-160323625.07865,   0.00088,  -0.00026,  -0.00310,409770304.00000,   0.00075,275463360.00000,  -0.00031,  -0.00048,  -0.00102,-65693056.00000,   0.00000
348975152.85481,201460891.47081,-159391383.29978,   0.00088,  -0.00025,  -0.00309,409484672.00000,   0.00075,275463360.00000,  -0.00031,  -0.00048,  -0.00102,-65978688.00000,   0.00000
350015718.50236,203670041.88343,-158452576.43795,   0.00088,  -0.00024,  -0.00308,409169024.00000,   0.00075,275463360.00000,  -0.00031,  -0.00048,  -0.00102,-66294336.00000,   0.00000
351033306.35958,205869344.67162,-157500639.41023,   0.00088,  -0.00023,  -0.00306,408838912.00000,   0.00075,275463360.00000,  -0.00031,  -0.00048,  -0.00102,-66624448.00000,   0.00000
352060741.84123,208091625.25013,-156548702.38250,   0.00088,  -0.00022,  -0.00305,408533280.00000,   0.00075,275463360.00000,  -0.00031,  -0.00048,  -0.00102,-66930080.00000,   0.00000
353032374.11780,210271232.78947,-155590200.27183,   0.00088,  -0.00022,  -0.00304,408199552.00000,   0.00075,275463360.00000,  -0.00031,  -0.00048,  -0.00102,-67263808.00000,   0.00000
354004006.39438,212450840.32881,-154631698.16115,   0.00088,  -0.00021,  -0.00303,407882528.00000,   0.00075,275463360.00000,  -0.00031,  -0.00048,  -0.00102,-67580832.00000,   0.00000
354939530.71473,214633730.40963,-153660065.88458,   0.00088,  -0.00020,  -0.00301,407545696.00000,   0.00075,275463360.00000,  -0.00031,  -0.00048,  -0.00102,-67917664.00000,   0.00000
355842229.62033,216783795.07570,-152688433.60801,   0.00088,  -0.00019,  -0.00300,407202336.00000,   0.00075,275463360.00000,  -0.00031,  -0.00048,  -0.00102,-68261024.00000,   0.00000
356744928.52593,218933859.74176,-151710236.24848,   0.00088,  -0.00018,  -0.00299,406867424.00000,   0.00075,275463360.00000,  -0.00031,  -0.00048,  -0.00102,-68595936.00000,   0.00000
357601671.85088,221064229.15898,-150725473.80601,   0.00088,  -0.00017,  -0.00298,406510720.00000,   0.00075,275463360.00000,  -0.00031,  -0.00048,  -0.00102,-68952640.00000,   0.00000
358445285.00993,223207728.74210,-149734146.28059,   0.00088,  -0.00017,  -0.00296,406154944.00000,   0.00075,275463360.00000,  -0.00031,  -0.00048,  -0.00102,-69308416.00000,   0.00000
359256072.75423,225318402.91047,-148736253.67221,   0.00088,  -0.00016,  -0.00295,405782464.00000,   0.00075,275463360.00000,  -0.00031,  -0.00048,  -0.00102,-69680896.00000,   0.00000
360043882.70821,227419229.45441,-147731795.98089,   0.00088,  -0.00015,  -0.00294,405401536.00000,   0.00075,275463360.00000,  -0.00031,  -0.00048,  -0.00102,-70061824.00000,   0.00000
360808714.87187,229510208.37393,-146727338.28957,   0.00088,  -0.00014,  -0.00292,405019072.00000,   0.00075,275463360.00000,  -0.00031,  -0.00048,  -0.00102,-70444288.00000,   0.00000
361527591.45487,231581492.04460,-145716315.51529,   0.00088,  -0.00013,  -0.00291,404612576.00000,   0.00075,275463360.00000,  -0.00031,  -0.00048,  -0.00102,-70850784.00000,   0.00000
362246468.03788,233652775.71527,-144698727.65807,   0.00088,  -0.00013,  -0.00290,404211808.00000,   0.00075,275463360.00000,  -0.00031,  -0.00048,  -0.00102,-71251552.00000,   0.00000
362919389.04024,235704364.13709,-143674574.71790,   0.00088,  -0.00012,  -0.00288,403787520.00000,   0.00075,275463360.00000,  -0.00031,  -0.00048,  -0.00102,-71675840.00000,   0.00000
363582462.41817,237732974.76858,-142650421.77773,   0.00088,  -0.00011,  -0.00287,403368064.00000,   0.00075,275463360.00000,  -0.00031,  -0.00048,  -0.00102,-72095296.00000,   0.00000
364209427.83988,239764867.94155,-141619703.75460,   0.00088,  -0.00010,  -0.00286,402934688.00000,   0.00075,275463360.00000,  -0.00031,  -0.00048,  -0.00102,-72528672.00000,   0.00000
364813415.47126,241786913.49010,-140582420.64853,   0.00088,  -0.00009,  -0.00284,402493952.00000,   0.00075,275463360.00000,  -0.00031,  -0.00048,  -0.00102,-72969408.00000,   0.00000
365407555.47822,243785981.24832,-139538572.45951,   0.00087,  -0.00009,  -0.00283,402052640.00000,   0.00075,275463360.00000,  -0.00031,  -0.00048,  -0.00102,-73410720.00000,   0.00000
365942609.73863,245778483.92359,-138488159.18754,   0.00087,  -0.00008,  -0.00282,401584000.00000,   0.00075,275463360.00000,  -0.00031,  -0.00048,  -0.00102,-73879360.00000,   0.00000
366467816.37462,247748008.80854,-137437745.91557,   0.00087,  -0.00007,  -0.00280,401122208.00000,   0.00075,275463360.00000,  -0.00031,  -0.00048,  -0.00102,-74341152.00000,   0.00000
366979892.84470,249730663.85938,-136380767.56065,   0.00087,  -0.00006,  -0.00279,400664576.00000,   0.00075,275463360.00000,  -0.00031,  -0.00048,  -0.00102,-74798784.00000,   0.00000
367436166.10971,251670645.87106,-135317224.12277,   0.00087,  -0.00005,  -0.00278,400176448.00000,   0.00075,275463360.00000,  -0.00031,  -0.00048,  -0.00102,-75286912.00000,   0.00000
367892439.37473,253610627.88273,-134247115.60195,   0.00087,  -0.00005,  -0.00276,399698304.00000,   0.00075,275463360.00000,  -0.00031,  -0.00048,  -0.00102,-75765056.00000,   0.00000
368302757.05909,255530914.64555,-133177007.08113,   0.00086,  -0.00004,  -0.00275,399205760.00000,   0.00075,275463360.00000,  -0.00031,  -0.00048,  -0.00102,-76257600.00000,   0.00000
368690096.95313,257441353.78395,-132100333.47736,   0.00086,  -0.00003,  -0.00273,398707072.00000,   0.00075,275463360.00000,  -0.00031,  -0.00048,  -0.00102,-76756288.00000,   0.00000
369054459.05685,259341945.29793,-131017094.79064,   0.00086,  -0.00002,  -0.00272,398202400.00000,   0.00075,275463360.00000,  -0.00031,  -0.00048,  -0.00102,-77260960.00000,   0.00000
369395843.37024,261232689.18747,-129927291.02097,   0.00086,  -0.00002,  -0.00271,397691648.00000,   0.00075,275463360.00000,  -0.00031,  -0.00048,  -0.00102,-77771712.00000,   0.00000
369681424.47855,263080760.03785,-128837487.25130,   0.00086,  -0.00001,  -0.00269,397155136.00000,   0.00075,275463360.00000,  -0.00031,  -0.00048,  -0.00102,-78308224.00000,   0.00000
369953875.42097,264941961.05412,-127741118.39868,   0.00085,   0.00000,  -0.00268,396623808.00000,   0.00075,275463360.00000,  -0.00031,  -0.00048,  -0.00102,-78839552.00000,   0.00000
370193500.94864,266770336.65565,-126638184.46311,   0.00085,   0.00001,  -0.00266,396078880.00000,   0.00075,275463360.00000,  -0.00031,  -0.00048,  -0.00102,-79384480.00000,   0.00000
370410148.68598,268588864.63275,-125528685.44459,   0.00085,   0.00002,  -0.00265,395534112.00000,   0.00075,275463360.00000,  -0.00031,  -0.00048,  -0.00102,-79929248.00000,   0.00000
370613666.25743,270420522.77575,-124419186.42607,   0.00085,   0.00002,  -0.00263,395013120.00000,   0.00075,275463360.00000,  -0.00031,  -0.00048,  -0.00102,-80450240.00000,   0.00000
370784358.41412,272219355.50400,-123303122.32460,   0.00084,   0.00003,  -0.00262,394496416.00000,   0.00075,275463360.00000,  -0.00031,  -0.00048,  -0.00102,-80966944.00000,   0.00000
370909094.99017,273998492.98341,-122187058.22313,   0.00084,   0.00004,  -0.00261,393992736.00000,   0.00075,275463360.00000,  -0.00031,  -0.00048,  -0.00102,-81470624.00000,   0.00000
371001006.15147,275744805.04806,-121057863.95576,   0.00084,   0.00005,  -0.00259,393496096.00000,   0.00075,275463360.00000,  -0.00031,  -0.00048,  -0.00102,-81967264.00000,   0.00000
371079787.14687,277504247.27861,-119935234.77134,   0.00083,   0.00006,  -0.00258,393032992.00000,   0.00075,275463360.00000,  -0.00031,  -0.00048,  -0.00102,-82430368.00000,   0.00000
371102764.93719,279221016.46999,-118799475.42102,   0.00083,   0.00006,  -0.00256,392515264.00000,   0.00075,275463360.00000,  -0.00031,  -0.00048,  -0.00102,-82948096.00000,   0.00000
371135590.35194,280960763.45169,-117663716.07070,   0.00083,   0.00007,  -0.00255,391984256.00000,   0.00075,275463360.00000,  -0.00031,  -0.00048,  -0.00102,-83479104.00000,   0.00000
371112612.56162,282657837.39422,-116521391.63743,   0.00082,   0.00008,  -0.00253,391378816.00000,   0.00075,275463360.00000,  -0.00031,  -0.00048,  -0.00102,-84084544.00000,   0.00000
371066656.98097,284345063.71233,-115372502.12121,   0.00082,   0.00009,  -0.00252,390748672.00000,   0.00075,275463360.00000,  -0.00031,  -0.00048,  -0.00102,-84714688.00000,   0.00000
370997723.60999,286022442.40601,-114223612.60499,   0.00082,   0.00009,  -0.00250,390119968.00000,   0.00075,275463360.00000,  -0.00031,  -0.00048,  -0.00102,-85343392.00000,   0.00000
370882834.65837,287680125.85084,-113068158.00582,   0.00081,   0.00010,  -0.00249,389479648.00000,   0.00075,275463360.00000,  -0.00031,  -0.00048,  -0.00102,-85983712.00000,   0.00000
370735120.29200,289304983.88092,-111906138.32371,   0.00081,   0.00011,  -0.00247,388832704.00000,   0.00075,275463360.00000,  -0.00031,  -0.00048,  -0.00102,-86630656.00000,   0.00000
370574275.75973,290942972.07690,-110744118.64159,   0.00081,   0.00012,  -0.00246,388205984.00000,   0.00075,275463360.00000,  -0.00031,  -0.00048,  -0.00102,-87257376.00000,   0.00000
370380605.81271,292548134.85813,-109575533.87652,   0.00080,   0.00013,  -0.00244,387567648.00000,   0.00075,275463360.00000,  -0.00031,  -0.00048,  -0.00102,-87895712.00000,   0.00000
370140980.28504,294133602.39051,-108406949.11145,   0.00080,   0.00013,  -0.00243,386915840.00000,   0.00075,275463360.00000,  -0.00031,  -0.00048,  -0.00102,-88547520.00000,   0.00000
369878376.96705,295709222.29847,-107231799.26343,   0.00079,   0.00014,  -0.00241,386259968.00000,   0.00075,275463360.00000,  -0.00031,  -0.00048,  -0.00102,-89203392.00000,   0.00000
369592795.85873,297274994.58200,-106050084.33246,   0.00079,   0.00015,  -0.00240,385598240.00000,   0.00075,275463360.00000,  -0.00031,  -0.00048,  -0.00102,-89865120.00000,   0.00000
369251411.54534,298798093.82636,-104868369.40150,   0.00078,   0.00016,  -0.00238,384906400.00000,   0.00075,275463360.00000,  -0.00031,  -0.00048,  -0.00102,-90556960.00000,   0.00000
368896897.06605,300334323.23662,-103680089.38758,   0.00078,   0.00016,  -0.00236,384219872.00000,   0.00075,275463360.00000,  -0.00031,  -0.00048,  -0.00102,-91243488.00000,   0.00000
368509557.17201,301837727.23213,-102485244.29071,   0.00078,   0.00017,  -0.00235,383513376.00000,   0.00075,275463360.00000,  -0.00031,  -0.00048,  -0.00102,-91949984.00000,   0.00000
368099239.48765,303331283.60321,-101290399.19384,   0.00077,   0.00018,  -0.00233,382804608.00000,   0.00075,275463360.00000,  -0.00031,  -0.00048,  -0.00102,-92658752.00000,   0.00000
367633118.59821,304782166.93513,-100088989.01402,   0.00077,   0.00019,  -0.00232,382059584.00000,   0.00075,275463360.00000,  -0.00031,  -0.00048,  -0.00102,-93403776.00000,   0.00000
367153867.54287,306246180.43294,-98887578.83421,   0.00076,   0.00019,  -0.00230,381326016.00000,   0.00075,275463360.00000,  -0.00031,  -0.00048,  -0.00102,-94137344.00000,   0.00000
366641791.07279,307677368.51600,-97679603.57144,   0.00076,   0.00020,  -0.00229,380573088.00000,   0.00075,275463360.00000,  -0.00031,  -0.00048,  -0.00102,-94890272.00000,   0.00000
366093606.64648,309111839.14053,-96471628.30867,   0.00075,   0.00021,  -0.00227,379816544.00000,   0.00075,275463360.00000,  -0.00031,  -0.00048,  -0.00102,-95646816.00000,   0.00000
365502749.18099,310490506.56000,-95257087.96295,   0.00074,   0.00022,  -0.00226,379028736.00000,   0.00075,275463360.00000,  -0.00031,  -0.00048,  -0.00102,-96434624.00000,   0.00000
364898761.54961,311882304.14536,-94042547.61724,   0.00074,   0.00022,  -0.00224,378254400.00000,   0.00075,275463360.00000,  -0.00031,  -0.00048,  -0.00102,-97208960.00000,   0.00000
364248818.33758,313254406.48187,-92814877.10562,   0.00073,   0.00023,  -0.00222,377455648.00000,   0.00075,275463360.00000,  -0.00031,  -0.00048,  -0.00102,-98007712.00000,   0.00000
363566049.71079,314593683.40364,-91593771.67695,   0.00073,   0.00024,  -0.00221,376650048.00000,   0.00075,275463360.00000,  -0.00031,  -0.00048,  -0.00102,-98813312.00000,   0.00000
362860303.29369,315923112.70098,-90366101.16534,   0.00072,   0.00025,  -0.00219,375841984.00000,   0.00075,275463360.00000,  -0.00031,  -0.00048,  -0.00102,-99621376.00000,   0.00000
362108601.29593,317232846.74947,-89131865.57077,   0.00072,   0.00025,  -0.00218,375016576.00000,   0.00075,275463360.00000,  -0.00031,  -0.00048,  -0.00102,-100446784.00000,   0.00000
361333921.50785,318532733.17353,-87897629.97620,   0.00071,   0.00026,  -0.00216,374194816.00000,   0.00075,275463360.00000,  -0.00031,  -0.00048,  -0.00102,-101268544.00000,   0.00000
360526416.30503,319799794.18285,-86656829.29869,   0.00070,   0.00027,  -0.00214,373358976.00000,   0.00075,275463360.00000,  -0.00031,  -0.00048,  -0.00102,-102104384.00000,   0.00000
359672955.52155,321047159.94331,-85416028.62117,   0.00070,   0.00028,  -0.00213,372511936.00000,   0.00075,275463360.00000,  -0.00031,  -0.00048,  -0.00102,-102951424.00000,   0.00000
358796516.94775,322284678.07935,-84168662.86070,   0.00069,   0.00028,  -0.00211,371665856.00000,   0.00075,275463360.00000,  -0.00031,  -0.00048,  -0.00102,-103797504.00000,   0.00000
357897100.58362,323512348.59097,-82921297.10024,   0.00068,   0.00029,  -0.00209,370825376.00000,   0.00075,275463360.00000,  -0.00031,  -0.00048,  -0.00102,-104637984.00000,   0.00000
356941881.01442,324697346.06341,-81673931.33977,   0.00068,   0.00030,  -0.00208,369960480.00000,   0.00075,275463360.00000,  -0.00031,  -0.00048,  -0.00102,-105502880.00000,   0.00000
355963683.65490,325872495.91143,-80413435.41340,   0.00067,   0.00031,  -0.00206,369093024.00000,   0.00075,275463360.00000,  -0.00031,  -0.00048,  -0.00102,-106370336.00000,   0.00000
354939530.71473,327027950.51060,-79159504.56999,   0.00066,   0.00031,  -0.00205,368219552.00000,   0.00075,275463360.00000,  -0.00031,  -0.00048,  -0.00102,-107243808.00000,   0.00000
353892399.98423,328173557.48535,-77899008.64362,   0.00066,   0.00032,  -0.00203,367347776.00000,   0.00075,275463360.00000,  -0.00031,  -0.00048,  -0.00102,-108115584.00000,   0.00000
352812443.83898,329286339.04534,-76631947.63431,   0.00065,   0.00033,  -0.00201,366462272.00000,   0.00075,275463360.00000,  -0.00031,  -0.00048,  -0.00102,-109001088.00000,   0.00000
351686532.11309,330379425.35649,-75364886.62499,   0.00064,   0.00033,  -0.00200,365565792.00000,   0.00075,275463360.00000,  -0.00031,  -0.00048,  -0.00102,-109897568.00000,   0.00000
350537642.59687,331462664.04321,-74097825.61567,   0.00064,   0.00034,  -0.00198,364673664.00000,   0.00075,275463360.00000,  -0.00031,  -0.00048,  -0.00102,-110789696.00000,   0.00000
349365775.29033,332536055.10550,-72824199.52341,   0.00063,   0.00035,  -0.00196,363781536.00000,   0.00075,275463360.00000,  -0.00031,  -0.00048,  -0.00102,-111681824.00000,   0.00000
348138104.77871,333566773.12862,-71544008.34819,   0.00062,   0.00036,  -0.00195,362858112.00000,   0.00075,275463360.00000,  -0.00031,  -0.00048,  -0.00102,-112605248.00000,   0.00000
346887456.47677,334587643.52732,-70270382.25593,   0.00061,   0.00036,  -0.00193,361942048.00000,   0.00075,275463360.00000,  -0.00031,  -0.00048,  -0.00102,-113521312.00000,   0.00000
345590852.59418,335588818.67717,-68983625.99776,   0.00061,   0.00037,  -0.00191,361005760.00000,   0.00075,275463360.00000,  -0.00031,  -0.00048,  -0.00102,-114457600.00000,   0.00000
344261423.29684,336557168.41227,-67703434.82255,   0.00060,   0.00038,  -0.00190,360061920.00000,   0.00075,275463360.00000,  -0.00031,  -0.00048,  -0.00102,-115401440.00000,   0.00000
342895886.04328,337528800.68884,-66416678.56438,   0.00059,   0.00038,  -0.00188,359118432.00000,   0.00075,275463360.00000,  -0.00031,  -0.00048,  -0.00102,-116344928.00000,   0.00000
341497523.37496,338467607.55067,-65123357.22327,   0.00058,   0.00039,  -0.00186,358161536.00000,   0.00075,275463360.00000,  -0.00031,  -0.00048,  -0.00102,-117301824.00000,   0.00000
340066335.29190,339373588.99774,-63830035.88215,   0.00057,   0.00040,  -0.00185,357196288.00000,   0.00075,275463360.00000,  -0.00031,  -0.00048,  -0.00102,-118267072.00000,   0.00000
338589191.62819,340259875.19597,-62536714.54104,   0.00056,   0.00040,  -0.00183,356223936.00000,   0.00075,275463360.00000,  -0.00031,  -0.00048,  -0.00102,-119239424.00000,   0.00000
337089070.17416,341136313.76977,-61243393.19992,   0.00056,   0.00041,  -0.00181,355262208.00000,   0.00075,275463360.00000,  -0.00031,  -0.00048,  -0.00102,-120201152.00000,   0.00000
335542993.13947,341993057.09472,-59943506.77586,   0.00055,   0.00042,  -0.00180,354294144.00000,   0.00075,275463360.00000,  -0.00031,  -0.00048,  -0.00102,-121169216.00000,   0.00000
333973938.31447,342839952.79525,-58637055.26884,   0.00054,   0.00043,  -0.00178,353337440.00000,   0.00075,275463360.00000,  -0.00031,  -0.00048,  -0.00102,-122125920.00000,   0.00000
332349080.28438,343644175.45660,-57337168.84478,   0.00053,   0.00043,  -0.00176,352369184.00000,   0.00075,275463360.00000,  -0.00031,  -0.00048,  -0.00102,-123094176.00000,   0.00000
330701244.46398,344438550.49353,-56030717.33776,   0.00052,   0.00044,  -0.00175,351415776.00000,   0.00075,275463360.00000,  -0.00031,  -0.00048,  -0.00102,-124047584.00000,   0.00000
329020583.22882,345200100.11571,-54717700.74780,   0.00051,   0.00045,  -0.00173,350462144.00000,   0.00075,275463360.00000,  -0.00031,  -0.00048,  -0.00102,-125001216.00000,   0.00000
327293966.41302,345941954.48904,-53411249.24078,   0.00050,   0.00045,  -0.00171,349515392.00000,   0.00075,275463360.00000,  -0.00031,  -0.00048,  -0.00102,-125947968.00000,   0.00000
325544371.80689,346673961.23795,-52091667.56787,   0.00049,   0.00046,  -0.00169,348582144.00000,   0.00075,275463360.00000,  -0.00031,  -0.00048,  -0.00102,-126881216.00000,   0.00000
323748821.62012,347386272.73800,-50778650.97790,   0.00048,   0.00047,  -0.00168,347655456.00000,   0.00075,275463360.00000,  -0.00031,  -0.00048,  -0.00102,-127807904.00000,   0.00000
321920446.01859,348065758.82331,-49459069.30499,   0.00047,   0.00047,  -0.00166,346725312.00000,   0.00075,275463360.00000,  -0.00031,  -0.00048,  -0.00102,-128738048.00000,   0.00000
320046114.83642,348725549.65977,-48139487.63207,   0.00046,   0.00048,  -0.00164,345792928.00000,   0.00075,275463360.00000,  -0.00031,  -0.00048,  -0.00102,-129670432.00000,   0.00000
318138958.23949,349352515.08147,-46819905.95916,   0.00045,   0.00049,  -0.00163,344851328.00000,   0.00075,275463360.00000,  -0.00031,  -0.00048,  -0.00102,-130612032.00000,   0.00000
316185846.06192,349959785.25433,-45500324.28625,   0.00044,   0.00049,  -0.00161,343897184.00000,   0.00075,275463360.00000,  -0.00031,  -0.00048,  -0.00102,-131566176.00000,   0.00000
314209756.09402,350557207.80277,-44174177.53038,   0.00043,   0.00050,  -0.00159,342937472.00000,   0.00075,275463360.00000,  -0.00031,  -0.00048,  -0.00102,-132525888.00000,   0.00000
312210688.33580,351144782.72678,-42841465.69157,   0.00042,   0.00051,  -0.00157,341970656.00000,   0.00075,275463360.00000,  -0.00031,  -0.00048,  -0.00102,-133492704.00000,   0.00000
310155817.37251,351689684.61161,-41515318.93570,   0.00041,   0.00051,  -0.00156,340975904.00000,   0.00075,275463360.00000,  -0.00031,  -0.00048,  -0.00102,-134487456.00000,   0.00000
308054990.82856,352214891.24760,-40182607.09689,   0.00040,   0.00052,  -0.00154,339973632.00000,   0.00075,275463360.00000,  -0.00031,  -0.00048,  -0.00102,-135489728.00000,   0.00000
305921338.86987,352707272.46883,-38849895.25807,   0.00039,   0.00052,  -0.00152,338972256.00000,   0.00075,275463360.00000,  -0.00031,  -0.00048,  -0.00102,-136491104.00000,   0.00000
303764709.12086,353189806.06565,-37517183.41926,   0.00038,   0.00053,  -0.00150,337992544.00000,   0.00075,275463360.00000,  -0.00031,  -0.00048,  -0.00102,-137470816.00000,   0.00000
301562123.79119,353652644.41361,-36184471.58045,   0.00037,   0.00054,  -0.00149,337019712.00000,   0.00075,275463360.00000,  -0.00031,  -0.00048,  -0.00102,-138443648.00000,   0.00000
299336560.67120,354105635.13715,-34845194.65868,   0.00036,   0.00054,  -0.00147,336061536.00000,   0.00075,275463360.00000,  -0.00031,  -0.00048,  -0.00102,-139401824.00000,   0.00000
297055194.34614,354515952.82151,-33505917.73692,   0.00035,   0.00055,  -0.00145,335085568.00000,   0.00075,275463360.00000,  -0.00031,  -0.00048,  -0.00102,-140377792.00000,   0.00000
294718024.81600,354883597.46670,-32166640.81515,   0.00034,   0.00056,  -0.00143,334089632.00000,   0.00075,275463360.00000,  -0.00031,  -0.00048,  -0.00102,-141373728.00000,   0.00000
292367725.11996,355264372.27779,-30820798.81044,   0.00032,   0.00056,  -0.00142,333119616.00000,   0.00075,275463360.00000,  -0.00031,  -0.00048,  -0.00102,-142343744.00000,   0.00000
289984600.00918,355612321.67413,-29481521.88868,   0.00031,   0.00057,  -0.00140,332146400.00000,   0.00075,275463360.00000,  -0.00031,  -0.00048,  -0.00102,-143316960.00000,   0.00000
287545671.69332,355917598.03130,-28135679.88396,   0.00030,   0.00058,  -0.00138,331154016.00000,   0.00075,275463360.00000,  -0.00031,  -0.00048,  -0.00102,-144309344.00000,   0.00000
285083765.58713,356213026.76404,-26789837.87925,   0.00029,   0.00058,  -0.00137,330179328.00000,   0.00075,275463360.00000,  -0.00031,  -0.00048,  -0.00102,-145284032.00000,   0.00000
282575903.90030,356488760.24793,-25443995.87454,   0.00028,   0.00059,  -0.00135,329211616.00000,   0.00075,275463360.00000,  -0.00031,  -0.00048,  -0.00102,-146251744.00000,   0.00000
280045064.42314,356754646.10740,-24098153.86982,   0.00027,   0.00059,  -0.00133,328266656.00000,   0.00075,275463360.00000,  -0.00031,  -0.00048,  -0.00102,-147196704.00000,   0.00000
277458421.74091,356977858.92769,-22745746.78216,   0.00025,   0.00060,  -0.00131,327313088.00000,   0.00075,275463360.00000,  -0.00031,  -0.00048,  -0.00102,-148150272.00000,   0.00000
274815975.85361,357158398.70881,-21393339.69450,   0.00024,   0.00061,  -0.00129,326352192.00000,   0.00075,275463360.00000,  -0.00031,  -0.00048,  -0.00102,-149111168.00000,   0.00000
272160399.80041,357352068.65583,-20047497.68978,   0.00023,   0.00061,  -0.00128,325434752.00000,   0.00075,275463360.00000,  -0.00031,  -0.00048,  -0.00102,-150028608.00000,   0.00000
269471998.33245,357512913.18810,-18695090.60212,   0.00022,   0.00062,  -0.00126,324523520.00000,   0.00075,275463360.00000,  -0.00031,  -0.00048,  -0.00102,-150939840.00000,   0.00000
266727793.65943,357631084.68120,-17336118.43150,   0.00020,   0.00062,  -0.00124,323609632.00000,   0.00075,275463360.00000,  -0.00031,  -0.00048,  -0.00102,-151853728.00000,   0.00000
263960611.19608,357739408.54987,-15983711.34384,   0.00019,   0.00063,  -0.00122,322732000.00000,   0.00075,275463360.00000,  -0.00031,  -0.00048,  -0.00102,-152731360.00000,   0.00000
261147473.15208,357828037.16970,-14631304.25618,   0.00018,   0.00064,  -0.00121,321877632.00000,   0.00075,275463360.00000,  -0.00031,  -0.00048,  -0.00102,-153585728.00000,   0.00000
258278531.90301,357873992.75034,-13272332.08556,   0.00016,   0.00064,  -0.00119,321025120.00000,   0.00075,275463360.00000,  -0.00031,  -0.00048,  -0.00102,-154438240.00000,   0.00000
255386612.86361,357910100.70657,-11919924.99790,   0.00015,   0.00065,  -0.00117,320202400.00000,   0.00075,275463360.00000,  -0.00031,  -0.00048,  -0.00102,-155260960.00000,   0.00000
252461868.40946,357913383.24804,-10560952.82729,   0.00014,   0.00065,  -0.00115,319384832.00000,   0.00075,275463360.00000,  -0.00031,  -0.00048,  -0.00102,-156078528.00000,   0.00000
249501015.99909,357919948.33099,-9201980.65667,   0.00012,   0.00066,  -0.00114,318598592.00000,   0.00075,275463360.00000,  -0.00031,  -0.00048,  -0.00102,-156864768.00000,   0.00000
246474512.75922,357860862.58445,-7843008.48606,   0.00011,   0.00066,  -0.00112,317790208.00000,   0.00075,275463360.00000,  -0.00031,  -0.00048,  -0.00102,-157673152.00000,   0.00000
243425031.72903,357791929.21347,-6484036.31545,   0.00010,   0.00067,  -0.00110,317020160.00000,   0.00075,275463360.00000,  -0.00031,  -0.00048,  -0.00102,-158443200.00000,   0.00000
240352572.90851,357713148.21807,-5125064.14483,   0.00008,   0.00068,  -0.00108,316301248.00000,   0.00075,275463360.00000,  -0.00031,  -0.00048,  -0.00102,-159162112.00000,   0.00000
237234158.50735,357614671.97383,-3766091.97422,   0.00007,   0.00068,  -0.00107,315638016.00000,   0.00075,275463360.00000,  -0.00031,  -0.00048,  -0.00102,-159825344.00000,   0.00000
234059940.90111,357473522.69041,-2407119.80361,   0.00005,   0.00069,  -0.00105,315018048.00000,   0.00075,275463360.00000,  -0.00031,  -0.00048,  -0.00102,-160445312.00000,   0.00000
230852897.88012,357299547.99224,-1041582.55004,   0.00004,   0.00069,  -0.00103,314399616.00000,   0.00075,275463360.00000,  -0.00031,  -0.00048,  -0.00102,-161063744.00000,   0.00000
227599899.27848,357105878.04522,317389.62057,   0.00003,   0.00070,  -0.00101,313730208.00000,   0.00075,275463360.00000,  -0.00031,  -0.00048,  -0.00102,-161733152.00000,   0.00000
224323922.88652,356902360.47377,1676361.79118,   0.00001,   0.00070,  -0.00099,313074400.00000,   0.00075,275463360.00000,  -0.00031,  -0.00048,  -0.00102,-162388960.00000,   0.00000
220992143.28949,356656169.86315,3041899.04475,  -0.00000,   0.00071,  -0.00098,312448128.00000,   0.00075,275463360.00000,  -0.00031,  -0.00048,  -0.00102,-163015232.00000,   0.00000
217637385.90213,356400131.62811,4400871.21536,  -0.00002,   0.00071,  -0.00096,311872192.00000,   0.00075,275463360.00000,  -0.00031,  -0.00048,  -0.00102,-163591168.00000,   0.00000
214236672.93412,356124398.14422,5766408.46892,  -0.00003,   0.00072,  -0.00094,311318336.00000,   0.00075,275463360.00000,  -0.00031,  -0.00048,  -0.00102,-164145024.00000,   0.00000
210803134.55136,355815839.24558,7125380.63954,  -0.00005,   0.00072,  -0.00092,310768704.00000,   0.00075,275463360.00000,  -0.00031,  -0.00048,  -0.00102,-164694656.00000,   0.00000
207313792.96353,355464607.30776,8484352.81015,  -0.00006,   0.00073,  -0.00091,310210656.00000,   0.00075,275463360.00000,  -0.00031,  -0.00048,  -0.00102,-165252704.00000,   0.00000
203778495.79505,355093680.12109,9849890.06371,  -0.00008,   0.00073,  -0.00089,309666880.00000,   0.00075,275463360.00000,  -0.00031,  -0.00048,  -0.00102,-165796480.00000,   0.00000
200220220.83625,354712905.31000,11208862.23433,  -0.00009,   0.00074,  -0.00087,309151552.00000,   0.00075,275463360.00000,  -0.00031,  -0.00048,  -0.00102,-166311808.00000,   0.00000
196629120.46269,354299305.08417,12574399.48789,  -0.00011,   0.00075,  -0.00085,308651616.00000,   0.00075,275463360.00000,  -0.00031,  -0.00048,  -0.00102,-166811744.00000,   0.00000
192992064.50849,353866009.60948,13933371.65850,  -0.00012,   0.00075,  -0.00084,308182240.00000,   0.00075,275463360.00000,  -0.00031,  -0.00048,  -0.00102,-167281120.00000,   0.00000
189299205.34922,353390041.09562,15292343.82912,  -0.00014,   0.00076,  -0.00082,307730464.00000,   0.00075,275463360.00000,  -0.00031,  -0.00048,  -0.00102,-167732896.00000,   0.00000
185583368.39962,352904224.95733,16657881.08268,  -0.00016,   0.00076,  -0.00080,307332192.00000,   0.00075,275463360.00000,  -0.00031,  -0.00048,  -0.00102,-168131168.00000,   0.00000
181834706.03527,352385583.40429,18016853.25329,  -0.00017,   0.00077,  -0.00078,306969536.00000,   0.00075,275463360.00000,  -0.00031,  -0.00048,  -0.00102,-168493824.00000,   0.00000
178017110.29994,351837398.97798,19375825.42391,  -0.00019,   0.00077,  -0.00076,306648064.00000,   0.00075,275463360.00000,  -0.00031,  -0.00048,  -0.00102,-168815296.00000,   0.00000
174199514.56462,351289214.55167,20734797.59452,  -0.00021,   0.00078,  -0.00075,306396928.00000,   0.00075,275463360.00000,  -0.00031,  -0.00048,  -0.00102,-169066432.00000,   0.00000
170303137.83390,350688509.46176,22093769.76513,  -0.00022,   0.00078,  -0.00073,306174624.00000,   0.00075,275463360.00000,  -0.00031,  -0.00048,  -0.00102,-169288736.00000,   0.00000
166396913.47876,350064826.58153,23452741.93575,  -0.00024,   0.00078,  -0.00071,306010688.00000,   0.00075,275463360.00000,  -0.00031,  -0.00048,  -0.00102,-169452672.00000,   0.00000
162421755.75264,349411600.82802,24811714.10636,  -0.00026,   0.00079,  -0.00069,305887840.00000,   0.00075,275463360.00000,  -0.00031,  -0.00048,  -0.00102,-169575520.00000,   0.00000
158423620.23620,348748527.45009,26170686.27697,  -0.00027,   0.00079,  -0.00068,305814400.00000,   0.00075,275463360.00000,  -0.00031,  -0.00048,  -0.00102,-169648960.00000,   0.00000
154392659.30501,348052628.65741,27523093.36464,  -0.00029,   0.00080,  -0.00066,305783840.00000,   0.00075,275463360.00000,  -0.00031,  -0.00048,  -0.00102,-169679520.00000,   0.00000
150315742.79317,347337034.61588,28882065.53525,  -0.00031,   0.00080,  -0.00064,305836480.00000,   0.00075,275463360.00000,  -0.00031,  -0.00048,  -0.00102,-169626880.00000,   0.00000
146183023.07625,346578767.53517,30234472.62291,  -0.00032,   0.00081,  -0.00062,305975008.00000,   0.00075,275463360.00000,  -0.00031,  -0.00048,  -0.00102,-169488352.00000,   0.00000
