# sigma_xx, sigma_yy, sigma_xy, epsilon_xx, epsilon_yy, epsilon_xy, vonMises, epsPlastic, hardening, epsilonP__xx, epsilonP__yy, epsilonP__xy, yieldValue, iteration
   0.00000,   0.00000,   0.00000,   0.00000,   0.00000,   0.00000,   0.00000,   0.00000,274640135.82653,   0.00000,   0.00000,   0.00000,-474640135.82653,   0.00000
   0.00000,   0.00000,   0.00000,   0.00000,   0.00000,   0.00000,   0.00000,   0.00000,274640135.82653,   0.00000,   0.00000,   0.00000,-474640135.82653,   0.00000
1342424.46168,-2327690.12163,-123158.20749,   0.00001,  -0.00001,  -0.00000,3223429.34286,   0.00000,274640135.82653,   0.00000,   0.00000,   0.00000,-471416706.48367,   0.00000
2672533.10262,-4643064.42252,-246316.41499,   0.00002,  -0.00003,  -0.00000,6425825.94784,   0.00000,274640135.82653,   0.00000,   0.00000,   0.00000,-468214309.87869,   0.00000
4002641.74355,-6958438.72340,-375632.53286,   0.00003,  -0.00004,  -0.00000,9628938.00468,   0.00000,274640135.82653,   0.00000,   0.00000,   0.00000,-465011197.82185,   0.00000
5332750.38448,-9273813.02429,-511106.56110,   0.00004,  -0.00005,  -0.00001,12832788.25486,   0.00000,274640135.82653,   0.00000,   0.00000,   0.00000,-461807347.57167,   0.00000
6672095.89098,-11567634.63886,-646580.58934,   0.00005,  -0.00007,  -0.00001,16023782.37603,   0.00000,274640135.82653,   0.00000,   0.00000,   0.00000,-458616353.45050,   0.00000
8011441.39748,-13861456.25343,-782054.61759,   0.00006,  -0.00008,  -0.00001,19214792.10046,   0.00000,274640135.82653,   0.00000,   0.00000,   0.00000,-455425343.72607,   0.00000
9350786.90397,-16155277.86801,-929844.46658,   0.00007,  -0.00009,  -0.00001,22407333.88046,   0.00000,274640135.82653,   0.00000,   0.00000,   0.00000,-452232801.94607,   0.00000
10677816.58972,-18436783.66183,-1077634.31557,   0.00008,  -0.00010,  -0.00001,25578882.70657,   0.00000,274640135.82653,   0.00000,   0.00000,   0.00000,-449061253.11996,   0.00000
12035635.82734,-20687499.90378,-1225424.16456,   0.00010,  -0.00012,  -0.00002,28745806.48037,   0.00000,274640135.82653,   0.00000,   0.00000,   0.00000,-445894329.34616,   0.00000
13362665.51308,-22969005.69761,-1379371.92393,   0.00011,  -0.00013,  -0.00002,31918195.33385,   0.00000,274640135.82653,   0.00000,   0.00000,   0.00000,-442721940.49267,   0.00000
14698932.06439,-25228958.80512,-1533319.68330,   0.00012,  -0.00014,  -0.00002,35077783.93099,   0.00000,274640135.82653,   0.00000,   0.00000,   0.00000,-439562351.89554,   0.00000
16044435.48126,-27467359.22632,-1693425.35304,   0.00013,  -0.00016,  -0.00002,38225398.28447,   0.00000,274640135.82653,   0.00000,   0.00000,   0.00000,-436414737.54206,   0.00000
17389938.89813,-29705759.64752,-1859688.93316,   0.00014,  -0.00017,  -0.00002,41373890.37901,   0.00000,274640135.82653,   0.00000,   0.00000,   0.00000,-433266245.44752,   0.00000
18735442.31500,-31944160.06872,-2025952.51327,   0.00015,  -0.00018,  -0.00003,44522439.06461,   0.00000,274640135.82653,   0.00000,   0.00000,   0.00000,-430117696.76192,   0.00000
20068629.91113,-34170244.66917,-2198374.00377,   0.00016,  -0.00019,  -0.00003,47650855.88193,   0.00000,274640135.82653,   0.00000,   0.00000,   0.00000,-426989279.94460,   0.00000
21423370.19356,-36387092.40406,-2370795.49426,   0.00017,  -0.00021,  -0.00003,50787571.79408,   0.00000,274640135.82653,   0.00000,   0.00000,   0.00000,-423852564.03245,   0.00000
22756557.78968,-38613177.00452,-2549374.89512,   0.00018,  -0.00022,  -0.00003,53916966.64160,   0.00000,274640135.82653,   0.00000,   0.00000,   0.00000,-420723169.18493,   0.00000
24098982.25136,-40817708.91866,-2734112.20636,   0.00019,  -0.00023,  -0.00004,57034530.40363,   0.00000,274640135.82653,   0.00000,   0.00000,   0.00000,-417605605.42290,   0.00000
25441406.71305,-43022240.83280,-2918849.51760,   0.00020,  -0.00025,  -0.00004,60152171.66542,   0.00000,274640135.82653,   0.00000,   0.00000,   0.00000,-414487964.16110,   0.00000
26793068.04029,-45205220.06062,-3103586.82885,   0.00021,  -0.00026,  -0.00004,63257123.75863,   0.00000,274640135.82653,   0.00000,   0.00000,   0.00000,-411383012.06790,   0.00000
28123176.68122,-47397436.15402,-3294482.05046,   0.00022,  -0.00027,  -0.00004,66354783.75940,   0.00000,274640135.82653,   0.00000,   0.00000,   0.00000,-408285352.06713,   0.00000
29484074.87403,-49558862.69553,-3491535.18245,   0.00023,  -0.00028,  -0.00005,69448982.82214,   0.00000,274640135.82653,   0.00000,   0.00000,   0.00000,-405191153.00439,   0.00000
30823420.38053,-51729526.10261,-3694746.22482,   0.00024,  -0.00030,  -0.00005,72535932.42593,   0.00000,274640135.82653,   0.00000,   0.00000,   0.00000,-402104203.40060,   0.00000
32184318.57334,-53890952.64413,-3891799.35681,   0.00025,  -0.00031,  -0.00005,75630331.44012,   0.00000,274640135.82653,   0.00000,   0.00000,   0.00000,-399009804.38641,   0.00000
33532900.94539,-56040063.36490,-4101168.30955,   0.00026,  -0.00032,  -0.00005,78705709.99650,   0.00000,274640135.82653,   0.00000,   0.00000,   0.00000,-395934425.83003,   0.00000
34890720.18301,-58167621.39935,-4310537.26229,   0.00027,  -0.00033,  -0.00006,81768495.95396,   0.00000,274640135.82653,   0.00000,   0.00000,   0.00000,-392871639.87257,   0.00000
36248539.42063,-60295179.43381,-4519906.21502,   0.00028,  -0.00035,  -0.00006,84831398.18630,   0.00000,274640135.82653,   0.00000,   0.00000,   0.00000,-389808737.64023,   0.00000
37584805.97194,-62431974.33383,-4741590.98851,   0.00029,  -0.00036,  -0.00006,87888058.09812,   0.00000,274640135.82653,   0.00000,   0.00000,   0.00000,-386752077.72841,   0.00000
38951862.07512,-64537979.68197,-4957117.85163,   0.00030,  -0.00037,  -0.00006,90939495.90752,   0.00000,274640135.82653,   0.00000,   0.00000,   0.00000,-383700639.91901,   0.00000
40297365.49199,-66653221.89568,-5184960.53549,   0.00031,  -0.00038,  -0.00007,93984734.64283,   0.00000,274640135.82653,   0.00000,   0.00000,   0.00000,-380655401.18370,   0.00000
41664421.59518,-68759227.24383,-5406645.30898,   0.00032,  -0.00039,  -0.00007,97037437.26503,   0.00000,274640135.82653,   0.00000,   0.00000,   0.00000,-377602698.56149,   0.00000
43019161.87761,-70852916.77122,-5640645.90322,   0.00033,  -0.00041,  -0.00007,100071313.86337,   0.00000,274640135.82653,   0.00000,   0.00000,   0.00000,-374568821.96316,   0.00000
44383139.02560,-72925053.61231,-5874646.49746,   0.00034,  -0.00042,  -0.00008,103092694.60761,   0.00000,274640135.82653,   0.00000,   0.00000,   0.00000,-371547441.21892,   0.00000
45747116.17360,-74997190.45339,-6108647.09170,   0.00035,  -0.00043,  -0.00008,106114226.69152,   0.00000,274640135.82653,   0.00000,   0.00000,   0.00000,-368525909.13500,   0.00000
47111093.32159,-77069327.29448,-6348805.59631,   0.00036,  -0.00044,  -0.00008,109136971.69832,   0.00000,274640135.82653,   0.00000,   0.00000,   0.00000,-365503164.12821,   0.00000
48484307.33515,-79119911.44925,-6595122.01130,   0.00037,  -0.00045,  -0.00009,112148336.82036,   0.00000,274640135.82653,   0.00000,   0.00000,   0.00000,-362491799.00617,   0.00000
49845205.52796,-81158179.78327,-6841438.42628,   0.00039,  -0.00047,  -0.00009,115138858.12640,   0.00000,274640135.82653,   0.00000,   0.00000,   0.00000,-359501277.70013,   0.00000
51227656.40707,-83187211.25173,-7093912.75165,   0.00040,  -0.00048,  -0.00009,118139077.22110,   0.00000,274640135.82653,   0.00000,   0.00000,   0.00000,-356501058.60543,   0.00000
52588554.59988,-85225479.58576,-7346387.07701,   0.00041,  -0.00049,  -0.00010,121131050.69007,   0.00000,274640135.82653,   0.00000,   0.00000,   0.00000,-353509085.13646,   0.00000
53958689.65825,-87242195.23347,-7605019.31275,   0.00042,  -0.00050,  -0.00010,124111741.23643,   0.00000,274640135.82653,   0.00000,   0.00000,   0.00000,-350528394.59010,   0.00000
55328824.71662,-89258910.88118,-7869809.45886,   0.00043,  -0.00051,  -0.00010,127093762.05587,   0.00000,274640135.82653,   0.00000,   0.00000,   0.00000,-347546373.77066,   0.00000
56708196.64055,-91254073.84258,-8134599.60497,   0.00044,  -0.00053,  -0.00011,130063425.50851,   0.00000,274640135.82653,   0.00000,   0.00000,   0.00000,-344576710.31802,   0.00000
58087568.56448,-93249236.80398,-8405547.66146,   0.00045,  -0.00054,  -0.00011,133034457.63096,   0.00000,274640135.82653,   0.00000,   0.00000,   0.00000,-341605678.19557,   0.00000
59476177.35398,-95222847.07907,-8676495.71794,   0.00046,  -0.00055,  -0.00011,135993168.77455,   0.00000,274640135.82653,   0.00000,   0.00000,   0.00000,-338646967.05198,   0.00000
60874023.00903,-97174904.66785,-8947443.77443,   0.00047,  -0.00056,  -0.00012,138939578.26138,   0.00000,274640135.82653,   0.00000,   0.00000,   0.00000,-335700557.56515,   0.00000
62241079.11221,-99157751.80850,-9230707.65167,   0.00048,  -0.00057,  -0.00012,141892617.98601,   0.00000,274640135.82653,   0.00000,   0.00000,   0.00000,-332747517.84052,   0.00000
63626608.94652,-101097493.57653,-9513971.52890,   0.00049,  -0.00058,  -0.00012,144820876.34563,   0.00000,274640135.82653,   0.00000,   0.00000,   0.00000,-329819259.48090,   0.00000
65033691.46714,-103027998.47900,-9797235.40614,   0.00050,  -0.00060,  -0.00013,147757903.43261,   0.00000,274640135.82653,   0.00000,   0.00000,   0.00000,-326882232.39392,   0.00000
66419221.30144,-104967740.24702,-10086657.19375,   0.00051,  -0.00061,  -0.00013,150687879.33961,   0.00000,274640135.82653,   0.00000,   0.00000,   0.00000,-323952256.48692,   0.00000
67813988.00131,-106885929.32874,-10382236.89173,   0.00052,  -0.00062,  -0.00013,153606876.52168,   0.00000,274640135.82653,   0.00000,   0.00000,   0.00000,-321033259.30485,   0.00000
69208754.70118,-108804118.41046,-10677816.58972,   0.00053,  -0.00063,  -0.00014,156526140.79854,   0.00000,274640135.82653,   0.00000,   0.00000,   0.00000,-318113995.02799,   0.00000
70612758.26661,-110700754.80586,-10973396.28770,   0.00054,  -0.00064,  -0.00014,159433216.93394,   0.00000,274640135.82653,   0.00000,   0.00000,   0.00000,-315206918.89259,   0.00000
71995209.14573,-112606628.06683,-11275133.89606,   0.00055,  -0.00065,  -0.00015,162333257.51832,   0.00000,274640135.82653,   0.00000,   0.00000,   0.00000,-312306878.30821,   0.00000
73408449.57672,-114481711.77593,-11583029.41480,   0.00056,  -0.00066,  -0.00015,165231012.45842,   0.00000,274640135.82653,   0.00000,   0.00000,   0.00000,-309409123.36810,   0.00000
74809374.18696,-116344479.66427,-11890924.93353,   0.00057,  -0.00068,  -0.00015,168108061.72136,   0.00000,274640135.82653,   0.00000,   0.00000,   0.00000,-306532074.10517,   0.00000
76222614.61796,-118219563.37336,-12204978.36264,   0.00058,  -0.00069,  -0.00016,171007721.61863,   0.00000,274640135.82653,   0.00000,   0.00000,   0.00000,-303632414.20790,   0.00000
77632776.09376,-120060778.57540,-12525189.70213,   0.00059,  -0.00070,  -0.00016,173875619.76357,   0.00000,274640135.82653,   0.00000,   0.00000,   0.00000,-300764516.06296,   0.00000
79042937.56957,-121901993.77743,-12845401.04161,   0.00060,  -0.00071,  -0.00017,176743844.96795,   0.00000,274640135.82653,   0.00000,   0.00000,   0.00000,-297896290.85858,   0.00000
80453099.04537,-123743208.97946,-13165612.38109,   0.00061,  -0.00072,  -0.00017,179612381.56337,   0.00000,274640135.82653,   0.00000,   0.00000,   0.00000,-295027754.26316,   0.00000
81872497.38674,-125562871.49519,-13491981.63095,   0.00062,  -0.00073,  -0.00018,182470236.20253,   0.00000,274640135.82653,   0.00000,   0.00000,   0.00000,-292169899.62399,   0.00000
83301132.59367,-127360981.32460,-13824508.79119,   0.00063,  -0.00074,  -0.00018,185317466.46737,   0.00000,274640135.82653,   0.00000,   0.00000,   0.00000,-289322669.35916,   0.00000
84729767.80059,-129159091.15401,-14157035.95142,   0.00064,  -0.00075,  -0.00018,188165058.34739,   0.00000,274640135.82653,   0.00000,   0.00000,   0.00000,-286475077.47914,   0.00000
86146087.18677,-130944885.16267,-14489563.11165,   0.00065,  -0.00076,  -0.00019,190991997.47435,   0.00000,274640135.82653,   0.00000,   0.00000,   0.00000,-283648138.35218,   0.00000
87583959.25927,-132721442.30577,-14834406.09264,   0.00066,  -0.00077,  -0.00019,193830800.89438,   0.00000,274640135.82653,   0.00000,   0.00000,   0.00000,-280809334.93215,   0.00000
89009515.51101,-134485683.62812,-15173091.16324,   0.00067,  -0.00079,  -0.00020,196647569.47818,   0.00000,274640135.82653,   0.00000,   0.00000,   0.00000,-277992566.34835,   0.00000
90456624.44906,-136240688.08491,-15524092.05460,   0.00068,  -0.00080,  -0.00020,199476291.96399,   0.00000,274640135.82653,   0.00000,   0.00000,   0.00000,-275163843.86254,   0.00000
91891417.56636,-137983376.72094,-15875092.94596,   0.00069,  -0.00081,  -0.00021,202284425.22666,   0.00000,274640135.82653,   0.00000,   0.00000,   0.00000,-272355710.59987,   0.00000
93326210.68367,-139726065.35698,-16226093.83732,   0.00070,  -0.00082,  -0.00021,205092948.48403,   0.00000,274640135.82653,   0.00000,   0.00000,   0.00000,-269547187.34250,   0.00000
94770240.66653,-141447201.30671,-16583252.63905,   0.00071,  -0.00083,  -0.00022,207891095.01662,   0.00000,274640135.82653,   0.00000,   0.00000,   0.00000,-266749040.80991,   0.00000
96214270.64940,-143168337.25644,-16940411.44078,   0.00072,  -0.00084,  -0.00022,210689649.57475,   0.00000,274640135.82653,   0.00000,   0.00000,   0.00000,-263950486.25178,   0.00000
97667537.49783,-144867920.51985,-17303728.15289,   0.00073,  -0.00085,  -0.00022,213477896.65492,   0.00000,274640135.82653,   0.00000,   0.00000,   0.00000,-261162239.17161,   0.00000
99130041.21182,-146545951.09695,-17673202.77537,   0.00074,  -0.00086,  -0.00023,216255897.75599,   0.00000,274640135.82653,   0.00000,   0.00000,   0.00000,-258384238.07053,   0.00000
100570992.23949,-148233218.53962,-18042677.39785,   0.00075,  -0.00087,  -0.00023,219025542.01071,   0.00000,274640135.82653,   0.00000,   0.00000,   0.00000,-255614593.81582,   0.00000
102042732.81905,-149889696.43041,-18412152.02033,   0.00076,  -0.00088,  -0.00024,221792282.75217,   0.00000,274640135.82653,   0.00000,   0.00000,   0.00000,-252847853.07436,   0.00000
103492920.71229,-151555411.18677,-18787784.55319,   0.00077,  -0.00089,  -0.00024,224552181.00983,   0.00000,274640135.82653,   0.00000,   0.00000,   0.00000,-250087954.81670,   0.00000
104973898.15740,-153190336.39125,-19169574.99642,   0.00078,  -0.00090,  -0.00025,227310807.14671,   0.00000,274640135.82653,   0.00000,   0.00000,   0.00000,-247329328.67982,   0.00000
106433322.91620,-154834498.46129,-19551365.43965,   0.00079,  -0.00091,  -0.00025,230061061.42872,   0.00000,274640135.82653,   0.00000,   0.00000,   0.00000,-244579074.39781,   0.00000
107901984.54057,-156457107.84502,-19939313.79326,   0.00080,  -0.00092,  -0.00026,232801258.58469,   0.00000,274640135.82653,   0.00000,   0.00000,   0.00000,-241838877.24184,   0.00000
109379883.03049,-158058164.54244,-20327262.14686,   0.00081,  -0.00093,  -0.00026,235529867.53089,   0.00000,274640135.82653,   0.00000,   0.00000,   0.00000,-239110268.29564,   0.00000
110857781.52042,-159659221.23986,-20721368.41084,   0.00082,  -0.00094,  -0.00027,238260586.42363,   0.00000,274640135.82653,   0.00000,   0.00000,   0.00000,-236379549.40290,   0.00000
112335680.01035,-161260277.93728,-21115474.67482,   0.00083,  -0.00095,  -0.00027,240991815.29000,   0.00000,274640135.82653,   0.00000,   0.00000,   0.00000,-233648320.53653,   0.00000
113832052.23140,-162818229.26208,-21515738.84918,   0.00084,  -0.00096,  -0.00028,243701099.97190,   0.00000,274640135.82653,   0.00000,   0.00000,   0.00000,-230939035.85463,   0.00000
115306871.76613,-164385417.45244,-21916003.02353,   0.00085,  -0.00097,  -0.00028,246401992.61268,   0.00000,274640135.82653,   0.00000,   0.00000,   0.00000,-228238143.21385,   0.00000
116803243.98719,-165943368.77724,-22322425.10826,   0.00086,  -0.00098,  -0.00029,249114020.53388,   0.00000,274640135.82653,   0.00000,   0.00000,   0.00000,-225526115.29265,   0.00000
118287300.38749,-167489004.28129,-22728847.19299,   0.00086,  -0.00099,  -0.00030,251805630.66239,   0.00000,274640135.82653,   0.00000,   0.00000,   0.00000,-222834505.16414,   0.00000
119792909.47410,-169025402.91977,-23141427.18810,   0.00087,  -0.00100,  -0.00030,254508447.28645,   0.00000,274640135.82653,   0.00000,   0.00000,   0.00000,-220131688.54008,   0.00000
121286202.73996,-170549485.73751,-23554007.18320,   0.00088,  -0.00101,  -0.00031,257190869.44898,   0.00000,274640135.82653,   0.00000,   0.00000,   0.00000,-217449266.37755,   0.00000
122788732.87139,-172052015.86894,-23972745.08868,   0.00089,  -0.00102,  -0.00031,259863609.65418,   0.00000,274640135.82653,   0.00000,   0.00000,   0.00000,-214776526.17235,   0.00000
124291263.00281,-173554546.00036,-24391482.99416,   0.00090,  -0.00103,  -0.00032,262536941.29866,   0.00000,274640135.82653,   0.00000,   0.00000,   0.00000,-212103194.52787,   0.00000
125803029.99980,-175035523.44547,-24816378.81001,   0.00091,  -0.00104,  -0.00032,265200667.42701,   0.00000,274640135.82653,   0.00000,   0.00000,   0.00000,-209439468.39952,   0.00000
127324033.86235,-176494948.20428,-25241274.62587,   0.00092,  -0.00105,  -0.00033,267853114.47979,   0.00000,274640135.82653,   0.00000,   0.00000,   0.00000,-206787021.34674,   0.00000
128845037.72490,-177954372.96308,-25672328.35210,   0.00093,  -0.00106,  -0.00033,270507940.41914,   0.00000,274640135.82653,   0.00000,   0.00000,   0.00000,-204132195.40739,   0.00000
130366041.58745,-179413797.72188,-26103382.07833,   0.00094,  -0.00107,  -0.00034,273163397.79539,   0.00000,274640135.82653,   0.00000,   0.00000,   0.00000,-201476738.03114,   0.00000
131905519.18112,-180830117.10806,-26540593.71493,   0.00095,  -0.00108,  -0.00035,275797565.37849,   0.00000,274640135.82653,   0.00000,   0.00000,   0.00000,-198842570.44804,   0.00000
133423444.08848,-182255673.35980,-26977805.35153,   0.00096,  -0.00109,  -0.00035,278423295.52922,   0.00000,274640135.82653,   0.00000,   0.00000,   0.00000,-196216840.29731,   0.00000
134962921.68216,-183671992.74598,-27421174.89851,   0.00097,  -0.00110,  -0.00036,281060602.75124,   0.00000,274640135.82653,   0.00000,   0.00000,   0.00000,-193579533.07529,   0.00000
136490083.45508,-185075996.31141,-27864544.44549,   0.00098,  -0.00111,  -0.00036,283677640.96907,   0.00000,274640135.82653,   0.00000,   0.00000,   0.00000,-190962494.85746,   0.00000
138048034.77988,-186449210.32497,-28314071.90284,   0.00099,  -0.00112,  -0.00037,286294559.87177,   0.00000,274640135.82653,   0.00000,   0.00000,   0.00000,-188345575.95476,   0.00000
139584433.41836,-187831661.20409,-28763599.36019,   0.00100,  -0.00113,  -0.00037,288903023.44399,   0.00000,274640135.82653,   0.00000,   0.00000,   0.00000,-185737112.38254,   0.00000
141130068.92241,-189192559.39689,-29219284.72792,   0.00101,  -0.00114,  -0.00038,291502280.66435,   0.00000,274640135.82653,   0.00000,   0.00000,   0.00000,-183137855.16218,   0.00000
142675704.42646,-190553457.58970,-29674970.09565,   0.00102,  -0.00115,  -0.00039,294102256.32596,   0.00000,274640135.82653,   0.00000,   0.00000,   0.00000,-180537879.50057,   0.00000
144230576.79607,-191892803.09620,-30136813.37375,   0.00103,  -0.00115,  -0.00039,296693106.42075,   0.00000,274640135.82653,   0.00000,   0.00000,   0.00000,-177947029.40578,   0.00000
145794686.03124,-193210595.91638,-30598656.65185,   0.00104,  -0.00116,  -0.00040,299273013.12605,   0.00000,274640135.82653,   0.00000,   0.00000,   0.00000,-175367122.70048,   0.00000
147358795.26641,-194528388.73657,-31060499.92995,   0.00105,  -0.00117,  -0.00040,301853675.71697,   0.00000,274640135.82653,   0.00000,   0.00000,   0.00000,-172786460.10956,   0.00000
148932141.36715,-195824628.87044,-31528501.11843,   0.00106,  -0.00118,  -0.00041,304425341.36119,   0.00000,274640135.82653,   0.00000,   0.00000,   0.00000,-170214794.46534,   0.00000
150505487.46788,-197120869.00431,-32002660.21728,   0.00107,  -0.00119,  -0.00042,306999710.12608,   0.00000,274640135.82653,   0.00000,   0.00000,   0.00000,-167640425.70045,   0.00000
152066517.74787,-198404793.31744,-32476819.31613,   0.00108,  -0.00120,  -0.00042,309553945.59631,   0.00000,274640135.82653,   0.00000,   0.00000,   0.00000,-165086190.23022,   0.00000
153658337.57973,-199657928.07869,-32950978.41498,   0.00109,  -0.00121,  -0.00043,312106679.19982,   0.00000,274640135.82653,   0.00000,   0.00000,   0.00000,-162533456.62671,   0.00000
155228604.72527,-200920299.70550,-33431295.42421,   0.00110,  -0.00122,  -0.00043,314652854.56228,   0.00000,274640135.82653,   0.00000,   0.00000,   0.00000,-159987281.26425,   0.00000
156808108.73638,-202161118.64600,-33911612.43344,   0.00111,  -0.00123,  -0.00044,317188265.71312,   0.00000,274640135.82653,   0.00000,   0.00000,   0.00000,-157451870.11340,   0.00000
158418402.29936,-203371148.03463,-34398087.35304,   0.00112,  -0.00123,  -0.00045,319724305.65423,   0.00000,274640135.82653,   0.00000,   0.00000,   0.00000,-154915830.17230,   0.00000
160007143.17603,-204590414.28882,-34884562.27264,   0.00113,  -0.00124,  -0.00045,322251841.34872,   0.00000,274640135.82653,   0.00000,   0.00000,   0.00000,-152388294.47781,   0.00000
161595884.05271,-205809680.54300,-35377195.10261,   0.00114,  -0.00125,  -0.00046,324782218.45096,   0.00000,274640135.82653,   0.00000,   0.00000,   0.00000,-149857917.37557,   0.00000
163203098.66050,-206985841.42457,-35869827.93259,   0.00115,  -0.00126,  -0.00047,327290473.93670,   0.00000,274640135.82653,   0.00000,   0.00000,   0.00000,-147349661.88983,   0.00000
164810313.26830,-208162002.30614,-36368618.67294,   0.00116,  -0.00127,  -0.00047,329801656.52534,   0.00000,274640135.82653,   0.00000,   0.00000,   0.00000,-144838479.30119,   0.00000
166417527.87609,-209338163.18770,-36867409.41329,   0.00117,  -0.00128,  -0.00048,332313733.37488,   0.00000,274640135.82653,   0.00000,   0.00000,   0.00000,-142326402.45165,   0.00000
168021663.52870,-210480455.56221,-37366200.15364,   0.00117,  -0.00129,  -0.00049,334794379.60371,   0.00000,274640135.82653,   0.00000,   0.00000,   0.00000,-139845756.22282,   0.00000
169638115.00206,-211635063.75746,-37871148.80436,   0.00118,  -0.00129,  -0.00049,337298881.25003,   0.00000,274640135.82653,   0.00000,   0.00000,   0.00000,-137341254.57650,   0.00000
171273040.20654,-212746566.58010,-38376097.45509,   0.00119,  -0.00130,  -0.00050,339781520.55774,   0.00000,274640135.82653,   0.00000,   0.00000,   0.00000,-134858615.26879,   0.00000
172886412.72471,-213867306.26829,-38887204.01619,   0.00120,  -0.00131,  -0.00051,342257697.77126,   0.00000,274640135.82653,   0.00000,   0.00000,   0.00000,-132382438.05527,   0.00000
174530574.79475,-214957256.40461,-39398310.57729,   0.00121,  -0.00132,  -0.00051,344732994.88853,   0.00000,274640135.82653,   0.00000,   0.00000,   0.00000,-129907140.93800,   0.00000
176153184.17848,-216056443.40649,-39909417.13839,   0.00122,  -0.00133,  -0.00052,347199720.95466,   0.00000,274640135.82653,   0.00000,   0.00000,   0.00000,-127440414.87187,   0.00000
177785030.42777,-217134077.72207,-40426681.60986,   0.00123,  -0.00133,  -0.00053,349658209.00573,   0.00000,274640135.82653,   0.00000,   0.00000,   0.00000,-124981926.82080,   0.00000
179416876.67707,-218211712.03764,-40950103.99171,   0.00124,  -0.00134,  -0.00053,352119814.53178,   0.00000,274640135.82653,   0.00000,   0.00000,   0.00000,-122520321.29475,   0.00000
181067196.65749,-219246240.98059,-41473526.37356,   0.00125,  -0.00135,  -0.00054,354559876.87715,   0.00000,274640135.82653,   0.00000,   0.00000,   0.00000,-120080258.94938,   0.00000
182708279.77234,-220302322.60985,-41996948.75541,   0.00126,  -0.00136,  -0.00055,357012210.36941,   0.00000,274640135.82653,   0.00000,   0.00000,   0.00000,-117627925.45712,   0.00000
184367836.61832,-221315298.86648,-42520371.13726,   0.00127,  -0.00137,  -0.00055,359443082.33597,   0.00000,274640135.82653,   0.00000,   0.00000,   0.00000,-115197053.49056,   0.00000
186027393.46430,-222328275.12312,-43049951.42948,   0.00128,  -0.00137,  -0.00056,361877185.66822,   0.00000,274640135.82653,   0.00000,   0.00000,   0.00000,-112762950.15831,   0.00000
187696187.17584,-223319698.69345,-43585689.63208,   0.00129,  -0.00138,  -0.00057,364303361.90188,   0.00000,274640135.82653,   0.00000,   0.00000,   0.00000,-110336773.92465,   0.00000
189343428.20107,-224320359.12933,-44115269.92430,   0.00130,  -0.00139,  -0.00057,366718712.71749,   0.00000,274640135.82653,   0.00000,   0.00000,   0.00000,-107921423.10904,   0.00000
191021458.77818,-225290230.01335,-44657166.03728,   0.00131,  -0.00140,  -0.00058,369138105.96344,   0.00000,274640135.82653,   0.00000,   0.00000,   0.00000,-105502029.86309,   0.00000
192687173.53453,-226247785.07661,-45192904.23988,   0.00132,  -0.00141,  -0.00059,371535528.72177,   0.00000,274640135.82653,   0.00000,   0.00000,   0.00000,-103104607.10476,   0.00000
194374440.97720,-227196103.27431,-45734800.35285,   0.00133,  -0.00141,  -0.00059,373946017.63399,   0.00000,274640135.82653,   0.00000,   0.00000,   0.00000,-100694118.19254,   0.00000
196049392.59912,-228132105.65127,-46276696.46582,   0.00134,  -0.00142,  -0.00060,376336791.47809,   0.00000,274640135.82653,   0.00000,   0.00000,   0.00000,-98303344.34844,   0.00000
197724344.22103,-229068108.02822,-46824750.48917,   0.00135,  -0.00143,  -0.00061,378730943.58689,   0.00000,274640135.82653,   0.00000,   0.00000,   0.00000,-95909192.23964,   0.00000
199408532.70851,-229982557.71886,-47372804.51252,   0.00136,  -0.00144,  -0.00062,381115168.91523,   0.00000,274640135.82653,   0.00000,   0.00000,   0.00000,-93524966.91130,   0.00000
201101958.06155,-230875454.72319,-47927016.44624,   0.00137,  -0.00144,  -0.00062,383491819.80758,   0.00000,274640135.82653,   0.00000,   0.00000,   0.00000,-91148316.01895,   0.00000
202804620.28015,-231746799.04121,-48475070.46959,   0.00137,  -0.00145,  -0.00063,385856335.73212,   0.00000,274640135.82653,   0.00000,   0.00000,   0.00000,-88783800.09441,   0.00000
204507282.49876,-232618143.35923,-49029282.40331,   0.00138,  -0.00146,  -0.00064,388224349.02022,   0.00000,274640135.82653,   0.00000,   0.00000,   0.00000,-86415786.80631,   0.00000
206209944.71736,-233489487.67725,-49589652.24741,   0.00139,  -0.00146,  -0.00064,390595874.69940,   0.00000,274640135.82653,   0.00000,   0.00000,   0.00000,-84044261.12713,   0.00000
207931080.66709,-234317726.62265,-50150022.09150,   0.00140,  -0.00147,  -0.00065,392946743.94939,   0.00000,274640135.82653,   0.00000,   0.00000,   0.00000,-81693391.87714,   0.00000
209630663.93050,-235155202.43361,-50710391.93560,   0.00141,  -0.00148,  -0.00066,395288954.12747,   0.00000,274640135.82653,   0.00000,   0.00000,   0.00000,-79351181.69906,   0.00000
211351799.88023,-235983441.37900,-51276919.69007,   0.00142,  -0.00149,  -0.00067,397644640.94689,   0.00000,274640135.82653,   0.00000,   0.00000,   0.00000,-76995494.87964,   0.00000
213060620.00921,-236799364.50365,-51843447.44454,   0.00143,  -0.00149,  -0.00067,399980768.75742,   0.00000,274640135.82653,   0.00000,   0.00000,   0.00000,-74659367.06911,   0.00000
214778677.00375,-237593734.94198,-52409975.19902,   0.00144,  -0.00150,  -0.00068,402307279.99312,   0.00000,274640135.82653,   0.00000,   0.00000,   0.00000,-72332855.83341,   0.00000
216527523.55016,-238357315.82845,-52976502.95349,   0.00145,  -0.00151,  -0.00069,404634189.57825,   0.00000,274640135.82653,   0.00000,   0.00000,   0.00000,-70005946.24828,   0.00000
218254817.41026,-239130133.58047,-53549188.61833,   0.00146,  -0.00151,  -0.00070,406954833.55766,   0.00000,274640135.82653,   0.00000,   0.00000,   0.00000,-67685302.26887,   0.00000
219991348.13592,-239881398.64618,-54128032.19356,   0.00147,  -0.00152,  -0.00070,409268423.60419,   0.00000,274640135.82653,   0.00000,   0.00000,   0.00000,-65371712.22234,   0.00000
221727878.86159,-240632663.71190,-54700717.85840,   0.00148,  -0.00153,  -0.00071,411580863.04136,   0.00000,274640135.82653,   0.00000,   0.00000,   0.00000,-63059272.78517,   0.00000
223452093.76650,-241371612.95686,-55279561.43362,   0.00149,  -0.00153,  -0.00072,413876280.76264,   0.00000,274640135.82653,   0.00000,   0.00000,   0.00000,-60763855.06389,   0.00000
225207098.22329,-242079772.64995,-55858405.00884,   0.00150,  -0.00154,  -0.00073,416172345.04932,   0.00000,274640135.82653,   0.00000,   0.00000,   0.00000,-58467790.77721,   0.00000
226971339.54564,-242766379.65673,-56443406.49444,   0.00151,  -0.00155,  -0.00073,418461573.93983,   0.00000,274640135.82653,   0.00000,   0.00000,   0.00000,-56178561.88670,   0.00000
228714028.18168,-243462223.52907,-57028407.98004,   0.00152,  -0.00155,  -0.00074,420742088.19230,   0.00000,274640135.82653,   0.00000,   0.00000,   0.00000,-53898047.63423,   0.00000
230478269.50403,-244148830.53585,-57613409.46563,   0.00152,  -0.00156,  -0.00075,423034039.97751,   0.00000,274640135.82653,   0.00000,   0.00000,   0.00000,-51606095.84902,   0.00000
232239431.87119,-244801569.03556,-58198410.95123,   0.00153,  -0.00157,  -0.00076,425296019.66614,   0.00000,274640135.82653,   0.00000,   0.00000,   0.00000,-49344116.16039,   0.00000
234000594.23835,-245454307.53528,-58789570.34720,   0.00154,  -0.00157,  -0.00076,427561913.36223,   0.00000,274640135.82653,   0.00000,   0.00000,   0.00000,-47078222.46430,   0.00000
235761756.60551,-246107046.03500,-59380729.74317,   0.00155,  -0.00158,  -0.00077,429829183.12568,   0.00000,274640135.82653,   0.00000,   0.00000,   0.00000,-44810952.70085,   0.00000
237532155.83824,-246738231.84840,-59971889.13914,   0.00156,  -0.00159,  -0.00078,432087290.61644,   0.00000,274640135.82653,   0.00000,   0.00000,   0.00000,-42552845.21009,   0.00000
239311791.93652,-247347864.97550,-60569206.44548,   0.00157,  -0.00159,  -0.00079,434338862.15152,   0.00000,274640135.82653,   0.00000,   0.00000,   0.00000,-40301273.67501,   0.00000
241100664.90037,-247935945.41628,-61166523.75183,   0.00158,  -0.00160,  -0.00080,436581396.55863,   0.00000,274640135.82653,   0.00000,   0.00000,   0.00000,-38058739.26790,   0.00000
242889537.86422,-248524025.85707,-61763841.05818,   0.00159,  -0.00160,  -0.00080,438825387.83377,   0.00000,274640135.82653,   0.00000,   0.00000,   0.00000,-35814747.99276,   0.00000
244666095.00732,-249099790.47710,-62361158.36452,   0.00160,  -0.00161,  -0.00081,441050131.93823,   0.00000,274640135.82653,   0.00000,   0.00000,   0.00000,-33590003.88829,   0.00000
246464204.83673,-249666318.23157,-62964633.58124,   0.00161,  -0.00162,  -0.00082,443289206.46529,   0.00000,274640135.82653,   0.00000,   0.00000,   0.00000,-31350929.36124,   0.00000
248249998.84539,-250220530.16529,-63568108.79796,   0.00162,  -0.00162,  -0.00083,445509074.35878,   0.00000,274640135.82653,   0.00000,   0.00000,   0.00000,-29131061.46775,   0.00000
250045029.71962,-250753189.41270,-64171584.01468,   0.00163,  -0.00163,  -0.00083,447720051.11674,   0.00000,274640135.82653,   0.00000,   0.00000,   0.00000,-26920084.70979,   0.00000
251849297.45940,-251264295.97380,-64781217.14178,   0.00164,  -0.00163,  -0.00084,449924849.01675,   0.00000,274640135.82653,   0.00000,   0.00000,   0.00000,-24715286.80978,   0.00000
253653565.19919,-251775402.53490,-65384692.35850,   0.00165,  -0.00164,  -0.00085,452128507.09367,   0.00000,274640135.82653,   0.00000,   0.00000,   0.00000,-22511628.73286,   0.00000
255457832.93897,-252286509.09600,-65994325.48559,   0.00165,  -0.00165,  -0.00086,454336334.62890,   0.00000,274640135.82653,   0.00000,   0.00000,   0.00000,-20303801.19763,   0.00000
257280574.40988,-252754510.28448,-66603958.61268,   0.00166,  -0.00165,  -0.00087,456525162.43592,   0.00000,274640135.82653,   0.00000,   0.00000,   0.00000,-18114973.39061,   0.00000
259103315.88079,-253222511.47296,-67219749.65015,   0.00167,  -0.00166,  -0.00087,458718263.45207,   0.00000,274640135.82653,   0.00000,   0.00000,   0.00000,-15921872.37446,   0.00000
260904504.66539,-253699749.52700,-67835540.68762,   0.00168,  -0.00166,  -0.00088,460902498.02965,   0.00000,274640135.82653,   0.00000,   0.00000,   0.00000,-13737637.79688,   0.00000
262745719.86742,-254124645.34285,-68451331.72509,   0.00169,  -0.00167,  -0.00089,463078358.38090,   0.00000,274640135.82653,   0.00000,   0.00000,   0.00000,-11561777.44562,   0.00000
264565382.38314,-254558778.02427,-69067122.76256,   0.00170,  -0.00167,  -0.00090,465245371.61783,   0.00000,274640135.82653,   0.00000,   0.00000,   0.00000,-9394764.20869,   0.00000
266385044.89886,-254992910.70568,-69682913.80003,   0.00171,  -0.00168,  -0.00091,467413949.35339,   0.00000,274640135.82653,   0.00000,   0.00000,   0.00000,-7226186.47313,   0.00000
268223181.14571,-255383938.01447,-70304862.74788,   0.00172,  -0.00169,  -0.00091,469566655.70019,   0.00000,274640135.82653,   0.00000,   0.00000,   0.00000,-5073480.12634,   0.00000
270052080.52699,-255796518.00958,-70920653.78534,   0.00173,  -0.00169,  -0.00092,471728294.78721,   0.00000,274640135.82653,   0.00000,   0.00000,   0.00000,-2911841.03932,   0.00000
271899453.63940,-256165992.63206,-71542602.73319,   0.00174,  -0.00170,  -0.00093,473874196.51817,   0.00000,274640135.82653,   0.00000,   0.00000,   0.00000,-765939.30836,   0.00000
272557645.14465,-256297630.93311,-71766387.84497,   0.00174,  -0.00170,  -0.00093,474640145.33639,   0.00000,274640135.82653,   0.00000,   0.00000,   0.00000,  -6.89423,   0.00000
272959560.84110,-255789666.92192,-71962061.33013,   0.00175,  -0.00170,  -0.00094,474648423.06905,   0.00001,274648430.22110,   0.00001,  -0.00000,  -0.00000,  -7.15205,   1.00000
273581932.42144,-255003108.25397,-72261870.81290,   0.00175,  -0.00171,  -0.00095,474661180.22898,   0.00002,274661184.67796,   0.00001,  -0.00001,  -0.00001,  -4.44898,   1.00000
274214411.65914,-254201000.34907,-72567316.73640,   0.00176,  -0.00171,  -0.00095,474673905.19058,   0.00003,274673907.22731,   0.00002,  -0.00002,  -0.00001,  -2.03673,   1.00000
274860700.19941,-253387670.69611,-72863841.97503,   0.00177,  -0.00172,  -0.00096,474686683.15682,   0.00004,274686687.60359,   0.00003,  -0.00003,  -0.00002,  -4.44677,   1.00000
275501537.86494,-252573660.40063,-73167624.50259,   0.00178,  -0.00172,  -0.00097,474699364.84550,   0.00005,274699373.10090,   0.00004,  -0.00004,  -0.00002,  -8.25540,   1.00000
276139117.19511,-251761813.53426,-73469807.67861,   0.00179,  -0.00173,  -0.00098,474712066.04966,   0.00007,274712069.88774,   0.00004,  -0.00004,  -0.00002,  -3.83808,   1.00000
276786651.75033,-250934342.69021,-73777601.03761,   0.00180,  -0.00173,  -0.00099,474724735.71062,   0.00008,274724736.17105,   0.00005,  -0.00005,  -0.00003,  -0.46044,   1.00000
277432036.27787,-250109109.76326,-74081252.34874,   0.00181,  -0.00174,  -0.00100,474737271.55322,   0.00009,274737273.81078,   0.00006,  -0.00006,  -0.00003,  -2.25756,   1.00000
278087787.01388,-249269677.49285,-74387329.63994,   0.00182,  -0.00174,  -0.00100,474749899.23137,   0.00010,274749904.67295,   0.00007,  -0.00006,  -0.00004,  -5.44158,   1.00000
278739730.75408,-248430925.44750,-74694979.87178,   0.00183,  -0.00175,  -0.00101,474762415.89233,   0.00011,274762424.41914,   0.00007,  -0.00007,  -0.00004,  -8.52681,   1.00000
279418436.28202,-247563142.88820,-75000852.07801,   0.00184,  -0.00175,  -0.00102,474774959.27559,   0.00012,274774962.14767,   0.00008,  -0.00008,  -0.00005,  -2.87208,   1.00000
280078429.51139,-246712427.40184,-75306790.75115,   0.00185,  -0.00176,  -0.00103,474787442.88306,   0.00013,274787447.57743,   0.00009,  -0.00009,  -0.00005,  -4.69437,   1.00000
280749869.50533,-245847468.64629,-75612641.66679,   0.00185,  -0.00176,  -0.00104,474799880.52569,   0.00015,274799886.97949,   0.00010,  -0.00009,  -0.00005,  -6.45380,   1.00000
281432691.06134,-244968256.35688,-75918403.53136,   0.00186,  -0.00176,  -0.00104,474812272.18336,   0.00016,274812280.77939,   0.00010,  -0.00010,  -0.00006,  -8.59603,   1.00000
282095146.08139,-244104569.44420,-76229932.00847,   0.00187,  -0.00177,  -0.00105,474824635.04410,   0.00017,274824639.84432,   0.00011,  -0.00011,  -0.00006,  -4.80022,   1.00000
282784145.16524,-243211747.94331,-76539619.41812,   0.00188,  -0.00177,  -0.00106,474837017.67321,   0.00018,274837018.97501,   0.00012,  -0.00012,  -0.00007,  -1.30181,   1.00000
283471027.55431,-242320946.30225,-76845285.12222,   0.00189,  -0.00178,  -0.00107,474849266.25435,   0.00019,274849270.33690,   0.00013,  -0.00012,  -0.00007,  -4.08255,   1.00000
284167746.94946,-241416075.53661,-77153232.10188,   0.00190,  -0.00178,  -0.00108,474861617.59796,   0.00020,274861617.89033,   0.00014,  -0.00013,  -0.00007,  -0.29236,   1.00000
284860597.62217,-240511642.69548,-77462836.40321,   0.00191,  -0.00179,  -0.00109,474873850.29496,   0.00021,274873855.92260,   0.00014,  -0.00014,  -0.00008,  -5.62764,   1.00000
285548126.68158,-239607948.06250,-77776443.76787,   0.00192,  -0.00179,  -0.00109,474886120.82148,   0.00022,274886125.18753,   0.00015,  -0.00014,  -0.00008,  -4.36605,   1.00000
286248418.63820,-238689437.59352,-78087612.85316,   0.00193,  -0.00180,  -0.00110,474898204.55724,   0.00024,274898210.17697,   0.00016,  -0.00015,  -0.00009,  -5.61973,   1.00000
286945363.99136,-237775160.95758,-78393806.53681,   0.00193,  -0.00180,  -0.00111,474910429.34811,   0.00025,274910430.95404,   0.00016,  -0.00016,  -0.00009,  -1.60593,   1.00000
287651462.70465,-236842877.95368,-78708886.11675,   0.00194,  -0.00180,  -0.00112,474922498.27659,   0.00026,274922504.61578,   0.00017,  -0.00017,  -0.00010,  -6.33919,   1.00000
288370685.66803,-235899680.53628,-79014853.84681,   0.00195,  -0.00181,  -0.00113,474934633.01825,   0.00027,274934639.73472,   0.00018,  -0.00017,  -0.00010,  -6.71647,   1.00000
289084215.42242,-234955200.55989,-79328177.97824,   0.00196,  -0.00181,  -0.00114,474946680.32722,   0.00028,274946684.72112,   0.00019,  -0.00018,  -0.00011,  -4.39390,   1.00000
289794069.19639,-234013031.45429,-79639836.89924,   0.00197,  -0.00182,  -0.00114,474958736.02447,   0.00029,274958743.61455,   0.00019,  -0.00019,  -0.00011,  -7.59008,   1.00000
290501992.15081,-233072565.99258,-79947620.66976,   0.00198,  -0.00182,  -0.00115,474970672.09541,   0.00030,274970675.24384,   0.00020,  -0.00019,  -0.00011,  -3.14842,   1.00000
291233972.24375,-232101215.98492,-80259066.71815,   0.00199,  -0.00182,  -0.00116,474982645.48912,   0.00031,274982650.79600,   0.00021,  -0.00020,  -0.00012,  -5.30688,   1.00000
291947378.52085,-231146932.58137,-80570721.29854,   0.00200,  -0.00183,  -0.00117,474994569.10468,   0.00032,274994573.66079,   0.00022,  -0.00021,  -0.00012,  -4.55611,   1.00000
292671811.53622,-230177986.11620,-80882266.25119,   0.00200,  -0.00183,  -0.00118,475006448.07684,   0.00033,275006455.52533,   0.00022,  -0.00021,  -0.00013,  -7.44848,   1.00000
293407206.58712,-229194367.10799,-81193698.38251,   0.00201,  -0.00183,  -0.00119,475018289.94371,   0.00035,275018296.81531,   0.00023,  -0.00022,  -0.00013,  -6.87161,   1.00000
294138814.03552,-228213106.69801,-81503468.09541,   0.00202,  -0.00184,  -0.00120,475030149.01923,   0.00036,275030152.60336,   0.00024,  -0.00023,  -0.00014,  -3.58413,   1.00000
294881318.15380,-227217132.49942,-81813125.77050,   0.00203,  -0.00184,  -0.00120,475041963.70527,   0.00037,275041968.40896,   0.00025,  -0.00023,  -0.00014,  -4.70370,   1.00000
295618059.93638,-226219552.11862,-82130183.56805,   0.00204,  -0.00185,  -0.00121,475053691.06770,   0.00038,275053696.24633,   0.00025,  -0.00024,  -0.00014,  -5.17863,   1.00000
296367562.88794,-225211216.99787,-82438028.58384,   0.00205,  -0.00185,  -0.00122,475065479.46662,   0.00039,275065487.53649,   0.00026,  -0.00025,  -0.00015,  -8.06987,   1.00000
297113229.86477,-224202766.80135,-82747712.32703,   0.00206,  -0.00185,  -0.00123,475077164.12925,   0.00040,275077171.85305,   0.00027,  -0.00025,  -0.00015,  -7.72380,   1.00000
297855052.43057,-223196700.82709,-83055737.74130,   0.00207,  -0.00186,  -0.00124,475088866.69859,   0.00041,275088871.04020,   0.00027,  -0.00026,  -0.00016,  -4.34160,   1.00000
298591146.95115,-222188869.48535,-83371201.47834,   0.00207,  -0.00186,  -0.00125,475100481.84360,   0.00042,275100482.85913,   0.00028,  -0.00027,  -0.00016,  -1.01553,   1.00000
299354554.59557,-221153055.17993,-83678977.36037,   0.00208,  -0.00186,  -0.00125,475112103.88665,   0.00043,275112105.29816,   0.00029,  -0.00027,  -0.00017,  -1.41151,   1.00000
300114121.22888,-220116971.52805,-83988631.79934,   0.00209,  -0.00187,  -0.00126,475123614.66037,   0.00044,275123621.54034,   0.00030,  -0.00028,  -0.00017,  -6.87997,   1.00000
300867759.64438,-219081747.19653,-84302181.32768,   0.00210,  -0.00187,  -0.00127,475135168.70036,   0.00045,275135172.91111,   0.00030,  -0.00029,  -0.00018,  -4.21075,   1.00000
301619503.05236,-218050477.06501,-84608492.65609,   0.00211,  -0.00187,  -0.00128,475146717.12127,   0.00046,275146719.92641,   0.00031,  -0.00029,  -0.00018,  -2.80514,   1.00000
302394475.79089,-216985273.85973,-84921788.36609,   0.00212,  -0.00188,  -0.00129,475158191.15519,   0.00047,275158197.23874,   0.00032,  -0.00030,  -0.00018,  -6.08355,   1.00000
303153076.86361,-215938630.62850,-85229887.05762,   0.00213,  -0.00188,  -0.00130,475169592.29510,   0.00048,275169601.48167,   0.00032,  -0.00030,  -0.00019,  -9.18657,   1.00000
303922317.80842,-214876930.78974,-85537873.48728,   0.00213,  -0.00188,  -0.00130,475180964.36938,   0.00049,275180969.19770,   0.00033,  -0.00031,  -0.00019,  -4.82832,   1.00000
304685502.31316,-213816113.75665,-85849731.68135,   0.00214,  -0.00188,  -0.00131,475192366.45141,   0.00050,275192372.90034,   0.00034,  -0.00032,  -0.00020,  -6.44894,   1.00000
305461326.03313,-212741743.17031,-86155914.72624,   0.00215,  -0.00189,  -0.00132,475203715.14479,   0.00052,275203720.68721,   0.00035,  -0.00032,  -0.00020,  -5.54242,   1.00000
306233122.56318,-211669830.39306,-86460434.67900,   0.00216,  -0.00189,  -0.00133,475215083.79022,   0.00053,275215084.43210,   0.00035,  -0.00033,  -0.00021,  -0.64187,   1.00000
307015697.61413,-210579691.14141,-86768477.17903,   0.00217,  -0.00189,  -0.00134,475226284.60320,   0.00054,275226291.90904,   0.00036,  -0.00034,  -0.00021,  -7.30585,   1.00000
307777599.42195,-209508099.87364,-87078832.31617,   0.00218,  -0.00190,  -0.00135,475237586.65514,   0.00055,275237587.02656,   0.00037,  -0.00034,  -0.00022,  -0.37142,   1.00000
308566624.05482,-208405156.64447,-87385065.52388,   0.00218,  -0.00190,  -0.00136,475248772.16867,   0.00056,275248776.25506,   0.00037,  -0.00035,  -0.00022,  -4.08639,   1.00000
309337404.73029,-207319170.79480,-87691767.80320,   0.00219,  -0.00190,  -0.00136,475259909.11307,   0.00057,275259911.63279,   0.00038,  -0.00035,  -0.00022,  -2.51972,   1.00000
310132752.95031,-206203420.57013,-87996192.88032,   0.00220,  -0.00190,  -0.00137,475271079.99628,   0.00058,275271083.40786,   0.00039,  -0.00036,  -0.00023,  -3.41157,   1.00000
310909867.57805,-205104629.94011,-88301107.81500,   0.00221,  -0.00191,  -0.00138,475282195.37309,   0.00059,275282201.25276,   0.00039,  -0.00037,  -0.00023,  -5.87967,   1.00000
311697378.06894,-203990509.81295,-88605894.70333,   0.00222,  -0.00191,  -0.00139,475293282.48669,   0.00060,275293285.56104,   0.00040,  -0.00037,  -0.00024,  -3.07435,   1.00000
312495198.09351,-202861039.48774,-88910540.84659,   0.00223,  -0.00191,  -0.00140,475304327.47307,   0.00061,275304336.95744,   0.00041,  -0.00038,  -0.00024,  -9.48437,   1.00000
313277064.33730,-201750025.03849,-89210223.96702,   0.00223,  -0.00191,  -0.00141,475315305.24232,   0.00062,275315313.21607,   0.00042,  -0.00038,  -0.00025,  -7.97374,   1.00000
314067065.12613,-200622052.61213,-89515282.70972,   0.00224,  -0.00192,  -0.00141,475326273.38548,   0.00063,275326277.69270,   0.00042,  -0.00039,  -0.00025,  -4.30723,   1.00000
314867320.30584,-199478634.87786,-89820193.73307,   0.00225,  -0.00192,  -0.00142,475337206.62106,   0.00064,275337210.14694,   0.00043,  -0.00040,  -0.00025,  -3.52588,   1.00000
315665608.74404,-198339243.97111,-90117947.90588,   0.00226,  -0.00192,  -0.00143,475348129.30425,   0.00065,275348138.71556,   0.00044,  -0.00040,  -0.00026,  -9.41131,   1.00000
316460242.57233,-197198741.73840,-90417827.20291,   0.00227,  -0.00192,  -0.00144,475358960.09849,   0.00066,275358963.88001,   0.00044,  -0.00041,  -0.00026,  -3.78152,   1.00000
317248462.93308,-196059203.53125,-90721523.60264,   0.00228,  -0.00192,  -0.00145,475369818.16396,   0.00067,275369827.40147,   0.00045,  -0.00041,  -0.00027,  -9.23751,   1.00000
318049158.17392,-194905621.24079,-91019605.72021,   0.00228,  -0.00193,  -0.00146,475380629.43476,   0.00068,275380638.50533,   0.00046,  -0.00042,  -0.00027,  -9.07057,   1.00000
318859984.09688,-193736460.56967,-91317550.65153,   0.00229,  -0.00193,  -0.00146,475391412.96362,   0.00069,275391418.94373,   0.00046,  -0.00043,  -0.00028,  -5.98011,   1.00000
319667129.49801,-192566015.90090,-91617644.05901,   0.00230,  -0.00193,  -0.00147,475402090.66865,   0.00070,275402096.96910,   0.00047,  -0.00043,  -0.00028,  -6.30045,   1.00000
320483736.96218,-191383785.59243,-91913764.86418,   0.00231,  -0.00193,  -0.00148,475412863.05704,   0.00071,275412865.06030,   0.00048,  -0.00044,  -0.00029,  -2.00327,   1.00000
321268707.69666,-190232685.94964,-92212867.33448,   0.00232,  -0.00193,  -0.00149,475423500.92474,   0.00072,275423505.57525,   0.00048,  -0.00044,  -0.00029,  -4.65051,   1.00000
322094068.03610,-189034849.52138,-92505559.21447,   0.00232,  -0.00194,  -0.00150,475434119.66043,   0.00073,275434120.41225,   0.00049,  -0.00045,  -0.00029,  -0.75182,   1.00000
322899137.89270,-187852317.92387,-92804384.26089,   0.00233,  -0.00194,  -0.00151,475444696.38866,   0.00074,275444702.06475,   0.00050,  -0.00045,  -0.00030,  -5.67608,   1.00000
323702330.03579,-186673812.15439,-93096117.41698,   0.00234,  -0.00194,  -0.00151,475455276.34073,   0.00075,275455279.53428,   0.00050,  -0.00046,  -0.00030,  -3.19355,   1.00000
324515523.21860,-185479508.32300,-93387714.60956,   0.00235,  -0.00194,  -0.00152,475465822.35460,   0.00076,275465828.25433,   0.00051,  -0.00046,  -0.00031,  -5.89972,   1.00000
325325146.11518,-184283605.96545,-93681550.93034,   0.00236,  -0.00194,  -0.00153,475476275.02745,   0.00077,275476275.28476,   0.00052,  -0.00047,  -0.00031,  -0.25731,   1.00000
326144694.24755,-183071830.93809,-93975232.28375,   0.00236,  -0.00194,  -0.00154,475486693.86624,   0.00078,275486694.48161,   0.00052,  -0.00048,  -0.00032,  -0.61537,   1.00000
326959914.61856,-181862600.71535,-94267260.40110,   0.00237,  -0.00195,  -0.00155,475497130.23226,   0.00078,275497131.86410,   0.00053,  -0.00048,  -0.00032,  -1.63184,   1.00000
327773244.03777,-180657408.29427,-94552230.70277,   0.00238,  -0.00195,  -0.00156,475507556.66690,   0.00079,275507565.09797,   0.00054,  -0.00049,  -0.00033,  -8.43107,   1.00000
328597217.66069,-179431944.19436,-94840981.31099,   0.00239,  -0.00195,  -0.00156,475517851.27535,   0.00080,275517851.92563,   0.00054,  -0.00049,  -0.00033,  -0.65028,   1.00000
329414391.76722,-178207547.05036,-95133495.74899,   0.00240,  -0.00195,  -0.00157,475528178.01816,   0.00081,275528179.46352,   0.00055,  -0.00050,  -0.00033,  -1.44537,   1.00000
330229683.42453,-176987182.88951,-95418957.62223,   0.00240,  -0.00195,  -0.00158,475538495.30692,   0.00082,275538502.95335,   0.00056,  -0.00050,  -0.00034,  -7.64643,   1.00000
331043970.46584,-175766363.55848,-95701347.43183,   0.00241,  -0.00195,  -0.00159,475548697.30439,   0.00083,275548703.13099,   0.00056,  -0.00051,  -0.00034,  -5.82660,   1.00000
331865563.48371,-174527994.44564,-95988987.02663,   0.00242,  -0.00195,  -0.00160,475558893.49602,   0.00084,275558899.81419,   0.00057,  -0.00051,  -0.00035,  -6.31817,   1.00000
332699355.44575,-173274996.45816,-96271066.25758,   0.00243,  -0.00196,  -0.00160,475569048.34439,   0.00085,275569048.54109,   0.00058,  -0.00052,  -0.00035,  -0.19669,   1.00000
333513053.43548,-172037160.91354,-96559409.84544,   0.00243,  -0.00196,  -0.00161,475579161.94551,   0.00086,275579163.65489,   0.00058,  -0.00052,  -0.00036,  -1.70938,   1.00000
334324949.74124,-170803326.23220,-96840742.58003,   0.00244,  -0.00196,  -0.00162,475589266.06898,   0.00087,275589274.47222,   0.00059,  -0.00053,  -0.00036,  -8.40323,   1.00000
335163100.13981,-169535996.26590,-97117998.14122,   0.00245,  -0.00196,  -0.00163,475599289.85212,   0.00088,275599294.48199,   0.00059,  -0.00053,  -0.00037,  -4.62987,   1.00000
335981204.10223,-168283791.75158,-97401559.24245,   0.00246,  -0.00196,  -0.00164,475609279.01844,   0.00089,275609280.71094,   0.00060,  -0.00054,  -0.00037,  -1.69250,   1.00000
336797521.90887,-167035577.39451,-97678137.94959,   0.00246,  -0.00196,  -0.00164,475619258.77372,   0.00090,275619262.58128,   0.00061,  -0.00054,  -0.00037,  -3.80757,   1.00000
337623472.13979,-165771076.13949,-97954561.98019,   0.00247,  -0.00196,  -0.00165,475629218.58200,   0.00091,275629220.42892,   0.00061,  -0.00055,  -0.00038,  -1.84692,   1.00000
338446004.93174,-164504204.78445,-98233399.81911,   0.00248,  -0.00196,  -0.00166,475639070.16755,   0.00092,275639079.01255,   0.00062,  -0.00055,  -0.00038,  -8.84501,   1.00000
339278088.29851,-163220980.77150,-98512059.38380,   0.00249,  -0.00196,  -0.00167,475648914.24451,   0.00093,275648914.49554,   0.00063,  -0.00056,  -0.00039,  -0.25103,   1.00000
340108332.12204,-161941748.00874,-98783752.28058,   0.00250,  -0.00196,  -0.00168,475658737.21297,   0.00093,275658745.94897,   0.00063,  -0.00056,  -0.00039,  -8.73600,   1.00000
340934170.57330,-160665104.83904,-99053858.02078,   0.00250,  -0.00196,  -0.00168,475668591.77605,   0.00094,275668596.10103,   0.00064,  -0.00057,  -0.00040,  -4.32498,   1.00000
341756645.49484,-159385904.42026,-99326427.67866,   0.00251,  -0.00196,  -0.00169,475678337.75335,   0.00095,275678347.41563,   0.00064,  -0.00057,  -0.00040,  -9.66228,   1.00000
342575806.40539,-158104077.25003,-99601469.87036,   0.00252,  -0.00197,  -0.00170,475687999.15312,   0.00096,275687999.97487,   0.00065,  -0.00058,  -0.00041,  -0.82176,   1.00000
343419810.16174,-156793303.87988,-99868325.40642,   0.00252,  -0.00197,  -0.00171,475697677.16965,   0.00097,275697684.44103,   0.00066,  -0.00058,  -0.00041,  -7.27138,   1.00000
344233900.03737,-155512735.85923,-100138947.78978,   0.00253,  -0.00197,  -0.00172,475707232.56326,   0.00098,275707234.09474,   0.00066,  -0.00059,  -0.00041,  -1.53148,   1.00000
345070103.55546,-154201781.33970,-100406699.11710,   0.00254,  -0.00197,  -0.00172,475716833.91931,   0.00099,275716839.75732,   0.00067,  -0.00059,  -0.00042,  -5.83801,   1.00000
345891900.28711,-152908567.17667,-100670251.61653,   0.00255,  -0.00197,  -0.00173,475726360.58219,   0.00100,275726363.66627,   0.00067,  -0.00060,  -0.00042,  -3.08408,   1.00000
346723057.83011,-151598712.21921,-100933629.44083,   0.00255,  -0.00197,  -0.00174,475735861.68969,   0.00101,275735866.94780,   0.00068,  -0.00060,  -0.00043,  -5.25811,   1.00000
347563489.57094,-150272212.25863,-101196814.80931,   0.00256,  -0.00197,  -0.00175,475745349.44719,   0.00101,275745350.17823,   0.00069,  -0.00061,  -0.00043,  -0.73104,   1.00000
348386875.52670,-148962001.65427,-101461157.61624,   0.00257,  -0.00197,  -0.00175,475754767.52117,   0.00102,275754775.18123,   0.00069,  -0.00061,  -0.00044,  -7.66005,   1.00000
349222277.93370,-147636435.98491,-101720001.58458,   0.00258,  -0.00197,  -0.00176,475764148.79990,   0.00103,275764156.72890,   0.00070,  -0.00062,  -0.00044,  -7.92900,   1.00000
350040756.39350,-146327102.36596,-101980054.66950,   0.00258,  -0.00197,  -0.00177,475773471.58872,   0.00104,275773479.48760,   0.00070,  -0.00062,  -0.00044,  -7.89887,   1.00000
350868489.69451,-145000968.93660,-102239914.07431,   0.00259,  -0.00197,  -0.00178,475782775.13782,   0.00105,275782783.12255,   0.00071,  -0.00062,  -0.00045,  -7.98472,   1.00000
351695796.99152,-143672980.44919,-102497071.15007,   0.00260,  -0.00197,  -0.00179,475791961.97593,   0.00106,275791965.71685,   0.00072,  -0.00063,  -0.00045,  -3.74091,   1.00000
352531023.39548,-142333944.49334,-102749878.30142,   0.00260,  -0.00197,  -0.00179,475801237.70364,   0.00107,275801246.24998,   0.00072,  -0.00063,  -0.00046,  -8.54634,   1.00000
353350706.21441,-141005196.27634,-103008111.16642,   0.00261,  -0.00197,  -0.00180,475810346.19008,   0.00107,275810351.40949,   0.00073,  -0.00064,  -0.00046,  -5.21941,   1.00000
354178267.34144,-139665436.88541,-103261968.68342,   0.00262,  -0.00197,  -0.00181,475819550.13436,   0.00108,275819554.79082,   0.00073,  -0.00064,  -0.00047,  -4.65646,   1.00000
355005483.16132,-138323606.37984,-103513177.75872,   0.00263,  -0.00197,  -0.00182,475828630.68666,   0.00109,275828637.48697,   0.00074,  -0.00065,  -0.00047,  -6.80031,   1.00000
355832406.98254,-136979613.34930,-103761766.91636,   0.00263,  -0.00197,  -0.00182,475837592.75487,   0.00110,275837599.50324,   0.00075,  -0.00065,  -0.00047,  -6.74838,   1.00000
356664202.85680,-135623369.01630,-104011227.49989,   0.00264,  -0.00197,  -0.00183,475846675.89452,   0.00111,275846684.73382,   0.00075,  -0.00065,  -0.00048,  -8.83930,   1.00000
357483576.06912,-134278329.24360,-104260961.54178,   0.00265,  -0.00197,  -0.00184,475855564.74109,   0.00112,275855570.15152,   0.00076,  -0.00066,  -0.00048,  -5.41043,   1.00000
358313537.17942,-132923676.48282,-104501035.74091,   0.00265,  -0.00197,  -0.00185,475864525.68347,   0.00112,275864530.04324,   0.00076,  -0.00066,  -0.00049,  -4.35976,   1.00000
359137476.54352,-131564060.73145,-104749049.03167,   0.00266,  -0.00197,  -0.00185,475873411.45333,   0.00113,275873418.78634,   0.00077,  -0.00067,  -0.00049,  -7.33301,   1.00000
359961241.30676,-130201982.00252,-104994497.43381,   0.00267,  -0.00197,  -0.00186,475882182.78987,   0.00114,275882187.42196,   0.00077,  -0.00067,  -0.00050,  -4.63209,   1.00000
360783506.19686,-128843698.62515,-105233199.01797,   0.00267,  -0.00197,  -0.00187,475890950.62538,   0.00115,275890950.94313,   0.00078,  -0.00068,  -0.00050,  -0.31775,   1.00000
361611730.02960,-127466944.71415,-105476909.73167,   0.00268,  -0.00196,  -0.00188,475899719.63540,   0.00116,275899724.16827,   0.00079,  -0.00068,  -0.00050,  -4.53287,   1.00000
362442769.49218,-126088812.66002,-105712861.23427,   0.00269,  -0.00196,  -0.00188,475908347.67701,   0.00117,275908352.89653,   0.00079,  -0.00068,  -0.00051,  -5.21952,   1.00000
363266368.79951,-124711948.25102,-105952547.17758,   0.00269,  -0.00196,  -0.00189,475917018.06582,   0.00117,275917026.33456,   0.00080,  -0.00069,  -0.00051,  -8.26874,   1.00000
364076663.89242,-123352124.16318,-106188495.70842,   0.00270,  -0.00196,  -0.00190,475925607.04214,   0.00118,275925613.84707,   0.00080,  -0.00069,  -0.00052,  -6.80494,   1.00000
364909044.26387,-121955114.88400,-106425447.71148,   0.00271,  -0.00196,  -0.00190,475934147.55522,   0.00119,275934153.81425,   0.00081,  -0.00070,  -0.00052,  -6.25903,   1.00000
365739907.01662,-120561870.72577,-106655680.70196,   0.00271,  -0.00196,  -0.00191,475942679.66260,   0.00120,275942688.92303,   0.00081,  -0.00070,  -0.00052,  -9.26043,   1.00000
366554563.20243,-119184346.46907,-106887456.96040,   0.00272,  -0.00196,  -0.00192,475951161.01834,   0.00120,275951162.72812,   0.00082,  -0.00070,  -0.00053,  -1.70977,   1.00000
367369307.60113,-117803762.43959,-107116809.13161,   0.00273,  -0.00196,  -0.00193,475959508.41234,   0.00121,275959517.10283,   0.00082,  -0.00071,  -0.00053,  -8.69050,   1.00000
368192795.66619,-116405705.37496,-107345915.90833,   0.00273,  -0.00196,  -0.00193,475967858.26820,   0.00122,275967858.67753,   0.00083,  -0.00071,  -0.00054,  -0.40933,   1.00000
369011811.07337,-115010146.88005,-107573547.29349,   0.00274,  -0.00196,  -0.00194,475976215.18407,   0.00123,275976220.31655,   0.00084,  -0.00071,  -0.00054,  -5.13248,   1.00000
369830947.32858,-113611357.36328,-107798784.06001,   0.00274,  -0.00196,  -0.00195,475984453.08569,   0.00124,275984462.99196,   0.00084,  -0.00072,  -0.00054,  -9.90628,   1.00000
370645659.24287,-112215056.85802,-108022568.51821,   0.00275,  -0.00196,  -0.00195,475992724.05696,   0.00124,275992725.46654,   0.00085,  -0.00072,  -0.00055,  -1.40958,   1.00000
371460555.01052,-110815380.38877,-108243988.57984,   0.00276,  -0.00195,  -0.00196,476000859.61410,   0.00125,276000869.14736,   0.00085,  -0.00073,  -0.00055,  -9.53326,   1.00000
372284036.00110,-109398088.39734,-108465138.21139,   0.00276,  -0.00195,  -0.00197,476008997.50664,   0.00126,276009001.68077,   0.00086,  -0.00073,  -0.00056,  -4.17413,   1.00000
373091609.06307,-107996246.41257,-108687951.42888,   0.00277,  -0.00195,  -0.00197,476017062.40084,   0.00127,276017072.14872,   0.00086,  -0.00073,  -0.00056,  -9.74788,   1.00000
373910858.07641,-106577877.03226,-108905301.84191,   0.00278,  -0.00195,  -0.00198,476025097.46973,   0.00127,276025106.53359,   0.00087,  -0.00074,  -0.00056,  -9.06386,   1.00000
374714308.68619,-105174888.14319,-109124358.97851,   0.00278,  -0.00195,  -0.00199,476033069.12360,   0.00128,276033078.41153,   0.00087,  -0.00074,  -0.00057,  -9.28793,   1.00000
375529429.30962,-103755286.57781,-109337959.83568,   0.00279,  -0.00195,  -0.00199,476041010.53371,   0.00129,276041014.60117,   0.00088,  -0.00074,  -0.00057,  -4.06746,   1.00000
376328844.73387,-102350989.80552,-109553305.16439,   0.00279,  -0.00195,  -0.00200,476048878.01685,   0.00130,276048887.97509,   0.00088,  -0.00075,  -0.00058,  -9.95824,   1.00000
377139929.63974,-100929998.33858,-109763202.10686,   0.00280,  -0.00195,  -0.00201,476056724.74559,   0.00130,276056726.00585,   0.00089,  -0.00075,  -0.00058,  -1.26026,   1.00000
377959381.16395,-99491183.03527,-109972790.84773,   0.00281,  -0.00194,  -0.00201,476064553.88255,   0.00131,276064555.22431,   0.00089,  -0.00075,  -0.00058,  -1.34176,   1.00000
378766395.75062,-98068695.80226,-110179011.19074,   0.00281,  -0.00194,  -0.00202,476072286.12068,   0.00132,276072295.62393,   0.00090,  -0.00076,  -0.00059,  -9.50325,   1.00000
379570650.76900,-96641055.39691,-110388148.22882,   0.00282,  -0.00194,  -0.00203,476079941.40649,   0.00132,276079944.09465,   0.00090,  -0.00076,  -0.00059,  -2.68816,   1.00000
380386443.82945,-95196557.01643,-110591816.62315,   0.00282,  -0.00194,  -0.00203,476087555.62114,   0.00133,276087558.75425,   0.00091,  -0.00076,  -0.00060,  -3.13311,   1.00000
381186743.09288,-93767152.63469,-110797324.74199,   0.00283,  -0.00194,  -0.00204,476095105.05237,   0.00134,276095110.03481,   0.00091,  -0.00077,  -0.00060,  -4.98244,   1.00000
381982678.45644,-92340138.45642,-111001439.75176,   0.00284,  -0.00194,  -0.00205,476102678.11515,   0.00135,276102681.32844,   0.00092,  -0.00077,  -0.00060,  -3.21329,   1.00000
382779177.52633,-90908781.30251,-111203360.47503,   0.00284,  -0.00193,  -0.00205,476110130.05958,   0.00135,276110135.29950,   0.00092,  -0.00077,  -0.00061,  -5.23993,   1.00000
383587191.20254,-89460403.80813,-111399819.19997,   0.00285,  -0.00193,  -0.00206,476117549.85311,   0.00136,276117556.29129,   0.00093,  -0.00078,  -0.00061,  -6.43818,   1.00000
384379910.39974,-88026970.37114,-111598194.06166,   0.00285,  -0.00193,  -0.00207,476124912.98936,   0.00137,276124913.18973,   0.00093,  -0.00078,  -0.00062,  -0.20037,   1.00000
385180809.29942,-86575408.51237,-111796220.59123,   0.00286,  -0.00193,  -0.00207,476132258.87699,   0.00137,276132263.91850,   0.00094,  -0.00078,  -0.00062,  -5.04151,   1.00000
385982300.02841,-85119230.83491,-111992081.23883,   0.00286,  -0.00193,  -0.00208,476139490.76722,   0.00138,276139498.20852,   0.00094,  -0.00079,  -0.00062,  -7.44131,   1.00000
386782722.40167,-83666412.17672,-112181454.06022,   0.00287,  -0.00192,  -0.00208,476146722.61338,   0.00139,276146726.56119,   0.00095,  -0.00079,  -0.00063,  -3.94781,   1.00000
387568032.01689,-82228380.18275,-112372812.62450,   0.00287,  -0.00192,  -0.00209,476153887.39746,   0.00139,276153890.25130,   0.00095,  -0.00079,  -0.00063,  -2.85384,   1.00000
388364794.18640,-80773085.40835,-112558708.68707,   0.00288,  -0.00192,  -0.00210,476161019.07248,   0.00140,276161022.38307,   0.00096,  -0.00080,  -0.00063,  -3.31058,   1.00000
389158896.65606,-79311902.51498,-112747599.87311,   0.00289,  -0.00192,  -0.00210,476168059.65223,   0.00141,276168064.86510,   0.00096,  -0.00080,  -0.00064,  -5.21287,   1.00000
389938012.28070,-77865373.51507,-112938512.51045,   0.00289,  -0.00192,  -0.00211,476175032.53766,   0.00141,276175042.48511,   0.00096,  -0.00080,  -0.00064,  -9.94745,   1.00000
390728543.49604,-76401452.03956,-113123947.27851,   0.00290,  -0.00191,  -0.00212,476181989.36573,   0.00142,276181989.43065,   0.00097,  -0.00080,  -0.00064,  -0.06492,   1.00000
391507569.69344,-74953046.93646,-113306347.14564,   0.00290,  -0.00191,  -0.00212,476188834.94891,   0.00143,276188844.71262,   0.00097,  -0.00081,  -0.00065,  -9.76371,   1.00000
392294576.03875,-73486224.46883,-113488366.21706,   0.00291,  -0.00191,  -0.00213,476195689.44778,   0.00143,276195696.36188,   0.00098,  -0.00081,  -0.00065,  -6.91411,   1.00000
393092857.97840,-72001914.94123,-113664889.26484,   0.00291,  -0.00191,  -0.00213,476202509.89234,   0.00144,276202518.54612,   0.00098,  -0.00081,  -0.00066,  -8.65379,   1.00000
393865883.19539,-70544256.56679,-113846952.03271,   0.00292,  -0.00190,  -0.00214,476209184.55896,   0.00144,276209189.49303,   0.00099,  -0.00082,  -0.00066,  -4.93407,   1.00000
394650231.81202,-69068981.92177,-114023523.91018,   0.00292,  -0.00190,  -0.00214,476215824.46840,   0.00145,276215831.28711,   0.00099,  -0.00082,  -0.00066,  -6.81871,   1.00000
395430251.06668,-67595953.49286,-114198772.02715,   0.00293,  -0.00190,  -0.00215,476222489.85696,   0.00146,276222493.55035,   0.00100,  -0.00082,  -0.00067,  -3.69339,   1.00000
396211177.45699,-66117353.94395,-114371989.97306,   0.00293,  -0.00190,  -0.00216,476229033.72439,   0.00146,276229041.06580,   0.00100,  -0.00082,  -0.00067,  -7.34141,   1.00000
396977518.49473,-64653021.47777,-114547380.33861,   0.00294,  -0.00189,  -0.00216,476235515.72010,   0.00147,276235522.58171,   0.00100,  -0.00083,  -0.00067,  -6.86161,   1.00000
397755119.34956,-63170923.30596,-114717269.70693,   0.00294,  -0.00189,  -0.00217,476241970.60541,   0.00148,276241975.98537,   0.00101,  -0.00083,  -0.00068,  -5.37995,   1.00000
398521723.53575,-61703859.62884,-114884305.12137,   0.00295,  -0.00189,  -0.00217,476248327.66190,   0.00148,276248336.23823,   0.00101,  -0.00083,  -0.00068,  -8.57633,   1.00000
399296043.33072,-60218105.16712,-115050902.46170,   0.00295,  -0.00189,  -0.00218,476254692.37725,   0.00149,276254695.76649,   0.00102,  -0.00083,  -0.00068,  -3.38924,   1.00000
400071362.94773,-58726396.14605,-115215509.79726,   0.00296,  -0.00188,  -0.00218,476260932.15363,   0.00149,276260941.43261,   0.00102,  -0.00084,  -0.00069,  -9.27898,   1.00000
400832308.71553,-57248722.56793,-115382367.79329,   0.00296,  -0.00188,  -0.00219,476267116.20324,   0.00150,276267120.59869,   0.00102,  -0.00084,  -0.00069,  -4.39545,   1.00000
401604402.77075,-55753071.38944,-115543702.71789,   0.00296,  -0.00188,  -0.00219,476273263.94149,   0.00150,276273273.25364,   0.00103,  -0.00084,  -0.00069,  -9.31215,   1.00000
402372202.92565,-54259579.35701,-115703748.87475,   0.00297,  -0.00187,  -0.00220,476279445.94108,   0.00151,276279446.55347,   0.00103,  -0.00084,  -0.00070,  -0.61239,   1.00000
403119363.15562,-52792562.42547,-115864629.47684,   0.00297,  -0.00187,  -0.00221,476285436.30281,   0.00152,276285438.35783,   0.00104,  -0.00085,  -0.00070,  -2.05502,   1.00000
403889419.65304,-51286448.51836,-116020772.65124,   0.00298,  -0.00187,  -0.00221,476291377.30723,   0.00152,276291385.12936,   0.00104,  -0.00085,  -0.00070,  -7.82213,   1.00000
404655175.93139,-49782446.23608,-116175633.36291,   0.00298,  -0.00187,  -0.00222,476297345.42940,   0.00153,276297352.79077,   0.00104,  -0.00085,  -0.00071,  -7.36137,   1.00000
405400566.33278,-48304626.50087,-116331417.44226,   0.00299,  -0.00186,  -0.00222,476303133.64144,   0.00153,276303138.24182,   0.00105,  -0.00085,  -0.00071,  -4.60038,   1.00000
406163240.89222,-46796199.55834,-116483071.79401,   0.00299,  -0.00186,  -0.00223,476309013.83759,   0.00154,276309013.87745,   0.00105,  -0.00085,  -0.00071,  -0.03987,   1.00000
406905713.91581,-45313771.62373,-116635701.53562,   0.00300,  -0.00186,  -0.00223,476314697.57607,   0.00154,276314706.90888,   0.00106,  -0.00086,  -0.00071,  -9.33281,   1.00000
407655607.51313,-43812306.82420,-116787813.08945,   0.00300,  -0.00185,  -0.00224,476320401.59936,   0.00155,276320402.71772,   0.00106,  -0.00086,  -0.00072,  -1.11836,   1.00000
408410401.66762,-42304732.49563,-116932998.00917,   0.00300,  -0.00185,  -0.00224,476325957.13760,   0.00155,276325959.10561,   0.00106,  -0.00086,  -0.00072,  -1.96801,   1.00000
409157307.95394,-40798471.80465,-117081947.22650,   0.00301,  -0.00185,  -0.00225,476331563.03670,   0.00156,276331563.71550,   0.00107,  -0.00086,  -0.00072,  -0.67880,   1.00000
409897736.88606,-39307044.49075,-117223304.23301,   0.00301,  -0.00184,  -0.00225,476337040.54720,   0.00156,276337045.66192,   0.00107,  -0.00087,  -0.00073,  -5.11472,   1.00000
410656825.93250,-37775355.04815,-117364785.34108,   0.00302,  -0.00184,  -0.00226,476342515.47703,   0.00157,276342515.58837,   0.00107,  -0.00087,  -0.00073,  -0.11134,   1.00000
411381171.59204,-36289539.42103,-117511747.21213,   0.00302,  -0.00184,  -0.00226,476347839.77041,   0.00157,276347845.11482,   0.00108,  -0.00087,  -0.00073,  -5.34441,   1.00000
412116483.65474,-34785148.16245,-117653139.13272,   0.00302,  -0.00183,  -0.00226,476353145.28205,   0.00158,276353151.85273,   0.00108,  -0.00087,  -0.00074,  -6.57068,   1.00000
412862651.58038,-33262174.88960,-117788941.91135,   0.00303,  -0.00183,  -0.00227,476358431.83511,   0.00158,276358436.47942,   0.00108,  -0.00087,  -0.00074,  -4.64431,   1.00000
413595166.40027,-31752412.80598,-117927242.19903,   0.00303,  -0.00183,  -0.00227,476363648.07233,   0.00159,276363653.01641,   0.00109,  -0.00088,  -0.00074,  -4.94408,   1.00000
414329089.69931,-30235205.69075,-118063683.63074,   0.00304,  -0.00182,  -0.00228,476368751.76939,   0.00159,276368758.84999,   0.00109,  -0.00088,  -0.00074,  -7.08060,   1.00000
415053266.21745,-28731668.05805,-118197671.39105,   0.00304,  -0.00182,  -0.00228,476373764.79540,   0.00160,276373768.56766,   0.00110,  -0.00088,  -0.00075,  -3.77226,   1.00000
415784478.48467,-27208766.99378,-118331040.81051,   0.00304,  -0.00182,  -0.00229,476378775.97843,   0.00160,276378784.97630,   0.00110,  -0.00088,  -0.00075,  -8.99787,   1.00000
416517116.48777,-25678184.28062,-118462558.04349,   0.00305,  -0.00181,  -0.00229,476383683.30901,   0.00161,276383691.46779,   0.00110,  -0.00088,  -0.00075,  -8.15878,   1.00000
417238317.76182,-24171276.87542,-118587309.30336,   0.00305,  -0.00181,  -0.00230,476388598.85559,   0.00161,276388604.83821,   0.00110,  -0.00088,  -0.00075,  -5.98262,   1.00000
417968257.49319,-22634708.02682,-118715772.31294,   0.00305,  -0.00180,  -0.00230,476393416.76787,   0.00162,276393422.87607,   0.00111,  -0.00089,  -0.00076,  -6.10820,   1.00000
418688660.33511,-21111495.49455,-118841847.83526,   0.00306,  -0.00180,  -0.00230,476398139.89163,   0.00162,276398144.58660,   0.00111,  -0.00089,  -0.00076,  -4.69496,   1.00000
419395834.83931,-19601017.74311,-118970543.44796,   0.00306,  -0.00180,  -0.00231,476402793.86472,   0.00163,276402797.27354,   0.00111,  -0.00089,  -0.00076,  -3.40882,   1.00000
420113689.24534,-18071527.68817,-119093592.82314,   0.00306,  -0.00179,  -0.00231,476407430.38523,   0.00163,276407430.82378,   0.00112,  -0.00089,  -0.00077,  -0.43856,   1.00000
420833062.51832,-16533868.45932,-119214815.59071,   0.00307,  -0.00179,  -0.00232,476411954.70178,   0.00163,276411955.69392,   0.00112,  -0.00089,  -0.00077,  -0.99215,   1.00000
421537492.30261,-15019297.10198,-119334346.53406,   0.00307,  -0.00178,  -0.00232,476416511.39193,   0.00164,276416513.41477,   0.00112,  -0.00089,  -0.00077,  -2.02283,   1.00000
422249201.18411,-13486309.71559,-119451455.62745,   0.00307,  -0.00178,  -0.00233,476420825.22624,   0.00164,276420832.86416,   0.00113,  -0.00090,  -0.00077,  -7.63792,   1.00000
422952968.45694,-11954550.75926,-119572338.22913,   0.00308,  -0.00178,  -0.00233,476425198.48275,   0.00165,276425201.45935,   0.00113,  -0.00090,  -0.00077,  -2.97660,   1.00000
423660413.31960,-10425410.43062,-119682114.92437,   0.00308,  -0.00177,  -0.00233,476429527.40899,   0.00165,276429535.52420,   0.00113,  -0.00090,  -0.00078,  -8.11521,   1.00000
424356737.93255,-8897909.08205,-119798948.09631,   0.00308,  -0.00177,  -0.00234,476433694.63359,   0.00165,276433698.77715,   0.00113,  -0.00090,  -0.00078,  -4.14356,   1.00000
425059632.50581,-7350677.93397,-119915024.65080,   0.00309,  -0.00176,  -0.00234,476437865.33434,   0.00166,276437873.40491,   0.00114,  -0.00090,  -0.00078,  -8.07057,   1.00000
425766246.87528,-5805948.52785,-120020009.53618,   0.00309,  -0.00176,  -0.00234,476442012.20926,   0.00166,276442013.66904,   0.00114,  -0.00090,  -0.00078,  -1.45977,   1.00000
426447349.57797,-4283534.61449,-120136609.21635,   0.00309,  -0.00176,  -0.00235,476446017.12686,   0.00167,276446021.23076,   0.00114,  -0.00090,  -0.00079,  -4.10389,   1.00000
427142829.04813,-2742089.53206,-120242543.25563,   0.00309,  -0.00175,  -0.00235,476449983.70051,   0.00167,276449984.86002,   0.00115,  -0.00091,  -0.00079,  -1.15951,   1.00000
427836020.66641,-1191279.06183,-120351620.26531,   0.00310,  -0.00175,  -0.00236,476453869.03692,   0.00167,276453870.05692,   0.00115,  -0.00091,  -0.00079,  -1.02001,   1.00000
428529083.37267,357577.95137,-120454572.78435,   0.00310,  -0.00174,  -0.00236,476457745.15739,   0.00168,276457748.98959,   0.00115,  -0.00091,  -0.00079,  -3.83220,   1.00000
429204861.80708,1883788.57616,-120559348.72397,   0.00310,  -0.00174,  -0.00236,476461436.56856,   0.00168,276461438.40756,   0.00115,  -0.00091,  -0.00080,  -1.83900,   1.00000
429887013.29434,3429929.97388,-120663310.82706,   0.00311,  -0.00173,  -0.00237,476465140.38880,   0.00168,276465141.32304,   0.00116,  -0.00091,  -0.00080,  -0.93424,   1.00000
430579380.55779,4995656.83331,-120761489.82973,   0.00311,  -0.00173,  -0.00237,476468828.99267,   0.00169,276468830.46148,   0.00116,  -0.00091,  -0.00080,  -1.46881,   1.00000
431254661.74059,6539076.48034,-120861544.95518,   0.00311,  -0.00172,  -0.00237,476472323.14736,   0.00169,276472329.99105,   0.00116,  -0.00091,  -0.00080,  -6.84369,   1.00000
431925971.71375,8081027.92924,-120960447.67503,   0.00311,  -0.00172,  -0.00238,476475846.10105,   0.00169,276475851.08281,   0.00116,  -0.00091,  -0.00080,  -4.98176,   1.00000
432599042.79524,9632547.14428,-121057565.47011,   0.00311,  -0.00172,  -0.00238,476479264.59626,   0.00170,276479267.18119,   0.00117,  -0.00092,  -0.00081,  -2.58493,   1.00000
433273847.51726,11193729.35892,-121152888.48995,   0.00312,  -0.00171,  -0.00238,476482574.18329,   0.00170,276482578.81677,   0.00117,  -0.00092,  -0.00081,  -4.63347,   1.00000
433934583.44029,12732003.12056,-121246796.61455,   0.00312,  -0.00171,  -0.00239,476485915.01360,   0.00170,276485918.26174,   0.00117,  -0.00092,  -0.00081,  -3.24814,   1.00000
434607128.79433,14301574.47027,-121339163.41996,   0.00312,  -0.00170,  -0.00239,476489142.53296,   0.00171,276489147.88215,   0.00117,  -0.00092,  -0.00081,  -5.34920,   1.00000
435271410.76588,15859547.26062,-121429496.18102,   0.00312,  -0.00170,  -0.00239,476492273.16665,   0.00171,276492279.24696,   0.00117,  -0.00092,  -0.00081,  -6.08031,   1.00000
435927551.11933,17406023.82039,-121517828.17369,   0.00313,  -0.00169,  -0.00239,476495311.46018,   0.00171,276495311.91106,   0.00118,  -0.00092,  -0.00081,  -0.45088,   1.00000
436589635.55321,18972670.32498,-121605219.03066,   0.00313,  -0.00169,  -0.00240,476498361.75540,   0.00171,276498361.90403,   0.00118,  -0.00092,  -0.00082,  -0.14863,   1.00000
437239548.83893,20528126.65731,-121695528.31266,   0.00313,  -0.00168,  -0.00240,476501335.83094,   0.00172,276501341.59115,   0.00118,  -0.00092,  -0.00082,  -5.76021,   1.00000
437895351.65819,22093644.95887,-121779135.93691,   0.00313,  -0.00168,  -0.00240,476504184.21182,   0.00172,276504190.20478,   0.00118,  -0.00092,  -0.00082,  -5.99297,   1.00000
438539096.98429,23648138.14227,-121865692.19361,   0.00313,  -0.00167,  -0.00241,476506958.68644,   0.00172,276506968.34049,   0.00118,  -0.00092,  -0.00082,  -9.65404,   1.00000
439192721.75932,25222746.77510,-121946348.51601,   0.00313,  -0.00167,  -0.00241,476509729.95733,   0.00173,276509737.03708,   0.00119,  -0.00092,  -0.00082,  -7.07975,   1.00000
439826325.44405,26776788.68507,-122034081.91037,   0.00314,  -0.00166,  -0.00241,476512337.54697,   0.00173,276512342.36804,   0.00119,  -0.00093,  -0.00082,  -4.82107,   1.00000
440464284.46773,28329405.50011,-122110883.04323,   0.00314,  -0.00166,  -0.00241,476514903.28997,   0.00173,276514913.22346,   0.00119,  -0.00093,  -0.00083,  -9.93348,   1.00000
441117469.38016,29923878.77656,-122186757.95524,   0.00314,  -0.00165,  -0.00242,476517498.20156,   0.00173,276517501.62316,   0.00119,  -0.00093,  -0.00083,  -3.42160,   1.00000
441741269.37632,31476568.96344,-122269659.65047,   0.00314,  -0.00165,  -0.00242,476519918.73113,   0.00173,276519928.71387,   0.00119,  -0.00093,  -0.00083,  -9.98274,   1.00000
442378982.28384,33049501.84369,-122341724.11657,   0.00314,  -0.00164,  -0.00242,476522319.44312,   0.00174,276522319.57945,   0.00119,  -0.00093,  -0.00083,  -0.13633,   1.00000
443014312.09996,34633398.80199,-122416858.25849,   0.00314,  -0.00164,  -0.00242,476524630.26550,   0.00174,276524638.57657,   0.00120,  -0.00093,  -0.00083,  -8.31107,   1.00000
443628512.87469,36185251.72511,-122494969.69971,   0.00315,  -0.00163,  -0.00243,476526886.20078,   0.00174,276526887.94329,   0.00120,  -0.00093,  -0.00083,  -1.74251,   1.00000
444265853.01394,37779024.95254,-122562237.70442,   0.00315,  -0.00163,  -0.00243,476529095.09005,   0.00174,276529101.60604,   0.00120,  -0.00093,  -0.00083,  -6.51599,   1.00000
444883737.21316,39353138.21486,-122636722.54303,   0.00315,  -0.00162,  -0.00243,476531148.06097,   0.00175,276531151.28122,   0.00120,  -0.00093,  -0.00084,  -3.22025,   1.00000
445501900.15483,40926211.47147,-122705181.46173,   0.00315,  -0.00161,  -0.00243,476533186.17171,   0.00175,276533195.47995,   0.00120,  -0.00093,  -0.00084,  -9.30824,   1.00000
446117688.94486,42510598.32421,-122776696.01695,   0.00315,  -0.00161,  -0.00243,476535166.31392,   0.00175,276535169.02875,   0.00120,  -0.00093,  -0.00084,  -2.71482,   1.00000
446726116.89271,44084855.76707,-122846392.01181,   0.00315,  -0.00160,  -0.00244,476537039.15058,   0.00175,276537043.57012,   0.00120,  -0.00093,  -0.00084,  -4.41954,   1.00000
447334876.46764,45658165.92885,-122910075.33716,   0.00315,  -0.00160,  -0.00244,476538906.76728,   0.00175,276538912.61459,   0.00121,  -0.00093,  -0.00084,  -5.84732,   1.00000
447945465.33396,47243043.25704,-122971924.58660,   0.00315,  -0.00159,  -0.00244,476540681.12122,   0.00175,276540683.43457,   0.00121,  -0.00093,  -0.00084,  -2.31336,   1.00000
448546075.53860,48830523.62251,-123041032.21647,   0.00315,  -0.00159,  -0.00244,476542284.59565,   0.00176,276542291.13356,   0.00121,  -0.00093,  -0.00084,  -6.53791,   1.00000
449147018.30513,50417188.69693,-123104119.75572,   0.00315,  -0.00158,  -0.00244,476543890.83948,   0.00176,276543893.82389,   0.00121,  -0.00093,  -0.00084,  -2.98441,   1.00000
449748290.27960,52003042.81731,-123161189.60708,   0.00315,  -0.00158,  -0.00244,476545482.98306,   0.00176,276545491.51874,   0.00121,  -0.00094,  -0.00084,  -8.53568,   1.00000
450339666.98499,53591835.98369,-123225529.27552,   0.00316,  -0.00157,  -0.00245,476546917.07107,   0.00176,276546926.67843,   0.00121,  -0.00094,  -0.00084,  -9.60736,   1.00000
450931408.81655,55179906.03464,-123283855.62597,   0.00316,  -0.00156,  -0.00245,476548352.10576,   0.00176,276548356.93502,   0.00121,  -0.00094,  -0.00085,  -4.82926,   1.00000
451516182.53909,56758523.52028,-123340455.29328,   0.00316,  -0.00156,  -0.00245,476549687.81472,   0.00176,276549687.86246,   0.00121,  -0.00094,  -0.00085,  -0.04774,   1.00000
452102763.41360,58349318.45955,-123395185.38182,   0.00316,  -0.00155,  -0.00245,476550919.48110,   0.00176,276550922.84302,   0.00121,  -0.00094,  -0.00085,  -3.36192,   1.00000
452686809.27325,59952201.29985,-123452889.75525,   0.00316,  -0.00155,  -0.00245,476552086.32648,   0.00176,276552090.95680,   0.00121,  -0.00094,  -0.00085,  -4.63032,   1.00000
453271203.37474,61554496.58303,-123504570.88132,   0.00316,  -0.00154,  -0.00245,476553245.92829,   0.00177,276553254.75082,   0.00122,  -0.00094,  -0.00085,  -8.82253,   1.00000
453837242.31065,63138930.12175,-123563722.44173,   0.00316,  -0.00154,  -0.00246,476554246.21666,   0.00177,276554253.31294,   0.00122,  -0.00094,  -0.00085,  -7.09628,   1.00000
454416551.47179,64744609.89713,-123611797.16361,   0.00316,  -0.00153,  -0.00246,476555215.68907,   0.00177,276555223.58728,   0.00122,  -0.00094,  -0.00085,  -7.89820,   1.00000
454984777.84137,66341135.02931,-123663041.54606,   0.00316,  -0.00152,  -0.00246,476556115.49382,   0.00177,276556123.37922,   0.00122,  -0.00094,  -0.00085,  -7.88540,   1.00000
455546340.80129,67928840.15615,-123712621.65762,   0.00316,  -0.00152,  -0.00246,476556921.72771,   0.00177,276556923.92793,   0.00122,  -0.00094,  -0.00085,  -2.20021,   1.00000
456105308.17075,69529053.62471,-123765137.87655,   0.00316,  -0.00151,  -0.00246,476557655.55698,   0.00177,276557659.44163,   0.00122,  -0.00094,  -0.00085,  -3.88465,   1.00000
456673001.13249,71150401.31644,-123811361.67130,   0.00316,  -0.00151,  -0.00246,476558393.17610,   0.00177,276558397.03988,   0.00122,  -0.00094,  -0.00085,  -3.86379,   1.00000
457225804.59122,72741679.94478,-123856213.78110,   0.00316,  -0.00150,  -0.00246,476559020.81670,   0.00177,276559029.56488,   0.00122,  -0.00094,  -0.00085,  -8.74818,   1.00000
457773357.40540,74337786.76241,-123903499.77853,   0.00316,  -0.00149,  -0.00246,476559468.30877,   0.00177,276559474.45734,   0.00122,  -0.00094,  -0.00085,  -6.14857,   1.00000
458332117.25451,75962962.51403,-123944931.94780,   0.00316,  -0.00149,  -0.00246,476560042.81261,   0.00177,276560046.04650,   0.00122,  -0.00094,  -0.00085,  -3.23389,   1.00000
458877421.87667,77571719.45481,-123989096.57766,   0.00316,  -0.00148,  -0.00246,476560423.81195,   0.00177,276560424.02157,   0.00122,  -0.00094,  -0.00085,  -0.20962,   1.00000
459416307.44027,79172295.49402,-124031640.66907,   0.00316,  -0.00147,  -0.00246,476560694.90632,   0.00177,276560703.19953,   0.00122,  -0.00094,  -0.00085,  -8.29321,   1.00000
459959294.74844,80793835.69386,-124072656.09810,   0.00316,  -0.00147,  -0.00247,476561006.58736,   0.00177,276561015.16557,   0.00122,  -0.00094,  -0.00085,  -8.57821,   1.00000
460489077.31400,82399415.33759,-124116458.07685,   0.00315,  -0.00146,  -0.00247,476561128.00992,   0.00177,276561133.29870,   0.00122,  -0.00094,  -0.00085,  -5.28879,   1.00000
461019376.51780,84004981.56867,-124154259.45178,   0.00315,  -0.00146,  -0.00247,476561243.33195,   0.00177,276561247.90216,   0.00122,  -0.00094,  -0.00085,  -4.57021,   1.00000
461546842.70473,85623716.00728,-124194894.94648,   0.00315,  -0.00145,  -0.00247,476561295.91281,   0.00177,276561301.20834,   0.00122,  -0.00094,  -0.00085,  -5.29553,   1.00000
462061028.22102,87234009.57027,-124231842.40873,   0.00315,  -0.00144,  -0.00247,476553650.78162,   0.00177,276561301.20834,   0.00122,  -0.00094,  -0.00085,-7650.42672,   0.00000
462584450.60287,88865855.81956,-124262631.96060,   0.00315,  -0.00144,  -0.00247,476547118.63968,   0.00177,276561301.20834,   0.00122,  -0.00094,  -0.00085,-14182.56866,   0.00000
463064767.61209,90479228.33773,-124287263.60210,   0.00315,  -0.00143,  -0.00247,476507815.88700,   0.00177,276561301.20834,   0.00122,  -0.00094,  -0.00085,-53485.32135,   0.00000
463545084.62132,92092600.85590,-124311895.24360,   0.00315,  -0.00142,  -0.00247,476472834.53458,   0.00177,276561301.20834,   0.00122,  -0.00094,  -0.00085,-88466.67377,   0.00000
463991533.12349,93709052.32926,-124330368.97473,   0.00315,  -0.00142,  -0.00247,476406805.56548,   0.00177,276561301.20834,   0.00122,  -0.00094,  -0.00085,-154495.64287,   0.00000
464437981.62565,95325503.80261,-124342684.79548,   0.00315,  -0.00141,  -0.00247,476340335.95176,   0.00177,276561301.20834,   0.00122,  -0.00094,  -0.00085,-220965.25658,   0.00000
464862877.44150,96932718.41041,-124355000.61623,   0.00315,  -0.00140,  -0.00247,476262031.71985,   0.00177,276561301.20834,   0.00122,  -0.00094,  -0.00085,-299269.48849,   0.00000
465275457.43661,98552248.83895,-124361158.52660,   0.00315,  -0.00140,  -0.00247,476169032.62848,   0.00177,276561301.20834,   0.00122,  -0.00094,  -0.00085,-392268.57986,   0.00000
465688037.43171,100171779.26750,-124361158.52660,   0.00314,  -0.00139,  -0.00247,476075653.15371,   0.00177,276561301.20834,   0.00122,  -0.00094,  -0.00085,-485648.05464,   0.00000
466066748.91976,101794388.65123,-124361158.52660,   0.00314,  -0.00139,  -0.00247,475956327.28517,   0.00177,276561301.20834,   0.00122,  -0.00094,  -0.00085,-604973.92317,   0.00000
466445460.40780,103416998.03496,-124348842.70585,   0.00314,  -0.00138,  -0.00247,475831858.75060,   0.00177,276561301.20834,   0.00122,  -0.00094,  -0.00085,-729442.45774,   0.00000
466802619.20953,105030370.55313,-124342684.79548,   0.00314,  -0.00137,  -0.00247,475700453.81006,   0.00177,276561301.20834,   0.00122,  -0.00094,  -0.00085,-860847.39828,   0.00000
467138225.32495,106634506.20574,-124324211.06435,   0.00314,  -0.00137,  -0.00247,475547593.68170,   0.00177,276561301.20834,   0.00122,  -0.00094,  -0.00085,-1013707.52664,   0.00000
467461515.61962,108250957.67909,-124305737.33323,   0.00314,  -0.00136,  -0.00247,475385244.49310,   0.00177,276561301.20834,   0.00122,  -0.00094,  -0.00085,-1176056.71524,   0.00000
467772490.09355,109879724.97320,-124281105.69173,   0.00313,  -0.00135,  -0.00247,475208715.81114,   0.00177,276561301.20834,   0.00122,  -0.00094,  -0.00085,-1352585.39721,   0.00000
468052675.01560,111477702.71543,-124250316.13986,   0.00313,  -0.00134,  -0.00247,475013232.46198,   0.00177,276561301.20834,   0.00122,  -0.00094,  -0.00085,-1548068.74637,   0.00000
468320544.11689,113087996.27842,-124219526.58798,   0.00313,  -0.00134,  -0.00247,474808453.32749,   0.00177,276561301.20834,   0.00122,  -0.00094,  -0.00085,-1752847.88086,   0.00000
468588413.21819,114698289.84140,-124182579.12573,   0.00313,  -0.00133,  -0.00247,474603463.88772,   0.00177,276561301.20834,   0.00122,  -0.00094,  -0.00085,-1957837.32063,   0.00000
468843966.49874,116320899.22513,-124139473.75311,   0.00313,  -0.00132,  -0.00247,474384539.76759,   0.00177,276561301.20834,   0.00122,  -0.00094,  -0.00085,-2176761.44076,   0.00000
469056414.40667,117925034.87774,-124096368.38049,   0.00312,  -0.00132,  -0.00247,474137602.02509,   0.00177,276561301.20834,   0.00122,  -0.00094,  -0.00085,-2423699.18326,   0.00000
469268862.31460,119529170.53035,-124047105.09749,   0.00312,  -0.00131,  -0.00247,473890517.65859,   0.00177,276561301.20834,   0.00122,  -0.00094,  -0.00085,-2670783.54975,   0.00000
469459757.53621,121124069.31739,-123991683.90412,   0.00312,  -0.00130,  -0.00246,473626900.55840,   0.00177,276561301.20834,   0.00122,  -0.00094,  -0.00085,-2934400.64994,   0.00000
469659889.62339,122740520.79075,-123936262.71075,   0.00312,  -0.00130,  -0.00246,473370826.69115,   0.00177,276561301.20834,   0.00122,  -0.00094,  -0.00085,-3190474.51720,   0.00000
469816916.33795,124338498.53298,-123874683.60700,   0.00312,  -0.00129,  -0.00246,473081894.44120,   0.00177,276561301.20834,   0.00122,  -0.00094,  -0.00085,-3479406.76714,   0.00000
469961627.23175,125948792.09596,-123806946.59288,   0.00311,  -0.00128,  -0.00246,472779451.85193,   0.00177,276561301.20834,   0.00122,  -0.00094,  -0.00085,-3781849.35642,   0.00000
470106338.12556,127559085.65895,-123739209.57876,   0.00311,  -0.00128,  -0.00246,472481884.08416,   0.00177,276561301.20834,   0.00122,  -0.00094,  -0.00085,-4079417.12418,   0.00000
470229496.33305,129160142.35637,-123665314.65426,   0.00311,  -0.00127,  -0.00246,472167918.28143,   0.00177,276561301.20834,   0.00122,  -0.00094,  -0.00085,-4393382.92691,   0.00000
470309549.16792,130742725.32266,-123585261.81939,   0.00311,  -0.00126,  -0.00246,471821079.30522,   0.00177,276561301.20834,   0.00122,  -0.00094,  -0.00085,-4740221.90312,   0.00000
470398838.86835,132346860.97527,-123505208.98452,   0.00310,  -0.00125,  -0.00246,471482300.22663,   0.00177,276561301.20834,   0.00122,  -0.00094,  -0.00085,-5079000.98172,   0.00000
470466575.88248,133941759.76232,-123418998.23927,   0.00310,  -0.00125,  -0.00246,471127180.62845,   0.00177,276561301.20834,   0.00122,  -0.00094,  -0.00085,-5434120.57989,   0.00000
470512760.21029,135527421.68380,-123326629.58365,   0.00310,  -0.00124,  -0.00246,470755702.01722,   0.00177,276561301.20834,   0.00122,  -0.00094,  -0.00085,-5805599.19113,   0.00000
470558944.53810,137113083.60528,-123234260.92803,   0.00309,  -0.00123,  -0.00245,470389178.52808,   0.00177,276561301.20834,   0.00122,  -0.00094,  -0.00085,-6172122.68026,   0.00000
470571260.35884,138701824.48195,-123135734.36204,   0.00309,  -0.00123,  -0.00245,469993236.18582,   0.00177,276561301.20834,   0.00122,  -0.00094,  -0.00085,-6568065.02252,   0.00000
470562023.49328,140281328.49306,-123031049.88567,   0.00309,  -0.00122,  -0.00245,469581005.78256,   0.00177,276561301.20834,   0.00122,  -0.00094,  -0.00085,-6980295.42579,   0.00000
470562023.49328,141882385.19048,-122926365.40930,   0.00308,  -0.00121,  -0.00245,469177408.71270,   0.00177,276561301.20834,   0.00122,  -0.00094,  -0.00085,-7383892.49564,   0.00000
470531233.94141,143452652.33603,-122809365.11218,   0.00308,  -0.00120,  -0.00245,468749157.37374,   0.00177,276561301.20834,   0.00122,  -0.00094,  -0.00085,-7812143.83460,   0.00000
470488128.56879,145035235.30233,-122698522.72543,   0.00308,  -0.00120,  -0.00245,468317973.82382,   0.00177,276561301.20834,   0.00122,  -0.00094,  -0.00085,-8243327.38453,   0.00000
470401917.82354,146599344.53750,-122581522.42831,   0.00307,  -0.00119,  -0.00245,467854045.84262,   0.00177,276561301.20834,   0.00122,  -0.00094,  -0.00085,-8707255.36573,   0.00000
470324943.94386,148185006.45898,-122458364.22082,   0.00307,  -0.00118,  -0.00244,467394262.99626,   0.00177,276561301.20834,   0.00122,  -0.00094,  -0.00085,-9167038.21209,   0.00000
470247970.06417,149770668.38047,-122329048.10295,   0.00307,  -0.00118,  -0.00244,466934943.76076,   0.00177,276561301.20834,   0.00122,  -0.00094,  -0.00085,-9626357.44759,   0.00000
470118653.94631,151316303.88451,-122199731.98508,   0.00306,  -0.00117,  -0.00244,466443864.78859,   0.00177,276561301.20834,   0.00122,  -0.00094,  -0.00085,-10117436.41975,   0.00000
469986258.87325,152895807.89562,-122064257.95684,   0.00306,  -0.00116,  -0.00244,465944559.00152,   0.00177,276561301.20834,   0.00122,  -0.00094,  -0.00085,-10616742.20682,   0.00000
469844626.93463,154453759.22042,-121922626.01822,   0.00306,  -0.00115,  -0.00244,465441777.80108,   0.00177,276561301.20834,   0.00122,  -0.00094,  -0.00085,-11119523.40727,   0.00000
469669126.48895,156014789.50040,-121780994.07960,   0.00305,  -0.00115,  -0.00244,464915266.01391,   0.00177,276561301.20834,   0.00122,  -0.00094,  -0.00085,-11646035.19443,   0.00000
469493626.04327,157575819.78039,-121633204.23061,   0.00305,  -0.00114,  -0.00243,464389351.71201,   0.00177,276561301.20834,   0.00122,  -0.00094,  -0.00085,-12171949.49633,   0.00000
469296572.91128,159127613.19481,-121485414.38162,   0.00305,  -0.00113,  -0.00243,463852287.71873,   0.00177,276561301.20834,   0.00122,  -0.00094,  -0.00085,-12709013.48962,   0.00000
469077967.09298,160670169.74367,-121331466.62225,   0.00304,  -0.00112,  -0.00243,463299234.23185,   0.00177,276561301.20834,   0.00122,  -0.00094,  -0.00085,-13262066.97650,   0.00000
468847045.45393,162225042.11328,-121171360.95251,   0.00304,  -0.00112,  -0.00243,462734568.37731,   0.00177,276561301.20834,   0.00122,  -0.00094,  -0.00085,-13826732.83104,   0.00000
468594571.12857,163770677.61733,-121011255.28277,   0.00303,  -0.00111,  -0.00243,462158877.67326,   0.00177,276561301.20834,   0.00122,  -0.00094,  -0.00085,-14402423.53508,   0.00000
468320544.11689,165307076.25582,-120844991.70265,   0.00303,  -0.00110,  -0.00242,461567327.33431,   0.00177,276561301.20834,   0.00122,  -0.00094,  -0.00085,-14993973.87404,   0.00000
468024964.41891,166834238.02874,-120672570.21216,   0.00302,  -0.00109,  -0.00242,460959921.88640,   0.00177,276561301.20834,   0.00122,  -0.00094,  -0.00085,-15601379.32194,   0.00000
467738621.58649,168382952.48798,-120500148.72167,   0.00302,  -0.00109,  -0.00242,460362774.60568,   0.00177,276561301.20834,   0.00122,  -0.00094,  -0.00085,-16198526.60267,   0.00000
467399936.51588,169891640.52978,-120321569.32080,   0.00302,  -0.00108,  -0.00242,459728581.13262,   0.00177,276561301.20834,   0.00122,  -0.00094,  -0.00085,-16832720.07573,   0.00000
467070488.31083,171421881.25789,-120142989.91993,   0.00301,  -0.00107,  -0.00241,459104797.09902,   0.00177,276561301.20834,   0.00122,  -0.00094,  -0.00085,-17456504.10932,   0.00000
466707171.59872,172955200.94119,-119958252.60869,   0.00301,  -0.00106,  -0.00241,458453487.29891,   0.00177,276561301.20834,   0.00122,  -0.00094,  -0.00085,-18107813.90944,   0.00000
466334618.02106,174466967.93817,-119767357.38708,   0.00300,  -0.00106,  -0.00241,457798396.35160,   0.00177,276561301.20834,   0.00122,  -0.00094,  -0.00085,-18762904.85675,   0.00000
465940511.75708,175969498.06960,-119576462.16546,   0.00300,  -0.00105,  -0.00241,457132472.78568,   0.00177,276561301.20834,   0.00122,  -0.00094,  -0.00085,-19428828.42266,   0.00000
465534089.67235,177484344.02177,-119379409.03347,   0.00299,  -0.00104,  -0.00240,456455910.68380,   0.00177,276561301.20834,   0.00122,  -0.00094,  -0.00085,-20105390.52455,   0.00000
465106114.90130,178989953.10839,-119176197.99111,   0.00299,  -0.00103,  -0.00240,455763840.42459,   0.00177,276561301.20834,   0.00122,  -0.00094,  -0.00085,-20797460.78376,   0.00000
464656587.44395,180486325.32944,-118972986.94874,   0.00298,  -0.00102,  -0.00240,455061108.80697,   0.00177,276561301.20834,   0.00122,  -0.00094,  -0.00085,-21500192.40138,   0.00000
464216296.85216,182004250.23680,-118769775.90638,   0.00298,  -0.00102,  -0.00240,454369626.31504,   0.00177,276561301.20834,   0.00122,  -0.00094,  -0.00085,-22191674.89331,   0.00000
463723664.02219,183482148.72672,-118560406.95364,   0.00297,  -0.00101,  -0.00239,453640861.77984,   0.00177,276561301.20834,   0.00122,  -0.00094,  -0.00085,-22920439.42851,   0.00000
463240268.05777,184981599.90296,-118344880.09052,   0.00297,  -0.00100,  -0.00239,452918694.97628,   0.00177,276561301.20834,   0.00122,  -0.00094,  -0.00085,-23642606.23207,   0.00000
462704529.85517,186441024.66176,-118123195.31704,   0.00296,  -0.00099,  -0.00239,452159152.04639,   0.00177,276561301.20834,   0.00122,  -0.00094,  -0.00085,-24402149.16196,   0.00000
462178028.51814,187922002.10688,-117901510.54355,   0.00296,  -0.00099,  -0.00239,451411217.22569,   0.00177,276561301.20834,   0.00122,  -0.00094,  -0.00085,-25150083.98265,   0.00000
461629974.49479,189393742.68643,-117679825.77006,   0.00295,  -0.00098,  -0.00238,450652880.49100,   0.00177,276561301.20834,   0.00122,  -0.00094,  -0.00085,-25908420.71734,   0.00000
461069604.65069,190877799.08673,-117451983.08619,   0.00295,  -0.00097,  -0.00238,449884949.90171,   0.00177,276561301.20834,   0.00122,  -0.00094,  -0.00085,-26676351.30663,   0.00000
460478445.25472,192331065.93516,-117217982.49196,   0.00294,  -0.00096,  -0.00238,449096307.61164,   0.00177,276561301.20834,   0.00122,  -0.00094,  -0.00085,-27464993.59671,   0.00000
459874970.03800,193796648.60434,-116983981.89772,   0.00293,  -0.00095,  -0.00237,448303086.28123,   0.00177,276561301.20834,   0.00122,  -0.00094,  -0.00085,-28258214.92711,   0.00000
459249942.13497,195252994.40795,-116743823.39310,   0.00293,  -0.00095,  -0.00237,447494889.01443,   0.00177,276561301.20834,   0.00122,  -0.00094,  -0.00085,-29066412.19392,   0.00000
458594124.68007,196678550.65969,-116497506.97812,   0.00292,  -0.00094,  -0.00237,446665874.10938,   0.00177,276561301.20834,   0.00122,  -0.00094,  -0.00085,-29895427.09897,   0.00000
457947544.09072,198125659.59775,-116251190.56313,   0.00292,  -0.00093,  -0.00236,445849289.35422,   0.00177,276561301.20834,   0.00122,  -0.00094,  -0.00085,-30712011.85413,   0.00000
457257858.12876,199554294.80467,-116004874.14814,   0.00291,  -0.00092,  -0.00236,445005942.04020,   0.00177,276561301.20834,   0.00122,  -0.00094,  -0.00085,-31555359.16814,   0.00000
456577409.03235,201004482.69791,-115752399.82278,   0.00291,  -0.00092,  -0.00236,444170553.71045,   0.00177,276561301.20834,   0.00122,  -0.00094,  -0.00085,-32390747.49789,   0.00000
455844617.69777,202414644.17372,-115493767.58704,   0.00290,  -0.00091,  -0.00235,443297652.40135,   0.00177,276561301.20834,   0.00122,  -0.00094,  -0.00085,-33263648.80700,   0.00000
455121063.22874,203846358.33584,-115235135.35130,   0.00289,  -0.00090,  -0.00235,442437744.68102,   0.00177,276561301.20834,   0.00122,  -0.00094,  -0.00085,-34123556.52732,   0.00000
454366719.20784,205247282.94608,-114970345.20519,   0.00289,  -0.00089,  -0.00235,441556982.65537,   0.00177,276561301.20834,   0.00122,  -0.00094,  -0.00085,-35004318.55298,   0.00000
453600059.36619,206660523.37707,-114705555.05908,   0.00288,  -0.00088,  -0.00234,440672727.98670,   0.00177,276561301.20834,   0.00122,  -0.00094,  -0.00085,-35888573.22164,   0.00000
452811846.83823,208064526.94250,-114434607.00259,   0.00288,  -0.00088,  -0.00234,439774000.07505,   0.00177,276561301.20834,   0.00122,  -0.00094,  -0.00085,-36787301.13329,   0.00000
452023634.31027,209468530.50793,-114163658.94611,   0.00287,  -0.00087,  -0.00234,438882362.24104,   0.00177,276561301.20834,   0.00122,  -0.00094,  -0.00085,-37678938.96730,   0.00000
451192316.40968,210854060.34224,-113886552.97925,   0.00286,  -0.00086,  -0.00233,437959644.36033,   0.00177,276561301.20834,   0.00122,  -0.00094,  -0.00085,-38601656.84801,   0.00000
450339445.82279,212230353.31098,-113603289.10201,   0.00286,  -0.00085,  -0.00233,437022609.84762,   0.00177,276561301.20834,   0.00122,  -0.00094,  -0.00085,-39538691.36073,   0.00000
449486575.23589,213606646.27973,-113320025.22477,   0.00285,  -0.00084,  -0.00233,436092817.09184,   0.00177,276561301.20834,   0.00122,  -0.00094,  -0.00085,-40468484.11651,   0.00000
448612151.96269,214973702.38291,-113036761.34754,   0.00284,  -0.00084,  -0.00232,435153614.95827,   0.00177,276561301.20834,   0.00122,  -0.00094,  -0.00085,-41407686.25008,   0.00000
447703860.18242,216343837.44128,-112747339.55993,   0.00284,  -0.00083,  -0.00232,434190417.91067,   0.00177,276561301.20834,   0.00122,  -0.00094,  -0.00085,-42370883.29767,   0.00000
446786331.53659,217692419.81333,-112451759.86194,   0.00283,  -0.00082,  -0.00231,433223052.16658,   0.00177,276561301.20834,   0.00122,  -0.00094,  -0.00085,-43338249.04176,   0.00000
445856487.07001,219053318.00614,-112156180.16396,   0.00282,  -0.00081,  -0.00231,432253451.79833,   0.00177,276561301.20834,   0.00122,  -0.00094,  -0.00085,-44307849.41001,   0.00000
444895853.05156,220383426.64708,-111860600.46597,   0.00281,  -0.00080,  -0.00231,431267763.71117,   0.00177,276561301.20834,   0.00122,  -0.00094,  -0.00085,-45293537.49718,   0.00000
443944455.89867,221735087.97432,-111558862.85761,   0.00281,  -0.00080,  -0.00230,430292000.65071,   0.00177,276561301.20834,   0.00122,  -0.00094,  -0.00085,-46269300.55763,   0.00000
442940716.50760,223046722.88413,-111250967.33888,   0.00280,  -0.00079,  -0.00230,429278670.42535,   0.00177,276561301.20834,   0.00122,  -0.00094,  -0.00085,-47282630.78300,   0.00000
441924661.29577,224370673.61469,-110943071.82014,   0.00279,  -0.00078,  -0.00230,428263665.34237,   0.00177,276561301.20834,   0.00122,  -0.00094,  -0.00085,-48297635.86597,   0.00000
440908606.08395,225694624.34525,-110635176.30141,   0.00279,  -0.00077,  -0.00229,427256581.99993,   0.00177,276561301.20834,   0.00122,  -0.00094,  -0.00085,-49304719.20842,   0.00000
439870998.18581,227009338.21025,-110321122.87230,   0.00278,  -0.00076,  -0.00229,426236038.99601,   0.00177,276561301.20834,   0.00122,  -0.00094,  -0.00085,-50325262.21233,   0.00000
438790284.91505,228305578.34412,-110000911.53281,   0.00277,  -0.00076,  -0.00228,425185469.04112,   0.00177,276561301.20834,   0.00122,  -0.00094,  -0.00085,-51375832.16723,   0.00000
437709571.64429,229601818.47799,-109686858.10371,   0.00276,  -0.00075,  -0.00228,424147817.47012,   0.00177,276561301.20834,   0.00122,  -0.00094,  -0.00085,-52413483.73823,   0.00000
436598068.82166,230867269.05999,-109360488.85385,   0.00276,  -0.00074,  -0.00227,423084525.08140,   0.00177,276561301.20834,   0.00122,  -0.00094,  -0.00085,-53476776.12694,   0.00000
435474250.17828,232145035.46274,-109034119.60399,   0.00275,  -0.00073,  -0.00227,422020464.57611,   0.00177,276561301.20834,   0.00122,  -0.00094,  -0.00085,-54540836.63224,   0.00000
434328878.84859,233413564.99993,-108707750.35413,   0.00274,  -0.00072,  -0.00227,420948144.42463,   0.00177,276561301.20834,   0.00122,  -0.00094,  -0.00085,-55613156.78371,   0.00000
433183507.51889,234682094.53711,-108375223.19390,   0.00273,  -0.00072,  -0.00226,419879495.60107,   0.00177,276561301.20834,   0.00122,  -0.00094,  -0.00085,-56681805.60727,   0.00000
431995030.81658,235932150.34318,-108042696.03366,   0.00273,  -0.00071,  -0.00226,418786153.25285,   0.00177,276561301.20834,   0.00122,  -0.00094,  -0.00085,-57775147.95550,   0.00000
430806554.11426,237182206.14924,-107704010.96305,   0.00272,  -0.00070,  -0.00225,417696659.05516,   0.00177,276561301.20834,   0.00122,  -0.00094,  -0.00085,-58864642.15319,   0.00000
429596524.72563,238423025.08974,-107365325.89245,   0.00271,  -0.00069,  -0.00225,416599267.36389,   0.00177,276561301.20834,   0.00122,  -0.00094,  -0.00085,-59962033.84445,   0.00000
428343389.96438,239645370.29912,-107020482.91146,   0.00270,  -0.00068,  -0.00224,415472747.86272,   0.00177,276561301.20834,   0.00122,  -0.00094,  -0.00085,-61088553.34563,   0.00000
427090255.20313,240867715.50849,-106675639.93048,   0.00269,  -0.00068,  -0.00224,414355119.24046,   0.00177,276561301.20834,   0.00122,  -0.00094,  -0.00085,-62206181.96789,   0.00000
425815567.75557,242080823.85231,-106324639.03912,   0.00269,  -0.00067,  -0.00224,413225151.90753,   0.00177,276561301.20834,   0.00122,  -0.00094,  -0.00085,-63336149.30081,   0.00000
424540880.30801,243293932.19612,-105973638.14777,   0.00268,  -0.00066,  -0.00223,412104249.30451,   0.00177,276561301.20834,   0.00122,  -0.00094,  -0.00085,-64457051.90384,   0.00000
423223087.48783,244488566.80881,-105622637.25641,   0.00267,  -0.00065,  -0.00223,410959437.76199,   0.00177,276561301.20834,   0.00122,  -0.00094,  -0.00085,-65601863.44635,   0.00000
421883741.98133,245673964.55594,-105265478.45468,   0.00266,  -0.00064,  -0.00222,409802635.42031,   0.00177,276561301.20834,   0.00122,  -0.00094,  -0.00085,-66758665.78804,   0.00000
420544396.47484,246859362.30307,-104908319.65294,   0.00265,  -0.00064,  -0.00222,408655208.24574,   0.00177,276561301.20834,   0.00122,  -0.00094,  -0.00085,-67906092.96261,   0.00000
419174261.41647,248013970.49832,-104545002.94084,   0.00264,  -0.00063,  -0.00221,407487289.38641,   0.00177,276561301.20834,   0.00122,  -0.00094,  -0.00085,-69074011.82194,   0.00000
417791810.53735,249180894.51433,-104181686.22873,   0.00264,  -0.00062,  -0.00221,406321116.00182,   0.00177,276561301.20834,   0.00122,  -0.00094,  -0.00085,-70240185.20653,   0.00000
416387806.97192,250338581.66477,-103812211.60625,   0.00263,  -0.00061,  -0.00220,405143436.42801,   0.00177,276561301.20834,   0.00122,  -0.00094,  -0.00085,-71417864.78033,   0.00000
414953013.85461,251465479.26334,-103448894.89414,   0.00262,  -0.00060,  -0.00220,403954891.08551,   0.00177,276561301.20834,   0.00122,  -0.00094,  -0.00085,-72606410.12283,   0.00000
413505904.91656,252604692.68266,-103073262.36128,   0.00261,  -0.00060,  -0.00219,402759263.54790,   0.00177,276561301.20834,   0.00122,  -0.00094,  -0.00085,-73802037.66045,   0.00000
412028006.42663,253713116.55010,-102697629.82843,   0.00260,  -0.00059,  -0.00219,401548158.36980,   0.00177,276561301.20834,   0.00122,  -0.00094,  -0.00085,-75013142.83855,   0.00000
410559344.80227,254843093.10386,-102321997.29557,   0.00259,  -0.00058,  -0.00218,400356263.55382,   0.00177,276561301.20834,   0.00122,  -0.00094,  -0.00085,-76205037.65453,   0.00000
409059893.62603,255942280.10574,-101946364.76272,   0.00258,  -0.00057,  -0.00218,399148981.34607,   0.00177,276561301.20834,   0.00122,  -0.00094,  -0.00085,-77412319.86227,   0.00000
407538889.76348,257032230.24206,-101564574.31948,   0.00257,  -0.00056,  -0.00217,397930864.06645,   0.00177,276561301.20834,   0.00122,  -0.00094,  -0.00085,-78630437.14189,   0.00000
405984017.39387,258125259.33357,-101176625.96588,   0.00256,  -0.00056,  -0.00217,396695186.55478,   0.00177,276561301.20834,   0.00122,  -0.00094,  -0.00085,-79866114.65357,   0.00000
404441460.84501,259205972.60433,-100794835.52265,   0.00256,  -0.00055,  -0.00216,395481713.69669,   0.00177,276561301.20834,   0.00122,  -0.00094,  -0.00085,-81079587.51166,   0.00000
402855798.92353,260268212.14396,-100406887.16904,   0.00255,  -0.00054,  -0.00216,394241559.72475,   0.00177,276561301.20834,   0.00122,  -0.00094,  -0.00085,-82319741.48359,   0.00000
401248584.31573,261321214.81804,-100012780.90506,   0.00254,  -0.00053,  -0.00215,392991227.97467,   0.00177,276561301.20834,   0.00122,  -0.00094,  -0.00085,-83570073.23367,   0.00000
399632132.84238,262352664.80580,-99618674.64108,   0.00253,  -0.00053,  -0.00215,391742068.64896,   0.00177,276561301.20834,   0.00122,  -0.00094,  -0.00085,-84819232.55939,   0.00000
398003365.54827,263396430.61431,-99224568.37710,   0.00252,  -0.00052,  -0.00214,390497423.42182,   0.00177,276561301.20834,   0.00122,  -0.00094,  -0.00085,-86063877.78653,   0.00000
396322256.01598,264400170.00538,-98830462.11312,   0.00251,  -0.00051,  -0.00214,389221645.55611,   0.00177,276561301.20834,   0.00122,  -0.00094,  -0.00085,-87339655.65223,   0.00000
394650383.34925,265425462.08277,-98430197.93877,   0.00250,  -0.00050,  -0.00213,387962436.63110,   0.00177,276561301.20834,   0.00122,  -0.00094,  -0.00085,-88598864.57725,   0.00000
392969273.81696,266429201.47385,-98023775.85404,   0.00249,  -0.00049,  -0.00213,386699963.32228,   0.00177,276561301.20834,   0.00122,  -0.00094,  -0.00085,-89861337.88606,   0.00000
391245058.91204,267414467.13380,-97623511.67968,   0.00248,  -0.00049,  -0.00212,385421398.60919,   0.00177,276561301.20834,   0.00122,  -0.00094,  -0.00085,-91139902.59915,   0.00000
389520844.00713,268399732.79375,-97217089.59495,   0.00247,  -0.00048,  -0.00212,384149842.58569,   0.00177,276561301.20834,   0.00122,  -0.00094,  -0.00085,-92411458.62265,   0.00000
387753523.72959,269366524.72257,-96810667.51022,   0.00246,  -0.00047,  -0.00211,382857958.91059,   0.00177,276561301.20834,   0.00122,  -0.00094,  -0.00085,-93703342.29775,   0.00000
385986203.45206,270333316.65140,-96398087.51512,   0.00245,  -0.00046,  -0.00211,381573445.89989,   0.00177,276561301.20834,   0.00122,  -0.00094,  -0.00085,-94987855.30845,   0.00000
384188093.62265,271269319.02835,-95985507.52001,   0.00244,  -0.00045,  -0.00210,380274565.48304,   0.00177,276561301.20834,   0.00122,  -0.00094,  -0.00085,-96286735.72530,   0.00000
382377667.97249,272217637.22606,-95572927.52491,   0.00243,  -0.00045,  -0.00210,378982494.45664,   0.00177,276561301.20834,   0.00122,  -0.00094,  -0.00085,-97578806.75170,   0.00000
380558005.45676,273144402.73745,-95154189.61943,   0.00242,  -0.00044,  -0.00209,377687609.75570,   0.00177,276561301.20834,   0.00122,  -0.00094,  -0.00085,-98873691.45264,   0.00000
378695237.56842,274052694.51772,-94735451.71395,   0.00241,  -0.00043,  -0.00208,376373391.07209,   0.00177,276561301.20834,   0.00122,  -0.00094,  -0.00085,-100187910.13625,   0.00000
376832469.68007,274960986.29798,-94316713.80847,   0.00240,  -0.00042,  -0.00208,375071931.99397,   0.00177,276561301.20834,   0.00122,  -0.00094,  -0.00085,-101489369.21437,   0.00000
374948149.10542,275860041.21269,-93891817.99262,   0.00239,  -0.00042,  -0.00207,373762873.28797,   0.00177,276561301.20834,   0.00122,  -0.00094,  -0.00085,-102798427.92038,   0.00000
373033038.97889,276728306.57552,-93473080.08714,   0.00238,  -0.00041,  -0.00207,372444697.58551,   0.00177,276561301.20834,   0.00122,  -0.00094,  -0.00085,-104116603.62284,   0.00000
371096376.16605,277587335.07279,-93042026.36091,   0.00237,  -0.00040,  -0.00206,371114606.13847,   0.00177,276561301.20834,   0.00122,  -0.00094,  -0.00085,-105446695.06987,   0.00000
369138160.66689,278437126.70450,-92617130.54506,   0.00236,  -0.00039,  -0.00206,369786756.09886,   0.00177,276561301.20834,   0.00122,  -0.00094,  -0.00085,-106774545.10948,   0.00000
367179945.16774,279286918.33621,-92186076.81883,   0.00235,  -0.00038,  -0.00205,368467851.79186,   0.00177,276561301.20834,   0.00122,  -0.00094,  -0.00085,-108093449.41649,   0.00000
365200176.98228,280127473.10235,-91755023.09260,   0.00234,  -0.00038,  -0.00205,367147001.19732,   0.00177,276561301.20834,   0.00122,  -0.00094,  -0.00085,-109414300.01102,   0.00000
363189619.24494,280937238.31662,-91323969.36637,   0.00233,  -0.00037,  -0.00204,365812991.74142,   0.00177,276561301.20834,   0.00122,  -0.00094,  -0.00085,-110748309.46693,   0.00000
361166745.68685,281759319.35164,-90886757.72977,   0.00231,  -0.00036,  -0.00203,364484353.55478,   0.00177,276561301.20834,   0.00122,  -0.00094,  -0.00085,-112076947.65356,   0.00000
359113082.57689,282550610.83479,-90455704.00354,   0.00230,  -0.00035,  -0.00203,363147540.37506,   0.00177,276561301.20834,   0.00122,  -0.00094,  -0.00085,-113413760.83329,   0.00000
357050182.60137,283320349.63163,-90012334.45656,   0.00229,  -0.00035,  -0.00202,361804272.92027,   0.00177,276561301.20834,   0.00122,  -0.00094,  -0.00085,-114757028.28808,   0.00000
354974966.80510,284102404.24922,-89575122.81996,   0.00228,  -0.00034,  -0.00202,360476447.94838,   0.00177,276561301.20834,   0.00122,  -0.00094,  -0.00085,-116084853.25996,   0.00000
352868961.45695,284853669.31493,-89131753.27298,   0.00227,  -0.00033,  -0.00201,359131600.87644,   0.00177,276561301.20834,   0.00122,  -0.00094,  -0.00085,-117429700.33191,   0.00000
350741403.42250,285595697.51508,-88688383.72600,   0.00226,  -0.00032,  -0.00201,357786370.58982,   0.00177,276561301.20834,   0.00122,  -0.00094,  -0.00085,-118774930.61853,   0.00000
348592292.70173,286328488.84967,-88245014.17902,   0.00225,  -0.00032,  -0.00200,356441065.60050,   0.00177,276561301.20834,   0.00122,  -0.00094,  -0.00085,-120120235.60784,   0.00000
346433945.11540,287039727.49794,-87801644.63204,   0.00224,  -0.00031,  -0.00199,355099091.36553,   0.00177,276561301.20834,   0.00122,  -0.00094,  -0.00085,-121462209.84281,   0.00000
344263281.70832,287763281.96697,-87352117.17469,   0.00223,  -0.00030,  -0.00199,353765118.26434,   0.00177,276561301.20834,   0.00122,  -0.00094,  -0.00085,-122796182.94401,   0.00000
342061828.74937,288456046.88412,-86902589.71734,   0.00221,  -0.00029,  -0.00198,352419583.81895,   0.00177,276561301.20834,   0.00122,  -0.00094,  -0.00085,-124141717.38940,   0.00000
339829586.23854,289118022.24940,-86453062.25999,   0.00220,  -0.00029,  -0.00198,351062553.57092,   0.00177,276561301.20834,   0.00122,  -0.00094,  -0.00085,-125498747.63743,   0.00000
337585027.90697,289792313.43543,-86003534.80263,   0.00219,  -0.00028,  -0.00197,349719192.73973,   0.00177,276561301.20834,   0.00122,  -0.00094,  -0.00085,-126842108.46862,   0.00000
335331232.70983,290445051.93515,-85547849.43491,   0.00218,  -0.00027,  -0.00197,348375329.42680,   0.00177,276561301.20834,   0.00122,  -0.00094,  -0.00085,-128185971.78154,   0.00000
333055884.82638,291088553.56931,-85098321.97755,   0.00217,  -0.00026,  -0.00196,347037729.75699,   0.00177,276561301.20834,   0.00122,  -0.00094,  -0.00085,-129523571.45136,   0.00000
330749747.39106,291701265.65159,-84636478.69945,   0.00216,  -0.00026,  -0.00195,345680350.08372,   0.00177,276561301.20834,   0.00122,  -0.00094,  -0.00085,-130880951.12463,   0.00000
328422057.26942,292304740.86831,-84180793.33173,   0.00214,  -0.00025,  -0.00195,344329787.83060,   0.00177,276561301.20834,   0.00122,  -0.00094,  -0.00085,-132231513.37774,   0.00000
326094367.14779,292908216.08503,-83725107.96400,   0.00213,  -0.00024,  -0.00194,342996677.95730,   0.00177,276561301.20834,   0.00122,  -0.00094,  -0.00085,-133564623.25104,   0.00000
323745124.33984,293502454.43619,-83263264.68590,   0.00212,  -0.00024,  -0.00194,341661998.80416,   0.00177,276561301.20834,   0.00122,  -0.00094,  -0.00085,-134899302.40419,   0.00000
321365091.98002,294065903.23547,-82801421.40779,   0.00211,  -0.00023,  -0.00193,340317481.05118,   0.00177,276561301.20834,   0.00122,  -0.00094,  -0.00085,-136243820.15717,   0.00000
318963506.93389,294620115.16919,-82339578.12969,   0.00210,  -0.00022,  -0.00192,338976524.62961,   0.00177,276561301.20834,   0.00122,  -0.00094,  -0.00085,-137584776.57873,   0.00000
316531132.33589,295143537.55104,-81877734.85159,   0.00209,  -0.00021,  -0.00192,337626180.48163,   0.00177,276561301.20834,   0.00122,  -0.00094,  -0.00085,-138935120.72672,   0.00000
314107994.60345,295688512.61920,-81415891.57349,   0.00207,  -0.00021,  -0.00191,336307961.91107,   0.00177,276561301.20834,   0.00122,  -0.00094,  -0.00085,-140253339.29727,   0.00000
311654067.31913,296202698.13549,-80947890.38501,   0.00206,  -0.00020,  -0.00191,334976422.01777,   0.00177,276561301.20834,   0.00122,  -0.00094,  -0.00085,-141584879.19058,   0.00000
309169350.48294,296686094.09990,-80479889.19653,   0.00205,  -0.00019,  -0.00190,333636203.66407,   0.00177,276561301.20834,   0.00122,  -0.00094,  -0.00085,-142925097.54428,   0.00000
306684633.64675,297169490.06432,-80011888.00806,   0.00204,  -0.00019,  -0.00189,332315453.77337,   0.00177,276561301.20834,   0.00122,  -0.00094,  -0.00085,-144245847.43497,   0.00000
304178364.12425,297643649.16317,-79543886.81958,   0.00202,  -0.00018,  -0.00189,331000227.46993,   0.00177,276561301.20834,   0.00122,  -0.00094,  -0.00085,-145561073.73841,   0.00000
301641305.04988,298087018.71014,-79075885.63110,   0.00201,  -0.00017,  -0.00188,329677080.42655,   0.00177,276561301.20834,   0.00122,  -0.00094,  -0.00085,-146884220.78180,   0.00000
299082693.28919,298521151.39156,-78607884.44263,   0.00200,  -0.00016,  -0.00187,328360204.31977,   0.00177,276561301.20834,   0.00122,  -0.00094,  -0.00085,-148201096.88858,   0.00000
296524081.52851,298955284.07298,-78133725.34378,   0.00199,  -0.00016,  -0.00187,327059610.59406,   0.00177,276561301.20834,   0.00122,  -0.00094,  -0.00085,-149501690.61429,   0.00000
293913127.52964,299349390.33696,-77659566.24492,   0.00197,  -0.00015,  -0.00186,325738074.50064,   0.00177,276561301.20834,   0.00122,  -0.00094,  -0.00085,-150823226.70770,   0.00000
291323726.21708,299752733.46650,-77185407.14607,   0.00196,  -0.00014,  -0.00186,324451679.99155,   0.00177,276561301.20834,   0.00122,  -0.00094,  -0.00085,-152109621.21679,   0.00000
288691219.53190,300137602.86492,-76711248.04722,   0.00195,  -0.00014,  -0.00185,323159336.89242,   0.00177,276561301.20834,   0.00122,  -0.00094,  -0.00085,-153401964.31593,   0.00000
286049475.98116,300500919.57702,-76237088.94837,   0.00194,  -0.00013,  -0.00184,321874596.68764,   0.00177,276561301.20834,   0.00122,  -0.00094,  -0.00085,-154686704.52070,   0.00000
283355390.19223,300824209.87170,-75762929.84952,   0.00192,  -0.00012,  -0.00184,320570406.69189,   0.00177,276561301.20834,   0.00122,  -0.00094,  -0.00085,-155990894.51645,   0.00000
280682857.08961,301156737.03193,-75282612.84029,   0.00191,  -0.00012,  -0.00183,319297868.03232,   0.00177,276561301.20834,   0.00122,  -0.00094,  -0.00085,-157263433.17603,   0.00000
277967218.61437,301470790.46104,-74808453.74144,   0.00190,  -0.00011,  -0.00183,318025673.90234,   0.00177,276561301.20834,   0.00122,  -0.00094,  -0.00085,-158535627.30600,   0.00000
275251580.13913,301784843.89015,-74328136.73222,   0.00188,  -0.00010,  -0.00182,316772449.80953,   0.00177,276561301.20834,   0.00122,  -0.00094,  -0.00085,-159788851.39881,   0.00000
272505152.11202,302068107.76738,-73847819.72299,   0.00187,  -0.00010,  -0.00181,315514794.32182,   0.00177,276561301.20834,   0.00122,  -0.00094,  -0.00085,-161046506.88653,   0.00000
269727934.53303,302320582.09275,-73373660.62414,   0.00186,  -0.00009,  -0.00181,314257329.38121,   0.00177,276561301.20834,   0.00122,  -0.00094,  -0.00085,-162303971.82713,   0.00000
266950716.95404,302573056.41811,-72893343.61491,   0.00185,  -0.00008,  -0.00180,313019750.24073,   0.00177,276561301.20834,   0.00122,  -0.00094,  -0.00085,-163541550.96762,   0.00000
264151946.68875,302816293.87791,-72406868.69531,   0.00183,  -0.00008,  -0.00179,311789527.02627,   0.00177,276561301.20834,   0.00122,  -0.00094,  -0.00085,-164771774.18207,   0.00000
261322386.87157,303028741.78584,-71926551.68609,   0.00182,  -0.00007,  -0.00179,310560623.14265,   0.00177,276561301.20834,   0.00122,  -0.00094,  -0.00085,-166000678.06569,   0.00000
258483590.18884,303219637.00745,-71446234.67686,   0.00181,  -0.00006,  -0.00178,309341732.75344,   0.00177,276561301.20834,   0.00122,  -0.00094,  -0.00085,-167219568.45490,   0.00000
255632477.68536,303422848.04982,-70965917.66763,   0.00179,  -0.00006,  -0.00178,308151161.51675,   0.00177,276561301.20834,   0.00122,  -0.00094,  -0.00085,-168410139.69159,   0.00000
252741338.76444,303573716.85400,-70479442.74803,   0.00178,  -0.00005,  -0.00177,306939104.42274,   0.00177,276561301.20834,   0.00122,  -0.00094,  -0.00085,-169622196.78560,   0.00000
249828647.15721,303715348.79261,-69992967.82843,   0.00176,  -0.00004,  -0.00176,305741096.28766,   0.00177,276561301.20834,   0.00122,  -0.00094,  -0.00085,-170820204.92069,   0.00000
246915955.54998,303856980.73123,-69512650.81921,   0.00175,  -0.00004,  -0.00176,304574199.44607,   0.00177,276561301.20834,   0.00122,  -0.00094,  -0.00085,-171987101.76228,   0.00000
243972474.39088,303967823.11798,-69026175.89960,   0.00174,  -0.00003,  -0.00175,303402476.40413,   0.00177,276561301.20834,   0.00122,  -0.00094,  -0.00085,-173158824.80422,   0.00000
241028993.23177,304078665.50472,-68539700.98000,   0.00172,  -0.00003,  -0.00174,302258345.81509,   0.00177,276561301.20834,   0.00122,  -0.00094,  -0.00085,-174302955.39325,   0.00000
238054722.52080,304158718.33959,-68059383.97078,   0.00171,  -0.00002,  -0.00174,301118575.97842,   0.00177,276561301.20834,   0.00122,  -0.00094,  -0.00085,-175442725.22993,   0.00000
235058899.12351,304229534.30890,-67572909.05118,   0.00170,  -0.00001,  -0.00173,299991217.03872,   0.00177,276561301.20834,   0.00122,  -0.00094,  -0.00085,-176570084.16962,   0.00000
232032286.17434,304269560.72634,-67086434.13158,   0.00168,  -0.00001,  -0.00173,298865110.97277,   0.00177,276561301.20834,   0.00122,  -0.00094,  -0.00085,-177696190.23557,   0.00000
229005673.22518,304309587.14377,-66599959.21198,   0.00167,  -0.00000,  -0.00172,297768307.62407,   0.00177,276561301.20834,   0.00122,  -0.00094,  -0.00085,-178792993.58427,   0.00000
225948270.72415,304318824.00933,-66113484.29237,   0.00166,   0.00000,  -0.00171,296673615.39540,   0.00177,276561301.20834,   0.00122,  -0.00094,  -0.00085,-179887685.81295,   0.00000
222881631.35755,304306508.18859,-65620851.46240,   0.00164,   0.00001,  -0.00171,295588616.12838,   0.00177,276561301.20834,   0.00122,  -0.00094,  -0.00085,-180972685.07996,   0.00000
219802676.17020,304306508.18859,-65134376.54280,   0.00163,   0.00002,  -0.00170,294543279.54396,   0.00177,276561301.20834,   0.00122,  -0.00094,  -0.00085,-182018021.66439,   0.00000
216683694.56542,304254165.95040,-64647901.62320,   0.00161,   0.00002,  -0.00169,293485191.74992,   0.00177,276561301.20834,   0.00122,  -0.00094,  -0.00085,-183076109.45842,   0.00000
213564712.96064,304201823.71222,-64161426.70360,   0.00160,   0.00003,  -0.00169,292458419.33259,   0.00177,276561301.20834,   0.00122,  -0.00094,  -0.00085,-184102881.87575,   0.00000
210414941.80398,304118691.92216,-63674951.78400,   0.00158,   0.00003,  -0.00168,291436113.24370,   0.00177,276561301.20834,   0.00122,  -0.00094,  -0.00085,-185125187.96464,   0.00000
207243617.96102,304026323.26654,-63182318.95402,   0.00157,   0.00004,  -0.00167,290431443.75329,   0.00177,276561301.20834,   0.00122,  -0.00094,  -0.00085,-186129857.45506,   0.00000
204063057.25249,303912401.92460,-62695844.03442,   0.00156,   0.00005,  -0.00167,289446872.64280,   0.00177,276561301.20834,   0.00122,  -0.00094,  -0.00085,-187114428.56554,   0.00000
200860943.85765,303789243.71711,-62209369.11482,   0.00154,   0.00005,  -0.00166,288485087.92617,   0.00177,276561301.20834,   0.00122,  -0.00094,  -0.00085,-188076213.28217,   0.00000
197628040.91093,303635295.95774,-61722894.19522,   0.00153,   0.00006,  -0.00166,287530057.24202,   0.00177,276561301.20834,   0.00122,  -0.00094,  -0.00085,-189031243.96632,   0.00000
194395137.96422,303481348.19838,-61230261.36524,   0.00151,   0.00006,  -0.00165,286605189.30475,   0.00177,276561301.20834,   0.00122,  -0.00094,  -0.00085,-189956111.90360,   0.00000
191122208.60007,303275058.20082,-60743786.44564,   0.00150,   0.00007,  -0.00164,285675136.09953,   0.00177,276561301.20834,   0.00122,  -0.00094,  -0.00085,-190886165.10881,   0.00000
187858516.10148,303090320.88958,-60257311.52604,   0.00148,   0.00007,  -0.00164,284796940.88736,   0.00177,276561301.20834,   0.00122,  -0.00094,  -0.00085,-191764360.32098,   0.00000
184554797.18546,302853241.34016,-59764678.69607,   0.00147,   0.00008,  -0.00163,283906658.74693,   0.00177,276561301.20834,   0.00122,  -0.00094,  -0.00085,-192654642.46142,   0.00000
181229525.58312,302606924.92517,-59278203.77646,   0.00145,   0.00008,  -0.00162,283046813.87058,   0.00177,276561301.20834,   0.00122,  -0.00094,  -0.00085,-193514487.33776,   0.00000
177904253.98079,302360608.51018,-58791728.85686,   0.00144,   0.00009,  -0.00162,282223359.80366,   0.00177,276561301.20834,   0.00122,  -0.00094,  -0.00085,-194337941.40469,   0.00000
174548192.82658,302083502.54332,-58305253.93726,   0.00143,   0.00009,  -0.00161,281410541.00064,   0.00177,276561301.20834,   0.00122,  -0.00094,  -0.00085,-195150760.20771,   0.00000
171182894.80681,301784843.89015,-57812621.10729,   0.00141,   0.00010,  -0.00160,280613915.84914,   0.00177,276561301.20834,   0.00122,  -0.00094,  -0.00085,-195947385.35921,   0.00000
167786807.23517,301455395.68510,-57326146.18769,   0.00140,   0.00010,  -0.00160,279832791.17039,   0.00177,276561301.20834,   0.00122,  -0.00094,  -0.00085,-196728510.03795,   0.00000
164369166.97721,301116710.61449,-56839671.26809,   0.00138,   0.00011,  -0.00159,279081418.70616,   0.00177,276561301.20834,   0.00122,  -0.00094,  -0.00085,-197479882.50218,   0.00000
160951526.71926,300778025.54389,-56353196.34849,   0.00137,   0.00012,  -0.00159,278368784.89608,   0.00177,276561301.20834,   0.00122,  -0.00094,  -0.00085,-198192516.31227,   0.00000
157493860.04387,300386998.23509,-55866721.42888,   0.00135,   0.00012,  -0.00158,277652351.85535,   0.00177,276561301.20834,   0.00122,  -0.00094,  -0.00085,-198908949.35299,   0.00000
154036193.36848,299995970.92630,-55380246.50928,   0.00134,   0.00013,  -0.00157,276975466.71571,   0.00177,276561301.20834,   0.00122,  -0.00094,  -0.00085,-199585834.49264,   0.00000
150547737.14121,299574154.06563,-54887613.67931,   0.00132,   0.00013,  -0.00157,276309671.10858,   0.00177,276561301.20834,   0.00122,  -0.00094,  -0.00085,-200251630.09976,   0.00000
147059280.91395,299152337.20497,-54401138.75971,   0.00131,   0.00013,  -0.00156,275688006.73967,   0.00177,276561301.20834,   0.00122,  -0.00094,  -0.00085,-200873294.46868,   0.00000
143540035.13481,298699730.79243,-53920821.75048,   0.00129,   0.00014,  -0.00155,275085924.87441,   0.00177,276561301.20834,   0.00122,  -0.00094,  -0.00085,-201475376.33394,   0.00000
139989999.80380,298216334.82801,-53434346.83088,   0.00128,   0.00014,  -0.00155,274496932.61125,   0.00177,276561301.20834,   0.00122,  -0.00094,  -0.00085,-202064368.59709,   0.00000
136439964.47279,297732938.86360,-52947871.91128,   0.00126,   0.00015,  -0.00154,273949861.48667,   0.00177,276561301.20834,   0.00122,  -0.00094,  -0.00085,-202611439.72168,   0.00000
132859139.58991,297218753.34731,-52461396.99168,   0.00125,   0.00015,  -0.00153,273420747.19587,   0.00177,276561301.20834,   0.00122,  -0.00094,  -0.00085,-203140554.01247,   0.00000
129269077.84146,296683015.14471,-51974922.07208,   0.00123,   0.00016,  -0.00153,272916734.10686,   0.00177,276561301.20834,   0.00122,  -0.00094,  -0.00085,-203644567.10148,   0.00000
125648226.54114,296116487.39024,-51494605.06285,   0.00121,   0.00016,  -0.00152,272435354.71526,   0.00177,276561301.20834,   0.00122,  -0.00094,  -0.00085,-204125946.49308,   0.00000
122027375.24082,295549959.63577,-51008130.14325,   0.00120,   0.00017,  -0.00152,271994046.15564,   0.00177,276561301.20834,   0.00122,  -0.00094,  -0.00085,-204567255.05270,   0.00000
118375734.38863,294952642.32943,-50527813.13403,   0.00118,   0.00017,  -0.00151,271576544.94427,   0.00177,276561301.20834,   0.00122,  -0.00094,  -0.00085,-204984756.26408,   0.00000
114714856.67087,294333772.33677,-50041338.21442,   0.00117,   0.00018,  -0.00150,271182259.67580,   0.00177,276561301.20834,   0.00122,  -0.00094,  -0.00085,-205379041.53254,   0.00000
111032426.26681,293705665.47855,-49561021.20520,   0.00115,   0.00018,  -0.00150,270830665.61822,   0.00177,276561301.20834,   0.00122,  -0.00094,  -0.00085,-205730635.59013,   0.00000
107319206.31087,293046769.06846,-49080704.19597,   0.00114,   0.00018,  -0.00149,270501424.78254,   0.00177,276561301.20834,   0.00122,  -0.00094,  -0.00085,-206059876.42581,   0.00000
103596749.48936,292366319.97205,-48600387.18675,   0.00112,   0.00019,  -0.00148,270200192.54915,   0.00177,276561301.20834,   0.00122,  -0.00094,  -0.00085,-206361108.65920,   0.00000
99865055.80230,291664318.18934,-48120070.17752,   0.00111,   0.00019,  -0.00148,269927127.06469,   0.00177,276561301.20834,   0.00122,  -0.00094,  -0.00085,-206634174.14365,   0.00000
96111809.42892,290953079.54106,-47639753.16829,   0.00109,   0.00020,  -0.00147,269695728.03129,   0.00177,276561301.20834,   0.00122,  -0.00094,  -0.00085,-206865573.17705,   0.00000
92349326.18999,290220288.20647,-47159436.15907,   0.00107,   0.00020,  -0.00147,269493233.54842,   0.00177,276561301.20834,   0.00122,  -0.00094,  -0.00085,-207068067.65992,   0.00000
88556053.39917,289456707.32001,-46679119.14984,   0.00106,   0.00020,  -0.00146,269315868.21020,   0.00177,276561301.20834,   0.00122,  -0.00094,  -0.00085,-207245432.99814,   0.00000
84731991.05649,288662336.88168,-46204960.05099,   0.00104,   0.00021,  -0.00145,269167634.56130,   0.00177,276561301.20834,   0.00122,  -0.00094,  -0.00085,-207393666.64705,   0.00000
80907928.71381,287867966.44334,-45724643.04176,   0.00103,   0.00021,  -0.00145,269064094.72259,   0.00177,276561301.20834,   0.00122,  -0.00094,  -0.00085,-207497206.48575,   0.00000
77074629.50556,287052043.31869,-45250483.94291,   0.00101,   0.00022,  -0.00144,268993983.37223,   0.00177,276561301.20834,   0.00122,  -0.00094,  -0.00085,-207567317.83612,   0.00000
73210540.74544,286205330.64217,-44776324.84406,   0.00100,   0.00022,  -0.00144,268951269.45846,   0.00177,276561301.20834,   0.00122,  -0.00094,  -0.00085,-207610031.74988,   0.00000
69315662.43345,285327828.41378,-44296007.83484,   0.00098,   0.00022,  -0.00143,268933732.02152,   0.00177,276561301.20834,   0.00122,  -0.00094,  -0.00085,-207627569.18682,   0.00000
65411547.25589,284428773.49907,-43821848.73598,   0.00096,   0.00023,  -0.00142,268950803.73527,   0.00177,276561301.20834,   0.00122,  -0.00094,  -0.00085,-207610497.47308,   0.00000
61507432.07833,283529718.58437,-43353847.54751,   0.00095,   0.00023,  -0.00142,269019978.63524,   0.00177,276561301.20834,   0.00122,  -0.00094,  -0.00085,-207541322.57311,   0.00000
57572527.34890,282599874.11779,-42879688.44866,   0.00093,   0.00023,  -0.00141,269115772.14955,   0.00177,276561301.20834,   0.00122,  -0.00094,  -0.00085,-207445529.05879,   0.00000
53628385.75391,281648476.96490,-42405529.34980,   0.00092,   0.00024,  -0.00140,269243759.30345,   0.00177,276561301.20834,   0.00122,  -0.00094,  -0.00085,-207317541.90490,   0.00000
49653454.60705,280666290.26014,-41937528.16133,   0.00090,   0.00024,  -0.00140,269405363.61492,   0.00177,276561301.20834,   0.00122,  -0.00094,  -0.00085,-207155937.59342,   0.00000
45678523.46018,279684103.55537,-41463369.06248,   0.00088,   0.00024,  -0.00139,269614171.22142,   0.00177,276561301.20834,   0.00122,  -0.00094,  -0.00085,-206947129.98692,   0.00000
41663565.89588,278649574.61242,-40995367.87400,   0.00087,   0.00025,  -0.00139,269840256.08218,   0.00177,276561301.20834,   0.00122,  -0.00094,  -0.00085,-206721045.12617,   0.00000
37648608.33158,277615045.66948,-40527366.68552,   0.00085,   0.00025,  -0.00138,270116851.60573,   0.00177,276561301.20834,   0.00122,  -0.00094,  -0.00085,-206444449.60261,   0.00000
33624413.90172,276558964.04022,-40059365.49705,   0.00083,   0.00025,  -0.00137,270426675.86277,   0.00177,276561301.20834,   0.00122,  -0.00094,  -0.00085,-206134625.34557,   0.00000
29569429.91999,275472092.85908,-39597522.21894,   0.00082,   0.00026,  -0.00137,270772161.94226,   0.00177,276561301.20834,   0.00122,  -0.00094,  -0.00085,-205789139.26608,   0.00000
25483656.38638,274354432.12608,-39129521.03047,   0.00080,   0.00026,  -0.00136,271148622.23858,   0.00177,276561301.20834,   0.00122,  -0.00094,  -0.00085,-205412678.96976,   0.00000
21419435.53908,273246008.25863,-38667677.75237,   0.00079,   0.00026,  -0.00136,271578655.08203,   0.00177,276561301.20834,   0.00122,  -0.00094,  -0.00085,-204982646.12631,   0.00000
17293635.58803,272076005.28744,-38205834.47426,   0.00077,   0.00026,  -0.00135,272026279.17346,   0.00177,276561301.20834,   0.00122,  -0.00094,  -0.00085,-204535022.03488,   0.00000
13189388.32330,270915239.18181,-37737833.28579,   0.00075,   0.00027,  -0.00134,272522022.36944,   0.00177,276561301.20834,   0.00122,  -0.00094,  -0.00085,-204039278.83891,   0.00000
9054351.50670,269723683.52431,-37282147.91806,   0.00074,   0.00027,  -0.00134,273057776.58761,   0.00177,276561301.20834,   0.00122,  -0.00094,  -0.00085,-203503524.62073,   0.00000
4888525.13821,268501338.31493,-36820304.63996,   0.00072,   0.00027,  -0.00133,273626561.78499,   0.00177,276561301.20834,   0.00122,  -0.00094,  -0.00085,-202934739.42335,   0.00000
713461.90417,267257440.41924,-36358461.36186,   0.00070,   0.00028,  -0.00133,274230165.41364,   0.00177,276561301.20834,   0.00122,  -0.00094,  -0.00085,-202331135.79471,   0.00000
-3470838.19543,265991989.83724,-35902775.99413,   0.00069,   0.00028,  -0.00132,274870930.63039,   0.00177,276561301.20834,   0.00122,  -0.00094,  -0.00085,-201690370.57796,   0.00000
-7685927.84691,264695749.70337,-35447090.62640,   0.00067,   0.00028,  -0.00131,275548243.56749,   0.00177,276561301.20834,   0.00122,  -0.00094,  -0.00085,-201013057.64085,   0.00000
-11901017.49839,263399509.56950,-34991405.25867,   0.00065,   0.00028,  -0.00131,276276769.48548,   0.00177,276561301.20834,   0.00122,  -0.00094,  -0.00085,-200284531.72287,   0.00000
-16134580.88099,262060164.06300,-34535719.89095,   0.00064,   0.00028,  -0.00130,277023885.33635,   0.00177,276561301.20834,   0.00122,  -0.00094,  -0.00085,-199537415.87199,   0.00000
-20389696.94990,260711581.69094,-34080034.52322,   0.00062,   0.00029,  -0.00130,277824485.90940,   0.00177,276561301.20834,   0.00122,  -0.00094,  -0.00085,-198736815.29895,   0.00000
-24654049.88438,259341446.63257,-33630507.06587,   0.00060,   0.00029,  -0.00129,278662265.28912,   0.00177,276561301.20834,   0.00122,  -0.00094,  -0.00085,-197899035.91922,   0.00000
-28958429.23629,257918969.33602,-33180979.60851,   0.00059,   0.00029,  -0.00128,279522174.09848,   0.00177,276561301.20834,   0.00122,  -0.00094,  -0.00085,-197039127.10986,   0.00000
-33262808.58820,256496492.03947,-32731452.15116,   0.00057,   0.00029,  -0.00128,280433062.35491,   0.00177,276561301.20834,   0.00122,  -0.00094,  -0.00085,-196128238.85344,   0.00000
-37576424.80567,255052462.05660,-32281924.69381,   0.00055,   0.00029,  -0.00127,281378879.36036,   0.00177,276561301.20834,   0.00122,  -0.00094,  -0.00085,-195182421.84799,   0.00000
-41920830.57502,253577642.52186,-31832397.23646,   0.00054,   0.00030,  -0.00127,282363359.44005,   0.00177,276561301.20834,   0.00122,  -0.00094,  -0.00085,-194197941.76829,   0.00000
-46265236.34436,252102822.98712,-31389027.68948,   0.00052,   0.00030,  -0.00126,283400274.02691,   0.00177,276561301.20834,   0.00122,  -0.00094,  -0.00085,-193161027.18143,   0.00000
-50628115.84483,250584898.07976,-30945658.14250,   0.00050,   0.00030,  -0.00126,284456569.23722,   0.00177,276561301.20834,   0.00122,  -0.00094,  -0.00085,-192104731.97113,   0.00000
-55021784.89718,249036183.62052,-30502288.59552,   0.00048,   0.00030,  -0.00125,285552099.83648,   0.00177,276561301.20834,   0.00122,  -0.00094,  -0.00085,-191009201.37187,   0.00000
-59424690.81508,247465916.47498,-30058919.04854,   0.00047,   0.00030,  -0.00124,286682533.67125,   0.00177,276561301.20834,   0.00122,  -0.00094,  -0.00085,-189878767.53710,   0.00000
-63849149.41930,245886412.46387,-29621707.41194,   0.00045,   0.00030,  -0.00124,287869443.76835,   0.00177,276561301.20834,   0.00122,  -0.00094,  -0.00085,-188691857.44000,   0.00000
-68270529.06833,244273039.94570,-29178337.86496,   0.00043,   0.00031,  -0.00123,289069125.05401,   0.00177,276561301.20834,   0.00122,  -0.00094,  -0.00085,-187492176.15434,   0.00000
-72735014.08998,242641193.69640,-28741126.22836,   0.00042,   0.00031,  -0.00123,290330499.26942,   0.00177,276561301.20834,   0.00122,  -0.00094,  -0.00085,-186230801.93893,   0.00000
-77196420.15645,240975478.94005,-28303914.59176,   0.00040,   0.00031,  -0.00122,291606323.31736,   0.00177,276561301.20834,   0.00122,  -0.00094,  -0.00085,-184954977.89099,   0.00000
-81679378.90923,239300527.31813,-27872860.86553,   0.00038,   0.00031,  -0.00122,292938339.71711,   0.00177,276561301.20834,   0.00122,  -0.00094,  -0.00085,-183622961.49124,   0.00000
-86171574.52756,237604023.00991,-27435649.22892,   0.00037,   0.00031,  -0.00121,294302683.18474,   0.00177,276561301.20834,   0.00122,  -0.00094,  -0.00085,-182258618.02361,   0.00000
-90682243.87703,235864413.32905,-27004595.50270,   0.00035,   0.00031,  -0.00120,295688602.44494,   0.00177,276561301.20834,   0.00122,  -0.00094,  -0.00085,-180872698.76340,   0.00000
-95214465.91280,234115566.78264,-26573541.77647,   0.00033,   0.00031,  -0.00120,297128829.21342,   0.00177,276561301.20834,   0.00122,  -0.00094,  -0.00085,-179432471.99493,   0.00000
-99734372.12783,232354404.41548,-26148645.96061,   0.00031,   0.00031,  -0.00119,298597538.38107,   0.00177,276561301.20834,   0.00122,  -0.00094,  -0.00085,-177963762.82727,   0.00000
-104306620.58104,230553215.63088,-25717592.23439,   0.00030,   0.00031,  -0.00119,300111757.13778,   0.00177,276561301.20834,   0.00122,  -0.00094,  -0.00085,-176449544.07056,   0.00000
-108875790.07906,228718158.33922,-25292696.41853,   0.00028,   0.00031,  -0.00118,301640456.98546,   0.00177,276561301.20834,   0.00122,  -0.00094,  -0.00085,-174920844.22289,   0.00000
-113466512.26339,226873864.18200,-24867800.60268,   0.00026,   0.00031,  -0.00118,303223033.86614,   0.00177,276561301.20834,   0.00122,  -0.00094,  -0.00085,-173338267.34220,   0.00000
-118066471.31329,225008017.33847,-24442904.78682,   0.00024,   0.00031,  -0.00117,304838594.87041,   0.00177,276561301.20834,   0.00122,  -0.00094,  -0.00085,-171722706.33793,   0.00000
-122675667.22875,223120617.80863,-24024166.88134,   0.00023,   0.00031,  -0.00117,306488306.24758,   0.00177,276561301.20834,   0.00122,  -0.00094,  -0.00085,-170072994.96076,   0.00000
-127324889.56164,221180876.04060,-23605428.97587,   0.00021,   0.00032,  -0.00116,308165680.88350,   0.00177,276561301.20834,   0.00122,  -0.00094,  -0.00085,-168395620.32485,   0.00000
-131974111.89453,219241134.27257,-23186691.07039,   0.00019,   0.00032,  -0.00115,309888468.77905,   0.00177,276561301.20834,   0.00122,  -0.00094,  -0.00085,-166672832.42929,   0.00000
-136632571.09299,217279839.81823,-22767953.16491,   0.00018,   0.00032,  -0.00115,311643434.88980,   0.00177,276561301.20834,   0.00122,  -0.00094,  -0.00085,-164917866.31855,   0.00000
-141300267.15701,215296992.67758,-22355373.16980,   0.00016,   0.00032,  -0.00114,313431605.40503,   0.00177,276561301.20834,   0.00122,  -0.00094,  -0.00085,-163129695.80331,   0.00000
-145998752.77290,213283355.98505,-21936635.26432,   0.00014,   0.00032,  -0.00114,315258905.68338,   0.00177,276561301.20834,   0.00122,  -0.00094,  -0.00085,-161302395.52496,   0.00000
-150715712.11991,211226613.91991,-21524055.26922,   0.00012,   0.00032,  -0.00113,317107131.28089,   0.00177,276561301.20834,   0.00122,  -0.00094,  -0.00085,-159454169.92745,   0.00000
-155432671.46693,209169871.85476,-21117633.18449,   0.00011,   0.00032,  -0.00113,319000071.97148,   0.00177,276561301.20834,   0.00122,  -0.00094,  -0.00085,-157561229.23687,   0.00000
-160158867.67951,207091577.10330,-20705053.18938,   0.00009,   0.00032,  -0.00112,320922785.69941,   0.00177,276561301.20834,   0.00122,  -0.00094,  -0.00085,-155638515.50894,   0.00000
-164925090.30952,204960940.11366,-20298631.10466,   0.00007,   0.00031,  -0.00112,322875482.52881,   0.00177,276561301.20834,   0.00122,  -0.00094,  -0.00085,-153685818.67953,   0.00000
-169691312.93953,202830303.12401,-19892209.01993,   0.00005,   0.00031,  -0.00111,324870611.06329,   0.00177,276561301.20834,   0.00122,  -0.00094,  -0.00085,-151690690.14506,   0.00000
-174466772.43511,200678113.44806,-19491944.84557,   0.00004,   0.00031,  -0.00111,326897278.04653,   0.00177,276561301.20834,   0.00122,  -0.00094,  -0.00085,-149664023.16181,   0.00000
-179260705.66181,198482818.39948,-19091680.67122,   0.00002,   0.00031,  -0.00110,328942968.75714,   0.00177,276561301.20834,   0.00122,  -0.00094,  -0.00085,-147618332.45121,   0.00000
-184054638.88850,196287523.35090,-18691416.49686,   0.00000,   0.00031,  -0.00110,331029663.77691,   0.00177,276561301.20834,   0.00122,  -0.00094,  -0.00085,-145531637.43144,   0.00000
-188888598.53264,194039886.06414,-18291152.32251,  -0.00002,   0.00031,  -0.00109,333145615.21555,   0.00177,276561301.20834,   0.00122,  -0.00094,  -0.00085,-143415685.99279,   0.00000
-193731795.04233,191770696.09106,-17890888.14815,  -0.00003,   0.00031,  -0.00109,335291427.14362,   0.00177,276561301.20834,   0.00122,  -0.00094,  -0.00085,-141269874.06473,   0.00000
-198574991.55203,189501506.11799,-17496781.88417,  -0.00005,   0.00031,  -0.00108,337478177.36301,   0.00177,276561301.20834,   0.00122,  -0.00094,  -0.00085,-139083123.84534,   0.00000
-203436661.79285,187189210.77229,-17102675.62019,  -0.00007,   0.00031,  -0.00108,339683571.42234,   0.00177,276561301.20834,   0.00122,  -0.00094,  -0.00085,-136877729.78601,   0.00000
-208307568.89923,184855362.74028,-16714727.26658,  -0.00009,   0.00031,  -0.00107,341918800.19641,   0.00177,276561301.20834,   0.00122,  -0.00094,  -0.00085,-134642501.01193,   0.00000
-213209265.55749,182490725.15640,-16320621.00260,  -0.00011,   0.00031,  -0.00107,344193052.19463,   0.00177,276561301.20834,   0.00122,  -0.00094,  -0.00085,-132368249.01372,   0.00000
-218110962.21575,180126087.57252,-15932672.64900,  -0.00012,   0.00031,  -0.00106,346506599.81692,   0.00177,276561301.20834,   0.00122,  -0.00094,  -0.00085,-130054701.39143,   0.00000
-223009579.91881,177727581.48157,-15550882.20577,  -0.00014,   0.00030,  -0.00106,348827764.16619,   0.00177,276561301.20834,   0.00122,  -0.00094,  -0.00085,-127733537.04216,   0.00000
-227960539.86007,175289048.97320,-15162933.85216,  -0.00016,   0.00030,  -0.00105,351199356.98649,   0.00177,276561301.20834,   0.00122,  -0.00094,  -0.00085,-125361944.22186,   0.00000
-232908420.84613,172816647.95776,-14781143.40893,  -0.00018,   0.00030,  -0.00105,353578598.73808,   0.00177,276561301.20834,   0.00122,  -0.00094,  -0.00085,-122982702.47026,   0.00000
-237856301.83220,170344246.94232,-14399352.96570,  -0.00019,   0.00030,  -0.00104,355994746.45171,   0.00177,276561301.20834,   0.00122,  -0.00094,  -0.00085,-120566554.75663,   0.00000
-242834972.37014,167841056.37500,-14023720.43284,  -0.00021,   0.00030,  -0.00104,358450995.95735,   0.00177,276561301.20834,   0.00122,  -0.00094,  -0.00085,-118110305.25099,   0.00000
-247801327.08733,165325549.98694,-13641929.98961,  -0.00023,   0.00030,  -0.00103,360921366.27589,   0.00177,276561301.20834,   0.00122,  -0.00094,  -0.00085,-115639934.93245,   0.00000
-252807708.22196,162757701.36069,-13266297.45676,  -0.00025,   0.00029,  -0.00103,363422883.30505,   0.00177,276561301.20834,   0.00122,  -0.00094,  -0.00085,-113138417.90329,   0.00000
-257814089.35658,160189852.73445,-12896822.83427,  -0.00026,   0.00029,  -0.00102,365960487.91420,   0.00177,276561301.20834,   0.00122,  -0.00094,  -0.00085,-110600813.29414,   0.00000
-262838944.22233,157578898.73558,-12521190.30142,  -0.00028,   0.00029,  -0.00102,368515443.26079,   0.00177,276561301.20834,   0.00122,  -0.00094,  -0.00085,-108045857.94755,   0.00000
-267873035.95364,154946392.05040,-12151715.67894,  -0.00030,   0.00029,  -0.00101,371097427.68023,   0.00177,276561301.20834,   0.00122,  -0.00094,  -0.00085,-105463873.52811,   0.00000
-272928680.37127,152304648.49965,-11788398.96683,  -0.00032,   0.00029,  -0.00101,373727141.51347,   0.00177,276561301.20834,   0.00122,  -0.00094,  -0.00085,-102834159.69488,   0.00000
-277981245.83370,149629036.44185,-11418924.34435,  -0.00034,   0.00028,  -0.00100,376361080.67163,   0.00177,276561301.20834,   0.00122,  -0.00094,  -0.00085,-100200220.53671,   0.00000
-283064600.84801,146922634.83217,-11055607.63224,  -0.00035,   0.00028,  -0.00100,379034438.07118,   0.00177,276561301.20834,   0.00122,  -0.00094,  -0.00085,-97526863.13717,   0.00000
-288135640.04157,144203917.40174,-10692290.92013,  -0.00037,   0.00028,  -0.00099,381720028.48762,   0.00177,276561301.20834,   0.00122,  -0.00094,  -0.00085,-94841272.72072,   0.00000
-293246705.65257,141432857.73313,-10335132.11840,  -0.00039,   0.00028,  -0.00099,384437313.60474,   0.00177,276561301.20834,   0.00122,  -0.00094,  -0.00085,-92123987.60361,   0.00000
-298357771.26356,138661798.06452,-9971815.40629,  -0.00041,   0.00027,  -0.00098,387186764.04710,   0.00177,276561301.20834,   0.00122,  -0.00094,  -0.00085,-89374537.16124,   0.00000
-303478073.74012,135869185.70959,-9614656.60456,  -0.00043,   0.00027,  -0.00098,389961562.83801,   0.00177,276561301.20834,   0.00122,  -0.00094,  -0.00085,-86599738.37034,   0.00000
-308616849.94780,133033467.98205,-9263655.71320,  -0.00044,   0.00027,  -0.00097,392754477.31733,   0.00177,276561301.20834,   0.00122,  -0.00094,  -0.00085,-83806823.89102,   0.00000
-313755626.15549,130197750.25450,-8912654.82185,  -0.00046,   0.00026,  -0.00097,395578854.36233,   0.00177,276561301.20834,   0.00122,  -0.00094,  -0.00085,-80982446.84602,   0.00000
-318912876.09429,127318927.15433,-8561653.93049,  -0.00048,   0.00026,  -0.00096,398420735.83659,   0.00177,276561301.20834,   0.00122,  -0.00094,  -0.00085,-78140565.37176,   0.00000
-324079362.89866,124418551.36785,-8210653.03913,  -0.00050,   0.00026,  -0.00096,401286853.39957,   0.00177,276561301.20834,   0.00122,  -0.00094,  -0.00085,-75274447.80877,   0.00000
-329255086.56859,121496622.89506,-7865810.05815,  -0.00051,   0.00026,  -0.00096,404177356.36588,   0.00177,276561301.20834,   0.00122,  -0.00094,  -0.00085,-72383944.84247,   0.00000
-334461599.79039,118543904.87039,-7520967.07717,  -0.00053,   0.00025,  -0.00095,407106003.42165,   0.00177,276561301.20834,   0.00122,  -0.00094,  -0.00085,-69455297.78669,   0.00000
-339655797.19145,115578871.02498,-7176124.09618,  -0.00055,   0.00025,  -0.00095,410043973.05749,   0.00177,276561301.20834,   0.00122,  -0.00094,  -0.00085,-66517328.15085,   0.00000
-344890021.00994,112561494.94138,-6837439.02558,  -0.00057,   0.00025,  -0.00094,413014291.28809,   0.00177,276561301.20834,   0.00122,  -0.00094,  -0.00085,-63547009.92026,   0.00000
-350102692.14211,109553355.72334,-6498753.95497,  -0.00059,   0.00024,  -0.00094,415999349.73056,   0.00177,276561301.20834,   0.00122,  -0.00094,  -0.00085,-60561951.47779,   0.00000
-355355389.69173,106492874.26712,-6160068.88436,  -0.00060,   0.00024,  -0.00093,419016516.89784,   0.00177,276561301.20834,   0.00122,  -0.00094,  -0.00085,-57544784.31051,   0.00000
-360595771.42059,103420076.99015,-5821383.81375,  -0.00062,   0.00023,  -0.00093,422042095.84142,   0.00177,276561301.20834,   0.00122,  -0.00094,  -0.00085,-54519205.36692,   0.00000
-365857705.83577,100338042.84761,-5488856.65352,  -0.00064,   0.00023,  -0.00092,425111059.09899,   0.00177,276561301.20834,   0.00122,  -0.00094,  -0.00085,-51450242.10935,   0.00000
-371116561.29575,97222140.19802,-5162487.40366,  -0.00066,   0.00023,  -0.00092,428182609.16734,   0.00177,276561301.20834,   0.00122,  -0.00094,  -0.00085,-48378692.04101,   0.00000
-376415443.17318,94053895.31024,-4829960.24343,  -0.00068,   0.00022,  -0.00092,431286500.27043,   0.00177,276561301.20834,   0.00122,  -0.00094,  -0.00085,-45274800.93791,   0.00000
-381692772.36429,90894887.28802,-4503590.99357,  -0.00069,   0.00022,  -0.00091,434403063.44276,   0.00177,276561301.20834,   0.00122,  -0.00094,  -0.00085,-42158237.76558,   0.00000
-387000891.10728,87705089.71393,-4177221.74371,  -0.00071,   0.00021,  -0.00091,437557045.30721,   0.00177,276561301.20834,   0.00122,  -0.00094,  -0.00085,-39004255.90113,   0.00000
-392327483.58139,84472186.76722,-3857010.40422,  -0.00073,   0.00021,  -0.00090,440728708.80544,   0.00177,276561301.20834,   0.00122,  -0.00094,  -0.00085,-35832592.40290,   0.00000
-397632523.36918,81248520.68606,-3536799.06474,  -0.00075,   0.00021,  -0.00090,443911620.59345,   0.00177,276561301.20834,   0.00122,  -0.00094,  -0.00085,-32649680.61489,   0.00000
-402977589.57442,77972512.36673,-3216587.72526,  -0.00077,   0.00020,  -0.00089,447127347.38593,   0.00177,276561301.20834,   0.00122,  -0.00094,  -0.00085,-29433953.82242,   0.00000
-408310339.95890,74684188.22664,-2902534.29615,  -0.00078,   0.00020,  -0.00089,450349488.82931,   0.00177,276561301.20834,   0.00122,  -0.00094,  -0.00085,-26211812.37903,   0.00000
-413673879.89526,71365074.53468,-2588480.86704,  -0.00080,   0.00019,  -0.00089,453608885.21094,   0.00177,276561301.20834,   0.00122,  -0.00094,  -0.00085,-22952415.99740,   0.00000
-419025104.01087,68033645.02197,-2274427.43793,  -0.00082,   0.00019,  -0.00088,456874095.22578,   0.00177,276561301.20834,   0.00122,  -0.00094,  -0.00085,-19687205.98256,   0.00000
-424416354.54391,64649873.27108,-1960374.00882,  -0.00084,   0.00018,  -0.00088,460172620.71152,   0.00177,276561301.20834,   0.00122,  -0.00094,  -0.00085,-16388680.49682,   0.00000
-429786052.39065,61275338.38575,-1652478.49008,  -0.00085,   0.00018,  -0.00087,463480523.61778,   0.00177,276561301.20834,   0.00122,  -0.00094,  -0.00085,-13080777.59056,   0.00000
-435195776.65481,57848461.26223,-1344582.97135,  -0.00087,   0.00017,  -0.00087,466821848.48826,   0.00177,276561301.20834,   0.00122,  -0.00094,  -0.00085,-9739452.72008,   0.00000
-440593185.09823,54409268.31796,-1042845.36299,  -0.00089,   0.00017,  -0.00087,470168415.18793,   0.00177,276561301.20834,   0.00122,  -0.00094,  -0.00085,-6392886.02041,   0.00000
-445999830.40721,50948522.68738,-741107.75463,  -0.00091,   0.00016,  -0.00086,473535934.10371,   0.00177,276561301.20834,   0.00122,  -0.00094,  -0.00085,-3025367.10463,   0.00000
-450833751.15097,47844521.48499,-472860.73714,  -0.00092,   0.00016,  -0.00086,476561397.19654,   0.00177,276561301.20834,   0.00122,  -0.00094,  -0.00085,  -8.19525,   0.00000
-451096775.45937,47390872.01160,-439012.05389,  -0.00093,   0.00016,  -0.00086,476563367.58636,   0.00178,276563369.21103,   0.00122,  -0.00094,  -0.00085,  -1.62468,   1.00000
-453444951.00294,43316487.82347,-142386.87858,  -0.00094,   0.00015,  -0.00085,476581939.67902,   0.00179,276581940.82072,   0.00120,  -0.00093,  -0.00085,  -1.14170,   1.00000
-455766079.52143,39242429.33391,158180.57088,  -0.00096,   0.00015,  -0.00085,476600598.75545,   0.00181,276600606.09662,   0.00119,  -0.00092,  -0.00085,  -7.34117,   1.00000
-458071697.00851,35148079.98491,444293.66326,  -0.00098,   0.00014,  -0.00085,476619344.93129,   0.00183,276619349.45450,   0.00117,  -0.00091,  -0.00085,  -4.52320,   1.00000
-460349672.97076,31054892.13876,734363.12361,  -0.00100,   0.00013,  -0.00084,476638180.42395,   0.00185,276638186.96372,   0.00116,  -0.00090,  -0.00085,  -6.53977,   1.00000
-462588500.17052,26984337.99319,1016097.89574,  -0.00102,   0.00013,  -0.00084,476657127.07575,   0.00186,276657131.32293,   0.00114,  -0.00090,  -0.00085,  -4.24717,   1.00000
-464811063.85979,22894527.27589,1295651.32711,  -0.00103,   0.00012,  -0.00084,476676148.11569,   0.00188,276676154.73120,   0.00113,  -0.00089,  -0.00085,  -6.61551,   1.00000
-466999654.47154,18818259.77015,1566947.69280,  -0.00105,   0.00012,  -0.00083,476695176.14818,   0.00190,276695180.56456,   0.00111,  -0.00088,  -0.00085,  -4.41638,   1.00000
-469177328.58925,14712262.57777,1836025.60999,  -0.00107,   0.00011,  -0.00083,476714368.73264,   0.00192,276714376.70492,   0.00109,  -0.00087,  -0.00085,  -7.97228,   1.00000
-471309749.86346,10641646.30380,2102986.18877,  -0.00109,   0.00011,  -0.00082,476733577.86370,   0.00193,276733585.80293,   0.00108,  -0.00086,  -0.00085,  -7.93923,   1.00000
-473430604.89147,6542273.52043,2361570.92327,  -0.00110,   0.00010,  -0.00082,476752957.57084,   0.00195,276752965.52774,   0.00106,  -0.00085,  -0.00085,  -7.95690,   1.00000
-475506414.11677,2478871.73279,2624186.15279,  -0.00112,   0.00009,  -0.00082,476772349.38581,   0.00197,276772355.69199,   0.00105,  -0.00085,  -0.00085,  -6.30618,   1.00000
-477564694.41281,-1601699.49799,2872375.87629,  -0.00114,   0.00009,  -0.00081,476791819.65414,   0.00199,276791825.85364,   0.00103,  -0.00084,  -0.00085,  -6.19950,   1.00000
-479594157.45630,-5677681.34765,3124540.12734,  -0.00116,   0.00008,  -0.00081,476811385.54201,   0.00201,276811386.47780,   0.00101,  -0.00083,  -0.00085,  -0.93580,   1.00000
-481594920.51276,-9748662.51165,3368400.60973,  -0.00118,   0.00007,  -0.00081,476831034.96422,   0.00203,276831035.77664,   0.00100,  -0.00082,  -0.00085,  -0.81241,   1.00000
-483566792.02218,-13814257.10093,3610102.02409,  -0.00119,   0.00007,  -0.00080,476850771.79897,   0.00204,276850773.71496,   0.00098,  -0.00081,  -0.00085,  -1.91599,   1.00000
-485515043.72976,-17885322.22072,3843676.48929,  -0.00121,   0.00006,  -0.00080,476870497.08028,   0.00206,276870502.45846,   0.00096,  -0.00081,  -0.00085,  -5.37818,   1.00000
-487428948.28017,-21938877.63618,4074965.25669,  -0.00123,   0.00005,  -0.00080,476890412.93187,   0.00208,276890415.13991,   0.00095,  -0.00080,  -0.00085,  -2.20804,   1.00000
-489318943.55364,-25997408.08287,4304278.06532,  -0.00125,   0.00005,  -0.00079,476910316.43090,   0.00210,276910319.26922,   0.00093,  -0.00079,  -0.00085,  -2.83832,   1.00000
-491179817.16008,-30049033.09774,4525336.56242,  -0.00126,   0.00004,  -0.00079,476930303.71926,   0.00212,276930309.33137,   0.00091,  -0.00078,  -0.00085,  -5.61212,   1.00000
-493011357.36425,-34093363.74041,4744286.66771,  -0.00128,   0.00003,  -0.00079,476950380.20160,   0.00214,276950385.45445,   0.00089,  -0.00077,  -0.00085,  -5.25284,   1.00000
-494813499.87921,-38130006.30394,4961118.07115,  -0.00130,   0.00002,  -0.00078,476970537.08938,   0.00216,276970546.98701,   0.00088,  -0.00077,  -0.00085,  -9.89763,   1.00000
-496586406.28808,-42158566.54743,5169717.21745,  -0.00132,   0.00002,  -0.00078,476990786.61514,   0.00218,276990792.08181,   0.00086,  -0.00076,  -0.00085,  -5.46667,   1.00000
-498334756.56900,-46190886.29925,5382540.05680,  -0.00133,   0.00001,  -0.00078,477011025.77880,   0.00220,277011030.15182,   0.00084,  -0.00075,  -0.00085,  -4.37302,   1.00000
-500048768.53076,-50202024.55119,5580801.17255,  -0.00135,   0.00000,  -0.00077,477031434.65475,   0.00222,277031441.46620,   0.00082,  -0.00074,  -0.00085,  -6.81145,   1.00000
-501738117.01336,-54216409.04887,5783334.29131,  -0.00137,  -0.00001,  -0.00077,477051840.94964,   0.00223,277051845.51341,   0.00081,  -0.00074,  -0.00084,  -4.56378,   1.00000
-503397988.26634,-58221197.72345,5977657.95758,  -0.00139,  -0.00001,  -0.00077,477072327.67211,   0.00225,277072330.90519,   0.00079,  -0.00073,  -0.00084,  -3.23308,   1.00000
-505028382.96775,-62216006.15947,6163818.30603,  -0.00141,  -0.00002,  -0.00076,477092892.43119,   0.00227,277092896.74896,   0.00077,  -0.00072,  -0.00084,  -4.31778,   1.00000
-506625362.50294,-66191962.75055,6354312.31886,  -0.00142,  -0.00003,  -0.00076,477113444.15753,   0.00229,277113452.55627,   0.00075,  -0.00072,  -0.00084,  -8.39874,   1.00000
-508193061.79786,-70157382.29661,6536636.46891,  -0.00144,  -0.00004,  -0.00076,477134084.17566,   0.00231,277134086.93752,   0.00074,  -0.00071,  -0.00084,  -2.76187,   1.00000
-509731218.59006,-74111873.98789,6716938.58236,  -0.00146,  -0.00004,  -0.00075,477154797.75773,   0.00233,277154800.42451,   0.00072,  -0.00070,  -0.00084,  -2.66678,   1.00000
-511248131.03026,-78076388.68113,6889096.22813,  -0.00148,  -0.00005,  -0.00075,477175591.47669,   0.00235,277175596.31211,   0.00070,  -0.00069,  -0.00084,  -4.83542,   1.00000
-512727313.55407,-82007733.70866,7059290.52990,  -0.00149,  -0.00006,  -0.00075,477196460.80588,   0.00237,277196464.47201,   0.00068,  -0.00069,  -0.00084,  -3.66613,   1.00000
-514181806.99470,-85940535.65106,7227766.27609,  -0.00151,  -0.00007,  -0.00074,477217317.59566,   0.00239,277217323.84415,   0.00066,  -0.00068,  -0.00084,  -6.24849,   1.00000
-515609781.51591,-89868562.41997,7387862.11110,  -0.00153,  -0.00008,  -0.00074,477238344.00803,   0.00241,277238350.62658,   0.00064,  -0.00067,  -0.00084,  -6.61856,   1.00000
-517005260.38270,-93776118.53519,7546318.93826,  -0.00155,  -0.00009,  -0.00074,477259357.03609,   0.00243,277259361.06474,   0.00062,  -0.00067,  -0.00084,  -4.02865,   1.00000
-518368544.03614,-97663190.53803,7703145.48207,  -0.00156,  -0.00009,  -0.00074,477280353.35434,   0.00245,277280354.25578,   0.00061,  -0.00066,  -0.00084,  -0.90144,   1.00000
-519705310.73434,-101544172.68624,7851621.33861,  -0.00158,  -0.00010,  -0.00073,477301505.40909,   0.00247,277301512.05735,   0.00059,  -0.00065,  -0.00084,  -6.64826,   1.00000
-521010177.56567,-105404240.35419,7998531.50595,  -0.00160,  -0.00011,  -0.00073,477322644.07558,   0.00249,277322650.86846,   0.00057,  -0.00065,  -0.00083,  -6.79288,   1.00000
-522285796.45897,-109250287.08722,8143554.74050,  -0.00162,  -0.00012,  -0.00073,477343856.83502,   0.00251,277343861.89072,   0.00055,  -0.00064,  -0.00083,  -5.05570,   1.00000
-523538947.88389,-113103023.62482,8286645.49574,  -0.00163,  -0.00013,  -0.00072,477365155.19479,   0.00253,277365155.69752,   0.00053,  -0.00064,  -0.00083,  -0.50273,   1.00000
-524754217.74799,-116913217.39203,8422135.64256,  -0.00165,  -0.00014,  -0.00072,477386408.07490,   0.00255,277386415.36901,   0.00051,  -0.00063,  -0.00083,  -7.29411,   1.00000
-525947380.26043,-120729592.65069,8549652.93221,  -0.00167,  -0.00015,  -0.00072,477407748.22541,   0.00257,277407755.54671,   0.00049,  -0.00062,  -0.00083,  -7.32130,   1.00000
-527111043.74634,-124530482.04999,8681484.94976,  -0.00168,  -0.00016,  -0.00072,477429162.88194,   0.00259,277429166.97644,   0.00047,  -0.00062,  -0.00083,  -4.09450,   1.00000
-528245993.95860,-128315648.68471,8805387.17285,  -0.00170,  -0.00017,  -0.00071,477450639.31320,   0.00261,277450645.43996,   0.00045,  -0.00061,  -0.00083,  -6.12676,   1.00000
-529350143.74357,-132078688.90708,8927879.10607,  -0.00172,  -0.00018,  -0.00071,477472096.42274,   0.00263,277472100.04895,   0.00043,  -0.00061,  -0.00083,  -3.62621,   1.00000
-530425924.88514,-135825557.20833,9042504.80849,  -0.00174,  -0.00019,  -0.00071,477493610.06779,   0.00265,277493619.85043,   0.00041,  -0.00060,  -0.00083,  -9.78264,   1.00000
-531473096.14202,-139555872.50810,9155416.37029,  -0.00175,  -0.00019,  -0.00071,477515200.56888,   0.00267,277515205.56843,   0.00039,  -0.00060,  -0.00082,  -4.99954,   1.00000
-532490140.03406,-143263731.42100,9266999.33635,  -0.00177,  -0.00020,  -0.00070,477536756.07025,   0.00269,277536765.11238,   0.00037,  -0.00059,  -0.00082,  -9.04213,   1.00000
-533484328.12496,-146975259.35707,9376798.90187,  -0.00179,  -0.00021,  -0.00070,477558405.64465,   0.00271,277558405.79885,   0.00035,  -0.00059,  -0.00082,  -0.15420,   1.00000
-534445163.81526,-150648694.89287,9478873.35886,  -0.00180,  -0.00022,  -0.00070,477580090.76838,   0.00273,277580091.43262,   0.00033,  -0.00058,  -0.00082,  -0.66424,   1.00000
-535383088.27492,-154325071.50484,9579221.84957,  -0.00182,  -0.00023,  -0.00069,477601853.01042,   0.00275,277601857.62527,   0.00031,  -0.00058,  -0.00082,  -4.61485,   1.00000
-536286920.20214,-157957877.57280,9672325.37315,  -0.00184,  -0.00024,  -0.00069,477623564.97182,   0.00278,277623574.88906,   0.00029,  -0.00057,  -0.00082,  -9.91724,   1.00000
-537167958.47837,-161593118.63164,9763764.96447,  -0.00186,  -0.00025,  -0.00069,477645369.79254,   0.00280,277645372.05193,   0.00027,  -0.00057,  -0.00082,  -2.25938,   1.00000
-538019986.51274,-165205091.69786,9854041.18202,  -0.00187,  -0.00026,  -0.00069,477667136.59807,   0.00282,277667139.41297,   0.00025,  -0.00056,  -0.00082,  -2.81490,   1.00000
-538844458.14836,-168798407.69787,9942743.80800,  -0.00189,  -0.00027,  -0.00069,477688957.84764,   0.00284,277688966.73132,   0.00023,  -0.00056,  -0.00081,  -8.88368,   1.00000
-539637590.57390,-172352652.02837,10023891.00119,  -0.00191,  -0.00028,  -0.00068,477710823.74635,   0.00286,277710830.26613,   0.00021,  -0.00055,  -0.00081,  -6.51979,   1.00000
-540408046.74782,-175908144.03814,10103437.96465,  -0.00192,  -0.00029,  -0.00068,477732764.18744,   0.00288,277732772.61279,   0.00019,  -0.00055,  -0.00081,  -8.42535,   1.00000
-541150488.26666,-179440033.94377,10181919.47377,  -0.00194,  -0.00031,  -0.00068,477754674.70475,   0.00290,277754682.33590,   0.00017,  -0.00054,  -0.00081,  -7.63115,   1.00000
-541866570.03770,-182952480.04870,10252823.76516,  -0.00196,  -0.00032,  -0.00068,477776640.30589,   0.00292,277776646.69641,   0.00015,  -0.00054,  -0.00081,  -6.39052,   1.00000
-542555186.57901,-186441281.83166,10322744.55164,  -0.00197,  -0.00033,  -0.00067,477798571.33508,   0.00294,277798577.19574,   0.00013,  -0.00054,  -0.00081,  -5.86066,   1.00000
-543221109.02893,-189930093.26656,10391128.26323,  -0.00199,  -0.00034,  -0.00067,477820577.58157,   0.00296,277820586.25911,   0.00011,  -0.00053,  -0.00081,  -8.67754,   1.00000
-543857493.27906,-193378788.29558,10452133.16522,  -0.00201,  -0.00035,  -0.00067,477842617.36034,   0.00298,277842624.20732,   0.00009,  -0.00053,  -0.00080,  -6.84698,   1.00000
-544467213.01783,-196803717.72605,10512247.01470,  -0.00202,  -0.00036,  -0.00067,477864624.83871,   0.00300,277864626.46416,   0.00007,  -0.00053,  -0.00080,  -1.62545,   1.00000
-545051229.07086,-200208231.29648,10571024.64455,  -0.00204,  -0.00037,  -0.00066,477886676.25116,   0.00303,277886681.47098,   0.00005,  -0.00052,  -0.00080,  -5.21982,   1.00000
-545609593.10057,-203589110.39415,10622847.17823,  -0.00206,  -0.00038,  -0.00066,477908690.98512,   0.00305,277908697.78644,   0.00003,  -0.00052,  -0.00080,  -6.80132,   1.00000
-546145691.32943,-206968806.14334,10673274.13594,  -0.00207,  -0.00039,  -0.00066,477930787.35489,   0.00307,277930791.36492,   0.00001,  -0.00052,  -0.00080,  -4.01003,   1.00000
-546653662.52329,-210307863.03437,10722585.27112,  -0.00209,  -0.00040,  -0.00066,477952907.64228,   0.00309,277952909.62088,  -0.00001,  -0.00051,  -0.00080,  -1.97860,   1.00000
-547136332.32674,-213623098.30984,10771116.99019,  -0.00211,  -0.00041,  -0.00066,477974985.38896,   0.00311,277974989.65334,  -0.00004,  -0.00051,  -0.00080,  -4.26438,   1.00000
-547597485.30794,-216936588.29649,10812181.42345,  -0.00212,  -0.00043,  -0.00065,477997143.12562,   0.00313,277997144.28534,  -0.00006,  -0.00051,  -0.00079,  -1.15972,   1.00000
-548031634.78684,-220209241.99821,10852228.30815,  -0.00214,  -0.00044,  -0.00065,478019314.12744,   0.00315,278019320.10773,  -0.00008,  -0.00050,  -0.00079,  -5.98029,   1.00000
-548444046.24234,-223477302.78112,10885355.86808,  -0.00216,  -0.00045,  -0.00065,478041476.70837,   0.00317,278041482.58517,  -0.00010,  -0.00050,  -0.00079,  -5.87680,   1.00000
-548829776.99132,-226704333.96995,10923633.62817,  -0.00217,  -0.00046,  -0.00065,478063664.60163,   0.00320,278063666.01909,  -0.00012,  -0.00050,  -0.00079,  -1.41746,   1.00000
-549192065.04430,-229907762.25463,10955165.25356,  -0.00219,  -0.00047,  -0.00065,478085799.48312,   0.00322,278085807.11895,  -0.00014,  -0.00050,  -0.00079,  -7.63583,   1.00000
-549533410.41655,-233108428.16600,10979383.55815,  -0.00221,  -0.00048,  -0.00064,478108020.75380,   0.00324,278108021.81240,  -0.00016,  -0.00050,  -0.00079,  -1.05860,   1.00000
-549848916.96553,-236266193.26119,11009331.03514,  -0.00222,  -0.00050,  -0.00064,478130161.35316,   0.00326,278130167.92037,  -0.00018,  -0.00049,  -0.00078,  -6.56721,   1.00000
-550142134.72268,-239402209.28913,11032144.96363,  -0.00224,  -0.00051,  -0.00064,478152348.52669,   0.00328,278152356.93206,  -0.00020,  -0.00049,  -0.00078,  -8.40537,   1.00000
-550414282.21502,-242534688.79957,11053804.99670,  -0.00226,  -0.00052,  -0.00064,478174612.98592,   0.00330,278174621.09001,  -0.00022,  -0.00049,  -0.00078,  -8.10409,   1.00000
-550662797.47271,-245624972.17594,11069076.74655,  -0.00227,  -0.00053,  -0.00064,478196803.15682,   0.00332,278196810.33618,  -0.00025,  -0.00049,  -0.00078,  -7.17936,   1.00000
-550888606.80108,-248691617.72345,11090015.39950,  -0.00229,  -0.00054,  -0.00063,478218950.21324,   0.00334,278218959.35854,  -0.00027,  -0.00049,  -0.00078,  -9.14530,   1.00000
-551093179.88997,-251736235.24526,11103918.34537,  -0.00230,  -0.00056,  -0.00063,478241145.96061,   0.00337,278241149.26120,  -0.00029,  -0.00049,  -0.00078,  -3.30059,   1.00000
-551277693.71234,-254776847.87506,11110675.93918,  -0.00232,  -0.00057,  -0.00063,478263406.55497,   0.00339,278263412.00869,  -0.00031,  -0.00048,  -0.00077,  -5.45372,   1.00000
-551439243.72264,-257775538.30476,11123383.85042,  -0.00234,  -0.00058,  -0.00063,478285593.32012,   0.00341,278285601.28456,  -0.00033,  -0.00048,  -0.00077,  -7.96444,   1.00000
-551580338.82320,-260751967.60146,11129149.87688,  -0.00235,  -0.00059,  -0.00063,478307823.55807,   0.00343,278307829.97774,  -0.00035,  -0.00048,  -0.00077,  -6.41967,   1.00000
-551700591.86947,-263705220.90492,11134618.16804,  -0.00237,  -0.00061,  -0.00062,478330010.88638,   0.00345,278330015.32900,  -0.00037,  -0.00048,  -0.00077,  -4.44262,   1.00000
-551800917.75111,-266636126.34732,11133229.80178,  -0.00238,  -0.00062,  -0.00062,478352238.31176,   0.00347,278352239.28634,  -0.00039,  -0.00048,  -0.00077,  -0.97458,   1.00000
-551880932.25285,-269544013.84858,11131629.14239,  -0.00240,  -0.00063,  -0.00062,478374410.52176,   0.00349,278374419.67533,  -0.00042,  -0.00048,  -0.00077,  -9.15357,   1.00000
-551940864.60623,-272411718.13552,11129538.63314,  -0.00242,  -0.00064,  -0.00062,478396595.77990,   0.00351,278396605.09985,  -0.00044,  -0.00048,  -0.00076,  -9.31995,   1.00000
-551981513.99909,-275274520.90070,11126555.64504,  -0.00243,  -0.00066,  -0.00062,478418862.04796,   0.00354,278418864.55603,  -0.00046,  -0.00048,  -0.00076,  -2.50807,   1.00000
-552003018.59660,-278114718.66136,11117798.64631,  -0.00245,  -0.00067,  -0.00062,478440990.50860,   0.00356,278440995.24353,  -0.00048,  -0.00048,  -0.00076,  -4.73494,   1.00000
-552005726.16850,-280914900.00716,11108160.73876,  -0.00246,  -0.00068,  -0.00061,478463209.77044,   0.00358,278463211.69653,  -0.00050,  -0.00048,  -0.00076,  -1.92608,   1.00000
-551989296.16946,-283710197.90575,11098693.73706,  -0.00248,  -0.00070,  -0.00061,478485328.96139,   0.00360,278485337.54103,  -0.00052,  -0.00048,  -0.00076,  -8.57964,   1.00000
-551954847.59987,-286465419.89467,11088364.74213,  -0.00250,  -0.00071,  -0.00061,478507543.20261,   0.00362,278507547.37461,  -0.00054,  -0.00048,  -0.00076,  -4.17200,   1.00000
-551902680.64178,-289198804.63904,11071874.75326,  -0.00251,  -0.00072,  -0.00061,478529707.76870,   0.00364,278529710.86738,  -0.00056,  -0.00048,  -0.00075,  -3.09867,   1.00000
-551832554.24031,-291910288.75007,11055372.58128,  -0.00253,  -0.00074,  -0.00061,478551823.87730,   0.00366,278551830.10995,  -0.00059,  -0.00048,  -0.00075,  -6.23265,   1.00000
-551744898.37383,-294599357.77745,11038374.69297,  -0.00254,  -0.00075,  -0.00061,478573984.78616,   0.00368,278573986.52461,  -0.00061,  -0.00049,  -0.00075,  -1.73844,   1.00000
-551640272.36675,-297266967.77855,11015302.69876,  -0.00256,  -0.00076,  -0.00061,478596092.58617,   0.00371,278596096.93163,  -0.00063,  -0.00049,  -0.00075,  -4.34546,   1.00000
-551517957.05058,-299912825.83466,10998377.61439,  -0.00257,  -0.00078,  -0.00060,478618160.94067,   0.00373,278618165.30872,  -0.00065,  -0.00049,  -0.00075,  -4.36805,   1.00000
-551379565.95801,-302535544.33179,10974415.16613,  -0.00259,  -0.00079,  -0.00060,478640342.62101,   0.00375,278640349.07105,  -0.00067,  -0.00049,  -0.00075,  -6.45004,   1.00000
-551225892.54879,-305121907.14347,10945189.60540,  -0.00260,  -0.00080,  -0.00060,478662364.05239,   0.00377,278662368.10866,  -0.00069,  -0.00049,  -0.00074,  -4.05627,   1.00000
-551055687.41296,-307686034.84490,10921716.49446,  -0.00262,  -0.00082,  -0.00060,478684425.17329,   0.00379,278684425.17480,  -0.00071,  -0.00049,  -0.00074,  -0.00151,   1.00000
-550870168.61299,-310228365.18856,10891786.05975,  -0.00264,  -0.00083,  -0.00060,478706509.67584,   0.00381,278706516.36385,  -0.00073,  -0.00049,  -0.00074,  -6.68801,   1.00000
-550668865.10368,-312750061.43732,10862032.82233,  -0.00265,  -0.00085,  -0.00060,478728555.44862,   0.00383,278728563.83641,  -0.00075,  -0.00050,  -0.00074,  -8.38779,   1.00000
-550452470.95301,-315251524.50395,10826385.00605,  -0.00267,  -0.00086,  -0.00060,478750558.93683,   0.00386,278750566.10092,  -0.00078,  -0.00050,  -0.00074,  -7.16409,   1.00000
-550220552.40355,-317730809.22293,10796584.97518,  -0.00268,  -0.00087,  -0.00059,478772598.20486,   0.00388,278772605.99214,  -0.00080,  -0.00050,  -0.00073,  -7.78728,   1.00000
-549975752.83548,-320174439.93091,10761143.48004,  -0.00270,  -0.00089,  -0.00059,478794557.90489,   0.00390,278794560.77607,  -0.00082,  -0.00050,  -0.00073,  -2.87118,   1.00000
-549716577.90558,-322596533.13184,10725489.35545,  -0.00271,  -0.00090,  -0.00059,478816546.64517,   0.00392,278816551.01951,  -0.00084,  -0.00051,  -0.00073,  -4.37435,   1.00000
-549442912.12876,-324998992.20439,10690101.50134,  -0.00273,  -0.00092,  -0.00059,478838491.26510,   0.00394,278838498.54760,  -0.00086,  -0.00051,  -0.00073,  -7.28250,   1.00000
-549155432.31294,-327382228.88020,10648907.74534,  -0.00274,  -0.00093,  -0.00059,478860398.13458,   0.00396,278860401.95168,  -0.00088,  -0.00051,  -0.00073,  -3.81710,   1.00000
-548854278.92925,-329744047.36578,10607586.46230,  -0.00276,  -0.00094,  -0.00059,478882331.68036,   0.00398,278882340.93300,  -0.00090,  -0.00051,  -0.00073,  -9.25264,   1.00000
-548541950.07639,-332069331.36280,10566399.46441,  -0.00277,  -0.00096,  -0.00059,478904269.79925,   0.00400,278904273.65397,  -0.00092,  -0.00052,  -0.00072,  -3.85472,   1.00000
-548215638.77974,-334378103.75239,10526026.48538,  -0.00279,  -0.00097,  -0.00059,478926078.66962,   0.00403,278926087.67598,  -0.00094,  -0.00052,  -0.00072,  -9.00636,   1.00000
-547877515.58940,-336663843.89212,10479003.61583,  -0.00280,  -0.00099,  -0.00058,478948007.66114,   0.00405,278948012.11530,  -0.00096,  -0.00052,  -0.00072,  -4.45416,   1.00000
-547525755.60655,-338933509.21112,10432870.18686,  -0.00282,  -0.00100,  -0.00058,478969816.71969,   0.00407,278969818.98097,  -0.00099,  -0.00053,  -0.00072,  -2.26127,   1.00000
-547164201.17554,-341167609.18290,10386958.34824,  -0.00283,  -0.00102,  -0.00058,478991612.62939,   0.00409,278991618.96530,  -0.00101,  -0.00053,  -0.00072,  -6.33591,   1.00000
-546787424.29387,-343398435.77839,10341212.97054,  -0.00284,  -0.00103,  -0.00058,479013412.03798,   0.00411,279013421.33885,  -0.00103,  -0.00053,  -0.00072,  -9.30087,   1.00000
-546404675.07855,-345579772.16173,10289886.92513,  -0.00286,  -0.00105,  -0.00058,479035165.79902,   0.00413,279035171.76278,  -0.00105,  -0.00054,  -0.00071,  -5.96376,   1.00000
-546007047.74268,-347758214.26484,10238803.69718,  -0.00287,  -0.00106,  -0.00058,479056922.69060,   0.00415,279056925.54120,  -0.00107,  -0.00054,  -0.00071,  -2.85060,   1.00000
-545600996.28646,-349902036.12501,10188034.29991,  -0.00289,  -0.00108,  -0.00058,479078668.53934,   0.00417,279078671.71886,  -0.00109,  -0.00055,  -0.00071,  -3.17951,   1.00000
-545180270.15918,-352043005.79280,10137505.93302,  -0.00290,  -0.00109,  -0.00058,479100418.46394,   0.00419,279100422.49398,  -0.00111,  -0.00055,  -0.00071,  -4.03004,   1.00000
-544753970.75872,-354138624.83525,10088001.18150,  -0.00292,  -0.00111,  -0.00058,479122046.54250,   0.00422,279122047.06198,  -0.00113,  -0.00056,  -0.00071,  -0.51948,   1.00000
-544313707.26362,-356232058.43594,10032656.12807,  -0.00293,  -0.00112,  -0.00058,479143675.28551,   0.00424,279143675.95308,  -0.00115,  -0.00056,  -0.00071,  -0.66758,   1.00000
-543866269.26127,-358291855.12464,9977705.18749,  -0.00295,  -0.00114,  -0.00057,479165296.67529,   0.00426,279165297.05891,  -0.00117,  -0.00057,  -0.00070,  -0.38362,   1.00000
-543408805.59654,-360332240.35044,9922890.05814,  -0.00296,  -0.00115,  -0.00057,479186949.24882,   0.00428,279186954.59490,  -0.00119,  -0.00057,  -0.00070,  -5.34609,   1.00000
-542943404.19286,-362346519.00363,9863271.24544,  -0.00297,  -0.00117,  -0.00057,479208451.32812,   0.00430,279208455.24610,  -0.00121,  -0.00058,  -0.00070,  -3.91797,   1.00000
-542464590.52242,-364355109.20563,9809664.80932,  -0.00299,  -0.00118,  -0.00057,479230029.34492,   0.00432,279230039.33358,  -0.00123,  -0.00058,  -0.00070,  -9.98866,   1.00000
-541983759.51904,-366317852.52722,9750653.76728,  -0.00300,  -0.00120,  -0.00057,479251566.00430,   0.00434,279251568.67738,  -0.00125,  -0.00059,  -0.00070,  -2.67308,   1.00000
-541488168.02791,-368282439.43733,9692437.49982,  -0.00302,  -0.00121,  -0.00057,479273030.63956,   0.00436,279273034.78604,  -0.00127,  -0.00059,  -0.00070,  -4.14648,   1.00000
-540987623.57397,-370215251.86281,9628621.96979,  -0.00303,  -0.00123,  -0.00057,479294484.98711,   0.00438,279294491.49753,  -0.00129,  -0.00060,  -0.00069,  -6.51041,   1.00000
-540477984.14354,-372129363.97243,9571164.35550,  -0.00305,  -0.00124,  -0.00057,479315979.24054,   0.00440,279315987.32281,  -0.00131,  -0.00060,  -0.00069,  -8.08227,   1.00000
-539961604.80682,-374019797.02134,9508940.85236,  -0.00306,  -0.00126,  -0.00057,479337327.22236,   0.00442,279337329.45903,  -0.00133,  -0.00061,  -0.00069,  -2.23667,   1.00000
-539436945.92613,-375892209.21611,9446995.21364,  -0.00307,  -0.00127,  -0.00057,479358700.13823,   0.00445,279358709.82742,  -0.00135,  -0.00061,  -0.00069,  -9.68920,   1.00000
-538904251.95617,-377746673.43218,9385332.60508,  -0.00309,  -0.00129,  -0.00057,479380127.86821,   0.00447,279380128.43521,  -0.00137,  -0.00062,  -0.00069,  -0.56700,   1.00000
-538364897.62729,-379578336.51536,9325027.87682,  -0.00310,  -0.00130,  -0.00056,479401389.96887,   0.00449,279401396.63093,  -0.00139,  -0.00063,  -0.00069,  -6.66206,   1.00000
-537818295.03226,-381392725.91098,9258925.03527,  -0.00311,  -0.00132,  -0.00056,479422702.15385,   0.00451,279422702.24992,  -0.00141,  -0.00063,  -0.00068,  -0.09608,   1.00000
-537267882.33263,-383176827.80133,9199511.35834,  -0.00313,  -0.00134,  -0.00056,479443999.80187,   0.00453,279444001.68351,  -0.00143,  -0.00064,  -0.00068,  -1.88163,   1.00000
-536707654.39908,-384952263.21645,9135092.79736,  -0.00314,  -0.00135,  -0.00056,479465196.61051,   0.00455,279465197.69782,  -0.00145,  -0.00065,  -0.00068,  -1.08731,   1.00000
-536140714.07600,-386710861.98874,9064947.12007,  -0.00315,  -0.00137,  -0.00056,479486431.69675,   0.00457,279486432.02503,  -0.00147,  -0.00065,  -0.00068,  -0.32829,   1.00000
-535569082.79766,-388444134.13885,9001947.68513,  -0.00317,  -0.00138,  -0.00056,479507585.28214,   0.00459,279507590.37537,  -0.00149,  -0.00066,  -0.00068,  -5.09323,   1.00000
-534991149.77345,-390160979.83202,8933216.63941,  -0.00318,  -0.00140,  -0.00056,479528785.78967,   0.00461,279528787.48709,  -0.00151,  -0.00067,  -0.00068,  -1.69743,   1.00000
-534408936.92311,-391853207.27766,8871619.67825,  -0.00320,  -0.00142,  -0.00056,479549902.40126,   0.00463,279549909.21560,  -0.00153,  -0.00067,  -0.00068,  -6.81435,   1.00000
-533819029.23486,-393533772.03541,8804663.34165,  -0.00321,  -0.00143,  -0.00056,479570991.44576,   0.00465,279571000.86025,  -0.00155,  -0.00068,  -0.00067,  -9.41449,   1.00000
-533225937.63569,-395190922.16558,8732679.18318,  -0.00322,  -0.00145,  -0.00056,479592008.45076,   0.00467,279592015.15649,  -0.00157,  -0.00069,  -0.00067,  -6.70572,   1.00000
-532626468.12638,-396831871.37882,8667243.76944,  -0.00323,  -0.00146,  -0.00056,479613066.90080,   0.00469,279613072.19716,  -0.00159,  -0.00070,  -0.00067,  -5.29636,   1.00000
-532023793.05904,-398449818.30795,8602836.25064,  -0.00325,  -0.00148,  -0.00056,479634044.64795,   0.00471,279634053.96344,  -0.00160,  -0.00070,  -0.00067,  -9.31549,   1.00000
-531413873.11714,-400057047.19202,8533114.71061,  -0.00326,  -0.00150,  -0.00056,479655003.90721,   0.00473,279655007.79237,  -0.00162,  -0.00071,  -0.00067,  -3.88515,   1.00000
-530803057.54268,-401637286.13937,8464116.99052,  -0.00327,  -0.00151,  -0.00056,479675952.94889,   0.00476,279675955.47115,  -0.00164,  -0.00072,  -0.00067,  -2.52227,   1.00000
-530182757.27937,-403211665.32723,8396298.86649,  -0.00329,  -0.00153,  -0.00056,479696804.43577,   0.00478,279696809.50444,  -0.00166,  -0.00073,  -0.00066,  -5.06868,   1.00000
-529562294.93221,-404759837.29557,8323115.94398,  -0.00330,  -0.00154,  -0.00056,479717650.85707,   0.00480,279717656.54336,  -0.00168,  -0.00074,  -0.00066,  -5.68629,   1.00000
-528936445.23256,-406292899.96498,8256532.43642,  -0.00331,  -0.00156,  -0.00055,479738545.88737,   0.00482,279738548.02556,  -0.00170,  -0.00074,  -0.00066,  -2.13820,   1.00000
-528306381.31588,-407809924.05209,8185276.46019,  -0.00333,  -0.00158,  -0.00055,479759291.42225,   0.00484,279759297.80792,  -0.00172,  -0.00075,  -0.00066,  -6.38567,   1.00000
-527676404.57561,-409301422.55783,8114785.63109,  -0.00334,  -0.00159,  -0.00055,479780041.94446,   0.00486,279780042.28616,  -0.00174,  -0.00076,  -0.00066,  -0.34170,   1.00000
-527039468.49511,-410783581.86171,8045144.52591,  -0.00335,  -0.00161,  -0.00055,479800755.39661,   0.00488,279800763.89387,  -0.00175,  -0.00077,  -0.00066,  -8.49725,   1.00000
-526395654.29147,-412256477.90916,7976343.17932,  -0.00336,  -0.00163,  -0.00055,479821462.79805,   0.00490,279821463.18616,  -0.00177,  -0.00078,  -0.00066,  -0.38811,   1.00000
-525757400.33065,-413693733.32688,7908537.35622,  -0.00338,  -0.00164,  -0.00055,479842101.23612,   0.00492,279842108.25603,  -0.00179,  -0.00079,  -0.00066,  -7.01990,   1.00000
-525107777.13666,-415133287.46252,7835231.62564,  -0.00339,  -0.00166,  -0.00055,479862770.73539,   0.00494,279862780.44846,  -0.00181,  -0.00079,  -0.00065,  -9.71307,   1.00000
-524461260.11192,-416542694.54176,7769386.17628,  -0.00340,  -0.00168,  -0.00055,479883333.06042,   0.00496,279883333.36524,  -0.00183,  -0.00080,  -0.00065,  -0.30483,   1.00000
-523808475.64241,-417944104.61411,7698264.39532,  -0.00341,  -0.00169,  -0.00055,479903864.55932,   0.00498,279903864.92061,  -0.00184,  -0.00081,  -0.00065,  -0.36130,   1.00000
-523149130.19315,-419337302.22555,7628007.37688,  -0.00343,  -0.00171,  -0.00055,479924369.07542,   0.00500,279924376.93513,  -0.00186,  -0.00082,  -0.00065,  -7.85971,   1.00000
-522496659.02315,-420696867.62118,7552704.05656,  -0.00344,  -0.00173,  -0.00055,479944825.30678,   0.00502,279944833.84326,  -0.00188,  -0.00083,  -0.00065,  -8.53648,   1.00000
-521837482.20465,-422048628.87099,7484396.62045,  -0.00345,  -0.00174,  -0.00055,479965267.16620,   0.00504,279965273.13049,  -0.00190,  -0.00084,  -0.00065,  -5.96429,   1.00000
-521172256.16145,-423393095.16796,7410849.59842,  -0.00346,  -0.00176,  -0.00055,479985688.38223,   0.00506,279985693.20638,  -0.00192,  -0.00085,  -0.00065,  -4.82415,   1.00000
-520508567.90586,-424714539.55782,7344209.98193,  -0.00347,  -0.00178,  -0.00055,480006109.21316,   0.00508,280006111.29032,  -0.00193,  -0.00086,  -0.00064,  -2.07716,   1.00000
-519841249.86023,-426024370.06369,7272854.17410,  -0.00349,  -0.00179,  -0.00055,480026385.90300,   0.00510,280026395.59210,  -0.00195,  -0.00087,  -0.00064,  -9.68910,   1.00000
-519176049.37032,-427312083.85098,7202308.66081,  -0.00350,  -0.00181,  -0.00055,480046672.16118,   0.00512,280046677.15324,  -0.00197,  -0.00088,  -0.00064,  -4.99206,   1.00000
-518504971.47528,-428593389.94714,7126555.69289,  -0.00351,  -0.00183,  -0.00055,480066932.11474,   0.00514,280066941.55242,  -0.00199,  -0.00089,  -0.00064,  -9.43768,   1.00000
-517832834.27451,-429858140.17811,7058043.24534,  -0.00352,  -0.00184,  -0.00055,480087131.45544,   0.00516,280087140.38579,  -0.00200,  -0.00090,  -0.00064,  -8.93035,   1.00000
-517163202.89614,-431101524.74948,6990312.99489,  -0.00353,  -0.00186,  -0.00055,480107332.98458,   0.00518,280107337.05961,  -0.00202,  -0.00091,  -0.00064,  -4.07503,   1.00000
-516487816.70633,-432339087.87270,6917341.54486,  -0.00354,  -0.00188,  -0.00055,480127513.24897,   0.00520,280127518.04758,  -0.00204,  -0.00092,  -0.00064,  -4.79861,   1.00000
-515814000.81713,-433557131.07084,6846011.84760,  -0.00356,  -0.00189,  -0.00055,480147513.39100,   0.00522,280147518.29059,  -0.00205,  -0.00093,  -0.00064,  -4.89960,   1.00000
-515137516.79808,-434764070.27241,6775276.68571,  -0.00357,  -0.00191,  -0.00055,480167561.98444,   0.00524,280167568.62304,  -0.00207,  -0.00094,  -0.00063,  -6.63860,   1.00000
-514458492.39694,-435959953.56062,6705135.75364,  -0.00358,  -0.00193,  -0.00055,480187669.13583,   0.00526,280187669.25113,  -0.00209,  -0.00095,  -0.00063,  -0.11530,   1.00000
-513781101.45416,-437137398.32594,6636582.66041,  -0.00359,  -0.00194,  -0.00055,480207584.19265,   0.00528,280207590.44756,  -0.00211,  -0.00096,  -0.00063,  -6.25492,   1.00000
-513101578.20762,-438304416.35064,6562526.57959,  -0.00360,  -0.00196,  -0.00055,480227553.82430,   0.00530,280227561.60047,  -0.00212,  -0.00097,  -0.00063,  -7.77617,   1.00000
-512417860.00349,-439462658.43777,6495947.20506,  -0.00361,  -0.00198,  -0.00055,480247403.33904,   0.00532,280247407.16750,  -0.00214,  -0.00098,  -0.00063,  -3.82846,   1.00000
-511737729.37016,-440601632.06700,6424064.23003,  -0.00362,  -0.00199,  -0.00055,480267247.36752,   0.00534,280267251.34418,  -0.00216,  -0.00099,  -0.00063,  -3.97666,   1.00000
-511055419.43080,-441730367.60263,6352807.08630,  -0.00364,  -0.00201,  -0.00055,480287138.67341,   0.00536,280287147.36678,  -0.00217,  -0.00100,  -0.00063,  -8.69337,   1.00000
-510374783.25875,-442842493.58891,6283119.35679,  -0.00365,  -0.00203,  -0.00055,480306865.03298,   0.00538,280306865.94251,  -0.00219,  -0.00101,  -0.00063,  -0.90952,   1.00000
-509688249.40277,-443950394.69991,6214286.40868,  -0.00366,  -0.00205,  -0.00055,480326573.38930,   0.00540,280326574.83497,  -0.00220,  -0.00102,  -0.00063,  -1.44567,   1.00000
-509005399.73486,-445039687.92286,6146260.16819,  -0.00367,  -0.00206,  -0.00055,480346277.26134,   0.00541,280346284.04156,  -0.00222,  -0.00103,  -0.00063,  -6.78022,   1.00000
-508322414.21291,-446116402.82459,6079281.07037,  -0.00368,  -0.00208,  -0.00054,480365931.06883,   0.00543,280365931.64200,  -0.00224,  -0.00104,  -0.00062,  -0.57318,   1.00000
-507639523.38366,-447180987.94559,6007257.10370,  -0.00369,  -0.00210,  -0.00054,480385511.34269,   0.00545,280385517.17518,  -0.00225,  -0.00105,  -0.00062,  -5.83249,   1.00000
-506956508.58990,-448233503.60649,5936325.51959,  -0.00370,  -0.00211,  -0.00054,480405040.79128,   0.00547,280405041.80578,  -0.00227,  -0.00106,  -0.00062,  -1.01450,   1.00000
-506267372.83855,-449282382.13370,5872339.27301,  -0.00371,  -0.00213,  -0.00054,480424555.50972,   0.00549,280424559.87669,  -0.00228,  -0.00107,  -0.00062,  -4.36696,   1.00000
-505588312.55600,-450305584.19080,5803231.40380,  -0.00372,  -0.00215,  -0.00054,480444016.49438,   0.00551,280444025.16995,  -0.00230,  -0.00109,  -0.00062,  -8.67558,   1.00000
-504903393.20481,-451325797.18818,5734971.02837,  -0.00373,  -0.00217,  -0.00054,480463479.27204,   0.00553,280463483.65031,  -0.00232,  -0.00110,  -0.00062,  -4.37827,   1.00000
-504214338.43595,-452340754.13517,5661898.31829,  -0.00374,  -0.00218,  -0.00054,480482813.55299,   0.00555,280482820.86257,  -0.00233,  -0.00111,  -0.00062,  -7.30958,   1.00000
-503529297.58478,-453338619.79251,5595768.48703,  -0.00375,  -0.00220,  -0.00054,480502152.75720,   0.00557,280502160.68444,  -0.00235,  -0.00112,  -0.00062,  -7.92723,   1.00000
-502844191.10627,-454325716.43725,5530641.53242,  -0.00376,  -0.00222,  -0.00054,480521439.43029,   0.00559,280521441.64387,  -0.00236,  -0.00113,  -0.00062,  -2.21358,   1.00000
-502169511.06410,-455288629.28789,5460400.30716,  -0.00377,  -0.00223,  -0.00054,480540667.74125,   0.00561,280540670.13352,  -0.00238,  -0.00114,  -0.00062,  -2.39227,   1.00000
-501484160.83269,-456255055.26875,5397309.49769,  -0.00378,  -0.00225,  -0.00054,480559828.07209,   0.00563,280559834.31908,  -0.00239,  -0.00115,  -0.00061,  -6.24699,   1.00000
-500803499.71704,-457205691.29507,5328883.59174,  -0.00379,  -0.00227,  -0.00054,480578994.74625,   0.00564,280579000.03280,  -0.00241,  -0.00116,  -0.00061,  -5.28655,   1.00000
-500118129.25179,-458152354.41718,5261688.99024,  -0.00380,  -0.00229,  -0.00054,480598044.91278,   0.00566,280598047.97551,  -0.00242,  -0.00118,  -0.00061,  -3.06274,   1.00000
-499437306.95701,-459083407.59646,5195287.47519,  -0.00381,  -0.00230,  -0.00054,480617093.94077,   0.00568,280617098.63221,  -0.00244,  -0.00119,  -0.00061,  -4.69144,   1.00000
-498750478.37243,-460012684.01952,5129690.78960,  -0.00382,  -0.00232,  -0.00054,480636145.23488,   0.00570,280636146.31506,  -0.00245,  -0.00120,  -0.00061,  -1.08018,   1.00000
-498069639.90038,-460925094.99102,5059175.91963,  -0.00383,  -0.00234,  -0.00054,480655072.87732,   0.00572,280655082.45905,  -0.00247,  -0.00121,  -0.00061,  -9.58172,   1.00000
-497388460.51217,-461828273.74293,4995773.39332,  -0.00384,  -0.00235,  -0.00054,480673958.35061,   0.00574,280673962.84617,  -0.00248,  -0.00122,  -0.00061,  -4.49556,   1.00000
-496707102.50609,-462722569.31872,4933312.13646,  -0.00385,  -0.00237,  -0.00054,480692779.09320,   0.00576,280692787.14467,  -0.00250,  -0.00123,  -0.00061,  -8.05147,   1.00000
-496036642.08782,-463595016.85965,4865683.43770,  -0.00386,  -0.00239,  -0.00054,480711555.01517,   0.00578,280711559.58042,  -0.00251,  -0.00125,  -0.00061,  -4.56525,   1.00000
-495354997.55131,-464472495.51120,4799057.29797,  -0.00387,  -0.00241,  -0.00054,480730271.21423,   0.00580,280730271.66733,  -0.00253,  -0.00126,  -0.00061,  -0.45310,   1.00000
-494677984.40250,-465335492.42047,4739295.06772,  -0.00388,  -0.00242,  -0.00054,480748986.53084,   0.00581,280748988.21041,  -0.00254,  -0.00127,  -0.00061,  -1.67957,   1.00000
-494000910.67266,-466190563.30133,4674338.74122,  -0.00389,  -0.00244,  -0.00054,480767643.01144,   0.00583,280767648.97370,  -0.00255,  -0.00128,  -0.00061,  -5.96227,   1.00000
-493323571.95734,-467037704.77723,4610328.58316,  -0.00390,  -0.00246,  -0.00054,480786252.88355,   0.00585,280786254.90170,  -0.00257,  -0.00129,  -0.00060,  -2.01815,   1.00000
-492651898.15188,-467869959.39284,4547416.12802,  -0.00391,  -0.00247,  -0.00054,480804747.32692,   0.00587,280804751.38743,  -0.00258,  -0.00131,  -0.00060,  -4.06051,   1.00000
-491974055.42040,-468701973.18400,4479170.48796,  -0.00392,  -0.00249,  -0.00054,480823241.16798,   0.00589,280823247.89941,  -0.00260,  -0.00132,  -0.00060,  -6.73144,   1.00000
-491301665.48822,-469519364.56550,4418143.51848,  -0.00393,  -0.00251,  -0.00054,480841631.30904,   0.00591,280841635.99035,  -0.00261,  -0.00133,  -0.00060,  -4.68131,   1.00000
-490628847.70380,-470329599.07180,4357998.05755,  -0.00394,  -0.00252,  -0.00055,480859964.19937,   0.00592,280859970.32410,  -0.00262,  -0.00134,  -0.00060,  -6.12472,   1.00000
-489961190.61858,-471126994.72396,4292472.30114,  -0.00395,  -0.00254,  -0.00055,480878307.01527,   0.00594,280878308.55092,  -0.00264,  -0.00135,  -0.00060,  -1.53565,   1.00000
-489287388.28072,-471923438.02729,4234123.63816,  -0.00396,  -0.00256,  -0.00055,480896534.23391,   0.00596,280896536.10072,  -0.00265,  -0.00137,  -0.00060,  -1.86681,   1.00000
-488618774.29704,-472707290.33766,4170370.38147,  -0.00397,  -0.00258,  -0.00055,480914761.77719,   0.00598,280914767.92876,  -0.00266,  -0.00138,  -0.00060,  -6.15157,   1.00000
-487955629.23154,-473477930.41150,4107673.25402,  -0.00397,  -0.00259,  -0.00055,480932889.45861,   0.00600,280932891.30212,  -0.00268,  -0.00139,  -0.00060,  -1.84352,   1.00000
-487285842.83704,-474248973.81204,4045709.73084,  -0.00398,  -0.00261,  -0.00055,480951010.16035,   0.00601,280951017.65970,  -0.00269,  -0.00140,  -0.00060,  -7.49936,   1.00000
-486621462.74596,-475007164.47036,3984769.10744,  -0.00399,  -0.00263,  -0.00055,480969030.46696,   0.00603,280969035.95806,  -0.00270,  -0.00141,  -0.00060,  -5.49110,   1.00000
-485956393.70028,-475759368.13586,3924684.59022,  -0.00400,  -0.00264,  -0.00055,480987001.47321,   0.00605,280987002.08663,  -0.00272,  -0.00143,  -0.00060,  -0.61342,   1.00000
