# sigma_xx, sigma_yy, sigma_xy, epsilon_xx, epsilon_yy, epsilon_xy, vonMises, epsPlastic, hardening, epsilonP__xx, epsilonP__yy, epsilonP__xy, yieldValue, iteration
   0.00000,   0.00000,   0.00000,   0.00000,   0.00000,   0.00000,1181185.37500,   0.00000,274640576.00000,   0.00000,   0.00000,   0.00000,-473459392.00000,   0.00000
   0.00000,   0.00000,   0.00000,   0.00000,   0.00000,   0.00000,1181185.37500,   0.00000,274640576.00000,   0.00000,   0.00000,   0.00000,-473459392.00000,   0.00000
1061711.64463,3323019.56307,452261.58369,  -0.00000,   0.00001,   0.00001,4215222.00000,   0.00000,274640576.00000,   0.00000,   0.00000,   0.00000,-470425344.00000,   0.00000
2151000.21510,6673616.05198,910038.55254,  -0.00000,   0.00003,   0.00001,6813654.50000,   0.00000,274640576.00000,   0.00000,   0.00000,   0.00000,-467826928.00000,   0.00000
3232015.70782,10004908.69280,1362300.13623,  -0.00000,   0.00004,   0.00002,9754965.00000,   0.00000,274640576.00000,   0.00000,   0.00000,   0.00000,-464885616.00000,   0.00000
4351638.89670,13352747.48912,1809046.33475,  -0.00001,   0.00005,   0.00002,12890738.00000,   0.00000,274640576.00000,   0.00000,   0.00000,   0.00000,-461749840.00000,   0.00000
5490565.93367,16708859.36319,2261307.91844,  -0.00001,   0.00007,   0.00003,15986015.00000,   0.00000,274640576.00000,   0.00000,   0.00000,   0.00000,-458654560.00000,   0.00000
6629492.97064,20064971.23727,2713569.50213,  -0.00001,   0.00008,   0.00004,19017070.00000,   0.00000,274640576.00000,   0.00000,   0.00000,   0.00000,-455623504.00000,   0.00000
7807027.70378,23437629.26684,3160315.70065,  -0.00001,   0.00009,   0.00004,22034136.00000,   0.00000,274640576.00000,   0.00000,   0.00000,   0.00000,-452606432.00000,   0.00000
8995593.20725,26799256.52608,3607061.89917,  -0.00001,   0.00010,   0.00005,25048092.00000,   0.00000,274640576.00000,   0.00000,   0.00000,   0.00000,-449592480.00000,   0.00000
10192431.78847,30180187.63340,4053808.09769,  -0.00001,   0.00012,   0.00005,28093652.00000,   0.00000,274640576.00000,   0.00000,   0.00000,   0.00000,-446546928.00000,   0.00000
11427878.06586,33577664.89623,4500554.29621,  -0.00001,   0.00013,   0.00006,31158980.00000,   0.00000,274640576.00000,   0.00000,   0.00000,   0.00000,-443481600.00000,   0.00000
12674355.11359,36964111.38872,4947300.49473,  -0.00001,   0.00014,   0.00006,34218096.00000,   0.00000,274640576.00000,   0.00000,   0.00000,   0.00000,-440422480.00000,   0.00000
13929105.23906,40369861.72929,5388531.30808,  -0.00002,   0.00016,   0.00007,37290476.00000,   0.00000,274640576.00000,   0.00000,   0.00000,   0.00000,-437350096.00000,   0.00000
15214189.98296,43772854.37729,5829762.12144,  -0.00002,   0.00017,   0.00008,40350984.00000,   0.00000,274640576.00000,   0.00000,   0.00000,   0.00000,-434289600.00000,   0.00000
16499274.72685,47175847.02528,6276508.31996,  -0.00002,   0.00018,   0.00008,43408832.00000,   0.00000,274640576.00000,   0.00000,   0.00000,   0.00000,-431231744.00000,   0.00000
17822967.16691,50595385.82877,6712223.74815,  -0.00002,   0.00020,   0.00009,46466492.00000,   0.00000,274640576.00000,   0.00000,   0.00000,   0.00000,-428174080.00000,   0.00000
19146659.60697,54014924.63226,7153454.56150,  -0.00002,   0.00021,   0.00009,49525784.00000,   0.00000,274640576.00000,   0.00000,   0.00000,   0.00000,-425114784.00000,   0.00000
20500686.66545,57431705.74317,7594685.37485,  -0.00002,   0.00022,   0.00010,52580380.00000,   0.00000,274640576.00000,   0.00000,   0.00000,   0.00000,-422060192.00000,   0.00000
21862986.80168,60867790.70216,8030400.80304,  -0.00002,   0.00023,   0.00010,55653476.00000,   0.00000,274640576.00000,   0.00000,   0.00000,   0.00000,-418987104.00000,   0.00000
23263894.63408,64320421.81666,8466116.23123,  -0.00002,   0.00025,   0.00011,58742344.00000,   0.00000,274640576.00000,   0.00000,   0.00000,   0.00000,-415898240.00000,   0.00000
24656529.38873,67753749.08307,8901831.65941,  -0.00002,   0.00026,   0.00012,61822028.00000,   0.00000,274640576.00000,   0.00000,   0.00000,   0.00000,-412818544.00000,   0.00000
26068467.99146,71195349.42723,9337547.08760,  -0.00002,   0.00027,   0.00012,64912616.00000,   0.00000,274640576.00000,   0.00000,   0.00000,   0.00000,-409727968.00000,   0.00000
27499710.44228,74645222.84914,9767747.13062,  -0.00002,   0.00029,   0.00013,68010328.00000,   0.00000,274640576.00000,   0.00000,   0.00000,   0.00000,-406630240.00000,   0.00000
28969560.58926,78111642.42655,10197947.17364,  -0.00002,   0.00030,   0.00013,71120632.00000,   0.00000,274640576.00000,   0.00000,   0.00000,   0.00000,-403519936.00000,   0.00000
30431137.65850,81558758.15588,10633662.60183,  -0.00002,   0.00031,   0.00014,74218496.00000,   0.00000,274640576.00000,   0.00000,   0.00000,   0.00000,-400422080.00000,   0.00000
31920291.65357,85033450.81104,11058347.25968,  -0.00002,   0.00032,   0.00014,77331896.00000,   0.00000,274640576.00000,   0.00000,   0.00000,   0.00000,-397308672.00000,   0.00000
33420476.41897,88497112.69587,11488547.30270,  -0.00002,   0.00034,   0.00015,80434096.00000,   0.00000,274640576.00000,   0.00000,   0.00000,   0.00000,-394206480.00000,   0.00000
34939965.03246,91969047.65844,11918747.34572,  -0.00002,   0.00035,   0.00015,83537928.00000,   0.00000,274640576.00000,   0.00000,   0.00000,   0.00000,-391102656.00000,   0.00000
36478757.49403,95449255.69877,12343432.00357,  -0.00002,   0.00036,   0.00016,86640376.00000,   0.00000,274640576.00000,   0.00000,   0.00000,   0.00000,-388000192.00000,   0.00000
38017549.95560,98929463.73910,12768116.66143,  -0.00002,   0.00038,   0.00017,89738872.00000,   0.00000,274640576.00000,   0.00000,   0.00000,   0.00000,-384901696.00000,   0.00000
39594950.11334,102426217.93493,13192801.31928,  -0.00002,   0.00039,   0.00017,92843576.00000,   0.00000,274640576.00000,   0.00000,   0.00000,   0.00000,-381796992.00000,   0.00000
41183381.04142,105911941.36042,13611970.59197,  -0.00002,   0.00040,   0.00018,95932072.00000,   0.00000,274640576.00000,   0.00000,   0.00000,   0.00000,-378708512.00000,   0.00000
42791115.81757,109405937.86367,14031139.86465,  -0.00002,   0.00041,   0.00018,99024128.00000,   0.00000,274640576.00000,   0.00000,   0.00000,   0.00000,-375616448.00000,   0.00000
44398850.59373,112899934.36692,14450309.13734,  -0.00002,   0.00043,   0.00019,102115832.00000,   0.00000,274640576.00000,   0.00000,   0.00000,   0.00000,-372524736.00000,   0.00000
46045193.06606,116410477.02566,14869478.41002,  -0.00002,   0.00044,   0.00019,105218440.00000,   0.00000,274640576.00000,   0.00000,   0.00000,   0.00000,-369422144.00000,   0.00000
47691535.53838,119921019.68441,15288647.68271,  -0.00002,   0.00045,   0.00020,108322848.00000,   0.00000,274640576.00000,   0.00000,   0.00000,   0.00000,-366317728.00000,   0.00000
49348908.78104,123420531.57282,15702301.57023,  -0.00002,   0.00047,   0.00020,111416344.00000,   0.00000,274640576.00000,   0.00000,   0.00000,   0.00000,-363224224.00000,   0.00000
51025585.87179,126928316.53899,16115955.45775,  -0.00002,   0.00048,   0.00021,114517760.00000,   0.00000,274640576.00000,   0.00000,   0.00000,   0.00000,-360122816.00000,   0.00000
52740870.65870,130452647.66065,16529609.34527,  -0.00001,   0.00049,   0.00021,117632624.00000,   0.00000,274640576.00000,   0.00000,   0.00000,   0.00000,-357007952.00000,   0.00000
54456155.44562,133976978.78231,16943263.23279,  -0.00001,   0.00050,   0.00022,120750344.00000,   0.00000,274640576.00000,   0.00000,   0.00000,   0.00000,-353890240.00000,   0.00000
56182471.00286,137490279.13364,17351401.73514,  -0.00001,   0.00052,   0.00023,123857480.00000,   0.00000,274640576.00000,   0.00000,   0.00000,   0.00000,-350783104.00000,   0.00000
57917059.63786,141022883.33306,17765055.62266,  -0.00001,   0.00053,   0.00023,126985424.00000,   0.00000,274640576.00000,   0.00000,   0.00000,   0.00000,-347655152.00000,   0.00000
59681982.89128,144552729.83989,18167678.73984,  -0.00001,   0.00054,   0.00024,130104712.00000,   0.00000,274640576.00000,   0.00000,   0.00000,   0.00000,-344535872.00000,   0.00000
61457936.91502,148071545.57639,18575817.24220,  -0.00001,   0.00055,   0.00024,133216944.00000,   0.00000,274640576.00000,   0.00000,   0.00000,   0.00000,-341423632.00000,   0.00000
63242164.01652,151609665.16097,18983955.74455,  -0.00001,   0.00057,   0.00025,136346256.00000,   0.00000,274640576.00000,   0.00000,   0.00000,   0.00000,-338294320.00000,   0.00000
65056725.73644,155145027.05296,19386578.86173,  -0.00001,   0.00058,   0.00025,139468768.00000,   0.00000,274640576.00000,   0.00000,   0.00000,   0.00000,-335171808.00000,   0.00000
66871287.45636,158680388.94496,19789201.97892,  -0.00001,   0.00059,   0.00026,142592000.00000,   0.00000,274640576.00000,   0.00000,   0.00000,   0.00000,-332048576.00000,   0.00000
68705153.02436,162224023.91471,20186309.71094,  -0.00000,   0.00060,   0.00026,145719056.00000,   0.00000,274640576.00000,   0.00000,   0.00000,   0.00000,-328921520.00000,   0.00000
70550049.36270,165756628.11412,20588932.82812,  -0.00000,   0.00062,   0.00027,148838608.00000,   0.00000,274640576.00000,   0.00000,   0.00000,   0.00000,-325801968.00000,   0.00000
72414249.54912,169297505.39129,20986040.56014,  -0.00000,   0.00063,   0.00027,151962464.00000,   0.00000,274640576.00000,   0.00000,   0.00000,   0.00000,-322678112.00000,   0.00000
74297753.58362,172846655.74620,21377632.90699,   0.00000,   0.00064,   0.00028,155091072.00000,   0.00000,274640576.00000,   0.00000,   0.00000,   0.00000,-319549504.00000,   0.00000
76192288.38846,176384775.33079,21774740.63901,   0.00000,   0.00065,   0.00028,158212688.00000,   0.00000,274640576.00000,   0.00000,   0.00000,   0.00000,-316427888.00000,   0.00000
78095096.27105,179942198.76345,22166332.98586,   0.00000,   0.00067,   0.00029,161349328.00000,   0.00000,274640576.00000,   0.00000,   0.00000,   0.00000,-313291248.00000,   0.00000
80028238.77205,183496864.50353,22557925.33272,   0.00001,   0.00068,   0.00029,164482528.00000,   0.00000,274640576.00000,   0.00000,   0.00000,   0.00000,-310158048.00000,   0.00000
81953108.19531,187032226.39553,22949517.67957,   0.00001,   0.00069,   0.00030,167599680.00000,   0.00000,274640576.00000,   0.00000,   0.00000,   0.00000,-307040896.00000,   0.00000
83905554.54440,190595165.21336,23341110.02642,   0.00001,   0.00070,   0.00030,170738944.00000,   0.00000,274640576.00000,   0.00000,   0.00000,   0.00000,-303901632.00000,   0.00000
85869031.66383,194147073.26086,23727186.98810,   0.00001,   0.00072,   0.00031,173865104.00000,   0.00000,274640576.00000,   0.00000,   0.00000,   0.00000,-300775472.00000,   0.00000
87851812.63134,197707254.38611,24113263.94979,   0.00001,   0.00073,   0.00031,176996128.00000,   0.00000,274640576.00000,   0.00000,   0.00000,   0.00000,-297644448.00000,   0.00000
89826320.52109,201248131.66327,24493825.52631,   0.00002,   0.00074,   0.00032,180107872.00000,   0.00000,274640576.00000,   0.00000,   0.00000,   0.00000,-294532704.00000,   0.00000
91839436.10702,204805555.09594,24879902.48799,   0.00002,   0.00075,   0.00032,183233520.00000,   0.00000,274640576.00000,   0.00000,   0.00000,   0.00000,-291407056.00000,   0.00000
93852551.69295,208362978.52861,25260464.06451,   0.00002,   0.00077,   0.00033,186357376.00000,   0.00000,274640576.00000,   0.00000,   0.00000,   0.00000,-288283200.00000,   0.00000
95884971.12696,211928675.03902,25635510.25586,   0.00002,   0.00078,   0.00033,189486560.00000,   0.00000,274640576.00000,   0.00000,   0.00000,   0.00000,-285154016.00000,   0.00000
97928421.33130,215483340.77910,26016071.83238,   0.00003,   0.00079,   0.00034,192610272.00000,   0.00000,274640576.00000,   0.00000,   0.00000,   0.00000,-282030304.00000,   0.00000
99991175.38373,219046279.59694,26391118.02373,   0.00003,   0.00080,   0.00034,195740384.00000,   0.00000,274640576.00000,   0.00000,   0.00000,   0.00000,-278900192.00000,   0.00000
102064960.20650,222598187.64443,26766164.21508,   0.00003,   0.00081,   0.00035,198862720.00000,   0.00000,274640576.00000,   0.00000,   0.00000,   0.00000,-275777856.00000,   0.00000
104138745.02926,226150095.69193,27135695.02126,   0.00003,   0.00083,   0.00035,201983360.00000,   0.00000,274640576.00000,   0.00000,   0.00000,   0.00000,-272657216.00000,   0.00000
106231833.70011,229710276.81718,27510741.21261,   0.00004,   0.00084,   0.00036,205111584.00000,   0.00000,274640576.00000,   0.00000,   0.00000,   0.00000,-269528992.00000,   0.00000
108344226.21904,233278731.02018,27880272.01880,   0.00004,   0.00085,   0.00036,208240592.00000,   0.00000,274640576.00000,   0.00000,   0.00000,   0.00000,-266399984.00000,   0.00000
110467649.50830,236836154.45285,28244287.43981,   0.00004,   0.00086,   0.00037,211352960.00000,   0.00000,274640576.00000,   0.00000,   0.00000,   0.00000,-263287616.00000,   0.00000
112610376.64565,240401850.96326,28613818.24600,   0.00004,   0.00087,   0.00037,214468256.00000,   0.00000,274640576.00000,   0.00000,   0.00000,   0.00000,-260172320.00000,   0.00000
114744830.70525,243948243.62559,28977833.66701,   0.00005,   0.00089,   0.00038,217558816.00000,   0.00000,274640576.00000,   0.00000,   0.00000,   0.00000,-257081760.00000,   0.00000
116898588.61294,247502909.36568,29336333.70286,   0.00005,   0.00090,   0.00038,220647840.00000,   0.00000,274640576.00000,   0.00000,   0.00000,   0.00000,-253992736.00000,   0.00000
119071650.36870,251065848.18351,29700349.12388,   0.00005,   0.00091,   0.00039,223739712.00000,   0.00000,274640576.00000,   0.00000,   0.00000,   0.00000,-250900864.00000,   0.00000
121255742.89481,254617756.23101,30058849.15973,   0.00006,   0.00092,   0.00039,226815056.00000,   0.00000,274640576.00000,   0.00000,   0.00000,   0.00000,-247825520.00000,   0.00000
123459139.26899,258177937.35626,30417349.19558,   0.00006,   0.00093,   0.00040,229894192.00000,   0.00000,274640576.00000,   0.00000,   0.00000,   0.00000,-244746384.00000,   0.00000
125654262.56543,261718814.63342,30770333.84626,   0.00006,   0.00095,   0.00040,232956480.00000,   0.00000,274640576.00000,   0.00000,   0.00000,   0.00000,-241684096.00000,   0.00000
127876962.78770,265287268.83642,31123318.49695,   0.00006,   0.00096,   0.00040,236048400.00000,   0.00000,274640576.00000,   0.00000,   0.00000,   0.00000,-238592176.00000,   0.00000
130102420.70255,268825388.42100,31476303.14763,   0.00007,   0.00097,   0.00041,239128848.00000,   0.00000,274640576.00000,   0.00000,   0.00000,   0.00000,-235511728.00000,   0.00000
132355455.54324,272391084.93142,31829287.79831,   0.00007,   0.00098,   0.00041,242252096.00000,   0.00000,274640576.00000,   0.00000,   0.00000,   0.00000,-232388480.00000,   0.00000
134600217.30618,275937477.59375,32176757.06383,   0.00007,   0.00099,   0.00042,245380448.00000,   0.00000,274640576.00000,   0.00000,   0.00000,   0.00000,-229260128.00000,   0.00000
136856009.83945,279472839.48575,32524226.32935,   0.00008,   0.00100,   0.00042,248519808.00000,   0.00000,274640576.00000,   0.00000,   0.00000,   0.00000,-226120768.00000,   0.00000
139131106.22080,283016474.45549,32866180.20969,   0.00008,   0.00102,   0.00043,251680656.00000,   0.00000,274640576.00000,   0.00000,   0.00000,   0.00000,-222959920.00000,   0.00000
141425506.45024,286568382.50299,33213649.47521,   0.00008,   0.00103,   0.00043,254889040.00000,   0.00000,274640576.00000,   0.00000,   0.00000,   0.00000,-219751536.00000,   0.00000
143719906.67968,290120290.55049,33550087.97039,   0.00009,   0.00104,   0.00044,258110800.00000,   0.00000,274640576.00000,   0.00000,   0.00000,   0.00000,-216529776.00000,   0.00000
146017064.60171,293641863.97957,33892041.85074,   0.00009,   0.00105,   0.00044,261135344.00000,   0.00000,274640576.00000,   0.00000,   0.00000,   0.00000,-213505232.00000,   0.00000
148341799.44956,297191014.33449,34228480.34592,   0.00010,   0.00106,   0.00044,264213472.00000,   0.00000,274640576.00000,   0.00000,   0.00000,   0.00000,-210427104.00000,   0.00000
150677565.06776,300729133.91907,34564918.84111,   0.00010,   0.00107,   0.00045,267374448.00000,   0.00000,274640576.00000,   0.00000,   0.00000,   0.00000,-207266128.00000,   0.00000
153013330.68595,304267253.50365,34901357.33629,   0.00010,   0.00109,   0.00045,270554592.00000,   0.00000,274640576.00000,   0.00000,   0.00000,   0.00000,-204085984.00000,   0.00000
155360127.07447,307794342.31790,35232280.44630,   0.00011,   0.00110,   0.00046,273710144.00000,   0.00000,274640576.00000,   0.00000,   0.00000,   0.00000,-200930432.00000,   0.00000
157706923.46300,311321431.13214,35563203.55632,   0.00011,   0.00111,   0.00046,276845120.00000,   0.00000,274640576.00000,   0.00000,   0.00000,   0.00000,-197795456.00000,   0.00000
160084054.46994,314845762.25381,35888611.28117,   0.00011,   0.00112,   0.00047,279956832.00000,   0.00000,274640576.00000,   0.00000,   0.00000,   0.00000,-194683744.00000,   0.00000
162461185.47689,318370093.37547,36214019.00602,   0.00012,   0.00113,   0.00047,283053312.00000,   0.00000,274640576.00000,   0.00000,   0.00000,   0.00000,-191587264.00000,   0.00000
164849347.25417,321883393.72680,36539426.73087,   0.00012,   0.00114,   0.00048,286130016.00000,   0.00000,274640576.00000,   0.00000,   0.00000,   0.00000,-188510560.00000,   0.00000
167237509.03144,325396694.07813,36859319.07055,   0.00013,   0.00115,   0.00048,289198304.00000,   0.00000,274640576.00000,   0.00000,   0.00000,   0.00000,-185442272.00000,   0.00000
169644974.65681,328918267.50721,37179211.41023,   0.00013,   0.00117,   0.00048,292271616.00000,   0.00000,274640576.00000,   0.00000,   0.00000,   0.00000,-182368960.00000,   0.00000
172063471.05250,332428810.16596,37499103.74991,   0.00013,   0.00118,   0.00049,295337824.00000,   0.00000,274640576.00000,   0.00000,   0.00000,   0.00000,-179302752.00000,   0.00000
174501271.29628,335947625.90245,37818996.08959,   0.00014,   0.00119,   0.00049,298416384.00000,   0.00000,274640576.00000,   0.00000,   0.00000,   0.00000,-176224192.00000,   0.00000
176930798.46231,339447137.79087,38133373.04411,   0.00014,   0.00120,   0.00050,301484864.00000,   0.00000,274640576.00000,   0.00000,   0.00000,   0.00000,-173155712.00000,   0.00000
179371356.39867,342935618.90895,38442234.61345,   0.00015,   0.00121,   0.00050,304552128.00000,   0.00000,274640576.00000,   0.00000,   0.00000,   0.00000,-170088448.00000,   0.00000
181820187.41279,346443403.87511,38751096.18280,   0.00015,   0.00122,   0.00050,307645664.00000,   0.00000,274640576.00000,   0.00000,   0.00000,   0.00000,-166994912.00000,   0.00000
184291079.96757,349929127.30060,39059957.75215,   0.00016,   0.00123,   0.00051,310730944.00000,   0.00000,274640576.00000,   0.00000,   0.00000,   0.00000,-163909632.00000,   0.00000
186742668.67427,353406577.64835,39368819.32150,   0.00016,   0.00124,   0.00051,313815840.00000,   0.00000,274640576.00000,   0.00000,   0.00000,   0.00000,-160824736.00000,   0.00000
189232865.07713,356900574.15160,39672165.50568,   0.00017,   0.00125,   0.00052,316917760.00000,   0.00000,274640576.00000,   0.00000,   0.00000,   0.00000,-157722816.00000,   0.00000
191723061.48000,360394570.65484,39975511.68986,   0.00017,   0.00127,   0.00052,320019296.00000,   0.00000,274640576.00000,   0.00000,   0.00000,   0.00000,-154621280.00000,   0.00000
194216015.57545,363858232.53967,40273342.48887,   0.00017,   0.00128,   0.00052,323089920.00000,   0.00000,274640576.00000,   0.00000,   0.00000,   0.00000,-151550656.00000,   0.00000
196717242.74865,367341198.27258,40571173.28789,   0.00018,   0.00129,   0.00053,326168704.00000,   0.00000,274640576.00000,   0.00000,   0.00000,   0.00000,-148471872.00000,   0.00000
199221227.61443,370793829.38708,40869004.08690,   0.00018,   0.00130,   0.00053,329212640.00000,   0.00000,274640576.00000,   0.00000,   0.00000,   0.00000,-145427936.00000,   0.00000
201752789.40605,374274037.42740,41161319.50075,   0.00019,   0.00131,   0.00054,332266656.00000,   0.00000,274640576.00000,   0.00000,   0.00000,   0.00000,-142373920.00000,   0.00000
204267805.04217,377715637.77156,41453634.91459,   0.00019,   0.00132,   0.00054,335277664.00000,   0.00000,274640576.00000,   0.00000,   0.00000,   0.00000,-139362912.00000,   0.00000
206810397.60412,381184815.04156,41745950.32844,   0.00020,   0.00133,   0.00054,338303136.00000,   0.00000,274640576.00000,   0.00000,   0.00000,   0.00000,-136337440.00000,   0.00000
209336444.01057,384615384.61538,42032750.35712,   0.00020,   0.00134,   0.00055,341288192.00000,   0.00000,274640576.00000,   0.00000,   0.00000,   0.00000,-133352384.00000,   0.00000
211909371.19094,388081804.19280,42319550.38580,   0.00021,   0.00135,   0.00055,344301536.00000,   0.00000,274640576.00000,   0.00000,   0.00000,   0.00000,-130339040.00000,   0.00000
214446448.36772,391501342.99629,42600835.02931,   0.00021,   0.00136,   0.00055,347273888.00000,   0.00000,274640576.00000,   0.00000,   0.00000,   0.00000,-127366688.00000,   0.00000
217030406.31843,394956731.80337,42882119.67283,   0.00022,   0.00137,   0.00056,350281184.00000,   0.00000,274640576.00000,   0.00000,   0.00000,   0.00000,-124359392.00000,   0.00000
219578514.26554,398365239.83652,43163404.31634,   0.00022,   0.00138,   0.00056,353255552.00000,   0.00000,274640576.00000,   0.00000,   0.00000,   0.00000,-121385024.00000,   0.00000
222165229.90883,401790294.02518,43439173.57469,   0.00023,   0.00139,   0.00056,356252288.00000,   0.00000,274640576.00000,   0.00000,   0.00000,   0.00000,-118388288.00000,   0.00000
224751945.55212,405215348.21384,43714942.83303,   0.00023,   0.00141,   0.00057,359260480.00000,   0.00000,274640576.00000,   0.00000,   0.00000,   0.00000,-115380096.00000,   0.00000
227330388.11765,408621098.55442,43990712.09138,   0.00024,   0.00142,   0.00057,362264608.00000,   0.00000,274640576.00000,   0.00000,   0.00000,   0.00000,-112375968.00000,   0.00000
229947438.37936,412043395.05049,44260965.96456,   0.00024,   0.00143,   0.00058,365295328.00000,   0.00000,274640576.00000,   0.00000,   0.00000,   0.00000,-109345248.00000,   0.00000
232528638.63748,415418810.77265,44525704.45257,   0.00025,   0.00144,   0.00058,368295840.00000,   0.00000,274640576.00000,   0.00000,   0.00000,   0.00000,-106344736.00000,   0.00000
235156719.66952,418830076.49839,44795958.32575,   0.00025,   0.00145,   0.00058,371340704.00000,   0.00000,274640576.00000,   0.00000,   0.00000,   0.00000,-103299872.00000,   0.00000
237776527.62381,422222038.37605,45055181.42860,   0.00026,   0.00146,   0.00059,374373184.00000,   0.00000,274640576.00000,   0.00000,   0.00000,   0.00000,-100267392.00000,   0.00000
240388062.50034,425594696.40562,45319919.91661,   0.00026,   0.00147,   0.00059,377395936.00000,   0.00000,274640576.00000,   0.00000,   0.00000,   0.00000,-97244640.00000,   0.00000
243018901.22497,428975627.51295,45579143.01945,   0.00027,   0.00148,   0.00059,380426560.00000,   0.00000,274640576.00000,   0.00000,   0.00000,   0.00000,-94214016.00000,   0.00000
245641466.87184,432337254.77219,45838366.12230,   0.00027,   0.00149,   0.00060,383440160.00000,   0.00000,274640576.00000,   0.00000,   0.00000,   0.00000,-91200416.00000,   0.00000
248283336.36680,435707155.10918,46092073.83998,   0.00028,   0.00150,   0.00060,386457824.00000,   0.00000,274640576.00000,   0.00000,   0.00000,   0.00000,-88182752.00000,   0.00000
250936236.63209,439066024.67583,46345781.55766,   0.00029,   0.00151,   0.00060,389465248.00000,   0.00000,274640576.00000,   0.00000,   0.00000,   0.00000,-85175328.00000,   0.00000
253580863.81962,442405590.39441,46593973.89017,   0.00029,   0.00152,   0.00061,392453376.00000,   0.00000,274640576.00000,   0.00000,   0.00000,   0.00000,-82187200.00000,   0.00000
256244794.85525,445753429.19073,46842166.22268,   0.00030,   0.00153,   0.00061,395450368.00000,   0.00000,274640576.00000,   0.00000,   0.00000,   0.00000,-79190208.00000,   0.00000
258900452.81312,449081964.13897,47090358.55519,   0.00030,   0.00154,   0.00061,398432992.00000,   0.00000,274640576.00000,   0.00000,   0.00000,   0.00000,-76207584.00000,   0.00000
261556110.77100,452410499.08720,47333035.50253,   0.00031,   0.00155,   0.00062,401416416.00000,   0.00000,274640576.00000,   0.00000,   0.00000,   0.00000,-73224160.00000,   0.00000
264222799.49920,455728003.26511,47575712.44988,   0.00031,   0.00156,   0.00062,404393216.00000,   0.00000,274640576.00000,   0.00000,   0.00000,   0.00000,-70247360.00000,   0.00000
266908792.07549,459053780.52076,47812874.01206,   0.00032,   0.00157,   0.00062,407375296.00000,   0.00000,274640576.00000,   0.00000,   0.00000,   0.00000,-67265280.00000,   0.00000
269586511.57404,462360253.92833,48050035.57423,   0.00033,   0.00158,   0.00062,410336768.00000,   0.00000,274640576.00000,   0.00000,   0.00000,   0.00000,-64303808.00000,   0.00000
272275261.84291,465655696.56557,48281681.75125,   0.00033,   0.00159,   0.00063,413282432.00000,   0.00000,274640576.00000,   0.00000,   0.00000,   0.00000,-61358144.00000,   0.00000
274964012.11179,468951139.20281,48513327.92826,   0.00034,   0.00160,   0.00063,416224032.00000,   0.00000,274640576.00000,   0.00000,   0.00000,   0.00000,-58416544.00000,   0.00000
277644489.30291,472227277.99196,48744974.10527,   0.00034,   0.00161,   0.00063,419153984.00000,   0.00000,274640576.00000,   0.00000,   0.00000,   0.00000,-55486592.00000,   0.00000
280344270.34212,475511689.85886,48971104.89711,   0.00035,   0.00162,   0.00064,422110144.00000,   0.00000,274640576.00000,   0.00000,   0.00000,   0.00000,-52530432.00000,   0.00000
283055082.15166,478785070.95543,49197235.68895,   0.00035,   0.00163,   0.00064,425094304.00000,   0.00000,274640576.00000,   0.00000,   0.00000,   0.00000,-49546272.00000,   0.00000
285757620.88345,482039148.20391,49417851.09563,   0.00036,   0.00164,   0.00064,428100128.00000,   0.00000,274640576.00000,   0.00000,   0.00000,   0.00000,-46540448.00000,   0.00000
288460159.61525,485293225.45240,49638466.50231,   0.00037,   0.00165,   0.00065,431131744.00000,   0.00000,274640576.00000,   0.00000,   0.00000,   0.00000,-43508832.00000,   0.00000
291173729.11737,488536271.93055,49859081.90899,   0.00037,   0.00166,   0.00065,434160896.00000,   0.00000,274640576.00000,   0.00000,   0.00000,   0.00000,-40479680.00000,   0.00000
293887298.61950,491779318.40870,50074181.93050,   0.00038,   0.00166,   0.00065,437183936.00000,   0.00000,274640576.00000,   0.00000,   0.00000,   0.00000,-37456640.00000,   0.00000
296611898.89196,495011334.11652,50289281.95201,   0.00038,   0.00167,   0.00065,440195520.00000,   0.00000,274640576.00000,   0.00000,   0.00000,   0.00000,-34445056.00000,   0.00000
299328226.08667,498224045.97625,50498866.58835,   0.00039,   0.00168,   0.00066,443185888.00000,   0.00000,274640576.00000,   0.00000,   0.00000,   0.00000,-31454688.00000,   0.00000
302044553.28138,501436757.83598,50708451.22469,   0.00040,   0.00169,   0.00066,446170304.00000,   0.00000,274640576.00000,   0.00000,   0.00000,   0.00000,-28470272.00000,   0.00000
304771911.24642,504638438.92538,50912520.47587,   0.00040,   0.00170,   0.00066,449134656.00000,   0.00000,274640576.00000,   0.00000,   0.00000,   0.00000,-25505920.00000,   0.00000
307510299.98180,507829089.24445,51116589.72704,   0.00041,   0.00171,   0.00066,452075712.00000,   0.00000,274640576.00000,   0.00000,   0.00000,   0.00000,-22564864.00000,   0.00000
310248688.71718,511019739.56351,51315143.59305,   0.00042,   0.00172,   0.00067,454995136.00000,   0.00000,274640576.00000,   0.00000,   0.00000,   0.00000,-19645440.00000,   0.00000
312978804.37480,514191086.03449,51513697.45906,   0.00042,   0.00173,   0.00067,457876800.00000,   0.00000,274640576.00000,   0.00000,   0.00000,   0.00000,-16763776.00000,   0.00000
315700646.95468,517343128.65739,51712251.32507,   0.00043,   0.00174,   0.00067,460720864.00000,   0.00000,274640576.00000,   0.00000,   0.00000,   0.00000,-13919712.00000,   0.00000
318441793.38264,520503444.35804,51905289.80591,   0.00043,   0.00175,   0.00067,463552960.00000,   0.00000,274640576.00000,   0.00000,   0.00000,   0.00000,-11087616.00000,   0.00000
321193970.58094,523652729.28835,52098328.28676,   0.00044,   0.00176,   0.00068,466365216.00000,   0.00000,274640576.00000,   0.00000,   0.00000,   0.00000,-8275360.00000,   0.00000
323946147.77923,526802014.21866,52285851.38243,   0.00045,   0.00177,   0.00068,469172544.00000,   0.00000,274640576.00000,   0.00000,   0.00000,   0.00000,-5468032.00000,   0.00000
326690051.89977,529931995.30089,52473374.47811,   0.00045,   0.00177,   0.00068,471973440.00000,   0.00000,274640576.00000,   0.00000,   0.00000,   0.00000,-2667136.00000,   0.00000
329292107.20806,532890783.99821,52646495.09338,   0.00046,   0.00178,   0.00068,474641312.00000,   0.00000,274640576.00000,   0.00000,   0.00000,   0.00000, 736.00000,   0.00000
329338293.74075,532886044.63108,52637502.02998,   0.00046,   0.00178,   0.00068,474641312.00000,   0.00000,274641088.00000,   0.00000,   0.00000,   0.00000,-416.00000,   1.00000
330303490.65872,532812763.59349,52455282.99273,   0.00047,   0.00179,   0.00069,477487776.00000,   0.00001,274651584.00000,   0.00000,   0.00001,   0.00000,  96.00000,   2.00000
331276702.69727,532735601.57983,52269578.91569,   0.00047,   0.00180,   0.00069,477492800.00000,   0.00002,274662048.00000,   0.00000,   0.00002,   0.00001,   0.00000,   2.00000
332230118.19910,532656888.16493,52088021.14088,   0.00048,   0.00181,   0.00069,477480736.00000,   0.00003,274672384.00000,   0.00001,   0.00003,   0.00001,-224.00000,   2.00000
333192234.13924,532575335.60264,51903080.82166,   0.00049,   0.00182,   0.00069,477485216.00000,   0.00004,274682720.00000,   0.00001,   0.00004,   0.00002,  32.00000,   2.00000
334159339.86388,532489287.33438,51717903.63611,   0.00049,   0.00183,   0.00070,477507936.00000,   0.00005,274693088.00000,   0.00001,   0.00006,   0.00002, -32.00000,   2.00000
335104850.83408,532403089.26879,51534834.77574,   0.00050,   0.00184,   0.00070,477511968.00000,   0.00006,274703392.00000,   0.00001,   0.00007,   0.00003, -64.00000,   2.00000
336060925.19280,532312389.26605,51350347.10917,   0.00051,   0.00184,   0.00070,477500064.00000,   0.00007,274713632.00000,   0.00001,   0.00008,   0.00003,   0.00000,   2.00000
337022053.94845,532217430.32386,51165642.41153,   0.00051,   0.00185,   0.00070,477522592.00000,   0.00008,274723872.00000,   0.00002,   0.00009,   0.00004, -96.00000,   2.00000
337965027.35701,532123166.91718,50979766.69147,   0.00052,   0.00186,   0.00070,477508224.00000,   0.00009,274734016.00000,   0.00002,   0.00010,   0.00004,  32.00000,   2.00000
338927458.71844,532024560.41585,50787271.12084,   0.00053,   0.00187,   0.00071,477538144.00000,   0.00009,274744224.00000,   0.00002,   0.00011,   0.00005, -32.00000,   2.00000
339869515.45115,531922632.51435,50604133.10984,   0.00053,   0.00188,   0.00071,477527296.00000,   0.00010,274754336.00000,   0.00002,   0.00012,   0.00005,-128.00000,   2.00000
340821273.14754,531819275.91617,50412218.53535,   0.00054,   0.00189,   0.00071,477529632.00000,   0.00011,274764416.00000,   0.00002,   0.00013,   0.00006,  32.00000,   2.00000
341765957.14410,531710391.70219,50228462.88436,   0.00055,   0.00189,   0.00071,477527936.00000,   0.00012,274774432.00000,   0.00003,   0.00014,   0.00006, -64.00000,   2.00000
342705051.58079,531603559.08537,50035075.41049,   0.00055,   0.00190,   0.00071,477536832.00000,   0.00013,274784416.00000,   0.00003,   0.00015,   0.00006,   0.00000,   2.00000
343637334.34743,531491309.49155,49849832.84654,   0.00056,   0.00191,   0.00072,477534784.00000,   0.00014,274794368.00000,   0.00003,   0.00016,   0.00007, -64.00000,   2.00000
344578364.17521,531375598.61158,49661015.50614,   0.00057,   0.00192,   0.00072,477538720.00000,   0.00015,274804256.00000,   0.00003,   0.00017,   0.00007,  32.00000,   2.00000
345512603.67234,531259725.23560,49467793.40432,   0.00057,   0.00193,   0.00072,477549248.00000,   0.00016,274814176.00000,   0.00004,   0.00018,   0.00008, -32.00000,   2.00000
346454374.43638,531138249.84435,49276264.94848,   0.00058,   0.00193,   0.00072,477554624.00000,   0.00017,274824032.00000,   0.00004,   0.00019,   0.00008, -96.00000,   2.00000
347392089.49318,531015645.11286,49082293.10058,   0.00059,   0.00194,   0.00072,477548800.00000,   0.00018,274833824.00000,   0.00004,   0.00020,   0.00009,  32.00000,   2.00000
348321890.52988,530890821.95847,48889167.89861,   0.00059,   0.00195,   0.00073,477560736.00000,   0.00019,274843616.00000,   0.00004,   0.00021,   0.00009,  64.00000,   2.00000
349246773.04340,530763065.82272,48698860.01758,   0.00060,   0.00196,   0.00073,477556224.00000,   0.00019,274853376.00000,   0.00005,   0.00022,   0.00009,  32.00000,   2.00000
350168262.05732,530634700.52966,48506096.59452,   0.00061,   0.00197,   0.00073,477550240.00000,   0.00020,274863040.00000,   0.00005,   0.00023,   0.00010, 736.00000,   1.00000
351097786.13823,530500997.90922,48309491.87596,   0.00061,   0.00197,   0.00073,477554464.00000,   0.00021,274872672.00000,   0.00005,   0.00024,   0.00010, 160.00000,   1.00000
352019901.77888,530365604.86853,48113759.51299,   0.00062,   0.00198,   0.00073,477565280.00000,   0.00022,274882304.00000,   0.00005,   0.00025,   0.00011,-384.00000,   1.00000
352938067.82574,530228302.98088,47920900.49255,   0.00063,   0.00199,   0.00073,477559872.00000,   0.00023,274891904.00000,   0.00006,   0.00026,   0.00011,  96.00000,   2.00000
353864897.67626,530086425.46311,47724245.85415,   0.00063,   0.00200,   0.00073,477563776.00000,   0.00024,274901440.00000,   0.00006,   0.00027,   0.00011,  32.00000,   2.00000
354785635.08935,529944796.94707,47523159.58676,   0.00064,   0.00200,   0.00074,477573184.00000,   0.00025,274910976.00000,   0.00006,   0.00028,   0.00012,-128.00000,   2.00000
355702044.05143,529800256.67284,47324831.45002,   0.00065,   0.00201,   0.00074,477568288.00000,   0.00026,274920448.00000,   0.00006,   0.00029,   0.00012,  96.00000,   2.00000
356614063.05003,529652515.86722,47129201.27037,   0.00066,   0.00202,   0.00074,477563392.00000,   0.00026,274929888.00000,   0.00007,   0.00030,   0.00013,  96.00000,   2.00000
357522922.28422,529503363.34560,46930942.26212,   0.00066,   0.00203,   0.00074,477556736.00000,   0.00027,274939232.00000,   0.00007,   0.00031,   0.00013, -32.00000,   2.00000
358438465.40452,529351891.62799,46727109.42031,   0.00067,   0.00203,   0.00074,477575680.00000,   0.00028,274948608.00000,   0.00007,   0.00032,   0.00013,  32.00000,   2.00000
359349883.29979,529197263.63338,46525978.38207,   0.00068,   0.00204,   0.00074,477570528.00000,   0.00029,274957952.00000,   0.00007,   0.00033,   0.00014,   0.00000,   2.00000
360257411.94455,529039671.67767,46327541.61601,   0.00068,   0.00205,   0.00074,477565280.00000,   0.00030,274967200.00000,   0.00008,   0.00034,   0.00014,  96.00000,   2.00000
361162131.82585,528880643.34904,46126442.53343,   0.00069,   0.00205,   0.00075,477558528.00000,   0.00031,274976416.00000,   0.00008,   0.00035,   0.00015, -64.00000,   2.00000
362073682.20874,528719307.87654,45919782.58223,   0.00070,   0.00206,   0.00075,477577344.00000,   0.00031,274985664.00000,   0.00008,   0.00036,   0.00015,  64.00000,   2.00000
362981277.53704,528554529.80855,45715769.06603,   0.00071,   0.00207,   0.00075,477572256.00000,   0.00032,274994816.00000,   0.00008,   0.00037,   0.00015,   0.00000,   2.00000
363873387.81600,528389955.62189,45515583.27130,   0.00071,   0.00208,   0.00075,477556544.00000,   0.00033,275003904.00000,   0.00009,   0.00038,   0.00016,-256.00000,   2.00000
364772417.44455,528222952.50962,45309815.24938,   0.00072,   0.00208,   0.00075,477575360.00000,   0.00034,275013024.00000,   0.00009,   0.00039,   0.00016,   0.00000,   2.00000
365684049.69120,528049771.28211,45102001.83804,   0.00073,   0.00209,   0.00075,477562816.00000,   0.00035,275022048.00000,   0.00009,   0.00040,   0.00016,  32.00000,   2.00000
366577387.49634,527878356.94371,44896209.09021,   0.00073,   0.00210,   0.00075,477562944.00000,   0.00036,275031040.00000,   0.00010,   0.00041,   0.00017, 128.00000,   2.00000
367479386.23110,527700713.06184,44691892.30848,   0.00074,   0.00210,   0.00075,477567360.00000,   0.00036,275040000.00000,   0.00010,   0.00042,   0.00017,   0.00000,   2.00000
368364485.21475,527526753.12539,44484266.37637,   0.00075,   0.00211,   0.00075,477565856.00000,   0.00037,275048928.00000,   0.00010,   0.00043,   0.00018,  64.00000,   2.00000
369259542.55799,527348359.93919,44272806.26291,   0.00076,   0.00212,   0.00075,477569024.00000,   0.00038,275057824.00000,   0.00010,   0.00044,   0.00018, -64.00000,   2.00000
370154650.52680,527165099.45489,44065685.60667,   0.00076,   0.00212,   0.00076,477547552.00000,   0.00039,275066624.00000,   0.00011,   0.00045,   0.00018,-192.00000,   2.00000
371052573.74862,526979549.98679,43856609.02539,   0.00077,   0.00213,   0.00076,477583456.00000,   0.00040,275075488.00000,   0.00011,   0.00045,   0.00019, 160.00000,   2.00000
371941052.84832,526795578.73796,43642300.96617,   0.00078,   0.00214,   0.00076,477549120.00000,   0.00041,275084192.00000,   0.00011,   0.00046,   0.00019, 192.00000,   2.00000
372834085.80559,526605390.46334,43433075.93475,   0.00078,   0.00214,   0.00076,477570848.00000,   0.00041,275092960.00000,   0.00012,   0.00047,   0.00019,  64.00000,   2.00000
373713681.22355,526417037.28898,43222211.88528,   0.00079,   0.00215,   0.00076,477553408.00000,   0.00042,275101632.00000,   0.00012,   0.00048,   0.00020, 128.00000,   2.00000
374603447.52843,526224298.53124,43007498.43233,   0.00080,   0.00215,   0.00076,477556512.00000,   0.00043,275110240.00000,   0.00012,   0.00049,   0.00020, 160.00000,   2.00000
375490307.80491,526028322.89600,42795349.69242,   0.00081,   0.00216,   0.00076,477550880.00000,   0.00044,275118816.00000,   0.00012,   0.00050,   0.00020, 224.00000,   2.00000
376372279.39436,525832898.09845,42578780.32932,   0.00081,   0.00217,   0.00076,477559232.00000,   0.00044,275127392.00000,   0.00013,   0.00051,   0.00021, 128.00000,   2.00000
377254720.16636,525632439.61850,42366463.33566,   0.00082,   0.00217,   0.00076,477538080.00000,   0.00045,275135872.00000,   0.00013,   0.00052,   0.00021,  32.00000,   2.00000
378132104.04640,525432369.78611,42149731.05260,   0.00083,   0.00218,   0.00076,477546464.00000,   0.00046,275144320.00000,   0.00013,   0.00053,   0.00021, -32.00000,   2.00000
379014728.99711,525227720.43624,41932862.35282,   0.00084,   0.00219,   0.00076,477566784.00000,   0.00047,275152800.00000,   0.00014,   0.00053,   0.00022, -32.00000,   2.00000
379887444.65224,525023046.21365,41716036.70309,   0.00084,   0.00219,   0.00076,477533728.00000,   0.00048,275161120.00000,   0.00014,   0.00054,   0.00022,  64.00000,   2.00000
380765048.05816,524813585.65073,41499117.91750,   0.00085,   0.00220,   0.00076,477554176.00000,   0.00048,275169504.00000,   0.00014,   0.00055,   0.00022,  96.00000,   2.00000
381629223.10895,524605917.29693,41280630.20992,   0.00086,   0.00220,   0.00076,477536640.00000,   0.00049,275177760.00000,   0.00014,   0.00056,   0.00023,   0.00000,   2.00000
382501467.40322,524391525.25568,41063758.74645,   0.00087,   0.00221,   0.00076,477541504.00000,   0.00050,275186016.00000,   0.00015,   0.00057,   0.00023,   0.00000,   2.00000
383371290.20482,524175314.72492,40844272.22380,   0.00087,   0.00221,   0.00076,477534720.00000,   0.00051,275194208.00000,   0.00015,   0.00058,   0.00023,  32.00000,   2.00000
384233898.52779,523957577.15933,40625959.81958,   0.00088,   0.00222,   0.00076,477544608.00000,   0.00051,275202400.00000,   0.00015,   0.00059,   0.00024,  32.00000,   2.00000
385097495.31950,523736150.92906,40406711.89490,   0.00089,   0.00223,   0.00076,477522400.00000,   0.00052,275210496.00000,   0.00016,   0.00059,   0.00024, 160.00000,   2.00000
385954386.26809,523514415.26232,40183355.30737,   0.00090,   0.00223,   0.00076,477531008.00000,   0.00053,275218560.00000,   0.00016,   0.00060,   0.00024,  64.00000,   2.00000
386803617.42085,523291225.36433,39961340.26037,   0.00090,   0.00224,   0.00076,477541024.00000,   0.00054,275226624.00000,   0.00016,   0.00061,   0.00025,   0.00000,   2.00000
387653388.19581,523063991.21181,39738444.17012,   0.00091,   0.00224,   0.00077,477518656.00000,   0.00054,275234592.00000,   0.00017,   0.00062,   0.00025, 128.00000,   2.00000
388505985.98212,522831410.55685,39515861.44430,   0.00092,   0.00225,   0.00077,477539520.00000,   0.00055,275242592.00000,   0.00017,   0.00063,   0.00025, 128.00000,   2.00000
389346882.31862,522596658.97986,39298769.65516,   0.00092,   0.00225,   0.00077,477508096.00000,   0.00056,275250432.00000,   0.00017,   0.00063,   0.00025,  64.00000,   2.00000
390181836.05526,522363451.28292,39072326.49221,   0.00093,   0.00226,   0.00077,477515200.00000,   0.00056,275258272.00000,   0.00018,   0.00064,   0.00026, 128.00000,   2.00000
391018345.66606,522123392.81362,38851560.21629,   0.00094,   0.00226,   0.00077,477537440.00000,   0.00057,275266144.00000,   0.00018,   0.00065,   0.00026,  64.00000,   2.00000
391845819.36446,521884335.13969,38625408.65084,   0.00095,   0.00227,   0.00076,477503104.00000,   0.00058,275273888.00000,   0.00018,   0.00066,   0.00026,   0.00000,   2.00000
392675167.00908,521638683.17467,38404844.03777,   0.00095,   0.00227,   0.00076,477525248.00000,   0.00059,275281664.00000,   0.00018,   0.00067,   0.00027, 160.00000,   2.00000
393492135.62875,521396137.30010,38177201.42240,   0.00096,   0.00228,   0.00076,477506432.00000,   0.00059,275289312.00000,   0.00019,   0.00067,   0.00027,  64.00000,   2.00000
394316351.52856,521146327.86408,37951077.17729,   0.00097,   0.00228,   0.00076,477511616.00000,   0.00060,275296992.00000,   0.00019,   0.00068,   0.00027, 128.00000,   2.00000
395126951.50160,520896935.41577,37728399.44934,   0.00098,   0.00229,   0.00076,477495232.00000,   0.00061,275304544.00000,   0.00019,   0.00069,   0.00027,  32.00000,   2.00000
395946565.44350,520641894.70387,37501632.62466,   0.00098,   0.00229,   0.00076,477499136.00000,   0.00061,275312096.00000,   0.00020,   0.00070,   0.00028,   0.00000,   2.00000
396760872.98438,520387233.79720,37270271.95502,   0.00099,   0.00230,   0.00076,477507456.00000,   0.00062,275319648.00000,   0.00020,   0.00071,   0.00028,  64.00000,   2.00000
397562955.41641,520133396.76917,37042074.85096,   0.00100,   0.00230,   0.00076,477490720.00000,   0.00063,275327104.00000,   0.00020,   0.00071,   0.00028, 128.00000,   2.00000
398373941.56997,519872527.72364,36814907.06850,   0.00101,   0.00231,   0.00076,477495936.00000,   0.00063,275334528.00000,   0.00021,   0.00072,   0.00028,  32.00000,   2.00000
399185611.60028,519611249.59082,36578961.02338,   0.00101,   0.00231,   0.00076,477487648.00000,   0.00064,275341920.00000,   0.00021,   0.00073,   0.00029,  64.00000,   2.00000
399985072.74500,519349678.81662,36351405.17956,   0.00102,   0.00232,   0.00076,477471904.00000,   0.00065,275349184.00000,   0.00021,   0.00073,   0.00029,  32.00000,   2.00000
400791666.68623,519085913.59690,36112611.55707,   0.00103,   0.00232,   0.00076,477490080.00000,   0.00066,275356512.00000,   0.00022,   0.00074,   0.00029, -64.00000,   2.00000
401601673.29216,518816798.15004,35877211.31940,   0.00104,   0.00233,   0.00076,477468800.00000,   0.00066,275363744.00000,   0.00022,   0.00075,   0.00029,  96.00000,   2.00000
402406643.06501,518546877.26981,35642438.70909,   0.00104,   0.00233,   0.00076,477478272.00000,   0.00067,275370944.00000,   0.00022,   0.00076,   0.00030, 128.00000,   2.00000
403201619.57251,518279161.69350,35405346.94421,   0.00105,   0.00234,   0.00076,477459968.00000,   0.00068,275378080.00000,   0.00023,   0.00076,   0.00030,  32.00000,   2.00000
404002630.34722,518007921.24359,35162637.74074,   0.00106,   0.00234,   0.00076,477479424.00000,   0.00068,275385248.00000,   0.00023,   0.00077,   0.00030,  32.00000,   2.00000
404796811.17552,517735053.41121,34924502.23804,   0.00107,   0.00234,   0.00076,477447232.00000,   0.00069,275392256.00000,   0.00023,   0.00078,   0.00030, 160.00000,   2.00000
405595381.02432,517456780.21536,34686251.30975,   0.00107,   0.00235,   0.00076,477468096.00000,   0.00069,275399328.00000,   0.00024,   0.00079,   0.00031,   0.00000,   2.00000
406394719.59086,517177820.73330,34439572.73002,   0.00108,   0.00235,   0.00076,477460000.00000,   0.00070,275406336.00000,   0.00024,   0.00079,   0.00031,   0.00000,   2.00000
407181753.34506,516898197.49720,34201687.56810,   0.00109,   0.00236,   0.00076,477444288.00000,   0.00071,275413248.00000,   0.00024,   0.00080,   0.00031,   0.00000,   2.00000
407978972.16971,516613126.98741,33954461.62246,   0.00110,   0.00236,   0.00075,477447648.00000,   0.00071,275420128.00000,   0.00025,   0.00081,   0.00031, -32.00000,   2.00000
408764837.71652,516328706.09923,33710735.33014,   0.00110,   0.00236,   0.00075,477430464.00000,   0.00072,275426944.00000,   0.00025,   0.00081,   0.00032,  32.00000,   2.00000
409554460.78335,516038802.01053,33467269.87141,   0.00111,   0.00237,   0.00075,477451648.00000,   0.00073,275433792.00000,   0.00025,   0.00082,   0.00032, 128.00000,   2.00000
410333429.29754,515750411.78840,33221916.89465,   0.00112,   0.00237,   0.00075,477433536.00000,   0.00073,275440544.00000,   0.00026,   0.00083,   0.00032,  32.00000,   2.00000
411111861.93076,515459632.68509,32973756.20497,   0.00113,   0.00238,   0.00075,477426560.00000,   0.00074,275447232.00000,   0.00026,   0.00083,   0.00032, 128.00000,   2.00000
411898058.44414,515160341.71129,32727206.59218,   0.00113,   0.00238,   0.00075,477432576.00000,   0.00074,275453920.00000,   0.00026,   0.00084,   0.00032, 128.00000,   2.00000
412673890.80252,514862629.74873,32478767.40343,   0.00114,   0.00238,   0.00075,477414080.00000,   0.00075,275460544.00000,   0.00027,   0.00085,   0.00033, -32.00000,   2.00000
413443888.09328,514563854.55400,32231663.67439,   0.00115,   0.00239,   0.00075,477423424.00000,   0.00076,275467136.00000,   0.00027,   0.00085,   0.00033,  96.00000,   2.00000
414217647.27656,514259338.32713,31982887.38053,   0.00115,   0.00239,   0.00075,477401216.00000,   0.00076,275473632.00000,   0.00027,   0.00086,   0.00033, -96.00000,   2.00000
414986589.48580,513954922.98118,31730011.76461,   0.00116,   0.00239,   0.00075,477409312.00000,   0.00077,275480128.00000,   0.00028,   0.00087,   0.00033, -32.00000,   2.00000
415754217.20435,513646436.53465,31479618.87361,   0.00117,   0.00240,   0.00074,477403360.00000,   0.00077,275486592.00000,   0.00028,   0.00087,   0.00033,  96.00000,   2.00000
416520652.63145,513333896.65529,31231658.38729,   0.00118,   0.00240,   0.00074,477397344.00000,   0.00078,275492992.00000,   0.00028,   0.00088,   0.00034,  96.00000,   2.00000
417286774.43819,513018293.37506,30980660.84869,   0.00118,   0.00240,   0.00074,477390016.00000,   0.00079,275499328.00000,   0.00029,   0.00088,   0.00034, -32.00000,   2.00000
418039232.26736,512707446.17910,30726370.75559,   0.00119,   0.00241,   0.00074,477385824.00000,   0.00079,275505632.00000,   0.00029,   0.00089,   0.00034,   0.00000,   2.00000
418800916.90324,512389071.34170,30468101.93921,   0.00120,   0.00241,   0.00074,477390304.00000,   0.00080,275511936.00000,   0.00029,   0.00090,   0.00034,  96.00000,   2.00000
419561765.22447,512066592.12248,30212140.95060,   0.00121,   0.00241,   0.00074,477383808.00000,   0.00080,275518176.00000,   0.00030,   0.00090,   0.00034, 192.00000,   2.00000
420312751.70919,511744593.41823,29959315.01939,   0.00121,   0.00242,   0.00074,477365472.00000,   0.00081,275524352.00000,   0.00030,   0.00091,   0.00035,   0.00000,   2.00000
421073159.83010,511415102.00301,29702402.48727,   0.00122,   0.00242,   0.00073,477369536.00000,   0.00082,275530496.00000,   0.00030,   0.00091,   0.00035,   0.00000,   2.00000
421824901.15402,511087362.43941,29443132.01717,   0.00123,   0.00242,   0.00073,477349856.00000,   0.00082,275536576.00000,   0.00031,   0.00092,   0.00035,   0.00000,   2.00000
422571435.63107,510758449.31183,29184918.04239,   0.00124,   0.00243,   0.00073,477358176.00000,   0.00083,275542624.00000,   0.00031,   0.00093,   0.00035,  64.00000,   2.00000
423323120.72968,510423569.23783,28924485.42659,   0.00124,   0.00243,   0.00073,477335264.00000,   0.00083,275548576.00000,   0.00031,   0.00093,   0.00035,  96.00000,   2.00000
424069610.25818,510087526.30990,28665065.83759,   0.00125,   0.00243,   0.00073,477343456.00000,   0.00084,275554560.00000,   0.00032,   0.00094,   0.00035, -96.00000,   2.00000
424816641.95584,509748552.60627,28402290.36156,   0.00126,   0.00243,   0.00073,477335392.00000,   0.00084,275560480.00000,   0.00032,   0.00094,   0.00036,   0.00000,   2.00000
425559269.64856,509409449.08528,28135077.74678,   0.00127,   0.00244,   0.00072,477342528.00000,   0.00085,275566368.00000,   0.00032,   0.00095,   0.00036,   0.00000,   2.00000
426297548.06961,509067909.60895,27871776.21279,   0.00127,   0.00244,   0.00072,477308384.00000,   0.00085,275572160.00000,   0.00033,   0.00095,   0.00036,   0.00000,   2.00000
427045005.62241,508718434.68364,27604194.00339,   0.00128,   0.00244,   0.00072,477312416.00000,   0.00086,275577920.00000,   0.00033,   0.00096,   0.00036, -64.00000,   2.00000
427778686.80564,508372845.24128,27338397.93771,   0.00129,   0.00244,   0.00072,477308256.00000,   0.00086,275583680.00000,   0.00033,   0.00097,   0.00036,  32.00000,   2.00000
428512664.48556,508023867.61231,27069098.66927,   0.00129,   0.00245,   0.00072,477300224.00000,   0.00087,275589344.00000,   0.00033,   0.00097,   0.00036, -64.00000,   2.00000
429255699.40014,507666914.25632,26795487.19664,   0.00130,   0.00245,   0.00071,477304288.00000,   0.00087,275595008.00000,   0.00034,   0.00098,   0.00037,   0.00000,   2.00000
429989701.12136,507310521.02271,26524599.03943,   0.00131,   0.00245,   0.00071,477285088.00000,   0.00088,275600608.00000,   0.00034,   0.00098,   0.00037,  96.00000,   2.00000
430709852.22445,506957841.64204,26255408.12148,   0.00132,   0.00245,   0.00071,477280640.00000,   0.00089,275606176.00000,   0.00034,   0.00099,   0.00037,  32.00000,   2.00000
431444587.42530,506594660.53096,25977372.75419,   0.00132,   0.00246,   0.00071,477268960.00000,   0.00089,275611648.00000,   0.00035,   0.00099,   0.00037, -64.00000,   2.00000
432173984.81519,506230417.09944,25700244.35867,   0.00133,   0.00246,   0.00070,477276672.00000,   0.00090,275617152.00000,   0.00035,   0.00100,   0.00037,  96.00000,   2.00000
432894669.31835,505866748.14805,25425748.30274,   0.00134,   0.00246,   0.00070,477257216.00000,   0.00090,275622560.00000,   0.00035,   0.00100,   0.00037,  64.00000,   2.00000
433623949.96858,505494477.28792,25146844.13921,   0.00134,   0.00246,   0.00070,477261472.00000,   0.00091,275627968.00000,   0.00036,   0.00101,   0.00037,   0.00000,   2.00000
434345459.98735,505123696.39463,24865098.57521,   0.00135,   0.00246,   0.00070,477240896.00000,   0.00091,275633280.00000,   0.00036,   0.00101,   0.00037, 160.00000,   2.00000
435061522.01672,504751550.55709,24584245.27096,   0.00136,   0.00247,   0.00070,477248672.00000,   0.00092,275638592.00000,   0.00036,   0.00102,   0.00038,  64.00000,   2.00000
435783210.19246,504372448.08406,24300673.86271,   0.00137,   0.00247,   0.00069,477225248.00000,   0.00092,275643840.00000,   0.00037,   0.00102,   0.00038, -32.00000,   2.00000
436491634.45777,503997244.89389,24018772.32575,   0.00137,   0.00247,   0.00069,477220288.00000,   0.00092,275649024.00000,   0.00037,   0.00103,   0.00038,  32.00000,   2.00000
437208670.32201,503613140.00953,23732479.71920,   0.00138,   0.00247,   0.00069,477224448.00000,   0.00093,275654208.00000,   0.00037,   0.00103,   0.00038,-128.00000,   2.00000
437918489.73704,503230475.92818,23443306.18993,   0.00139,   0.00247,   0.00069,477203552.00000,   0.00093,275659296.00000,   0.00038,   0.00104,   0.00038, 128.00000,   2.00000
438636067.70550,502837829.69220,23155213.83141,   0.00139,   0.00248,   0.00068,477208768.00000,   0.00094,275664384.00000,   0.00038,   0.00104,   0.00038,   0.00000,   2.00000
439341387.27513,502450016.32898,22863368.71228,   0.00140,   0.00248,   0.00068,477202560.00000,   0.00094,275669440.00000,   0.00038,   0.00105,   0.00038, -32.00000,   2.00000
440047375.41336,502058182.46809,22567897.75871,   0.00141,   0.00248,   0.00068,477194144.00000,   0.00095,275674464.00000,   0.00039,   0.00105,   0.00038,  32.00000,   2.00000
440750606.14623,501662914.13919,22275775.32649,   0.00142,   0.00248,   0.00067,477159264.00000,   0.00095,275679328.00000,   0.00039,   0.00106,   0.00039, -32.00000,   2.00000
441456686.19467,501261411.03233,21983945.82384,   0.00142,   0.00248,   0.00067,477178976.00000,   0.00096,275684256.00000,   0.00039,   0.00106,   0.00039,  64.00000,   2.00000
442155768.09867,500860936.93782,21689141.19827,   0.00143,   0.00248,   0.00067,477158048.00000,   0.00096,275689088.00000,   0.00039,   0.00107,   0.00039,   0.00000,   2.00000
442858196.57494,500454893.63379,21389205.32673,   0.00144,   0.00248,   0.00067,477177120.00000,   0.00097,275693952.00000,   0.00040,   0.00107,   0.00039, -32.00000,   2.00000
443558826.55809,500046008.08384,21087051.26492,   0.00144,   0.00248,   0.00066,477141696.00000,   0.00097,275698720.00000,   0.00040,   0.00107,   0.00039,  64.00000,   2.00000
444254443.62571,499635907.29908,20785910.31232,   0.00145,   0.00249,   0.00066,477148864.00000,   0.00098,275703456.00000,   0.00040,   0.00108,   0.00039,  64.00000,   2.00000
444942518.00429,499225766.19460,20487166.05573,   0.00146,   0.00249,   0.00066,477128704.00000,   0.00098,275708128.00000,   0.00041,   0.00108,   0.00039,  64.00000,   2.00000
445639740.88461,498806961.56364,20178582.42563,   0.00147,   0.00249,   0.00065,477132416.00000,   0.00098,275712800.00000,   0.00041,   0.00109,   0.00039,  64.00000,   2.00000
446328831.03929,498387251.26297,19877811.01218,   0.00147,   0.00249,   0.00065,477113024.00000,   0.00099,275717376.00000,   0.00041,   0.00109,   0.00039, -64.00000,   2.00000
447019604.69551,497963977.28023,19567790.25621,   0.00148,   0.00249,   0.00065,477104096.00000,   0.00099,275721888.00000,   0.00042,   0.00110,   0.00039,  64.00000,   2.00000
447705383.68870,497539373.67449,19258741.52227,   0.00149,   0.00249,   0.00065,477111296.00000,   0.00100,275726432.00000,   0.00042,   0.00110,   0.00039,  96.00000,   2.00000
448392049.36944,497110173.23661,18945874.63947,   0.00149,   0.00249,   0.00064,477103264.00000,   0.00100,275730944.00000,   0.00042,   0.00110,   0.00040, -64.00000,   2.00000
449079040.37775,496675669.46538,18634638.47954,   0.00150,   0.00249,   0.00064,477095776.00000,   0.00100,275735392.00000,   0.00043,   0.00111,   0.00040,  64.00000,   2.00000
449759671.05855,496241659.16520,18320110.63113,   0.00151,   0.00249,   0.00064,477074848.00000,   0.00101,275739776.00000,   0.00043,   0.00111,   0.00040,  64.00000,   2.00000
450440764.57837,495802268.06470,18007147.73218,   0.00151,   0.00249,   0.00063,477067392.00000,   0.00101,275744096.00000,   0.00043,   0.00112,   0.00040,  32.00000,   2.00000
451123031.52991,495358218.68088,17690248.41243,   0.00152,   0.00249,   0.00063,477059296.00000,   0.00102,275748384.00000,   0.00043,   0.00112,   0.00040, 128.00000,   2.00000
451800885.59428,494913256.87367,17368754.91588,   0.00153,   0.00249,   0.00063,477065632.00000,   0.00102,275752672.00000,   0.00044,   0.00112,   0.00040,   0.00000,   2.00000
452472308.10446,494468175.83220,17049321.48866,   0.00153,   0.00249,   0.00062,477045088.00000,   0.00102,275756896.00000,   0.00044,   0.00113,   0.00040, -32.00000,   2.00000
453152077.89063,494013010.32921,16725339.41350,   0.00154,   0.00250,   0.00062,477049920.00000,   0.00103,275761088.00000,   0.00044,   0.00113,   0.00040,  96.00000,   2.00000
453825821.60398,493557947.65223,16397861.42930,   0.00155,   0.00250,   0.00061,477028832.00000,   0.00103,275765216.00000,   0.00045,   0.00113,   0.00040,  64.00000,   2.00000
454495055.13871,493101673.90080,16071240.00195,   0.00155,   0.00250,   0.00061,477035520.00000,   0.00104,275769344.00000,   0.00045,   0.00114,   0.00040, -64.00000,   2.00000
455170808.54717,492635922.27364,15741115.58844,   0.00156,   0.00250,   0.00061,477012992.00000,   0.00104,275773408.00000,   0.00045,   0.00114,   0.00040,  32.00000,   2.00000
455835236.12394,492174275.64277,15412332.83101,   0.00157,   0.00250,   0.00060,477006592.00000,   0.00104,275777408.00000,   0.00045,   0.00115,   0.00040,  64.00000,   2.00000
456500854.07681,491707271.07033,15079425.45399,   0.00158,   0.00250,   0.00060,476998368.00000,   0.00105,275781376.00000,   0.00046,   0.00115,   0.00040, -32.00000,   2.00000
457174172.57080,491229222.02911,14747382.02349,   0.00158,   0.00250,   0.00060,477003616.00000,   0.00105,275785344.00000,   0.00046,   0.00115,   0.00040,  64.00000,   2.00000
457835804.98860,490757093.50884,14406670.52292,   0.00159,   0.00250,   0.00059,476968576.00000,   0.00105,275789184.00000,   0.00046,   0.00116,   0.00041,  96.00000,   2.00000
458499124.75968,490277605.75721,14071780.28080,   0.00160,   0.00250,   0.00059,476988672.00000,   0.00106,275793088.00000,   0.00047,   0.00116,   0.00041, -32.00000,   2.00000
459164334.39489,489793294.73110,13727236.00270,   0.00160,   0.00250,   0.00058,476979744.00000,   0.00106,275796928.00000,   0.00047,   0.00116,   0.00041, -64.00000,   2.00000
459823724.92734,489308283.56919,13384458.04535,   0.00161,   0.00250,   0.00058,476958752.00000,   0.00107,275800704.00000,   0.00047,   0.00117,   0.00041,-160.00000,   2.00000
460484234.58455,488817443.15468,13042975.17575,   0.00162,   0.00250,   0.00058,476950688.00000,   0.00107,275804448.00000,   0.00047,   0.00117,   0.00041, -32.00000,   2.00000
461146370.44085,488321270.60114,12691786.32569,   0.00162,   0.00249,   0.00057,476942048.00000,   0.00107,275808128.00000,   0.00048,   0.00117,   0.00041,   0.00000,   2.00000
461797153.35037,487828607.76102,12347340.17353,   0.00163,   0.00249,   0.00057,476935488.00000,   0.00108,275811776.00000,   0.00048,   0.00118,   0.00041,  64.00000,   2.00000
462455029.62431,487325822.61876,11993610.81767,   0.00164,   0.00249,   0.00056,476912352.00000,   0.00108,275815360.00000,   0.00048,   0.00118,   0.00041, -64.00000,   2.00000
463108472.52832,486821562.12475,11640711.59885,   0.00164,   0.00249,   0.00056,476918528.00000,   0.00108,275818944.00000,   0.00048,   0.00118,   0.00041, -32.00000,   2.00000
463763282.61239,486311468.50688,11283579.68002,   0.00165,   0.00249,   0.00056,476910272.00000,   0.00109,275822464.00000,   0.00049,   0.00118,   0.00041,  96.00000,   2.00000
464413510.83115,485799766.06745,10927298.51177,   0.00166,   0.00249,   0.00055,476916448.00000,   0.00109,275826016.00000,   0.00049,   0.00119,   0.00041,   0.00000,   2.00000
465064028.76083,485282482.75922,10567537.33245,   0.00166,   0.00249,   0.00055,476880608.00000,   0.00109,275829440.00000,   0.00049,   0.00119,   0.00041, -32.00000,   2.00000
465716311.48332,484758241.82479,10208271.97593,   0.00167,   0.00249,   0.00054,476900096.00000,   0.00109,275832896.00000,   0.00049,   0.00119,   0.00041,  32.00000,   2.00000
466357296.51681,484238573.76318,9845446.63766,   0.00167,   0.00249,   0.00054,476864992.00000,   0.00110,275836256.00000,   0.00050,   0.00120,   0.00041, -32.00000,   2.00000
467005612.64212,483707149.10035,9478007.72243,   0.00168,   0.00249,   0.00053,476870048.00000,   0.00110,275839584.00000,   0.00050,   0.00120,   0.00041,   0.00000,   2.00000
467649687.32905,483174453.96748,9105968.14482,   0.00169,   0.00249,   0.00053,476875904.00000,   0.00110,275842944.00000,   0.00050,   0.00120,   0.00041,   0.00000,   2.00000
468293878.23122,482635349.21078,8735798.99611,   0.00169,   0.00249,   0.00053,476840640.00000,   0.00111,275846176.00000,   0.00050,   0.00120,   0.00041,   0.00000,   2.00000
468933171.22203,482094236.98313,8366511.01843,   0.00170,   0.00249,   0.00052,476846752.00000,   0.00111,275849440.00000,   0.00051,   0.00121,   0.00041,   0.00000,   2.00000
469573707.84262,481546722.17995,7992924.52392,   0.00171,   0.00249,   0.00052,476838528.00000,   0.00111,275852640.00000,   0.00051,   0.00121,   0.00041, -32.00000,   2.00000
470203863.85742,481003129.66589,7615021.50026,   0.00171,   0.00248,   0.00051,476830784.00000,   0.00112,275855808.00000,   0.00051,   0.00121,   0.00041,  32.00000,   2.00000
470840375.73576,480447434.23783,7233067.50156,   0.00172,   0.00248,   0.00051,476808992.00000,   0.00112,275858912.00000,   0.00051,   0.00122,   0.00041, -96.00000,   2.00000
471472279.07056,479889995.37983,6852026.57205,   0.00173,   0.00248,   0.00050,476815008.00000,   0.00112,275862016.00000,   0.00052,   0.00122,   0.00041,  32.00000,   2.00000
472104729.58613,479325225.91266,6472137.69775,   0.00173,   0.00248,   0.00050,476807392.00000,   0.00112,275865056.00000,   0.00052,   0.00122,   0.00041,   0.00000,   2.00000
472738162.96104,478753526.44842,6087884.78038,   0.00174,   0.00248,   0.00049,476799488.00000,   0.00113,275868096.00000,   0.00052,   0.00122,   0.00041,  32.00000,   2.00000
473366693.39791,478180124.52897,5699458.28624,   0.00175,   0.00248,   0.00049,476778080.00000,   0.00113,275871040.00000,   0.00052,   0.00123,   0.00041, 128.00000,   2.00000
473990629.90532,477604941.53317,5306437.88958,   0.00175,   0.00248,   0.00048,476784032.00000,   0.00113,275874016.00000,   0.00053,   0.00123,   0.00041, -32.00000,   2.00000
474615077.59974,477022161.41426,4914515.02591,   0.00176,   0.00247,   0.00048,476776544.00000,   0.00114,275876928.00000,   0.00053,   0.00123,   0.00041,-128.00000,   2.00000
475240513.55860,476432215.12879,4518167.52175,   0.00176,   0.00247,   0.00047,476768672.00000,   0.00114,275879808.00000,   0.00053,   0.00123,   0.00041,   0.00000,   2.00000
475855445.46701,475845570.73441,4122877.67959,   0.00177,   0.00247,   0.00047,476761408.00000,   0.00114,275882688.00000,   0.00053,   0.00123,   0.00041,   0.00000,   2.00000
476476724.48144,475245902.66719,3723249.71677,   0.00178,   0.00247,   0.00046,476739936.00000,   0.00114,275885472.00000,   0.00054,   0.00124,   0.00041,   0.00000,   2.00000
477093140.44781,474644102.84398,3324506.85014,   0.00178,   0.00247,   0.00046,476746208.00000,   0.00115,275888256.00000,   0.00054,   0.00124,   0.00041, -64.00000,   2.00000
477705059.99620,474040254.57033,2921351.99868,   0.00179,   0.00247,   0.00045,476724864.00000,   0.00115,275890944.00000,   0.00054,   0.00124,   0.00041,  96.00000,   2.00000
478317462.01062,473428734.10134,2513476.85708,   0.00180,   0.00246,   0.00045,476744960.00000,   0.00115,275893728.00000,   0.00054,   0.00124,   0.00041, -32.00000,   2.00000
478930778.60585,472809162.15633,2101209.21624,   0.00180,   0.00246,   0.00044,476709856.00000,   0.00115,275896384.00000,   0.00054,   0.00125,   0.00041, -96.00000,   2.00000
479539369.86928,472187502.04146,1689806.93440,   0.00181,   0.00246,   0.00044,476716224.00000,   0.00116,275899040.00000,   0.00055,   0.00125,   0.00041,  32.00000,   2.00000
480143305.17123,471563194.86960,1279351.28255,   0.00181,   0.00246,   0.00043,476695136.00000,   0.00116,275901600.00000,   0.00055,   0.00125,   0.00041,  32.00000,   2.00000
480747771.93550,470931337.62756,864200.59558,   0.00182,   0.00246,   0.00043,476715136.00000,   0.00116,275904256.00000,   0.00055,   0.00125,   0.00041, -96.00000,   2.00000
481353205.60675,470290867.50464,444441.11721,   0.00183,   0.00245,   0.00042,476680288.00000,   0.00116,275906752.00000,   0.00055,   0.00125,   0.00041, -64.00000,   2.00000
481953952.98904,469648242.30148,20005.54534,   0.00183,   0.00245,   0.00042,476686432.00000,   0.00117,275909280.00000,   0.00056,   0.00126,   0.00041,  32.00000,   2.00000
482550405.07434,469002879.35512,-403627.65439,   0.00184,   0.00245,   0.00041,476665216.00000,   0.00117,275911712.00000,   0.00056,   0.00126,   0.00041, 128.00000,   2.00000
483141930.82906,468355054.61298,-826450.49156,   0.00184,   0.00245,   0.00040,476671456.00000,   0.00117,275914176.00000,   0.00056,   0.00126,   0.00041, -64.00000,   2.00000
483744782.76665,467687440.40426,-1259518.66393,   0.00185,   0.00245,   0.00040,476664640.00000,   0.00117,275916608.00000,   0.00056,   0.00126,   0.00041,  96.00000,   2.00000
484332950.45108,467028390.76943,-1686391.81038,   0.00186,   0.00244,   0.00039,476642784.00000,   0.00117,275918976.00000,   0.00056,   0.00126,   0.00041,  96.00000,   2.00000
484921148.76716,466361397.29786,-2123416.88319,   0.00186,   0.00244,   0.00039,476662912.00000,   0.00118,275921376.00000,   0.00057,   0.00126,   0.00041,  32.00000,   2.00000
485510772.41681,465685156.17074,-2559901.91530,   0.00187,   0.00244,   0.00038,476627904.00000,   0.00118,275923648.00000,   0.00057,   0.00127,   0.00041,  32.00000,   2.00000
486095552.92293,465006400.52510,-3001116.72954,   0.00187,   0.00244,   0.00038,476634048.00000,   0.00118,275925952.00000,   0.00057,   0.00127,   0.00041,-160.00000,   2.00000
486681305.95393,464319167.98675,-3441662.13401,   0.00188,   0.00243,   0.00037,476626432.00000,   0.00118,275928224.00000,   0.00057,   0.00127,   0.00041,  32.00000,   2.00000
487267391.79018,463622817.74214,-3887058.91441,   0.00189,   0.00243,   0.00036,476619328.00000,   0.00119,275930464.00000,   0.00057,   0.00127,   0.00041, -64.00000,   2.00000
487844164.97823,462929626.02721,-4331823.34556,   0.00189,   0.00243,   0.00036,476610848.00000,   0.00119,275932672.00000,   0.00057,   0.00127,   0.00041, -32.00000,   2.00000
488421547.31706,462227507.61456,-4781467.37798,   0.00190,   0.00243,   0.00035,476603616.00000,   0.00119,275934848.00000,   0.00058,   0.00127,   0.00041, 160.00000,   2.00000
488999199.38002,461516142.29853,-5235994.29524,   0.00190,   0.00242,   0.00035,476596544.00000,   0.00119,275936992.00000,   0.00058,   0.00128,   0.00041,   0.00000,   2.00000
489571790.72773,460802155.52627,-5689717.47701,   0.00191,   0.00242,   0.00034,476602560.00000,   0.00119,275939136.00000,   0.00058,   0.00128,   0.00041, -64.00000,   2.00000
490140011.68829,460084223.99385,-6148558.51682,   0.00192,   0.00242,   0.00033,476581216.00000,   0.00120,275941216.00000,   0.00058,   0.00128,   0.00041, -64.00000,   2.00000
490708406.05847,459356857.92250,-6612326.77036,   0.00192,   0.00241,   0.00033,476574208.00000,   0.00120,275943296.00000,   0.00058,   0.00128,   0.00041,  96.00000,   2.00000
491277185.54311,458620202.27325,-7075536.60701,   0.00193,   0.00241,   0.00032,476567104.00000,   0.00120,275945312.00000,   0.00059,   0.00128,   0.00041,  32.00000,   2.00000
491836049.71585,457885863.59820,-7543734.39394,   0.00193,   0.00241,   0.00032,476559232.00000,   0.00120,275947296.00000,   0.00059,   0.00128,   0.00041,  64.00000,   2.00000
492399807.88859,457136833.77183,-8011131.99678,   0.00194,   0.00240,   0.00031,476566304.00000,   0.00120,275949312.00000,   0.00059,   0.00128,   0.00041,-128.00000,   2.00000
492953997.43982,456390334.67412,-8483552.71964,   0.00194,   0.00240,   0.00030,476558496.00000,   0.00120,275951296.00000,   0.00059,   0.00129,   0.00041,  32.00000,   2.00000
493513599.32301,455627095.23633,-8955767.47946,   0.00195,   0.00240,   0.00030,476538496.00000,   0.00121,275953184.00000,   0.00059,   0.00129,   0.00041, -64.00000,   2.00000
494063596.37769,454866193.08037,-9433053.80214,   0.00196,   0.00240,   0.00029,476530528.00000,   0.00121,275955072.00000,   0.00059,   0.00129,   0.00041, -64.00000,   2.00000
494608295.08770,454102303.38785,-9915068.88830,   0.00196,   0.00239,   0.00028,476536736.00000,   0.00121,275956960.00000,   0.00060,   0.00129,   0.00041,  32.00000,   2.00000
495158409.10349,453321403.33438,-10396957.90475,   0.00197,   0.00239,   0.00028,476516992.00000,   0.00121,275958784.00000,   0.00060,   0.00129,   0.00041, -32.00000,   2.00000
495697685.35893,452544432.79921,-10883211.24868,   0.00197,   0.00239,   0.00027,476536416.00000,   0.00121,275960672.00000,   0.00060,   0.00129,   0.00041,  32.00000,   2.00000
496241940.82138,451749934.23126,-11374871.65863,   0.00198,   0.00238,   0.00026,476516992.00000,   0.00122,275962464.00000,   0.00060,   0.00129,   0.00041,   0.00000,   2.00000
496776943.77208,450957876.59926,-11866145.55658,   0.00198,   0.00238,   0.00026,476508736.00000,   0.00122,275964256.00000,   0.00060,   0.00130,   0.00041,   0.00000,   2.00000
497311327.05718,450155046.13774,-12362490.95679,   0.00199,   0.00237,   0.00025,476502496.00000,   0.00122,275965984.00000,   0.00060,   0.00130,   0.00041,  64.00000,   2.00000
497845732.06359,449341964.66703,-12858428.06989,   0.00200,   0.00237,   0.00024,476495936.00000,   0.00122,275967712.00000,   0.00061,   0.00130,   0.00041, -64.00000,   2.00000
498374270.28438,448525385.04160,-13359036.59071,   0.00200,   0.00237,   0.00024,476502592.00000,   0.00122,275969472.00000,   0.00061,   0.00130,   0.00041,   0.00000,   2.00000
498898808.16130,447703604.86771,-13859755.93568,   0.00201,   0.00236,   0.00023,476481408.00000,   0.00122,275971136.00000,   0.00061,   0.00130,   0.00041,  32.00000,   2.00000
499422757.36256,446870828.57397,-14365615.28853,   0.00201,   0.00236,   0.00022,476475328.00000,   0.00122,275972768.00000,   0.00061,   0.00130,   0.00041,  96.00000,   2.00000
499940762.43964,446034388.19394,-14876156.02846,   0.00202,   0.00236,   0.00022,476481984.00000,   0.00123,275974432.00000,   0.00061,   0.00130,   0.00041,   0.00000,   2.00000
500455168.57016,445192733.76955,-15386947.50583,   0.00202,   0.00235,   0.00021,476460576.00000,   0.00123,275976032.00000,   0.00061,   0.00130,   0.00041,   0.00000,   2.00000
500967613.31034,444342345.21240,-15901872.21792,   0.00203,   0.00235,   0.00020,476481824.00000,   0.00123,275977664.00000,   0.00062,   0.00130,   0.00041, -32.00000,   2.00000
501481393.22287,443478728.62618,-16417628.82276,   0.00203,   0.00235,   0.00020,476447872.00000,   0.00123,275979200.00000,   0.00062,   0.00131,   0.00041, -64.00000,   2.00000
501984181.66249,442619299.98172,-16937562.22583,   0.00204,   0.00234,   0.00019,476467328.00000,   0.00123,275980800.00000,   0.00062,   0.00131,   0.00041,  96.00000,   2.00000
502487140.30957,441745602.22367,-17463855.61125,   0.00204,   0.00234,   0.00018,476434368.00000,   0.00123,275982272.00000,   0.00062,   0.00131,   0.00041,-128.00000,   2.00000
502987578.28221,440863348.66068,-17988596.30976,   0.00205,   0.00233,   0.00018,476456064.00000,   0.00123,275983840.00000,   0.00062,   0.00131,   0.00041,  64.00000,   2.00000
503476390.05789,439981412.97828,-18518478.95959,   0.00206,   0.00233,   0.00017,476449696.00000,   0.00124,275985344.00000,   0.00062,   0.00131,   0.00041,-128.00000,   2.00000
503968048.64073,439079359.52119,-19048529.54863,   0.00206,   0.00232,   0.00016,476432608.00000,   0.00124,275986816.00000,   0.00062,   0.00131,   0.00041,   0.00000,   2.00000
504443104.49054,438185430.71131,-19583194.42690,   0.00207,   0.00232,   0.00015,476438816.00000,   0.00124,275988288.00000,   0.00063,   0.00131,   0.00041,   0.00000,   2.00000
504925195.83762,437266288.26976,-20117485.42176,   0.00207,   0.00232,   0.00015,476435840.00000,   0.00124,275989760.00000,   0.00063,   0.00131,   0.00041, -64.00000,   2.00000
505397814.41385,436348355.73860,-20657244.67257,   0.00208,   0.00231,   0.00014,476428000.00000,   0.00124,275991200.00000,   0.00063,   0.00131,   0.00041,  32.00000,   2.00000
505869554.99873,435418456.85318,-21202376.00752,   0.00208,   0.00231,   0.00013,476422240.00000,   0.00124,275992608.00000,   0.00063,   0.00131,   0.00041,  64.00000,   2.00000
506336100.72318,434485450.43480,-21746718.16399,   0.00209,   0.00230,   0.00012,476428288.00000,   0.00124,275994048.00000,   0.00063,   0.00131,   0.00041, -32.00000,   2.00000
506798018.12350,433545198.91442,-22297211.56014,   0.00209,   0.00230,   0.00012,476407808.00000,   0.00125,275995392.00000,   0.00063,   0.00132,   0.00041, -64.00000,   2.00000
507254130.96639,432601480.08665,-22846848.80234,   0.00210,   0.00230,   0.00011,476414208.00000,   0.00125,275996768.00000,   0.00063,   0.00132,   0.00041, -32.00000,   2.00000
507708429.23731,431645144.45101,-23401797.45181,   0.00210,   0.00229,   0.00010,476409248.00000,   0.00125,275998112.00000,   0.00063,   0.00132,   0.00041, -96.00000,   2.00000
508160686.62608,430675974.19678,-23962064.82052,   0.00211,   0.00229,   0.00009,476404544.00000,   0.00125,275999456.00000,   0.00064,   0.00132,   0.00041,  96.00000,   2.00000
508606695.40004,429703029.45134,-24521449.73639,   0.00211,   0.00228,   0.00009,476411264.00000,   0.00125,276000800.00000,   0.00064,   0.00132,   0.00041,  32.00000,   2.00000
509048300.47294,428722682.67454,-25081660.67058,   0.00212,   0.00228,   0.00008,476390560.00000,   0.00125,276002080.00000,   0.00064,   0.00132,   0.00040, -64.00000,   2.00000
509483084.23291,427738056.24591,-25646484.64857,   0.00212,   0.00227,   0.00007,476397728.00000,   0.00125,276003392.00000,   0.00064,   0.00132,   0.00040,  32.00000,   2.00000
509915747.39770,426740363.77714,-26216689.46236,   0.00213,   0.00227,   0.00006,476392928.00000,   0.00125,276004672.00000,   0.00064,   0.00132,   0.00040, -96.00000,   2.00000
510347096.57948,425730226.65912,-26786823.52401,   0.00213,   0.00226,   0.00006,476387424.00000,   0.00126,276005952.00000,   0.00064,   0.00132,   0.00040, -64.00000,   2.00000
510768343.15034,424720425.45007,-27362551.49196,   0.00214,   0.00226,   0.00005,476379808.00000,   0.00126,276007168.00000,   0.00064,   0.00132,   0.00040,   0.00000,   2.00000
511183359.11065,423706864.20655,-27937383.78428,   0.00214,   0.00225,   0.00004,476386400.00000,   0.00126,276008448.00000,   0.00064,   0.00132,   0.00040,  32.00000,   2.00000
511595910.66265,422679868.54657,-28517599.10382,   0.00215,   0.00225,   0.00003,476381952.00000,   0.00126,276009664.00000,   0.00065,   0.00132,   0.00040,  32.00000,   2.00000
512005605.14290,421639110.72706,-29103174.80262,   0.00215,   0.00224,   0.00002,476377792.00000,   0.00126,276010880.00000,   0.00065,   0.00132,   0.00040, -64.00000,   2.00000
512405893.00572,420599124.86791,-29688908.28700,   0.00216,   0.00224,   0.00002,476369568.00000,   0.00126,276012096.00000,   0.00065,   0.00132,   0.00040, -32.00000,   2.00000
512806054.69062,419540571.82076,-30278868.31234,   0.00216,   0.00223,   0.00001,476380608.00000,   0.00126,276013312.00000,   0.00065,   0.00133,   0.00040,  64.00000,   2.00000
513196515.17947,418482527.07679,-30868974.26831,   0.00217,   0.00223,   0.00000,476372800.00000,   0.00126,276014496.00000,   0.00065,   0.00133,   0.00040, -96.00000,   2.00000
513584887.86284,417411252.05972,-31459000.80194,   0.00217,   0.00222,  -0.00001,476367968.00000,   0.00126,276015680.00000,   0.00065,   0.00133,   0.00040,  64.00000,   2.00000
513961049.74696,416338440.32476,-32060048.22660,   0.00218,   0.00222,  -0.00002,476362400.00000,   0.00127,276016832.00000,   0.00065,   0.00133,   0.00040, -64.00000,   2.00000
514338853.17236,415248568.19756,-32654358.34979,   0.00218,   0.00221,  -0.00002,476372032.00000,   0.00127,276018016.00000,   0.00065,   0.00133,   0.00040,  64.00000,   2.00000
514704215.29492,414156957.10587,-33259680.34568,   0.00219,   0.00221,  -0.00003,476366624.00000,   0.00127,276019200.00000,   0.00066,   0.00133,   0.00040,   0.00000,   2.00000
515067003.84702,413051649.47783,-33864912.22570,   0.00219,   0.00220,  -0.00004,476362400.00000,   0.00127,276020320.00000,   0.00066,   0.00133,   0.00040,  64.00000,   2.00000
515426891.27997,411932364.64931,-34470045.66580,   0.00220,   0.00220,  -0.00005,476358400.00000,   0.00127,276021472.00000,   0.00066,   0.00133,   0.00040,   0.00000,   2.00000
515778328.09214,410807861.79325,-35079495.84738,   0.00220,   0.00219,  -0.00006,476367200.00000,   0.00127,276022624.00000,   0.00066,   0.00133,   0.00040,  32.00000,   2.00000
516119722.59874,409683308.80755,-35689179.75111,   0.00221,   0.00219,  -0.00007,476359776.00000,   0.00127,276023744.00000,   0.00066,   0.00133,   0.00040, -32.00000,   2.00000
516457050.87718,408543806.84290,-36304217.80100,   0.00221,   0.00218,  -0.00007,476356928.00000,   0.00127,276024864.00000,   0.00066,   0.00133,   0.00040,  32.00000,   2.00000
516785545.26779,407398837.09198,-36923519.10747,   0.00222,   0.00218,  -0.00008,476365920.00000,   0.00127,276026016.00000,   0.00066,   0.00133,   0.00040,   0.00000,   2.00000
517110064.27827,406238956.74445,-37542682.79405,   0.00222,   0.00217,  -0.00009,476361952.00000,   0.00128,276027136.00000,   0.00066,   0.00133,   0.00040,-960.00000,   1.00000
517428210.24956,405075488.89975,-38166306.88242,   0.00223,   0.00217,  -0.00010,476369888.00000,   0.00128,276028320.00000,   0.00066,   0.00133,   0.00040, -32.00000,   2.00000
517739734.06430,403901127.80150,-38791293.66334,   0.00223,   0.00216,  -0.00011,476351776.00000,   0.00128,276029408.00000,   0.00067,   0.00133,   0.00040, -96.00000,   2.00000
518044224.41754,402722657.87453,-39415185.38763,   0.00224,   0.00216,  -0.00012,476359200.00000,   0.00128,276030496.00000,   0.00067,   0.00133,   0.00040, -64.00000,   2.00000
518342835.27253,401527737.07112,-40049856.25801,   0.00224,   0.00215,  -0.00013,476358048.00000,   0.00128,276031616.00000,   0.00067,   0.00133,   0.00040,   0.00000,   2.00000
518635947.26558,400329864.69158,-40678047.42746,   0.00225,   0.00214,  -0.00013,476364192.00000,   0.00128,276032736.00000,   0.00067,   0.00133,   0.00040,  32.00000,   2.00000
518921875.18374,399114565.29740,-41316908.38678,   0.00225,   0.00214,  -0.00014,476363072.00000,   0.00128,276033856.00000,   0.00067,   0.00134,   0.00039,-992.00000,   1.00000
519202321.76553,397902088.09722,-41951116.79969,   0.00226,   0.00213,  -0.00015,476352512.00000,   0.00128,276034944.00000,   0.00067,   0.00134,   0.00039,   0.00000,   2.00000
519477263.16042,396673330.91749,-42590671.02742,   0.00226,   0.00213,  -0.00016,476351008.00000,   0.00128,276036000.00000,   0.00067,   0.00134,   0.00039, -32.00000,   2.00000
519745972.21535,395435476.02421,-43232811.81777,   0.00227,   0.00212,  -0.00017,476375328.00000,   0.00128,276037152.00000,   0.00067,   0.00134,   0.00039,  96.00000,   2.00000
520003027.97382,394201476.61540,-43877150.87829,   0.00227,   0.00212,  -0.00018,476351776.00000,   0.00129,276038240.00000,   0.00067,   0.00134,   0.00039,  32.00000,   2.00000
520257636.56719,392947833.77429,-44525213.08884,   0.00228,   0.00211,  -0.00019,476364992.00000,   0.00129,276039328.00000,   0.00068,   0.00134,   0.00039,  64.00000,   2.00000
520505079.88834,391690151.63284,-45172084.04646,   0.00228,   0.00211,  -0.00020,476372416.00000,   0.00129,276040480.00000,   0.00068,   0.00134,   0.00039,-128.00000,   2.00000
520745274.17046,390420379.10359,-45826074.29088,   0.00229,   0.00210,  -0.00020,476354976.00000,   0.00129,276041536.00000,   0.00068,   0.00134,   0.00039,  32.00000,   2.00000
520976331.76252,389145207.37548,-46484153.39936,   0.00229,   0.00209,  -0.00021,476364384.00000,   0.00129,276042656.00000,   0.00068,   0.00134,   0.00039, 128.00000,   2.00000
521205209.44551,387856105.59022,-47136867.01015,   0.00230,   0.00209,  -0.00022,476359712.00000,   0.00129,276043744.00000,   0.00068,   0.00134,   0.00039, -64.00000,   2.00000
521424664.03328,386561513.30701,-47793585.34243,   0.00230,   0.00208,  -0.00023,476369184.00000,   0.00129,276044864.00000,   0.00068,   0.00134,   0.00039,   0.00000,   2.00000
521634415.63416,385261314.37159,-48454233.77116,   0.00230,   0.00208,  -0.00024,476379168.00000,   0.00129,276045984.00000,   0.00068,   0.00134,   0.00039, -32.00000,   2.00000
521837192.36233,383949002.97521,-49116590.81688,   0.00231,   0.00207,  -0.00025,476361440.00000,   0.00129,276047072.00000,   0.00068,   0.00134,   0.00039,-160.00000,   2.00000
522029969.80788,382630950.48678,-49782804.93052,   0.00231,   0.00206,  -0.00026,476371520.00000,   0.00129,276048192.00000,   0.00068,   0.00134,   0.00039,   0.00000,   2.00000
522214307.96576,381308305.68097,-50447500.39862,   0.00232,   0.00206,  -0.00027,476380288.00000,   0.00130,276049344.00000,   0.00069,   0.00134,   0.00039,  96.00000,   2.00000
522391465.80067,379968343.73143,-51117253.76463,   0.00232,   0.00205,  -0.00028,476380416.00000,   0.00130,276050496.00000,   0.00069,   0.00134,   0.00039,  64.00000,   2.00000
522563290.36816,378612321.12954,-51786771.24383,   0.00233,   0.00205,  -0.00029,476378784.00000,   0.00130,276051616.00000,   0.00069,   0.00134,   0.00039,  64.00000,   2.00000
522721161.82006,377261804.34175,-52458612.54143,   0.00233,   0.00204,  -0.00030,476400224.00000,   0.00130,276052832.00000,   0.00069,   0.00134,   0.00039,   0.00000,   2.00000
522871534.07165,375898481.88747,-53132265.09004,   0.00234,   0.00203,  -0.00030,476383136.00000,   0.00130,276053984.00000,   0.00069,   0.00134,   0.00039, -96.00000,   2.00000
523016721.62755,374514473.59261,-53808926.66220,   0.00234,   0.00203,  -0.00031,476398848.00000,   0.00130,276055168.00000,   0.00069,   0.00134,   0.00039,   0.00000,   2.00000
523148396.34158,373141026.64091,-54484738.98735,   0.00235,   0.00202,  -0.00032,476402304.00000,   0.00130,276056384.00000,   0.00069,   0.00134,   0.00038, -96.00000,   2.00000
523278437.65666,371740012.24094,-55161872.60561,   0.00235,   0.00202,  -0.00033,476389856.00000,   0.00130,276057536.00000,   0.00069,   0.00134,   0.00038,-128.00000,   2.00000
523395867.16469,370345558.39205,-55841413.37205,   0.00235,   0.00201,  -0.00034,476410304.00000,   0.00130,276058784.00000,   0.00070,   0.00134,   0.00038, 128.00000,   2.00000
523504692.88803,368937031.80238,-56528351.37082,   0.00236,   0.00200,  -0.00035,476394240.00000,   0.00131,276059936.00000,   0.00070,   0.00134,   0.00038,  32.00000,   2.00000
523608412.15470,367521717.53399,-57211660.70516,   0.00236,   0.00200,  -0.00036,476417504.00000,   0.00131,276061184.00000,   0.00070,   0.00135,   0.00038, -96.00000,   2.00000
523703498.68452,366106010.75941,-57895769.37037,   0.00237,   0.00199,  -0.00037,476409408.00000,   0.00131,276062400.00000,   0.00070,   0.00135,   0.00038, -32.00000,   2.00000
523792299.67498,364673155.02314,-58585004.27387,   0.00237,   0.00198,  -0.00038,476409056.00000,   0.00131,276063616.00000,   0.00070,   0.00135,   0.00038,  96.00000,   2.00000
523875891.27634,363233545.15335,-59270219.22437,   0.00238,   0.00198,  -0.00039,476432960.00000,   0.00131,276064928.00000,   0.00070,   0.00135,   0.00038,  96.00000,   2.00000
523949946.95754,361778953.25983,-59962458.00474,   0.00238,   0.00197,  -0.00040,476418496.00000,   0.00131,276066176.00000,   0.00070,   0.00135,   0.00038, -64.00000,   2.00000
524012894.04234,360322341.96773,-60654859.22785,   0.00239,   0.00196,  -0.00041,476412928.00000,   0.00131,276067392.00000,   0.00070,   0.00135,   0.00038,  32.00000,   2.00000
524068205.21798,358857841.82027,-61342576.24535,   0.00239,   0.00196,  -0.00042,476439168.00000,   0.00131,276068704.00000,   0.00071,   0.00135,   0.00038,-224.00000,   2.00000
524109323.43047,357385583.68798,-62038508.11583,   0.00239,   0.00195,  -0.00043,476454048.00000,   0.00132,276070048.00000,   0.00071,   0.00135,   0.00038,   0.00000,   2.00000
524143499.02456,355900235.89969,-62731289.14733,   0.00240,   0.00195,  -0.00044,476436032.00000,   0.00132,276071328.00000,   0.00071,   0.00135,   0.00038,-128.00000,   2.00000
524166775.16797,354409428.57473,-63427612.41046,   0.00240,   0.00194,  -0.00045,476446784.00000,   0.00132,276072672.00000,   0.00071,   0.00135,   0.00038, -32.00000,   2.00000
524184088.22245,352912539.93705,-64119912.32288,   0.00241,   0.00193,  -0.00046,476470528.00000,   0.00132,276074080.00000,   0.00071,   0.00135,   0.00037, 128.00000,   2.00000
524191104.22632,351400435.54684,-64819835.67577,   0.00241,   0.00193,  -0.00047,476455360.00000,   0.00132,276075456.00000,   0.00071,   0.00135,   0.00037,   0.00000,   2.00000
524187148.25792,349897339.93254,-65516460.94152,   0.00242,   0.00192,  -0.00048,476473440.00000,   0.00132,276076864.00000,   0.00071,   0.00135,   0.00037,  32.00000,   2.00000
524171224.58619,348378142.21532,-66220329.29328,   0.00242,   0.00191,  -0.00049,476459840.00000,   0.00132,276078240.00000,   0.00072,   0.00135,   0.00037,-192.00000,   2.00000
524149099.70236,346839458.23010,-66920902.03827,   0.00243,   0.00191,  -0.00050,476476128.00000,   0.00132,276079680.00000,   0.00072,   0.00135,   0.00037,  32.00000,   2.00000
524112352.77374,345308383.53743,-67617143.41216,   0.00243,   0.00190,  -0.00051,476497664.00000,   0.00133,276081184.00000,   0.00072,   0.00135,   0.00037, -64.00000,   2.00000
524062676.08994,343760169.15787,-68320395.51121,   0.00243,   0.00189,  -0.00052,476486304.00000,   0.00133,276082656.00000,   0.00072,   0.00135,   0.00037, -96.00000,   2.00000
524010521.15557,342210507.48389,-69023209.93075,   0.00244,   0.00189,  -0.00053,476492800.00000,   0.00133,276084128.00000,   0.00072,   0.00135,   0.00037,  96.00000,   2.00000
523966445.32202,340646899.74248,-69731867.35020,   0.00244,   0.00188,  -0.00054,476501632.00000,   0.00133,276085632.00000,   0.00072,   0.00135,   0.00037, -96.00000,   2.00000
523918750.19055,339099671.00926,-70441413.82099,   0.00245,   0.00187,  -0.00055,476497664.00000,   0.00133,276087072.00000,   0.00072,   0.00135,   0.00037,  64.00000,   2.00000
523835808.62173,337523730.35001,-71147637.45630,   0.00245,   0.00187,  -0.00056,476515328.00000,   0.00133,276088672.00000,   0.00073,   0.00135,   0.00037, 736.00000,   1.00000
523679787.32541,335917099.36616,-71832196.44789,   0.00246,   0.00186,  -0.00057,476565312.00000,   0.00133,276090528.00000,   0.00073,   0.00135,   0.00036,  64.00000,   2.00000
523466966.98015,334289315.89703,-72503178.71223,   0.00246,   0.00185,  -0.00058,476591296.00000,   0.00134,276092544.00000,   0.00073,   0.00135,   0.00036,   0.00000,   2.00000
523256766.40912,332644720.54635,-73174598.22793,   0.00246,   0.00185,  -0.00059,476604064.00000,   0.00134,276094560.00000,   0.00073,   0.00135,   0.00036,  64.00000,   2.00000
523070883.57654,331023296.59644,-73866042.67202,   0.00247,   0.00184,  -0.00060,476601024.00000,   0.00134,276096512.00000,   0.00073,   0.00135,   0.00036, -96.00000,   2.00000
522918209.47252,329404861.87457,-74567491.08254,   0.00247,   0.00183,  -0.00061,476557056.00000,   0.00134,276098240.00000,   0.00074,   0.00135,   0.00036,  32.00000,   2.00000
522780825.58308,327793757.52248,-75279637.47081,   0.00248,   0.00183,  -0.00062,476550208.00000,   0.00134,276099904.00000,   0.00074,   0.00135,   0.00036,  96.00000,   2.00000
522653576.96083,326171315.27560,-75992776.22317,   0.00248,   0.00182,  -0.00063,476556096.00000,   0.00134,276101600.00000,   0.00074,   0.00136,   0.00036, -32.00000,   2.00000
522521129.80201,324564337.25017,-76707081.55189,   0.00249,   0.00181,  -0.00064,476554528.00000,   0.00135,276103232.00000,   0.00074,   0.00136,   0.00036, 224.00000,   2.00000
522380926.71234,322939964.29672,-77426646.26502,   0.00249,   0.00181,  -0.00065,476557056.00000,   0.00135,276104896.00000,   0.00074,   0.00136,   0.00036,  64.00000,   2.00000
522228952.83500,321310841.06616,-78149118.18128,   0.00249,   0.00180,  -0.00066,476570272.00000,   0.00135,276106560.00000,   0.00074,   0.00136,   0.00035, -64.00000,   2.00000
522069355.28386,319679452.18273,-78863912.67492,   0.00250,   0.00179,  -0.00067,476579552.00000,   0.00135,276108288.00000,   0.00075,   0.00136,   0.00035,   0.00000,   2.00000
521895940.76458,318042450.50933,-79580853.84281,   0.00250,   0.00179,  -0.00068,476594336.00000,   0.00135,276110080.00000,   0.00075,   0.00136,   0.00035, -64.00000,   2.00000
521708383.17058,316399749.42334,-80299730.20244,   0.00251,   0.00178,  -0.00069,476609664.00000,   0.00135,276111904.00000,   0.00075,   0.00136,   0.00035,  64.00000,   2.00000
521509840.30121,314755401.51420,-81013254.46112,   0.00251,   0.00177,  -0.00070,476603904.00000,   0.00136,276113696.00000,   0.00075,   0.00136,   0.00035, -96.00000,   2.00000
521297269.53687,313088498.37081,-81732125.46605,   0.00251,   0.00177,  -0.00071,476629280.00000,   0.00136,276115616.00000,   0.00075,   0.00136,   0.00035,-160.00000,   2.00000
521076117.28608,311419089.84762,-82442576.59863,   0.00252,   0.00176,  -0.00072,476639424.00000,   0.00136,276117536.00000,   0.00076,   0.00136,   0.00035,  32.00000,   2.00000
520838305.84837,309744939.33597,-83157593.91926,   0.00252,   0.00175,  -0.00074,476639104.00000,   0.00136,276119488.00000,   0.00076,   0.00136,   0.00035,   0.00000,   2.00000
520591499.45590,308066134.51246,-83866050.28091,   0.00253,   0.00174,  -0.00075,476667712.00000,   0.00136,276121504.00000,   0.00076,   0.00136,   0.00034,  32.00000,   2.00000
520331263.85635,306384315.79145,-84574136.98854,   0.00253,   0.00174,  -0.00076,476664544.00000,   0.00136,276123520.00000,   0.00076,   0.00136,   0.00034,  32.00000,   2.00000
520057001.92033,304697277.27400,-85283704.04036,   0.00254,   0.00173,  -0.00077,476680032.00000,   0.00137,276125600.00000,   0.00076,   0.00136,   0.00034,  32.00000,   2.00000
519772815.43019,302992236.16061,-85991561.88262,   0.00254,   0.00172,  -0.00078,476684000.00000,   0.00137,276127712.00000,   0.00077,   0.00136,   0.00034,  64.00000,   2.00000
519480098.18115,301298251.46564,-86691168.40516,   0.00254,   0.00172,  -0.00079,476720032.00000,   0.00137,276129920.00000,   0.00077,   0.00136,   0.00034, 192.00000,   2.00000
519172187.05746,299585261.02462,-87397334.22845,   0.00255,   0.00171,  -0.00080,476711232.00000,   0.00137,276132128.00000,   0.00077,   0.00136,   0.00034,  64.00000,   2.00000
518854452.85490,297884478.43952,-88098701.51051,   0.00255,   0.00170,  -0.00081,476730816.00000,   0.00137,276134368.00000,   0.00077,   0.00136,   0.00034, 160.00000,   2.00000
518524321.31577,296164461.88942,-88803540.20256,   0.00256,   0.00170,  -0.00082,476737408.00000,   0.00138,276136672.00000,   0.00077,   0.00136,   0.00033,  32.00000,   2.00000
518188576.90865,294443749.12831,-89500584.86300,   0.00256,   0.00169,  -0.00083,476745376.00000,   0.00138,276138976.00000,   0.00078,   0.00136,   0.00033,  32.00000,   2.00000
517838493.51607,292719338.11484,-90203024.54274,   0.00256,   0.00168,  -0.00084,476743808.00000,   0.00138,276141248.00000,   0.00078,   0.00136,   0.00033,  64.00000,   2.00000
517482587.24755,290992776.75661,-90899311.57546,   0.00257,   0.00168,  -0.00085,476770144.00000,   0.00138,276143648.00000,   0.00078,   0.00136,   0.00033,  96.00000,   2.00000
517115091.93286,289262587.75694,-91597683.23866,   0.00257,   0.00167,  -0.00086,476784064.00000,   0.00139,276146080.00000,   0.00078,   0.00136,   0.00033,   0.00000,   2.00000
516739849.80373,287530695.64197,-92293409.56710,   0.00258,   0.00166,  -0.00088,476794368.00000,   0.00139,276148576.00000,   0.00079,   0.00136,   0.00032,  32.00000,   2.00000
516354277.81211,285796992.73467,-92989948.84381,   0.00258,   0.00165,  -0.00089,476789280.00000,   0.00139,276151008.00000,   0.00079,   0.00136,   0.00032, -96.00000,   2.00000
515963455.75079,284046459.50819,-93682060.22211,   0.00259,   0.00165,  -0.00090,476807456.00000,   0.00139,276153536.00000,   0.00079,   0.00136,   0.00032,   0.00000,   2.00000
515561897.92449,282308193.56625,-94374625.51311,   0.00259,   0.00164,  -0.00091,476828800.00000,   0.00140,276156128.00000,   0.00079,   0.00136,   0.00032,  64.00000,   2.00000
515149995.71941,280568099.70523,-95067983.42545,   0.00259,   0.00163,  -0.00092,476823712.00000,   0.00140,276158688.00000,   0.00080,   0.00136,   0.00032, 128.00000,   2.00000
514732709.17418,278811360.29256,-95756728.15565,   0.00260,   0.00163,  -0.00093,476842304.00000,   0.00140,276161312.00000,   0.00080,   0.00136,   0.00031,   0.00000,   2.00000
514302008.47661,277066753.33531,-96449306.78500,   0.00260,   0.00162,  -0.00094,476848032.00000,   0.00140,276163968.00000,   0.00080,   0.00136,   0.00031,   0.00000,   2.00000
513865770.59168,275305641.34896,-97137101.19597,   0.00261,   0.00161,  -0.00095,476867072.00000,   0.00140,276166656.00000,   0.00081,   0.00136,   0.00031,  96.00000,   2.00000
513419543.28715,273558393.48749,-97823874.81644,   0.00261,   0.00161,  -0.00096,476869792.00000,   0.00141,276169376.00000,   0.00081,   0.00136,   0.00031,  64.00000,   2.00000
512967498.52741,271794737.05459,-98505674.53310,   0.00261,   0.00160,  -0.00097,476889216.00000,   0.00141,276172160.00000,   0.00081,   0.00136,   0.00031,  32.00000,   2.00000
512501661.25680,270043319.18886,-99191049.95134,   0.00262,   0.00159,  -0.00099,476895488.00000,   0.00141,276174976.00000,   0.00081,   0.00136,   0.00030,  32.00000,   2.00000
512030902.15795,268291662.40243,-99869667.90613,   0.00262,   0.00158,  -0.00100,476922208.00000,   0.00142,276177888.00000,   0.00082,   0.00136,   0.00030, -32.00000,   2.00000
511548119.46763,266522125.78810,-100550389.04055,   0.00263,   0.00158,  -0.00101,476911360.00000,   0.00142,276180736.00000,   0.00082,   0.00136,   0.00030, -32.00000,   2.00000
511058244.37532,264767616.38252,-101226242.34571,   0.00263,   0.00157,  -0.00102,476929824.00000,   0.00142,276183648.00000,   0.00082,   0.00136,   0.00030,  96.00000,   2.00000
510562181.74488,262997134.37769,-101896754.71209,   0.00264,   0.00156,  -0.00103,476950080.00000,   0.00142,276186656.00000,   0.00082,   0.00136,   0.00029,  32.00000,   2.00000
510052321.63027,261239236.28908,-102570707.69142,   0.00264,   0.00156,  -0.00104,476956800.00000,   0.00143,276189664.00000,   0.00083,   0.00136,   0.00029,   0.00000,   2.00000
509533453.34538,259464537.39475,-103243057.47490,   0.00264,   0.00155,  -0.00105,476961888.00000,   0.00143,276192672.00000,   0.00083,   0.00136,   0.00029,  96.00000,   2.00000
509010714.92465,257706544.35695,-103906634.21410,   0.00265,   0.00154,  -0.00106,476995904.00000,   0.00143,276195840.00000,   0.00083,   0.00136,   0.00029,   0.00000,   2.00000
508473421.11166,255945231.24379,-104575390.85075,   0.00265,   0.00154,  -0.00107,476995936.00000,   0.00143,276198976.00000,   0.00084,   0.00136,   0.00028,  64.00000,   2.00000
507928149.87902,254183376.74743,-105240828.12824,   0.00266,   0.00153,  -0.00109,477007936.00000,   0.00144,276202176.00000,   0.00084,   0.00136,   0.00028,-192.00000,   2.00000
507378023.64581,252406574.17052,-105900166.44002,   0.00266,   0.00152,  -0.00110,477009216.00000,   0.00144,276205344.00000,   0.00084,   0.00136,   0.00028,  32.00000,   2.00000
506821200.51931,250645750.29761,-106555391.45208,   0.00266,   0.00152,  -0.00111,477046720.00000,   0.00144,276208672.00000,   0.00085,   0.00136,   0.00028,  64.00000,   2.00000
506249846.66486,248881553.55342,-107215878.58663,   0.00267,   0.00151,  -0.00112,477046560.00000,   0.00145,276212000.00000,   0.00085,   0.00136,   0.00027,-160.00000,   2.00000
505675496.02119,247118962.66323,-107868751.96176,   0.00267,   0.00150,  -0.00113,477054208.00000,   0.00145,276215328.00000,   0.00085,   0.00136,   0.00027,-128.00000,   2.00000
505090395.26608,245354762.25467,-108523142.39803,   0.00268,   0.00149,  -0.00114,477069440.00000,   0.00145,276218720.00000,   0.00086,   0.00136,   0.00027,   0.00000,   2.00000
504502033.70655,243592428.71661,-109170609.51709,   0.00268,   0.00149,  -0.00115,477096128.00000,   0.00146,276222208.00000,   0.00086,   0.00136,   0.00027,  64.00000,   2.00000
503905414.67935,241845045.26997,-109817400.57036,   0.00268,   0.00148,  -0.00116,477098400.00000,   0.00146,276225696.00000,   0.00086,   0.00136,   0.00026, -32.00000,   2.00000
503300617.22894,240081176.59765,-110462861.10954,   0.00269,   0.00147,  -0.00118,477103168.00000,   0.00146,276229184.00000,   0.00087,   0.00136,   0.00026, -32.00000,   2.00000
502693048.76528,238319530.05936,-111101421.11191,   0.00269,   0.00147,  -0.00119,477129664.00000,   0.00147,276232768.00000,   0.00087,   0.00136,   0.00026, -64.00000,   2.00000
502073959.37148,236571488.79060,-111743976.06242,   0.00270,   0.00146,  -0.00120,477135424.00000,   0.00147,276236352.00000,   0.00087,   0.00136,   0.00025,  64.00000,   2.00000
501446352.75687,234806840.53497,-112385057.31522,   0.00270,   0.00145,  -0.00121,477140544.00000,   0.00147,276239968.00000,   0.00088,   0.00136,   0.00025, -64.00000,   2.00000
500818787.12617,233061807.35515,-113017659.47073,   0.00271,   0.00145,  -0.00122,477172768.00000,   0.00148,276243712.00000,   0.00088,   0.00136,   0.00025,  32.00000,   2.00000
500181373.35564,231315027.19262,-113651200.58728,   0.00271,   0.00144,  -0.00123,477168800.00000,   0.00148,276247392.00000,   0.00088,   0.00136,   0.00024, -96.00000,   2.00000
499541735.63361,229571130.90980,-114277645.45082,   0.00271,   0.00143,  -0.00124,477195232.00000,   0.00148,276251200.00000,   0.00089,   0.00136,   0.00024, -64.00000,   2.00000
498892235.15562,227825529.19769,-114904962.72805,   0.00272,   0.00143,  -0.00126,477191200.00000,   0.00149,276254976.00000,   0.00089,   0.00136,   0.00024,-128.00000,   2.00000
498235266.97925,226096243.21357,-115532030.50502,   0.00272,   0.00142,  -0.00127,477212288.00000,   0.00149,276258816.00000,   0.00090,   0.00136,   0.00023,  96.00000,   2.00000
497577574.18297,224354604.34519,-116148794.58927,   0.00273,   0.00141,  -0.00128,477229440.00000,   0.00149,276262720.00000,   0.00090,   0.00136,   0.00023,  64.00000,   2.00000
496908301.33505,222626913.07016,-116769168.06229,   0.00273,   0.00140,  -0.00129,477235520.00000,   0.00150,276266656.00000,   0.00090,   0.00136,   0.00023,  32.00000,   2.00000
496234349.27606,220885595.12405,-117383538.09184,   0.00273,   0.00140,  -0.00130,477256896.00000,   0.00150,276270624.00000,   0.00091,   0.00136,   0.00022,   0.00000,   2.00000
495556966.33667,219162525.47285,-117992903.44349,   0.00274,   0.00139,  -0.00131,477274272.00000,   0.00151,276274688.00000,   0.00091,   0.00136,   0.00022, -64.00000,   2.00000
494869664.31545,217437823.57043,-118602920.04578,   0.00274,   0.00138,  -0.00132,477270912.00000,   0.00151,276278720.00000,   0.00091,   0.00136,   0.00022,  96.00000,   2.00000
494176330.76648,215715508.34500,-119209622.22560,   0.00275,   0.00138,  -0.00134,477302144.00000,   0.00151,276282880.00000,   0.00092,   0.00136,   0.00021,   0.00000,   2.00000
493480305.44558,214010375.24884,-119811173.91943,   0.00275,   0.00137,  -0.00135,477299936.00000,   0.00152,276287008.00000,   0.00092,   0.00136,   0.00021,  32.00000,   2.00000
492775628.50728,212290413.13883,-120410867.70945,   0.00275,   0.00136,  -0.00136,477325632.00000,   0.00152,276291232.00000,   0.00093,   0.00136,   0.00021, -96.00000,   2.00000
492072908.20449,210590624.36358,-121001378.15794,   0.00276,   0.00136,  -0.00137,477338400.00000,   0.00152,276295488.00000,   0.00093,   0.00136,   0.00020, -96.00000,   2.00000
491360931.34685,208890633.65988,-121592907.32687,   0.00276,   0.00135,  -0.00138,477354112.00000,   0.00153,276299808.00000,   0.00093,   0.00136,   0.00020,  96.00000,   2.00000
490643986.91210,207191876.06400,-122181161.82902,   0.00277,   0.00134,  -0.00139,477365472.00000,   0.00153,276304128.00000,   0.00094,   0.00136,   0.00019,  32.00000,   2.00000
489921046.02162,205508705.47164,-122769008.35815,   0.00277,   0.00134,  -0.00141,477366912.00000,   0.00154,276308480.00000,   0.00094,   0.00136,   0.00019,   0.00000,   2.00000
489194843.27533,203812475.34964,-123350982.65793,   0.00278,   0.00133,  -0.00142,477387744.00000,   0.00154,276312896.00000,   0.00095,   0.00136,   0.00019, -96.00000,   2.00000
488467559.95215,202135191.70709,-123928504.25993,   0.00278,   0.00132,  -0.00143,477403584.00000,   0.00155,276317344.00000,   0.00095,   0.00136,   0.00018, -32.00000,   2.00000
487735931.76788,200459283.76718,-124503026.71015,   0.00278,   0.00132,  -0.00144,477414624.00000,   0.00155,276321824.00000,   0.00096,   0.00136,   0.00018, -32.00000,   2.00000
487000140.01552,198784893.55078,-125074610.87131,   0.00279,   0.00131,  -0.00145,477425312.00000,   0.00155,276326368.00000,   0.00096,   0.00136,   0.00017,  96.00000,   2.00000
486268056.38335,197133230.12645,-125637498.26848,   0.00279,   0.00130,  -0.00146,477456096.00000,   0.00156,276330976.00000,   0.00096,   0.00135,   0.00017,  96.00000,   2.00000
485522795.46189,195478466.18526,-126205931.11423,   0.00280,   0.00130,  -0.00147,477456480.00000,   0.00156,276335616.00000,   0.00097,   0.00135,   0.00017, -96.00000,   2.00000
484777517.08481,193827044.85275,-126767079.59069,   0.00280,   0.00129,  -0.00149,477462912.00000,   0.00157,276340256.00000,   0.00097,   0.00135,   0.00016, 160.00000,   2.00000
484023279.25957,192176312.81873,-127329274.41263,   0.00280,   0.00128,  -0.00150,477478496.00000,   0.00157,276344928.00000,   0.00098,   0.00135,   0.00016,  32.00000,   2.00000
483273338.29174,190532895.63444,-127879645.78702,   0.00281,   0.00128,  -0.00151,477500128.00000,   0.00158,276349696.00000,   0.00098,   0.00135,   0.00015, -32.00000,   2.00000
482513205.13474,188904741.98652,-128433889.09654,   0.00281,   0.00127,  -0.00152,477505536.00000,   0.00158,276354464.00000,   0.00099,   0.00135,   0.00015, -96.00000,   2.00000
481757637.51523,187284437.33375,-128976262.33267,   0.00282,   0.00126,  -0.00153,477527104.00000,   0.00158,276359328.00000,   0.00099,   0.00135,   0.00014,  96.00000,   2.00000
480987731.14439,185661670.07199,-129523688.45448,   0.00282,   0.00126,  -0.00154,477528256.00000,   0.00159,276364160.00000,   0.00099,   0.00135,   0.00014,  96.00000,   2.00000
480221961.65912,184063699.05081,-130061977.07804,   0.00283,   0.00125,  -0.00156,477558656.00000,   0.00159,276369152.00000,   0.00100,   0.00135,   0.00014,  64.00000,   2.00000
479450923.60089,182465998.94481,-130597054.20619,   0.00283,   0.00124,  -0.00157,477550720.00000,   0.00160,276374080.00000,   0.00100,   0.00135,   0.00013,  32.00000,   2.00000
478676241.46888,180874067.80081,-131128549.66885,   0.00283,   0.00124,  -0.00158,477580832.00000,   0.00160,276379104.00000,   0.00101,   0.00135,   0.00013, 128.00000,   2.00000
477897458.45847,179285118.31795,-131656737.86729,   0.00284,   0.00123,  -0.00159,477591968.00000,   0.00161,276384192.00000,   0.00101,   0.00135,   0.00012, 160.00000,   2.00000
477118985.21043,177717098.30345,-132180413.63716,   0.00284,   0.00123,  -0.00160,477607296.00000,   0.00161,276389312.00000,   0.00102,   0.00135,   0.00012, 128.00000,   2.00000
476341671.63600,176153032.39869,-132696942.64236,   0.00285,   0.00122,  -0.00161,477613632.00000,   0.00162,276394432.00000,   0.00102,   0.00135,   0.00011,  64.00000,   2.00000
475561373.79203,174608299.49778,-133213451.76817,   0.00285,   0.00121,  -0.00163,477633248.00000,   0.00162,276399648.00000,   0.00103,   0.00135,   0.00011,  32.00000,   2.00000
474774633.33302,173047538.21945,-133728591.40403,   0.00285,   0.00121,  -0.00164,477640160.00000,   0.00163,276404864.00000,   0.00103,   0.00134,   0.00010, -96.00000,   2.00000
473990437.55796,171506667.89812,-134240011.02380,   0.00286,   0.00120,  -0.00165,477655552.00000,   0.00163,276410112.00000,   0.00104,   0.00134,   0.00010, -32.00000,   2.00000
473209651.04360,169968291.97746,-134745197.33902,   0.00286,   0.00119,  -0.00166,477662176.00000,   0.00164,276415328.00000,   0.00104,   0.00134,   0.00009,  96.00000,   2.00000
472433546.73487,168452227.17053,-135246755.36726,   0.00287,   0.00119,  -0.00167,477696960.00000,   0.00164,276420704.00000,   0.00105,   0.00134,   0.00009,  64.00000,   2.00000
471651543.78382,166932004.02957,-135750925.95684,   0.00287,   0.00118,  -0.00168,477694176.00000,   0.00165,276425984.00000,   0.00105,   0.00134,   0.00008,   0.00000,   2.00000
470873225.04515,165413018.83622,-136249090.49189,   0.00288,   0.00117,  -0.00169,477701472.00000,   0.00165,276431296.00000,   0.00106,   0.00134,   0.00008, -64.00000,   2.00000
470099313.27770,163915714.26168,-136743448.09109,   0.00288,   0.00117,  -0.00171,477736672.00000,   0.00166,276436704.00000,   0.00106,   0.00134,   0.00007,   0.00000,   2.00000
469327806.99510,162420020.23981,-137231229.79625,   0.00288,   0.00116,  -0.00172,477743424.00000,   0.00166,276442080.00000,   0.00107,   0.00134,   0.00007,  32.00000,   2.00000
468543120.15959,160919735.54166,-137724495.67387,   0.00289,   0.00116,  -0.00173,477744608.00000,   0.00167,276447488.00000,   0.00107,   0.00134,   0.00006,  96.00000,   2.00000
467769154.18432,159445832.73594,-138204437.78055,   0.00289,   0.00115,  -0.00174,477768768.00000,   0.00167,276452960.00000,   0.00108,   0.00134,   0.00006, -64.00000,   2.00000
466986279.96250,157974316.94798,-138684487.96698,   0.00290,   0.00114,  -0.00175,477783008.00000,   0.00168,276458496.00000,   0.00108,   0.00134,   0.00005, -96.00000,   2.00000
466208480.16214,156527085.36990,-139155418.49756,   0.00290,   0.00114,  -0.00176,477790848.00000,   0.00168,276464096.00000,   0.00109,   0.00134,   0.00004,  32.00000,   2.00000
465422107.38172,155084020.35226,-139626407.64610,   0.00291,   0.00113,  -0.00178,477804672.00000,   0.00169,276469728.00000,   0.00109,   0.00133,   0.00004, 128.00000,   2.00000
464637078.93195,153647648.01150,-140089876.54577,   0.00291,   0.00113,  -0.00179,477808736.00000,   0.00169,276475392.00000,   0.00110,   0.00133,   0.00003, -32.00000,   2.00000
463849779.84318,152216465.32593,-140550275.86551,   0.00291,   0.00112,  -0.00180,477818208.00000,   0.00170,276481088.00000,   0.00110,   0.00133,   0.00003,   0.00000,   2.00000
463071591.47860,150813222.09514,-141002235.21311,   0.00292,   0.00111,  -0.00181,477846048.00000,   0.00170,276486880.00000,   0.00111,   0.00133,   0.00002, 128.00000,   2.00000
462290898.24989,149427099.96662,-141455173.57309,   0.00292,   0.00111,  -0.00182,477845952.00000,   0.00171,276492640.00000,   0.00111,   0.00133,   0.00002,   0.00000,   2.00000
461508695.50154,148043977.86640,-141905750.82006,   0.00293,   0.00110,  -0.00183,477857088.00000,   0.00171,276498432.00000,   0.00112,   0.00133,   0.00001, -96.00000,   2.00000
460731579.03538,146668726.53889,-142349623.38032,   0.00293,   0.00110,  -0.00185,477882560.00000,   0.00172,276504320.00000,   0.00112,   0.00133,   0.00001, 128.00000,   2.00000
459952902.60100,145295788.64489,-142791220.07635,   0.00294,   0.00109,  -0.00186,477894048.00000,   0.00173,276510208.00000,   0.00113,   0.00133,  -0.00000, -32.00000,   2.00000
459181721.81218,143958012.74922,-143229186.45196,   0.00294,   0.00108,  -0.00187,477892736.00000,   0.00173,276516064.00000,   0.00113,   0.00133,  -0.00001, 160.00000,   2.00000
458405633.84906,142608123.71887,-143665324.62698,   0.00295,   0.00108,  -0.00188,477919776.00000,   0.00174,276522016.00000,   0.00114,   0.00132,  -0.00001, 192.00000,   2.00000
457638012.24263,141280161.92674,-144094265.67305,   0.00295,   0.00107,  -0.00189,477929024.00000,   0.00174,276528000.00000,   0.00114,   0.00132,  -0.00002, -32.00000,   2.00000
456864450.74895,139953580.16923,-144524808.16771,   0.00295,   0.00107,  -0.00190,477944640.00000,   0.00175,276533984.00000,   0.00115,   0.00132,  -0.00002,   0.00000,   2.00000
456099492.70873,138649190.47986,-144948117.12277,   0.00296,   0.00106,  -0.00191,477953408.00000,   0.00175,276540000.00000,   0.00115,   0.00132,  -0.00003,  32.00000,   2.00000
455339613.59231,137352941.44369,-145364469.42256,   0.00296,   0.00106,  -0.00193,477977920.00000,   0.00176,276546112.00000,   0.00116,   0.00132,  -0.00004,-128.00000,   2.00000
454577554.11913,136072754.51036,-145782057.17353,   0.00297,   0.00105,  -0.00194,477977152.00000,   0.00176,276552160.00000,   0.00116,   0.00132,  -0.00004, 160.00000,   2.00000
453813905.77862,134795494.00976,-146197090.24598,   0.00297,   0.00105,  -0.00195,477987424.00000,   0.00177,276558272.00000,   0.00117,   0.00132,  -0.00005,   0.00000,   2.00000
453065932.69616,133546647.52598,-146600313.05453,   0.00298,   0.00104,  -0.00196,478009120.00000,   0.00178,276564416.00000,   0.00117,   0.00132,  -0.00005,  32.00000,   2.00000
452305481.78328,132294471.27365,-147009460.11955,   0.00298,   0.00103,  -0.00197,478010272.00000,   0.00178,276570560.00000,   0.00118,   0.00131,  -0.00006,  96.00000,   2.00000
451555006.04572,131052246.40475,-147407622.72246,   0.00298,   0.00103,  -0.00198,478028896.00000,   0.00179,276576800.00000,   0.00119,   0.00131,  -0.00007,   0.00000,   2.00000
450804550.24676,129831293.63771,-147806166.37539,   0.00299,   0.00102,  -0.00199,478046464.00000,   0.00179,276583040.00000,   0.00119,   0.00131,  -0.00007, -32.00000,   2.00000
450057649.72581,128614773.19163,-148198387.50297,   0.00299,   0.00102,  -0.00201,478050912.00000,   0.00180,276589312.00000,   0.00120,   0.00131,  -0.00008, 160.00000,   2.00000
449320202.88117,127421462.73217,-148583437.28617,   0.00300,   0.00101,  -0.00202,478058144.00000,   0.00181,276595584.00000,   0.00120,   0.00131,  -0.00009, 288.00000,   2.00000
448583036.55409,126249507.72001,-148968932.50134,   0.00300,   0.00101,  -0.00203,478075360.00000,   0.00181,276601920.00000,   0.00121,   0.00131,  -0.00009, 128.00000,   2.00000
447845105.30178,125081008.56793,-149352038.37220,   0.00301,   0.00100,  -0.00204,478084640.00000,   0.00182,276608288.00000,   0.00121,   0.00131,  -0.00010,   0.00000,   2.00000
447111021.44664,123916793.97175,-149728995.61073,   0.00301,   0.00100,  -0.00205,478088768.00000,   0.00182,276614656.00000,   0.00122,   0.00130,  -0.00010,  64.00000,   2.00000
446389362.28940,122780728.88306,-150098231.88750,   0.00302,   0.00099,  -0.00206,478113984.00000,   0.00183,276621088.00000,   0.00122,   0.00130,  -0.00011,  32.00000,   2.00000
445660164.20516,121641935.55357,-150469875.04819,   0.00302,   0.00099,  -0.00207,478109472.00000,   0.00184,276627488.00000,   0.00123,   0.00130,  -0.00012,  64.00000,   2.00000
444943631.57600,120531193.22799,-150833898.83598,   0.00302,   0.00098,  -0.00209,478134624.00000,   0.00184,276633984.00000,   0.00124,   0.00130,  -0.00012, 128.00000,   2.00000
444226670.42234,119423496.31434,-151195806.60418,   0.00303,   0.00098,  -0.00210,478143552.00000,   0.00185,276640480.00000,   0.00124,   0.00130,  -0.00013, 128.00000,   2.00000
443512997.26819,118332348.92067,-151555756.96605,   0.00303,   0.00097,  -0.00211,478136128.00000,   0.00185,276646944.00000,   0.00125,   0.00130,  -0.00014,  96.00000,   2.00000
442812490.04839,117269044.46387,-151908346.33107,   0.00304,   0.00097,  -0.00212,478160768.00000,   0.00186,276653472.00000,   0.00125,   0.00130,  -0.00014, 288.00000,   2.00000
442111776.69834,116208424.26039,-152259037.65481,   0.00304,   0.00096,  -0.00213,478169472.00000,   0.00187,276660032.00000,   0.00126,   0.00129,  -0.00015, 288.00000,   2.00000
441410804.38361,115150389.52368,-152607840.75508,   0.00305,   0.00096,  -0.00214,478178208.00000,   0.00187,276666624.00000,   0.00126,   0.00129,  -0.00016,  64.00000,   2.00000
440723620.43560,114120082.99854,-152949572.18189,   0.00305,   0.00095,  -0.00215,478202432.00000,   0.00188,276673248.00000,   0.00127,   0.00129,  -0.00016, 160.00000,   2.00000
440039929.68720,113105630.00030,-153289726.25309,   0.00306,   0.00095,  -0.00216,478194752.00000,   0.00188,276679840.00000,   0.00127,   0.00129,  -0.00017, 128.00000,   2.00000
439356152.75575,112093462.75216,-153628176.86753,   0.00306,   0.00094,  -0.00218,478203328.00000,   0.00189,276686464.00000,   0.00128,   0.00129,  -0.00018, 192.00000,   2.00000
438679877.26312,111089862.51452,-153960377.37210,   0.00307,   0.00094,  -0.00219,478225120.00000,   0.00190,276693120.00000,   0.00129,   0.00129,  -0.00018,  64.00000,   2.00000
438009108.51164,110120057.92236,-154294196.72435,   0.00307,   0.00093,  -0.00220,478224544.00000,   0.00190,276699776.00000,   0.00129,   0.00128,  -0.00019, 192.00000,   2.00000
437344109.85190,109140468.82222,-154618845.21758,   0.00307,   0.00093,  -0.00221,478239136.00000,   0.00191,276706464.00000,   0.00130,   0.00128,  -0.00020,  32.00000,   2.00000
436692130.10857,108200912.65152,-154940537.39882,   0.00308,   0.00092,  -0.00222,478251808.00000,   0.00192,276713184.00000,   0.00130,   0.00128,  -0.00021,  64.00000,   2.00000
436033981.24366,107244385.95809,-155261486.52809,   0.00308,   0.00092,  -0.00223,478258144.00000,   0.00192,276719904.00000,   0.00131,   0.00128,  -0.00021,  64.00000,   2.00000
435388948.70208,106327835.87216,-155579515.00625,   0.00309,   0.00091,  -0.00224,478270688.00000,   0.00193,276726624.00000,   0.00131,   0.00128,  -0.00022,  64.00000,   2.00000
434748828.94834,105413940.63196,-155892430.03599,   0.00309,   0.00091,  -0.00225,478273952.00000,   0.00193,276733376.00000,   0.00132,   0.00128,  -0.00023,  64.00000,   2.00000
434109029.84033,104501976.86774,-156203907.58265,   0.00310,   0.00090,  -0.00226,478282368.00000,   0.00194,276740096.00000,   0.00133,   0.00127,  -0.00023,  32.00000,   2.00000
433475999.61216,103610935.75011,-156513209.19056,   0.00310,   0.00090,  -0.00228,478292832.00000,   0.00195,276746880.00000,   0.00133,   0.00127,  -0.00024,   0.00000,   2.00000
432857605.30371,102747332.15049,-156815738.74388,   0.00311,   0.00089,  -0.00229,478316480.00000,   0.00195,276753696.00000,   0.00134,   0.00127,  -0.00025,   0.00000,   2.00000
432236524.17121,101879777.98194,-157117841.37193,   0.00311,   0.00089,  -0.00230,478306432.00000,   0.00196,276760480.00000,   0.00134,   0.00127,  -0.00025,   0.00000,   2.00000
431630245.41953,101039702.91088,-157413183.50537,   0.00312,   0.00089,  -0.00231,478330048.00000,   0.00197,276767296.00000,   0.00135,   0.00127,  -0.00026, 160.00000,   2.00000
431027863.74377,100214644.70046,-157707435.65033,   0.00312,   0.00088,  -0.00232,478321952.00000,   0.00197,276774080.00000,   0.00136,   0.00127,  -0.00027,   0.00000,   2.00000
430429138.56096,99397381.39670,-157999190.46307,   0.00313,   0.00088,  -0.00233,478348896.00000,   0.00198,276780928.00000,   0.00136,   0.00126,  -0.00028,  64.00000,   2.00000
429835642.07528,98582703.72422,-158285882.55456,   0.00313,   0.00087,  -0.00234,478352096.00000,   0.00199,276787808.00000,   0.00137,   0.00126,  -0.00028, 160.00000,   2.00000
429255854.85836,97808009.98187,-158569729.08818,   0.00313,   0.00087,  -0.00235,478364416.00000,   0.00199,276794656.00000,   0.00137,   0.00126,  -0.00029,  96.00000,   2.00000
428674742.97784,97016837.37738,-158849193.11021,   0.00314,   0.00086,  -0.00236,478365536.00000,   0.00200,276801536.00000,   0.00138,   0.00126,  -0.00030,  32.00000,   2.00000
428107685.62029,96265712.26772,-159125911.93545,   0.00314,   0.00086,  -0.00237,478377760.00000,   0.00201,276808416.00000,   0.00138,   0.00126,  -0.00030, 160.00000,   2.00000
427541058.90395,95516467.57601,-159401053.31632,   0.00315,   0.00086,  -0.00238,478386368.00000,   0.00201,276815296.00000,   0.00139,   0.00126,  -0.00031,   0.00000,   2.00000
426990190.49356,94794971.18195,-159669543.27463,   0.00315,   0.00085,  -0.00240,478409664.00000,   0.00202,276822240.00000,   0.00140,   0.00125,  -0.00032, 192.00000,   2.00000
426436473.07827,94069285.40809,-159937567.83439,   0.00316,   0.00085,  -0.00241,478399936.00000,   0.00202,276829152.00000,   0.00140,   0.00125,  -0.00033, 128.00000,   2.00000
425898289.67414,93371350.37064,-160198799.74028,   0.00316,   0.00084,  -0.00242,478423072.00000,   0.00203,276836096.00000,   0.00141,   0.00125,  -0.00033,  64.00000,   2.00000
425357494.17501,92669215.64099,-160459695.35167,   0.00317,   0.00084,  -0.00243,478413280.00000,   0.00204,276843008.00000,   0.00141,   0.00125,  -0.00034,  32.00000,   2.00000
424839195.60212,92013950.38007,-160713228.11907,   0.00317,   0.00084,  -0.00244,478438176.00000,   0.00204,276849984.00000,   0.00142,   0.00125,  -0.00035, 160.00000,   2.00000
424314927.58642,91341510.75765,-160965926.54957,   0.00318,   0.00083,  -0.00245,478444896.00000,   0.00205,276856928.00000,   0.00142,   0.00124,  -0.00036, 224.00000,   2.00000
423796957.94283,90702363.64199,-161220652.39243,   0.00318,   0.00083,  -0.00246,478443936.00000,   0.00206,276863872.00000,   0.00143,   0.00124,  -0.00036, 128.00000,   2.00000
423292701.25568,90072536.95202,-161465727.93255,   0.00319,   0.00082,  -0.00247,478459744.00000,   0.00206,276870848.00000,   0.00144,   0.00124,  -0.00037, 160.00000,   2.00000
422800828.67810,89464268.18206,-161705300.99982,   0.00319,   0.00082,  -0.00248,478464384.00000,   0.00207,276877824.00000,   0.00144,   0.00124,  -0.00038, 160.00000,   2.00000
422305070.17771,88857261.87237,-161946973.19486,   0.00320,   0.00082,  -0.00249,478478144.00000,   0.00208,276884832.00000,   0.00145,   0.00124,  -0.00039,  96.00000,   2.00000
421830324.87168,88278705.97399,-162178623.42774,   0.00320,   0.00081,  -0.00250,478495392.00000,   0.00208,276891872.00000,   0.00145,   0.00123,  -0.00039, 256.00000,   2.00000
421354849.19777,87714135.53386,-162412990.77459,   0.00321,   0.00081,  -0.00251,478492576.00000,   0.00209,276898880.00000,   0.00146,   0.00123,  -0.00040, 160.00000,   2.00000
420884928.69126,87151913.10576,-162642560.08627,   0.00321,   0.00081,  -0.00252,478495392.00000,   0.00210,276905888.00000,   0.00147,   0.00123,  -0.00041,  64.00000,   2.00000
420431358.83505,86617510.14945,-162865668.68509,   0.00321,   0.00080,  -0.00253,478517728.00000,   0.00210,276912928.00000,   0.00147,   0.00123,  -0.00042,  64.00000,   2.00000
419981886.82081,86097534.42795,-163088210.31920,   0.00322,   0.00080,  -0.00254,478509184.00000,   0.00211,276919936.00000,   0.00148,   0.00123,  -0.00042,  96.00000,   2.00000
419541793.33905,85586195.64623,-163304894.01474,   0.00322,   0.00080,  -0.00255,478530144.00000,   0.00212,276926976.00000,   0.00148,   0.00123,  -0.00043, 192.00000,   2.00000
419100974.74015,85088627.26000,-163524515.17517,   0.00323,   0.00079,  -0.00256,478526976.00000,   0.00212,276933984.00000,   0.00149,   0.00122,  -0.00044,  96.00000,   2.00000
418681444.89662,84619341.64085,-163734416.48436,   0.00323,   0.00079,  -0.00257,478543520.00000,   0.00213,276941056.00000,   0.00149,   0.00122,  -0.00045, 256.00000,   2.00000
418262691.78939,84151580.24927,-163943208.33578,   0.00324,   0.00079,  -0.00258,478551616.00000,   0.00214,276948096.00000,   0.00150,   0.00122,  -0.00045, 288.00000,   2.00000
417851685.58080,83704441.67733,-164150363.34449,   0.00324,   0.00078,  -0.00260,478560960.00000,   0.00214,276955168.00000,   0.00151,   0.00122,  -0.00046,  64.00000,   2.00000
417453480.34241,83278438.83186,-164352642.70427,   0.00325,   0.00078,  -0.00261,478564576.00000,   0.00215,276962240.00000,   0.00151,   0.00122,  -0.00047,  96.00000,   2.00000
417056120.83816,82853830.45613,-164553966.80515,   0.00325,   0.00078,  -0.00262,478572480.00000,   0.00216,276969280.00000,   0.00152,   0.00121,  -0.00048, 320.00000,   2.00000
416671144.92587,82450216.36552,-164750320.81699,   0.00326,   0.00077,  -0.00263,478576032.00000,   0.00216,276976352.00000,   0.00152,   0.00121,  -0.00048,  96.00000,   2.00000
416294126.83913,82067043.42414,-164945310.73847,   0.00326,   0.00077,  -0.00264,478584928.00000,   0.00217,276983392.00000,   0.00153,   0.00121,  -0.00049,  96.00000,   2.00000
415922682.32878,81685627.37301,-165136065.63493,   0.00327,   0.00077,  -0.00265,478587008.00000,   0.00218,276990432.00000,   0.00153,   0.00121,  -0.00050,  96.00000,   2.00000
415566167.80825,81343684.20722,-165324977.84281,   0.00327,   0.00077,  -0.00266,478597312.00000,   0.00218,276997504.00000,   0.00154,   0.00121,  -0.00051,  64.00000,   2.00000
415203281.05862,80983702.68258,-165513607.96840,   0.00328,   0.00076,  -0.00267,478603488.00000,   0.00219,277004544.00000,   0.00155,   0.00120,  -0.00051,  64.00000,   2.00000
414868785.57651,80670725.64272,-165692372.29668,   0.00328,   0.00076,  -0.00268,478620544.00000,   0.00220,277011648.00000,   0.00155,   0.00120,  -0.00052,  64.00000,   2.00000
414531109.85957,80352125.41915,-165871793.49823,   0.00329,   0.00076,  -0.00269,478609696.00000,   0.00220,277018656.00000,   0.00156,   0.00120,  -0.00053, 192.00000,   2.00000
414205120.35604,80060247.30189,-166048657.74238,   0.00329,   0.00076,  -0.00270,478636704.00000,   0.00221,277025760.00000,   0.00156,   0.00120,  -0.00054, 192.00000,   2.00000
413887656.07099,79782260.30249,-166222305.68791,   0.00330,   0.00075,  -0.00271,478621536.00000,   0.00222,277032768.00000,   0.00157,   0.00120,  -0.00055, 128.00000,   2.00000
413575049.53200,79511763.98739,-166394087.91978,   0.00330,   0.00075,  -0.00272,478646976.00000,   0.00222,277039872.00000,   0.00157,   0.00119,  -0.00055, 288.00000,   2.00000
413270684.34489,79255009.28542,-166562614.51724,   0.00331,   0.00075,  -0.00273,478631808.00000,   0.00223,277046880.00000,   0.00158,   0.00119,  -0.00056,  96.00000,   2.00000
412978313.48600,79024808.56228,-166728821.55164,   0.00331,   0.00074,  -0.00274,478658336.00000,   0.00224,277053952.00000,   0.00159,   0.00119,  -0.00057, 128.00000,   2.00000
412691171.61224,78795730.14982,-166891053.40287,   0.00332,   0.00074,  -0.00275,478659904.00000,   0.00224,277061024.00000,   0.00159,   0.00119,  -0.00058, 160.00000,   2.00000
412407670.20801,78579726.84463,-167053586.17905,   0.00332,   0.00074,  -0.00276,478650176.00000,   0.00225,277068000.00000,   0.00160,   0.00119,  -0.00058, 192.00000,   2.00000
412140754.51593,78390602.68472,-167210418.65629,   0.00333,   0.00074,  -0.00277,478670976.00000,   0.00226,277075040.00000,   0.00160,   0.00118,  -0.00059,  96.00000,   2.00000
411881690.80546,78221115.01561,-167366332.11332,   0.00333,   0.00074,  -0.00278,478679232.00000,   0.00226,277082112.00000,   0.00161,   0.00118,  -0.00060, 128.00000,   2.00000
411627557.20020,78052480.97453,-167518248.98531,   0.00334,   0.00073,  -0.00278,478680768.00000,   0.00227,277089152.00000,   0.00161,   0.00118,  -0.00061,   0.00000,   2.00000
411386043.71088,77903876.70086,-167665941.52777,   0.00334,   0.00073,  -0.00279,478683232.00000,   0.00228,277096160.00000,   0.00162,   0.00118,  -0.00061,  96.00000,   2.00000
411152250.03343,77774735.81222,-167812720.87910,   0.00335,   0.00073,  -0.00280,478691520.00000,   0.00228,277103168.00000,   0.00163,   0.00118,  -0.00062,  96.00000,   2.00000
410918907.22405,77645830.21842,-167959045.07555,   0.00335,   0.00073,  -0.00281,478698368.00000,   0.00229,277110208.00000,   0.00163,   0.00118,  -0.00063, 160.00000,   2.00000
410705117.09181,77555928.94099,-168100591.41519,   0.00335,   0.00073,  -0.00282,478702176.00000,   0.00230,277117216.00000,   0.00164,   0.00117,  -0.00064, 160.00000,   2.00000
410489084.91755,77447444.19092,-168238747.26892,   0.00336,   0.00072,  -0.00283,478702240.00000,   0.00230,277124192.00000,   0.00164,   0.00117,  -0.00065,  64.00000,   2.00000
410288125.45574,77377422.21397,-168375632.52448,   0.00336,   0.00072,  -0.00284,478711456.00000,   0.00231,277131168.00000,   0.00165,   0.00117,  -0.00065,  96.00000,   2.00000
410094804.23152,77326583.18801,-168511632.94601,   0.00337,   0.00072,  -0.00285,478719712.00000,   0.00232,277138176.00000,   0.00165,   0.00117,  -0.00066, 192.00000,   2.00000
409906369.07075,77276171.92188,-168643763.90769,   0.00337,   0.00072,  -0.00286,478720992.00000,   0.00232,277145152.00000,   0.00166,   0.00117,  -0.00067,   0.00000,   2.00000
409730296.17982,77245357.19091,-168771684.85749,   0.00338,   0.00072,  -0.00287,478723328.00000,   0.00233,277152096.00000,   0.00167,   0.00116,  -0.00068,  64.00000,   2.00000
409554665.00773,77214444.59859,-168899252.41762,   0.00338,   0.00071,  -0.00288,478730080.00000,   0.00234,277159040.00000,   0.00167,   0.00116,  -0.00068,  96.00000,   2.00000
409393776.23406,77221719.14011,-169025444.58138,   0.00339,   0.00071,  -0.00289,478739424.00000,   0.00234,277165984.00000,   0.00168,   0.00116,  -0.00069, 224.00000,   2.00000
409237881.21958,77229262.07204,-169147870.11047,   0.00339,   0.00071,  -0.00290,478740640.00000,   0.00235,277172928.00000,   0.00168,   0.00116,  -0.00070, 128.00000,   2.00000
409094225.12392,77256226.73082,-169266081.82899,   0.00340,   0.00071,  -0.00291,478743104.00000,   0.00235,277179840.00000,   0.00169,   0.00116,  -0.00071,   0.00000,   2.00000
408950973.53829,77282932.34131,-169383970.80999,   0.00340,   0.00071,  -0.00292,478749888.00000,   0.00236,277186752.00000,   0.00169,   0.00115,  -0.00071, 256.00000,   2.00000
408828717.69945,77336185.61924,-169492857.56659,   0.00341,   0.00071,  -0.00293,478764928.00000,   0.00237,277193728.00000,   0.00170,   0.00115,  -0.00072, 128.00000,   2.00000
408712261.74682,77420234.88509,-169605178.45531,   0.00341,   0.00071,  -0.00293,478761728.00000,   0.00237,277200640.00000,   0.00170,   0.00115,  -0.00073,  32.00000,   2.00000
408593503.02384,77485214.87643,-169714262.10386,   0.00342,   0.00070,  -0.00294,478761600.00000,   0.00238,277207488.00000,   0.00171,   0.00115,  -0.00074,  64.00000,   2.00000
408489417.07938,77588138.86056,-169822024.39368,   0.00342,   0.00070,  -0.00295,478771040.00000,   0.00239,277214400.00000,   0.00172,   0.00115,  -0.00075,  64.00000,   2.00000
408390257.26420,77691114.32110,-169926098.36024,   0.00343,   0.00070,  -0.00296,478772192.00000,   0.00239,277221248.00000,   0.00172,   0.00114,  -0.00075,  64.00000,   2.00000
408298451.09541,77812789.79827,-170029318.32371,   0.00343,   0.00070,  -0.00297,478780384.00000,   0.00240,277228096.00000,   0.00173,   0.00114,  -0.00076, 128.00000,   2.00000
408218698.70676,77953630.21717,-170128351.46741,   0.00344,   0.00070,  -0.00298,478782816.00000,   0.00241,277234944.00000,   0.00173,   0.00114,  -0.00077,  64.00000,   2.00000
408151102.22363,78113618.05883,-170223264.76419,   0.00344,   0.00070,  -0.00299,478785248.00000,   0.00241,277241792.00000,   0.00174,   0.00114,  -0.00078, 160.00000,   2.00000
408083518.99899,78273039.31991,-170317802.75410,   0.00345,   0.00070,  -0.00300,478792160.00000,   0.00242,277248608.00000,   0.00174,   0.00114,  -0.00078,  64.00000,   2.00000
408027951.25665,78451565.83554,-170408188.65214,   0.00345,   0.00070,  -0.00301,478794624.00000,   0.00243,277255424.00000,   0.00175,   0.00114,  -0.00079,   0.00000,   2.00000
407979786.99190,78648664.37278,-170497817.99404,   0.00346,   0.00070,  -0.00301,478802848.00000,   0.00243,277262208.00000,   0.00175,   0.00113,  -0.00080,  96.00000,   2.00000
407943535.76600,78864793.85494,-170583274.54711,   0.00346,   0.00069,  -0.00302,478805344.00000,   0.00244,277269024.00000,   0.00176,   0.00113,  -0.00081, 128.00000,   2.00000
407907266.51457,79080254.29231,-170668396.52561,   0.00347,   0.00069,  -0.00303,478812320.00000,   0.00245,277275808.00000,   0.00177,   0.00113,  -0.00081,  32.00000,   2.00000
407883006.58428,79314728.08717,-170749421.50566,   0.00347,   0.00069,  -0.00304,478814784.00000,   0.00245,277282560.00000,   0.00177,   0.00113,  -0.00082, 192.00000,   2.00000
407865905.20268,79567646.69037,-170829627.35222,   0.00348,   0.00069,  -0.00305,478823232.00000,   0.00246,277289344.00000,   0.00178,   0.00113,  -0.00083, 352.00000,   2.00000
407856177.03043,79832873.30485,-170907032.53842,   0.00348,   0.00069,  -0.00306,478807744.00000,   0.00246,277296032.00000,   0.00178,   0.00112,  -0.00084,  32.00000,   2.00000
407850910.25734,80103962.48342,-170982803.75920,   0.00349,   0.00069,  -0.00307,478832608.00000,   0.00247,277302784.00000,   0.00179,   0.00112,  -0.00084, 128.00000,   2.00000
407862137.21465,80394477.21159,-171051099.35132,   0.00349,   0.00069,  -0.00307,478829472.00000,   0.00248,277309472.00000,   0.00179,   0.00112,  -0.00085, 160.00000,   2.00000
407866641.60923,80695670.07082,-171126639.57155,   0.00350,   0.00069,  -0.00308,478831136.00000,   0.00248,277316160.00000,   0.00180,   0.00112,  -0.00086, 128.00000,   2.00000
407896776.96234,81023350.85474,-171190010.11505,   0.00350,   0.00069,  -0.00309,478840512.00000,   0.00249,277322848.00000,   0.00180,   0.00112,  -0.00087, 224.00000,   2.00000
407924757.44477,81362162.02612,-171257256.96420,   0.00351,   0.00069,  -0.00310,478836512.00000,   0.00250,277329504.00000,   0.00181,   0.00112,  -0.00087, 224.00000,   2.00000
407966350.27899,81707687.01207,-171316129.23530,   0.00351,   0.00069,  -0.00311,478850048.00000,   0.00250,277336192.00000,   0.00181,   0.00111,  -0.00088,  64.00000,   2.00000
408005796.14344,82064313.21478,-171378903.30432,   0.00352,   0.00069,  -0.00312,478846112.00000,   0.00251,277342816.00000,   0.00182,   0.00111,  -0.00089,  32.00000,   2.00000
408057002.41664,82439658.45292,-171437569.54823,   0.00352,   0.00069,  -0.00312,478848640.00000,   0.00252,277349408.00000,   0.00182,   0.00111,  -0.00090,  96.00000,   2.00000
408116993.83905,82821050.49262,-171491149.05150,   0.00353,   0.00069,  -0.00313,478868032.00000,   0.00252,277356064.00000,   0.00183,   0.00111,  -0.00090,   0.00000,   2.00000
408179540.28007,83214026.10011,-171545331.19158,   0.00353,   0.00069,  -0.00314,478858272.00000,   0.00253,277362656.00000,   0.00184,   0.00111,  -0.00091,  32.00000,   2.00000
408253682.62417,83625620.26991,-171595356.45163,   0.00353,   0.00069,  -0.00315,478861024.00000,   0.00253,277369216.00000,   0.00184,   0.00110,  -0.00092,  32.00000,   2.00000
408334586.40296,84055209.82760,-171644492.84869,   0.00354,   0.00069,  -0.00316,478869504.00000,   0.00254,277375808.00000,   0.00185,   0.00110,  -0.00093,  96.00000,   2.00000
408426941.29038,84503307.64855,-171689417.96544,   0.00354,   0.00069,  -0.00316,478872224.00000,   0.00255,277382336.00000,   0.00185,   0.00110,  -0.00093, 160.00000,   2.00000
408514690.55059,84943743.31147,-171735499.13549,   0.00355,   0.00069,  -0.00317,478861056.00000,   0.00255,277388832.00000,   0.00186,   0.00110,  -0.00094,  64.00000,   2.00000
408618186.01853,85409092.60284,-171775910.01768,   0.00355,   0.00069,  -0.00318,478881984.00000,   0.00256,277395360.00000,   0.00186,   0.00110,  -0.00095, 160.00000,   2.00000
408733035.20273,85892846.02397,-171812090.28033,   0.00356,   0.00069,  -0.00319,478884864.00000,   0.00256,277401856.00000,   0.00187,   0.00110,  -0.00095, 128.00000,   2.00000
408845331.62285,86387358.10701,-171852066.20454,   0.00356,   0.00069,  -0.00320,478880928.00000,   0.00257,277408320.00000,   0.00187,   0.00109,  -0.00096, 160.00000,   2.00000
408971038.11240,86888077.88607,-171883645.54072,   0.00357,   0.00069,  -0.00320,478894528.00000,   0.00258,277414816.00000,   0.00188,   0.00109,  -0.00097,  96.00000,   2.00000
409105938.66648,87419219.21931,-171915151.25374,   0.00357,   0.00069,  -0.00321,478886528.00000,   0.00258,277421248.00000,   0.00188,   0.00109,  -0.00098,  96.00000,   2.00000
409238219.46038,87930409.07934,-171943662.89583,   0.00358,   0.00069,  -0.00322,478886048.00000,   0.00259,277427648.00000,   0.00189,   0.00109,  -0.00098, 224.00000,   2.00000
409378915.45907,88477689.85949,-171973776.76196,   0.00358,   0.00069,  -0.00323,478902144.00000,   0.00260,277434080.00000,   0.00189,   0.00109,  -0.00099,  64.00000,   2.00000
409535655.01016,89043757.90895,-171996390.56578,   0.00359,   0.00069,  -0.00323,478899072.00000,   0.00260,277440480.00000,   0.00190,   0.00109,  -0.00100, 224.00000,   2.00000
409691653.16736,89608203.83497,-172018570.71414,   0.00359,   0.00069,  -0.00324,478906144.00000,   0.00261,277446880.00000,   0.00190,   0.00108,  -0.00101, 128.00000,   2.00000
409849715.48911,90183845.59573,-172041267.51171,   0.00360,   0.00069,  -0.00325,478896480.00000,   0.00261,277453184.00000,   0.00191,   0.00108,  -0.00101, 160.00000,   2.00000
410027858.59538,90784450.24088,-172054896.78240,   0.00360,   0.00069,  -0.00326,478911808.00000,   0.00262,277459552.00000,   0.00191,   0.00108,  -0.00102, 160.00000,   2.00000
410196126.39672,91376438.28403,-172072874.75701,   0.00361,   0.00070,  -0.00326,478906400.00000,   0.00263,277465856.00000,   0.00192,   0.00108,  -0.00103,  96.00000,   2.00000
410391283.18635,92012370.30388,-172081131.79581,   0.00361,   0.00070,  -0.00327,478923328.00000,   0.00263,277472192.00000,   0.00192,   0.00108,  -0.00103, 224.00000,   2.00000
410576535.97719,92639603.87251,-172093758.24357,   0.00362,   0.00070,  -0.00328,478917888.00000,   0.00264,277478496.00000,   0.00193,   0.00108,  -0.00104, 192.00000,   2.00000
410770518.52804,93266351.25431,-172099442.06402,   0.00362,   0.00070,  -0.00329,478913280.00000,   0.00264,277484736.00000,   0.00193,   0.00108,  -0.00105, 128.00000,   2.00000
410963504.11754,93921894.87357,-172111463.59322,   0.00362,   0.00070,  -0.00329,478917056.00000,   0.00265,277490944.00000,   0.00194,   0.00107,  -0.00106, 128.00000,   2.00000
411174128.62997,94583688.06563,-172111723.90807,   0.00363,   0.00070,  -0.00330,478924832.00000,   0.00266,277497184.00000,   0.00194,   0.00107,  -0.00106, 160.00000,   2.00000
411381537.18951,95255807.23426,-172115683.28149,   0.00363,   0.00070,  -0.00331,478921024.00000,   0.00266,277503360.00000,   0.00195,   0.00107,  -0.00107,  64.00000,   2.00000
411608740.34226,95952499.12592,-172110582.28954,   0.00364,   0.00070,  -0.00331,478936352.00000,   0.00267,277509600.00000,   0.00195,   0.00107,  -0.00108, 256.00000,   2.00000
411832331.65861,96659388.67435,-172109041.31464,   0.00364,   0.00070,  -0.00332,478932960.00000,   0.00267,277515776.00000,   0.00196,   0.00107,  -0.00108,  64.00000,   2.00000
412059741.55136,97364942.15655,-172103885.67189,   0.00365,   0.00071,  -0.00333,478933952.00000,   0.00268,277521920.00000,   0.00196,   0.00107,  -0.00109,  96.00000,   2.00000
412288617.29635,98081474.44961,-172099179.68951,   0.00365,   0.00071,  -0.00334,478924320.00000,   0.00268,277528000.00000,   0.00197,   0.00106,  -0.00110, 128.00000,   2.00000
412531873.84468,98821614.52879,-172088477.64352,   0.00366,   0.00071,  -0.00334,478945664.00000,   0.00269,277534144.00000,   0.00197,   0.00106,  -0.00111,  64.00000,   2.00000
412781323.91168,99573417.59143,-172074976.71956,   0.00366,   0.00071,  -0.00335,478930272.00000,   0.00270,277540192.00000,   0.00198,   0.00106,  -0.00111,  96.00000,   2.00000
413033539.09479,100328934.44671,-172059484.71250,   0.00367,   0.00071,  -0.00336,478955616.00000,   0.00270,277546336.00000,   0.00198,   0.00106,  -0.00112,  64.00000,   2.00000
413298459.77847,101115119.77767,-172040420.98099,   0.00367,   0.00071,  -0.00336,478942240.00000,   0.00271,277552384.00000,   0.00199,   0.00106,  -0.00113,  64.00000,   2.00000
413546496.08350,101873430.46742,-172026572.80669,   0.00368,   0.00071,  -0.00337,478934496.00000,   0.00271,277558368.00000,   0.00199,   0.00106,  -0.00113,  64.00000,   2.00000
413820059.36057,102674887.03557,-172002688.16735,   0.00368,   0.00072,  -0.00338,478952160.00000,   0.00272,277564384.00000,   0.00200,   0.00106,  -0.00114,  64.00000,   2.00000
414083197.83146,103467441.56052,-171983222.78570,   0.00368,   0.00072,  -0.00338,478946400.00000,   0.00272,277570368.00000,   0.00200,   0.00105,  -0.00115,  96.00000,   2.00000
414371793.05767,104303015.18600,-171953748.56987,   0.00369,   0.00072,  -0.00339,478964096.00000,   0.00273,277576384.00000,   0.00201,   0.00105,  -0.00115, 160.00000,   2.00000
414639228.70881,105104923.52447,-171931047.92131,   0.00369,   0.00072,  -0.00340,478938080.00000,   0.00274,277582272.00000,   0.00201,   0.00105,  -0.00116,   0.00000,   2.00000
414931884.79130,105949791.19454,-171898268.40632,   0.00370,   0.00072,  -0.00340,478955680.00000,   0.00274,277588192.00000,   0.00202,   0.00105,  -0.00117,  96.00000,   2.00000
415229388.40241,106811187.21772,-171864300.95338,   0.00370,   0.00073,  -0.00341,478964704.00000,   0.00275,277594144.00000,   0.00202,   0.00105,  -0.00117, 128.00000,   2.00000
415521240.09555,107664479.36186,-171831562.52328,   0.00371,   0.00073,  -0.00341,478953152.00000,   0.00275,277600000.00000,   0.00203,   0.00105,  -0.00118,  32.00000,   2.00000
415811347.21255,108515329.51795,-171798426.25530,   0.00371,   0.00073,  -0.00342,478959968.00000,   0.00276,277605888.00000,   0.00203,   0.00105,  -0.00119, 160.00000,   2.00000
416117472.66165,109402468.27711,-171759984.37366,   0.00371,   0.00073,  -0.00343,478965376.00000,   0.00276,277611744.00000,   0.00203,   0.00105,  -0.00119,  64.00000,   2.00000
416417739.83291,110281516.22825,-171722706.99386,   0.00372,   0.00073,  -0.00343,478953728.00000,   0.00277,277617536.00000,   0.00204,   0.00104,  -0.00120, -32.00000,   2.00000
416727605.42515,111177889.23499,-171681007.11616,   0.00372,   0.00074,  -0.00344,478956864.00000,   0.00278,277623296.00000,   0.00204,   0.00104,  -0.00121, 160.00000,   2.00000
417041772.83220,112090591.01002,-171637968.57038,   0.00373,   0.00074,  -0.00345,478966112.00000,   0.00278,277629088.00000,   0.00205,   0.00104,  -0.00121,   0.00000,   2.00000
417365261.23034,113020487.26955,-171590426.27582,   0.00373,   0.00074,  -0.00345,478969376.00000,   0.00279,277634848.00000,   0.00205,   0.00104,  -0.00122,  96.00000,   2.00000
417682864.79475,113942319.93918,-171544080.88244,   0.00374,   0.00074,  -0.00346,478957600.00000,   0.00279,277640544.00000,   0.00206,   0.00104,  -0.00123, -96.00000,   2.00000
418013522.26923,114886692.88220,-171491600.05489,   0.00374,   0.00075,  -0.00346,478979520.00000,   0.00280,277646304.00000,   0.00206,   0.00104,  -0.00123, -64.00000,   2.00000
418344589.17414,115841899.03990,-171439433.80244,   0.00374,   0.00075,  -0.00347,478970240.00000,   0.00280,277652000.00000,   0.00207,   0.00104,  -0.00124,  32.00000,   2.00000
418669714.81082,116789065.27520,-171388445.53850,   0.00375,   0.00075,  -0.00347,478958752.00000,   0.00281,277657632.00000,   0.00207,   0.00104,  -0.00125, 128.00000,   2.00000
418999019.54638,117752389.28188,-171336135.19102,   0.00375,   0.00075,  -0.00348,478968000.00000,   0.00281,277663264.00000,   0.00208,   0.00103,  -0.00125, 160.00000,   2.00000
419350504.78563,118739809.66580,-171270941.74456,   0.00376,   0.00076,  -0.00349,478978560.00000,   0.00282,277668896.00000,   0.00208,   0.00103,  -0.00126, -96.00000,   2.00000
419684000.83762,119729985.85814,-171217488.32370,   0.00376,   0.00076,  -0.00349,478968288.00000,   0.00282,277674496.00000,   0.00209,   0.00103,  -0.00127,  64.00000,   2.00000
420033604.44902,120725348.92884,-171152156.54954,   0.00377,   0.00076,  -0.00350,478976256.00000,   0.00283,277680064.00000,   0.00209,   0.00103,  -0.00127, 128.00000,   2.00000
420378397.11006,121730518.31404,-171090264.62999,   0.00377,   0.00076,  -0.00350,478973312.00000,   0.00283,277685600.00000,   0.00209,   0.00103,  -0.00128, 256.00000,   2.00000
420731739.94563,122752522.81183,-171023598.36510,   0.00377,   0.00077,  -0.00351,478976992.00000,   0.00284,277691136.00000,   0.00210,   0.00103,  -0.00129,  32.00000,   2.00000
421085213.31379,123785317.49651,-170957111.12277,   0.00378,   0.00077,  -0.00351,478968064.00000,   0.00284,277696608.00000,   0.00210,   0.00103,  -0.00129,  96.00000,   2.00000
421436205.87000,124815048.43297,-170890090.24347,   0.00378,   0.00077,  -0.00352,478975296.00000,   0.00285,277702080.00000,   0.00211,   0.00103,  -0.00130, 192.00000,   2.00000
421795697.95111,125861534.09172,-170818269.53964,   0.00379,   0.00078,  -0.00352,478979296.00000,   0.00286,277707552.00000,   0.00211,   0.00103,  -0.00130, 128.00000,   2.00000
422152635.98229,126904871.46225,-170745891.52524,   0.00379,   0.00078,  -0.00353,478986528.00000,   0.00286,277713024.00000,   0.00212,   0.00102,  -0.00131,  32.00000,   2.00000
422514478.92095,127960073.59079,-170670311.15554,   0.00379,   0.00078,  -0.00354,478972096.00000,   0.00287,277718400.00000,   0.00212,   0.00102,  -0.00132, 192.00000,   2.00000
422879522.09346,129030816.05902,-170593030.04572,   0.00380,   0.00079,  -0.00354,478982272.00000,   0.00287,277723808.00000,   0.00213,   0.00102,  -0.00132, 128.00000,   2.00000
423244518.33468,130112349.01945,-170515783.12709,   0.00380,   0.00079,  -0.00355,478973728.00000,   0.00288,277729152.00000,   0.00213,   0.00102,  -0.00133, -32.00000,   2.00000
423606897.35374,131190637.41600,-170437918.58502,   0.00381,   0.00079,  -0.00355,478981216.00000,   0.00288,277734464.00000,   0.00213,   0.00102,  -0.00134,  96.00000,   2.00000
423983155.73280,132304182.98284,-170353916.40173,   0.00381,   0.00080,  -0.00356,478988480.00000,   0.00289,277739808.00000,   0.00214,   0.00102,  -0.00134,  64.00000,   2.00000
424347607.58615,133391113.19159,-170272049.85573,   0.00381,   0.00080,  -0.00356,478974432.00000,   0.00289,277745088.00000,   0.00214,   0.00102,  -0.00135,  32.00000,   2.00000
424725786.24752,134513283.48088,-170183952.47843,   0.00382,   0.00080,  -0.00357,478982112.00000,   0.00290,277750336.00000,   0.00215,   0.00102,  -0.00135,  64.00000,   2.00000
425101371.39373,135632146.75412,-170095225.50187,   0.00382,   0.00081,  -0.00357,478989472.00000,   0.00290,277755584.00000,   0.00215,   0.00102,  -0.00136,  96.00000,   2.00000
425476578.04316,136761872.76844,-170006281.16690,   0.00382,   0.00081,  -0.00358,478981440.00000,   0.00291,277760800.00000,   0.00216,   0.00102,  -0.00137,  64.00000,   2.00000
425849089.01254,137888297.99931,-169916620.91566,   0.00383,   0.00081,  -0.00358,478988928.00000,   0.00291,277766016.00000,   0.00216,   0.00102,  -0.00137, -64.00000,   2.00000
426226272.83777,139026924.50282,-169823449.52854,   0.00383,   0.00082,  -0.00359,478974944.00000,   0.00292,277771136.00000,   0.00216,   0.00101,  -0.00138,   0.00000,   2.00000
426606415.74716,140180925.41834,-169728368.16258,   0.00384,   0.00082,  -0.00359,478985536.00000,   0.00292,277776288.00000,   0.00217,   0.00101,  -0.00138,  64.00000,   2.00000
426989350.68456,141350232.40455,-169631293.82790,   0.00384,   0.00082,  -0.00360,478996352.00000,   0.00293,277781440.00000,   0.00217,   0.00101,  -0.00139,  96.00000,   2.00000
427371391.06014,142513301.11895,-169531853.70146,   0.00384,   0.00083,  -0.00360,478979104.00000,   0.00293,277786496.00000,   0.00218,   0.00101,  -0.00140,  32.00000,   2.00000
427756405.78767,143691790.32973,-169430476.22870,   0.00385,   0.00083,  -0.00360,478989760.00000,   0.00294,277791584.00000,   0.00218,   0.00101,  -0.00140, 160.00000,   2.00000
428143672.08130,144868358.51050,-169325011.68548,   0.00385,   0.00083,  -0.00361,478991392.00000,   0.00294,277796640.00000,   0.00218,   0.00101,  -0.00141,  96.00000,   2.00000
428525524.53348,146054929.90565,-169222441.75183,   0.00385,   0.00084,  -0.00361,478989088.00000,   0.00294,277801696.00000,   0.00219,   0.00101,  -0.00141, -64.00000,   2.00000
428907236.18295,147252926.56909,-169119575.98672,   0.00386,   0.00084,  -0.00362,478980512.00000,   0.00295,277806656.00000,   0.00219,   0.00101,  -0.00142, 128.00000,   2.00000
429296645.02919,148467665.61805,-169011319.85972,   0.00386,   0.00085,  -0.00362,478985280.00000,   0.00295,277811616.00000,   0.00220,   0.00101,  -0.00142,   0.00000,   2.00000
429688471.26089,149680683.94288,-168899010.66963,   0.00386,   0.00085,  -0.00363,478986656.00000,   0.00296,277816576.00000,   0.00220,   0.00101,  -0.00143, 160.00000,   2.00000
430069598.16285,150885418.75670,-168790884.34700,   0.00387,   0.00085,  -0.00363,478980416.00000,   0.00296,277821472.00000,   0.00220,   0.00101,  -0.00144,-160.00000,   2.00000
430463709.76420,152125467.62938,-168676053.65940,   0.00387,   0.00086,  -0.00363,478988416.00000,   0.00297,277826368.00000,   0.00221,   0.00101,  -0.00144,-128.00000,   2.00000
430852267.64365,153358677.17247,-168562191.43049,   0.00387,   0.00086,  -0.00364,478976128.00000,   0.00297,277831200.00000,   0.00221,   0.00101,  -0.00145,  64.00000,   2.00000
431243429.36870,154607332.15856,-168446235.79393,   0.00388,   0.00087,  -0.00364,478986368.00000,   0.00298,277836064.00000,   0.00222,   0.00100,  -0.00145,  32.00000,   2.00000
431636999.09009,155854341.91450,-168326291.67825,   0.00388,   0.00087,  -0.00365,478987360.00000,   0.00298,277840896.00000,   0.00222,   0.00100,  -0.00146, 160.00000,   2.00000
432029869.03653,157112917.39751,-168205888.94823,   0.00388,   0.00088,  -0.00365,478978848.00000,   0.00299,277845696.00000,   0.00222,   0.00100,  -0.00146,  64.00000,   2.00000
432411946.12085,158363264.64002,-168089755.42150,   0.00389,   0.00088,  -0.00366,478972352.00000,   0.00299,277850432.00000,   0.00223,   0.00100,  -0.00147, -96.00000,   2.00000
432806413.81996,159648589.01868,-167966890.71816,   0.00389,   0.00088,  -0.00366,478980672.00000,   0.00300,277855168.00000,   0.00223,   0.00100,  -0.00148, -96.00000,   2.00000
433189852.05780,160908610.63046,-167846436.92030,   0.00389,   0.00089,  -0.00366,478964960.00000,   0.00300,277859808.00000,   0.00224,   0.00100,  -0.00148, -96.00000,   2.00000
433580154.63379,162201851.38830,-167722501.38366,   0.00390,   0.00089,  -0.00367,478979616.00000,   0.00300,277864512.00000,   0.00224,   0.00100,  -0.00149,  32.00000,   2.00000
433972034.58408,163492865.60270,-167594603.94287,   0.00390,   0.00090,  -0.00367,478981088.00000,   0.00301,277869184.00000,   0.00224,   0.00100,  -0.00149, -96.00000,   2.00000
434362654.97258,164795000.65674,-167466391.03756,   0.00390,   0.00090,  -0.00367,478973792.00000,   0.00301,277873824.00000,   0.00225,   0.00100,  -0.00150,  96.00000,   2.00000
434746376.75427,166089729.70358,-167339039.26592,   0.00391,   0.00091,  -0.00368,478963040.00000,   0.00302,277878368.00000,   0.00225,   0.00100,  -0.00150,  64.00000,   2.00000
435131025.76163,167398635.32381,-167209552.51453,   0.00391,   0.00091,  -0.00368,478975104.00000,   0.00302,277882944.00000,   0.00225,   0.00100,  -0.00151,  32.00000,   2.00000
435511741.20546,168703367.25613,-167079445.88242,   0.00391,   0.00092,  -0.00369,478983552.00000,   0.00303,277887520.00000,   0.00226,   0.00100,  -0.00151,   0.00000,   2.00000
435887339.60209,170015595.41977,-166950231.30625,   0.00391,   0.00092,  -0.00369,478958336.00000,   0.00303,277891968.00000,   0.00226,   0.00100,  -0.00152,   0.00000,   2.00000
436271172.81497,171346381.88183,-166813759.37700,   0.00392,   0.00093,  -0.00369,478984544.00000,   0.00304,277896512.00000,   0.00227,   0.00100,  -0.00152,   0.00000,   2.00000
436640162.30325,172665074.38557,-166682918.43397,   0.00392,   0.00093,  -0.00370,478960864.00000,   0.00304,277900896.00000,   0.00227,   0.00100,  -0.00153, 160.00000,   2.00000
437022151.71902,174003777.53263,-166541233.92602,   0.00392,   0.00094,  -0.00370,478981280.00000,   0.00304,277905376.00000,   0.00227,   0.00100,  -0.00153,   0.00000,   2.00000
437384460.16426,175329070.78463,-166408397.07261,   0.00392,   0.00094,  -0.00370,478962784.00000,   0.00305,277909760.00000,   0.00228,   0.00100,  -0.00154, -64.00000,   2.00000
437752306.38208,176669940.64346,-166269541.13096,   0.00393,   0.00095,  -0.00371,478969088.00000,   0.00305,277914112.00000,   0.00228,   0.00099,  -0.00154, -96.00000,   2.00000
438120778.62074,178024787.59195,-166127984.18125,   0.00393,   0.00095,  -0.00371,478980928.00000,   0.00306,277918528.00000,   0.00228,   0.00099,  -0.00155, -32.00000,   2.00000
438482607.02157,179372707.47604,-165986768.00243,   0.00393,   0.00096,  -0.00371,478968928.00000,   0.00306,277922848.00000,   0.00229,   0.00099,  -0.00155,-160.00000,   2.00000
438842706.89447,180731956.20636,-165844377.36004,   0.00394,   0.00096,  -0.00372,478960736.00000,   0.00306,277927136.00000,   0.00229,   0.00099,  -0.00156, -96.00000,   2.00000
439204332.04232,182088970.22926,-165697454.64270,   0.00394,   0.00097,  -0.00372,478961344.00000,   0.00307,277931424.00000,   0.00229,   0.00099,  -0.00156,  32.00000,   2.00000
439559067.45807,183455630.85165,-165552583.91060,   0.00394,   0.00097,  -0.00372,478958848.00000,   0.00307,277935648.00000,   0.00230,   0.00099,  -0.00157,  96.00000,   2.00000
439915458.67897,184820073.77980,-165403199.14457,   0.00394,   0.00098,  -0.00372,478959040.00000,   0.00308,277939904.00000,   0.00230,   0.00099,  -0.00157, -64.00000,   2.00000
440265162.11418,186194207.82308,-165255958.49992,   0.00395,   0.00098,  -0.00373,478956224.00000,   0.00308,277944096.00000,   0.00230,   0.00099,  -0.00158,   0.00000,   2.00000
440608972.00556,187561893.03186,-165109220.96370,   0.00395,   0.00099,  -0.00373,478943360.00000,   0.00308,277948224.00000,   0.00231,   0.00099,  -0.00158,  32.00000,   2.00000
440958400.53476,188945112.45024,-164956219.80288,   0.00395,   0.00099,  -0.00373,478948608.00000,   0.00309,277952384.00000,   0.00231,   0.00099,  -0.00159, 128.00000,   2.00000
441305790.83042,190339663.87319,-164801939.70536,   0.00395,   0.00100,  -0.00374,478940768.00000,   0.00309,277956480.00000,   0.00232,   0.00099,  -0.00159, -32.00000,   2.00000
441649634.69289,191730099.76626,-164646632.72993,   0.00395,   0.00100,  -0.00374,478947232.00000,   0.00310,277960576.00000,   0.00232,   0.00099,  -0.00160,  64.00000,   2.00000
441991247.19075,193131873.35323,-164490046.78909,   0.00396,   0.00101,  -0.00374,478939968.00000,   0.00310,277964640.00000,   0.00232,   0.00099,  -0.00160, -32.00000,   2.00000
442321686.37584,194525529.81653,-164337421.96592,   0.00396,   0.00101,  -0.00374,478933664.00000,   0.00310,277968640.00000,   0.00233,   0.00099,  -0.00161,  64.00000,   2.00000
442653392.32670,195916911.35880,-164180388.66242,   0.00396,   0.00102,  -0.00375,478935104.00000,   0.00311,277972640.00000,   0.00233,   0.00099,  -0.00161,  32.00000,   2.00000
442979313.77505,197333643.19023,-164025254.30176,   0.00396,   0.00102,  -0.00375,478920192.00000,   0.00311,277976544.00000,   0.00233,   0.00099,  -0.00162,  96.00000,   2.00000
443304904.18526,198732466.04564,-163865949.74066,   0.00396,   0.00103,  -0.00375,478936000.00000,   0.00312,277980512.00000,   0.00233,   0.00099,  -0.00162, -32.00000,   2.00000
443620766.03561,200139192.46213,-163710332.29224,   0.00397,   0.00104,  -0.00376,478916224.00000,   0.00312,277984352.00000,   0.00234,   0.00099,  -0.00163,  96.00000,   2.00000
443941719.35142,201561451.61742,-163548449.60946,   0.00397,   0.00104,  -0.00376,478923264.00000,   0.00312,277988224.00000,   0.00234,   0.00099,  -0.00163,   0.00000,   2.00000
444258943.61796,202979755.62448,-163385579.58843,   0.00397,   0.00105,  -0.00376,478930976.00000,   0.00313,277992096.00000,   0.00234,   0.00099,  -0.00164,  96.00000,   2.00000
444566362.71838,204406242.79075,-163226271.88894,   0.00397,   0.00105,  -0.00376,478911616.00000,   0.00313,277995872.00000,   0.00235,   0.00099,  -0.00164, -32.00000,   2.00000
444870269.03975,205828938.74046,-163065996.61453,   0.00397,   0.00106,  -0.00376,478919296.00000,   0.00313,277999648.00000,   0.00235,   0.00099,  -0.00164,   0.00000,   2.00000
445179101.41582,207267203.33848,-162899312.69669,   0.00398,   0.00106,  -0.00377,478926912.00000,   0.00314,278003456.00000,   0.00235,   0.00099,  -0.00165,   0.00000,   2.00000
445474790.36145,208696614.99250,-162738125.09827,   0.00398,   0.00107,  -0.00377,478902400.00000,   0.00314,278007136.00000,   0.00236,   0.00099,  -0.00165,   0.00000,   2.00000
445770333.34767,210139664.95201,-162573877.31924,   0.00398,   0.00108,  -0.00377,478915456.00000,   0.00314,278010816.00000,   0.00236,   0.00099,  -0.00166, -96.00000,   2.00000
446060182.18610,211577618.01576,-162410163.48452,   0.00398,   0.00108,  -0.00377,478904000.00000,   0.00315,278014464.00000,   0.00236,   0.00099,  -0.00166, 128.00000,   2.00000
446351510.75502,213013959.92127,-162241973.86719,   0.00398,   0.00109,  -0.00378,478906080.00000,   0.00315,278018080.00000,   0.00237,   0.00099,  -0.00167,  96.00000,   2.00000
446628045.35851,214457184.34469,-162080593.51609,   0.00398,   0.00109,  -0.00378,478892160.00000,   0.00315,278021632.00000,   0.00237,   0.00099,  -0.00167,   0.00000,   2.00000
446909566.06935,215916216.64341,-161912765.83171,   0.00398,   0.00110,  -0.00378,478899360.00000,   0.00316,278025184.00000,   0.00237,   0.00099,  -0.00167,   0.00000,   2.00000
447180273.54750,217368340.89426,-161748858.64349,   0.00399,   0.00111,  -0.00378,478893024.00000,   0.00316,278028704.00000,   0.00237,   0.00099,  -0.00168,  64.00000,   2.00000
447452338.57486,218818929.71954,-161580456.49180,   0.00399,   0.00111,  -0.00378,478894528.00000,   0.00316,278032224.00000,   0.00238,   0.00099,  -0.00168, -96.00000,   2.00000
447722052.34551,220282051.26851,-161410590.58943,   0.00399,   0.00112,  -0.00379,478888064.00000,   0.00317,278035680.00000,   0.00238,   0.00099,  -0.00169,  32.00000,   2.00000
447980626.27125,221738209.73825,-161244560.97120,   0.00399,   0.00112,  -0.00379,478881600.00000,   0.00317,278039072.00000,   0.00238,   0.00099,  -0.00169, -32.00000,   2.00000
448236513.22559,223206769.64349,-161076938.72487,   0.00399,   0.00113,  -0.00379,478875008.00000,   0.00317,278042464.00000,   0.00239,   0.00099,  -0.00170, -64.00000,   2.00000
448488625.65077,224671532.08374,-160908296.39397,   0.00399,   0.00114,  -0.00379,478881792.00000,   0.00318,278045824.00000,   0.00239,   0.00099,  -0.00170,  32.00000,   2.00000
448730546.38927,226145401.42702,-160742870.61687,   0.00399,   0.00114,  -0.00379,478861920.00000,   0.00318,278049120.00000,   0.00239,   0.00099,  -0.00170,  64.00000,   2.00000
448973385.53572,227617361.59852,-160572821.30085,   0.00399,   0.00115,  -0.00379,478863360.00000,   0.00318,278052416.00000,   0.00239,   0.00099,  -0.00171,  96.00000,   2.00000
449204909.90699,229082146.33652,-160406512.26559,   0.00399,   0.00115,  -0.00380,478856992.00000,   0.00319,278055648.00000,   0.00240,   0.00099,  -0.00171, -96.00000,   2.00000
449440212.48493,230561802.94967,-160233352.78854,   0.00399,   0.00116,  -0.00380,478864416.00000,   0.00319,278058880.00000,   0.00240,   0.00099,  -0.00171,  64.00000,   2.00000
449656996.15139,232031258.08035,-160068772.94292,   0.00400,   0.00117,  -0.00380,478844672.00000,   0.00319,278062048.00000,   0.00240,   0.00099,  -0.00172,   0.00000,   2.00000
449877113.91484,233515253.38831,-159897091.38906,   0.00400,   0.00117,  -0.00380,478852512.00000,   0.00320,278065216.00000,   0.00240,   0.00099,  -0.00172,  64.00000,   2.00000
450090706.53723,234994103.63355,-159725440.07957,   0.00400,   0.00118,  -0.00380,478840928.00000,   0.00320,278068320.00000,   0.00241,   0.00099,  -0.00173,  64.00000,   2.00000
450292831.94276,236465634.06908,-159557277.71106,   0.00400,   0.00119,  -0.00380,478834912.00000,   0.00320,278071392.00000,   0.00241,   0.00099,  -0.00173,   0.00000,   2.00000
450493191.84710,237949260.72784,-159385354.71941,   0.00400,   0.00119,  -0.00381,478848768.00000,   0.00321,278074496.00000,   0.00241,   0.00099,  -0.00173,   0.00000,   2.00000
450679905.36627,239425203.98836,-159218226.57490,   0.00400,   0.00120,  -0.00381,478823616.00000,   0.00321,278077504.00000,   0.00241,   0.00099,  -0.00174, -64.00000,   2.00000
450869822.96258,240915522.49770,-159043757.54795,   0.00400,   0.00121,  -0.00381,478832032.00000,   0.00321,278080512.00000,   0.00242,   0.00099,  -0.00174, -64.00000,   2.00000
451048229.38592,242398653.42859,-158872606.80970,   0.00400,   0.00121,  -0.00381,478825984.00000,   0.00321,278083488.00000,   0.00242,   0.00099,  -0.00174, -32.00000,   2.00000
451220435.75279,243877196.33372,-158701367.96019,   0.00400,   0.00122,  -0.00381,478814368.00000,   0.00322,278086400.00000,   0.00242,   0.00099,  -0.00175,  96.00000,   2.00000
451388547.77622,245367620.67684,-158527533.94621,   0.00400,   0.00123,  -0.00381,478809088.00000,   0.00322,278089280.00000,   0.00242,   0.00099,  -0.00175,   0.00000,   2.00000
451540601.09556,246848933.09190,-158360613.15763,   0.00400,   0.00123,  -0.00381,478808224.00000,   0.00322,278092128.00000,   0.00243,   0.00099,  -0.00175,   0.00000,   2.00000
451698539.46223,248330748.31886,-158185127.72151,   0.00400,   0.00124,  -0.00381,478804320.00000,   0.00322,278094976.00000,   0.00243,   0.00099,  -0.00176,  32.00000,   2.00000
451847536.28694,249822296.50558,-158010564.73301,   0.00400,   0.00125,  -0.00381,478804512.00000,   0.00323,278097792.00000,   0.00243,   0.00099,  -0.00176,  32.00000,   2.00000
451978578.21781,251305157.17069,-157844365.43987,   0.00400,   0.00125,  -0.00382,478784320.00000,   0.00323,278100512.00000,   0.00243,   0.00099,  -0.00176,  32.00000,   2.00000
452110515.84342,252786282.84187,-157673075.88157,   0.00400,   0.00126,  -0.00382,478785792.00000,   0.00323,278103232.00000,   0.00244,   0.00099,  -0.00177, -32.00000,   2.00000
452238696.29563,254279887.88581,-157499265.01796,   0.00400,   0.00127,  -0.00382,478780288.00000,   0.00324,278105920.00000,   0.00244,   0.00099,  -0.00177,   0.00000,   2.00000
452355912.68125,255767272.71928,-157328873.27797,   0.00400,   0.00127,  -0.00382,478773536.00000,   0.00324,278108576.00000,   0.00244,   0.00099,  -0.00177,   0.00000,   2.00000
452474152.09575,257253091.43788,-157153463.17626,   0.00400,   0.00128,  -0.00382,478774784.00000,   0.00324,278111200.00000,   0.00244,   0.00099,  -0.00178, 128.00000,   2.00000
452576419.63171,258746876.52703,-156983904.27714,   0.00400,   0.00129,  -0.00382,478761376.00000,   0.00324,278113792.00000,   0.00244,   0.00099,  -0.00178, -32.00000,   2.00000
452667847.65284,260234682.40185,-156817829.41970,   0.00400,   0.00129,  -0.00382,478754560.00000,   0.00325,278116320.00000,   0.00245,   0.00099,  -0.00178, 128.00000,   2.00000
452764956.17823,261723413.56856,-156643122.02165,   0.00400,   0.00130,  -0.00382,478750528.00000,   0.00325,278118816.00000,   0.00245,   0.00099,  -0.00179,   0.00000,   2.00000
452848218.20233,263219705.77212,-156472921.55727,   0.00400,   0.00131,  -0.00382,478756000.00000,   0.00325,278121344.00000,   0.00245,   0.00099,  -0.00179,  32.00000,   2.00000
452918101.42323,264710613.09573,-156307451.39776,   0.00400,   0.00131,  -0.00382,478730432.00000,   0.00325,278123744.00000,   0.00245,   0.00099,  -0.00179,   0.00000,   2.00000
452988940.67866,266200085.50141,-156137000.59114,   0.00400,   0.00132,  -0.00382,478731744.00000,   0.00325,278126144.00000,   0.00245,   0.00099,  -0.00179,  64.00000,   2.00000
453050268.14999,267699430.89789,-155967322.98912,   0.00400,   0.00133,  -0.00382,478732160.00000,   0.00326,278128544.00000,   0.00246,   0.00099,  -0.00180, -96.00000,   2.00000
453105340.30743,269195497.75498,-155797532.84018,   0.00399,   0.00133,  -0.00383,478719904.00000,   0.00326,278130880.00000,   0.00246,   0.00099,  -0.00180,   0.00000,   2.00000
453149035.72703,270685621.32317,-155631096.87174,   0.00399,   0.00134,  -0.00383,478713504.00000,   0.00326,278133152.00000,   0.00246,   0.00099,  -0.00180,   0.00000,   2.00000
453181456.98966,272169905.82246,-155468057.24763,   0.00399,   0.00135,  -0.00383,478706816.00000,   0.00326,278135424.00000,   0.00246,   0.00099,  -0.00181,  96.00000,   2.00000
453208894.05399,273666608.43677,-155302117.34183,   0.00399,   0.00135,  -0.00383,478702144.00000,   0.00327,278137632.00000,   0.00246,   0.00099,  -0.00181,   0.00000,   2.00000
453229792.96147,275160146.01325,-155135961.02332,   0.00399,   0.00136,  -0.00383,478690208.00000,   0.00327,278139808.00000,   0.00247,   0.00099,  -0.00181,   0.00000,   2.00000
453239176.44021,276647862.13722,-154973111.42202,   0.00399,   0.00137,  -0.00383,478683712.00000,   0.00327,278141952.00000,   0.00247,   0.00099,  -0.00181, -32.00000,   2.00000
453237204.97969,278129900.04799,-154813624.81809,   0.00399,   0.00138,  -0.00383,478676992.00000,   0.00327,278144032.00000,   0.00247,   0.00099,  -0.00182,  32.00000,   2.00000
453229905.94860,279624347.83426,-154651094.25107,   0.00399,   0.00138,  -0.00383,478672640.00000,   0.00327,278146112.00000,   0.00247,   0.00099,  -0.00182,   0.00000,   2.00000
453223075.09204,281117274.29476,-154483449.53860,   0.00399,   0.00139,  -0.00383,478674144.00000,   0.00328,278148160.00000,   0.00247,   0.00099,  -0.00182,  96.00000,   2.00000
453192687.23239,282600395.34035,-154327476.80845,   0.00398,   0.00140,  -0.00383,478659456.00000,   0.00328,278150176.00000,   0.00247,   0.00100,  -0.00182, -64.00000,   2.00000
453160439.05039,284083462.33305,-154167570.80899,   0.00398,   0.00140,  -0.00383,478642080.00000,   0.00328,278152096.00000,   0.00248,   0.00100,  -0.00183, -32.00000,   2.00000
453113247.15639,285573635.01997,-154011802.43157,   0.00398,   0.00141,  -0.00383,478648544.00000,   0.00328,278154016.00000,   0.00248,   0.00100,  -0.00183,  96.00000,   2.00000
453057940.29940,287045798.57005,-153858374.86412,   0.00398,   0.00142,  -0.00383,478628832.00000,   0.00328,278155872.00000,   0.00248,   0.00100,  -0.00183,  96.00000,   2.00000
453004317.30369,288531818.22175,-153696997.25093,   0.00398,   0.00143,  -0.00383,478637888.00000,   0.00328,278157728.00000,   0.00248,   0.00100,  -0.00183,  32.00000,   2.00000
452933097.74648,290026391.03547,-153540797.40714,   0.00398,   0.00143,  -0.00383,478625728.00000,   0.00329,278159552.00000,   0.00248,   0.00100,  -0.00183,   0.00000,   2.00000
452849218.40210,291500575.91980,-153390610.99648,   0.00397,   0.00144,  -0.00383,478611104.00000,   0.00329,278161312.00000,   0.00248,   0.00100,  -0.00184,  32.00000,   2.00000
452759659.28228,292987405.19261,-153237145.99715,   0.00397,   0.00145,  -0.00383,478606944.00000,   0.00329,278163040.00000,   0.00248,   0.00100,  -0.00184, -32.00000,   2.00000
452658499.65355,294469016.60386,-153086829.90623,   0.00397,   0.00145,  -0.00383,478600256.00000,   0.00329,278164736.00000,   0.00249,   0.00100,  -0.00184, -32.00000,   2.00000
452550474.51321,295948310.18655,-152936000.99446,   0.00397,   0.00146,  -0.00383,478588224.00000,   0.00329,278166368.00000,   0.00249,   0.00100,  -0.00184,   0.00000,   2.00000
452430960.31670,297422584.27000,-152788341.55418,   0.00397,   0.00147,  -0.00383,478581376.00000,   0.00329,278167968.00000,   0.00249,   0.00100,  -0.00184,  64.00000,   2.00000
452299795.40014,298891798.83823,-152643774.71450,   0.00396,   0.00148,  -0.00383,478574656.00000,   0.00330,278169536.00000,   0.00249,   0.00100,  -0.00185, 128.00000,   2.00000
452162606.21841,300373683.80201,-152495742.02460,   0.00396,   0.00148,  -0.00383,478570720.00000,   0.00330,278171104.00000,   0.00249,   0.00100,  -0.00185,   0.00000,   2.00000
452012991.90530,301835932.03956,-152353722.36859,   0.00396,   0.00149,  -0.00383,478555808.00000,   0.00330,278172576.00000,   0.00249,   0.00100,  -0.00185,  32.00000,   2.00000
451857276.58952,303310922.46908,-152208185.61433,   0.00396,   0.00150,  -0.00383,478551904.00000,   0.00330,278174048.00000,   0.00249,   0.00100,  -0.00185, -96.00000,   2.00000
451689899.25162,304781083.42001,-152065698.11902,   0.00395,   0.00151,  -0.00383,478545056.00000,   0.00330,278175456.00000,   0.00249,   0.00100,  -0.00185,   0.00000,   2.00000
451510977.93547,306246551.45348,-151926293.53912,   0.00395,   0.00151,  -0.00383,478538080.00000,   0.00330,278176864.00000,   0.00249,   0.00100,  -0.00185, -32.00000,   2.00000
451318607.56757,307724167.44211,-151788018.42946,   0.00395,   0.00152,  -0.00383,478520928.00000,   0.00330,278178176.00000,   0.00250,   0.00100,  -0.00186,  32.00000,   2.00000
451121094.75459,309183280.19328,-151650994.73365,   0.00395,   0.00153,  -0.00383,478518944.00000,   0.00331,278179488.00000,   0.00250,   0.00100,  -0.00186,  32.00000,   2.00000
450905326.05870,310651681.24581,-151518711.70718,   0.00394,   0.00153,  -0.00383,478506976.00000,   0.00331,278180736.00000,   0.00250,   0.00100,  -0.00186, -96.00000,   2.00000
450682755.52692,312118705.23699,-151385814.17354,   0.00394,   0.00154,  -0.00383,478494528.00000,   0.00331,278181952.00000,   0.00250,   0.00100,  -0.00186,  32.00000,   2.00000
450455739.19186,313581763.85414,-151251182.09548,   0.00394,   0.00155,  -0.00383,478500928.00000,   0.00331,278183168.00000,   0.00250,   0.00100,  -0.00186, 128.00000,   2.00000
450209623.11195,315039852.46316,-151124177.56623,   0.00393,   0.00156,  -0.00383,478480480.00000,   0.00331,278184288.00000,   0.00250,   0.00100,  -0.00186,   0.00000,   2.00000
449956653.44649,316496771.58198,-150996520.98576,   0.00393,   0.00156,  -0.00383,478468128.00000,   0.00331,278185376.00000,   0.00250,   0.00100,  -0.00187,  64.00000,   2.00000
449691844.45872,317949329.01408,-150871772.01501,   0.00393,   0.00157,  -0.00383,478461056.00000,   0.00331,278186432.00000,   0.00250,   0.00100,  -0.00187,  64.00000,   2.00000
449419965.50824,319400733.78483,-150746281.55433,   0.00392,   0.00158,  -0.00383,478448640.00000,   0.00331,278187424.00000,   0.00250,   0.00100,  -0.00187,  32.00000,   2.00000
449128306.67841,320860975.04925,-150624902.74900,   0.00392,   0.00159,  -0.00383,478437056.00000,   0.00331,278188384.00000,   0.00250,   0.00100,  -0.00187,-896.00000,   1.00000
448833461.35705,322304410.80313,-150505494.53275,   0.00392,   0.00159,  -0.00383,478433600.00000,   0.00332,278189312.00000,   0.00250,   0.00100,  -0.00187,  64.00000,   2.00000
448517734.21746,323756068.10587,-150389763.77999,   0.00391,   0.00160,  -0.00383,478423168.00000,   0.00332,278190208.00000,   0.00251,   0.00100,  -0.00187,-960.00000,   1.00000
448195496.45383,325207251.35918,-150273505.95682,   0.00391,   0.00161,  -0.00383,478410048.00000,   0.00332,278191040.00000,   0.00251,   0.00100,  -0.00187,-896.00000,   1.00000
447868198.25956,326640493.18182,-150158483.61772,   0.00391,   0.00162,  -0.00383,478407488.00000,   0.00332,278191872.00000,   0.00251,   0.00100,  -0.00187,-832.00000,   1.00000
447521417.84216,328083113.62715,-150047689.82290,   0.00390,   0.00162,  -0.00382,478396448.00000,   0.00332,278192672.00000,   0.00251,   0.00100,  -0.00187,-800.00000,   1.00000
447159474.31168,329524600.41328,-149940550.10444,   0.00390,   0.00163,  -0.00382,478371360.00000,   0.00332,278193344.00000,   0.00251,   0.00100,  -0.00187,-704.00000,   1.00000
446787602.48699,330958472.51314,-149835004.02423,   0.00390,   0.00164,  -0.00382,478383264.00000,   0.00332,278194048.00000,   0.00251,   0.00100,  -0.00188,-736.00000,   1.00000
446412764.43650,332394759.77197,-149724817.60336,   0.00389,   0.00165,  -0.00382,478365952.00000,   0.00332,278194720.00000,   0.00251,   0.00100,  -0.00188,-672.00000,   1.00000
446012995.44371,333823451.93690,-149625492.30310,   0.00389,   0.00165,  -0.00382,478351552.00000,   0.00332,278195296.00000,   0.00251,   0.00100,  -0.00188,-576.00000,   1.00000
445605168.18108,335251216.42612,-149525047.72406,   0.00388,   0.00166,  -0.00382,478339744.00000,   0.00332,278195872.00000,   0.00251,   0.00100,  -0.00188,-512.00000,   1.00000
445184375.67516,336688041.78829,-149423822.32731,   0.00388,   0.00167,  -0.00382,478342656.00000,   0.00332,278196416.00000,   0.00251,   0.00100,  -0.00188,-544.00000,   1.00000
444750824.93675,338107342.71625,-149328403.42287,   0.00387,   0.00168,  -0.00382,478326784.00000,   0.00332,278196896.00000,   0.00251,   0.00100,  -0.00188,-640.00000,   1.00000
444296935.15205,339522776.65848,-149240152.04018,   0.00387,   0.00168,  -0.00382,478306944.00000,   0.00332,278197312.00000,   0.00251,   0.00101,  -0.00188,-384.00000,   1.00000
443842065.57976,340950333.19301,-149142730.47099,   0.00387,   0.00169,  -0.00382,478317888.00000,   0.00332,278197792.00000,   0.00251,   0.00101,  -0.00188,-288.00000,   1.00000
443366754.52553,342360908.99998,-149055702.62754,   0.00386,   0.00170,  -0.00382,478288800.00000,   0.00332,278198112.00000,   0.00251,   0.00101,  -0.00188,-320.00000,   1.00000
442878440.94218,343767486.48952,-148971145.69405,   0.00386,   0.00171,  -0.00382,478282144.00000,   0.00332,278198432.00000,   0.00251,   0.00101,  -0.00188,-352.00000,   1.00000
442381320.49754,345186402.67925,-148881941.68920,   0.00385,   0.00171,  -0.00382,478280064.00000,   0.00332,278198752.00000,   0.00251,   0.00101,  -0.00188,-416.00000,   1.00000
441867007.46778,346585159.33613,-148802337.45958,   0.00385,   0.00172,  -0.00382,478268768.00000,   0.00332,278199008.00000,   0.00251,   0.00101,  -0.00188,-224.00000,   1.00000
441336396.98146,347983828.34314,-148726005.50455,   0.00384,   0.00173,  -0.00382,478243904.00000,   0.00332,278199168.00000,   0.00251,   0.00101,  -0.00188,-160.00000,   1.00000
440792172.02076,349391397.93228,-148648652.66497,   0.00384,   0.00174,  -0.00381,478247040.00000,   0.00332,278199360.00000,   0.00251,   0.00101,  -0.00188,-224.00000,   1.00000
440239888.60854,350786020.42816,-148573477.56077,   0.00383,   0.00174,  -0.00381,478225184.00000,   0.00332,278199456.00000,   0.00251,   0.00101,  -0.00188, -32.00000,   1.00000
439669316.38071,352186027.36489,-148500956.17543,   0.00383,   0.00175,  -0.00381,478233536.00000,   0.00332,278199584.00000,   0.00251,   0.00101,  -0.00188,-128.00000,   1.00000
439081927.86044,353573146.73438,-148434771.55343,   0.00382,   0.00176,  -0.00381,478198528.00000,   0.00332,278199584.00000,   0.00251,   0.00101,  -0.00188,-1056.00000,   0.00000
438788233.60030,354266706.41912,-148401679.24243,   0.00382,   0.00176,  -0.00381,478200480.00000,   0.00332,278199584.00000,   0.00251,   0.00101,  -0.00188, 896.00000,   0.00000
438490848.58340,354957414.14655,-148367132.11833,   0.00382,   0.00177,  -0.00381,478200480.00000,   0.00332,278199584.00000,   0.00251,   0.00101,  -0.00188,   0.00000,   1.00000
437873125.44470,356347291.20861,-148300947.49633,   0.00381,   0.00177,  -0.00381,478195040.00000,   0.00332,278199584.00000,   0.00251,   0.00101,  -0.00188,-4544.00000,   0.00000
437227825.38017,357709591.34484,-148234762.87433,   0.00380,   0.00178,  -0.00381,478173504.00000,   0.00332,278199584.00000,   0.00251,   0.00101,  -0.00188,-26080.00000,   0.00000
436543917.61947,359055345.32557,-148168578.25233,   0.00380,   0.00179,  -0.00381,478132256.00000,   0.00332,278199584.00000,   0.00251,   0.00101,  -0.00188,-67328.00000,   0.00000
435848979.08844,360412130.07663,-148096878.24516,   0.00379,   0.00180,  -0.00381,478089376.00000,   0.00332,278199584.00000,   0.00251,   0.00101,  -0.00188,-110208.00000,   0.00000
435126463.63157,361741337.90186,-148025178.23799,   0.00379,   0.00180,  -0.00381,478029792.00000,   0.00332,278199584.00000,   0.00251,   0.00101,  -0.00188,-169792.00000,   0.00000
434384644.32662,363062272.64934,-147953478.23082,   0.00378,   0.00181,  -0.00381,477963520.00000,   0.00332,278199584.00000,   0.00251,   0.00101,  -0.00188,-236064.00000,   0.00000
433623521.17359,364374934.31907,-147881778.22365,   0.00377,   0.00182,  -0.00380,477890880.00000,   0.00332,278199584.00000,   0.00251,   0.00101,  -0.00188,-308704.00000,   0.00000
432823790.32438,365671049.83329,-147810078.21648,   0.00377,   0.00183,  -0.00380,477799264.00000,   0.00332,278199584.00000,   0.00251,   0.00101,  -0.00188,-400320.00000,   0.00000
432004755.62710,366958892.26977,-147738378.20931,   0.00376,   0.00183,  -0.00380,477701664.00000,   0.00332,278199584.00000,   0.00251,   0.00101,  -0.00188,-497920.00000,   0.00000
431166417.08172,368238461.62850,-147661162.81697,   0.00376,   0.00184,  -0.00380,477593056.00000,   0.00332,278199584.00000,   0.00251,   0.00101,  -0.00188,-606528.00000,   0.00000
430289470.84018,369501484.83172,-147589462.80980,   0.00375,   0.00185,  -0.00380,477471296.00000,   0.00332,278199584.00000,   0.00251,   0.00101,  -0.00188,-728288.00000,   0.00000
429393220.75056,370756234.95720,-147512247.41746,   0.00374,   0.00186,  -0.00380,477339392.00000,   0.00332,278199584.00000,   0.00251,   0.00101,  -0.00188,-860192.00000,   0.00000
428469393.73510,371983408.15684,-147435032.02512,   0.00374,   0.00186,  -0.00380,477192032.00000,   0.00332,278199584.00000,   0.00251,   0.00101,  -0.00188,-1007552.00000,   0.00000
427534535.94930,373221612.12681,-147357816.63279,   0.00373,   0.00187,  -0.00380,477050784.00000,   0.00332,278199584.00000,   0.00251,   0.00101,  -0.00188,-1148800.00000,   0.00000
426552797.38959,374423966.09320,-147280601.24045,   0.00372,   0.00188,  -0.00380,476882400.00000,   0.00332,278199584.00000,   0.00251,   0.00101,  -0.00188,-1317184.00000,   0.00000
425560028.05955,375637350.82992,-147203385.84811,   0.00372,   0.00189,  -0.00380,476720960.00000,   0.00332,278199584.00000,   0.00251,   0.00101,  -0.00188,-1478624.00000,   0.00000
424539681.80367,376823158.64081,-147126170.45578,   0.00371,   0.00189,  -0.00379,476545504.00000,   0.00332,278199584.00000,   0.00251,   0.00101,  -0.00188,-1654080.00000,   0.00000
423480727.85162,377992420.29620,-147048955.06344,   0.00370,   0.00190,  -0.00379,476354208.00000,   0.00332,278199584.00000,   0.00251,   0.00101,  -0.00188,-1845376.00000,   0.00000
422402470.05148,379153408.87384,-146966224.28594,   0.00369,   0.00191,  -0.00379,476154304.00000,   0.00332,278199584.00000,   0.00251,   0.00101,  -0.00188,-2045280.00000,   0.00000
421304908.40327,380306124.37372,-146889008.89360,   0.00369,   0.00191,  -0.00379,475956128.00000,   0.00332,278199584.00000,   0.00251,   0.00101,  -0.00188,-2243456.00000,   0.00000
420168739.05888,381442293.71811,-146806278.11610,   0.00368,   0.00192,  -0.00379,475736832.00000,   0.00332,278199584.00000,   0.00251,   0.00101,  -0.00188,-2462752.00000,   0.00000
419013265.86641,382570189.98475,-146729062.72376,   0.00367,   0.00193,  -0.00379,475518688.00000,   0.00332,278199584.00000,   0.00251,   0.00101,  -0.00188,-2680896.00000,   0.00000
417838488.82585,383689813.17363,-146646331.94625,   0.00367,   0.00194,  -0.00379,475291808.00000,   0.00332,278199584.00000,   0.00251,   0.00101,  -0.00188,-2907776.00000,   0.00000
416636134.85946,384781859.43668,-146563601.16875,   0.00366,   0.00194,  -0.00379,475050144.00000,   0.00332,278199584.00000,   0.00251,   0.00101,  -0.00188,-3149440.00000,   0.00000
415403446.27466,385876663.39232,-146486385.77641,   0.00365,   0.00195,  -0.00379,474809056.00000,   0.00332,278199584.00000,   0.00251,   0.00101,  -0.00188,-3390528.00000,   0.00000
414143180.76402,386943890.42212,-146403654.99891,   0.00364,   0.00196,  -0.00379,474548640.00000,   0.00332,278199584.00000,   0.00251,   0.00101,  -0.00188,-3650944.00000,   0.00000
412844307.55721,387994571.29641,-146320924.22141,   0.00363,   0.00197,  -0.00378,474273152.00000,   0.00332,278199584.00000,   0.00251,   0.00101,  -0.00188,-3926432.00000,   0.00000
411526130.50231,389036979.09296,-146238193.44390,   0.00363,   0.00197,  -0.00378,473994816.00000,   0.00332,278199584.00000,   0.00251,   0.00101,  -0.00188,-4204768.00000,   0.00000
410188649.59933,390071113.81176,-146155462.66640,   0.00362,   0.00198,  -0.00378,473713600.00000,   0.00332,278199584.00000,   0.00251,   0.00101,  -0.00188,-4485984.00000,   0.00000
408812561.00018,391088702.37506,-146072731.88889,   0.00361,   0.00199,  -0.00378,473417760.00000,   0.00332,278199584.00000,   0.00251,   0.00101,  -0.00188,-4781824.00000,   0.00000
407408895.47520,392078714.01252,-145995516.49656,   0.00360,   0.00200,  -0.00378,473112640.00000,   0.00332,278199584.00000,   0.00251,   0.00101,  -0.00188,-5086944.00000,   0.00000
405994199.17989,393079756.42032,-145912785.71905,   0.00359,   0.00200,  -0.00378,472810848.00000,   0.00332,278199584.00000,   0.00251,   0.00101,  -0.00188,-5388736.00000,   0.00000
404551925.95874,394053221.90228,-145830054.94155,   0.00358,   0.00201,  -0.00378,472494400.00000,   0.00332,278199584.00000,   0.00251,   0.00101,  -0.00188,-5705184.00000,   0.00000
403071045.04142,395010141.22874,-145747324.16405,   0.00358,   0.00202,  -0.00378,472162976.00000,   0.00332,278199584.00000,   0.00251,   0.00101,  -0.00188,-6036608.00000,   0.00000
401551556.42793,395950514.39970,-145664593.38654,   0.00357,   0.00202,  -0.00378,471816608.00000,   0.00332,278199584.00000,   0.00251,   0.00101,  -0.00188,-6382976.00000,   0.00000
400023794.73669,396871583.72258,-145581862.60904,   0.00356,   0.00203,  -0.00377,471467168.00000,   0.00332,278199584.00000,   0.00251,   0.00101,  -0.00188,-6732416.00000,   0.00000
398465698.42704,397795410.73804,-145499131.83153,   0.00355,   0.00204,  -0.00377,471114304.00000,   0.00332,278199584.00000,   0.00251,   0.00101,  -0.00188,-7085280.00000,   0.00000
396860721.34346,398683387.74991,-145421916.43920,   0.00354,   0.00205,  -0.00377,470739968.00000,   0.00332,278199584.00000,   0.00251,   0.00101,  -0.00188,-7459616.00000,   0.00000
395236440.41180,399563091.68404,-145339185.66169,   0.00353,   0.00205,  -0.00377,470357632.00000,   0.00332,278199584.00000,   0.00251,   0.00101,  -0.00188,-7841952.00000,   0.00000
393592855.63206,400434522.54041,-145256454.88419,   0.00352,   0.00206,  -0.00377,469972480.00000,   0.00332,278199584.00000,   0.00251,   0.00101,  -0.00188,-8227104.00000,   0.00000
391929967.00423,401297680.31903,-145179239.49185,   0.00351,   0.00207,  -0.00377,469589632.00000,   0.00332,278199584.00000,   0.00251,   0.00101,  -0.00188,-8609952.00000,   0.00000
390228470.68024,402144291.94216,-145096508.71435,   0.00350,   0.00207,  -0.00377,469187872.00000,   0.00332,278199584.00000,   0.00251,   0.00101,  -0.00188,-9011712.00000,   0.00000
388480093.58232,402955053.56169,-145019293.32201,   0.00349,   0.00208,  -0.00377,468765440.00000,   0.00332,278199584.00000,   0.00251,   0.00101,  -0.00188,-9434144.00000,   0.00000
386731716.48441,403765815.18123,-144936562.54451,   0.00348,   0.00209,  -0.00377,468347616.00000,   0.00332,278199584.00000,   0.00251,   0.00101,  -0.00188,-9851968.00000,   0.00000
384944731.69032,404560030.64527,-144859347.15217,   0.00347,   0.00210,  -0.00377,467921696.00000,   0.00332,278199584.00000,   0.00251,   0.00101,  -0.00188,-10277888.00000,   0.00000
383119139.20007,405337699.95380,-144782131.75983,   0.00346,   0.00210,  -0.00376,467483136.00000,   0.00332,278199584.00000,   0.00251,   0.00101,  -0.00188,-10716448.00000,   0.00000
381274242.86174,406107096.18459,-144704916.36750,   0.00345,   0.00211,  -0.00376,467043456.00000,   0.00332,278199584.00000,   0.00251,   0.00101,  -0.00188,-11156128.00000,   0.00000
379401769.59757,406848915.48954,-144627700.97516,   0.00344,   0.00212,  -0.00376,466590848.00000,   0.00332,278199584.00000,   0.00251,   0.00101,  -0.00188,-11608736.00000,   0.00000
377509992.48531,407582461.71674,-144550485.58282,   0.00343,   0.00212,  -0.00376,466137440.00000,   0.00332,278199584.00000,   0.00251,   0.00101,  -0.00188,-12062144.00000,   0.00000
375560303.82880,408291188.71069,-144473270.19049,   0.00342,   0.00213,  -0.00376,465661024.00000,   0.00332,278199584.00000,   0.00251,   0.00101,  -0.00188,-12538560.00000,   0.00000
373610615.17230,408999915.70464,-144396054.79815,   0.00341,   0.00214,  -0.00376,465195584.00000,   0.00332,278199584.00000,   0.00251,   0.00101,  -0.00188,-13004000.00000,   0.00000
371614045.74187,409672792.69501,-144318839.40581,   0.00340,   0.00215,  -0.00376,464706208.00000,   0.00332,278199584.00000,   0.00251,   0.00101,  -0.00188,-13493376.00000,   0.00000
369598172.46336,410337396.60762,-144247139.39864,   0.00339,   0.00215,  -0.00376,464221728.00000,   0.00332,278199584.00000,   0.00251,   0.00101,  -0.00188,-13977856.00000,   0.00000
367543691.48868,410985454.36473,-144175439.39147,   0.00338,   0.00216,  -0.00376,463725856.00000,   0.00332,278199584.00000,   0.00251,   0.00101,  -0.00188,-14473728.00000,   0.00000
365469906.66592,411625239.04410,-144098223.99914,   0.00337,   0.00217,  -0.00376,463224448.00000,   0.00332,278199584.00000,   0.00251,   0.00101,  -0.00188,-14975136.00000,   0.00000
363368544.91732,412237446.79763,-144026523.99197,   0.00336,   0.00217,  -0.00375,462714944.00000,   0.00332,278199584.00000,   0.00251,   0.00101,  -0.00188,-15484640.00000,   0.00000
361236848.55031,412852412.24374,-143954823.98480,   0.00335,   0.00218,  -0.00375,462206528.00000,   0.00332,278199584.00000,   0.00251,   0.00101,  -0.00188,-15993056.00000,   0.00000
359077575.25745,413439800.76401,-143888639.36279,   0.00334,   0.00219,  -0.00375,461689568.00000,   0.00332,278199584.00000,   0.00251,   0.00101,  -0.00188,-16510016.00000,   0.00000
356871421.19069,413991339.28071,-143816939.35562,   0.00333,   0.00219,  -0.00375,461141856.00000,   0.00332,278199584.00000,   0.00251,   0.00101,  -0.00188,-17057728.00000,   0.00000
354654236.35358,414553908.56773,-143750754.73362,   0.00332,   0.00220,  -0.00375,460611168.00000,   0.00332,278199584.00000,   0.00251,   0.00101,  -0.00188,-17588416.00000,   0.00000
352390170.74256,415080627.85117,-143679054.72645,   0.00331,   0.00221,  -0.00375,460049152.00000,   0.00332,278199584.00000,   0.00251,   0.00101,  -0.00188,-18150432.00000,   0.00000
350106801.28345,415599074.05687,-143612870.10445,   0.00329,   0.00221,  -0.00375,459490688.00000,   0.00332,278199584.00000,   0.00251,   0.00101,  -0.00188,-18708896.00000,   0.00000
