# sigma_xx, sigma_yy, sigma_xy, epsilon_xx, epsilon_yy, epsilon_xy, vonMises, epsPlastic, hardening, epsilonP__xx, epsilonP__yy, epsilonP__xy, yieldValue, iteration
   0.00000,   0.00000,   0.00000,   0.00000,   0.00000,   0.00000,   0.00000,   0.00000,274640135.82653,   0.00000,   0.00000,   0.00000,-474640135.82653,   0.00000
   0.00000,   0.00000,   0.00000,   0.00000,   0.00000,   0.00000,   0.00000,   0.00000,274640135.82653,   0.00000,   0.00000,   0.00000,-474640135.82653,   0.00000
-1200213.91154,-1017902.93764,704935.76577,  -0.00000,  -0.00000,   0.00001,1657028.02002,   0.00000,274640135.82653,   0.00000,   0.00000,   0.00000,-472983107.80651,   0.00000
-2409543.37178,-2057075.48890,1409871.53153,  -0.00001,  -0.00000,   0.00002,3323260.36059,   0.00000,274640135.82653,   0.00000,   0.00000,   0.00000,-471316875.46594,   0.00000
-3618872.83202,-3096248.04016,2102653.23237,  -0.00001,  -0.00001,   0.00003,4974084.48195,   0.00000,274640135.82653,   0.00000,   0.00000,   0.00000,-469666051.34458,   0.00000
-4816048.22733,-4147574.65634,2795434.93321,  -0.00001,  -0.00001,   0.00004,6623076.76869,   0.00000,274640135.82653,   0.00000,   0.00000,   0.00000,-468017059.05784,   0.00000
-6043608.78496,-5229286.43485,3488216.63405,  -0.00002,  -0.00001,   0.00005,8292758.78010,   0.00000,274640135.82653,   0.00000,   0.00000,   0.00000,-466347377.04643,   0.00000
-7259015.27766,-6323152.27828,4168844.26997,  -0.00002,  -0.00001,   0.00005,9945525.93814,   0.00000,274640135.82653,   0.00000,   0.00000,   0.00000,-464694609.88839,   0.00000
-8474421.77036,-7417018.12171,4855548.93834,  -0.00002,  -0.00002,   0.00006,11606123.76273,   0.00000,274640135.82653,   0.00000,   0.00000,   0.00000,-463034012.06380,   0.00000
-9720213.42538,-8541269.12746,5530099.54179,  -0.00003,  -0.00002,   0.00007,13272485.49920,   0.00000,274640135.82653,   0.00000,   0.00000,   0.00000,-461367650.32733,   0.00000
-10953851.01547,-9677674.19814,6204650.14524,  -0.00003,  -0.00002,   0.00008,14937519.16773,   0.00000,274640135.82653,   0.00000,   0.00000,   0.00000,-459702616.65880,   0.00000
-12166218.99194,-10804963.72012,6873123.71623,  -0.00003,  -0.00003,   0.00009,16583969.95866,   0.00000,274640135.82653,   0.00000,   0.00000,   0.00000,-458056165.86787,   0.00000
-13408972.13073,-11962638.40441,7535520.25475,  -0.00004,  -0.00003,   0.00010,18244198.05724,   0.00000,274640135.82653,   0.00000,   0.00000,   0.00000,-456395937.76929,   0.00000
-14660840.81821,-13141582.70233,8191839.76081,  -0.00004,  -0.00003,   0.00011,19907122.17577,   0.00000,274640135.82653,   0.00000,   0.00000,   0.00000,-454733013.65075,   0.00000
-15912709.50569,-14320527.00026,8848159.26687,  -0.00004,  -0.00003,   0.00012,21570424.16110,   0.00000,274640135.82653,   0.00000,   0.00000,   0.00000,-453069711.66543,   0.00000
-17152424.12825,-15511625.36310,9504478.77293,  -0.00005,  -0.00004,   0.00012,23232725.79723,   0.00000,274640135.82653,   0.00000,   0.00000,   0.00000,-451407410.02930,   0.00000
-18401254.29950,-16723993.33957,10148644.21406,  -0.00005,  -0.00004,   0.00013,24890572.44868,   0.00000,274640135.82653,   0.00000,   0.00000,   0.00000,-449749563.37785,   0.00000
-19680469.63307,-17966746.47836,10792809.65519,  -0.00005,  -0.00004,   0.00014,26570379.67894,   0.00000,274640135.82653,   0.00000,   0.00000,   0.00000,-448069756.14759,   0.00000
-20938415.35301,-19200384.06845,11430898.06386,  -0.00006,  -0.00005,   0.00015,28231943.98102,   0.00000,274640135.82653,   0.00000,   0.00000,   0.00000,-446408191.84551,   0.00000
-22205476.62166,-20455291.27217,12062909.44006,  -0.00006,  -0.00005,   0.00016,29896889.35940,   0.00000,274640135.82653,   0.00000,   0.00000,   0.00000,-444743246.46713,   0.00000
-23481653.43899,-21731468.08950,12694920.81627,  -0.00006,  -0.00005,   0.00017,31572725.48814,   0.00000,274640135.82653,   0.00000,   0.00000,   0.00000,-443067410.33839,   0.00000
-24757830.25633,-23007644.90684,13320855.16001,  -0.00007,  -0.00006,   0.00017,33241811.96236,   0.00000,274640135.82653,   0.00000,   0.00000,   0.00000,-441398323.86417,   0.00000
-26043122.62236,-24305091.33780,13940712.47129,  -0.00007,  -0.00006,   0.00018,34914633.31363,   0.00000,274640135.82653,   0.00000,   0.00000,   0.00000,-439725502.51290,   0.00000
-27316260.92347,-25614691.83368,14560569.78256,  -0.00007,  -0.00006,   0.00019,36587204.32267,   0.00000,274640135.82653,   0.00000,   0.00000,   0.00000,-438052931.50386,   0.00000
-28619784.38689,-26954677.49189,15174350.06138,  -0.00008,  -0.00007,   0.00020,38275218.33202,   0.00000,274640135.82653,   0.00000,   0.00000,   0.00000,-436364917.49451,   0.00000
-29923307.85031,-28294663.15009,15782053.30773,  -0.00008,  -0.00007,   0.00021,39956751.86179,   0.00000,274640135.82653,   0.00000,   0.00000,   0.00000,-434683383.96474,   0.00000
-31214677.24881,-29646802.87322,16389756.55408,  -0.00008,  -0.00007,   0.00021,41638275.33544,   0.00000,274640135.82653,   0.00000,   0.00000,   0.00000,-433001860.49109,   0.00000
-32515162.19600,-31020212.20997,16985305.73550,  -0.00009,  -0.00008,   0.00022,43317016.74409,   0.00000,274640135.82653,   0.00000,   0.00000,   0.00000,-431323119.08244,   0.00000
-33846032.30550,-32424006.70904,17580854.91693,  -0.00009,  -0.00008,   0.00023,45018946.16909,   0.00000,274640135.82653,   0.00000,   0.00000,   0.00000,-429621189.65744,   0.00000
-35155632.80139,-33818685.65942,18176404.09835,  -0.00009,  -0.00009,   0.00024,46710274.24848,   0.00000,274640135.82653,   0.00000,   0.00000,   0.00000,-427929861.57805,   0.00000
-36474348.84597,-35234634.22342,18759799.21485,  -0.00010,  -0.00009,   0.00024,48399250.32699,   0.00000,274640135.82653,   0.00000,   0.00000,   0.00000,-426240885.49954,   0.00000
-37802180.43925,-36671852.40104,19343194.33134,  -0.00010,  -0.00009,   0.00025,50100210.81592,   0.00000,274640135.82653,   0.00000,   0.00000,   0.00000,-424539925.01061,   0.00000
-39130012.03252,-38109070.57866,19926589.44784,  -0.00010,  -0.00010,   0.00026,51802100.46718,   0.00000,274640135.82653,   0.00000,   0.00000,   0.00000,-422838035.35935,   0.00000
-40466959.17450,-39567558.36990,20497830.49941,  -0.00011,  -0.00010,   0.00027,53502064.04004,   0.00000,274640135.82653,   0.00000,   0.00000,   0.00000,-421138071.78649,   0.00000
-41813021.86516,-41047315.77476,21069071.55098,  -0.00011,  -0.00011,   0.00027,55214273.02677,   0.00000,274640135.82653,   0.00000,   0.00000,   0.00000,-419425862.79976,   0.00000
-43168200.10452,-42548342.79325,21634235.57009,  -0.00011,  -0.00011,   0.00028,56931889.52606,   0.00000,274640135.82653,   0.00000,   0.00000,   0.00000,-417708246.30047,   0.00000
-44502108.73026,-44040254.26304,22193322.55673,  -0.00012,  -0.00011,   0.00029,58632142.98994,   0.00000,274640135.82653,   0.00000,   0.00000,   0.00000,-416007992.83659,   0.00000
-45875518.06702,-45583820.50877,22752409.54337,  -0.00012,  -0.00012,   0.00030,60367896.17725,   0.00000,274640135.82653,   0.00000,   0.00000,   0.00000,-414272239.64928,   0.00000
-47218542.24145,-47097001.59218,23305419.49755,  -0.00012,  -0.00012,   0.00030,62074908.49873,   0.00000,274640135.82653,   0.00000,   0.00000,   0.00000,-412565227.32780,   0.00000
-48601067.12690,-48661837.45154,23852352.41927,  -0.00013,  -0.00013,   0.00031,63810853.85208,   0.00000,274640135.82653,   0.00000,   0.00000,   0.00000,-410829281.97445,   0.00000
-49971437.94742,-50238827.37582,24399285.34098,  -0.00013,  -0.00013,   0.00032,65548099.26550,   0.00000,274640135.82653,   0.00000,   0.00000,   0.00000,-409092036.56103,   0.00000
-51363078.38156,-51824932.84879,24934064.19777,  -0.00013,  -0.00014,   0.00032,67284649.58545,   0.00000,274640135.82653,   0.00000,   0.00000,   0.00000,-407355486.24108,   0.00000
-52742564.75078,-53423192.38669,25468843.05456,  -0.00014,  -0.00014,   0.00033,69022643.65584,   0.00000,274640135.82653,   0.00000,   0.00000,   0.00000,-405617492.17069,   0.00000
-54122051.12000,-55021451.92460,26003621.91135,  -0.00014,  -0.00014,   0.00034,70761909.33752,   0.00000,274640135.82653,   0.00000,   0.00000,   0.00000,-403878226.48901,   0.00000
-55541038.20023,-56671366.23844,26526246.70321,  -0.00014,  -0.00015,   0.00034,72524405.89940,   0.00000,274640135.82653,   0.00000,   0.00000,   0.00000,-402115729.92713,   0.00000
-56938755.66683,-58312165.00359,27048871.49507,  -0.00015,  -0.00015,   0.00035,74276730.65113,   0.00000,274640135.82653,   0.00000,   0.00000,   0.00000,-400363405.17540,   0.00000
-58345588.68213,-59974233.38235,27571496.28693,  -0.00015,  -0.00016,   0.00036,76042400.39947,   0.00000,274640135.82653,   0.00000,   0.00000,   0.00000,-398597735.42706,   0.00000
-59752421.69744,-61636301.76112,28081967.01387,  -0.00015,  -0.00016,   0.00037,77796258.99039,   0.00000,274640135.82653,   0.00000,   0.00000,   0.00000,-396843876.83614,   0.00000
-61177485.81013,-63340909.36714,28592437.74080,  -0.00015,  -0.00017,   0.00037,79575753.04941,   0.00000,274640135.82653,   0.00000,   0.00000,   0.00000,-395064382.77712,   0.00000
-62602549.92282,-65045516.97315,29096831.43527,  -0.00016,  -0.00017,   0.00038,81350231.16313,   0.00000,274640135.82653,   0.00000,   0.00000,   0.00000,-393289904.66340,   0.00000
-64036729.58421,-66771394.19279,29595148.09728,  -0.00016,  -0.00018,   0.00038,83131934.15954,   0.00000,274640135.82653,   0.00000,   0.00000,   0.00000,-391508201.66699,   0.00000
-65470909.24560,-68497271.41242,30093464.75929,  -0.00016,  -0.00018,   0.00039,84915177.51165,   0.00000,274640135.82653,   0.00000,   0.00000,   0.00000,-389724958.31488,   0.00000
-66923320.00438,-70265687.85930,30585704.38883,  -0.00017,  -0.00019,   0.00040,86718166.92998,   0.00000,274640135.82653,   0.00000,   0.00000,   0.00000,-387921968.89654,   0.00000
-68375730.76315,-72034104.30619,31071866.98591,  -0.00017,  -0.00019,   0.00040,88516388.15923,   0.00000,274640135.82653,   0.00000,   0.00000,   0.00000,-386123747.66730,   0.00000
-69815987.45700,-73814674.81799,31558029.58299,  -0.00017,  -0.00020,   0.00041,90317006.18007,   0.00000,274640135.82653,   0.00000,   0.00000,   0.00000,-384323129.64646,   0.00000
-71277513.76448,-75604360.87850,32032038.11515,  -0.00018,  -0.00021,   0.00042,92118222.28284,   0.00000,274640135.82653,   0.00000,   0.00000,   0.00000,-382521913.54369,   0.00000
-72757271.16934,-77436586.16624,32506046.64730,  -0.00018,  -0.00021,   0.00042,93946260.66468,   0.00000,274640135.82653,   0.00000,   0.00000,   0.00000,-380693875.16185,   0.00000
-74237028.57421,-79268811.45399,32980055.17945,  -0.00018,  -0.00022,   0.00043,95776051.17576,   0.00000,274640135.82653,   0.00000,   0.00000,   0.00000,-378864084.65077,   0.00000
-75704631.91414,-81113190.80667,33447986.67914,  -0.00019,  -0.00022,   0.00043,97602255.10386,   0.00000,274640135.82653,   0.00000,   0.00000,   0.00000,-377037880.72267,   0.00000
-77202620.41640,-82987955.32166,33909841.14637,  -0.00019,  -0.00023,   0.00044,99448427.30538,   0.00000,274640135.82653,   0.00000,   0.00000,   0.00000,-375191708.52115,   0.00000
-78700608.91865,-84862719.83665,34365618.58113,  -0.00019,  -0.00023,   0.00045,101290209.58610,   0.00000,274640135.82653,   0.00000,   0.00000,   0.00000,-373349926.24043,   0.00000
-80207712.96960,-86758753.96526,34815318.98343,  -0.00020,  -0.00024,   0.00045,103140470.62879,   0.00000,274640135.82653,   0.00000,   0.00000,   0.00000,-371499665.19774,   0.00000
-81702662.95563,-88666942.15880,35265019.38573,  -0.00020,  -0.00024,   0.00046,104993767.68244,   0.00000,274640135.82653,   0.00000,   0.00000,   0.00000,-369646368.14408,   0.00000
-83227998.10397,-90605515.51466,35708642.75557,  -0.00020,  -0.00025,   0.00046,106867511.14788,   0.00000,274640135.82653,   0.00000,   0.00000,   0.00000,-367772624.67865,   0.00000
-84732063.63868,-92534973.32183,36152266.12541,  -0.00021,  -0.00026,   0.00047,108731429.15385,   0.00000,274640135.82653,   0.00000,   0.00000,   0.00000,-365908706.67268,   0.00000
-86266514.33572,-94494816.29131,36589812.46278,  -0.00021,  -0.00026,   0.00048,110615941.46190,   0.00000,274640135.82653,   0.00000,   0.00000,   0.00000,-364024194.36463,   0.00000
-87810080.58145,-96475928.87441,37021281.76769,  -0.00021,  -0.00027,   0.00048,112509474.82962,   0.00000,274640135.82653,   0.00000,   0.00000,   0.00000,-362130660.99691,   0.00000
-89341492.76225,-98469195.52244,37446674.04013,  -0.00021,  -0.00027,   0.00049,114400437.35386,   0.00000,274640135.82653,   0.00000,   0.00000,   0.00000,-360239698.47266,   0.00000
-90894174.55668,-100471577.71917,37872066.31258,  -0.00022,  -0.00028,   0.00049,116305150.33687,   0.00000,274640135.82653,   0.00000,   0.00000,   0.00000,-358334985.48966,   0.00000
-92434702.28618,-102486113.98082,38285304.52010,  -0.00022,  -0.00029,   0.00050,118201514.11014,   0.00000,274640135.82653,   0.00000,   0.00000,   0.00000,-356438621.71639,   0.00000
-94005615.17800,-104531035.40479,38704619.76008,  -0.00022,  -0.00029,   0.00050,120130893.32760,   0.00000,274640135.82653,   0.00000,   0.00000,   0.00000,-354509242.49893,   0.00000
-95576528.06981,-106575956.82876,39111780.93513,  -0.00023,  -0.00030,   0.00051,122050569.79051,   0.00000,274640135.82653,   0.00000,   0.00000,   0.00000,-352589566.03602,   0.00000
-97144402.44540,-108654301.93128,39518942.11019,  -0.00023,  -0.00030,   0.00051,123987400.07330,   0.00000,274640135.82653,   0.00000,   0.00000,   0.00000,-350652735.75323,   0.00000
-98733546.43461,-110741762.58250,39920026.25278,  -0.00023,  -0.00031,   0.00052,125932321.90868,   0.00000,274640135.82653,   0.00000,   0.00000,   0.00000,-348707813.91785,   0.00000
-100331805.97251,-112850492.84733,40321110.39537,  -0.00024,  -0.00032,   0.00052,127892873.54610,   0.00000,274640135.82653,   0.00000,   0.00000,   0.00000,-346747262.28043,   0.00000
-101908795.89679,-114950107.56347,40716117.50550,  -0.00024,  -0.00032,   0.00053,129838012.67022,   0.00000,274640135.82653,   0.00000,   0.00000,   0.00000,-344802123.15631,   0.00000
-103516170.98339,-117080107.44193,41105047.58316,  -0.00024,  -0.00033,   0.00053,131804930.11798,   0.00000,274640135.82653,   0.00000,   0.00000,   0.00000,-342835205.70855,   0.00000
-105132661.61868,-119231376.93402,41487900.62837,  -0.00025,  -0.00034,   0.00054,133781999.81583,   0.00000,274640135.82653,   0.00000,   0.00000,   0.00000,-340858136.01070,   0.00000
-106736998.18904,-121394800.49102,41870753.67357,  -0.00025,  -0.00034,   0.00054,135763204.91234,   0.00000,274640135.82653,   0.00000,   0.00000,   0.00000,-338876930.91419,   0.00000
-108371719.92173,-123588609.21035,42247529.68630,  -0.00025,  -0.00035,   0.00055,137766560.37031,   0.00000,274640135.82653,   0.00000,   0.00000,   0.00000,-336873575.45622,   0.00000
-110006441.65441,-125782417.92968,42618228.66658,  -0.00026,  -0.00036,   0.00055,139766583.59780,   0.00000,274640135.82653,   0.00000,   0.00000,   0.00000,-334873552.22873,   0.00000
-111629009.32217,-127988380.71393,42988927.64685,  -0.00026,  -0.00036,   0.00056,141770902.78635,   0.00000,274640135.82653,   0.00000,   0.00000,   0.00000,-332869233.04018,   0.00000
-113281962.15224,-130224728.66050,43353549.59466,  -0.00026,  -0.00037,   0.00056,143797638.74184,   0.00000,274640135.82653,   0.00000,   0.00000,   0.00000,-330842497.08469,   0.00000
-114934914.98232,-132461076.60707,43712094.51001,  -0.00026,  -0.00038,   0.00057,145821159.43495,   0.00000,274640135.82653,   0.00000,   0.00000,   0.00000,-328818976.39158,   0.00000
-116596983.36109,-134718694.16726,44070639.42536,  -0.00027,  -0.00039,   0.00057,147860926.28842,   0.00000,274640135.82653,   0.00000,   0.00000,   0.00000,-326779209.53811,   0.00000
-118268167.28855,-136997581.34108,44423107.30824,  -0.00027,  -0.00039,   0.00058,149911577.96409,   0.00000,274640135.82653,   0.00000,   0.00000,   0.00000,-324728557.86244,   0.00000
-119948466.76471,-139297738.12852,44769498.15866,  -0.00027,  -0.00040,   0.00058,151973248.66815,   0.00000,274640135.82653,   0.00000,   0.00000,   0.00000,-322666887.15838,   0.00000
-121628766.24087,-141597894.91595,45115889.00908,  -0.00028,  -0.00041,   0.00059,154037247.71695,   0.00000,274640135.82653,   0.00000,   0.00000,   0.00000,-320602888.10958,   0.00000
-123318181.26572,-143919321.31701,45456202.82704,  -0.00028,  -0.00041,   0.00059,156112379.55903,   0.00000,274640135.82653,   0.00000,   0.00000,   0.00000,-318527756.26750,   0.00000
-125016711.83927,-146262017.33170,45796516.64499,  -0.00028,  -0.00042,   0.00060,158204052.69682,   0.00000,274640135.82653,   0.00000,   0.00000,   0.00000,-316436083.12971,   0.00000
-126715242.41282,-148604713.34638,46124676.39802,  -0.00029,  -0.00043,   0.00060,160287518.32751,   0.00000,274640135.82653,   0.00000,   0.00000,   0.00000,-314352617.49902,   0.00000
-128422888.53507,-150968678.97468,46452836.15105,  -0.00029,  -0.00044,   0.00060,162387636.40816,   0.00000,274640135.82653,   0.00000,   0.00000,   0.00000,-312252499.41837,   0.00000
-130139650.20601,-153353914.21661,46780995.90408,  -0.00029,  -0.00044,   0.00061,164504442.31314,   0.00000,274640135.82653,   0.00000,   0.00000,   0.00000,-310135693.51338,   0.00000
-131865527.42565,-155760419.07216,47097001.59218,  -0.00030,  -0.00045,   0.00061,166627663.77979,   0.00000,274640135.82653,   0.00000,   0.00000,   0.00000,-308012472.04674,   0.00000
-133612674.25891,-158176039.47640,47413007.28028,  -0.00030,  -0.00046,   0.00062,168765109.92209,   0.00000,274640135.82653,   0.00000,   0.00000,   0.00000,-305875025.90444,   0.00000
-135347667.02724,-160603813.94557,47729012.96839,  -0.00030,  -0.00047,   0.00062,170907578.90503,   0.00000,274640135.82653,   0.00000,   0.00000,   0.00000,-303732556.92150,   0.00000
-137091775.34426,-163052858.02837,48038941.62403,  -0.00031,  -0.00047,   0.00062,173061848.28918,   0.00000,274640135.82653,   0.00000,   0.00000,   0.00000,-301578287.53735,   0.00000
-138857153.27491,-165511017.65986,48342793.24720,  -0.00031,  -0.00048,   0.00063,175225267.04604,   0.00000,274640135.82653,   0.00000,   0.00000,   0.00000,-299414868.78049,   0.00000
-140619492.68933,-168002600.96989,48640567.83791,  -0.00031,  -0.00049,   0.00063,177403465.74056,   0.00000,274640135.82653,   0.00000,   0.00000,   0.00000,-297236670.08597,   0.00000
-142393986.16867,-170482030.21501,48938342.42863,  -0.00032,  -0.00050,   0.00064,179581285.63349,   0.00000,274640135.82653,   0.00000,   0.00000,   0.00000,-295058850.19304,   0.00000
-144186710.74541,-173003998.68736,49230039.98687,  -0.00032,  -0.00051,   0.00064,181785874.34724,   0.00000,274640135.82653,   0.00000,   0.00000,   0.00000,-292854261.47929,   0.00000
-145958165.70852,-175516851.61102,49521737.54512,  -0.00032,  -0.00051,   0.00064,183981088.95434,   0.00000,274640135.82653,   0.00000,   0.00000,   0.00000,-290659046.87219,   0.00000
-147760005.83395,-178060089.69700,49807358.07091,  -0.00033,  -0.00052,   0.00065,186200359.09885,   0.00000,274640135.82653,   0.00000,   0.00000,   0.00000,-288439776.72768,   0.00000
-149570961.50808,-180624597.39660,50086901.56423,  -0.00033,  -0.00053,   0.00065,188431993.38602,   0.00000,274640135.82653,   0.00000,   0.00000,   0.00000,-286208142.44051,   0.00000
-151381917.18220,-183189105.09620,50366445.05755,  -0.00033,  -0.00054,   0.00065,190666073.28667,   0.00000,274640135.82653,   0.00000,   0.00000,   0.00000,-283974062.53986,   0.00000
-153201988.40502,-185774882.40942,50639911.51841,  -0.00033,  -0.00055,   0.00066,192912614.20765,   0.00000,274640135.82653,   0.00000,   0.00000,   0.00000,-281727521.61888,   0.00000
-155031175.17654,-188381929.33627,50907300.94680,  -0.00034,  -0.00055,   0.00066,195171730.94255,   0.00000,274640135.82653,   0.00000,   0.00000,   0.00000,-279468404.88398,   0.00000
-156860361.94805,-190988976.26311,51174690.37520,  -0.00034,  -0.00056,   0.00067,197433302.82599,   0.00000,274640135.82653,   0.00000,   0.00000,   0.00000,-277206833.00054,   0.00000
-158698664.26826,-193617292.80358,51436002.77113,  -0.00034,  -0.00057,   0.00067,199707544.94802,   0.00000,274640135.82653,   0.00000,   0.00000,   0.00000,-274932590.87851,   0.00000
-160567351.75079,-196275994.50636,51697315.16706,  -0.00035,  -0.00058,   0.00067,202011041.78740,   0.00000,274640135.82653,   0.00000,   0.00000,   0.00000,-272629094.03913,   0.00000
-162414769.61970,-198925580.66045,51952550.53052,  -0.00035,  -0.00059,   0.00068,204300499.74771,   0.00000,274640135.82653,   0.00000,   0.00000,   0.00000,-270339636.07881,   0.00000
-164292572.65092,-201605551.97686,52201708.86153,  -0.00035,  -0.00060,   0.00068,206614637.53896,   0.00000,274640135.82653,   0.00000,   0.00000,   0.00000,-268025498.28757,   0.00000
-166158221.61722,-204297677.35819,52450867.19253,  -0.00036,  -0.00061,   0.00068,208934528.60245,   0.00000,274640135.82653,   0.00000,   0.00000,   0.00000,-265705607.22408,   0.00000
-168045140.19714,-206998918.28822,52693948.49107,  -0.00036,  -0.00061,   0.00069,211264089.93179,   0.00000,274640135.82653,   0.00000,   0.00000,   0.00000,-263376045.89474,   0.00000
-169941174.32575,-209721428.83187,52937029.78961,  -0.00036,  -0.00062,   0.00069,213611240.14053,   0.00000,274640135.82653,   0.00000,   0.00000,   0.00000,-261028895.68600,   0.00000
-171846324.00306,-212465208.98915,53174034.05569,  -0.00037,  -0.00063,   0.00069,215971508.89436,   0.00000,274640135.82653,   0.00000,   0.00000,   0.00000,-258668626.93217,   0.00000
-173751473.68037,-215208989.14642,53404961.28930,  -0.00037,  -0.00064,   0.00069,218329737.49127,   0.00000,274640135.82653,   0.00000,   0.00000,   0.00000,-256310398.33526,   0.00000
-175665738.90638,-217974038.91732,53635888.52292,  -0.00037,  -0.00065,   0.00070,220705660.26172,   0.00000,274640135.82653,   0.00000,   0.00000,   0.00000,-253934475.56481,   0.00000
-177589119.68108,-220760358.30183,53860738.72407,  -0.00038,  -0.00066,   0.00070,223094892.50778,   0.00000,274640135.82653,   0.00000,   0.00000,   0.00000,-251545243.31875,   0.00000
-179512500.45578,-223546677.68635,54079511.89275,  -0.00038,  -0.00067,   0.00070,225482178.15186,   0.00000,274640135.82653,   0.00000,   0.00000,   0.00000,-249157957.67467,   0.00000
-181444996.77917,-226354266.68449,54298285.06144,  -0.00038,  -0.00068,   0.00071,227887259.39549,   0.00000,274640135.82653,   0.00000,   0.00000,   0.00000,-246752876.43104,   0.00000
-183398762.71619,-229170971.23133,54517058.23013,  -0.00039,  -0.00069,   0.00071,230306527.39522,   0.00000,274640135.82653,   0.00000,   0.00000,   0.00000,-244333608.43131,   0.00000
-185349490.13698,-232021099.45671,54729754.36635,  -0.00039,  -0.00069,   0.00071,232742926.08116,   0.00000,274640135.82653,   0.00000,   0.00000,   0.00000,-241897209.74537,   0.00000
-187312371.62269,-234859073.61717,54936373.47011,  -0.00039,  -0.00070,   0.00071,235173796.02548,   0.00000,274640135.82653,   0.00000,   0.00000,   0.00000,-239466339.80105,   0.00000
-189293484.20579,-237739587.00487,55142992.57387,  -0.00040,  -0.00071,   0.00072,237638019.94677,   0.00000,274640135.82653,   0.00000,   0.00000,   0.00000,-237002115.87976,   0.00000
-191274596.78890,-240620100.39258,55343534.64516,  -0.00040,  -0.00072,   0.00072,240100420.42624,   0.00000,274640135.82653,   0.00000,   0.00000,   0.00000,-234539715.40029,   0.00000
-193264824.92069,-243521883.39390,55537999.68399,  -0.00040,  -0.00073,   0.00072,242576574.11951,   0.00000,274640135.82653,   0.00000,   0.00000,   0.00000,-232063561.70702,   0.00000
-195255053.05249,-246423666.39523,55732464.72283,  -0.00041,  -0.00074,   0.00072,245055128.32636,   0.00000,274640135.82653,   0.00000,   0.00000,   0.00000,-229585007.50016,   0.00000
-197254396.73299,-249346719.01017,55926929.76166,  -0.00041,  -0.00075,   0.00073,247551633.18716,   0.00000,274640135.82653,   0.00000,   0.00000,   0.00000,-227088502.63937,   0.00000
-199275010.02710,-252278887.17382,56115317.76803,  -0.00041,  -0.00076,   0.00073,250058144.09531,   0.00000,274640135.82653,   0.00000,   0.00000,   0.00000,-224581991.73122,   0.00000
-201283469.25629,-255223209.40238,56297628.74193,  -0.00042,  -0.00077,   0.00073,252566778.48870,   0.00000,274640135.82653,   0.00000,   0.00000,   0.00000,-222073357.33783,   0.00000
-203322313.64780,-258197916.79327,56479939.71584,  -0.00042,  -0.00078,   0.00073,255105233.99755,   0.00000,274640135.82653,   0.00000,   0.00000,   0.00000,-219534901.82898,   0.00000
-205361158.03931,-261172624.18416,56656173.65728,  -0.00043,  -0.00079,   0.00074,257641996.46857,   0.00000,274640135.82653,   0.00000,   0.00000,   0.00000,-216998139.35796,   0.00000
-207409117.97951,-264168601.18867,56832407.59872,  -0.00043,  -0.00080,   0.00074,260196816.20841,   0.00000,274640135.82653,   0.00000,   0.00000,   0.00000,-214443319.61812,   0.00000
-209466193.46841,-267185847.80680,57002564.50770,  -0.00043,  -0.00081,   0.00074,262765747.51483,   0.00000,274640135.82653,   0.00000,   0.00000,   0.00000,-211874388.31170,   0.00000
-211523268.95730,-270203094.42493,57166644.38421,  -0.00044,  -0.00082,   0.00074,265333072.61347,   0.00000,274640135.82653,   0.00000,   0.00000,   0.00000,-209307063.21306,   0.00000
-213589459.99490,-273241610.65668,57330724.26073,  -0.00044,  -0.00083,   0.00075,267918537.95445,   0.00000,274640135.82653,   0.00000,   0.00000,   0.00000,-206721597.87207,   0.00000
-215676920.64611,-276289242.43713,57494804.13724,  -0.00044,  -0.00084,   0.00075,270518066.08381,   0.00000,274640135.82653,   0.00000,   0.00000,   0.00000,-204122069.74272,   0.00000
-217752227.23240,-279349028.28251,57652806.98129,  -0.00045,  -0.00085,   0.00075,273120078.79648,   0.00000,274640135.82653,   0.00000,   0.00000,   0.00000,-201520057.03005,   0.00000
-219848803.43231,-282417929.67658,57810809.82535,  -0.00045,  -0.00086,   0.00075,275736121.43530,   0.00000,274640135.82653,   0.00000,   0.00000,   0.00000,-198904014.39123,   0.00000
-221954495.18091,-285508100.68427,57956658.60447,  -0.00045,  -0.00087,   0.00075,278362694.98570,   0.00000,274640135.82653,   0.00000,   0.00000,   0.00000,-196277440.84083,   0.00000
-224069302.47821,-288619541.30559,58108584.41606,  -0.00046,  -0.00088,   0.00076,281011272.69758,   0.00000,274640135.82653,   0.00000,   0.00000,   0.00000,-193628863.12895,   0.00000
-226184109.77551,-291730981.92691,58254433.19518,  -0.00046,  -0.00089,   0.00076,283658318.84607,   0.00000,274640135.82653,   0.00000,   0.00000,   0.00000,-190981816.98046,   0.00000
-228298917.07281,-294842422.54822,58394204.94184,  -0.00046,  -0.00090,   0.00076,286303848.04995,   0.00000,274640135.82653,   0.00000,   0.00000,   0.00000,-188336287.77658,   0.00000
-230453225.08113,-298005517.94548,58533976.68850,  -0.00047,  -0.00091,   0.00076,288995370.64571,   0.00000,274640135.82653,   0.00000,   0.00000,   0.00000,-185644765.18082,   0.00000
-232577147.92712,-301138228.18041,58673748.43516,  -0.00047,  -0.00092,   0.00076,291661307.39923,   0.00000,274640135.82653,   0.00000,   0.00000,   0.00000,-182978828.42730,   0.00000
-234740571.48413,-304322593.19129,58807443.14936,  -0.00047,  -0.00093,   0.00076,294369603.21237,   0.00000,274640135.82653,   0.00000,   0.00000,   0.00000,-180270532.61416,   0.00000
-236894879.49245,-307485688.58855,58935060.83109,  -0.00048,  -0.00094,   0.00077,297060383.85852,   0.00000,274640135.82653,   0.00000,   0.00000,   0.00000,-177579751.96801,   0.00000
-239067418.59815,-310691323.21305,59062678.51283,  -0.00048,  -0.00095,   0.00077,299785517.18354,   0.00000,274640135.82653,   0.00000,   0.00000,   0.00000,-174854618.64299,   0.00000
-241239957.70385,-313896957.83755,59184219.16210,  -0.00049,  -0.00096,   0.00077,302509245.96450,   0.00000,274640135.82653,   0.00000,   0.00000,   0.00000,-172130889.86203,   0.00000
-243433766.42318,-317111708.01074,59305759.81137,  -0.00049,  -0.00097,   0.00077,305246877.09285,   0.00000,274640135.82653,   0.00000,   0.00000,   0.00000,-169393258.73368,   0.00000
-245615421.07758,-320338612.24887,59427300.46064,  -0.00049,  -0.00098,   0.00077,307991023.49557,   0.00000,274640135.82653,   0.00000,   0.00000,   0.00000,-166649112.33096,   0.00000
-247818345.34560,-323574632.03568,59542764.07745,  -0.00050,  -0.00099,   0.00077,310745502.20705,   0.00000,274640135.82653,   0.00000,   0.00000,   0.00000,-163894633.61948,   0.00000
-250030385.16232,-326831921.43612,59652150.66179,  -0.00050,  -0.00100,   0.00078,313514791.37317,   0.00000,274640135.82653,   0.00000,   0.00000,   0.00000,-161125344.45336,   0.00000
-252251540.52773,-330110480.45019,59761537.24613,  -0.00050,  -0.00101,   0.00078,316302411.88745,   0.00000,274640135.82653,   0.00000,   0.00000,   0.00000,-158337723.93908,   0.00000
-254472695.89314,-333389039.46425,59870923.83048,  -0.00051,  -0.00102,   0.00078,319092117.57307,   0.00000,274640135.82653,   0.00000,   0.00000,   0.00000,-155548018.25345,   0.00000
-256715120.87218,-336676714.02701,59974233.38235,  -0.00051,  -0.00103,   0.00078,321892195.81337,   0.00000,274640135.82653,   0.00000,   0.00000,   0.00000,-152747940.01316,   0.00000
-258945391.78628,-339976542.65469,60071465.90177,  -0.00052,  -0.00104,   0.00078,324695471.93283,   0.00000,274640135.82653,   0.00000,   0.00000,   0.00000,-149944663.89369,   0.00000
-261206047.86271,-343306756.44469,60174775.45365,  -0.00052,  -0.00105,   0.00078,327532194.15477,   0.00000,274640135.82653,   0.00000,   0.00000,   0.00000,-147107941.67176,   0.00000
-263466703.93913,-346636970.23470,60265930.94060,  -0.00052,  -0.00106,   0.00078,330364254.27590,   0.00000,274640135.82653,   0.00000,   0.00000,   0.00000,-144275881.55063,   0.00000
-265727360.01556,-349967184.02470,60363163.46002,  -0.00053,  -0.00107,   0.00078,333201648.19634,   0.00000,274640135.82653,   0.00000,   0.00000,   0.00000,-141438487.63019,   0.00000
-267997131.64068,-353318667.42832,60448241.91451,  -0.00053,  -0.00109,   0.00079,336050775.54846,   0.00000,274640135.82653,   0.00000,   0.00000,   0.00000,-138589360.27807,   0.00000
-270266903.26580,-356670150.83195,60539397.40146,  -0.00053,  -0.00110,   0.00079,338905170.00463,   0.00000,274640135.82653,   0.00000,   0.00000,   0.00000,-135734965.82190,   0.00000
-272567060.05323,-360052019.39789,60624475.85595,  -0.00054,  -0.00111,   0.00079,341786365.61963,   0.00000,274640135.82653,   0.00000,   0.00000,   0.00000,-132853770.20690,   0.00000
-274867216.84067,-363433887.96383,60703477.27798,  -0.00054,  -0.00112,   0.00079,344666292.20879,   0.00000,274640135.82653,   0.00000,   0.00000,   0.00000,-129973843.61774,   0.00000
-277176489.17681,-366837026.14339,60782478.70000,  -0.00055,  -0.00113,   0.00079,347564583.99321,   0.00000,274640135.82653,   0.00000,   0.00000,   0.00000,-127075551.83332,   0.00000
-279485761.51294,-370240164.32296,60861480.12203,  -0.00055,  -0.00114,   0.00079,350464798.78272,   0.00000,274640135.82653,   0.00000,   0.00000,   0.00000,-124175337.04381,   0.00000
-281804149.39777,-373664572.11614,60934404.51159,  -0.00055,  -0.00115,   0.00079,353380204.77499,   0.00000,274640135.82653,   0.00000,   0.00000,   0.00000,-121259931.05154,   0.00000
-284143806.89622,-377098095.45803,61007328.90115,  -0.00056,  -0.00116,   0.00079,356309234.67930,   0.00000,274640135.82653,   0.00000,   0.00000,   0.00000,-118330901.14723,   0.00000
-286462194.78104,-380522503.25121,61074176.25825,  -0.00056,  -0.00117,   0.00079,359225302.68801,   0.00000,274640135.82653,   0.00000,   0.00000,   0.00000,-115414833.13852,   0.00000
-288810967.82819,-383977296.20672,61141023.61535,  -0.00057,  -0.00118,   0.00079,362171449.59917,   0.00000,274640135.82653,   0.00000,   0.00000,   0.00000,-112468686.22736,   0.00000
-291159740.87534,-387432089.16222,61207870.97245,  -0.00057,  -0.00120,   0.00080,365119435.44390,   0.00000,274640135.82653,   0.00000,   0.00000,   0.00000,-109520700.38263,   0.00000
-293517629.47118,-390908151.73135,61268641.29708,  -0.00057,  -0.00121,   0.00080,368082717.71767,   0.00000,274640135.82653,   0.00000,   0.00000,   0.00000,-106557418.10886,   0.00000
-295896787.68064,-394393329.84917,61323334.58925,  -0.00058,  -0.00122,   0.00080,371056521.70476,   0.00000,274640135.82653,   0.00000,   0.00000,   0.00000,-103583614.12177,   0.00000
-298263791.82518,-397890662.03192,61384104.91389,  -0.00058,  -0.00123,   0.00080,374039992.33357,   0.00000,274640135.82653,   0.00000,   0.00000,   0.00000,-100600143.49296,   0.00000
-300652065.58333,-401397109.76336,61432721.17360,  -0.00059,  -0.00124,   0.00080,377030995.79312,   0.00000,274640135.82653,   0.00000,   0.00000,   0.00000,-97609140.03341,   0.00000
-303040339.34149,-404903557.49480,61487414.46577,  -0.00059,  -0.00125,   0.00080,380026753.12326,   0.00000,274640135.82653,   0.00000,   0.00000,   0.00000,-94613382.70327,   0.00000
-305437728.64835,-408431274.83987,61536030.72548,  -0.00059,  -0.00126,   0.00080,383037910.24582,   0.00000,274640135.82653,   0.00000,   0.00000,   0.00000,-91602225.58071,   0.00000
-307856387.56882,-411968107.73363,61584646.98518,  -0.00060,  -0.00127,   0.00080,386062520.77738,   0.00000,274640135.82653,   0.00000,   0.00000,   0.00000,-88577615.04915,   0.00000
-310253776.87568,-415495825.07870,61627186.21243,  -0.00060,  -0.00129,   0.00080,389074244.78895,   0.00000,274640135.82653,   0.00000,   0.00000,   0.00000,-85565891.03758,   0.00000
-312681551.34485,-419053927.58608,61669725.43967,  -0.00061,  -0.00130,   0.00080,392116028.37603,   0.00000,274640135.82653,   0.00000,   0.00000,   0.00000,-82524107.45050,   0.00000
-315109325.81402,-422612030.09346,61712264.66692,  -0.00061,  -0.00131,   0.00080,395159504.68387,   0.00000,274640135.82653,   0.00000,   0.00000,   0.00000,-79480631.14266,   0.00000
-317546215.83188,-426191402.21447,61748726.86170,  -0.00061,  -0.00132,   0.00080,398218481.89721,   0.00000,274640135.82653,   0.00000,   0.00000,   0.00000,-76421653.92932,   0.00000
-320004375.46337,-429779889.88417,61785189.05648,  -0.00062,  -0.00133,   0.00080,401290839.13751,   0.00000,274640135.82653,   0.00000,   0.00000,   0.00000,-73349296.68902,   0.00000
-322441265.48124,-433359262.00518,61815574.21880,  -0.00062,  -0.00134,   0.00080,404350351.11874,   0.00000,274640135.82653,   0.00000,   0.00000,   0.00000,-70289784.70779,   0.00000
-324908540.66142,-436969019.28850,61845959.38112,  -0.00063,  -0.00135,   0.00080,407439916.20449,   0.00000,274640135.82653,   0.00000,   0.00000,   0.00000,-67200219.62204,   0.00000
-327375815.84161,-440578776.57182,61876344.54343,  -0.00063,  -0.00137,   0.00080,410531110.61521,   0.00000,274640135.82653,   0.00000,   0.00000,   0.00000,-64109025.21132,   0.00000
-329843091.02179,-444188533.85515,61900652.67329,  -0.00063,  -0.00138,   0.00080,413621169.31331,   0.00000,274640135.82653,   0.00000,   0.00000,   0.00000,-61018966.51322,   0.00000
-332340751.36429,-447828676.30079,61924960.80314,  -0.00064,  -0.00139,   0.00081,416741264.91365,   0.00000,274640135.82653,   0.00000,   0.00000,   0.00000,-57898870.91288,   0.00000
-334817142.09317,-451459703.19773,61949268.93299,  -0.00064,  -0.00140,   0.00081,419851247.96757,   0.00000,274640135.82653,   0.00000,   0.00000,   0.00000,-54788887.85896,   0.00000
-337314802.43567,-455099845.64338,61967500.03039,  -0.00065,  -0.00141,   0.00081,422971800.60282,   0.00000,274640135.82653,   0.00000,   0.00000,   0.00000,-51668335.22371,   0.00000
-339821578.32687,-458761257.70264,61985731.12778,  -0.00065,  -0.00142,   0.00081,426110683.49441,   0.00000,274640135.82653,   0.00000,   0.00000,   0.00000,-48529452.33212,   0.00000
-342319238.66937,-462401400.14828,62003962.22517,  -0.00066,  -0.00144,   0.00081,429234312.18708,   0.00000,274640135.82653,   0.00000,   0.00000,   0.00000,-45405823.63945,   0.00000
-344856399.72289,-466093197.36986,62016116.29009,  -0.00066,  -0.00145,   0.00081,432402103.51374,   0.00000,274640135.82653,   0.00000,   0.00000,   0.00000,-42238032.31278,   0.00000
-347363175.61408,-469754609.42912,62028270.35502,  -0.00066,  -0.00146,   0.00081,435542919.73543,   0.00000,274640135.82653,   0.00000,   0.00000,   0.00000,-39097216.09110,   0.00000
-349900336.66760,-473446406.65070,62040424.41995,  -0.00067,  -0.00147,   0.00081,438713723.60121,   0.00000,274640135.82653,   0.00000,   0.00000,   0.00000,-35926412.22532,   0.00000
-352437497.72111,-477138203.87229,62046501.45241,  -0.00067,  -0.00148,   0.00081,441883430.08303,   0.00000,274640135.82653,   0.00000,   0.00000,   0.00000,-32756705.74350,   0.00000
-354974658.77463,-480830001.09387,62052578.48487,  -0.00068,  -0.00150,   0.00081,445054603.66910,   0.00000,274640135.82653,   0.00000,   0.00000,   0.00000,-29585532.15743,   0.00000
-357542204.99046,-484552183.47776,62058655.51734,  -0.00068,  -0.00151,   0.00081,448255753.92044,   0.00000,274640135.82653,   0.00000,   0.00000,   0.00000,-26384381.90609,   0.00000
-360088481.59267,-488265250.31297,62058655.51734,  -0.00069,  -0.00152,   0.00081,451444134.76431,   0.00000,274640135.82653,   0.00000,   0.00000,   0.00000,-23196001.06222,   0.00000
-362656027.80850,-491987432.69687,62058655.51734,  -0.00069,  -0.00153,   0.00081,454645631.82528,   0.00000,274640135.82653,   0.00000,   0.00000,   0.00000,-19994504.00125,   0.00000
-365223574.02433,-495709615.08076,62058655.51734,  -0.00070,  -0.00154,   0.00081,457848527.77143,   0.00000,274640135.82653,   0.00000,   0.00000,   0.00000,-16791608.05510,   0.00000
-367821505.40248,-499462182.62698,62058655.51734,  -0.00070,  -0.00156,   0.00081,461081370.23680,   0.00000,274640135.82653,   0.00000,   0.00000,   0.00000,-13558765.58973,   0.00000
-370398167.16701,-503205634.62450,62052578.48487,  -0.00070,  -0.00157,   0.00081,464301449.14200,   0.00000,274640135.82653,   0.00000,   0.00000,   0.00000,-10338686.68453,   0.00000
-372996098.54516,-506958202.17072,62046501.45241,  -0.00071,  -0.00158,   0.00081,467534578.15479,   0.00000,274640135.82653,   0.00000,   0.00000,   0.00000,-7105557.67174,   0.00000
-375594029.92331,-510710769.71693,62034347.38748,  -0.00071,  -0.00159,   0.00081,470766640.98367,   0.00000,274640135.82653,   0.00000,   0.00000,   0.00000,-3873494.84286,   0.00000
-378201076.85015,-514484606.87677,62022193.32256,  -0.00072,  -0.00160,   0.00081,474016972.57984,   0.00000,274640135.82653,   0.00000,   0.00000,   0.00000,-623163.24669,   0.00000
-378703060.20370,-515207114.70933,62019872.01225,  -0.00072,  -0.00161,   0.00081,474640138.89352,   0.00000,274640135.82653,   0.00000,   0.00000,   0.00000,  -9.38014,   0.00000
-378852727.74524,-515402809.02892,61609348.66549,  -0.00072,  -0.00162,   0.00081,474652315.19050,   0.00001,274652319.33692,  -0.00000,  -0.00001,   0.00001,  -4.14642,   1.00000
-379023062.04788,-515644734.28849,61107340.29156,  -0.00073,  -0.00163,   0.00081,474667303.02101,   0.00002,274667309.57201,  -0.00001,  -0.00002,   0.00001,  -6.55101,   1.00000
-379203352.56895,-515879457.47605,60607314.70074,  -0.00073,  -0.00164,   0.00081,474682332.97085,   0.00004,274682337.57747,  -0.00001,  -0.00003,   0.00002,  -4.60662,   1.00000
-379382829.86026,-516113090.18457,60105322.72607,  -0.00074,  -0.00165,   0.00081,474697333.28777,   0.00005,274697338.82155,  -0.00002,  -0.00004,   0.00002,  -5.53378,   1.00000
-379556195.45218,-516345937.02823,59604594.17172,  -0.00074,  -0.00166,   0.00081,474712392.64969,   0.00007,274712402.03986,  -0.00002,  -0.00005,   0.00003,  -9.39017,   1.00000
-379741156.25076,-516574069.17460,59100227.39068,  -0.00075,  -0.00168,   0.00081,474727491.31437,   0.00008,274727492.25863,  -0.00002,  -0.00007,   0.00004,  -0.94426,   1.00000
-379909464.54238,-516799808.66060,58607044.93392,  -0.00075,  -0.00169,   0.00080,474742521.84139,   0.00009,274742523.74030,  -0.00003,  -0.00008,   0.00004,  -1.89891,   1.00000
-380089389.09076,-517020866.80754,58110194.97151,  -0.00075,  -0.00170,   0.00080,474757579.48730,   0.00011,274757582.68841,  -0.00003,  -0.00009,   0.00005,  -3.20112,   1.00000
-380266790.97046,-517238468.25284,57617099.38315,  -0.00076,  -0.00171,   0.00080,474772622.72641,   0.00012,274772626.04116,  -0.00004,  -0.00010,   0.00006,  -3.31474,   1.00000
-380452042.54813,-517454091.50442,57117993.26161,  -0.00076,  -0.00172,   0.00080,474787766.18471,   0.00013,274787774.37164,  -0.00004,  -0.00011,   0.00006,  -8.18693,   1.00000
-380624405.42290,-517664895.87322,56632414.16823,  -0.00077,  -0.00174,   0.00080,474802780.34831,   0.00015,274802786.65361,  -0.00005,  -0.00012,   0.00007,  -6.30530,   1.00000
-380804623.48596,-517873734.11204,56140834.81320,  -0.00077,  -0.00175,   0.00080,474817895.00839,   0.00016,274817904.16008,  -0.00005,  -0.00014,   0.00007,  -9.15168,   1.00000
-380983931.97295,-518081561.79484,55647287.00405,  -0.00078,  -0.00176,   0.00080,474832994.06297,   0.00018,274832996.36644,  -0.00005,  -0.00015,   0.00008,  -2.30347,   1.00000
-381159133.20709,-518283744.87369,55163262.69619,  -0.00078,  -0.00177,   0.00080,474848079.63175,   0.00019,274848083.19904,  -0.00006,  -0.00016,   0.00009,  -3.56729,   1.00000
-381345761.05720,-518481260.40107,54675636.17544,  -0.00079,  -0.00179,   0.00080,474863192.50433,   0.00020,274863198.27268,  -0.00006,  -0.00017,   0.00009,  -5.76835,   1.00000
-381515989.99964,-518677024.33233,54199087.46624,  -0.00079,  -0.00180,   0.00080,474878248.62163,   0.00022,274878254.87638,  -0.00007,  -0.00018,   0.00010,  -6.25475,   1.00000
-381693952.83949,-518870767.45198,53716664.05469,  -0.00080,  -0.00181,   0.00080,474893411.93612,   0.00023,274893416.91994,  -0.00007,  -0.00019,   0.00010,  -4.98382,   1.00000
-381874711.24849,-519060975.13643,53234456.99461,  -0.00080,  -0.00182,   0.00080,474908468.27009,   0.00024,274908477.92138,  -0.00008,  -0.00021,   0.00011,  -9.65129,   1.00000
-382047728.18334,-519248444.39803,52759545.33162,  -0.00081,  -0.00184,   0.00080,474923608.53681,   0.00026,274923610.11988,  -0.00008,  -0.00022,   0.00011,  -1.58307,   1.00000
-382232095.98234,-519431249.08570,52281056.67362,  -0.00081,  -0.00185,   0.00080,474938763.76830,   0.00027,274938771.27484,  -0.00009,  -0.00023,   0.00012,  -7.50653,   1.00000
-382413963.43990,-519611016.75225,51806317.39932,  -0.00082,  -0.00186,   0.00080,474953917.09965,   0.00029,274953917.64742,  -0.00009,  -0.00024,   0.00013,  -0.54778,   1.00000
-382593347.76248,-519787769.75246,51335300.53434,  -0.00082,  -0.00187,   0.00080,474969042.80553,   0.00030,274969049.51284,  -0.00009,  -0.00025,   0.00013,  -6.70731,   1.00000
-382771770.72794,-519963707.33082,50862201.83763,  -0.00083,  -0.00188,   0.00080,474984154.64670,   0.00031,274984157.98520,  -0.00010,  -0.00026,   0.00014,  -3.33849,   1.00000
-382946296.59347,-520134578.22881,50398608.32916,  -0.00083,  -0.00190,   0.00080,474999257.09999,   0.00033,274999261.03901,  -0.00010,  -0.00028,   0.00014,  -3.93903,   1.00000
-383132101.31782,-520300853.90794,49931427.31401,  -0.00084,  -0.00191,   0.00080,475014387.63808,   0.00034,275014393.75190,  -0.00011,  -0.00029,   0.00015,  -6.11382,   1.00000
-383303235.51954,-520468129.16880,49469375.99367,  -0.00084,  -0.00192,   0.00080,475029455.32737,   0.00036,275029459.78327,  -0.00011,  -0.00030,   0.00015,  -4.45589,   1.00000
-383484222.93522,-520628743.90141,49009548.82458,  -0.00085,  -0.00193,   0.00080,475044562.70100,   0.00037,275044564.40771,  -0.00012,  -0.00031,   0.00016,  -1.70672,   1.00000
-383672527.33563,-520787227.27136,48544116.12129,  -0.00085,  -0.00195,   0.00079,475059771.24965,   0.00038,275059774.99594,  -0.00012,  -0.00032,   0.00016,  -3.74628,   1.00000
-383848628.39028,-520942353.30655,48091629.87731,  -0.00086,  -0.00196,   0.00079,475074848.61999,   0.00040,275074851.68278,  -0.00013,  -0.00034,   0.00017,  -3.06279,   1.00000
-384035924.04018,-521092933.24053,47635543.04949,  -0.00086,  -0.00197,   0.00079,475089954.41247,   0.00041,275089958.78265,  -0.00013,  -0.00035,   0.00017,  -4.37018,   1.00000
-384204739.96655,-521247178.80008,47182486.93257,  -0.00087,  -0.00198,   0.00079,475105070.53709,   0.00042,275105075.65946,  -0.00013,  -0.00036,   0.00018,  -5.12237,   1.00000
-384387293.03217,-521392455.20741,46733659.32223,  -0.00087,  -0.00200,   0.00079,475120146.56103,   0.00044,275120155.72516,  -0.00014,  -0.00037,   0.00018,  -9.16413,   1.00000
-384575692.60089,-521533667.39470,46285130.60292,  -0.00088,  -0.00201,   0.00079,475135347.19847,   0.00045,275135350.10384,  -0.00014,  -0.00038,   0.00019,  -2.90537,   1.00000
-384754766.30613,-521675800.34837,45837657.43583,  -0.00088,  -0.00202,   0.00079,475150389.59408,   0.00047,275150395.40989,  -0.00015,  -0.00040,   0.00019,  -5.81580,   1.00000
-384939674.95695,-521813855.55365,45390537.97604,  -0.00089,  -0.00203,   0.00079,475165550.17398,   0.00048,275165555.10425,  -0.00015,  -0.00041,   0.00020,  -4.93027,   1.00000
-385124799.52527,-521945168.24417,44954761.35798,  -0.00089,  -0.00204,   0.00079,475180632.27141,   0.00049,275180633.96418,  -0.00016,  -0.00042,   0.00020,  -1.69278,   1.00000
-385304908.70539,-522078332.93879,44514787.24722,  -0.00090,  -0.00206,   0.00079,475195762.64690,   0.00051,275195767.43205,  -0.00016,  -0.00043,   0.00021,  -4.78515,   1.00000
-385486628.60361,-522206745.02730,44080235.50564,  -0.00090,  -0.00207,   0.00079,475210805.11311,   0.00052,275210812.73804,  -0.00017,  -0.00045,   0.00021,  -7.62493,   1.00000
-385679365.40843,-522330691.51615,43642072.87280,  -0.00091,  -0.00208,   0.00079,475225889.59167,   0.00054,275225889.68327,  -0.00017,  -0.00046,   0.00022,  -0.09160,   1.00000
-385852358.00945,-522456802.38146,43212754.75413,  -0.00091,  -0.00209,   0.00079,475240980.87125,   0.00055,275240984.43731,  -0.00018,  -0.00047,   0.00022,  -3.56605,   1.00000
-386040393.71415,-522576120.73456,42781627.64084,  -0.00092,  -0.00211,   0.00078,475256035.35123,   0.00056,275256036.17813,  -0.00018,  -0.00048,   0.00023,  -0.82690,   1.00000
-386226049.52687,-522693195.31208,42354002.70297,  -0.00092,  -0.00212,   0.00078,475271074.70749,   0.00058,275271075.39074,  -0.00018,  -0.00049,   0.00023,  -0.68325,   1.00000
-386416158.69903,-522804587.37460,41932720.90252,  -0.00093,  -0.00213,   0.00078,475286232.83973,   0.00059,275286236.08775,  -0.00019,  -0.00051,   0.00024,  -3.24802,   1.00000
-386597103.48631,-522917332.77233,41512003.42516,  -0.00093,  -0.00214,   0.00078,475301241.75124,   0.00060,275301250.61668,  -0.00019,  -0.00052,   0.00024,  -8.86544,   1.00000
-386788986.93159,-523025658.01081,41087645.02641,  -0.00094,  -0.00216,   0.00078,475316293.29261,   0.00062,275316297.70086,  -0.00020,  -0.00053,   0.00025,  -4.40825,   1.00000
-386977286.28125,-523130157.00496,40672626.96969,  -0.00094,  -0.00217,   0.00078,475331337.58445,   0.00063,275331339.55660,  -0.00020,  -0.00054,   0.00025,  -1.97215,   1.00000
-387163256.28817,-523232627.11204,40261009.89237,  -0.00095,  -0.00218,   0.00078,475346366.49287,   0.00065,275346369.39579,  -0.00021,  -0.00056,   0.00026,  -2.90291,   1.00000
-387348095.14238,-523334781.65264,39846893.52080,  -0.00095,  -0.00219,   0.00078,475361372.50803,   0.00066,275361380.55181,  -0.00021,  -0.00057,   0.00026,  -8.04378,   1.00000
-387542614.86856,-523430872.25052,39435017.24431,  -0.00096,  -0.00221,   0.00078,475376428.93225,   0.00067,275376431.51267,  -0.00022,  -0.00058,   0.00026,  -2.58042,   1.00000
-387721653.06174,-523527459.73188,39033564.08291,  -0.00096,  -0.00222,   0.00078,475391424.62904,   0.00069,275391425.69938,  -0.00022,  -0.00059,   0.00027,  -1.07033,   1.00000
-387915654.58549,-523617457.01760,38630023.49558,  -0.00097,  -0.00223,   0.00078,475406377.66073,   0.00070,275406379.11285,  -0.00023,  -0.00060,   0.00027,  -1.45212,   1.00000
-388103223.54448,-523707841.74252,38228183.86486,  -0.00098,  -0.00224,   0.00077,475421388.00989,   0.00072,275421395.26717,  -0.00023,  -0.00062,   0.00028,  -7.25728,   1.00000
-388305657.64399,-523791652.66144,37824258.64198,  -0.00098,  -0.00225,   0.00077,475436368.64090,   0.00073,275436370.86665,  -0.00024,  -0.00063,   0.00028,  -2.22575,   1.00000
-388488541.13265,-523878429.11109,37429081.52214,  -0.00099,  -0.00227,   0.00077,475451361.18621,   0.00074,275451363.97983,  -0.00024,  -0.00064,   0.00029,  -2.79362,   1.00000
-388685231.82087,-523957087.54049,37037648.71843,  -0.00099,  -0.00228,   0.00077,475466317.68450,   0.00076,275466323.37807,  -0.00025,  -0.00065,   0.00029,  -5.69356,   1.00000
-388880676.28983,-524035607.91536,36643555.75334,  -0.00100,  -0.00229,   0.00077,475481259.02450,   0.00077,275481265.37764,  -0.00025,  -0.00067,   0.00029,  -6.35314,   1.00000
-389072730.80086,-524110906.02805,36258625.22668,  -0.00100,  -0.00230,   0.00077,475496197.59733,   0.00078,275496202.43811,  -0.00025,  -0.00068,   0.00030,  -4.84077,   1.00000
-389263575.18198,-524186092.99495,35870980.93711,  -0.00101,  -0.00232,   0.00077,475511114.75238,   0.00080,275511122.53094,  -0.00026,  -0.00069,   0.00030,  -7.77856,   1.00000
-389456321.60858,-524257462.72077,35488050.57077,  -0.00101,  -0.00233,   0.00077,475525957.07508,   0.00081,275525958.00022,  -0.00026,  -0.00070,   0.00031,  -0.92515,   1.00000
-389654489.13762,-524325257.68387,35105758.16985,  -0.00102,  -0.00234,   0.00077,475540901.60116,   0.00083,275540907.94392,  -0.00027,  -0.00071,   0.00031,  -6.34276,   1.00000
-389854517.72662,-524389320.08869,34728118.58918,  -0.00102,  -0.00235,   0.00077,475555764.54607,   0.00084,275555773.48775,  -0.00027,  -0.00073,   0.00031,  -8.94167,   1.00000
-390052241.94094,-524451899.94229,34353612.51558,  -0.00103,  -0.00236,   0.00076,475570625.15694,   0.00085,275570628.42168,  -0.00028,  -0.00074,   0.00032,  -3.26473,   1.00000
-390247682.02076,-524513012.93262,33982215.54818,  -0.00104,  -0.00238,   0.00076,475585470.22827,   0.00087,275585472.92584,  -0.00028,  -0.00075,   0.00032,  -2.69757,   1.00000
-390440868.07079,-524572688.91180,33613904.52692,  -0.00104,  -0.00239,   0.00076,475600299.74729,   0.00088,275600307.12207,  -0.00029,  -0.00076,   0.00033,  -7.37478,   1.00000
-390644623.11808,-524628149.64385,33241750.32430,  -0.00105,  -0.00240,   0.00076,475615173.29550,   0.00089,275615176.73449,  -0.00029,  -0.00078,   0.00033,  -3.43899,   1.00000
-390837498.20043,-524682886.76781,32880990.65841,  -0.00105,  -0.00241,   0.00076,475629912.32018,   0.00091,275629917.04121,  -0.00030,  -0.00079,   0.00033,  -4.72103,   1.00000
-391039965.59763,-524732060.50000,32522255.27669,  -0.00106,  -0.00243,   0.00076,475644693.43211,   0.00092,275644698.63346,  -0.00030,  -0.00080,   0.00034,  -5.20136,   1.00000
-391241114.08704,-524781319.84031,32160577.38411,  -0.00106,  -0.00244,   0.00076,475659461.16109,   0.00093,275659464.83063,  -0.00031,  -0.00081,   0.00034,  -3.66955,   1.00000
-391439043.09682,-524827941.51571,31807838.70406,  -0.00107,  -0.00245,   0.00076,475674217.55636,   0.00095,275674226.48658,  -0.00031,  -0.00082,   0.00034,  -8.93022,   1.00000
-391635697.18160,-524874680.92035,31452108.58805,  -0.00107,  -0.00246,   0.00076,475688967.48490,   0.00096,275688973.07594,  -0.00032,  -0.00084,   0.00035,  -5.59104,   1.00000
-391846131.89558,-524913746.26826,31099732.97344,  -0.00108,  -0.00247,   0.00076,475703680.05926,   0.00098,275703688.15508,  -0.00032,  -0.00085,   0.00035,  -8.09581,   1.00000
-392054245.57609,-524951653.58326,30750291.36186,  -0.00109,  -0.00249,   0.00075,475718390.24894,   0.00099,275718393.51083,  -0.00033,  -0.00086,   0.00035,  -3.26188,   1.00000
-392248345.97310,-524992710.28653,30404666.95714,  -0.00109,  -0.00250,   0.00075,475733034.20420,   0.00100,275733038.18741,  -0.00033,  -0.00087,   0.00036,  -3.98321,   1.00000
-392451099.31559,-525027056.98531,30066958.47089,  -0.00110,  -0.00251,   0.00075,475747723.28560,   0.00102,275747729.69225,  -0.00034,  -0.00089,   0.00036,  -6.40666,   1.00000
-392656824.02041,-525059462.84707,29727385.89069,  -0.00110,  -0.00252,   0.00075,475762327.52010,   0.00103,275762334.11451,  -0.00034,  -0.00090,   0.00036,  -6.59441,   1.00000
-392871991.90978,-525086508.39560,29389756.79585,  -0.00111,  -0.00253,   0.00075,475776979.54133,   0.00104,275776980.37062,  -0.00035,  -0.00091,   0.00037,  -0.82929,   1.00000
-393073162.56046,-525116876.16421,29055811.00623,  -0.00111,  -0.00255,   0.00075,475791565.69835,   0.00106,275791566.29883,  -0.00035,  -0.00092,   0.00037,  -0.60047,   1.00000
-393284657.18188,-525143113.62032,28717836.43131,  -0.00112,  -0.00256,   0.00075,475806183.58089,   0.00107,275806189.51593,  -0.00036,  -0.00093,   0.00037,  -5.93504,   1.00000
-393485703.13583,-525169368.85163,28390683.30403,  -0.00113,  -0.00257,   0.00075,475820679.33177,   0.00108,275820684.75759,  -0.00036,  -0.00095,   0.00038,  -5.42582,   1.00000
-393696225.67590,-525190334.03354,28065401.13114,  -0.00113,  -0.00258,   0.00075,475835216.25159,   0.00110,275835222.26243,  -0.00036,  -0.00096,   0.00038,  -6.01084,   1.00000
-393904505.32434,-525210407.88686,27742825.02216,  -0.00114,  -0.00259,   0.00074,475849744.11915,   0.00111,275849750.92962,  -0.00037,  -0.00097,   0.00038,  -6.81047,   1.00000
-394114932.88930,-525227476.82360,27424095.63883,  -0.00114,  -0.00260,   0.00074,475864197.03703,   0.00112,275864198.47385,  -0.00037,  -0.00098,   0.00039,  -1.43682,   1.00000
-394335546.77395,-525240472.58430,27101237.84353,  -0.00115,  -0.00262,   0.00074,475878681.83362,   0.00114,275878683.94837,  -0.00038,  -0.00100,   0.00039,  -2.11475,   1.00000
-394541443.91050,-525255898.62832,26787826.10428,  -0.00116,  -0.00263,   0.00074,475893110.08007,   0.00115,275893114.18139,  -0.00038,  -0.00101,   0.00039,  -4.10132,   1.00000
-394756751.80468,-525266136.16236,26476219.76354,  -0.00116,  -0.00264,   0.00074,475907579.04111,   0.00116,275907586.98811,  -0.00039,  -0.00102,   0.00040,  -7.94700,   1.00000
-394963430.51733,-525279002.79757,26163142.42672,  -0.00117,  -0.00265,   0.00074,475921921.50320,   0.00118,275921923.84571,  -0.00039,  -0.00103,   0.00040,  -2.34251,   1.00000
-395178714.30517,-525285582.98283,25857835.92249,  -0.00117,  -0.00266,   0.00074,475936299.98045,   0.00119,275936307.77124,  -0.00040,  -0.00104,   0.00040,  -7.79079,   1.00000
-395391777.07753,-525291476.35180,25555062.80572,  -0.00118,  -0.00267,   0.00074,475950675.90557,   0.00120,275950683.40506,  -0.00040,  -0.00106,   0.00040,  -7.49949,   1.00000
-395607815.91040,-525295618.24219,25249906.65811,  -0.00118,  -0.00269,   0.00073,475964968.95515,   0.00122,275964974.73559,  -0.00041,  -0.00107,   0.00041,  -5.78045,   1.00000
-395820876.64760,-525298027.60487,24953237.87588,  -0.00119,  -0.00270,   0.00073,475979254.43164,   0.00123,275979262.12019,  -0.00041,  -0.00108,   0.00041,  -7.68855,   1.00000
-396048442.15995,-525294269.07557,24653354.22028,  -0.00120,  -0.00271,   0.00073,475993512.91899,   0.00124,275993516.54983,  -0.00042,  -0.00109,   0.00041,  -3.63083,   1.00000
-396261461.24384,-525293324.26178,24362649.78128,  -0.00120,  -0.00272,   0.00073,476007707.96342,   0.00126,276007716.06743,  -0.00042,  -0.00110,   0.00041,  -8.10402,   1.00000
-396484534.15385,-525288368.09152,24067641.51705,  -0.00121,  -0.00273,   0.00073,476021948.71752,   0.00127,276021954.76118,  -0.00043,  -0.00112,   0.00042,  -6.04366,   1.00000
-396693158.87867,-525286307.58435,23781761.45354,  -0.00121,  -0.00274,   0.00073,476036132.13588,   0.00128,276036138.59373,  -0.00043,  -0.00113,   0.00042,  -6.45785,   1.00000
-396916307.57982,-525278067.23210,23492548.41642,  -0.00122,  -0.00276,   0.00073,476050282.77773,   0.00130,276050290.26681,  -0.00044,  -0.00114,   0.00042,  -7.48908,   1.00000
-397136514.93353,-525268328.86213,23211690.50835,  -0.00123,  -0.00277,   0.00073,476064431.56223,   0.00131,276064438.08306,  -0.00044,  -0.00115,   0.00043,  -6.52084,   1.00000
-397359011.71351,-525255965.59813,22934116.79648,  -0.00123,  -0.00278,   0.00073,476078505.43725,   0.00132,276078506.80705,  -0.00045,  -0.00116,   0.00043,  -1.36980,   1.00000
-397579988.07342,-525244110.86757,22652840.17621,  -0.00124,  -0.00279,   0.00072,476092563.57069,   0.00134,276092564.37897,  -0.00045,  -0.00118,   0.00043,  -0.80828,   1.00000
-397802584.23263,-525228683.19459,22380795.60840,  -0.00124,  -0.00280,   0.00072,476106540.82964,   0.00135,276106546.84548,  -0.00046,  -0.00119,   0.00043,  -6.01585,   1.00000
-398030559.09250,-525211442.92430,22103385.62485,  -0.00125,  -0.00281,   0.00072,476120636.44566,   0.00136,276120640.64275,  -0.00046,  -0.00120,   0.00043,  -4.19709,   1.00000
-398253258.42298,-525193058.18070,21836751.44238,  -0.00126,  -0.00282,   0.00072,476134529.96479,   0.00138,276134537.15835,  -0.00047,  -0.00121,   0.00044,  -7.19356,   1.00000
-398481298.65580,-525172868.79891,21564734.27108,  -0.00126,  -0.00284,   0.00072,476148541.96527,   0.00139,276148545.16131,  -0.00047,  -0.00122,   0.00044,  -3.19604,   1.00000
-398699621.09207,-525153770.42370,21302479.05498,  -0.00127,  -0.00285,   0.00072,476162417.67684,   0.00140,276162427.38889,  -0.00048,  -0.00123,   0.00044,  -9.71206,   1.00000
-398932355.21242,-525128513.65303,21036623.40972,  -0.00127,  -0.00286,   0.00072,476176273.78883,   0.00141,276176278.95360,  -0.00048,  -0.00125,   0.00044,  -5.16477,   1.00000
-399150875.43286,-525106619.73108,20779544.95205,  -0.00128,  -0.00287,   0.00072,476190072.29069,   0.00143,276190076.00038,  -0.00049,  -0.00126,   0.00045,  -3.70969,   1.00000
-399378616.65382,-525079868.14248,20523924.17734,  -0.00129,  -0.00288,   0.00072,476203916.81321,   0.00144,276203917.14594,  -0.00049,  -0.00127,   0.00045,  -0.33273,   1.00000
-399609345.47405,-525051518.40176,20265250.68160,  -0.00129,  -0.00289,   0.00071,476217674.50723,   0.00145,276217677.18027,  -0.00050,  -0.00128,   0.00045,  -2.67305,   1.00000
-399837255.09913,-525022059.45685,20014658.92894,  -0.00130,  -0.00290,   0.00071,476231429.11606,   0.00147,276231433.68943,  -0.00050,  -0.00129,   0.00045,  -4.57337,   1.00000
-400067576.25096,-524990185.01623,19766932.07203,  -0.00130,  -0.00291,   0.00071,476245109.02090,   0.00148,276245112.61561,  -0.00051,  -0.00130,   0.00046,  -3.59471,   1.00000
-400295720.38933,-524958106.36404,19521200.79886,  -0.00131,  -0.00292,   0.00071,476258780.16054,   0.00149,276258784.93207,  -0.00051,  -0.00132,   0.00046,  -4.77153,   1.00000
-400526892.43085,-524924448.76189,19272272.68514,  -0.00132,  -0.00293,   0.00071,476272371.36754,   0.00150,276272376.80232,  -0.00052,  -0.00133,   0.00046,  -5.43478,   1.00000
-400766540.75316,-524885176.16035,19030751.68466,  -0.00132,  -0.00295,   0.00071,476286007.06591,   0.00152,276286016.22008,  -0.00052,  -0.00134,   0.00046,  -9.15417,   1.00000
-400992723.64496,-524850394.82938,18791750.29728,  -0.00133,  -0.00296,   0.00071,476299592.35517,   0.00153,276299598.15581,  -0.00053,  -0.00135,   0.00046,  -5.80064,   1.00000
-401221410.95133,-524813253.80176,18555451.99908,  -0.00133,  -0.00297,   0.00071,476313103.10775,   0.00154,276313103.13146,  -0.00053,  -0.00136,   0.00047,  -0.02371,   1.00000
-401463787.09914,-524769115.76031,18321253.60011,  -0.00134,  -0.00298,   0.00071,476326574.57094,   0.00155,276326582.27829,  -0.00054,  -0.00137,   0.00047,  -7.70735,   1.00000
-401692743.59563,-524729543.46993,18089477.68040,  -0.00135,  -0.00299,   0.00070,476339995.89965,   0.00157,276340004.15958,  -0.00054,  -0.00138,   0.00047,  -8.25993,   1.00000
-401930763.96348,-524685223.57826,17858996.61768,  -0.00135,  -0.00300,   0.00070,476353462.66092,   0.00158,276353470.84983,  -0.00055,  -0.00140,   0.00047,  -8.18892,   1.00000
-402160082.35305,-524643267.89538,17631641.66946,  -0.00136,  -0.00301,   0.00070,476366807.12163,   0.00159,276366809.99221,  -0.00055,  -0.00141,   0.00047,  -2.87058,   1.00000
-402403098.84332,-524594329.93053,17406286.37691,  -0.00136,  -0.00302,   0.00070,476380118.57192,   0.00160,276380123.77812,  -0.00056,  -0.00142,   0.00047,  -5.20620,   1.00000
-402632771.53362,-524550038.07453,17183239.94282,  -0.00137,  -0.00303,   0.00070,476393373.92917,   0.00162,276393380.57638,  -0.00056,  -0.00143,   0.00048,  -6.64721,   1.00000
-402871479.84006,-524501023.57975,16961428.61402,  -0.00138,  -0.00304,   0.00070,476406674.63776,   0.00163,276406682.46873,  -0.00057,  -0.00144,   0.00048,  -7.83097,   1.00000
-403112698.05753,-524449744.57314,16742078.44932,  -0.00138,  -0.00305,   0.00070,476419900.88576,   0.00164,276419908.24085,  -0.00057,  -0.00145,   0.00048,  -7.35509,   1.00000
-403344825.01031,-524400212.23690,16531664.41626,  -0.00139,  -0.00306,   0.00070,476433003.05684,   0.00165,276433009.71598,  -0.00058,  -0.00146,   0.00048,  -6.65914,   1.00000
-403586470.38454,-524346693.95889,16316385.17514,  -0.00139,  -0.00307,   0.00070,476446152.61953,   0.00167,276446153.85841,  -0.00058,  -0.00147,   0.00048,  -1.23889,   1.00000
-403830640.64094,-524290922.77873,16103471.05452,  -0.00140,  -0.00308,   0.00069,476459215.61104,   0.00168,276459222.28344,  -0.00058,  -0.00149,   0.00049,  -6.67240,   1.00000
-404072153.65783,-524234540.65926,15898221.17974,  -0.00141,  -0.00309,   0.00069,476472286.10480,   0.00169,276472287.57057,  -0.00059,  -0.00150,   0.00049,  -1.46577,   1.00000
-404305684.68524,-524181331.66846,15689712.04728,  -0.00141,  -0.00310,   0.00069,476485219.21615,   0.00170,276485223.82845,  -0.00059,  -0.00151,   0.00049,  -4.61231,   1.00000
-404547701.82355,-524122786.05030,15488341.71166,  -0.00142,  -0.00311,   0.00069,476498200.96698,   0.00171,276498208.14940,  -0.00060,  -0.00152,   0.00049,  -7.18242,   1.00000
-404792321.84635,-524062045.93663,15289178.69232,  -0.00142,  -0.00312,   0.00069,476511108.37636,   0.00173,276511117.14223,  -0.00060,  -0.00153,   0.00049,  -8.76587,   1.00000
-405035274.94910,-524002064.14620,15085544.68281,  -0.00143,  -0.00314,   0.00069,476524016.21781,   0.00174,276524018.26101,  -0.00061,  -0.00154,   0.00049,  -2.04320,   1.00000
-405280371.80324,-523939235.41141,14890118.77163,  -0.00144,  -0.00315,   0.00069,476536841.12954,   0.00175,276536846.69813,  -0.00061,  -0.00155,   0.00049,  -5.56859,   1.00000
-405517130.62032,-523878997.52677,14697269.44552,  -0.00144,  -0.00316,   0.00069,476549544.74256,   0.00176,276549549.07809,  -0.00062,  -0.00156,   0.00050,  -4.33552,   1.00000
-405762804.89655,-523814114.75035,14505437.69933,  -0.00145,  -0.00317,   0.00069,476562293.27576,   0.00177,276562297.36819,  -0.00062,  -0.00157,   0.00050,  -4.09243,   1.00000
-406006356.25980,-523749382.96984,14315071.62878,  -0.00145,  -0.00318,   0.00069,476575033.69244,   0.00179,276575040.46949,  -0.00063,  -0.00158,   0.00050,  -6.77704,   1.00000
-406257362.44059,-523680148.32870,14127352.09915,  -0.00146,  -0.00319,   0.00068,476587633.80961,   0.00180,276587639.31766,  -0.00063,  -0.00159,   0.00050,  -5.50805,   1.00000
-406495316.74950,-523615889.82170,13941485.28747,  -0.00147,  -0.00320,   0.00068,476600179.04001,   0.00181,276600182.00736,  -0.00064,  -0.00161,   0.00050,  -2.96735,   1.00000
-406742145.93156,-523546993.97992,13756590.76235,  -0.00147,  -0.00320,   0.00068,476612769.15670,   0.00182,276612770.85158,  -0.00064,  -0.00162,   0.00050,  -1.69488,   1.00000
-406991243.87834,-523475358.37022,13579680.26247,  -0.00148,  -0.00321,   0.00068,476625281.87225,   0.00183,276625287.49966,  -0.00065,  -0.00163,   0.00050,  -5.62741,   1.00000
-407243467.11777,-523402153.55135,13398651.95293,  -0.00148,  -0.00322,   0.00068,476637723.81715,   0.00185,276637727.71025,  -0.00065,  -0.00164,   0.00051,  -3.89310,   1.00000
-407482707.49667,-523333982.54645,13219390.52365,  -0.00149,  -0.00323,   0.00068,476650105.34054,   0.00186,276650111.94406,  -0.00066,  -0.00165,   0.00051,  -6.60352,   1.00000
-407735196.85111,-523258258.51310,13047623.70755,  -0.00150,  -0.00324,   0.00068,476662467.86150,   0.00187,276662475.39183,  -0.00066,  -0.00166,   0.00051,  -7.53033,   1.00000
-407974762.35144,-523187630.83159,12877538.39410,  -0.00150,  -0.00325,   0.00068,476674781.58848,   0.00188,276674782.88802,  -0.00067,  -0.00167,   0.00051,  -1.29953,   1.00000
-408233207.18197,-523108130.26210,12703371.35688,  -0.00151,  -0.00326,   0.00068,476686988.07920,   0.00189,276686996.61878,  -0.00067,  -0.00168,   0.00051,  -8.53958,   1.00000
-408473487.80717,-523035618.15551,12536368.43099,  -0.00151,  -0.00327,   0.00068,476699220.16469,   0.00190,276699225.57564,  -0.00068,  -0.00169,   0.00051,  -5.41094,   1.00000
-408721486.47446,-522958541.96679,12371639.90010,  -0.00152,  -0.00328,   0.00067,476711306.66913,   0.00191,276711311.87324,  -0.00068,  -0.00170,   0.00051,  -5.20410,   1.00000
-408978229.15848,-522876867.82124,12207731.18258,  -0.00153,  -0.00329,   0.00067,476723443.37212,   0.00193,276723444.86160,  -0.00069,  -0.00171,   0.00051,  -1.48948,   1.00000
-409222111.48931,-522800352.93189,12045401.12724,  -0.00153,  -0.00330,   0.00067,476735520.29221,   0.00194,276735522.12483,  -0.00069,  -0.00172,   0.00052,  -1.83262,   1.00000
-409473747.64376,-522719251.07892,11885256.51590,  -0.00154,  -0.00331,   0.00067,476747451.71889,   0.00195,276747457.16124,  -0.00070,  -0.00173,   0.00052,  -5.44235,   1.00000
-409723353.64527,-522638440.75056,11726267.93985,  -0.00155,  -0.00332,   0.00067,476759381.30638,   0.00196,276759387.84062,  -0.00070,  -0.00174,   0.00052,  -6.53425,   1.00000
-409970585.03160,-522557439.76020,11574447.53235,  -0.00155,  -0.00333,   0.00067,476771310.64675,   0.00197,276771316.02950,  -0.00070,  -0.00175,   0.00052,  -5.38275,   1.00000
-410221083.64176,-522474777.93538,11418183.51821,  -0.00156,  -0.00334,   0.00067,476783164.76913,   0.00198,276783169.35362,  -0.00071,  -0.00176,   0.00052,  -4.58449,   1.00000
-410474118.96542,-522389486.83516,11269536.50645,  -0.00156,  -0.00335,   0.00067,476794946.79589,   0.00199,276794951.51532,  -0.00071,  -0.00177,   0.00052,  -4.71943,   1.00000
-410730399.51393,-522302522.22417,11116396.67778,  -0.00157,  -0.00336,   0.00067,476806653.69899,   0.00200,276806659.06455,  -0.00072,  -0.00178,   0.00052,  -5.36557,   1.00000
-410984295.75993,-522215415.35243,10970366.07015,  -0.00158,  -0.00336,   0.00067,476818354.80038,   0.00201,276818364.23512,  -0.00072,  -0.00179,   0.00052,  -9.43474,   1.00000
-411230477.70420,-522131100.70263,10826169.04360,  -0.00158,  -0.00337,   0.00066,476829936.09471,   0.00203,276829945.39730,  -0.00073,  -0.00180,   0.00052,  -9.30260,   1.00000
-411490287.62125,-522039688.07543,10683097.88846,  -0.00159,  -0.00338,   0.00066,476841501.00230,   0.00204,276841505.35500,  -0.00073,  -0.00181,   0.00053,  -4.35269,   1.00000
-411737456.32978,-521953573.82901,10541363.91139,  -0.00159,  -0.00339,   0.00066,476853007.14847,   0.00205,276853009.98355,  -0.00074,  -0.00182,   0.00053,  -2.83509,   1.00000
-411998230.70937,-521860328.47305,10400729.02195,  -0.00160,  -0.00340,   0.00066,476864486.01873,   0.00206,276864493.65046,  -0.00074,  -0.00183,   0.00053,  -7.63173,   1.00000
-412251355.05284,-521769894.35382,10261831.37247,  -0.00160,  -0.00341,   0.00066,476875845.44944,   0.00207,276875853.61971,  -0.00075,  -0.00184,   0.00053,  -8.17028,   1.00000
-412502531.62078,-521679817.18971,10123893.74555,  -0.00161,  -0.00342,   0.00066,476887203.27152,   0.00208,276887209.76956,  -0.00075,  -0.00185,   0.00053,  -6.49804,   1.00000
-412756427.79531,-521587145.72279,9993354.43204,  -0.00162,  -0.00343,   0.00066,476898494.03780,   0.00209,276898495.40201,  -0.00076,  -0.00186,   0.00053,  -1.36421,   1.00000
-413013666.01768,-521492712.61675,9858099.95937,  -0.00162,  -0.00343,   0.00066,476909705.28479,   0.00210,276909707.51767,  -0.00076,  -0.00187,   0.00053,  -2.23288,   1.00000
-413258122.61936,-521403232.95596,9730104.35252,  -0.00163,  -0.00344,   0.00066,476920864.35896,   0.00211,276920866.03948,  -0.00076,  -0.00188,   0.00053,  -1.68052,   1.00000
-413521509.49546,-521304396.43392,9597453.29934,  -0.00163,  -0.00345,   0.00066,476931929.06983,   0.00212,276931934.59730,  -0.00077,  -0.00189,   0.00053,  -5.52748,   1.00000
-413772123.79052,-521210550.71947,9472025.57178,  -0.00164,  -0.00346,   0.00066,476942941.97470,   0.00213,276942949.58404,  -0.00077,  -0.00190,   0.00053,  -7.60934,   1.00000
-414031340.17642,-521112083.98655,9347143.85871,  -0.00165,  -0.00347,   0.00066,476954009.84262,   0.00214,276954012.50292,  -0.00078,  -0.00190,   0.00053,  -2.66030,   1.00000
-414288162.58362,-521013841.24494,9224171.84524,  -0.00165,  -0.00348,   0.00065,476964876.58360,   0.00215,276964884.38827,  -0.00078,  -0.00191,   0.00054,  -7.80467,   1.00000
-414543094.22548,-520916004.05164,9102016.50484,  -0.00166,  -0.00348,   0.00065,476975752.22372,   0.00216,276975752.80014,  -0.00079,  -0.00192,   0.00054,  -0.57642,   1.00000
-414795842.56791,-520818169.21801,8986700.75109,  -0.00166,  -0.00349,   0.00065,476986611.38960,   0.00217,276986619.27656,  -0.00079,  -0.00193,   0.00054,  -7.88696,   1.00000
-415046667.59510,-520720920.95477,8867147.87556,  -0.00167,  -0.00350,   0.00065,476997284.84216,   0.00218,276997293.65149,  -0.00080,  -0.00194,   0.00054,  -8.80933,   1.00000
-415305781.45150,-520618650.41814,8754125.96138,  -0.00168,  -0.00351,   0.00065,477008008.30191,   0.00219,277008017.69719,  -0.00080,  -0.00195,   0.00054,  -9.39528,   1.00000
-415557953.25739,-520519583.53375,8636453.31031,  -0.00168,  -0.00352,   0.00065,477018617.63593,   0.00220,277018617.69041,  -0.00081,  -0.00196,   0.00054,  -0.05449,   1.00000
-415813062.36741,-520417888.12234,8525931.25238,  -0.00169,  -0.00352,   0.00065,477029139.41741,   0.00221,277029148.15471,  -0.00081,  -0.00197,   0.00054,  -8.73730,   1.00000
-416066349.66932,-520316616.33469,8416122.08080,  -0.00169,  -0.00353,   0.00065,477039669.90503,   0.00222,277039675.41406,  -0.00081,  -0.00198,   0.00054,  -5.50903,   1.00000
-416327940.52725,-520210418.57285,8307716.20270,  -0.00170,  -0.00354,   0.00065,477050055.96443,   0.00223,277050064.26033,  -0.00082,  -0.00199,   0.00054,  -8.29590,   1.00000
-416587670.23397,-520104641.47838,8200000.30738,  -0.00170,  -0.00355,   0.00065,477060440.84800,   0.00224,277060450.03218,  -0.00082,  -0.00199,   0.00054,  -9.18418,   1.00000
-416835258.90902,-520004378.04466,8093229.86467,  -0.00171,  -0.00356,   0.00065,477070778.61489,   0.00225,277070781.06031,  -0.00083,  -0.00200,   0.00054,  -2.44542,   1.00000
-417091263.91272,-519899124.42033,7987804.20491,  -0.00172,  -0.00356,   0.00065,477080972.31161,   0.00226,277080974.09642,  -0.00083,  -0.00201,   0.00054,  -1.78481,   1.00000
-417345221.65861,-519793949.03394,7889070.68700,  -0.00172,  -0.00357,   0.00065,477091159.97481,   0.00227,277091165.46344,  -0.00084,  -0.00202,   0.00054,  -5.48863,   1.00000
-417602759.89678,-519686812.67993,7785247.32027,  -0.00173,  -0.00358,   0.00065,477101279.93671,   0.00228,277101285.26792,  -0.00084,  -0.00203,   0.00054,  -5.33121,   1.00000
-417863363.29354,-519577049.80031,7688423.82002,  -0.00173,  -0.00359,   0.00064,477111332.00229,   0.00229,277111336.02932,  -0.00084,  -0.00204,   0.00054,  -4.02703,   1.00000
-418111941.69200,-519472833.95877,7592442.27346,  -0.00174,  -0.00359,   0.00064,477121327.63364,   0.00230,277121332.22706,  -0.00085,  -0.00205,   0.00055,  -4.59341,   1.00000
-418369055.70437,-519363550.11998,7497676.91395,  -0.00174,  -0.00360,   0.00064,477131188.88891,   0.00231,277131191.06645,  -0.00085,  -0.00205,   0.00055,  -2.17754,   1.00000
-418624416.82958,-519254679.25525,7403485.71890,  -0.00175,  -0.00361,   0.00064,477141039.74348,   0.00232,277141047.24152,  -0.00086,  -0.00206,   0.00055,  -7.49804,   1.00000
-418883180.88647,-519143474.53808,7310170.79957,  -0.00176,  -0.00362,   0.00064,477150827.54348,   0.00233,277150833.50642,  -0.00086,  -0.00207,   0.00055,  -5.96294,   1.00000
-419130033.25808,-519037838.14342,7217650.65798,  -0.00176,  -0.00362,   0.00064,477160559.22857,   0.00234,277160565.31516,  -0.00087,  -0.00208,   0.00055,  -6.08659,   1.00000
-419395436.12475,-518921596.52259,7132085.25654,  -0.00177,  -0.00363,   0.00064,477170206.33312,   0.00235,277170213.26053,  -0.00087,  -0.00209,   0.00055,  -6.92741,   1.00000
-419649166.36300,-518811250.75912,7041219.49787,  -0.00177,  -0.00364,   0.00064,477179802.77736,   0.00235,277179805.67412,  -0.00087,  -0.00209,   0.00055,  -2.89676,   1.00000
-419896027.45383,-518703389.25345,6957442.20123,  -0.00178,  -0.00364,   0.00064,477189276.20611,   0.00236,277189277.76743,  -0.00088,  -0.00210,   0.00055,  -1.56132,   1.00000
-420156759.74738,-518588239.21504,6868181.16597,  -0.00178,  -0.00365,   0.00064,477198728.12012,   0.00237,277198731.28385,  -0.00088,  -0.00211,   0.00055,  -3.16373,   1.00000
-420410640.14975,-518475577.56857,6785979.85219,  -0.00179,  -0.00366,   0.00064,477208057.33583,   0.00238,277208064.58637,  -0.00089,  -0.00212,   0.00055,  -7.25054,   1.00000
-420662885.68185,-518363345.80245,6704251.72010,  -0.00179,  -0.00366,   0.00064,477217394.65165,   0.00239,277217395.49202,  -0.00089,  -0.00213,   0.00055,  -0.84036,   1.00000
-420918671.70430,-518248674.78590,6623269.75992,  -0.00180,  -0.00367,   0.00064,477226650.98483,   0.00240,277226657.24914,  -0.00089,  -0.00213,   0.00055,  -6.26431,   1.00000
-421167754.08063,-518136499.57124,6549274.03030,  -0.00180,  -0.00368,   0.00064,477235793.29783,   0.00241,277235798.91234,  -0.00090,  -0.00214,   0.00055,  -5.61451,   1.00000
-421430682.90757,-518016937.76541,6469716.35931,  -0.00181,  -0.00368,   0.00064,477244914.22847,   0.00242,277244922.57721,  -0.00090,  -0.00215,   0.00055,  -8.34874,   1.00000
-421686924.93279,-517899872.45079,6397119.67403,  -0.00182,  -0.00369,   0.00064,477253921.22782,   0.00243,277253926.25654,  -0.00091,  -0.00216,   0.00055,  -5.02872,   1.00000
-421931767.78074,-517788701.30489,6319092.92004,  -0.00182,  -0.00370,   0.00064,477262869.48506,   0.00243,277262874.78343,  -0.00091,  -0.00216,   0.00055,  -5.29837,   1.00000
-422185313.64489,-517671878.44749,6248057.31868,  -0.00183,  -0.00370,   0.00064,477271686.86825,   0.00244,277271688.87252,  -0.00091,  -0.00217,   0.00055,  -2.00427,   1.00000
-422447250.12325,-517550231.23207,6177206.99080,  -0.00183,  -0.00371,   0.00063,477280549.21508,   0.00245,277280553.00384,  -0.00092,  -0.00218,   0.00055,  -3.78876,   1.00000
-422692894.95579,-517436556.94246,6107397.01773,  -0.00184,  -0.00372,   0.00063,477289239.97049,   0.00246,277289244.33544,  -0.00092,  -0.00219,   0.00055,  -4.36495,   1.00000
-422946978.65526,-517318044.47143,6037765.24000,  -0.00184,  -0.00372,   0.00063,477297984.28612,   0.00247,277297985.78472,  -0.00093,  -0.00219,   0.00056,  -1.49860,   1.00000
-423200067.89511,-517199307.25501,5969201.10959,  -0.00185,  -0.00373,   0.00063,477306539.90022,   0.00247,277306540.18793,  -0.00093,  -0.00220,   0.00056,  -0.28771,   1.00000
-423451434.52814,-517080719.95833,5907040.91946,  -0.00185,  -0.00373,   0.00063,477315089.97793,   0.00248,277315093.62224,  -0.00093,  -0.00221,   0.00056,  -3.64431,   1.00000
-423702107.38166,-516962121.84170,5839844.61415,  -0.00186,  -0.00374,   0.00063,477323456.48759,   0.00249,277323459.31313,  -0.00094,  -0.00221,   0.00056,  -2.82553,   1.00000
-423951104.54513,-516843667.99197,5779038.27034,  -0.00186,  -0.00375,   0.00063,477331817.62383,   0.00250,277331824.11313,  -0.00094,  -0.00222,   0.00056,  -6.48930,   1.00000
-424204086.95012,-516722866.47092,5712741.82572,  -0.00187,  -0.00375,   0.00063,477340112.07845,   0.00251,277340119.93038,  -0.00094,  -0.00223,   0.00056,  -7.85193,   1.00000
-424455397.60406,-516602224.57656,5652828.48917,  -0.00187,  -0.00376,   0.00063,477348409.20095,   0.00251,277348414.85227,  -0.00095,  -0.00223,   0.00056,  -5.65133,   1.00000
-424705964.89430,-516481250.73829,5593870.71976,  -0.00188,  -0.00376,   0.00063,477356517.92476,   0.00252,277356523.35563,  -0.00095,  -0.00224,   0.00056,  -5.43087,   1.00000
-424955089.56671,-516360663.22752,5535208.98295,  -0.00188,  -0.00377,   0.00063,477364626.25785,   0.00253,277364630.19478,  -0.00096,  -0.00225,   0.00056,  -3.93694,   1.00000
-425198096.53196,-516242499.65744,5483292.80597,  -0.00189,  -0.00377,   0.00063,477372612.37288,   0.00254,277372617.81312,  -0.00096,  -0.00225,   0.00056,  -5.44025,   1.00000
-425445204.14031,-516121906.13806,5425814.70729,  -0.00189,  -0.00378,   0.00063,477380532.06964,   0.00254,277380536.89480,  -0.00096,  -0.00226,   0.00056,  -4.82515,   1.00000
-425696214.20779,-515998634.55737,5368841.35101,  -0.00190,  -0.00379,   0.00063,477388380.42082,   0.00255,277388388.38023,  -0.00097,  -0.00227,   0.00056,  -7.95941,   1.00000
-425941204.96080,-515877775.35889,5318585.39159,  -0.00190,  -0.00379,   0.00063,477396114.34901,   0.00256,277396120.78252,  -0.00097,  -0.00227,   0.00056,  -6.43350,   1.00000
-426190152.59232,-515754210.11537,5268788.49314,  -0.00191,  -0.00380,   0.00063,477403777.01244,   0.00257,277403785.75859,  -0.00097,  -0.00228,   0.00056,  -8.74615,   1.00000
-426437731.98107,-515631013.60292,5219228.03353,  -0.00191,  -0.00380,   0.00063,477411439.42118,   0.00257,277411449.29751,  -0.00098,  -0.00229,   0.00056,  -9.87633,   1.00000
-426679579.32729,-515510426.54517,5170287.80440,  -0.00192,  -0.00381,   0.00063,477418984.73198,   0.00258,277418993.09724,  -0.00098,  -0.00229,   0.00056,  -8.36526,   1.00000
-426930784.56214,-515383996.83820,5122000.82943,  -0.00192,  -0.00381,   0.00063,477426402.24473,   0.00259,277426403.79997,  -0.00098,  -0.00230,   0.00056,  -1.55524,   1.00000
-427180630.01692,-515257906.92720,5073935.39629,  -0.00193,  -0.00382,   0.00063,477433805.32961,   0.00260,277433813.25058,  -0.00099,  -0.00231,   0.00056,  -7.92097,   1.00000
-427419490.01218,-515137527.96409,5026257.09956,  -0.00193,  -0.00382,   0.00063,477441162.29329,   0.00260,277441168.89538,  -0.00099,  -0.00231,   0.00056,  -6.60209,   1.00000
-427667615.85484,-515011017.22079,4985255.63416,  -0.00194,  -0.00383,   0.00063,477448386.69450,   0.00261,277448392.55870,  -0.00099,  -0.00232,   0.00056,  -5.86420,   1.00000
-427910337.09308,-514887270.91480,4938758.32690,  -0.00194,  -0.00383,   0.00063,477455491.83201,   0.00262,277455496.04158,  -0.00100,  -0.00232,   0.00056,  -4.20957,   1.00000
-428151638.46411,-514763649.99024,4898513.53334,  -0.00195,  -0.00384,   0.00063,477462592.26268,   0.00262,277462599.11794,  -0.00100,  -0.00233,   0.00056,  -6.85525,   1.00000
-428387471.80108,-514642570.49456,4858808.00150,  -0.00195,  -0.00384,   0.00063,477469575.73397,   0.00263,277469582.84733,  -0.00100,  -0.00233,   0.00056,  -7.11335,   1.00000
-428642431.96379,-514510086.77766,4819512.92934,  -0.00195,  -0.00385,   0.00063,477476483.32052,   0.00264,277476486.87144,  -0.00101,  -0.00234,   0.00056,  -3.55091,   1.00000
-428876967.60763,-514388690.45688,4780703.24905,  -0.00196,  -0.00385,   0.00063,477483279.13145,   0.00264,277483284.66503,  -0.00101,  -0.00235,   0.00056,  -5.53358,   1.00000
-429110341.58964,-514267610.15731,4742057.24411,  -0.00196,  -0.00385,   0.00063,477490074.84315,   0.00265,277490081.40530,  -0.00101,  -0.00235,   0.00056,  -6.56215,   1.00000
-429353337.06929,-514140424.05388,4703962.88432,  -0.00197,  -0.00386,   0.00063,477496742.09311,   0.00265,277496746.17537,  -0.00102,  -0.00236,   0.00056,  -4.08226,   1.00000
-429600373.26828,-514010128.43975,4672268.17133,  -0.00197,  -0.00386,   0.00062,477503340.38527,   0.00266,277503345.28575,  -0.00102,  -0.00236,   0.00056,  -4.90048,   1.00000
-429836856.24725,-513885739.27917,4634807.29932,  -0.00198,  -0.00387,   0.00062,477509884.39725,   0.00267,277509890.07552,  -0.00102,  -0.00237,   0.00056,  -5.67827,   1.00000
-430073370.73052,-513760382.34826,4604082.02460,  -0.00198,  -0.00387,   0.00062,477516248.95043,   0.00267,277516251.23727,  -0.00103,  -0.00237,   0.00056,  -2.28684,   1.00000
-430308766.44067,-513635311.63464,4573477.50799,  -0.00199,  -0.00388,   0.00062,477522607.39506,   0.00268,277522611.56223,  -0.00103,  -0.00238,   0.00056,  -4.16717,   1.00000
-430548469.90867,-513507267.04998,4543180.80356,  -0.00199,  -0.00388,   0.00062,477528901.33889,   0.00269,277528905.76232,  -0.00103,  -0.00238,   0.00057,  -4.42343,   1.00000
-430783030.30064,-513381659.37790,4513338.86298,  -0.00199,  -0.00388,   0.00062,477535078.43519,   0.00269,277535081.14607,  -0.00104,  -0.00239,   0.00057,  -2.71088,   1.00000
-431021932.96171,-513253036.12975,4483795.68790,  -0.00200,  -0.00389,   0.00062,477541184.95754,   0.00270,277541190.57854,  -0.00104,  -0.00239,   0.00057,  -5.62100,   1.00000
-431250336.08646,-513130132.84969,4454513.12825,  -0.00200,  -0.00389,   0.00062,477547245.23039,   0.00270,277547246.43023,  -0.00104,  -0.00240,   0.00057,  -1.19984,   1.00000
-431488571.87257,-513000864.56896,4425704.97345,  -0.00201,  -0.00390,   0.00062,477553164.45022,   0.00271,277553171.34669,  -0.00104,  -0.00240,   0.00057,  -6.89647,   1.00000
-431716219.58996,-512877133.53754,4403202.24532,  -0.00201,  -0.00390,   0.00062,477559038.99707,   0.00271,277559043.37758,  -0.00105,  -0.00241,   0.00057,  -4.38051,   1.00000
-431953905.72349,-512747174.53338,4375088.56650,  -0.00202,  -0.00390,   0.00062,477564782.17438,   0.00272,277564783.98745,  -0.00105,  -0.00241,   0.00057,  -1.81307,   1.00000
-432181052.59759,-512622739.97851,4353273.67019,  -0.00202,  -0.00391,   0.00062,477570469.55712,   0.00272,277570471.77584,  -0.00105,  -0.00242,   0.00057,  -2.21872,   1.00000
-432412677.11179,-512495192.24907,4331713.31234,  -0.00202,  -0.00391,   0.00062,477576086.64873,   0.00273,277576094.00855,  -0.00106,  -0.00242,   0.00057,  -7.35982,   1.00000
-432639460.99961,-512370000.71743,4310549.67279,  -0.00203,  -0.00391,   0.00062,477581597.65835,   0.00274,277581597.75745,  -0.00106,  -0.00243,   0.00057,  -0.09911,   1.00000
-432870748.87695,-512241649.37471,4289633.88762,  -0.00203,  -0.00392,   0.00062,477587027.76907,   0.00274,277587036.13260,  -0.00106,  -0.00243,   0.00057,  -8.36353,   1.00000
-433097260.92456,-512115628.49513,4269107.15393,  -0.00204,  -0.00392,   0.00062,477592351.50816,   0.00275,277592356.12266,  -0.00106,  -0.00244,   0.00057,  -4.61450,   1.00000
-433322849.26860,-511989831.40086,4248647.41037,  -0.00204,  -0.00392,   0.00062,477597675.48788,   0.00275,277597675.63658,  -0.00107,  -0.00244,   0.00057,  -0.14871,   1.00000
-433549211.56514,-511862914.79032,4228744.51203,  -0.00204,  -0.00393,   0.00062,477602812.06256,   0.00276,277602812.09714,  -0.00107,  -0.00244,   0.00057,  -0.03459,   1.00000
-433774524.46957,-511736025.63279,4214959.67817,  -0.00205,  -0.00393,   0.00062,477607940.14725,   0.00276,277607948.82141,  -0.00107,  -0.00245,   0.00057,  -8.67416,   1.00000
-433995348.18107,-511611594.14890,4195476.00419,  -0.00205,  -0.00393,   0.00062,477612960.07434,   0.00277,277612966.68174,  -0.00107,  -0.00245,   0.00057,  -6.60741,   1.00000
-434220665.23960,-511483743.44903,4182280.03581,  -0.00205,  -0.00394,   0.00062,477617911.08895,   0.00277,277617920.12457,  -0.00108,  -0.00246,   0.00057,  -9.03562,   1.00000
-434441413.47285,-511358152.23476,4169435.50163,  -0.00206,  -0.00394,   0.00062,477622754.61572,   0.00277,277622755.42993,  -0.00108,  -0.00246,   0.00057,  -0.81421,   1.00000
-434657631.27721,-511234785.41439,4156939.35569,  -0.00206,  -0.00394,   0.00062,477627471.80716,   0.00278,277627472.70742,  -0.00108,  -0.00246,   0.00057,  -0.90026,   1.00000
-434878557.29684,-511108117.84661,4144648.71656,  -0.00206,  -0.00395,   0.00062,477632119.05440,   0.00278,277632125.12651,  -0.00108,  -0.00247,   0.00057,  -6.07211,   1.00000
-435104190.76780,-510978142.89515,4132561.93161,  -0.00207,  -0.00395,   0.00062,477636705.22710,   0.00279,277636712.72706,  -0.00109,  -0.00247,   0.00057,  -7.49996,   1.00000
-435319852.78936,-510853870.42184,4120647.77502,  -0.00207,  -0.00395,   0.00062,477641244.76732,   0.00279,277641246.89405,  -0.00109,  -0.00248,   0.00057,  -2.12673,   1.00000
-435531120.06563,-510731776.95765,4109073.61617,  -0.00208,  -0.00395,   0.00062,477645658.54450,   0.00280,277645663.16479,  -0.00109,  -0.00248,   0.00057,  -4.62028,   1.00000
-435752712.43447,-510602809.53662,4097866.17145,  -0.00208,  -0.00396,   0.00062,477649949.01070,   0.00280,277649950.30242,  -0.00109,  -0.00248,   0.00057,  -1.29172,   1.00000
-435964278.07885,-510479350.79860,4092884.78170,  -0.00208,  -0.00396,   0.00062,477654177.02037,   0.00280,277654184.70413,  -0.00109,  -0.00249,   0.00057,  -7.68375,   1.00000
-436180812.32690,-510352677.84181,4082023.22830,  -0.00209,  -0.00396,   0.00062,477658350.67454,   0.00281,277658353.91170,  -0.00110,  -0.00249,   0.00057,  -3.23716,   1.00000
-436392929.71516,-510227965.26646,4077553.29006,  -0.00209,  -0.00396,   0.00062,477662400.00925,   0.00281,277662405.99947,  -0.00110,  -0.00249,   0.00057,  -5.99022,   1.00000
-436610036.85179,-510099993.01791,4067199.79810,  -0.00209,  -0.00397,   0.00062,477666386.45559,   0.00282,277666393.05237,  -0.00110,  -0.00250,   0.00057,  -6.59678,   1.00000
-436817244.42030,-509977544.92969,4063068.83537,  -0.00210,  -0.00397,   0.00062,477670326.74023,   0.00282,277670327.29150,  -0.00110,  -0.00250,   0.00057,  -0.55126,   1.00000
-437025852.97527,-509853607.65001,4059416.84680,  -0.00210,  -0.00397,   0.00062,477674079.49578,   0.00282,277674079.61072,  -0.00110,  -0.00250,   0.00057,  -0.11495,   1.00000
-437233807.92043,-509729777.09605,4055771.64543,  -0.00210,  -0.00397,   0.00062,477677825.36744,   0.00283,277677831.92926,  -0.00111,  -0.00250,   0.00057,  -6.56182,   1.00000
-437437673.25740,-509608030.55929,4052437.26435,  -0.00210,  -0.00397,   0.00062,477681461.20356,   0.00283,277681466.60370,  -0.00111,  -0.00251,   0.00057,  -5.40015,   1.00000
-437643054.38055,-509484722.89749,4049578.15662,  -0.00211,  -0.00398,   0.00062,477684909.61524,   0.00283,277684919.55372,  -0.00111,  -0.00251,   0.00057,  -9.93848,   1.00000
-437847849.16186,-509361522.87147,4046723.66138,  -0.00211,  -0.00398,   0.00062,477688371.93269,   0.00284,277688372.48925,  -0.00111,  -0.00251,   0.00057,  -0.55657,   1.00000
-438057475.99058,-509234599.01936,4050101.22061,  -0.00211,  -0.00398,   0.00062,477691758.28754,   0.00284,277691762.02649,  -0.00111,  -0.00252,   0.00057,  -3.73895,   1.00000
-438248710.68915,-509119101.56303,4047683.74350,  -0.00212,  -0.00398,   0.00062,477695042.24023,   0.00284,277695044.05720,  -0.00111,  -0.00252,   0.00057,  -1.81696,   1.00000
-438450585.71612,-508996367.85756,4045600.40334,  -0.00212,  -0.00398,   0.00062,477698193.04697,   0.00285,277698198.06300,  -0.00112,  -0.00252,   0.00057,  -5.01603,   1.00000
-438657362.83741,-508869871.49332,4049748.21312,  -0.00212,  -0.00398,   0.00062,477701280.72908,   0.00285,277701288.77440,  -0.00112,  -0.00252,   0.00057,  -8.04532,   1.00000
-438854798.46231,-508749208.20972,4047961.03627,  -0.00212,  -0.00399,   0.00062,477704320.38692,   0.00285,277704325.46004,  -0.00112,  -0.00253,   0.00057,  -5.07312,   1.00000
-439048259.98337,-508630355.23152,4052543.54208,  -0.00213,  -0.00399,   0.00062,477707242.71852,   0.00285,277707245.36060,  -0.00112,  -0.00253,   0.00057,  -2.64209,   1.00000
-439243526.48108,-508509758.15661,4057586.13299,  -0.00213,  -0.00399,   0.00062,477709977.17125,   0.00286,277709984.00031,  -0.00112,  -0.00253,   0.00057,  -6.82906,   1.00000
-439438318.30288,-508389211.49013,4062618.27879,  -0.00213,  -0.00399,   0.00062,477712717.45025,   0.00286,277712722.79550,  -0.00112,  -0.00253,   0.00057,  -5.34525,   1.00000
-439638380.96438,-508265153.74809,4061740.88495,  -0.00213,  -0.00399,   0.00062,477715392.73314,   0.00286,277715397.30450,  -0.00112,  -0.00253,   0.00057,  -4.57136,   1.00000
-439820093.41557,-508152199.23507,4067207.38905,  -0.00214,  -0.00399,   0.00062,477717961.72057,   0.00287,277717965.34401,  -0.00113,  -0.00254,   0.00057,  -3.62344,   1.00000
-440012622.04323,-508031801.23567,4072995.74808,  -0.00214,  -0.00399,   0.00062,477720401.03407,   0.00287,277720405.94379,  -0.00113,  -0.00254,   0.00057,  -4.90972,   1.00000
-440201497.52306,-507913298.31590,4079079.89295,  -0.00214,  -0.00399,   0.00062,477722722.06319,   0.00287,277722729.32215,  -0.00113,  -0.00254,   0.00057,  -7.25895,   1.00000
-440389960.33846,-507794813.19196,4085153.40630,  -0.00214,  -0.00399,   0.00063,477725043.58149,   0.00287,277725052.93896,  -0.00113,  -0.00254,   0.00057,  -9.35747,   1.00000
-440574693.78847,-507678046.82077,4097590.71948,  -0.00215,  -0.00400,   0.00063,477727255.61609,   0.00287,277727259.93623,  -0.00113,  -0.00254,   0.00057,  -4.32014,   1.00000
-440756003.25322,-507563302.90676,4104250.46467,  -0.00215,  -0.00400,   0.00063,477729340.41130,   0.00288,277729349.17250,  -0.00113,  -0.00255,   0.00057,  -8.76120,   1.00000
-440942593.04735,-507444784.78430,4111067.44278,  -0.00215,  -0.00400,   0.00063,477731371.55050,   0.00288,277731374.95713,  -0.00113,  -0.00255,   0.00057,  -3.40663,   1.00000
-441125529.36689,-507327934.24793,4124251.58110,  -0.00215,  -0.00400,   0.00063,477733283.66681,   0.00288,277733284.23495,  -0.00113,  -0.00255,   0.00057,  -0.56813,   1.00000
-441305128.01045,-507213068.17337,4131660.66694,  -0.00215,  -0.00400,   0.00063,477735069.27474,   0.00288,277735075.81521,  -0.00114,  -0.00255,   0.00057,  -6.54047,   1.00000
-441481296.30068,-507100021.60046,4139371.11743,  -0.00216,  -0.00400,   0.00063,477736742.54759,   0.00288,277736750.26671,  -0.00114,  -0.00255,   0.00057,  -7.71912,   1.00000
-441657013.50552,-506986785.82056,4153140.74735,  -0.00216,  -0.00400,   0.00063,477738416.49715,   0.00288,277738425.64042,  -0.00114,  -0.00255,   0.00057,  -9.14326,   1.00000
-441829499.83180,-506875526.91292,4161138.40537,  -0.00216,  -0.00400,   0.00063,477739983.03516,   0.00289,277739983.26431,  -0.00114,  -0.00255,   0.00057,  -0.22915,   1.00000
-442012858.85038,-506756359.87477,4175535.70159,  -0.00216,  -0.00400,   0.00063,477741408.70239,   0.00289,277741414.85470,  -0.00114,  -0.00256,   0.00057,  -6.15231,   1.00000
-442178509.68009,-506648480.30450,4190207.86792,  -0.00216,  -0.00400,   0.00063,477742734.73384,   0.00289,277742738.99916,  -0.00114,  -0.00256,   0.00057,  -4.26532,   1.00000
-442344057.80890,-506540736.12983,4198796.09834,  -0.00216,  -0.00400,   0.00063,477744061.01871,   0.00289,277744062.83105,  -0.00114,  -0.00256,   0.00057,  -1.81234,   1.00000
-442520544.87592,-506425027.02997,4213788.61737,  -0.00217,  -0.00400,   0.00063,477745256.15962,   0.00289,277745260.74783,  -0.00114,  -0.00256,   0.00057,  -4.58822,   1.00000
-442685094.95197,-506316718.77859,4229232.79300,  -0.00217,  -0.00400,   0.00063,477746279.42992,   0.00289,277746287.73073,  -0.00114,  -0.00256,   0.00057,  -8.30081,   1.00000
-442849436.04984,-506208363.17019,4244665.58791,  -0.00217,  -0.00400,   0.00063,477747311.19843,   0.00289,277747315.03569,  -0.00114,  -0.00256,   0.00057,  -3.83726,   1.00000
-443010580.99490,-506101720.57332,4260407.58876,  -0.00217,  -0.00400,   0.00063,477748220.70362,   0.00289,277748225.35461,  -0.00114,  -0.00256,   0.00057,  -4.65100,   1.00000
-443174399.54332,-505993051.00033,4270562.50737,  -0.00217,  -0.00400,   0.00063,477748953.56602,   0.00289,277748954.67709,  -0.00114,  -0.00256,   0.00057,  -1.11107,   1.00000
-443337874.70174,-505884119.35819,4286783.69858,  -0.00217,  -0.00400,   0.00063,477749675.65210,   0.00290,277749685.06707,  -0.00114,  -0.00256,   0.00057,  -9.41497,   1.00000
-443492555.32587,-505780813.10253,4303145.39721,  -0.00217,  -0.00400,   0.00063,477750356.85535,   0.00290,277750361.74545,  -0.00114,  -0.00256,   0.00057,  -4.89010,   1.00000
-443649839.39849,-505675246.61434,4319999.58780,  -0.00218,  -0.00400,   0.00063,477750855.86302,   0.00290,277750858.16472,  -0.00114,  -0.00256,   0.00057,  -2.30169,   1.00000
-443804059.21661,-505571334.04490,4337173.82799,  -0.00218,  -0.00400,   0.00063,477751232.06837,   0.00290,277751237.65243,  -0.00114,  -0.00256,   0.00057,  -5.58407,   1.00000
-443958143.58577,-505467332.23683,4354342.70386,  -0.00218,  -0.00400,   0.00063,477751608.73907,   0.00290,277751617.52374,  -0.00114,  -0.00256,   0.00057,  -8.78467,   1.00000
-444109213.67016,-505364977.98957,4371835.61699,  -0.00218,  -0.00400,   0.00063,477751871.26136,   0.00290,277751880.43384,  -0.00114,  -0.00256,   0.00057,  -9.17248,   1.00000
-444257300.77100,-505264265.48036,4389655.26274,  -0.00218,  -0.00400,   0.00063,477752023.25199,   0.00290,277752026.36856,  -0.00114,  -0.00256,   0.00057,  -3.11657,   1.00000
-444410976.65090,-505159459.73678,4407650.82535,  -0.00218,  -0.00400,   0.00063,477752100.17403,   0.00290,277752109.56001,  -0.00114,  -0.00256,   0.00057,  -9.38598,   1.00000
-444532517.30017,-505037919.08751,4431958.95520,  -0.00218,  -0.00400,   0.00063,477729638.94864,   0.00290,277752109.56001,  -0.00114,  -0.00256,   0.00057,-22470.61137,   0.00000
-444654057.94944,-504916378.43824,4450190.05259,  -0.00218,  -0.00399,   0.00063,477707103.19495,   0.00290,277752109.56001,  -0.00114,  -0.00256,   0.00057,-45006.36506,   0.00000
-444736097.88770,-504743183.01303,4468421.14998,  -0.00218,  -0.00399,   0.00063,477638214.84110,   0.00290,277752109.56001,  -0.00114,  -0.00256,   0.00057,-113894.71891,   0.00000
-444796868.21233,-504560872.03912,4486652.24737,  -0.00218,  -0.00399,   0.00063,477555464.84577,   0.00290,277752109.56001,  -0.00114,  -0.00256,   0.00057,-196644.71424,   0.00000
-444848522.98827,-504357291.45160,4504883.34476,  -0.00218,  -0.00399,   0.00063,477456565.15172,   0.00290,277752109.56001,  -0.00114,  -0.00256,   0.00057,-295544.40829,   0.00000
-444869792.60190,-504123325.70175,4523114.44215,  -0.00219,  -0.00399,   0.00063,477327556.53566,   0.00290,277752109.56001,  -0.00114,  -0.00256,   0.00057,-424553.02435,   0.00000
-444869792.60190,-503880244.40321,4541345.53954,  -0.00219,  -0.00399,   0.00063,477184665.20161,   0.00290,277752109.56001,  -0.00114,  -0.00256,   0.00057,-567444.35840,   0.00000
-444830291.89088,-503585508.32873,4559576.63693,  -0.00219,  -0.00399,   0.00063,476995422.76407,   0.00290,277752109.56001,  -0.00114,  -0.00256,   0.00057,-756686.79594,   0.00000
-444769521.56625,-503281656.70556,4583884.76679,  -0.00219,  -0.00399,   0.00063,476792457.59893,   0.00290,277752109.56001,  -0.00114,  -0.00256,   0.00057,-959651.96108,   0.00000
-444699635.69292,-502956535.46876,4602115.86418,  -0.00219,  -0.00399,   0.00063,476573176.83133,   0.00290,277752109.56001,  -0.00114,  -0.00256,   0.00057,-1178932.72868,   0.00000
-444578095.04365,-502591913.52095,4620346.96157,  -0.00219,  -0.00398,   0.00063,476309774.67394,   0.00290,277752109.56001,  -0.00114,  -0.00256,   0.00057,-1442334.88607,   0.00000
-444447438.84568,-502206021.95951,4638578.05896,  -0.00219,  -0.00398,   0.00063,476030233.67779,   0.00290,277752109.56001,  -0.00114,  -0.00256,   0.00057,-1721875.88222,   0.00000
-444295513.03410,-501811014.84939,4656809.15635,  -0.00219,  -0.00398,   0.00063,475736768.44689,   0.00290,277752109.56001,  -0.00114,  -0.00256,   0.00057,-2015341.11312,   0.00000
-444125356.12512,-501373468.51201,4675040.25374,  -0.00219,  -0.00398,   0.00063,475410963.93601,   0.00290,277752109.56001,  -0.00114,  -0.00256,   0.00057,-2341145.62400,   0.00000
-443912659.98889,-500917691.07725,4693271.35113,  -0.00219,  -0.00398,   0.00063,475057216.17391,   0.00290,277752109.56001,  -0.00114,  -0.00256,   0.00057,-2694893.38609,   0.00000
-443690848.30398,-500440644.02887,4711502.44852,  -0.00219,  -0.00398,   0.00063,474687337.05013,   0.00290,277752109.56001,  -0.00114,  -0.00256,   0.00057,-3064772.50988,   0.00000
-443438651.45674,-499933211.81816,4729733.54591,  -0.00219,  -0.00397,   0.00063,474287313.50918,   0.00290,277752109.56001,  -0.00114,  -0.00256,   0.00057,-3464796.05082,   0.00000
-443165184.99588,-499416664.05876,4747964.64330,  -0.00219,  -0.00397,   0.00063,473873334.04524,   0.00290,277752109.56001,  -0.00114,  -0.00256,   0.00057,-3878775.51477,   0.00000
-442852217.82401,-498848461.52343,4766195.74069,  -0.00219,  -0.00397,   0.00063,473413008.60634,   0.00290,277752109.56001,  -0.00114,  -0.00256,   0.00057,-4339100.95367,   0.00000
-442539250.65214,-498280258.98809,4784426.83808,  -0.00219,  -0.00397,   0.00064,472952750.97853,   0.00290,277752109.56001,  -0.00114,  -0.00256,   0.00057,-4799358.58148,   0.00000
-442174628.70433,-497672555.74174,4802657.93547,  -0.00219,  -0.00397,   0.00064,472448297.72857,   0.00290,277752109.56001,  -0.00114,  -0.00256,   0.00057,-5303811.83144,   0.00000
-441810006.75652,-497064852.49539,4820889.03286,  -0.00219,  -0.00396,   0.00064,471943902.10092,   0.00290,277752109.56001,  -0.00114,  -0.00256,   0.00057,-5808207.45909,   0.00000
-441405884.09770,-496405494.47310,4839120.13026,  -0.00218,  -0.00396,   0.00064,471393163.45404,   0.00290,277752109.56001,  -0.00114,  -0.00256,   0.00057,-6358946.10597,   0.00000
-440980491.82525,-495737020.90211,4857351.22765,  -0.00218,  -0.00396,   0.00064,470828434.09547,   0.00290,277752109.56001,  -0.00114,  -0.00256,   0.00057,-6923675.46454,   0.00000
-440524714.39049,-495038162.16881,4869505.29257,  -0.00218,  -0.00396,   0.00064,470233343.39014,   0.00290,277752109.56001,  -0.00114,  -0.00256,   0.00057,-7518766.16987,   0.00000
-440038551.79341,-494308918.27319,4887736.38996,  -0.00218,  -0.00396,   0.00064,469608265.59421,   0.00290,277752109.56001,  -0.00114,  -0.00256,   0.00057,-8143843.96580,   0.00000
-439543273.64763,-493558404.76394,4905967.48735,  -0.00218,  -0.00395,   0.00064,468967074.43777,   0.00290,277752109.56001,  -0.00114,  -0.00256,   0.00057,-8785035.12224,   0.00000
-439026725.88823,-492798775.70601,4924198.58474,  -0.00218,  -0.00395,   0.00064,468311872.10730,   0.00290,277752109.56001,  -0.00114,  -0.00256,   0.00057,-9440237.45270,   0.00000
-438458523.35290,-491999645.93705,4936352.64967,  -0.00218,  -0.00395,   0.00064,467612224.80569,   0.00290,277752109.56001,  -0.00114,  -0.00256,   0.00057,-10139884.75432,   0.00000
-437881205.26886,-491179246.55448,4954583.74706,  -0.00218,  -0.00395,   0.00064,466896653.86414,   0.00290,277752109.56001,  -0.00114,  -0.00256,   0.00057,-10855455.69587,   0.00000
-437273502.02251,-490328462.00959,4966737.81199,  -0.00218,  -0.00394,   0.00064,466150703.05316,   0.00290,277752109.56001,  -0.00114,  -0.00256,   0.00057,-11601406.50685,   0.00000
-436665798.77616,-489477677.46470,4984968.90938,  -0.00218,  -0.00394,   0.00064,465404990.61454,   0.00290,277752109.56001,  -0.00114,  -0.00256,   0.00057,-12347118.94547,   0.00000
-436006440.75387,-488587392.20879,4997122.97431,  -0.00218,  -0.00394,   0.00064,464614808.24887,   0.00290,277752109.56001,  -0.00114,  -0.00256,   0.00057,-13137301.31113,   0.00000
-435316697.56926,-487666721.79057,5009277.03923,  -0.00217,  -0.00393,   0.00064,463794426.92818,   0.00290,277752109.56001,  -0.00114,  -0.00256,   0.00057,-13957682.63183,   0.00000
-434617838.83596,-486724781.75873,5027508.13662,  -0.00217,  -0.00393,   0.00064,462958133.92879,   0.00290,277752109.56001,  -0.00114,  -0.00256,   0.00057,-14793975.63121,   0.00000
-433897710.48903,-485773726.17819,5039662.20155,  -0.00217,  -0.00393,   0.00064,462107588.33149,   0.00290,277752109.56001,  -0.00114,  -0.00256,   0.00057,-15644521.22852,   0.00000
-433138081.43110,-484771015.82171,5051816.26648,  -0.00217,  -0.00393,   0.00064,461210700.42116,   0.00290,277752109.56001,  -0.00114,  -0.00256,   0.00057,-16541409.13885,   0.00000
-432357182.75954,-483759189.91654,5063970.33140,  -0.00217,  -0.00392,   0.00064,460299748.22138,   0.00290,277752109.56001,  -0.00114,  -0.00256,   0.00057,-17452361.33862,   0.00000
-431555014.47435,-482738248.46267,5076124.39633,  -0.00217,  -0.00392,   0.00064,459374723.24976,   0.00290,277752109.56001,  -0.00114,  -0.00256,   0.00057,-18377386.31025,   0.00000
-430713345.47816,-481665652.23286,5088278.46126,  -0.00216,  -0.00392,   0.00064,458403352.70573,   0.00290,277752109.56001,  -0.00114,  -0.00256,   0.00057,-19348756.85428,   0.00000
-429850406.86834,-480583940.45436,5094355.49372,  -0.00216,  -0.00391,   0.00064,457417698.76395,   0.00290,277752109.56001,  -0.00114,  -0.00256,   0.00057,-20334410.79606,   0.00000
-428978352.70983,-479480959.06223,5106509.55865,  -0.00216,  -0.00391,   0.00064,456416141.85110,   0.00290,277752109.56001,  -0.00114,  -0.00256,   0.00057,-21335967.70891,   0.00000
-428063759.32407,-478359746.57271,5118663.62358,  -0.00216,  -0.00391,   0.00064,455386385.29540,   0.00290,277752109.56001,  -0.00114,  -0.00256,   0.00057,-22365724.26461,   0.00000
-427130934.84092,-477195994.85595,5124740.65604,  -0.00216,  -0.00390,   0.00064,454324190.99124,   0.00290,277752109.56001,  -0.00114,  -0.00256,   0.00057,-23427918.56876,   0.00000
-426176840.74415,-476023127.59049,5136894.72097,  -0.00215,  -0.00390,   0.00064,453248108.66914,   0.00290,277752109.56001,  -0.00114,  -0.00256,   0.00057,-24504000.89086,   0.00000
-425201477.03376,-474841144.77634,5142971.75343,  -0.00215,  -0.00390,   0.00064,452157719.39033,   0.00290,277752109.56001,  -0.00114,  -0.00256,   0.00057,-25594390.16968,   0.00000
-424186612.61235,-473607507.18625,5149048.78589,  -0.00215,  -0.00389,   0.00064,451020983.00611,   0.00290,277752109.56001,  -0.00114,  -0.00256,   0.00057,-26731126.55390,   0.00000
-423150478.57732,-472364754.04746,5155125.81836,  -0.00215,  -0.00389,   0.00064,449870139.72357,   0.00290,277752109.56001,  -0.00114,  -0.00256,   0.00057,-27881969.83644,   0.00000
-422083959.37998,-471091615.74636,5167279.88328,  -0.00215,  -0.00388,   0.00064,448689276.81819,   0.00290,277752109.56001,  -0.00114,  -0.00256,   0.00057,-29062832.74181,   0.00000
-420987055.02031,-469788092.28293,5167279.88328,  -0.00214,  -0.00388,   0.00064,447477763.73345,   0.00290,277752109.56001,  -0.00114,  -0.00256,   0.00057,-30274345.82656,   0.00000
-419890150.66065,-468484568.81951,5173356.91575,  -0.00214,  -0.00388,   0.00064,446266472.55350,   0.00290,277752109.56001,  -0.00114,  -0.00256,   0.00057,-31485637.00651,   0.00000
-418741591.52505,-467141544.64508,5179433.94821,  -0.00214,  -0.00387,   0.00064,445010818.90471,   0.00290,277752109.56001,  -0.00114,  -0.00256,   0.00057,-32741290.65530,   0.00000
-417583916.84075,-465777250.85702,5185510.98067,  -0.00214,  -0.00387,   0.00064,443739061.61638,   0.00290,277752109.56001,  -0.00114,  -0.00256,   0.00057,-34013047.94363,   0.00000
-416383702.92921,-464394725.97157,5185510.98067,  -0.00213,  -0.00387,   0.00064,442438834.78601,   0.00290,277752109.56001,  -0.00114,  -0.00256,   0.00057,-35313274.77400,   0.00000
-415174373.46897,-462990931.47250,5191588.01314,  -0.00213,  -0.00386,   0.00064,441122716.34264,   0.00290,277752109.56001,  -0.00114,  -0.00256,   0.00057,-36629393.21737,   0.00000
-413934658.84641,-461556751.81111,5191588.01314,  -0.00213,  -0.00386,   0.00064,439776145.43745,   0.00290,277752109.56001,  -0.00114,  -0.00256,   0.00057,-37975964.12255,   0.00000
-412673674.61023,-460113456.60103,5191588.01314,  -0.00212,  -0.00385,   0.00064,438415444.01035,   0.00290,277752109.56001,  -0.00114,  -0.00256,   0.00057,-39336665.54966,   0.00000
-411373189.66304,-458618506.61501,5191588.01314,  -0.00212,  -0.00385,   0.00064,437008393.09664,   0.00290,277752109.56001,  -0.00114,  -0.00256,   0.00057,-40743716.46337,   0.00000
-410060550.65093,-457135710.69391,5191588.01314,  -0.00212,  -0.00384,   0.00064,435603316.90738,   0.00290,277752109.56001,  -0.00114,  -0.00256,   0.00057,-42148792.65262,   0.00000
-408708410.92780,-455601259.99688,5185510.98067,  -0.00212,  -0.00384,   0.00064,434151672.64014,   0.00290,277752109.56001,  -0.00114,  -0.00256,   0.00057,-43600436.91987,   0.00000
-407335001.59104,-454057693.75115,5185510.98067,  -0.00211,  -0.00384,   0.00064,432686110.17876,   0.00290,277752109.56001,  -0.00114,  -0.00256,   0.00057,-45065999.38125,   0.00000
-405952476.70560,-452492857.89179,5185510.98067,  -0.00211,  -0.00383,   0.00064,431204443.39793,   0.00290,277752109.56001,  -0.00114,  -0.00256,   0.00057,-46547666.16208,   0.00000
-404527412.59290,-450909790.93505,5179433.94821,  -0.00211,  -0.00383,   0.00064,429694281.63347,   0.00290,277752109.56001,  -0.00114,  -0.00256,   0.00057,-48057827.92653,   0.00000
-403062847.76920,-449275069.20236,5173356.91575,  -0.00210,  -0.00382,   0.00064,428137768.83093,   0.00290,277752109.56001,  -0.00114,  -0.00256,   0.00057,-49614340.72907,   0.00000
-401607398.49419,-447661617.08330,5167279.88328,  -0.00210,  -0.00382,   0.00064,426597363.84155,   0.00290,277752109.56001,  -0.00114,  -0.00256,   0.00057,-51154745.71846,   0.00000
-400112448.50816,-445996510.18830,5161202.85082,  -0.00209,  -0.00381,   0.00064,425010607.95986,   0.00290,277752109.56001,  -0.00114,  -0.00256,   0.00057,-52741501.60015,   0.00000
-398574959.29490,-444313172.19591,5155125.81836,  -0.00209,  -0.00381,   0.00064,423395576.98228,   0.00290,277752109.56001,  -0.00114,  -0.00256,   0.00057,-54356532.57773,   0.00000
-397028354.53293,-442608564.58990,5142971.75343,  -0.00209,  -0.00380,   0.00064,421764218.64060,   0.00290,277752109.56001,  -0.00114,  -0.00256,   0.00057,-55987890.91941,   0.00000
-395460480.15735,-440894841.43519,5136894.72097,  -0.00208,  -0.00380,   0.00064,420118947.37051,   0.00290,277752109.56001,  -0.00114,  -0.00256,   0.00057,-57633162.18950,   0.00000
-393862220.61945,-439150733.11816,5124740.65604,  -0.00208,  -0.00379,   0.00064,418443211.43651,   0.00290,277752109.56001,  -0.00114,  -0.00256,   0.00057,-59308898.12350,   0.00000
-392233575.91923,-437376239.63882,5112586.59111,  -0.00208,  -0.00379,   0.00064,416737234.00759,   0.00290,277752109.56001,  -0.00114,  -0.00256,   0.00057,-61014875.55242,   0.00000
-390583661.60539,-435592630.61078,5100432.52619,  -0.00207,  -0.00378,   0.00064,415017126.34429,   0.00290,277752109.56001,  -0.00114,  -0.00256,   0.00057,-62734983.21572,   0.00000
-388903362.12923,-433778636.42042,5088278.46126,  -0.00207,  -0.00378,   0.00064,413266780.78396,   0.00290,277752109.56001,  -0.00114,  -0.00256,   0.00057,-64485328.77604,   0.00000
-387192677.49075,-431934257.06775,5070047.36387,  -0.00206,  -0.00377,   0.00064,411485973.73167,   0.00290,277752109.56001,  -0.00114,  -0.00256,   0.00057,-66266135.82834,   0.00000
-385460723.23865,-430080762.16638,5051816.26648,  -0.00206,  -0.00377,   0.00064,409691044.63286,   0.00290,277752109.56001,  -0.00114,  -0.00256,   0.00057,-68061064.92715,   0.00000
-383707499.37293,-428218151.71631,5039662.20155,  -0.00205,  -0.00376,   0.00064,407882224.34731,   0.00290,277752109.56001,  -0.00114,  -0.00256,   0.00057,-69869885.21269,   0.00000
-381914774.79619,-426303886.49031,5021431.10416,  -0.00205,  -0.00376,   0.00064,406026834.52166,   0.00290,277752109.56001,  -0.00114,  -0.00256,   0.00057,-71725275.03835,   0.00000
-380122050.21946,-424389621.26430,5003200.00677,  -0.00205,  -0.00375,   0.00064,404171457.18615,   0.00290,277752109.56001,  -0.00114,  -0.00256,   0.00057,-73580652.37385,   0.00000
-378286786.41548,-422457124.94091,4978891.87692,  -0.00204,  -0.00375,   0.00064,402287627.31488,   0.00290,277752109.56001,  -0.00114,  -0.00256,   0.00057,-75464482.24513,   0.00000
-376433291.51411,-420482089.39027,4960660.77953,  -0.00204,  -0.00374,   0.00064,400371799.69667,   0.00290,277752109.56001,  -0.00114,  -0.00256,   0.00057,-77380309.86334,   0.00000
-374546372.93419,-418510092.35586,4936352.64967,  -0.00203,  -0.00374,   0.00064,398443657.85651,   0.00290,277752109.56001,  -0.00114,  -0.00256,   0.00057,-79308451.70350,   0.00000
-372641223.25688,-416495556.09421,4912044.51982,  -0.00203,  -0.00373,   0.00064,396483291.64884,   0.00290,277752109.56001,  -0.00114,  -0.00256,   0.00057,-81268817.91117,   0.00000
-370714803.96595,-414471904.28386,4887736.38996,  -0.00202,  -0.00373,   0.00064,394508839.54009,   0.00290,277752109.56001,  -0.00114,  -0.00256,   0.00057,-83243270.01992,   0.00000
-368745845.44777,-412430021.37612,4863428.26011,  -0.00202,  -0.00372,   0.00064,392506207.53084,   0.00290,277752109.56001,  -0.00114,  -0.00256,   0.00057,-85245902.02917,   0.00000
-366758655.83220,-410345599.24114,4833043.09779,  -0.00201,  -0.00372,   0.00064,390471121.79626,   0.00290,277752109.56001,  -0.00114,  -0.00256,   0.00057,-87280987.76375,   0.00000
-364759312.15171,-408273331.17108,4802657.93547,  -0.00201,  -0.00371,   0.00064,388438110.73169,   0.00290,277752109.56001,  -0.00114,  -0.00256,   0.00057,-89313998.82832,   0.00000
-362720467.76020,-406149408.32508,4772272.77316,  -0.00200,  -0.00370,   0.00063,386358771.10408,   0.00290,277752109.56001,  -0.00114,  -0.00256,   0.00057,-91393338.45593,   0.00000
-360660353.75507,-404016369.93039,4741887.61084,  -0.00200,  -0.00370,   0.00063,384265386.85506,   0.00290,277752109.56001,  -0.00114,  -0.00256,   0.00057,-93486722.70494,   0.00000
-358578970.13632,-401874215.98701,4711502.44852,  -0.00199,  -0.00369,   0.00063,382157972.01184,   0.00290,277752109.56001,  -0.00114,  -0.00256,   0.00057,-95594137.54817,   0.00000
-356467201.35525,-399701676.88130,4675040.25374,  -0.00199,  -0.00369,   0.00063,380020165.27155,   0.00290,277752109.56001,  -0.00114,  -0.00256,   0.00057,-97731944.28846,   0.00000
-354325047.41187,-397498752.61328,4638578.05896,  -0.00198,  -0.00368,   0.00063,377852196.50798,   0.00290,277752109.56001,  -0.00114,  -0.00256,   0.00057,-99899913.05203,   0.00000
-352161623.85486,-395286712.79656,4602115.86418,  -0.00198,  -0.00368,   0.00063,375670230.88634,   0.00290,277752109.56001,  -0.00114,  -0.00256,   0.00057,-102081878.67366,   0.00000
-349976930.68423,-393065557.43115,4565653.66940,  -0.00197,  -0.00367,   0.00063,373474286.50800,   0.00290,277752109.56001,  -0.00114,  -0.00256,   0.00057,-104277823.05200,   0.00000
-347774006.41621,-390801862.83850,4523114.44215,  -0.00196,  -0.00366,   0.00063,371245877.65432,   0.00290,277752109.56001,  -0.00114,  -0.00256,   0.00057,-106506231.90569,   0.00000
-345537658.46964,-388541206.76207,4486652.24737,  -0.00196,  -0.00366,   0.00063,369005845.63722,   0.00290,277752109.56001,  -0.00114,  -0.00256,   0.00057,-108746263.92279,   0.00000
-343261809.81205,-386228895.90971,4444113.02013,  -0.00195,  -0.00365,   0.00063,366719307.81049,   0.00290,277752109.56001,  -0.00114,  -0.00256,   0.00057,-111032801.74951,   0.00000
-340985961.15447,-383916585.05734,4395496.76042,  -0.00195,  -0.00365,   0.00063,364432662.37115,   0.00290,277752109.56001,  -0.00114,  -0.00256,   0.00057,-113319447.18886,   0.00000
-338667573.26964,-381586043.10759,4352957.53317,  -0.00194,  -0.00364,   0.00063,362118294.18561,   0.00290,277752109.56001,  -0.00114,  -0.00256,   0.00057,-115633815.37439,   0.00000
-336340069.83612,-379234231.54421,4304341.27347,  -0.00193,  -0.00363,   0.00063,359787658.33733,   0.00290,277752109.56001,  -0.00114,  -0.00256,   0.00057,-117964451.22267,   0.00000
-333970027.17535,-376864188.88344,4255725.01376,  -0.00193,  -0.00363,   0.00063,357429134.37161,   0.00290,277752109.56001,  -0.00114,  -0.00256,   0.00057,-120322975.18840,   0.00000
-331590868.96589,-374472876.60905,4207108.75405,  -0.00192,  -0.00362,   0.00063,355054576.69303,   0.00290,277752109.56001,  -0.00114,  -0.00256,   0.00057,-122697532.86698,   0.00000
-329181325.59411,-372051179.17234,4158492.49434,  -0.00192,  -0.00362,   0.00063,352649973.59152,   0.00290,277752109.56001,  -0.00114,  -0.00256,   0.00057,-125102135.96849,   0.00000
-326729242.99508,-369611250.63825,4103799.20217,  -0.00191,  -0.00361,   0.00063,350217352.80634,   0.00290,277752109.56001,  -0.00114,  -0.00256,   0.00057,-127534756.75366,   0.00000
-324277160.39606,-367171322.10415,4049105.91000,  -0.00190,  -0.00360,   0.00063,347784945.90113,   0.00290,277752109.56001,  -0.00114,  -0.00256,   0.00057,-129967163.65888,   0.00000
-321794692.63471,-364701008.40773,3994412.61783,  -0.00190,  -0.00360,   0.00062,345322554.77138,   0.00290,277752109.56001,  -0.00114,  -0.00256,   0.00057,-132429554.78863,   0.00000
-319281839.71105,-362200309.54900,3933642.29319,  -0.00189,  -0.00359,   0.00062,342829982.43301,   0.00290,277752109.56001,  -0.00114,  -0.00256,   0.00057,-134922127.12699,   0.00000
-316747717.17377,-359690495.14157,3872871.96856,  -0.00188,  -0.00358,   0.00062,340323702.98973,   0.00290,277752109.56001,  -0.00114,  -0.00256,   0.00057,-137428406.57028,   0.00000
-314192325.02287,-357171565.18545,3812101.64392,  -0.00188,  -0.00358,   0.00062,337803753.58994,   0.00290,277752109.56001,  -0.00114,  -0.00256,   0.00057,-139948355.97007,   0.00000
-311606547.70964,-354622250.06700,3751331.31929,  -0.00187,  -0.00357,   0.00062,335253908.54351,   0.00290,277752109.56001,  -0.00114,  -0.00256,   0.00057,-142498201.01649,   0.00000
-309011654.84773,-352051665.33494,3684483.96219,  -0.00186,  -0.00356,   0.00062,332687896.48256,   0.00290,277752109.56001,  -0.00114,  -0.00256,   0.00057,-145064213.07745,   0.00000
-306374222.75856,-349462849.50549,3623713.63755,  -0.00186,  -0.00356,   0.00062,330094581.22901,   0.00290,277752109.56001,  -0.00114,  -0.00256,   0.00057,-147657528.33100,   0.00000
-303715521.05578,-346864918.12734,3550789.24799,  -0.00185,  -0.00355,   0.00062,327487334.29784,   0.00290,277752109.56001,  -0.00114,  -0.00256,   0.00057,-150264775.26217,   0.00000
-301026434.19068,-344236601.58687,3483941.89089,  -0.00184,  -0.00354,   0.00062,324850502.25191,   0.00290,277752109.56001,  -0.00114,  -0.00256,   0.00057,-152901607.30810,   0.00000
-298337347.32557,-341608285.04640,3411017.50133,  -0.00184,  -0.00354,   0.00062,322213886.66165,   0.00290,277752109.56001,  -0.00114,  -0.00256,   0.00057,-155538222.89836,   0.00000
-295596605.68453,-338940467.79492,3338093.11177,  -0.00183,  -0.00353,   0.00062,319533677.08087,   0.00290,277752109.56001,  -0.00114,  -0.00256,   0.00057,-158218432.47914,   0.00000
-292855864.04349,-336272650.54344,3265168.72221,  -0.00182,  -0.00352,   0.00062,316853939.47280,   0.00290,277752109.56001,  -0.00114,  -0.00256,   0.00057,-160898170.08721,   0.00000
-290084737.24013,-333574448.12965,3186167.30018,  -0.00181,  -0.00352,   0.00061,314144339.55613,   0.00290,277752109.56001,  -0.00114,  -0.00256,   0.00057,-163607770.00388,   0.00000
-287271071.20953,-330858014.61846,3107165.87816,  -0.00181,  -0.00351,   0.00061,311407644.98133,   0.00290,277752109.56001,  -0.00114,  -0.00256,   0.00057,-166344464.57868,   0.00000
-284448289.63023,-328120311.49365,3028164.45613,  -0.00180,  -0.00350,   0.00061,308655173.66612,   0.00290,277752109.56001,  -0.00114,  -0.00256,   0.00057,-169096935.89388,   0.00000
-281604238.43731,-325373492.82014,2949163.03410,  -0.00179,  -0.00350,   0.00061,305889514.31904,   0.00290,277752109.56001,  -0.00114,  -0.00256,   0.00057,-171862595.24097,   0.00000
-278729802.08207,-322596288.98432,2864084.57962,  -0.00178,  -0.00349,   0.00061,303094172.48702,   0.00290,277752109.56001,  -0.00114,  -0.00256,   0.00057,-174657937.07299,   0.00000
-275834096.11321,-319809969.59980,2779006.12513,  -0.00178,  -0.00348,   0.00061,300285763.84270,   0.00290,277752109.56001,  -0.00114,  -0.00256,   0.00057,-177466345.71731,   0.00000
-272917120.53072,-317014534.66659,2687850.63817,  -0.00177,  -0.00347,   0.00061,297464198.72688,   0.00290,277752109.56001,  -0.00114,  -0.00256,   0.00057,-180287910.83313,   0.00000
-269969759.78592,-314188714.57106,2596695.15122,  -0.00176,  -0.00347,   0.00061,294613299.49548,   0.00290,277752109.56001,  -0.00114,  -0.00256,   0.00057,-183138810.06453,   0.00000
-267001129.42750,-311353778.92683,2505539.66427,  -0.00175,  -0.00346,   0.00061,291749552.40689,   0.00290,277752109.56001,  -0.00114,  -0.00256,   0.00057,-186002557.15312,   0.00000
-264023383.52038,-308497573.66898,2414384.17732,  -0.00174,  -0.00345,   0.00060,288870238.25613,   0.00290,277752109.56001,  -0.00114,  -0.00256,   0.00057,-188881871.30388,   0.00000
-261003098.38602,-305623137.31374,2317151.65790,  -0.00174,  -0.00345,   0.00060,285964405.52396,   0.00290,277752109.56001,  -0.00114,  -0.00256,   0.00057,-191787704.03605,   0.00000
-257952428.08934,-302718315.79619,2219919.13848,  -0.00173,  -0.00344,   0.00060,283029492.12382,   0.00290,277752109.56001,  -0.00114,  -0.00256,   0.00057,-194722617.43619,   0.00000
-254910873.34135,-299834763.89225,2122686.61907,  -0.00172,  -0.00343,   0.00060,280112146.93324,   0.00290,277752109.56001,  -0.00114,  -0.00256,   0.00057,-197639962.62677,   0.00000
-251829817.88235,-296899557.21238,2019377.06719,  -0.00171,  -0.00342,   0.00060,277149195.33825,   0.00290,277752109.56001,  -0.00114,  -0.00256,   0.00057,-200602914.22176,   0.00000
-248706223.19611,-293946119.43512,1916067.51531,  -0.00170,  -0.00342,   0.00060,274160338.75042,   0.00290,277752109.56001,  -0.00114,  -0.00256,   0.00057,-203591770.80959,   0.00000
-245582628.50987,-290992681.65785,1812757.96343,  -0.00169,  -0.00341,   0.00060,271172784.10614,   0.00290,277752109.56001,  -0.00114,  -0.00256,   0.00057,-206579325.45387,   0.00000
-242437764.21000,-288030128.33189,1703371.37909,  -0.00169,  -0.00340,   0.00060,268172982.28250,   0.00290,277752109.56001,  -0.00114,  -0.00256,   0.00057,-209579127.27751,   0.00000
-239262514.74782,-285037189.84361,1593984.79474,  -0.00168,  -0.00339,   0.00059,265144598.43892,   0.00290,277752109.56001,  -0.00114,  -0.00256,   0.00057,-212607511.12109,   0.00000
-236065995.67201,-282035135.80664,1478521.17794,  -0.00167,  -0.00339,   0.00059,262104225.58216,   0.00290,277752109.56001,  -0.00114,  -0.00256,   0.00057,-215647883.97785,   0.00000
-232839091.43389,-279002696.60735,1369134.59359,  -0.00166,  -0.00338,   0.00059,259035589.09323,   0.00290,277752109.56001,  -0.00114,  -0.00256,   0.00057,-218716520.46677,   0.00000
-229612187.19577,-275970257.40806,1247593.94432,  -0.00165,  -0.00337,   0.00059,255968503.04325,   0.00290,277752109.56001,  -0.00114,  -0.00256,   0.00057,-221783606.51676,   0.00000
-226333628.18171,-272898317.49776,1132130.32752,  -0.00164,  -0.00336,   0.00059,252860004.29543,   0.00290,277752109.56001,  -0.00114,  -0.00256,   0.00057,-224892105.26457,   0.00000
-223064184.71634,-269847647.20108,1010589.67825,  -0.00163,  -0.00336,   0.00059,249770097.60395,   0.00290,277752109.56001,  -0.00114,  -0.00256,   0.00057,-227982011.95606,   0.00000
-219733970.92634,-266736206.57976,889049.02898,  -0.00162,  -0.00335,   0.00058,246622357.54803,   0.00290,277752109.56001,  -0.00114,  -0.00256,   0.00057,-231129752.01198,   0.00000
-216412872.68503,-263646035.57207,767508.37971,  -0.00161,  -0.00334,   0.00058,243493603.22978,   0.00290,277752109.56001,  -0.00114,  -0.00256,   0.00057,-234258506.33023,   0.00000
-213061389.28141,-260525479.40206,639890.69797,  -0.00161,  -0.00333,   0.00058,240337239.76093,   0.00290,277752109.56001,  -0.00114,  -0.00256,   0.00057,-237414869.79908,   0.00000
-209688636.26416,-257395807.68335,506195.98377,  -0.00160,  -0.00333,   0.00058,237170231.69271,   0.00290,277752109.56001,  -0.00114,  -0.00256,   0.00057,-240581877.86729,   0.00000
-206285498.08460,-254235750.80233,378578.30204,  -0.00159,  -0.00332,   0.00058,233976078.23334,   0.00290,277752109.56001,  -0.00114,  -0.00256,   0.00057,-243776031.32666,   0.00000
-202861090.29141,-251066578.37261,244883.58784,  -0.00158,  -0.00331,   0.00058,230771724.45831,   0.00290,277752109.56001,  -0.00114,  -0.00256,   0.00057,-246980385.10170,   0.00000
-199415412.88460,-247888290.39419,111188.87365,  -0.00157,  -0.00330,   0.00057,227557471.24885,   0.00290,277752109.56001,  -0.00114,  -0.00256,   0.00057,-250194638.31116,   0.00000
-195939350.31547,-244679617.25346,-28582.87301,  -0.00156,  -0.00330,   0.00057,224316698.69230,   0.00290,277752109.56001,  -0.00114,  -0.00256,   0.00057,-253435410.86771,   0.00000
-192463287.74635,-241470944.11273,-168354.61968,  -0.00155,  -0.00329,   0.00057,221079459.04473,   0.00290,277752109.56001,  -0.00114,  -0.00256,   0.00057,-256672650.51528,   0.00000
-188944685.94998,-238244039.87461,-314203.39880,  -0.00154,  -0.00328,   0.00057,217820264.81086,   0.00290,277752109.56001,  -0.00114,  -0.00256,   0.00057,-259931844.74914,   0.00000
-185416968.60491,-234995866.02286,-460052.17792,  -0.00153,  -0.00327,   0.00057,214548183.69272,   0.00290,277752109.56001,  -0.00114,  -0.00256,   0.00057,-263203925.86729,   0.00000
-181867981.64622,-231738576.62242,-605900.95705,  -0.00152,  -0.00326,   0.00057,211267614.15578,   0.00290,277752109.56001,  -0.00114,  -0.00256,   0.00057,-266484495.40422,   0.00000
-178297725.07391,-228472171.67329,-757826.76864,  -0.00151,  -0.00326,   0.00056,207979004.82460,   0.00290,277752109.56001,  -0.00114,  -0.00256,   0.00057,-269773104.73541,   0.00000
-174706198.88798,-225196651.17546,-909752.58022,  -0.00150,  -0.00325,   0.00056,204682729.24366,   0.00290,277752109.56001,  -0.00114,  -0.00256,   0.00057,-273069380.31635,   0.00000
-171105557.15335,-221899861.06400,-1061678.39181,  -0.00149,  -0.00324,   0.00056,201374631.35261,   0.00290,277752109.56001,  -0.00114,  -0.00256,   0.00057,-276377478.20740,   0.00000
-167462376.19148,-218584839.85516,-1219681.23586,  -0.00148,  -0.00323,   0.00056,198047231.33529,   0.00290,277752109.56001,  -0.00114,  -0.00256,   0.00057,-279704878.22472,   0.00000
-163788810.06729,-215239433.48400,-1377684.07991,  -0.00147,  -0.00322,   0.00055,194696356.87434,   0.00290,277752109.56001,  -0.00114,  -0.00256,   0.00057,-283055752.68566,   0.00000
-160115243.94310,-211894027.11284,-1535686.92396,  -0.00146,  -0.00322,   0.00055,191351982.56298,   0.00290,277752109.56001,  -0.00114,  -0.00256,   0.00057,-286400126.99703,   0.00000
-156420408.20529,-208539505.19298,-1699766.80048,  -0.00145,  -0.00321,   0.00055,188002400.04201,   0.00290,277752109.56001,  -0.00114,  -0.00256,   0.00057,-289749709.51800,   0.00000
-152704302.85385,-205175867.72443,-1869923.70946,  -0.00144,  -0.00320,   0.00055,184648294.89410,   0.00290,277752109.56001,  -0.00114,  -0.00256,   0.00057,-293103814.66591,   0.00000
-148957812.34010,-201781845.09356,-2040080.61844,  -0.00143,  -0.00319,   0.00055,181272850.80291,   0.00290,277752109.56001,  -0.00114,  -0.00256,   0.00057,-296479258.75710,   0.00000
-145211321.82635,-198387822.46269,-2210237.52741,  -0.00142,  -0.00318,   0.00054,177906024.64157,   0.00290,277752109.56001,  -0.00114,  -0.00256,   0.00057,-299846084.91843,   0.00000
-141422292.08535,-194975568.73443,-2380394.43639,  -0.00141,  -0.00318,   0.00054,174524623.20240,   0.00290,277752109.56001,  -0.00114,  -0.00256,   0.00057,-303227486.35761,   0.00000
-137624146.79566,-191542045.39255,-2556628.37783,  -0.00140,  -0.00317,   0.00054,171136084.47004,   0.00290,277752109.56001,  -0.00114,  -0.00256,   0.00057,-306616025.08997,   0.00000
-133783462.27872,-188090290.95328,-2738939.35174,  -0.00139,  -0.00316,   0.00054,167735229.90638,   0.00290,277752109.56001,  -0.00114,  -0.00256,   0.00057,-310016879.65363,   0.00000
-129942777.76178,-184638536.51401,-2921250.32564,  -0.00138,  -0.00315,   0.00053,164346193.90901,   0.00290,277752109.56001,  -0.00114,  -0.00256,   0.00057,-313405915.65100,   0.00000
-126102093.24485,-181186782.07473,-3103561.29955,  -0.00136,  -0.00314,   0.00053,160969722.95941,   0.00290,277752109.56001,  -0.00114,  -0.00256,   0.00057,-316782386.60060,   0.00000
-122209753.95197,-177695526.92445,-3285872.27345,  -0.00135,  -0.00313,   0.00053,157566457.39480,   0.00290,277752109.56001,  -0.00114,  -0.00256,   0.00057,-320185652.16520,   0.00000
-118305260.59417,-174216425.83909,-3474260.27982,  -0.00134,  -0.00313,   0.00053,154184919.85664,   0.00290,277752109.56001,  -0.00114,  -0.00256,   0.00057,-323567189.70337,   0.00000
-114382536.13897,-170694785.52649,-3668725.31866,  -0.00133,  -0.00312,   0.00053,150784450.59651,   0.00290,277752109.56001,  -0.00114,  -0.00256,   0.00057,-326967658.96350,   0.00000
-110447657.61885,-167185299.27881,-3863190.35749,  -0.00132,  -0.00311,   0.00052,147408132.04841,   0.00290,277752109.56001,  -0.00114,  -0.00256,   0.00057,-330343977.51160,   0.00000
-106491509.48511,-163666697.48244,-4057655.39632,  -0.00131,  -0.00310,   0.00052,144039957.96939,   0.00290,277752109.56001,  -0.00114,  -0.00256,   0.00057,-333712151.59062,   0.00000
-102504976.18905,-160117710.52375,-4258197.46762,  -0.00130,  -0.00309,   0.00052,140664444.68743,   0.00290,277752109.56001,  -0.00114,  -0.00256,   0.00057,-337087664.87258,   0.00000
-98518442.89299,-156568723.56507,-4458739.53891,  -0.00129,  -0.00308,   0.00051,137311263.23906,   0.00290,277752109.56001,  -0.00114,  -0.00256,   0.00057,-340440846.32094,   0.00000
-94480254.82099,-152980235.89537,-4665358.64267,  -0.00128,  -0.00308,   0.00051,133944601.12101,   0.00290,277752109.56001,  -0.00114,  -0.00256,   0.00057,-343807508.43900,   0.00000
-90451182.29768,-149413017.83929,-4871977.74643,  -0.00126,  -0.00307,   0.00051,130622703.48660,   0.00290,277752109.56001,  -0.00114,  -0.00256,   0.00057,-347129406.07341,   0.00000
-86391724.61206,-145815414.62089,-5078596.85019,  -0.00125,  -0.00306,   0.00051,127301989.44356,   0.00290,277752109.56001,  -0.00114,  -0.00256,   0.00057,-350450120.11645,   0.00000
-82332266.92643,-142217811.40249,-5291292.98641,  -0.00124,  -0.00305,   0.00050,124013654.85978,   0.00290,277752109.56001,  -0.00114,  -0.00256,   0.00057,-353738454.70022,   0.00000
-78230270.01357,-138601977.08671,-5503989.12263,  -0.00123,  -0.00304,   0.00050,120741437.77353,   0.00290,277752109.56001,  -0.00114,  -0.00256,   0.00057,-357010671.78648,   0.00000
-74119157.55200,-134964873.15730,-5722762.29132,  -0.00122,  -0.00303,   0.00050,117490143.54311,   0.00290,277752109.56001,  -0.00114,  -0.00256,   0.00057,-360261966.01690,   0.00000
-69986775.47682,-131318653.67919,-5941535.46001,  -0.00121,  -0.00303,   0.00050,114271929.82383,   0.00290,277752109.56001,  -0.00114,  -0.00256,   0.00057,-363480179.73618,   0.00000
-65833123.78801,-127663318.65239,-6166385.66116,  -0.00119,  -0.00302,   0.00049,111092398.44996,   0.00290,277752109.56001,  -0.00114,  -0.00256,   0.00057,-366659711.11005,   0.00000
-61658202.48558,-123998868.07690,-6391235.86231,  -0.00118,  -0.00301,   0.00049,107955776.08345,   0.00290,277752109.56001,  -0.00114,  -0.00256,   0.00057,-369796333.47656,   0.00000
-57483281.18315,-120334417.50140,-6622163.09592,  -0.00117,  -0.00300,   0.00049,104876315.84846,   0.00290,277752109.56001,  -0.00114,  -0.00256,   0.00057,-372875793.71155,   0.00000
-53256705.10478,-116630466.21490,-6853090.32953,  -0.00116,  -0.00299,   0.00048,101825745.68289,   0.00290,277752109.56001,  -0.00114,  -0.00256,   0.00057,-375926363.87712,   0.00000
-49039244.57511,-112947784.54201,-7084017.56315,  -0.00115,  -0.00298,   0.00048,98862153.65638,   0.00290,277752109.56001,  -0.00114,  -0.00256,   0.00057,-378889955.90363,   0.00000
-44812668.49674,-109243833.25550,-7321021.82922,  -0.00113,  -0.00297,   0.00048,95956629.57313,   0.00290,277752109.56001,  -0.00114,  -0.00256,   0.00057,-381795479.98688,   0.00000
-40543553.19113,-105521650.87160,-7558026.09530,  -0.00112,  -0.00297,   0.00047,93122216.03073,   0.00290,277752109.56001,  -0.00114,  -0.00256,   0.00057,-384629893.52928,   0.00000
-36265322.33682,-101778198.87408,-7801107.39384,  -0.00111,  -0.00296,   0.00047,90363311.19944,   0.00290,277752109.56001,  -0.00114,  -0.00256,   0.00057,-387388798.36057,   0.00000
-31974937.41758,-98046900.94149,-8044188.69238,  -0.00110,  -0.00295,   0.00047,87719295.48653,   0.00290,277752109.56001,  -0.00114,  -0.00256,   0.00057,-390032814.07348,   0.00000
-27654167.33603,-94285217.84658,-8293347.02338,  -0.00109,  -0.00294,   0.00047,85166982.44234,   0.00290,277752109.56001,  -0.00114,  -0.00256,   0.00057,-392585127.11767,   0.00000
-23333397.25447,-90523534.75167,-8542505.35439,  -0.00107,  -0.00293,   0.00046,82738499.90978,   0.00290,277752109.56001,  -0.00114,  -0.00256,   0.00057,-395013609.65023,   0.00000
-18991357.55930,-86752736.10806,-8797740.71786,  -0.00106,  -0.00292,   0.00046,80444747.36563,   0.00290,277752109.56001,  -0.00114,  -0.00256,   0.00057,-397307362.19438,   0.00000
-14628048.25050,-82972821.91576,-9052976.08132,  -0.00105,  -0.00291,   0.00046,78298197.02654,   0.00290,277752109.56001,  -0.00114,  -0.00256,   0.00057,-399453912.53347,   0.00000
-10243469.32808,-79183792.17476,-9308211.44479,  -0.00104,  -0.00290,   0.00045,76313912.63414,   0.00290,277752109.56001,  -0.00114,  -0.00256,   0.00057,-401438196.92587,   0.00000
-5849774.85696,-75373492.82014,-9569523.84072,  -0.00102,  -0.00290,   0.00045,74492903.56953,   0.00290,277752109.56001,  -0.00114,  -0.00256,   0.00057,-403259205.99048,   0.00000
-1434810.77222,-71554077.91683,-9836913.26912,  -0.00101,  -0.00289,   0.00045,72867501.49882,   0.00290,277752109.56001,  -0.00114,  -0.00256,   0.00057,-404884608.06119,   0.00000
2992307.37744,-67746817.07844,-10104302.69751,  -0.00100,  -0.00288,   0.00044,71467441.72875,   0.00290,277752109.56001,  -0.00114,  -0.00256,   0.00057,-406284667.83126,   0.00000
7449810.68942,-63909171.07774,-10371692.12590,  -0.00099,  -0.00287,   0.00044,70275949.26902,   0.00290,277752109.56001,  -0.00114,  -0.00256,   0.00057,-407476160.29098,   0.00000
11916429.55010,-60050255.46341,-10645158.58676,  -0.00097,  -0.00286,   0.00043,69307844.55710,   0.00290,277752109.56001,  -0.00114,  -0.00256,   0.00057,-408444265.00291,   0.00000
16395202.47571,-56203493.91401,-10918625.04762,  -0.00096,  -0.00285,   0.00043,68605773.61794,   0.00290,277752109.56001,  -0.00114,  -0.00256,   0.00057,-409146335.94207,   0.00000
20873975.40131,-52356732.36461,-11198168.54094,  -0.00095,  -0.00284,   0.00043,68161868.75695,   0.00290,277752109.56001,  -0.00114,  -0.00256,   0.00057,-409590240.80306,   0.00000
25404403.10286,-48470470.10420,-11477712.03426,  -0.00093,  -0.00283,   0.00042,67980490.95785,   0.00290,277752109.56001,  -0.00114,  -0.00256,   0.00057,-409771618.60216,   0.00000
29934830.80440,-44584207.84378,-11763332.56005,  -0.00092,  -0.00283,   0.00042,68070510.36574,   0.00290,277752109.56001,  -0.00114,  -0.00256,   0.00057,-409681599.19427,   0.00000
34465258.50595,-40697945.58337,-12048953.08583,  -0.00091,  -0.00282,   0.00042,68427873.30594,   0.00290,277752109.56001,  -0.00114,  -0.00256,   0.00057,-409324236.25406,   0.00000
39038225.43474,-36793452.22557,-12340650.64408,  -0.00089,  -0.00281,   0.00041,69072188.53656,   0.00290,277752109.56001,  -0.00114,  -0.00256,   0.00057,-408679921.02345,   0.00000
43611192.36352,-32888958.86776,-12632348.20233,  -0.00088,  -0.00280,   0.00041,69976246.61202,   0.00290,277752109.56001,  -0.00114,  -0.00256,   0.00057,-407775862.94799,   0.00000
48205428.90594,-28975349.96126,-12924045.76058,  -0.00087,  -0.00279,   0.00040,71142085.50802,   0.00290,277752109.56001,  -0.00114,  -0.00256,   0.00057,-406610024.05199,   0.00000
52808780.99704,-25040471.44114,-13221820.35129,  -0.00085,  -0.00278,   0.00040,72543772.53074,   0.00290,277752109.56001,  -0.00114,  -0.00256,   0.00057,-405208337.02927,   0.00000
57424287.15308,-21117746.98595,-13525671.97446,  -0.00084,  -0.00277,   0.00040,74195761.11094,   0.00290,277752109.56001,  -0.00114,  -0.00256,   0.00057,-403556348.44907,   0.00000
62070178.47143,-17164637.36844,-13829523.59764,  -0.00083,  -0.00276,   0.00039,76069120.57553,   0.00290,277752109.56001,  -0.00114,  -0.00256,   0.00057,-401682988.98448,   0.00000
66716069.78978,-13211527.75093,-14133375.22082,  -0.00081,  -0.00275,   0.00039,78142539.80110,   0.00290,277752109.56001,  -0.00114,  -0.00256,   0.00057,-399609569.75891,   0.00000
71383230.72175,-9249302.58472,-14443303.87645,  -0.00080,  -0.00275,   0.00039,80418824.95785,   0.00290,277752109.56001,  -0.00114,  -0.00256,   0.00057,-397333284.60215,   0.00000
76071661.26735,-5277961.86982,-14759309.56456,  -0.00079,  -0.00274,   0.00038,82884072.73707,   0.00290,277752109.56001,  -0.00114,  -0.00256,   0.00057,-394868036.82294,   0.00000
80760091.81295,-1306621.15492,-15075315.25266,  -0.00077,  -0.00273,   0.00038,85505660.17998,   0.00290,277752109.56001,  -0.00114,  -0.00256,   0.00057,-392246449.38003,   0.00000
85469791.97216,2673835.10868,-15391320.94076,  -0.00076,  -0.00272,   0.00037,88285790.95387,   0.00290,277752109.56001,  -0.00114,  -0.00256,   0.00057,-389466318.60613,   0.00000
90200761.74500,6663406.92097,-15713403.66133,  -0.00075,  -0.00271,   0.00037,91215498.65542,   0.00290,277752109.56001,  -0.00114,  -0.00256,   0.00057,-386536610.90459,   0.00000
94940847.06654,10674248.34689,-16035486.38189,  -0.00073,  -0.00270,   0.00036,94263950.21503,   0.00290,277752109.56001,  -0.00114,  -0.00256,   0.00057,-383488159.34497,   0.00000
99693086.45300,14672935.70788,-16363646.13492,  -0.00072,  -0.00269,   0.00036,97439843.10976,   0.00290,277752109.56001,  -0.00114,  -0.00256,   0.00057,-380312266.45024,   0.00000
104454441.38816,18692892.68249,-16691805.88795,  -0.00071,  -0.00268,   0.00036,100714686.37134,   0.00290,277752109.56001,  -0.00114,  -0.00256,   0.00057,-377037423.18867,   0.00000
109237065.93694,22721965.20579,-17026042.67344,  -0.00069,  -0.00267,   0.00035,104099000.25109,   0.00290,277752109.56001,  -0.00114,  -0.00256,   0.00057,-373653109.30892,   0.00000
114040960.09934,26760153.27779,-17366356.49140,  -0.00068,  -0.00266,   0.00035,107584682.11128,   0.00290,277752109.56001,  -0.00114,  -0.00256,   0.00057,-370167427.44873,   0.00000
118835738.71305,30777071.73617,-17700593.27689,  -0.00066,  -0.00266,   0.00034,111138102.79108,   0.00290,277752109.56001,  -0.00114,  -0.00256,   0.00057,-366614006.76893,   0.00000
123660902.48908,34824375.35687,-18046984.12731,  -0.00065,  -0.00265,   0.00034,114784246.07251,   0.00290,277752109.56001,  -0.00114,  -0.00256,   0.00057,-362967863.48750,   0.00000
128516451.42742,38902064.13988,-18387297.94527,  -0.00064,  -0.00264,   0.00033,118509796.31475,   0.00290,277752109.56001,  -0.00114,  -0.00256,   0.00057,-359242313.24525,   0.00000
133362884.81707,42958483.30927,-18739765.82815,  -0.00062,  -0.00263,   0.00033,122292925.15659,   0.00290,277752109.56001,  -0.00114,  -0.00256,   0.00057,-355459184.40342,   0.00000
138209318.20671,47014902.47866,-19086156.67857,  -0.00061,  -0.00262,   0.00032,126123602.89569,   0.00290,277752109.56001,  -0.00114,  -0.00256,   0.00057,-351628506.66432,   0.00000
143098290.82360,51089552.74545,-19444701.59392,  -0.00059,  -0.00261,   0.00032,130041242.76467,   0.00290,277752109.56001,  -0.00114,  -0.00256,   0.00057,-347710866.79533,   0.00000
147975109.37557,55176357.07715,-19797169.47680,  -0.00058,  -0.00260,   0.00032,133985520.33507,   0.00290,277752109.56001,  -0.00114,  -0.00256,   0.00057,-343766589.22494,   0.00000
152885351.60608,59260122.89263,-20155714.39215,  -0.00056,  -0.00259,   0.00031,138001618.26689,   0.00290,277752109.56001,  -0.00114,  -0.00256,   0.00057,-339750491.29312,   0.00000
157804709.38529,63365158.32173,-20520336.33996,  -0.00055,  -0.00258,   0.00031,142061260.76350,   0.00290,277752109.56001,  -0.00114,  -0.00256,   0.00057,-335690848.79650,   0.00000
162714951.61581,67448924.13721,-20884958.28777,  -0.00054,  -0.00257,   0.00030,146147558.53973,   0.00290,277752109.56001,  -0.00114,  -0.00256,   0.00057,-331604551.02028,   0.00000
167655579.00864,71563075.11500,-21255657.26805,  -0.00052,  -0.00257,   0.00030,150290142.71163,   0.00290,277752109.56001,  -0.00114,  -0.00256,   0.00057,-327461966.84838,   0.00000
172617476.01509,75686341.64149,-21626356.24832,  -0.00051,  -0.00256,   0.00029,154478244.18882,   0.00290,277752109.56001,  -0.00114,  -0.00256,   0.00057,-323273865.37119,   0.00000
177579373.02155,79809608.16798,-22003132.26106,  -0.00049,  -0.00255,   0.00029,158694299.16345,   0.00290,277752109.56001,  -0.00114,  -0.00256,   0.00057,-319057810.39656,   0.00000
182553424.09293,83920720.62954,-22379908.27379,  -0.00048,  -0.00254,   0.00028,162944794.26725,   0.00290,277752109.56001,  -0.00114,  -0.00256,   0.00057,-314807315.29276,   0.00000
187536590.71300,88053102.70473,-22756684.28653,  -0.00046,  -0.00253,   0.00028,167223632.02726,   0.00290,277752109.56001,  -0.00114,  -0.00256,   0.00057,-310528477.53274,   0.00000
192541026.94670,92194600.32861,-23139537.33173,  -0.00045,  -0.00252,   0.00027,171542889.46211,   0.00290,277752109.56001,  -0.00114,  -0.00256,   0.00057,-306209220.09789,   0.00000
197545463.18040,96336097.95249,-23528467.40940,  -0.00043,  -0.00251,   0.00027,175883089.11535,   0.00290,277752109.56001,  -0.00114,  -0.00256,   0.00057,-301869020.44466,   0.00000
202571169.02772,100486711.12507,-23917397.48706,  -0.00042,  -0.00250,   0.00026,180258350.14583,   0.00290,277752109.56001,  -0.00114,  -0.00256,   0.00057,-297493759.41418,   0.00000
207596874.87504,104637324.29764,-24306327.56473,  -0.00040,  -0.00249,   0.00026,184649514.63144,   0.00290,277752109.56001,  -0.00114,  -0.00256,   0.00057,-293102594.92856,   0.00000
212652965.88468,108818322.63253,-24701334.67485,  -0.00039,  -0.00248,   0.00025,189083685.16047,   0.00290,277752109.56001,  -0.00114,  -0.00256,   0.00057,-288668424.39954,   0.00000
217721210.95924,112987166.90250,-25102418.81745,  -0.00037,  -0.00247,   0.00025,193544095.94923,   0.00290,277752109.56001,  -0.00114,  -0.00256,   0.00057,-284208013.61077,   0.00000
222789456.03381,117156011.17247,-25503502.96004,  -0.00036,  -0.00247,   0.00024,198017258.49829,   0.00290,277752109.56001,  -0.00114,  -0.00256,   0.00057,-279734851.06172,   0.00000
227857701.10837,121324855.44243,-25904587.10263,  -0.00034,  -0.00246,   0.00024,202502327.77174,   0.00290,277752109.56001,  -0.00114,  -0.00256,   0.00057,-275249781.78826,   0.00000
232956331.34526,125524084.87472,-26311748.27768,  -0.00033,  -0.00245,   0.00023,207027153.24777,   0.00290,277752109.56001,  -0.00114,  -0.00256,   0.00057,-270724956.31224,   0.00000
238045846.03344,129702044.69338,-26724986.48520,  -0.00031,  -0.00244,   0.00023,211556344.64138,   0.00290,277752109.56001,  -0.00114,  -0.00256,   0.00057,-266195764.91863,   0.00000
243156630.33525,133889120.06073,-27138224.69272,  -0.00030,  -0.00243,   0.00022,216113085.65779,   0.00290,277752109.56001,  -0.00114,  -0.00256,   0.00057,-261639023.90222,   0.00000
248276530.18576,138097465.04171,-27551462.90024,  -0.00028,  -0.00242,   0.00021,220687641.62918,   0.00290,277752109.56001,  -0.00114,  -0.00256,   0.00057,-257064467.93082,   0.00000
253408584.10119,142293655.95777,-27970778.14022,  -0.00027,  -0.00241,   0.00021,225282166.24595,   0.00290,277752109.56001,  -0.00114,  -0.00256,   0.00057,-252469943.31406,   0.00000
258549753.56532,146511116.48744,-28396170.41267,  -0.00025,  -0.00240,   0.00020,229895838.89882,   0.00290,277752109.56001,  -0.00114,  -0.00256,   0.00057,-247856270.66119,   0.00000
263703077.09437,150716422.95219,-28815485.65265,  -0.00024,  -0.00239,   0.00020,234523698.49461,   0.00290,277752109.56001,  -0.00114,  -0.00256,   0.00057,-243228411.06540,   0.00000
268865516.17212,154942999.03056,-29246954.95756,  -0.00022,  -0.00238,   0.00019,239172160.68419,   0.00290,277752109.56001,  -0.00114,  -0.00256,   0.00057,-238579948.87581,   0.00000
274040109.31480,159157421.04400,-29678424.26247,  -0.00021,  -0.00237,   0.00019,243835960.68996,   0.00290,277752109.56001,  -0.00114,  -0.00256,   0.00057,-233916148.87005,   0.00000
279223818.00617,163393112.67106,-30109893.56738,  -0.00019,  -0.00237,   0.00018,248515227.15172,   0.00290,277752109.56001,  -0.00114,  -0.00256,   0.00057,-229236882.40829,   0.00000
284428796.31116,167637919.84682,-30547439.90475,  -0.00018,  -0.00236,   0.00018,253220455.01430,   0.00290,277752109.56001,  -0.00114,  -0.00256,   0.00057,-224531654.54570,   0.00000
289624659.06746,171861457.40896,-30984986.24212,  -0.00016,  -0.00235,   0.00017,257921879.24068,   0.00290,277752109.56001,  -0.00114,  -0.00256,   0.00057,-219830230.31933,   0.00000
294829637.37246,176106264.58472,-31428609.61196,  -0.00015,  -0.00234,   0.00016,262640168.06088,   0.00290,277752109.56001,  -0.00114,  -0.00256,   0.00057,-215111941.49912,   0.00000
300046769.74238,180338917.69555,-31872232.98179,  -0.00013,  -0.00233,   0.00016,267371646.32920,   0.00290,277752109.56001,  -0.00114,  -0.00256,   0.00057,-210380463.23080,   0.00000
305273017.66100,184592840.42001,-32321933.38409,  -0.00012,  -0.00232,   0.00015,272119533.92876,   0.00290,277752109.56001,  -0.00114,  -0.00256,   0.00057,-205632575.63125,   0.00000
310520535.19323,188855878.69316,-32771633.78639,  -0.00010,  -0.00231,   0.00015,276889611.77798,   0.00290,277752109.56001,  -0.00114,  -0.00256,   0.00057,-200862497.78203,   0.00000
315758937.17678,193097647.35269,-33227411.22116,  -0.00008,  -0.00230,   0.00014,281656319.81212,   0.00290,277752109.56001,  -0.00114,  -0.00256,   0.00057,-196095789.74788,   0.00000
321006454.70902,197360685.62584,-33683188.65592,  -0.00007,  -0.00229,   0.00014,286436732.62686,   0.00290,277752109.56001,  -0.00114,  -0.00256,   0.00057,-191315376.93315,   0.00000
326275241.85488,201632839.44768,-34145043.12315,  -0.00005,  -0.00228,   0.00013,291240766.10969,   0.00290,277752109.56001,  -0.00114,  -0.00256,   0.00057,-186511343.45032,   0.00000
331565298.61436,205914108.81822,-34606897.59037,  -0.00004,  -0.00227,   0.00012,296066051.00704,   0.00290,277752109.56001,  -0.00114,  -0.00256,   0.00057,-181686058.55297,   0.00000
336824970.21153,210164993.02645,-35068752.05760,  -0.00002,  -0.00226,   0.00012,300867112.60754,   0.00290,277752109.56001,  -0.00114,  -0.00256,   0.00057,-176884996.95247,   0.00000
342115026.97101,214446262.39699,-35536683.55729,  -0.00001,  -0.00226,   0.00011,305701112.07908,   0.00290,277752109.56001,  -0.00114,  -0.00256,   0.00057,-172050997.48093,   0.00000
347426353.34411,218736647.31622,-36010692.08944,   0.00001,  -0.00225,   0.00010,310557926.95022,   0.00290,277752109.56001,  -0.00114,  -0.00256,   0.00057,-167194182.60978,   0.00000
352728564.16852,223005762.62184,-36484700.62160,   0.00003,  -0.00224,   0.00010,315407526.59119,   0.00290,277752109.56001,  -0.00114,  -0.00256,   0.00057,-162344582.96882,   0.00000
358039890.54163,227296147.54108,-36958709.15375,   0.00004,  -0.00223,   0.00009,320269968.41239,   0.00290,277752109.56001,  -0.00114,  -0.00256,   0.00057,-157482141.14762,   0.00000
363351216.91474,231586532.46031,-37438794.71837,   0.00006,  -0.00222,   0.00009,325137156.45829,   0.00290,277752109.56001,  -0.00114,  -0.00256,   0.00057,-152614953.10172,   0.00000
368683812.90146,235886032.92824,-37924957.31545,   0.00007,  -0.00221,   0.00008,330026543.71753,   0.00290,277752109.56001,  -0.00114,  -0.00256,   0.00057,-147725565.84248,   0.00000
374028562.95312,240173379.33125,-38411119.91253,   0.00009,  -0.00220,   0.00007,334925598.47242,   0.00290,277752109.56001,  -0.00114,  -0.00256,   0.00057,-142826511.08759,   0.00000
379361158.93985,244472879.79918,-38897282.50961,   0.00011,  -0.00219,   0.00007,339819597.16798,   0.00290,277752109.56001,  -0.00114,  -0.00256,   0.00057,-137932512.39203,   0.00000
384715024.54020,248781495.81581,-39389522.13915,   0.00012,  -0.00218,   0.00006,344735415.73566,   0.00290,277752109.56001,  -0.00114,  -0.00256,   0.00057,-133016693.82434,   0.00000
390081044.20547,253077957.76751,-39881761.76870,   0.00014,  -0.00217,   0.00005,349660441.70050,   0.00290,277752109.56001,  -0.00114,  -0.00256,   0.00057,-128091667.85950,   0.00000
395434909.80582,257386573.78413,-40380078.43070,   0.00015,  -0.00216,   0.00005,354582334.40222,   0.00290,277752109.56001,  -0.00114,  -0.00256,   0.00057,-123169775.15779,   0.00000
400810045.01980,261704305.34945,-40878395.09271,   0.00017,  -0.00215,   0.00004,359523644.24929,   0.00290,277752109.56001,  -0.00114,  -0.00256,   0.00057,-118228465.31072,   0.00000
406197334.29869,266009882.84985,-41382788.78718,   0.00019,  -0.00215,   0.00003,364475832.50176,   0.00290,277752109.56001,  -0.00114,  -0.00256,   0.00057,-113276277.05825,   0.00000
411572469.51267,270327614.41517,-41887182.48165,   0.00020,  -0.00214,   0.00003,369422686.23162,   0.00290,277752109.56001,  -0.00114,  -0.00256,   0.00057,-108329423.32839,   0.00000
416968874.34026,274654461.52919,-42397653.20859,   0.00022,  -0.00213,   0.00002,374390754.08309,   0.00290,277752109.56001,  -0.00114,  -0.00256,   0.00057,-103361355.47692,   0.00000
422377433.23278,278969154.57828,-42908123.93552,   0.00023,  -0.00212,   0.00002,379367277.38109,   0.00290,277752109.56001,  -0.00114,  -0.00256,   0.00057,-98384832.17892,   0.00000
427773838.06038,283296001.69230,-43418594.66246,   0.00025,  -0.00211,   0.00001,384338374.66491,   0.00290,277752109.56001,  -0.00114,  -0.00256,   0.00057,-93413734.89510,   0.00000
433191512.50159,287631964.35501,-43935142.42186,   0.00027,  -0.00210,   0.00000,389330448.28047,   0.00290,277752109.56001,  -0.00114,  -0.00256,   0.00057,-88421661.27953,   0.00000
438600071.39412,291946657.40410,-44457767.21372,   0.00028,  -0.00209,  -0.00001,394315264.49343,   0.00290,277752109.56001,  -0.00114,  -0.00256,   0.00057,-83436845.06657,   0.00000
444039015.44896,296291735.61551,-44980392.00558,   0.00030,  -0.00208,  -0.00001,399329508.37808,   0.00290,277752109.56001,  -0.00114,  -0.00256,   0.00057,-78422601.18192,   0.00000
449447574.34148,300606428.66460,-45503016.79744,   0.00031,  -0.00207,  -0.00002,404316819.40549,   0.00290,277752109.56001,  -0.00114,  -0.00256,   0.00057,-73435290.15452,   0.00000
454886518.39632,304951506.87600,-46031718.62177,   0.00033,  -0.00206,  -0.00003,409335552.18177,   0.00290,277752109.56001,  -0.00114,  -0.00256,   0.00057,-68416557.37824,   0.00000
460346732.06478,309305700.63611,-46560420.44609,   0.00035,  -0.00205,  -0.00003,414372875.47356,   0.00290,277752109.56001,  -0.00114,  -0.00256,   0.00057,-63379234.08645,   0.00000
465776560.57092,313629509.23389,-47095199.30288,   0.00036,  -0.00205,  -0.00004,419385112.66758,   0.00290,277752109.56001,  -0.00114,  -0.00256,   0.00057,-58366996.89243,   0.00000
471236774.23938,317983702.99400,-47629978.15967,   0.00038,  -0.00204,  -0.00005,424426628.24592,   0.00290,277752109.56001,  -0.00114,  -0.00256,   0.00057,-53325481.31409,   0.00000
476687872.35915,322316627.14048,-48170834.04892,   0.00040,  -0.00203,  -0.00005,429460354.77893,   0.00290,277752109.56001,  -0.00114,  -0.00256,   0.00057,-48291754.78108,   0.00000
482169355.64123,326679936.44928,-48711689.93817,   0.00041,  -0.00202,  -0.00006,434523302.19358,   0.00290,277752109.56001,  -0.00114,  -0.00256,   0.00057,-43228807.36642,   0.00000
487620453.76100,331012860.59576,-49252545.82742,   0.00043,  -0.00201,  -0.00007,439558891.76865,   0.00290,277752109.56001,  -0.00114,  -0.00256,   0.00057,-38193217.79135,   0.00000
493101937.04308,335376169.90455,-49799478.74914,   0.00045,  -0.00200,  -0.00007,444625708.75796,   0.00290,277752109.56001,  -0.00114,  -0.00256,   0.00057,-33126400.80204,   0.00000
498574304.77647,339718209.59973,-50346411.67086,   0.00046,  -0.00199,  -0.00008,449682457.57455,   0.00290,277752109.56001,  -0.00114,  -0.00256,   0.00057,-28069651.98546,   0.00000
504067942.12348,344069364.84360,-50899421.62504,   0.00048,  -0.00198,  -0.00009,454759425.17041,   0.00290,277752109.56001,  -0.00114,  -0.00256,   0.00057,-22992684.38960,   0.00000
509549425.40557,348432674.15240,-51452431.57921,   0.00049,  -0.00197,  -0.00010,459830767.33457,   0.00290,277752109.56001,  -0.00114,  -0.00256,   0.00057,-17921342.22544,   0.00000
515043062.75258,352783829.39627,-52011518.56586,   0.00051,  -0.00196,  -0.00010,464911300.12272,   0.00290,277752109.56001,  -0.00114,  -0.00256,   0.00057,-12840809.43729,   0.00000
520536700.09959,357134984.64014,-52570605.55250,   0.00053,  -0.00195,  -0.00011,469992545.38158,   0.00290,277752109.56001,  -0.00114,  -0.00256,   0.00057,-7759564.17843,   0.00000
526039452.99529,361507409.49764,-53135769.57161,   0.00054,  -0.00195,  -0.00012,475087553.30707,   0.00290,277752109.56001,  -0.00114,  -0.00256,   0.00057,-2664556.25294,   0.00000
528919740.34942,363784661.48286,-53430939.51533,   0.00055,  -0.00194,  -0.00012,477752110.26154,   0.00290,277752109.56001,  -0.00114,  -0.00256,   0.00057,  -4.16413,   0.00000
528852759.70122,364146048.00586,-53383314.84789,   0.00056,  -0.00194,  -0.00013,477762784.45703,   0.00291,277762790.64855,  -0.00114,  -0.00256,   0.00057,  -6.19152,   1.00000
528711092.72432,364897602.43599,-53286292.30291,   0.00058,  -0.00193,  -0.00013,477785052.67435,   0.00293,277785058.35526,  -0.00112,  -0.00256,   0.00056,  -5.68090,   1.00000
528566450.72104,365647946.10610,-53192307.43303,   0.00059,  -0.00192,  -0.00014,477807430.81587,   0.00295,277807439.87107,  -0.00110,  -0.00255,   0.00055,  -9.05520,   1.00000
528425401.13770,366375169.67561,-53100680.79745,   0.00061,  -0.00191,  -0.00015,477829750.45836,   0.00297,277829753.58870,  -0.00108,  -0.00255,   0.00054,  -3.13034,   1.00000
528282586.66009,367091384.59442,-53015705.29007,   0.00063,  -0.00190,  -0.00015,477852053.29658,   0.00299,277852057.32569,  -0.00106,  -0.00254,   0.00053,  -4.02911,   1.00000
528142385.84921,367794969.15232,-52929349.08437,   0.00064,  -0.00189,  -0.00016,477874412.93324,   0.00301,277874417.71589,  -0.00104,  -0.00253,   0.00053,  -4.78265,   1.00000
527999482.27453,368502359.17575,-52842421.06260,   0.00066,  -0.00188,  -0.00017,477896800.08323,   0.00304,277896807.77344,  -0.00102,  -0.00253,   0.00052,  -7.69021,   1.00000
527856109.90670,369189167.95003,-52765751.91807,   0.00068,  -0.00187,  -0.00018,477919062.40504,   0.00306,277919064.17199,  -0.00100,  -0.00252,   0.00051,  -1.76694,   1.00000
527715503.50561,369863675.08709,-52687629.12939,   0.00069,  -0.00186,  -0.00019,477941370.93572,   0.00308,277941377.55120,  -0.00099,  -0.00252,   0.00050,  -6.61548,   1.00000
527573384.20102,370527885.33765,-52616033.38782,   0.00071,  -0.00185,  -0.00019,477963680.66003,   0.00310,277963681.65796,  -0.00097,  -0.00251,   0.00049,  -0.99793,   1.00000
527434137.32990,371180039.10393,-52542945.46533,   0.00073,  -0.00184,  -0.00020,477986035.65982,   0.00312,277986042.83209,  -0.00095,  -0.00251,   0.00048,  -7.17227,   1.00000
527291291.50148,371825518.50423,-52478532.08707,   0.00074,  -0.00184,  -0.00021,478008319.41397,   0.00314,278008320.19578,  -0.00093,  -0.00250,   0.00047,  -0.78181,   1.00000
527151424.04611,372459157.27281,-52412555.49564,   0.00076,  -0.00183,  -0.00022,478030648.05051,   0.00316,278030654.91312,  -0.00091,  -0.00249,   0.00047,  -6.86261,   1.00000
527012388.00601,373084472.37611,-52347235.95433,   0.00078,  -0.00182,  -0.00022,478052969.09573,   0.00318,278052972.12325,  -0.00089,  -0.00249,   0.00046,  -3.02752,   1.00000
526872016.40541,373700136.30569,-52288317.68770,   0.00079,  -0.00181,  -0.00023,478075280.36855,   0.00321,278075280.91048,  -0.00087,  -0.00248,   0.00045,  -0.54193,   1.00000
526732525.36616,374307710.52439,-52229976.33898,   0.00081,  -0.00180,  -0.00024,478097564.40835,   0.00323,278097572.76569,  -0.00086,  -0.00248,   0.00044,  -8.35734,   1.00000
526593953.49637,374907322.22448,-52172211.54498,   0.00083,  -0.00179,  -0.00025,478119840.71363,   0.00325,278119847.71139,  -0.00084,  -0.00247,   0.00043,  -6.99777,   1.00000
526454139.29764,375497634.83257,-52120769.59227,   0.00084,  -0.00178,  -0.00026,478142106.76646,   0.00327,278142114.77798,  -0.00082,  -0.00246,   0.00042,  -8.01152,   1.00000
526315406.51611,376075304.58193,-52073407.67008,   0.00086,  -0.00177,  -0.00026,478164442.84370,   0.00329,278164448.40115,  -0.00080,  -0.00246,   0.00041,  -5.55745,   1.00000
526177558.96864,376650328.48857,-52022917.92192,   0.00088,  -0.00176,  -0.00027,478186673.85366,   0.00331,278186683.00892,  -0.00078,  -0.00245,   0.00041,  -9.15526,   1.00000
526038702.72724,377211446.17841,-51982263.04141,   0.00089,  -0.00175,  -0.00028,478208991.03439,   0.00333,278208992.95733,  -0.00076,  -0.00244,   0.00040,  -1.92295,   1.00000
525903058.63857,377766654.71297,-51936236.22096,   0.00091,  -0.00174,  -0.00029,478231273.79085,   0.00336,278231278.42122,  -0.00074,  -0.00244,   0.00039,  -4.63038,   1.00000
525766316.16581,378313160.33779,-51896413.79223,   0.00093,  -0.00174,  -0.00029,478253555.26642,   0.00338,278253556.77254,  -0.00073,  -0.00243,   0.00038,  -1.50612,   1.00000
525630660.30071,378852522.12756,-51856969.09933,   0.00095,  -0.00173,  -0.00030,478275818.89594,   0.00340,278275819.62043,  -0.00071,  -0.00243,   0.00037,  -0.72450,   1.00000
525493949.93791,379383389.20046,-51823653.55606,   0.00096,  -0.00172,  -0.00031,478298071.17998,   0.00342,278298075.84742,  -0.00069,  -0.00242,   0.00036,  -4.66744,   1.00000
525358385.33579,379907335.14086,-51790643.01729,   0.00098,  -0.00171,  -0.00032,478320315.56485,   0.00344,278320317.00041,  -0.00067,  -0.00241,   0.00035,  -1.43556,   1.00000
525227593.43749,380411994.16708,-51759395.57512,   0.00100,  -0.00170,  -0.00033,478342491.41602,   0.00346,278342493.74338,  -0.00065,  -0.00241,   0.00035,  -2.32736,   1.00000
525094539.60596,380917462.57399,-51730580.18184,   0.00101,  -0.00169,  -0.00034,478364785.44882,   0.00348,278364787.37961,  -0.00063,  -0.00240,   0.00034,  -1.93080,   1.00000
524960268.21872,381419982.43539,-51704173.46289,   0.00103,  -0.00168,  -0.00034,478386992.49297,   0.00351,278386993.13676,  -0.00062,  -0.00239,   0.00033,  -0.64379,   1.00000
524827450.76169,381910848.66121,-51681603.92782,   0.00105,  -0.00167,  -0.00035,478409256.63150,   0.00353,278409266.39397,  -0.00060,  -0.00239,   0.00032,  -9.76248,   1.00000
524693440.03962,382399004.53346,-51661368.98265,   0.00106,  -0.00166,  -0.00036,478431444.06267,   0.00355,278431452.35452,  -0.00058,  -0.00238,   0.00031,  -8.29186,   1.00000
524566802.47507,382864816.69909,-51640618.26097,   0.00108,  -0.00165,  -0.00037,478453640.19101,   0.00357,278453647.67884,  -0.00056,  -0.00237,   0.00030,  -7.48784,   1.00000
524437652.11674,383336904.72202,-51618573.79502,   0.00110,  -0.00165,  -0.00038,478475870.52992,   0.00359,278475878.88964,  -0.00054,  -0.00237,   0.00029,  -8.35972,   1.00000
524307599.22077,383801406.31972,-51602474.48990,   0.00111,  -0.00164,  -0.00039,478498098.52186,   0.00361,278498104.82577,  -0.00052,  -0.00236,   0.00029,  -6.30390,   1.00000
524176676.16926,384258421.96414,-51592248.61859,   0.00113,  -0.00163,  -0.00039,478520324.15310,   0.00363,278520325.85116,  -0.00050,  -0.00235,   0.00028,  -1.69806,   1.00000
524049158.59896,384710973.48107,-51576313.95675,   0.00115,  -0.00162,  -0.00040,478542516.68225,   0.00365,278542525.04630,  -0.00049,  -0.00235,   0.00027,  -8.36405,   1.00000
523924555.62215,385144008.81750,-51567732.82043,   0.00116,  -0.00161,  -0.00041,478564663.39081,   0.00368,278564669.60281,  -0.00047,  -0.00234,   0.00026,  -6.21201,   1.00000
523795303.55702,385582175.76809,-51563464.18254,   0.00118,  -0.00160,  -0.00042,478586851.06398,   0.00370,278586859.86035,  -0.00045,  -0.00233,   0.00025,  -8.79637,   1.00000
523669504.08389,386016158.54426,-51553421.43492,   0.00120,  -0.00159,  -0.00043,478609025.86186,   0.00372,278609028.73971,  -0.00043,  -0.00233,   0.00024,  -2.87785,   1.00000
523542856.44014,386443062.10881,-51549187.07414,   0.00122,  -0.00158,  -0.00044,478631188.13720,   0.00374,278631193.38130,  -0.00041,  -0.00232,   0.00023,  -5.24410,   1.00000
523419229.22471,386850884.53943,-51552175.79050,   0.00123,  -0.00157,  -0.00044,478653303.62048,   0.00376,278653304.11103,  -0.00039,  -0.00231,   0.00023,  -0.49055,   1.00000
523293073.89417,387265555.24538,-51553577.51566,   0.00125,  -0.00156,  -0.00045,478675446.11294,   0.00378,278675452.91183,  -0.00038,  -0.00231,   0.00022,  -6.79889,   1.00000
523168260.98202,387674891.58443,-51554896.94823,   0.00127,  -0.00155,  -0.00046,478697581.15678,   0.00380,278697589.56728,  -0.00036,  -0.00230,   0.00021,  -8.41049,   1.00000
523047375.51473,388075134.14190,-51554006.64245,   0.00128,  -0.00155,  -0.00047,478719785.63594,   0.00383,278719786.21110,  -0.00034,  -0.00229,   0.00020,  -0.57516,   1.00000
522926949.00650,388460569.11157,-51562443.24279,   0.00130,  -0.00154,  -0.00048,478741855.48831,   0.00385,278741857.25744,  -0.00032,  -0.00228,   0.00019,  -1.76913,   1.00000
522803973.26121,388853080.89804,-51569225.89360,   0.00132,  -0.00153,  -0.00049,478763963.19172,   0.00387,278763967.00300,  -0.00030,  -0.00228,   0.00018,  -3.81128,   1.00000
522682352.95777,389240563.39758,-51575866.28101,   0.00133,  -0.00152,  -0.00050,478786063.59437,   0.00389,278786065.15012,  -0.00029,  -0.00227,   0.00017,  -1.55575,   1.00000
522562581.96000,389617709.79365,-51585991.66594,   0.00135,  -0.00151,  -0.00051,478808227.84379,   0.00391,278808232.22685,  -0.00027,  -0.00226,   0.00017,  -4.38306,   1.00000
522441522.17339,389993913.54565,-51598066.46654,   0.00137,  -0.00150,  -0.00051,478830308.40958,   0.00393,278830316.24200,  -0.00025,  -0.00226,   0.00016,  -7.83242,   1.00000
522321830.23120,390365310.86860,-51609937.65438,   0.00138,  -0.00149,  -0.00052,478852381.87569,   0.00395,278852389.13077,  -0.00023,  -0.00225,   0.00015,  -7.25508,   1.00000
522207970.19215,390714662.28659,-51626736.51679,   0.00140,  -0.00148,  -0.00053,478874472.60327,   0.00398,278874480.94510,  -0.00021,  -0.00224,   0.00014,  -8.34183,   1.00000
522088834.43018,391075376.90946,-51643905.57092,   0.00142,  -0.00147,  -0.00054,478896536.53414,   0.00400,278896540.82971,  -0.00019,  -0.00223,   0.00013,  -4.29558,   1.00000
521971064.64988,391431488.62953,-51660810.36916,   0.00144,  -0.00146,  -0.00055,478918583.63297,   0.00402,278918590.08661,  -0.00018,  -0.00223,   0.00012,  -6.45364,   1.00000
521852538.88019,391781564.72386,-51683210.05250,   0.00145,  -0.00145,  -0.00056,478940628.01100,   0.00404,278940637.33726,  -0.00016,  -0.00222,   0.00011,  -9.32626,   1.00000
521738119.06500,392123242.52983,-51703154.56292,   0.00147,  -0.00145,  -0.00057,478962741.55062,   0.00406,278962745.68261,  -0.00014,  -0.00221,   0.00010,  -4.13199,   1.00000
521622327.08878,392464523.24680,-51724934.57556,   0.00149,  -0.00144,  -0.00058,478984762.57560,   0.00408,278984772.40581,  -0.00012,  -0.00221,   0.00010,  -9.83021,   1.00000
521507921.25199,392801482.22732,-51746400.67793,   0.00150,  -0.00143,  -0.00059,479006786.85885,   0.00410,279006788.90820,  -0.00010,  -0.00220,   0.00009,  -2.04935,   1.00000
521392744.68233,393132651.02754,-51773307.81009,   0.00152,  -0.00142,  -0.00059,479028798.47941,   0.00412,279028803.93026,  -0.00009,  -0.00219,   0.00008,  -5.45086,   1.00000
521278954.11552,393459625.89884,-51799837.70207,   0.00154,  -0.00141,  -0.00060,479050803.67209,   0.00415,279050809.16682,  -0.00007,  -0.00218,   0.00007,  -5.49473,   1.00000
521167184.67277,393776957.36247,-51829616.94352,   0.00155,  -0.00140,  -0.00061,479072881.56325,   0.00417,279072884.34158,  -0.00005,  -0.00218,   0.00006,  -2.77833,   1.00000
521056127.99072,394095783.95290,-51855364.79114,   0.00157,  -0.00139,  -0.00062,479094864.06664,   0.00419,279094870.39700,  -0.00003,  -0.00217,   0.00005,  -6.33035,   1.00000
520944313.37519,394409073.95271,-51886506.30691,   0.00159,  -0.00138,  -0.00063,479116853.85212,   0.00421,279116855.35413,  -0.00001,  -0.00216,   0.00004,  -1.50201,   1.00000
520831735.37799,394716880.86528,-51922971.45158,   0.00160,  -0.00137,  -0.00064,479138831.09794,   0.00423,279138839.64655,   0.00000,  -0.00215,   0.00004,  -8.54862,   1.00000
520719878.24057,395026365.33443,-51955329.20565,   0.00162,  -0.00136,  -0.00065,479160733.72518,   0.00425,279160735.45041,   0.00002,  -0.00215,   0.00003,  -1.72524,   1.00000
520610083.20957,395326393.59774,-51990862.60548,   0.00164,  -0.00135,  -0.00066,479182698.90721,   0.00427,279182701.57994,   0.00004,  -0.00214,   0.00002,  -2.67273,   1.00000
520497601.42504,395634275.46434,-52024381.72979,   0.00166,  -0.00135,  -0.00067,479204706.23084,   0.00430,279204709.41258,   0.00006,  -0.00213,   0.00001,  -3.18174,   1.00000
520390578.08748,395926652.15268,-52058983.04891,   0.00167,  -0.00134,  -0.00068,479226649.30212,   0.00432,279226657.53226,   0.00008,  -0.00212,   0.00000,  -8.23014,   1.00000
520282787.36419,396213834.81022,-52098870.97283,   0.00169,  -0.00133,  -0.00069,479248599.81547,   0.00434,279248605.38281,   0.00009,  -0.00212,  -0.00001,  -5.56734,   1.00000
520169414.66445,396513055.49428,-52138823.24149,   0.00171,  -0.00132,  -0.00069,479270518.40638,   0.00436,279270524.82304,   0.00011,  -0.00211,  -0.00002,  -6.41667,   1.00000
520064418.57784,396792875.00658,-52177648.02187,   0.00172,  -0.00131,  -0.00070,479292447.41582,   0.00438,279292455.54289,   0.00013,  -0.00210,  -0.00003,  -8.12707,   1.00000
519953795.69543,397084825.69160,-52216551.26558,   0.00174,  -0.00130,  -0.00071,479314354.88562,   0.00440,279314358.00575,   0.00015,  -0.00209,  -0.00003,  -3.12012,   1.00000
519849425.82773,397355946.91040,-52260092.73122,   0.00176,  -0.00129,  -0.00072,479336275.59857,   0.00442,279336280.29625,   0.00017,  -0.00209,  -0.00004,  -4.69769,   1.00000
519739388.34159,397639289.44897,-52303650.73872,   0.00177,  -0.00128,  -0.00073,479358165.54032,   0.00444,279358174.87694,   0.00018,  -0.00208,  -0.00005,  -9.33663,   1.00000
519634869.24338,397907581.11783,-52348189.55120,   0.00179,  -0.00127,  -0.00074,479380001.05071,   0.00447,279380010.50097,   0.00020,  -0.00207,  -0.00006,  -9.45026,   1.00000
519525449.94221,398182477.62415,-52396335.03760,   0.00181,  -0.00126,  -0.00075,479401893.56519,   0.00449,279401897.60655,   0.00022,  -0.00206,  -0.00007,  -4.04136,   1.00000
519419568.49908,398455484.61902,-52438102.16472,   0.00182,  -0.00125,  -0.00076,479423767.82108,   0.00451,279423768.27781,   0.00024,  -0.00205,  -0.00008,  -0.45673,   1.00000
519312901.08392,398723518.23270,-52485063.77554,   0.00184,  -0.00125,  -0.00077,479445629.86726,   0.00453,279445639.53053,   0.00026,  -0.00205,  -0.00009,  -9.66327,   1.00000
519209634.55748,398975219.90550,-52538724.35194,   0.00186,  -0.00124,  -0.00078,479467460.06472,   0.00455,279467460.72880,   0.00027,  -0.00204,  -0.00010,  -0.66408,   1.00000
519105706.78230,399236782.15100,-52584375.22033,   0.00187,  -0.00123,  -0.00079,479489312.30653,   0.00457,279489316.99432,   0.00029,  -0.00203,  -0.00010,  -4.68780,   1.00000
519001002.99144,399493532.11975,-52635175.15777,   0.00189,  -0.00122,  -0.00080,479511172.38763,   0.00459,279511174.13701,   0.00031,  -0.00202,  -0.00011,  -1.74938,   1.00000
518894678.49545,399751226.30066,-52687466.67423,   0.00191,  -0.00121,  -0.00081,479532953.69972,   0.00462,279532953.87532,   0.00033,  -0.00202,  -0.00012,  -0.17560,   1.00000
518792736.16335,400001571.84407,-52736925.35773,   0.00192,  -0.00120,  -0.00082,479554794.09085,   0.00464,279554796.31121,   0.00034,  -0.00201,  -0.00013,  -2.22036,   1.00000
518684959.34380,400264334.44179,-52786318.05676,   0.00194,  -0.00119,  -0.00083,479576605.51872,   0.00466,279576612.40494,   0.00036,  -0.00200,  -0.00014,  -6.88621,   1.00000
518583633.72330,400506733.31039,-52840234.11309,   0.00196,  -0.00118,  -0.00084,479598438.82696,   0.00468,279598448.58885,   0.00038,  -0.00199,  -0.00015,  -9.76189,   1.00000
518482781.40711,400751872.92874,-52889870.13498,   0.00198,  -0.00117,  -0.00085,479620191.01580,   0.00470,279620199.22517,   0.00040,  -0.00198,  -0.00016,  -8.20937,   1.00000
518376936.80240,401003744.99920,-52943020.57367,   0.00199,  -0.00116,  -0.00085,479642001.30456,   0.00472,279642002.28318,   0.00042,  -0.00198,  -0.00017,  -0.97862,   1.00000
518274507.41693,401239576.32224,-53002810.66428,   0.00201,  -0.00115,  -0.00086,479663749.60577,   0.00474,279663755.94860,   0.00043,  -0.00197,  -0.00018,  -6.34283,   1.00000
518171409.04830,401485393.85201,-53054500.36606,   0.00203,  -0.00114,  -0.00087,479685541.17700,   0.00476,279685545.35281,   0.00045,  -0.00196,  -0.00018,  -4.17581,   1.00000
518064439.81535,401730756.49398,-53113424.53950,   0.00204,  -0.00114,  -0.00088,479707257.39112,   0.00479,279707266.74251,   0.00047,  -0.00195,  -0.00019,  -9.35139,   1.00000
517966172.97622,401957616.34706,-53171021.67133,   0.00206,  -0.00113,  -0.00089,479728992.33403,   0.00481,279728999.97757,   0.00049,  -0.00194,  -0.00020,  -7.64354,   1.00000
517865025.35298,402192959.57239,-53226280.38007,   0.00208,  -0.00112,  -0.00090,479750773.60749,   0.00483,279750777.73567,   0.00050,  -0.00194,  -0.00021,  -4.12818,   1.00000
517762128.64484,402429593.89564,-53282996.42736,   0.00209,  -0.00111,  -0.00091,479772477.18226,   0.00485,279772479.22623,   0.00052,  -0.00193,  -0.00022,  -2.04397,   1.00000
517658434.14758,402661709.28945,-53344720.81477,   0.00211,  -0.00110,  -0.00092,479794179.17111,   0.00487,279794182.81302,   0.00054,  -0.00192,  -0.00023,  -3.64192,   1.00000
517554057.09603,402903789.30875,-53398306.82434,   0.00213,  -0.00109,  -0.00093,479815914.90375,   0.00489,279815922.49274,   0.00056,  -0.00191,  -0.00024,  -7.58899,   1.00000
517453138.38193,403130059.28075,-53458549.89676,   0.00214,  -0.00108,  -0.00094,479837608.40235,   0.00491,279837612.87022,   0.00057,  -0.00190,  -0.00025,  -4.46787,   1.00000
517353568.80694,403353542.30490,-53518020.52102,   0.00216,  -0.00107,  -0.00095,479859287.92334,   0.00493,279859296.97309,   0.00059,  -0.00190,  -0.00026,  -9.04975,   1.00000
517248940.99760,403583869.65321,-53580849.20440,   0.00218,  -0.00106,  -0.00096,479881026.74513,   0.00496,279881034.67079,   0.00061,  -0.00189,  -0.00026,  -7.92567,   1.00000
517148968.36531,403806015.12925,-53640936.32687,   0.00219,  -0.00105,  -0.00097,479902635.27318,   0.00498,279902636.94959,   0.00063,  -0.00188,  -0.00027,  -1.67641,   1.00000
517047083.21466,404030754.40004,-53702185.46110,   0.00221,  -0.00104,  -0.00098,479924356.37316,   0.00500,279924362.25846,   0.00064,  -0.00187,  -0.00028,  -5.88530,   1.00000
516943396.14512,404256968.11808,-53764833.53456,   0.00223,  -0.00103,  -0.00099,479946010.55825,   0.00502,279946012.16493,   0.00066,  -0.00186,  -0.00029,  -1.60668,   1.00000
516841088.14375,404480392.19095,-53826678.67623,   0.00224,  -0.00102,  -0.00100,479967651.03465,   0.00504,279967656.01718,   0.00068,  -0.00186,  -0.00030,  -4.98253,   1.00000
516740157.73448,404701073.47676,-53887733.19982,   0.00226,  -0.00101,  -0.00101,479989287.70677,   0.00506,279989293.77154,   0.00070,  -0.00185,  -0.00031,  -6.06477,   1.00000
516640592.67725,404919050.24879,-53948007.94113,   0.00228,  -0.00101,  -0.00102,480010920.53399,   0.00508,280010925.42569,   0.00071,  -0.00184,  -0.00032,  -4.89170,   1.00000
516535919.86196,405143831.19935,-54011606.95940,   0.00229,  -0.00100,  -0.00103,480032603.06003,   0.00511,280032611.08935,   0.00073,  -0.00183,  -0.00033,  -8.02933,   1.00000
516435881.15843,405360641.05131,-54072492.96028,   0.00231,  -0.00099,  -0.00104,480054155.58867,   0.00513,280054161.68274,   0.00075,  -0.00182,  -0.00034,  -6.09407,   1.00000
516330722.73764,405584247.23780,-54136691.25946,   0.00232,  -0.00098,  -0.00105,480075757.94295,   0.00515,280075766.45030,   0.00077,  -0.00182,  -0.00035,  -8.50735,   1.00000
516234517.73696,405789771.89220,-54199518.55948,   0.00234,  -0.00097,  -0.00106,480097378.16021,   0.00517,280097382.85161,   0.00078,  -0.00181,  -0.00035,  -4.69139,   1.00000
516129884.21687,406006476.53089,-54267824.84609,   0.00236,  -0.00096,  -0.00107,480118975.96756,   0.00519,280118984.85777,   0.00080,  -0.00180,  -0.00036,  -8.89021,   1.00000
516028857.52450,406222169.59200,-54329532.33619,   0.00237,  -0.00095,  -0.00108,480140568.00275,   0.00521,280140572.43853,   0.00082,  -0.00179,  -0.00037,  -4.43578,   1.00000
515925910.99743,406439501.33826,-54392655.20918,   0.00239,  -0.00094,  -0.00109,480162083.79614,   0.00523,280162085.38788,   0.00084,  -0.00178,  -0.00038,  -1.59175,   1.00000
515821136.13720,406659256.18134,-54456839.24494,   0.00241,  -0.00093,  -0.00110,480183712.34488,   0.00525,280183721.55775,   0.00085,  -0.00177,  -0.00039,  -9.21287,   1.00000
515718779.04245,406869591.10714,-54524069.11738,   0.00242,  -0.00092,  -0.00111,480205223.63757,   0.00528,280205231.82166,   0.00087,  -0.00177,  -0.00040,  -8.18410,   1.00000
515616818.25330,407084069.65669,-54586574.73205,   0.00244,  -0.00091,  -0.00112,480226855.45360,   0.00530,280226856.65829,   0.00089,  -0.00176,  -0.00041,  -1.20469,   1.00000
515512903.23397,407300203.40233,-54650490.04247,   0.00246,  -0.00090,  -0.00113,480248401.28232,   0.00532,280248407.14876,   0.00091,  -0.00175,  -0.00042,  -5.86644,   1.00000
515410390.15652,407513689.72365,-54713590.72907,   0.00247,  -0.00089,  -0.00114,480269943.68823,   0.00534,280269951.93944,   0.00092,  -0.00174,  -0.00043,  -8.25121,   1.00000
515303712.60809,407727206.51352,-54783825.80133,   0.00249,  -0.00088,  -0.00115,480291422.59627,   0.00536,280291431.41211,   0.00094,  -0.00173,  -0.00044,  -8.81584,   1.00000
515204028.24357,407935468.60130,-54845229.23307,   0.00251,  -0.00087,  -0.00116,480312958.47960,   0.00538,280312965.19611,   0.00096,  -0.00172,  -0.00045,  -6.71651,   1.00000
515100129.73007,408143836.29165,-54913792.71407,   0.00252,  -0.00086,  -0.00117,480334431.01570,   0.00540,280334433.73835,   0.00097,  -0.00172,  -0.00045,  -2.72265,   1.00000
514996672.74192,408356269.70584,-54977585.34975,   0.00254,  -0.00085,  -0.00118,480356014.24795,   0.00542,280356016.93560,   0.00099,  -0.00171,  -0.00046,  -2.68764,   1.00000
514891229.25564,408570415.57919,-55042784.93704,   0.00256,  -0.00084,  -0.00119,480377521.80629,   0.00545,280377526.17505,   0.00101,  -0.00170,  -0.00047,  -4.36876,   1.00000
514787206.23124,408781938.81085,-55107154.28587,   0.00257,  -0.00084,  -0.00120,480399026.14343,   0.00547,280399029.90297,   0.00103,  -0.00169,  -0.00048,  -3.75954,   1.00000
514681177.28186,408995200.64479,-55172929.69847,   0.00259,  -0.00083,  -0.00121,480420454.95873,   0.00549,280420459.86609,   0.00104,  -0.00168,  -0.00049,  -4.90736,   1.00000
514579983.10328,409201521.10177,-55235641.92951,   0.00260,  -0.00082,  -0.00122,480441942.88830,   0.00551,280441952.67568,   0.00106,  -0.00167,  -0.00050,  -9.78738,   1.00000
514474530.60089,409407985.01304,-55305507.29142,   0.00262,  -0.00081,  -0.00123,480463377.71561,   0.00553,280463380.67492,   0.00108,  -0.00167,  -0.00051,  -2.95931,   1.00000
514371795.36938,409620131.25308,-55364838.45526,   0.00264,  -0.00080,  -0.00124,480484910.77114,   0.00555,280484914.42580,   0.00110,  -0.00166,  -0.00052,  -3.65466,   1.00000
514264785.52645,409832332.36936,-55431363.45330,   0.00265,  -0.00079,  -0.00125,480506380.75161,   0.00557,280506383.25897,   0.00111,  -0.00165,  -0.00053,  -2.50736,   1.00000
514155750.07698,410046278.38819,-55499276.59829,   0.00267,  -0.00078,  -0.00126,480527775.50842,   0.00559,280527778.72510,   0.00113,  -0.00164,  -0.00054,  -3.21668,   1.00000
514051632.97825,410253251.39193,-55564089.78829,   0.00269,  -0.00077,  -0.00127,480549229.58486,   0.00562,280549237.03600,   0.00115,  -0.00163,  -0.00055,  -7.45114,   1.00000
513944558.04552,410468508.84718,-55626370.23114,   0.00270,  -0.00076,  -0.00128,480570731.86373,   0.00564,280570741.67454,   0.00116,  -0.00162,  -0.00056,  -9.81082,   1.00000
513839816.59509,410674688.74438,-55691809.73241,   0.00272,  -0.00075,  -0.00129,480592117.45817,   0.00566,280592121.08458,   0.00118,  -0.00162,  -0.00057,  -3.62641,   1.00000
513732100.93968,410889138.22177,-55754703.92840,   0.00273,  -0.00074,  -0.00130,480613541.46860,   0.00568,280613547.00688,   0.00120,  -0.00161,  -0.00057,  -5.53828,   1.00000
513623599.58338,411099255.29101,-55822512.11069,   0.00275,  -0.00073,  -0.00131,480634974.83667,   0.00570,280634976.46353,   0.00122,  -0.00160,  -0.00058,  -1.62686,   1.00000
513514392.95551,411319263.46138,-55882022.17626,   0.00277,  -0.00072,  -0.00132,480656434.04320,   0.00572,280656443.55911,   0.00123,  -0.00159,  -0.00059,  -9.51591,   1.00000
513405277.32452,411528481.99455,-55950457.78974,   0.00278,  -0.00071,  -0.00133,480677789.20260,   0.00574,280677794.40835,   0.00125,  -0.00158,  -0.00060,  -5.20575,   1.00000
513295464.80769,411747599.87955,-56010586.56534,   0.00280,  -0.00070,  -0.00134,480699180.31683,   0.00576,280699182.98764,   0.00127,  -0.00157,  -0.00061,  -2.67081,   1.00000
513188416.69487,411957918.77540,-56073407.51061,   0.00281,  -0.00069,  -0.00135,480720632.88342,   0.00579,280720642.77115,   0.00128,  -0.00156,  -0.00062,  -9.88773,   1.00000
513079258.41329,412170050.40329,-56137682.38758,   0.00283,  -0.00068,  -0.00136,480742020.43699,   0.00581,280742029.47916,   0.00130,  -0.00155,  -0.00063,  -9.04216,   1.00000
512967994.52259,412383978.49155,-56203396.39115,   0.00285,  -0.00067,  -0.00137,480763343.02720,   0.00583,280763343.27656,   0.00132,  -0.00155,  -0.00064,  -0.24936,   1.00000
512857371.27933,412601575.59866,-56264278.94547,   0.00286,  -0.00066,  -0.00138,480784766.05500,   0.00585,280784771.40662,   0.00133,  -0.00154,  -0.00065,  -5.35162,   1.00000
512748229.75498,412816498.00707,-56324384.49195,   0.00288,  -0.00065,  -0.00139,480806185.94409,   0.00587,280806194.03230,   0.00135,  -0.00153,  -0.00066,  -8.08822,   1.00000
512636954.99818,413033187.71347,-56385984.79461,   0.00290,  -0.00064,  -0.00140,480827540.77081,   0.00589,280827543.62298,   0.00137,  -0.00152,  -0.00067,  -2.85217,   1.00000
512527153.45337,413247212.72407,-56446800.05091,   0.00291,  -0.00063,  -0.00141,480848882.65357,   0.00591,280848887.86984,   0.00139,  -0.00151,  -0.00068,  -5.21627,   1.00000
512414398.63845,413469259.95778,-56505092.23287,   0.00293,  -0.00062,  -0.00142,480870272.53723,   0.00593,280870278.61620,   0.00140,  -0.00150,  -0.00069,  -6.07897,   1.00000
512297248.30564,413691240.22220,-56570611.00607,   0.00294,  -0.00061,  -0.00143,480891599.98167,   0.00596,280891605.47000,   0.00142,  -0.00149,  -0.00070,  -5.48833,   1.00000
512187550.19340,413907818.31599,-56627322.32301,   0.00296,  -0.00060,  -0.00144,480912983.88324,   0.00598,280912985.40662,   0.00144,  -0.00149,  -0.00071,  -1.52339,   1.00000
512073393.27703,414124400.09305,-56691282.67823,   0.00298,  -0.00059,  -0.00145,480934295.56991,   0.00600,280934301.56709,   0.00145,  -0.00148,  -0.00072,  -5.99717,   1.00000
511958580.71740,414350672.45668,-56746964.26841,   0.00299,  -0.00058,  -0.00146,480955652.63992,   0.00602,280955655.38045,   0.00147,  -0.00147,  -0.00073,  -2.74053,   1.00000
511843019.54950,414572394.83058,-56807636.42238,   0.00301,  -0.00057,  -0.00147,480977009.31838,   0.00604,280977012.61655,   0.00149,  -0.00146,  -0.00073,  -3.29817,   1.00000
511728990.94341,414791384.27375,-56867533.66544,   0.00302,  -0.00056,  -0.00148,480998363.06254,   0.00606,280998364.46060,   0.00150,  -0.00145,  -0.00074,  -1.39807,   1.00000
511616470.23901,415007671.01738,-56926665.28441,   0.00304,  -0.00055,  -0.00149,481019703.87530,   0.00608,281019710.94404,   0.00152,  -0.00144,  -0.00075,  -7.06874,   1.00000
511499553.23331,415238045.85814,-56979844.98477,   0.00306,  -0.00054,  -0.00150,481041017.94703,   0.00610,281041027.80529,   0.00154,  -0.00143,  -0.00076,  -9.85826,   1.00000
511381911.70223,415463813.19519,-57038045.38157,   0.00307,  -0.00053,  -0.00151,481062341.61376,   0.00613,281062347.97247,   0.00155,  -0.00142,  -0.00077,  -6.35872,   1.00000
511265822.31247,415686793.98690,-57095501.62349,   0.00309,  -0.00052,  -0.00152,481083662.29246,   0.00615,281083662.64847,   0.00157,  -0.00141,  -0.00078,  -0.35601,   1.00000
511146794.27982,415917521.46187,-57150441.30124,   0.00310,  -0.00051,  -0.00153,481105020.76393,   0.00617,281105023.94075,   0.00159,  -0.00141,  -0.00079,  -3.17683,   1.00000
511033805.24593,416134900.51570,-57206459.34610,   0.00312,  -0.00050,  -0.00154,481126325.19736,   0.00619,281126327.42810,   0.00160,  -0.00140,  -0.00080,  -2.23074,   1.00000
510911804.95278,416362767.20222,-57267959.29274,   0.00313,  -0.00049,  -0.00156,481147618.64800,   0.00621,281147619.80874,   0.00162,  -0.00139,  -0.00081,  -1.16075,   1.00000
510789196.47508,416600054.09873,-57321183.64290,   0.00315,  -0.00048,  -0.00157,481168947.15767,   0.00623,281168949.90887,   0.00164,  -0.00138,  -0.00082,  -2.75120,   1.00000
510672672.02658,416823942.20527,-57375515.09941,   0.00317,  -0.00047,  -0.00158,481190221.86497,   0.00625,281190222.06723,   0.00166,  -0.00137,  -0.00083,  -0.20226,   1.00000
510553193.86866,417055502.20718,-57427356.01185,   0.00318,  -0.00046,  -0.00159,481211534.22786,   0.00628,281211540.82679,   0.00167,  -0.00136,  -0.00084,  -6.59892,   1.00000
510428523.88033,417292831.91014,-57482430.16879,   0.00320,  -0.00045,  -0.00160,481232906.88691,   0.00630,281232915.13230,   0.00169,  -0.00135,  -0.00085,  -8.24538,   1.00000
510308432.76758,417523062.03934,-57535188.49520,   0.00321,  -0.00044,  -0.00161,481254151.35906,   0.00632,281254155.69961,   0.00171,  -0.00134,  -0.00086,  -4.34055,   1.00000
510189253.77652,417756359.17756,-57583175.74007,   0.00323,  -0.00043,  -0.00162,481275504.81826,   0.00634,281275509.44324,   0.00172,  -0.00133,  -0.00087,  -4.62499,   1.00000
510065514.56930,417989448.86657,-57638531.81573,   0.00324,  -0.00042,  -0.00163,481296796.42148,   0.00636,281296799.79733,   0.00174,  -0.00133,  -0.00088,  -3.37585,   1.00000
509941168.90989,418231809.70241,-57685672.63749,   0.00326,  -0.00041,  -0.00164,481318122.41397,   0.00638,281318127.65460,   0.00176,  -0.00132,  -0.00089,  -5.24063,   1.00000
509812284.44312,418473839.84242,-57740191.90916,   0.00328,  -0.00040,  -0.00165,481339386.52155,   0.00640,281339392.15924,   0.00177,  -0.00131,  -0.00090,  -5.63768,   1.00000
509691240.85368,418710158.72859,-57786018.44372,   0.00329,  -0.00039,  -0.00166,481360706.17345,   0.00642,281360708.27341,   0.00179,  -0.00130,  -0.00091,  -2.09996,   1.00000
509565592.86826,418946227.07719,-57839241.94953,   0.00331,  -0.00038,  -0.00167,481381954.13287,   0.00645,281381961.16538,   0.00181,  -0.00129,  -0.00092,  -7.03252,   1.00000
509443269.85902,419186987.98341,-57881971.94989,   0.00332,  -0.00037,  -0.00168,481403317.69635,   0.00647,281403317.83800,   0.00182,  -0.00128,  -0.00093,  -0.14165,   1.00000
509316333.34781,419427434.78878,-57932136.69347,   0.00334,  -0.00036,  -0.00169,481424609.53078,   0.00649,281424611.17901,   0.00184,  -0.00127,  -0.00094,  -1.64823,   1.00000
509182580.45245,419679677.70965,-57982127.81856,   0.00335,  -0.00034,  -0.00170,481445876.81083,   0.00651,281445884.81726,   0.00186,  -0.00126,  -0.00095,  -8.00643,   1.00000
509061317.07426,419915783.23717,-58025304.23227,   0.00337,  -0.00033,  -0.00171,481467149.10971,   0.00653,281467157.18946,   0.00187,  -0.00125,  -0.00096,  -8.07975,   1.00000
508930282.34759,420167654.98845,-58069954.46164,   0.00339,  -0.00032,  -0.00172,481488531.67633,   0.00655,281488537.40884,   0.00189,  -0.00124,  -0.00097,  -5.73251,   1.00000
508801516.79276,420410636.75236,-58118155.27788,   0.00340,  -0.00031,  -0.00173,481509789.35889,   0.00657,281509792.90202,   0.00191,  -0.00123,  -0.00097,  -3.54314,   1.00000
508669874.55194,420660812.82356,-58163896.94155,   0.00342,  -0.00030,  -0.00174,481531094.07023,   0.00660,281531094.95472,   0.00192,  -0.00122,  -0.00098,  -0.88449,   1.00000
508542214.75127,420909664.37136,-58203351.29277,   0.00343,  -0.00029,  -0.00175,481552372.14745,   0.00662,281552381.73926,   0.00194,  -0.00122,  -0.00099,  -9.59181,   1.00000
508409376.05520,421163781.17161,-58246141.07826,   0.00345,  -0.00028,  -0.00176,481573720.08927,   0.00664,281573723.78765,   0.00196,  -0.00121,  -0.00100,  -3.69838,   1.00000
508274231.66395,421419236.77391,-58290675.59048,   0.00346,  -0.00027,  -0.00177,481594993.22501,   0.00666,281594993.66074,   0.00197,  -0.00120,  -0.00101,  -0.43573,   1.00000
508144835.71328,421666915.99673,-58332318.41055,   0.00348,  -0.00026,  -0.00178,481616314.57711,   0.00668,281616323.39163,   0.00199,  -0.00119,  -0.00102,  -8.81453,   1.00000
508010824.44543,421928039.96766,-58368191.52963,   0.00349,  -0.00025,  -0.00179,481637617.47955,   0.00670,281637624.21615,   0.00201,  -0.00118,  -0.00103,  -6.73660,   1.00000
507876229.88028,422184024.79653,-58409276.44435,   0.00351,  -0.00024,  -0.00180,481658920.36348,   0.00672,281658927.71318,   0.00202,  -0.00117,  -0.00104,  -7.34970,   1.00000
507743369.89824,422436782.22196,-58449821.80861,   0.00353,  -0.00023,  -0.00181,481680219.94233,   0.00675,281680224.92739,   0.00204,  -0.00116,  -0.00105,  -4.98506,   1.00000
507607646.03034,422696467.38654,-58487980.52338,   0.00354,  -0.00022,  -0.00182,481701565.96301,   0.00677,281701568.43106,   0.00206,  -0.00115,  -0.00106,  -2.46805,   1.00000
507469574.77347,422957433.72146,-58527944.45383,   0.00356,  -0.00021,  -0.00183,481722837.18864,   0.00679,281722839.82737,   0.00207,  -0.00114,  -0.00107,  -2.63873,   1.00000
507339666.21266,423212368.89952,-58559384.24237,   0.00357,  -0.00019,  -0.00184,481744152.61247,   0.00681,281744161.27513,   0.00209,  -0.00113,  -0.00108,  -8.66267,   1.00000
507200443.11131,423476891.63826,-58596542.84438,   0.00359,  -0.00018,  -0.00185,481765466.44350,   0.00683,281765472.23518,   0.00211,  -0.00112,  -0.00109,  -5.79168,   1.00000
507058401.08931,423748106.79827,-58631343.69353,   0.00360,  -0.00017,  -0.00186,481786826.32730,   0.00685,281786829.35609,   0.00212,  -0.00111,  -0.00110,  -3.02878,   1.00000
506922766.73000,424005825.82522,-58667544.04537,   0.00362,  -0.00016,  -0.00188,481808123.21806,   0.00687,281808127.18315,   0.00214,  -0.00110,  -0.00111,  -3.96509,   1.00000
506784273.06211,424270304.05888,-58701396.53646,   0.00363,  -0.00015,  -0.00189,481829466.27513,   0.00690,281829471.21792,   0.00216,  -0.00109,  -0.00112,  -4.94278,   1.00000
506638783.57126,424546024.58830,-58735239.28601,   0.00365,  -0.00014,  -0.00190,481850793.86343,   0.00692,281850795.91138,   0.00217,  -0.00108,  -0.00113,  -2.04795,   1.00000
506501612.75734,424815477.01052,-58760629.44825,   0.00366,  -0.00013,  -0.00191,481872165.33311,   0.00694,281872169.98223,   0.00219,  -0.00107,  -0.00114,  -4.64912,   1.00000
506359711.09271,425084239.21840,-58793670.23336,   0.00368,  -0.00012,  -0.00192,481893475.64333,   0.00696,281893480.91767,   0.00220,  -0.00106,  -0.00115,  -5.27434,   1.00000
506214994.07646,425359531.52225,-58824389.87553,   0.00369,  -0.00011,  -0.00193,481914831.77782,   0.00698,281914837.95747,   0.00222,  -0.00105,  -0.00116,  -6.17966,   1.00000
