# sigma_xx, sigma_yy, sigma_xy, epsilon_xx, epsilon_yy, epsilon_xy, vonMises, epsPlastic, hardening, epsilonP__xx, epsilonP__yy, epsilonP__xy, yieldValue, iteration
   0.00000,   0.00000,   0.00000,   0.00000,   0.00000,   0.00000,   0.00000,   0.00000,274640135.82653,   0.00000,   0.00000,   0.00000,-474640135.82653,   0.00000
   0.00000,   0.00000,   0.00000,   0.00000,   0.00000,   0.00000,   0.00000,   0.00000,274640135.82653,   0.00000,   0.00000,   0.00000,-474640135.82653,   0.00000
-1750646.08725,-1552950.54100,109252.80188,  -0.00000,  -0.00000,   0.00000,1671394.28067,   0.00000,274640135.82653,   0.00000,   0.00000,   0.00000,-472968741.54586,   0.00000
-3483083.37419,-3098097.31043,218505.60376,  -0.00001,  -0.00001,   0.00000,3329020.81692,   0.00000,274640135.82653,   0.00000,   0.00000,   0.00000,-471311115.00961,   0.00000
-5215520.66114,-4643244.07986,322555.89126,  -0.00001,  -0.00001,   0.00000,4985635.64931,   0.00000,274640135.82653,   0.00000,   0.00000,   0.00000,-469654500.17722,   0.00000
-6921945.37620,-6162378.27742,431808.69314,  -0.00002,  -0.00001,   0.00001,6617549.71600,   0.00000,274640135.82653,   0.00000,   0.00000,   0.00000,-468022586.11053,   0.00000
-8654382.66314,-7707525.04686,535858.98065,  -0.00002,  -0.00002,   0.00001,8274167.33141,   0.00000,274640135.82653,   0.00000,   0.00000,   0.00000,-466365968.49512,   0.00000
-10360807.37821,-9226659.24441,645111.78252,  -0.00003,  -0.00002,   0.00001,9906080.90018,   0.00000,274640135.82653,   0.00000,   0.00000,   0.00000,-464734054.92635,   0.00000
-12049023.29296,-10737989.67041,749162.07003,  -0.00003,  -0.00003,   0.00001,11523229.93953,   0.00000,274640135.82653,   0.00000,   0.00000,   0.00000,-463116905.88700,   0.00000
-13737239.20771,-12249320.09640,853212.35753,  -0.00004,  -0.00003,   0.00001,13140382.70215,   0.00000,274640135.82653,   0.00000,   0.00000,   0.00000,-461499753.12438,   0.00000
-15417651.35090,-13742441.72208,957262.64504,  -0.00004,  -0.00003,   0.00001,14745560.61316,   0.00000,274640135.82653,   0.00000,   0.00000,   0.00000,-459894575.21337,   0.00000
-17098063.49409,-15235563.34777,1061312.93254,  -0.00005,  -0.00004,   0.00001,16350739.79078,   0.00000,274640135.82653,   0.00000,   0.00000,   0.00000,-458289396.03575,   0.00000
-18760266.83696,-16720881.20188,1165363.22004,  -0.00005,  -0.00004,   0.00002,17942171.02719,   0.00000,274640135.82653,   0.00000,   0.00000,   0.00000,-456697964.79934,   0.00000
-20422470.17984,-18206199.05600,1269413.50755,  -0.00006,  -0.00004,   0.00002,19533603.02052,   0.00000,274640135.82653,   0.00000,   0.00000,   0.00000,-455106532.80601,   0.00000
-22066464.72240,-19683713.13856,1373463.79505,  -0.00006,  -0.00005,   0.00002,21111292.59608,   0.00000,274640135.82653,   0.00000,   0.00000,   0.00000,-453528843.23045,   0.00000
-23702655.49340,-21143018.42080,1477514.08256,  -0.00007,  -0.00005,   0.00002,22677005.25322,   0.00000,274640135.82653,   0.00000,   0.00000,   0.00000,-451963130.57331,   0.00000
-25338846.26440,-22602323.70305,1581564.37006,  -0.00007,  -0.00005,   0.00002,24242718.47026,   0.00000,274640135.82653,   0.00000,   0.00000,   0.00000,-450397417.35627,   0.00000
-26956828.23509,-24053825.21373,1685614.65756,  -0.00008,  -0.00006,   0.00002,25794692.31347,   0.00000,274640135.82653,   0.00000,   0.00000,   0.00000,-448845443.51306,   0.00000
-28567006.43421,-25487117.92409,1789664.94507,  -0.00008,  -0.00006,   0.00002,27334686.33090,   0.00000,274640135.82653,   0.00000,   0.00000,   0.00000,-447305449.49563,   0.00000
-30184988.40490,-26938619.43477,1888512.71820,  -0.00008,  -0.00006,   0.00002,28885641.20170,   0.00000,274640135.82653,   0.00000,   0.00000,   0.00000,-445754494.62483,   0.00000
-31776957.80371,-28364108.37358,1992563.00570,  -0.00009,  -0.00007,   0.00003,30411897.97028,   0.00000,274640135.82653,   0.00000,   0.00000,   0.00000,-444228237.85625,   0.00000
-33368927.20252,-29789597.31238,2096613.29320,  -0.00009,  -0.00007,   0.00003,31938156.93611,   0.00000,274640135.82653,   0.00000,   0.00000,   0.00000,-442701978.89042,   0.00000
-34953092.82976,-31196877.45087,2195461.06633,  -0.00010,  -0.00007,   0.00003,33451407.37537,   0.00000,274640135.82653,   0.00000,   0.00000,   0.00000,-441188728.45116,   0.00000
-36519049.65670,-32596353.81780,2299511.35384,  -0.00010,  -0.00008,   0.00003,34951947.92488,   0.00000,274640135.82653,   0.00000,   0.00000,   0.00000,-439688187.90165,   0.00000
-38085006.48363,-33995830.18473,2403561.64134,  -0.00011,  -0.00008,   0.00003,36452491.01909,   0.00000,274640135.82653,   0.00000,   0.00000,   0.00000,-438187644.80744,   0.00000
-39632754.51025,-35387502.78009,2507611.92885,  -0.00011,  -0.00008,   0.00003,37939303.17525,   0.00000,274640135.82653,   0.00000,   0.00000,   0.00000,-436700832.65127,   0.00000
-41180502.53688,-36779175.37546,2606459.70197,  -0.00012,  -0.00009,   0.00003,39425087.21828,   0.00000,274640135.82653,   0.00000,   0.00000,   0.00000,-435215048.60825,   0.00000
-42720446.79193,-38152639.17051,2710509.98948,  -0.00012,  -0.00009,   0.00004,40899917.49785,   0.00000,274640135.82653,   0.00000,   0.00000,   0.00000,-433740218.32868,   0.00000
-44242182.24668,-39518299.19400,2814560.27698,  -0.00012,  -0.00009,   0.00004,42361021.17246,   0.00000,274640135.82653,   0.00000,   0.00000,   0.00000,-432279114.65407,   0.00000
-45756113.92986,-40865750.41718,2913408.05011,  -0.00013,  -0.00010,   0.00004,43809102.09766,   0.00000,274640135.82653,   0.00000,   0.00000,   0.00000,-430831033.72887,   0.00000
-47277849.38461,-42231410.44067,3017458.33761,  -0.00013,  -0.00010,   0.00004,45270210.65321,   0.00000,274640135.82653,   0.00000,   0.00000,   0.00000,-429369925.17332,   0.00000
-48773572.26748,-43571057.89228,3121508.62512,  -0.00014,  -0.00010,   0.00004,46705607.21149,   0.00000,274640135.82653,   0.00000,   0.00000,   0.00000,-427934528.61504,   0.00000
-50261491.37878,-44892496.54358,3225558.91262,  -0.00014,  -0.00011,   0.00004,48129020.60539,   0.00000,274640135.82653,   0.00000,   0.00000,   0.00000,-426511115.22114,   0.00000
-51739005.46134,-46224340.22363,3324406.68575,  -0.00015,  -0.00011,   0.00004,49549651.49623,   0.00000,274640135.82653,   0.00000,   0.00000,   0.00000,-425090484.33030,   0.00000
-53226924.57265,-47545778.87493,3428456.97326,  -0.00015,  -0.00011,   0.00004,50973070.87095,   0.00000,274640135.82653,   0.00000,   0.00000,   0.00000,-423667064.95558,   0.00000
-54678426.08333,-48851609.98310,3532507.26076,  -0.00015,  -0.00012,   0.00005,52369043.85246,   0.00000,274640135.82653,   0.00000,   0.00000,   0.00000,-422271091.97407,   0.00000
-56148136.39432,-50165244.86284,3636557.54826,  -0.00016,  -0.00012,   0.00005,53778747.23621,   0.00000,274640135.82653,   0.00000,   0.00000,   0.00000,-420861388.59032,   0.00000
-57591834.13344,-51452867.17070,3740607.83577,  -0.00016,  -0.00012,   0.00005,55162744.20383,   0.00000,274640135.82653,   0.00000,   0.00000,   0.00000,-419477391.62270,   0.00000
-59035531.87255,-52740489.47856,3844658.12327,  -0.00017,  -0.00012,   0.00005,56546746.98497,   0.00000,274640135.82653,   0.00000,   0.00000,   0.00000,-418093388.84156,   0.00000
-60461020.81136,-54020308.01486,3948708.41077,  -0.00017,  -0.00013,   0.00005,57917032.40662,   0.00000,274640135.82653,   0.00000,   0.00000,   0.00000,-416723103.41991,   0.00000
-61878705.97860,-55281917.75085,4057961.21265,  -0.00017,  -0.00013,   0.00005,59276405.90463,   0.00000,274640135.82653,   0.00000,   0.00000,   0.00000,-415363729.92190,   0.00000
-63278182.34553,-56535723.71527,4162011.50016,  -0.00018,  -0.00013,   0.00005,60620999.67713,   0.00000,274640135.82653,   0.00000,   0.00000,   0.00000,-414019136.14940,   0.00000
-64695867.51277,-57797333.45126,4266061.78766,  -0.00018,  -0.00014,   0.00006,61979321.14246,   0.00000,274640135.82653,   0.00000,   0.00000,   0.00000,-412660814.68407,   0.00000
-66077135.07938,-59043335.64412,4370112.07517,  -0.00019,  -0.00014,   0.00006,63310208.00817,   0.00000,274640135.82653,   0.00000,   0.00000,   0.00000,-411329927.81836,   0.00000
-67468807.67475,-60278932.80823,4479364.87705,  -0.00019,  -0.00014,   0.00006,64643918.15305,   0.00000,274640135.82653,   0.00000,   0.00000,   0.00000,-409996217.67348,   0.00000
-68842271.46980,-61506726.20077,4588617.67892,  -0.00019,  -0.00015,   0.00006,65963923.49865,   0.00000,274640135.82653,   0.00000,   0.00000,   0.00000,-408676212.32788,   0.00000
-70207931.49329,-62716310.79301,4692667.96643,  -0.00020,  -0.00015,   0.00006,67270872.07933,   0.00000,274640135.82653,   0.00000,   0.00000,   0.00000,-407369263.74720,   0.00000
-71555382.71647,-63918091.61368,4801920.76831,  -0.00020,  -0.00015,   0.00006,68565202.92763,   0.00000,274640135.82653,   0.00000,   0.00000,   0.00000,-406074932.89890,   0.00000
-72902833.93964,-65119872.43435,4911173.57019,  -0.00020,  -0.00015,   0.00006,69859549.19375,   0.00000,274640135.82653,   0.00000,   0.00000,   0.00000,-404780586.63278,   0.00000
-74250285.16282,-66321653.25502,5020426.37207,  -0.00021,  -0.00016,   0.00007,71153910.03632,   0.00000,274640135.82653,   0.00000,   0.00000,   0.00000,-403486225.79021,   0.00000
-75571723.81412,-67497421.50381,5129679.17394,  -0.00021,  -0.00016,   0.00007,72422590.94462,   0.00000,274640135.82653,   0.00000,   0.00000,   0.00000,-402217544.88191,   0.00000
-76893162.46542,-68673189.75261,5238931.97582,  -0.00022,  -0.00016,   0.00007,73691287.90303,   0.00000,274640135.82653,   0.00000,   0.00000,   0.00000,-400948847.92350,   0.00000
-78196392.31641,-69841154.22984,5348184.77770,  -0.00022,  -0.00017,   0.00007,74946284.36900,   0.00000,274640135.82653,   0.00000,   0.00000,   0.00000,-399693851.45752,   0.00000
-79491818.39583,-70990909.90676,5457437.57958,  -0.00022,  -0.00017,   0.00007,76189322.33592,   0.00000,274640135.82653,   0.00000,   0.00000,   0.00000,-398450813.49060,   0.00000
-80787244.47525,-72140665.58368,5571892.89584,  -0.00023,  -0.00017,   0.00007,77433499.75929,   0.00000,274640135.82653,   0.00000,   0.00000,   0.00000,-397206636.06724,   0.00000
-82082670.55468,-73290421.26060,5681145.69772,  -0.00023,  -0.00017,   0.00007,78676574.65925,   0.00000,274640135.82653,   0.00000,   0.00000,   0.00000,-395963561.16728,   0.00000
-83352084.06223,-74414164.36564,5795601.01397,  -0.00023,  -0.00018,   0.00008,79895112.90102,   0.00000,274640135.82653,   0.00000,   0.00000,   0.00000,-394745022.92551,   0.00000
-84603288.76946,-75530103.69912,5910056.33022,  -0.00024,  -0.00018,   0.00008,81099963.98793,   0.00000,274640135.82653,   0.00000,   0.00000,   0.00000,-393540171.83860,   0.00000
-85872702.27701,-76653846.80416,6024511.64648,  -0.00024,  -0.00018,   0.00008,82318554.91301,   0.00000,274640135.82653,   0.00000,   0.00000,   0.00000,-392321580.91352,   0.00000
-87116103.21268,-77751577.33733,6138966.96273,  -0.00024,  -0.00018,   0.00008,83511493.38412,   0.00000,274640135.82653,   0.00000,   0.00000,   0.00000,-391128642.44241,   0.00000
-88341295.34804,-78841504.09893,6253422.27899,  -0.00025,  -0.00019,   0.00008,84690746.26937,   0.00000,274640135.82653,   0.00000,   0.00000,   0.00000,-389949389.55716,   0.00000
-89584696.28371,-79939234.63210,6367877.59524,  -0.00025,  -0.00019,   0.00008,85883738.74806,   0.00000,274640135.82653,   0.00000,   0.00000,   0.00000,-388756397.07847,   0.00000
-90783875.84720,-81003148.82183,6487535.42587,  -0.00026,  -0.00019,   0.00008,87038536.14764,   0.00000,274640135.82653,   0.00000,   0.00000,   0.00000,-387601599.67889,   0.00000
-92001264.21099,-82074866.78312,6607193.25650,  -0.00026,  -0.00019,   0.00009,88207085.19205,   0.00000,274640135.82653,   0.00000,   0.00000,   0.00000,-386433050.63448,   0.00000
-93200443.77448,-83138780.97284,6721648.57276,  -0.00026,  -0.00020,   0.00009,89360785.68633,   0.00000,274640135.82653,   0.00000,   0.00000,   0.00000,-385279350.14020,   0.00000
-94391819.56640,-84184486.36226,6841306.40338,  -0.00027,  -0.00020,   0.00009,90503739.80147,   0.00000,274640135.82653,   0.00000,   0.00000,   0.00000,-384136396.02506,   0.00000
-95564986.55800,-85222387.98011,6960964.23401,  -0.00027,  -0.00020,   0.00009,91633022.30258,   0.00000,274640135.82653,   0.00000,   0.00000,   0.00000,-383007113.52395,   0.00000
-96738153.54961,-86260289.59796,7085824.57902,  -0.00027,  -0.00020,   0.00009,92763535.41799,   0.00000,274640135.82653,   0.00000,   0.00000,   0.00000,-381876600.40854,   0.00000
-97911320.54122,-87298191.21581,7205482.40965,  -0.00028,  -0.00021,   0.00009,93892899.76961,   0.00000,274640135.82653,   0.00000,   0.00000,   0.00000,-380747236.05692,   0.00000
-99058474.96095,-88310080.26179,7330342.75465,  -0.00028,  -0.00021,   0.00010,94997850.70054,   0.00000,274640135.82653,   0.00000,   0.00000,   0.00000,-379642285.12598,   0.00000
-100197825.60912,-89303760.50745,7450000.58528,  -0.00028,  -0.00021,   0.00010,96089701.85283,   0.00000,274640135.82653,   0.00000,   0.00000,   0.00000,-378550433.97370,   0.00000
-101344980.02885,-90315649.55343,7574860.93029,  -0.00029,  -0.00021,   0.00010,97194749.78290,   0.00000,274640135.82653,   0.00000,   0.00000,   0.00000,-377445386.04363,   0.00000
-102466121.87670,-91301526.02753,7699721.27529,  -0.00029,  -0.00022,   0.00010,98274201.17759,   0.00000,274640135.82653,   0.00000,   0.00000,   0.00000,-376365934.64894,   0.00000
-103579459.95300,-92269193.70132,7824581.62030,  -0.00029,  -0.00022,   0.00010,99341771.72349,   0.00000,274640135.82653,   0.00000,   0.00000,   0.00000,-375298364.10304,   0.00000
-104700601.80085,-93255070.17542,7954644.47968,  -0.00029,  -0.00022,   0.00010,100422563.54490,   0.00000,274640135.82653,   0.00000,   0.00000,   0.00000,-374217572.28163,   0.00000
-105795731.07683,-94214934.07764,8079504.82468,  -0.00030,  -0.00022,   0.00011,101476538.58342,   0.00000,274640135.82653,   0.00000,   0.00000,   0.00000,-373163597.24311,   0.00000
-106883056.58125,-95156589.17955,8209567.68406,  -0.00030,  -0.00022,   0.00011,102519891.47359,   0.00000,274640135.82653,   0.00000,   0.00000,   0.00000,-372120244.35294,   0.00000
-107959977.05691,-96108649.31021,8339630.54344,  -0.00030,  -0.00023,   0.00011,103561526.91354,   0.00000,274640135.82653,   0.00000,   0.00000,   0.00000,-371078608.91299,   0.00000
-109047302.56133,-97050304.41212,8469693.40282,  -0.00031,  -0.00023,   0.00011,104605014.18433,   0.00000,274640135.82653,   0.00000,   0.00000,   0.00000,-370035121.64220,   0.00000
-110090406.69355,-97958143.17059,8604958.77658,  -0.00031,  -0.00023,   0.00011,105610508.87779,   0.00000,274640135.82653,   0.00000,   0.00000,   0.00000,-369029626.94874,   0.00000
-111159523.39766,-98891994.50094,8735021.63596,  -0.00031,  -0.00023,   0.00011,106640428.78169,   0.00000,274640135.82653,   0.00000,   0.00000,   0.00000,-367999707.04484,   0.00000
-112202627.52989,-99799833.25941,8870287.00971,  -0.00032,  -0.00024,   0.00012,107646081.20768,   0.00000,274640135.82653,   0.00000,   0.00000,   0.00000,-366994054.61885,   0.00000
-113237927.89055,-100689463.21757,9005552.38347,  -0.00032,  -0.00024,   0.00012,108639910.07918,   0.00000,274640135.82653,   0.00000,   0.00000,   0.00000,-366000225.74735,   0.00000
-114262823.22246,-101589498.20448,9140817.75722,  -0.00032,  -0.00024,   0.00012,109632019.45336,   0.00000,274640135.82653,   0.00000,   0.00000,   0.00000,-365008116.37317,   0.00000
-115279914.78281,-102471324.39108,9276083.13098,  -0.00032,  -0.00024,   0.00012,110612308.02251,   0.00000,274640135.82653,   0.00000,   0.00000,   0.00000,-364027827.80402,   0.00000
-116289202.57160,-103334941.77736,9416551.01911,  -0.00033,  -0.00024,   0.00012,111582100.48697,   0.00000,274640135.82653,   0.00000,   0.00000,   0.00000,-363058035.33956,   0.00000
-117280281.56008,-104190755.39208,9551816.39286,  -0.00033,  -0.00025,   0.00012,112536964.65096,   0.00000,274640135.82653,   0.00000,   0.00000,   0.00000,-362103171.17557,   0.00000
-118271360.54855,-105046569.00680,9692284.28099,  -0.00033,  -0.00025,   0.00013,113493245.93325,   0.00000,274640135.82653,   0.00000,   0.00000,   0.00000,-361146889.89328,   0.00000
-119262439.53703,-105902382.62152,9832752.16912,  -0.00034,  -0.00025,   0.00013,114449625.03508,   0.00000,274640135.82653,   0.00000,   0.00000,   0.00000,-360190510.79145,   0.00000
-120227505.95363,-106732183.66436,9978422.57163,  -0.00034,  -0.00025,   0.00013,115381864.78687,   0.00000,274640135.82653,   0.00000,   0.00000,   0.00000,-359258271.03966,   0.00000
-121192572.37023,-107561984.70721,10118890.45976,  -0.00034,  -0.00025,   0.00013,116312864.15682,   0.00000,274640135.82653,   0.00000,   0.00000,   0.00000,-358327271.66971,   0.00000
-122157638.78683,-108391785.75005,10264560.86226,  -0.00034,  -0.00025,   0.00013,117245328.05204,   0.00000,274640135.82653,   0.00000,   0.00000,   0.00000,-357394807.77449,   0.00000
-123114901.43186,-109203377.99258,10410231.26477,  -0.00035,  -0.00026,   0.00014,118166037.19742,   0.00000,274640135.82653,   0.00000,   0.00000,   0.00000,-356474098.62911,   0.00000
-124053955.27659,-110007166.46355,10555901.66728,  -0.00035,  -0.00026,   0.00014,119073160.55501,   0.00000,274640135.82653,   0.00000,   0.00000,   0.00000,-355566975.27152,   0.00000
-124974800.32100,-110803151.16296,10706774.58416,  -0.00035,  -0.00026,   0.00014,119968089.07945,   0.00000,274640135.82653,   0.00000,   0.00000,   0.00000,-354672046.74708,   0.00000
-125906050.39416,-111588730.83361,10852444.98666,  -0.00036,  -0.00026,   0.00014,120863595.40292,   0.00000,274640135.82653,   0.00000,   0.00000,   0.00000,-353776540.42361,   0.00000
-126819091.66700,-112366506.73270,11003317.90354,  -0.00036,  -0.00026,   0.00014,121746928.27163,   0.00000,274640135.82653,   0.00000,   0.00000,   0.00000,-352893207.55490,   0.00000
-127713924.13954,-113136478.86023,11154190.82042,  -0.00036,  -0.00027,   0.00015,122616693.43126,   0.00000,274640135.82653,   0.00000,   0.00000,   0.00000,-352023442.39527,   0.00000
-128619161.64082,-113896045.95901,11305063.73730,  -0.00036,  -0.00027,   0.00015,123488450.79256,   0.00000,274640135.82653,   0.00000,   0.00000,   0.00000,-351151685.03397,   0.00000
-129506190.34179,-114647809.28623,11461139.16856,  -0.00037,  -0.00027,   0.00015,124348082.54415,   0.00000,274640135.82653,   0.00000,   0.00000,   0.00000,-350292053.28238,   0.00000
-130393219.04276,-115399572.61344,11617214.59982,  -0.00037,  -0.00027,   0.00015,125207867.99418,   0.00000,274640135.82653,   0.00000,   0.00000,   0.00000,-349432267.83235,   0.00000
-131254235.17186,-116125323.36878,11773290.03107,  -0.00037,  -0.00027,   0.00015,126042276.83467,   0.00000,274640135.82653,   0.00000,   0.00000,   0.00000,-348597858.99186,   0.00000
-132115251.30095,-116851074.12412,11929365.46233,  -0.00037,  -0.00027,   0.00016,126876843.46870,   0.00000,274640135.82653,   0.00000,   0.00000,   0.00000,-347763292.35783,   0.00000
-132976267.43005,-117576824.87946,12085440.89358,  -0.00038,  -0.00028,   0.00016,127711564.80285,   0.00000,274640135.82653,   0.00000,   0.00000,   0.00000,-346928571.02368,   0.00000
-133811270.98727,-118276563.06293,12246718.83921,  -0.00038,  -0.00028,   0.00016,128522413.41000,   0.00000,274640135.82653,   0.00000,   0.00000,   0.00000,-346117722.41653,   0.00000
-134646274.54449,-118976301.24639,12407996.78485,  -0.00038,  -0.00028,   0.00016,129333440.91035,   0.00000,274640135.82653,   0.00000,   0.00000,   0.00000,-345306694.91618,   0.00000
-135481278.10171,-119676039.42986,12569274.73048,  -0.00038,  -0.00028,   0.00016,130144643.95945,   0.00000,274640135.82653,   0.00000,   0.00000,   0.00000,-344495491.86708,   0.00000
-136308477.88736,-120357568.81301,12730552.67611,  -0.00039,  -0.00028,   0.00017,130944222.55961,   0.00000,274640135.82653,   0.00000,   0.00000,   0.00000,-343695913.26692,   0.00000
-137117468.87271,-121031294.42460,12897033.13611,  -0.00039,  -0.00028,   0.00017,131731811.44054,   0.00000,274640135.82653,   0.00000,   0.00000,   0.00000,-342908324.38599,   0.00000
-137926459.85805,-121705020.03618,13063513.59612,  -0.00039,  -0.00028,   0.00017,132519597.91995,   0.00000,274640135.82653,   0.00000,   0.00000,   0.00000,-342120537.90658,   0.00000
-138727647.07183,-122360536.84746,13229994.05613,  -0.00039,  -0.00029,   0.00017,133295798.49555,   0.00000,274640135.82653,   0.00000,   0.00000,   0.00000,-341344337.33098,   0.00000
-139518429.25686,-123026458.68748,13396474.51613,  -0.00039,  -0.00029,   0.00017,134070279.90855,   0.00000,274640135.82653,   0.00000,   0.00000,   0.00000,-340569855.91798,   0.00000
-140293603.89876,-123655962.92688,13562954.97614,  -0.00040,  -0.00029,   0.00018,134821411.58862,   0.00000,274640135.82653,   0.00000,   0.00000,   0.00000,-339818724.23791,   0.00000
-141058373.51192,-124295872.19503,13734637.95052,  -0.00040,  -0.00029,   0.00018,135572400.78781,   0.00000,274640135.82653,   0.00000,   0.00000,   0.00000,-339067735.03872,   0.00000
-141833548.15382,-124925376.43443,13906320.92490,  -0.00040,  -0.00029,   0.00018,136325540.34384,   0.00000,274640135.82653,   0.00000,   0.00000,   0.00000,-338314595.48269,   0.00000
-142590513.99541,-125547076.90227,14078003.89928,  -0.00040,  -0.00029,   0.00018,137065209.13576,   0.00000,274640135.82653,   0.00000,   0.00000,   0.00000,-337574926.69077,   0.00000
-143347479.83701,-126168777.37010,14254889.38804,  -0.00041,  -0.00029,   0.00019,137806711.38578,   0.00000,274640135.82653,   0.00000,   0.00000,   0.00000,-336833424.44075,   0.00000
-144078433.10672,-126764465.26606,14431774.87680,  -0.00041,  -0.00030,   0.00019,138523021.15467,   0.00000,274640135.82653,   0.00000,   0.00000,   0.00000,-336117114.67186,   0.00000
-144809386.37644,-127360153.16202,14608660.36555,  -0.00041,  -0.00030,   0.00019,139239578.57233,   0.00000,274640135.82653,   0.00000,   0.00000,   0.00000,-335400557.25420,   0.00000
-145540339.64615,-127955841.05798,14785545.85431,  -0.00041,  -0.00030,   0.00019,139956379.83499,   0.00000,274640135.82653,   0.00000,   0.00000,   0.00000,-334683755.99154,   0.00000
-146263489.14430,-128533320.15363,14962431.34307,  -0.00041,  -0.00030,   0.00019,140661699.92040,   0.00000,274640135.82653,   0.00000,   0.00000,   0.00000,-333978435.90613,   0.00000
-146968429.84214,-129102995.47771,15144519.34620,  -0.00042,  -0.00030,   0.00020,141355253.44673,   0.00000,274640135.82653,   0.00000,   0.00000,   0.00000,-333284882.37980,   0.00000
-147673370.53998,-129672670.80180,15326607.34933,  -0.00042,  -0.00030,   0.00020,142049076.84955,   0.00000,274640135.82653,   0.00000,   0.00000,   0.00000,-332591058.97698,   0.00000
-148370507.46626,-130224137.32557,15508695.35246,  -0.00042,  -0.00030,   0.00020,142731464.58731,   0.00000,274640135.82653,   0.00000,   0.00000,   0.00000,-331908671.23921,   0.00000
-149057239.36378,-130786008.87809,15690783.35560,  -0.00042,  -0.00030,   0.00020,143412138.05384,   0.00000,274640135.82653,   0.00000,   0.00000,   0.00000,-331227997.77269,   0.00000
-149754376.29006,-131337475.40186,15878073.87310,  -0.00043,  -0.00031,   0.00021,144096785.66992,   0.00000,274640135.82653,   0.00000,   0.00000,   0.00000,-330543350.15661,   0.00000
-150425500.64446,-131862929.35376,16065364.39061,  -0.00043,  -0.00031,   0.00021,144756360.88413,   0.00000,274640135.82653,   0.00000,   0.00000,   0.00000,-329883774.94240,   0.00000
-151086219.97011,-132398788.33440,16252654.90812,  -0.00043,  -0.00031,   0.00021,145414232.22606,   0.00000,274640135.82653,   0.00000,   0.00000,   0.00000,-329225903.60047,   0.00000
-151739135.52420,-132916438.51473,16439945.42562,  -0.00043,  -0.00031,   0.00021,146060723.04587,   0.00000,274640135.82653,   0.00000,   0.00000,   0.00000,-328579412.78065,   0.00000
-152402456.10704,-133423683.66632,16632438.45751,  -0.00043,  -0.00031,   0.00022,146711297.87470,   0.00000,274640135.82653,   0.00000,   0.00000,   0.00000,-327928837.95183,   0.00000
-153037162.86081,-133933530.07509,16824931.48939,  -0.00044,  -0.00031,   0.00022,147346500.46439,   0.00000,274640135.82653,   0.00000,   0.00000,   0.00000,-327293635.36213,   0.00000
-153682274.64334,-134432971.45510,17017424.52127,  -0.00044,  -0.00031,   0.00022,147984048.88881,   0.00000,274640135.82653,   0.00000,   0.00000,   0.00000,-326656086.93772,   0.00000
-154309177.62555,-134924609.06356,17209917.55315,  -0.00044,  -0.00031,   0.00022,148608245.90493,   0.00000,274640135.82653,   0.00000,   0.00000,   0.00000,-326031889.92160,   0.00000
-154936080.60776,-135416246.67202,17407613.09941,  -0.00044,  -0.00031,   0.00023,149234585.16145,   0.00000,274640135.82653,   0.00000,   0.00000,   0.00000,-325405550.66508,   0.00000
-155555179.81841,-135889675.48016,17600106.13129,  -0.00044,  -0.00031,   0.00023,149847810.03791,   0.00000,274640135.82653,   0.00000,   0.00000,   0.00000,-324792325.78862,   0.00000
-156156070.22874,-136355300.51674,17797801.67755,  -0.00044,  -0.00032,   0.00023,150449538.37882,   0.00000,274640135.82653,   0.00000,   0.00000,   0.00000,-324190597.44771,   0.00000
-156775169.43939,-136828729.32488,18000699.73818,  -0.00045,  -0.00032,   0.00023,151067148.21734,   0.00000,274640135.82653,   0.00000,   0.00000,   0.00000,-323572987.60919,   0.00000
-157376059.84973,-137294354.36146,18198395.28444,  -0.00045,  -0.00032,   0.00024,151669588.90009,   0.00000,274640135.82653,   0.00000,   0.00000,   0.00000,-322970546.92644,   0.00000
-157950937.68818,-137733966.82617,18401293.34507,  -0.00045,  -0.00032,   0.00024,152248999.71053,   0.00000,274640135.82653,   0.00000,   0.00000,   0.00000,-322391136.11600,   0.00000
-158544024.32696,-138181383.06243,18604191.40571,  -0.00045,  -0.00032,   0.00024,152842459.84225,   0.00000,274640135.82653,   0.00000,   0.00000,   0.00000,-321797675.98427,   0.00000
-159118902.16542,-138620995.52714,18807089.46634,  -0.00045,  -0.00032,   0.00024,153422634.06842,   0.00000,274640135.82653,   0.00000,   0.00000,   0.00000,-321217501.75811,   0.00000
-159693780.00388,-139060607.99184,19015190.04135,  -0.00046,  -0.00032,   0.00025,154005111.22706,   0.00000,274640135.82653,   0.00000,   0.00000,   0.00000,-320635024.59947,   0.00000
-160260854.07077,-139482011.65623,19218088.10198,  -0.00046,  -0.00032,   0.00025,154574484.75901,   0.00000,274640135.82653,   0.00000,   0.00000,   0.00000,-320065651.06752,   0.00000
-160809719.33736,-139895611.54906,19426188.67699,  -0.00046,  -0.00032,   0.00025,155132538.02428,   0.00000,274640135.82653,   0.00000,   0.00000,   0.00000,-319507597.80225,   0.00000
-161358584.60394,-140309211.44189,19634289.25200,  -0.00046,  -0.00032,   0.00026,155691001.08538,   0.00000,274640135.82653,   0.00000,   0.00000,   0.00000,-318949134.74115,   0.00000
-161907449.87052,-140722811.33472,19842389.82700,  -0.00046,  -0.00032,   0.00026,156249869.54826,   0.00000,274640135.82653,   0.00000,   0.00000,   0.00000,-318390266.27827,   0.00000
-162448511.36554,-141118202.42723,20055692.91639,  -0.00046,  -0.00033,   0.00026,156799606.01149,   0.00000,274640135.82653,   0.00000,   0.00000,   0.00000,-317840529.81504,   0.00000
-162971364.06025,-141505789.74819,20268996.00577,  -0.00047,  -0.00033,   0.00026,157336133.97906,   0.00000,274640135.82653,   0.00000,   0.00000,   0.00000,-317304001.84747,   0.00000
-163512425.55527,-141901180.84070,20482299.09515,  -0.00047,  -0.00033,   0.00027,157886750.22054,   0.00000,274640135.82653,   0.00000,   0.00000,   0.00000,-316753385.60599,   0.00000
-164035278.24998,-142288768.16165,20695602.18454,  -0.00047,  -0.00033,   0.00027,158424152.91743,   0.00000,274640135.82653,   0.00000,   0.00000,   0.00000,-316215982.90909,   0.00000
-164550327.17312,-142658146.68229,20908905.27392,  -0.00047,  -0.00033,   0.00027,158950493.03600,   0.00000,274640135.82653,   0.00000,   0.00000,   0.00000,-315689642.79053,   0.00000
-165054971.06752,-143037930.23168,21127410.87768,  -0.00047,  -0.00033,   0.00027,159477189.57361,   0.00000,274640135.82653,   0.00000,   0.00000,   0.00000,-315162946.25292,   0.00000
-165551811.19035,-143399504.98076,21345916.48144,  -0.00047,  -0.00033,   0.00028,159992865.13799,   0.00000,274640135.82653,   0.00000,   0.00000,   0.00000,-314647270.68853,   0.00000
-166059056.34193,-143750674.70108,21564422.08519,  -0.00048,  -0.00033,   0.00028,160511177.74291,   0.00000,274640135.82653,   0.00000,   0.00000,   0.00000,-314128958.08362,   0.00000
-166555896.46476,-144112249.45016,21782927.68895,  -0.00048,  -0.00033,   0.00028,161027792.65129,   0.00000,274640135.82653,   0.00000,   0.00000,   0.00000,-313612343.17524,   0.00000
-167026724.01572,-144447811.62736,22006635.80709,  -0.00048,  -0.00033,   0.00029,161521912.16871,   0.00000,274640135.82653,   0.00000,   0.00000,   0.00000,-313118223.65782,   0.00000
-167515760.36699,-144791177.57612,22230343.92522,  -0.00048,  -0.00033,   0.00029,162030168.30891,   0.00000,274640135.82653,   0.00000,   0.00000,   0.00000,-312609967.51762,   0.00000
-167986587.91794,-145126739.75332,22454052.04335,  -0.00048,  -0.00033,   0.00029,162525296.01395,   0.00000,274640135.82653,   0.00000,   0.00000,   0.00000,-312114839.81258,   0.00000
-168457415.46890,-145462301.93052,22677760.16149,  -0.00048,  -0.00033,   0.00029,163020922.26411,   0.00000,274640135.82653,   0.00000,   0.00000,   0.00000,-311619213.56242,   0.00000
-168928243.01985,-145797864.10772,22901468.27962,  -0.00048,  -0.00033,   0.00030,163517042.52606,   0.00000,274640135.82653,   0.00000,   0.00000,   0.00000,-311123093.30047,   0.00000
-169373057.99893,-146107413.71305,23130378.91213,  -0.00049,  -0.00033,   0.00030,163990831.89858,   0.00000,274640135.82653,   0.00000,   0.00000,   0.00000,-310649303.92795,   0.00000
-169836081.77832,-146424767.08993,23354087.03026,  -0.00049,  -0.00034,   0.00030,164476559.16983,   0.00000,274640135.82653,   0.00000,   0.00000,   0.00000,-310163576.65670,   0.00000
-170280896.75740,-146734316.69526,23582997.66277,  -0.00049,  -0.00034,   0.00031,164951404.36160,   0.00000,274640135.82653,   0.00000,   0.00000,   0.00000,-309688731.46493,   0.00000
-170725711.73648,-147043866.30058,23811908.29528,  -0.00049,  -0.00034,   0.00031,165426779.76643,   0.00000,274640135.82653,   0.00000,   0.00000,   0.00000,-309213356.06010,   0.00000
-171162722.94400,-147335207.10559,24046021.44216,  -0.00049,  -0.00034,   0.00031,165893577.89358,   0.00000,274640135.82653,   0.00000,   0.00000,   0.00000,-308746557.93295,   0.00000
-171581525.35120,-147618744.13904,24274932.07467,  -0.00049,  -0.00034,   0.00032,166345066.51812,   0.00000,274640135.82653,   0.00000,   0.00000,   0.00000,-308295069.30841,   0.00000
-172026340.33028,-147928293.74437,24509045.22156,  -0.00049,  -0.00034,   0.00032,166824334.99469,   0.00000,274640135.82653,   0.00000,   0.00000,   0.00000,-307815800.83184,   0.00000
-172445142.73748,-148211830.77781,24743158.36844,  -0.00050,  -0.00034,   0.00032,167279213.83285,   0.00000,274640135.82653,   0.00000,   0.00000,   0.00000,-307360921.99368,   0.00000
-172856141.37313,-148477159.01095,24977271.51532,  -0.00050,  -0.00034,   0.00032,167723331.25341,   0.00000,274640135.82653,   0.00000,   0.00000,   0.00000,-306916804.57311,   0.00000
-173274943.78033,-148760696.04440,25211384.66221,  -0.00050,  -0.00034,   0.00033,168179342.77322,   0.00000,274640135.82653,   0.00000,   0.00000,   0.00000,-306460793.05331,   0.00000
-173685942.41597,-149026024.27753,25445497.80909,  -0.00050,  -0.00034,   0.00033,168624604.10628,   0.00000,274640135.82653,   0.00000,   0.00000,   0.00000,-306015531.72025,   0.00000
-174086536.02286,-149301757.53942,25684813.47035,  -0.00050,  -0.00034,   0.00033,169070517.73049,   0.00000,274640135.82653,   0.00000,   0.00000,   0.00000,-305569618.09604,   0.00000
-174479325.85819,-149559282.00099,25924129.13161,  -0.00050,  -0.00034,   0.00034,169505730.57838,   0.00000,274640135.82653,   0.00000,   0.00000,   0.00000,-305134405.24815,   0.00000
-174872115.69351,-149816806.46256,26163444.79287,  -0.00050,  -0.00034,   0.00034,169941542.78310,   0.00000,274640135.82653,   0.00000,   0.00000,   0.00000,-304698593.04343,   0.00000
-175264905.52884,-150074330.92414,26402760.45413,  -0.00050,  -0.00034,   0.00034,170377949.74536,   0.00000,274640135.82653,   0.00000,   0.00000,   0.00000,-304262186.08117,   0.00000
-175649891.59261,-150313646.58539,26642076.11539,  -0.00051,  -0.00034,   0.00035,170803693.45507,   0.00000,274640135.82653,   0.00000,   0.00000,   0.00000,-303836442.37146,   0.00000
-176042681.42793,-150571171.04697,26886594.29102,  -0.00051,  -0.00034,   0.00035,171243736.80707,   0.00000,274640135.82653,   0.00000,   0.00000,   0.00000,-303396399.01946,   0.00000
-176409458.69139,-150802682.93666,27125909.95228,  -0.00051,  -0.00034,   0.00035,171657133.85361,   0.00000,274640135.82653,   0.00000,   0.00000,   0.00000,-302983001.97292,   0.00000
-176776235.95484,-151034194.82636,27370428.12791,  -0.00051,  -0.00034,   0.00036,172073618.40517,   0.00000,274640135.82653,   0.00000,   0.00000,   0.00000,-302566517.42136,   0.00000
-177161222.01860,-151273510.48762,27614946.30355,  -0.00051,  -0.00034,   0.00036,172504287.95652,   0.00000,274640135.82653,   0.00000,   0.00000,   0.00000,-302135847.87001,   0.00000
-177509790.48174,-151497218.60575,27859464.47918,  -0.00051,  -0.00034,   0.00036,172908480.74076,   0.00000,274640135.82653,   0.00000,   0.00000,   0.00000,-301731655.08577,   0.00000
-177876567.74519,-151728730.49545,28103982.65482,  -0.00051,  -0.00034,   0.00037,173326849.40566,   0.00000,274640135.82653,   0.00000,   0.00000,   0.00000,-301313286.42087,   0.00000
-178243345.00864,-151960242.38514,28348500.83045,  -0.00051,  -0.00034,   0.00037,173745837.05106,   0.00000,274640135.82653,   0.00000,   0.00000,   0.00000,-300894298.77547,   0.00000
-178584109.70022,-152165741.70296,28598221.52046,  -0.00052,  -0.00034,   0.00037,174143298.74829,   0.00000,274640135.82653,   0.00000,   0.00000,   0.00000,-300496837.07824,   0.00000
-178950886.96367,-152397253.59266,28842739.69610,  -0.00052,  -0.00034,   0.00037,174563541.57145,   0.00000,274640135.82653,   0.00000,   0.00000,   0.00000,-300076594.25508,   0.00000
-179291651.65524,-152602752.91048,29092460.38610,  -0.00052,  -0.00034,   0.00038,174962312.18927,   0.00000,274640135.82653,   0.00000,   0.00000,   0.00000,-299677823.63726,   0.00000
-179632416.34682,-152808252.22830,29342181.07611,  -0.00052,  -0.00034,   0.00038,175361746.50440,   0.00000,274640135.82653,   0.00000,   0.00000,   0.00000,-299278389.32213,   0.00000
-179973181.03840,-153013751.54612,29591901.76612,  -0.00052,  -0.00035,   0.00038,175761839.99188,   0.00000,274640135.82653,   0.00000,   0.00000,   0.00000,-298878295.83465,   0.00000
-180295736.92966,-153211447.09238,29841622.45613,  -0.00052,  -0.00035,   0.00039,176149075.52415,   0.00000,274640135.82653,   0.00000,   0.00000,   0.00000,-298491060.30238,   0.00000
-180636501.62123,-153416946.41020,30091343.14614,  -0.00052,  -0.00035,   0.00039,176550478.53760,   0.00000,274640135.82653,   0.00000,   0.00000,   0.00000,-298089657.28893,   0.00000
-180959057.51250,-153614641.95646,30346266.35053,  -0.00052,  -0.00035,   0.00039,176941700.94953,   0.00000,274640135.82653,   0.00000,   0.00000,   0.00000,-297698434.87700,   0.00000
-181273809.63220,-153794128.70240,30595987.04054,  -0.00052,  -0.00035,   0.00040,177319834.59812,   0.00000,274640135.82653,   0.00000,   0.00000,   0.00000,-297320301.22841,   0.00000
-181614574.32377,-153999628.02022,30850910.24492,  -0.00053,  -0.00035,   0.00040,177725907.33227,   0.00000,274640135.82653,   0.00000,   0.00000,   0.00000,-296914228.49426,   0.00000
-181929326.44347,-154179114.76617,31100630.93493,  -0.00053,  -0.00035,   0.00040,178105374.66019,   0.00000,274640135.82653,   0.00000,   0.00000,   0.00000,-296534761.16634,   0.00000
-182225869.76286,-154350797.74055,31355554.13932,  -0.00053,  -0.00035,   0.00041,178474761.05394,   0.00000,274640135.82653,   0.00000,   0.00000,   0.00000,-296165374.77259,   0.00000
-182548425.65412,-154548493.28681,31610477.34370,  -0.00053,  -0.00035,   0.00041,178869357.86486,   0.00000,274640135.82653,   0.00000,   0.00000,   0.00000,-295770777.96167,   0.00000
-182863177.77382,-154727980.03275,31865400.54808,  -0.00053,  -0.00035,   0.00041,179253593.34616,   0.00000,274640135.82653,   0.00000,   0.00000,   0.00000,-295386542.48037,   0.00000
-183159721.09320,-154899663.00713,32120323.75247,  -0.00053,  -0.00035,   0.00042,179625041.54693,   0.00000,274640135.82653,   0.00000,   0.00000,   0.00000,-295015094.27960,   0.00000
-183474473.21290,-155079149.75308,32375246.95685,  -0.00053,  -0.00035,   0.00042,180010637.31955,   0.00000,274640135.82653,   0.00000,   0.00000,   0.00000,-294629498.50698,   0.00000
-183771016.53229,-155250832.72746,32630170.16124,  -0.00053,  -0.00035,   0.00042,180383447.81694,   0.00000,274640135.82653,   0.00000,   0.00000,   0.00000,-294256688.00959,   0.00000
-184067559.85168,-155422515.70184,32885093.36562,  -0.00053,  -0.00035,   0.00043,180756935.86303,   0.00000,274640135.82653,   0.00000,   0.00000,   0.00000,-293883199.96350,   0.00000
-184356299.39950,-155575989.87591,33145219.08438,  -0.00054,  -0.00035,   0.00043,181122987.57934,   0.00000,274640135.82653,   0.00000,   0.00000,   0.00000,-293517148.24719,   0.00000
-184652842.71889,-155747672.85029,33400142.28877,  -0.00054,  -0.00035,   0.00043,181497845.43768,   0.00000,274640135.82653,   0.00000,   0.00000,   0.00000,-293142290.38885,   0.00000
-184949386.03827,-155919355.82467,33660268.00753,  -0.00054,  -0.00035,   0.00044,181876256.59353,   0.00000,274640135.82653,   0.00000,   0.00000,   0.00000,-292763879.23300,   0.00000
-185219916.78578,-156065026.22718,33915191.21191,  -0.00054,  -0.00035,   0.00044,182228097.17295,   0.00000,274640135.82653,   0.00000,   0.00000,   0.00000,-292412038.65358,   0.00000
-185516460.10517,-156236709.20156,34175316.93067,  -0.00054,  -0.00035,   0.00044,182607891.13416,   0.00000,274640135.82653,   0.00000,   0.00000,   0.00000,-292032244.69237,   0.00000
-185786990.85268,-156382379.60406,34430240.13506,  -0.00054,  -0.00035,   0.00045,182961108.43285,   0.00000,274640135.82653,   0.00000,   0.00000,   0.00000,-291679027.39368,   0.00000
-186083534.17207,-156554062.57844,34690365.85382,  -0.00054,  -0.00035,   0.00045,183342268.43640,   0.00000,274640135.82653,   0.00000,   0.00000,   0.00000,-291297867.39013,   0.00000
-186354064.91958,-156699732.98095,34950491.57258,  -0.00054,  -0.00035,   0.00045,183699815.45726,   0.00000,274640135.82653,   0.00000,   0.00000,   0.00000,-290940320.36927,   0.00000
-186632399.43865,-156863612.18377,35210617.29134,  -0.00054,  -0.00035,   0.00046,184068942.87524,   0.00000,274640135.82653,   0.00000,   0.00000,   0.00000,-290571192.95129,   0.00000
-186902930.18616,-157009282.58627,35465540.49572,  -0.00054,  -0.00035,   0.00046,184424886.70618,   0.00000,274640135.82653,   0.00000,   0.00000,   0.00000,-290215249.12035,   0.00000
-187173460.93367,-157154952.98878,35725666.21448,  -0.00055,  -0.00035,   0.00046,184784514.91513,   0.00000,274640135.82653,   0.00000,   0.00000,   0.00000,-289855620.91140,   0.00000
-187443991.68118,-157300623.39128,35985791.93324,  -0.00055,  -0.00035,   0.00047,185144838.05240,   0.00000,274640135.82653,   0.00000,   0.00000,   0.00000,-289495297.77413,   0.00000
-187722326.20025,-157464502.59410,36245917.65200,  -0.00055,  -0.00035,   0.00047,185516679.16826,   0.00000,274640135.82653,   0.00000,   0.00000,   0.00000,-289123456.65827,   0.00000
-187992856.94776,-157610172.99661,36506043.37076,  -0.00055,  -0.00035,   0.00047,185878368.28825,   0.00000,274640135.82653,   0.00000,   0.00000,   0.00000,-288761767.53828,   0.00000
-188245178.89496,-157748039.62755,36766169.08952,  -0.00055,  -0.00035,   0.00048,186227379.86685,   0.00000,274640135.82653,   0.00000,   0.00000,   0.00000,-288412755.95968,   0.00000
-188515709.64247,-157893710.03006,37026294.80828,  -0.00055,  -0.00035,   0.00048,186590436.99062,   0.00000,274640135.82653,   0.00000,   0.00000,   0.00000,-288049698.83591,   0.00000
-188768031.58967,-158031576.66100,37281218.01267,  -0.00055,  -0.00035,   0.00048,186937708.78668,   0.00000,274640135.82653,   0.00000,   0.00000,   0.00000,-287702427.03985,   0.00000
-189028157.30843,-158187652.09226,37541343.73143,  -0.00055,  -0.00035,   0.00049,187299531.80245,   0.00000,274640135.82653,   0.00000,   0.00000,   0.00000,-287340604.02408,   0.00000
-189298688.05594,-158333322.49476,37801469.45019,  -0.00055,  -0.00035,   0.00049,187664587.40506,   0.00000,274640135.82653,   0.00000,   0.00000,   0.00000,-286975548.42146,   0.00000
-189551010.00313,-158471189.12570,38061595.16895,  -0.00055,  -0.00035,   0.00049,188016978.75820,   0.00000,274640135.82653,   0.00000,   0.00000,   0.00000,-286623157.06833,   0.00000
-189803331.95033,-158609055.75665,38321720.88771,  -0.00055,  -0.00035,   0.00050,188370042.74231,   0.00000,274640135.82653,   0.00000,   0.00000,   0.00000,-286270093.08422,   0.00000
-190055653.89753,-158746922.38759,38581846.60646,  -0.00056,  -0.00035,   0.00050,188723775.58233,   0.00000,274640135.82653,   0.00000,   0.00000,   0.00000,-285916360.24420,   0.00000
-190307975.84473,-158884789.01853,38841972.32522,  -0.00056,  -0.00035,   0.00050,189078173.52431,   0.00000,274640135.82653,   0.00000,   0.00000,   0.00000,-285561962.30222,   0.00000
-190568101.56349,-159040864.44979,39102098.04398,  -0.00056,  -0.00035,   0.00051,189443934.98753,   0.00000,274640135.82653,   0.00000,   0.00000,   0.00000,-285196200.83900,   0.00000
-190820423.51068,-159178731.08073,39357021.24837,  -0.00056,  -0.00035,   0.00051,189796403.92585,   0.00000,274640135.82653,   0.00000,   0.00000,   0.00000,-284843731.90068,   0.00000
-191072745.45788,-159316597.71167,39617146.96713,  -0.00056,  -0.00035,   0.00052,190152748.18656,   0.00000,274640135.82653,   0.00000,   0.00000,   0.00000,-284487387.63997,   0.00000
-191306858.60476,-159446660.57105,39877272.68589,  -0.00056,  -0.00035,   0.00052,190496463.47953,   0.00000,274640135.82653,   0.00000,   0.00000,   0.00000,-284143672.34699,   0.00000
-191559180.55196,-159584527.20200,40132195.89027,  -0.00056,  -0.00035,   0.00052,190850829.59569,   0.00000,274640135.82653,   0.00000,   0.00000,   0.00000,-283789306.23084,   0.00000
-191819306.27072,-159740602.63325,40392321.60903,  -0.00056,  -0.00035,   0.00053,191219752.49001,   0.00000,274640135.82653,   0.00000,   0.00000,   0.00000,-283420383.33652,   0.00000
-192053419.41760,-159870665.49263,40647244.81342,  -0.00056,  -0.00035,   0.00053,191562086.94674,   0.00000,274640135.82653,   0.00000,   0.00000,   0.00000,-283078048.87979,   0.00000
-192305741.36480,-160008532.12358,40907370.53218,  -0.00056,  -0.00035,   0.00053,191921619.44674,   0.00000,274640135.82653,   0.00000,   0.00000,   0.00000,-282718516.37979,   0.00000
-192547658.28325,-160156803.78327,41162293.73656,  -0.00056,  -0.00035,   0.00054,192275812.98437,   0.00000,274640135.82653,   0.00000,   0.00000,   0.00000,-282364322.84215,   0.00000
-192799980.23045,-160294670.41421,41417216.94095,  -0.00056,  -0.00035,   0.00054,192633231.89563,   0.00000,274640135.82653,   0.00000,   0.00000,   0.00000,-282006903.93090,   0.00000
-193041897.14889,-160442942.07390,41677342.65971,  -0.00057,  -0.00035,   0.00054,192991980.31939,   0.00000,274640135.82653,   0.00000,   0.00000,   0.00000,-281648155.50714,   0.00000
-193276010.29578,-160573004.93328,41932265.86409,  -0.00057,  -0.00035,   0.00055,193337376.30355,   0.00000,274640135.82653,   0.00000,   0.00000,   0.00000,-281302759.52298,   0.00000
-193536136.01454,-160729080.36454,42187189.06848,  -0.00057,  -0.00035,   0.00055,193707162.55173,   0.00000,274640135.82653,   0.00000,   0.00000,   0.00000,-280932973.27480,   0.00000
-193778052.93298,-160877352.02423,42442112.27286,  -0.00057,  -0.00035,   0.00055,194064305.93776,   0.00000,274640135.82653,   0.00000,   0.00000,   0.00000,-280575829.88877,   0.00000
-194012166.07987,-161007414.88361,42691832.96287,  -0.00057,  -0.00035,   0.00055,194408046.96104,   0.00000,274640135.82653,   0.00000,   0.00000,   0.00000,-280232088.86549,   0.00000
-194254082.99831,-161155686.54331,42946756.16726,  -0.00057,  -0.00035,   0.00056,194766335.78007,   0.00000,274640135.82653,   0.00000,   0.00000,   0.00000,-279873800.04646,   0.00000
-194495999.91676,-161303958.20300,43201679.37164,  -0.00057,  -0.00035,   0.00056,195125194.62115,   0.00000,274640135.82653,   0.00000,   0.00000,   0.00000,-279514941.20538,   0.00000
-194737916.83521,-161452229.86269,43451400.06165,  -0.00057,  -0.00035,   0.00056,195481150.93544,   0.00000,274640135.82653,   0.00000,   0.00000,   0.00000,-279158984.89109,   0.00000
-194979833.75365,-161600501.52239,43706323.26603,  -0.00057,  -0.00036,   0.00057,195841126.48229,   0.00000,274640135.82653,   0.00000,   0.00000,   0.00000,-278799009.34424,   0.00000
-195221750.67210,-161748773.18208,43956043.95604,  -0.00057,  -0.00036,   0.00057,196198165.87449,   0.00000,274640135.82653,   0.00000,   0.00000,   0.00000,-278441969.95204,   0.00000
-195463667.59055,-161897044.84177,44205764.64605,  -0.00057,  -0.00036,   0.00057,196555735.61570,   0.00000,274640135.82653,   0.00000,   0.00000,   0.00000,-278084400.21083,   0.00000
-195705584.50899,-162045316.50146,44455485.33606,  -0.00057,  -0.00036,   0.00058,196913832.81679,   0.00000,274640135.82653,   0.00000,   0.00000,   0.00000,-277726303.00974,   0.00000
-195955305.19900,-162211796.96147,44705206.02607,  -0.00058,  -0.00036,   0.00058,197282925.93669,   0.00000,274640135.82653,   0.00000,   0.00000,   0.00000,-277357209.88984,   0.00000
-196197222.11745,-162360068.62116,44949724.20171,  -0.00058,  -0.00036,   0.00058,197638509.71010,   0.00000,274640135.82653,   0.00000,   0.00000,   0.00000,-277001626.11643,   0.00000
-196439139.03590,-162508340.28086,45199444.89172,  -0.00058,  -0.00036,   0.00059,197998149.00811,   0.00000,274640135.82653,   0.00000,   0.00000,   0.00000,-276641986.81842,   0.00000
-196688859.72591,-162674820.74086,45443963.06735,  -0.00058,  -0.00036,   0.00059,198365171.29656,   0.00000,274640135.82653,   0.00000,   0.00000,   0.00000,-276274964.52997,   0.00000
-196938580.41591,-162841301.20087,45688481.24298,  -0.00058,  -0.00036,   0.00059,198732662.37919,   0.00000,274640135.82653,   0.00000,   0.00000,   0.00000,-275907473.44734,   0.00000
-197188301.10592,-163007781.66088,45932999.41862,  -0.00058,  -0.00036,   0.00060,199100619.66016,   0.00000,274640135.82653,   0.00000,   0.00000,   0.00000,-275539516.16637,   0.00000
-197412009.22406,-163148249.54901,46177517.59425,  -0.00058,  -0.00036,   0.00060,199445527.31367,   0.00000,274640135.82653,   0.00000,   0.00000,   0.00000,-275194608.51285,   0.00000
-197661729.91407,-163314730.00901,46422035.76989,  -0.00058,  -0.00036,   0.00060,199814425.58427,   0.00000,274640135.82653,   0.00000,   0.00000,   0.00000,-274825710.24226,   0.00000
-197919254.37564,-163499419.26933,46661351.43115,  -0.00058,  -0.00036,   0.00061,200190542.61759,   0.00000,274640135.82653,   0.00000,   0.00000,   0.00000,-274449593.20894,   0.00000
-198168975.06565,-163665899.72934,46900667.09241,  -0.00058,  -0.00036,   0.00061,200556684.08548,   0.00000,274640135.82653,   0.00000,   0.00000,   0.00000,-274083451.74105,   0.00000
-198400486.95535,-163824576.41778,47139982.75366,  -0.00058,  -0.00036,   0.00061,200910187.01920,   0.00000,274640135.82653,   0.00000,   0.00000,   0.00000,-273729948.80733,   0.00000
-198658011.41692,-164009265.67810,47379298.41492,  -0.00058,  -0.00036,   0.00062,201287565.21381,   0.00000,274640135.82653,   0.00000,   0.00000,   0.00000,-273352570.61272,   0.00000
-198907732.10693,-164175746.13811,47618614.07618,  -0.00058,  -0.00036,   0.00062,201654986.05351,   0.00000,274640135.82653,   0.00000,   0.00000,   0.00000,-272985149.77302,   0.00000
-199165256.56850,-164360435.39843,47852727.22307,  -0.00059,  -0.00036,   0.00062,202029488.86382,   0.00000,274640135.82653,   0.00000,   0.00000,   0.00000,-272610646.96271,   0.00000
-199404572.22976,-164537320.88718,48086840.36995,  -0.00059,  -0.00036,   0.00063,202391333.69248,   0.00000,274640135.82653,   0.00000,   0.00000,   0.00000,-272248802.13405,   0.00000
-199662096.69133,-164722010.14750,48320953.51683,  -0.00059,  -0.00036,   0.00063,202766602.80056,   0.00000,274640135.82653,   0.00000,   0.00000,   0.00000,-271873533.02597,   0.00000
-199919621.15290,-164906699.40782,48555066.66372,  -0.00059,  -0.00036,   0.00063,203142248.32976,   0.00000,274640135.82653,   0.00000,   0.00000,   0.00000,-271497887.49677,   0.00000
-200177145.61448,-165091388.66814,48789179.81060,  -0.00059,  -0.00036,   0.00063,203518268.19573,   0.00000,274640135.82653,   0.00000,   0.00000,   0.00000,-271121867.63080,   0.00000
-200424265.04730,-165286482.95721,49018090.44311,  -0.00059,  -0.00036,   0.00064,203888217.34281,   0.00000,274640135.82653,   0.00000,   0.00000,   0.00000,-270751918.48372,   0.00000
-200681789.50887,-165471172.21753,49247001.07562,  -0.00059,  -0.00036,   0.00064,204261204.99891,   0.00000,274640135.82653,   0.00000,   0.00000,   0.00000,-270378930.82762,   0.00000
-200947117.74200,-165674070.27817,49475911.70813,  -0.00059,  -0.00036,   0.00064,204644844.30941,   0.00000,274640135.82653,   0.00000,   0.00000,   0.00000,-269995291.51712,   0.00000
-201212445.97514,-165876968.33880,49699619.82626,  -0.00059,  -0.00036,   0.00065,205025030.52750,   0.00000,274640135.82653,   0.00000,   0.00000,   0.00000,-269615105.29903,   0.00000
-201477774.20827,-166079866.39943,49923327.94440,  -0.00059,  -0.00036,   0.00065,205405525.04580,   0.00000,274640135.82653,   0.00000,   0.00000,   0.00000,-269234610.78073,   0.00000
-201724893.64110,-166274960.68850,50147036.06253,  -0.00059,  -0.00036,   0.00065,205773351.49134,   0.00000,274640135.82653,   0.00000,   0.00000,   0.00000,-268866784.33519,   0.00000
-201990221.87423,-166477858.74913,50370744.18066,  -0.00059,  -0.00036,   0.00065,206154464.34301,   0.00000,274640135.82653,   0.00000,   0.00000,   0.00000,-268485671.48352,   0.00000
-202263353.87893,-166698965.61008,50589249.78442,  -0.00060,  -0.00036,   0.00066,206542330.20529,   0.00000,274640135.82653,   0.00000,   0.00000,   0.00000,-268097805.62124,   0.00000
-202528682.11206,-166901863.67071,50807755.38818,  -0.00060,  -0.00036,   0.00066,206920198.88422,   0.00000,274640135.82653,   0.00000,   0.00000,   0.00000,-267719936.94231,   0.00000
-202801814.11676,-167122970.53166,51026260.99194,  -0.00060,  -0.00036,   0.00066,207308609.12279,   0.00000,274640135.82653,   0.00000,   0.00000,   0.00000,-267331526.70374,   0.00000
-203074946.12146,-167344077.39260,51239564.08132,  -0.00060,  -0.00037,   0.00067,207693435.77036,   0.00000,274640135.82653,   0.00000,   0.00000,   0.00000,-266946700.05616,   0.00000
-203329869.32585,-167557380.48199,51458069.68508,  -0.00060,  -0.00037,   0.00067,208069435.62958,   0.00000,274640135.82653,   0.00000,   0.00000,   0.00000,-266570700.19695,   0.00000
-203610805.10211,-167796696.14325,51666170.26009,  -0.00060,  -0.00037,   0.00067,208461148.04383,   0.00000,274640135.82653,   0.00000,   0.00000,   0.00000,-266178987.78270,   0.00000
-203883937.10680,-168017803.00419,51879473.34947,  -0.00060,  -0.00037,   0.00067,208846714.17346,   0.00000,274640135.82653,   0.00000,   0.00000,   0.00000,-265793421.65307,   0.00000
-204164872.88306,-168257118.66545,52087573.92448,  -0.00060,  -0.00037,   0.00068,209238873.36957,   0.00000,274640135.82653,   0.00000,   0.00000,   0.00000,-265401262.45696,   0.00000
-204445808.65932,-168496434.32671,52295674.49949,  -0.00060,  -0.00037,   0.00068,209631247.67341,   0.00000,274640135.82653,   0.00000,   0.00000,   0.00000,-265008888.15312,   0.00000
-204726744.43559,-168735749.98797,52503775.07449,  -0.00060,  -0.00037,   0.00068,210023835.87936,   0.00000,274640135.82653,   0.00000,   0.00000,   0.00000,-264616299.94717,   0.00000
-205007680.21185,-168975065.64923,52706673.13513,  -0.00060,  -0.00037,   0.00069,210412727.07118,   0.00000,274640135.82653,   0.00000,   0.00000,   0.00000,-264227408.75535,   0.00000
-205296419.75967,-169232590.11080,52909571.19576,  -0.00060,  -0.00037,   0.00069,210812032.00411,   0.00000,274640135.82653,   0.00000,   0.00000,   0.00000,-263828103.82242,   0.00000
-205577355.53593,-169471905.77206,53107266.74202,  -0.00060,  -0.00037,   0.00069,211197384.14888,   0.00000,274640135.82653,   0.00000,   0.00000,   0.00000,-263442751.67765,   0.00000
-205884303.88407,-169737234.00519,53304962.28827,  -0.00061,  -0.00037,   0.00069,211606001.66550,   0.00000,274640135.82653,   0.00000,   0.00000,   0.00000,-263034134.16103,   0.00000
-206173043.43189,-169994758.46677,53502657.83453,  -0.00061,  -0.00037,   0.00070,212001906.14628,   0.00000,274640135.82653,   0.00000,   0.00000,   0.00000,-262638229.68025,   0.00000
-206469586.75128,-170270491.72865,53700353.38079,  -0.00061,  -0.00037,   0.00070,212408183.46588,   0.00000,274640135.82653,   0.00000,   0.00000,   0.00000,-262231952.36065,   0.00000
-206758326.29910,-170528016.19022,53892846.41267,  -0.00061,  -0.00037,   0.00070,212800468.20569,   0.00000,274640135.82653,   0.00000,   0.00000,   0.00000,-261839667.62084,   0.00000
-207054869.61849,-170803749.45211,54080136.93018,  -0.00061,  -0.00037,   0.00070,213199144.97397,   0.00000,274640135.82653,   0.00000,   0.00000,   0.00000,-261440990.85256,   0.00000
-207369621.73819,-171087286.48556,54272629.96206,  -0.00061,  -0.00037,   0.00071,213614767.33387,   0.00000,274640135.82653,   0.00000,   0.00000,   0.00000,-261025368.49266,   0.00000
-207666165.05757,-171363019.74744,54454717.96519,  -0.00061,  -0.00037,   0.00071,214009739.09860,   0.00000,274640135.82653,   0.00000,   0.00000,   0.00000,-260630396.72793,   0.00000
-207962708.37696,-171638753.00933,54642008.48270,  -0.00061,  -0.00038,   0.00071,214408807.99278,   0.00000,274640135.82653,   0.00000,   0.00000,   0.00000,-260231327.83375,   0.00000
-208285264.26822,-171940498.84309,54824096.48583,  -0.00061,  -0.00038,   0.00071,214827044.10808,   0.00000,274640135.82653,   0.00000,   0.00000,   0.00000,-259813091.71845,   0.00000
-208581807.58761,-172216232.10498,55006184.48896,  -0.00061,  -0.00038,   0.00072,215222371.19934,   0.00000,274640135.82653,   0.00000,   0.00000,   0.00000,-259417764.62719,   0.00000
-208904363.47887,-172517977.93874,55183069.97772,  -0.00061,  -0.00038,   0.00072,215636826.76928,   0.00000,274640135.82653,   0.00000,   0.00000,   0.00000,-259003309.05724,   0.00000
-209216514.34138,-172830128.80125,55359955.46648,  -0.00061,  -0.00038,   0.00072,216048744.91974,   0.00000,274640135.82653,   0.00000,   0.00000,   0.00000,-258591390.90679,   0.00000
-209539070.23264,-173131874.63501,55531638.44086,  -0.00062,  -0.00038,   0.00072,216459383.10389,   0.00000,274640135.82653,   0.00000,   0.00000,   0.00000,-258180752.72264,   0.00000
-209869429.89547,-173451829.26909,55703321.41524,  -0.00062,  -0.00038,   0.00072,216880285.43065,   0.00000,274640135.82653,   0.00000,   0.00000,   0.00000,-257759850.39588,   0.00000
-210181580.75798,-173763980.13160,55875004.38962,  -0.00062,  -0.00038,   0.00073,217288467.26152,   0.00000,274640135.82653,   0.00000,   0.00000,   0.00000,-257351668.56501,   0.00000
-210511940.42081,-174083934.76567,56041484.84963,  -0.00062,  -0.00038,   0.00073,217705513.41680,   0.00000,274640135.82653,   0.00000,   0.00000,   0.00000,-256934622.40973,   0.00000
-210842300.08363,-174403889.39975,56202762.79526,  -0.00062,  -0.00038,   0.00073,218118606.71479,   0.00000,274640135.82653,   0.00000,   0.00000,   0.00000,-256521529.11174,   0.00000
-211180463.51802,-174742052.83413,56369243.25527,  -0.00062,  -0.00038,   0.00073,218545968.25905,   0.00000,274640135.82653,   0.00000,   0.00000,   0.00000,-256094167.56748,   0.00000
-211500418.15209,-175072412.49696,56525318.68652,  -0.00062,  -0.00038,   0.00073,218952558.79722,   0.00000,274640135.82653,   0.00000,   0.00000,   0.00000,-255687577.02931,   0.00000
-211838581.58648,-175410575.93135,56686596.63215,  -0.00062,  -0.00039,   0.00074,219376019.45013,   0.00000,274640135.82653,   0.00000,   0.00000,   0.00000,-255264116.37640,   0.00000
-212176745.02087,-175748739.36574,56842672.06341,  -0.00062,  -0.00039,   0.00074,219795503.04335,   0.00000,274640135.82653,   0.00000,   0.00000,   0.00000,-254844632.78318,   0.00000
-212522712.22682,-176105111.60044,56993544.98029,  -0.00062,  -0.00039,   0.00074,220221184.48954,   0.00000,274640135.82653,   0.00000,   0.00000,   0.00000,-254418951.33699,   0.00000
-212886888.23308,-176469287.60670,57144417.89717,  -0.00062,  -0.00039,   0.00074,220659676.04685,   0.00000,274640135.82653,   0.00000,   0.00000,   0.00000,-253980459.77968,   0.00000
-213232855.43903,-176825659.84140,57290088.29968,  -0.00063,  -0.00039,   0.00074,221081403.34798,   0.00000,274640135.82653,   0.00000,   0.00000,   0.00000,-253558732.47855,   0.00000
-213578822.64498,-177182032.07610,57435758.70218,  -0.00063,  -0.00039,   0.00075,221503172.21534,   0.00000,274640135.82653,   0.00000,   0.00000,   0.00000,-253136963.61119,   0.00000
-213932593.62250,-177556613.11112,57576226.59031,  -0.00063,  -0.00039,   0.00075,221931125.17398,   0.00000,274640135.82653,   0.00000,   0.00000,   0.00000,-252709010.65255,   0.00000
-214286364.60001,-177931194.14613,57716694.47844,  -0.00063,  -0.00039,   0.00075,222359118.60276,   0.00000,274640135.82653,   0.00000,   0.00000,   0.00000,-252281017.22377,   0.00000
-214658344.37784,-178313578.95271,57857162.36657,  -0.00063,  -0.00039,   0.00075,222799895.24957,   0.00000,274640135.82653,   0.00000,   0.00000,   0.00000,-251840240.57696,   0.00000
-215012115.35535,-178688159.98772,57992427.74033,  -0.00063,  -0.00039,   0.00075,223223910.07040,   0.00000,274640135.82653,   0.00000,   0.00000,   0.00000,-251416225.75613,   0.00000
-215391898.90474,-179088753.59461,58122490.59971,  -0.00063,  -0.00039,   0.00076,223666843.33887,   0.00000,274640135.82653,   0.00000,   0.00000,   0.00000,-250973292.48766,   0.00000
-215753473.65382,-179481543.42994,58252553.45909,  -0.00063,  -0.00040,   0.00076,224097075.67801,   0.00000,274640135.82653,   0.00000,   0.00000,   0.00000,-250543060.14852,   0.00000
-216133257.20321,-179882137.03683,58377413.80409,  -0.00063,  -0.00040,   0.00076,224536017.67005,   0.00000,274640135.82653,   0.00000,   0.00000,   0.00000,-250104118.15648,   0.00000
-216520844.52416,-180300939.44403,58502274.14910,  -0.00063,  -0.00040,   0.00076,224985202.71961,   0.00000,274640135.82653,   0.00000,   0.00000,   0.00000,-249654933.10692,   0.00000
-216882419.27323,-180693729.27936,58621931.97973,  -0.00063,  -0.00040,   0.00076,225407424.82046,   0.00000,274640135.82653,   0.00000,   0.00000,   0.00000,-249232711.00607,   0.00000
-217270006.59419,-181112531.68656,58741589.81036,  -0.00064,  -0.00040,   0.00076,225852622.44630,   0.00000,274640135.82653,   0.00000,   0.00000,   0.00000,-248787513.38023,   0.00000
-217665397.68670,-181549542.89408,58856045.12661,  -0.00064,  -0.00040,   0.00077,226304022.42364,   0.00000,274640135.82653,   0.00000,   0.00000,   0.00000,-248336113.40289,   0.00000
-218052985.00765,-181968345.30128,58970500.44286,  -0.00064,  -0.00040,   0.00077,226745235.58398,   0.00000,274640135.82653,   0.00000,   0.00000,   0.00000,-247894900.24255,   0.00000
-218448376.10017,-182405356.50880,59079753.24474,  -0.00064,  -0.00040,   0.00077,227192660.34131,   0.00000,274640135.82653,   0.00000,   0.00000,   0.00000,-247447475.48522,   0.00000
-218843767.19268,-182842367.71632,59183803.53225,  -0.00064,  -0.00041,   0.00077,227636071.65684,   0.00000,274640135.82653,   0.00000,   0.00000,   0.00000,-247004064.16969,   0.00000
-219246962.05676,-183297587.72415,59287853.81975,  -0.00064,  -0.00041,   0.00077,228089775.32414,   0.00000,274640135.82653,   0.00000,   0.00000,   0.00000,-246550360.50239,   0.00000
-219642353.14928,-183734598.93166,59386701.59288,  -0.00064,  -0.00041,   0.00077,228529226.69866,   0.00000,274640135.82653,   0.00000,   0.00000,   0.00000,-246110909.12787,   0.00000
-220045548.01335,-184189818.93949,59485549.36601,  -0.00064,  -0.00041,   0.00077,228978983.10668,   0.00000,274640135.82653,   0.00000,   0.00000,   0.00000,-245661152.71985,   0.00000
-220474755.44931,-184671051.51920,59579194.62476,  -0.00064,  -0.00041,   0.00077,229447709.58496,   0.00000,274640135.82653,   0.00000,   0.00000,   0.00000,-245192426.24157,   0.00000
-220877950.31339,-185126271.52703,59672839.88352,  -0.00064,  -0.00041,   0.00078,229893534.92298,   0.00000,274640135.82653,   0.00000,   0.00000,   0.00000,-244746600.90355,   0.00000
-221307157.74934,-185607504.10673,59761282.62789,  -0.00065,  -0.00041,   0.00078,230358345.11692,   0.00000,274640135.82653,   0.00000,   0.00000,   0.00000,-244281790.70961,   0.00000
-221718156.38498,-186080932.91488,59849725.37227,  -0.00065,  -0.00041,   0.00078,230810532.60705,   0.00000,274640135.82653,   0.00000,   0.00000,   0.00000,-243829603.21948,   0.00000
-222155167.59250,-186580374.29490,59927763.08790,  -0.00065,  -0.00042,   0.00078,231277691.54261,   0.00000,274640135.82653,   0.00000,   0.00000,   0.00000,-243362444.28392,   0.00000
-222573969.99970,-187072011.90335,60011003.31790,  -0.00065,  -0.00042,   0.00078,231736296.14607,   0.00000,274640135.82653,   0.00000,   0.00000,   0.00000,-242903839.68046,   0.00000
-223010981.20722,-187571453.28337,60083838.51916,  -0.00065,  -0.00042,   0.00078,232199605.80553,   0.00000,274640135.82653,   0.00000,   0.00000,   0.00000,-242440530.02100,   0.00000
-223447992.41473,-188070894.66339,60156673.72041,  -0.00065,  -0.00042,   0.00078,232663016.11730,   0.00000,274640135.82653,   0.00000,   0.00000,   0.00000,-241977119.70923,   0.00000
-223892807.39381,-188588544.84372,60229508.92166,  -0.00065,  -0.00042,   0.00078,233136850.23268,   0.00000,274640135.82653,   0.00000,   0.00000,   0.00000,-241503285.59385,   0.00000
-224329818.60133,-189087986.22374,60291939.09416,  -0.00065,  -0.00042,   0.00078,233592410.31719,   0.00000,274640135.82653,   0.00000,   0.00000,   0.00000,-241047725.50934,   0.00000
-224782437.35197,-189623845.20439,60359571.78104,  -0.00065,  -0.00042,   0.00078,234072788.72963,   0.00000,274640135.82653,   0.00000,   0.00000,   0.00000,-240567347.09690,   0.00000
-225227252.33105,-190141495.38472,60416799.43917,  -0.00065,  -0.00043,   0.00079,234534913.95426,   0.00000,274640135.82653,   0.00000,   0.00000,   0.00000,-240105221.87227,   0.00000
-225679871.08169,-190677354.36536,60474027.09730,  -0.00066,  -0.00043,   0.00079,235007533.47062,   0.00000,274640135.82653,   0.00000,   0.00000,   0.00000,-239632602.35591,   0.00000
-226132489.83234,-191213213.34601,60526052.24105,  -0.00066,  -0.00043,   0.00079,235476293.69591,   0.00000,274640135.82653,   0.00000,   0.00000,   0.00000,-239163842.13062,   0.00000
-226592912.35454,-191767281.12697,60578077.38480,  -0.00066,  -0.00043,   0.00079,235955592.63172,   0.00000,274640135.82653,   0.00000,   0.00000,   0.00000,-238684543.19481,   0.00000
-227063739.90550,-192310943.87918,60624900.01418,  -0.00066,  -0.00043,   0.00079,236433361.60279,   0.00000,274640135.82653,   0.00000,   0.00000,   0.00000,-238206774.22374,   0.00000
-227531966.19926,-192883220.46045,60666520.12918,  -0.00066,  -0.00043,   0.00079,236915415.22923,   0.00000,274640135.82653,   0.00000,   0.00000,   0.00000,-237724720.59730,   0.00000
-228010597.52178,-193445092.01297,60708140.24418,  -0.00066,  -0.00044,   0.00079,237399958.01249,   0.00000,274640135.82653,   0.00000,   0.00000,   0.00000,-237240177.81403,   0.00000
-228478823.81555,-194017368.59424,60744557.84481,  -0.00066,  -0.00044,   0.00079,237878447.94233,   0.00000,274640135.82653,   0.00000,   0.00000,   0.00000,-236761687.88420,   0.00000
-228965258.90963,-194597448.94708,60775772.93106,  -0.00066,  -0.00044,   0.00079,238365864.52142,   0.00000,274640135.82653,   0.00000,   0.00000,   0.00000,-236274271.30511,   0.00000
-229451694.00371,-195177529.29991,60801785.50293,  -0.00066,  -0.00044,   0.00079,238849543.55514,   0.00000,274640135.82653,   0.00000,   0.00000,   0.00000,-235790592.27138,   0.00000
-229945932.86936,-195775818.45306,60827798.07481,  -0.00066,  -0.00044,   0.00079,239343921.96704,   0.00000,274640135.82653,   0.00000,   0.00000,   0.00000,-235296213.85949,   0.00000
-230421962.93469,-196366303.83464,60853810.64669,  -0.00067,  -0.00044,   0.00079,239825886.65783,   0.00000,274640135.82653,   0.00000,   0.00000,   0.00000,-234814249.16870,   0.00000
-230916201.80033,-196964592.98779,60869418.18981,  -0.00067,  -0.00045,   0.00079,240312891.15473,   0.00000,274640135.82653,   0.00000,   0.00000,   0.00000,-234327244.67180,   0.00000
-231410440.66597,-197562882.14094,60885025.73294,  -0.00067,  -0.00045,   0.00079,240800186.68822,   0.00000,274640135.82653,   0.00000,   0.00000,   0.00000,-233839949.13831,   0.00000
-231912483.30318,-198179380.09440,60895430.76169,  -0.00067,  -0.00045,   0.00079,241294332.49089,   0.00000,274640135.82653,   0.00000,   0.00000,   0.00000,-233345803.33564,   0.00000
-232440538.51226,-198821890.61974,60905835.79044,  -0.00067,  -0.00045,   0.00079,241811999.92927,   0.00000,274640135.82653,   0.00000,   0.00000,   0.00000,-232828135.89726,   0.00000
-232942581.14947,-199438388.57320,60911038.30481,  -0.00067,  -0.00045,   0.00079,242302884.21071,   0.00000,274640135.82653,   0.00000,   0.00000,   0.00000,-232337251.61582,   0.00000
-233452427.55824,-200073095.32697,60911038.30481,  -0.00067,  -0.00046,   0.00079,242800727.70791,   0.00000,274640135.82653,   0.00000,   0.00000,   0.00000,-231839408.11862,   0.00000
-233980482.76732,-200715605.85231,60905835.79044,  -0.00067,  -0.00046,   0.00079,243307724.68712,   0.00000,274640135.82653,   0.00000,   0.00000,   0.00000,-231332411.13941,   0.00000
-234498132.94765,-201368521.40640,60900633.27606,  -0.00067,  -0.00046,   0.00079,243812991.58449,   0.00000,274640135.82653,   0.00000,   0.00000,   0.00000,-230827144.24204,   0.00000
-235026188.15674,-202011031.93173,60890228.24731,  -0.00068,  -0.00046,   0.00079,244316890.59317,   0.00000,274640135.82653,   0.00000,   0.00000,   0.00000,-230323245.23336,   0.00000
-235551642.10863,-202682156.28613,60874620.70419,  -0.00068,  -0.00046,   0.00079,244825807.82096,   0.00000,274640135.82653,   0.00000,   0.00000,   0.00000,-229814328.00556,   0.00000
-236087501.08928,-203342875.61178,60859013.16106,  -0.00068,  -0.00046,   0.00079,245337278.68787,   0.00000,274640135.82653,   0.00000,   0.00000,   0.00000,-229302857.13866,   0.00000
-236631163.84148,-204021803.73775,60838203.10356,  -0.00068,  -0.00047,   0.00079,245855949.90662,   0.00000,274640135.82653,   0.00000,   0.00000,   0.00000,-228784185.91991,   0.00000
-237174826.59369,-204700731.86371,60812190.53168,  -0.00068,  -0.00047,   0.00079,246371254.33722,   0.00000,274640135.82653,   0.00000,   0.00000,   0.00000,-228268881.48931,   0.00000
-237718489.34590,-205379659.98967,60780975.44543,  -0.00068,  -0.00047,   0.00079,246883217.99496,   0.00000,274640135.82653,   0.00000,   0.00000,   0.00000,-227756917.83157,   0.00000
-238269955.86967,-206076796.91595,60749760.35918,  -0.00068,  -0.00047,   0.00079,247406363.98735,   0.00000,274640135.82653,   0.00000,   0.00000,   0.00000,-227233771.83918,   0.00000
-238821422.39344,-206773933.84223,60713342.75856,  -0.00068,  -0.00048,   0.00079,247926231.93862,   0.00000,274640135.82653,   0.00000,   0.00000,   0.00000,-226713903.88791,   0.00000
-239380692.68878,-207489279.56882,60671722.64355,  -0.00068,  -0.00048,   0.00079,248453543.91732,   0.00000,274640135.82653,   0.00000,   0.00000,   0.00000,-226186591.90921,   0.00000
-239939962.98411,-208204625.29541,60624900.01418,  -0.00069,  -0.00048,   0.00079,248977664.15866,   0.00000,274640135.82653,   0.00000,   0.00000,   0.00000,-225662471.66787,   0.00000
-240517442.07976,-208927774.79356,60578077.38480,  -0.00069,  -0.00048,   0.00079,249515112.63034,   0.00000,274640135.82653,   0.00000,   0.00000,   0.00000,-225125023.19619,   0.00000
-241076712.37509,-209643120.52015,60526052.24105,  -0.00069,  -0.00048,   0.00079,250036705.23268,   0.00000,274640135.82653,   0.00000,   0.00000,   0.00000,-224603430.59385,   0.00000
-241643786.44199,-210376675.04705,60468824.58292,  -0.00069,  -0.00049,   0.00079,250565929.11198,   0.00000,274640135.82653,   0.00000,   0.00000,   0.00000,-224074206.71455,   0.00000
-242229069.30920,-211118033.34552,60411596.92479,  -0.00069,  -0.00049,   0.00079,251108551.06789,   0.00000,274640135.82653,   0.00000,   0.00000,   0.00000,-223531584.75864,   0.00000
-242814352.17641,-211859391.64398,60343964.23792,  -0.00069,  -0.00049,   0.00078,251644377.19911,   0.00000,274640135.82653,   0.00000,   0.00000,   0.00000,-222995758.62742,   0.00000
-243389230.01487,-212611154.97120,60276331.55104,  -0.00069,  -0.00049,   0.00078,252179030.92874,   0.00000,274640135.82653,   0.00000,   0.00000,   0.00000,-222461104.89779,   0.00000
-243982316.65364,-213370722.06998,60203496.34979,  -0.00069,  -0.00050,   0.00078,252723437.21520,   0.00000,274640135.82653,   0.00000,   0.00000,   0.00000,-221916698.61133,   0.00000
-244583207.06397,-214148497.96907,60130661.14853,  -0.00070,  -0.00050,   0.00078,253279464.56312,   0.00000,274640135.82653,   0.00000,   0.00000,   0.00000,-221360671.26341,   0.00000
-245176293.70275,-214908065.06785,60047420.91853,  -0.00070,  -0.00050,   0.00078,253818058.50207,   0.00000,274640135.82653,   0.00000,   0.00000,   0.00000,-220822077.32446,   0.00000
-245777184.11308,-215685840.96694,59964180.68853,  -0.00070,  -0.00050,   0.00078,254368348.02151,   0.00000,274640135.82653,   0.00000,   0.00000,   0.00000,-220271787.80502,   0.00000
-246385878.29498,-216481825.66634,59875737.94415,  -0.00070,  -0.00050,   0.00078,254926713.19104,   0.00000,274640135.82653,   0.00000,   0.00000,   0.00000,-219713422.63549,   0.00000
-246994572.47688,-217277810.36575,59782092.68539,  -0.00070,  -0.00051,   0.00078,255482331.38107,   0.00000,274640135.82653,   0.00000,   0.00000,   0.00000,-219157804.44546,   0.00000
-247603266.65878,-218073795.06515,59688447.42664,  -0.00070,  -0.00051,   0.00078,256038875.93882,   0.00000,274640135.82653,   0.00000,   0.00000,   0.00000,-218601259.88771,   0.00000
-248211960.84067,-218869779.76456,59589599.65351,  -0.00070,  -0.00051,   0.00077,256592716.09894,   0.00000,274640135.82653,   0.00000,   0.00000,   0.00000,-218047419.72759,   0.00000
-248846667.59445,-219691777.03584,59480346.85163,  -0.00070,  -0.00051,   0.00077,257163973.45182,   0.00000,274640135.82653,   0.00000,   0.00000,   0.00000,-217476162.37471,   0.00000
-249463165.54791,-220505970.53556,59376296.56413,  -0.00071,  -0.00052,   0.00077,257727123.82676,   0.00000,274640135.82653,   0.00000,   0.00000,   0.00000,-216913011.99977,   0.00000
-250097872.30168,-221327967.80684,59261841.24788,  -0.00071,  -0.00052,   0.00077,258296842.25374,   0.00000,274640135.82653,   0.00000,   0.00000,   0.00000,-216343293.57279,   0.00000
-250722174.02671,-222160370.10687,59147385.93162,  -0.00071,  -0.00052,   0.00077,258865886.91166,   0.00000,274640135.82653,   0.00000,   0.00000,   0.00000,-215774248.91487,   0.00000
-251364684.55204,-223000576.17847,59022525.58662,  -0.00071,  -0.00052,   0.00077,259441646.05884,   0.00000,274640135.82653,   0.00000,   0.00000,   0.00000,-215198489.76769,   0.00000
-252007195.07738,-223840782.25006,58897665.24161,  -0.00071,  -0.00053,   0.00077,260018536.65280,   0.00000,274640135.82653,   0.00000,   0.00000,   0.00000,-214621599.17373,   0.00000
-252639300.57397,-224691393.35041,58767602.38223,  -0.00071,  -0.00053,   0.00076,260591356.81845,   0.00000,274640135.82653,   0.00000,   0.00000,   0.00000,-214048779.00808,   0.00000
-253289614.87087,-225549808.22231,58637539.52285,  -0.00071,  -0.00053,   0.00076,261178107.91797,   0.00000,274640135.82653,   0.00000,   0.00000,   0.00000,-213462027.90856,   0.00000
-253947732.93933,-226426431.89453,58497071.63472,  -0.00071,  -0.00054,   0.00076,261770172.55193,   0.00000,274640135.82653,   0.00000,   0.00000,   0.00000,-212869963.27459,   0.00000
-254598047.23623,-227284846.76644,58356603.74659,  -0.00072,  -0.00054,   0.00076,262352375.01409,   0.00000,274640135.82653,   0.00000,   0.00000,   0.00000,-212287760.81244,   0.00000
-255256165.30469,-228161470.43866,58210933.34409,  -0.00072,  -0.00054,   0.00076,262943497.32729,   0.00000,274640135.82653,   0.00000,   0.00000,   0.00000,-211696638.49924,   0.00000
-255922087.14472,-229056302.91120,58060060.42720,  -0.00072,  -0.00054,   0.00075,263543638.37437,   0.00000,274640135.82653,   0.00000,   0.00000,   0.00000,-211096497.45216,   0.00000
-256580205.21318,-229932926.58342,57909187.51032,  -0.00072,  -0.00055,   0.00075,264133937.50279,   0.00000,274640135.82653,   0.00000,   0.00000,   0.00000,-210506198.32374,   0.00000
-257272139.62508,-230853771.62783,57747909.56469,  -0.00072,  -0.00055,   0.00075,264753918.02979,   0.00000,274640135.82653,   0.00000,   0.00000,   0.00000,-209886217.79674,   0.00000
-257938061.46511,-231748604.10036,57586631.61906,  -0.00072,  -0.00055,   0.00075,265351340.28235,   0.00000,274640135.82653,   0.00000,   0.00000,   0.00000,-209288795.54418,   0.00000
-258611787.07669,-232661645.37321,57420151.15906,  -0.00072,  -0.00055,   0.00075,265958032.45247,   0.00000,274640135.82653,   0.00000,   0.00000,   0.00000,-208682103.37406,   0.00000
-259303721.48860,-233582490.41762,57248468.18467,  -0.00072,  -0.00056,   0.00074,266575602.96498,   0.00000,274640135.82653,   0.00000,   0.00000,   0.00000,-208064532.86155,   0.00000
-259977447.10018,-234495531.69047,57071582.69592,  -0.00073,  -0.00056,   0.00074,267178543.95981,   0.00000,274640135.82653,   0.00000,   0.00000,   0.00000,-207461591.86672,   0.00000
-260677185.28365,-235434585.53519,56889494.69279,  -0.00073,  -0.00056,   0.00074,267803767.21958,   0.00000,274640135.82653,   0.00000,   0.00000,   0.00000,-206836368.60695,   0.00000
-261376923.46711,-236373639.37991,56707406.68965,  -0.00073,  -0.00057,   0.00074,268430566.04155,   0.00000,274640135.82653,   0.00000,   0.00000,   0.00000,-206209569.78498,   0.00000
-262076661.65058,-237312693.22464,56520116.17215,  -0.00073,  -0.00057,   0.00073,269055650.63042,   0.00000,274640135.82653,   0.00000,   0.00000,   0.00000,-205584485.19611,   0.00000
-262765994.80529,-238262152.09811,56327623.14026,  -0.00073,  -0.00057,   0.00073,269677646.67065,   0.00000,274640135.82653,   0.00000,   0.00000,   0.00000,-204962489.15588,   0.00000
-263473536.76032,-239219414.74315,56129927.59401,  -0.00073,  -0.00057,   0.00073,270310847.01517,   0.00000,274640135.82653,   0.00000,   0.00000,   0.00000,-204329288.81136,   0.00000
-264181078.71534,-240176677.38818,55927029.53337,  -0.00073,  -0.00058,   0.00073,270942508.46819,   0.00000,274640135.82653,   0.00000,   0.00000,   0.00000,-203697627.35834,   0.00000
-264896424.44193,-241152148.83353,55724131.47274,  -0.00074,  -0.00058,   0.00072,271587313.91918,   0.00000,274640135.82653,   0.00000,   0.00000,   0.00000,-203052821.90735,   0.00000
-265611770.16852,-242127620.27888,55510828.38336,  -0.00074,  -0.00058,   0.00072,272227491.86742,   0.00000,274640135.82653,   0.00000,   0.00000,   0.00000,-202412643.95911,   0.00000
-266327115.89511,-243103091.72423,55297525.29397,  -0.00074,  -0.00059,   0.00072,272869473.36355,   0.00000,274640135.82653,   0.00000,   0.00000,   0.00000,-201770662.46298,   0.00000
-267050265.39326,-244096771.96989,55079019.69022,  -0.00074,  -0.00059,   0.00072,273521600.29263,   0.00000,274640135.82653,   0.00000,   0.00000,   0.00000,-201118535.53390,   0.00000
-267791623.69173,-245098255.98712,54855311.57208,  -0.00074,  -0.00059,   0.00071,274185274.03125,   0.00000,274640135.82653,   0.00000,   0.00000,   0.00000,-200454861.79528,   0.00000
-268514773.18988,-246091936.23278,54631603.45395,  -0.00074,  -0.00060,   0.00071,274838025.65594,   0.00000,274640135.82653,   0.00000,   0.00000,   0.00000,-199802110.17058,   0.00000
-269245726.45960,-247103825.27876,54397490.30707,  -0.00074,  -0.00060,   0.00071,275498046.43799,   0.00000,274640135.82653,   0.00000,   0.00000,   0.00000,-199142089.38854,   0.00000
-269994888.52963,-248123518.09630,54163377.16018,  -0.00074,  -0.00060,   0.00070,276172867.47761,   0.00000,274640135.82653,   0.00000,   0.00000,   0.00000,-198467268.34891,   0.00000
-270725841.79934,-249135407.14227,53924061.49892,  -0.00075,  -0.00061,   0.00070,276833800.16702,   0.00000,274640135.82653,   0.00000,   0.00000,   0.00000,-197806335.65951,   0.00000
-271482807.64093,-250173308.76012,53679543.32329,  -0.00075,  -0.00061,   0.00070,277518156.37137,   0.00000,274640135.82653,   0.00000,   0.00000,   0.00000,-197121979.45516,   0.00000
-272221564.68221,-251203406.60641,53429822.63328,  -0.00075,  -0.00061,   0.00069,278188758.23561,   0.00000,274640135.82653,   0.00000,   0.00000,   0.00000,-196451377.59092,   0.00000
-272978530.52380,-252241308.22426,53174899.42889,  -0.00075,  -0.00062,   0.00069,278871303.35153,   0.00000,274640135.82653,   0.00000,   0.00000,   0.00000,-195768832.47500,   0.00000
-273735496.36539,-253279209.84212,52919976.22451,  -0.00075,  -0.00062,   0.00069,279555972.09557,   0.00000,274640135.82653,   0.00000,   0.00000,   0.00000,-195084163.73096,   0.00000
-274482057.17823,-254327516.48872,52654647.99137,  -0.00075,  -0.00062,   0.00068,280235760.20656,   0.00000,274640135.82653,   0.00000,   0.00000,   0.00000,-194404375.61997,   0.00000
-275254630.56295,-255401835.70720,52389319.75824,  -0.00075,  -0.00063,   0.00068,280942331.93035,   0.00000,274640135.82653,   0.00000,   0.00000,   0.00000,-193697803.89618,   0.00000
-276019400.17610,-256457946.12536,52118789.01073,  -0.00076,  -0.00063,   0.00068,281636509.43784,   0.00000,274640135.82653,   0.00000,   0.00000,   0.00000,-193003626.38869,   0.00000
-276791973.56082,-257532265.34384,51843055.74884,  -0.00076,  -0.00063,   0.00067,282341827.62893,   0.00000,274640135.82653,   0.00000,   0.00000,   0.00000,-192298308.19759,   0.00000
-277564546.94554,-258606584.56232,51567322.48696,  -0.00076,  -0.00064,   0.00067,283049448.09047,   0.00000,274640135.82653,   0.00000,   0.00000,   0.00000,-191590687.73606,   0.00000
-278344924.10182,-259699112.58111,51281184.19632,  -0.00076,  -0.00064,   0.00067,283765529.31196,   0.00000,274640135.82653,   0.00000,   0.00000,   0.00000,-190874606.51457,   0.00000
-279117497.48653,-260773431.79959,50995045.90569,  -0.00076,  -0.00064,   0.00066,284472171.85794,   0.00000,274640135.82653,   0.00000,   0.00000,   0.00000,-190167963.96859,   0.00000
-279905678.41438,-261884168.61869,50698502.58630,  -0.00076,  -0.00065,   0.00066,285199325.37086,   0.00000,274640135.82653,   0.00000,   0.00000,   0.00000,-189440810.45567,   0.00000
-280704264.37097,-262984500.40905,50401959.26691,  -0.00076,  -0.00065,   0.00066,285929944.66650,   0.00000,274640135.82653,   0.00000,   0.00000,   0.00000,-188710191.16003,   0.00000
-281492445.29881,-264095237.22815,50105415.94753,  -0.00077,  -0.00065,   0.00065,286662057.28977,   0.00000,274640135.82653,   0.00000,   0.00000,   0.00000,-187978078.53676,   0.00000
-282280626.22666,-265205974.04726,49798467.59939,  -0.00077,  -0.00066,   0.00065,287391221.69249,   0.00000,274640135.82653,   0.00000,   0.00000,   0.00000,-187248914.13404,   0.00000
-283068807.15450,-266316710.86636,49486316.73688,  -0.00077,  -0.00066,   0.00064,288120240.58168,   0.00000,274640135.82653,   0.00000,   0.00000,   0.00000,-186519895.24485,   0.00000
-283883000.65422,-267453460.25734,49174165.87437,  -0.00077,  -0.00066,   0.00064,288876645.64513,   0.00000,274640135.82653,   0.00000,   0.00000,   0.00000,-185763490.18140,   0.00000
-284678985.35362,-268582405.87676,48856812.49748,  -0.00077,  -0.00067,   0.00064,289620149.57859,   0.00000,274640135.82653,   0.00000,   0.00000,   0.00000,-185019986.24794,   0.00000
-285493178.85334,-269719155.26774,48534256.60622,  -0.00077,  -0.00067,   0.00063,290376516.00647,   0.00000,274640135.82653,   0.00000,   0.00000,   0.00000,-184263619.82005,   0.00000
-286296967.32431,-270866309.68747,48206498.20058,  -0.00077,  -0.00067,   0.00063,291132113.67907,   0.00000,274640135.82653,   0.00000,   0.00000,   0.00000,-183508022.14746,   0.00000
-287111160.82403,-272003059.07845,47873537.28057,  -0.00078,  -0.00068,   0.00062,291888669.68986,   0.00000,274640135.82653,   0.00000,   0.00000,   0.00000,-182751466.13667,   0.00000
-287922753.06656,-273168422.29850,47535373.84618,  -0.00078,  -0.00068,   0.00062,292656675.60391,   0.00000,274640135.82653,   0.00000,   0.00000,   0.00000,-181983460.22262,   0.00000
-288744750.33784,-274323380.48979,47197210.41179,  -0.00078,  -0.00069,   0.00061,293428256.87315,   0.00000,274640135.82653,   0.00000,   0.00000,   0.00000,-181211878.95338,   0.00000
-289574551.38068,-275496547.48140,46853844.46303,  -0.00078,  -0.00069,   0.00061,294212215.17901,   0.00000,274640135.82653,   0.00000,   0.00000,   0.00000,-180427920.64752,   0.00000
-290404352.42353,-276669714.47300,46505275.99989,  -0.00078,  -0.00069,   0.00060,294996528.17253,   0.00000,274640135.82653,   0.00000,   0.00000,   0.00000,-179643607.65400,   0.00000
-291223748.43762,-277853286.49336,46151505.02238,  -0.00078,  -0.00070,   0.00060,295780542.13961,   0.00000,274640135.82653,   0.00000,   0.00000,   0.00000,-178859593.68692,   0.00000
-292053549.48046,-279026453.48497,45792531.53049,  -0.00078,  -0.00070,   0.00060,296565741.78623,   0.00000,274640135.82653,   0.00000,   0.00000,   0.00000,-178074394.04030,   0.00000
-292891154.29487,-280217829.27689,45428355.52422,  -0.00079,  -0.00070,   0.00059,297363654.62986,   0.00000,274640135.82653,   0.00000,   0.00000,   0.00000,-177276481.19667,   0.00000
-293736562.88084,-281427413.86912,45064179.51796,  -0.00079,  -0.00071,   0.00059,298176755.00722,   0.00000,274640135.82653,   0.00000,   0.00000,   0.00000,-176463380.81931,   0.00000
-294574167.69525,-282618789.66104,44694800.99732,  -0.00079,  -0.00071,   0.00058,298978262.60775,   0.00000,274640135.82653,   0.00000,   0.00000,   0.00000,-175661873.21878,   0.00000
-295419576.28122,-283828374.25328,44320219.96231,  -0.00079,  -0.00072,   0.00058,299792694.56654,   0.00000,274640135.82653,   0.00000,   0.00000,   0.00000,-174847441.25999,   0.00000
-296264984.86719,-285037958.84551,43940436.41292,  -0.00079,  -0.00072,   0.00057,300607881.68926,   0.00000,274640135.82653,   0.00000,   0.00000,   0.00000,-174032254.13727,   0.00000
-297118197.22472,-286265752.23806,43555450.34915,  -0.00079,  -0.00072,   0.00057,301436181.57031,   0.00000,274640135.82653,   0.00000,   0.00000,   0.00000,-173203954.25622,   0.00000
-297963605.81069,-287475336.83029,43170464.28539,  -0.00080,  -0.00073,   0.00056,302255287.28154,   0.00000,274640135.82653,   0.00000,   0.00000,   0.00000,-172384848.54499,   0.00000
-298824621.93978,-288721339.02315,42775073.19287,  -0.00080,  -0.00073,   0.00056,303097743.25323,   0.00000,274640135.82653,   0.00000,   0.00000,   0.00000,-171542392.57330,   0.00000
-299696043.09763,-289956936.18726,42379682.10036,  -0.00080,  -0.00073,   0.00055,303943924.12455,   0.00000,274640135.82653,   0.00000,   0.00000,   0.00000,-170696211.70198,   0.00000
-300549255.45516,-291184729.57981,41979088.49347,  -0.00080,  -0.00074,   0.00055,304778246.65192,   0.00000,274640135.82653,   0.00000,   0.00000,   0.00000,-169861889.17461,   0.00000
-301410271.58426,-292430731.77267,41573292.37220,  -0.00080,  -0.00074,   0.00054,305626036.74164,   0.00000,274640135.82653,   0.00000,   0.00000,   0.00000,-169014099.08489,   0.00000
-302279091.48491,-293694942.76584,41167496.25094,  -0.00080,  -0.00075,   0.00054,306489504.42864,   0.00000,274640135.82653,   0.00000,   0.00000,   0.00000,-168150631.39789,   0.00000
-303158316.41432,-294948748.73026,40751295.10092,  -0.00080,  -0.00075,   0.00053,307352513.00802,   0.00000,274640135.82653,   0.00000,   0.00000,   0.00000,-167287622.81851,   0.00000
-304027136.31498,-296212959.72343,40335093.95091,  -0.00081,  -0.00075,   0.00052,308218426.85341,   0.00000,274640135.82653,   0.00000,   0.00000,   0.00000,-166421708.97312,   0.00000
-304895956.21564,-297477170.71661,39913690.28652,  -0.00081,  -0.00076,   0.00052,309085639.93351,   0.00000,274640135.82653,   0.00000,   0.00000,   0.00000,-165554495.89302,   0.00000
-305782984.91661,-298749185.48134,39487084.10775,  -0.00081,  -0.00076,   0.00051,309967065.09948,   0.00000,274640135.82653,   0.00000,   0.00000,   0.00000,-164673070.72705,   0.00000
-306659608.58883,-300031605.27483,39060477.92898,  -0.00081,  -0.00077,   0.00051,310851520.62345,   0.00000,274640135.82653,   0.00000,   0.00000,   0.00000,-163788615.20308,   0.00000
-307554441.06136,-301321828.83988,38623466.72147,  -0.00081,  -0.00077,   0.00050,311748341.85332,   0.00000,274640135.82653,   0.00000,   0.00000,   0.00000,-162891793.97321,   0.00000
-308431064.73359,-302604248.63336,38186455.51395,  -0.00081,  -0.00078,   0.00050,312635760.17295,   0.00000,274640135.82653,   0.00000,   0.00000,   0.00000,-162004375.65358,   0.00000
-309325897.20612,-303894472.19841,37744241.79206,  -0.00081,  -0.00078,   0.00049,313537579.90350,   0.00000,274640135.82653,   0.00000,   0.00000,   0.00000,-161102555.92303,   0.00000
-310210324.64990,-305195100.79221,37296825.55579,  -0.00082,  -0.00078,   0.00048,314440746.97512,   0.00000,274640135.82653,   0.00000,   0.00000,   0.00000,-160199388.85141,   0.00000
-311112960.89400,-306503533.15757,36844206.80515,  -0.00082,  -0.00079,   0.00048,315358455.21325,   0.00000,274640135.82653,   0.00000,   0.00000,   0.00000,-159281680.61328,   0.00000
-311997388.33778,-307804161.75137,36391588.05451,  -0.00082,  -0.00079,   0.00047,316266850.58431,   0.00000,274640135.82653,   0.00000,   0.00000,   0.00000,-158373285.24221,   0.00000
-312907828.35344,-309130802.91705,35933766.78949,  -0.00082,  -0.00080,   0.00047,317202491.99229,   0.00000,274640135.82653,   0.00000,   0.00000,   0.00000,-157437643.83424,   0.00000
-313800059.56879,-310449640.31116,35470743.01010,  -0.00082,  -0.00080,   0.00046,318127115.72738,   0.00000,274640135.82653,   0.00000,   0.00000,   0.00000,-156513020.09915,   0.00000
-314710499.58445,-311776281.47684,35002516.71633,  -0.00082,  -0.00080,   0.00046,319066462.46118,   0.00000,274640135.82653,   0.00000,   0.00000,   0.00000,-155573673.36535,   0.00000
-315620939.60011,-313102922.64251,34529087.90819,  -0.00083,  -0.00081,   0.00045,320007738.62624,   0.00000,274640135.82653,   0.00000,   0.00000,   0.00000,-154632397.20029,   0.00000
-316520974.58702,-314439968.83694,34055659.10004,  -0.00083,  -0.00081,   0.00044,320952550.57489,   0.00000,274640135.82653,   0.00000,   0.00000,   0.00000,-153687585.25164,   0.00000
-317431414.60268,-315766610.00261,33577027.77752,  -0.00083,  -0.00082,   0.00044,321899462.02952,   0.00000,274640135.82653,   0.00000,   0.00000,   0.00000,-152740673.79701,   0.00000
-318349658.38990,-317111459.96860,33093193.94063,  -0.00083,  -0.00082,   0.00043,322861172.24503,   0.00000,274640135.82653,   0.00000,   0.00000,   0.00000,-151778963.58150,   0.00000
-319275705.94868,-318474518.73490,32604157.58936,  -0.00083,  -0.00083,   0.00042,323837786.51208,   0.00000,274640135.82653,   0.00000,   0.00000,   0.00000,-150802349.31445,   0.00000
-320175740.93559,-319811564.92933,32115121.23809,  -0.00083,  -0.00083,   0.00042,324792519.03576,   0.00000,274640135.82653,   0.00000,   0.00000,   0.00000,-149847616.79077,   0.00000
-321101788.49438,-321174623.69563,31615679.85808,  -0.00083,  -0.00084,   0.00041,325773548.69803,   0.00000,274640135.82653,   0.00000,   0.00000,   0.00000,-148866587.12850,   0.00000
-322027836.05316,-322537682.46193,31116238.47806,  -0.00084,  -0.00084,   0.00040,326758370.60931,   0.00000,274640135.82653,   0.00000,   0.00000,   0.00000,-147881765.21722,   0.00000
-322961687.38351,-323918950.02855,30616797.09804,  -0.00084,  -0.00084,   0.00040,327759808.12497,   0.00000,274640135.82653,   0.00000,   0.00000,   0.00000,-146880327.70156,   0.00000
-323869526.14198,-325274205.02329,30106950.68927,  -0.00084,  -0.00085,   0.00039,328736461.63649,   0.00000,274640135.82653,   0.00000,   0.00000,   0.00000,-145903674.19004,   0.00000
-324803377.47233,-326655472.58990,29597104.28050,  -0.00084,  -0.00085,   0.00038,329742622.00801,   0.00000,274640135.82653,   0.00000,   0.00000,   0.00000,-144897513.81852,   0.00000
-325737228.80268,-328036740.15652,29082055.35735,  -0.00084,  -0.00086,   0.00038,330751212.04304,   0.00000,274640135.82653,   0.00000,   0.00000,   0.00000,-143888923.78349,   0.00000
-326678883.90459,-329436216.52345,28561803.91983,  -0.00084,  -0.00086,   0.00037,331775207.54913,   0.00000,274640135.82653,   0.00000,   0.00000,   0.00000,-142864928.27740,   0.00000
-327612735.23494,-330817484.09006,28041552.48231,  -0.00085,  -0.00087,   0.00036,332790139.93561,   0.00000,274640135.82653,   0.00000,   0.00000,   0.00000,-141849995.89092,   0.00000
-328554390.33685,-332216960.45699,27510896.01604,  -0.00085,  -0.00087,   0.00036,333819267.75009,   0.00000,274640135.82653,   0.00000,   0.00000,   0.00000,-140820868.07644,   0.00000
-329496045.43876,-333616436.82392,26980239.54977,  -0.00085,  -0.00088,   0.00035,334852317.04515,   0.00000,274640135.82653,   0.00000,   0.00000,   0.00000,-139787818.78138,   0.00000
-330427295.51192,-335026318.21960,26449583.08350,  -0.00085,  -0.00088,   0.00034,335889464.85467,   0.00000,274640135.82653,   0.00000,   0.00000,   0.00000,-138750670.97186,   0.00000
-331368950.61383,-336425794.58652,25908521.58848,  -0.00085,  -0.00088,   0.00034,336927868.62358,   0.00000,274640135.82653,   0.00000,   0.00000,   0.00000,-137712267.20295,   0.00000
-332318409.48730,-337843479.75376,25367460.09346,  -0.00085,  -0.00089,   0.00033,337983221.98544,   0.00000,274640135.82653,   0.00000,   0.00000,   0.00000,-136656913.84109,   0.00000
-333267868.36078,-339261164.92101,24821196.08407,  -0.00085,  -0.00089,   0.00032,339041354.67463,   0.00000,274640135.82653,   0.00000,   0.00000,   0.00000,-135598781.15190,   0.00000
-334217327.23425,-340678850.08825,24269729.56030,  -0.00086,  -0.00090,   0.00032,340102315.95524,   0.00000,274640135.82653,   0.00000,   0.00000,   0.00000,-134537819.87129,   0.00000
-335174589.87929,-342114744.05580,23718263.03653,  -0.00086,  -0.00090,   0.00031,341180308.30481,   0.00000,274640135.82653,   0.00000,   0.00000,   0.00000,-133459827.52172,   0.00000
-336124048.75276,-343532429.22304,23161593.99838,  -0.00086,  -0.00091,   0.00030,342248116.72112,   0.00000,274640135.82653,   0.00000,   0.00000,   0.00000,-132392019.10541,   0.00000
-337081311.39780,-344968323.19060,22599722.44586,  -0.00086,  -0.00091,   0.00029,343331941.55321,   0.00000,274640135.82653,   0.00000,   0.00000,   0.00000,-131308194.27332,   0.00000
-338020365.24252,-346396413.38659,22032648.37896,  -0.00086,  -0.00092,   0.00029,344406029.47382,   0.00000,274640135.82653,   0.00000,   0.00000,   0.00000,-130234106.35271,   0.00000
-338985431.65912,-347850516.15446,21465574.31207,  -0.00086,  -0.00092,   0.00028,345509999.47356,   0.00000,274640135.82653,   0.00000,   0.00000,   0.00000,-129130136.35297,   0.00000
-339950498.07572,-349304618.92233,20893297.73079,  -0.00087,  -0.00093,   0.00027,346617034.24646,   0.00000,274640135.82653,   0.00000,   0.00000,   0.00000,-128023101.58007,   0.00000
-340907760.72076,-350740512.88988,20321021.14952,  -0.00087,  -0.00093,   0.00026,347714937.21184,   0.00000,274640135.82653,   0.00000,   0.00000,   0.00000,-126925198.61469,   0.00000
-341872827.13736,-352194615.65775,19738339.53950,  -0.00087,  -0.00094,   0.00026,348828201.86885,   0.00000,274640135.82653,   0.00000,   0.00000,   0.00000,-125811933.95768,   0.00000
-342845697.32552,-353666927.22593,19155657.92948,  -0.00087,  -0.00094,   0.00025,349958713.27120,   0.00000,274640135.82653,   0.00000,   0.00000,   0.00000,-124681422.55532,   0.00000
-343810763.74212,-355121029.99380,18572976.31946,  -0.00087,  -0.00095,   0.00024,351080077.77974,   0.00000,274640135.82653,   0.00000,   0.00000,   0.00000,-123560058.04679,   0.00000
-344783633.93028,-356593341.56198,17979889.68068,  -0.00087,  -0.00095,   0.00023,352217044.77809,   0.00000,274640135.82653,   0.00000,   0.00000,   0.00000,-122423091.04844,   0.00000
-345738295.31813,-358057849.35859,17386803.04191,  -0.00087,  -0.00095,   0.00023,353345418.30102,   0.00000,274640135.82653,   0.00000,   0.00000,   0.00000,-121294717.52551,   0.00000
-346711165.50629,-359530160.92678,16793716.40314,  -0.00088,  -0.00096,   0.00022,354490528.08935,   0.00000,274640135.82653,   0.00000,   0.00000,   0.00000,-120149607.73718,   0.00000
-347684035.69445,-361002472.49496,16190224.73561,  -0.00088,  -0.00096,   0.00021,355638225.47991,   0.00000,274640135.82653,   0.00000,   0.00000,   0.00000,-119001910.34662,   0.00000
-348664709.65418,-362492992.86345,15586733.06809,  -0.00088,  -0.00097,   0.00020,356803271.10066,   0.00000,274640135.82653,   0.00000,   0.00000,   0.00000,-117836864.72587,   0.00000
-349645383.61390,-363983513.23194,14978038.88619,  -0.00088,  -0.00097,   0.00019,357971733.54986,   0.00000,274640135.82653,   0.00000,   0.00000,   0.00000,-116668402.27667,   0.00000
-350626057.57362,-365474033.60044,14369344.70430,  -0.00088,  -0.00098,   0.00019,359144283.17967,   0.00000,274640135.82653,   0.00000,   0.00000,   0.00000,-115495852.64686,   0.00000
-351588522.73304,-366956750.19737,13755448.00802,  -0.00088,  -0.00098,   0.00018,360307647.95367,   0.00000,274640135.82653,   0.00000,   0.00000,   0.00000,-114332487.87285,   0.00000
-352569196.69276,-368447270.56586,13136348.79737,  -0.00089,  -0.00099,   0.00017,361487153.87431,   0.00000,274640135.82653,   0.00000,   0.00000,   0.00000,-113152981.95222,   0.00000
-353557674.42405,-369955999.73467,12517249.58673,  -0.00089,  -0.00099,   0.00016,362684067.18528,   0.00000,274640135.82653,   0.00000,   0.00000,   0.00000,-111956068.64125,   0.00000
-354538348.38377,-371446520.10317,11892947.86170,  -0.00089,  -0.00100,   0.00015,363871197.88147,   0.00000,274640135.82653,   0.00000,   0.00000,   0.00000,-110768937.94506,   0.00000
-355508617.31475,-372947445.50041,11263443.62230,  -0.00089,  -0.00100,   0.00015,365062650.64521,   0.00000,274640135.82653,   0.00000,   0.00000,   0.00000,-109577485.18132,   0.00000
-356504898.81760,-374474383.46953,10633939.38290,  -0.00089,  -0.00101,   0.00014,366284174.60715,   0.00000,274640135.82653,   0.00000,   0.00000,   0.00000,-108355961.21938,   0.00000
-357493376.54889,-375983112.63834,9999232.62913,  -0.00089,  -0.00101,   0.00013,367495981.96798,   0.00000,274640135.82653,   0.00000,   0.00000,   0.00000,-107144153.85855,   0.00000
-358463645.47986,-377484038.03558,9364525.87536,  -0.00089,  -0.00102,   0.00012,368699284.99019,   0.00000,274640135.82653,   0.00000,   0.00000,   0.00000,-105940850.83634,   0.00000
-359459926.98271,-379010976.00470,8724616.60721,  -0.00090,  -0.00102,   0.00011,369932234.44705,   0.00000,274640135.82653,   0.00000,   0.00000,   0.00000,-104707901.37948,   0.00000
-360456208.48556,-380537913.97382,8079504.82468,  -0.00090,  -0.00103,   0.00011,371168915.38215,   0.00000,274640135.82653,   0.00000,   0.00000,   0.00000,-103471220.44438,   0.00000
-361434281.18810,-382057048.17138,7434393.04216,  -0.00090,  -0.00103,   0.00010,372397131.69738,   0.00000,274640135.82653,   0.00000,   0.00000,   0.00000,-102243004.12915,   0.00000
-362430562.69095,-383583986.14050,6784078.74526,  -0.00090,  -0.00104,   0.00009,373641671.16777,   0.00000,274640135.82653,   0.00000,   0.00000,   0.00000,-100998464.65876,   0.00000
-363416439.16505,-385121329.13837,6128561.93398,  -0.00090,  -0.00104,   0.00008,374890920.32866,   0.00000,274640135.82653,   0.00000,   0.00000,   0.00000,-99749215.49787,   0.00000
-364420524.43946,-386666475.90781,5473045.12271,  -0.00090,  -0.00105,   0.00007,376156809.00252,   0.00000,274640135.82653,   0.00000,   0.00000,   0.00000,-98483326.82401,   0.00000
-365398597.14200,-388185610.10536,4812325.79706,  -0.00091,  -0.00105,   0.00006,377400583.94461,   0.00000,274640135.82653,   0.00000,   0.00000,   0.00000,-97239551.88192,   0.00000
-366402682.41641,-389730756.87480,4151606.47141,  -0.00091,  -0.00106,   0.00005,378674400.11958,   0.00000,274640135.82653,   0.00000,   0.00000,   0.00000,-95965735.70695,   0.00000
-367396362.66207,-391286308.67298,3485684.63138,  -0.00091,  -0.00106,   0.00005,379953084.04904,   0.00000,274640135.82653,   0.00000,   0.00000,   0.00000,-94687051.77749,   0.00000
-368400447.93649,-392831455.44242,2819762.79136,  -0.00091,  -0.00107,   0.00004,381234850.79788,   0.00000,274640135.82653,   0.00000,   0.00000,   0.00000,-93405285.02865,   0.00000
-369386324.41059,-394368798.44029,2148638.43696,  -0.00091,  -0.00107,   0.00003,382508058.56625,   0.00000,274640135.82653,   0.00000,   0.00000,   0.00000,-92132077.26028,   0.00000
-370398213.45656,-395932154.01003,1472311.56818,  -0.00091,  -0.00108,   0.00002,383811213.64490,   0.00000,274640135.82653,   0.00000,   0.00000,   0.00000,-90828922.18162,   0.00000
-371391893.70223,-397487705.80822,795984.69941,  -0.00091,  -0.00108,   0.00001,385105964.59658,   0.00000,274640135.82653,   0.00000,   0.00000,   0.00000,-89534171.22995,   0.00000
-372385573.94789,-399043257.60640,114455.31625,  -0.00092,  -0.00109,   0.00000,386404741.05773,   0.00000,274640135.82653,   0.00000,   0.00000,   0.00000,-88235394.76880,   0.00000
-373379254.19355,-400598809.40459,-567074.06690,  -0.00092,  -0.00109,  -0.00001,387707561.94739,   0.00000,274640135.82653,   0.00000,   0.00000,   0.00000,-86932573.87914,   0.00000
-374398947.01109,-402180373.77465,-1253805.96442,  -0.00092,  -0.00110,  -0.00002,389040399.20163,   0.00000,274640135.82653,   0.00000,   0.00000,   0.00000,-85599736.62490,   0.00000
-375392627.25675,-403735925.57283,-1940537.86195,  -0.00092,  -0.00110,  -0.00003,390351289.78874,   0.00000,274640135.82653,   0.00000,   0.00000,   0.00000,-84288846.03778,   0.00000
-376394111.27398,-405309686.17133,-2632472.27385,  -0.00092,  -0.00111,  -0.00003,391679817.35041,   0.00000,274640135.82653,   0.00000,   0.00000,   0.00000,-82960318.47612,   0.00000
-377395595.29120,-406883446.76982,-3324406.68575,  -0.00092,  -0.00112,  -0.00004,393012352.26402,   0.00000,274640135.82653,   0.00000,   0.00000,   0.00000,-81627783.56251,   0.00000
-378397079.30843,-408457207.36832,-4021543.61203,  -0.00093,  -0.00112,  -0.00005,394349012.96782,   0.00000,274640135.82653,   0.00000,   0.00000,   0.00000,-80291122.85870,   0.00000
-379398563.32566,-410030967.96682,-4723883.05268,  -0.00093,  -0.00113,  -0.00006,395689840.14380,   0.00000,274640135.82653,   0.00000,   0.00000,   0.00000,-78950295.68273,   0.00000
-380400047.34288,-411604728.56532,-5426222.49333,  -0.00093,  -0.00113,  -0.00007,397034660.99906,   0.00000,274640135.82653,   0.00000,   0.00000,   0.00000,-77605474.82747,   0.00000
-381401531.36011,-413178489.16381,-6128561.93398,  -0.00093,  -0.00114,  -0.00008,398383435.08927,   0.00000,274640135.82653,   0.00000,   0.00000,   0.00000,-76256700.73726,   0.00000
-382410819.14889,-414770458.56262,-6836103.88901,  -0.00093,  -0.00114,  -0.00009,399749989.40566,   0.00000,274640135.82653,   0.00000,   0.00000,   0.00000,-74890146.42087,   0.00000
-383420106.93768,-416362427.96143,-7548848.35841,  -0.00093,  -0.00115,  -0.00010,401120777.94955,   0.00000,274640135.82653,   0.00000,   0.00000,   0.00000,-73519357.87698,   0.00000
-384429394.72647,-417954397.36024,-8261592.82781,  -0.00093,  -0.00115,  -0.00011,402495519.91323,   0.00000,274640135.82653,   0.00000,   0.00000,   0.00000,-72144615.91330,   0.00000
-385438682.51526,-419546366.75905,-8974337.29722,  -0.00094,  -0.00116,  -0.00012,403874174.92571,   0.00000,274640135.82653,   0.00000,   0.00000,   0.00000,-70765960.90082,   0.00000
-386429761.50373,-421130532.38630,-9692284.28099,  -0.00094,  -0.00116,  -0.00013,405244785.05661,   0.00000,274640135.82653,   0.00000,   0.00000,   0.00000,-69395350.76992,   0.00000
-387439049.29252,-422722501.78511,-10410231.26477,  -0.00094,  -0.00117,  -0.00014,406631583.83349,   0.00000,274640135.82653,   0.00000,   0.00000,   0.00000,-68008551.99304,   0.00000
-388456140.85287,-424332679.98424,-11133380.76292,  -0.00094,  -0.00117,  -0.00014,408036294.79020,   0.00000,274640135.82653,   0.00000,   0.00000,   0.00000,-66603841.03633,   0.00000
-389447219.84135,-425916845.61148,-11861732.77545,  -0.00094,  -0.00118,  -0.00015,409419426.90121,   0.00000,274640135.82653,   0.00000,   0.00000,   0.00000,-65220708.92532,   0.00000
-390464311.40170,-427527023.81061,-12584882.27360,  -0.00094,  -0.00118,  -0.00016,410831872.41797,   0.00000,274640135.82653,   0.00000,   0.00000,   0.00000,-63808263.40856,   0.00000
-391463194.16174,-429129398.23817,-13318436.80051,  -0.00094,  -0.00119,  -0.00017,412236885.96361,   0.00000,274640135.82653,   0.00000,   0.00000,   0.00000,-62403249.86292,   0.00000
-392480285.72209,-430739576.43729,-14046788.81303,  -0.00095,  -0.00119,  -0.00018,413657469.63620,   0.00000,274640135.82653,   0.00000,   0.00000,   0.00000,-60982666.19033,   0.00000
-393479168.48213,-432341950.86485,-14780343.33994,  -0.00095,  -0.00120,  -0.00019,415070166.15087,   0.00000,274640135.82653,   0.00000,   0.00000,   0.00000,-59569969.67566,   0.00000
-394478051.24217,-433944325.29241,-15519100.38121,  -0.00095,  -0.00121,  -0.00020,416487245.91070,   0.00000,274640135.82653,   0.00000,   0.00000,   0.00000,-58152889.91583,   0.00000
-395502946.57408,-435572712.29185,-16257857.42249,  -0.00095,  -0.00121,  -0.00021,417934003.24367,   0.00000,274640135.82653,   0.00000,   0.00000,   0.00000,-56706132.58286,   0.00000
-396501829.33412,-437175086.71941,-16996614.46377,  -0.00095,  -0.00122,  -0.00022,419358665.34456,   0.00000,274640135.82653,   0.00000,   0.00000,   0.00000,-55281470.48197,   0.00000
-397508515.86572,-438795669.94729,-17740574.01942,  -0.00095,  -0.00122,  -0.00023,420801412.21343,   0.00000,274640135.82653,   0.00000,   0.00000,   0.00000,-53838723.61310,   0.00000
-398515202.39732,-440416253.17516,-18484533.57508,  -0.00095,  -0.00123,  -0.00024,422247918.02201,   0.00000,274640135.82653,   0.00000,   0.00000,   0.00000,-52392217.80452,   0.00000
-399521888.92892,-442036836.40303,-19233695.64511,  -0.00096,  -0.00123,  -0.00025,423698852.67621,   0.00000,274640135.82653,   0.00000,   0.00000,   0.00000,-50941283.15032,   0.00000
-400528575.46052,-443657419.63091,-19982857.71513,  -0.00096,  -0.00124,  -0.00026,425153519.66569,   0.00000,274640135.82653,   0.00000,   0.00000,   0.00000,-49486616.16084,   0.00000
-401535261.99212,-445278002.85878,-20732019.78516,  -0.00096,  -0.00124,  -0.00027,426611880.81074,   0.00000,274640135.82653,   0.00000,   0.00000,   0.00000,-48028255.01579,   0.00000
-402541948.52372,-446898586.08666,-21486384.36957,  -0.00096,  -0.00125,  -0.00028,428074681.65209,   0.00000,274640135.82653,   0.00000,   0.00000,   0.00000,-46565454.17444,   0.00000
-403556438.82688,-448537378.11484,-22245951.46834,  -0.00096,  -0.00125,  -0.00029,429555676.20763,   0.00000,274640135.82653,   0.00000,   0.00000,   0.00000,-45084459.61890,   0.00000
-404544916.55817,-450150157.57115,-23000316.05275,  -0.00096,  -0.00126,  -0.00030,431013734.76573,   0.00000,274640135.82653,   0.00000,   0.00000,   0.00000,-43626401.06080,   0.00000
-405559406.86134,-451788949.59934,-23759883.15153,  -0.00096,  -0.00126,  -0.00031,432502052.23779,   0.00000,274640135.82653,   0.00000,   0.00000,   0.00000,-42138083.58874,   0.00000
-406573897.16450,-453427741.62753,-24519450.25031,  -0.00097,  -0.00127,  -0.00032,433993982.74481,   0.00000,274640135.82653,   0.00000,   0.00000,   0.00000,-40646153.08172,   0.00000
-407562374.89579,-455040521.08384,-25284219.86346,  -0.00097,  -0.00128,  -0.00033,435464631.32442,   0.00000,274640135.82653,   0.00000,   0.00000,   0.00000,-39175504.50211,   0.00000
-408576865.19895,-456679313.11203,-26048989.47661,  -0.00097,  -0.00128,  -0.00034,436964640.68161,   0.00000,274640135.82653,   0.00000,   0.00000,   0.00000,-37675495.14492,   0.00000
-409573146.70180,-458310301.36865,-26818961.60414,  -0.00097,  -0.00129,  -0.00035,438457150.29750,   0.00000,274640135.82653,   0.00000,   0.00000,   0.00000,-36182985.52903,   0.00000
-410577231.97621,-459959498.42559,-27583731.21730,  -0.00097,  -0.00129,  -0.00036,439966013.01467,   0.00000,274640135.82653,   0.00000,   0.00000,   0.00000,-34674122.81186,   0.00000
-411591722.27938,-461598290.45378,-28353703.34483,  -0.00097,  -0.00130,  -0.00037,441477620.84818,   0.00000,274640135.82653,   0.00000,   0.00000,   0.00000,-33162514.97835,   0.00000
-412588003.78223,-463229278.71040,-29128877.98673,  -0.00097,  -0.00130,  -0.00038,442981779.22038,   0.00000,274640135.82653,   0.00000,   0.00000,   0.00000,-31658356.60615,   0.00000
-413592089.05664,-464878475.76734,-29898850.11426,  -0.00098,  -0.00131,  -0.00039,444502167.74093,   0.00000,274640135.82653,   0.00000,   0.00000,   0.00000,-30137968.08560,   0.00000
-414588370.55949,-466509464.02396,-30674024.75616,  -0.00098,  -0.00131,  -0.00040,446013324.76850,   0.00000,274640135.82653,   0.00000,   0.00000,   0.00000,-28626811.05803,   0.00000
-415592455.83390,-468158661.08090,-31454401.91244,  -0.00098,  -0.00132,  -0.00041,447542793.27412,   0.00000,274640135.82653,   0.00000,   0.00000,   0.00000,-27097342.55241,   0.00000
-416596541.10832,-469807858.13784,-32229576.55435,  -0.00098,  -0.00133,  -0.00042,449074614.91423,   0.00000,274640135.82653,   0.00000,   0.00000,   0.00000,-25565520.91230,   0.00000
-417582417.58242,-471449251.42321,-33009953.71063,  -0.00098,  -0.00133,  -0.00043,450599073.56395,   0.00000,274640135.82653,   0.00000,   0.00000,   0.00000,-24041062.26258,   0.00000
-418578699.08527,-473080239.67984,-33795533.38128,  -0.00098,  -0.00134,  -0.00044,452126247.24173,   0.00000,274640135.82653,   0.00000,   0.00000,   0.00000,-22513888.58480,   0.00000
-419590588.13124,-474747645.53709,-34575910.53756,  -0.00098,  -0.00134,  -0.00045,453683177.50938,   0.00000,274640135.82653,   0.00000,   0.00000,   0.00000,-20956958.31715,   0.00000
-420576464.60534,-476389038.82246,-35361490.20822,  -0.00098,  -0.00135,  -0.00046,455219030.94518,   0.00000,274640135.82653,   0.00000,   0.00000,   0.00000,-19421104.88135,   0.00000
-421580549.87976,-478038235.87940,-36147069.87887,  -0.00099,  -0.00135,  -0.00047,456770100.41870,   0.00000,274640135.82653,   0.00000,   0.00000,   0.00000,-17870035.40783,   0.00000
-422566426.35386,-479679629.16478,-36937852.06390,  -0.00099,  -0.00136,  -0.00048,458313909.20581,   0.00000,274640135.82653,   0.00000,   0.00000,   0.00000,-16326226.62072,   0.00000
-423578315.39983,-481347035.02203,-37723431.73456,  -0.00099,  -0.00136,  -0.00049,459885380.38257,   0.00000,274640135.82653,   0.00000,   0.00000,   0.00000,-14754755.44396,   0.00000
-424564191.87393,-482988428.30740,-38514213.91959,  -0.00099,  -0.00137,  -0.00050,461435821.29388,   0.00000,274640135.82653,   0.00000,   0.00000,   0.00000,-13204314.53265,   0.00000
-425557872.11960,-484648030.39309,-39304996.10462,  -0.00099,  -0.00138,  -0.00051,463003325.58436,   0.00000,274640135.82653,   0.00000,   0.00000,   0.00000,-11636810.24217,   0.00000
-426543748.59370,-486289423.67846,-40100980.80402,  -0.00099,  -0.00138,  -0.00052,464561648.60323,   0.00000,274640135.82653,   0.00000,   0.00000,   0.00000,-10078487.22330,   0.00000
-427537428.83936,-487949025.76415,-40891762.98905,  -0.00099,  -0.00139,  -0.00053,466135647.38597,   0.00000,274640135.82653,   0.00000,   0.00000,   0.00000,-8504488.44056,   0.00000
-428531109.08502,-489608627.84984,-41687747.68846,  -0.00100,  -0.00139,  -0.00054,467714225.28138,   0.00000,274640135.82653,   0.00000,   0.00000,   0.00000,-6925910.54515,   0.00000
-429506580.53037,-491260426.16396,-42483732.38786,  -0.00100,  -0.00140,  -0.00055,469284269.70753,   0.00000,274640135.82653,   0.00000,   0.00000,   0.00000,-5355866.11900,   0.00000
-430500260.77603,-492920028.24965,-43279717.08727,  -0.00100,  -0.00140,  -0.00056,470869227.92653,   0.00000,274640135.82653,   0.00000,   0.00000,   0.00000,-3770907.90000,   0.00000
-431493941.02170,-494579630.33534,-44080904.30105,  -0.00100,  -0.00141,  -0.00057,472458777.47230,   0.00000,274640135.82653,   0.00000,   0.00000,   0.00000,-2181358.35423,   0.00000
-432469412.46705,-496231428.64947,-44882091.51483,  -0.00100,  -0.00141,  -0.00058,474039782.63391,   0.00000,274640135.82653,   0.00000,   0.00000,   0.00000,-600353.19262,   0.00000
-432843812.76438,-496856735.95234,-45182003.79489,  -0.00100,  -0.00142,  -0.00059,474640136.02213,   0.00000,274640135.82653,   0.00000,   0.00000,   0.00000,   0.19560,   0.00000
-432581046.80395,-496849287.31532,-45564853.98012,  -0.00100,  -0.00142,  -0.00059,474640136.02213,   0.00000,274643507.59678,  -0.00000,  -0.00000,  -0.00000,   0.00000,   2.00000
-432144261.52371,-496840053.25294,-46186215.06435,  -0.00100,  -0.00143,  -0.00060,476245950.19124,   0.00001,274648946.86681,  -0.00001,  -0.00001,  -0.00000,   0.00000,   2.00000
-431712469.70978,-496825799.13774,-46801392.84324,  -0.00100,  -0.00143,  -0.00061,476239036.03811,   0.00001,274654347.44315,  -0.00001,  -0.00001,  -0.00001,   0.00000,   2.00000
-431279954.41874,-496808745.15690,-47413828.90166,  -0.00101,  -0.00144,  -0.00063,476247352.86749,   0.00002,274659761.19221,  -0.00001,  -0.00002,  -0.00001,  -0.00000,   2.00000
-430841003.08185,-496791025.00359,-48026872.68972,  -0.00101,  -0.00144,  -0.00064,476271035.49722,   0.00002,274665240.38226,  -0.00001,  -0.00002,  -0.00001,  -0.00000,   2.00000
-430405727.38734,-496766780.40388,-48638815.95062,  -0.00101,  -0.00145,  -0.00065,476265635.57191,   0.00003,274670685.91846,  -0.00002,  -0.00003,  -0.00001,   0.00000,   2.00000
-429965464.11167,-496743556.58971,-49246317.70677,  -0.00101,  -0.00145,  -0.00066,476287769.29975,   0.00003,274676191.64185,  -0.00002,  -0.00003,  -0.00002,  -0.00000,   2.00000
-429524596.05288,-496717626.75213,-49851061.47365,  -0.00101,  -0.00146,  -0.00067,476296147.40757,   0.00004,274681710.56799,  -0.00002,  -0.00004,  -0.00002,  -0.00000,   2.00000
-429075131.81556,-496693316.68925,-50454506.45353,  -0.00101,  -0.00147,  -0.00068,476292947.44538,   0.00004,274687203.24059,  -0.00003,  -0.00004,  -0.00002,   0.00000,   2.00000
-428635961.82628,-496656539.49331,-51060466.77939,  -0.00101,  -0.00147,  -0.00069,476300741.44391,   0.00005,274692707.22476,  -0.00003,  -0.00005,  -0.00002,   0.00000,   2.00000
-428185363.42162,-496626926.08266,-51658422.15070,  -0.00101,  -0.00148,  -0.00070,476309648.26043,   0.00005,274698226.31484,  -0.00003,  -0.00005,  -0.00003,  -0.00000,   2.00000
-427732766.81804,-496592905.84457,-52258612.14354,  -0.00101,  -0.00148,  -0.00071,476319704.70324,   0.00006,274703764.44196,  -0.00004,  -0.00006,  -0.00003,   0.00000,   2.00000
-427279668.84204,-496556269.99261,-52856057.57085,  -0.00102,  -0.00149,  -0.00072,476328080.34532,   0.00006,274709315.83091,  -0.00004,  -0.00006,  -0.00003,   0.00000,   2.00000
-426826096.22743,-496517052.78021,-53450765.30464,  -0.00102,  -0.00149,  -0.00073,476336448.47359,   0.00007,274714880.43743,  -0.00004,  -0.00007,  -0.00004,   0.00000,   2.00000
-426367887.75020,-496479060.46504,-54040890.11191,  -0.00102,  -0.00150,  -0.00074,476358603.88681,   0.00007,274720505.42861,  -0.00005,  -0.00007,  -0.00004,   0.00000,   2.00000
-425913463.34296,-496434768.85500,-54630151.26074,  -0.00102,  -0.00151,  -0.00075,476353208.27196,   0.00008,274726096.33170,  -0.00005,  -0.00008,  -0.00004,  -0.00000,   2.00000
-425458642.56550,-496387997.08901,-55216695.92467,  -0.00102,  -0.00151,  -0.00076,476361554.36906,   0.00008,274731700.31812,  -0.00005,  -0.00008,  -0.00004,   0.00000,   2.00000
-424995199.28992,-496342917.80146,-55802117.75415,  -0.00102,  -0.00152,  -0.00077,476358446.36324,   0.00009,274737278.12499,  -0.00006,  -0.00009,  -0.00005,   0.00000,   2.00000
-424533965.48608,-496293111.39898,-56386234.37070,  -0.00102,  -0.00152,  -0.00078,476393850.43709,   0.00009,274742961.95658,  -0.00006,  -0.00009,  -0.00005,   0.00000,   2.00000
-424069832.88421,-496243145.03510,-56966265.68657,  -0.00102,  -0.00153,  -0.00079,476375179.65129,   0.00010,274748565.92792,  -0.00006,  -0.00010,  -0.00005,   0.00000,   2.00000
-423612102.63149,-496184726.60436,-57546898.23751,  -0.00102,  -0.00153,  -0.00080,476396786.49265,   0.00010,274754228.59737,  -0.00006,  -0.00010,  -0.00006,  -0.00000,   2.00000
-423141655.38563,-496131830.60128,-58124477.98252,  -0.00103,  -0.00154,  -0.00081,476407543.41744,   0.00011,274759912.57725,  -0.00007,  -0.00011,  -0.00006,  -0.00000,   2.00000
-422672622.81414,-496078566.79742,-58694452.39465,  -0.00103,  -0.00155,  -0.00083,476413997.94798,   0.00011,274765602.99578,  -0.00007,  -0.00011,  -0.00006,   0.00000,   2.00000
-422197351.78804,-496021194.37222,-59270349.73998,  -0.00103,  -0.00155,  -0.00084,476399127.43745,   0.00012,274771226.49070,  -0.00007,  -0.00012,  -0.00007,  -0.00000,   2.00000
-421726271.22676,-495961268.65702,-59839843.43777,  -0.00103,  -0.00156,  -0.00085,476432584.70594,   0.00012,274776949.66696,  -0.00008,  -0.00012,  -0.00007,   0.00000,   2.00000
-421259018.09427,-495895249.84241,-60408720.36757,  -0.00103,  -0.00156,  -0.00086,476427160.15373,   0.00013,274782638.27264,  -0.00008,  -0.00013,  -0.00007,   0.00000,   2.00000
-420779120.34164,-495834796.83059,-60974561.61431,  -0.00103,  -0.00157,  -0.00087,476437942.41222,   0.00014,274788348.33064,  -0.00008,  -0.00013,  -0.00008,   0.00000,   2.00000
-420307612.36851,-495768119.30439,-61536018.23867,  -0.00103,  -0.00157,  -0.00088,476457591.62293,   0.00014,274794110.37026,  -0.00009,  -0.00014,  -0.00008,  -0.00000,   2.00000
-419827466.11345,-495703203.74965,-62096555.12671,  -0.00103,  -0.00158,  -0.00089,476454645.27248,   0.00015,274799846.26386,  -0.00009,  -0.00014,  -0.00008,  -0.00000,   2.00000
-419347240.73611,-495636087.38288,-62654447.34498,  -0.00103,  -0.00159,  -0.00090,476462976.06569,   0.00015,274805595.05156,  -0.00009,  -0.00015,  -0.00009,   0.00000,   2.00000
-418866958.85980,-495566801.18380,-63209703.10616,  -0.00104,  -0.00159,  -0.00091,476471300.48612,   0.00016,274811356.68449,  -0.00010,  -0.00015,  -0.00009,   0.00000,   2.00000
-418386642.81258,-495495375.86918,-63762330.69332,  -0.00104,  -0.00160,  -0.00092,476479618.61085,   0.00016,274817131.11364,  -0.00010,  -0.00016,  -0.00009,   0.00000,   2.00000
-417897666.47986,-495425711.05677,-64314126.38158,  -0.00104,  -0.00160,  -0.00093,476476697.20599,   0.00017,274822879.41647,  -0.00010,  -0.00016,  -0.00010,   0.00000,   2.00000
-417417370.13692,-495350066.35140,-64861513.08351,  -0.00104,  -0.00161,  -0.00094,476496214.56429,   0.00017,274828679.39001,  -0.00010,  -0.00017,  -0.00010,   0.00000,   2.00000
-416928403.44289,-495276205.15907,-65408109.63548,  -0.00104,  -0.00161,  -0.00095,476493310.01920,   0.00018,274834453.18578,  -0.00011,  -0.00017,  -0.00010,   0.00000,   2.00000
-416448213.12801,-495196461.42547,-65950289.29276,  -0.00104,  -0.00162,  -0.00096,476512786.26337,   0.00018,274840278.50559,  -0.00011,  -0.00018,  -0.00011,   0.00000,   2.00000
-415959341.44038,-495118523.00575,-66491720.33031,  -0.00104,  -0.00163,  -0.00097,476509898.85019,   0.00019,274846077.59563,  -0.00011,  -0.00018,  -0.00011,  -0.00000,   2.00000
-415470559.80719,-495038573.87439,-67030576.36655,  -0.00104,  -0.00163,  -0.00098,476518173.81872,   0.00019,274851889.30912,  -0.00012,  -0.00019,  -0.00011,   0.00000,   2.00000
-414983746.86463,-494958939.69977,-67562055.37807,  -0.00104,  -0.00164,  -0.00100,476524220.90780,   0.00020,274857705.83461,  -0.00012,  -0.00019,  -0.00012,   0.00000,   2.00000
-414482644.66985,-494882695.06597,-68095365.63161,  -0.00104,  -0.00164,  -0.00101,476537324.05222,   0.00020,274863551.78882,  -0.00012,  -0.00020,  -0.00012,   0.00000,   2.00000
-413994303.61306,-494796851.02497,-68626570.72385,  -0.00104,  -0.00165,  -0.00102,476542961.80866,   0.00021,274869401.06330,  -0.00013,  -0.00020,  -0.00012,   0.00000,   2.00000
-413497244.18792,-494712810.66858,-69157131.12171,  -0.00105,  -0.00165,  -0.00103,476540112.80984,   0.00021,274875224.10592,  -0.00013,  -0.00021,  -0.00013,   0.00000,   2.00000
-413007514.98444,-494629448.56807,-69676098.39440,  -0.00105,  -0.00166,  -0.00104,476570918.99247,   0.00022,274881138.28152,  -0.00013,  -0.00021,  -0.00013,   0.00000,   2.00000
-412510849.52935,-494541626.34165,-70201649.48712,  -0.00105,  -0.00167,  -0.00105,476556627.97558,   0.00023,274886986.05709,  -0.00013,  -0.00022,  -0.00014,  -0.00000,   2.00000
-412014409.14786,-494451941.43380,-70724687.27702,  -0.00105,  -0.00167,  -0.00106,476564857.85247,   0.00023,274892846.23223,  -0.00014,  -0.00023,  -0.00014,   0.00000,   2.00000
-411516531.76166,-494366767.76033,-71238032.14888,  -0.00105,  -0.00168,  -0.00107,476584505.96067,   0.00024,274898758.64791,  -0.00014,  -0.00023,  -0.00014,  -0.00000,   2.00000
-411013546.95450,-494279469.66739,-71753290.09058,  -0.00105,  -0.00168,  -0.00108,476567933.71251,   0.00024,274904596.54175,  -0.00014,  -0.00024,  -0.00015,  -0.00000,   2.00000
-410514368.24664,-494188274.97330,-72266433.96289,  -0.00105,  -0.00169,  -0.00109,476603250.92108,   0.00025,274910541.67664,  -0.00015,  -0.00024,  -0.00015,   0.00000,   2.00000
-410011978.68262,-494097399.44527,-72776782.75669,  -0.00105,  -0.00169,  -0.00110,476584351.24665,   0.00025,274916403.92659,  -0.00015,  -0.00025,  -0.00016,  -0.00000,   2.00000
-409506378.73144,-494008725.73527,-73282206.20792,  -0.00105,  -0.00170,  -0.00111,476606267.19717,   0.00026,274922326.51965,  -0.00015,  -0.00025,  -0.00016,   0.00000,   2.00000
-409004684.94075,-493914354.07286,-73787692.63376,  -0.00105,  -0.00171,  -0.00112,476600702.38637,   0.00026,274928212.93334,  -0.00016,  -0.00026,  -0.00016,   0.00000,   2.00000
-408499854.78280,-493822250.10027,-74288239.08502,  -0.00105,  -0.00171,  -0.00113,476622605.50660,   0.00027,274934159.64347,  -0.00016,  -0.00026,  -0.00017,  -0.00000,   2.00000
-407995443.96501,-493728463.55075,-74786366.09923,  -0.00106,  -0.00172,  -0.00114,476630789.91340,   0.00027,274940118.32527,  -0.00016,  -0.00027,  -0.00017,  -0.00000,   2.00000
-407496952.53952,-493631581.54979,-75279908.12444,  -0.00106,  -0.00172,  -0.00115,476622740.25759,   0.00028,274946031.85542,  -0.00016,  -0.00027,  -0.00018,   0.00000,   2.00000
-406984179.29054,-493537971.86808,-75775268.62342,  -0.00106,  -0.00173,  -0.00116,476636167.25505,   0.00028,274951975.93426,  -0.00017,  -0.00028,  -0.00018,  -0.00000,   2.00000
-406473913.15765,-493445281.17283,-76263524.48312,  -0.00106,  -0.00174,  -0.00117,476641825.11010,   0.00029,274957923.10655,  -0.00017,  -0.00028,  -0.00018,   0.00000,   2.00000
-405967547.37772,-493346975.23419,-76752019.03430,  -0.00106,  -0.00174,  -0.00119,476636195.02679,   0.00030,274963833.60430,  -0.00017,  -0.00029,  -0.00019,   0.00000,   2.00000
-405458273.99860,-493251099.92464,-77235559.65894,  -0.00106,  -0.00175,  -0.00120,476658013.65963,   0.00030,274969804.23489,  -0.00018,  -0.00029,  -0.00019,   0.00000,   2.00000
-404949528.89130,-493153662.56205,-77716761.91125,  -0.00106,  -0.00175,  -0.00121,476666123.89604,   0.00031,274975786.50710,  -0.00018,  -0.00030,  -0.00020,  -0.00000,   2.00000
-404431953.97474,-493058035.06513,-78197716.55208,  -0.00106,  -0.00176,  -0.00122,476663399.78530,   0.00031,274981742.19190,  -0.00018,  -0.00030,  -0.00020,   0.00000,   2.00000
-403926423.65952,-492960167.68876,-78669576.16278,  -0.00106,  -0.00176,  -0.00123,476679725.12446,   0.00032,274987738.53424,  -0.00018,  -0.00031,  -0.00020,   0.00000,   2.00000
-403413260.40081,-492857431.44267,-79148599.27407,  -0.00106,  -0.00177,  -0.00124,476665843.54280,   0.00032,274993668.76366,  -0.00019,  -0.00031,  -0.00021,   0.00000,   2.00000
-402899468.14733,-492759912.71951,-79617965.10477,  -0.00106,  -0.00178,  -0.00125,476685010.37817,   0.00033,274999649.85250,  -0.00019,  -0.00032,  -0.00021,  -0.00000,   2.00000
-402386289.43595,-492660919.49486,-80085063.21323,  -0.00106,  -0.00178,  -0.00126,476693054.17704,   0.00033,275005642.31124,  -0.00019,  -0.00032,  -0.00022,   0.00000,   2.00000
-401864230.58033,-492563723.26202,-80552029.04948,  -0.00106,  -0.00179,  -0.00127,476690340.72498,   0.00034,275011608.05306,  -0.00020,  -0.00033,  -0.00022,   0.00000,   2.00000
-401354478.13980,-492464545.59632,-81009954.67454,  -0.00106,  -0.00179,  -0.00128,476706447.21072,   0.00034,275017613.73786,  -0.00020,  -0.00034,  -0.00023,   0.00000,   2.00000
-400833691.09157,-492364448.24697,-81472457.18327,  -0.00106,  -0.00180,  -0.00129,476706394.55746,   0.00035,275023602.04202,  -0.00020,  -0.00034,  -0.00023,  -0.00000,   2.00000
-400315719.89949,-492265671.95092,-81928083.91655,  -0.00107,  -0.00180,  -0.00130,476711725.64812,   0.00036,275029592.06118,  -0.00020,  -0.00035,  -0.00023,   0.00000,   2.00000
-399798440.84449,-492165501.84875,-82381511.99980,  -0.00107,  -0.00181,  -0.00131,476719705.87300,   0.00036,275035593.18567,  -0.00021,  -0.00035,  -0.00024,   0.00000,   2.00000
-399281866.81746,-492063959.85938,-82832750.27001,  -0.00107,  -0.00182,  -0.00132,476727682.55378,   0.00037,275041605.36458,  -0.00021,  -0.00036,  -0.00024,   0.00000,   2.00000
-398758514.64380,-491966993.85893,-83279360.81417,  -0.00107,  -0.00182,  -0.00133,476722257.37175,   0.00037,275047580.91733,  -0.00021,  -0.00036,  -0.00025,   0.00000,   2.00000
-398243417.50533,-491862745.83642,-83726255.76900,  -0.00107,  -0.00183,  -0.00134,476743580.65238,   0.00038,275053615.07719,  -0.00022,  -0.00037,  -0.00025,   0.00000,   2.00000
-397721529.34595,-491763104.42264,-84168568.11024,  -0.00107,  -0.00183,  -0.00135,476738150.44840,   0.00038,275059612.45192,  -0.00022,  -0.00037,  -0.00026,   0.00000,   2.00000
-397200405.73544,-491662143.22395,-84608749.20261,  -0.00107,  -0.00184,  -0.00136,476746069.80680,   0.00039,275065620.67523,  -0.00022,  -0.00038,  -0.00026,   0.00000,   2.00000
-396682262.10230,-491562735.17906,-85042207.97616,  -0.00107,  -0.00185,  -0.00137,476751190.28491,   0.00039,275071629.69353,  -0.00022,  -0.00038,  -0.00027,   0.00000,   2.00000
-396152903.04908,-491462228.32660,-85480388.84538,  -0.00107,  -0.00185,  -0.00138,476751290.59042,   0.00040,275077621.66501,  -0.00023,  -0.00039,  -0.00027,   0.00000,   2.00000
-395636390.56325,-491360283.58896,-85909649.58554,  -0.00107,  -0.00186,  -0.00139,476766940.24845,   0.00041,275083652.04141,  -0.00023,  -0.00039,  -0.00028,   0.00000,   2.00000
-395110842.84561,-491260106.00904,-86339070.33356,  -0.00107,  -0.00186,  -0.00140,476764255.81398,   0.00041,275089655.27226,  -0.00023,  -0.00040,  -0.00028,   0.00000,   2.00000
-394588358.89019,-491161581.83270,-86761848.68948,  -0.00107,  -0.00187,  -0.00141,476769264.82999,   0.00042,275095658.87180,  -0.00023,  -0.00040,  -0.00029,   0.00000,   2.00000
-394066725.69949,-491061840.45060,-87182597.08062,  -0.00107,  -0.00187,  -0.00142,476777083.71614,   0.00042,275101672.87548,  -0.00024,  -0.00041,  -0.00029,   0.00000,   2.00000
-393536018.62412,-490963830.69965,-87603573.94206,  -0.00107,  -0.00188,  -0.00143,476774395.20491,   0.00043,275107659.68365,  -0.00024,  -0.00041,  -0.00029,  -0.00000,   2.00000
-393016145.09400,-490861683.49075,-88020275.44219,  -0.00107,  -0.00189,  -0.00144,476792694.53367,   0.00043,275113694.46774,  -0.00024,  -0.00042,  -0.00030,   0.00000,   2.00000
-392487165.17412,-490761266.35711,-88437235.89037,  -0.00107,  -0.00189,  -0.00145,476790031.87097,   0.00044,275119702.02137,  -0.00024,  -0.00042,  -0.00030,   0.00000,   2.00000
-391961343.89892,-490662628.86744,-88847646.17070,  -0.00107,  -0.00190,  -0.00146,476794916.62128,   0.00044,275125709.42490,  -0.00025,  -0.00043,  -0.00031,  -0.00000,   2.00000
-391423545.94239,-490569884.64413,-89255380.58407,  -0.00107,  -0.00190,  -0.00147,476805938.83481,   0.00045,275131738.72889,  -0.00025,  -0.00044,  -0.00031,  -0.00000,   2.00000
-390901874.99491,-490471903.06404,-89657329.21430,  -0.00107,  -0.00191,  -0.00148,476807521.73827,   0.00045,275137755.89324,  -0.00025,  -0.00044,  -0.00032,   0.00000,   2.00000
-390371045.99152,-490375624.19772,-90059643.20376,  -0.00107,  -0.00192,  -0.00149,476804832.15544,   0.00046,275143745.62965,  -0.00025,  -0.00045,  -0.00032,  -0.00000,   2.00000
-389841163.19748,-490278207.30487,-90460035.55662,  -0.00108,  -0.00192,  -0.00150,476812547.71825,   0.00047,275149745.40018,  -0.00026,  -0.00045,  -0.00033,   0.00000,   2.00000
-389312235.65850,-490179670.36131,-90858514.42838,  -0.00108,  -0.00193,  -0.00151,476820260.92013,   0.00047,275155755.15680,  -0.00026,  -0.00046,  -0.00033,   0.00000,   2.00000
-388783829.32378,-490087308.59169,-91247526.66834,  -0.00108,  -0.00193,  -0.00152,476838664.52710,   0.00048,275161813.29975,  -0.00026,  -0.00046,  -0.00034,   0.00000,   2.00000
-388248962.50761,-489992356.49136,-91640040.04987,  -0.00108,  -0.00194,  -0.00153,476822342.34800,   0.00048,275167794.66288,  -0.00026,  -0.00047,  -0.00034,   0.00000,   2.00000
-387715084.68550,-489896300.70046,-92030683.60360,  -0.00108,  -0.00194,  -0.00154,476830008.79675,   0.00049,275173785.88589,  -0.00027,  -0.00047,  -0.00035,  -0.00000,   2.00000
-387184524.22053,-489802237.01747,-92414966.99055,  -0.00108,  -0.00195,  -0.00155,476834635.83148,   0.00049,275179775.93015,  -0.00027,  -0.00048,  -0.00035,  -0.00000,   2.00000
-386654975.30866,-489707115.74072,-92797422.63181,  -0.00108,  -0.00196,  -0.00156,476842260.49669,   0.00050,275185775.60166,  -0.00027,  -0.00048,  -0.00036,  -0.00000,   2.00000
-386126129.64288,-489618322.15294,-93170465.91881,  -0.00108,  -0.00196,  -0.00157,476860505.14460,   0.00050,275191823.16647,  -0.00028,  -0.00049,  -0.00036,   0.00000,   2.00000
-385590645.79376,-489526865.49295,-93547180.82383,  -0.00108,  -0.00197,  -0.00158,476844183.22006,   0.00051,275197793.64433,  -0.00028,  -0.00049,  -0.00037,  -0.00000,   2.00000
-385056203.76436,-489434363.78035,-93922109.71042,  -0.00108,  -0.00197,  -0.00159,476851763.04252,   0.00052,275203773.63272,  -0.00028,  -0.00050,  -0.00037,   0.00000,   2.00000
-384522811.03599,-489340833.33808,-94295260.29560,  -0.00108,  -0.00198,  -0.00160,476859340.98212,   0.00052,275209763.08554,  -0.00028,  -0.00050,  -0.00038,   0.00000,   2.00000
-383990258.06625,-489253729.28597,-94659024.19672,  -0.00108,  -0.00199,  -0.00161,476877484.48452,   0.00053,275215800.16582,  -0.00028,  -0.00051,  -0.00038,   0.00000,   2.00000
-383453274.21988,-489167042.17631,-95022112.74610,  -0.00108,  -0.00199,  -0.00162,476858063.91829,   0.00053,275221748.69286,  -0.00029,  -0.00051,  -0.00039,   0.00000,   2.00000
-382915012.14903,-489076178.34959,-95387944.41240,  -0.00108,  -0.00200,  -0.00163,476868696.31330,   0.00054,275227717.83774,  -0.00029,  -0.00052,  -0.00039,   0.00000,   2.00000
-382377690.80559,-488991801.86628,-95744412.61149,  -0.00108,  -0.00200,  -0.00164,476886756.87505,   0.00054,275233734.42624,  -0.00029,  -0.00052,  -0.00040,   0.00000,   2.00000
-381846355.08057,-488905313.30006,-96097934.67176,  -0.00108,  -0.00201,  -0.00165,476877465.50622,   0.00055,275239699.03905,  -0.00029,  -0.00053,  -0.00040,   0.00000,   2.00000
-381305585.20961,-488820345.48211,-96452169.17308,  -0.00108,  -0.00201,  -0.00166,476874783.55750,   0.00055,275245635.84261,  -0.00030,  -0.00053,  -0.00041,   0.00000,   2.00000
-380763480.05104,-488738720.74080,-96801522.68018,  -0.00108,  -0.00202,  -0.00167,476895908.42010,   0.00056,275251631.37708,  -0.00030,  -0.00054,  -0.00041,   0.00000,   2.00000
-380227339.15739,-488655005.24248,-97148016.01286,  -0.00108,  -0.00203,  -0.00168,476886544.74653,   0.00056,275257574.61366,  -0.00030,  -0.00054,  -0.00042,  -0.00000,   2.00000
-379692328.24501,-488570343.27417,-97492882.66528,  -0.00108,  -0.00203,  -0.00169,476893960.43720,   0.00057,275263526.70606,  -0.00030,  -0.00055,  -0.00042,   0.00000,   2.00000
-379145418.71622,-488491489.80918,-97835277.57520,  -0.00108,  -0.00204,  -0.00170,476904967.25585,   0.00058,275269500.72682,  -0.00031,  -0.00055,  -0.00043,   0.00000,   2.00000
-378604449.87902,-488410564.99896,-98174896.13298,  -0.00108,  -0.00204,  -0.00171,476895532.94070,   0.00058,275275422.13587,  -0.00031,  -0.00056,  -0.00043,  -0.00000,   2.00000
-378064633.95503,-488328698.63462,-98512925.02648,  -0.00108,  -0.00205,  -0.00172,476902908.31099,   0.00059,275281352.30673,  -0.00031,  -0.00057,  -0.00044,   0.00000,   2.00000
-377526045.38593,-488253539.05129,-98841690.98610,  -0.00108,  -0.00206,  -0.00173,476920698.36441,   0.00059,275287329.12640,  -0.00031,  -0.00057,  -0.00044,   0.00000,   2.00000
-376980219.66157,-488175414.99626,-99174603.81388,  -0.00108,  -0.00206,  -0.00174,476904409.52758,   0.00060,275293228.19614,  -0.00032,  -0.00058,  -0.00045,  -0.00000,   2.00000
-376446455.95664,-488101719.37681,-99495860.90667,  -0.00108,  -0.00207,  -0.00175,476932131.43555,   0.00060,275299210.25376,  -0.00032,  -0.00058,  -0.00045,  -0.00000,   2.00000
-375894578.23563,-488027323.11810,-99823744.50154,  -0.00108,  -0.00207,  -0.00176,476905862.95019,   0.00061,275305077.99175,  -0.00032,  -0.00059,  -0.00046,   0.00000,   2.00000
-375357129.36185,-487953029.72564,-100143299.23783,  -0.00108,  -0.00208,  -0.00176,476919832.20890,   0.00061,275310978.65153,  -0.00032,  -0.00059,  -0.00046,   0.00000,   2.00000
-374807788.35074,-487884479.98352,-100460465.68337,  -0.00108,  -0.00208,  -0.00177,476930810.54848,   0.00062,275316901.23521,  -0.00032,  -0.00060,  -0.00047,   0.00000,   2.00000
-374272770.34291,-487808392.74449,-100777057.13816,  -0.00108,  -0.00209,  -0.00178,476934388.62047,   0.00062,275322818.55535,  -0.00033,  -0.00060,  -0.00047,   0.00000,   2.00000
-373717379.16137,-487743587.22782,-101089318.18384,  -0.00108,  -0.00210,  -0.00179,476932162.79016,   0.00063,275328709.42136,  -0.00033,  -0.00061,  -0.00048,   0.00000,   2.00000
-373176337.20925,-487671260.02229,-101401043.95158,  -0.00108,  -0.00210,  -0.00180,476935673.83841,   0.00064,275334594.85999,  -0.00033,  -0.00061,  -0.00048,  -0.00000,   2.00000
-372625829.85868,-487607989.46360,-101706035.16303,  -0.00108,  -0.00211,  -0.00181,476943334.86564,   0.00064,275340490.08344,  -0.00033,  -0.00062,  -0.00049,   0.00000,   2.00000
-372078715.37381,-487539401.44739,-102012976.30910,  -0.00108,  -0.00211,  -0.00182,476936916.56209,   0.00065,275346343.43767,  -0.00034,  -0.00062,  -0.00049,   0.00000,   2.00000
-371533144.85810,-487477720.94907,-102310767.05419,  -0.00108,  -0.00212,  -0.00183,476954400.00718,   0.00065,275352242.66120,  -0.00034,  -0.00063,  -0.00050,   0.00000,   2.00000
-370979907.66098,-487412849.53604,-102613002.57562,  -0.00108,  -0.00213,  -0.00184,476938118.31558,   0.00066,275358063.73731,  -0.00034,  -0.00063,  -0.00050,   0.00000,   2.00000
-370439324.97101,-487352812.08507,-102903661.33872,  -0.00108,  -0.00213,  -0.00185,476965359.58420,   0.00066,275363966.61025,  -0.00034,  -0.00064,  -0.00051,  -0.00000,   2.00000
-369890994.40272,-487289566.82749,-103198822.85397,  -0.00108,  -0.00214,  -0.00186,476949077.16753,   0.00067,275369791.17167,  -0.00034,  -0.00064,  -0.00051,   0.00000,   2.00000
-369333207.60336,-487235343.39106,-103487325.11133,  -0.00108,  -0.00214,  -0.00186,476956670.60191,   0.00067,275375625.40767,  -0.00035,  -0.00065,  -0.00052,   0.00000,   2.00000
-368789861.06719,-487173748.92197,-103775465.95701,  -0.00108,  -0.00215,  -0.00187,476959916.25152,   0.00068,275381453.24352,  -0.00035,  -0.00065,  -0.00052,   0.00000,   2.00000
-368237056.94905,-487121192.01570,-104056978.59177,  -0.00108,  -0.00216,  -0.00188,476967488.98863,   0.00068,275387290.61352,  -0.00035,  -0.00066,  -0.00053,   0.00000,   2.00000
-367676347.09091,-487065302.59928,-104343084.33814,  -0.00108,  -0.00216,  -0.00189,476951207.66598,   0.00069,275393049.69615,  -0.00035,  -0.00066,  -0.00053,  -0.00000,   2.00000
-367128600.51796,-487014434.05981,-104617659.31495,  -0.00107,  -0.00217,  -0.00190,476978190.18809,   0.00069,275398890.00088,  -0.00035,  -0.00067,  -0.00054,   0.00000,   2.00000
-366572865.24181,-486960215.43967,-104896881.89406,  -0.00107,  -0.00217,  -0.00191,476961909.18168,   0.00070,275404651.86349,  -0.00036,  -0.00067,  -0.00055,  -0.00000,   2.00000
-366018932.48191,-486913039.56633,-105167055.10759,  -0.00107,  -0.00218,  -0.00192,476979126.22823,   0.00071,275410458.99448,  -0.00036,  -0.00068,  -0.00055,   0.00000,   2.00000
-365468215.42168,-486860537.39854,-105439457.81833,  -0.00107,  -0.00218,  -0.00193,476972510.71218,   0.00071,275416223.31625,  -0.00036,  -0.00068,  -0.00056,  -0.00000,   2.00000
-364908037.63160,-486817022.38496,-105705298.61335,  -0.00107,  -0.00219,  -0.00194,476980029.75267,   0.00072,275421997.12735,  -0.00036,  -0.00069,  -0.00056,   0.00000,   2.00000
-364351633.27000,-486776105.50849,-105965623.06788,  -0.00107,  -0.00220,  -0.00194,476983553.66742,   0.00072,275427765.59452,  -0.00036,  -0.00069,  -0.00057,  -0.00000,   2.00000
-363795937.53958,-486726356.20540,-106232540.15881,  -0.00107,  -0.00220,  -0.00195,476980364.14481,   0.00073,275433503.95203,  -0.00037,  -0.00070,  -0.00057,   0.00000,   2.00000
-363233238.12358,-486689064.09521,-106488628.80005,  -0.00107,  -0.00221,  -0.00196,476984378.54510,   0.00073,275439238.88139,  -0.00037,  -0.00070,  -0.00058,   0.00000,   2.00000
-362671862.12509,-486650880.17574,-106743543.63765,  -0.00107,  -0.00221,  -0.00197,476991321.01896,   0.00074,275444981.21225,  -0.00037,  -0.00071,  -0.00058,  -0.00000,   2.00000
-362113608.11156,-486607340.87305,-107000810.03624,  -0.00107,  -0.00222,  -0.00198,476984611.36320,   0.00074,275450680.38571,  -0.00037,  -0.00071,  -0.00059,   0.00000,   2.00000
-361557342.90359,-486570945.77336,-107249106.09255,  -0.00107,  -0.00223,  -0.00199,477001633.65961,   0.00075,275456424.35804,  -0.00037,  -0.00072,  -0.00059,  -0.00000,   2.00000
-360993385.06079,-486538988.11262,-107494464.38764,  -0.00107,  -0.00223,  -0.00199,476995484.55134,   0.00075,275462127.14624,  -0.00038,  -0.00072,  -0.00060,   0.00000,   2.00000
-360432499.83725,-486501661.12917,-107742242.92667,  -0.00107,  -0.00224,  -0.00200,476988713.69540,   0.00076,275467786.56100,  -0.00038,  -0.00073,  -0.00060,  -0.00000,   2.00000
-359873668.87738,-486471500.92524,-107981086.84929,  -0.00107,  -0.00224,  -0.00201,477005652.52919,   0.00076,275473490.61008,  -0.00038,  -0.00073,  -0.00061,   0.00000,   2.00000
-359304611.16485,-486442183.29726,-108221310.43043,  -0.00107,  -0.00225,  -0.00202,477003025.05361,   0.00077,275479166.59446,  -0.00038,  -0.00074,  -0.00061,  -0.00000,   2.00000
-358739361.71495,-486415528.95400,-108456181.16225,  -0.00107,  -0.00225,  -0.00203,477006316.16952,   0.00077,275484836.52262,  -0.00038,  -0.00074,  -0.00062,  -0.00000,   2.00000
-358165504.70115,-486385168.64660,-108696021.51291,  -0.00107,  -0.00226,  -0.00204,476990040.29792,   0.00078,275490427.77742,  -0.00038,  -0.00075,  -0.00062,   0.00000,   2.00000
-357605428.40679,-486360320.73087,-108924479.44219,  -0.00107,  -0.00227,  -0.00204,477016320.63502,   0.00078,275496098.63559,  -0.00039,  -0.00075,  -0.00063,  -0.00000,   2.00000
-357037498.84161,-486339822.93620,-109150123.58693,  -0.00106,  -0.00227,  -0.00205,477010118.80648,   0.00079,275501728.09529,  -0.00039,  -0.00076,  -0.00063,   0.00000,   2.00000
-356470914.03593,-486318430.99612,-109374738.74502,  -0.00106,  -0.00228,  -0.00206,477016884.33314,   0.00079,275507364.50350,  -0.00039,  -0.00076,  -0.00064,   0.00000,   2.00000
-355896430.38159,-486301344.01548,-109596564.39399,  -0.00106,  -0.00228,  -0.00207,477010675.16114,   0.00080,275512959.55593,  -0.00039,  -0.00077,  -0.00064,  -0.00000,   2.00000
-355323295.84064,-486283341.24123,-109817377.78214,  -0.00106,  -0.00229,  -0.00208,477017414.16658,   0.00080,275518561.57504,  -0.00039,  -0.00077,  -0.00065,   0.00000,   2.00000
-354753979.59769,-486268040.76205,-110032954.19604,  -0.00106,  -0.00230,  -0.00208,477020539.66975,   0.00081,275524157.03387,  -0.00040,  -0.00078,  -0.00065,   0.00000,   2.00000
-354178224.64768,-486252498.35929,-110249410.16524,  -0.00106,  -0.00230,  -0.00209,477000645.29087,   0.00081,275529660.16978,  -0.00040,  -0.00078,  -0.00066,  -0.00000,   2.00000
-353602280.53678,-486240543.93317,-110461263.73843,  -0.00106,  -0.00231,  -0.00210,477020940.19035,   0.00082,275535221.09419,  -0.00040,  -0.00078,  -0.00066,   0.00000,   2.00000
-353027689.49867,-486227672.55640,-110672150.30374,  -0.00106,  -0.00231,  -0.00211,477027624.27525,   0.00083,275540788.84786,  -0.00040,  -0.00079,  -0.00067,   0.00000,   2.00000
-352447519.94351,-486222643.48534,-110876111.72104,  -0.00106,  -0.00232,  -0.00212,477017755.42538,   0.00083,275546301.60117,  -0.00040,  -0.00079,  -0.00067,   0.00000,   2.00000
-351878126.81974,-486211571.29328,-111080885.12992,  -0.00106,  -0.00233,  -0.00212,477037287.50257,   0.00084,275551869.27677,  -0.00040,  -0.00080,  -0.00068,  -0.00000,   2.00000
-351291187.60495,-486209794.35482,-111281241.38563,  -0.00106,  -0.00233,  -0.00213,477018162.01504,   0.00084,275557347.31404,  -0.00041,  -0.00080,  -0.00069,  -0.00000,   2.00000
-350717542.36830,-486205627.78092,-111478212.96163,  -0.00106,  -0.00234,  -0.00214,477033987.68433,   0.00085,275562866.55404,  -0.00041,  -0.00081,  -0.00069,   0.00000,   2.00000
-350135747.62889,-486205616.85407,-111672547.51668,  -0.00105,  -0.00234,  -0.00215,477027722.44856,   0.00085,275568344.27463,  -0.00041,  -0.00081,  -0.00070,   0.00000,   2.00000
-349555306.17465,-486204662.28668,-111865991.81335,  -0.00105,  -0.00235,  -0.00215,477034301.53532,   0.00086,275573828.64088,  -0.00041,  -0.00082,  -0.00070,  -0.00000,   2.00000
-348965298.57406,-486212317.89432,-112053143.94713,  -0.00105,  -0.00235,  -0.00216,477041707.25928,   0.00086,275579322.72333,  -0.00041,  -0.00082,  -0.00071,   0.00000,   2.00000
-348380476.92403,-486218162.79549,-112238910.96458,  -0.00105,  -0.00236,  -0.00217,477030956.80471,   0.00087,275584758.47504,  -0.00041,  -0.00083,  -0.00071,   0.00000,   2.00000
-347797007.10561,-486223049.28338,-112423824.00275,  -0.00105,  -0.00237,  -0.00218,477037485.51785,   0.00087,275590200.79237,  -0.00042,  -0.00083,  -0.00072,  -0.00000,   2.00000
-347205257.03199,-486231989.38299,-112606159.02808,  -0.00105,  -0.00237,  -0.00218,477031204.53692,   0.00088,275595601.65361,  -0.00042,  -0.00084,  -0.00072,  -0.00000,   2.00000
-346614860.19284,-486239947.04501,-112787652.59543,  -0.00105,  -0.00238,  -0.00219,477037711.10712,   0.00088,275601009.12174,  -0.00042,  -0.00084,  -0.00073,   0.00000,   2.00000
-346028271.80474,-486250629.83423,-112964126.60164,  -0.00105,  -0.00238,  -0.00220,477040508.84157,   0.00089,275606409.22245,  -0.00042,  -0.00085,  -0.00073,   0.00000,   2.00000
-345432065.41977,-486269811.00870,-113134354.96164,  -0.00105,  -0.00239,  -0.00221,477047897.63693,   0.00089,275611819.20590,  -0.00042,  -0.00085,  -0.00074,   0.00000,   2.00000
-344838469.33306,-486283478.18188,-113307494.98743,  -0.00104,  -0.00240,  -0.00221,477040724.90028,   0.00090,275617184.36934,  -0.00042,  -0.00086,  -0.00074,   0.00000,   2.00000
-344248673.69208,-486299870.25084,-113475657.71407,  -0.00104,  -0.00240,  -0.00222,477043457.95400,   0.00090,275622542.01750,  -0.00042,  -0.00086,  -0.00075,  -0.00000,   2.00000
-343650431.61598,-486320204.50138,-113641317.66600,  -0.00104,  -0.00241,  -0.00223,477037154.63510,   0.00091,275627858.22346,  -0.00043,  -0.00087,  -0.00075,   0.00000,   2.00000
-343052354.69715,-486344018.00304,-113802475.64988,  -0.00104,  -0.00241,  -0.00224,477057256.90581,   0.00091,275633232.36913,  -0.00043,  -0.00087,  -0.00076,   0.00000,   2.00000
-342446962.74723,-486367211.35352,-113964882.67067,  -0.00104,  -0.00242,  -0.00224,477037320.12018,   0.00092,275638513.69834,  -0.00043,  -0.00087,  -0.00076,   0.00000,   2.00000
-341856529.73875,-486396440.98301,-114116180.84625,  -0.00104,  -0.00243,  -0.00225,477062610.85703,   0.00092,275643872.58434,  -0.00043,  -0.00088,  -0.00077,  -0.00000,   2.00000
-341243901.25552,-486422432.30820,-114275383.87675,  -0.00104,  -0.00243,  -0.00226,477037464.18277,   0.00093,275649119.01337,  -0.00043,  -0.00088,  -0.00077,   0.00000,   2.00000
-340647421.86385,-486449990.00134,-114427234.81035,  -0.00103,  -0.00244,  -0.00226,477048994.28419,   0.00093,275654391.37484,  -0.00043,  -0.00089,  -0.00078,   0.00000,   2.00000
-340038801.15364,-486482109.93839,-114577052.42168,  -0.00103,  -0.00244,  -0.00227,477060142.41507,   0.00093,275659688.17936,  -0.00043,  -0.00089,  -0.00078,  -0.00000,   2.00000
-339433977.15494,-486516916.24078,-114721994.05104,  -0.00103,  -0.00245,  -0.00228,477062778.44899,   0.00094,275664977.22666,  -0.00044,  -0.00090,  -0.00079,   0.00000,   2.00000
-338821551.61874,-486550994.59618,-114868276.10380,  -0.00103,  -0.00245,  -0.00228,477042819.66016,   0.00094,275670173.35368,  -0.00044,  -0.00090,  -0.00079,   0.00000,   2.00000
-338211855.01892,-486592236.70080,-115005939.26553,  -0.00103,  -0.00246,  -0.00229,477059059.09587,   0.00095,275675413.36450,  -0.00044,  -0.00091,  -0.00080,  -0.00000,   2.00000
-337604525.19974,-486627912.51694,-115146697.00427,  -0.00103,  -0.00247,  -0.00230,477051681.46704,   0.00095,275680607.98680,  -0.00044,  -0.00091,  -0.00080,   0.00000,   2.00000
-336987435.12034,-486671772.12283,-115281279.04908,  -0.00103,  -0.00247,  -0.00230,477059090.41662,   0.00096,275685813.19459,  -0.00044,  -0.00092,  -0.00081,  -0.00000,   2.00000
-336371696.15578,-486714515.57997,-115415193.39471,  -0.00102,  -0.00248,  -0.00231,477065408.66738,   0.00096,275691024.82673,  -0.00044,  -0.00092,  -0.00081,   0.00000,   2.00000
-335750529.72692,-486760208.11468,-115546363.93558,  -0.00102,  -0.00248,  -0.00232,477041655.89241,   0.00097,275696129.21219,  -0.00044,  -0.00092,  -0.00082,   0.00000,   2.00000
-335127332.45292,-486805453.34493,-115677234.03847,  -0.00102,  -0.00249,  -0.00232,477065399.64085,   0.00097,275701306.26762,  -0.00045,  -0.00093,  -0.00082,   0.00000,   2.00000
-334510303.96288,-486857143.34051,-115799174.64084,  -0.00102,  -0.00250,  -0.00233,477064099.92560,   0.00098,275706460.97797,  -0.00045,  -0.00093,  -0.00083,  -0.00000,   2.00000
-333881969.31213,-486908608.75161,-115922903.18857,  -0.00102,  -0.00250,  -0.00234,477061647.01126,   0.00098,275711589.08960,  -0.00045,  -0.00094,  -0.00083,  -0.00000,   2.00000
-333257378.73559,-486962707.56357,-116041865.81075,  -0.00102,  -0.00251,  -0.00234,477064101.55482,   0.00099,275716709.22647,  -0.00045,  -0.00094,  -0.00084,  -0.00000,   2.00000
-332636522.94826,-487019449.02190,-116156083.55908,  -0.00101,  -0.00251,  -0.00235,477066529.03052,   0.00099,275721821.27504,  -0.00045,  -0.00095,  -0.00084,   0.00000,   2.00000
-332004277.16315,-487075888.15847,-116272105.03037,  -0.00101,  -0.00252,  -0.00236,477064095.29413,   0.00100,275726906.88347,  -0.00045,  -0.00095,  -0.00085,   0.00000,   2.00000
-331375757.10321,-487134950.75532,-116383391.56469,  -0.00101,  -0.00253,  -0.00236,477066501.17546,   0.00100,275731984.44233,  -0.00045,  -0.00096,  -0.00085,  -0.00000,   2.00000
-330738182.16308,-487197458.50520,-116492355.16904,  -0.00101,  -0.00253,  -0.00237,477060268.69056,   0.00101,275737021.23387,  -0.00045,  -0.00096,  -0.00085,   0.00000,   2.00000
-330101930.24122,-487258749.23241,-116600732.60374,  -0.00101,  -0.00254,  -0.00238,477066458.20196,   0.00101,275742064.50045,  -0.00046,  -0.00096,  -0.00086,  -0.00000,   2.00000
-329469384.53889,-487322652.46675,-116704404.73128,  -0.00101,  -0.00254,  -0.00238,477068817.47996,   0.00102,275747099.65131,  -0.00046,  -0.00097,  -0.00086,   0.00000,   2.00000
-328827687.85632,-487389932.68071,-116805771.77389,  -0.00100,  -0.00255,  -0.00239,477062597.35745,   0.00102,275752094.15270,  -0.00046,  -0.00097,  -0.00087,   0.00000,   2.00000
-328187305.14573,-487455973.14707,-116906576.30760,  -0.00100,  -0.00256,  -0.00239,477068752.02766,   0.00103,275757095.12643,  -0.00046,  -0.00098,  -0.00087,   0.00000,   2.00000
-327550608.06298,-487524613.89651,-117002703.72879,  -0.00100,  -0.00256,  -0.00240,477071066.82782,   0.00103,275762087.92783,  -0.00046,  -0.00098,  -0.00088,  -0.00000,   2.00000
-326903968.02043,-487600974.73992,-117092705.32231,  -0.00100,  -0.00257,  -0.00241,477078630.08755,   0.00103,275767092.53668,  -0.00046,  -0.00099,  -0.00088,   0.00000,   2.00000
-326261689.54712,-487675480.51856,-117181899.48350,  -0.00100,  -0.00257,  -0.00241,477067191.08085,   0.00104,275772036.63114,  -0.00046,  -0.00099,  -0.00089,   0.00000,   2.00000
-325607734.78738,-487749388.83258,-117272931.35935,  -0.00099,  -0.00258,  -0.00242,477064835.22519,   0.00104,275776954.99789,  -0.00046,  -0.00100,  -0.00089,   0.00000,   2.00000
-324956796.00300,-487830246.61327,-117355469.05253,  -0.00099,  -0.00259,  -0.00242,477080874.60704,   0.00105,275781917.68510,  -0.00046,  -0.00100,  -0.00090,   0.00000,   2.00000
-324294765.07046,-487906027.25203,-117443696.80316,  -0.00099,  -0.00259,  -0.00243,477064822.16809,   0.00105,275786802.41594,  -0.00047,  -0.00100,  -0.00090,   0.00000,   2.00000
-323638119.97368,-487992573.94687,-117519320.57473,  -0.00099,  -0.00260,  -0.00243,477076997.74434,   0.00106,275791716.88791,  -0.00047,  -0.00101,  -0.00091,  -0.00000,   2.00000
-322983356.63256,-488073396.77070,-117598306.85052,  -0.00099,  -0.00260,  -0.00244,477069322.12068,   0.00106,275796585.36731,  -0.00047,  -0.00101,  -0.00091,   0.00000,   2.00000
-322331651.34322,-488161138.93551,-117668830.03760,  -0.00098,  -0.00261,  -0.00245,477085315.90870,   0.00107,275801498.18705,  -0.00047,  -0.00102,  -0.00092,   0.00000,   2.00000
-321655529.90349,-488244274.69229,-117747407.07786,  -0.00098,  -0.00262,  -0.00245,477060941.38193,   0.00107,275806301.35538,  -0.00047,  -0.00102,  -0.00092,   0.00000,   2.00000
-320995645.98532,-488333726.31654,-117815175.58875,  -0.00098,  -0.00262,  -0.00246,477085256.90859,   0.00108,275811180.89150,  -0.00047,  -0.00103,  -0.00093,   0.00000,   2.00000
-320326197.14349,-488426190.73691,-117880692.97779,  -0.00098,  -0.00263,  -0.00246,477079182.78395,   0.00108,275816020.58034,  -0.00047,  -0.00103,  -0.00093,   0.00000,   2.00000
-319660350.52945,-488521123.95131,-117941636.43684,  -0.00097,  -0.00263,  -0.00247,477081393.13823,   0.00108,275820852.14936,  -0.00047,  -0.00103,  -0.00094,   0.00000,   2.00000
-318982553.67045,-488615132.29522,-118004439.50052,  -0.00097,  -0.00264,  -0.00247,477079200.69488,   0.00109,275825658.84780,  -0.00047,  -0.00104,  -0.00094,   0.00000,   2.00000
-318308789.35671,-488707246.33616,-118066546.14842,  -0.00097,  -0.00265,  -0.00248,477067576.69646,   0.00109,275830404.69304,  -0.00047,  -0.00104,  -0.00094,  -0.00000,   2.00000
-317638156.75789,-488806165.83761,-118120215.83041,  -0.00097,  -0.00265,  -0.00248,477083523.10673,   0.00110,275835195.23501,  -0.00048,  -0.00105,  -0.00095,   0.00000,   2.00000
-316955485.81339,-488904075.75856,-118175747.91512,  -0.00097,  -0.00266,  -0.00249,477081366.57125,   0.00110,275839961.14053,  -0.00048,  -0.00105,  -0.00095,   0.00000,   2.00000
-316263042.62421,-489004801.34274,-118229022.61642,  -0.00096,  -0.00266,  -0.00249,477075365.36460,   0.00111,275844687.79443,  -0.00048,  -0.00106,  -0.00096,  -0.00000,   2.00000
-315587141.49567,-489111857.12633,-118271577.24950,  -0.00096,  -0.00267,  -0.00250,477099518.73969,   0.00111,275849490.65024,  -0.00048,  -0.00106,  -0.00096,   0.00000,   2.00000
-314888371.50881,-489217721.45238,-118318070.46469,  -0.00096,  -0.00268,  -0.00251,477071603.62842,   0.00111,275854170.17045,  -0.00048,  -0.00106,  -0.00097,  -0.00000,   2.00000
-314204262.12333,-489321726.04801,-118361850.54291,  -0.00096,  -0.00268,  -0.00251,477085729.89562,   0.00112,275858887.73570,  -0.00048,  -0.00107,  -0.00097,   0.00000,   2.00000
-313510236.89510,-489428451.74106,-118403386.10183,  -0.00095,  -0.00269,  -0.00252,477079764.52856,   0.00112,275863566.25011,  -0.00048,  -0.00107,  -0.00098,   0.00000,   2.00000
-312805969.84802,-489542123.56534,-118438779.11853,  -0.00095,  -0.00269,  -0.00252,477087677.96612,   0.00113,275868259.05010,  -0.00048,  -0.00108,  -0.00098,   0.00000,   2.00000
-312118970.31490,-489653557.99833,-118471295.28576,  -0.00095,  -0.00270,  -0.00252,477084025.18361,   0.00113,275872921.66864,  -0.00048,  -0.00108,  -0.00098,   0.00000,   2.00000
-311406172.28764,-489763982.76808,-118507928.64609,  -0.00095,  -0.00271,  -0.00253,477073947.09106,   0.00114,275877529.63709,  -0.00048,  -0.00109,  -0.00099,  -0.00000,   2.00000
-310710166.49184,-489880744.49367,-118533901.88698,  -0.00094,  -0.00271,  -0.00253,477097931.24183,   0.00114,275882213.78187,  -0.00048,  -0.00109,  -0.00099,   0.00000,   2.00000
-310002045.84179,-489991898.70924,-118565633.33949,  -0.00094,  -0.00272,  -0.00254,477082093.31525,   0.00115,275886821.00747,  -0.00049,  -0.00109,  -0.00100,  -0.00000,   2.00000
-309285840.46782,-490113706.74591,-118587105.16295,  -0.00094,  -0.00272,  -0.00254,477086221.86579,   0.00115,275891428.23882,  -0.00049,  -0.00110,  -0.00100,  -0.00000,   2.00000
-308570863.91772,-490233867.23805,-118608190.81951,  -0.00093,  -0.00273,  -0.00255,477092242.83310,   0.00115,275896042.74375,  -0.00049,  -0.00110,  -0.00101,   0.00000,   2.00000
-307859339.92040,-490356290.10283,-118624797.26972,  -0.00093,  -0.00274,  -0.00255,477094371.99052,   0.00116,275900649.51060,  -0.00049,  -0.00111,  -0.00101,  -0.00000,   2.00000
-307137707.14846,-490476885.68646,-118643057.56599,  -0.00093,  -0.00274,  -0.00256,477074688.13417,   0.00116,275905164.70392,  -0.00049,  -0.00111,  -0.00102,   0.00000,   2.00000
-306417169.03176,-490600041.89874,-118657033.33658,  -0.00093,  -0.00275,  -0.00256,477094540.47500,   0.00117,275909740.71112,  -0.00049,  -0.00111,  -0.00102,   0.00000,   2.00000
-305700052.62123,-490725435.37053,-118666543.81088,  -0.00092,  -0.00275,  -0.00257,477096651.52275,   0.00117,275914309.02730,  -0.00049,  -0.00112,  -0.00102,   0.00000,   2.00000
-304972594.45114,-490853135.37311,-118673799.57068,  -0.00092,  -0.00276,  -0.00257,477090921.70547,   0.00117,275918839.50552,  -0.00049,  -0.00112,  -0.00103,   0.00000,   2.00000
-304232565.03235,-490979175.01960,-118682886.24249,  -0.00092,  -0.00277,  -0.00258,477089108.83258,   0.00118,275923347.39531,  -0.00049,  -0.00113,  -0.00103,  -0.00000,   2.00000
-303511906.18807,-491111261.55952,-118681221.88898,  -0.00092,  -0.00277,  -0.00258,477095107.84687,   0.00118,275927862.77894,  -0.00049,  -0.00113,  -0.00104,  -0.00000,   2.00000
-302764781.71758,-491245822.90945,-118679670.54670,  -0.00091,  -0.00278,  -0.00258,477099490.43759,   0.00119,275932379.47722,  -0.00049,  -0.00113,  -0.00104,   0.00000,   2.00000
-302032700.03234,-491374435.70178,-118679502.98732,  -0.00091,  -0.00279,  -0.00259,477099335.86973,   0.00119,275936879.94958,  -0.00049,  -0.00114,  -0.00105,   0.00000,   2.00000
-301292255.31220,-491509101.15484,-118672959.23573,  -0.00091,  -0.00279,  -0.00259,477089813.41219,   0.00120,275941328.10361,  -0.00049,  -0.00114,  -0.00105,   0.00000,   2.00000
-300539143.59732,-491646072.24977,-118664322.86174,  -0.00090,  -0.00280,  -0.00260,477102044.60742,   0.00120,275945808.09858,  -0.00049,  -0.00115,  -0.00105,  -0.00000,   2.00000
-299789289.76027,-491780982.29697,-118655154.64236,  -0.00090,  -0.00280,  -0.00260,477090234.88036,   0.00120,275950226.99136,  -0.00050,  -0.00115,  -0.00106,   0.00000,   2.00000
-299042853.22532,-491922116.22673,-118637636.03041,  -0.00090,  -0.00281,  -0.00260,477106279.02412,   0.00121,275954692.53459,  -0.00050,  -0.00115,  -0.00106,   0.00000,   2.00000
-298283485.32362,-492057177.90415,-118625846.26814,  -0.00089,  -0.00282,  -0.00261,477090700.33323,   0.00121,275959082.43098,  -0.00050,  -0.00116,  -0.00107,  -0.00000,   2.00000
-297527558.81714,-492198413.25285,-118605702.08470,  -0.00089,  -0.00282,  -0.00261,477106762.92853,   0.00122,275963519.20765,  -0.00050,  -0.00116,  -0.00107,  -0.00000,   2.00000
-296760888.78619,-492341525.57863,-118583256.62695,  -0.00089,  -0.00283,  -0.00262,477101321.92625,   0.00122,275967919.57227,  -0.00050,  -0.00117,  -0.00107,   0.00000,   2.00000
-295997497.03815,-492486637.31528,-118556383.87345,  -0.00088,  -0.00283,  -0.00262,477103460.69790,   0.00122,275972312.94304,  -0.00050,  -0.00117,  -0.00108,  -0.00000,   2.00000
-295235052.10829,-492625762.74582,-118533111.59903,  -0.00088,  -0.00284,  -0.00262,477095474.08954,   0.00123,275976660.15907,  -0.00050,  -0.00117,  -0.00108,   0.00000,   2.00000
-294461968.57145,-492770760.69679,-118503602.37388,  -0.00088,  -0.00285,  -0.00263,477104040.60607,   0.00123,275981025.47287,  -0.00050,  -0.00118,  -0.00109,   0.00000,   2.00000
-293692129.38079,-492917725.95580,-118469673.75884,  -0.00087,  -0.00285,  -0.00263,477106175.81879,   0.00124,275985383.89088,  -0.00050,  -0.00118,  -0.00109,   0.00000,   2.00000
-292909550.61047,-493066519.92574,-118433612.39470,  -0.00087,  -0.00286,  -0.00264,477118748.11400,   0.00124,275989775.91180,  -0.00050,  -0.00119,  -0.00110,   0.00000,   2.00000
-292131983.14846,-493217094.19510,-118392941.36145,  -0.00087,  -0.00287,  -0.00264,477103050.15117,   0.00124,275994091.79865,  -0.00050,  -0.00119,  -0.00110,  -0.00000,   2.00000
-291341323.67163,-493365359.91289,-118354040.14810,  -0.00086,  -0.00287,  -0.00264,477101646.80660,   0.00125,275998387.27469,  -0.00050,  -0.00119,  -0.00110,   0.00000,   2.00000
-290551800.17986,-493511604.29008,-118314827.09835,  -0.00086,  -0.00288,  -0.00265,477107672.54327,   0.00125,276002691.22615,  -0.00050,  -0.00120,  -0.00111,  -0.00000,   2.00000
-289767885.18602,-493667663.21362,-118263176.08141,  -0.00086,  -0.00288,  -0.00265,477119985.63223,   0.00126,276007027.97798,  -0.00050,  -0.00120,  -0.00111,   0.00000,   2.00000
-288970413.50523,-493817290.73876,-118217199.20306,  -0.00085,  -0.00289,  -0.00265,477104665.71874,   0.00126,276011290.17639,  -0.00050,  -0.00121,  -0.00112,   0.00000,   2.00000
-288162182.77151,-493972344.34401,-118164931.83366,  -0.00085,  -0.00290,  -0.00266,477113563.55637,   0.00126,276015572.14779,  -0.00050,  -0.00121,  -0.00112,   0.00000,   2.00000
-287371467.31420,-494129611.05680,-118106224.94408,  -0.00085,  -0.00290,  -0.00266,477123075.06137,   0.00127,276019876.14836,  -0.00050,  -0.00121,  -0.00112,   0.00000,   2.00000
-286567036.31704,-494280375.59507,-118053173.99117,  -0.00084,  -0.00291,  -0.00266,477107807.96985,   0.00127,276024105.82464,  -0.00050,  -0.00122,  -0.00113,   0.00000,   2.00000
-285751800.09896,-494436429.53818,-117993815.07222,  -0.00084,  -0.00291,  -0.00267,477116805.29381,   0.00128,276028355.79944,  -0.00050,  -0.00122,  -0.00113,   0.00000,   2.00000
-284939685.45313,-494594224.45663,-117930046.32983,  -0.00084,  -0.00292,  -0.00267,477119039.67652,   0.00128,276032599.67196,  -0.00050,  -0.00123,  -0.00114,   0.00000,   2.00000
-284130677.44650,-494753759.32303,-117861878.40220,  -0.00083,  -0.00293,  -0.00267,477121264.87106,   0.00128,276036837.40474,  -0.00051,  -0.00123,  -0.00114,   0.00000,   2.00000
-283308288.38308,-494910581.61989,-117795425.61738,  -0.00083,  -0.00293,  -0.00267,477120184.26546,   0.00129,276041056.18489,  -0.00051,  -0.00123,  -0.00114,   0.00000,   2.00000
-282488985.59215,-495069106.43210,-117724566.52573,  -0.00083,  -0.00294,  -0.00268,477122428.37263,   0.00129,276045269.00429,  -0.00051,  -0.00124,  -0.00115,   0.00000,   2.00000
-281658811.11873,-495232635.01499,-117647377.07547,  -0.00082,  -0.00295,  -0.00268,477131667.88754,   0.00130,276049503.15845,  -0.00051,  -0.00124,  -0.00115,   0.00000,   2.00000
-280831081.89365,-495393898.51098,-117569690.23461,  -0.00082,  -0.00295,  -0.00268,477119867.90297,   0.00130,276053676.53522,  -0.00051,  -0.00125,  -0.00115,   0.00000,   2.00000
-280004442.99922,-495552915.65955,-117491734.54681,  -0.00081,  -0.00296,  -0.00269,477125966.92352,   0.00130,276057859.14376,  -0.00051,  -0.00125,  -0.00116,   0.00000,   2.00000
-279166888.21976,-495716792.03920,-117407429.25699,  -0.00081,  -0.00296,  -0.00269,477135316.98839,   0.00131,276062063.65376,  -0.00051,  -0.00125,  -0.00116,  -0.00000,   2.00000
-278317717.06927,-495881558.32576,-117320660.44283,  -0.00081,  -0.00297,  -0.00269,477130645.21004,   0.00131,276066235.27875,  -0.00051,  -0.00126,  -0.00117,   0.00000,   2.00000
-277483599.58479,-496040838.76551,-117235589.84806,  -0.00080,  -0.00298,  -0.00269,477129678.19771,   0.00132,276070388.55728,  -0.00051,  -0.00126,  -0.00117,   0.00000,   2.00000
-276623817.09054,-496204089.17236,-117146062.48447,  -0.00080,  -0.00298,  -0.00270,477132187.56564,   0.00132,276074537.18631,  -0.00051,  -0.00126,  -0.00117,  -0.00000,   2.00000
-275781762.68785,-496369596.94090,-117050218.44725,  -0.00080,  -0.00299,  -0.00270,477141497.42942,   0.00132,276078707.69981,  -0.00051,  -0.00127,  -0.00118,  -0.00000,   2.00000
-274927934.37784,-496535852.31889,-116951885.51355,  -0.00079,  -0.00300,  -0.00270,477136941.06456,   0.00133,276082845.82861,  -0.00051,  -0.00127,  -0.00118,   0.00000,   2.00000
-274060402.37810,-496698895.97606,-116855183.77820,  -0.00079,  -0.00300,  -0.00270,477136265.65859,   0.00133,276086966.89894,  -0.00051,  -0.00128,  -0.00119,  -0.00000,   2.00000
-273212516.61131,-496868105.93125,-116748050.98486,  -0.00078,  -0.00301,  -0.00271,477141689.21856,   0.00133,276091094.75573,  -0.00051,  -0.00128,  -0.00119,  -0.00000,   2.00000
-272334158.45800,-497029311.16926,-116648564.65337,  -0.00078,  -0.00301,  -0.00271,477138050.42228,   0.00134,276095193.99512,  -0.00051,  -0.00128,  -0.00119,  -0.00000,   2.00000
-271476355.84241,-497200451.83773,-116534776.15819,  -0.00078,  -0.00302,  -0.00271,477157654.86527,   0.00134,276099355.66406,  -0.00051,  -0.00129,  -0.00120,   0.00000,   2.00000
-270603830.54820,-497364461.89549,-116426483.25258,  -0.00077,  -0.00303,  -0.00271,477142951.08482,   0.00135,276103445.17151,  -0.00051,  -0.00129,  -0.00120,   0.00000,   2.00000
-269719294.72294,-497528929.11121,-116315624.45231,  -0.00077,  -0.00303,  -0.00272,477138628.66779,   0.00135,276107503.46896,  -0.00051,  -0.00130,  -0.00120,   0.00000,   2.00000
-268838618.84891,-497698470.48878,-116196481.42570,  -0.00076,  -0.00304,  -0.00272,477155296.92250,   0.00135,276111612.95350,  -0.00051,  -0.00130,  -0.00121,   0.00000,   2.00000
-267960837.90608,-497869324.14039,-116072941.89962,  -0.00076,  -0.00305,  -0.00272,477157809.04364,   0.00136,276115717.89917,  -0.00051,  -0.00130,  -0.00121,  -0.00000,   2.00000
-267069130.32751,-498036608.52088,-115950982.23072,  -0.00076,  -0.00305,  -0.00272,477157457.65027,   0.00136,276119807.12079,  -0.00051,  -0.00131,  -0.00122,   0.00000,   2.00000
-266179250.00496,-498201464.51373,-115828475.34466,  -0.00075,  -0.00306,  -0.00272,477145759.57271,   0.00137,276123836.10065,  -0.00051,  -0.00131,  -0.00122,   0.00000,   2.00000
-265291495.21849,-498367442.01746,-115701867.45626,  -0.00075,  -0.00307,  -0.00273,477166277.04309,   0.00137,276127931.58547,  -0.00051,  -0.00132,  -0.00122,   0.00000,   2.00000
-264394398.05199,-498541125.11702,-115564624.26302,  -0.00074,  -0.00307,  -0.00273,477172711.17251,   0.00137,276132038.00826,  -0.00051,  -0.00132,  -0.00123,   0.00000,   2.00000
-263497254.03813,-498708474.74361,-115431008.20024,  -0.00074,  -0.00308,  -0.00273,477164869.32529,   0.00138,276136099.20759,  -0.00051,  -0.00132,  -0.00123,   0.00000,   2.00000
-262586045.11197,-498872047.48901,-115298923.54897,  -0.00073,  -0.00308,  -0.00273,477164699.15197,   0.00138,276140145.54648,  -0.00051,  -0.00133,  -0.00123,  -0.00000,   2.00000
-261679404.43315,-499040633.84433,-115158245.50714,  -0.00073,  -0.00309,  -0.00273,477163535.57961,   0.00138,276144173.12906,  -0.00051,  -0.00133,  -0.00124,  -0.00000,   2.00000
-260759835.61242,-499208961.06567,-115015240.71930,  -0.00073,  -0.00310,  -0.00274,477177729.29123,   0.00139,276148242.51100,  -0.00051,  -0.00133,  -0.00124,  -0.00000,   2.00000
-259857055.60351,-499375983.38417,-114869929.02015,  -0.00072,  -0.00310,  -0.00274,477172588.15139,   0.00139,276152277.35022,  -0.00051,  -0.00134,  -0.00124,   0.00000,   2.00000
-258927831.53706,-499545259.39296,-114719829.97207,  -0.00072,  -0.00311,  -0.00274,477176672.81730,   0.00140,276156314.16971,  -0.00051,  -0.00134,  -0.00125,   0.00000,   2.00000
-258014939.56722,-499713009.58305,-114567790.29906,  -0.00071,  -0.00312,  -0.00274,477189559.82421,   0.00140,276160387.62157,  -0.00051,  -0.00135,  -0.00125,   0.00000,   2.00000
-257074242.16997,-499879228.71262,-114414753.54894,  -0.00071,  -0.00312,  -0.00274,477179563.62651,   0.00140,276164407.40229,  -0.00051,  -0.00135,  -0.00125,  -0.00000,   2.00000
-256151617.94013,-500047753.08196,-114255599.59663,  -0.00070,  -0.00313,  -0.00274,477188678.37775,   0.00141,276168449.03243,  -0.00051,  -0.00135,  -0.00126,   0.00000,   2.00000
-255214717.47432,-500212121.14730,-114097918.65430,  -0.00070,  -0.00314,  -0.00275,477188872.18042,   0.00141,276172477.26645,  -0.00051,  -0.00136,  -0.00126,   0.00000,   2.00000
-254280558.06731,-500377465.43487,-113935818.86899,  -0.00069,  -0.00314,  -0.00275,477191665.65051,   0.00141,276176502.39696,  -0.00051,  -0.00136,  -0.00127,   0.00000,   2.00000
-253333726.93748,-500542361.76367,-113770964.75318,  -0.00069,  -0.00315,  -0.00275,477188218.39125,   0.00142,276180499.80120,  -0.00051,  -0.00137,  -0.00127,  -0.00000,   2.00000
-252391052.70856,-500711688.62452,-113597884.79764,  -0.00068,  -0.00316,  -0.00275,477205404.67429,   0.00142,276184551.10243,  -0.00051,  -0.00137,  -0.00127,   0.00000,   2.00000
-251447981.56557,-500874585.94873,-113428402.86488,  -0.00068,  -0.00316,  -0.00275,477197665.54415,   0.00143,276188557.56712,  -0.00051,  -0.00137,  -0.00128,   0.00000,   2.00000
-250493633.42369,-501040395.15158,-113252339.80720,  -0.00068,  -0.00317,  -0.00275,477208719.77889,   0.00143,276192593.70690,  -0.00051,  -0.00138,  -0.00128,   0.00000,   2.00000
-249541982.50058,-501207029.49381,-113071859.48112,  -0.00067,  -0.00317,  -0.00275,477211668.96494,   0.00143,276196627.33032,  -0.00051,  -0.00138,  -0.00128,   0.00000,   2.00000
-248574321.13250,-501365668.54077,-112896571.92964,  -0.00067,  -0.00318,  -0.00275,477197842.07511,   0.00144,276200592.06342,  -0.00051,  -0.00138,  -0.00129,   0.00000,   2.00000
-247626463.10120,-501530158.36469,-112711474.02218,  -0.00066,  -0.00319,  -0.00276,477221227.11510,   0.00144,276204635.47896,  -0.00051,  -0.00139,  -0.00129,   0.00000,   2.00000
-246650113.13394,-501692242.33537,-112525140.81069,  -0.00066,  -0.00319,  -0.00276,477212113.47675,   0.00144,276208628.58776,  -0.00051,  -0.00139,  -0.00129,   0.00000,   2.00000
-245692095.87563,-501856350.85786,-112333263.04424,  -0.00065,  -0.00320,  -0.00276,477239251.85666,   0.00145,276212715.24379,  -0.00051,  -0.00140,  -0.00130,  -0.00000,   2.00000
-244721004.76087,-502019860.88700,-112138074.53195,  -0.00065,  -0.00321,  -0.00276,477218263.57028,   0.00145,276216704.25259,  -0.00051,  -0.00140,  -0.00130,  -0.00000,   2.00000
-243733777.75111,-502174851.79744,-111948484.71115,  -0.00064,  -0.00321,  -0.00276,477222705.67451,   0.00146,276220696.90615,  -0.00051,  -0.00140,  -0.00130,  -0.00000,   2.00000
-242768140.49205,-502339389.53375,-111744923.10905,  -0.00064,  -0.00322,  -0.00276,477242488.29357,   0.00146,276224754.02275,  -0.00051,  -0.00141,  -0.00131,   0.00000,   2.00000
-241770422.73945,-502493937.04968,-111548003.13909,  -0.00063,  -0.00323,  -0.00276,477223064.80134,   0.00146,276228719.74687,  -0.00051,  -0.00141,  -0.00131,   0.00000,   2.00000
-240792836.07996,-502654246.57903,-111341376.34237,  -0.00063,  -0.00323,  -0.00276,477246515.62542,   0.00147,276232764.69328,  -0.00051,  -0.00142,  -0.00131,   0.00000,   2.00000
-239802102.37436,-502813350.26526,-111131844.01916,  -0.00062,  -0.00324,  -0.00276,477243872.21797,   0.00147,276236784.88534,  -0.00051,  -0.00142,  -0.00132,  -0.00000,   2.00000
-238812473.14173,-502969276.83158,-110922139.51031,  -0.00062,  -0.00325,  -0.00276,477250739.67846,   0.00147,276240818.23247,  -0.00051,  -0.00142,  -0.00132,  -0.00000,   2.00000
-237809631.00987,-503123884.65130,-110709495.23813,  -0.00061,  -0.00325,  -0.00276,477248210.83288,   0.00148,276244827.32533,  -0.00051,  -0.00143,  -0.00132,  -0.00000,   2.00000
-236823739.69253,-503277180.18016,-110495201.71484,  -0.00061,  -0.00326,  -0.00276,477260856.47210,   0.00148,276248872.61377,  -0.00051,  -0.00143,  -0.00133,  -0.00000,   2.00000
-235810169.35032,-503430867.65734,-110275151.70798,  -0.00060,  -0.00327,  -0.00276,477249080.98494,   0.00149,276252856.76146,  -0.00051,  -0.00144,  -0.00133,   0.00000,   2.00000
-234815563.55100,-503586557.44984,-110049775.97641,  -0.00060,  -0.00327,  -0.00276,477276193.31495,   0.00149,276256934.88184,  -0.00051,  -0.00144,  -0.00133,   0.00000,   2.00000
-233804187.35379,-503733712.30563,-109829396.71636,  -0.00059,  -0.00328,  -0.00277,477263033.03822,   0.00149,276260946.16113,  -0.00051,  -0.00144,  -0.00134,  -0.00000,   2.00000
-232798827.86181,-503888286.65768,-109596613.71406,  -0.00059,  -0.00329,  -0.00277,477277299.61438,   0.00150,276265000.17344,  -0.00051,  -0.00145,  -0.00134,   0.00000,   2.00000
-231778641.67528,-504037509.04836,-109365112.90294,  -0.00058,  -0.00329,  -0.00277,477278737.66116,   0.00150,276269045.62938,  -0.00051,  -0.00145,  -0.00134,   0.00000,   2.00000
-230757512.75586,-504180121.20515,-109137133.63293,  -0.00058,  -0.00330,  -0.00277,477271287.95958,   0.00150,276273047.07941,  -0.00051,  -0.00145,  -0.00135,   0.00000,   2.00000
-229742432.46302,-504330033.37723,-108896753.82351,  -0.00057,  -0.00331,  -0.00277,477285666.57196,   0.00151,276277091.81521,  -0.00051,  -0.00146,  -0.00135,   0.00000,   2.00000
-228714613.07490,-504477711.52257,-108653973.20396,  -0.00057,  -0.00331,  -0.00277,477301772.63416,   0.00151,276281186.63273,  -0.00051,  -0.00146,  -0.00135,  -0.00000,   2.00000
-227685792.11557,-504618742.35573,-108414713.85542,  -0.00056,  -0.00332,  -0.00277,477294417.81055,   0.00152,276285237.58291,  -0.00051,  -0.00147,  -0.00136,   0.00000,   2.00000
-226659503.70520,-504760054.34225,-108171016.82589,  -0.00056,  -0.00333,  -0.00277,477297984.32620,   0.00152,276289288.47445,  -0.00051,  -0.00147,  -0.00136,   0.00000,   2.00000
-225637981.82191,-504904861.05144,-107919255.08141,  -0.00055,  -0.00333,  -0.00277,477316110.41386,   0.00152,276293397.54641,  -0.00051,  -0.00147,  -0.00136,   0.00000,   2.00000
-224600574.70685,-505044415.52322,-107668047.10219,  -0.00055,  -0.00334,  -0.00277,477299845.26822,   0.00153,276297426.96265,  -0.00051,  -0.00148,  -0.00137,   0.00000,   2.00000
-223550482.72431,-505181440.43254,-107414423.51852,  -0.00054,  -0.00335,  -0.00277,477316238.69180,   0.00153,276301507.81953,  -0.00051,  -0.00148,  -0.00137,   0.00000,   2.00000
-222519097.24687,-505320919.67012,-107155041.87473,  -0.00054,  -0.00335,  -0.00277,477325305.61041,   0.00153,276305610.53633,  -0.00051,  -0.00149,  -0.00137,   0.00000,   2.00000
-221474008.90591,-505458197.09479,-106892548.59503,  -0.00053,  -0.00336,  -0.00277,477323767.81639,   0.00154,276309692.55481,  -0.00051,  -0.00149,  -0.00138,  -0.00000,   2.00000
-220430125.08730,-505591976.55184,-106629954.72546,  -0.00052,  -0.00337,  -0.00277,477331051.72305,   0.00154,276313789.32317,  -0.00051,  -0.00150,  -0.00138,   0.00000,   2.00000
-219388740.11773,-505725863.27400,-106362934.00690,  -0.00052,  -0.00337,  -0.00277,477334849.89928,   0.00155,276317886.79170,  -0.00051,  -0.00150,  -0.00138,   0.00000,   2.00000
-218332291.48445,-505853806.85440,-106097100.71794,  -0.00051,  -0.00338,  -0.00277,477336963.45696,   0.00155,276321978.23484,  -0.00051,  -0.00150,  -0.00139,  -0.00000,   2.00000
-217280833.86157,-505984944.44334,-105823260.48740,  -0.00051,  -0.00339,  -0.00277,477355433.25108,   0.00155,276326129.34565,  -0.00051,  -0.00151,  -0.00139,   0.00000,   2.00000
-216229347.38511,-506112959.40026,-105548563.51239,  -0.00050,  -0.00339,  -0.00277,477344770.64872,   0.00156,276330222.85784,  -0.00051,  -0.00151,  -0.00139,  -0.00000,   2.00000
-215166537.43450,-506241564.37229,-105267124.87474,  -0.00050,  -0.00340,  -0.00277,477358202.05027,   0.00156,276334355.84306,  -0.00051,  -0.00152,  -0.00140,   0.00000,   2.00000
-214104985.65235,-506366556.48391,-104985618.78375,  -0.00049,  -0.00341,  -0.00277,477365664.84164,   0.00157,276338504.16481,  -0.00051,  -0.00152,  -0.00140,   0.00000,   2.00000
-213044708.41829,-506487958.78361,-104704053.50159,  -0.00049,  -0.00341,  -0.00276,477373127.84645,   0.00157,276342667.77225,  -0.00051,  -0.00152,  -0.00140,   0.00000,   2.00000
-211988118.84411,-506612837.69232,-104413703.76937,  -0.00048,  -0.00342,  -0.00276,477373746.95903,   0.00157,276346819.03585,  -0.00050,  -0.00153,  -0.00141,   0.00000,   2.00000
-210916355.57948,-506731429.10135,-104124506.44278,  -0.00048,  -0.00343,  -0.00276,477376271.16916,   0.00158,276350965.70936,  -0.00050,  -0.00153,  -0.00141,   0.00000,   2.00000
-209848610.48689,-506849465.98736,-103831754.64603,  -0.00047,  -0.00343,  -0.00276,477398441.48782,   0.00158,276355186.96672,  -0.00050,  -0.00154,  -0.00141,   0.00000,   2.00000
-208780603.21164,-506964290.25973,-103538092.42123,  -0.00046,  -0.00344,  -0.00276,477387982.78534,   0.00158,276359351.01083,  -0.00050,  -0.00154,  -0.00142,   0.00000,   2.00000
-207701333.17761,-507079258.69873,-103237683.09208,  -0.00046,  -0.00345,  -0.00276,477401936.92425,   0.00159,276363556.51795,  -0.00050,  -0.00154,  -0.00142,   0.00000,   2.00000
-206621713.83575,-507190942.14765,-102936335.90450,  -0.00045,  -0.00345,  -0.00276,477391545.68945,   0.00159,276367705.10274,  -0.00050,  -0.00155,  -0.00142,   0.00000,   2.00000
-205546262.50321,-507301985.59576,-102631494.51937,  -0.00045,  -0.00346,  -0.00276,477413807.22830,   0.00160,276371928.77059,  -0.00050,  -0.00155,  -0.00143,   0.00000,   2.00000
-204472162.93647,-507409345.97428,-102326650.76877,  -0.00044,  -0.00347,  -0.00276,477421463.32246,   0.00160,276376168.27995,  -0.00050,  -0.00156,  -0.00143,   0.00000,   2.00000
-203383933.92359,-507513572.55483,-102018516.21512,  -0.00044,  -0.00347,  -0.00276,477421056.32136,   0.00160,276380391.02380,  -0.00050,  -0.00156,  -0.00143,   0.00000,   2.00000
-202317757.38829,-507623484.65257,-101701434.31482,  -0.00043,  -0.00348,  -0.00276,477444814.79423,   0.00161,276384694.69325,  -0.00050,  -0.00157,  -0.00144,  -0.00000,   2.00000
-201234418.82555,-507727132.45203,-101384495.18486,  -0.00043,  -0.00349,  -0.00276,477429877.30967,   0.00161,276388922.53991,  -0.00050,  -0.00157,  -0.00144,  -0.00000,   2.00000
-200138806.61982,-507827034.54690,-101065235.94630,  -0.00042,  -0.00349,  -0.00276,477447685.85206,   0.00162,276393207.36032,  -0.00050,  -0.00157,  -0.00144,   0.00000,   2.00000
-199059309.55318,-507926602.57713,-100743917.74657,  -0.00041,  -0.00350,  -0.00275,477442108.00521,   0.00162,276397454.23482,  -0.00050,  -0.00158,  -0.00145,  -0.00000,   2.00000
-197967579.53227,-508022362.95949,-100420298.62792,  -0.00041,  -0.00351,  -0.00275,477460001.27499,   0.00162,276401758.39203,  -0.00050,  -0.00158,  -0.00145,   0.00000,   2.00000
-196878325.40201,-508117736.13495,-100092290.06970,  -0.00040,  -0.00352,  -0.00275,477464573.38453,   0.00163,276406065.64662,  -0.00050,  -0.00159,  -0.00145,  -0.00000,   2.00000
-195790508.67395,-508209336.02997,-99764340.56737,  -0.00040,  -0.00352,  -0.00275,477472433.08495,   0.00163,276410389.31493,  -0.00050,  -0.00159,  -0.00145,   0.00000,   2.00000
-194705162.40406,-508300547.81536,-99432012.39089,  -0.00039,  -0.00353,  -0.00275,477477034.34241,   0.00164,276414716.11195,  -0.00050,  -0.00160,  -0.00146,  -0.00000,   2.00000
-193608703.78502,-508391098.82004,-99092968.99506,  -0.00038,  -0.00354,  -0.00275,477491969.03562,   0.00164,276419087.98362,  -0.00050,  -0.00160,  -0.00146,   0.00000,   2.00000
-192510472.41037,-508474856.43008,-98757354.56521,  -0.00038,  -0.00354,  -0.00275,477485220.85363,   0.00164,276423416.75369,  -0.00049,  -0.00160,  -0.00146,   0.00000,   2.00000
-191417996.29539,-508561097.30601,-98414030.82999,  -0.00037,  -0.00355,  -0.00275,477504671.77345,   0.00165,276427808.96097,  -0.00049,  -0.00161,  -0.00147,  -0.00000,   2.00000
-190327025.10592,-508643523.40011,-98070818.78644,  -0.00037,  -0.00356,  -0.00275,477512675.04682,   0.00165,276432217.87232,  -0.00049,  -0.00161,  -0.00147,   0.00000,   2.00000
-189238535.81600,-508725464.06458,-97723254.67260,  -0.00036,  -0.00356,  -0.00274,477517475.76301,   0.00166,276436630.39803,  -0.00049,  -0.00162,  -0.00147,  -0.00000,   2.00000
-188135617.59183,-508803512.85063,-97372296.27886,  -0.00036,  -0.00357,  -0.00274,477518039.21897,   0.00166,276441029.32117,  -0.00049,  -0.00162,  -0.00148,  -0.00000,   2.00000
-187034230.67012,-508877701.73469,-97021463.22480,  -0.00035,  -0.00358,  -0.00274,477526112.66516,   0.00167,276445445.24515,  -0.00049,  -0.00163,  -0.00148,  -0.00000,   2.00000
-185935318.97258,-508951325.33064,-96666275.86911,  -0.00034,  -0.00358,  -0.00274,477531018.27788,   0.00167,276449865.20261,  -0.00049,  -0.00163,  -0.00148,   0.00000,   2.00000
-184841454.29029,-509024023.77462,-96307978.52540,  -0.00034,  -0.00359,  -0.00274,477553880.42023,   0.00167,276454362.30934,  -0.00049,  -0.00164,  -0.00149,  -0.00000,   2.00000
-183746554.00817,-509093232.35376,-95948602.57041,  -0.00033,  -0.00360,  -0.00274,477544101.02399,   0.00168,276458803.28738,  -0.00049,  -0.00164,  -0.00149,  -0.00000,   2.00000
-182639787.85764,-509157966.13575,-95587058.36959,  -0.00033,  -0.00361,  -0.00274,477562890.83471,   0.00168,276463304.83089,  -0.00049,  -0.00165,  -0.00149,   0.00000,   2.00000
-181552541.38389,-509225648.25279,-95220297.14453,  -0.00032,  -0.00361,  -0.00273,477572040.35865,   0.00169,276467827.35894,  -0.00049,  -0.00165,  -0.00150,   0.00000,   2.00000
-180450739.63702,-509289099.55767,-94850104.46997,  -0.00031,  -0.00362,  -0.00273,477573075.56985,   0.00169,276472337.72113,  -0.00049,  -0.00165,  -0.00150,   0.00000,   2.00000
-179350558.86137,-509348675.44047,-94480115.47151,  -0.00031,  -0.00363,  -0.00273,477581307.50342,   0.00169,276476865.33539,  -0.00049,  -0.00166,  -0.00150,   0.00000,   2.00000
-178255718.35220,-509407284.31380,-94107156.64860,  -0.00030,  -0.00363,  -0.00273,477604346.87004,   0.00170,276481470.61084,  -0.00048,  -0.00166,  -0.00151,   0.00000,   2.00000
-177159660.24906,-509462353.10514,-93733078.75038,  -0.00030,  -0.00364,  -0.00273,477594759.73921,   0.00170,276486019.96415,  -0.00048,  -0.00167,  -0.00151,   0.00000,   2.00000
-176052746.42659,-509515858.95579,-93352371.72939,  -0.00029,  -0.00365,  -0.00273,477610867.09438,   0.00171,276490618.64557,  -0.00048,  -0.00167,  -0.00151,   0.00000,   2.00000
-174964654.95634,-509569259.27820,-92971094.02845,  -0.00028,  -0.00366,  -0.00272,477623098.64858,   0.00171,276495250.58903,  -0.00048,  -0.00168,  -0.00151,   0.00000,   2.00000
-173861921.51997,-509618140.99274,-92586355.21451,  -0.00028,  -0.00366,  -0.00272,477624556.41387,   0.00172,276499871.63146,  -0.00048,  -0.00168,  -0.00152,   0.00000,   2.00000
-172760899.39835,-509663141.54671,-92201888.46314,  -0.00027,  -0.00367,  -0.00272,477632939.20852,   0.00172,276504510.15378,  -0.00048,  -0.00169,  -0.00152,   0.00000,   2.00000
-171679573.40565,-509711294.94549,-91812355.38607,  -0.00027,  -0.00368,  -0.00272,477642072.79713,   0.00172,276509169.11229,  -0.00048,  -0.00169,  -0.00152,   0.00000,   2.00000
-170582761.95649,-509751714.94163,-91423913.76122,  -0.00026,  -0.00368,  -0.00272,477646684.83935,   0.00173,276513829.95470,  -0.00048,  -0.00170,  -0.00153,  -0.00000,   2.00000
-169475220.27579,-509790258.50542,-91028894.59267,  -0.00025,  -0.00369,  -0.00271,477663243.41946,   0.00173,276518541.66672,  -0.00048,  -0.00170,  -0.00153,  -0.00000,   2.00000
-168383442.72902,-509829121.33182,-90631926.80383,  -0.00025,  -0.00370,  -0.00271,477657612.86783,   0.00174,276523213.03207,  -0.00048,  -0.00171,  -0.00153,  -0.00000,   2.00000
-167297455.66783,-509866981.54415,-90232238.25722,  -0.00024,  -0.00370,  -0.00271,477680879.77793,   0.00174,276527962.72960,  -0.00048,  -0.00171,  -0.00154,   0.00000,   2.00000
-166195987.91947,-509896946.82452,-89833647.34481,  -0.00024,  -0.00371,  -0.00271,477685765.39910,   0.00175,276532715.09172,  -0.00047,  -0.00172,  -0.00154,   0.00000,   2.00000
-165114346.86514,-509930187.93740,-89430089.88359,  -0.00023,  -0.00372,  -0.00271,477694931.45185,   0.00175,276537487.62530,  -0.00047,  -0.00172,  -0.00154,   0.00000,   2.00000
-164021354.73563,-509958317.59354,-89024622.54094,  -0.00022,  -0.00373,  -0.00270,477714755.49722,   0.00176,276542324.07775,  -0.00047,  -0.00173,  -0.00155,  -0.00000,   2.00000
-162944061.58802,-509986951.11010,-88617238.17772,  -0.00022,  -0.00373,  -0.00270,477709093.55301,   0.00176,276547119.43872,  -0.00047,  -0.00173,  -0.00155,   0.00000,   2.00000
-161856162.91732,-510013403.28830,-88203365.11562,  -0.00021,  -0.00374,  -0.00270,477726111.89426,   0.00176,276551967.12272,  -0.00047,  -0.00174,  -0.00155,   0.00000,   2.00000
-160765876.86997,-510033185.35817,-87792883.57402,  -0.00021,  -0.00375,  -0.00270,477719875.28598,   0.00177,276556771.30244,  -0.00047,  -0.00174,  -0.00155,   0.00000,   2.00000
-159681725.13506,-510051973.92682,-87379860.30674,  -0.00020,  -0.00376,  -0.00269,477743320.32341,   0.00177,276561654.25394,  -0.00047,  -0.00175,  -0.00156,   0.00000,   2.00000
-158600128.75681,-510069909.78584,-86962653.95439,  -0.00019,  -0.00376,  -0.00269,477749103.77774,   0.00178,276566542.98426,  -0.00047,  -0.00175,  -0.00156,   0.00000,   2.00000
-157538472.12703,-510091315.03124,-86540616.08192,  -0.00019,  -0.00377,  -0.00269,477758248.12612,   0.00178,276571451.25431,  -0.00047,  -0.00176,  -0.00156,   0.00000,   2.00000
-156465661.12169,-510107407.58564,-86116802.09620,  -0.00018,  -0.00378,  -0.00269,477778436.89295,   0.00179,276576424.53531,  -0.00046,  -0.00176,  -0.00157,   0.00000,   2.00000
-155372939.95362,-510112501.17868,-85697022.20038,  -0.00018,  -0.00378,  -0.00268,477769000.82269,   0.00179,276581340.54474,  -0.00046,  -0.00177,  -0.00157,   0.00000,   2.00000
-154304675.13500,-510123924.59760,-85269557.51658,  -0.00017,  -0.00379,  -0.00268,477793046.43005,   0.00180,276586337.47619,  -0.00046,  -0.00177,  -0.00157,   0.00000,   2.00000
-153238970.63865,-510134454.95459,-84837963.70700,  -0.00016,  -0.00380,  -0.00268,477799001.00431,   0.00180,276591340.40340,  -0.00046,  -0.00178,  -0.00158,   0.00000,   2.00000
-152175210.56217,-510141221.37400,-84406908.24791,  -0.00016,  -0.00381,  -0.00268,477807748.82349,   0.00181,276596360.82903,  -0.00046,  -0.00178,  -0.00158,  -0.00000,   2.00000
-151113408.83461,-510144254.85231,-83976400.41903,  -0.00015,  -0.00381,  -0.00267,477816494.41517,   0.00181,276601398.67851,  -0.00046,  -0.00179,  -0.00158,  -0.00000,   2.00000
-150054167.32420,-510146406.05959,-83541779.01523,  -0.00015,  -0.00382,  -0.00267,477822501.31447,   0.00182,276606442.56583,  -0.00046,  -0.00179,  -0.00159,  -0.00000,   2.00000
-149001513.99139,-510147645.85498,-83104921.90679,  -0.00014,  -0.00383,  -0.00267,477846165.28977,   0.00182,276611565.41462,  -0.00046,  -0.00180,  -0.00159,  -0.00000,   2.00000
-147946788.73663,-510145192.52346,-82666776.67043,  -0.00013,  -0.00384,  -0.00267,477837368.01129,   0.00183,276616632.76080,  -0.00045,  -0.00180,  -0.00159,   0.00000,   2.00000
-146881196.45528,-510137174.80903,-82227011.12005,  -0.00013,  -0.00384,  -0.00266,477858036.12893,   0.00183,276621766.68215,  -0.00045,  -0.00181,  -0.00159,   0.00000,   2.00000
-145835748.86239,-510132907.97642,-81782609.19209,  -0.00012,  -0.00385,  -0.00266,477867225.35535,   0.00183,276626919.39445,  -0.00045,  -0.00181,  -0.00160,   0.00000,   2.00000
-144792321.33588,-510124972.52821,-81338846.15779,  -0.00011,  -0.00386,  -0.00266,477876071.84131,   0.00184,276632089.40840,  -0.00045,  -0.00182,  -0.00160,   0.00000,   2.00000
-143750926.58814,-510113399.79121,-80895730.89970,  -0.00011,  -0.00387,  -0.00265,477884915.70750,   0.00184,276637276.64742,  -0.00045,  -0.00182,  -0.00160,   0.00000,   2.00000
-142716914.64119,-510103726.17234,-80445849.24904,  -0.00010,  -0.00387,  -0.00265,477906042.91306,   0.00185,276642531.90154,  -0.00045,  -0.00183,  -0.00161,   0.00000,   2.00000
-141680639.57674,-510090336.79567,-79994645.51031,  -0.00010,  -0.00388,  -0.00265,477897419.31366,   0.00185,276647731.65833,  -0.00045,  -0.00184,  -0.00161,  -0.00000,   2.00000
-140651286.42084,-510076118.62169,-79541443.07657,  -0.00009,  -0.00389,  -0.00265,477921216.90356,   0.00186,276653010.48396,  -0.00045,  -0.00184,  -0.00161,  -0.00000,   2.00000
-139624010.14091,-510058304.00703,-79088956.72393,  -0.00008,  -0.00389,  -0.00264,477930149.16221,   0.00186,276658306.45260,  -0.00044,  -0.00185,  -0.00162,   0.00000,   2.00000
-138599313.25023,-510039574.53390,-78632464.64030,  -0.00008,  -0.00390,  -0.00264,477936503.12381,   0.00187,276663608.79507,  -0.00044,  -0.00185,  -0.00162,   0.00000,   2.00000
-137576704.56965,-510017272.91453,-78176711.18652,  -0.00007,  -0.00391,  -0.00264,477945448.29591,   0.00187,276668928.23642,  -0.00044,  -0.00186,  -0.00162,   0.00000,   2.00000
-136579330.98482,-510001837.62049,-77713868.43065,  -0.00007,  -0.00392,  -0.00263,477969482.38537,   0.00188,276674327.27668,  -0.00044,  -0.00186,  -0.00162,   0.00000,   2.00000
-135561341.66461,-509975077.32205,-77254895.51165,  -0.00006,  -0.00392,  -0.00263,477960840.71019,   0.00188,276679669.99632,  -0.00044,  -0.00187,  -0.00163,  -0.00000,   2.00000
-134550530.35621,-509947592.60087,-76794104.15819,  -0.00005,  -0.00393,  -0.00263,477984733.05623,   0.00189,276685091.73313,  -0.00044,  -0.00187,  -0.00163,   0.00000,   2.00000
-133559998.49164,-509924277.95801,-76328905.58491,  -0.00005,  -0.00394,  -0.00263,477993860.71199,   0.00189,276690530.78128,  -0.00043,  -0.00188,  -0.00163,  -0.00000,   2.00000
-132554315.59199,-509894945.00675,-75860216.59511,  -0.00004,  -0.00395,  -0.00262,477997770.27990,   0.00190,276695965.42438,  -0.00043,  -0.00189,  -0.00164,   0.00000,   2.00000
-131568048.62417,-509864720.81435,-75396689.38191,  -0.00004,  -0.00395,  -0.00262,478011840.03835,   0.00190,276701437.88253,  -0.00043,  -0.00189,  -0.00164,   0.00000,   2.00000
-130589952.94170,-509838946.96945,-74921937.76996,  -0.00003,  -0.00396,  -0.00262,478030847.33985,   0.00191,276706968.52602,  -0.00043,  -0.00190,  -0.00164,   0.00000,   2.00000
-129608350.18656,-509804431.30701,-74455359.64779,  -0.00002,  -0.00397,  -0.00261,478027409.88973,   0.00192,276712463.75534,  -0.00043,  -0.00190,  -0.00164,   0.00000,   2.00000
-128634546.95251,-509771836.67382,-73982373.77293,  -0.00002,  -0.00398,  -0.00261,478048918.04497,   0.00192,276718027.52049,  -0.00043,  -0.00191,  -0.00165,   0.00000,   2.00000
-127662895.72445,-509735863.60019,-73510291.78132,  -0.00001,  -0.00398,  -0.00261,478057980.80956,   0.00193,276723607.73985,  -0.00042,  -0.00191,  -0.00165,   0.00000,   2.00000
-126693801.40497,-509698999.80194,-73034327.32029,  -0.00001,  -0.00399,  -0.00260,478064648.25681,   0.00193,276729194.36269,  -0.00042,  -0.00192,  -0.00165,   0.00000,   2.00000
-125744637.06769,-509664115.47115,-72558898.67200,   0.00000,  -0.00400,  -0.00260,478076103.58146,   0.00194,276734807.26020,  -0.00042,  -0.00193,  -0.00166,   0.00000,   2.00000
