# sigma_xx, sigma_yy, sigma_xy, epsilon_xx, epsilon_yy, epsilon_xy, vonMises, epsPlastic, hardening, epsilonP__xx, epsilonP__yy, epsilonP__xy, yieldValue, iteration
   0.00000,   0.00000,   0.00000,   0.00000,   0.00000,   0.00000,1181185.37500,   0.00000,274640576.00000,   0.00000,   0.00000,   0.00000,-473459392.00000,   0.00000
   0.00000,   0.00000,   0.00000,   0.00000,   0.00000,   0.00000,1181185.37500,   0.00000,274640576.00000,   0.00000,   0.00000,   0.00000,-473459392.00000,   0.00000
3285018.20612,3443332.33654,580485.14486,   0.00001,   0.00001,   0.00001,4196260.50000,   0.00000,274640576.00000,   0.00000,   0.00000,   0.00000,-470444320.00000,   0.00000
6539253.10911,6873471.82888,1152175.06025,   0.00002,   0.00002,   0.00001,7041146.00000,   0.00000,274640576.00000,   0.00000,   0.00000,   0.00000,-467599424.00000,   0.00000
9793488.01210,10303611.32122,1723864.97564,   0.00002,   0.00003,   0.00002,10761101.00000,   0.00000,274640576.00000,   0.00000,   0.00000,   0.00000,-463879472.00000,   0.00000
13065313.37403,13716160.35462,2295554.89103,   0.00003,   0.00004,   0.00003,14502186.00000,   0.00000,274640576.00000,   0.00000,   0.00000,   0.00000,-460138384.00000,   0.00000
16293162.58861,17084733.24069,2867244.80642,   0.00004,   0.00005,   0.00004,18034108.00000,   0.00000,274640576.00000,   0.00000,   0.00000,   0.00000,-456606464.00000,   0.00000
19564987.95054,20497282.27409,3438934.72181,   0.00005,   0.00006,   0.00004,21527216.00000,   0.00000,274640576.00000,   0.00000,   0.00000,   0.00000,-453113360.00000,   0.00000
22792837.16512,23865855.16016,4010624.63720,   0.00006,   0.00006,   0.00005,24976654.00000,   0.00000,274640576.00000,   0.00000,   0.00000,   0.00000,-449663920.00000,   0.00000
26020686.37971,27234428.04623,4573519.32312,   0.00007,   0.00007,   0.00006,28439330.00000,   0.00000,274640576.00000,   0.00000,   0.00000,   0.00000,-446201248.00000,   0.00000
29266126.05323,30585410.47336,5136414.00904,   0.00007,   0.00008,   0.00007,31905288.00000,   0.00000,274640576.00000,   0.00000,   0.00000,   0.00000,-442735296.00000,   0.00000
32480782.42361,33923200.05629,5699308.69496,   0.00008,   0.00009,   0.00007,35342948.00000,   0.00000,274640576.00000,   0.00000,   0.00000,   0.00000,-439297632.00000,   0.00000
35726222.09713,37274182.48342,6262203.38089,   0.00009,   0.00010,   0.00008,38788004.00000,   0.00000,274640576.00000,   0.00000,   0.00000,   0.00000,-435852576.00000,   0.00000
38927685.62332,40581188.76321,6825098.06681,   0.00010,   0.00011,   0.00009,42179388.00000,   0.00000,274640576.00000,   0.00000,   0.00000,   0.00000,-432461184.00000,   0.00000
42142341.99370,43918978.34615,7379197.52326,   0.00011,   0.00012,   0.00010,45579612.00000,   0.00000,274640576.00000,   0.00000,   0.00000,   0.00000,-429060960.00000,   0.00000
45361395.97882,47208394.16700,7933296.97972,   0.00011,   0.00013,   0.00010,48952020.00000,   0.00000,274640576.00000,   0.00000,   0.00000,   0.00000,-425688560.00000,   0.00000
48562859.50500,50515400.44680,8496191.66564,   0.00012,   0.00014,   0.00011,52325156.00000,   0.00000,274640576.00000,   0.00000,   0.00000,   0.00000,-422315424.00000,   0.00000
51751130.18699,53791623.42346,9050291.12210,   0.00013,   0.00014,   0.00012,55668592.00000,   0.00000,274640576.00000,   0.00000,   0.00000,   0.00000,-418971984.00000,   0.00000
54956991.32790,57050255.94118,9595595.34908,   0.00014,   0.00015,   0.00012,59003636.00000,   0.00000,274640576.00000,   0.00000,   0.00000,   0.00000,-415636944.00000,   0.00000
58145262.00989,60326478.91783,10149694.80554,   0.00015,   0.00016,   0.00013,62342148.00000,   0.00000,274640576.00000,   0.00000,   0.00000,   0.00000,-412298432.00000,   0.00000
61337930.30660,63554328.13242,10694999.03252,   0.00016,   0.00017,   0.00014,65653496.00000,   0.00000,274640576.00000,   0.00000,   0.00000,   0.00000,-408987072.00000,   0.00000
64513008.14438,66799767.80594,11249098.48898,   0.00016,   0.00018,   0.00015,68971912.00000,   0.00000,274640576.00000,   0.00000,   0.00000,   0.00000,-405668672.00000,   0.00000
67705676.44110,70027617.02053,11794402.71597,   0.00017,   0.00019,   0.00015,72287680.00000,   0.00000,274640576.00000,   0.00000,   0.00000,   0.00000,-402352896.00000,   0.00000
70867561.43468,73242273.39091,12339706.94295,   0.00018,   0.00020,   0.00016,75586504.00000,   0.00000,274640576.00000,   0.00000,   0.00000,   0.00000,-399054080.00000,   0.00000
74060229.73139,76470122.60550,12885011.16994,   0.00019,   0.00020,   0.00017,78909016.00000,   0.00000,274640576.00000,   0.00000,   0.00000,   0.00000,-395731552.00000,   0.00000
77208921.88077,79653995.67275,13421520.16746,   0.00020,   0.00021,   0.00017,82188400.00000,   0.00000,274640576.00000,   0.00000,   0.00000,   0.00000,-392452176.00000,   0.00000
80388397.33329,82851061.58420,13966824.39445,   0.00020,   0.00022,   0.00018,85494896.00000,   0.00000,274640576.00000,   0.00000,   0.00000,   0.00000,-389145680.00000,   0.00000
83554679.94160,86017344.19251,14503333.39197,   0.00021,   0.00023,   0.00019,88778176.00000,   0.00000,274640576.00000,   0.00000,   0.00000,   0.00000,-385862400.00000,   0.00000
86690179.24678,89170433.95662,15039842.38949,   0.00022,   0.00024,   0.00020,92043400.00000,   0.00000,274640576.00000,   0.00000,   0.00000,   0.00000,-382597184.00000,   0.00000
89856461.85509,92336716.56494,15576351.38701,   0.00023,   0.00024,   0.00020,95332232.00000,   0.00000,274640576.00000,   0.00000,   0.00000,   0.00000,-379308352.00000,   0.00000
93022744.46340,95502999.17325,16112860.38453,   0.00024,   0.00025,   0.00021,98624992.00000,   0.00000,274640576.00000,   0.00000,   0.00000,   0.00000,-376015584.00000,   0.00000
96175834.22751,98638498.47843,16640574.15258,   0.00025,   0.00026,   0.00022,101896616.00000,   0.00000,274640576.00000,   0.00000,   0.00000,   0.00000,-372743968.00000,   0.00000
99284947.84429,101730021.63626,17177083.15010,   0.00025,   0.00027,   0.00022,105135608.00000,   0.00000,274640576.00000,   0.00000,   0.00000,   0.00000,-369504960.00000,   0.00000
102438037.60840,104865520.94144,17704796.91815,   0.00026,   0.00028,   0.00023,108417128.00000,   0.00000,274640576.00000,   0.00000,   0.00000,   0.00000,-366223456.00000,   0.00000
105577934.52831,107970236.94348,18232510.68620,   0.00027,   0.00029,   0.00024,111681048.00000,   0.00000,274640576.00000,   0.00000,   0.00000,   0.00000,-362959520.00000,   0.00000
108704638.60402,111044169.64239,18760224.45426,   0.00028,   0.00029,   0.00024,114925304.00000,   0.00000,274640576.00000,   0.00000,   0.00000,   0.00000,-359715264.00000,   0.00000
111831342.67973,114118102.34129,19287938.22231,   0.00029,   0.00030,   0.00025,118168352.00000,   0.00000,274640576.00000,   0.00000,   0.00000,   0.00000,-356472224.00000,   0.00000
114958046.75544,117192035.04019,19806856.76089,   0.00029,   0.00031,   0.00026,121403384.00000,   0.00000,274640576.00000,   0.00000,   0.00000,   0.00000,-353237184.00000,   0.00000
118084750.83115,120265967.73910,20334570.52895,   0.00030,   0.00032,   0.00026,124638168.00000,   0.00000,274640576.00000,   0.00000,   0.00000,   0.00000,-350002400.00000,   0.00000
121198262.06266,123309117.13487,20853489.06753,   0.00031,   0.00032,   0.00027,127842120.00000,   0.00000,274640576.00000,   0.00000,   0.00000,   0.00000,-346798464.00000,   0.00000
124311773.29417,126352266.53063,21372407.60611,   0.00032,   0.00033,   0.00028,131041064.00000,   0.00000,274640576.00000,   0.00000,   0.00000,   0.00000,-343599520.00000,   0.00000
127412091.68147,129364632.62327,21891326.14470,   0.00033,   0.00034,   0.00028,134214216.00000,   0.00000,274640576.00000,   0.00000,   0.00000,   0.00000,-340426368.00000,   0.00000
130512410.06878,132376998.71590,22401449.45382,   0.00034,   0.00035,   0.00029,137379552.00000,   0.00000,274640576.00000,   0.00000,   0.00000,   0.00000,-337261024.00000,   0.00000
133643511.75922,135402557.65273,22920367.99240,   0.00034,   0.00036,   0.00030,140568560.00000,   0.00000,274640576.00000,   0.00000,   0.00000,   0.00000,-334072016.00000,   0.00000
136730637.30233,138384140.44222,23430491.30152,   0.00035,   0.00036,   0.00030,143712288.00000,   0.00000,274640576.00000,   0.00000,   0.00000,   0.00000,-330928288.00000,   0.00000
139817762.84543,141365723.23172,23949409.84010,   0.00036,   0.00037,   0.00031,146863584.00000,   0.00000,274640576.00000,   0.00000,   0.00000,   0.00000,-327776992.00000,   0.00000
142935671.69167,144360498.86542,24459533.14922,   0.00037,   0.00038,   0.00032,150036128.00000,   0.00000,274640576.00000,   0.00000,   0.00000,   0.00000,-324604448.00000,   0.00000
146009604.39058,147311298.35177,24969656.45834,   0.00038,   0.00039,   0.00032,153172016.00000,   0.00000,274640576.00000,   0.00000,   0.00000,   0.00000,-321468560.00000,   0.00000
149114320.39262,150275290.68233,25470984.53799,   0.00039,   0.00039,   0.00033,156329216.00000,   0.00000,274640576.00000,   0.00000,   0.00000,   0.00000,-318311360.00000,   0.00000
152175060.24732,153195306.86556,25981107.84710,   0.00039,   0.00040,   0.00034,159451872.00000,   0.00000,274640576.00000,   0.00000,   0.00000,   0.00000,-315188704.00000,   0.00000
155266583.40516,156128515.89298,26482435.92675,   0.00040,   0.00041,   0.00034,162592288.00000,   0.00000,274640576.00000,   0.00000,   0.00000,   0.00000,-312048288.00000,   0.00000
158358106.56300,159061724.92040,26992559.23587,   0.00041,   0.00041,   0.00035,165736400.00000,   0.00000,274640576.00000,   0.00000,   0.00000,   0.00000,-308904176.00000,   0.00000
161436436.87664,161964150.64469,27493887.31552,   0.00042,   0.00042,   0.00036,168852912.00000,   0.00000,274640576.00000,   0.00000,   0.00000,   0.00000,-305787664.00000,   0.00000
164483983.88714,164853383.52478,27995215.39517,   0.00043,   0.00043,   0.00036,171946384.00000,   0.00000,274640576.00000,   0.00000,   0.00000,   0.00000,-302694192.00000,   0.00000
167549121.35658,167725025.94593,28487748.24535,   0.00044,   0.00044,   0.00037,175034160.00000,   0.00000,274640576.00000,   0.00000,   0.00000,   0.00000,-299606416.00000,   0.00000
170614258.82601,170596668.36708,28989076.32500,   0.00044,   0.00044,   0.00038,178122848.00000,   0.00000,274640576.00000,   0.00000,   0.00000,   0.00000,-296517728.00000,   0.00000
173679396.29545,173468310.78823,29490404.40465,   0.00045,   0.00045,   0.00038,181201824.00000,   0.00000,274640576.00000,   0.00000,   0.00000,   0.00000,-293438752.00000,   0.00000
176744533.76489,176339953.20938,29982937.25483,   0.00046,   0.00046,   0.00039,184263072.00000,   0.00000,274640576.00000,   0.00000,   0.00000,   0.00000,-290377504.00000,   0.00000
179796478.39012,179180812.32739,30475470.10502,   0.00047,   0.00046,   0.00040,187299536.00000,   0.00000,274640576.00000,   0.00000,   0.00000,   0.00000,-287341040.00000,   0.00000
182866013.47429,182004080.98647,30968002.95520,   0.00048,   0.00047,   0.00040,190346976.00000,   0.00000,274640576.00000,   0.00000,   0.00000,   0.00000,-284293600.00000,   0.00000
185904765.25533,184814156.80135,31460535.80538,   0.00049,   0.00048,   0.00041,193384848.00000,   0.00000,274640576.00000,   0.00000,   0.00000,   0.00000,-281255728.00000,   0.00000
188943517.03636,187624232.61623,31944273.42609,   0.00049,   0.00049,   0.00042,196423040.00000,   0.00000,274640576.00000,   0.00000,   0.00000,   0.00000,-278217536.00000,   0.00000
191982268.81739,190434308.43111,32436806.27628,   0.00050,   0.00049,   0.00042,199473776.00000,   0.00000,274640576.00000,   0.00000,   0.00000,   0.00000,-275166800.00000,   0.00000
195038611.05736,193226793.78705,32920543.89699,   0.00051,   0.00050,   0.00043,202550672.00000,   0.00000,274640576.00000,   0.00000,   0.00000,   0.00000,-272089904.00000,   0.00000
198050977.14999,195975302.99566,33404281.51770,   0.00052,   0.00051,   0.00043,205596000.00000,   0.00000,274640576.00000,   0.00000,   0.00000,   0.00000,-269044576.00000,   0.00000
201094126.54576,198737005.04846,33888019.13842,   0.00053,   0.00051,   0.00044,208618784.00000,   0.00000,274640576.00000,   0.00000,   0.00000,   0.00000,-266021792.00000,   0.00000
204137275.94153,201498707.10127,34371756.75913,   0.00054,   0.00052,   0.00045,211698736.00000,   0.00000,274640576.00000,   0.00000,   0.00000,   0.00000,-262941840.00000,   0.00000
207149642.03416,204247216.30987,34855494.37985,   0.00054,   0.00053,   0.00045,214720704.00000,   0.00000,274640576.00000,   0.00000,   0.00000,   0.00000,-259919872.00000,   0.00000
210179598.58573,206978135.05954,35330436.77110,   0.00055,   0.00053,   0.00046,217718544.00000,   0.00000,274640576.00000,   0.00000,   0.00000,   0.00000,-256922032.00000,   0.00000
213196362.29309,209678270.50608,35814174.39181,   0.00056,   0.00054,   0.00047,220696816.00000,   0.00000,274640576.00000,   0.00000,   0.00000,   0.00000,-253943760.00000,   0.00000
216213126.00046,212378405.95261,36289116.78306,   0.00057,   0.00054,   0.00047,223673296.00000,   0.00000,274640576.00000,   0.00000,   0.00000,   0.00000,-250967280.00000,   0.00000
219229889.70782,215078541.39915,36764059.17430,   0.00058,   0.00055,   0.00048,226653456.00000,   0.00000,274640576.00000,   0.00000,   0.00000,   0.00000,-247987120.00000,   0.00000
222246653.41519,217778676.84568,37239001.56555,   0.00059,   0.00056,   0.00048,229636768.00000,   0.00000,274640576.00000,   0.00000,   0.00000,   0.00000,-245003808.00000,   0.00000
225250224.27835,220448028.98908,37713943.95680,   0.00060,   0.00056,   0.00049,232601632.00000,   0.00000,274640576.00000,   0.00000,   0.00000,   0.00000,-242038944.00000,   0.00000
228240602.29731,223086597.82934,38180091.11858,   0.00060,   0.00057,   0.00050,235542144.00000,   0.00000,274640576.00000,   0.00000,   0.00000,   0.00000,-239098432.00000,   0.00000
231230980.31628,225725166.66960,38655033.50982,   0.00061,   0.00058,   0.00050,238487536.00000,   0.00000,274640576.00000,   0.00000,   0.00000,   0.00000,-236153040.00000,   0.00000
234252141.63838,228376928.35406,39121180.67160,   0.00062,   0.00058,   0.00051,241449376.00000,   0.00000,274640576.00000,   0.00000,   0.00000,   0.00000,-233191200.00000,   0.00000
237229326.81314,230984713.89119,39587327.83338,   0.00063,   0.00059,   0.00051,244368416.00000,   0.00000,274640576.00000,   0.00000,   0.00000,   0.00000,-230272160.00000,   0.00000
240206511.98790,233592499.42831,40053474.99516,   0.00064,   0.00059,   0.00052,247286560.00000,   0.00000,274640576.00000,   0.00000,   0.00000,   0.00000,-227354016.00000,   0.00000
243214480.46580,236213477.80964,40519622.15694,   0.00065,   0.00060,   0.00053,250225936.00000,   0.00000,274640576.00000,   0.00000,   0.00000,   0.00000,-224414640.00000,   0.00000
246178472.79636,238790480.04362,40976974.08925,   0.00065,   0.00061,   0.00053,253118864.00000,   0.00000,274640576.00000,   0.00000,   0.00000,   0.00000,-221521712.00000,   0.00000
249160055.58585,241349891.81868,41443121.25103,   0.00066,   0.00061,   0.00054,256017856.00000,   0.00000,274640576.00000,   0.00000,   0.00000,   0.00000,-218622720.00000,   0.00000
252154831.21955,243940086.89687,41900473.18335,   0.00067,   0.00062,   0.00054,258935392.00000,   0.00000,274640576.00000,   0.00000,   0.00000,   0.00000,-215705184.00000,   0.00000
255092437.86170,246455522.52458,42357825.11566,   0.00068,   0.00062,   0.00055,261793136.00000,   0.00000,274640576.00000,   0.00000,   0.00000,   0.00000,-212847440.00000,   0.00000
258074020.65120,249014934.29964,42815177.04797,   0.00069,   0.00063,   0.00056,264696928.00000,   0.00000,274640576.00000,   0.00000,   0.00000,   0.00000,-209943648.00000,   0.00000
261042410.59649,251543562.77155,43272528.98028,   0.00070,   0.00064,   0.00056,267583904.00000,   0.00000,274640576.00000,   0.00000,   0.00000,   0.00000,-207056672.00000,   0.00000
263997607.69758,254041407.94033,43729880.91259,   0.00071,   0.00064,   0.00057,270452384.00000,   0.00000,274640576.00000,   0.00000,   0.00000,   0.00000,-204188192.00000,   0.00000
266952804.79868,256539253.10911,44187232.84490,   0.00071,   0.00065,   0.00057,273321152.00000,   0.00000,274640576.00000,   0.00000,   0.00000,   0.00000,-201319424.00000,   0.00000
269908001.89977,259037098.27789,44635789.54775,   0.00072,   0.00065,   0.00058,276182080.00000,   0.00000,274640576.00000,   0.00000,   0.00000,   0.00000,-198458496.00000,   0.00000
272850006.15666,261504160.14354,45084346.25059,   0.00073,   0.00066,   0.00059,279014816.00000,   0.00000,274640576.00000,   0.00000,   0.00000,   0.00000,-195625760.00000,   0.00000
275792010.41355,263971222.00918,45541698.18291,   0.00074,   0.00066,   0.00059,281842656.00000,   0.00000,274640576.00000,   0.00000,   0.00000,   0.00000,-192797920.00000,   0.00000
278720821.82624,266407500.57169,45981459.65628,   0.00075,   0.00067,   0.00060,284633088.00000,   0.00000,274640576.00000,   0.00000,   0.00000,   0.00000,-190007488.00000,   0.00000
281680416.54207,268856971.97840,46430016.35913,   0.00076,   0.00067,   0.00060,287443808.00000,   0.00000,274640576.00000,   0.00000,   0.00000,   0.00000,-187196768.00000,   0.00000
284609227.95476,271293250.54091,46878573.06197,   0.00077,   0.00068,   0.00061,290230464.00000,   0.00000,274640576.00000,   0.00000,   0.00000,   0.00000,-184410112.00000,   0.00000
287524846.52325,273698745.80028,47327129.76482,   0.00077,   0.00068,   0.00062,292996448.00000,   0.00000,274640576.00000,   0.00000,   0.00000,   0.00000,-181644128.00000,   0.00000
290458055.55067,276086650.60071,47766891.23819,   0.00078,   0.00069,   0.00062,295761120.00000,   0.00000,274640576.00000,   0.00000,   0.00000,   0.00000,-178879456.00000,   0.00000
293360481.27496,278461362.55695,48206652.71157,   0.00079,   0.00069,   0.00063,298505088.00000,   0.00000,274640576.00000,   0.00000,   0.00000,   0.00000,-176135488.00000,   0.00000
296293690.30238,280849267.35739,48646414.18495,   0.00080,   0.00070,   0.00063,301260128.00000,   0.00000,274640576.00000,   0.00000,   0.00000,   0.00000,-173380448.00000,   0.00000
299182923.18247,283193196.01048,49086175.65832,   0.00081,   0.00071,   0.00064,303941824.00000,   0.00000,274640576.00000,   0.00000,   0.00000,   0.00000,-170698752.00000,   0.00000
302102939.36569,285550317.50778,49525937.13170,   0.00082,   0.00071,   0.00064,306607808.00000,   0.00000,274640576.00000,   0.00000,   0.00000,   0.00000,-168032768.00000,   0.00000
305022955.54891,287907439.00508,49965698.60508,   0.00083,   0.00072,   0.00065,309268480.00000,   0.00000,274640576.00000,   0.00000,   0.00000,   0.00000,-165372096.00000,   0.00000
307916586.04373,290202993.89611,50396664.84899,   0.00084,   0.00072,   0.00066,311913760.00000,   0.00000,274640576.00000,   0.00000,   0.00000,   0.00000,-162726816.00000,   0.00000
310792626.07961,292516139.24607,50836426.32236,   0.00084,   0.00072,   0.00066,314595264.00000,   0.00000,274640576.00000,   0.00000,   0.00000,   0.00000,-160045312.00000,   0.00000
313686256.57443,294811694.13710,51267392.56627,   0.00085,   0.00073,   0.00067,317298016.00000,   0.00000,274640576.00000,   0.00000,   0.00000,   0.00000,-157342560.00000,   0.00000
316566694.22505,297076465.72499,51698358.81018,   0.00086,   0.00073,   0.00067,319995520.00000,   0.00000,274640576.00000,   0.00000,   0.00000,   0.00000,-154645056.00000,   0.00000
319447131.87567,299341237.31288,52129325.05409,   0.00087,   0.00074,   0.00068,322701728.00000,   0.00000,274640576.00000,   0.00000,   0.00000,   0.00000,-151938848.00000,   0.00000
322327569.52629,301606008.90077,52560291.29800,   0.00088,   0.00074,   0.00068,325413312.00000,   0.00000,274640576.00000,   0.00000,   0.00000,   0.00000,-149227264.00000,   0.00000
325194814.33271,303839997.18553,52982462.31244,   0.00089,   0.00075,   0.00069,328102784.00000,   0.00000,274640576.00000,   0.00000,   0.00000,   0.00000,-146537792.00000,   0.00000
328062059.13912,306073985.47028,53413428.55635,   0.00090,   0.00075,   0.00069,330797536.00000,   0.00000,274640576.00000,   0.00000,   0.00000,   0.00000,-143843040.00000,   0.00000
330916111.10134,308277190.45190,53835599.57079,   0.00090,   0.00076,   0.00070,333466912.00000,   0.00000,274640576.00000,   0.00000,   0.00000,   0.00000,-141173664.00000,   0.00000
333770163.06355,310480395.43352,54257770.58523,   0.00091,   0.00076,   0.00071,336134656.00000,   0.00000,274640576.00000,   0.00000,   0.00000,   0.00000,-138505920.00000,   0.00000
336611022.18157,312652817.11200,54679941.59968,   0.00092,   0.00077,   0.00071,338780064.00000,   0.00000,274640576.00000,   0.00000,   0.00000,   0.00000,-135860512.00000,   0.00000
339482664.60272,314838431.63468,55102112.61412,   0.00093,   0.00077,   0.00072,341445696.00000,   0.00000,274640576.00000,   0.00000,   0.00000,   0.00000,-133194880.00000,   0.00000
342310330.87653,316980070.01003,55524283.62856,   0.00094,   0.00077,   0.00072,344067040.00000,   0.00000,274640576.00000,   0.00000,   0.00000,   0.00000,-130573536.00000,   0.00000
345137997.15035,319121708.38537,55946454.64300,   0.00095,   0.00078,   0.00073,346687360.00000,   0.00000,274640576.00000,   0.00000,   0.00000,   0.00000,-127953216.00000,   0.00000
347952470.57996,321232563.45758,56359830.42798,   0.00096,   0.00078,   0.00073,349282976.00000,   0.00000,274640576.00000,   0.00000,   0.00000,   0.00000,-125357600.00000,   0.00000
350797727.31271,323356611.37399,56782001.44242,   0.00097,   0.00079,   0.00074,351905088.00000,   0.00000,274640576.00000,   0.00000,   0.00000,   0.00000,-122735488.00000,   0.00000
353599007.89812,325436683.14306,57195377.22739,   0.00097,   0.00079,   0.00074,354481856.00000,   0.00000,274640576.00000,   0.00000,   0.00000,   0.00000,-120158720.00000,   0.00000
356400288.48353,327516754.91214,57608753.01237,   0.00098,   0.00080,   0.00075,357059776.00000,   0.00000,274640576.00000,   0.00000,   0.00000,   0.00000,-117580800.00000,   0.00000
359232352.37207,329610019.52541,58022128.79734,   0.00099,   0.00080,   0.00075,359661472.00000,   0.00000,274640576.00000,   0.00000,   0.00000,   0.00000,-114979104.00000,   0.00000
362020440.11328,331659307.99135,58435504.58231,   0.00100,   0.00080,   0.00076,362222784.00000,   0.00000,274640576.00000,   0.00000,   0.00000,   0.00000,-112417792.00000,   0.00000
364795335.01029,333677813.15415,58848880.36729,   0.00101,   0.00081,   0.00077,364765440.00000,   0.00000,274640576.00000,   0.00000,   0.00000,   0.00000,-109875136.00000,   0.00000
367601013.21043,335709511.16115,59253460.92280,   0.00102,   0.00081,   0.00077,367327552.00000,   0.00000,274640576.00000,   0.00000,   0.00000,   0.00000,-107313024.00000,   0.00000
370362715.26324,337697233.02081,59666836.70777,   0.00103,   0.00081,   0.00078,369852992.00000,   0.00000,274640576.00000,   0.00000,   0.00000,   0.00000,-104787584.00000,   0.00000
373155200.61918,339698147.72467,60071417.26328,   0.00104,   0.00082,   0.00078,372397312.00000,   0.00000,274640576.00000,   0.00000,   0.00000,   0.00000,-102243264.00000,   0.00000
375916902.67199,341685869.58434,60475997.81878,   0.00104,   0.00082,   0.00079,374920096.00000,   0.00000,274640576.00000,   0.00000,   0.00000,   0.00000,-99720480.00000,   0.00000
378696195.18373,343656000.98507,60880578.37429,   0.00105,   0.00083,   0.00079,377445920.00000,   0.00000,274640576.00000,   0.00000,   0.00000,   0.00000,-97194656.00000,   0.00000
381431511.54814,345582156.23846,61285158.92980,   0.00106,   0.00083,   0.00080,379929792.00000,   0.00000,274640576.00000,   0.00000,   0.00000,   0.00000,-94710784.00000,   0.00000
384166827.91254,347508311.49185,61689739.48530,   0.00107,   0.00083,   0.00080,382413632.00000,   0.00000,274640576.00000,   0.00000,   0.00000,   0.00000,-92226944.00000,   0.00000
386932927.58008,349447659.58944,62085524.81134,   0.00108,   0.00084,   0.00081,384915264.00000,   0.00000,274640576.00000,   0.00000,   0.00000,   0.00000,-89725312.00000,   0.00000
389655051.10028,351343031.53969,62490105.36685,   0.00109,   0.00084,   0.00081,387378560.00000,   0.00000,274640576.00000,   0.00000,   0.00000,   0.00000,-87262016.00000,   0.00000
392394765.07942,353220813.03101,62885890.69289,   0.00110,   0.00084,   0.00082,389839808.00000,   0.00000,274640576.00000,   0.00000,   0.00000,   0.00000,-84800768.00000,   0.00000
395103695.75542,355085401.67813,63281676.01893,   0.00111,   0.00085,   0.00082,392278272.00000,   0.00000,274640576.00000,   0.00000,   0.00000,   0.00000,-82362304.00000,   0.00000
397843409.73456,356963183.16945,63677461.34497,   0.00111,   0.00085,   0.00083,394739232.00000,   0.00000,274640576.00000,   0.00000,   0.00000,   0.00000,-79901344.00000,   0.00000
400539147.56636,358796988.51343,64073246.67101,   0.00112,   0.00085,   0.00083,397158656.00000,   0.00000,274640576.00000,   0.00000,   0.00000,   0.00000,-77481920.00000,   0.00000
403221692.55396,360600010.55428,64469031.99704,   0.00113,   0.00085,   0.00084,399559872.00000,   0.00000,274640576.00000,   0.00000,   0.00000,   0.00000,-75080704.00000,   0.00000
405935020.84469,362416225.43932,64864817.32308,   0.00114,   0.00086,   0.00084,401985664.00000,   0.00000,274640576.00000,   0.00000,   0.00000,   0.00000,-72654912.00000,   0.00000
408604372.98809,364188464.17703,65251807.41966,   0.00115,   0.00086,   0.00085,404368160.00000,   0.00000,274640576.00000,   0.00000,   0.00000,   0.00000,-70272416.00000,   0.00000
411273725.13149,365960702.91474,65647592.74569,   0.00116,   0.00086,   0.00085,406758496.00000,   0.00000,274640576.00000,   0.00000,   0.00000,   0.00000,-67882080.00000,   0.00000
413973860.57802,367746134.49665,66034582.84227,   0.00117,   0.00087,   0.00086,409171200.00000,   0.00000,274640576.00000,   0.00000,   0.00000,   0.00000,-65469376.00000,   0.00000
416616827.03302,369456806.62809,66421572.93884,   0.00118,   0.00087,   0.00086,411525920.00000,   0.00000,274640576.00000,   0.00000,   0.00000,   0.00000,-63114656.00000,   0.00000
419272986.33221,371198262.06266,66808563.03541,   0.00118,   0.00087,   0.00087,413903744.00000,   0.00000,274640576.00000,   0.00000,   0.00000,   0.00000,-60736832.00000,   0.00000
421915952.78721,372908934.19409,67195553.13198,   0.00119,   0.00087,   0.00087,416264800.00000,   0.00000,274640576.00000,   0.00000,   0.00000,   0.00000,-58375776.00000,   0.00000
424545726.39800,374588823.02239,67582543.22855,   0.00120,   0.00088,   0.00088,418608384.00000,   0.00000,274640576.00000,   0.00000,   0.00000,   0.00000,-56032192.00000,   0.00000
427206283.31193,376281904.69489,67969533.32512,   0.00121,   0.00088,   0.00088,420975552.00000,   0.00000,274640576.00000,   0.00000,   0.00000,   0.00000,-53665024.00000,   0.00000
429822864.07852,377931010.22006,68347728.19223,   0.00122,   0.00088,   0.00089,423296224.00000,   0.00000,274640576.00000,   0.00000,   0.00000,   0.00000,-51344352.00000,   0.00000
432439444.84512,379580115.74522,68734718.28880,   0.00123,   0.00088,   0.00089,425620064.00000,   0.00000,274640576.00000,   0.00000,   0.00000,   0.00000,-49020512.00000,   0.00000
435042832.76751,381198437.96725,69112913.15590,   0.00124,   0.00089,   0.00090,427918176.00000,   0.00000,274640576.00000,   0.00000,   0.00000,   0.00000,-46722400.00000,   0.00000
437602244.54256,382772784.04194,69491108.02301,   0.00124,   0.00089,   0.00090,430171552.00000,   0.00000,274640576.00000,   0.00000,   0.00000,   0.00000,-44469024.00000,   0.00000
440192439.62075,384360322.96083,69869302.89011,   0.00125,   0.00089,   0.00091,432444448.00000,   0.00000,274640576.00000,   0.00000,   0.00000,   0.00000,-42196128.00000,   0.00000
442782634.69894,385947861.87972,70247497.75722,   0.00126,   0.00089,   0.00091,434714016.00000,   0.00000,274640576.00000,   0.00000,   0.00000,   0.00000,-39926560.00000,   0.00000
445359636.93293,387504617.49547,70625692.62432,   0.00127,   0.00089,   0.00092,436961088.00000,   0.00000,274640576.00000,   0.00000,   0.00000,   0.00000,-37679488.00000,   0.00000
447905855.86378,389048180.26702,71003887.49142,   0.00128,   0.00090,   0.00092,439182688.00000,   0.00000,274640576.00000,   0.00000,   0.00000,   0.00000,-35457888.00000,   0.00000
450469665.25357,390574152.57964,71373287.12906,   0.00129,   0.00090,   0.00093,441401344.00000,   0.00000,274640576.00000,   0.00000,   0.00000,   0.00000,-33239232.00000,   0.00000
452989498.49602,392056148.74492,71751481.99617,   0.00130,   0.00090,   0.00093,443581600.00000,   0.00000,274640576.00000,   0.00000,   0.00000,   0.00000,-31058976.00000,   0.00000
455540115.04160,393551337.75440,72120881.63380,   0.00131,   0.00090,   0.00094,445780160.00000,   0.00000,274640576.00000,   0.00000,   0.00000,   0.00000,-28860416.00000,   0.00000
458046755.43985,395002550.61655,72490281.27144,   0.00131,   0.00090,   0.00094,447938688.00000,   0.00000,274640576.00000,   0.00000,   0.00000,   0.00000,-26701888.00000,   0.00000
460553395.83810,396453763.47869,72859680.90907,   0.00132,   0.00091,   0.00095,450100160.00000,   0.00000,274640576.00000,   0.00000,   0.00000,   0.00000,-24540416.00000,   0.00000
463077626.69528,397887385.88190,73229080.54671,   0.00133,   0.00091,   0.00095,452269792.00000,   0.00000,274640576.00000,   0.00000,   0.00000,   0.00000,-22370784.00000,   0.00000
465571074.24933,399307815.44091,73598480.18435,   0.00134,   0.00091,   0.00096,454422560.00000,   0.00000,274640576.00000,   0.00000,   0.00000,   0.00000,-20218016.00000,   0.00000
468051328.95917,400697461.69678,73967879.82198,   0.00135,   0.00091,   0.00096,456563296.00000,   0.00000,274640576.00000,   0.00000,   0.00000,   0.00000,-18077280.00000,   0.00000
470531583.66902,402087107.95265,74328484.23015,   0.00136,   0.00091,   0.00097,458707520.00000,   0.00000,274640576.00000,   0.00000,   0.00000,   0.00000,-15933056.00000,   0.00000
472967862.23153,403432778.06118,74697883.86779,   0.00137,   0.00091,   0.00097,460821888.00000,   0.00000,274640576.00000,   0.00000,   0.00000,   0.00000,-13818688.00000,   0.00000
475421731.25297,404760857.71078,75058488.27596,   0.00137,   0.00091,   0.00098,462943680.00000,   0.00000,274640576.00000,   0.00000,   0.00000,   0.00000,-11696896.00000,   0.00000
477875600.27441,406088937.36038,75419092.68413,   0.00138,   0.00092,   0.00098,465071840.00000,   0.00000,274640576.00000,   0.00000,   0.00000,   0.00000,-9568736.00000,   0.00000
480285493.14852,407373040.86264,75779697.09230,   0.00139,   0.00092,   0.00099,467161728.00000,   0.00000,274640576.00000,   0.00000,   0.00000,   0.00000,-7478848.00000,   0.00000
482695386.02262,408657144.36490,76140301.50047,   0.00140,   0.00092,   0.00099,469252032.00000,   0.00000,274640576.00000,   0.00000,   0.00000,   0.00000,-5388544.00000,   0.00000
485105278.89673,409941247.86716,76500905.90864,   0.00141,   0.00092,   0.00099,471338656.00000,   0.00000,274640576.00000,   0.00000,   0.00000,   0.00000,-3301920.00000,   0.00000
487519569.38557,411176977.60735,76861510.31680,   0.00142,   0.00092,   0.00100,473403104.00000,   0.00000,274640576.00000,   0.00000,   0.00000,   0.00000,-1237472.00000,   0.00000
488969691.43312,411920767.14465,77080901.47529,   0.00142,   0.00092,   0.00100,474640864.00000,   0.00000,274640576.00000,   0.00000,   0.00000,   0.00000, 288.00000,   0.00000
489087885.14419,411739482.95562,77070694.46294,   0.00142,   0.00092,   0.00100,474640864.00000,   0.00000,274643392.00000,   0.00000,   0.00000,   0.00000, -64.00000,   2.00000
489386274.28386,411287127.77389,77041828.12160,   0.00143,   0.00092,   0.00101,476644000.00000,   0.00001,274650464.00000,   0.00001,   0.00000,   0.00001,  64.00000,   2.00000
489690898.34287,410811700.31291,77019869.19898,   0.00144,   0.00092,   0.00101,476660128.00000,   0.00002,274657568.00000,   0.00001,   0.00001,   0.00001,  32.00000,   2.00000
490003423.12803,410326256.52638,76993239.21852,   0.00145,   0.00092,   0.00102,476644864.00000,   0.00002,274664608.00000,   0.00002,   0.00001,   0.00002,  64.00000,   2.00000
490306487.07774,409848353.59931,76970748.77289,   0.00146,   0.00092,   0.00102,476629472.00000,   0.00003,274671552.00000,   0.00003,   0.00002,   0.00002,  64.00000,   2.00000
490607536.92450,409372288.03234,76948091.36885,   0.00147,   0.00092,   0.00103,476636992.00000,   0.00003,274678528.00000,   0.00003,   0.00002,   0.00003,  96.00000,   2.00000
490917875.18047,408866799.92362,76932191.20814,   0.00148,   0.00093,   0.00103,476607872.00000,   0.00004,274685376.00000,   0.00004,   0.00002,   0.00003,  32.00000,   2.00000
491220103.47589,408378399.56185,76912556.73988,   0.00148,   0.00093,   0.00104,476633856.00000,   0.00005,274692288.00000,   0.00004,   0.00003,   0.00004, -32.00000,   2.00000
491531965.92405,407860614.21899,76899728.52164,   0.00149,   0.00093,   0.00104,476604736.00000,   0.00005,274699072.00000,   0.00005,   0.00003,   0.00004,  64.00000,   2.00000
491845917.64769,407347809.49273,76878697.54061,   0.00150,   0.00093,   0.00105,476608512.00000,   0.00006,274705856.00000,   0.00006,   0.00003,   0.00005,  32.00000,   2.00000
492146511.79968,406838836.39618,76869825.56165,   0.00151,   0.00093,   0.00105,476597472.00000,   0.00007,274712544.00000,   0.00006,   0.00004,   0.00005,  64.00000,   2.00000
492460827.53002,406303314.73134,76859713.23488,   0.00152,   0.00093,   0.00105,476564704.00000,   0.00007,274719136.00000,   0.00007,   0.00004,   0.00005,   0.00000,   2.00000
492762811.98350,405781481.14349,76853848.45934,   0.00152,   0.00093,   0.00106,476594976.00000,   0.00008,274725792.00000,   0.00007,   0.00004,   0.00006, -32.00000,   2.00000
493078636.27829,405232995.38045,76846761.53391,   0.00153,   0.00093,   0.00106,476562048.00000,   0.00008,274732288.00000,   0.00008,   0.00004,   0.00006, -32.00000,   2.00000
493386493.88605,404701681.78761,76835966.64821,   0.00154,   0.00093,   0.00107,476588192.00000,   0.00009,274738880.00000,   0.00009,   0.00005,   0.00007,  32.00000,   2.00000
493696978.10464,404145668.56095,76836323.43138,   0.00155,   0.00093,   0.00107,476536544.00000,   0.00010,274745248.00000,   0.00009,   0.00005,   0.00007,  32.00000,   2.00000
494011998.98417,403585362.00022,76832027.06531,   0.00156,   0.00093,   0.00108,476567488.00000,   0.00010,274751712.00000,   0.00010,   0.00005,   0.00008,  32.00000,   2.00000
494317974.68205,403031892.70863,76831891.44916,   0.00157,   0.00093,   0.00108,476552256.00000,   0.00011,274758112.00000,   0.00010,   0.00006,   0.00008,  64.00000,   2.00000
494637483.69192,402451133.06647,76830482.55280,   0.00157,   0.00093,   0.00109,476519616.00000,   0.00011,274764352.00000,   0.00011,   0.00006,   0.00009,   0.00000,   2.00000
494944773.28400,401884403.52788,76833360.96231,   0.00158,   0.00093,   0.00109,476549568.00000,   0.00012,274770688.00000,   0.00011,   0.00006,   0.00009, 128.00000,   2.00000
495258966.92768,401295822.89978,76839384.87669,   0.00159,   0.00093,   0.00109,476493792.00000,   0.00012,274776800.00000,   0.00012,   0.00007,   0.00010, 192.00000,   2.00000
495565970.37594,400704749.97080,76853019.15046,   0.00160,   0.00093,   0.00110,476505824.00000,   0.00013,274782912.00000,   0.00012,   0.00007,   0.00010, -64.00000,   2.00000
495875227.69539,400118522.17188,76858447.11802,   0.00161,   0.00093,   0.00110,476508832.00000,   0.00014,274789056.00000,   0.00013,   0.00007,   0.00010, -32.00000,   2.00000
496187860.91308,399517481.93575,76867090.00583,   0.00161,   0.00092,   0.00111,476498304.00000,   0.00014,274795104.00000,   0.00014,   0.00007,   0.00011,  32.00000,   2.00000
496503425.17438,398901327.58129,76878861.10429,   0.00162,   0.00092,   0.00111,476487968.00000,   0.00015,274801120.00000,   0.00014,   0.00008,   0.00011,  96.00000,   2.00000
496809981.57475,398291913.23314,76894781.33614,   0.00163,   0.00092,   0.00112,476472192.00000,   0.00015,274807040.00000,   0.00015,   0.00008,   0.00012, -32.00000,   2.00000
497119643.24198,397667477.57716,76913840.13808,   0.00164,   0.00092,   0.00112,476461504.00000,   0.00016,274812928.00000,   0.00015,   0.00008,   0.00012, 160.00000,   2.00000
497436552.99058,397031226.97766,76928027.14721,   0.00165,   0.00092,   0.00112,476446592.00000,   0.00016,274818720.00000,   0.00016,   0.00008,   0.00012,  32.00000,   2.00000
497746364.90618,396392906.44441,76949854.08820,   0.00165,   0.00092,   0.00113,476458208.00000,   0.00017,274824544.00000,   0.00016,   0.00009,   0.00013,  64.00000,   2.00000
498051695.51508,395764719.52912,76967867.88025,   0.00166,   0.00092,   0.00113,476437760.00000,   0.00017,274830272.00000,   0.00017,   0.00009,   0.00013, -64.00000,   2.00000
498355310.18995,395117833.80590,76996905.05054,   0.00167,   0.00092,   0.00114,476431392.00000,   0.00018,274835936.00000,   0.00017,   0.00009,   0.00014,  64.00000,   2.00000
498666088.29761,394459017.18165,77021025.59855,   0.00168,   0.00092,   0.00114,476416448.00000,   0.00018,274841568.00000,   0.00018,   0.00010,   0.00014, 128.00000,   2.00000
498979304.36544,393784720.77331,77048152.45293,   0.00168,   0.00092,   0.00115,476405920.00000,   0.00019,274847136.00000,   0.00018,   0.00010,   0.00014,   0.00000,   2.00000
499283606.44211,393117134.98685,77079408.01197,   0.00169,   0.00091,   0.00115,476389472.00000,   0.00019,274852608.00000,   0.00019,   0.00010,   0.00015,  64.00000,   2.00000
499584959.41251,392450764.10563,77110251.10752,   0.00170,   0.00091,   0.00115,476396352.00000,   0.00020,274858112.00000,   0.00019,   0.00010,   0.00015,  32.00000,   2.00000
499894176.37205,391752036.15197,77147473.55546,   0.00171,   0.00091,   0.00116,476368128.00000,   0.00020,274863488.00000,   0.00020,   0.00010,   0.00016,   0.00000,   2.00000
500189020.15615,391076713.78260,77185387.38475,   0.00172,   0.00091,   0.00116,476369312.00000,   0.00021,274868832.00000,   0.00020,   0.00011,   0.00016,   0.00000,   2.00000
500495990.38855,390372022.11546,77221662.96985,   0.00172,   0.00091,   0.00117,476336768.00000,   0.00021,274874080.00000,   0.00021,   0.00011,   0.00016,  32.00000,   2.00000
500795531.01033,389665312.38094,77265468.06709,   0.00173,   0.00091,   0.00117,476347840.00000,   0.00022,274879328.00000,   0.00021,   0.00011,   0.00017,   0.00000,   2.00000
501096359.49415,388963057.05217,77300832.88817,   0.00174,   0.00091,   0.00118,476350688.00000,   0.00022,274884576.00000,   0.00022,   0.00011,   0.00017,-192.00000,   2.00000
501394375.42630,388229686.99084,77354979.53825,   0.00175,   0.00090,   0.00118,476303136.00000,   0.00023,274889664.00000,   0.00022,   0.00012,   0.00017,  32.00000,   2.00000
501688618.78889,387518052.55338,77397329.47304,   0.00175,   0.00090,   0.00118,476323264.00000,   0.00023,274894784.00000,   0.00023,   0.00012,   0.00018,  32.00000,   2.00000
501990057.31113,386773015.11931,77445890.29087,   0.00176,   0.00090,   0.00119,476295456.00000,   0.00024,274899776.00000,   0.00023,   0.00012,   0.00018,  64.00000,   2.00000
502282528.01011,386034160.64527,77498496.19128,   0.00177,   0.00090,   0.00119,476278720.00000,   0.00024,274904704.00000,   0.00023,   0.00012,   0.00018, 128.00000,   2.00000
502571868.42329,385296431.21081,77550599.01290,   0.00177,   0.00090,   0.00120,476285600.00000,   0.00025,274909664.00000,   0.00024,   0.00012,   0.00019,  32.00000,   2.00000
502868240.28349,384524888.98241,77608849.55873,   0.00178,   0.00089,   0.00120,476257888.00000,   0.00025,274914496.00000,   0.00024,   0.00013,   0.00019, -32.00000,   2.00000
503150825.74145,383777019.97132,77667839.53345,   0.00179,   0.00089,   0.00120,476258304.00000,   0.00025,274919296.00000,   0.00025,   0.00013,   0.00019, -32.00000,   2.00000
503444677.60711,382998137.73425,77724953.02344,   0.00180,   0.00089,   0.00121,476226560.00000,   0.00026,274924000.00000,   0.00025,   0.00013,   0.00020, -32.00000,   2.00000
503730953.53463,382217163.12261,77789520.31645,   0.00180,   0.00089,   0.00121,476237696.00000,   0.00026,274928704.00000,   0.00026,   0.00013,   0.00020,  64.00000,   2.00000
504013033.57161,381445306.85601,77850179.63055,   0.00181,   0.00089,   0.00122,476216512.00000,   0.00027,274933312.00000,   0.00026,   0.00013,   0.00020,  64.00000,   2.00000
504296956.65207,380635351.05359,77924786.92202,   0.00182,   0.00088,   0.00122,476193632.00000,   0.00027,274937856.00000,   0.00027,   0.00013,   0.00021, -64.00000,   2.00000
504572166.63075,379852452.26535,77992243.00422,   0.00182,   0.00088,   0.00122,476188960.00000,   0.00028,274942336.00000,   0.00027,   0.00014,   0.00021,  32.00000,   2.00000
504859219.45935,379029729.52017,78061089.75427,   0.00183,   0.00088,   0.00123,476185920.00000,   0.00028,274946816.00000,   0.00027,   0.00014,   0.00021, -64.00000,   2.00000
505132213.18893,378217294.36948,78138584.95449,   0.00184,   0.00088,   0.00123,476145056.00000,   0.00028,274951136.00000,   0.00028,   0.00014,   0.00022, -32.00000,   2.00000
505412182.06292,377382938.54828,78214170.60088,   0.00185,   0.00087,   0.00124,476158816.00000,   0.00029,274955456.00000,   0.00028,   0.00014,   0.00022,  32.00000,   2.00000
505683485.00575,376553972.04641,78293785.85170,   0.00185,   0.00087,   0.00124,476141696.00000,   0.00029,274959744.00000,   0.00029,   0.00014,   0.00022,  96.00000,   2.00000
505956367.75883,375707607.02355,78376093.41685,   0.00186,   0.00087,   0.00124,476131648.00000,   0.00030,274963968.00000,   0.00029,   0.00014,   0.00023, -32.00000,   2.00000
506225285.29150,374869681.16597,78454495.83135,   0.00187,   0.00086,   0.00125,476110080.00000,   0.00030,274968096.00000,   0.00029,   0.00015,   0.00023, -64.00000,   2.00000
506491123.25814,374010932.65992,78543524.86938,   0.00187,   0.00086,   0.00125,476104416.00000,   0.00030,274972192.00000,   0.00030,   0.00015,   0.00023, -32.00000,   2.00000
506757590.10175,373141938.02922,78631862.82805,   0.00188,   0.00086,   0.00126,476066016.00000,   0.00031,274976128.00000,   0.00030,   0.00015,   0.00023, -32.00000,   2.00000
507016387.23518,372270463.89407,78727584.46425,   0.00189,   0.00086,   0.00126,476076928.00000,   0.00031,274980096.00000,   0.00031,   0.00015,   0.00024,  64.00000,   2.00000
507281022.65267,371384099.03454,78817970.07425,   0.00189,   0.00085,   0.00126,476062784.00000,   0.00031,274984000.00000,   0.00031,   0.00015,   0.00024,   0.00000,   2.00000
507537341.62520,370502637.75406,78912427.63097,   0.00190,   0.00085,   0.00127,476045184.00000,   0.00032,274987840.00000,   0.00031,   0.00015,   0.00024,  32.00000,   2.00000
507799320.15987,369584197.29946,79012692.66357,   0.00191,   0.00085,   0.00127,476018656.00000,   0.00032,274991584.00000,   0.00032,   0.00015,   0.00024, 160.00000,   2.00000
508048526.86879,368689212.66708,79113812.77368,   0.00191,   0.00084,   0.00128,476017504.00000,   0.00032,274995296.00000,   0.00032,   0.00016,   0.00025, -64.00000,   2.00000
508303278.85367,367756905.30658,79220708.15037,   0.00192,   0.00084,   0.00128,475991008.00000,   0.00033,274998880.00000,   0.00032,   0.00016,   0.00025,  64.00000,   2.00000
508554616.30419,366824857.34810,79326961.43340,   0.00193,   0.00083,   0.00128,475997568.00000,   0.00033,275002496.00000,   0.00033,   0.00016,   0.00025,-160.00000,   2.00000
508802706.35760,365900621.00818,79429405.07138,   0.00193,   0.00083,   0.00129,475975136.00000,   0.00033,275006016.00000,   0.00033,   0.00016,   0.00025,  32.00000,   2.00000
509042043.53831,364958428.32943,79546993.70066,   0.00194,   0.00083,   0.00129,475945472.00000,   0.00034,275009408.00000,   0.00033,   0.00016,   0.00026, -32.00000,   2.00000
509291973.39595,363996407.53361,79654494.21995,   0.00194,   0.00082,   0.00129,475955264.00000,   0.00034,275012832.00000,   0.00034,   0.00016,   0.00026,  96.00000,   2.00000
509524197.07129,363039506.95607,79778692.37056,   0.00195,   0.00082,   0.00130,475917344.00000,   0.00034,275016128.00000,   0.00034,   0.00016,   0.00026, -32.00000,   2.00000
509761979.62890,362066537.00381,79897448.48576,   0.00196,   0.00082,   0.00130,475902880.00000,   0.00035,275019328.00000,   0.00034,   0.00016,   0.00026,   0.00000,   2.00000
510000559.26228,361074294.80502,80018684.80607,   0.00196,   0.00081,   0.00131,475892832.00000,   0.00035,275022496.00000,   0.00035,   0.00016,   0.00027, 128.00000,   2.00000
510235746.15058,360082061.80083,80139232.44788,   0.00197,   0.00081,   0.00131,475898976.00000,   0.00035,275025696.00000,   0.00035,   0.00016,   0.00027, -64.00000,   2.00000
510462193.61731,359078110.73721,80271679.66934,   0.00197,   0.00080,   0.00131,475840064.00000,   0.00035,275028640.00000,   0.00035,   0.00017,   0.00027, -32.00000,   2.00000
510690091.48032,358070314.46871,80398675.66044,   0.00198,   0.00080,   0.00132,475870368.00000,   0.00036,275031680.00000,   0.00035,   0.00017,   0.00027,  32.00000,   2.00000
510909150.05982,357050337.74913,80537521.10980,   0.00199,   0.00080,   0.00132,475811616.00000,   0.00036,275034528.00000,   0.00036,   0.00017,   0.00027,   0.00000,   2.00000
511138051.89634,356009806.29298,80666008.59515,   0.00199,   0.00079,   0.00133,475821536.00000,   0.00036,275037376.00000,   0.00036,   0.00017,   0.00028,   0.00000,   2.00000
511354229.94263,354969777.61303,80806377.31019,   0.00200,   0.00079,   0.00133,475807392.00000,   0.00036,275040192.00000,   0.00036,   0.00017,   0.00028, -64.00000,   2.00000
511570781.56393,353916293.55277,80945827.05783,   0.00200,   0.00078,   0.00133,475768544.00000,   0.00037,275042848.00000,   0.00037,   0.00017,   0.00028, -96.00000,   2.00000
511779229.35811,352859547.08739,81092304.61725,   0.00201,   0.00078,   0.00134,475778880.00000,   0.00037,275045536.00000,   0.00037,   0.00017,   0.00028,   0.00000,   2.00000
511987894.41148,351788966.72107,81237789.83877,   0.00201,   0.00077,   0.00134,475740032.00000,   0.00037,275048064.00000,   0.00037,   0.00017,   0.00028, -96.00000,   2.00000
512193184.57312,350718111.93679,81382321.93031,   0.00202,   0.00077,   0.00134,475745568.00000,   0.00037,275050592.00000,   0.00037,   0.00017,   0.00029,  32.00000,   2.00000
512397274.64051,349609830.23421,81536800.12329,   0.00202,   0.00076,   0.00135,475695840.00000,   0.00038,275052960.00000,   0.00038,   0.00017,   0.00029, -32.00000,   2.00000
512594245.64627,348521311.70745,81687139.53490,   0.00203,   0.00076,   0.00135,475717184.00000,   0.00038,275055392.00000,   0.00038,   0.00017,   0.00029,-128.00000,   2.00000
512789799.02723,347394882.58102,81847412.31718,   0.00204,   0.00075,   0.00135,475667488.00000,   0.00038,275057632.00000,   0.00038,   0.00017,   0.00029, -32.00000,   2.00000
512981595.47752,346267851.47496,82006590.51360,   0.00204,   0.00075,   0.00136,475673408.00000,   0.00038,275059904.00000,   0.00038,   0.00017,   0.00029, 128.00000,   2.00000
513164779.81205,345143160.96321,82169521.54949,   0.00205,   0.00074,   0.00136,475654848.00000,   0.00038,275062080.00000,   0.00038,   0.00017,   0.00029,   0.00000,   2.00000
513351028.24470,343982739.58203,82334600.13787,   0.00205,   0.00074,   0.00137,475600704.00000,   0.00039,275064064.00000,   0.00039,   0.00018,   0.00030,  64.00000,   2.00000
513525049.89586,342838980.05991,82503396.57013,   0.00206,   0.00073,   0.00137,475626240.00000,   0.00039,275066112.00000,   0.00039,   0.00018,   0.00030,-128.00000,   2.00000
513706350.15028,341655978.85306,82669494.77903,   0.00206,   0.00073,   0.00137,475596928.00000,   0.00039,275068064.00000,   0.00039,   0.00018,   0.00030, -96.00000,   2.00000
513874546.05579,340477749.86551,82844543.40796,   0.00207,   0.00072,   0.00138,475553344.00000,   0.00039,275069856.00000,   0.00039,   0.00018,   0.00030,   0.00000,   2.00000
514043212.51458,339295705.71423,83013739.06741,   0.00207,   0.00072,   0.00138,475583456.00000,   0.00039,275071744.00000,   0.00039,   0.00018,   0.00030, -32.00000,   2.00000
514204741.37424,338076168.33227,83198123.96951,   0.00208,   0.00071,   0.00138,475509600.00000,   0.00040,275073376.00000,   0.00039,   0.00018,   0.00030,  64.00000,   2.00000
514359306.62286,336876561.72370,83378648.71177,   0.00208,   0.00071,   0.00139,475529920.00000,   0.00040,275075040.00000,   0.00040,   0.00018,   0.00030,  32.00000,   2.00000
514515328.83462,335633483.30089,83564420.10310,   0.00208,   0.00070,   0.00139,475505440.00000,   0.00040,275076640.00000,   0.00040,   0.00018,   0.00030,  96.00000,   2.00000
514662508.58443,334391624.07724,83754328.02725,   0.00209,   0.00070,   0.00139,475486208.00000,   0.00040,275078144.00000,   0.00040,   0.00018,   0.00031,  32.00000,   2.00000
514806378.21141,333154148.26948,83940623.86307,   0.00209,   0.00069,   0.00140,475461760.00000,   0.00040,275079584.00000,   0.00040,   0.00018,   0.00031, -96.00000,   2.00000
514943373.02984,331890832.57953,84136875.80674,   0.00210,   0.00069,   0.00140,475457056.00000,   0.00040,275080960.00000,   0.00040,   0.00018,   0.00031, -64.00000,   2.00000
515079339.71208,330610012.10114,84332411.57627,   0.00210,   0.00068,   0.00140,475418304.00000,   0.00040,275082208.00000,   0.00040,   0.00018,   0.00031,  96.00000,   2.00000
515201341.43520,329326932.14981,84539846.08356,   0.00211,   0.00067,   0.00141,475403552.00000,   0.00040,275083424.00000,   0.00040,   0.00018,   0.00031, -32.00000,   2.00000
515326086.97444,328023416.16777,84741412.49732,   0.00211,   0.00067,   0.00141,475389856.00000,   0.00041,275084544.00000,   0.00041,   0.00018,   0.00031,  32.00000,   2.00000
515443900.03354,326698405.50343,84949904.55537,   0.00212,   0.00066,   0.00141,475356192.00000,   0.00041,275085568.00000,   0.00041,   0.00018,   0.00031, -64.00000,   2.00000
515555792.95970,325370928.13182,85157147.42356,   0.00212,   0.00066,   0.00142,475361536.00000,   0.00041,275086592.00000,   0.00041,   0.00018,   0.00031,-928.00000,   1.00000
515661509.53603,324022075.45366,85371473.89426,   0.00212,   0.00065,   0.00142,475327360.00000,   0.00041,275087520.00000,   0.00041,   0.00018,   0.00031,-928.00000,   1.00000
515757902.19950,322673090.70680,85589781.54132,   0.00213,   0.00064,   0.00143,475308288.00000,   0.00041,275088352.00000,   0.00041,   0.00018,   0.00031,-928.00000,   1.00000
515855953.71854,321302522.15633,85802031.84437,   0.00213,   0.00064,   0.00143,475295264.00000,   0.00041,275089120.00000,   0.00041,   0.00018,   0.00031,-704.00000,   1.00000
515939236.23481,319928513.97871,86026046.20144,   0.00213,   0.00063,   0.00143,475281120.00000,   0.00041,275089856.00000,   0.00041,   0.00018,   0.00031,-832.00000,   1.00000
516020003.99732,318534397.81809,86249166.47535,   0.00214,   0.00062,   0.00144,475243360.00000,   0.00041,275090432.00000,   0.00041,   0.00018,   0.00031,-608.00000,   1.00000
516091371.55377,317112184.43917,86481731.62558,   0.00214,   0.00062,   0.00144,475240384.00000,   0.00041,275091008.00000,   0.00041,   0.00018,   0.00031,-768.00000,   1.00000
516158159.31954,315691796.16489,86710507.43944,   0.00215,   0.00061,   0.00144,475216640.00000,   0.00041,275091456.00000,   0.00041,   0.00018,   0.00031,-512.00000,   1.00000
516219016.31613,314268635.80291,86938066.26257,   0.00215,   0.00060,   0.00145,475222560.00000,   0.00041,275091968.00000,   0.00041,   0.00018,   0.00032,-608.00000,   1.00000
516268868.70922,312799916.33581,87180557.10647,   0.00215,   0.00060,   0.00145,475151744.00000,   0.00041,275092192.00000,   0.00041,   0.00018,   0.00032,-256.00000,   1.00000
516312358.74061,311327990.79541,87421772.99831,   0.00216,   0.00059,   0.00145,475157856.00000,   0.00041,275092448.00000,   0.00041,   0.00018,   0.00032,-160.00000,   1.00000
516349658.29060,309852997.29221,87661742.12126,   0.00216,   0.00058,   0.00146,475163840.00000,   0.00041,275092704.00000,   0.00041,   0.00018,   0.00032,-256.00000,   1.00000
516379326.87739,308356920.28442,87906062.41034,   0.00216,   0.00058,   0.00146,475101888.00000,   0.00041,275092768.00000,   0.00041,   0.00018,   0.00032, -32.00000,   1.00000
516398357.23502,306831449.65836,88159675.91846,   0.00217,   0.00057,   0.00146,475099584.00000,   0.00041,275092768.00000,   0.00041,   0.00018,   0.00032,  96.00000,   1.00000
516393959.62028,305296682.11628,88405942.34355,   0.00217,   0.00056,   0.00146,475076000.00000,   0.00041,275092768.00000,   0.00041,   0.00018,   0.00032,-16768.00000,   0.00000
516376369.16135,303731131.27106,88661003.99811,   0.00217,   0.00056,   0.00147,475056928.00000,   0.00041,275092768.00000,   0.00041,   0.00018,   0.00032,-35840.00000,   0.00000
516327995.39928,302152387.58163,88907270.42320,   0.00217,   0.00055,   0.00147,475014048.00000,   0.00041,275092768.00000,   0.00041,   0.00018,   0.00032,-78720.00000,   0.00000
516235645.48987,300529667.74487,89153536.84829,   0.00218,   0.00054,   0.00147,474939520.00000,   0.00041,275092768.00000,   0.00041,   0.00018,   0.00032,-153248.00000,   0.00000
516112512.27732,298893755.06391,89399803.27338,   0.00218,   0.00054,   0.00148,474846048.00000,   0.00041,275092768.00000,   0.00041,   0.00018,   0.00032,-246720.00000,   0.00000
515976186.22058,297227059.07981,89646069.69847,   0.00218,   0.00053,   0.00148,474745920.00000,   0.00041,275092768.00000,   0.00041,   0.00018,   0.00032,-346848.00000,   0.00000
515795884.01649,295516386.94838,89892336.12356,   0.00218,   0.00052,   0.00148,474614464.00000,   0.00041,275092768.00000,   0.00041,   0.00018,   0.00032,-478304.00000,   0.00000
515584798.50927,293792521.97274,90129807.31919,   0.00219,   0.00051,   0.00149,474459040.00000,   0.00041,275092768.00000,   0.00041,   0.00018,   0.00032,-633728.00000,   0.00000
515360520.15785,292037873.69397,90376073.74428,   0.00219,   0.00051,   0.00149,474302368.00000,   0.00041,275092768.00000,   0.00041,   0.00018,   0.00032,-790400.00000,   0.00000
515074675.20015,290256839.72679,90613544.93990,   0.00219,   0.00050,   0.00149,474096896.00000,   0.00041,275092768.00000,   0.00041,   0.00018,   0.00032,-995872.00000,   0.00000
514775637.39826,288445022.45648,90851016.13552,   0.00219,   0.00049,   0.00150,473885280.00000,   0.00041,275092768.00000,   0.00041,   0.00018,   0.00032,-1207488.00000,   0.00000
514476599.59636,286633205.18617,91097282.56062,   0.00220,   0.00048,   0.00150,473684544.00000,   0.00041,275092768.00000,   0.00041,   0.00018,   0.00032,-1408224.00000,   0.00000
514102802.34399,284764218.92431,91334753.75624,   0.00220,   0.00047,   0.00150,473422976.00000,   0.00041,275092768.00000,   0.00041,   0.00018,   0.00032,-1669792.00000,   0.00000
513729005.09162,282895232.66246,91563429.72239,   0.00220,   0.00047,   0.00151,473162336.00000,   0.00041,275092768.00000,   0.00041,   0.00018,   0.00032,-1930432.00000,   0.00000
513311231.69191,280982270.25327,91800900.91802,   0.00220,   0.00046,   0.00151,472875872.00000,   0.00041,275092768.00000,   0.00041,   0.00018,   0.00032,-2216896.00000,   0.00000
512849482.14487,279025331.69675,92038372.11364,   0.00220,   0.00045,   0.00151,472558880.00000,   0.00041,275092768.00000,   0.00041,   0.00018,   0.00032,-2533888.00000,   0.00000
512356949.29468,277055200.29602,92267048.07980,   0.00221,   0.00044,   0.00152,472217824.00000,   0.00041,275092768.00000,   0.00041,   0.00018,   0.00032,-2874944.00000,   0.00000
511864416.44450,275085068.89529,92504519.27542,   0.00221,   0.00044,   0.00152,471888160.00000,   0.00041,275092768.00000,   0.00041,   0.00018,   0.00032,-3204608.00000,   0.00000
511314714.60278,273040178.04409,92733195.24158,   0.00221,   0.00043,   0.00152,471511392.00000,   0.00041,275092768.00000,   0.00041,   0.00018,   0.00032,-3581376.00000,   0.00000
510747422.30213,271012877.65182,92961871.20773,   0.00221,   0.00042,   0.00152,471127488.00000,   0.00041,275092768.00000,   0.00041,   0.00018,   0.00032,-3965280.00000,   0.00000
510136153.85413,268941601.11222,93190547.17389,   0.00221,   0.00041,   0.00153,470713600.00000,   0.00041,275092768.00000,   0.00041,   0.00018,   0.00032,-4379168.00000,   0.00000
509511692.56194,266839541.26947,93419223.14005,   0.00221,   0.00040,   0.00153,470294912.00000,   0.00041,275092768.00000,   0.00041,   0.00018,   0.00032,-4797856.00000,   0.00000
508825664.66347,264711095.73833,93647899.10620,   0.00221,   0.00039,   0.00153,469832864.00000,   0.00041,275092768.00000,   0.00041,   0.00018,   0.00032,-5259904.00000,   0.00000
508126443.92080,262551866.90405,93867779.84289,   0.00221,   0.00039,   0.00154,469361216.00000,   0.00041,275092768.00000,   0.00041,   0.00018,   0.00032,-5731552.00000,   0.00000
507383247.03079,260348661.92243,94096455.80905,   0.00221,   0.00038,   0.00154,468865632.00000,   0.00041,275092768.00000,   0.00041,   0.00018,   0.00032,-6227136.00000,   0.00000
506622459.68185,258163047.39975,94316336.54573,   0.00222,   0.00037,   0.00154,468358080.00000,   0.00041,275092768.00000,   0.00041,   0.00018,   0.00032,-6734688.00000,   0.00000
505835286.64451,255915866.27079,94536217.28242,   0.00222,   0.00036,   0.00154,467835616.00000,   0.00041,275092768.00000,   0.00041,   0.00018,   0.00032,-7257152.00000,   0.00000
504986547.00089,253642299.45344,94764893.24858,   0.00222,   0.00035,   0.00155,467276160.00000,   0.00041,275092768.00000,   0.00041,   0.00018,   0.00032,-7816608.00000,   0.00000
504137807.35727,251368732.63608,94975978.75580,   0.00222,   0.00034,   0.00155,466713664.00000,   0.00041,275092768.00000,   0.00041,   0.00018,   0.00032,-8379104.00000,   0.00000
503245091.56632,249051189.67138,95195859.49249,   0.00222,   0.00033,   0.00155,466128512.00000,   0.00041,275092768.00000,   0.00041,   0.00018,   0.00032,-8964256.00000,   0.00000
502321592.47223,246720453.86248,95415740.22918,   0.00222,   0.00032,   0.00156,465526688.00000,   0.00041,275092768.00000,   0.00041,   0.00018,   0.00032,-9566080.00000,   0.00000
501384900.53393,244358934.75045,95626825.73640,   0.00222,   0.00032,   0.00156,464916800.00000,   0.00041,275092768.00000,   0.00041,   0.00018,   0.00032,-10175968.00000,   0.00000
500373449.14517,241940246.64688,95846706.47309,   0.00222,   0.00031,   0.00156,464260704.00000,   0.00041,275092768.00000,   0.00041,   0.00018,   0.00032,-10832064.00000,   0.00000
499361997.75640,239521558.54331,96057791.98031,   0.00222,   0.00030,   0.00156,463607872.00000,   0.00041,275092768.00000,   0.00041,   0.00018,   0.00032,-11484896.00000,   0.00000
498319763.06450,237089677.59553,96268877.48753,   0.00222,   0.00029,   0.00157,462939040.00000,   0.00041,275092768.00000,   0.00041,   0.00018,   0.00032,-12153728.00000,   0.00000
497202768.92212,234600627.65622,96479962.99475,   0.00222,   0.00028,   0.00157,462219424.00000,   0.00041,275092768.00000,   0.00041,   0.00018,   0.00032,-12873344.00000,   0.00000
496072581.93554,232080794.41377,96691048.50197,   0.00222,   0.00027,   0.00157,461499520.00000,   0.00041,275092768.00000,   0.00041,   0.00018,   0.00032,-13593248.00000,   0.00000
494942394.94896,229560961.17132,96902134.00919,   0.00222,   0.00026,   0.00158,460789344.00000,   0.00041,275092768.00000,   0.00041,   0.00018,   0.00032,-14303424.00000,   0.00000
493750641.35611,227014742.24047,97104424.28694,   0.00222,   0.00025,   0.00158,460033984.00000,   0.00041,275092768.00000,   0.00041,   0.00018,   0.00032,-15058784.00000,   0.00000
492514911.61592,224424547.16228,97315509.79416,   0.00222,   0.00024,   0.00158,459260320.00000,   0.00041,275092768.00000,   0.00041,   0.00018,   0.00032,-15832448.00000,   0.00000
491265989.03153,221803568.78095,97517800.07192,   0.00222,   0.00023,   0.00158,458482848.00000,   0.00041,275092768.00000,   0.00041,   0.00018,   0.00032,-16609920.00000,   0.00000
489986283.14400,219169397.55542,97720090.34967,   0.00222,   0.00022,   0.00159,457692416.00000,   0.00041,275092768.00000,   0.00041,   0.00018,   0.00032,-17400352.00000,   0.00000
488675793.95334,216522033.48570,97922380.62742,   0.00222,   0.00021,   0.00159,456889632.00000,   0.00041,275092768.00000,   0.00041,   0.00018,   0.00032,-18203136.00000,   0.00000
487321328.61534,213830693.26863,98115875.67571,   0.00221,   0.00020,   0.00159,456060640.00000,   0.00041,275092768.00000,   0.00041,   0.00018,   0.00032,-19032128.00000,   0.00000
485936079.97420,211126160.20736,98318165.95346,   0.00221,   0.00019,   0.00159,455226528.00000,   0.00041,275092768.00000,   0.00041,   0.00018,   0.00032,-19866240.00000,   0.00000
484506855.18573,208377650.99876,98520456.23122,   0.00221,   0.00018,   0.00160,454374080.00000,   0.00041,275092768.00000,   0.00041,   0.00018,   0.00032,-20718688.00000,   0.00000
483033654.24992,205585165.64281,98713951.27950,   0.00221,   0.00018,   0.00160,453498656.00000,   0.00041,275092768.00000,   0.00041,   0.00018,   0.00032,-21594112.00000,   0.00000
481573646.15831,202823463.59001,98907446.32779,   0.00221,   0.00017,   0.00160,452647872.00000,   0.00041,275092768.00000,   0.00041,   0.00018,   0.00032,-22444896.00000,   0.00000
480025685.77202,199973809.24253,99100941.37607,   0.00221,   0.00016,   0.00160,451747712.00000,   0.00041,275092768.00000,   0.00041,   0.00018,   0.00032,-23345056.00000,   0.00000
478490918.22993,197154938.19818,99294436.42436,   0.00221,   0.00015,   0.00161,450871936.00000,   0.00041,275092768.00000,   0.00041,   0.00018,   0.00032,-24220832.00000,   0.00000
476868198.39317,194248114.85916,99479136.24318,   0.00221,   0.00014,   0.00161,449940768.00000,   0.00041,275092768.00000,   0.00041,   0.00018,   0.00032,-25152000.00000,   0.00000
475258671.40061,191372074.82327,99672631.29146,   0.00220,   0.00013,   0.00161,449037600.00000,   0.00041,275092768.00000,   0.00041,   0.00018,   0.00032,-26055168.00000,   0.00000
473605168.26072,188452058.64005,99857331.11028,   0.00220,   0.00012,   0.00161,448109280.00000,   0.00041,275092768.00000,   0.00041,   0.00018,   0.00032,-26983488.00000,   0.00000
471907688.97348,185488066.30949,100042030.92910,   0.00220,   0.00011,   0.00162,447160352.00000,   0.00041,275092768.00000,   0.00041,   0.00018,   0.00032,-27932416.00000,   0.00000
470179426.38311,182510881.13473,100226730.74792,   0.00220,   0.00010,   0.00162,446196864.00000,   0.00041,275092768.00000,   0.00041,   0.00018,   0.00032,-28895904.00000,   0.00000
468420380.48960,179520503.11577,100411430.56674,   0.00220,   0.00008,   0.00162,445217760.00000,   0.00041,275092768.00000,   0.00041,   0.00018,   0.00032,-29875008.00000,   0.00000
466648141.75190,176499341.79367,100596130.38556,   0.00219,   0.00007,   0.00162,444239136.00000,   0.00041,275092768.00000,   0.00041,   0.00018,   0.00032,-30853632.00000,   0.00000
464801143.56371,173421011.48003,100772034.97491,   0.00219,   0.00006,   0.00163,443206048.00000,   0.00041,275092768.00000,   0.00041,   0.00018,   0.00032,-31886720.00000,   0.00000
462923362.07239,170329488.32219,100956734.79372,   0.00219,   0.00005,   0.00163,442162272.00000,   0.00041,275092768.00000,   0.00041,   0.00018,   0.00032,-32930496.00000,   0.00000
461045580.58108,167237965.16435,101132639.38307,   0.00219,   0.00004,   0.00163,441121024.00000,   0.00041,275092768.00000,   0.00041,   0.00018,   0.00032,-33971744.00000,   0.00000
459106232.48348,164120056.31811,101308543.97243,   0.00218,   0.00003,   0.00163,440040640.00000,   0.00041,275092768.00000,   0.00041,   0.00018,   0.00032,-35052128.00000,   0.00000
457140498.69749,160940580.86560,101484448.56178,   0.00218,   0.00002,   0.00163,438958272.00000,   0.00041,275092768.00000,   0.00041,   0.00018,   0.00032,-36134496.00000,   0.00000
455126391.14942,157765503.02782,101651557.92166,   0.00218,   0.00001,   0.00164,437840480.00000,   0.00041,275092768.00000,   0.00041,   0.00018,   0.00032,-37252288.00000,   0.00000
453099090.75716,154559641.88690,101827462.51101,   0.00217,   0.00000,   0.00164,436736736.00000,   0.00041,275092768.00000,   0.00041,   0.00018,   0.00032,-38356032.00000,   0.00000
451041007.06175,151340587.90178,101994571.87089,   0.00217,  -0.00001,   0.00164,435618560.00000,   0.00041,275092768.00000,   0.00041,   0.00018,   0.00032,-39474208.00000,   0.00000
448938947.21901,148077557.76932,102161681.23078,   0.00217,  -0.00002,   0.00164,434486688.00000,   0.00041,275092768.00000,   0.00041,   0.00018,   0.00032,-40606080.00000,   0.00000
446806104.07313,144801334.79267,102328790.59066,   0.00216,  -0.00003,   0.00165,433348224.00000,   0.00041,275092768.00000,   0.00041,   0.00018,   0.00032,-41744544.00000,   0.00000
444598501.47678,141467942.82447,102487104.72108,   0.00216,  -0.00004,   0.00165,432167040.00000,   0.00041,275092768.00000,   0.00041,   0.00018,   0.00032,-42925728.00000,   0.00000
442390898.88043,138134550.85627,102654214.08096,   0.00216,  -0.00005,   0.00165,431010496.00000,   0.00041,275092768.00000,   0.00041,   0.00018,   0.00032,-44082272.00000,   0.00000
440139320.13674,134757182.74074,102812528.21137,   0.00215,  -0.00006,   0.00165,429836256.00000,   0.00041,275092768.00000,   0.00041,   0.00018,   0.00032,-45256512.00000,   0.00000
437870150.93412,131397405.08414,102970842.34179,   0.00215,  -0.00007,   0.00165,428661088.00000,   0.00041,275092768.00000,   0.00041,   0.00018,   0.00032,-46431680.00000,   0.00000
435543812.73995,127962867.97707,103129156.47221,   0.00215,  -0.00009,   0.00166,427469824.00000,   0.00041,275092768.00000,   0.00041,   0.00018,   0.00032,-47622944.00000,   0.00000
433230667.38999,124559114.17313,103287470.60262,   0.00214,  -0.00010,   0.00166,426301984.00000,   0.00041,275092768.00000,   0.00041,   0.00018,   0.00032,-48790784.00000,   0.00000
430842762.58955,121098191.37766,103445784.73304,   0.00214,  -0.00011,   0.00166,425099584.00000,   0.00041,275092768.00000,   0.00041,   0.00018,   0.00032,-49993184.00000,   0.00000
428410881.64178,117593292.43484,103595303.63399,   0.00213,  -0.00012,   0.00166,423881536.00000,   0.00041,275092768.00000,   0.00041,   0.00018,   0.00032,-51211232.00000,   0.00000
425961410.23507,114105983.95096,103744822.53493,   0.00213,  -0.00013,   0.00166,422663520.00000,   0.00041,275092768.00000,   0.00041,   0.00018,   0.00032,-52429248.00000,   0.00000
423454769.83682,110543916.01661,103894341.43588,   0.00213,  -0.00014,   0.00167,421433216.00000,   0.00041,275092768.00000,   0.00041,   0.00018,   0.00032,-53659552.00000,   0.00000
420961322.28278,107012631.38540,104043860.33683,   0.00212,  -0.00015,   0.00167,420227360.00000,   0.00041,275092768.00000,   0.00041,   0.00018,   0.00032,-54865408.00000,   0.00000
418393115.27826,103424177.76264,104184584.00831,   0.00212,  -0.00016,   0.00167,418984704.00000,   0.00041,275092768.00000,   0.00041,   0.00018,   0.00032,-56108064.00000,   0.00000
415794124.97060,99822531.29568,104334102.90926,   0.00211,  -0.00018,   0.00167,417746144.00000,   0.00041,275092768.00000,   0.00041,   0.00018,   0.00032,-57346624.00000,   0.00000
413181941.81874,96190101.52559,104474826.58074,   0.00211,  -0.00019,   0.00167,416518944.00000,   0.00041,275092768.00000,   0.00041,   0.00018,   0.00032,-58573824.00000,   0.00000
410508192.06061,92531286.06710,104615550.25222,   0.00210,  -0.00020,   0.00168,415266016.00000,   0.00041,275092768.00000,   0.00041,   0.00018,   0.00032,-59826752.00000,   0.00000
407790466.15514,88828494.46126,104747478.69423,   0.00210,  -0.00021,   0.00168,414000000.00000,   0.00041,275092768.00000,   0.00041,   0.00018,   0.00032,-61092768.00000,   0.00000
405085933.09387,85156486.15857,104888202.36571,   0.00209,  -0.00022,   0.00168,412762272.00000,   0.00041,275092768.00000,   0.00041,   0.00018,   0.00032,-62330496.00000,   0.00000
402306640.58213,81427308.86433,105020130.80773,   0.00209,  -0.00023,   0.00168,411483456.00000,   0.00041,275092768.00000,   0.00041,   0.00018,   0.00032,-63609312.00000,   0.00000
399514155.22619,77667348.26696,105152059.24974,   0.00208,  -0.00024,   0.00168,410214976.00000,   0.00041,275092768.00000,   0.00041,   0.00018,   0.00032,-64877792.00000,   0.00000
396660103.26397,73881001.98118,105283987.69175,   0.00207,  -0.00026,   0.00168,408912128.00000,   0.00041,275092768.00000,   0.00041,   0.00018,   0.00032,-66180640.00000,   0.00000
393806051.30176,70094655.69541,105415916.13377,   0.00207,  -0.00027,   0.00169,407626336.00000,   0.00041,275092768.00000,   0.00041,   0.00018,   0.00032,-67466432.00000,   0.00000
390890432.73327,66281923.72123,105539049.34631,   0.00206,  -0.00028,   0.00169,406310688.00000,   0.00041,275092768.00000,   0.00041,   0.00018,   0.00032,-68782080.00000,   0.00000
387961621.32058,62438408.44392,105670977.78832,   0.00206,  -0.00029,   0.00169,405032736.00000,   0.00041,275092768.00000,   0.00041,   0.00018,   0.00032,-70060032.00000,   0.00000
384971243.30162,58568507.47820,105794111.00087,   0.00205,  -0.00030,   0.00169,403740640.00000,   0.00041,275092768.00000,   0.00041,   0.00018,   0.00032,-71352128.00000,   0.00000
381936889.13532,54654630.36515,105908448.98395,   0.00205,  -0.00031,   0.00169,402458080.00000,   0.00041,275092768.00000,   0.00041,   0.00018,   0.00032,-72634688.00000,   0.00000
378915727.81322,50771536.55523,106031582.19649,   0.00204,  -0.00033,   0.00169,401221856.00000,   0.00041,275092768.00000,   0.00041,   0.00018,   0.00032,-73870912.00000,   0.00000
375837397.49958,46813683.29484,106145920.17957,   0.00203,  -0.00034,   0.00170,399994912.00000,   0.00041,275092768.00000,   0.00041,   0.00018,   0.00032,-75097856.00000,   0.00000
372710693.42387,42860227.64918,106260258.16265,   0.00203,  -0.00035,   0.00170,398782720.00000,   0.00041,275092768.00000,   0.00041,   0.00018,   0.00032,-76310048.00000,   0.00000
369570796.50396,38875988.70039,106374596.14573,   0.00202,  -0.00036,   0.00170,397552224.00000,   0.00041,275092768.00000,   0.00041,   0.00018,   0.00032,-77540544.00000,   0.00000
366369332.97778,34865364.06319,106488934.12880,   0.00201,  -0.00037,   0.00170,396177568.00000,   0.00041,275092768.00000,   0.00041,   0.00018,   0.00032,-78915200.00000,   0.00000
363167869.45159,30854739.42599,106594476.88242,   0.00201,  -0.00039,   0.00170,394841696.00000,   0.00041,275092768.00000,   0.00041,   0.00018,   0.00032,-80251072.00000,   0.00000
359891646.47493,26786945.79726,106700019.63603,   0.00200,  -0.00040,   0.00170,393552608.00000,   0.00041,275092768.00000,   0.00041,   0.00018,   0.00032,-81540160.00000,   0.00000
356615423.49828,22719152.16852,106805562.38964,   0.00199,  -0.00041,   0.00170,392332512.00000,   0.00041,275092768.00000,   0.00041,   0.00018,   0.00032,-82760256.00000,   0.00000
353277633.91535,18624972.85138,106911105.14325,   0.00199,  -0.00042,   0.00171,391119136.00000,   0.00041,275092768.00000,   0.00041,   0.00018,   0.00032,-83973632.00000,   0.00000
349939844.33242,14530793.53425,107007852.66739,   0.00198,  -0.00043,   0.00171,389941024.00000,   0.00041,275092768.00000,   0.00041,   0.00018,   0.00032,-85151744.00000,   0.00000
346527295.29901,10379445.22557,107104600.19153,   0.00197,  -0.00045,   0.00171,388759360.00000,   0.00041,275092768.00000,   0.00041,   0.00018,   0.00032,-86333408.00000,   0.00000
343114746.26561,6228096.91689,107201347.71568,   0.00196,  -0.00046,   0.00171,387613056.00000,   0.00041,275092768.00000,   0.00041,   0.00018,   0.00032,-87479712.00000,   0.00000
339627437.78173,2019579.61667,107298095.23982,   0.00196,  -0.00047,   0.00171,386458464.00000,   0.00041,275092768.00000,   0.00041,   0.00018,   0.00032,-88634304.00000,   0.00000
336153322.14205,-2158154.38041,107386047.53449,   0.00195,  -0.00048,   0.00171,385325312.00000,   0.00041,275092768.00000,   0.00041,   0.00018,   0.00032,-89767456.00000,   0.00000
332604447.05190,-6393057.36902,107482795.05864,   0.00194,  -0.00050,   0.00171,384189056.00000,   0.00041,275092768.00000,   0.00041,   0.00018,   0.00032,-90903712.00000,   0.00000
329055571.96175,-10627960.35764,107570747.35331,   0.00193,  -0.00051,   0.00171,383075552.00000,   0.00041,275092768.00000,   0.00041,   0.00018,   0.00032,-92017216.00000,   0.00000
325431937.42112,-14920032.33780,107649904.41852,   0.00192,  -0.00052,   0.00172,381947648.00000,   0.00041,275092768.00000,   0.00041,   0.00018,   0.00032,-93145120.00000,   0.00000
321808302.88050,-19212104.31796,107737856.71319,   0.00192,  -0.00053,   0.00172,380863360.00000,   0.00041,275092768.00000,   0.00041,   0.00018,   0.00032,-94229408.00000,   0.00000
318123101.73360,-23530561.98652,107817013.77840,   0.00191,  -0.00055,   0.00172,379771168.00000,   0.00041,275092768.00000,   0.00041,   0.00018,   0.00032,-95321600.00000,   0.00000
314437900.58670,-27849019.65508,107896170.84361,   0.00190,  -0.00056,   0.00172,378725472.00000,   0.00041,275092768.00000,   0.00041,   0.00018,   0.00032,-96367296.00000,   0.00000
310691132.83353,-32193863.01204,107966532.67935,   0.00189,  -0.00057,   0.00172,377683424.00000,   0.00041,275092768.00000,   0.00041,   0.00018,   0.00032,-97409344.00000,   0.00000
306931172.23616,-36569489.67214,108045689.74456,   0.00188,  -0.00058,   0.00172,376708288.00000,   0.00041,275092768.00000,   0.00041,   0.00018,   0.00032,-98384480.00000,   0.00000
303109645.03252,-40971502.02065,108116051.58030,   0.00187,  -0.00060,   0.00172,375743232.00000,   0.00041,275092768.00000,   0.00041,   0.00018,   0.00032,-99349536.00000,   0.00000
299288117.82887,-45373514.36915,108186413.41604,   0.00186,  -0.00061,   0.00172,374831936.00000,   0.00041,275092768.00000,   0.00041,   0.00018,   0.00032,-100260832.00000,   0.00000
295405024.01895,-49801912.40605,108247980.02231,   0.00186,  -0.00062,   0.00172,373921376.00000,   0.00041,275092768.00000,   0.00041,   0.00018,   0.00032,-101171392.00000,   0.00000
291508737.36484,-54261093.74609,108318341.85805,   0.00185,  -0.00063,   0.00172,373060768.00000,   0.00041,275092768.00000,   0.00041,   0.00018,   0.00032,-102032000.00000,   0.00000
287550884.10444,-58746660.77454,108379908.46433,   0.00184,  -0.00065,   0.00172,372181824.00000,   0.00041,275092768.00000,   0.00041,   0.00018,   0.00032,-102910944.00000,   0.00000
283593030.84405,-63232227.80298,108441475.07060,   0.00183,  -0.00066,   0.00173,371322528.00000,   0.00041,275092768.00000,   0.00041,   0.00018,   0.00032,-103770240.00000,   0.00000
279573610.97739,-67744180.51983,108494246.44740,   0.00182,  -0.00067,   0.00173,370434688.00000,   0.00041,275092768.00000,   0.00041,   0.00018,   0.00032,-104658080.00000,   0.00000
275554191.11072,-72256133.23667,108547017.82421,   0.00181,  -0.00068,   0.00173,369567808.00000,   0.00041,275092768.00000,   0.00041,   0.00018,   0.00032,-105524960.00000,   0.00000
271460011.79359,-76825254.94506,108599789.20101,   0.00180,  -0.00070,   0.00173,368698688.00000,   0.00041,275092768.00000,   0.00041,   0.00018,   0.00032,-106394080.00000,   0.00000
267365832.47645,-81394376.65344,108652560.57782,   0.00179,  -0.00071,   0.00173,367870848.00000,   0.00041,275092768.00000,   0.00041,   0.00018,   0.00032,-107221920.00000,   0.00000
263210086.55304,-85989884.05023,108696536.72516,   0.00178,  -0.00072,   0.00173,367051328.00000,   0.00041,275092768.00000,   0.00041,   0.00018,   0.00032,-108041440.00000,   0.00000
259054340.62962,-90585391.44702,108740512.87249,   0.00177,  -0.00074,   0.00173,366296064.00000,   0.00041,275092768.00000,   0.00041,   0.00018,   0.00032,-108796704.00000,   0.00000
254837028.09994,-95207284.53221,108784489.01983,   0.00176,  -0.00075,   0.00173,365576128.00000,   0.00041,275092768.00000,   0.00041,   0.00018,   0.00032,-109516640.00000,   0.00000
250606522.72606,-99859960.92054,108819669.93770,   0.00175,  -0.00076,   0.00173,364930336.00000,   0.00041,275092768.00000,   0.00041,   0.00018,   0.00032,-110162432.00000,   0.00000
246358426.89324,-104495046.84993,108863646.08504,   0.00174,  -0.00077,   0.00173,364339488.00000,   0.00041,275092768.00000,   0.00041,   0.00018,   0.00032,-110753280.00000,   0.00000
242035571.60994,-109187301.77086,108898827.00291,   0.00173,  -0.00079,   0.00173,363782336.00000,   0.00041,275092768.00000,   0.00041,   0.00018,   0.00032,-111310432.00000,   0.00000
237712716.32665,-113879556.69179,108925212.69131,   0.00172,  -0.00080,   0.00173,363278528.00000,   0.00041,275092768.00000,   0.00041,   0.00018,   0.00032,-111814240.00000,   0.00000
233328294.43708,-118598197.30112,108951598.37971,   0.00171,  -0.00081,   0.00173,362798464.00000,   0.00041,275092768.00000,   0.00041,   0.00018,   0.00032,-112294304.00000,   0.00000
228930679.70331,-123347621.21359,108986779.29759,   0.00170,  -0.00083,   0.00173,362390528.00000,   0.00041,275092768.00000,   0.00041,   0.00018,   0.00032,-112702240.00000,   0.00000
224484691.20747,-128092647.51133,109004369.75652,   0.00169,  -0.00084,   0.00173,361982848.00000,   0.00041,275092768.00000,   0.00041,   0.00018,   0.00032,-113109920.00000,   0.00000
220025509.86743,-132868457.11220,109030755.44492,   0.00167,  -0.00085,   0.00173,361656768.00000,   0.00041,275092768.00000,   0.00041,   0.00018,   0.00032,-113436000.00000,   0.00000
215535545.22425,-137657459.55728,109048345.90386,   0.00166,  -0.00087,   0.00173,361378816.00000,   0.00041,275092768.00000,   0.00041,   0.00018,   0.00032,-113713952.00000,   0.00000
210984013.97480,-142472847.69075,109065936.36279,   0.00165,  -0.00088,   0.00173,361149280.00000,   0.00041,275092768.00000,   0.00041,   0.00018,   0.00032,-113943488.00000,   0.00000
206432482.72535,-147288235.82423,109074731.59226,   0.00164,  -0.00089,   0.00173,360992608.00000,   0.00041,275092768.00000,   0.00041,   0.00018,   0.00032,-114100160.00000,   0.00000
201850168.17277,-152116816.80191,109083526.82173,   0.00163,  -0.00090,   0.00173,360896960.00000,   0.00041,275092768.00000,   0.00041,   0.00018,   0.00032,-114195808.00000,   0.00000
197237070.31704,-156958590.62379,109092322.05120,   0.00162,  -0.00092,   0.00173,360850976.00000,   0.00041,275092768.00000,   0.00041,   0.00018,   0.00032,-114241792.00000,   0.00000
192549213.01085,-161857533.43720,109101117.28066,   0.00161,  -0.00093,   0.00173,360837312.00000,   0.00041,275092768.00000,   0.00041,   0.00018,   0.00032,-114255456.00000,   0.00000
187874548.54885,-166725692.94749,109101117.28066,   0.00159,  -0.00094,   0.00173,360834368.00000,   0.00041,275092768.00000,   0.00041,   0.00018,   0.00032,-114258400.00000,   0.00000
183155907.93952,-171637828.60511,109101117.28066,   0.00158,  -0.00096,   0.00173,360801216.00000,   0.00041,275092768.00000,   0.00041,   0.00018,   0.00032,-114291552.00000,   0.00000
178406484.02705,-176563157.10693,109092322.05120,   0.00157,  -0.00097,   0.00173,360783296.00000,   0.00041,275092768.00000,   0.00041,   0.00018,   0.00032,-114309472.00000,   0.00000
173639469.65564,-181470895.14981,109092322.05120,   0.00156,  -0.00098,   0.00173,360959744.00000,   0.00041,275092768.00000,   0.00041,   0.00018,   0.00032,-114133024.00000,   0.00000
168828479.13690,-186422609.34003,109074731.59226,   0.00155,  -0.00100,   0.00173,361046272.00000,   0.00041,275092768.00000,   0.00041,   0.00018,   0.00032,-114046496.00000,   0.00000
163986705.31502,-191387516.37446,109065936.36279,   0.00153,  -0.00101,   0.00173,361152128.00000,   0.00041,275092768.00000,   0.00041,   0.00018,   0.00032,-113940640.00000,   0.00000
159100955.34580,-196396399.55622,109048345.90386,   0.00152,  -0.00102,   0.00173,361389280.00000,   0.00041,275092768.00000,   0.00041,   0.00018,   0.00032,-113703488.00000,   0.00000
154197614.91765,-201387692.27905,109030755.44492,   0.00151,  -0.00104,   0.00173,361826368.00000,   0.00041,275092768.00000,   0.00041,   0.00018,   0.00032,-113266400.00000,   0.00000
149263491.18636,-206392177.84608,109013164.98599,   0.00150,  -0.00105,   0.00173,362461728.00000,   0.00041,275092768.00000,   0.00041,   0.00018,   0.00032,-112631040.00000,   0.00000
144298584.15194,-211409856.25731,108986779.29759,   0.00148,  -0.00106,   0.00173,363167072.00000,   0.00041,275092768.00000,   0.00041,   0.00018,   0.00032,-111925696.00000,   0.00000
139289700.97018,-216471510.81587,108960393.60918,   0.00147,  -0.00108,   0.00173,363873504.00000,   0.00041,275092768.00000,   0.00041,   0.00018,   0.00032,-111219264.00000,   0.00000
134294010.63262,-221502382.07131,108934007.92078,   0.00146,  -0.00109,   0.00173,364523808.00000,   0.00041,275092768.00000,   0.00041,   0.00018,   0.00032,-110568960.00000,   0.00000
129223560.84458,-226590422.31828,108898827.00291,   0.00144,  -0.00110,   0.00173,365109600.00000,   0.00041,275092768.00000,   0.00041,   0.00018,   0.00032,-109983168.00000,   0.00000
124135520.59761,-231660872.10631,108863646.08504,   0.00143,  -0.00111,   0.00173,365624288.00000,   0.00041,275092768.00000,   0.00041,   0.00018,   0.00032,-109468480.00000,   0.00000
119034287.50644,-236762105.19748,108819669.93770,   0.00142,  -0.00113,   0.00173,366120000.00000,   0.00041,275092768.00000,   0.00041,   0.00018,   0.00032,-108972768.00000,   0.00000
113884680.65320,-241858940.67392,108784489.01983,   0.00140,  -0.00114,   0.00173,366611744.00000,   0.00041,275092768.00000,   0.00041,   0.00018,   0.00032,-108481024.00000,   0.00000
108721880.95575,-246986559.45349,108731717.64303,   0.00139,  -0.00115,   0.00173,367164640.00000,   0.00041,275092768.00000,   0.00041,   0.00018,   0.00032,-107928128.00000,   0.00000
103528297.95517,-252127371.07727,108687741.49569,   0.00138,  -0.00117,   0.00173,367825472.00000,   0.00041,275092768.00000,   0.00041,   0.00018,   0.00032,-107267296.00000,   0.00000
98303931.65145,-257281375.54525,108634970.11888,   0.00136,  -0.00118,   0.00173,368605952.00000,   0.00041,275092768.00000,   0.00041,   0.00018,   0.00032,-106486816.00000,   0.00000
93031191.58567,-262430982.39849,108582198.74208,   0.00135,  -0.00119,   0.00173,369504000.00000,   0.00041,275092768.00000,   0.00041,   0.00018,   0.00032,-105588768.00000,   0.00000
87745258.67568,-267611372.55487,108520632.13581,   0.00134,  -0.00121,   0.00173,370554432.00000,   0.00041,275092768.00000,   0.00041,   0.00018,   0.00032,-104538336.00000,   0.00000
82428542.46255,-272804955.55545,108459065.52953,   0.00132,  -0.00122,   0.00173,371712864.00000,   0.00041,275092768.00000,   0.00041,   0.00018,   0.00032,-103379904.00000,   0.00000
77111826.24942,-277998538.55603,108397498.92326,   0.00131,  -0.00123,   0.00172,372940448.00000,   0.00041,275092768.00000,   0.00041,   0.00018,   0.00032,-102152320.00000,   0.00000
71746736.27423,-283187723.94187,108335932.31699,   0.00129,  -0.00125,   0.00172,374151648.00000,   0.00041,275092768.00000,   0.00041,   0.00018,   0.00032,-100941120.00000,   0.00000
66337670.15169,-288420885.47506,108265570.48125,   0.00128,  -0.00126,   0.00172,375333440.00000,   0.00041,275092768.00000,   0.00041,   0.00018,   0.00032,-99759328.00000,   0.00000
60897820.72602,-293667239.85244,108186413.41604,   0.00126,  -0.00127,   0.00172,376437760.00000,   0.00041,275092768.00000,   0.00041,   0.00018,   0.00032,-98655008.00000,   0.00000
55457971.30035,-298913594.22983,108107256.35083,   0.00125,  -0.00129,   0.00172,377481120.00000,   0.00041,275092768.00000,   0.00041,   0.00018,   0.00032,-97611648.00000,   0.00000
49987338.57154,-304173141.45142,108028099.28562,   0.00123,  -0.00130,   0.00172,378497376.00000,   0.00041,275092768.00000,   0.00041,   0.00018,   0.00032,-96595392.00000,   0.00000
44468332.08066,-309428291.05827,107948942.22042,   0.00122,  -0.00131,   0.00172,379535008.00000,   0.00041,275092768.00000,   0.00041,   0.00018,   0.00032,-95557760.00000,   0.00000
38936132.74558,-314714223.96826,107860989.92574,   0.00120,  -0.00133,   0.00172,380718624.00000,   0.00041,275092768.00000,   0.00041,   0.00018,   0.00032,-94374144.00000,   0.00000
33373150.10736,-320013349.72245,107773037.63107,   0.00119,  -0.00134,   0.00172,382090816.00000,   0.00041,275092768.00000,   0.00041,   0.00018,   0.00032,-93001952.00000,   0.00000
27792577.01021,-325294885.01771,107676290.10692,   0.00117,  -0.00135,   0.00172,383649472.00000,   0.00041,275092768.00000,   0.00041,   0.00018,   0.00032,-91443296.00000,   0.00000
22198811.06886,-330607203.61610,107579542.58278,   0.00116,  -0.00137,   0.00171,385419552.00000,   0.00041,275092768.00000,   0.00041,   0.00018,   0.00032,-89673216.00000,   0.00000
16556671.36543,-335915124.59976,107482795.05864,   0.00114,  -0.00138,   0.00171,387322080.00000,   0.00041,275092768.00000,   0.00041,   0.00018,   0.00032,-87770688.00000,   0.00000
10901338.81781,-341253828.88655,107377252.30503,   0.00113,  -0.00139,   0.00171,389354016.00000,   0.00041,275092768.00000,   0.00041,   0.00018,   0.00032,-85738752.00000,   0.00000
5197632.50811,-346588135.55861,107271709.55142,   0.00111,  -0.00141,   0.00171,391469376.00000,   0.00041,275092768.00000,   0.00041,   0.00018,   0.00032,-83623392.00000,   0.00000
-506073.80159,-351922442.23068,107157371.56834,   0.00110,  -0.00142,   0.00171,393680352.00000,   0.00041,275092768.00000,   0.00041,   0.00018,   0.00032,-81412416.00000,   0.00000
-6253756.25862,-357300725.05007,107051828.81473,   0.00108,  -0.00143,   0.00171,396036608.00000,   0.00041,275092768.00000,   0.00041,   0.00018,   0.00032,-79056160.00000,   0.00000
-12019029.17459,-362661417.41054,106928695.60218,   0.00107,  -0.00145,   0.00171,398490400.00000,   0.00041,275092768.00000,   0.00041,   0.00018,   0.00032,-76602368.00000,   0.00000
-17815085.39370,-368035302.61520,106805562.38964,   0.00105,  -0.00146,   0.00170,401081152.00000,   0.00041,275092768.00000,   0.00041,   0.00018,   0.00032,-74011616.00000,   0.00000
-23611141.61281,-373409187.81987,106682429.17709,   0.00103,  -0.00147,   0.00170,403801504.00000,   0.00041,275092768.00000,   0.00041,   0.00018,   0.00032,-71291264.00000,   0.00000
-29468764.43819,-378809458.71294,106559295.96454,   0.00102,  -0.00148,   0.00170,406645920.00000,   0.00041,275092768.00000,   0.00041,   0.00018,   0.00032,-68446848.00000,   0.00000
-35326387.26357,-384209729.60600,106427367.52253,   0.00100,  -0.00150,   0.00170,409582880.00000,   0.00041,275092768.00000,   0.00041,   0.00018,   0.00032,-65509888.00000,   0.00000
-41214793.39208,-389623193.34327,106295439.08052,   0.00099,  -0.00151,   0.00170,412593216.00000,   0.00041,275092768.00000,   0.00041,   0.00018,   0.00032,-62499552.00000,   0.00000
-47120789.97953,-395019066.62161,106154715.40904,   0.00097,  -0.00152,   0.00170,415602272.00000,   0.00041,275092768.00000,   0.00041,   0.00018,   0.00032,-59490496.00000,   0.00000
-53039979.41119,-400445723.20308,106013991.73756,   0.00095,  -0.00154,   0.00169,418611360.00000,   0.00041,275092768.00000,   0.00041,   0.00018,   0.00032,-56481408.00000,   0.00000
-59007542.60491,-405867982.16981,105864472.83661,   0.00094,  -0.00155,   0.00169,421527584.00000,   0.00041,275092768.00000,   0.00041,   0.00018,   0.00032,-53565184.00000,   0.00000
-64975105.79863,-411290241.13655,105714953.93566,   0.00092,  -0.00156,   0.00169,424349248.00000,   0.00041,275092768.00000,   0.00041,   0.00018,   0.00032,-50743520.00000,   0.00000
-70986645.13969,-416756476.25062,105565435.03471,   0.00090,  -0.00158,   0.00169,427154912.00000,   0.00041,275092768.00000,   0.00041,   0.00018,   0.00032,-47937856.00000,   0.00000
-77015774.93969,-422205120.90576,105407120.90430,   0.00089,  -0.00159,   0.00169,429997248.00000,   0.00041,275092768.00000,   0.00041,   0.00018,   0.00032,-45095520.00000,   0.00000
-83044904.73969,-427653765.56090,105248806.77388,   0.00087,  -0.00160,   0.00168,432912576.00000,   0.00041,275092768.00000,   0.00041,   0.00018,   0.00032,-42180192.00000,   0.00000
-89122408.30175,-433098012.60131,105090492.64347,   0.00085,  -0.00162,   0.00168,435862048.00000,   0.00041,275092768.00000,   0.00041,   0.00018,   0.00032,-39230720.00000,   0.00000
-95213104.70802,-438573042.94485,104923383.28358,   0.00084,  -0.00163,   0.00168,438877504.00000,   0.00041,275092768.00000,   0.00041,   0.00018,   0.00032,-36215264.00000,   0.00000
-101321391.57323,-444030482.82945,104747478.69423,   0.00082,  -0.00164,   0.00168,441912064.00000,   0.00041,275092768.00000,   0.00041,   0.00018,   0.00032,-33180704.00000,   0.00000
-107473654.58577,-449531898.86140,104571574.10488,   0.00080,  -0.00165,   0.00168,445021184.00000,   0.00041,275092768.00000,   0.00041,   0.00018,   0.00032,-30071584.00000,   0.00000
-113612724.75411,-455002531.59021,104395669.51553,   0.00078,  -0.00167,   0.00167,448161056.00000,   0.00041,275092768.00000,   0.00041,   0.00018,   0.00032,-26931712.00000,   0.00000
-119782578.22559,-460486357.16322,104219764.92618,   0.00077,  -0.00168,   0.00167,451367744.00000,   0.00041,275092768.00000,   0.00041,   0.00018,   0.00032,-23725024.00000,   0.00000
-125983215.00020,-465983375.58043,104026269.87789,   0.00075,  -0.00169,   0.00167,454632928.00000,   0.00041,275092768.00000,   0.00041,   0.00018,   0.00032,-20459840.00000,   0.00000
-132201442.23375,-471462803.53870,103841570.05908,   0.00073,  -0.00171,   0.00167,457945024.00000,   0.00041,275092768.00000,   0.00041,   0.00018,   0.00032,-17147744.00000,   0.00000
-138432862.31150,-476973014.80011,103648075.01079,   0.00071,  -0.00172,   0.00166,461325568.00000,   0.00041,275092768.00000,   0.00041,   0.00018,   0.00032,-13767200.00000,   0.00000
-144712656.15132,-482478828.44679,103454579.96250,   0.00070,  -0.00173,   0.00166,464736064.00000,   0.00041,275092768.00000,   0.00041,   0.00018,   0.00032,-10356704.00000,   0.00000
-150961666.68801,-487971449.24927,103252289.68475,   0.00068,  -0.00174,   0.00166,468179264.00000,   0.00041,275092768.00000,   0.00041,   0.00018,   0.00032,-6913504.00000,   0.00000
-157272243.83096,-493490455.74015,103049999.40700,   0.00066,  -0.00176,   0.00166,471683072.00000,   0.00041,275092768.00000,   0.00041,   0.00018,   0.00032,-3409696.00000,   0.00000
-163354385.50232,-498791093.17440,102846128.73645,   0.00064,  -0.00177,   0.00165,475093152.00000,   0.00041,275092768.00000,   0.00041,   0.00018,   0.00032, 384.00000,   0.00000
-163539149.58675,-498854963.73104,102810223.74878,   0.00064,  -0.00177,   0.00165,475093152.00000,   0.00041,275093280.00000,   0.00041,   0.00018,   0.00032,-512.00000,   1.00000
-168943961.94338,-500721923.28039,101762013.25995,   0.00062,  -0.00178,   0.00165,478705408.00000,   0.00043,275108416.00000,   0.00042,   0.00017,   0.00033,  64.00000,   2.00000
-174292670.01805,-502522544.43530,100697010.94756,   0.00061,  -0.00180,   0.00165,478761696.00000,   0.00044,275123584.00000,   0.00042,   0.00015,   0.00034,  96.00000,   2.00000
-179572627.04130,-504234912.70902,99618472.64468,   0.00059,  -0.00181,   0.00164,478854752.00000,   0.00046,275139008.00000,   0.00042,   0.00014,   0.00035,  96.00000,   2.00000
-184872188.14851,-505890113.91636,98537031.88341,   0.00057,  -0.00182,   0.00164,478929792.00000,   0.00047,275154656.00000,   0.00042,   0.00012,   0.00036, -64.00000,   2.00000
-190103282.45997,-507491046.19508,97462382.69849,   0.00055,  -0.00183,   0.00164,478933824.00000,   0.00048,275170240.00000,   0.00043,   0.00011,   0.00037,  64.00000,   2.00000
-195351046.60612,-509057045.85312,96376065.00207,   0.00053,  -0.00185,   0.00164,479020704.00000,   0.00050,275186048.00000,   0.00043,   0.00009,   0.00038,   0.00000,   2.00000
-200536706.75779,-510547893.23517,95301948.37012,   0.00051,  -0.00186,   0.00163,479063616.00000,   0.00051,275201920.00000,   0.00043,   0.00007,   0.00039,  96.00000,   2.00000
-205696455.63431,-511989114.02623,94205931.10211,   0.00050,  -0.00187,   0.00163,479122496.00000,   0.00053,275217920.00000,   0.00043,   0.00006,   0.00040,  32.00000,   2.00000
-210791733.82669,-513358067.89729,93117173.66842,   0.00048,  -0.00188,   0.00163,479158240.00000,   0.00054,275233984.00000,   0.00044,   0.00004,   0.00042,  32.00000,   2.00000
-215857417.28546,-514676723.89080,92014488.14467,   0.00046,  -0.00190,   0.00162,479213440.00000,   0.00056,275250176.00000,   0.00044,   0.00002,   0.00043,  64.00000,   2.00000
-220890958.92583,-515943992.21009,90899738.54321,   0.00044,  -0.00191,   0.00162,479269792.00000,   0.00057,275266496.00000,   0.00044,   0.00001,   0.00044, -64.00000,   2.00000
-225860550.68761,-517148706.42328,89784116.11808,   0.00042,  -0.00192,   0.00162,479326112.00000,   0.00059,275282944.00000,   0.00044,  -0.00001,   0.00045, -32.00000,   2.00000
-230793005.35767,-518297855.27096,88659212.26567,   0.00040,  -0.00193,   0.00161,479390848.00000,   0.00060,275299488.00000,   0.00044,  -0.00003,   0.00046,  64.00000,   2.00000
-235681043.51092,-519380242.15995,87538610.94074,   0.00038,  -0.00195,   0.00161,479439552.00000,   0.00062,275316128.00000,   0.00044,  -0.00004,   0.00047,   0.00000,   2.00000
-240500100.46582,-520396402.66969,86419531.29238,   0.00036,  -0.00196,   0.00161,479506784.00000,   0.00063,275332864.00000,   0.00044,  -0.00006,   0.00048,  96.00000,   2.00000
-245252488.48640,-521352320.10525,85294521.79650,   0.00034,  -0.00197,   0.00160,479570240.00000,   0.00065,275349696.00000,   0.00044,  -0.00008,   0.00049, -64.00000,   2.00000
-249988135.05359,-522246443.63670,84172658.45462,   0.00033,  -0.00198,   0.00160,479633152.00000,   0.00066,275366624.00000,   0.00044,  -0.00009,   0.00050,  32.00000,   2.00000
-254660942.66489,-523084935.49560,83044884.30137,   0.00031,  -0.00199,   0.00160,479695392.00000,   0.00068,275383648.00000,   0.00044,  -0.00011,   0.00052,  96.00000,   2.00000
-259272138.97904,-523866895.63609,81918861.00945,   0.00029,  -0.00201,   0.00159,479759008.00000,   0.00070,275400768.00000,   0.00044,  -0.00013,   0.00053,  32.00000,   2.00000
-263875294.38391,-524599981.64290,80786897.58819,   0.00027,  -0.00202,   0.00159,479811168.00000,   0.00071,275417952.00000,   0.00044,  -0.00015,   0.00054,   0.00000,   2.00000
-268392306.65543,-525282220.98273,79652916.01830,   0.00025,  -0.00203,   0.00158,479883840.00000,   0.00073,275435264.00000,   0.00044,  -0.00016,   0.00055,  64.00000,   2.00000
-272867112.93092,-525909719.18215,78519060.79583,   0.00023,  -0.00204,   0.00158,479897536.00000,   0.00074,275452512.00000,   0.00044,  -0.00018,   0.00056,  96.00000,   2.00000
-277291491.38581,-526482215.51608,77379651.35617,   0.00021,  -0.00206,   0.00158,479994880.00000,   0.00076,275470016.00000,   0.00044,  -0.00020,   0.00057, 224.00000,   2.00000
-281661250.79033,-526994896.91918,76237271.18544,   0.00019,  -0.00207,   0.00157,480040512.00000,   0.00078,275487520.00000,   0.00044,  -0.00022,   0.00058, 128.00000,   2.00000
-285929248.62489,-527447834.90891,75100794.06006,   0.00017,  -0.00208,   0.00157,480092000.00000,   0.00079,275505088.00000,   0.00044,  -0.00024,   0.00059, 128.00000,   2.00000
-290178644.04284,-527849749.38987,73956627.31698,   0.00015,  -0.00209,   0.00156,480172512.00000,   0.00081,275522816.00000,   0.00044,  -0.00026,   0.00060,   0.00000,   2.00000
-294367158.45137,-528199092.73365,72822294.28765,   0.00013,  -0.00210,   0.00156,480202336.00000,   0.00082,275540512.00000,   0.00044,  -0.00027,   0.00061, 128.00000,   2.00000
-298498462.25650,-528502321.23187,71693742.74949,   0.00011,  -0.00212,   0.00156,480252768.00000,   0.00084,275558304.00000,   0.00044,  -0.00029,   0.00062,  64.00000,   2.00000
-302599461.03539,-528762255.05713,70565203.12258,   0.00009,  -0.00213,   0.00155,480283520.00000,   0.00086,275576064.00000,   0.00044,  -0.00031,   0.00063, 128.00000,   2.00000
-306666927.40022,-528981997.96372,69432335.55433,   0.00007,  -0.00214,   0.00155,480339104.00000,   0.00087,275593952.00000,   0.00043,  -0.00033,   0.00064, -64.00000,   2.00000
-310672989.59478,-529159446.06815,68305597.60286,   0.00005,  -0.00215,   0.00154,480385920.00000,   0.00089,275611872.00000,   0.00043,  -0.00035,   0.00065,  96.00000,   2.00000
-314616565.77248,-529292174.27658,67189325.79014,   0.00003,  -0.00216,   0.00154,480409504.00000,   0.00091,275629760.00000,   0.00043,  -0.00037,   0.00066,  32.00000,   2.00000
-318515934.40673,-529387837.83510,66065636.67062,   0.00001,  -0.00217,   0.00153,480496736.00000,   0.00092,275647808.00000,   0.00043,  -0.00039,   0.00068,   0.00000,   2.00000
-322348374.10844,-529435575.01718,64957285.03835,  -0.00001,  -0.00219,   0.00153,480502624.00000,   0.00094,275665760.00000,   0.00042,  -0.00041,   0.00069,   0.00000,   2.00000
-326129936.31200,-529441408.77937,63846176.06911,  -0.00003,  -0.00220,   0.00152,480575136.00000,   0.00096,275683776.00000,   0.00042,  -0.00042,   0.00069, -64.00000,   2.00000
-329855471.73368,-529404102.40607,62732171.30104,  -0.00005,  -0.00221,   0.00152,480653600.00000,   0.00097,275701856.00000,   0.00042,  -0.00044,   0.00070,-128.00000,   2.00000
-333476323.41508,-529324795.71454,61626679.09313,  -0.00007,  -0.00222,   0.00152,480711744.00000,   0.00099,275719968.00000,   0.00041,  -0.00046,   0.00071, -64.00000,   2.00000
-337042456.09109,-529194249.20935,60526771.85760,  -0.00009,  -0.00223,   0.00151,480774176.00000,   0.00101,275738112.00000,   0.00041,  -0.00048,   0.00072,-128.00000,   2.00000
-340573256.43528,-529017086.51068,59417579.40267,  -0.00011,  -0.00224,   0.00151,480846912.00000,   0.00102,275756384.00000,   0.00040,  -0.00050,   0.00073, -96.00000,   2.00000
-344095910.73006,-528797482.91034,58303378.08513,  -0.00013,  -0.00225,   0.00150,480847968.00000,   0.00104,275774720.00000,   0.00040,  -0.00052,   0.00074, 128.00000,   2.00000
-347629257.72045,-528544226.82718,57183195.87179,  -0.00016,  -0.00227,   0.00150,480829664.00000,   0.00106,275793184.00000,   0.00040,  -0.00054,   0.00075,-224.00000,   1.00000
-351043459.15998,-528305003.73789,56097428.56455,  -0.00018,  -0.00228,   0.00149,480791328.00000,   0.00107,275811296.00000,   0.00039,  -0.00056,   0.00076,-448.00000,   2.00000
-354470655.64907,-528091901.07123,55025902.13700,  -0.00020,  -0.00229,   0.00149,480894688.00000,   0.00109,275829312.00000,   0.00039,  -0.00058,   0.00077,-128.00000,   2.00000
-357774950.75702,-527784068.59842,53954291.88488,  -0.00022,  -0.00230,   0.00148,481009408.00000,   0.00111,275847552.00000,   0.00038,  -0.00060,   0.00078,   0.00000,   2.00000
-361023305.29616,-527416629.03988,52879242.53745,  -0.00024,  -0.00231,   0.00148,481065312.00000,   0.00113,275865856.00000,   0.00038,  -0.00061,   0.00079, -96.00000,   2.00000
-364224286.55413,-527014414.16108,51809755.81552,  -0.00026,  -0.00232,   0.00147,481127424.00000,   0.00114,275884256.00000,   0.00037,  -0.00063,   0.00080, 128.00000,   1.00000
-367347993.34429,-526585308.25133,50745793.77925,  -0.00028,  -0.00233,   0.00147,481128768.00000,   0.00116,275902560.00000,   0.00036,  -0.00065,   0.00081,  64.00000,   2.00000
-370428890.46564,-526119652.61023,49689486.98464,  -0.00030,  -0.00234,   0.00146,481187456.00000,   0.00118,275920960.00000,   0.00036,  -0.00067,   0.00081, 192.00000,   2.00000
-373475440.97338,-525618233.42029,48636730.67853,  -0.00032,  -0.00235,   0.00146,481214848.00000,   0.00119,275939360.00000,   0.00035,  -0.00069,   0.00082,  96.00000,   2.00000
-376447403.13644,-525096251.57792,47589403.32247,  -0.00034,  -0.00237,   0.00145,481231296.00000,   0.00121,275957728.00000,   0.00035,  -0.00071,   0.00083, 192.00000,   2.00000
-379398952.42220,-524536576.12820,46550589.15190,  -0.00036,  -0.00238,   0.00144,481298464.00000,   0.00123,275976256.00000,   0.00034,  -0.00073,   0.00084,  96.00000,   2.00000
-382281137.26639,-523954063.10305,45529022.73575,  -0.00038,  -0.00239,   0.00144,481290304.00000,   0.00125,275994688.00000,   0.00033,  -0.00075,   0.00085,  96.00000,   2.00000
-385131782.77746,-523342317.69653,44512073.58538,  -0.00041,  -0.00240,   0.00143,481313504.00000,   0.00126,276013088.00000,   0.00033,  -0.00077,   0.00085, 160.00000,   2.00000
-387924241.31771,-522709411.93678,43506885.18449,  -0.00043,  -0.00241,   0.00143,481348640.00000,   0.00128,276031520.00000,   0.00032,  -0.00079,   0.00086, 128.00000,   2.00000
-390658446.07607,-522059966.12925,42504480.40600,  -0.00045,  -0.00242,   0.00142,481383936.00000,   0.00130,276049952.00000,   0.00031,  -0.00081,   0.00087, 160.00000,   2.00000
-393338579.68117,-521391990.27177,41506963.67336,  -0.00047,  -0.00243,   0.00142,481398656.00000,   0.00131,276068320.00000,   0.00030,  -0.00082,   0.00088, 288.00000,   2.00000
-395978729.59705,-520697027.06992,40520679.25423,  -0.00049,  -0.00244,   0.00141,481437376.00000,   0.00133,276086688.00000,   0.00030,  -0.00084,   0.00088, 128.00000,   2.00000
-398551843.53118,-519988593.60028,39542467.08847,  -0.00051,  -0.00245,   0.00140,481509920.00000,   0.00135,276105152.00000,   0.00029,  -0.00086,   0.00089,  96.00000,   2.00000
-401101643.33929,-519250483.92535,38569083.28878,  -0.00053,  -0.00246,   0.00140,481525600.00000,   0.00136,276123552.00000,   0.00028,  -0.00088,   0.00090, 224.00000,   2.00000
-403591062.10615,-518502407.48246,37598701.22230,  -0.00055,  -0.00247,   0.00139,481551136.00000,   0.00138,276141888.00000,   0.00027,  -0.00090,   0.00090, 128.00000,   2.00000
-406055737.51583,-517730570.74196,36635642.95110,  -0.00058,  -0.00248,   0.00139,481608800.00000,   0.00140,276160352.00000,   0.00026,  -0.00092,   0.00091, 224.00000,   2.00000
-408483317.66484,-516940318.99585,35682796.26848,  -0.00060,  -0.00249,   0.00138,481620672.00000,   0.00142,276178752.00000,   0.00025,  -0.00094,   0.00092, 224.00000,   2.00000
-410869649.07269,-516135288.98276,34731426.75062,  -0.00062,  -0.00250,   0.00137,481629856.00000,   0.00143,276197056.00000,   0.00024,  -0.00095,   0.00092, 224.00000,   2.00000
-413215748.96430,-515317402.06964,33776531.55096,  -0.00064,  -0.00251,   0.00137,481705056.00000,   0.00145,276215552.00000,   0.00024,  -0.00097,   0.00093, 224.00000,   2.00000
-415528803.49385,-514479829.50407,32835161.82126,  -0.00066,  -0.00252,   0.00136,481691616.00000,   0.00147,276233920.00000,   0.00023,  -0.00099,   0.00093, 352.00000,   2.00000
-417781652.02890,-513639833.44591,31905272.04148,  -0.00068,  -0.00253,   0.00136,481707552.00000,   0.00148,276252224.00000,   0.00022,  -0.00101,   0.00094, 256.00000,   2.00000
-420011223.13604,-512781405.74244,30977746.18873,  -0.00070,  -0.00254,   0.00135,481736736.00000,   0.00150,276270528.00000,   0.00021,  -0.00103,   0.00095,  64.00000,   2.00000
-422206616.50409,-511908915.35956,30051515.36814,  -0.00073,  -0.00255,   0.00134,481792928.00000,   0.00152,276288896.00000,   0.00020,  -0.00105,   0.00095, 288.00000,   2.00000
-424334505.14886,-511033959.28843,29138751.10662,  -0.00075,  -0.00256,   0.00134,481816224.00000,   0.00154,276307264.00000,   0.00019,  -0.00106,   0.00096, 128.00000,   2.00000
-426439118.51246,-510133619.42915,28231993.23060,  -0.00077,  -0.00257,   0.00133,481829344.00000,   0.00155,276325536.00000,   0.00018,  -0.00108,   0.00096, 160.00000,   2.00000
-428469275.84287,-509235116.26696,27337599.23023,  -0.00079,  -0.00258,   0.00132,481877120.00000,   0.00157,276343840.00000,   0.00017,  -0.00110,   0.00097, 160.00000,   2.00000
-430479808.24293,-508310109.40658,26448952.89386,  -0.00081,  -0.00259,   0.00132,481889376.00000,   0.00159,276362112.00000,   0.00016,  -0.00112,   0.00097, 160.00000,   2.00000
-432443788.16061,-507375633.81091,25572407.49941,  -0.00083,  -0.00260,   0.00131,481928960.00000,   0.00160,276380384.00000,   0.00014,  -0.00113,   0.00098, 224.00000,   2.00000
-434364491.07442,-506432651.28616,24707590.22669,  -0.00086,  -0.00261,   0.00130,481966176.00000,   0.00162,276398720.00000,   0.00013,  -0.00115,   0.00098, 192.00000,   2.00000
-436254798.66038,-505479772.76750,23838504.06734,  -0.00088,  -0.00262,   0.00130,481975232.00000,   0.00164,276416960.00000,   0.00012,  -0.00117,   0.00099, 160.00000,   2.00000
-438113877.02617,-504515043.65325,22982363.70915,  -0.00090,  -0.00263,   0.00129,481985600.00000,   0.00166,276435168.00000,   0.00011,  -0.00119,   0.00099, 192.00000,   2.00000
-439934360.97527,-503544710.92384,22137776.75405,  -0.00092,  -0.00264,   0.00128,482018880.00000,   0.00167,276453408.00000,   0.00010,  -0.00120,   0.00099, 160.00000,   2.00000
-441738166.07578,-502557206.97876,21296348.59748,  -0.00094,  -0.00265,   0.00127,482047136.00000,   0.00169,276471648.00000,   0.00009,  -0.00122,   0.00100, 192.00000,   2.00000
-443491081.13766,-501573721.71070,20467591.42944,  -0.00096,  -0.00266,   0.00127,482060160.00000,   0.00171,276489856.00000,   0.00008,  -0.00124,   0.00100, 192.00000,   2.00000
-445226516.96420,-500573616.91487,19641887.29623,  -0.00099,  -0.00266,   0.00126,482088896.00000,   0.00172,276508064.00000,   0.00006,  -0.00125,   0.00100, 224.00000,   2.00000
-446911081.39524,-499578836.52136,18828579.00575,  -0.00101,  -0.00267,   0.00125,482101792.00000,   0.00174,276526240.00000,   0.00005,  -0.00127,   0.00101,  96.00000,   2.00000
-448586231.10961,-498562441.24801,18018978.87969,  -0.00103,  -0.00268,   0.00125,482107840.00000,   0.00176,276544352.00000,   0.00004,  -0.00129,   0.00101, 128.00000,   2.00000
-450203649.23440,-497560197.71548,17211596.94609,  -0.00105,  -0.00269,   0.00124,482142816.00000,   0.00177,276562496.00000,   0.00003,  -0.00130,   0.00101, 224.00000,   2.00000
-451810637.86372,-496535580.83290,16415987.79957,  -0.00107,  -0.00270,   0.00123,482150656.00000,   0.00179,276580576.00000,   0.00002,  -0.00132,   0.00102, 160.00000,   2.00000
-453379496.84778,-495510664.23531,15630724.40436,  -0.00109,  -0.00271,   0.00122,482183712.00000,   0.00181,276598688.00000,   0.00000,  -0.00134,   0.00102,  96.00000,   2.00000
-454900855.84133,-494495338.05469,14847540.28240,  -0.00112,  -0.00272,   0.00122,482195232.00000,   0.00183,276616768.00000,  -0.00001,  -0.00135,   0.00102,  64.00000,   2.00000
-456414481.05826,-493459414.72391,14066234.64685,  -0.00114,  -0.00273,   0.00121,482202304.00000,   0.00184,276634784.00000,  -0.00002,  -0.00137,   0.00102, 128.00000,   2.00000
-457873380.05984,-492439940.57728,13294219.81113,  -0.00116,  -0.00273,   0.00120,482236608.00000,   0.00186,276652832.00000,  -0.00004,  -0.00139,   0.00103, 192.00000,   2.00000
-459325616.84554,-491399029.06527,12531983.63580,  -0.00118,  -0.00274,   0.00119,482244032.00000,   0.00188,276670848.00000,  -0.00005,  -0.00140,   0.00103, 224.00000,   2.00000
-460735375.27666,-490369451.58512,11761685.98991,  -0.00120,  -0.00275,   0.00118,482253024.00000,   0.00189,276688800.00000,  -0.00006,  -0.00142,   0.00103,  96.00000,   2.00000
-462131636.38103,-489325155.83371,11008645.37967,  -0.00122,  -0.00276,   0.00118,482282528.00000,   0.00191,276706752.00000,  -0.00008,  -0.00143,   0.00103, 192.00000,   2.00000
-463487314.39571,-488291678.61326,10255719.58926,  -0.00125,  -0.00277,   0.00117,482290720.00000,   0.00193,276724704.00000,  -0.00009,  -0.00145,   0.00104, 128.00000,   2.00000
-464822670.70073,-487253111.75954,9502830.10047,  -0.00127,  -0.00278,   0.00116,482296416.00000,   0.00194,276742592.00000,  -0.00010,  -0.00146,   0.00104, 128.00000,   2.00000
-466138154.19593,-486208901.73896,8758589.32823,  -0.00129,  -0.00278,   0.00115,482302016.00000,   0.00196,276760416.00000,  -0.00012,  -0.00148,   0.00104, 160.00000,   2.00000
-467426468.52179,-485167343.46901,8013710.84994,  -0.00131,  -0.00279,   0.00114,482328480.00000,   0.00198,276778272.00000,  -0.00013,  -0.00150,   0.00104, 192.00000,   2.00000
-468705242.37988,-484112409.75038,7277978.27162,  -0.00133,  -0.00280,   0.00114,482310592.00000,   0.00199,276796032.00000,  -0.00014,  -0.00151,   0.00104, 224.00000,   2.00000
-469949239.55877,-483068357.25080,6541312.40615,  -0.00135,  -0.00281,   0.00113,482357952.00000,   0.00201,276813888.00000,  -0.00016,  -0.00153,   0.00104, 224.00000,   2.00000
-471184976.19073,-482011216.21243,5805285.71469,  -0.00138,  -0.00281,   0.00112,482338880.00000,   0.00203,276831584.00000,  -0.00017,  -0.00154,   0.00104, 160.00000,   2.00000
-472385831.46869,-480965914.75899,5078330.24699,  -0.00140,  -0.00282,   0.00111,482342368.00000,   0.00204,276849280.00000,  -0.00019,  -0.00155,   0.00105, 256.00000,   2.00000
-473570511.26519,-479915451.45583,4359891.10063,  -0.00142,  -0.00283,   0.00110,482388512.00000,   0.00206,276867040.00000,  -0.00020,  -0.00157,   0.00105, 192.00000,   2.00000
-474738348.76625,-478860775.81724,3642804.31557,  -0.00144,  -0.00284,   0.00109,482348224.00000,   0.00208,276884640.00000,  -0.00021,  -0.00158,   0.00105, 224.00000,   2.00000
-475880935.93620,-477810406.13047,2935027.48273,  -0.00146,  -0.00284,   0.00109,482373024.00000,   0.00209,276902240.00000,  -0.00023,  -0.00160,   0.00105, 224.00000,   2.00000
-477006915.71134,-476756002.54919,2228314.15973,  -0.00148,  -0.00285,   0.00108,482376704.00000,   0.00211,276919840.00000,  -0.00024,  -0.00161,   0.00105, 224.00000,   2.00000
-478107523.04041,-475706724.46036,1522689.82145,  -0.00150,  -0.00286,   0.00107,482402272.00000,   0.00213,276937408.00000,  -0.00026,  -0.00163,   0.00105, 288.00000,   2.00000
-479182658.54944,-474662243.44797,827402.78622,  -0.00153,  -0.00287,   0.00106,482385440.00000,   0.00214,276954912.00000,  -0.00027,  -0.00164,   0.00105, 256.00000,   2.00000
-480249490.69581,-473605724.86469,133522.96934,  -0.00155,  -0.00287,   0.00105,482412096.00000,   0.00216,276972416.00000,  -0.00029,  -0.00166,   0.00105, 160.00000,   2.00000
-481291081.98006,-472554498.91217,-549929.01150,  -0.00157,  -0.00288,   0.00104,482396352.00000,   0.00218,276989824.00000,  -0.00030,  -0.00167,   0.00105, 224.00000,   2.00000
-482307177.15647,-471509317.60221,-1223123.05945,  -0.00159,  -0.00289,   0.00103,482423936.00000,   0.00219,277007264.00000,  -0.00031,  -0.00168,   0.00105, 288.00000,   2.00000
-483298630.45904,-470469384.72519,-1894749.39898,  -0.00161,  -0.00289,   0.00103,482408800.00000,   0.00221,277024608.00000,  -0.00033,  -0.00170,   0.00105, 224.00000,   2.00000
-484281667.27453,-469417605.45473,-2564740.44657,  -0.00163,  -0.00290,   0.00102,482437792.00000,   0.00222,277041952.00000,  -0.00034,  -0.00171,   0.00105, 192.00000,   2.00000
-485232048.01664,-468380860.01359,-3224468.03278,  -0.00165,  -0.00291,   0.00101,482444256.00000,   0.00224,277059296.00000,  -0.00036,  -0.00172,   0.00105, 224.00000,   2.00000
-486159214.43097,-467349205.68128,-3882915.29917,  -0.00167,  -0.00291,   0.00100,482429696.00000,   0.00226,277076512.00000,  -0.00037,  -0.00174,   0.00105, 160.00000,   2.00000
-487079056.91099,-466305634.67102,-4531171.50604,  -0.00170,  -0.00292,   0.00099,482459136.00000,   0.00227,277093760.00000,  -0.00039,  -0.00175,   0.00105, 192.00000,   2.00000
-487976636.44509,-465266836.70959,-5178502.89637,  -0.00172,  -0.00293,   0.00098,482444640.00000,   0.00229,277110912.00000,  -0.00040,  -0.00176,   0.00105, 160.00000,   2.00000
-488851472.24978,-464234341.35470,-5824578.83786,  -0.00174,  -0.00293,   0.00097,482473152.00000,   0.00231,277128096.00000,  -0.00042,  -0.00177,   0.00105, 256.00000,   2.00000
-489713592.90371,-463198329.15374,-6452407.51670,  -0.00176,  -0.00294,   0.00096,482479968.00000,   0.00232,277145248.00000,  -0.00043,  -0.00179,   0.00104, 160.00000,   2.00000
-490555474.76221,-462166046.52136,-7088742.42758,  -0.00178,  -0.00295,   0.00095,482465152.00000,   0.00234,277162272.00000,  -0.00045,  -0.00180,   0.00104, 192.00000,   2.00000
-491385834.84414,-461129416.87814,-7715957.85835,  -0.00180,  -0.00295,   0.00094,482471616.00000,   0.00235,277179296.00000,  -0.00047,  -0.00181,   0.00104, 128.00000,   2.00000
-492189975.01490,-460107344.25683,-8334385.17032,  -0.00182,  -0.00296,   0.00093,482475872.00000,   0.00237,277196256.00000,  -0.00048,  -0.00182,   0.00104, 160.00000,   2.00000
-492990905.80489,-459071669.09680,-8952473.19249,  -0.00184,  -0.00296,   0.00092,482504512.00000,   0.00239,277213248.00000,  -0.00050,  -0.00184,   0.00104, 224.00000,   2.00000
-493769064.99715,-458047532.41083,-9563224.74049,  -0.00186,  -0.00297,   0.00091,482464672.00000,   0.00240,277230048.00000,  -0.00051,  -0.00185,   0.00104, 128.00000,   2.00000
-494537000.28842,-457020254.95045,-10173594.89168,  -0.00189,  -0.00298,   0.00090,482513152.00000,   0.00242,277246976.00000,  -0.00053,  -0.00186,   0.00104, 160.00000,   2.00000
-495290241.82508,-455995061.57385,-10785384.88000,  -0.00191,  -0.00298,   0.00089,482495584.00000,   0.00243,277263776.00000,  -0.00054,  -0.00187,   0.00103, 192.00000,   2.00000
-496045314.98286,-454952730.14313,-11390158.34196,  -0.00193,  -0.00299,   0.00088,482479072.00000,   0.00245,277280480.00000,  -0.00056,  -0.00188,   0.00103, 224.00000,   2.00000
-496770639.27027,-453935161.19509,-11987191.17365,  -0.00195,  -0.00299,   0.00087,482500800.00000,   0.00247,277297216.00000,  -0.00057,  -0.00190,   0.00103,  64.00000,   2.00000
-497498400.43362,-452899547.23638,-12586649.51718,  -0.00197,  -0.00300,   0.00086,482484160.00000,   0.00248,277313824.00000,  -0.00059,  -0.00191,   0.00103, 192.00000,   2.00000
-498205104.64646,-451876750.96992,-13188250.30646,  -0.00199,  -0.00300,   0.00085,482485440.00000,   0.00250,277330400.00000,  -0.00060,  -0.00192,   0.00103, 224.00000,   2.00000
-498906504.67379,-450847693.99139,-13783509.29404,  -0.00201,  -0.00301,   0.00084,482488064.00000,   0.00251,277346912.00000,  -0.00062,  -0.00193,   0.00102,  96.00000,   2.00000
-499601762.66726,-449812044.82954,-14381448.12063,  -0.00203,  -0.00301,   0.00083,482491168.00000,   0.00253,277363424.00000,  -0.00063,  -0.00194,   0.00102,  32.00000,   2.00000
-500285110.53518,-448778998.88334,-14974426.46732,  -0.00205,  -0.00302,   0.00082,482470336.00000,   0.00254,277379776.00000,  -0.00065,  -0.00195,   0.00102, 128.00000,   2.00000
-500947978.14508,-447760542.08417,-15561998.94351,  -0.00207,  -0.00302,   0.00081,482469536.00000,   0.00256,277396128.00000,  -0.00066,  -0.00196,   0.00102,  96.00000,   2.00000
-501611947.69608,-446724227.85132,-16153674.86787,  -0.00209,  -0.00303,   0.00080,482451936.00000,   0.00257,277412352.00000,  -0.00068,  -0.00197,   0.00101, 192.00000,   2.00000
-502259988.86958,-445694362.35721,-16747856.86660,  -0.00211,  -0.00303,   0.00079,482474816.00000,   0.00259,277428608.00000,  -0.00070,  -0.00199,   0.00101,  64.00000,   2.00000
-502895196.96726,-444668143.09115,-17337341.76084,  -0.00213,  -0.00304,   0.00078,482453408.00000,   0.00261,277444768.00000,  -0.00071,  -0.00200,   0.00101,  96.00000,   2.00000
-503508631.95759,-443657235.47135,-17929639.75530,  -0.00215,  -0.00304,   0.00077,482452992.00000,   0.00262,277460864.00000,  -0.00073,  -0.00201,   0.00100, 128.00000,   2.00000
-504123437.31510,-442629967.02900,-18516144.35301,  -0.00217,  -0.00305,   0.00076,482435264.00000,   0.00264,277476864.00000,  -0.00074,  -0.00202,   0.00100,  96.00000,   2.00000
-504722369.06510,-441610873.23892,-19102913.03913,  -0.00219,  -0.00305,   0.00075,482459168.00000,   0.00265,277492928.00000,  -0.00076,  -0.00203,   0.00100, 160.00000,   2.00000
-505309081.57062,-440596590.83222,-19682349.22902,  -0.00221,  -0.00306,   0.00074,482440064.00000,   0.00267,277508864.00000,  -0.00077,  -0.00204,   0.00100, 128.00000,   2.00000
-505882503.17232,-439586072.66264,-20262423.48096,  -0.00223,  -0.00306,   0.00073,482423392.00000,   0.00268,277524704.00000,  -0.00079,  -0.00205,   0.00099, -32.00000,   2.00000
-506441687.47386,-438585198.95695,-20831843.97248,  -0.00225,  -0.00306,   0.00072,482450272.00000,   0.00270,277540576.00000,  -0.00080,  -0.00206,   0.00099,  96.00000,   2.00000
-506997122.11496,-437575000.44173,-21394276.65603,  -0.00227,  -0.00307,   0.00071,482415616.00000,   0.00271,277556256.00000,  -0.00082,  -0.00207,   0.00099,  32.00000,   2.00000
-507535957.02572,-436570432.14165,-21964372.85199,  -0.00229,  -0.00307,   0.00070,482446944.00000,   0.00273,277572000.00000,  -0.00083,  -0.00208,   0.00098,  96.00000,   2.00000
-508065035.53265,-435567679.30668,-22519993.47072,  -0.00231,  -0.00308,   0.00069,482430912.00000,   0.00274,277587648.00000,  -0.00085,  -0.00209,   0.00098,  64.00000,   2.00000
-508582097.23093,-434562864.88142,-23080115.67896,  -0.00233,  -0.00308,   0.00067,482415808.00000,   0.00276,277603168.00000,  -0.00086,  -0.00209,   0.00097, -32.00000,   2.00000
-509085461.21501,-433560891.38433,-23643570.34734,  -0.00235,  -0.00308,   0.00066,482441536.00000,   0.00277,277618752.00000,  -0.00088,  -0.00210,   0.00097,  32.00000,   2.00000
-509587561.75845,-432543948.69299,-24206295.40326,  -0.00237,  -0.00309,   0.00065,482400608.00000,   0.00279,277634144.00000,  -0.00089,  -0.00211,   0.00097, -32.00000,   2.00000
-510072056.80325,-431539041.13760,-24774867.94477,  -0.00239,  -0.00309,   0.00064,482397920.00000,   0.00280,277649472.00000,  -0.00091,  -0.00212,   0.00096,  64.00000,   2.00000
-510553356.57162,-430527932.50314,-25340001.54065,  -0.00241,  -0.00309,   0.00063,482397536.00000,   0.00281,277664768.00000,  -0.00093,  -0.00213,   0.00096,  32.00000,   2.00000
-511024893.27128,-429519281.75633,-25911146.70712,  -0.00243,  -0.00310,   0.00062,482375168.00000,   0.00283,277679968.00000,  -0.00094,  -0.00214,   0.00096, 128.00000,   2.00000
-511492036.39216,-428507993.08699,-26477307.40268,  -0.00245,  -0.00310,   0.00061,482377120.00000,   0.00284,277695136.00000,  -0.00096,  -0.00215,   0.00095,  32.00000,   2.00000
-511942749.29783,-427508351.18506,-27049608.28133,  -0.00247,  -0.00310,   0.00060,482334912.00000,   0.00286,277710144.00000,  -0.00097,  -0.00216,   0.00095,  64.00000,   2.00000
-512379937.45332,-426520052.91524,-27614480.51976,  -0.00248,  -0.00311,   0.00058,482360448.00000,   0.00287,277725152.00000,  -0.00099,  -0.00217,   0.00094,  32.00000,   2.00000
-512818641.51734,-425513659.94455,-28174408.53307,  -0.00250,  -0.00311,   0.00057,482349024.00000,   0.00289,277740096.00000,  -0.00100,  -0.00217,   0.00094,  32.00000,   2.00000
-513231465.37821,-424527452.87469,-28747331.24426,  -0.00252,  -0.00311,   0.00056,482331168.00000,   0.00290,277754912.00000,  -0.00102,  -0.00218,   0.00094,  32.00000,   2.00000
-513641822.80305,-423534267.17348,-29305479.59015,  -0.00254,  -0.00312,   0.00055,482336704.00000,   0.00291,277769696.00000,  -0.00103,  -0.00219,   0.00093,  32.00000,   2.00000
-514043195.64045,-422536432.13404,-29868129.36002,  -0.00256,  -0.00312,   0.00054,482319872.00000,   0.00293,277784384.00000,  -0.00105,  -0.00220,   0.00093, -64.00000,   2.00000
-514434907.43651,-421539685.85178,-30432258.01394,  -0.00258,  -0.00312,   0.00053,482344224.00000,   0.00294,277799104.00000,  -0.00106,  -0.00221,   0.00092, -32.00000,   2.00000
-514830314.62689,-420522107.76110,-30994115.48872,  -0.00260,  -0.00312,   0.00051,482302880.00000,   0.00296,277813664.00000,  -0.00107,  -0.00221,   0.00092,  64.00000,   2.00000
-515211176.27733,-419519708.95239,-31552878.20156,  -0.00262,  -0.00313,   0.00050,482273376.00000,   0.00297,277828064.00000,  -0.00109,  -0.00222,   0.00091,   0.00000,   2.00000
-515600229.33744,-418487455.37985,-32116469.98834,  -0.00263,  -0.00313,   0.00049,482254912.00000,   0.00298,277842368.00000,  -0.00110,  -0.00223,   0.00091, 128.00000,   2.00000
-515982479.12748,-417455411.67885,-32681822.55464,  -0.00265,  -0.00313,   0.00048,482273728.00000,   0.00300,277856704.00000,  -0.00112,  -0.00224,   0.00090, 128.00000,   2.00000
-516357519.70248,-416425957.99581,-33245872.43117,  -0.00267,  -0.00313,   0.00047,482222912.00000,   0.00301,277870848.00000,  -0.00113,  -0.00224,   0.00090,  64.00000,   2.00000
-516726299.68614,-415400695.94951,-33803126.63027,  -0.00269,  -0.00313,   0.00046,482239616.00000,   0.00302,277885024.00000,  -0.00115,  -0.00225,   0.00089,  32.00000,   2.00000
-517095628.68879,-414356735.54448,-34367442.74781,  -0.00271,  -0.00314,   0.00044,482196768.00000,   0.00304,277899008.00000,  -0.00116,  -0.00226,   0.00089, 128.00000,   2.00000
-517452046.28719,-413326345.02915,-34927070.08523,  -0.00272,  -0.00314,   0.00043,482190336.00000,   0.00305,277912960.00000,  -0.00118,  -0.00227,   0.00089,  32.00000,   2.00000
-517806731.80124,-412278427.38183,-35493942.75804,  -0.00274,  -0.00314,   0.00042,482149152.00000,   0.00306,277926752.00000,  -0.00119,  -0.00227,   0.00088,   0.00000,   2.00000
-518145048.86589,-411243697.58884,-36064800.19305,  -0.00276,  -0.00314,   0.00041,482145760.00000,   0.00308,277940480.00000,  -0.00120,  -0.00228,   0.00088,  64.00000,   2.00000
-518482157.70667,-410203385.49772,-36622100.85697,  -0.00278,  -0.00314,   0.00039,482144864.00000,   0.00309,277954208.00000,  -0.00122,  -0.00229,   0.00087, -32.00000,   2.00000
-518802929.14704,-409166307.80245,-37196141.50883,  -0.00279,  -0.00314,   0.00038,482101504.00000,   0.00310,277967744.00000,  -0.00123,  -0.00229,   0.00087,  96.00000,   2.00000
-519122139.98320,-408123371.28252,-37756801.06417,  -0.00281,  -0.00315,   0.00037,482101248.00000,   0.00312,277981248.00000,  -0.00125,  -0.00230,   0.00086,  64.00000,   2.00000
-519431398.45064,-407077894.01362,-38323674.83909,  -0.00283,  -0.00315,   0.00036,482080768.00000,   0.00313,277994656.00000,  -0.00126,  -0.00231,   0.00086, -32.00000,   2.00000
-519724182.10886,-406045187.28568,-38895084.40380,  -0.00285,  -0.00315,   0.00034,482078720.00000,   0.00314,278008032.00000,  -0.00127,  -0.00231,   0.00085,   0.00000,   2.00000
-520012207.73550,-405001239.24399,-39468564.54877,  -0.00286,  -0.00315,   0.00033,482013664.00000,   0.00315,278021152.00000,  -0.00129,  -0.00232,   0.00084, -32.00000,   2.00000
-520294760.00838,-403958041.94460,-40033480.90949,  -0.00288,  -0.00315,   0.00032,482058080.00000,   0.00317,278034400.00000,  -0.00130,  -0.00233,   0.00084,   0.00000,   2.00000
-520564214.98859,-402916912.31003,-40607620.60814,  -0.00290,  -0.00315,   0.00031,482012928.00000,   0.00318,278047488.00000,  -0.00131,  -0.00233,   0.00083,   0.00000,   2.00000
-520824795.85388,-401870815.62748,-41188617.03510,  -0.00291,  -0.00315,   0.00029,481992192.00000,   0.00319,278060448.00000,  -0.00133,  -0.00234,   0.00083,  32.00000,   2.00000
-521079222.81746,-400821141.40942,-41768087.11102,  -0.00293,  -0.00315,   0.00028,481968960.00000,   0.00320,278073312.00000,  -0.00134,  -0.00234,   0.00082,  32.00000,   2.00000
-521327812.27257,-399767549.15199,-42346211.01461,  -0.00295,  -0.00315,   0.00027,481945280.00000,   0.00322,278086048.00000,  -0.00135,  -0.00235,   0.00082,  32.00000,   2.00000
-521564566.24259,-398726206.84917,-42921266.64235,  -0.00296,  -0.00315,   0.00026,481939328.00000,   0.00323,278098752.00000,  -0.00137,  -0.00236,   0.00081,  64.00000,   2.00000
-521800684.48225,-397653555.35264,-43511462.32425,  -0.00298,  -0.00315,   0.00024,481926848.00000,   0.00324,278111392.00000,  -0.00138,  -0.00236,   0.00081,  32.00000,   2.00000
-522024330.03216,-396600896.76507,-44092887.84477,  -0.00300,  -0.00315,   0.00023,481893184.00000,   0.00325,278123904.00000,  -0.00139,  -0.00237,   0.00080,  96.00000,   2.00000
-522246079.37286,-395524039.17993,-44683800.84252,  -0.00301,  -0.00315,   0.00022,481853472.00000,   0.00326,278136224.00000,  -0.00141,  -0.00237,   0.00080, -32.00000,   2.00000
-522454185.70509,-394456747.85054,-45280378.91409,  -0.00303,  -0.00315,   0.00020,481848640.00000,   0.00328,278148512.00000,  -0.00142,  -0.00238,   0.00079,  96.00000,   2.00000
-522660294.12956,-393385724.24391,-45867704.84372,  -0.00304,  -0.00315,   0.00019,481821120.00000,   0.00329,278160704.00000,  -0.00143,  -0.00238,   0.00079,  64.00000,   2.00000
-522859554.06877,-392298742.69177,-46468410.78888,  -0.00306,  -0.00315,   0.00018,481825792.00000,   0.00330,278172864.00000,  -0.00144,  -0.00239,   0.00078,  32.00000,   2.00000
-523053195.37718,-391213613.75452,-47062768.22856,  -0.00307,  -0.00315,   0.00016,481773248.00000,   0.00331,278184832.00000,  -0.00146,  -0.00239,   0.00078,  64.00000,   2.00000
-523230528.02337,-390135371.42823,-47671329.39027,  -0.00309,  -0.00315,   0.00015,481770400.00000,   0.00332,278196768.00000,  -0.00147,  -0.00240,   0.00077,   0.00000,   2.00000
-523411932.82388,-389035372.87968,-48272819.66636,  -0.00311,  -0.00315,   0.00014,481724992.00000,   0.00333,278208512.00000,  -0.00148,  -0.00240,   0.00076,  32.00000,   2.00000
-523579850.43504,-387944090.93884,-48880086.35436,  -0.00312,  -0.00315,   0.00012,481719328.00000,   0.00334,278220224.00000,  -0.00149,  -0.00241,   0.00076,  64.00000,   2.00000
-523745747.39859,-386826452.46580,-49497229.50953,  -0.00314,  -0.00315,   0.00011,481679328.00000,   0.00336,278231776.00000,  -0.00151,  -0.00241,   0.00075,  32.00000,   2.00000
-523900536.20153,-385727148.60386,-50106297.34406,  -0.00315,  -0.00315,   0.00010,481643552.00000,   0.00337,278243200.00000,  -0.00152,  -0.00242,   0.00075,   0.00000,   2.00000
-524051131.82626,-384613068.63373,-50720250.27287,  -0.00317,  -0.00315,   0.00008,481645472.00000,   0.00338,278254592.00000,  -0.00153,  -0.00242,   0.00074,  32.00000,   2.00000
-524190113.15440,-383495034.54572,-51345173.78851,  -0.00318,  -0.00315,   0.00007,481598112.00000,   0.00339,278265792.00000,  -0.00154,  -0.00242,   0.00074,  32.00000,   2.00000
-524327806.70721,-382364163.00952,-51966518.30803,  -0.00319,  -0.00315,   0.00006,481597408.00000,   0.00340,278276992.00000,  -0.00155,  -0.00243,   0.00073,  32.00000,   2.00000
-524453640.23773,-381228810.06584,-52598965.60496,  -0.00321,  -0.00314,   0.00004,481550336.00000,   0.00341,278288000.00000,  -0.00157,  -0.00243,   0.00073,  64.00000,   2.00000
-524572364.52710,-380105870.09625,-53220520.20404,  -0.00322,  -0.00314,   0.00003,481538912.00000,   0.00342,278298976.00000,  -0.00158,  -0.00244,   0.00072, -32.00000,   2.00000
-524688172.15174,-378954576.59253,-53852414.09543,  -0.00324,  -0.00314,   0.00002,481499872.00000,   0.00343,278309760.00000,  -0.00159,  -0.00244,   0.00072,  32.00000,   2.00000
-524790319.61889,-377811066.49548,-54490234.59478,  -0.00325,  -0.00314,   0.00000,481494464.00000,   0.00344,278320512.00000,  -0.00160,  -0.00244,   0.00071, -64.00000,   2.00000
-524892480.61714,-376640778.65348,-55130141.81156,  -0.00327,  -0.00314,  -0.00001,481452960.00000,   0.00345,278331136.00000,  -0.00161,  -0.00245,   0.00070,  96.00000,   2.00000
-524980849.77219,-375485297.81226,-55771117.86083,  -0.00328,  -0.00314,  -0.00003,481419936.00000,   0.00346,278341600.00000,  -0.00162,  -0.00245,   0.00070,  96.00000,   2.00000
-525060489.29790,-374318463.67293,-56420458.90189,  -0.00329,  -0.00314,  -0.00004,481398144.00000,   0.00347,278351968.00000,  -0.00163,  -0.00246,   0.00069,  32.00000,   2.00000
-525134882.57220,-373142414.96899,-57069921.94433,  -0.00331,  -0.00313,  -0.00005,481373312.00000,   0.00348,278362240.00000,  -0.00164,  -0.00246,   0.00069,   0.00000,   2.00000
-525200597.68843,-371954690.03205,-57727914.24051,  -0.00332,  -0.00313,  -0.00007,481351712.00000,   0.00349,278372384.00000,  -0.00166,  -0.00246,   0.00068,  96.00000,   2.00000
-525260863.14920,-370757231.33078,-58386169.32297,  -0.00333,  -0.00313,  -0.00008,481327136.00000,   0.00350,278382464.00000,  -0.00167,  -0.00247,   0.00068,  64.00000,   2.00000
-525312252.93561,-369554507.11019,-59048374.70072,  -0.00335,  -0.00313,  -0.00010,481277952.00000,   0.00351,278392352.00000,  -0.00168,  -0.00247,   0.00067, 128.00000,   2.00000
-525349954.75199,-368358185.45425,-59716978.79712,  -0.00336,  -0.00312,  -0.00011,481272800.00000,   0.00352,278402176.00000,  -0.00169,  -0.00247,   0.00067,  64.00000,   2.00000
-525386724.07962,-367132189.89911,-60388491.23212,  -0.00337,  -0.00312,  -0.00012,481232288.00000,   0.00353,278411840.00000,  -0.00170,  -0.00248,   0.00066,  64.00000,   2.00000
-525413468.83974,-365914710.36132,-61058260.43948,  -0.00338,  -0.00312,  -0.00014,481223840.00000,   0.00354,278421472.00000,  -0.00171,  -0.00248,   0.00065,  96.00000,   2.00000
-525427408.86033,-364688162.44719,-61740716.44291,  -0.00340,  -0.00312,  -0.00015,481178176.00000,   0.00355,278430944.00000,  -0.00172,  -0.00248,   0.00065,  32.00000,   2.00000
-525439204.60778,-363446029.25228,-62420192.53045,  -0.00341,  -0.00311,  -0.00017,481178464.00000,   0.00356,278440352.00000,  -0.00173,  -0.00249,   0.00064,  64.00000,   2.00000
-525438380.96139,-362200903.55916,-63108168.23932,  -0.00342,  -0.00311,  -0.00018,481104768.00000,   0.00356,278449504.00000,  -0.00174,  -0.00249,   0.00064,  96.00000,   2.00000
-525431219.24513,-360937213.32941,-63801450.89236,  -0.00343,  -0.00311,  -0.00020,481108832.00000,   0.00357,278458656.00000,  -0.00175,  -0.00249,   0.00063,   0.00000,   2.00000
-525414744.68957,-359665639.37532,-64499648.53427,  -0.00345,  -0.00311,  -0.00021,481059840.00000,   0.00358,278467616.00000,  -0.00176,  -0.00249,   0.00063,  96.00000,   2.00000
-525384144.74104,-358398951.33981,-65204617.73892,  -0.00346,  -0.00310,  -0.00023,481055040.00000,   0.00359,278476544.00000,  -0.00177,  -0.00250,   0.00062, 128.00000,   2.00000
-525355398.75308,-357102283.60958,-65905077.31833,  -0.00347,  -0.00310,  -0.00024,481011840.00000,   0.00360,278485280.00000,  -0.00177,  -0.00250,   0.00062, 128.00000,   2.00000
-525304892.37334,-355811557.28579,-66624610.69965,  -0.00348,  -0.00310,  -0.00025,480985856.00000,   0.00361,278493920.00000,  -0.00178,  -0.00250,   0.00061,  96.00000,   2.00000
-525255807.22543,-354490070.04094,-67339810.51007,  -0.00349,  -0.00309,  -0.00027,480942752.00000,   0.00362,278502400.00000,  -0.00179,  -0.00250,   0.00061,  32.00000,   2.00000
-525192264.21551,-353172803.03871,-68061991.42468,  -0.00350,  -0.00309,  -0.00028,480937920.00000,   0.00362,278510816.00000,  -0.00180,  -0.00251,   0.00060,  64.00000,   2.00000
-525122037.21429,-351841885.19086,-68785610.45463,  -0.00351,  -0.00308,  -0.00030,480914016.00000,   0.00363,278519168.00000,  -0.00181,  -0.00251,   0.00060,   0.00000,   2.00000
-525041415.37196,-350500587.05082,-69514936.43124,  -0.00352,  -0.00308,  -0.00031,480865344.00000,   0.00364,278527296.00000,  -0.00182,  -0.00251,   0.00059,  96.00000,   2.00000
-524945855.29177,-349145812.83830,-70258167.11398,  -0.00354,  -0.00308,  -0.00033,480820512.00000,   0.00365,278535264.00000,  -0.00183,  -0.00251,   0.00059,  64.00000,   2.00000
-524839705.42288,-347797029.18134,-71000425.99911,  -0.00355,  -0.00307,  -0.00034,480811584.00000,   0.00365,278543200.00000,  -0.00184,  -0.00251,   0.00058, -96.00000,   2.00000
-524725380.17236,-346410208.83886,-71755093.41095,  -0.00356,  -0.00307,  -0.00036,480776448.00000,   0.00366,278550976.00000,  -0.00184,  -0.00252,   0.00058,   0.00000,   2.00000
-524600050.03619,-345028970.13122,-72508803.35010,  -0.00357,  -0.00307,  -0.00037,480767808.00000,   0.00367,278558720.00000,  -0.00185,  -0.00252,   0.00057,  96.00000,   2.00000
-524466424.19305,-343614567.63947,-73271327.93162,  -0.00358,  -0.00306,  -0.00039,480704128.00000,   0.00368,278566208.00000,  -0.00186,  -0.00252,   0.00057,  64.00000,   2.00000
-524321649.14853,-342205383.54899,-74033023.69776,  -0.00359,  -0.00306,  -0.00040,480695072.00000,   0.00368,278573664.00000,  -0.00187,  -0.00252,   0.00056,  64.00000,   2.00000
-524160662.72231,-340780519.07611,-74809141.90539,  -0.00360,  -0.00305,  -0.00042,480650272.00000,   0.00369,278580928.00000,  -0.00188,  -0.00252,   0.00056,  96.00000,   2.00000
-523991212.32396,-339339251.95687,-75587197.00144,  -0.00361,  -0.00305,  -0.00043,480626368.00000,   0.00370,278588128.00000,  -0.00188,  -0.00253,   0.00055,  96.00000,   2.00000
-523809518.96753,-337884118.88127,-76371878.75913,  -0.00362,  -0.00304,  -0.00045,480577504.00000,   0.00370,278595104.00000,  -0.00189,  -0.00253,   0.00055,  32.00000,   2.00000
-523616396.31907,-336433354.30768,-77156009.48840,  -0.00362,  -0.00304,  -0.00046,480567936.00000,   0.00371,278602048.00000,  -0.00190,  -0.00253,   0.00054,  32.00000,   2.00000
-523412362.92356,-334941102.97888,-77953108.64652,  -0.00363,  -0.00303,  -0.00048,480533504.00000,   0.00372,278608864.00000,  -0.00191,  -0.00253,   0.00054,  32.00000,   2.00000
-523193036.11581,-333455359.11127,-78754588.97066,  -0.00364,  -0.00303,  -0.00049,480498880.00000,   0.00372,278615552.00000,  -0.00191,  -0.00253,   0.00053,   0.00000,   2.00000
-522962241.39576,-331927248.22030,-79569334.76752,  -0.00365,  -0.00302,  -0.00051,480464512.00000,   0.00373,278622080.00000,  -0.00192,  -0.00253,   0.00053, -32.00000,   2.00000
-522720829.61447,-330407779.21118,-80380947.68576,  -0.00366,  -0.00302,  -0.00052,480425184.00000,   0.00374,278628480.00000,  -0.00193,  -0.00253,   0.00052,   0.00000,   2.00000
-522465309.31621,-328867038.09653,-81203381.60162,  -0.00367,  -0.00301,  -0.00054,480405088.00000,   0.00374,278634784.00000,  -0.00193,  -0.00254,   0.00052, -32.00000,   2.00000
-522196401.03535,-327309653.96166,-82033599.38486,  -0.00368,  -0.00301,  -0.00055,480355744.00000,   0.00375,278640928.00000,  -0.00194,  -0.00254,   0.00051,   0.00000,   2.00000
-521912807.80617,-325730465.56740,-82874453.63328,  -0.00368,  -0.00300,  -0.00057,480336032.00000,   0.00375,278646976.00000,  -0.00195,  -0.00254,   0.00051,  32.00000,   2.00000
-521612783.17971,-324155931.57919,-83719858.69353,  -0.00369,  -0.00300,  -0.00058,480301760.00000,   0.00376,278652896.00000,  -0.00195,  -0.00254,   0.00051, -64.00000,   2.00000
-521308618.16914,-322542093.00531,-84562500.00265,  -0.00370,  -0.00299,  -0.00060,480260160.00000,   0.00377,278658624.00000,  -0.00196,  -0.00254,   0.00050, -32.00000,   2.00000
-520977214.21373,-320926445.78886,-85425699.82584,  -0.00371,  -0.00298,  -0.00061,480235872.00000,   0.00377,278664288.00000,  -0.00196,  -0.00254,   0.00050,  64.00000,   2.00000
-520639979.42108,-319292947.22580,-86285163.46017,  -0.00372,  -0.00298,  -0.00063,480207360.00000,   0.00378,278669824.00000,  -0.00197,  -0.00254,   0.00049,  32.00000,   2.00000
-520284124.37930,-317637653.09466,-87163213.84948,  -0.00372,  -0.00297,  -0.00064,480161440.00000,   0.00378,278675200.00000,  -0.00197,  -0.00254,   0.00049,  32.00000,   2.00000
-519919434.01225,-315961953.17922,-88046522.76070,  -0.00373,  -0.00297,  -0.00066,480134528.00000,   0.00379,278680448.00000,  -0.00198,  -0.00254,   0.00048,  64.00000,   2.00000
-519539718.71803,-314266281.98897,-88937864.25625,  -0.00374,  -0.00296,  -0.00068,480085024.00000,   0.00379,278685536.00000,  -0.00199,  -0.00254,   0.00048,   0.00000,   2.00000
-519141681.79149,-312572337.38899,-89833336.66476,  -0.00374,  -0.00295,  -0.00069,480051104.00000,   0.00380,278690464.00000,  -0.00199,  -0.00254,   0.00048,   0.00000,   2.00000
-518726290.54754,-310829798.49746,-90741711.35203,  -0.00375,  -0.00295,  -0.00071,480020832.00000,   0.00380,278695296.00000,  -0.00200,  -0.00255,   0.00047,  96.00000,   2.00000
-518296488.54057,-309087441.37313,-91649888.25554,  -0.00376,  -0.00294,  -0.00072,480012416.00000,   0.00381,278700096.00000,  -0.00200,  -0.00255,   0.00047, -96.00000,   2.00000
-517848768.22070,-307322771.50330,-92566208.27918,  -0.00376,  -0.00294,  -0.00074,479966592.00000,   0.00381,278704704.00000,  -0.00201,  -0.00255,   0.00047,  96.00000,   2.00000
-517382130.04558,-305534902.00911,-93490714.35451,  -0.00377,  -0.00293,  -0.00075,479921280.00000,   0.00382,278709152.00000,  -0.00201,  -0.00255,   0.00046,  64.00000,   2.00000
-516895450.18499,-303719912.88457,-94425789.16864,  -0.00377,  -0.00292,  -0.00077,479905632.00000,   0.00382,278713536.00000,  -0.00201,  -0.00255,   0.00046,   0.00000,   2.00000
-516388871.83528,-301904468.64128,-95366638.20446,  -0.00378,  -0.00292,  -0.00078,479873152.00000,   0.00382,278717760.00000,  -0.00202,  -0.00255,   0.00046, 160.00000,   2.00000
-515867749.36325,-300040543.59399,-96313746.70476,  -0.00379,  -0.00291,  -0.00080,479839616.00000,   0.00383,278721888.00000,  -0.00202,  -0.00255,   0.00045,  64.00000,   2.00000
-515326288.02317,-298175511.25082,-97267063.30452,  -0.00379,  -0.00290,  -0.00082,479807040.00000,   0.00383,278725888.00000,  -0.00203,  -0.00255,   0.00045, -32.00000,   2.00000
-514769540.88706,-296285164.92915,-98224060.08573,  -0.00380,  -0.00289,  -0.00083,479786144.00000,   0.00383,278729792.00000,  -0.00203,  -0.00255,   0.00045, -64.00000,   2.00000
-514181472.21796,-294366141.47484,-99203814.67427,  -0.00380,  -0.00289,  -0.00085,479722112.00000,   0.00384,278733440.00000,  -0.00203,  -0.00255,   0.00044,   0.00000,   2.00000
-513587802.50364,-292423946.44318,-100174117.65388,  -0.00381,  -0.00288,  -0.00086,479720736.00000,   0.00384,278737088.00000,  -0.00204,  -0.00255,   0.00044,  32.00000,   2.00000
-512962082.92353,-290476162.56211,-101164574.36647,  -0.00381,  -0.00287,  -0.00088,479669216.00000,   0.00385,278740512.00000,  -0.00204,  -0.00255,   0.00044, -96.00000,   2.00000
-512319046.08037,-288477122.62924,-102161965.01143,  -0.00381,  -0.00286,  -0.00089,479636832.00000,   0.00385,278743840.00000,  -0.00205,  -0.00255,   0.00043,  64.00000,   2.00000
-511652858.99900,-286472204.40364,-103167772.76692,  -0.00382,  -0.00286,  -0.00091,479634720.00000,   0.00385,278747136.00000,  -0.00205,  -0.00255,   0.00043, -32.00000,   2.00000
-510964549.20045,-284441357.11248,-104182191.91045,  -0.00382,  -0.00285,  -0.00093,479560384.00000,   0.00385,278750176.00000,  -0.00205,  -0.00255,   0.00043,  32.00000,   2.00000
-510258695.19520,-282407003.36514,-105197768.12333,  -0.00383,  -0.00284,  -0.00094,479552576.00000,   0.00386,278753152.00000,  -0.00205,  -0.00255,   0.00043,  32.00000,   2.00000
-509527211.02366,-280316378.05106,-106227684.98043,  -0.00383,  -0.00283,  -0.00096,479527008.00000,   0.00386,278756032.00000,  -0.00206,  -0.00255,   0.00042,   0.00000,   2.00000
-508772102.67789,-278220648.91929,-107264800.13340,  -0.00383,  -0.00283,  -0.00097,479495296.00000,   0.00386,278758784.00000,  -0.00206,  -0.00255,   0.00042,  64.00000,   2.00000
-507990773.72386,-276069285.19550,-108315043.13261,  -0.00384,  -0.00282,  -0.00099,479440480.00000,   0.00387,278761344.00000,  -0.00206,  -0.00255,   0.00042,  96.00000,   2.00000
-507184452.86109,-273911500.33439,-109372468.32545,  -0.00384,  -0.00281,  -0.00101,479409280.00000,   0.00387,278763776.00000,  -0.00207,  -0.00255,   0.00042, -32.00000,   2.00000
-506352513.29616,-271745512.61591,-110438173.20544,  -0.00384,  -0.00280,  -0.00102,479408480.00000,   0.00387,278766176.00000,  -0.00207,  -0.00255,   0.00041, -32.00000,   2.00000
-505498367.58399,-269524571.11215,-111509802.74150,  -0.00384,  -0.00279,  -0.00104,479348608.00000,   0.00387,278768384.00000,  -0.00207,  -0.00255,   0.00041,  32.00000,   2.00000
-504617498.01350,-267294583.86178,-112589532.81556,  -0.00385,  -0.00279,  -0.00105,479348544.00000,   0.00387,278770560.00000,  -0.00207,  -0.00255,   0.00041,  32.00000,   2.00000
-503700464.03821,-265003301.73948,-113688758.89804,  -0.00385,  -0.00278,  -0.00107,479271648.00000,   0.00388,278772448.00000,  -0.00207,  -0.00255,   0.00041,  64.00000,   2.00000
-502768232.83497,-262707783.25617,-114781675.42943,  -0.00385,  -0.00277,  -0.00109,479259520.00000,   0.00388,278774304.00000,  -0.00208,  -0.00255,   0.00041, -64.00000,   2.00000
-501808177.05364,-260402221.91250,-115882589.11656,  -0.00385,  -0.00276,  -0.00110,479260000.00000,   0.00388,278776128.00000,  -0.00208,  -0.00255,   0.00041,  96.00000,   2.00000
-500815305.14940,-258035007.91434,-116996626.43444,  -0.00386,  -0.00275,  -0.00112,479208576.00000,   0.00388,278777760.00000,  -0.00208,  -0.00255,   0.00040, -32.00000,   2.00000
-499787174.78719,-255654578.54523,-118125105.82974,  -0.00386,  -0.00274,  -0.00113,479185408.00000,   0.00388,278779328.00000,  -0.00208,  -0.00255,   0.00040, -64.00000,   2.00000
-498733834.69249,-253240101.10463,-119256971.26464,  -0.00386,  -0.00273,  -0.00115,479138912.00000,   0.00388,278780704.00000,  -0.00208,  -0.00255,   0.00040, -96.00000,   2.00000
-497648097.64583,-250788098.97287,-120399350.23930,  -0.00386,  -0.00272,  -0.00117,479098944.00000,   0.00389,278781920.00000,  -0.00208,  -0.00255,   0.00040,   0.00000,   2.00000
-496532277.71842,-248324321.87460,-121549627.19747,  -0.00386,  -0.00271,  -0.00118,479100128.00000,   0.00389,278783136.00000,  -0.00208,  -0.00255,   0.00040, -32.00000,   2.00000
-495386105.40669,-245798266.65061,-122706403.14976,  -0.00386,  -0.00271,  -0.00120,479043488.00000,   0.00389,278784128.00000,  -0.00209,  -0.00255,   0.00040,-928.00000,   1.00000
-494210596.19075,-243260529.66737,-123871524.01371,  -0.00386,  -0.00270,  -0.00121,479043296.00000,   0.00389,278785152.00000,  -0.00209,  -0.00255,   0.00040,-960.00000,   1.00000
-492994405.43716,-240680521.29014,-125054659.12295,  -0.00386,  -0.00269,  -0.00123,478979936.00000,   0.00389,278785920.00000,  -0.00209,  -0.00255,   0.00040,-768.00000,   1.00000
-491754698.91433,-238090994.14440,-126239323.29544,  -0.00386,  -0.00268,  -0.00125,478973408.00000,   0.00389,278786656.00000,  -0.00209,  -0.00255,   0.00040,-768.00000,   1.00000
-490485178.26073,-235438628.33335,-127431553.76849,  -0.00386,  -0.00267,  -0.00126,478946752.00000,   0.00389,278787264.00000,  -0.00209,  -0.00255,   0.00039,-640.00000,   1.00000
-489178230.20970,-232769696.96417,-128639791.68807,  -0.00386,  -0.00266,  -0.00128,478892608.00000,   0.00389,278787680.00000,  -0.00209,  -0.00255,   0.00039,-416.00000,   1.00000
-487845236.46105,-230064414.48305,-129853180.47219,  -0.00386,  -0.00265,  -0.00129,478874944.00000,   0.00389,278788032.00000,  -0.00209,  -0.00255,   0.00039,-320.00000,   1.00000
-486483441.44895,-227346227.56254,-131076347.32101,  -0.00386,  -0.00264,  -0.00131,478842688.00000,   0.00389,278788256.00000,  -0.00209,  -0.00255,   0.00039,-288.00000,   1.00000
-485089977.65062,-224588276.14067,-132312610.99492,  -0.00386,  -0.00263,  -0.00133,478800544.00000,   0.00389,278788320.00000,  -0.00209,  -0.00255,   0.00039,-128.00000,   1.00000
-483634367.17374,-221778200.32579,-133552738.34984,  -0.00386,  -0.00262,  -0.00134,478757472.00000,   0.00389,278788320.00000,  -0.00209,  -0.00255,   0.00039,-30848.00000,   0.00000
-482134780.54953,-218924148.36357,-134792865.70476,  -0.00386,  -0.00261,  -0.00136,478704320.00000,   0.00389,278788320.00000,  -0.00209,  -0.00255,   0.00039,-84000.00000,   0.00000
-480560434.47484,-216012927.40982,-136041788.28915,  -0.00386,  -0.00260,  -0.00137,478611616.00000,   0.00389,278788320.00000,  -0.00209,  -0.00255,   0.00039,-176704.00000,   0.00000
-478924521.79387,-213075320.76766,-137281915.64408,  -0.00385,  -0.00259,  -0.00139,478471712.00000,   0.00389,278788320.00000,  -0.00209,  -0.00255,   0.00039,-316608.00000,   0.00000
-477213849.66244,-210080545.13397,-138522042.99900,  -0.00385,  -0.00258,  -0.00141,478279456.00000,   0.00389,278788320.00000,  -0.00209,  -0.00255,   0.00039,-508864.00000,   0.00000
-475472394.22787,-207072576.65607,-139770965.58339,  -0.00385,  -0.00257,  -0.00142,478065504.00000,   0.00389,278788320.00000,  -0.00209,  -0.00255,   0.00039,-722816.00000,   0.00000
-473642986.49862,-203976655.88350,-141011092.93831,  -0.00385,  -0.00256,  -0.00144,477774208.00000,   0.00389,278788320.00000,  -0.00209,  -0.00255,   0.00039,-1014112.00000,   0.00000
-471752012.16310,-200854349.42252,-142260015.52270,  -0.00384,  -0.00255,  -0.00146,477428000.00000,   0.00389,278788320.00000,  -0.00209,  -0.00255,   0.00039,-1360320.00000,   0.00000
-469799471.22131,-197705657.27314,-143500142.87762,  -0.00384,  -0.00254,  -0.00147,477009216.00000,   0.00389,278788320.00000,  -0.00209,  -0.00255,   0.00039,-1779104.00000,   0.00000
-467789761.28797,-194482205.67329,-144749065.46201,  -0.00384,  -0.00253,  -0.00149,476529184.00000,   0.00389,278788320.00000,  -0.00209,  -0.00255,   0.00039,-2259136.00000,   0.00000
-465687701.44523,-191219175.54083,-145989192.81694,  -0.00384,  -0.00251,  -0.00150,475950112.00000,   0.00389,278788320.00000,  -0.00209,  -0.00255,   0.00039,-2838208.00000,   0.00000
-463541665.45515,-187912169.26104,-147229320.17186,  -0.00383,  -0.00250,  -0.00152,475310080.00000,   0.00389,278788320.00000,  -0.00209,  -0.00255,   0.00039,-3478240.00000,   0.00000
-461334062.85880,-184578777.29284,-148478242.75625,  -0.00383,  -0.00249,  -0.00154,474603872.00000,   0.00389,278788320.00000,  -0.00209,  -0.00255,   0.00039,-4184448.00000,   0.00000
-459082484.11511,-181201409.17731,-149718370.11117,  -0.00383,  -0.00248,  -0.00155,473840832.00000,   0.00389,278788320.00000,  -0.00209,  -0.00255,   0.00039,-4947488.00000,   0.00000
-456725362.61781,-177753679.22603,-150967292.69556,  -0.00382,  -0.00247,  -0.00157,473007872.00000,   0.00389,278788320.00000,  -0.00209,  -0.00255,   0.00039,-5780448.00000,   0.00000
-454324264.97317,-174261973.12742,-152207420.05049,  -0.00382,  -0.00246,  -0.00159,472174528.00000,   0.00389,278788320.00000,  -0.00209,  -0.00255,   0.00039,-6613792.00000,   0.00000
-451861600.72226,-170743881.34041,-153447547.40541,  -0.00381,  -0.00245,  -0.00160,471362688.00000,   0.00389,278788320.00000,  -0.00209,  -0.00255,   0.00039,-7425632.00000,   0.00000
-449324177.02088,-167168620.56185,-154687674.76033,  -0.00381,  -0.00244,  -0.00162,470509120.00000,   0.00389,278788320.00000,  -0.00209,  -0.00255,   0.00039,-8279200.00000,   0.00000
-446725186.71322,-163566974.09490,-155936597.34472,  -0.00380,  -0.00243,  -0.00163,469580608.00000,   0.00389,278788320.00000,  -0.00209,  -0.00255,   0.00039,-9207712.00000,   0.00000
-444051436.95509,-159908158.63640,-157176724.69964,  -0.00380,  -0.00241,  -0.00165,468600032.00000,   0.00389,278788320.00000,  -0.00209,  -0.00255,   0.00039,-10188288.00000,   0.00000
-441333711.04962,-156205367.03057,-158416852.05457,  -0.00379,  -0.00240,  -0.00167,467613120.00000,   0.00389,278788320.00000,  -0.00209,  -0.00255,   0.00039,-11175200.00000,   0.00000
-438554418.53788,-152476189.73633,-159656979.40949,  -0.00379,  -0.00239,  -0.00168,466632800.00000,   0.00389,278788320.00000,  -0.00209,  -0.00255,   0.00039,-12155520.00000,   0.00000
-435687173.73146,-148659060.14742,-160897106.76441,  -0.00378,  -0.00238,  -0.00170,465683712.00000,   0.00389,278788320.00000,  -0.00209,  -0.00255,   0.00039,-13104608.00000,   0.00000
-432771555.16298,-144846328.17325,-162137234.11933,  -0.00378,  -0.00237,  -0.00171,464818656.00000,   0.00389,278788320.00000,  -0.00209,  -0.00255,   0.00039,-13969664.00000,   0.00000
-429767984.29981,-140945643.90439,-163377361.47426,  -0.00377,  -0.00236,  -0.00173,464058400.00000,   0.00389,278788320.00000,  -0.00209,  -0.00255,   0.00039,-14729920.00000,   0.00000
-426746822.97771,-137062550.09448,-164617488.82918,  -0.00376,  -0.00234,  -0.00175,463452288.00000,   0.00389,278788320.00000,  -0.00209,  -0.00255,   0.00039,-15336032.00000,   0.00000
-423637709.36094,-133091503.98988,-165848820.95464,  -0.00376,  -0.00233,  -0.00176,462992320.00000,   0.00389,278788320.00000,  -0.00209,  -0.00255,   0.00039,-15796000.00000,   0.00000
-420436245.83476,-129080879.35269,-167088948.30956,  -0.00375,  -0.00232,  -0.00178,462687392.00000,   0.00389,278788320.00000,  -0.00209,  -0.00255,   0.00039,-16100928.00000,   0.00000
-417190806.16123,-125026278.56815,-168329075.66448,  -0.00374,  -0.00231,  -0.00179,462559424.00000,   0.00389,278788320.00000,  -0.00209,  -0.00255,   0.00039,-16228896.00000,   0.00000
-413914583.18458,-120958484.93942,-169560407.78994,  -0.00374,  -0.00230,  -0.00181,462597664.00000,   0.00389,278788320.00000,  -0.00209,  -0.00255,   0.00039,-16190656.00000,   0.00000
-410532817.45431,-116820329.47494,-170791739.91539,  -0.00373,  -0.00228,  -0.00183,462775520.00000,   0.00389,278788320.00000,  -0.00209,  -0.00255,   0.00039,-16012800.00000,   0.00000
-407107075.57670,-112638197.86313,-172023072.04085,  -0.00372,  -0.00227,  -0.00184,463100480.00000,   0.00389,278788320.00000,  -0.00209,  -0.00255,   0.00039,-15687840.00000,   0.00000
-403588983.78969,-108416487.71871,-173263199.39577,  -0.00371,  -0.00226,  -0.00186,463546560.00000,   0.00389,278788320.00000,  -0.00209,  -0.00255,   0.00039,-15241760.00000,   0.00000
-400026915.85534,-104150801.42695,-174494531.52122,  -0.00371,  -0.00225,  -0.00187,464107488.00000,   0.00389,278788320.00000,  -0.00209,  -0.00255,   0.00039,-14680832.00000,   0.00000
-396403281.31471,-99858729.44679,-175717068.41721,  -0.00370,  -0.00223,  -0.00189,464715936.00000,   0.00389,278788320.00000,  -0.00209,  -0.00255,   0.00039,-14072384.00000,   0.00000
-392704887.32361,-95509488.47510,-176948400.54267,  -0.00369,  -0.00222,  -0.00191,465296832.00000,   0.00389,278788320.00000,  -0.00209,  -0.00255,   0.00039,-13491488.00000,   0.00000
-388962517.18517,-91116271.35606,-178179732.66812,  -0.00368,  -0.00221,  -0.00192,465780224.00000,   0.00389,278788320.00000,  -0.00209,  -0.00255,   0.00039,-13008096.00000,   0.00000
-385127797.13733,-86683475.70442,-179402269.56411,  -0.00367,  -0.00220,  -0.00194,466094912.00000,   0.00389,278788320.00000,  -0.00209,  -0.00255,   0.00039,-12693408.00000,   0.00000
-381249100.94214,-82206703.90545,-180624806.46010,  -0.00366,  -0.00218,  -0.00195,466253632.00000,   0.00389,278788320.00000,  -0.00209,  -0.00255,   0.00039,-12534688.00000,   0.00000
-377308838.14069,-77703546.41807,-181856138.58555,  -0.00365,  -0.00217,  -0.00197,466246432.00000,   0.00389,278788320.00000,  -0.00209,  -0.00255,   0.00039,-12541888.00000,   0.00000
-373293815.88876,-73143219.93915,-183069880.25207,  -0.00365,  -0.00216,  -0.00199,466059296.00000,   0.00389,278788320.00000,  -0.00209,  -0.00255,   0.00039,-12729024.00000,   0.00000
-369217227.03055,-68556507.77183,-184292417.14806,  -0.00364,  -0.00214,  -0.00200,465718112.00000,   0.00389,278788320.00000,  -0.00209,  -0.00255,   0.00039,-13070208.00000,   0.00000
-365065878.72188,-63912626.61297,-185514954.04405,  -0.00363,  -0.00213,  -0.00202,465283648.00000,   0.00389,278788320.00000,  -0.00209,  -0.00255,   0.00039,-13504672.00000,   0.00000
-360883747.11006,-59255552.60991,-186728695.71057,  -0.00362,  -0.00212,  -0.00203,464986272.00000,   0.00389,278788320.00000,  -0.00209,  -0.00255,   0.00039,-13802048.00000,   0.00000
-356596072.74464,-54528116.77111,-187951232.60656,  -0.00361,  -0.00211,  -0.00205,464775328.00000,   0.00389,278788320.00000,  -0.00209,  -0.00255,   0.00039,-14012992.00000,   0.00000
-352277615.07608,-49787488.08811,-189164974.27308,  -0.00360,  -0.00209,  -0.00207,464456544.00000,   0.00389,278788320.00000,  -0.00209,  -0.00255,   0.00039,-14331776.00000,   0.00000
-347884397.95704,-44989690.41357,-190378715.93960,  -0.00358,  -0.00208,  -0.00208,464056448.00000,   0.00389,278788320.00000,  -0.00209,  -0.00255,   0.00039,-14731872.00000,   0.00000
-343416421.38754,-40134723.74749,-191583662.37665,  -0.00357,  -0.00207,  -0.00210,463641152.00000,   0.00389,278788320.00000,  -0.00209,  -0.00255,   0.00039,-15147168.00000,   0.00000
-338917661.51489,-35266564.23720,-192797404.04317,  -0.00356,  -0.00205,  -0.00211,463302624.00000,   0.00389,278788320.00000,  -0.00209,  -0.00255,   0.00039,-15485696.00000,   0.00000
-334326551.73284,-30358826.19432,-194002350.48022,  -0.00355,  -0.00204,  -0.00213,463005536.00000,   0.00389,278788320.00000,  -0.00209,  -0.00255,   0.00039,-15782784.00000,   0.00000
-329691465.80344,-25407112.00410,-195207296.91727,  -0.00354,  -0.00203,  -0.00214,462808288.00000,   0.00389,278788320.00000,  -0.00209,  -0.00255,   0.00039,-15980032.00000,   0.00000
-324950837.12044,-20385035.97813,-196412243.35433,  -0.00353,  -0.00201,  -0.00216,462669856.00000,   0.00389,278788320.00000,  -0.00209,  -0.00255,   0.00039,-16118464.00000,   0.00000
-320179425.13430,-15349767.10797,-197617189.79138,  -0.00352,  -0.00200,  -0.00218,462604864.00000,   0.00389,278788320.00000,  -0.00209,  -0.00255,   0.00039,-16183456.00000,   0.00000
-315346446.54189,-10288112.54940,-198813340.99896,  -0.00350,  -0.00198,  -0.00219,462557344.00000,   0.00389,278788320.00000,  -0.00209,  -0.00255,   0.00039,-16230976.00000,   0.00000
-310469491.80214,-5182481.84349,-200018287.43602,  -0.00349,  -0.00197,  -0.00221,462542336.00000,   0.00389,278788320.00000,  -0.00209,  -0.00255,   0.00039,-16245984.00000,   0.00000
-305486994.30878,-6489.30185,-201205643.41413,  -0.00348,  -0.00196,  -0.00222,462479776.00000,   0.00389,278788320.00000,  -0.00209,  -0.00255,   0.00039,-16308544.00000,   0.00000
-300473713.51229,5182696.08400,-202401794.62172,  -0.00347,  -0.00194,  -0.00224,462441824.00000,   0.00389,278788320.00000,  -0.00209,  -0.00255,   0.00039,-16346496.00000,   0.00000
-295398866.10952,10398267.15825,-203597945.82930,  -0.00345,  -0.00193,  -0.00225,462440704.00000,   0.00389,278788320.00000,  -0.00209,  -0.00255,   0.00039,-16347616.00000,   0.00000
-290218475.95314,15684200.06824,-204785301.80742,  -0.00344,  -0.00192,  -0.00227,462506016.00000,   0.00389,278788320.00000,  -0.00209,  -0.00255,   0.00039,-16282304.00000,   0.00000
-285038085.79676,20970132.97823,-205972657.78554,  -0.00343,  -0.00190,  -0.00228,463044160.00000,   0.00389,278788320.00000,  -0.00209,  -0.00255,   0.00039,-15744160.00000,   0.00000
-279752152.88677,26326427.72396,-207151218.53419,  -0.00341,  -0.00189,  -0.00230,463649408.00000,   0.00389,278788320.00000,  -0.00209,  -0.00255,   0.00039,-15138912.00000,   0.00000
-274404653.37051,31709108.15809,-208338574.51231,  -0.00340,  -0.00187,  -0.00231,464034720.00000,   0.00389,278788320.00000,  -0.00209,  -0.00255,   0.00039,-14753600.00000,   0.00000
-269013177.70691,37135764.73956,-209517135.26096,  -0.00339,  -0.00186,  -0.00233,464196416.00000,   0.00389,278788320.00000,  -0.00209,  -0.00255,   0.00039,-14591904.00000,   0.00000
-263560135.43703,42588807.00943,-210695696.00961,  -0.00337,  -0.00185,  -0.00235,464539648.00000,   0.00389,278788320.00000,  -0.00209,  -0.00255,   0.00039,-14248672.00000,   0.00000
-258045526.56089,48068234.96771,-211865461.52879,  -0.00336,  -0.00183,  -0.00236,464863072.00000,   0.00389,278788320.00000,  -0.00209,  -0.00255,   0.00039,-13925248.00000,   0.00000
-252456158.23427,53604831.91752,-213044022.27744,  -0.00334,  -0.00182,  -0.00238,465230112.00000,   0.00389,278788320.00000,  -0.00209,  -0.00255,   0.00039,-13558208.00000,   0.00000
-246805223.30138,59167814.55574,-214213787.79662,  -0.00333,  -0.00180,  -0.00239,465568768.00000,   0.00389,278788320.00000,  -0.00209,  -0.00255,   0.00039,-13219552.00000,   0.00000
-241110312.22115,64774773.34129,-215374758.08634,  -0.00331,  -0.00179,  -0.00241,465982688.00000,   0.00389,278788320.00000,  -0.00209,  -0.00255,   0.00039,-12805632.00000,   0.00000
-235353834.53464,70408117.81525,-216544523.60552,  -0.00330,  -0.00177,  -0.00242,466503744.00000,   0.00389,278788320.00000,  -0.00209,  -0.00255,   0.00039,-12284576.00000,   0.00000
-229491814.09453,76111824.12495,-217705493.89523,  -0.00328,  -0.00176,  -0.00244,467044736.00000,   0.00389,278788320.00000,  -0.00209,  -0.00255,   0.00039,-11743584.00000,   0.00000
-223629793.65442,81815530.43465,-218857668.95548,  -0.00327,  -0.00174,  -0.00245,467684704.00000,   0.00389,278788320.00000,  -0.00209,  -0.00255,   0.00039,-11103616.00000,   0.00000
-217675423.30490,87558815.27695,-220018639.24519,  -0.00325,  -0.00173,  -0.00247,468414464.00000,   0.00389,278788320.00000,  -0.00209,  -0.00255,   0.00039,-10373856.00000,   0.00000
-211646293.50490,93359269.11079,-221170814.30544,  -0.00323,  -0.00172,  -0.00248,469203456.00000,   0.00389,278788320.00000,  -0.00209,  -0.00255,   0.00039,-9584864.00000,   0.00000
-205586380.40177,99172915.78883,-222322989.36569,  -0.00322,  -0.00170,  -0.00250,470047200.00000,   0.00389,278788320.00000,  -0.00209,  -0.00255,   0.00039,-8741120.00000,   0.00000
-199464900.69236,105012948.15527,-223466369.19647,  -0.00320,  -0.00169,  -0.00251,470916736.00000,   0.00389,278788320.00000,  -0.00209,  -0.00255,   0.00039,-7871584.00000,   0.00000
-193268661.53248,110910149.51326,-224609749.02725,  -0.00319,  -0.00167,  -0.00253,471842240.00000,   0.00389,278788320.00000,  -0.00209,  -0.00255,   0.00039,-6946080.00000,   0.00000
-187010855.76633,116833736.55964,-225753128.85803,  -0.00317,  -0.00166,  -0.00254,472832128.00000,   0.00389,278788320.00000,  -0.00209,  -0.00255,   0.00039,-5956192.00000,   0.00000
-180722266.69704,122770516.45023,-226887713.45934,  -0.00315,  -0.00164,  -0.00256,473894752.00000,   0.00389,278788320.00000,  -0.00209,  -0.00255,   0.00039,-4893568.00000,   0.00000
-174328134.87414,128777658.17656,-228022298.06065,  -0.00313,  -0.00163,  -0.00257,475036896.00000,   0.00389,278788320.00000,  -0.00209,  -0.00255,   0.00039,-3751424.00000,   0.00000
-167903219.74810,134797992.74709,-229156882.66197,  -0.00312,  -0.00161,  -0.00259,476272224.00000,   0.00389,278788320.00000,  -0.00209,  -0.00255,   0.00039,-2516096.00000,   0.00000
-161434328.47473,140862303.46495,-230282672.03381,  -0.00310,  -0.00160,  -0.00260,477584736.00000,   0.00389,278788320.00000,  -0.00209,  -0.00255,   0.00039,-1203584.00000,   0.00000
-155603537.97050,146286658.16996,-231283129.38574,  -0.00308,  -0.00158,  -0.00261,478787968.00000,   0.00389,278788320.00000,  -0.00209,  -0.00255,   0.00039,-352.00000,   0.00000
-154824747.29264,146919358.24447,-231331418.01201,  -0.00308,  -0.00158,  -0.00261,478787968.00000,   0.00389,278789024.00000,  -0.00209,  -0.00255,   0.00039,-832.00000,   1.00000
-147777388.41878,152616540.24956,-231753488.97282,  -0.00306,  -0.00157,  -0.00263,480158528.00000,   0.00390,278795360.00000,  -0.00209,  -0.00255,   0.00038, 192.00000,   2.00000
-140695363.42631,158296264.57496,-232147293.39240,  -0.00304,  -0.00155,  -0.00264,480211776.00000,   0.00390,278801952.00000,  -0.00210,  -0.00255,   0.00037,  96.00000,   2.00000
-133538749.90375,163982617.68146,-232499484.72444,  -0.00303,  -0.00154,  -0.00266,480289664.00000,   0.00391,278808928.00000,  -0.00210,  -0.00254,   0.00036, 192.00000,   2.00000
-126355319.46291,169593073.50988,-232776053.91000,  -0.00301,  -0.00152,  -0.00267,480417184.00000,   0.00392,278816512.00000,  -0.00210,  -0.00254,   0.00035,  96.00000,   2.00000
-119059920.73182,175149710.44527,-232961685.67502,  -0.00299,  -0.00151,  -0.00269,480592032.00000,   0.00393,278824992.00000,  -0.00211,  -0.00254,   0.00034, 224.00000,   2.00000
-111719407.81756,180599724.98436,-233090745.65595,  -0.00297,  -0.00149,  -0.00270,480670016.00000,   0.00394,278834016.00000,  -0.00211,  -0.00253,   0.00033, 256.00000,   2.00000
-104325444.90852,186085994.74817,-233207704.16376,  -0.00295,  -0.00148,  -0.00272,480675072.00000,   0.00394,278843104.00000,  -0.00211,  -0.00253,   0.00032,  64.00000,   2.00000
-96907015.99488,191656062.03971,-233315043.12214,  -0.00293,  -0.00146,  -0.00273,480755904.00000,   0.00395,278852128.00000,  -0.00212,  -0.00252,   0.00030, 160.00000,   2.00000
-89294206.97353,197429259.51517,-233481723.54567,  -0.00291,  -0.00145,  -0.00274,480717472.00000,   0.00396,278860576.00000,  -0.00212,  -0.00252,   0.00029, 192.00000,   2.00000
-81883274.18732,203368378.30403,-233939189.08378,  -0.00289,  -0.00143,  -0.00276,480091776.00000,   0.00397,278866304.00000,  -0.00212,  -0.00252,   0.00028,   0.00000,   2.00000
-74292789.33072,209022059.15059,-234004362.67187,  -0.00287,  -0.00142,  -0.00277,480822432.00000,   0.00398,278875456.00000,  -0.00212,  -0.00251,   0.00027, 128.00000,   2.00000
-66730223.12991,214571264.93244,-234032205.98911,  -0.00285,  -0.00140,  -0.00279,480939424.00000,   0.00399,278885024.00000,  -0.00213,  -0.00251,   0.00026, 192.00000,   2.00000
-59072730.14241,220023984.68661,-233940612.61590,  -0.00283,  -0.00138,  -0.00280,481227104.00000,   0.00400,278895712.00000,  -0.00213,  -0.00250,   0.00024,  64.00000,   2.00000
-51384349.70185,225446025.97340,-233802058.97474,  -0.00281,  -0.00137,  -0.00281,481332640.00000,   0.00401,278906752.00000,  -0.00214,  -0.00250,   0.00022, 128.00000,   2.00000
-43650673.76807,230884492.57456,-233647065.46008,  -0.00279,  -0.00135,  -0.00283,481376992.00000,   0.00402,278917824.00000,  -0.00214,  -0.00249,   0.00021, 160.00000,   2.00000
-35911947.62344,236296375.70074,-233462246.39135,  -0.00277,  -0.00134,  -0.00284,481461696.00000,   0.00403,278929120.00000,  -0.00214,  -0.00248,   0.00019, 192.00000,   2.00000
-28115140.93868,241665979.20092,-233194907.24516,  -0.00275,  -0.00132,  -0.00286,481638432.00000,   0.00404,278941120.00000,  -0.00215,  -0.00248,   0.00018,   0.00000,   2.00000
-20318479.16632,246960459.64965,-232875785.43027,  -0.00272,  -0.00131,  -0.00287,481737312.00000,   0.00405,278953504.00000,  -0.00215,  -0.00247,   0.00016,  64.00000,   2.00000
-12496324.07019,252243202.43084,-232522509.25786,  -0.00270,  -0.00129,  -0.00288,481814432.00000,   0.00406,278966208.00000,  -0.00215,  -0.00246,   0.00014,  32.00000,   2.00000
-4611336.76333,257512059.91656,-232119151.04505,  -0.00268,  -0.00128,  -0.00290,481904128.00000,   0.00408,278979296.00000,  -0.00216,  -0.00246,   0.00012, 160.00000,   2.00000
3221570.29138,262644650.85803,-231650926.07695,  -0.00266,  -0.00126,  -0.00291,482027616.00000,   0.00409,278992896.00000,  -0.00216,  -0.00245,   0.00010, 128.00000,   2.00000
11028142.53954,267639126.14183,-231099398.30505,  -0.00264,  -0.00125,  -0.00292,482228672.00000,   0.00410,279007296.00000,  -0.00216,  -0.00244,   0.00008,  64.00000,   2.00000
18794304.76724,272539979.09156,-230450174.92561,  -0.00261,  -0.00123,  -0.00294,482408128.00000,   0.00412,279022400.00000,  -0.00217,  -0.00243,   0.00006, 256.00000,   2.00000
26586951.79091,277400597.27947,-229745357.19113,  -0.00259,  -0.00121,  -0.00295,482535456.00000,   0.00413,279037952.00000,  -0.00217,  -0.00242,   0.00004, 256.00000,   2.00000
34478351.24265,282336794.23403,-229042333.92611,  -0.00257,  -0.00120,  -0.00296,482541312.00000,   0.00415,279053472.00000,  -0.00217,  -0.00242,   0.00001, 256.00000,   2.00000
42495994.09587,287427044.26666,-228371305.97302,  -0.00255,  -0.00118,  -0.00298,482463520.00000,   0.00416,279068576.00000,  -0.00218,  -0.00241,  -0.00001, 352.00000,   2.00000
50530846.67225,292537408.49136,-227730572.96040,  -0.00252,  -0.00117,  -0.00299,482407232.00000,   0.00418,279083360.00000,  -0.00218,  -0.00240,  -0.00003, 320.00000,   2.00000
58569996.46078,297610605.97044,-227046170.15305,  -0.00250,  -0.00115,  -0.00300,482489248.00000,   0.00419,279098496.00000,  -0.00218,  -0.00239,  -0.00005, 352.00000,   2.00000
66518368.99221,302507442.19375,-226278702.12412,  -0.00248,  -0.00114,  -0.00302,482682144.00000,   0.00421,279114400.00000,  -0.00219,  -0.00238,  -0.00008, 320.00000,   2.00000
74387763.32186,307210152.19811,-225420682.98675,  -0.00245,  -0.00112,  -0.00303,482885088.00000,   0.00422,279131072.00000,  -0.00219,  -0.00237,  -0.00010, 448.00000,   2.00000
82248736.61475,311840413.28728,-224468635.46711,  -0.00243,  -0.00110,  -0.00304,483091264.00000,   0.00424,279148512.00000,  -0.00219,  -0.00236,  -0.00012, 544.00000,   2.00000
90080153.31183,316388692.16262,-223477476.98643,  -0.00240,  -0.00109,  -0.00306,483190848.00000,   0.00426,279166272.00000,  -0.00220,  -0.00235,  -0.00015, 576.00000,   2.00000
97888355.70650,320877816.95650,-222463846.32414,  -0.00238,  -0.00107,  -0.00307,483281376.00000,   0.00428,279184256.00000,  -0.00220,  -0.00234,  -0.00018, 544.00000,   2.00000
105440293.19013,325079534.13129,-221363466.20181,  -0.00235,  -0.00106,  -0.00308,483636448.00000,   0.00429,279203040.00000,  -0.00220,  -0.00233,  -0.00020, 544.00000,   2.00000
113156603.03778,329243947.14235,-220113546.33038,  -0.00233,  -0.00104,  -0.00309,483792256.00000,   0.00431,279223040.00000,  -0.00220,  -0.00232,  -0.00023, 576.00000,   2.00000
120896579.44706,333519663.85640,-218933657.72454,  -0.00230,  -0.00102,  -0.00311,483651328.00000,   0.00433,279242368.00000,  -0.00220,  -0.00231,  -0.00026, 544.00000,   2.00000
128576286.82242,337726459.82912,-217707440.22212,  -0.00228,  -0.00101,  -0.00312,483747904.00000,   0.00435,279261984.00000,  -0.00221,  -0.00229,  -0.00029, 544.00000,   2.00000
136231914.08153,341884051.89064,-216429328.83200,  -0.00225,  -0.00099,  -0.00313,483848832.00000,   0.00437,279281920.00000,  -0.00221,  -0.00228,  -0.00032, 384.00000,   2.00000
143862128.16452,345989618.29551,-215104686.99096,  -0.00223,  -0.00098,  -0.00314,483951776.00000,   0.00439,279302272.00000,  -0.00221,  -0.00227,  -0.00035, 640.00000,   2.00000
151437845.14527,350033585.12541,-213735806.50014,  -0.00220,  -0.00096,  -0.00316,484041600.00000,   0.00441,279322944.00000,  -0.00221,  -0.00226,  -0.00038, 544.00000,   2.00000
158992008.12753,354031047.69492,-212319902.10965,  -0.00218,  -0.00095,  -0.00317,484113920.00000,   0.00443,279343936.00000,  -0.00221,  -0.00225,  -0.00041, 672.00000,   2.00000
166517682.12285,357967808.97034,-210864100.24295,  -0.00215,  -0.00093,  -0.00318,484181568.00000,   0.00445,279365216.00000,  -0.00221,  -0.00223,  -0.00044, 640.00000,   2.00000
173972807.84681,361815954.87182,-209374420.68943,  -0.00213,  -0.00091,  -0.00319,484286080.00000,   0.00447,279386880.00000,  -0.00221,  -0.00222,  -0.00047, 512.00000,   2.00000
181322186.11322,365509245.92444,-207866966.08549,  -0.00210,  -0.00090,  -0.00321,484384576.00000,   0.00449,279408768.00000,  -0.00221,  -0.00221,  -0.00050, 512.00000,   2.00000
188597911.19075,369073573.95718,-206320814.92004,  -0.00207,  -0.00088,  -0.00322,484558432.00000,   0.00452,279431072.00000,  -0.00221,  -0.00219,  -0.00054, 640.00000,   2.00000
195783811.55305,372471764.57759,-204751330.74487,  -0.00205,  -0.00087,  -0.00323,484729888.00000,   0.00454,279453728.00000,  -0.00221,  -0.00218,  -0.00057, 576.00000,   2.00000
202881669.47732,375761448.43846,-203143898.32686,  -0.00202,  -0.00085,  -0.00324,484924192.00000,   0.00456,279476864.00000,  -0.00221,  -0.00216,  -0.00060, 512.00000,   2.00000
209905969.88996,378953220.25975,-201506528.81090,  -0.00199,  -0.00083,  -0.00325,485046592.00000,   0.00458,279500128.00000,  -0.00221,  -0.00215,  -0.00063, 480.00000,   2.00000
216925429.79205,382094554.86876,-199823808.35723,  -0.00196,  -0.00082,  -0.00327,485222592.00000,   0.00461,279523872.00000,  -0.00221,  -0.00213,  -0.00067, 544.00000,   2.00000
223845154.31266,385147060.52797,-198117225.59589,  -0.00194,  -0.00080,  -0.00328,485342496.00000,   0.00463,279547840.00000,  -0.00220,  -0.00212,  -0.00070, 512.00000,   2.00000
230726222.38629,388107509.83876,-196379915.54627,  -0.00191,  -0.00079,  -0.00329,485458592.00000,   0.00465,279572096.00000,  -0.00220,  -0.00210,  -0.00074, 640.00000,   2.00000
237480817.03007,390976732.79355,-194609623.84149,  -0.00188,  -0.00077,  -0.00330,485587680.00000,   0.00468,279596640.00000,  -0.00220,  -0.00209,  -0.00077, 576.00000,   2.00000
244175352.57219,393750110.70930,-192802244.08198,  -0.00185,  -0.00075,  -0.00331,485733536.00000,   0.00470,279621504.00000,  -0.00220,  -0.00207,  -0.00081, 576.00000,   2.00000
250738181.74919,396416484.63762,-190975541.34834,  -0.00183,  -0.00074,  -0.00332,485856096.00000,   0.00473,279646656.00000,  -0.00219,  -0.00205,  -0.00084, 448.00000,   2.00000
257245028.58382,399002288.32388,-189123987.29280,  -0.00180,  -0.00072,  -0.00333,485956576.00000,   0.00475,279672000.00000,  -0.00219,  -0.00204,  -0.00088, 608.00000,   2.00000
263722408.80197,401555111.06700,-187235583.61913,  -0.00177,  -0.00071,  -0.00335,486084096.00000,   0.00478,279697696.00000,  -0.00219,  -0.00202,  -0.00091, 576.00000,   2.00000
270156774.76174,404075660.56175,-185320422.76909,  -0.00174,  -0.00069,  -0.00336,486153088.00000,   0.00480,279723552.00000,  -0.00218,  -0.00200,  -0.00095, 480.00000,   2.00000
276566459.09803,406563865.70805,-183377769.39426,  -0.00171,  -0.00067,  -0.00337,486223648.00000,   0.00483,279749568.00000,  -0.00218,  -0.00198,  -0.00098, 544.00000,   2.00000
282891222.22125,408968246.52821,-181431482.41545,  -0.00168,  -0.00066,  -0.00338,486281920.00000,   0.00485,279775712.00000,  -0.00217,  -0.00197,  -0.00102, 512.00000,   2.00000
289105501.66553,411291585.63020,-179469676.44237,  -0.00165,  -0.00064,  -0.00339,486391744.00000,   0.00488,279802048.00000,  -0.00217,  -0.00195,  -0.00106, 480.00000,   2.00000
295178122.25200,413469203.34371,-177507196.15283,  -0.00162,  -0.00063,  -0.00340,486537184.00000,   0.00490,279828608.00000,  -0.00216,  -0.00193,  -0.00109, 576.00000,   2.00000
301040341.21488,415421811.56482,-175569164.90063,  -0.00159,  -0.00061,  -0.00341,486733504.00000,   0.00493,279855360.00000,  -0.00215,  -0.00191,  -0.00113, 384.00000,   2.00000
306678653.51578,417192312.10271,-173640308.26012,  -0.00157,  -0.00059,  -0.00342,486970240.00000,   0.00496,279882368.00000,  -0.00215,  -0.00189,  -0.00117, 448.00000,   2.00000
312266537.72431,418835788.00328,-171683881.48754,  -0.00154,  -0.00058,  -0.00343,487183904.00000,   0.00498,279909696.00000,  -0.00214,  -0.00187,  -0.00120, 448.00000,   2.00000
317959597.98619,420554285.71797,-169644003.29872,  -0.00151,  -0.00056,  -0.00344,487248896.00000,   0.00501,279937408.00000,  -0.00213,  -0.00186,  -0.00124, 352.00000,   2.00000
323275787.55741,422033077.01081,-167786536.78865,  -0.00148,  -0.00055,  -0.00345,487417792.00000,   0.00504,279964448.00000,  -0.00212,  -0.00184,  -0.00127, 384.00000,   2.00000
328440839.00036,423278396.33136,-165810397.54080,  -0.00145,  -0.00053,  -0.00347,487753216.00000,   0.00507,279992640.00000,  -0.00211,  -0.00182,  -0.00131, 544.00000,   2.00000
333622009.57266,424544920.54075,-163802179.44821,  -0.00141,  -0.00051,  -0.00348,487817632.00000,   0.00509,280020960.00000,  -0.00211,  -0.00180,  -0.00135, 352.00000,   2.00000
338782162.87005,425790488.57855,-161787430.85014,  -0.00138,  -0.00050,  -0.00349,487846624.00000,   0.00512,280049344.00000,  -0.00210,  -0.00177,  -0.00138, 320.00000,   2.00000
343944259.55795,427036975.92172,-159745924.59915,  -0.00135,  -0.00048,  -0.00350,487896000.00000,   0.00515,280077824.00000,  -0.00209,  -0.00175,  -0.00142, 192.00000,   2.00000
349071435.92040,428279235.98024,-157687300.58363,  -0.00132,  -0.00047,  -0.00351,487927456.00000,   0.00518,280106432.00000,  -0.00208,  -0.00173,  -0.00146, 192.00000,   2.00000
354130733.91132,429494697.69060,-155621866.18323,  -0.00129,  -0.00045,  -0.00352,487976256.00000,   0.00521,280135104.00000,  -0.00207,  -0.00171,  -0.00149, 160.00000,   2.00000
359097886.38731,430672288.91669,-153548162.44958,  -0.00126,  -0.00043,  -0.00353,488029984.00000,   0.00523,280163904.00000,  -0.00205,  -0.00169,  -0.00153, 224.00000,   2.00000
363967568.80083,431781248.63074,-151471305.95074,  -0.00123,  -0.00042,  -0.00354,488093344.00000,   0.00526,280192800.00000,  -0.00204,  -0.00167,  -0.00157, 224.00000,   2.00000
368696495.72597,432829404.13501,-149392747.40928,  -0.00120,  -0.00040,  -0.00355,488199136.00000,   0.00529,280221888.00000,  -0.00203,  -0.00165,  -0.00160, 128.00000,   2.00000
373307510.11659,433793870.12466,-147314902.62932,  -0.00117,  -0.00039,  -0.00356,488271744.00000,   0.00532,280251072.00000,  -0.00202,  -0.00163,  -0.00164, 192.00000,   2.00000
377758896.78217,434673194.83120,-145253401.90677,  -0.00113,  -0.00037,  -0.00356,488398400.00000,   0.00535,280280480.00000,  -0.00201,  -0.00161,  -0.00168, 128.00000,   2.00000
382072581.16234,435455724.30693,-143210636.60797,  -0.00110,  -0.00036,  -0.00357,488466304.00000,   0.00538,280309856.00000,  -0.00199,  -0.00159,  -0.00171,  96.00000,   2.00000
386250522.49132,436149148.61249,-141191604.06091,  -0.00107,  -0.00034,  -0.00358,488566912.00000,   0.00541,280339296.00000,  -0.00198,  -0.00157,  -0.00175,  96.00000,   2.00000
390329576.34792,436767067.77261,-139199790.03985,  -0.00104,  -0.00032,  -0.00359,488699104.00000,   0.00544,280368832.00000,  -0.00196,  -0.00155,  -0.00178,   0.00000,   2.00000
394316757.38881,437342185.85943,-137229367.38812,  -0.00101,  -0.00031,  -0.00360,488822528.00000,   0.00547,280398368.00000,  -0.00195,  -0.00153,  -0.00182, 256.00000,   2.00000
398161545.99955,437802170.36097,-135289654.51000,  -0.00097,  -0.00029,  -0.00361,488962240.00000,   0.00550,280427936.00000,  -0.00193,  -0.00151,  -0.00185, 256.00000,   2.00000
401886961.09237,438128534.33458,-133321316.07874,  -0.00094,  -0.00028,  -0.00362,489101056.00000,   0.00553,280457984.00000,  -0.00192,  -0.00149,  -0.00189, 288.00000,   2.00000
405596125.10695,438387257.17765,-131350348.72484,  -0.00091,  -0.00026,  -0.00363,489110176.00000,   0.00555,280488128.00000,  -0.00190,  -0.00146,  -0.00192,  96.00000,   2.00000
409291847.03570,438688713.13875,-129412534.96908,  -0.00088,  -0.00025,  -0.00364,489104640.00000,   0.00558,280518080.00000,  -0.00188,  -0.00144,  -0.00196,  32.00000,   2.00000
412921494.91952,438961517.39633,-127492926.87553,  -0.00084,  -0.00023,  -0.00365,489193248.00000,   0.00561,280548032.00000,  -0.00186,  -0.00142,  -0.00199,  32.00000,   2.00000
416480847.34069,439194534.44757,-125573223.94771,  -0.00081,  -0.00021,  -0.00366,489281760.00000,   0.00564,280578080.00000,  -0.00185,  -0.00140,  -0.00202,  32.00000,   2.00000
419970474.70189,439376752.68389,-123667283.57261,  -0.00078,  -0.00020,  -0.00366,489397024.00000,   0.00567,280608256.00000,  -0.00183,  -0.00138,  -0.00206,  64.00000,   2.00000
423360840.12852,439510807.87758,-121788918.35691,  -0.00074,  -0.00018,  -0.00367,489450592.00000,   0.00570,280638368.00000,  -0.00181,  -0.00136,  -0.00209,  96.00000,   2.00000
426661026.41405,439606424.79485,-119924063.06158,  -0.00071,  -0.00017,  -0.00368,489596032.00000,   0.00573,280668704.00000,  -0.00179,  -0.00134,  -0.00212, -64.00000,   2.00000
429879299.52075,439653242.48308,-118071711.46063,  -0.00067,  -0.00015,  -0.00369,489669856.00000,   0.00576,280699008.00000,  -0.00177,  -0.00131,  -0.00216, -64.00000,   2.00000
433031142.26106,439638540.03494,-116230858.66109,  -0.00064,  -0.00014,  -0.00370,489744320.00000,   0.00579,280729408.00000,  -0.00175,  -0.00129,  -0.00219, -96.00000,   2.00000
436181448.86886,439590392.14059,-114352045.21242,  -0.00061,  -0.00012,  -0.00371,489834848.00000,   0.00583,280760128.00000,  -0.00173,  -0.00127,  -0.00222, 288.00000,   2.00000
439340430.85677,439510663.45780,-112449484.76769,  -0.00057,  -0.00011,  -0.00372,489789152.00000,   0.00586,280790880.00000,  -0.00171,  -0.00125,  -0.00225, 448.00000,   2.00000
442449696.95011,439444615.35987,-110559736.90715,  -0.00054,  -0.00009,  -0.00372,489807872.00000,   0.00589,280821760.00000,  -0.00169,  -0.00123,  -0.00229, 448.00000,   2.00000
445421419.65398,439386506.64280,-108725758.20285,  -0.00050,  -0.00007,  -0.00373,489818592.00000,   0.00592,280852448.00000,  -0.00167,  -0.00120,  -0.00232, 288.00000,   2.00000
448231472.49863,439290774.14567,-106943521.23294,  -0.00047,  -0.00006,  -0.00374,489905760.00000,   0.00595,280883104.00000,  -0.00165,  -0.00118,  -0.00235, 416.00000,   2.00000
450895704.49003,439153436.95855,-105194680.69351,  -0.00043,  -0.00004,  -0.00375,490035648.00000,   0.00598,280913888.00000,  -0.00163,  -0.00116,  -0.00238, 576.00000,   2.00000
453428944.61411,438876406.15845,-103551925.75351,  -0.00040,  -0.00003,  -0.00375,490128672.00000,   0.00601,280944544.00000,  -0.00161,  -0.00114,  -0.00241, 576.00000,   2.00000
455847403.23043,438530410.48275,-101966172.02962,  -0.00037,  -0.00001,  -0.00376,490257952.00000,   0.00604,280975232.00000,  -0.00158,  -0.00112,  -0.00244, 576.00000,   2.00000
458200394.34675,438263309.15013,-100284993.79258,  -0.00033,   0.00000,  -0.00377,490348672.00000,   0.00607,281006304.00000,  -0.00156,  -0.00110,  -0.00247, 576.00000,   2.00000
460509517.65660,438014357.09681,-98581543.33598,  -0.00030,   0.00002,  -0.00378,490402528.00000,   0.00610,281037568.00000,  -0.00154,  -0.00108,  -0.00250, 512.00000,   2.00000
462776575.56483,437745257.59983,-96961419.77804,  -0.00026,   0.00003,  -0.00378,490419648.00000,   0.00613,281068512.00000,  -0.00151,  -0.00106,  -0.00252, 544.00000,   2.00000
465006119.35278,437449951.08381,-95352673.11800,  -0.00022,   0.00005,  -0.00379,490535488.00000,   0.00616,281099552.00000,  -0.00149,  -0.00104,  -0.00255, 672.00000,   2.00000
467157520.55022,437125644.91288,-93750266.22868,  -0.00019,   0.00006,  -0.00380,490615040.00000,   0.00619,281130656.00000,  -0.00146,  -0.00101,  -0.00258, 800.00000,   2.00000
469265972.99393,436754928.73574,-92156258.86509,  -0.00015,   0.00008,  -0.00381,490692512.00000,   0.00623,281161888.00000,  -0.00144,  -0.00099,  -0.00261, 736.00000,   2.00000
471320886.04995,436375727.86966,-90572544.64887,  -0.00012,   0.00009,  -0.00381,490724064.00000,   0.00626,281193120.00000,  -0.00141,  -0.00097,  -0.00264, 832.00000,   2.00000
473344767.93417,435976815.74829,-88994148.94051,  -0.00008,   0.00011,  -0.00382,490790848.00000,   0.00629,281224512.00000,  -0.00139,  -0.00095,  -0.00266, 736.00000,   2.00000
475316700.44616,435569586.26800,-87434890.90387,  -0.00005,   0.00012,  -0.00383,490814592.00000,   0.00632,281255840.00000,  -0.00136,  -0.00093,  -0.00269, 928.00000,   2.00000
477259107.24480,435126690.05670,-85893755.71666,  -0.00001,   0.00014,  -0.00383,490862304.00000,   0.00635,281287232.00000,  -0.00133,  -0.00091,  -0.00272, 832.00000,   2.00000
479139144.49603,434668134.35544,-84386777.71049,   0.00003,   0.00015,  -0.00384,490893888.00000,   0.00638,281318624.00000,  -0.00131,  -0.00089,  -0.00274,-128.00000,   3.00000
480980638.68754,434187338.59404,-82900894.74755,   0.00006,   0.00017,  -0.00385,490965408.00000,   0.00641,281350080.00000,  -0.00128,  -0.00087,  -0.00277, 928.00000,   2.00000
482766484.59936,433682259.23233,-81449856.63628,   0.00010,   0.00018,  -0.00385,490981760.00000,   0.00645,281381472.00000,  -0.00125,  -0.00085,  -0.00279, 800.00000,   2.00000
484508912.22830,433154652.78966,-80022749.85113,   0.00014,   0.00020,  -0.00386,491061632.00000,   0.00648,281412960.00000,  -0.00122,  -0.00083,  -0.00282, 928.00000,   2.00000
486190139.93570,432619413.65491,-78627889.71202,   0.00017,   0.00021,  -0.00386,491103072.00000,   0.00651,281444416.00000,  -0.00120,  -0.00081,  -0.00284, 992.00000,   2.00000
487815606.71044,432067811.59391,-77268387.66471,   0.00021,   0.00023,  -0.00387,491172608.00000,   0.00654,281475936.00000,  -0.00117,  -0.00079,  -0.00287, 928.00000,   2.00000
489409406.04015,431489794.49485,-75926758.12507,   0.00025,   0.00024,  -0.00388,491239296.00000,   0.00657,281507520.00000,  -0.00114,  -0.00077,  -0.00289, 928.00000,   2.00000
490942112.80843,430906860.24786,-74621332.08168,   0.00028,   0.00026,  -0.00388,491291904.00000,   0.00660,281539104.00000,  -0.00111,  -0.00075,  -0.00291, 864.00000,   2.00000
492434710.42253,430304896.56578,-73341381.85813,   0.00032,   0.00027,  -0.00389,491344448.00000,   0.00664,281570656.00000,  -0.00108,  -0.00073,  -0.00294, 832.00000,   2.00000
493875505.62102,429706137.40793,-72085102.21518,   0.00036,   0.00029,  -0.00389,491394560.00000,   0.00667,281602240.00000,  -0.00105,  -0.00071,  -0.00296, 928.00000,   2.00000
495277976.96426,429094591.02343,-70851345.39847,   0.00039,   0.00030,  -0.00390,491491840.00000,   0.00670,281633952.00000,  -0.00102,  -0.00068,  -0.00298, 896.00000,   2.00000
496644426.75607,428485824.98844,-69625416.27634,   0.00043,   0.00032,  -0.00391,491559968.00000,   0.00673,281665696.00000,  -0.00099,  -0.00066,  -0.00300, 960.00000,   2.00000
497968421.77967,427867938.17158,-68427771.88173,   0.00047,   0.00033,  -0.00391,491594016.00000,   0.00676,281697408.00000,  -0.00096,  -0.00064,  -0.00302, 896.00000,   2.00000
499263852.21132,427244911.69871,-67238818.69770,   0.00051,   0.00035,  -0.00392,491685344.00000,   0.00680,281729280.00000,  -0.00093,  -0.00063,  -0.00304, 800.00000,   2.00000
500524574.98364,426618153.35161,-66066443.47411,   0.00054,   0.00036,  -0.00392,491712992.00000,   0.00683,281761056.00000,  -0.00090,  -0.00061,  -0.00306, 864.00000,   2.00000
501752963.78814,425995030.00931,-64903171.93626,   0.00058,   0.00037,  -0.00393,491779040.00000,   0.00686,281792928.00000,  -0.00087,  -0.00059,  -0.00308, 896.00000,   2.00000
502943922.04449,425383193.06060,-63751261.05469,   0.00062,   0.00039,  -0.00393,491821088.00000,   0.00689,281824768.00000,  -0.00084,  -0.00057,  -0.00310, 864.00000,   2.00000
504114423.09148,424751770.03821,-62614216.52768,   0.00066,   0.00040,  -0.00394,491890176.00000,   0.00692,281856736.00000,  -0.00081,  -0.00055,  -0.00312, -64.00000,   3.00000
505255863.47051,424138237.86217,-61479655.98937,   0.00070,   0.00042,  -0.00394,491924544.00000,   0.00696,281888672.00000,  -0.00078,  -0.00053,  -0.00314, 832.00000,   2.00000
506369638.95630,423519833.16803,-60357471.81295,   0.00073,   0.00043,  -0.00395,492010560.00000,   0.00699,281920768.00000,  -0.00074,  -0.00051,  -0.00316,   0.00000,   3.00000
507446598.83617,422909960.67887,-59253839.45547,   0.00077,   0.00045,  -0.00395,492006080.00000,   0.00702,281952736.00000,  -0.00071,  -0.00049,  -0.00318, 928.00000,   2.00000
508486815.32422,422298532.01629,-58158782.72381,   0.00081,   0.00046,  -0.00396,492086816.00000,   0.00705,281984864.00000,  -0.00068,  -0.00047,  -0.00320, -32.00000,   3.00000
509482873.99173,421693479.81574,-57086491.95721,   0.00085,   0.00047,  -0.00396,492099808.00000,   0.00709,282016960.00000,  -0.00065,  -0.00045,  -0.00322, 992.00000,   2.00000
510435950.98906,421096865.15432,-56038010.77615,   0.00089,   0.00049,  -0.00396,492176800.00000,   0.00712,282049248.00000,  -0.00061,  -0.00043,  -0.00324, -32.00000,   3.00000
511354482.90218,420543454.44493,-55001832.18139,   0.00093,   0.00050,  -0.00397,492179968.00000,   0.00715,282081440.00000,  -0.00058,  -0.00041,  -0.00325, -64.00000,   3.00000
512273878.09272,419984217.73823,-53971115.41565,   0.00096,   0.00052,  -0.00397,492244224.00000,   0.00718,282113728.00000,  -0.00055,  -0.00040,  -0.00327, -32.00000,   3.00000
513190623.75158,419430067.14348,-52920313.90419,   0.00100,   0.00053,  -0.00398,492280928.00000,   0.00722,282146048.00000,  -0.00051,  -0.00038,  -0.00329,  32.00000,   3.00000
514116100.73055,418844906.56272,-51842995.04428,   0.00104,   0.00054,  -0.00398,492312928.00000,   0.00725,282178400.00000,  -0.00048,  -0.00036,  -0.00331, -32.00000,   3.00000
515028673.53406,418248540.99541,-50759486.10815,   0.00108,   0.00056,  -0.00399,492348192.00000,   0.00728,282210848.00000,  -0.00045,  -0.00034,  -0.00333, 128.00000,   3.00000
515904354.10466,417660008.70544,-49709555.14101,   0.00112,   0.00057,  -0.00399,492358880.00000,   0.00732,282243328.00000,  -0.00041,  -0.00032,  -0.00334, 992.00000,   2.00000
516754264.73439,417065212.88144,-48680448.80344,   0.00116,   0.00059,  -0.00399,492373696.00000,   0.00735,282275776.00000,  -0.00038,  -0.00030,  -0.00336,-192.00000,   3.00000
517581762.82130,416462527.75370,-47681459.73138,   0.00120,   0.00060,  -0.00400,492395136.00000,   0.00738,282308224.00000,  -0.00035,  -0.00029,  -0.00338,   0.00000,   3.00000
518377083.38486,415890588.70815,-46687887.91731,   0.00124,   0.00061,  -0.00400,492426656.00000,   0.00741,282340736.00000,  -0.00031,  -0.00027,  -0.00339, -96.00000,   3.00000
