# sigma_xx, sigma_yy, sigma_xy, epsilon_xx, epsilon_yy, epsilon_xy, vonMises, epsPlastic, hardening, epsilonP__xx, epsilonP__yy, epsilonP__xy, yieldValue, iteration
   0.00000,   0.00000,   0.00000,   0.00000,   0.00000,   0.00000,   0.00000,   0.00000,274640135.82653,   0.00000,   0.00000,   0.00000,-474640135.82653,   0.00000
   0.00000,   0.00000,   0.00000,   0.00000,   0.00000,   0.00000,   0.00000,   0.00000,274640135.82653,   0.00000,   0.00000,   0.00000,-474640135.82653,   0.00000
3285018.20612,3443332.33654,580485.14486,   0.00001,   0.00001,   0.00001,3513881.29984,   0.00000,274640135.82653,   0.00000,   0.00000,   0.00000,-471126254.52669,   0.00000
6539253.10911,6873471.82888,1152175.06025,   0.00002,   0.00002,   0.00001,7002970.53317,   0.00000,274640135.82653,   0.00000,   0.00000,   0.00000,-467637165.29336,   0.00000
9793488.01210,10303611.32122,1723864.97564,   0.00002,   0.00003,   0.00002,10492075.63397,   0.00000,274640135.82653,   0.00000,   0.00000,   0.00000,-464148060.19256,   0.00000
13065313.37403,13716160.35462,2295554.89103,   0.00003,   0.00004,   0.00003,13979923.17171,   0.00000,274640135.82653,   0.00000,   0.00000,   0.00000,-460660212.65482,   0.00000
16293162.58861,17084733.24069,2867244.80642,   0.00004,   0.00005,   0.00004,17425676.42620,   0.00000,274640135.82653,   0.00000,   0.00000,   0.00000,-457214459.40033,   0.00000
19564987.95054,20497282.27409,3438934.72181,   0.00005,   0.00006,   0.00004,20913561.85540,   0.00000,274640135.82653,   0.00000,   0.00000,   0.00000,-453726573.97113,   0.00000
22792837.16512,23865855.16016,4010624.63720,   0.00006,   0.00006,   0.00005,24359335.95218,   0.00000,274640135.82653,   0.00000,   0.00000,   0.00000,-450280799.87435,   0.00000
26020686.37971,27234428.04623,4573519.32312,   0.00007,   0.00007,   0.00006,27800771.87330,   0.00000,274640135.82653,   0.00000,   0.00000,   0.00000,-446839363.95323,   0.00000
29266126.05323,30585410.47336,5136414.00904,   0.00007,   0.00008,   0.00007,31241082.50847,   0.00000,274640135.82653,   0.00000,   0.00000,   0.00000,-443399053.31806,   0.00000
32480782.42361,33923200.05629,5699308.69496,   0.00008,   0.00009,   0.00007,34660914.69609,   0.00000,274640135.82653,   0.00000,   0.00000,   0.00000,-439979221.13044,   0.00000
35726222.09713,37274182.48342,6262203.38089,   0.00009,   0.00010,   0.00008,38101279.20162,   0.00000,274640135.82653,   0.00000,   0.00000,   0.00000,-436538856.62491,   0.00000
38927685.62332,40581188.76321,6825098.06681,   0.00010,   0.00011,   0.00009,41499538.81543,   0.00000,274640135.82653,   0.00000,   0.00000,   0.00000,-433140597.01110,   0.00000
42142341.99370,43918978.34615,7379197.52326,   0.00011,   0.00012,   0.00010,44915061.06495,   0.00000,274640135.82653,   0.00000,   0.00000,   0.00000,-429725074.76158,   0.00000
45361395.97882,47208394.16700,7933296.97972,   0.00011,   0.00013,   0.00010,48307987.60605,   0.00000,274640135.82653,   0.00000,   0.00000,   0.00000,-426332148.22048,   0.00000
48562859.50500,50515400.44680,8496191.66564,   0.00012,   0.00014,   0.00011,51706291.00336,   0.00000,274640135.82653,   0.00000,   0.00000,   0.00000,-422933844.82317,   0.00000
51751130.18699,53791623.42346,9050291.12210,   0.00013,   0.00014,   0.00012,55078709.38565,   0.00000,274640135.82653,   0.00000,   0.00000,   0.00000,-419561426.44088,   0.00000
54956991.32790,57050255.94118,9595595.34908,   0.00014,   0.00015,   0.00012,58445859.80260,   0.00000,274640135.82653,   0.00000,   0.00000,   0.00000,-416194276.02393,   0.00000
58145262.00989,60326478.91783,10149694.80554,   0.00015,   0.00016,   0.00013,61818326.92614,   0.00000,274640135.82653,   0.00000,   0.00000,   0.00000,-412821808.90039,   0.00000
61337930.30660,63554328.13242,10694999.03252,   0.00016,   0.00017,   0.00014,65164042.09308,   0.00000,274640135.82653,   0.00000,   0.00000,   0.00000,-409476093.73345,   0.00000
64513008.14438,66799767.80594,11249098.48898,   0.00016,   0.00018,   0.00015,68515034.00497,   0.00000,274640135.82653,   0.00000,   0.00000,   0.00000,-406125101.82156,   0.00000
67705676.44110,70027617.02053,11794402.71597,   0.00017,   0.00019,   0.00015,71860854.39422,   0.00000,274640135.82653,   0.00000,   0.00000,   0.00000,-402779281.43231,   0.00000
70867561.43468,73242273.39091,12339706.94295,   0.00018,   0.00020,   0.00016,75186073.63292,   0.00000,274640135.82653,   0.00000,   0.00000,   0.00000,-399454062.19361,   0.00000
74060229.73139,76470122.60550,12885011.16994,   0.00019,   0.00020,   0.00017,78531986.92230,   0.00000,274640135.82653,   0.00000,   0.00000,   0.00000,-396108148.90423,   0.00000
77208921.88077,79653995.67275,13421520.16746,   0.00020,   0.00021,   0.00017,81831467.82292,   0.00000,274640135.82653,   0.00000,   0.00000,   0.00000,-392808668.00361,   0.00000
80388397.33329,82851061.58420,13966824.39445,   0.00020,   0.00022,   0.00018,85156005.80302,   0.00000,274640135.82653,   0.00000,   0.00000,   0.00000,-389484130.02351,   0.00000
83554679.94160,86017344.19251,14503333.39197,   0.00021,   0.00023,   0.00019,88454826.98576,   0.00000,274640135.82653,   0.00000,   0.00000,   0.00000,-386185308.84077,   0.00000
86690179.24678,89170433.95662,15039842.38949,   0.00022,   0.00024,   0.00020,91732999.20934,   0.00000,274640135.82653,   0.00000,   0.00000,   0.00000,-382907136.61719,   0.00000
89856461.85509,92336716.56494,15576351.38701,   0.00023,   0.00024,   0.00020,95031944.52847,   0.00000,274640135.82653,   0.00000,   0.00000,   0.00000,-379608191.29806,   0.00000
93022744.46340,95502999.17325,16112860.38453,   0.00024,   0.00025,   0.00021,98330949.14787,   0.00000,274640135.82653,   0.00000,   0.00000,   0.00000,-376309186.67866,   0.00000
96175834.22751,98638498.47843,16640574.15258,   0.00025,   0.00026,   0.00022,101604284.93773,   0.00000,274640135.82653,   0.00000,   0.00000,   0.00000,-373035850.88880,   0.00000
99284947.84429,101730021.63626,17177083.15010,   0.00025,   0.00027,   0.00022,104839853.27555,   0.00000,274640135.82653,   0.00000,   0.00000,   0.00000,-369800282.55098,   0.00000
102438037.60840,104865520.94144,17704796.91815,   0.00026,   0.00028,   0.00023,108113321.82065,   0.00000,274640135.82653,   0.00000,   0.00000,   0.00000,-366526814.00588,   0.00000
105577934.52831,107970236.94348,18232510.68620,   0.00027,   0.00029,   0.00024,111365484.13058,   0.00000,274640135.82653,   0.00000,   0.00000,   0.00000,-363274651.69595,   0.00000
108704638.60402,111044169.64239,18760224.45426,   0.00028,   0.00029,   0.00024,114596369.05356,   0.00000,274640135.82653,   0.00000,   0.00000,   0.00000,-360043766.77296,   0.00000
111831342.67973,114118102.34129,19287938.22231,   0.00029,   0.00030,   0.00025,117827346.40669,   0.00000,274640135.82653,   0.00000,   0.00000,   0.00000,-356812789.41984,   0.00000
114958046.75544,117192035.04019,19806856.76089,   0.00029,   0.00031,   0.00026,121054090.68434,   0.00000,274640135.82653,   0.00000,   0.00000,   0.00000,-353586045.14219,   0.00000
118084750.83115,120265967.73910,20334570.52895,   0.00030,   0.00032,   0.00026,124285231.69278,   0.00000,274640135.82653,   0.00000,   0.00000,   0.00000,-350354904.13375,   0.00000
121198262.06266,123309117.13487,20853489.06753,   0.00031,   0.00032,   0.00027,127490824.85117,   0.00000,274640135.82653,   0.00000,   0.00000,   0.00000,-347149310.97536,   0.00000
124311773.29417,126352266.53063,21372407.60611,   0.00032,   0.00033,   0.00028,130696508.54347,   0.00000,274640135.82653,   0.00000,   0.00000,   0.00000,-343943627.28306,   0.00000
127412091.68147,129364632.62327,21891326.14470,   0.00033,   0.00034,   0.00028,133880996.89420,   0.00000,274640135.82653,   0.00000,   0.00000,   0.00000,-340759138.93233,   0.00000
130512410.06878,132376998.71590,22401449.45382,   0.00034,   0.00035,   0.00029,137061273.31891,   0.00000,274640135.82653,   0.00000,   0.00000,   0.00000,-337578862.50762,   0.00000
133643511.75922,135402557.65273,22920367.99240,   0.00034,   0.00036,   0.00030,140266879.03802,   0.00000,274640135.82653,   0.00000,   0.00000,   0.00000,-334373256.78850,   0.00000
136730637.30233,138384140.44222,23430491.30152,   0.00035,   0.00036,   0.00030,143426111.83367,   0.00000,274640135.82653,   0.00000,   0.00000,   0.00000,-331214023.99286,   0.00000
139817762.84543,141365723.23172,23949409.84010,   0.00036,   0.00037,   0.00031,146589761.03982,   0.00000,274640135.82653,   0.00000,   0.00000,   0.00000,-328050374.78671,   0.00000
142935671.69167,144360498.86542,24459533.14922,   0.00037,   0.00038,   0.00032,149770161.54489,   0.00000,274640135.82653,   0.00000,   0.00000,   0.00000,-324869974.28164,   0.00000
146009604.39058,147311298.35177,24969656.45834,   0.00038,   0.00039,   0.00032,152908502.15968,   0.00000,274640135.82653,   0.00000,   0.00000,   0.00000,-321731633.66685,   0.00000
149114320.39262,150275290.68233,25470984.53799,   0.00039,   0.00039,   0.00033,156063637.19303,   0.00000,274640135.82653,   0.00000,   0.00000,   0.00000,-318576498.63350,   0.00000
152175060.24732,153195306.86556,25981107.84710,   0.00039,   0.00040,   0.00034,159181028.54902,   0.00000,274640135.82653,   0.00000,   0.00000,   0.00000,-315459107.27751,   0.00000
155266583.40516,156128515.89298,26482435.92675,   0.00040,   0.00041,   0.00034,162315256.21542,   0.00000,274640135.82653,   0.00000,   0.00000,   0.00000,-312324879.61111,   0.00000
158358106.56300,159061724.92040,26992559.23587,   0.00041,   0.00041,   0.00035,165453931.43150,   0.00000,274640135.82653,   0.00000,   0.00000,   0.00000,-309186204.39503,   0.00000
161436436.87664,161964150.64469,27493887.31552,   0.00042,   0.00042,   0.00036,168567302.23506,   0.00000,274640135.82653,   0.00000,   0.00000,   0.00000,-306072833.59147,   0.00000
164483983.88714,164853383.52478,27995215.39517,   0.00043,   0.00043,   0.00036,171659762.29329,   0.00000,274640135.82653,   0.00000,   0.00000,   0.00000,-302980373.53324,   0.00000
167549121.35658,167725025.94593,28487748.24535,   0.00044,   0.00044,   0.00037,174748010.20168,   0.00000,274640135.82653,   0.00000,   0.00000,   0.00000,-299892125.62485,   0.00000
170614258.82601,170596668.36708,28989076.32500,   0.00044,   0.00044,   0.00038,177840726.71801,   0.00000,274640135.82653,   0.00000,   0.00000,   0.00000,-296799409.10852,   0.00000
173679396.29545,173468310.78823,29490404.40465,   0.00045,   0.00045,   0.00038,180933600.82371,   0.00000,274640135.82653,   0.00000,   0.00000,   0.00000,-293706535.00282,   0.00000
176744533.76489,176339953.20938,29982937.25483,   0.00046,   0.00046,   0.00039,184022324.94679,   0.00000,274640135.82653,   0.00000,   0.00000,   0.00000,-290617810.87974,   0.00000
179796478.39012,179180812.32739,30475470.10502,   0.00047,   0.00046,   0.00040,187090141.19032,   0.00000,274640135.82653,   0.00000,   0.00000,   0.00000,-287549994.63621,   0.00000
182866013.47429,182004080.98647,30968002.95520,   0.00048,   0.00047,   0.00040,190158237.46228,   0.00000,274640135.82653,   0.00000,   0.00000,   0.00000,-284481898.36425,   0.00000
185904765.25533,184814156.80135,31460535.80538,   0.00049,   0.00048,   0.00041,193205377.26031,   0.00000,274640135.82653,   0.00000,   0.00000,   0.00000,-281434758.56621,   0.00000
188943517.03636,187624232.61623,31944273.42609,   0.00049,   0.00049,   0.00042,196248395.45154,   0.00000,274640135.82653,   0.00000,   0.00000,   0.00000,-278391740.37499,   0.00000
191982268.81739,190434308.43111,32436806.27628,   0.00050,   0.00049,   0.00042,199295875.46873,   0.00000,274640135.82653,   0.00000,   0.00000,   0.00000,-275344260.35780,   0.00000
195038611.05736,193226793.78705,32920543.89699,   0.00051,   0.00050,   0.00043,202339454.36453,   0.00000,274640135.82653,   0.00000,   0.00000,   0.00000,-272300681.46200,   0.00000
198050977.14999,195975302.99566,33404281.51770,   0.00052,   0.00051,   0.00043,205341049.84122,   0.00000,274640135.82653,   0.00000,   0.00000,   0.00000,-269299085.98531,   0.00000
201094126.54576,198737005.04846,33888019.13842,   0.00053,   0.00051,   0.00044,208364089.96675,   0.00000,274640135.82653,   0.00000,   0.00000,   0.00000,-266276045.85978,   0.00000
204137275.94153,201498707.10127,34371756.75913,   0.00054,   0.00052,   0.00045,211387351.10466,   0.00000,274640135.82653,   0.00000,   0.00000,   0.00000,-263252784.72187,   0.00000
207149642.03416,204247216.30987,34855494.37985,   0.00054,   0.00053,   0.00045,214389547.98576,   0.00000,274640135.82653,   0.00000,   0.00000,   0.00000,-260250587.84077,   0.00000
210179598.58573,206978135.05954,35330436.77110,   0.00055,   0.00053,   0.00046,217388017.14643,   0.00000,274640135.82653,   0.00000,   0.00000,   0.00000,-257252118.68010,   0.00000
213196362.29309,209678270.50608,35814174.39181,   0.00056,   0.00054,   0.00047,220370113.11819,   0.00000,274640135.82653,   0.00000,   0.00000,   0.00000,-254270022.70834,   0.00000
216213126.00046,212378405.95261,36289116.78306,   0.00057,   0.00054,   0.00047,223348167.92295,   0.00000,274640135.82653,   0.00000,   0.00000,   0.00000,-251291967.90358,   0.00000
219229889.70782,215078541.39915,36764059.17430,   0.00058,   0.00055,   0.00048,226326460.54571,   0.00000,274640135.82653,   0.00000,   0.00000,   0.00000,-248313675.28082,   0.00000
222246653.41519,217778676.84568,37239001.56555,   0.00059,   0.00056,   0.00048,229304981.71990,   0.00000,274640135.82653,   0.00000,   0.00000,   0.00000,-245335154.10663,   0.00000
225250224.27835,220448028.98908,37713943.95680,   0.00060,   0.00056,   0.00049,232262897.93558,   0.00000,274640135.82653,   0.00000,   0.00000,   0.00000,-242377237.89094,   0.00000
228240602.29731,223086597.82934,38180091.11858,   0.00060,   0.00057,   0.00050,235195963.58898,   0.00000,274640135.82653,   0.00000,   0.00000,   0.00000,-239444172.23754,   0.00000
231230980.31628,225725166.66960,38655033.50982,   0.00061,   0.00058,   0.00050,238133576.80494,   0.00000,274640135.82653,   0.00000,   0.00000,   0.00000,-236506559.02159,   0.00000
234252141.63838,228376928.35406,39121180.67160,   0.00062,   0.00058,   0.00051,241088579.21994,   0.00000,274640135.82653,   0.00000,   0.00000,   0.00000,-233551556.60659,   0.00000
237229326.81314,230984713.89119,39587327.83338,   0.00063,   0.00059,   0.00051,244001665.86734,   0.00000,274640135.82653,   0.00000,   0.00000,   0.00000,-230638469.95919,   0.00000
240206511.98790,233592499.42831,40053474.99516,   0.00064,   0.00059,   0.00052,246915020.30843,   0.00000,274640135.82653,   0.00000,   0.00000,   0.00000,-227725115.51810,   0.00000
243214480.46580,236213477.80964,40519622.15694,   0.00065,   0.00060,   0.00053,249850098.38282,   0.00000,274640135.82653,   0.00000,   0.00000,   0.00000,-224790037.44371,   0.00000
246178472.79636,238790480.04362,40976974.08925,   0.00065,   0.00061,   0.00053,252738986.60258,   0.00000,274640135.82653,   0.00000,   0.00000,   0.00000,-221901149.22395,   0.00000
249160055.58585,241349891.81868,41443121.25103,   0.00066,   0.00061,   0.00054,255633229.48383,   0.00000,274640135.82653,   0.00000,   0.00000,   0.00000,-219006906.34270,   0.00000
252154831.21955,243940086.89687,41900473.18335,   0.00067,   0.00062,   0.00054,258544198.19909,   0.00000,274640135.82653,   0.00000,   0.00000,   0.00000,-216095937.62743,   0.00000
255092437.86170,246455522.52458,42357825.11566,   0.00068,   0.00062,   0.00055,261392602.07091,   0.00000,274640135.82653,   0.00000,   0.00000,   0.00000,-213247533.75562,   0.00000
258074020.65120,249014934.29964,42815177.04797,   0.00069,   0.00063,   0.00056,264283504.02432,   0.00000,274640135.82653,   0.00000,   0.00000,   0.00000,-210356631.80221,   0.00000
261042410.59649,251543562.77155,43272528.98028,   0.00070,   0.00064,   0.00056,267154078.01298,   0.00000,274640135.82653,   0.00000,   0.00000,   0.00000,-207486057.81355,   0.00000
263997607.69758,254041407.94033,43729880.91259,   0.00071,   0.00064,   0.00057,270004365.37188,   0.00000,274640135.82653,   0.00000,   0.00000,   0.00000,-204635770.45465,   0.00000
266952804.79868,256539253.10911,44187232.84490,   0.00071,   0.00065,   0.00057,272854997.85911,   0.00000,274640135.82653,   0.00000,   0.00000,   0.00000,-201785137.96742,   0.00000
269908001.89977,259037098.27789,44635789.54775,   0.00072,   0.00065,   0.00058,275701692.56882,   0.00000,274640135.82653,   0.00000,   0.00000,   0.00000,-198938443.25771,   0.00000
272850006.15666,261504160.14354,45084346.25059,   0.00073,   0.00066,   0.00059,278528157.92562,   0.00000,274640135.82653,   0.00000,   0.00000,   0.00000,-196111977.90091,   0.00000
275792010.41355,263971222.00918,45541698.18291,   0.00074,   0.00066,   0.00059,281359243.43779,   0.00000,274640135.82653,   0.00000,   0.00000,   0.00000,-193280892.38874,   0.00000
278720821.82624,266407500.57169,45981459.65628,   0.00075,   0.00067,   0.00060,284161607.67546,   0.00000,274640135.82653,   0.00000,   0.00000,   0.00000,-190478528.15107,   0.00000
281680416.54207,268856971.97840,46430016.35913,   0.00076,   0.00067,   0.00060,286990285.27969,   0.00000,274640135.82653,   0.00000,   0.00000,   0.00000,-187649850.54684,   0.00000
284609227.95476,271293250.54091,46878573.06197,   0.00077,   0.00068,   0.00061,289797652.98782,   0.00000,274640135.82653,   0.00000,   0.00000,   0.00000,-184842482.83871,   0.00000
287524846.52325,273698745.80028,47327129.76482,   0.00077,   0.00068,   0.00062,292584898.06611,   0.00000,274640135.82653,   0.00000,   0.00000,   0.00000,-182055237.76041,   0.00000
290458055.55067,276086650.60071,47766891.23819,   0.00078,   0.00069,   0.00062,295369525.63340,   0.00000,274640135.82653,   0.00000,   0.00000,   0.00000,-179270610.19313,   0.00000
293360481.27496,278461362.55695,48206652.71157,   0.00079,   0.00069,   0.00063,298132834.77625,   0.00000,274640135.82653,   0.00000,   0.00000,   0.00000,-176507301.05028,   0.00000
296293690.30238,280849267.35739,48646414.18495,   0.00080,   0.00070,   0.00063,300918289.37986,   0.00000,274640135.82653,   0.00000,   0.00000,   0.00000,-173721846.44667,   0.00000
299182923.18247,283193196.01048,49086175.65832,   0.00081,   0.00071,   0.00064,303661979.02456,   0.00000,274640135.82653,   0.00000,   0.00000,   0.00000,-170978156.80196,   0.00000
302102939.36569,285550317.50778,49525937.13170,   0.00082,   0.00071,   0.00064,306427862.46129,   0.00000,274640135.82653,   0.00000,   0.00000,   0.00000,-168212273.36524,   0.00000
305022955.54891,287907439.00508,49965698.60508,   0.00083,   0.00072,   0.00065,309194165.51366,   0.00000,274640135.82653,   0.00000,   0.00000,   0.00000,-165445970.31287,   0.00000
307916586.04373,290202993.89611,50396664.84899,   0.00084,   0.00072,   0.00066,311915946.96430,   0.00000,274640135.82653,   0.00000,   0.00000,   0.00000,-162724188.86223,   0.00000
310792626.07961,292516139.24607,50836426.32236,   0.00084,   0.00072,   0.00066,314640931.51022,   0.00000,274640135.82653,   0.00000,   0.00000,   0.00000,-159999204.31631,   0.00000
313686256.57443,294811694.13710,51267392.56627,   0.00085,   0.00073,   0.00067,317363612.37084,   0.00000,274640135.82653,   0.00000,   0.00000,   0.00000,-157276523.45569,   0.00000
316566694.22505,297076465.72499,51698358.81018,   0.00086,   0.00073,   0.00067,320066469.04136,   0.00000,274640135.82653,   0.00000,   0.00000,   0.00000,-154573666.78517,   0.00000
319447131.87567,299341237.31288,52129325.05409,   0.00087,   0.00074,   0.00068,322769803.88455,   0.00000,274640135.82653,   0.00000,   0.00000,   0.00000,-151870331.94198,   0.00000
322327569.52629,301606008.90077,52560291.29800,   0.00088,   0.00074,   0.00068,325473604.98550,   0.00000,274640135.82653,   0.00000,   0.00000,   0.00000,-149166530.84103,   0.00000
325194814.33271,303839997.18553,52982462.31244,   0.00089,   0.00075,   0.00069,328153384.29621,   0.00000,274640135.82653,   0.00000,   0.00000,   0.00000,-146486751.53032,   0.00000
328062059.13912,306073985.47028,53413428.55635,   0.00090,   0.00075,   0.00069,330837906.46841,   0.00000,274640135.82653,   0.00000,   0.00000,   0.00000,-143802229.35812,   0.00000
330916111.10134,308277190.45190,53835599.57079,   0.00090,   0.00076,   0.00070,333498463.38057,   0.00000,274640135.82653,   0.00000,   0.00000,   0.00000,-141141672.44596,   0.00000
333770163.06355,310480395.43352,54257770.58523,   0.00091,   0.00076,   0.00071,336159519.41717,   0.00000,274640135.82653,   0.00000,   0.00000,   0.00000,-138480616.40936,   0.00000
336611022.18157,312652817.11200,54679941.59968,   0.00092,   0.00077,   0.00071,338800926.77885,   0.00000,274640135.82653,   0.00000,   0.00000,   0.00000,-135839209.04768,   0.00000
339482664.60272,314838431.63468,55102112.61412,   0.00093,   0.00077,   0.00072,341464868.40213,   0.00000,274640135.82653,   0.00000,   0.00000,   0.00000,-133175267.42440,   0.00000
342310330.87653,316980070.01003,55524283.62856,   0.00094,   0.00077,   0.00072,344087217.11124,   0.00000,274640135.82653,   0.00000,   0.00000,   0.00000,-130552918.71529,   0.00000
345137997.15035,319121708.38537,55946454.64300,   0.00095,   0.00078,   0.00073,346710097.80765,   0.00000,274640135.82653,   0.00000,   0.00000,   0.00000,-127930038.01888,   0.00000
347952470.57996,321232563.45758,56359830.42798,   0.00096,   0.00078,   0.00073,349309188.22733,   0.00000,274640135.82653,   0.00000,   0.00000,   0.00000,-125330947.59920,   0.00000
350797727.31271,323356611.37399,56782001.44242,   0.00097,   0.00079,   0.00074,351935173.41822,   0.00000,274640135.82653,   0.00000,   0.00000,   0.00000,-122704962.40830,   0.00000
353599007.89812,325436683.14306,57195377.22739,   0.00097,   0.00079,   0.00074,354515357.01180,   0.00000,274640135.82653,   0.00000,   0.00000,   0.00000,-120124778.81473,   0.00000
356400288.48353,327516754.91214,57608753.01237,   0.00098,   0.00080,   0.00075,357096107.11455,   0.00000,274640135.82653,   0.00000,   0.00000,   0.00000,-117544028.71198,   0.00000
359232352.37207,329610019.52541,58022128.79734,   0.00099,   0.00080,   0.00075,359699551.81140,   0.00000,274640135.82653,   0.00000,   0.00000,   0.00000,-114940584.01513,   0.00000
362020440.11328,331659307.99135,58435504.58231,   0.00100,   0.00080,   0.00076,362261468.52486,   0.00000,274640135.82653,   0.00000,   0.00000,   0.00000,-112378667.30167,   0.00000
364795335.01029,333677813.15415,58848880.36729,   0.00101,   0.00081,   0.00077,364804032.27347,   0.00000,274640135.82653,   0.00000,   0.00000,   0.00000,-109836103.55306,   0.00000
367601013.21043,335709511.16115,59253460.92280,   0.00102,   0.00081,   0.00077,367365134.76943,   0.00000,274640135.82653,   0.00000,   0.00000,   0.00000,-107275001.05710,   0.00000
370362715.26324,337697233.02081,59666836.70777,   0.00103,   0.00081,   0.00078,369889026.73199,   0.00000,274640135.82653,   0.00000,   0.00000,   0.00000,-104751109.09454,   0.00000
373155200.61918,339698147.72467,60071417.26328,   0.00104,   0.00082,   0.00078,372431510.97700,   0.00000,274640135.82653,   0.00000,   0.00000,   0.00000,-102208624.84953,   0.00000
375916902.67199,341685869.58434,60475997.81878,   0.00104,   0.00082,   0.00079,374952392.10293,   0.00000,274640135.82653,   0.00000,   0.00000,   0.00000,-99687743.72360,   0.00000
378696195.18373,343656000.98507,60880578.37429,   0.00105,   0.00083,   0.00079,377476316.74603,   0.00000,274640135.82653,   0.00000,   0.00000,   0.00000,-97163819.08050,   0.00000
381431511.54814,345582156.23846,61285158.92980,   0.00106,   0.00083,   0.00080,379958830.15054,   0.00000,274640135.82653,   0.00000,   0.00000,   0.00000,-94681305.67599,   0.00000
384166827.91254,347508311.49185,61689739.48530,   0.00107,   0.00083,   0.00080,382442001.35253,   0.00000,274640135.82653,   0.00000,   0.00000,   0.00000,-92198134.47400,   0.00000
386932927.58008,349447659.58944,62085524.81134,   0.00108,   0.00084,   0.00081,384943877.01401,   0.00000,274640135.82653,   0.00000,   0.00000,   0.00000,-89696258.81252,   0.00000
389655051.10028,351343031.53969,62490105.36685,   0.00109,   0.00084,   0.00081,387408618.33137,   0.00000,274640135.82653,   0.00000,   0.00000,   0.00000,-87231517.49516,   0.00000
392394765.07942,353220813.03101,62885890.69289,   0.00110,   0.00084,   0.00082,389872417.86804,   0.00000,274640135.82653,   0.00000,   0.00000,   0.00000,-84767717.95849,   0.00000
395103695.75542,355085401.67813,63281676.01893,   0.00111,   0.00085,   0.00082,392314580.32041,   0.00000,274640135.82653,   0.00000,   0.00000,   0.00000,-82325555.50612,   0.00000
397843409.73456,356963183.16945,63677461.34497,   0.00111,   0.00085,   0.00083,394779812.19392,   0.00000,274640135.82653,   0.00000,   0.00000,   0.00000,-79860323.63261,   0.00000
400539147.56636,358796988.51343,64073246.67101,   0.00112,   0.00085,   0.00083,397203714.21707,   0.00000,274640135.82653,   0.00000,   0.00000,   0.00000,-77436421.60946,   0.00000
403221692.55396,360600010.55428,64469031.99704,   0.00113,   0.00085,   0.00084,399608711.90086,   0.00000,274640135.82653,   0.00000,   0.00000,   0.00000,-75031423.92567,   0.00000
405935020.84469,362416225.43932,64864817.32308,   0.00114,   0.00086,   0.00084,402036885.32369,   0.00000,274640135.82653,   0.00000,   0.00000,   0.00000,-72603250.50284,   0.00000
408604372.98809,364188464.17703,65251807.41966,   0.00115,   0.00086,   0.00085,404419543.45044,   0.00000,274640135.82653,   0.00000,   0.00000,   0.00000,-70220592.37609,   0.00000
411273725.13149,365960702.91474,65647592.74569,   0.00116,   0.00086,   0.00085,406807215.79369,   0.00000,274640135.82653,   0.00000,   0.00000,   0.00000,-67832920.03284,   0.00000
413973860.57802,367746134.49665,66034582.84227,   0.00117,   0.00087,   0.00086,409213865.92140,   0.00000,274640135.82653,   0.00000,   0.00000,   0.00000,-65426269.90513,   0.00000
416616827.03302,369456806.62809,66421572.93884,   0.00118,   0.00087,   0.00086,411559796.48496,   0.00000,274640135.82653,   0.00000,   0.00000,   0.00000,-63080339.34156,   0.00000
419272986.33221,371198262.06266,66808563.03541,   0.00118,   0.00087,   0.00087,413926002.14833,   0.00000,274640135.82653,   0.00000,   0.00000,   0.00000,-60714133.67820,   0.00000
421915952.78721,372908934.19409,67195553.13198,   0.00119,   0.00087,   0.00087,416273519.72818,   0.00000,274640135.82653,   0.00000,   0.00000,   0.00000,-58366616.09835,   0.00000
424545726.39800,374588823.02239,67582543.22855,   0.00120,   0.00088,   0.00088,418602408.75228,   0.00000,274640135.82653,   0.00000,   0.00000,   0.00000,-56037727.07425,   0.00000
427206283.31193,376281904.69489,67969533.32512,   0.00121,   0.00088,   0.00088,420954699.10796,   0.00000,274640135.82653,   0.00000,   0.00000,   0.00000,-53685436.71856,   0.00000
429822864.07852,377931010.22006,68347728.19223,   0.00122,   0.00088,   0.00089,423261608.91446,   0.00000,274640135.82653,   0.00000,   0.00000,   0.00000,-51378526.91207,   0.00000
432439444.84512,379580115.74522,68734718.28880,   0.00123,   0.00088,   0.00089,425573621.94422,   0.00000,274640135.82653,   0.00000,   0.00000,   0.00000,-49066513.88231,   0.00000
435042832.76751,381198437.96725,69112913.15590,   0.00124,   0.00089,   0.00090,427862888.60558,   0.00000,274640135.82653,   0.00000,   0.00000,   0.00000,-46777247.22095,   0.00000
437602244.54256,382772784.04194,69491108.02301,   0.00124,   0.00089,   0.00090,430111080.38290,   0.00000,274640135.82653,   0.00000,   0.00000,   0.00000,-44529055.44363,   0.00000
440192439.62075,384360322.96083,69869302.89011,   0.00125,   0.00089,   0.00091,432382807.20598,   0.00000,274640135.82653,   0.00000,   0.00000,   0.00000,-42257328.62055,   0.00000
442782634.69894,385947861.87972,70247497.75722,   0.00126,   0.00089,   0.00091,434655421.41378,   0.00000,274640135.82653,   0.00000,   0.00000,   0.00000,-39984714.41275,   0.00000
445359636.93293,387504617.49547,70625692.62432,   0.00127,   0.00089,   0.00092,436909698.23033,   0.00000,274640135.82653,   0.00000,   0.00000,   0.00000,-37730437.59620,   0.00000
447905855.86378,389048180.26702,71003887.49142,   0.00128,   0.00090,   0.00092,439142164.05179,   0.00000,274640135.82653,   0.00000,   0.00000,   0.00000,-35497971.77474,   0.00000
450469665.25357,390574152.57964,71373287.12906,   0.00129,   0.00090,   0.00093,441374805.07449,   0.00000,274640135.82653,   0.00000,   0.00000,   0.00000,-33265330.75204,   0.00000
452989498.49602,392056148.74492,71751481.99617,   0.00130,   0.00090,   0.00093,443570757.39962,   0.00000,274640135.82653,   0.00000,   0.00000,   0.00000,-31069378.42691,   0.00000
455540115.04160,393551337.75440,72120881.63380,   0.00131,   0.00090,   0.00094,445786153.76421,   0.00000,274640135.82653,   0.00000,   0.00000,   0.00000,-28853982.06232,   0.00000
458046755.43985,395002550.61655,72490281.27144,   0.00131,   0.00090,   0.00094,447960635.65744,   0.00000,274640135.82653,   0.00000,   0.00000,   0.00000,-26679500.16909,   0.00000
460553395.83810,396453763.47869,72859680.90907,   0.00132,   0.00091,   0.00095,450136078.57850,   0.00000,274640135.82653,   0.00000,   0.00000,   0.00000,-24504057.24803,   0.00000
463077626.69528,397887385.88190,73229080.54671,   0.00133,   0.00091,   0.00095,452316270.49735,   0.00000,274640135.82653,   0.00000,   0.00000,   0.00000,-22323865.32918,   0.00000
465571074.24933,399307815.44091,73598480.18435,   0.00134,   0.00091,   0.00096,454474638.36305,   0.00000,274640135.82653,   0.00000,   0.00000,   0.00000,-20165497.46348,   0.00000
468051328.95917,400697461.69678,73967879.82198,   0.00135,   0.00091,   0.00096,456615007.01250,   0.00000,274640135.82653,   0.00000,   0.00000,   0.00000,-18025128.81403,   0.00000
470531583.66902,402087107.95265,74328484.23015,   0.00136,   0.00091,   0.00097,458752112.40691,   0.00000,274640135.82653,   0.00000,   0.00000,   0.00000,-15888023.41962,   0.00000
472967862.23153,403432778.06118,74697883.86779,   0.00137,   0.00091,   0.00097,460852675.03539,   0.00000,274640135.82653,   0.00000,   0.00000,   0.00000,-13787460.79114,   0.00000
475421731.25297,404760857.71078,75058488.27596,   0.00137,   0.00091,   0.00098,462953989.88761,   0.00000,274640135.82653,   0.00000,   0.00000,   0.00000,-11686145.93892,   0.00000
477875600.27441,406088937.36038,75419092.68413,   0.00138,   0.00092,   0.00098,465056381.85290,   0.00000,274640135.82653,   0.00000,   0.00000,   0.00000,-9583753.97363,   0.00000
480285493.14852,407373040.86264,75779697.09230,   0.00139,   0.00092,   0.00099,467118052.52919,   0.00000,274640135.82653,   0.00000,   0.00000,   0.00000,-7522083.29734,   0.00000
482695386.02262,408657144.36490,76140301.50047,   0.00140,   0.00092,   0.00099,469180792.24925,   0.00000,274640135.82653,   0.00000,   0.00000,   0.00000,-5459343.57728,   0.00000
485105278.89673,409941247.86716,76500905.90864,   0.00141,   0.00092,   0.00099,471244586.97476,   0.00000,274640135.82653,   0.00000,   0.00000,   0.00000,-3395548.85177,   0.00000
487519569.38557,411176977.60735,76861510.31680,   0.00142,   0.00092,   0.00100,473294928.86397,   0.00000,274640135.82653,   0.00000,   0.00000,   0.00000,-1345206.96256,   0.00000
489100357.71488,411987787.85744,77100670.17474,   0.00142,   0.00092,   0.00100,474640140.39000,   0.00000,274640135.82653,   0.00000,   0.00000,   0.00000,  -3.17534,   0.00000
489204902.52983,411831819.15633,77092109.85241,   0.00142,   0.00092,   0.00100,474643359.99176,   0.00000,274643363.38029,   0.00000,   0.00000,   0.00000,  -3.38853,   1.00000
489510394.30561,411380166.83981,77062959.31849,   0.00143,   0.00092,   0.00101,474652819.66917,   0.00001,274652822.45614,   0.00001,   0.00000,   0.00001,  -2.78697,   1.00000
489822169.69770,410905353.73919,77040908.92106,   0.00144,   0.00092,   0.00101,474662322.80655,   0.00002,274662327.11320,   0.00001,   0.00001,   0.00001,  -4.30665,   1.00000
490141668.43495,410420328.00286,77014389.11635,   0.00145,   0.00092,   0.00102,474671723.23630,   0.00003,274671728.34067,   0.00002,   0.00001,   0.00002,  -5.10437,   1.00000
490451503.14130,409942689.34853,76992193.58100,   0.00146,   0.00092,   0.00102,474681020.16864,   0.00004,274681025.69038,   0.00003,   0.00002,   0.00002,  -5.52174,   1.00000
490758866.97541,409466563.81698,76969937.58368,   0.00147,   0.00092,   0.00103,474690319.41978,   0.00005,274690328.09225,   0.00003,   0.00002,   0.00003,  -8.67248,   1.00000
491075440.61768,408961107.74768,76954648.17404,   0.00148,   0.00093,   0.00103,474699455.94254,   0.00005,274699460.38646,   0.00004,   0.00002,   0.00003,  -4.44392,   1.00000
491383633.44715,408472655.91528,76935742.47718,   0.00148,   0.00093,   0.00104,474708682.70371,   0.00006,274708685.94225,   0.00004,   0.00003,   0.00004,  -3.23854,   1.00000
491700938.67155,407954692.39595,76923754.07058,   0.00149,   0.00093,   0.00104,474717738.00095,   0.00007,274717742.29654,   0.00005,   0.00003,   0.00004,  -4.29559,   1.00000
492020018.34335,407441755.81155,76903685.81370,   0.00150,   0.00093,   0.00105,474726777.56405,   0.00008,274726784.42082,   0.00006,   0.00003,   0.00005,  -6.85677,   1.00000
492325241.81957,406932618.59872,76895853.37553,   0.00151,   0.00093,   0.00105,474735733.59868,   0.00009,274735743.37583,   0.00006,   0.00004,   0.00005,  -9.77715,   1.00000
492643876.98690,406397152.86281,76886893.23238,   0.00152,   0.00093,   0.00105,474744509.66566,   0.00010,274744514.11085,   0.00007,   0.00004,   0.00005,  -4.44519,   1.00000
492949776.22738,405875429.13479,76882247.62948,   0.00152,   0.00093,   0.00106,474753392.71191,   0.00010,274753398.75152,   0.00007,   0.00004,   0.00006,  -6.03961,   1.00000
493268985.13084,405327170.74436,76876426.25683,   0.00153,   0.00093,   0.00106,474762087.38554,   0.00011,274762096.08875,   0.00008,   0.00004,   0.00006,  -8.70321,   1.00000
493579851.63901,404796235.44722,76866963.70766,   0.00154,   0.00093,   0.00107,474770878.07601,   0.00012,274770886.96269,   0.00008,   0.00005,   0.00007,  -8.88668,   1.00000
493892818.95915,404240768.03178,76868660.90913,   0.00155,   0.00093,   0.00107,474779396.96958,   0.00013,274779401.57312,   0.00009,   0.00005,   0.00007,  -4.60354,   1.00000
494209861.32633,403681127.06865,76865744.30913,   0.00156,   0.00093,   0.00108,474788030.07189,   0.00013,274788033.63690,   0.00010,   0.00005,   0.00008,  -3.56501,   1.00000
494517603.14708,403128641.47777,76867032.40606,   0.00157,   0.00093,   0.00108,474796560.50909,   0.00014,274796562.83570,   0.00010,   0.00006,   0.00008,  -2.32660,   1.00000
494838428.71541,402549043.72604,76867036.25460,   0.00157,   0.00093,   0.00109,474804897.45547,   0.00015,274804906.89898,   0.00011,   0.00006,   0.00009,  -9.44351,   1.00000
495146555.49100,401983563.37048,76871338.39632,   0.00158,   0.00093,   0.00109,474813361.08861,   0.00016,274813365.05584,   0.00011,   0.00006,   0.00009,  -3.96723,   1.00000
495461122.07977,401396333.28017,76878722.89119,   0.00159,   0.00093,   0.00109,474821520.44506,   0.00017,274821528.44191,   0.00012,   0.00007,   0.00009,  -7.99686,   1.00000
495768624.59507,400807128.64809,76893804.17211,   0.00160,   0.00093,   0.00110,474829712.60277,   0.00017,274829720.38809,   0.00012,   0.00007,   0.00010,  -7.78533,   1.00000
496077925.18016,400222800.87327,76900648.53801,   0.00161,   0.00093,   0.00110,474837899.45579,   0.00018,274837900.18115,   0.00013,   0.00007,   0.00010,  -0.72536,   1.00000
496390121.85998,399623633.38680,76910649.52318,   0.00161,   0.00092,   0.00111,474845997.55780,   0.00019,274846002.75980,   0.00013,   0.00007,   0.00011,  -5.20200,   1.00000
496705148.34417,399009576.22302,76923780.57746,   0.00162,   0.00092,   0.00111,474854019.26873,   0.00020,274854028.61634,   0.00014,   0.00008,   0.00011,  -9.34761,   1.00000
497011090.63246,398402441.64368,76941049.05458,   0.00163,   0.00092,   0.00112,474861951.28291,   0.00020,274861952.21725,   0.00015,   0.00008,   0.00012,  -0.93434,   1.00000
497319845.33374,397780265.29141,76961402.61457,   0.00164,   0.00092,   0.00112,474869793.18941,   0.00021,274869799.70325,   0.00015,   0.00008,   0.00012,  -6.51385,   1.00000
497635789.36705,397146382.19850,76976865.26435,   0.00165,   0.00092,   0.00112,474877550.22793,   0.00022,274877551.03959,   0.00016,   0.00008,   0.00012,  -0.81166,   1.00000
497944523.86096,396510497.85427,76999963.87063,   0.00165,   0.00092,   0.00113,474885329.31654,   0.00022,274885332.24001,   0.00016,   0.00009,   0.00013,  -2.92347,   1.00000
498248742.29428,395884768.88310,77019212.90564,   0.00166,   0.00092,   0.00113,474892986.58940,   0.00023,274892990.92777,   0.00017,   0.00009,   0.00013,  -4.33836,   1.00000
498551237.01790,395240371.58337,77049462.58279,   0.00167,   0.00092,   0.00114,474900589.74698,   0.00024,274900594.89662,   0.00017,   0.00009,   0.00014,  -5.14964,   1.00000
498860831.57892,394583974.40649,77074749.62355,   0.00168,   0.00092,   0.00114,474908100.19465,   0.00024,274908103.90396,   0.00018,   0.00009,   0.00014,  -3.70931,   1.00000
499172967.67347,393912125.73227,77103028.15013,   0.00168,   0.00092,   0.00115,474915529.85796,   0.00025,274915538.85362,   0.00018,   0.00010,   0.00014,  -8.99566,   1.00000
499476193.52893,393246895.79951,77135388.95134,   0.00169,   0.00091,   0.00115,474922868.48826,   0.00026,274922872.14300,   0.00019,   0.00010,   0.00015,  -3.65474,   1.00000
499776678.53811,392582963.44647,77167358.84370,   0.00170,   0.00091,   0.00115,474930211.59935,   0.00026,274930215.70104,   0.00019,   0.00010,   0.00015,  -4.10169,   1.00000
500084927.79820,391886417.69438,77205617.93309,   0.00171,   0.00091,   0.00116,474937396.72484,   0.00027,274937402.15997,   0.00020,   0.00010,   0.00015,  -5.43513,   1.00000
500379114.70659,391213372.32920,77244592.32913,   0.00172,   0.00091,   0.00116,474944566.60599,   0.00028,274944570.80803,   0.00020,   0.00011,   0.00016,  -4.20204,   1.00000
500685464.82895,390510754.70735,77281855.52505,   0.00172,   0.00091,   0.00117,474951556.55279,   0.00028,274951562.60922,   0.00021,   0.00011,   0.00016,  -6.05643,   1.00000
500984489.96728,389806036.97051,77326641.69110,   0.00173,   0.00091,   0.00117,474958583.00936,   0.00029,274958586.13440,   0.00021,   0.00011,   0.00017,  -3.12504,   1.00000
501285186.24614,389105864.55795,77363023.48171,   0.00174,   0.00091,   0.00118,474965596.86520,   0.00030,274965600.34923,   0.00022,   0.00011,   0.00017,  -3.48403,   1.00000
501582931.27293,388374183.52566,77418051.05040,   0.00175,   0.00090,   0.00118,474972363.25429,   0.00030,274972367.49757,   0.00022,   0.00012,   0.00017,  -4.24328,   1.00000
501877222.81657,387664288.84345,77461323.01934,   0.00175,   0.00090,   0.00118,474979200.22710,   0.00031,274979208.80690,   0.00023,   0.00012,   0.00018,  -8.57980,   1.00000
502178827.01018,386920809.89490,77510744.77207,   0.00176,   0.00090,   0.00119,474985889.93102,   0.00032,274985896.13551,   0.00023,   0.00012,   0.00018,  -6.20449,   1.00000
502471737.38457,386183468.26373,77564191.68014,   0.00177,   0.00090,   0.00119,474992474.96753,   0.00032,274992482.38019,   0.00023,   0.00012,   0.00018,  -7.41266,   1.00000
502761808.96235,385447243.43738,77617145.76974,   0.00177,   0.00090,   0.00120,474999078.53254,   0.00033,274999080.62214,   0.00024,   0.00012,   0.00019,  -2.08960,   1.00000
503058941.33660,384676972.05625,77676167.23232,   0.00178,   0.00089,   0.00120,475005517.69174,   0.00033,275005526.56173,   0.00024,   0.00013,   0.00019,  -8.86999,   1.00000
503342525.44429,383930327.33419,77735916.67779,   0.00179,   0.00089,   0.00120,475011949.15259,   0.00034,275011953.63918,   0.00025,   0.00013,   0.00019,  -4.48659,   1.00000
503637604.24040,383152600.06026,77793744.36377,   0.00180,   0.00089,   0.00121,475018203.62121,   0.00035,275018208.45160,   0.00025,   0.00013,   0.00020,  -4.83038,   1.00000
503925157.02048,382372607.78593,77858985.26972,   0.00180,   0.00089,   0.00121,475024487.16457,   0.00035,275024497.06200,   0.00026,   0.00013,   0.00020,  -9.89743,   1.00000
504208756.31085,381601708.53373,77920284.62735,   0.00181,   0.00089,   0.00122,475030655.11578,   0.00036,275030663.75504,   0.00026,   0.00013,   0.00020,  -8.63925,   1.00000
504494501.20871,380792736.49884,77995501.26584,   0.00182,   0.00088,   0.00122,475036696.38182,   0.00036,275036701.22170,   0.00027,   0.00013,   0.00021,  -4.83988,   1.00000
504771527.70400,380010648.71036,78063499.49462,   0.00182,   0.00088,   0.00122,475042695.42918,   0.00037,275042698.45393,   0.00027,   0.00014,   0.00021,  -3.02475,   1.00000
505060580.55868,379188701.97106,78132853.40248,   0.00183,   0.00088,   0.00123,475048654.47701,   0.00037,275048661.11557,   0.00027,   0.00014,   0.00021,  -6.63856,   1.00000
505335684.48348,378377000.91871,78210780.87569,   0.00184,   0.00088,   0.00123,475054404.06349,   0.00038,275054408.31622,   0.00028,   0.00014,   0.00022,  -4.25273,   1.00000
505617877.06568,377543317.40522,78286755.39138,   0.00185,   0.00087,   0.00124,475060197.96244,   0.00038,275060203.39239,   0.00028,   0.00014,   0.00022,  -5.42995,   1.00000
505891614.72793,376715072.75560,78366715.69494,   0.00185,   0.00087,   0.00124,475065892.09397,   0.00039,275065897.73405,   0.00029,   0.00014,   0.00022,  -5.64008,   1.00000
506166910.86496,375869326.80368,78449283.17033,   0.00186,   0.00087,   0.00124,475071517.28885,   0.00039,275071525.77336,   0.00029,   0.00014,   0.00022,  -8.48451,   1.00000
506438432.29379,375032098.87956,78527898.17009,   0.00187,   0.00086,   0.00125,475077030.64958,   0.00040,275077031.90824,   0.00029,   0.00015,   0.00023,  -1.25866,   1.00000
506706809.20426,374173949.24875,78617044.65282,   0.00187,   0.00086,   0.00125,475082483.37421,   0.00040,275082493.30032,   0.00030,   0.00015,   0.00023,  -9.92611,   1.00000
506975947.66138,373305649.48164,78705437.81216,   0.00188,   0.00086,   0.00126,475087751.73895,   0.00041,275087752.68174,   0.00030,   0.00015,   0.00023,  -0.94278,   1.00000
507237337.01690,372434780.21861,78801113.74726,   0.00189,   0.00086,   0.00126,475093045.65879,   0.00041,275093048.24376,   0.00030,   0.00015,   0.00024,  -2.58497,   1.00000
507504643.47737,371549085.33136,78891381.90775,   0.00189,   0.00085,   0.00126,475098253.30574,   0.00042,275098258.08047,   0.00031,   0.00015,   0.00024,  -4.77473,   1.00000
507763627.23916,370668323.46344,78985635.73423,   0.00190,   0.00085,   0.00127,475103364.22597,   0.00042,275103367.11425,   0.00031,   0.00015,   0.00024,  -2.88828,   1.00000
508028087.01791,369750520.49328,79085579.36214,   0.00191,   0.00085,   0.00127,475108326.16697,   0.00043,275108332.80258,   0.00032,   0.00015,   0.00024,  -6.63561,   1.00000
508279921.45639,368856319.80716,79186313.51483,   0.00191,   0.00084,   0.00128,475113269.33830,   0.00043,275113277.24883,   0.00032,   0.00015,   0.00025,  -7.91053,   1.00000
508537059.81814,367924726.50597,79292698.08981,   0.00192,   0.00084,   0.00128,475118072.52758,   0.00044,275118079.26001,   0.00032,   0.00016,   0.00025,  -6.73244,   1.00000
508790898.41886,366993541.44713,79398361.85062,   0.00193,   0.00083,   0.00128,475122893.26516,   0.00044,275122897.70254,   0.00033,   0.00016,   0.00025,  -4.43738,   1.00000
509041133.47479,366070040.80693,79500076.76044,   0.00193,   0.00083,   0.00129,475127591.76553,   0.00045,275127594.08609,   0.00033,   0.00016,   0.00025,  -2.32057,   1.00000
509282554.55336,365128673.94809,79616858.70500,   0.00194,   0.00083,   0.00129,475132126.54237,   0.00045,275132132.41870,   0.00033,   0.00016,   0.00026,  -5.87632,   1.00000
509534412.54783,364167485.38400,79723424.85323,   0.00194,   0.00082,   0.00129,475136698.91748,   0.00045,275136704.80151,   0.00034,   0.00016,   0.00026,  -5.88403,   1.00000
509768326.49451,363211409.67801,79846601.49250,   0.00195,   0.00082,   0.00130,475141075.52572,   0.00046,275141080.71632,   0.00034,   0.00016,   0.00026,  -5.19060,   1.00000
510007624.51581,362239291.12573,79964243.73077,   0.00196,   0.00082,   0.00130,475145368.86358,   0.00046,275145373.89896,   0.00034,   0.00016,   0.00026,  -5.03538,   1.00000
510247451.59292,361247871.55417,80084259.07833,   0.00196,   0.00081,   0.00131,475149604.19007,   0.00047,275149606.47043,   0.00034,   0.00016,   0.00027,  -2.28036,   1.00000
510483821.63614,360256572.66254,80203504.06608,   0.00197,   0.00081,   0.00131,475153853.51475,   0.00047,275153856.64021,   0.00035,   0.00016,   0.00027,  -3.12545,   1.00000
510710914.02615,359253349.49410,80334594.82443,   0.00197,   0.00080,   0.00131,475157807.17345,   0.00047,275157810.60214,   0.00035,   0.00017,   0.00027,  -3.42869,   1.00000
510939363.24290,358246389.94165,80460141.23102,   0.00198,   0.00080,   0.00132,475161898.13281,   0.00048,275161900.64031,   0.00035,   0.00017,   0.00027,  -2.50750,   1.00000
511158507.05766,357227070.90645,80597543.07234,   0.00199,   0.00080,   0.00132,475165692.28911,   0.00048,275165694.41646,   0.00036,   0.00017,   0.00027,  -2.12735,   1.00000
511387329.96445,356187254.77698,80724557.02198,   0.00199,   0.00079,   0.00133,475169522.21828,   0.00048,275169526.27226,   0.00036,   0.00017,   0.00028,  -4.05398,   1.00000
511603044.80206,355147831.16330,80863455.36676,   0.00200,   0.00079,   0.00133,475173274.60022,   0.00049,275173279.66555,   0.00036,   0.00017,   0.00028,  -5.06533,   1.00000
511818849.11464,354094863.72205,81001521.19503,   0.00200,   0.00078,   0.00133,475176830.77300,   0.00049,275176833.97145,   0.00036,   0.00017,   0.00028,  -3.19845,   1.00000
512026244.01172,353038586.15792,81146664.34813,   0.00201,   0.00078,   0.00134,475180428.90671,   0.00049,275180428.98719,   0.00037,   0.00017,   0.00028,  -0.08047,   1.00000
512233640.23509,351968394.40393,81290971.31717,   0.00201,   0.00077,   0.00134,475183824.41705,   0.00050,275183825.15479,   0.00037,   0.00017,   0.00028,  -0.73774,   1.00000
512437389.28414,350897872.45041,81434447.81391,   0.00202,   0.00077,   0.00134,475187239.97493,   0.00050,275187240.24123,   0.00037,   0.00017,   0.00029,  -0.26629,   1.00000
512639534.14371,349789663.55346,81588041.01450,   0.00202,   0.00076,   0.00135,475190399.55932,   0.00050,275190403.24511,   0.00037,   0.00017,   0.00029,  -3.68579,   1.00000
512834602.42212,348701368.88819,81737719.84739,   0.00203,   0.00076,   0.00135,475193656.06633,   0.00051,275193661.40103,   0.00038,   0.00017,   0.00029,  -5.33470,   1.00000
513027841.96379,347574862.19086,81897496.47823,   0.00204,   0.00075,   0.00135,475196664.31340,   0.00051,275196668.19141,   0.00038,   0.00017,   0.00029,  -3.87801,   1.00000
513217197.00953,346447744.24179,82056388.82924,   0.00204,   0.00075,   0.00136,475199687.95190,   0.00051,275199695.15123,   0.00038,   0.00017,   0.00029,  -7.19933,   1.00000
513398187.16225,345323122.89545,82219283.47703,   0.00205,   0.00074,   0.00136,475202613.87586,   0.00051,275202621.54515,   0.00038,   0.00017,   0.00029,  -7.66929,   1.00000
513581825.30660,344162419.83401,82384366.94421,   0.00205,   0.00074,   0.00137,475205271.94189,   0.00052,275205275.31562,   0.00039,   0.00018,   0.00029,  -3.37373,   1.00000
513753589.29268,343018701.73156,82553406.82455,   0.00206,   0.00073,   0.00137,475208044.93888,   0.00052,275208046.73671,   0.00039,   0.00018,   0.00030,  -1.79783,   1.00000
513932188.28247,341835431.79567,82719702.57369,   0.00206,   0.00073,   0.00137,475210661.35994,   0.00052,275210667.53236,   0.00039,   0.00018,   0.00030,  -6.17242,   1.00000
514097833.87735,340656946.88031,82894935.53345,   0.00207,   0.00072,   0.00138,475213058.30127,   0.00052,275213066.60184,   0.00039,   0.00018,   0.00030,  -8.30057,   1.00000
514263860.18828,339474716.65355,83064323.76940,   0.00207,   0.00072,   0.00138,475215602.19545,   0.00053,275215608.14042,   0.00039,   0.00018,   0.00030,  -5.94497,   1.00000
514422489.57476,338254663.46241,83248670.68429,   0.00208,   0.00071,   0.00138,475217773.82361,   0.00053,275217780.09095,   0.00039,   0.00018,   0.00030,  -6.26735,   1.00000
514574235.29393,337054685.76684,83429097.04920,   0.00208,   0.00071,   0.00139,475220044.13571,   0.00053,275220047.00220,   0.00040,   0.00018,   0.00030,  -2.86649,   1.00000
514727044.19084,335810957.60802,83614541.63989,   0.00208,   0.00070,   0.00139,475222182.11647,   0.00053,275222189.18874,   0.00040,   0.00018,   0.00030,  -7.07227,   1.00000
514871172.58083,334568509.33189,83804007.22066,   0.00209,   0.00070,   0.00139,475224227.03574,   0.00053,275224231.22423,   0.00040,   0.00018,   0.00030,  -4.18849,   1.00000
515011665.58634,333330186.93095,83989669.94239,   0.00209,   0.00069,   0.00140,475226144.50282,   0.00054,275226149.48736,   0.00040,   0.00018,   0.00031,  -4.98454,   1.00000
515145273.90153,332066004.76053,84185180.95576,   0.00210,   0.00069,   0.00140,475228035.62354,   0.00054,275228040.58988,   0.00040,   0.00018,   0.00031,  -4.96634,   1.00000
515277532.10010,330783996.14763,84379846.66999,   0.00210,   0.00068,   0.00140,475229735.57381,   0.00054,275229735.67270,   0.00040,   0.00018,   0.00031,  -0.09888,   1.00000
515395987.89999,329499756.53899,84586400.39364,   0.00211,   0.00067,   0.00141,475231352.88310,   0.00054,275231353.74249,   0.00040,   0.00018,   0.00031,  -0.85939,   1.00000
515517179.39397,328195000.81929,84787068.90981,   0.00211,   0.00067,   0.00141,475232891.18333,   0.00054,275232899.50643,   0.00041,   0.00018,   0.00031,  -8.32310,   1.00000
515631645.20243,326868736.01801,84994722.69044,   0.00212,   0.00066,   0.00141,475234267.13322,   0.00054,275234273.39419,   0.00041,   0.00018,   0.00031,  -6.26097,   1.00000
515741397.78831,325540661.10418,85201365.26708,   0.00212,   0.00066,   0.00142,475235661.28828,   0.00054,275235671.00045,   0.00041,   0.00018,   0.00031,  -9.71217,   1.00000
515844192.18612,324190628.38641,85414984.13107,   0.00212,   0.00065,   0.00142,475236888.16606,   0.00055,275236897.27798,   0.00041,   0.00018,   0.00031,  -9.11193,   1.00000
515937969.09170,322840543.16813,85632676.68739,   0.00213,   0.00064,   0.00143,475238020.39702,   0.00055,275238023.24333,   0.00041,   0.00018,   0.00031,  -2.84632,   1.00000
516033865.33471,321469053.21493,85844426.87189,   0.00213,   0.00064,   0.00143,475239077.83987,   0.00055,275239078.88663,   0.00041,   0.00018,   0.00031,  -1.04677,   1.00000
516115532.66808,320094347.92324,86068069.82782,   0.00213,   0.00063,   0.00143,475240052.69219,   0.00055,275240058.25152,   0.00041,   0.00018,   0.00031,  -5.55933,   1.00000
516194906.65494,318699564.87112,86290884.86791,   0.00214,   0.00062,   0.00144,475240836.41853,   0.00055,275240842.98395,   0.00041,   0.00018,   0.00031,  -6.56542,   1.00000
516265682.16067,317277074.03090,86523311.33844,   0.00214,   0.00062,   0.00144,475241603.22812,   0.00055,275241607.22614,   0.00041,   0.00018,   0.00031,  -3.99803,   1.00000
516332268.94530,315856566.96963,86752034.15922,   0.00215,   0.00061,   0.00144,475242244.81798,   0.00055,275242247.16532,   0.00041,   0.00018,   0.00031,  -2.34734,   1.00000
516393697.86398,314433658.46433,86979694.81970,   0.00215,   0.00060,   0.00145,475242905.33830,   0.00055,275242912.40041,   0.00041,   0.00018,   0.00031,  -7.06211,   1.00000
516444363.30769,312965327.27221,87222341.01284,   0.00215,   0.00060,   0.00145,475243208.89592,   0.00055,275243213.56737,   0.00041,   0.00018,   0.00031,  -4.67145,   1.00000
516489581.85902,311494249.63683,87463892.72976,   0.00216,   0.00059,   0.00145,475243536.06717,   0.00055,275243541.01097,   0.00041,   0.00018,   0.00031,  -4.94381,   1.00000
516529362.00408,310020464.96916,87704346.58123,   0.00216,   0.00058,   0.00146,475243889.76717,   0.00055,275243894.77554,   0.00041,   0.00018,   0.00032,  -5.00836,   1.00000
516561770.12133,308525834.31635,87949204.72735,   0.00216,   0.00058,   0.00146,475243926.34245,   0.00055,275243928.85271,   0.00041,   0.00018,   0.00032,  -2.51026,   1.00000
516584362.09309,307002240.85937,88203519.38354,   0.00217,   0.00057,   0.00146,475243942.40352,   0.00055,275243946.91258,   0.00041,   0.00018,   0.00032,  -4.50907,   1.00000
516579964.47835,305467473.31728,88449785.80863,   0.00217,   0.00056,   0.00146,475223057.38310,   0.00055,275243946.91258,   0.00041,   0.00018,   0.00032,-20889.52948,   0.00000
516562374.01942,303901922.47206,88704847.46319,   0.00217,   0.00056,   0.00147,475199343.52223,   0.00055,275243946.91258,   0.00041,   0.00018,   0.00032,-44603.39035,   0.00000
516514000.25735,302323178.78264,88951113.88828,   0.00217,   0.00055,   0.00147,475151306.88387,   0.00055,275243946.91258,   0.00041,   0.00018,   0.00032,-92640.02872,   0.00000
516421650.34794,300700458.94588,89197380.31337,   0.00218,   0.00054,   0.00147,475070918.55158,   0.00055,275243946.91258,   0.00041,   0.00018,   0.00032,-173028.36100,   0.00000
516298517.13539,299064546.26492,89443646.73846,   0.00218,   0.00054,   0.00148,474971238.80307,   0.00055,275243946.91258,   0.00041,   0.00018,   0.00032,-272708.10951,   0.00000
516162191.07865,297397850.28082,89689913.16355,   0.00218,   0.00053,   0.00148,474864406.32837,   0.00055,275243946.91258,   0.00041,   0.00018,   0.00032,-379540.58422,   0.00000
515981888.87456,295687178.14938,89936179.58864,   0.00218,   0.00052,   0.00148,474725749.74189,   0.00055,275243946.91258,   0.00041,   0.00018,   0.00032,-518197.17069,   0.00000
515770803.36734,293963313.17374,90173650.78427,   0.00219,   0.00051,   0.00149,474563081.99165,   0.00055,275243946.91258,   0.00041,   0.00018,   0.00032,-680864.92093,   0.00000
515546525.01592,292208664.89497,90419917.20936,   0.00219,   0.00051,   0.00149,474398825.68783,   0.00055,275243946.91258,   0.00041,   0.00018,   0.00032,-845121.22476,   0.00000
515260680.05822,290427630.92779,90657388.40498,   0.00219,   0.00050,   0.00149,474185749.27772,   0.00055,275243946.91258,   0.00041,   0.00018,   0.00032,-1058197.63486,   0.00000
514961642.25633,288615813.65748,90894859.60060,   0.00219,   0.00049,   0.00150,473966384.89638,   0.00055,275243946.91258,   0.00041,   0.00018,   0.00032,-1277562.01620,   0.00000
514662604.45443,286803996.38717,91141126.02570,   0.00220,   0.00048,   0.00150,473758326.13117,   0.00055,275243946.91258,   0.00041,   0.00018,   0.00032,-1485620.78142,   0.00000
514288807.20206,284935010.12532,91378597.22132,   0.00220,   0.00047,   0.00150,473489381.94154,   0.00055,275243946.91258,   0.00041,   0.00018,   0.00032,-1754564.97104,   0.00000
513915009.94969,283066023.86347,91607273.18747,   0.00220,   0.00047,   0.00151,473221734.86621,   0.00055,275243946.91258,   0.00041,   0.00018,   0.00032,-2022212.04637,   0.00000
513497236.54998,281153061.45428,91844744.38310,   0.00220,   0.00046,   0.00151,472928648.97110,   0.00055,275243946.91258,   0.00041,   0.00018,   0.00032,-2315297.94148,   0.00000
513035487.00294,279196122.89775,92082215.57872,   0.00220,   0.00045,   0.00151,472605300.81978,   0.00055,275243946.91258,   0.00041,   0.00018,   0.00032,-2638646.09280,   0.00000
512542954.15275,277225991.49702,92310891.54488,   0.00221,   0.00044,   0.00152,472258619.46264,   0.00055,275243946.91258,   0.00041,   0.00018,   0.00032,-2985327.44994,   0.00000
512050421.30257,275255860.09629,92548362.74050,   0.00221,   0.00044,   0.00152,471923872.76236,   0.00055,275243946.91258,   0.00041,   0.00018,   0.00032,-3320074.15022,   0.00000
511500719.46085,273210969.24509,92777038.70666,   0.00221,   0.00043,   0.00152,471542521.01468,   0.00055,275243946.91258,   0.00041,   0.00018,   0.00032,-3701425.89790,   0.00000
510933427.16020,271183668.85282,93005714.67281,   0.00221,   0.00042,   0.00152,471154896.83404,   0.00055,275243946.91258,   0.00041,   0.00018,   0.00032,-4089050.07854,   0.00000
510322158.71220,269112392.31322,93234390.63897,   0.00221,   0.00041,   0.00153,470737849.74357,   0.00055,275243946.91258,   0.00041,   0.00018,   0.00032,-4506097.16901,   0.00000
509697697.42001,267010332.47048,93463066.60512,   0.00221,   0.00040,   0.00153,470316641.43575,   0.00055,275243946.91258,   0.00041,   0.00018,   0.00032,-4927305.47684,   0.00000
509011669.52154,264881886.93933,93691742.57128,   0.00221,   0.00039,   0.00153,469852902.63951,   0.00055,275243946.91258,   0.00041,   0.00018,   0.00032,-5391044.27308,   0.00000
508312448.77887,262722658.10505,93911623.30797,   0.00221,   0.00039,   0.00154,469380146.52443,   0.00055,275243946.91258,   0.00041,   0.00018,   0.00032,-5863800.38815,   0.00000
507569251.88886,260519453.12344,94140299.27413,   0.00221,   0.00038,   0.00154,468884265.92994,   0.00055,275243946.91258,   0.00041,   0.00018,   0.00032,-6359680.98264,   0.00000
506808464.53992,258333838.60075,94360180.01081,   0.00222,   0.00037,   0.00154,468376927.83759,   0.00055,275243946.91258,   0.00041,   0.00018,   0.00032,-6867019.07499,   0.00000
506021291.50258,256086657.47180,94580060.74750,   0.00222,   0.00036,   0.00154,467855518.41520,   0.00055,275243946.91258,   0.00041,   0.00018,   0.00032,-7388428.49738,   0.00000
505172551.85896,253813090.65444,94808736.71366,   0.00222,   0.00035,   0.00155,467297630.11368,   0.00055,275243946.91258,   0.00041,   0.00018,   0.00032,-7946316.79891,   0.00000
504323812.21534,251539523.83708,95019822.22088,   0.00222,   0.00034,   0.00155,466737150.73895,   0.00055,275243946.91258,   0.00041,   0.00018,   0.00032,-8506796.17363,   0.00000
503431096.42439,249221980.87238,95239702.95757,   0.00222,   0.00033,   0.00155,466154665.93365,   0.00055,275243946.91258,   0.00041,   0.00018,   0.00032,-9089280.97894,   0.00000
502507597.33030,246891245.06349,95459583.69426,   0.00222,   0.00032,   0.00156,465555627.46268,   0.00055,275243946.91258,   0.00041,   0.00018,   0.00032,-9688319.44990,   0.00000
501570905.39200,244529725.95145,95670669.20148,   0.00222,   0.00032,   0.00156,464949238.95549,   0.00055,275243946.91258,   0.00041,   0.00018,   0.00032,-10294707.95709,   0.00000
500559454.00324,242111037.84788,95890549.93817,   0.00222,   0.00031,   0.00156,464296829.01010,   0.00055,275243946.91258,   0.00041,   0.00018,   0.00032,-10947117.90248,   0.00000
499548002.61447,239692349.74431,96101635.44539,   0.00222,   0.00030,   0.00156,463647892.14570,   0.00055,275243946.91258,   0.00041,   0.00018,   0.00032,-11596054.76688,   0.00000
498505767.92257,237260468.79653,96312720.95261,   0.00222,   0.00029,   0.00157,462982979.34419,   0.00055,275243946.91258,   0.00041,   0.00018,   0.00032,-12260967.56840,   0.00000
497388773.78019,234771418.85722,96523806.45983,   0.00222,   0.00028,   0.00157,462267324.05746,   0.00055,275243946.91258,   0.00041,   0.00018,   0.00032,-12976622.85512,   0.00000
496258586.79361,232251585.61477,96734891.96705,   0.00222,   0.00027,   0.00157,461551143.75423,   0.00055,275243946.91258,   0.00041,   0.00018,   0.00032,-13692803.15836,   0.00000
495128399.80703,229731752.37232,96945977.47427,   0.00222,   0.00026,   0.00158,460844510.71037,   0.00055,275243946.91258,   0.00041,   0.00018,   0.00032,-14399436.20221,   0.00000
493936646.21418,227185533.44147,97148267.75202,   0.00222,   0.00025,   0.00158,460092136.86347,   0.00055,275243946.91258,   0.00041,   0.00018,   0.00032,-15151810.04911,   0.00000
492700916.47399,224595338.36328,97359353.25924,   0.00222,   0.00024,   0.00158,459320651.68314,   0.00055,275243946.91258,   0.00041,   0.00018,   0.00032,-15923295.22944,   0.00000
491451993.88960,221974359.98196,97561643.53700,   0.00222,   0.00023,   0.00158,458544174.37242,   0.00055,275243946.91258,   0.00041,   0.00018,   0.00032,-16699772.54016,   0.00000
490172288.00207,219340188.75643,97763933.81475,   0.00222,   0.00022,   0.00159,457753064.89433,   0.00055,275243946.91258,   0.00041,   0.00018,   0.00032,-17490882.01825,   0.00000
488861798.81141,216692824.68670,97966224.09250,   0.00222,   0.00021,   0.00159,456947412.43473,   0.00055,275243946.91258,   0.00041,   0.00018,   0.00032,-18296534.47786,   0.00000
487507333.47341,214001484.46963,98159719.14079,   0.00221,   0.00020,   0.00159,456112632.88558,   0.00055,275243946.91258,   0.00041,   0.00018,   0.00032,-19131314.02700,   0.00000
486122084.83227,211296951.40837,98362009.41854,   0.00221,   0.00019,   0.00159,455269396.28023,   0.00055,275243946.91258,   0.00041,   0.00018,   0.00032,-19974550.63235,   0.00000
484692860.04380,208548442.19976,98564299.69630,   0.00221,   0.00018,   0.00160,454403393.40477,   0.00055,275243946.91258,   0.00041,   0.00018,   0.00032,-20840553.50782,   0.00000
483219659.10799,205755956.84382,98757794.74458,   0.00221,   0.00018,   0.00160,453509355.43612,   0.00055,275243946.91258,   0.00041,   0.00018,   0.00032,-21734591.47646,   0.00000
481759651.01638,202994254.79101,98951289.79287,   0.00221,   0.00017,   0.00160,452635240.26985,   0.00055,275243946.91258,   0.00041,   0.00018,   0.00032,-22608706.64273,   0.00000
480211690.63009,200144600.44353,99144784.84115,   0.00221,   0.00016,   0.00160,451706118.00000,   0.00055,275243946.91258,   0.00041,   0.00018,   0.00032,-23537828.91258,   0.00000
478676923.08800,197325729.39918,99338279.88944,   0.00221,   0.00015,   0.00161,450797125.92163,   0.00055,275243946.91258,   0.00041,   0.00018,   0.00032,-24446820.99096,   0.00000
477054203.25124,194418906.06016,99522979.70826,   0.00221,   0.00014,   0.00161,449828342.83294,   0.00055,275243946.91258,   0.00041,   0.00018,   0.00032,-25415604.07964,   0.00000
475444676.25868,191542866.02428,99716474.75654,   0.00220,   0.00013,   0.00161,448885731.33322,   0.00055,275243946.91258,   0.00041,   0.00018,   0.00032,-26358215.57936,   0.00000
473791173.11879,188622849.84106,99901174.57536,   0.00220,   0.00012,   0.00161,447916898.48547,   0.00055,275243946.91258,   0.00041,   0.00018,   0.00032,-27327048.42711,   0.00000
472093693.83155,185658857.51050,100085874.39418,   0.00220,   0.00011,   0.00162,446928224.72148,   0.00055,275243946.91258,   0.00041,   0.00018,   0.00032,-28315722.19111,   0.00000
470365431.24118,182681672.33573,100270574.21300,   0.00220,   0.00010,   0.00162,445927856.14384,   0.00055,275243946.91258,   0.00041,   0.00018,   0.00032,-29316090.76875,   0.00000
468606385.34767,179691294.31677,100455274.03182,   0.00220,   0.00008,   0.00162,444915951.58641,   0.00055,275243946.91258,   0.00041,   0.00018,   0.00032,-30327995.32617,   0.00000
466834146.60997,176670132.99467,100639973.85063,   0.00219,   0.00007,   0.00162,443909921.69059,   0.00055,275243946.91258,   0.00041,   0.00018,   0.00032,-31334025.22200,   0.00000
464987148.42178,173591802.68104,100815878.43999,   0.00219,   0.00006,   0.00163,442855200.79852,   0.00055,275243946.91258,   0.00041,   0.00018,   0.00032,-32388746.11406,   0.00000
463109366.93046,170500279.52320,101000578.25880,   0.00219,   0.00005,   0.00163,441795999.26958,   0.00055,275243946.91258,   0.00041,   0.00018,   0.00032,-33447947.64300,   0.00000
461231585.43914,167408756.36536,101176482.84815,   0.00219,   0.00004,   0.00163,440744941.03084,   0.00055,275243946.91258,   0.00041,   0.00018,   0.00032,-34499005.88174,   0.00000
459292237.34155,164290847.51912,101352387.43751,   0.00218,   0.00003,   0.00163,439659243.33148,   0.00055,275243946.91258,   0.00041,   0.00018,   0.00032,-35584703.58110,   0.00000
457326503.55556,161111372.06660,101528292.02686,   0.00218,   0.00002,   0.00163,438574836.07584,   0.00055,275243946.91258,   0.00041,   0.00018,   0.00032,-36669110.83674,   0.00000
455312396.00749,157936294.22882,101695401.38674,   0.00218,   0.00001,   0.00164,437457154.97701,   0.00055,275243946.91258,   0.00041,   0.00018,   0.00032,-37786791.93557,   0.00000
453285095.61523,154730433.08790,101871305.97609,   0.00217,   0.00000,   0.00164,436354414.00020,   0.00055,275243946.91258,   0.00041,   0.00018,   0.00032,-38889532.91238,   0.00000
451227011.91982,151511379.10278,102038415.33597,   0.00217,  -0.00001,   0.00164,435236719.53564,   0.00055,275243946.91258,   0.00041,   0.00018,   0.00032,-40007227.37694,   0.00000
449124952.07708,148248348.97033,102205524.69586,   0.00217,  -0.00002,   0.00164,434104446.83155,   0.00055,275243946.91258,   0.00041,   0.00018,   0.00032,-41139500.08103,   0.00000
446992108.93120,144972125.99367,102372634.05574,   0.00216,  -0.00003,   0.00165,432964126.73369,   0.00055,275243946.91258,   0.00041,   0.00018,   0.00032,-42279820.17889,   0.00000
444784506.33485,141638734.02547,102530948.18616,   0.00216,  -0.00004,   0.00165,431779874.08901,   0.00055,275243946.91258,   0.00041,   0.00018,   0.00032,-43464072.82358,   0.00000
442576903.73850,138305342.05728,102698057.54604,   0.00216,  -0.00005,   0.00165,430618864.40020,   0.00055,275243946.91258,   0.00041,   0.00018,   0.00032,-44625082.51238,   0.00000
440325324.99481,134927973.94174,102856371.67645,   0.00215,  -0.00006,   0.00165,429439222.23099,   0.00055,275243946.91258,   0.00041,   0.00018,   0.00032,-45804724.68160,   0.00000
438056155.79219,131568196.28514,103014685.80687,   0.00215,  -0.00007,   0.00165,428258338.02465,   0.00055,275243946.91258,   0.00041,   0.00018,   0.00032,-46985608.88793,   0.00000
435729817.59802,128133659.17807,103172999.93729,   0.00215,  -0.00009,   0.00166,427060951.58035,   0.00055,275243946.91258,   0.00041,   0.00018,   0.00032,-48182995.33223,   0.00000
433416672.24806,124729905.37413,103331314.06770,   0.00214,  -0.00010,   0.00166,425886865.21308,   0.00055,275243946.91258,   0.00041,   0.00018,   0.00032,-49357081.69950,   0.00000
431028767.44762,121268982.57866,103489628.19812,   0.00214,  -0.00011,   0.00166,424678530.00396,   0.00055,275243946.91258,   0.00041,   0.00018,   0.00032,-50565416.90862,   0.00000
428596886.49985,117764083.63585,103639147.09906,   0.00213,  -0.00012,   0.00166,423454329.71973,   0.00055,275243946.91258,   0.00041,   0.00018,   0.00032,-51789617.19285,   0.00000
426147415.09314,114276775.15197,103788666.00001,   0.00213,  -0.00013,   0.00166,422230162.30925,   0.00055,275243946.91258,   0.00041,   0.00018,   0.00032,-53013784.60333,   0.00000
423640774.69489,110714707.21762,103938184.90096,   0.00213,  -0.00014,   0.00167,420993381.04548,   0.00055,275243946.91258,   0.00041,   0.00018,   0.00032,-54250565.86711,   0.00000
421147327.14085,107183422.58640,104087703.80191,   0.00212,  -0.00015,   0.00167,419781009.03615,   0.00055,275243946.91258,   0.00041,   0.00018,   0.00032,-55462937.87644,   0.00000
418579120.13633,103594968.96364,104228427.47339,   0.00212,  -0.00016,   0.00167,418531243.43357,   0.00055,275243946.91258,   0.00041,   0.00018,   0.00032,-56712703.47901,   0.00000
415980129.82867,99993322.49669,104377946.37434,   0.00211,  -0.00018,   0.00167,417285471.52999,   0.00055,275243946.91258,   0.00041,   0.00018,   0.00032,-57958475.38260,   0.00000
413367946.67681,96360892.72659,104518670.04582,   0.00211,  -0.00019,   0.00167,416050999.01932,   0.00055,275243946.91258,   0.00041,   0.00018,   0.00032,-59192947.89327,   0.00000
410694196.91868,92702077.26810,104659393.71730,   0.00210,  -0.00020,   0.00168,414791464.97487,   0.00055,275243946.91258,   0.00041,   0.00018,   0.00032,-60452481.93771,   0.00000
407976471.01321,88999285.66227,104791322.15931,   0.00210,  -0.00021,   0.00168,413521127.46665,   0.00055,275243946.91258,   0.00041,   0.00018,   0.00032,-61722819.44593,   0.00000
405271937.95194,85327277.35957,104932045.83079,   0.00209,  -0.00022,   0.00168,412283324.45534,   0.00055,275243946.91258,   0.00041,   0.00018,   0.00032,-62960622.45724,   0.00000
402492645.44020,81598100.06533,105063974.27281,   0.00209,  -0.00023,   0.00168,411012482.14564,   0.00055,275243946.91258,   0.00041,   0.00018,   0.00032,-64231464.76694,   0.00000
399700160.08426,77838139.46796,105195902.71482,   0.00208,  -0.00024,   0.00168,409762871.62842,   0.00055,275243946.91258,   0.00041,   0.00018,   0.00032,-65481075.28417,   0.00000
396846108.12204,74051793.18219,105327831.15683,   0.00207,  -0.00026,   0.00168,408491360.65516,   0.00055,275243946.91258,   0.00041,   0.00018,   0.00032,-66752586.25742,   0.00000
393992056.15983,70265446.89641,105459759.59885,   0.00207,  -0.00027,   0.00169,407244678.45367,   0.00055,275243946.91258,   0.00041,   0.00018,   0.00032,-67999268.45891,   0.00000
391076437.59134,66452714.92224,105582892.81139,   0.00206,  -0.00028,   0.00169,405970311.84912,   0.00055,275243946.91258,   0.00041,   0.00018,   0.00032,-69273635.06346,   0.00000
388147626.17865,62609199.64492,105714821.25340,   0.00206,  -0.00029,   0.00169,404726759.26740,   0.00055,275243946.91258,   0.00041,   0.00018,   0.00032,-70517187.64518,   0.00000
385157248.15969,58739298.67921,105837954.46595,   0.00205,  -0.00030,   0.00169,403457014.06440,   0.00055,275243946.91258,   0.00041,   0.00018,   0.00032,-71786932.84818,   0.00000
382122893.99339,54825421.56615,105952292.44903,   0.00205,  -0.00031,   0.00169,402183228.18851,   0.00055,275243946.91258,   0.00041,   0.00018,   0.00032,-73060718.72407,   0.00000
379101732.67129,50942327.75623,106075425.66157,   0.00204,  -0.00033,   0.00169,400945018.10192,   0.00055,275243946.91258,   0.00041,   0.00018,   0.00032,-74298928.81066,   0.00000
376023402.35765,46984474.49584,106189763.64465,   0.00203,  -0.00034,   0.00170,399703234.55669,   0.00055,275243946.91258,   0.00041,   0.00018,   0.00032,-75540712.35589,   0.00000
372896698.28194,43031018.85019,106304101.62773,   0.00203,  -0.00035,   0.00170,398445952.90773,   0.00055,275243946.91258,   0.00041,   0.00018,   0.00032,-76797994.00485,   0.00000
369756801.36203,39046779.90139,106418439.61081,   0.00202,  -0.00036,   0.00170,397217300.22988,   0.00055,275243946.91258,   0.00041,   0.00018,   0.00032,-78026646.68270,   0.00000
366555337.83584,35036155.26419,106532777.59388,   0.00201,  -0.00037,   0.00170,395973933.79857,   0.00055,275243946.91258,   0.00041,   0.00018,   0.00032,-79270013.11401,   0.00000
363353874.30966,31025530.62700,106638320.34749,   0.00201,  -0.00039,   0.00170,394753807.92375,   0.00055,275243946.91258,   0.00041,   0.00018,   0.00032,-80490138.98883,   0.00000
360077651.33300,26957736.99826,106743863.10111,   0.00200,  -0.00040,   0.00170,393520663.85289,   0.00055,275243946.91258,   0.00041,   0.00018,   0.00032,-81723283.05970,   0.00000
356801428.35635,22889943.36953,106849405.85472,   0.00199,  -0.00041,   0.00170,392319297.11635,   0.00055,275243946.91258,   0.00041,   0.00018,   0.00032,-82924649.79624,   0.00000
353463638.77342,18795764.05239,106954948.60833,   0.00199,  -0.00042,   0.00171,391106492.68607,   0.00055,275243946.91258,   0.00041,   0.00018,   0.00032,-84137454.22651,   0.00000
350125849.19049,14701584.73525,107051696.13247,   0.00198,  -0.00043,   0.00171,389919272.36253,   0.00055,275243946.91258,   0.00041,   0.00018,   0.00032,-85324674.55005,   0.00000
346713300.15708,10550236.42657,107148443.65661,   0.00197,  -0.00045,   0.00171,388723397.34016,   0.00055,275243946.91258,   0.00041,   0.00018,   0.00032,-86520549.57242,   0.00000
343300751.12368,6398888.11789,107245191.18075,   0.00196,  -0.00046,   0.00171,387561867.94909,   0.00055,275243946.91258,   0.00041,   0.00018,   0.00032,-87682078.96349,   0.00000
339813442.63980,2190370.81768,107341938.70490,   0.00196,  -0.00047,   0.00171,386394269.48338,   0.00055,275243946.91258,   0.00041,   0.00018,   0.00032,-88849677.42920,   0.00000
336339327.00012,-1987363.17940,107429890.99957,   0.00195,  -0.00048,   0.00171,385253248.31091,   0.00055,275243946.91258,   0.00041,   0.00018,   0.00032,-89990698.60167,   0.00000
332790451.90997,-6222266.16802,107526638.52372,   0.00194,  -0.00050,   0.00171,384115667.76857,   0.00055,275243946.91258,   0.00041,   0.00018,   0.00032,-91128279.14401,   0.00000
329241576.81982,-10457169.15664,107614590.81839,   0.00193,  -0.00051,   0.00171,383007837.55271,   0.00055,275243946.91258,   0.00041,   0.00018,   0.00032,-92236109.35987,   0.00000
325617942.27919,-14749241.13680,107693747.88360,   0.00192,  -0.00052,   0.00172,381891387.69687,   0.00055,275243946.91258,   0.00041,   0.00018,   0.00032,-93352559.21571,   0.00000
321994307.73857,-19041313.11696,107781700.17827,   0.00192,  -0.00053,   0.00172,380821198.11894,   0.00055,275243946.91258,   0.00041,   0.00018,   0.00032,-94422748.79364,   0.00000
318309106.59167,-23359770.78552,107860857.24348,   0.00191,  -0.00055,   0.00172,379741869.66301,   0.00055,275243946.91258,   0.00041,   0.00018,   0.00032,-95502077.24957,   0.00000
314623905.44477,-27678228.45408,107940014.30869,   0.00190,  -0.00056,   0.00172,378702599.15476,   0.00055,275243946.91258,   0.00041,   0.00018,   0.00032,-96541347.75782,   0.00000
310877137.69160,-32023071.81104,108010376.14443,   0.00189,  -0.00057,   0.00172,377655976.83187,   0.00055,275243946.91258,   0.00041,   0.00018,   0.00032,-97587970.08072,   0.00000
307117177.09423,-36398698.47114,108089533.20964,   0.00188,  -0.00058,   0.00172,376662359.16204,   0.00055,275243946.91258,   0.00041,   0.00018,   0.00032,-98581587.75054,   0.00000
303295649.89059,-40800710.81964,108159895.04538,   0.00187,  -0.00060,   0.00172,375663833.81777,   0.00055,275243946.91258,   0.00041,   0.00018,   0.00032,-99580113.09481,   0.00000
299474122.68694,-45202723.16814,108230256.88112,   0.00186,  -0.00061,   0.00172,374708483.64886,   0.00055,275243946.91258,   0.00041,   0.00018,   0.00032,-100535463.26372,   0.00000
295591028.87702,-49631121.20505,108291823.48739,   0.00186,  -0.00062,   0.00172,373750151.61019,   0.00055,275243946.91258,   0.00041,   0.00018,   0.00032,-101493795.30239,   0.00000
291694742.22291,-54090302.54509,108362185.32313,   0.00185,  -0.00063,   0.00172,372849205.37876,   0.00055,275243946.91258,   0.00041,   0.00018,   0.00032,-102394741.53383,   0.00000
287736888.96251,-58575869.57353,108423751.92940,   0.00184,  -0.00065,   0.00172,371947870.26253,   0.00055,275243946.91258,   0.00041,   0.00018,   0.00032,-103296076.65005,   0.00000
283779035.70212,-63061436.60198,108485318.53568,   0.00183,  -0.00066,   0.00173,371092970.25489,   0.00055,275243946.91258,   0.00041,   0.00018,   0.00032,-104150976.65770,   0.00000
279759615.83546,-67573389.31882,108538089.91248,   0.00182,  -0.00067,   0.00173,370239735.73689,   0.00055,275243946.91258,   0.00041,   0.00018,   0.00032,-105004211.17569,   0.00000
275740195.96879,-72085342.03567,108590861.28929,   0.00181,  -0.00068,   0.00173,369434302.70530,   0.00055,275243946.91258,   0.00041,   0.00018,   0.00032,-105809644.20728,   0.00000
271646016.65166,-76654463.74406,108643632.66609,   0.00180,  -0.00070,   0.00173,368647069.24903,   0.00055,275243946.91258,   0.00041,   0.00018,   0.00032,-106596877.66356,   0.00000
267551837.33452,-81223585.45244,108696404.04290,   0.00179,  -0.00071,   0.00173,367909636.69506,   0.00055,275243946.91258,   0.00041,   0.00018,   0.00032,-107334310.21752,   0.00000
263396091.41111,-85819092.84923,108740380.19024,   0.00178,  -0.00072,   0.00173,367178760.47614,   0.00055,275243946.91258,   0.00041,   0.00018,   0.00032,-108065186.43644,   0.00000
259240345.48769,-90414600.24602,108784356.33757,   0.00177,  -0.00074,   0.00173,366499082.43061,   0.00055,275243946.91258,   0.00041,   0.00018,   0.00032,-108744864.48198,   0.00000
255023032.95801,-95036493.33121,108828332.48491,   0.00176,  -0.00075,   0.00173,365836022.04971,   0.00055,275243946.91258,   0.00041,   0.00018,   0.00032,-109407924.86288,   0.00000
250792527.58413,-99689169.71953,108863513.40278,   0.00175,  -0.00076,   0.00173,365225841.02076,   0.00055,275243946.91258,   0.00041,   0.00018,   0.00032,-110018105.89182,   0.00000
246544431.75131,-104324255.64893,108907489.55012,   0.00174,  -0.00077,   0.00173,364651608.12952,   0.00055,275243946.91258,   0.00041,   0.00018,   0.00032,-110592338.78306,   0.00000
242221576.46801,-109016510.56986,108942670.46799,   0.00173,  -0.00079,   0.00173,364098282.17233,   0.00055,275243946.91258,   0.00041,   0.00018,   0.00032,-111145664.74026,   0.00000
237898721.18472,-113708765.49079,108969056.15639,   0.00172,  -0.00080,   0.00173,363592382.19104,   0.00055,275243946.91258,   0.00041,   0.00018,   0.00032,-111651564.72154,   0.00000
233514299.29515,-118427406.10012,108995441.84479,   0.00171,  -0.00081,   0.00173,363109474.22581,   0.00055,275243946.91258,   0.00041,   0.00018,   0.00032,-112134472.68677,   0.00000
229116684.56138,-123176830.01259,109030622.76266,   0.00170,  -0.00083,   0.00173,362700818.31126,   0.00055,275243946.91258,   0.00041,   0.00018,   0.00032,-112543128.60132,   0.00000
224670696.06554,-127921856.31033,109048213.22160,   0.00169,  -0.00084,   0.00173,362292359.72093,   0.00055,275243946.91258,   0.00041,   0.00018,   0.00032,-112951587.19165,   0.00000
220211514.72550,-132697665.91120,109074598.91000,   0.00167,  -0.00085,   0.00173,361960136.13236,   0.00055,275243946.91258,   0.00041,   0.00018,   0.00032,-113283810.78022,   0.00000
215721550.08232,-137486668.35627,109092189.36894,   0.00166,  -0.00087,   0.00173,361663553.18586,   0.00055,275243946.91258,   0.00041,   0.00018,   0.00032,-113580393.72672,   0.00000
211170018.83287,-142302056.48975,109109779.82787,   0.00165,  -0.00088,   0.00173,361396475.14364,   0.00055,275243946.91258,   0.00041,   0.00018,   0.00032,-113847471.76895,   0.00000
206618487.58342,-147117444.62323,109118575.05734,   0.00164,  -0.00089,   0.00173,361182109.32513,   0.00055,275243946.91258,   0.00041,   0.00018,   0.00032,-114061837.58745,   0.00000
202036173.03084,-151946025.60090,109127370.28681,   0.00163,  -0.00090,   0.00173,361014061.03592,   0.00055,275243946.91258,   0.00041,   0.00018,   0.00032,-114229885.87666,   0.00000
197423075.17511,-156787799.42278,109136165.51628,   0.00162,  -0.00092,   0.00173,360893228.03595,   0.00055,275243946.91258,   0.00041,   0.00018,   0.00032,-114350718.87663,   0.00000
192735217.86892,-161686742.23620,109144960.74574,   0.00161,  -0.00093,   0.00173,360818602.18386,   0.00055,275243946.91258,   0.00041,   0.00018,   0.00032,-114425344.72873,   0.00000
188060553.40692,-166554901.74648,109144960.74574,   0.00159,  -0.00094,   0.00173,360787446.29927,   0.00055,275243946.91258,   0.00041,   0.00018,   0.00032,-114456500.61332,   0.00000
183341912.79759,-171467037.40410,109144960.74574,   0.00158,  -0.00096,   0.00173,360818741.04928,   0.00055,275243946.91258,   0.00041,   0.00018,   0.00032,-114425205.86330,   0.00000
178592488.88512,-176392365.90592,109136165.51628,   0.00157,  -0.00097,   0.00173,360893340.68992,   0.00055,275243946.91258,   0.00041,   0.00018,   0.00032,-114350606.22266,   0.00000
173825474.51371,-181300103.94881,109136165.51628,   0.00156,  -0.00098,   0.00173,361014830.37521,   0.00055,275243946.91258,   0.00041,   0.00018,   0.00032,-114229116.53738,   0.00000
169014483.99497,-186251818.13903,109118575.05734,   0.00155,  -0.00100,   0.00173,361186213.41866,   0.00055,275243946.91258,   0.00041,   0.00018,   0.00032,-114057733.49393,   0.00000
164172710.17309,-191216725.17346,109109779.82787,   0.00153,  -0.00101,   0.00173,361419306.23038,   0.00055,275243946.91258,   0.00041,   0.00018,   0.00032,-113824640.68220,   0.00000
159286960.20387,-196225608.35522,109092189.36894,   0.00152,  -0.00102,   0.00173,361713039.68526,   0.00055,275243946.91258,   0.00041,   0.00018,   0.00032,-113530907.22733,   0.00000
154383619.77572,-201216901.07805,109074598.91000,   0.00151,  -0.00104,   0.00173,362048258.19927,   0.00055,275243946.91258,   0.00041,   0.00018,   0.00032,-113195688.71332,   0.00000
149449496.04443,-206221386.64507,109057008.45107,   0.00150,  -0.00105,   0.00173,362439495.31243,   0.00055,275243946.91258,   0.00041,   0.00018,   0.00032,-112804451.60015,   0.00000
144484589.01001,-211239065.05630,109030622.76266,   0.00148,  -0.00106,   0.00173,362879537.40162,   0.00055,275243946.91258,   0.00041,   0.00018,   0.00032,-112364409.51096,   0.00000
139475705.82825,-216300719.61487,109004237.07426,   0.00147,  -0.00108,   0.00173,363392268.02736,   0.00055,275243946.91258,   0.00041,   0.00018,   0.00032,-111851678.88523,   0.00000
134480015.49068,-221331590.87030,108977851.38586,   0.00146,  -0.00109,   0.00173,363958431.32205,   0.00055,275243946.91258,   0.00041,   0.00018,   0.00032,-111285515.59054,   0.00000
129409565.70265,-226419631.11727,108942670.46799,   0.00144,  -0.00110,   0.00173,364580673.54999,   0.00055,275243946.91258,   0.00041,   0.00018,   0.00032,-110663273.36260,   0.00000
124321525.45568,-231490080.90531,108907489.55012,   0.00143,  -0.00111,   0.00173,365246797.48837,   0.00055,275243946.91258,   0.00041,   0.00018,   0.00032,-109997149.42422,   0.00000
119220292.36451,-236591313.99648,108863513.40278,   0.00142,  -0.00113,   0.00173,365990720.16489,   0.00055,275243946.91258,   0.00041,   0.00018,   0.00032,-109253226.74769,   0.00000
114070685.51127,-241688149.47292,108828332.48491,   0.00140,  -0.00114,   0.00173,366777362.48754,   0.00055,275243946.91258,   0.00041,   0.00018,   0.00032,-108466584.42504,   0.00000
108907885.81382,-246815768.25249,108775561.10811,   0.00139,  -0.00115,   0.00173,367635012.80420,   0.00055,275243946.91258,   0.00041,   0.00018,   0.00032,-107608934.10838,   0.00000
103714302.81324,-251956579.87627,108731584.96077,   0.00138,  -0.00117,   0.00173,368562000.85779,   0.00055,275243946.91258,   0.00041,   0.00018,   0.00032,-106681946.05479,   0.00000
98489936.50952,-257110584.34424,108678813.58396,   0.00136,  -0.00118,   0.00173,369543202.98110,   0.00055,275243946.91258,   0.00041,   0.00018,   0.00032,-105700743.93148,   0.00000
93217196.44374,-262260191.19748,108626042.20716,   0.00135,  -0.00119,   0.00173,370561552.91500,   0.00055,275243946.91258,   0.00041,   0.00018,   0.00032,-104682393.99759,   0.00000
87931263.53375,-267440581.35386,108564475.60089,   0.00134,  -0.00121,   0.00173,371660457.92856,   0.00055,275243946.91258,   0.00041,   0.00018,   0.00032,-103583488.98403,   0.00000
82614547.32062,-272634164.35444,108502908.99461,   0.00132,  -0.00122,   0.00173,372822669.44942,   0.00055,275243946.91258,   0.00041,   0.00018,   0.00032,-102421277.46316,   0.00000
77297831.10749,-277827747.35502,108441342.38834,   0.00131,  -0.00123,   0.00172,374055167.59332,   0.00055,275243946.91258,   0.00041,   0.00018,   0.00032,-101188779.31926,   0.00000
71932741.13230,-283016932.74087,108379775.78207,   0.00129,  -0.00125,   0.00172,375326011.11497,   0.00055,275243946.91258,   0.00041,   0.00018,   0.00032,-99917935.79761,   0.00000
66523675.00976,-288250094.27406,108309413.94633,   0.00128,  -0.00126,   0.00172,376671951.73920,   0.00055,275243946.91258,   0.00041,   0.00018,   0.00032,-98571995.17338,   0.00000
61083825.58409,-293496448.65144,108230256.88112,   0.00126,  -0.00127,   0.00172,378074927.11317,   0.00055,275243946.91258,   0.00041,   0.00018,   0.00032,-97169019.79941,   0.00000
55643976.15842,-298742803.02883,108151099.81591,   0.00125,  -0.00129,   0.00172,379548064.18641,   0.00055,275243946.91258,   0.00041,   0.00018,   0.00032,-95695882.72618,   0.00000
50173343.42961,-304002350.25041,108071942.75070,   0.00123,  -0.00130,   0.00172,381085609.93685,   0.00055,275243946.91258,   0.00041,   0.00018,   0.00032,-94158336.97574,   0.00000
44654336.93873,-309257499.85727,107992785.68550,   0.00122,  -0.00131,   0.00172,382663331.01723,   0.00055,275243946.91258,   0.00041,   0.00018,   0.00032,-92580615.89535,   0.00000
39122137.60365,-314543432.76726,107904833.39082,   0.00120,  -0.00133,   0.00172,384322889.52655,   0.00055,275243946.91258,   0.00041,   0.00018,   0.00032,-90921057.38603,   0.00000
33559154.96543,-319842558.52145,107816881.09614,   0.00119,  -0.00134,   0.00172,386047360.64038,   0.00055,275243946.91258,   0.00041,   0.00018,   0.00032,-89196586.27220,   0.00000
27978581.86828,-325124093.81670,107720133.57200,   0.00117,  -0.00135,   0.00172,387809063.88325,   0.00055,275243946.91258,   0.00041,   0.00018,   0.00032,-87434883.02933,   0.00000
22384815.92693,-330436412.41510,107623386.04786,   0.00116,  -0.00137,   0.00171,389659390.46112,   0.00055,275243946.91258,   0.00041,   0.00018,   0.00032,-85584556.45147,   0.00000
16742676.22350,-335744333.39875,107526638.52372,   0.00114,  -0.00138,   0.00171,391550465.79094,   0.00055,275243946.91258,   0.00041,   0.00018,   0.00032,-83693481.12165,   0.00000
11087343.67588,-341083037.68555,107421095.77011,   0.00113,  -0.00139,   0.00171,393522741.52426,   0.00055,275243946.91258,   0.00041,   0.00018,   0.00032,-81721205.38832,   0.00000
5383637.36618,-346417344.35761,107315553.01650,   0.00111,  -0.00141,   0.00171,395536128.74193,   0.00055,275243946.91258,   0.00041,   0.00018,   0.00032,-79707818.17065,   0.00000
-320068.94352,-351751651.02967,107201215.03342,   0.00110,  -0.00142,   0.00171,397609158.82412,   0.00055,275243946.91258,   0.00041,   0.00018,   0.00032,-77634788.08846,   0.00000
-6067751.40055,-357129933.84907,107095672.27981,   0.00108,  -0.00143,   0.00171,399775037.57113,   0.00055,275243946.91258,   0.00041,   0.00018,   0.00032,-75468909.34145,   0.00000
-11833024.31652,-362490626.20953,106972539.06726,   0.00107,  -0.00145,   0.00171,401969509.41993,   0.00055,275243946.91258,   0.00041,   0.00018,   0.00032,-73274437.49266,   0.00000
-17629080.53563,-367864511.41420,106849405.85472,   0.00105,  -0.00146,   0.00170,404228099.88314,   0.00055,275243946.91258,   0.00041,   0.00018,   0.00032,-71015847.02944,   0.00000
-23425136.75474,-373238396.61886,106726272.64217,   0.00103,  -0.00147,   0.00170,406551311.73808,   0.00055,275243946.91258,   0.00041,   0.00018,   0.00032,-68692635.17450,   0.00000
-29282759.58012,-378638667.51193,106603139.42962,   0.00102,  -0.00148,   0.00170,408937432.23641,   0.00055,275243946.91258,   0.00041,   0.00018,   0.00032,-66306514.67618,   0.00000
-35140382.40550,-384038938.40500,106471210.98761,   0.00100,  -0.00150,   0.00170,411380400.40843,   0.00055,275243946.91258,   0.00041,   0.00018,   0.00032,-63863546.50416,   0.00000
-41028788.53401,-389452402.14227,106339282.54560,   0.00099,  -0.00151,   0.00170,413886341.65472,   0.00055,275243946.91258,   0.00041,   0.00018,   0.00032,-61357605.25786,   0.00000
-46934785.12146,-394848275.42060,106198558.87412,   0.00097,  -0.00152,   0.00170,416425644.52180,   0.00055,275243946.91258,   0.00041,   0.00018,   0.00032,-58818302.39079,   0.00000
-52853974.55312,-400274932.00207,106057835.20264,   0.00095,  -0.00154,   0.00169,419049204.71067,   0.00055,275243946.91258,   0.00041,   0.00018,   0.00032,-56194742.20191,   0.00000
-58821537.74684,-405697190.96881,105908316.30169,   0.00094,  -0.00155,   0.00169,421706255.36753,   0.00055,275243946.91258,   0.00041,   0.00018,   0.00032,-53537691.54506,   0.00000
-64789100.94056,-411119449.93555,105758797.40074,   0.00092,  -0.00156,   0.00169,424423773.90816,   0.00055,275243946.91258,   0.00041,   0.00018,   0.00032,-50820173.00443,   0.00000
-70800640.28162,-416585685.04962,105609278.49979,   0.00090,  -0.00158,   0.00169,427225689.22598,   0.00055,275243946.91258,   0.00041,   0.00018,   0.00032,-48018257.68660,   0.00000
-76829770.08162,-422034329.70476,105450964.36938,   0.00089,  -0.00159,   0.00169,430058956.61138,   0.00055,275243946.91258,   0.00041,   0.00018,   0.00032,-45184990.30120,   0.00000
-82858899.88162,-427482974.35990,105292650.23896,   0.00087,  -0.00160,   0.00168,432950514.80120,   0.00055,275243946.91258,   0.00041,   0.00018,   0.00032,-42293432.11138,   0.00000
-88936403.44368,-432927221.40030,105134336.10855,   0.00085,  -0.00162,   0.00168,435881129.15063,   0.00055,275243946.91258,   0.00041,   0.00018,   0.00032,-39362817.76195,   0.00000
-95027099.84995,-438402251.74384,104967226.74866,   0.00084,  -0.00163,   0.00168,438886027.98788,   0.00055,275243946.91258,   0.00041,   0.00018,   0.00032,-36357918.92471,   0.00000
-101135386.71516,-443859691.62845,104791322.15931,   0.00082,  -0.00164,   0.00168,441920280.52365,   0.00055,275243946.91258,   0.00041,   0.00018,   0.00032,-33323666.38893,   0.00000
-107287649.72770,-449361107.66040,104615417.56996,   0.00080,  -0.00165,   0.00168,445037419.23794,   0.00055,275243946.91258,   0.00041,   0.00018,   0.00032,-30206527.67465,   0.00000
-113426719.89604,-454831740.38920,104439512.98061,   0.00078,  -0.00167,   0.00167,448185559.84076,   0.00055,275243946.91258,   0.00041,   0.00018,   0.00032,-27058387.07183,   0.00000
-119596573.36752,-460315565.96221,104263608.39126,   0.00077,  -0.00168,   0.00167,451391511.19162,   0.00055,275243946.91258,   0.00041,   0.00018,   0.00032,-23852435.72097,   0.00000
-125797210.14213,-465812584.37942,104070113.34297,   0.00075,  -0.00169,   0.00167,454642874.96387,   0.00055,275243946.91258,   0.00041,   0.00018,   0.00032,-20601071.94871,   0.00000
-132015437.37568,-471292012.33770,103885413.52416,   0.00073,  -0.00171,   0.00167,457933349.83122,   0.00055,275243946.91258,   0.00041,   0.00018,   0.00032,-17310597.08137,   0.00000
-138246857.45343,-476802223.59911,103691918.47587,   0.00071,  -0.00172,   0.00166,461294035.14140,   0.00055,275243946.91258,   0.00041,   0.00018,   0.00032,-13949911.77118,   0.00000
-144526651.29325,-482308037.24579,103498423.42758,   0.00070,  -0.00173,   0.00166,464691727.02659,   0.00055,275243946.91258,   0.00041,   0.00018,   0.00032,-10552219.88599,   0.00000
-150775661.82994,-487800658.04826,103296133.14983,   0.00068,  -0.00174,   0.00166,468128816.14508,   0.00055,275243946.91258,   0.00041,   0.00018,   0.00032,-7115130.76750,   0.00000
-157086238.97289,-493319664.53914,103093842.87208,   0.00066,  -0.00176,   0.00166,471626619.79180,   0.00055,275243946.91258,   0.00041,   0.00018,   0.00032,-3617327.12079,   0.00000
-163383623.27165,-498807887.72689,102882757.36486,   0.00064,  -0.00177,   0.00165,475143202.08504,   0.00055,275243946.91258,   0.00041,   0.00018,   0.00032,-100744.82755,   0.00000
-163562474.77486,-498963917.67907,102876803.91676,   0.00064,  -0.00177,   0.00165,475243949.41288,   0.00055,275243946.91258,   0.00041,   0.00018,   0.00032,  -4.31425,   0.00000
-168826462.85267,-500793825.21692,101859251.88513,   0.00062,  -0.00178,   0.00165,475263612.52331,   0.00057,275263618.23531,   0.00042,   0.00017,   0.00033,  -5.71200,   1.00000
-174212720.21861,-502615328.06822,100804331.00524,   0.00061,  -0.00180,   0.00165,475283910.74914,   0.00059,275283916.64823,   0.00042,   0.00015,   0.00034,  -5.89909,   1.00000
-179543640.65327,-504368181.58168,99744995.90525,   0.00059,  -0.00181,   0.00164,475304402.00425,   0.00061,275304404.90927,   0.00042,   0.00014,   0.00035,  -2.90502,   1.00000
-184875544.31070,-506064931.71159,98678507.14655,   0.00057,  -0.00182,   0.00164,475325147.24524,   0.00063,275325153.39350,   0.00042,   0.00012,   0.00036,  -6.14826,   1.00000
-190117507.80532,-507688415.03353,97607990.49291,   0.00055,  -0.00183,   0.00164,475345870.65603,   0.00065,275345873.74841,   0.00043,   0.00011,   0.00037,  -3.09238,   1.00000
-195365444.65268,-509266135.77090,96517848.64486,   0.00053,  -0.00185,   0.00164,475366946.96521,   0.00067,275366955.17607,   0.00043,   0.00009,   0.00038,  -8.21086,   1.00000
-200547391.36146,-510766344.36593,95437903.13479,   0.00051,  -0.00186,   0.00163,475388090.74828,   0.00068,275388097.42396,   0.00043,   0.00007,   0.00039,  -6.67567,   1.00000
-205701204.69473,-512216042.82765,94338531.25809,   0.00050,  -0.00187,   0.00163,475409379.91279,   0.00070,275409386.63699,   0.00043,   0.00006,   0.00040,  -6.72420,   1.00000
-210788356.28264,-513590012.19250,93250081.52068,   0.00048,  -0.00188,   0.00163,475430720.93190,   0.00072,275430725.10445,   0.00043,   0.00004,   0.00041,  -4.17255,   1.00000
-215844228.74019,-514908810.81286,92150421.90096,   0.00046,  -0.00190,   0.00162,475452227.00215,   0.00074,275452231.40468,   0.00044,   0.00003,   0.00042,  -4.40253,   1.00000
-220867727.69816,-516172362.45572,91039888.02633,   0.00044,  -0.00191,   0.00162,475473898.06489,   0.00076,275473902.55630,   0.00044,   0.00001,   0.00044,  -4.49141,   1.00000
-225828805.03176,-517371857.98129,89928391.53273,   0.00042,  -0.00192,   0.00162,475495706.58325,   0.00078,275495714.50846,   0.00044,  -0.00001,   0.00045,  -7.92521,   1.00000
-230755915.26545,-518516803.00828,88806742.10749,   0.00040,  -0.00193,   0.00161,475517676.12200,   0.00080,275517682.93973,   0.00044,  -0.00002,   0.00046,  -6.81773,   1.00000
-235643106.30460,-519598355.99915,87688161.18528,   0.00038,  -0.00195,   0.00161,475539688.46319,   0.00082,275539697.34180,   0.00044,  -0.00004,   0.00047,  -8.87861,   1.00000
-240466189.93270,-520618048.48365,86569720.49169,   0.00036,  -0.00196,   0.00161,475561827.62774,   0.00084,275561836.89426,   0.00044,  -0.00006,   0.00048,  -9.26652,   1.00000
-245226928.18325,-521582066.47368,85444070.99217,   0.00034,  -0.00197,   0.00160,475584060.09819,   0.00087,275584069.85679,   0.00044,  -0.00008,   0.00049,  -9.75859,   1.00000
-249973122.11886,-522487169.52067,84320373.91586,   0.00033,  -0.00198,   0.00160,475606382.87913,   0.00089,275606389.50404,   0.00044,  -0.00009,   0.00050,  -6.62491,   1.00000
-254655853.33645,-523337743.75768,83190080.22339,   0.00031,  -0.00199,   0.00160,475628790.44780,   0.00091,275628795.09322,   0.00044,  -0.00011,   0.00051,  -4.64542,   1.00000
-259272952.61888,-524129912.45290,82061449.41370,   0.00029,  -0.00201,   0.00159,475651304.60211,   0.00093,275651305.02367,   0.00044,  -0.00013,   0.00052,  -0.42155,   1.00000
-263875932.83501,-524869103.76188,80927673.74270,   0.00027,  -0.00202,   0.00159,475673863.87536,   0.00095,275673871.20670,   0.00044,  -0.00015,   0.00054,  -7.33134,   1.00000
-268388145.89857,-525553347.75697,79793537.51602,   0.00025,  -0.00203,   0.00158,475696600.27176,   0.00097,275696606.71541,   0.00044,  -0.00016,   0.00055,  -6.44365,   1.00000
-272859572.17736,-526181678.13281,78661645.38008,   0.00023,  -0.00204,   0.00158,475719203.21792,   0.00099,275719207.63070,   0.00044,  -0.00018,   0.00056,  -4.41277,   1.00000
-277289911.45569,-526758877.10750,77525978.00885,   0.00021,  -0.00206,   0.00158,475742071.93994,   0.00101,275742081.04445,   0.00044,  -0.00020,   0.00057,  -9.10451,   1.00000
-281679536.06101,-527284137.51754,76388273.78206,   0.00019,  -0.00207,   0.00157,475764938.38775,   0.00103,275764945.17323,   0.00044,  -0.00022,   0.00058,  -6.78548,   1.00000
-285977554.30301,-527756340.47567,75256452.06588,   0.00017,  -0.00208,   0.00157,475787820.03420,   0.00105,275787827.56591,   0.00044,  -0.00024,   0.00059,  -7.53171,   1.00000
-290259206.18109,-528181096.37316,74116439.34787,   0.00015,  -0.00209,   0.00156,475810877.69251,   0.00107,275810881.56791,   0.00044,  -0.00025,   0.00060,  -3.87540,   1.00000
-294473753.52121,-528552003.32088,72985296.73473,   0.00013,  -0.00210,   0.00156,475833878.57182,   0.00110,275833879.13848,   0.00044,  -0.00027,   0.00061,  -0.56666,   1.00000
-298621163.06580,-528873219.98135,71858844.24220,   0.00011,  -0.00212,   0.00156,475856938.86556,   0.00112,275856941.72846,   0.00044,  -0.00029,   0.00062,  -2.86290,   1.00000
-302728200.98848,-529146645.66001,70731477.60680,   0.00009,  -0.00213,   0.00155,475879974.32183,   0.00114,275879983.35083,   0.00043,  -0.00031,   0.00063,  -9.02900,   1.00000
-306793504.62192,-529375433.22748,69599144.98269,   0.00007,  -0.00214,   0.00155,475903122.81948,   0.00116,275903126.78971,   0.00043,  -0.00033,   0.00064,  -3.97023,   1.00000
-310791495.83145,-529557369.32100,68472440.20145,   0.00005,  -0.00215,   0.00154,475926317.34850,   0.00118,275926324.91417,   0.00043,  -0.00035,   0.00065,  -7.56566,   1.00000
-314724281.51225,-529691228.21231,67355761.56615,   0.00003,  -0.00216,   0.00154,475949446.10166,   0.00120,275949451.24225,   0.00043,  -0.00037,   0.00066,  -5.14059,   1.00000
-318613317.94744,-529785640.46753,66230879.24368,   0.00001,  -0.00217,   0.00153,475972791.87467,   0.00122,275972792.96946,   0.00043,  -0.00039,   0.00067,  -1.09479,   1.00000
-322439944.40997,-529831493.14960,65120486.45822,  -0.00001,  -0.00219,   0.00153,475995929.55833,   0.00125,275995936.82112,   0.00042,  -0.00040,   0.00068,  -7.26279,   1.00000
-326224703.91810,-529836873.54667,64006394.80588,  -0.00003,  -0.00220,   0.00152,476019168.25548,   0.00127,276019170.85006,   0.00042,  -0.00042,   0.00069,  -2.59457,   1.00000
-329967143.23797,-529802239.90027,62888921.66498,  -0.00005,  -0.00221,   0.00152,476042484.28428,   0.00129,276042493.50214,   0.00042,  -0.00044,   0.00070,  -9.21786,   1.00000
-333622005.21677,-529730087.44304,61780881.59158,  -0.00007,  -0.00222,   0.00152,476065778.96502,   0.00131,276065785.07295,   0.00041,  -0.00046,   0.00071,  -6.10793,   1.00000
-337235958.00705,-529613589.62425,60681914.37001,  -0.00009,  -0.00223,   0.00151,476089050.08618,   0.00133,276089058.64057,   0.00041,  -0.00048,   0.00072,  -8.55440,   1.00000
-340807988.44976,-529459763.02045,59580245.08928,  -0.00011,  -0.00224,   0.00151,476112408.64260,   0.00135,276112415.16476,   0.00040,  -0.00050,   0.00073,  -6.52216,   1.00000
-344318450.55867,-529266366.87090,58490097.93526,  -0.00013,  -0.00225,   0.00150,476135675.82305,   0.00138,276135683.80434,   0.00040,  -0.00052,   0.00074,  -7.98129,   1.00000
-347787176.45771,-529037228.40841,57397655.79696,  -0.00016,  -0.00227,   0.00150,476159025.86664,   0.00140,276159032.92576,   0.00040,  -0.00054,   0.00075,  -7.05912,   1.00000
-351177421.62826,-528777854.21334,56310839.79695,  -0.00018,  -0.00228,   0.00149,476182201.62778,   0.00142,276182207.42664,   0.00039,  -0.00056,   0.00076,  -5.79885,   1.00000
-354544537.17103,-528477084.24192,55228373.27550,  -0.00020,  -0.00229,   0.00149,476205537.36027,   0.00144,276205544.18964,   0.00039,  -0.00058,   0.00077,  -6.82937,   1.00000
-357828579.26936,-528147849.04786,54156704.55109,  -0.00022,  -0.00230,   0.00148,476228825.32492,   0.00146,276228831.61686,   0.00038,  -0.00059,   0.00078,  -6.29194,   1.00000
-361076315.14070,-527783502.68585,53086808.48742,  -0.00024,  -0.00231,   0.00148,476252072.36002,   0.00148,276252081.63631,   0.00038,  -0.00061,   0.00079,  -9.27630,   1.00000
-364281268.55805,-527384265.09688,52023938.75419,  -0.00026,  -0.00232,   0.00147,476275411.07797,   0.00151,276275420.46663,   0.00037,  -0.00063,   0.00079,  -9.38867,   1.00000
-367412206.87172,-526960527.74101,50967082.50204,  -0.00028,  -0.00233,   0.00147,476298569.82793,   0.00153,276298579.54803,   0.00036,  -0.00065,   0.00080,  -9.72010,   1.00000
-370501414.09852,-526503854.06998,49917579.79205,  -0.00030,  -0.00234,   0.00146,476321821.93889,   0.00155,276321825.20739,   0.00036,  -0.00067,   0.00081,  -3.26850,   1.00000
-373555807.26361,-526014887.26329,48870224.21739,  -0.00032,  -0.00235,   0.00146,476345025.54749,   0.00157,276345034.39260,   0.00035,  -0.00069,   0.00082,  -8.84511,   1.00000
-376533895.50693,-525507654.94687,47826088.90372,  -0.00034,  -0.00237,   0.00145,476368166.20866,   0.00159,276368172.16038,   0.00035,  -0.00071,   0.00083,  -5.95172,   1.00000
-379489206.13234,-524964607.63328,46787944.00134,  -0.00036,  -0.00238,   0.00144,476391466.91750,   0.00161,276391467.25930,   0.00034,  -0.00073,   0.00084,  -0.34180,   1.00000
-382373182.49162,-524399376.83939,45764478.75873,  -0.00038,  -0.00239,   0.00144,476414589.45732,   0.00164,276414592.13815,   0.00033,  -0.00075,   0.00084,  -2.68082,   1.00000
-385224550.44196,-523804774.93533,44743419.62644,  -0.00041,  -0.00240,   0.00143,476437675.21476,   0.00166,276437682.27032,   0.00033,  -0.00077,   0.00085,  -7.05556,   1.00000
-388018540.77668,-523187787.95252,43732460.37693,  -0.00043,  -0.00241,   0.00143,476460776.65161,   0.00168,276460782.61754,   0.00032,  -0.00078,   0.00086,  -5.96593,   1.00000
-390757812.98470,-522552108.78237,42723259.06502,  -0.00045,  -0.00242,   0.00142,476483878.21474,   0.00170,276483881.52754,   0.00031,  -0.00080,   0.00087,  -3.31280,   1.00000
-393449125.91876,-521895028.90327,41718498.55758,  -0.00047,  -0.00243,   0.00142,476506864.90600,   0.00172,276506873.11986,   0.00030,  -0.00082,   0.00087,  -8.21386,   1.00000
-396108222.61237,-521208635.40575,40724863.14122,  -0.00049,  -0.00244,   0.00141,476529834.21342,   0.00174,276529843.09572,   0.00030,  -0.00084,   0.00088,  -8.88229,   1.00000
-398706401.98499,-520507310.15356,39739275.09113,  -0.00051,  -0.00245,   0.00140,476552922.58384,   0.00177,276552925.82235,   0.00029,  -0.00086,   0.00089,  -3.23851,   1.00000
-401281443.88846,-519776644.30171,38758762.28421,  -0.00053,  -0.00246,   0.00140,476575869.93812,   0.00179,276575874.79483,   0.00028,  -0.00088,   0.00089,  -4.85671,   1.00000
-403788687.10842,-519037748.68086,37782035.58938,  -0.00055,  -0.00247,   0.00139,476598745.20682,   0.00181,276598747.59848,   0.00027,  -0.00090,   0.00090,  -2.39166,   1.00000
-406259441.36351,-518276198.65783,36814358.05486,  -0.00058,  -0.00248,   0.00139,476621698.76165,   0.00183,276621704.09304,   0.00026,  -0.00092,   0.00091,  -5.33139,   1.00000
-408685066.31406,-517495353.94645,35859602.54602,  -0.00060,  -0.00249,   0.00138,476644558.37001,   0.00185,276644566.62708,   0.00025,  -0.00093,   0.00091,  -8.25707,   1.00000
-411068112.50784,-516698075.82300,34909135.34167,  -0.00062,  -0.00250,   0.00137,476667321.20617,   0.00187,276667327.70494,   0.00024,  -0.00095,   0.00092,  -6.49877,   1.00000
-413410630.04590,-515886566.52268,33957315.79951,  -0.00064,  -0.00251,   0.00137,476690262.06130,   0.00189,276690266.35752,   0.00023,  -0.00097,   0.00093,  -4.29621,   1.00000
-415717278.35303,-515053371.43519,33020432.84964,  -0.00066,  -0.00252,   0.00136,476713008.13503,   0.00192,276713013.14184,   0.00023,  -0.00099,   0.00093,  -5.00681,   1.00000
-417960142.62981,-514215171.10792,32095873.11849,  -0.00068,  -0.00253,   0.00136,476735683.56031,   0.00194,276735692.06029,   0.00022,  -0.00101,   0.00094,  -8.49998,   1.00000
-420178412.28105,-513355828.82285,31173963.67947,  -0.00070,  -0.00254,   0.00135,476758341.38259,   0.00196,276758350.74240,   0.00021,  -0.00102,   0.00094,  -9.35982,   1.00000
-422364877.45040,-512480326.03961,30252943.54254,  -0.00073,  -0.00255,   0.00134,476781088.08641,   0.00198,276781089.58857,   0.00020,  -0.00104,   0.00095,  -1.50216,   1.00000
-424490057.45817,-511602166.91644,29344317.60108,  -0.00075,  -0.00256,   0.00134,476803753.93947,   0.00200,276803760.85224,   0.00019,  -0.00106,   0.00095,  -6.91277,   1.00000
-426599541.87598,-510699238.93885,28440084.91732,  -0.00077,  -0.00257,   0.00133,476826316.07757,   0.00202,276826318.60990,   0.00018,  -0.00108,   0.00096,  -2.53233,   1.00000
-428642124.47905,-509800153.38641,27546470.23710,  -0.00079,  -0.00258,   0.00132,476848896.95898,   0.00204,276848906.56562,   0.00017,  -0.00110,   0.00096,  -9.60664,   1.00000
-430670430.76995,-508876954.00815,26657070.78725,  -0.00081,  -0.00259,   0.00132,476871382.59437,   0.00206,276871384.74750,   0.00015,  -0.00111,   0.00097,  -2.15314,   1.00000
-432654598.76209,-507946324.61581,25778579.02044,  -0.00083,  -0.00260,   0.00131,476893869.38847,   0.00209,276893875.51080,   0.00014,  -0.00113,   0.00097,  -6.12233,   1.00000
-434595497.73858,-507009021.48963,24910967.44109,  -0.00086,  -0.00261,   0.00130,476916371.46447,   0.00211,276916378.89368,   0.00013,  -0.00115,   0.00098,  -7.42921,   1.00000
-436504124.41529,-506063082.29186,24038417.76552,  -0.00088,  -0.00262,   0.00130,476938788.35925,   0.00213,276938788.94300,   0.00012,  -0.00117,   0.00098,  -0.58375,   1.00000
-438378743.27908,-505105934.42512,23178172.80688,  -0.00090,  -0.00263,   0.00129,476961115.68798,   0.00215,276961118.45718,   0.00011,  -0.00118,   0.00099,  -2.76920,   1.00000
-440212236.67407,-504143768.53941,22328764.83453,  -0.00092,  -0.00264,   0.00128,476983456.67097,   0.00217,276983462.59919,   0.00010,  -0.00120,   0.00099,  -5.92822,   1.00000
-442026867.24344,-503164676.26984,21481717.61830,  -0.00094,  -0.00265,   0.00127,477005796.42931,   0.00219,277005802.85052,   0.00009,  -0.00122,   0.00099,  -6.42121,   1.00000
-443789161.60212,-502189652.89010,20646530.85980,  -0.00096,  -0.00266,   0.00127,477028070.57202,   0.00221,277028079.29075,   0.00008,  -0.00124,   0.00100,  -8.71873,   1.00000
-445533712.55916,-501198327.47481,19813606.16155,  -0.00099,  -0.00266,   0.00126,477050351.52421,   0.00223,277050354.68690,   0.00006,  -0.00125,   0.00100,  -3.16268,   1.00000
-447227685.59826,-500212193.44317,18992403.82158,  -0.00101,  -0.00267,   0.00125,477072566.66251,   0.00225,277072567.06865,   0.00005,  -0.00127,   0.00101,  -0.40614,   1.00000
-448913135.38079,-499204010.74112,18174403.13124,  -0.00103,  -0.00268,   0.00125,477094683.04363,   0.00227,277094689.53398,   0.00004,  -0.00129,   0.00101,  -6.49035,   1.00000
-450542274.36538,-498209385.59202,17358283.00341,  -0.00105,  -0.00269,   0.00124,477116833.86146,   0.00230,277116837.76536,   0.00003,  -0.00130,   0.00101,  -3.90390,   1.00000
-452163076.48047,-497191939.55682,16553907.63734,  -0.00107,  -0.00270,   0.00123,477138901.23888,   0.00232,277138903.65246,   0.00002,  -0.00132,   0.00102,  -2.41358,   1.00000
-453747769.69481,-496173326.30788,15760077.23266,  -0.00109,  -0.00271,   0.00122,477160987.66698,   0.00234,277160989.99193,   0.00000,  -0.00134,   0.00102,  -2.32495,   1.00000
-455286806.96873,-495163237.62972,14968851.69650,  -0.00112,  -0.00272,   0.00122,477183003.33764,   0.00236,277183012.21497,  -0.00001,  -0.00135,   0.00102,  -8.87733,   1.00000
-456819910.54583,-494131610.03672,14180334.37261,  -0.00114,  -0.00273,   0.00121,477204952.26108,   0.00238,277204953.78140,  -0.00002,  -0.00137,   0.00102,  -1.52032,   1.00000
-458299557.85491,-493115333.03359,13402194.85320,  -0.00116,  -0.00273,   0.00120,477226920.63914,   0.00240,277226925.76112,  -0.00004,  -0.00138,   0.00103,  -5.12199,   1.00000
-459773587.94206,-492076945.20434,12635205.20649,  -0.00118,  -0.00274,   0.00119,477248818.50290,   0.00242,277248823.46432,  -0.00005,  -0.00140,   0.00103,  -4.96142,   1.00000
-461205393.52200,-491049161.86826,11861759.82286,  -0.00120,  -0.00275,   0.00118,477270653.28332,   0.00244,277270657.28350,  -0.00006,  -0.00142,   0.00103,  -4.00018,   1.00000
-462623317.81363,-490006015.28043,11107354.18860,  -0.00122,  -0.00276,   0.00118,477292510.53148,   0.00246,277292511.58133,  -0.00007,  -0.00143,   0.00103,  -1.04986,   1.00000
-463999789.90492,-488973454.13005,10354967.22221,  -0.00125,  -0.00277,   0.00117,477314298.89411,   0.00248,277314305.88979,  -0.00009,  -0.00145,   0.00103,  -6.99568,   1.00000
-465354426.72208,-487935676.38806,9604580.59308,  -0.00127,  -0.00278,   0.00116,477336028.08127,   0.00250,277336035.20550,  -0.00010,  -0.00146,   0.00104,  -7.12424,   1.00000
-466687175.49478,-486892256.25216,8864792.87933,  -0.00129,  -0.00278,   0.00115,477357696.89762,   0.00252,277357703.02039,  -0.00011,  -0.00148,   0.00104,  -6.12277,   1.00000
-467990466.95475,-485851664.88915,8126307.83969,  -0.00131,  -0.00279,   0.00114,477379388.48591,   0.00254,277379395.70499,  -0.00013,  -0.00149,   0.00104,  -7.21908,   1.00000
-469281529.72416,-484797845.58242,7398643.13424,  -0.00133,  -0.00280,   0.00114,477400932.55082,   0.00256,277400941.86268,  -0.00014,  -0.00151,   0.00104,  -9.31186,   1.00000
-470535429.53814,-483755361.08281,6671754.84073,  -0.00135,  -0.00281,   0.00113,477422601.21038,   0.00258,277422601.36235,  -0.00016,  -0.00152,   0.00104,  -0.15197,   1.00000
-471778508.46569,-482700047.81844,5946745.59226,  -0.00138,  -0.00281,   0.00112,477444111.87839,   0.00261,277444115.37193,  -0.00017,  -0.00154,   0.00104,  -3.49353,   1.00000
-472984321.90645,-481656660.76540,5231844.83944,  -0.00140,  -0.00282,   0.00111,477465574.82860,   0.00263,277465575.03373,  -0.00018,  -0.00155,   0.00104,  -0.20513,   1.00000
-474172160.95848,-480608315.20112,4526393.71045,  -0.00142,  -0.00283,   0.00110,477487143.48664,   0.00265,277487148.42915,  -0.00020,  -0.00157,   0.00104,  -4.94252,   1.00000
-475341591.79493,-479555682.90919,3822539.68284,  -0.00144,  -0.00284,   0.00109,477508487.52788,   0.00267,277508495.79258,  -0.00021,  -0.00158,   0.00105,  -8.26470,   1.00000
-476484735.81552,-478507102.39957,3128230.12492,  -0.00146,  -0.00284,   0.00109,477529871.01379,   0.00269,277529874.14793,  -0.00023,  -0.00160,   0.00105,  -3.13414,   1.00000
-477610892.19309,-477454214.04965,2434831.49363,  -0.00148,  -0.00285,   0.00108,477551194.02516,   0.00271,277551198.29443,  -0.00024,  -0.00161,   0.00105,  -4.26927,   1.00000
-478711772.02220,-476405903.92640,1742196.12277,  -0.00150,  -0.00286,   0.00107,477572546.57289,   0.00273,277572554.07528,  -0.00026,  -0.00163,   0.00105,  -7.50239,   1.00000
-479787854.21511,-475361864.50523,1059138.58974,  -0.00153,  -0.00287,   0.00106,477593764.25497,   0.00275,277593772.68413,  -0.00027,  -0.00164,   0.00105,  -8.42916,   1.00000
-480856760.60491,-474304976.75466,376696.63662,  -0.00155,  -0.00287,   0.00105,477615018.85276,   0.00277,277615025.18043,  -0.00028,  -0.00165,   0.00105,  -6.32767,   1.00000
-481901779.81668,-473252462.15743,-296461.87866,  -0.00157,  -0.00288,   0.00104,477636135.75734,   0.00279,277636142.07756,  -0.00030,  -0.00167,   0.00105,  -6.32022,   1.00000
-482923280.39149,-472205112.56139,-960472.56082,  -0.00159,  -0.00289,   0.00103,477657292.02016,   0.00281,277657292.94249,  -0.00031,  -0.00168,   0.00105,  -0.92233,   1.00000
-483922187.92904,-471162162.99883,-1624282.36610,  -0.00161,  -0.00289,   0.00103,477678299.59462,   0.00283,277678308.86893,  -0.00033,  -0.00169,   0.00105,  -9.27431,   1.00000
-484915068.51989,-470106394.11156,-2287755.45410,  -0.00163,  -0.00290,   0.00102,477699353.80429,   0.00285,277699362.92450,  -0.00034,  -0.00171,   0.00105,  -9.12021,   1.00000
-485877641.23909,-469064799.89696,-2942358.32706,  -0.00165,  -0.00291,   0.00101,477720360.26717,   0.00287,277720366.16935,  -0.00036,  -0.00172,   0.00105,  -5.90218,   1.00000
-486819128.85594,-468027506.77139,-3597124.42047,  -0.00167,  -0.00291,   0.00100,477741233.40981,   0.00289,277741236.19189,  -0.00037,  -0.00173,   0.00104,  -2.78208,   1.00000
-487755644.59142,-466977535.80526,-4243017.27706,  -0.00170,  -0.00292,   0.00099,477762146.23804,   0.00291,277762146.38681,  -0.00039,  -0.00175,   0.00104,  -0.14877,   1.00000
-488671729.51509,-465931805.63565,-4889346.18181,  -0.00172,  -0.00293,   0.00098,477782924.09039,   0.00293,277782924.99221,  -0.00040,  -0.00176,   0.00104,  -0.90182,   1.00000
-489566865.75193,-464891807.11111,-5535617.51050,  -0.00174,  -0.00293,   0.00097,477803738.60376,   0.00295,277803741.78681,  -0.00042,  -0.00177,   0.00104,  -3.18304,   1.00000
-490450618.57444,-463848021.03803,-6164786.61841,  -0.00176,  -0.00294,   0.00096,477824508.39243,   0.00297,277824512.68570,  -0.00043,  -0.00179,   0.00104,  -4.29327,   1.00000
-491314933.97259,-462807981.10283,-6803525.29704,  -0.00178,  -0.00295,   0.00095,477845145.32309,   0.00299,277845154.73557,  -0.00045,  -0.00180,   0.00104,  -9.41248,   1.00000
-492168227.31773,-461763759.16707,-7434056.03583,  -0.00180,  -0.00295,   0.00094,477865753.15645,   0.00301,277865753.45591,  -0.00046,  -0.00181,   0.00104,  -0.29946,   1.00000
-492995173.63855,-460734387.19654,-8056564.90806,  -0.00182,  -0.00296,   0.00093,477886296.38589,   0.00303,277886302.57850,  -0.00048,  -0.00182,   0.00104,  -6.19261,   1.00000
-493818503.79079,-459691937.45938,-8679349.63675,  -0.00184,  -0.00296,   0.00092,477906895.34763,   0.00305,277906898.96765,  -0.00049,  -0.00184,   0.00104,  -3.62002,   1.00000
-494617805.00520,-458662134.55615,-9295287.94501,  -0.00186,  -0.00297,   0.00091,477927270.20389,   0.00306,277927276.70133,  -0.00051,  -0.00185,   0.00103,  -6.49744,   1.00000
-495405439.59283,-457630024.07374,-9911121.60229,  -0.00189,  -0.00298,   0.00090,477947775.66070,   0.00308,277947784.08686,  -0.00052,  -0.00186,   0.00103,  -8.42616,   1.00000
-496176326.78730,-456601487.06757,-10528500.93939,  -0.00191,  -0.00298,   0.00089,477968162.74072,   0.00310,277968163.82961,  -0.00054,  -0.00187,   0.00103,  -1.08889,   1.00000
-496946492.60165,-455557404.86237,-11138790.47537,  -0.00193,  -0.00299,   0.00088,477988419.38767,   0.00312,277988422.96646,  -0.00055,  -0.00188,   0.00103,  -3.57879,   1.00000
-497684357.46118,-454539718.18749,-11741047.48797,  -0.00195,  -0.00299,   0.00087,478008707.11016,   0.00314,278008713.28821,  -0.00057,  -0.00190,   0.00103,  -6.17805,   1.00000
-498421545.32374,-453505583.46275,-12345224.67493,  -0.00197,  -0.00300,   0.00086,478028880.99901,   0.00316,278028886.22605,  -0.00058,  -0.00191,   0.00102,  -5.22704,   1.00000
-499134927.34495,-452485981.08781,-12950813.65738,  -0.00199,  -0.00300,   0.00085,478049006.07044,   0.00318,278049013.03219,  -0.00060,  -0.00192,   0.00102,  -6.96175,   1.00000
-499840447.74152,-451461702.46317,-13549103.93993,  -0.00201,  -0.00301,   0.00084,478069092.43829,   0.00320,278069100.92358,  -0.00062,  -0.00193,   0.00102,  -8.48529,   1.00000
-500537461.70937,-450432034.34465,-14148887.17986,  -0.00203,  -0.00301,   0.00083,478089148.61158,   0.00322,278089153.55956,  -0.00063,  -0.00194,   0.00102,  -4.94798,   1.00000
-501220676.62211,-449405820.19022,-14742376.14547,  -0.00205,  -0.00302,   0.00082,478109068.71127,   0.00324,278109078.31741,  -0.00065,  -0.00195,   0.00102,  -9.60614,   1.00000
-501882336.47468,-448394818.03738,-15328992.26654,  -0.00207,  -0.00302,   0.00081,478128944.51188,   0.00326,278128953.97062,  -0.00066,  -0.00196,   0.00101,  -9.45874,   1.00000
-502544493.68664,-447366092.01227,-15918213.09322,  -0.00209,  -0.00303,   0.00080,478148711.94896,   0.00328,278148716.52176,  -0.00068,  -0.00197,   0.00101,  -4.57280,   1.00000
-503190703.58164,-446343617.22976,-16508439.79919,  -0.00211,  -0.00303,   0.00079,478168522.35747,   0.00330,278168524.96010,  -0.00069,  -0.00198,   0.00101,  -2.60263,   1.00000
-503824408.96587,-445324156.95674,-17092841.69494,  -0.00213,  -0.00304,   0.00078,478188200.78888,   0.00331,278188206.06698,  -0.00071,  -0.00199,   0.00100,  -5.27809,   1.00000
-504436897.02441,-444318993.95846,-17679367.66233,  -0.00215,  -0.00304,   0.00077,478207838.69912,   0.00333,278207841.93891,  -0.00072,  -0.00201,   0.00100,  -3.23979,   1.00000
-505051538.23603,-443296082.43686,-18260159.41052,  -0.00217,  -0.00305,   0.00076,478227356.92848,   0.00335,278227363.57692,  -0.00074,  -0.00202,   0.00100,  -6.64844,   1.00000
-505651117.13968,-442279384.74770,-18842151.89216,  -0.00219,  -0.00305,   0.00075,478246925.25479,   0.00337,278246932.31956,  -0.00075,  -0.00203,   0.00100,  -7.06476,   1.00000
-506239338.93898,-441265224.58930,-19418768.01109,  -0.00221,  -0.00306,   0.00074,478266365.93177,   0.00339,278266374.18955,  -0.00077,  -0.00204,   0.00099,  -8.25778,   1.00000
-506815372.96741,-440252469.35495,-19998819.06669,  -0.00223,  -0.00306,   0.00073,478285686.47354,   0.00341,278285693.51644,  -0.00078,  -0.00205,   0.00099,  -7.04290,   1.00000
-507378234.11646,-439246810.98668,-20571527.28671,  -0.00225,  -0.00306,   0.00072,478305054.66921,   0.00343,278305056.10556,  -0.00080,  -0.00206,   0.00099,  -1.43635,   1.00000
-507938527.95704,-438230357.19157,-21140277.69709,  -0.00227,  -0.00307,   0.00071,478324205.56854,   0.00344,278324214.22438,  -0.00082,  -0.00207,   0.00098,  -8.65585,   1.00000
-508483513.99124,-437218951.53834,-21719139.10041,  -0.00229,  -0.00307,   0.00070,478343422.37892,   0.00346,278343425.53575,  -0.00083,  -0.00208,   0.00098,  -3.15683,   1.00000
-509019688.04446,-436210446.52275,-22284488.85647,  -0.00231,  -0.00308,   0.00069,478362505.21178,   0.00348,278362505.63848,  -0.00085,  -0.00208,   0.00098,  -0.42669,   1.00000
-509544745.09149,-435202532.54798,-22853845.17842,  -0.00233,  -0.00308,   0.00067,478381461.59159,   0.00350,278381464.09571,  -0.00086,  -0.00209,   0.00097,  -2.50412,   1.00000
-510056333.47397,-434200564.61786,-23424755.81629,  -0.00235,  -0.00308,   0.00066,478400463.21594,   0.00352,278400471.70376,  -0.00088,  -0.00210,   0.00097,  -8.48782,   1.00000
-510566324.93963,-433186581.68733,-23992297.77470,  -0.00237,  -0.00309,   0.00065,478419268.78898,   0.00354,278419276.11125,  -0.00089,  -0.00211,   0.00096,  -7.32227,   1.00000
-511057963.24086,-432186157.32057,-24562913.77908,  -0.00239,  -0.00309,   0.00064,478438030.75240,   0.00355,278438036.56980,  -0.00091,  -0.00212,   0.00096,  -5.81741,   1.00000
-511545777.47666,-431179127.89384,-25127743.68445,  -0.00241,  -0.00309,   0.00063,478456759.88886,   0.00357,278456764.84515,  -0.00092,  -0.00213,   0.00096,  -4.95629,   1.00000
-512023312.19715,-430171820.53599,-25697009.77615,  -0.00243,  -0.00310,   0.00062,478475366.12262,   0.00359,278475372.75936,  -0.00094,  -0.00214,   0.00095,  -6.63673,   1.00000
-512497200.44904,-429157718.90829,-26260613.58810,  -0.00245,  -0.00310,   0.00061,478493947.87515,   0.00361,278493949.34661,  -0.00095,  -0.00215,   0.00095,  -1.47146,   1.00000
-512956111.28907,-428150511.88032,-26830418.80845,  -0.00247,  -0.00310,   0.00060,478512304.36838,   0.00363,278512311.50973,  -0.00097,  -0.00216,   0.00095,  -7.14134,   1.00000
-513404179.57640,-427150203.13822,-27393400.82521,  -0.00248,  -0.00311,   0.00058,478530712.99111,   0.00364,278530718.80730,  -0.00098,  -0.00217,   0.00094,  -5.81618,   1.00000
-513856528.38951,-426128658.57465,-27952272.12613,  -0.00250,  -0.00311,   0.00057,478549016.12661,   0.00366,278549019.33175,  -0.00100,  -0.00217,   0.00094,  -3.20514,   1.00000
-514285317.06032,-425126231.31120,-28525017.98827,  -0.00252,  -0.00311,   0.00056,478567185.65511,   0.00368,278567187.56939,  -0.00101,  -0.00218,   0.00093,  -1.91428,   1.00000
-514712857.89227,-424117680.04711,-29083775.64106,  -0.00254,  -0.00312,   0.00055,478585318.87753,   0.00370,278585319.25992,  -0.00103,  -0.00219,   0.00093,  -0.38239,   1.00000
-515131098.49334,-423107565.56625,-29647660.72620,  -0.00256,  -0.00312,   0.00054,478603329.49425,   0.00371,278603331.77026,  -0.00104,  -0.00220,   0.00092,  -2.27602,   1.00000
-515537460.65613,-422102878.04485,-30213513.56945,  -0.00258,  -0.00312,   0.00053,478621391.41211,   0.00373,278621396.94228,  -0.00106,  -0.00221,   0.00092,  -5.53017,   1.00000
-515943832.15349,-421083111.58102,-30777415.63846,  -0.00260,  -0.00312,   0.00051,478639257.15710,   0.00375,278639261.34344,  -0.00107,  -0.00221,   0.00092,  -4.18633,   1.00000
-516331248.82127,-420084510.72442,-31338489.48378,  -0.00262,  -0.00313,   0.00050,478656972.57689,   0.00376,278656979.12103,  -0.00109,  -0.00222,   0.00091,  -6.54414,   1.00000
-516721601.92673,-419061578.54223,-31904624.32900,  -0.00263,  -0.00313,   0.00049,478674592.49314,   0.00378,278674599.73137,  -0.00110,  -0.00223,   0.00091,  -7.23823,   1.00000
-517100376.96062,-418043875.96423,-32472838.12719,  -0.00265,  -0.00313,   0.00048,478692272.63967,   0.00380,278692274.52486,  -0.00111,  -0.00224,   0.00090,  -1.88519,   1.00000
-517467944.91610,-417032024.63850,-33039986.63257,  -0.00267,  -0.00313,   0.00047,478709725.18420,   0.00382,278709727.19841,  -0.00113,  -0.00224,   0.00090,  -2.01421,   1.00000
-517826273.45266,-416026752.20016,-33600720.58214,  -0.00269,  -0.00313,   0.00046,478727219.34999,   0.00383,278727226.43137,  -0.00114,  -0.00225,   0.00089,  -7.08138,   1.00000
-518183194.45665,-415003232.72893,-34168803.33152,  -0.00271,  -0.00314,   0.00044,478744531.78159,   0.00385,278744533.07367,  -0.00116,  -0.00226,   0.00089,  -1.29208,   1.00000
-518526721.49539,-413993188.07002,-34732587.63690,  -0.00272,  -0.00314,   0.00043,478761786.35479,   0.00387,278761789.14630,  -0.00117,  -0.00227,   0.00088,  -2.79150,   1.00000
-518868864.66696,-412964263.02719,-35303923.33230,  -0.00274,  -0.00314,   0.00042,478778846.61019,   0.00388,278778853.36879,  -0.00119,  -0.00227,   0.00088,  -6.75860,   1.00000
-519195778.05823,-411947005.66549,-35879620.86997,  -0.00276,  -0.00314,   0.00041,478795871.83509,   0.00390,278795875.19009,  -0.00120,  -0.00228,   0.00087,  -3.35501,   1.00000
-519522985.45935,-410922235.88378,-36442105.22440,  -0.00278,  -0.00314,   0.00039,478812855.59799,   0.00392,278812862.13946,  -0.00121,  -0.00229,   0.00087,  -6.54147,   1.00000
-519835685.36271,-409898450.23730,-37021542.72719,  -0.00279,  -0.00314,   0.00038,478829637.08708,   0.00393,278829642.01530,  -0.00123,  -0.00229,   0.00086,  -4.92822,   1.00000
-520148842.55153,-408866900.48621,-37587871.80235,  -0.00281,  -0.00315,   0.00037,478846384.54859,   0.00395,278846387.37764,  -0.00124,  -0.00230,   0.00086,  -2.82905,   1.00000
-520453894.25820,-407830832.71204,-38160573.55112,  -0.00283,  -0.00315,   0.00036,478863015.06467,   0.00396,278863016.37409,  -0.00126,  -0.00231,   0.00085,  -1.30941,   1.00000
-520744252.65617,-406805901.75418,-38737952.27479,  -0.00285,  -0.00315,   0.00034,478879598.57432,   0.00398,278879603.12539,  -0.00127,  -0.00231,   0.00085,  -4.55107,   1.00000
-521031579.11359,-405768243.27067,-39317354.92664,  -0.00286,  -0.00315,   0.00033,478895884.64549,   0.00400,278895891.77350,  -0.00128,  -0.00232,   0.00084,  -7.12802,   1.00000
-521314763.94860,-404730186.95069,-39888284.89541,  -0.00288,  -0.00315,   0.00032,478912321.08033,   0.00401,278912328.62199,  -0.00130,  -0.00232,   0.00084,  -7.54167,   1.00000
-521586085.57129,-403693246.17075,-40468291.51551,  -0.00290,  -0.00315,   0.00031,478928543.18598,   0.00403,278928549.75253,  -0.00131,  -0.00233,   0.00083,  -6.56655,   1.00000
-521849546.83062,-402650662.75249,-41054989.35665,  -0.00291,  -0.00315,   0.00029,478944648.47948,   0.00404,278944655.52771,  -0.00132,  -0.00234,   0.00083,  -7.04823,   1.00000
-522107616.79120,-401604019.18214,-41639926.07057,  -0.00293,  -0.00315,   0.00028,478960629.60871,   0.00406,278960636.82070,  -0.00134,  -0.00234,   0.00082,  -7.21199,   1.00000
-522360350.05809,-400553128.28774,-42223222.42758,  -0.00295,  -0.00315,   0.00027,478976484.93550,   0.00407,278976493.50493,  -0.00135,  -0.00235,   0.00082,  -8.56944,   1.00000
-522601567.20164,-399514344.63284,-42803138.19195,  -0.00296,  -0.00315,   0.00026,478992288.97927,   0.00409,278992298.26094,  -0.00136,  -0.00235,   0.00081,  -9.28167,   1.00000
-522842513.74517,-398444393.02987,-43397849.60117,  -0.00298,  -0.00315,   0.00024,479008017.18439,   0.00410,279008026.27632,  -0.00138,  -0.00236,   0.00081,  -9.09193,   1.00000
-523070827.93009,-397394402.61985,-43983372.65641,  -0.00300,  -0.00315,   0.00023,479023584.26554,   0.00412,279023591.56825,  -0.00139,  -0.00236,   0.00080,  -7.30271,   1.00000
-523297508.74123,-396320644.22163,-44578004.30587,  -0.00301,  -0.00315,   0.00022,479038960.11787,   0.00413,279038969.64131,  -0.00140,  -0.00237,   0.00080,  -9.52343,   1.00000
-523510257.25027,-395256633.64603,-45177911.62195,  -0.00303,  -0.00315,   0.00020,479054302.79154,   0.00415,279054306.57315,  -0.00142,  -0.00238,   0.00079,  -3.78161,   1.00000
-523720678.79765,-394189096.48421,-45768183.89172,  -0.00304,  -0.00315,   0.00019,479069506.41030,   0.00416,279069508.52199,  -0.00143,  -0.00238,   0.00079,  -2.11169,   1.00000
-523924236.04875,-393106109.42280,-46371527.44454,  -0.00306,  -0.00315,   0.00018,479084706.48934,   0.00418,279084709.70645,  -0.00144,  -0.00239,   0.00078,  -3.21711,   1.00000
-524121806.69509,-392025158.43498,-46968200.28958,  -0.00307,  -0.00315,   0.00016,479099670.53396,   0.00419,279099673.58422,  -0.00145,  -0.00239,   0.00077,  -3.05025,   1.00000
-524302870.77987,-390951437.91080,-47578831.67110,  -0.00309,  -0.00315,   0.00015,479114601.68727,   0.00421,279114607.29149,  -0.00147,  -0.00240,   0.00077,  -5.60422,   1.00000
-524487643.32715,-389856073.43684,-48182168.79206,  -0.00311,  -0.00315,   0.00014,479129332.19884,   0.00422,279129333.60650,  -0.00148,  -0.00240,   0.00076,  -1.40766,   1.00000
-524658760.95150,-388769672.11473,-48791133.58163,  -0.00312,  -0.00315,   0.00012,479144010.79494,   0.00424,279144019.08484,  -0.00149,  -0.00240,   0.00076,  -8.28990,   1.00000
-524827628.55033,-387656983.35203,-49409863.22502,  -0.00314,  -0.00315,   0.00011,479158517.52784,   0.00425,279158520.24386,  -0.00150,  -0.00241,   0.00075,  -2.71601,   1.00000
-524985212.91426,-386562654.30096,-50020456.93647,  -0.00315,  -0.00315,   0.00010,479172850.27675,   0.00426,279172854.16531,  -0.00152,  -0.00241,   0.00075,  -3.88856,   1.00000
-525138451.16471,-385453582.80681,-50635917.31546,  -0.00317,  -0.00315,   0.00008,479187174.58458,   0.00428,279187179.44775,  -0.00153,  -0.00242,   0.00074,  -4.86316,   1.00000
-525280075.83417,-384340522.87309,-51262378.54564,  -0.00318,  -0.00315,   0.00007,479201284.38085,   0.00429,279201288.67383,  -0.00154,  -0.00242,   0.00074,  -4.29298,   1.00000
-525420236.36490,-383214490.25864,-51885301.59100,  -0.00319,  -0.00315,   0.00006,479215375.21177,   0.00431,279215378.77882,  -0.00155,  -0.00243,   0.00073,  -3.56706,   1.00000
-525548648.04676,-382083888.17879,-52519416.60671,  -0.00321,  -0.00314,   0.00004,479229251.56851,   0.00432,279229253.13666,  -0.00156,  -0.00243,   0.00073,  -1.56815,   1.00000
-525669890.09301,-380965513.24404,-53142724.84948,  -0.00322,  -0.00314,   0.00003,479243052.91653,   0.00433,279243062.69265,  -0.00157,  -0.00244,   0.00072,  -9.77612,   1.00000
-525788194.20744,-379818541.81268,-53776465.59409,  -0.00324,  -0.00314,   0.00002,479256684.25367,   0.00435,279256689.69854,  -0.00159,  -0.00244,   0.00071,  -5.44487,   1.00000
-525892936.80437,-378679222.94955,-54416251.21564,  -0.00325,  -0.00314,   0.00000,479270269.68064,   0.00436,279270277.29457,  -0.00160,  -0.00244,   0.00071,  -7.61393,   1.00000
-525997657.54669,-377512839.49512,-55058210.83060,  -0.00327,  -0.00314,  -0.00001,479283663.60605,   0.00437,279283670.85361,  -0.00161,  -0.00245,   0.00070,  -7.24755,   1.00000
-526088611.93884,-376361035.72090,-55701326.61405,  -0.00328,  -0.00314,  -0.00003,479296896.82916,   0.00439,279296906.25564,  -0.00162,  -0.00245,   0.00070,  -9.42648,   1.00000
-526171060.64323,-375197807.70548,-56352916.13251,  -0.00329,  -0.00314,  -0.00004,479310030.15160,   0.00440,279310031.55399,  -0.00163,  -0.00245,   0.00069,  -1.40239,   1.00000
-526248254.83340,-374025154.78956,-57004693.35770,  -0.00331,  -0.00313,  -0.00005,479323025.06052,   0.00441,279323033.88519,  -0.00164,  -0.00246,   0.00069,  -8.82466,   1.00000
-526316710.71266,-372840609.18634,-57665050.14648,  -0.00332,  -0.00313,  -0.00007,479335926.89466,   0.00442,279335927.01596,  -0.00165,  -0.00246,   0.00068,  -0.12130,   1.00000
-526379744.29843,-371646197.33921,-58325717.64625,  -0.00333,  -0.00313,  -0.00008,479348692.39034,   0.00444,279348697.75432,  -0.00166,  -0.00246,   0.00068,  -5.36398,   1.00000
-526433865.54420,-370446358.33821,-58990344.49877,  -0.00335,  -0.00313,  -0.00010,479361234.38733,   0.00445,279361238.72373,  -0.00167,  -0.00247,   0.00067,  -4.33640,   1.00000
-526474305.33623,-369252854.49445,-59661411.56894,  -0.00336,  -0.00312,  -0.00011,479373733.90641,   0.00446,279373741.43339,  -0.00168,  -0.00247,   0.00066,  -7.52698,   1.00000
-526513797.53749,-368029597.61338,-60335389.30682,  -0.00337,  -0.00312,  -0.00012,479386045.14485,   0.00447,279386051.64942,  -0.00169,  -0.00247,   0.00066,  -6.50457,   1.00000
-526543124.98076,-366814744.84042,-61007632.77980,  -0.00338,  -0.00312,  -0.00014,479398301.23994,   0.00448,279398309.53852,  -0.00170,  -0.00248,   0.00065,  -8.29859,   1.00000
-526559684.80562,-365590826.13519,-61692557.78382,  -0.00340,  -0.00312,  -0.00015,479410344.79552,   0.00450,279410351.47597,  -0.00171,  -0.00248,   0.00065,  -6.68045,   1.00000
-526573946.22072,-364351245.82766,-62374514.68574,  -0.00341,  -0.00311,  -0.00017,479422379.63571,   0.00451,279422379.79167,  -0.00172,  -0.00248,   0.00064,  -0.15596,   1.00000
-526575444.25125,-363108572.25634,-63064905.47714,  -0.00342,  -0.00311,  -0.00018,479434065.22237,   0.00452,279434068.46603,  -0.00173,  -0.00249,   0.00064,  -3.24367,   1.00000
-526570655.83357,-361847412.20055,-63760646.72271,  -0.00343,  -0.00311,  -0.00020,479445759.55847,   0.00453,279445759.58966,  -0.00174,  -0.00249,   0.00063,  -0.03118,   1.00000
-526556306.07951,-360578227.49208,-64461243.30015,  -0.00345,  -0.00311,  -0.00021,479457211.60068,   0.00454,279457219.93766,  -0.00175,  -0.00249,   0.00063,  -8.33698,   1.00000
-526527881.90384,-359314003.96789,-65168644.29361,  -0.00346,  -0.00310,  -0.00023,479468642.37318,   0.00455,279468643.65822,  -0.00176,  -0.00249,   0.00062,  -1.28504,   1.00000
-526501140.79063,-358019707.66557,-65871485.64767,  -0.00347,  -0.00310,  -0.00024,479479859.51823,   0.00456,279479860.79567,  -0.00177,  -0.00250,   0.00062,  -1.27744,   1.00000
-526452690.34078,-356731403.49206,-66593403.34184,  -0.00348,  -0.00310,  -0.00025,479490945.07923,   0.00457,279490947.95357,  -0.00178,  -0.00250,   0.00061,  -2.87434,   1.00000
-526405572.80588,-355412279.45974,-67310943.26399,  -0.00349,  -0.00309,  -0.00027,479501824.99118,   0.00458,279501828.94304,  -0.00179,  -0.00250,   0.00061,  -3.95187,   1.00000
-526343985.78942,-354097379.44043,-68035480.81176,  -0.00350,  -0.00309,  -0.00028,479512668.65315,   0.00460,279512674.50267,  -0.00180,  -0.00250,   0.00060,  -5.84952,   1.00000
-526275677.68019,-352768789.79396,-68761444.13814,  -0.00351,  -0.00308,  -0.00030,479523391.14697,   0.00461,279523399.34113,  -0.00181,  -0.00251,   0.00060,  -8.19416,   1.00000
-526197011.47321,-351429789.95418,-69493082.49206,  -0.00352,  -0.00308,  -0.00031,479533890.85317,   0.00462,279533892.23111,  -0.00182,  -0.00251,   0.00059,  -1.37794,   1.00000
-526103617.31530,-350077374.96995,-70238632.02883,  -0.00354,  -0.00308,  -0.00033,479544166.46854,   0.00463,279544170.47640,  -0.00182,  -0.00251,   0.00059,  -4.00786,   1.00000
-525999661.95398,-348730910.08393,-70983245.18098,  -0.00355,  -0.00307,  -0.00034,479554391.59275,   0.00464,279554396.58557,  -0.00183,  -0.00251,   0.00058,  -4.99283,   1.00000
-525887525.03763,-347346304.87153,-71740273.29587,  -0.00356,  -0.00307,  -0.00036,479564444.40341,   0.00465,279564452.32220,  -0.00184,  -0.00251,   0.00058,  -7.91879,   1.00000
-525764630.46561,-345967333.40022,-72496440.13902,  -0.00357,  -0.00307,  -0.00037,479574453.79091,   0.00466,279574456.55320,  -0.00185,  -0.00252,   0.00057,  -2.76229,   1.00000
-525633692.63598,-344555186.95552,-73261457.42319,  -0.00358,  -0.00306,  -0.00039,479584157.25197,   0.00467,279584160.97007,  -0.00186,  -0.00252,   0.00057,  -3.71810,   1.00000
-525491828.98031,-343148261.89039,-74025765.69926,  -0.00359,  -0.00306,  -0.00040,479593813.73550,   0.00467,279593813.81232,  -0.00186,  -0.00252,   0.00056,  -0.07682,   1.00000
-525333967.88554,-341725614.68450,-74804574.21946,  -0.00360,  -0.00305,  -0.00042,479603245.84806,   0.00468,279603252.92680,  -0.00187,  -0.00252,   0.00056,  -7.07874,   1.00000
-525167961.12679,-340286599.26225,-75585444.55105,  -0.00361,  -0.00305,  -0.00043,479612568.41554,   0.00469,279612573.26653,  -0.00188,  -0.00252,   0.00055,  -4.85099,   1.00000
-524989939.59125,-338833689.09002,-76373003.45776,  -0.00362,  -0.00304,  -0.00045,479621657.70428,   0.00470,279621661.24567,  -0.00189,  -0.00252,   0.00055,  -3.54138,   1.00000
-524800706.38614,-337385164.78820,-77160100.33739,  -0.00362,  -0.00304,  -0.00046,479630692.60602,   0.00471,279630697.56209,  -0.00189,  -0.00253,   0.00054,  -4.95607,   1.00000
-524600857.55781,-335895232.55964,-77960182.73249,  -0.00363,  -0.00303,  -0.00048,479639562.82959,   0.00472,279639568.28022,  -0.00190,  -0.00253,   0.00054,  -5.45063,   1.00000
-524385771.33183,-334411796.93477,-78764551.09308,  -0.00364,  -0.00303,  -0.00049,479648269.62369,   0.00473,279648273.42878,  -0.00191,  -0.00253,   0.00053,  -3.80509,   1.00000
-524159293.35995,-332886051.73638,-79582006.18761,  -0.00365,  -0.00302,  -0.00051,479656812.45578,   0.00474,279656814.84947,  -0.00192,  -0.00253,   0.00053,  -2.39369,   1.00000
-523921956.03454,-331368869.53538,-80396007.73530,  -0.00366,  -0.00302,  -0.00052,479665166.12696,   0.00474,279665170.20775,  -0.00192,  -0.00253,   0.00052,  -4.08079,   1.00000
-523670291.64332,-329830388.59464,-81220494.41777,  -0.00367,  -0.00301,  -0.00054,479673420.09174,   0.00475,279673429.10861,  -0.00193,  -0.00253,   0.00052,  -9.01687,   1.00000
-523404956.28425,-328275142.53086,-82052448.13032,  -0.00368,  -0.00301,  -0.00055,479681450.10365,   0.00476,279681455.63285,  -0.00194,  -0.00253,   0.00051,  -5.52921,   1.00000
-523124645.60211,-326697876.57688,-82894954.74972,  -0.00368,  -0.00300,  -0.00057,479689386.02163,   0.00477,279689387.40257,  -0.00194,  -0.00254,   0.00051,  -1.38094,   1.00000
-522828107.21141,-325125141.86597,-83742326.39525,  -0.00369,  -0.00300,  -0.00058,479697151.04977,   0.00478,279697152.90305,  -0.00195,  -0.00254,   0.00051,  -1.85328,   1.00000
-522527888.51428,-323512995.90884,-84587475.89615,  -0.00370,  -0.00299,  -0.00060,479704714.77084,   0.00478,279704715.39259,  -0.00195,  -0.00254,   0.00050,  -0.62175,   1.00000
-522201029.73933,-321899112.60795,-85453384.86753,  -0.00371,  -0.00298,  -0.00061,479712152.27312,   0.00479,279712155.28186,  -0.00196,  -0.00254,   0.00050,  -3.00874,   1.00000
-521868160.08208,-320267426.37041,-86314400.26508,  -0.00372,  -0.00298,  -0.00063,479719454.93861,   0.00480,279719458.17408,  -0.00197,  -0.00254,   0.00049,  -3.23548,   1.00000
-521514764.74052,-318613501.72722,-87191335.75914,  -0.00372,  -0.00297,  -0.00064,479726541.92071,   0.00480,279726551.71104,  -0.00197,  -0.00254,   0.00049,  -9.79033,   1.00000
-521149693.80620,-316938250.83413,-88071312.12660,  -0.00373,  -0.00297,  -0.00066,479733523.82080,   0.00481,279733531.60775,  -0.00198,  -0.00254,   0.00048,  -7.78695,   1.00000
-520768473.22439,-315242631.91082,-88959613.54301,  -0.00374,  -0.00296,  -0.00068,479740277.74230,   0.00482,279740280.09826,  -0.00198,  -0.00254,   0.00048,  -2.35596,   1.00000
-520369533.30115,-313549042.39226,-89853505.33034,  -0.00374,  -0.00295,  -0.00069,479746851.55499,   0.00482,279746861.42745,  -0.00199,  -0.00254,   0.00048,  -9.87246,   1.00000
-519953895.51614,-311807142.81116,-90761230.56654,  -0.00375,  -0.00295,  -0.00071,479753282.57126,   0.00483,279753289.85079,  -0.00199,  -0.00254,   0.00047,  -7.27953,   1.00000
-519524278.32307,-310065569.48502,-91669332.22198,  -0.00376,  -0.00294,  -0.00072,479759670.39520,   0.00484,279759670.83207,  -0.00200,  -0.00254,   0.00047,  -0.43687,   1.00000
-519077123.68903,-308301757.30707,-92586162.34703,  -0.00376,  -0.00294,  -0.00074,479765814.60034,   0.00484,279765821.11264,  -0.00200,  -0.00254,   0.00047,  -6.51230,   1.00000
-518612019.33841,-306515162.00790,-93511844.04827,  -0.00377,  -0.00293,  -0.00075,479771736.29567,   0.00485,279771740.80387,  -0.00201,  -0.00255,   0.00046,  -4.50820,   1.00000
-518127503.87023,-304701730.67181,-94448598.32155,  -0.00377,  -0.00292,  -0.00077,479777574.48424,   0.00485,279777575.61280,  -0.00201,  -0.00255,   0.00046,  -1.12856,   1.00000
-517623607.33230,-302888061.30977,-95391451.93424,  -0.00378,  -0.00292,  -0.00078,479783235.37303,   0.00486,279783243.95818,  -0.00202,  -0.00255,   0.00046,  -8.58515,   1.00000
-517105571.58824,-301026051.99513,-96340749.52135,  -0.00379,  -0.00291,  -0.00080,479788732.17542,   0.00487,279788740.65271,  -0.00202,  -0.00255,   0.00045,  -8.47729,   1.00000
-516567524.31848,-299163009.89828,-97296335.96262,  -0.00379,  -0.00290,  -0.00082,479794069.63442,   0.00487,279794071.05831,  -0.00202,  -0.00255,   0.00045,  -1.42389,   1.00000
-516014168.57667,-297274519.79057,-98255555.64093,  -0.00380,  -0.00289,  -0.00083,479799292.16575,   0.00488,279799293.78232,  -0.00203,  -0.00255,   0.00045,  -1.61657,   1.00000
-515429795.71371,-295357345.54411,-99237430.16798,  -0.00380,  -0.00289,  -0.00085,479804191.56051,   0.00488,279804193.53182,  -0.00203,  -0.00255,   0.00044,  -1.97131,   1.00000
-514839784.07298,-293416795.62572,-100209732.06279,  -0.00381,  -0.00288,  -0.00086,479809077.35946,   0.00489,279809082.21032,  -0.00203,  -0.00255,   0.00044,  -4.85087,   1.00000
-514217785.81368,-291470484.85045,-101201983.06397,  -0.00381,  -0.00287,  -0.00088,479813705.06112,   0.00489,279813710.26153,  -0.00204,  -0.00255,   0.00044,  -5.20041,   1.00000
-513578493.28510,-289472705.59044,-102200966.41667,  -0.00381,  -0.00286,  -0.00089,479818166.25889,   0.00489,279818172.68938,  -0.00204,  -0.00255,   0.00043,  -6.43049,   1.00000
-512916194.99328,-287468865.56855,-103208214.45147,  -0.00382,  -0.00286,  -0.00091,479822614.76715,   0.00490,279822621.39666,  -0.00204,  -0.00255,   0.00043,  -6.62952,   1.00000
-512231706.30662,-285438880.00014,-104223823.73026,  -0.00382,  -0.00285,  -0.00093,479826684.24304,   0.00490,279826693.17636,  -0.00205,  -0.00255,   0.00043,  -8.93332,   1.00000
-511529606.32260,-283405115.41135,-105240402.09137,  -0.00383,  -0.00284,  -0.00094,479830717.19801,   0.00491,279830723.16115,  -0.00205,  -0.00255,   0.00043,  -5.96314,   1.00000
-510802018.21431,-281314948.21974,-106271196.76188,  -0.00383,  -0.00283,  -0.00096,479834617.74115,   0.00491,279834621.30538,  -0.00205,  -0.00255,   0.00042,  -3.56423,   1.00000
-510050708.86840,-279219476.06811,-107309039.88815,  -0.00383,  -0.00283,  -0.00097,479838347.63351,   0.00491,279838356.15540,  -0.00206,  -0.00255,   0.00042,  -8.52190,   1.00000
-509273154.17951,-277068299.69307,-108359924.74273,  -0.00384,  -0.00282,  -0.00099,479841808.54284,   0.00492,279841808.93978,  -0.00206,  -0.00255,   0.00042,  -0.39694,   1.00000
-508470833.45491,-274910747.58622,-109418005.28737,  -0.00384,  -0.00281,  -0.00101,479845089.90410,   0.00492,279845099.63324,  -0.00206,  -0.00255,   0.00042,  -9.72914,   1.00000
-507642909.66910,-272744904.88886,-110484354.90929,  -0.00384,  -0.00280,  -0.00102,479848380.01614,   0.00492,279848383.64174,  -0.00206,  -0.00255,   0.00041,  -3.62560,   1.00000
-506792872.58559,-270524264.96012,-111556706.41755,  -0.00384,  -0.00279,  -0.00104,479851352.53818,   0.00493,279851357.79217,  -0.00207,  -0.00255,   0.00041,  -5.25399,   1.00000
-505916324.19572,-268294672.83086,-112637276.73394,  -0.00385,  -0.00279,  -0.00105,479854323.94359,   0.00493,279854328.14266,  -0.00207,  -0.00255,   0.00041,  -4.19907,   1.00000
-505003839.23555,-266004135.94333,-113737524.43300,  -0.00385,  -0.00278,  -0.00107,479856896.86627,   0.00493,279856897.67289,  -0.00207,  -0.00255,   0.00041,  -0.80662,   1.00000
-504076542.28645,-263709642.42722,-114831686.23033,  -0.00385,  -0.00277,  -0.00109,479859395.82106,   0.00494,279859401.58132,  -0.00207,  -0.00255,   0.00041,  -5.76026,   1.00000
-503121514.45738,-261405257.66177,-115934014.92898,  -0.00385,  -0.00276,  -0.00110,479861902.39886,   0.00494,279861905.31289,  -0.00207,  -0.00255,   0.00041,  -2.91403,   1.00000
-502134229.75849,-259039716.27277,-117049755.75016,  -0.00386,  -0.00275,  -0.00112,479864133.74814,   0.00494,279864137.75535,  -0.00208,  -0.00255,   0.00040,  -4.00721,   1.00000
-501111739.93890,-256661180.06132,-118180093.63268,  -0.00386,  -0.00274,  -0.00113,479866242.12675,   0.00494,279866247.75900,  -0.00208,  -0.00255,   0.00040,  -5.63225,   1.00000
-500064202.72613,-254248895.19226,-119313959.80349,  -0.00386,  -0.00273,  -0.00115,479868106.35658,   0.00494,279868111.89715,  -0.00208,  -0.00255,   0.00040,  -5.54057,   1.00000
-498984276.38652,-251799291.37673,-120458410.93948,  -0.00386,  -0.00272,  -0.00117,479869763.90968,   0.00495,279869765.64711,  -0.00208,  -0.00255,   0.00040,  -1.73743,   1.00000
-497873978.65909,-249337980.40013,-121610777.54648,  -0.00386,  -0.00271,  -0.00118,479871418.62127,   0.00495,279871428.21461,  -0.00208,  -0.00255,   0.00040,  -9.59334,   1.00000
-496733702.08567,-246814704.98616,-122769715.38982,  -0.00386,  -0.00271,  -0.00120,479872791.78848,   0.00495,279872793.27940,  -0.00208,  -0.00255,   0.00040,  -1.49092,   1.00000
-495561958.34518,-244279047.84615,-123936419.81449,  -0.00386,  -0.00270,  -0.00121,479874163.62157,   0.00495,279874171.32706,  -0.00208,  -0.00255,   0.00040,  -7.70549,   1.00000
-494347823.63835,-241700447.89547,-125120519.28454,  -0.00386,  -0.00269,  -0.00123,479875212.83913,   0.00495,279875218.03409,  -0.00208,  -0.00255,   0.00040,  -5.19496,   1.00000
-493107984.37418,-239111594.52803,-126305452.36715,  -0.00386,  -0.00268,  -0.00125,479876238.59293,   0.00495,279876244.47143,  -0.00208,  -0.00255,   0.00040,  -5.87850,   1.00000
-491835015.33813,-236458628.43201,-127496852.10492,  -0.00386,  -0.00267,  -0.00126,479877144.71613,   0.00495,279877146.59179,  -0.00208,  -0.00255,   0.00040,  -1.87566,   1.00000
-490520475.94531,-233787296.93768,-128702872.80764,  -0.00386,  -0.00266,  -0.00128,479877765.45077,   0.00495,279877775.20267,  -0.00208,  -0.00255,   0.00040,  -9.75190,   1.00000
-489174833.11314,-231077641.85034,-129912389.16935,  -0.00386,  -0.00265,  -0.00129,479878332.08547,   0.00495,279878336.90236,  -0.00209,  -0.00255,   0.00039,  -4.81689,   1.00000
-487793805.89364,-228352380.95666,-131129563.62837,  -0.00386,  -0.00264,  -0.00131,479878752.74610,   0.00495,279878756.24029,  -0.00209,  -0.00255,   0.00039,  -3.49419,   1.00000
-486372583.00607,-225583757.04527,-132357178.03845,  -0.00386,  -0.00263,  -0.00133,479878978.57610,   0.00495,279878983.85672,  -0.00209,  -0.00255,   0.00039,  -5.28062,   1.00000
-484910169.09765,-222771064.92008,-133595171.49129,  -0.00386,  -0.00262,  -0.00134,479879020.41748,   0.00495,279879022.50706,  -0.00209,  -0.00255,   0.00039,  -2.08958,   1.00000
-483410582.47343,-219917012.95786,-134835298.84622,  -0.00386,  -0.00261,  -0.00136,479875760.95348,   0.00495,279879022.50706,  -0.00209,  -0.00255,   0.00039,-3261.55359,   0.00000
-481836236.39874,-217005792.00411,-136084221.43061,  -0.00386,  -0.00260,  -0.00137,479847021.81150,   0.00495,279879022.50706,  -0.00209,  -0.00255,   0.00039,-32000.69556,   0.00000
-480200323.71778,-214068185.36195,-137324348.78553,  -0.00385,  -0.00259,  -0.00139,479787304.21140,   0.00495,279879022.50706,  -0.00209,  -0.00255,   0.00039,-91718.29566,   0.00000
-478489651.58634,-211073409.72825,-138564476.14045,  -0.00385,  -0.00258,  -0.00141,479695977.50424,   0.00495,279879022.50706,  -0.00209,  -0.00255,   0.00039,-183045.00282,   0.00000
-476748196.15177,-208065441.25035,-139813398.72484,  -0.00385,  -0.00257,  -0.00142,479612975.18730,   0.00495,279879022.50706,  -0.00209,  -0.00255,   0.00039,-266047.31976,   0.00000
-474918788.42252,-204969520.47778,-141053526.07976,  -0.00385,  -0.00256,  -0.00144,479483863.38996,   0.00495,279879022.50706,  -0.00209,  -0.00255,   0.00039,-395159.11710,   0.00000
-473027814.08700,-201847214.01681,-142302448.66415,  -0.00384,  -0.00255,  -0.00146,479341449.24865,   0.00495,279879022.50706,  -0.00209,  -0.00255,   0.00039,-537573.25841,   0.00000
-471075273.14521,-198698521.86743,-143542576.01908,  -0.00384,  -0.00254,  -0.00147,479170604.78442,   0.00495,279879022.50706,  -0.00209,  -0.00255,   0.00039,-708417.72265,   0.00000
-469065563.21188,-195475070.26758,-144791498.60347,  -0.00384,  -0.00253,  -0.00149,478994901.81208,   0.00495,279879022.50706,  -0.00209,  -0.00255,   0.00039,-884120.69499,   0.00000
-466963503.36914,-192212040.13512,-146031625.95839,  -0.00384,  -0.00251,  -0.00150,478769340.64392,   0.00495,279879022.50706,  -0.00209,  -0.00255,   0.00039,-1109681.86315,   0.00000
-464817467.37906,-188905033.85533,-147271753.31331,  -0.00383,  -0.00250,  -0.00152,478540424.99742,   0.00495,279879022.50706,  -0.00209,  -0.00255,   0.00039,-1338597.50965,   0.00000
-462609864.78271,-185571641.88713,-148520675.89770,  -0.00383,  -0.00249,  -0.00154,478301811.21691,   0.00495,279879022.50706,  -0.00209,  -0.00255,   0.00039,-1577211.29015,   0.00000
-460358286.03902,-182194273.77159,-149760803.25263,  -0.00383,  -0.00248,  -0.00155,478053088.99006,   0.00495,279879022.50706,  -0.00209,  -0.00255,   0.00039,-1825933.51700,   0.00000
-458001164.54172,-178746543.82032,-151009725.83702,  -0.00382,  -0.00247,  -0.00157,477766763.50901,   0.00495,279879022.50706,  -0.00209,  -0.00255,   0.00039,-2112258.99805,   0.00000
-455600066.89708,-175254837.72171,-152249853.19194,  -0.00382,  -0.00246,  -0.00159,477472110.91575,   0.00495,279879022.50706,  -0.00209,  -0.00255,   0.00039,-2406911.59132,   0.00000
-453137402.64617,-171736745.93469,-153489980.54686,  -0.00381,  -0.00245,  -0.00160,477162650.43927,   0.00495,279879022.50706,  -0.00209,  -0.00255,   0.00039,-2716372.06779,   0.00000
-450599978.94478,-168161485.15614,-154730107.90178,  -0.00381,  -0.00244,  -0.00162,476832552.70396,   0.00495,279879022.50706,  -0.00209,  -0.00255,   0.00039,-3046469.80311,   0.00000
-448000988.63713,-164559838.68918,-155979030.48617,  -0.00380,  -0.00243,  -0.00163,476497880.12199,   0.00495,279879022.50706,  -0.00209,  -0.00255,   0.00039,-3381142.38507,   0.00000
-445327238.87900,-160901023.23069,-157219157.84110,  -0.00380,  -0.00241,  -0.00165,476135979.87648,   0.00495,279879022.50706,  -0.00209,  -0.00255,   0.00039,-3743042.63058,   0.00000
-442609512.97353,-157198231.62485,-158459285.19602,  -0.00379,  -0.00240,  -0.00167,475778380.60947,   0.00495,279879022.50706,  -0.00209,  -0.00255,   0.00039,-4100641.89759,   0.00000
-439830220.46179,-153469054.33062,-159699412.55094,  -0.00379,  -0.00239,  -0.00168,475410088.84504,   0.00495,279879022.50706,  -0.00209,  -0.00255,   0.00039,-4468933.66202,   0.00000
-436962975.65537,-149651924.74171,-160939539.90586,  -0.00378,  -0.00238,  -0.00170,475020627.80487,   0.00495,279879022.50706,  -0.00209,  -0.00255,   0.00039,-4858394.70219,   0.00000
-434047357.08688,-145839192.76753,-162179667.26079,  -0.00378,  -0.00237,  -0.00171,474628060.25268,   0.00495,279879022.50706,  -0.00209,  -0.00255,   0.00039,-5250962.25439,   0.00000
-431043786.22372,-141938508.49868,-163419794.61571,  -0.00377,  -0.00236,  -0.00173,474216892.92919,   0.00495,279879022.50706,  -0.00209,  -0.00255,   0.00039,-5662129.57788,   0.00000
-428022624.90162,-138055414.68876,-164659921.97063,  -0.00376,  -0.00234,  -0.00175,473825383.11673,   0.00495,279879022.50706,  -0.00209,  -0.00255,   0.00039,-6053639.39033,   0.00000
-424913511.28484,-134084368.58417,-165891254.09609,  -0.00376,  -0.00233,  -0.00176,473408464.92668,   0.00495,279879022.50706,  -0.00209,  -0.00255,   0.00039,-6470557.58038,   0.00000
-421712047.75866,-130073743.94697,-167131381.45101,  -0.00375,  -0.00232,  -0.00178,472974905.43034,   0.00495,279879022.50706,  -0.00209,  -0.00255,   0.00039,-6904117.07672,   0.00000
-418466608.08514,-126019143.16244,-168371508.80593,  -0.00374,  -0.00231,  -0.00179,472553931.38292,   0.00495,279879022.50706,  -0.00209,  -0.00255,   0.00039,-7325091.12414,   0.00000
-415190385.10848,-121951349.53370,-169602840.93139,  -0.00374,  -0.00230,  -0.00181,472141430.84273,   0.00495,279879022.50706,  -0.00209,  -0.00255,   0.00039,-7737591.66434,   0.00000
-411808619.37821,-117813194.06923,-170834173.05684,  -0.00373,  -0.00228,  -0.00183,471701964.11383,   0.00495,279879022.50706,  -0.00209,  -0.00255,   0.00039,-8177058.39323,   0.00000
-408382877.50061,-113631062.45741,-172065505.18230,  -0.00372,  -0.00227,  -0.00184,471278290.34657,   0.00495,279879022.50706,  -0.00209,  -0.00255,   0.00039,-8600732.16049,   0.00000
-404864785.71359,-109409352.31299,-173305632.53722,  -0.00371,  -0.00226,  -0.00186,470844383.96627,   0.00495,279879022.50706,  -0.00209,  -0.00255,   0.00039,-9034638.54079,   0.00000
-401302717.77924,-105143666.02124,-174536964.66268,  -0.00371,  -0.00225,  -0.00187,470419046.13948,   0.00495,279879022.50706,  -0.00209,  -0.00255,   0.00039,-9459976.36759,   0.00000
-397679083.23862,-100851594.04108,-175759501.55866,  -0.00370,  -0.00223,  -0.00189,469986526.36982,   0.00495,279879022.50706,  -0.00209,  -0.00255,   0.00039,-9892496.13724,   0.00000
-393980689.24752,-96502353.06938,-176990833.68412,  -0.00369,  -0.00222,  -0.00191,469564361.61211,   0.00495,279879022.50706,  -0.00209,  -0.00255,   0.00039,-10314660.89495,   0.00000
-390238319.10908,-92109135.95035,-178222165.80957,  -0.00368,  -0.00221,  -0.00192,469164092.18557,   0.00495,279879022.50706,  -0.00209,  -0.00255,   0.00039,-10714930.32149,   0.00000
-386403599.06123,-87676340.29871,-179444702.70556,  -0.00367,  -0.00220,  -0.00194,468740474.63279,   0.00495,279879022.50706,  -0.00209,  -0.00255,   0.00039,-11138547.87427,   0.00000
-382524902.86605,-83199568.49973,-180667239.60155,  -0.00366,  -0.00218,  -0.00195,468341239.96088,   0.00495,279879022.50706,  -0.00209,  -0.00255,   0.00039,-11537782.54618,   0.00000
-378584640.06459,-78696411.01236,-181898571.72700,  -0.00365,  -0.00217,  -0.00197,467960974.38841,   0.00495,279879022.50706,  -0.00209,  -0.00255,   0.00039,-11918048.11865,   0.00000
-374569617.81266,-74136084.53344,-183112313.39352,  -0.00365,  -0.00216,  -0.00199,467567953.04794,   0.00495,279879022.50706,  -0.00209,  -0.00255,   0.00039,-12311069.45912,   0.00000
-370493028.95446,-69549372.36612,-184334850.28951,  -0.00364,  -0.00214,  -0.00200,467196589.41856,   0.00495,279879022.50706,  -0.00209,  -0.00255,   0.00039,-12682433.08850,   0.00000
-366341680.64578,-64905491.20726,-185557387.18550,  -0.00363,  -0.00213,  -0.00202,466836154.18319,   0.00495,279879022.50706,  -0.00209,  -0.00255,   0.00039,-13042868.32387,   0.00000
-362159549.03397,-60248417.20420,-186771128.85202,  -0.00362,  -0.00212,  -0.00203,466497840.12939,   0.00495,279879022.50706,  -0.00209,  -0.00255,   0.00039,-13381182.37767,   0.00000
-357871874.66854,-55520981.36540,-187993665.74801,  -0.00361,  -0.00211,  -0.00205,466165545.11247,   0.00495,279879022.50706,  -0.00209,  -0.00255,   0.00039,-13713477.39460,   0.00000
-353553416.99998,-50780352.68239,-189207407.41453,  -0.00360,  -0.00209,  -0.00207,465857730.15500,   0.00495,279879022.50706,  -0.00209,  -0.00255,   0.00039,-14021292.35206,   0.00000
-349160199.88095,-45982555.00785,-190421149.08105,  -0.00358,  -0.00208,  -0.00208,465566971.01536,   0.00495,279879022.50706,  -0.00209,  -0.00255,   0.00039,-14312051.49170,   0.00000
-344692223.31144,-41127588.34177,-191626095.51810,  -0.00357,  -0.00207,  -0.00210,465284352.75621,   0.00495,279879022.50706,  -0.00209,  -0.00255,   0.00039,-14594669.75085,   0.00000
-340193463.43879,-36259428.83149,-192839837.18462,  -0.00356,  -0.00205,  -0.00211,465051315.96991,   0.00495,279879022.50706,  -0.00209,  -0.00255,   0.00039,-14827706.53715,   0.00000
-335602353.65674,-31351690.78860,-194044783.62167,  -0.00355,  -0.00204,  -0.00213,464812113.89961,   0.00495,279879022.50706,  -0.00209,  -0.00255,   0.00039,-15066908.60746,   0.00000
-330967267.72735,-26399976.59838,-195249730.05873,  -0.00354,  -0.00203,  -0.00214,464613962.56730,   0.00495,279879022.50706,  -0.00209,  -0.00255,   0.00039,-15265059.93977,   0.00000
-326226639.04435,-21377900.57242,-196454676.49578,  -0.00353,  -0.00201,  -0.00216,464424497.36494,   0.00495,279879022.50706,  -0.00209,  -0.00255,   0.00039,-15454525.14213,   0.00000
-321455227.05821,-16342631.70225,-197659622.93283,  -0.00352,  -0.00200,  -0.00218,464279118.46568,   0.00495,279879022.50706,  -0.00209,  -0.00255,   0.00039,-15599904.04138,   0.00000
-316622248.46580,-11280977.14369,-198855774.14042,  -0.00350,  -0.00198,  -0.00219,464150791.28197,   0.00495,279879022.50706,  -0.00209,  -0.00255,   0.00039,-15728231.22509,   0.00000
-311745293.72605,-6175346.43778,-200060720.57747,  -0.00349,  -0.00197,  -0.00221,464080815.83792,   0.00495,279879022.50706,  -0.00209,  -0.00255,   0.00039,-15798206.66914,   0.00000
-306762796.23269,-999353.89614,-201248076.55559,  -0.00348,  -0.00196,  -0.00222,464004539.00482,   0.00495,279879022.50706,  -0.00209,  -0.00255,   0.00039,-15874483.50225,   0.00000
-301749515.43619,4189831.48971,-202444227.76317,  -0.00347,  -0.00194,  -0.00224,463988793.44177,   0.00495,279879022.50706,  -0.00209,  -0.00255,   0.00039,-15890229.06529,   0.00000
-296674668.03342,9405402.56396,-203640378.97076,  -0.00345,  -0.00193,  -0.00225,464007410.25933,   0.00495,279879022.50706,  -0.00209,  -0.00255,   0.00039,-15871612.24773,   0.00000
-291494277.87704,14691335.47395,-204827734.94887,  -0.00344,  -0.00192,  -0.00227,464037059.52322,   0.00495,279879022.50706,  -0.00209,  -0.00255,   0.00039,-15841962.98385,   0.00000
-286313887.72066,19977268.38394,-206015090.92699,  -0.00343,  -0.00190,  -0.00228,464134846.78466,   0.00495,279879022.50706,  -0.00209,  -0.00255,   0.00039,-15744175.72240,   0.00000
-281027954.81067,25333563.12967,-207193651.67564,  -0.00341,  -0.00189,  -0.00230,464247313.53490,   0.00495,279879022.50706,  -0.00209,  -0.00255,   0.00039,-15631708.97216,   0.00000
-275680455.29441,30716243.56380,-208381007.65376,  -0.00340,  -0.00187,  -0.00231,464412534.40556,   0.00495,279879022.50706,  -0.00209,  -0.00255,   0.00039,-15466488.10150,   0.00000
-270288979.63081,36142900.14527,-209559568.40241,  -0.00339,  -0.00186,  -0.00233,464625771.42142,   0.00495,279879022.50706,  -0.00209,  -0.00255,   0.00039,-15253251.08564,   0.00000
-264835937.36094,41595942.41515,-210738129.15106,  -0.00337,  -0.00185,  -0.00235,464882860.27498,   0.00495,279879022.50706,  -0.00209,  -0.00255,   0.00039,-14996162.23209,   0.00000
-259321328.48479,47075370.37342,-211907894.67024,  -0.00336,  -0.00183,  -0.00236,465173254.77480,   0.00495,279879022.50706,  -0.00209,  -0.00255,   0.00039,-14705767.73226,   0.00000
-253731960.15817,52611967.32324,-213086455.41889,  -0.00334,  -0.00182,  -0.00238,465526343.78410,   0.00495,279879022.50706,  -0.00209,  -0.00255,   0.00039,-14352678.72296,   0.00000
-248081025.22528,58174949.96145,-214256220.93807,  -0.00333,  -0.00180,  -0.00239,465916093.02610,   0.00495,279879022.50706,  -0.00209,  -0.00255,   0.00039,-13962929.48096,   0.00000
-242386114.14505,63781908.74701,-215417191.22779,  -0.00331,  -0.00179,  -0.00241,466361134.80553,   0.00495,279879022.50706,  -0.00209,  -0.00255,   0.00039,-13517887.70154,   0.00000
-236629636.45855,69415253.22096,-216586956.74697,  -0.00330,  -0.00177,  -0.00242,466869893.93549,   0.00495,279879022.50706,  -0.00209,  -0.00255,   0.00039,-13009128.57158,   0.00000
-230767616.01844,75118959.53066,-217747927.03668,  -0.00328,  -0.00176,  -0.00244,467412080.58714,   0.00495,279879022.50706,  -0.00209,  -0.00255,   0.00039,-12466941.91992,   0.00000
-224905595.57832,80822665.84036,-218900102.09693,  -0.00327,  -0.00174,  -0.00245,468021435.54241,   0.00495,279879022.50706,  -0.00209,  -0.00255,   0.00039,-11857586.96465,   0.00000
-218951225.22880,86565950.68266,-220061072.38665,  -0.00325,  -0.00173,  -0.00247,468687156.37591,   0.00495,279879022.50706,  -0.00209,  -0.00255,   0.00039,-11191866.13116,   0.00000
-212922095.42880,92366404.51650,-221213247.44689,  -0.00323,  -0.00172,  -0.00248,469404007.58832,   0.00495,279879022.50706,  -0.00209,  -0.00255,   0.00039,-10475014.91874,   0.00000
-206862182.32567,98180051.19454,-222365422.50714,  -0.00322,  -0.00170,  -0.00250,470191628.97737,   0.00495,279879022.50706,  -0.00209,  -0.00255,   0.00039,-9687393.52970,   0.00000
-200740702.61627,104020083.56099,-223508802.33792,  -0.00320,  -0.00169,  -0.00251,471027203.35320,   0.00495,279879022.50706,  -0.00209,  -0.00255,   0.00039,-8851819.15386,   0.00000
-194544463.45639,109917284.91897,-224652182.16870,  -0.00319,  -0.00167,  -0.00253,471931102.87850,   0.00495,279879022.50706,  -0.00209,  -0.00255,   0.00039,-7947919.62857,   0.00000
-188286657.69023,115840871.96536,-225795561.99948,  -0.00317,  -0.00166,  -0.00254,472898690.14845,   0.00495,279879022.50706,  -0.00209,  -0.00255,   0.00039,-6980332.35862,   0.00000
-181998068.62094,121777651.85595,-226930146.60079,  -0.00315,  -0.00164,  -0.00256,473928544.42526,   0.00495,279879022.50706,  -0.00209,  -0.00255,   0.00039,-5950478.08180,   0.00000
-175603936.79804,127784793.58227,-228064731.20211,  -0.00313,  -0.00163,  -0.00257,475021866.61318,   0.00495,279879022.50706,  -0.00209,  -0.00255,   0.00039,-4857155.89388,   0.00000
-169179021.67201,133805128.15280,-229199315.80342,  -0.00312,  -0.00161,  -0.00259,476192559.22761,   0.00495,279879022.50706,  -0.00209,  -0.00255,   0.00039,-3686463.27945,   0.00000
-162710130.39864,139869438.87067,-230325105.17526,  -0.00310,  -0.00160,  -0.00260,477436051.55429,   0.00495,279879022.50706,  -0.00209,  -0.00255,   0.00039,-2442970.95277,   0.00000
-156148889.21585,145973328.12114,-231450894.54711,  -0.00308,  -0.00158,  -0.00261,478740859.88908,   0.00495,279879022.50706,  -0.00209,  -0.00255,   0.00039,-1138162.61799,   0.00000
-150592525.68031,151116469.40172,-232388023.58962,  -0.00307,  -0.00157,  -0.00263,479879034.17214,   0.00495,279879022.50706,  -0.00209,  -0.00255,   0.00039,  -9.60554,   0.00000
-149456200.39825,152032719.63392,-232459353.97389,  -0.00306,  -0.00157,  -0.00263,479880599.77388,   0.00496,279880603.55691,  -0.00209,  -0.00255,   0.00039,  -3.78303,   1.00000
-142373169.44225,157708563.58199,-232880176.60825,  -0.00304,  -0.00155,  -0.00264,479890725.49982,   0.00497,279890732.88104,  -0.00209,  -0.00255,   0.00038,  -7.38122,   1.00000
-135210055.02154,163400231.67357,-233259972.33218,  -0.00303,  -0.00154,  -0.00266,479901441.00872,   0.00498,279901446.19213,  -0.00209,  -0.00254,   0.00037,  -5.18341,   1.00000
-128016382.23514,169066497.71532,-233595945.10455,  -0.00301,  -0.00152,  -0.00267,479912651.29484,   0.00499,279912655.38499,  -0.00210,  -0.00254,   0.00036,  -4.09014,   1.00000
-120717172.91637,174759983.18841,-233892589.79091,  -0.00299,  -0.00151,  -0.00269,479924420.45352,   0.00500,279924421.87508,  -0.00210,  -0.00254,   0.00035,  -1.42156,   1.00000
-113406323.43612,180397074.04599,-234148738.96896,  -0.00297,  -0.00149,  -0.00270,479936624.28294,   0.00501,279936634.21629,  -0.00210,  -0.00253,   0.00034,  -9.93335,   1.00000
-106022445.48699,186041617.57255,-234360593.97175,  -0.00295,  -0.00148,  -0.00272,479949469.93805,   0.00502,279949473.97301,  -0.00210,  -0.00253,   0.00033,  -4.03496,   1.00000
-98567609.46263,191691024.79595,-234527102.99663,  -0.00293,  -0.00146,  -0.00273,479962951.49944,   0.00504,279962955.36555,  -0.00211,  -0.00253,   0.00032,  -3.86610,   1.00000
-91106797.44111,197279106.36543,-234652122.39382,  -0.00291,  -0.00145,  -0.00274,479976892.73870,   0.00505,279976894.73705,  -0.00211,  -0.00252,   0.00031,  -1.99835,   1.00000
-83549593.96021,202883113.56365,-234733110.63807,  -0.00289,  -0.00143,  -0.00276,479991451.87108,   0.00506,279991454.96116,  -0.00211,  -0.00252,   0.00029,  -3.09008,   1.00000
-75975195.16158,208448784.20211,-234766710.46126,  -0.00287,  -0.00142,  -0.00277,480006549.95378,   0.00508,280006556.97259,  -0.00212,  -0.00251,   0.00028,  -7.01882,   1.00000
-68383567.78507,213969241.92359,-234755381.87248,  -0.00285,  -0.00140,  -0.00279,480022287.96761,   0.00510,280022291.36406,  -0.00212,  -0.00251,   0.00027,  -3.39646,   1.00000
-60702257.71115,219498357.19175,-234697529.05112,  -0.00283,  -0.00138,  -0.00280,480038674.66553,   0.00511,280038680.28167,  -0.00213,  -0.00250,   0.00025,  -5.61614,   1.00000
-53010628.91096,224983395.35653,-234591295.78791,  -0.00281,  -0.00137,  -0.00281,480055615.97008,   0.00513,280055623.44344,  -0.00213,  -0.00250,   0.00024,  -7.47335,   1.00000
-45280704.91072,230437490.80244,-234438350.64360,  -0.00279,  -0.00135,  -0.00283,480073090.45957,   0.00515,280073096.44078,  -0.00213,  -0.00249,   0.00022,  -5.98121,   1.00000
-37543545.19744,235838326.71630,-234239284.21205,  -0.00277,  -0.00134,  -0.00284,480091207.81078,   0.00516,280091216.62526,  -0.00214,  -0.00248,   0.00020,  -8.81448,   1.00000
-29726720.43090,241237869.32822,-233990769.19448,  -0.00275,  -0.00132,  -0.00286,480110027.39907,   0.00518,280110031.14240,  -0.00214,  -0.00248,   0.00019,  -3.74333,   1.00000
-21923615.16570,246560977.29179,-233699018.24560,  -0.00272,  -0.00131,  -0.00287,480129317.78106,   0.00520,280129324.50233,  -0.00214,  -0.00247,   0.00017,  -6.72128,   1.00000
-14107287.03024,251849671.94997,-233354671.00317,  -0.00270,  -0.00129,  -0.00288,480149347.44966,   0.00522,280149356.67985,  -0.00215,  -0.00247,   0.00015,  -9.23019,   1.00000
-6220548.58081,257135658.58589,-232956558.59104,  -0.00268,  -0.00128,  -0.00290,480170013.19208,   0.00524,280170018.30726,  -0.00215,  -0.00246,   0.00013,  -5.11518,   1.00000
1645077.21110,262340211.89273,-232515246.16013,  -0.00266,  -0.00126,  -0.00291,480191151.77347,   0.00526,280191158.17244,  -0.00215,  -0.00245,   0.00011,  -6.39897,   1.00000
9532342.47066,267486950.52027,-232030308.29891,  -0.00264,  -0.00125,  -0.00292,480213024.54294,   0.00528,280213033.48515,  -0.00216,  -0.00244,   0.00009,  -8.94221,   1.00000
17420055.97232,272603546.72171,-231487023.19856,  -0.00261,  -0.00123,  -0.00294,480235472.16047,   0.00531,280235478.15670,  -0.00216,  -0.00244,   0.00007,  -5.99624,   1.00000
25323082.94392,277664516.76221,-230897359.73331,  -0.00259,  -0.00121,  -0.00295,480258568.90374,   0.00533,280258572.46762,  -0.00217,  -0.00243,   0.00005,  -3.56388,   1.00000
33238317.26754,282667735.03601,-230261204.62634,  -0.00257,  -0.00120,  -0.00296,480282314.24306,   0.00535,280282318.10097,  -0.00217,  -0.00242,   0.00003,  -3.85791,   1.00000
41175674.56949,287640759.42864,-229568947.00021,  -0.00255,  -0.00118,  -0.00298,480306719.33478,   0.00538,280306727.26958,  -0.00217,  -0.00241,   0.00001,  -7.93481,   1.00000
49075727.03515,292516320.78652,-228837458.78316,  -0.00252,  -0.00117,  -0.00299,480331678.55687,   0.00540,280331685.02613,  -0.00217,  -0.00240,  -0.00002,  -6.46925,   1.00000
56991812.37945,297357769.79220,-228049986.49182,  -0.00250,  -0.00115,  -0.00300,480357305.26897,   0.00543,280357305.63064,  -0.00218,  -0.00239,  -0.00004,  -0.36167,   1.00000
64877098.73924,302121195.78296,-227217117.66116,  -0.00248,  -0.00114,  -0.00302,480383559.15545,   0.00545,280383564.19101,  -0.00218,  -0.00238,  -0.00006,  -5.03556,   1.00000
72748279.69157,306802581.25762,-226342847.42257,  -0.00245,  -0.00112,  -0.00303,480410272.38295,   0.00548,280410279.14073,  -0.00218,  -0.00237,  -0.00009,  -6.75778,   1.00000
80637673.07498,311465514.53455,-225405623.80065,  -0.00243,  -0.00110,  -0.00304,480437750.85951,   0.00551,280437758.82843,  -0.00219,  -0.00236,  -0.00011,  -7.96892,   1.00000
88475502.41891,316024021.19013,-224431595.73611,  -0.00240,  -0.00109,  -0.00306,480465748.97716,   0.00553,280465756.97878,  -0.00219,  -0.00235,  -0.00014,  -8.00162,   1.00000
96300646.81298,320509959.49236,-223412711.64392,  -0.00238,  -0.00107,  -0.00307,480494382.35379,   0.00556,280494389.19056,  -0.00219,  -0.00234,  -0.00016,  -6.83677,   1.00000
104124079.38333,324957290.78722,-222335879.72175,  -0.00235,  -0.00106,  -0.00308,480523585.51480,   0.00559,280523593.34219,  -0.00219,  -0.00233,  -0.00019,  -7.82739,   1.00000
111885669.73055,329289290.05435,-221227223.08023,  -0.00233,  -0.00104,  -0.00309,480553368.08526,   0.00562,280553374.06342,  -0.00220,  -0.00232,  -0.00022,  -5.97816,   1.00000
119637427.41869,333571957.21436,-220064466.27784,  -0.00230,  -0.00102,  -0.00311,480583792.70788,   0.00565,280583800.00247,  -0.00220,  -0.00231,  -0.00025,  -7.29459,   1.00000
127336032.11365,337772839.53553,-218857801.44895,  -0.00228,  -0.00101,  -0.00312,480614725.97637,   0.00568,280614728.09629,  -0.00220,  -0.00230,  -0.00027,  -2.11992,   1.00000
135008498.96155,341900952.41982,-217605703.22429,  -0.00225,  -0.00099,  -0.00313,480646177.45793,   0.00571,280646182.01593,  -0.00220,  -0.00229,  -0.00030,  -4.55800,   1.00000
142649198.80628,345947056.68730,-216311867.71267,  -0.00223,  -0.00098,  -0.00314,480678231.07030,   0.00574,280678236.24751,  -0.00220,  -0.00227,  -0.00033,  -5.17721,   1.00000
150225686.53641,349900580.01665,-214979681.46758,  -0.00220,  -0.00096,  -0.00316,480710836.43968,   0.00578,280710844.78745,  -0.00220,  -0.00226,  -0.00036,  -8.34776,   1.00000
157767208.20010,353777763.66550,-213604057.59981,  -0.00218,  -0.00095,  -0.00317,480743952.86883,   0.00581,280743957.31820,  -0.00221,  -0.00225,  -0.00039,  -4.44937,   1.00000
165270763.00150,357577287.12977,-212185607.94679,  -0.00215,  -0.00093,  -0.00318,480777564.94817,   0.00584,280777567.77214,  -0.00221,  -0.00223,  -0.00042,  -2.82397,   1.00000
172709938.09898,361300349.48371,-210723741.55769,  -0.00213,  -0.00091,  -0.00319,480811803.12981,   0.00588,280811813.02339,  -0.00221,  -0.00222,  -0.00045,  -9.89358,   1.00000
180068979.50962,364917147.69960,-209232031.40498,  -0.00210,  -0.00090,  -0.00321,480846371.07146,   0.00591,280846376.89219,  -0.00221,  -0.00221,  -0.00049,  -5.82073,   1.00000
187390040.64431,368472234.12207,-207692279.78782,  -0.00207,  -0.00088,  -0.00322,480881520.72370,   0.00595,280881522.49968,  -0.00221,  -0.00219,  -0.00052,  -1.77598,   1.00000
194651147.31513,371920011.57258,-206124828.47235,  -0.00205,  -0.00087,  -0.00323,480917084.26240,   0.00598,280917087.78870,  -0.00221,  -0.00218,  -0.00055,  -3.52629,   1.00000
201836547.69364,375288719.60644,-204518439.91305,  -0.00202,  -0.00085,  -0.00324,480953232.95348,   0.00602,280953237.10989,  -0.00221,  -0.00216,  -0.00058,  -4.15641,   1.00000
208937624.52099,378558770.98419,-202882945.33081,  -0.00199,  -0.00083,  -0.00325,480989575.97522,   0.00605,280989582.10619,  -0.00220,  -0.00215,  -0.00062,  -6.13097,   1.00000
216012802.76004,381762388.35801,-201203122.82791,  -0.00196,  -0.00082,  -0.00327,481026588.17427,   0.00609,281026596.21307,  -0.00220,  -0.00213,  -0.00065,  -8.03880,   1.00000
222970771.97603,384861817.15418,-199500124.23715,  -0.00194,  -0.00080,  -0.00328,481063972.56056,   0.00613,281063980.72606,  -0.00220,  -0.00212,  -0.00068,  -8.16549,   1.00000
229888940.85698,387867126.36006,-197767020.72095,  -0.00191,  -0.00079,  -0.00329,481101707.98026,   0.00617,281101712.61581,  -0.00220,  -0.00210,  -0.00072,  -4.63555,   1.00000
236696665.88861,390794186.76154,-196001532.35105,  -0.00188,  -0.00077,  -0.00330,481139822.76067,   0.00620,281139829.60261,  -0.00220,  -0.00209,  -0.00075,  -6.84194,   1.00000
243465729.50059,393642934.87927,-194199968.28420,  -0.00185,  -0.00075,  -0.00331,481178387.25700,   0.00624,281178389.56273,  -0.00219,  -0.00207,  -0.00079,  -2.30573,   1.00000
250110911.34509,396389318.05656,-192381024.06679,  -0.00183,  -0.00074,  -0.00332,481217249.39947,   0.00628,281217254.68791,  -0.00219,  -0.00205,  -0.00082,  -5.28844,   1.00000
256682887.63316,399036205.86551,-190540849.14770,  -0.00180,  -0.00072,  -0.00333,481256354.12457,   0.00632,281256358.07336,  -0.00219,  -0.00204,  -0.00086,  -3.94879,   1.00000
263184124.81695,401607838.70393,-188668925.59874,  -0.00177,  -0.00071,  -0.00335,481295982.29669,   0.00636,281295983.99130,  -0.00218,  -0.00202,  -0.00089,  -1.69461,   1.00000
269587672.27685,404091817.07497,-186774979.44872,  -0.00174,  -0.00069,  -0.00336,481335866.27577,   0.00640,281335870.53948,  -0.00218,  -0.00200,  -0.00093,  -4.26371,   1.00000
275917177.99707,406492693.30524,-184855475.18937,  -0.00171,  -0.00067,  -0.00337,481376071.41783,   0.00644,281376074.54639,  -0.00217,  -0.00199,  -0.00097,  -3.12855,   1.00000
282138066.21240,408783922.28336,-182929058.64899,  -0.00168,  -0.00066,  -0.00338,481416451.40804,   0.00648,281416457.78562,  -0.00217,  -0.00197,  -0.00100,  -6.37758,   1.00000
288261647.79517,411005476.41825,-180976832.41098,  -0.00165,  -0.00064,  -0.00339,481457168.35327,   0.00652,281457173.50783,  -0.00216,  -0.00195,  -0.00104,  -5.15457,   1.00000
294307400.08271,413145581.97200,-179002945.70258,  -0.00162,  -0.00063,  -0.00340,481498161.23345,   0.00656,281498167.74269,  -0.00216,  -0.00193,  -0.00107,  -6.50924,   1.00000
300265934.71334,415181942.42331,-177021167.79994,  -0.00159,  -0.00061,  -0.00341,481539369.51572,   0.00660,281539373.23108,  -0.00215,  -0.00191,  -0.00111,  -3.71536,   1.00000
306100325.16999,417148317.40974,-175023005.93881,  -0.00157,  -0.00059,  -0.00342,481580782.43145,   0.00665,281580792.36355,  -0.00214,  -0.00189,  -0.00115,  -9.93210,   1.00000
311874665.35953,419022969.25883,-173009388.56462,  -0.00154,  -0.00058,  -0.00343,481622417.39620,   0.00669,281622417.72765,  -0.00214,  -0.00188,  -0.00118,  -0.33144,   1.00000
317523688.95841,420829882.09331,-170982259.37679,  -0.00151,  -0.00056,  -0.00344,481664224.52887,   0.00673,281664227.90402,  -0.00213,  -0.00186,  -0.00122,  -3.37514,   1.00000
323083479.60382,422537375.79781,-168952584.59067,  -0.00148,  -0.00055,  -0.00345,481706187.03022,   0.00677,281706196.60360,  -0.00212,  -0.00184,  -0.00126,  -9.57337,   1.00000
328533133.10421,424159937.17361,-166919524.62820,  -0.00145,  -0.00053,  -0.00347,481748338.72030,   0.00681,281748342.56758,  -0.00211,  -0.00182,  -0.00130,  -3.84728,   1.00000
333905996.35761,425728957.49848,-164860961.47207,  -0.00141,  -0.00051,  -0.00348,481790740.65094,   0.00686,281790741.84759,  -0.00210,  -0.00180,  -0.00133,  -1.19665,   1.00000
339167267.64002,427201236.07831,-162809252.17918,  -0.00138,  -0.00050,  -0.00349,481833180.00896,   0.00690,281833180.64541,  -0.00209,  -0.00178,  -0.00137,  -0.63645,   1.00000
344344430.49916,428600514.07771,-160747198.03754,  -0.00135,  -0.00048,  -0.00350,481875785.42867,   0.00694,281875791.70832,  -0.00208,  -0.00176,  -0.00141,  -6.27965,   1.00000
349416531.71997,429927559.17084,-158681646.69250,  -0.00132,  -0.00047,  -0.00351,481918475.62491,   0.00699,281918479.84868,  -0.00207,  -0.00174,  -0.00144,  -4.22377,   1.00000
354378467.72087,431176810.96604,-156619401.19689,  -0.00129,  -0.00045,  -0.00352,481961278.11883,   0.00703,281961281.65118,  -0.00206,  -0.00172,  -0.00148,  -3.53236,   1.00000
359236640.14796,432357295.37679,-154556105.87792,  -0.00126,  -0.00043,  -0.00353,482004130.63391,   0.00707,282004137.45302,  -0.00205,  -0.00170,  -0.00152,  -6.81912,   1.00000
364011615.49387,433456559.19061,-152494255.61486,  -0.00123,  -0.00042,  -0.00354,482047006.57614,   0.00712,282047016.14301,  -0.00204,  -0.00168,  -0.00155,  -9.56686,   1.00000
368677157.70773,434496675.48002,-150432307.84617,  -0.00120,  -0.00040,  -0.00355,482090080.79506,   0.00716,282090082.85963,  -0.00203,  -0.00166,  -0.00159,  -2.06458,   1.00000
373265960.80928,435465286.37853,-148368022.15466,  -0.00117,  -0.00039,  -0.00356,482133108.81405,   0.00720,282133111.15757,  -0.00202,  -0.00164,  -0.00163,  -2.34353,   1.00000
377740117.62642,436370915.94983,-146312059.59728,  -0.00113,  -0.00037,  -0.00356,482176345.31618,   0.00725,282176349.54309,  -0.00200,  -0.00162,  -0.00166,  -4.22691,   1.00000
382120801.48573,437209473.40965,-144261328.23929,  -0.00110,  -0.00036,  -0.00357,482219440.34524,   0.00729,282219446.35556,  -0.00199,  -0.00160,  -0.00170,  -6.01032,   1.00000
386401856.14598,437989121.78899,-142215916.99839,  -0.00107,  -0.00034,  -0.00358,482262539.23627,   0.00733,282262542.97921,  -0.00197,  -0.00158,  -0.00173,  -3.74295,   1.00000
390595923.25048,438702995.00477,-140177212.61423,  -0.00104,  -0.00032,  -0.00359,482305758.34038,   0.00738,282305762.41632,  -0.00196,  -0.00156,  -0.00177,  -4.07594,   1.00000
394692079.56475,439361310.57816,-138145762.90755,  -0.00101,  -0.00031,  -0.00360,482348965.97758,   0.00742,282348966.39663,  -0.00195,  -0.00154,  -0.00181,  -0.41905,   1.00000
398688345.90888,439946516.55710,-136135145.31571,  -0.00097,  -0.00029,  -0.00361,482392080.14866,   0.00747,282392084.65428,  -0.00193,  -0.00152,  -0.00184,  -4.50562,   1.00000
402592663.86814,440499302.42336,-134120658.50048,  -0.00094,  -0.00028,  -0.00362,482435232.90805,   0.00751,282435238.71374,  -0.00191,  -0.00150,  -0.00188,  -5.80570,   1.00000
406416086.55015,440979793.04187,-132122987.59770,  -0.00091,  -0.00026,  -0.00363,482478375.78221,   0.00755,282478385.70856,  -0.00190,  -0.00147,  -0.00191,  -9.92635,   1.00000
410146497.88032,441411796.57154,-130135779.89308,  -0.00088,  -0.00025,  -0.00364,482521486.58300,   0.00760,282521493.71600,  -0.00188,  -0.00145,  -0.00195,  -7.13300,   1.00000
413779763.36669,441790943.90976,-128166308.35903,  -0.00084,  -0.00023,  -0.00365,482564592.83612,   0.00764,282564593.35002,  -0.00186,  -0.00143,  -0.00198,  -0.51390,   1.00000
417328678.39902,442131132.65429,-126202134.29525,  -0.00081,  -0.00021,  -0.00366,482607603.65828,   0.00769,282607608.99859,  -0.00185,  -0.00141,  -0.00202,  -5.34031,   1.00000
420798156.24125,442418386.74680,-124251645.00751,  -0.00078,  -0.00020,  -0.00366,482650691.14072,   0.00773,282650697.93297,  -0.00183,  -0.00139,  -0.00205,  -6.79225,   1.00000
424169320.30157,442654725.98382,-122325772.01457,  -0.00074,  -0.00018,  -0.00367,482693534.21084,   0.00777,282693540.23146,  -0.00181,  -0.00137,  -0.00208,  -6.02062,   1.00000
427460090.18588,442854402.03315,-120409024.73473,  -0.00071,  -0.00017,  -0.00368,482736540.13577,   0.00782,282736545.25868,  -0.00179,  -0.00135,  -0.00212,  -5.12291,   1.00000
430676019.72355,443008537.78059,-118505498.32115,  -0.00067,  -0.00015,  -0.00369,482779353.48724,   0.00786,282779358.74391,  -0.00177,  -0.00133,  -0.00215,  -5.25668,   1.00000
433807895.90769,443107542.04587,-116629166.80110,  -0.00064,  -0.00014,  -0.00370,482822039.20306,   0.00791,282822043.83952,  -0.00175,  -0.00131,  -0.00218,  -4.63646,   1.00000
436867844.81047,443180026.81133,-114757007.74423,  -0.00061,  -0.00012,  -0.00371,482864845.78705,   0.00795,282864850.47840,  -0.00173,  -0.00129,  -0.00222,  -4.69136,   1.00000
439839169.55786,443210356.34110,-112911342.49779,  -0.00057,  -0.00011,  -0.00372,482907396.67850,   0.00799,282907401.64737,  -0.00171,  -0.00126,  -0.00225,  -4.96888,   1.00000
442735729.65892,443211552.80831,-111078020.20186,  -0.00054,  -0.00009,  -0.00372,482950097.16265,   0.00804,282950098.72231,  -0.00169,  -0.00124,  -0.00228,  -1.55966,   1.00000
445565591.66048,443174480.41583,-109259373.18187,  -0.00050,  -0.00007,  -0.00373,482992597.11985,   0.00808,282992602.92192,  -0.00167,  -0.00122,  -0.00231,  -5.80208,   1.00000
448319934.52593,443090244.44498,-107469747.23506,  -0.00047,  -0.00006,  -0.00374,483034966.38370,   0.00812,283034972.17161,  -0.00165,  -0.00120,  -0.00234,  -5.78791,   1.00000
450996119.65649,442991179.02896,-105691927.85798,  -0.00043,  -0.00004,  -0.00375,483077356.85041,   0.00817,283077361.67016,  -0.00162,  -0.00118,  -0.00237,  -4.81976,   1.00000
453605645.42265,442852908.63182,-103936401.90678,  -0.00040,  -0.00003,  -0.00375,483119579.11030,   0.00821,283119588.55105,  -0.00160,  -0.00116,  -0.00240,  -9.44075,   1.00000
456140113.06852,442684850.08967,-102205556.74075,  -0.00037,  -0.00001,  -0.00376,483161762.93402,   0.00825,283161770.49863,  -0.00158,  -0.00114,  -0.00243,  -7.56461,   1.00000
458606363.20377,442493322.94425,-100492295.80254,  -0.00033,   0.00000,  -0.00377,483203878.49314,   0.00830,283203881.54064,  -0.00155,  -0.00112,  -0.00246,  -3.04750,   1.00000
461021826.36945,442278865.92192,-98784560.32451,  -0.00030,   0.00002,  -0.00378,483245979.98721,   0.00834,283245989.74665,  -0.00153,  -0.00110,  -0.00249,  -9.75944,   1.00000
463356362.95773,442026361.51253,-97119321.87704,  -0.00026,   0.00003,  -0.00378,483287889.57422,   0.00838,283287896.41414,  -0.00151,  -0.00107,  -0.00252,  -6.83992,   1.00000
465642888.68824,441753373.13434,-95459713.54488,  -0.00022,   0.00005,  -0.00379,483329800.89962,   0.00843,283329804.24145,  -0.00148,  -0.00105,  -0.00255,  -3.34183,   1.00000
467856527.45268,441467187.58140,-93823150.39955,  -0.00019,   0.00006,  -0.00380,483371547.85700,   0.00847,283371552.54916,  -0.00146,  -0.00103,  -0.00258,  -4.69216,   1.00000
470020700.03549,441140466.39479,-92211998.57347,  -0.00015,   0.00008,  -0.00381,483413256.71390,   0.00851,283413265.11294,  -0.00143,  -0.00101,  -0.00261,  -8.39904,   1.00000
472115636.53425,440803277.22273,-90623722.46965,  -0.00012,   0.00009,  -0.00381,483454817.82770,   0.00856,283454822.33379,  -0.00141,  -0.00099,  -0.00263,  -4.50609,   1.00000
474162863.13274,440445112.81433,-89048998.79332,  -0.00008,   0.00011,  -0.00382,483496406.38755,   0.00860,283496410.77503,  -0.00138,  -0.00097,  -0.00266,  -4.38748,   1.00000
476144197.30807,440078521.89215,-87497189.07262,  -0.00005,   0.00012,  -0.00383,483537839.04561,   0.00864,283537847.06001,  -0.00135,  -0.00095,  -0.00269,  -8.01440,   1.00000
478086251.27673,439679597.77408,-85963226.38914,  -0.00001,   0.00014,  -0.00383,483579228.84428,   0.00868,283579234.43402,  -0.00133,  -0.00093,  -0.00272,  -5.58974,   1.00000
479961170.82099,439270444.50759,-84459634.45892,   0.00003,   0.00015,  -0.00384,483620493.38261,   0.00873,283620495.22093,  -0.00130,  -0.00091,  -0.00274,  -1.83832,   1.00000
481793408.20268,438844053.52041,-82969684.43341,   0.00006,   0.00017,  -0.00385,483661787.70670,   0.00877,283661795.64715,  -0.00127,  -0.00089,  -0.00277,  -7.94046,   1.00000
483572397.18097,438400181.78310,-81506049.72602,   0.00010,   0.00018,  -0.00385,483702867.78063,   0.00881,283702871.69869,  -0.00125,  -0.00087,  -0.00279,  -3.91806,   1.00000
485310906.85852,437940755.90241,-80055991.53416,   0.00014,   0.00020,  -0.00386,483743983.88038,   0.00885,283743992.65874,  -0.00122,  -0.00085,  -0.00282,  -8.77836,   1.00000
486992948.83405,437478881.96782,-78628085.24214,   0.00017,   0.00021,  -0.00386,483784973.89471,   0.00890,283784976.52551,  -0.00119,  -0.00083,  -0.00284,  -2.63080,   1.00000
488624478.41305,437005432.95920,-77225759.08362,   0.00021,   0.00023,  -0.00387,483825930.67657,   0.00894,283825936.04657,  -0.00116,  -0.00081,  -0.00287,  -5.37000,   1.00000
490229444.62494,436508746.20390,-75832637.92696,   0.00025,   0.00024,  -0.00388,483866841.79555,   0.00898,283866849.61122,  -0.00113,  -0.00079,  -0.00289,  -7.81567,   1.00000
491778091.76416,436008543.64654,-74469042.98136,   0.00028,   0.00026,  -0.00388,483907643.22574,   0.00902,283907651.97731,  -0.00110,  -0.00077,  -0.00291,  -8.75157,   1.00000
493290504.79805,435489253.80332,-73126140.28344,   0.00032,   0.00027,  -0.00389,483948339.84381,   0.00907,283948341.49520,  -0.00108,  -0.00075,  -0.00294,  -1.65140,   1.00000
494753782.00543,434971560.91276,-71804182.46607,   0.00036,   0.00029,  -0.00389,483988905.49684,   0.00911,283988908.87270,  -0.00105,  -0.00073,  -0.00296,  -3.37586,   1.00000
496180553.65740,434439881.73011,-70503127.12840,   0.00039,   0.00030,  -0.00390,484029549.12111,   0.00915,284029555.97880,  -0.00102,  -0.00071,  -0.00298,  -6.85769,   1.00000
497571960.81449,433907871.45104,-69210811.11495,   0.00043,   0.00032,  -0.00391,484070155.87700,   0.00919,284070161.28264,  -0.00099,  -0.00069,  -0.00301,  -5.40564,   1.00000
498920839.28450,433362297.12376,-67950112.90991,   0.00047,   0.00033,  -0.00391,484110583.41963,   0.00924,284110590.72264,  -0.00096,  -0.00067,  -0.00303,  -7.30301,   1.00000
500239903.40309,432807829.38168,-66701935.68203,   0.00051,   0.00035,  -0.00392,484151088.02936,   0.00928,284151091.79538,  -0.00093,  -0.00065,  -0.00305,  -3.76602,   1.00000
501522627.54353,432244223.75709,-65476619.88232,   0.00054,   0.00036,  -0.00392,484191407.73460,   0.00932,284191408.48128,  -0.00089,  -0.00063,  -0.00307,  -0.74669,   1.00000
502770449.61679,431679330.09338,-64267119.48978,   0.00058,   0.00037,  -0.00393,484231707.03596,   0.00936,284231711.47432,  -0.00086,  -0.00061,  -0.00309,  -4.43837,   1.00000
503977823.59064,431120124.89789,-63076815.21252,   0.00062,   0.00039,  -0.00393,484271907.46835,   0.00940,284271912.00421,  -0.00083,  -0.00059,  -0.00311,  -4.53587,   1.00000
505162199.20748,430536924.90277,-61909418.47313,   0.00066,   0.00040,  -0.00394,484312130.42418,   0.00945,284312133.96422,  -0.00080,  -0.00057,  -0.00313,  -3.54004,   1.00000
506311641.42062,429963363.66091,-60752436.17556,   0.00070,   0.00042,  -0.00394,484352239.00232,   0.00949,284352245.81718,  -0.00077,  -0.00055,  -0.00315,  -6.81486,   1.00000
507432963.55159,429380789.89380,-59615257.74250,   0.00073,   0.00043,  -0.00395,484392449.76336,   0.00953,284392458.66417,  -0.00074,  -0.00053,  -0.00317,  -8.90081,   1.00000
508518645.73378,428798260.06725,-58502165.16896,   0.00077,   0.00045,  -0.00395,484432410.53999,   0.00957,284432415.42837,  -0.00071,  -0.00051,  -0.00319,  -4.88838,   1.00000
509581342.73979,428210319.13589,-57400154.78744,   0.00081,   0.00046,  -0.00396,484472461.74733,   0.00961,284472465.45201,  -0.00067,  -0.00049,  -0.00321,  -3.70468,   1.00000
510616500.44583,427616397.28268,-56318186.22671,   0.00085,   0.00047,  -0.00396,484512352.51377,   0.00966,284512356.49884,  -0.00064,  -0.00048,  -0.00323,  -3.98507,   1.00000
511626777.38330,427015334.77722,-55255179.49041,   0.00089,   0.00049,  -0.00396,484552350.55333,   0.00970,284552358.44438,  -0.00061,  -0.00046,  -0.00325,  -7.89106,   1.00000
512602082.58034,426432583.29653,-54203822.25112,   0.00093,   0.00050,  -0.00397,484592174.84874,   0.00974,284592177.06712,  -0.00058,  -0.00044,  -0.00326,  -2.21838,   1.00000
513560942.14221,425828682.86312,-53173558.48216,   0.00096,   0.00052,  -0.00397,484632036.54478,   0.00978,284632038.20079,  -0.00054,  -0.00042,  -0.00328,  -1.65601,   1.00000
514489163.45229,425234544.69899,-52159427.73736,   0.00100,   0.00053,  -0.00398,484671816.64263,   0.00982,284671824.00562,  -0.00051,  -0.00040,  -0.00330,  -7.36299,   1.00000
515399877.91987,424629023.94019,-51160510.18609,   0.00104,   0.00054,  -0.00398,484711551.79108,   0.00987,284711555.66800,  -0.00048,  -0.00038,  -0.00332,  -3.87692,   1.00000
516286834.73699,424027085.09457,-50174236.29668,   0.00108,   0.00056,  -0.00399,484751302.18925,   0.00991,284751307.33107,  -0.00044,  -0.00037,  -0.00333,  -5.14182,   1.00000
517142809.65059,423433372.57956,-49211535.94634,   0.00112,   0.00057,  -0.00399,484790994.55578,   0.00995,284791001.30108,  -0.00041,  -0.00035,  -0.00335,  -6.74530,   1.00000
517986263.62580,422830993.71920,-48254778.66944,   0.00116,   0.00059,  -0.00399,484830633.27940,   0.00999,284830638.12069,  -0.00037,  -0.00033,  -0.00337,  -4.84130,   1.00000
518811991.42626,422215903.08233,-47320417.33352,   0.00120,   0.00060,  -0.00400,484870233.63286,   0.01003,284870241.71367,  -0.00034,  -0.00031,  -0.00338,  -8.08081,   1.00000
519607644.54114,421629058.82027,-46389906.50393,   0.00124,   0.00061,  -0.00400,484909842.81605,   0.01007,284909843.66048,  -0.00031,  -0.00029,  -0.00340,  -0.84443,   1.00000
