# sigma_xx, sigma_yy, sigma_xy, epsilon_xx, epsilon_yy, epsilon_xy, vonMises, epsPlastic, hardening, epsilonP__xx, epsilonP__yy, epsilonP__xy, yieldValue, iteration
   0.00000,   0.00000,   0.00000,   0.00000,   0.00000,   0.00000,   0.00000,   0.00000,274640135.82653,   0.00000,   0.00000,   0.00000,-474640135.82653,   0.00000
   0.00000,   0.00000,   0.00000,   0.00000,   0.00000,   0.00000,   0.00000,   0.00000,274640135.82653,   0.00000,   0.00000,   0.00000,-474640135.82653,   0.00000
1186591.51587,524838.55510,-74161.96974,   0.00000,   0.00000,  -0.00000,1037875.69152,   0.00000,274640135.82653,   0.00000,   0.00000,   0.00000,-473602260.13501,   0.00000
2333249.66342,1032562.80948,-142619.17258,   0.00001,   0.00000,  -0.00000,2040106.32195,   0.00000,274640135.82653,   0.00000,   0.00000,   0.00000,-472600029.50458,   0.00000
3459941.12681,1531729.91352,-216781.14232,   0.00001,   0.00000,  -0.00000,3026330.45073,   0.00000,274640135.82653,   0.00000,   0.00000,   0.00000,-471613805.37580,   0.00000
4575223.05639,2042306.55135,-285238.34516,   0.00002,   0.00000,  -0.00000,4000469.57045,   0.00000,274640135.82653,   0.00000,   0.00000,   0.00000,-470639666.25608,   0.00000
5670538.30180,2544326.03884,-359400.31490,   0.00002,   0.00000,  -0.00000,4958669.89501,   0.00000,274640135.82653,   0.00000,   0.00000,   0.00000,-469681465.93152,   0.00000
6717363.02855,3009264.54145,-427857.51774,   0.00002,   0.00000,  -0.00001,5874819.39555,   0.00000,274640135.82653,   0.00000,   0.00000,   0.00000,-468765316.43098,   0.00000
7752778.22148,3485612.57787,-502019.48748,   0.00003,   0.00000,  -0.00001,6781441.92703,   0.00000,274640135.82653,   0.00000,   0.00000,   0.00000,-467858693.89950,   0.00000
8756817.19645,3964812.99774,-570476.69032,   0.00003,   0.00000,  -0.00001,7658901.86922,   0.00000,274640135.82653,   0.00000,   0.00000,   0.00000,-466981233.95731,   0.00000
9752299.02106,4424046.73345,-638933.89316,   0.00004,   0.00000,  -0.00001,8529924.30375,   0.00000,274640135.82653,   0.00000,   0.00000,   0.00000,-466110211.52278,   0.00000
10716404.62771,4886132.85261,-713095.86290,   0.00004,   0.00000,  -0.00001,9374399.33083,   0.00000,274640135.82653,   0.00000,   0.00000,   0.00000,-465265736.49570,   0.00000
11660543.55019,5339661.82142,-781553.06574,   0.00004,   0.00000,  -0.00001,10200459.82418,   0.00000,274640135.82653,   0.00000,   0.00000,   0.00000,-464439676.00235,   0.00000
12564749.10435,5776076.48951,-850010.26858,   0.00005,   0.00000,  -0.00001,10992205.42657,   0.00000,274640135.82653,   0.00000,   0.00000,   0.00000,-463647930.39996,   0.00000
13448987.97435,6203934.00726,-918467.47142,   0.00005,   0.00000,  -0.00001,11766825.75428,   0.00000,274640135.82653,   0.00000,   0.00000,   0.00000,-462873310.07225,   0.00000
14313260.16019,6623234.37464,-986924.67426,   0.00005,   0.00000,  -0.00001,12524321.70724,   0.00000,274640135.82653,   0.00000,   0.00000,   0.00000,-462115814.11929,   0.00000
15166122.81222,7053944.27584,-1055381.87710,   0.00006,   0.00000,  -0.00001,13271394.74673,   0.00000,274640135.82653,   0.00000,   0.00000,   0.00000,-461368741.07980,   0.00000
15970494.94558,7447573.19216,-1123839.07994,   0.00006,   0.00000,  -0.00001,13977505.78858,   0.00000,274640135.82653,   0.00000,   0.00000,   0.00000,-460662630.03795,   0.00000
16763457.54512,7852611.64229,-1198001.04968,   0.00006,   0.00000,  -0.00002,14674662.38566,   0.00000,274640135.82653,   0.00000,   0.00000,   0.00000,-459965473.44087,   0.00000
17536453.46051,8249092.94206,-1266458.25252,   0.00006,   0.00000,  -0.00002,15353392.11333,   0.00000,274640135.82653,   0.00000,   0.00000,   0.00000,-459286743.71320,   0.00000
18278073.15793,8648426.62529,-1334915.45535,   0.00007,   0.00000,  -0.00002,16004770.06147,   0.00000,274640135.82653,   0.00000,   0.00000,   0.00000,-458635365.76506,   0.00000
18991169.02083,9019236.47400,-1397667.89129,   0.00007,   0.00000,  -0.00002,16630866.17222,   0.00000,274640135.82653,   0.00000,   0.00000,   0.00000,-458009269.65431,   0.00000
19692855.34993,9401455.85651,-1466125.09413,   0.00007,   0.00000,  -0.00002,17248274.75921,   0.00000,274640135.82653,   0.00000,   0.00000,   0.00000,-457391861.06732,   0.00000
20366017.84451,9755151.40451,-1534582.29697,   0.00007,   0.00000,  -0.00002,17841774.08965,   0.00000,274640135.82653,   0.00000,   0.00000,   0.00000,-456798361.73688,   0.00000
21007804.12112,10111699.33597,-1603039.49981,   0.00008,   0.00001,  -0.00002,18408120.63695,   0.00000,274640135.82653,   0.00000,   0.00000,   0.00000,-456232015.18958,   0.00000
21629623.71358,10459690.11706,-1671496.70264,   0.00008,   0.00001,  -0.00002,18957538.91263,   0.00000,274640135.82653,   0.00000,   0.00000,   0.00000,-455682596.91390,   0.00000
22240033.77222,10819090.43196,-1739953.90548,   0.00008,   0.00001,  -0.00002,19497107.53298,   0.00000,274640135.82653,   0.00000,   0.00000,   0.00000,-455143028.29355,   0.00000
22801953.31219,11141409.76200,-1808411.10832,   0.00008,   0.00001,  -0.00002,19995630.35568,   0.00000,274640135.82653,   0.00000,   0.00000,   0.00000,-454644505.47085,   0.00000
23343906.16799,11455171.94167,-1876868.31116,   0.00008,   0.00001,  -0.00002,20477264.57369,   0.00000,274640135.82653,   0.00000,   0.00000,   0.00000,-454162871.25284,   0.00000
23874449.48999,11780343.65516,-1945325.51400,   0.00009,   0.00001,  -0.00003,20949212.14701,   0.00000,274640135.82653,   0.00000,   0.00000,   0.00000,-453690923.67952,   0.00000
24385026.12783,12096958.21829,-2008077.94993,   0.00009,   0.00001,  -0.00003,21402765.85698,   0.00000,274640135.82653,   0.00000,   0.00000,   0.00000,-453237369.96955,   0.00000
24855669.39735,12396458.48071,-2076535.15277,   0.00009,   0.00001,  -0.00003,21824073.97994,   0.00000,274640135.82653,   0.00000,   0.00000,   0.00000,-452816061.84659,   0.00000
25306345.98270,12687401.59277,-2144992.35561,   0.00009,   0.00001,  -0.00003,22228641.62429,   0.00000,274640135.82653,   0.00000,   0.00000,   0.00000,-452411494.20224,   0.00000
25745613.03425,12989754.23864,-2213449.55845,   0.00009,   0.00001,  -0.00003,22623863.42991,   0.00000,274640135.82653,   0.00000,   0.00000,   0.00000,-452016272.39662,   0.00000
26136389.56712,13255025.89964,-2281906.76129,   0.00009,   0.00001,  -0.00003,22978018.75643,   0.00000,274640135.82653,   0.00000,   0.00000,   0.00000,-451662117.07010,   0.00000
26535723.25035,13540264.24480,-2344659.19723,   0.00009,   0.00001,  -0.00003,23338271.99591,   0.00000,274640135.82653,   0.00000,   0.00000,   0.00000,-451301863.83062,   0.00000
26875156.88109,13799831.13890,-2413116.40006,   0.00010,   0.00001,  -0.00003,23649654.59231,   0.00000,274640135.82653,   0.00000,   0.00000,   0.00000,-450990481.23422,   0.00000
27214590.51183,14059398.03300,-2481573.60290,   0.00010,   0.00001,  -0.00003,23961520.65512,   0.00000,274640135.82653,   0.00000,   0.00000,   0.00000,-450678615.17141,   0.00000
27534057.45841,14310407.77674,-2550030.80574,   0.00010,   0.00001,  -0.00003,24256885.04760,   0.00000,274640135.82653,   0.00000,   0.00000,   0.00000,-450383250.77893,   0.00000
27813591.03667,14544303.21977,-2618488.00858,   0.00010,   0.00001,  -0.00003,24518824.18039,   0.00000,274640135.82653,   0.00000,   0.00000,   0.00000,-450121311.64614,   0.00000
28073157.93077,14769641.51245,-2681240.44452,   0.00010,   0.00001,  -0.00003,24762495.40770,   0.00000,274640135.82653,   0.00000,   0.00000,   0.00000,-449877640.41883,   0.00000
28301348.60690,14997832.18858,-2749697.64735,   0.00010,   0.00001,  -0.00004,24982492.62313,   0.00000,274640135.82653,   0.00000,   0.00000,   0.00000,-449657643.20340,   0.00000
28520982.13267,15206056.18054,-2818154.85019,   0.00010,   0.00001,  -0.00004,25195334.88611,   0.00000,274640135.82653,   0.00000,   0.00000,   0.00000,-449444800.94042,   0.00000
28709239.44048,15417132.55596,-2886612.05303,   0.00010,   0.00001,  -0.00004,25382904.54022,   0.00000,274640135.82653,   0.00000,   0.00000,   0.00000,-449257231.28630,   0.00000
28877530.06412,15619651.78103,-2955069.25587,   0.00010,   0.00001,  -0.00004,25554365.64245,   0.00000,274640135.82653,   0.00000,   0.00000,   0.00000,-449085770.18408,   0.00000
29005887.31944,15805056.70538,-3023526.45871,   0.00010,   0.00002,  -0.00004,25692932.09259,   0.00000,274640135.82653,   0.00000,   0.00000,   0.00000,-448947203.73394,   0.00000
29134244.57477,15990461.62974,-3086278.89464,   0.00010,   0.00002,  -0.00004,25830300.08221,   0.00000,274640135.82653,   0.00000,   0.00000,   0.00000,-448809835.74432,   0.00000
29231225.61212,16178718.93754,-3154736.09748,   0.00010,   0.00002,  -0.00004,25945111.16574,   0.00000,274640135.82653,   0.00000,   0.00000,   0.00000,-448695024.66079,   0.00000
29299682.81496,16338452.41083,-3223193.30032,   0.00010,   0.00002,  -0.00004,26035973.03861,   0.00000,274640135.82653,   0.00000,   0.00000,   0.00000,-448604162.78792,   0.00000
29356730.48399,16509595.41793,-3291650.50316,   0.00010,   0.00002,  -0.00004,26119370.42875,   0.00000,274640135.82653,   0.00000,   0.00000,   0.00000,-448520765.39778,   0.00000
29365287.63435,16643657.44016,-3360107.70600,   0.00010,   0.00002,  -0.00004,26162122.12729,   0.00000,274640135.82653,   0.00000,   0.00000,   0.00000,-448478013.69924,   0.00000
29362435.25090,16789128.99619,-3428564.90884,   0.00010,   0.00002,  -0.00004,26197765.46285,   0.00000,274640135.82653,   0.00000,   0.00000,   0.00000,-448442370.36368,   0.00000
29339616.18328,16926043.40187,-3497022.11168,   0.00010,   0.00002,  -0.00005,26218083.39792,   0.00000,274640135.82653,   0.00000,   0.00000,   0.00000,-448422052.42860,   0.00000
29296830.43151,17054400.65719,-3565479.31452,   0.00010,   0.00002,  -0.00005,26223174.84918,   0.00000,274640135.82653,   0.00000,   0.00000,   0.00000,-448416960.97735,   0.00000
29234077.99557,17174200.76216,-3633936.51735,   0.00010,   0.00002,  -0.00005,26213146.45963,   0.00000,274640135.82653,   0.00000,   0.00000,   0.00000,-448426989.36690,   0.00000
29139949.34167,17296853.25058,-3702393.72019,   0.00010,   0.00002,  -0.00005,26180364.97631,   0.00000,274640135.82653,   0.00000,   0.00000,   0.00000,-448459770.85022,   0.00000
29017296.85325,17390981.90448,-3770850.92303,   0.00010,   0.00002,  -0.00005,26124096.80412,   0.00000,274640135.82653,   0.00000,   0.00000,   0.00000,-448516039.02241,   0.00000
28883234.83102,17496520.09219,-3839308.12587,   0.00010,   0.00002,  -0.00005,26062122.54879,   0.00000,274640135.82653,   0.00000,   0.00000,   0.00000,-448578013.27774,   0.00000
28720648.97428,17573534.44538,-3913470.09561,   0.00010,   0.00002,  -0.00005,25979361.44195,   0.00000,274640135.82653,   0.00000,   0.00000,   0.00000,-448660774.38458,   0.00000
28526686.89957,17653401.18203,-3981927.29845,   0.00010,   0.00002,  -0.00005,25872545.78811,   0.00000,274640135.82653,   0.00000,   0.00000,   0.00000,-448767590.03841,   0.00000
28332724.82486,17733267.91867,-4050384.50129,   0.00009,   0.00003,  -0.00005,25768141.77849,   0.00000,274640135.82653,   0.00000,   0.00000,   0.00000,-448871994.04804,   0.00000
28098829.38183,17796020.35461,-4118841.70413,   0.00009,   0.00003,  -0.00005,25633762.58808,   0.00000,274640135.82653,   0.00000,   0.00000,   0.00000,-449006373.23845,   0.00000
27844967.25464,17850215.64019,-4193003.67387,   0.00009,   0.00003,  -0.00005,25488773.39636,   0.00000,274640135.82653,   0.00000,   0.00000,   0.00000,-449151362.43017,   0.00000
27551171.75912,17887296.62506,-4261460.87671,   0.00009,   0.00003,  -0.00006,25311787.97796,   0.00000,274640135.82653,   0.00000,   0.00000,   0.00000,-449328347.84857,   0.00000
27257376.26361,17924377.60993,-4329918.07955,   0.00009,   0.00003,  -0.00006,25138037.71978,   0.00000,274640135.82653,   0.00000,   0.00000,   0.00000,-449502098.10675,   0.00000
26932204.55012,17964310.97825,-4404080.04929,   0.00009,   0.00003,  -0.00006,24948534.55068,   0.00000,274640135.82653,   0.00000,   0.00000,   0.00000,-449691601.27585,   0.00000
26578509.00212,17975720.51206,-4472537.25213,   0.00009,   0.00003,  -0.00006,24734320.03652,   0.00000,274640135.82653,   0.00000,   0.00000,   0.00000,-449905815.79001,   0.00000
26213403.92032,17998539.57967,-4546699.22187,   0.00008,   0.00003,  -0.00006,24521509.03911,   0.00000,274640135.82653,   0.00000,   0.00000,   0.00000,-450118626.78741,   0.00000
25819775.00399,17992834.81277,-4615156.42471,   0.00008,   0.00003,  -0.00006,24284376.57796,   0.00000,274640135.82653,   0.00000,   0.00000,   0.00000,-450355759.24857,   0.00000
25414736.55386,17998539.57967,-4689318.39445,   0.00008,   0.00003,  -0.00006,24049890.65142,   0.00000,274640135.82653,   0.00000,   0.00000,   0.00000,-450590245.17511,   0.00000
24969764.73541,17987130.04587,-4763480.36419,   0.00008,   0.00003,  -0.00006,23789994.28874,   0.00000,274640135.82653,   0.00000,   0.00000,   0.00000,-450850141.53779,   0.00000
24524792.91696,17975720.51206,-4831937.56703,   0.00008,   0.00003,  -0.00006,23532616.39536,   0.00000,274640135.82653,   0.00000,   0.00000,   0.00000,-451107519.43117,   0.00000
24039887.73019,17947196.67754,-4906099.53677,   0.00007,   0.00003,  -0.00006,23254653.63012,   0.00000,274640135.82653,   0.00000,   0.00000,   0.00000,-451385482.19641,   0.00000
23535015.85925,17910115.69267,-4980261.50651,   0.00007,   0.00004,  -0.00006,22968747.74061,   0.00000,274640135.82653,   0.00000,   0.00000,   0.00000,-451671388.08592,   0.00000
23010177.30416,17864477.55745,-5054423.47626,   0.00007,   0.00004,  -0.00007,22675639.17419,   0.00000,274640135.82653,   0.00000,   0.00000,   0.00000,-451964496.65234,   0.00000
22465372.06490,17810282.27187,-5128585.44600,   0.00007,   0.00004,  -0.00007,22376140.07889,   0.00000,274640135.82653,   0.00000,   0.00000,   0.00000,-452263995.74764,   0.00000
21880633.45732,17738972.68558,-5202747.41574,   0.00006,   0.00004,  -0.00007,22056723.58277,   0.00000,274640135.82653,   0.00000,   0.00000,   0.00000,-452583412.24376,   0.00000
21304452.00009,17687629.78345,-5276909.38548,   0.00006,   0.00004,  -0.00007,21758767.90288,   0.00000,274640135.82653,   0.00000,   0.00000,   0.00000,-452881367.92365,   0.00000
20679780.02419,17599205.89645,-5351071.35522,   0.00006,   0.00004,  -0.00007,21432207.94602,   0.00000,274640135.82653,   0.00000,   0.00000,   0.00000,-453207927.88051,   0.00000
20035141.36412,17502224.85909,-5425233.32497,   0.00006,   0.00004,  -0.00007,21103902.13091,   0.00000,274640135.82653,   0.00000,   0.00000,   0.00000,-453536233.69562,   0.00000
19399059.85441,17425210.50590,-5499395.29471,   0.00005,   0.00004,  -0.00007,20800452.60692,   0.00000,274640135.82653,   0.00000,   0.00000,   0.00000,-453839683.21961,   0.00000
18723044.97638,17331081.85200,-5579262.03135,   0.00005,   0.00004,  -0.00007,20489330.90141,   0.00000,274640135.82653,   0.00000,   0.00000,   0.00000,-454150804.92512,   0.00000
18018506.26383,17208429.36358,-5653424.00110,   0.00005,   0.00004,  -0.00007,20164573.53060,   0.00000,274640135.82653,   0.00000,   0.00000,   0.00000,-454475562.29592,   0.00000
17282591.33332,17088629.25861,-5727585.97084,   0.00005,   0.00004,  -0.00007,19844121.05309,   0.00000,274640135.82653,   0.00000,   0.00000,   0.00000,-454796014.77344,   0.00000
16546676.40280,16968829.15364,-5807452.70748,   0.00004,   0.00004,  -0.00008,19548285.31441,   0.00000,274640135.82653,   0.00000,   0.00000,   0.00000,-455091850.51212,   0.00000
15790794.78812,16840471.89832,-5881614.67722,   0.00004,   0.00005,  -0.00008,19256334.84210,   0.00000,274640135.82653,   0.00000,   0.00000,   0.00000,-455383800.98443,   0.00000
14994979.80513,16695000.34229,-5961481.41387,   0.00004,   0.00005,  -0.00008,18969687.52377,   0.00000,274640135.82653,   0.00000,   0.00000,   0.00000,-455670448.30276,   0.00000
14199164.82213,16549528.78625,-6041348.15051,   0.00003,   0.00005,  -0.00008,18708483.64127,   0.00000,274640135.82653,   0.00000,   0.00000,   0.00000,-455931652.18526,   0.00000
13363416.47080,16386942.92951,-6121214.88716,   0.00003,   0.00005,  -0.00008,18453592.34353,   0.00000,274640135.82653,   0.00000,   0.00000,   0.00000,-456186543.48300,   0.00000
12507701.43532,16215799.92242,-6201081.62380,   0.00003,   0.00005,  -0.00008,18219018.03802,   0.00000,274640135.82653,   0.00000,   0.00000,   0.00000,-456421117.78851,   0.00000
11651986.39984,16044656.91532,-6275243.59355,   0.00002,   0.00005,  -0.00008,18010655.87090,   0.00000,274640135.82653,   0.00000,   0.00000,   0.00000,-456629479.95563,   0.00000
10756337.99603,15856399.60751,-6360815.09710,   0.00002,   0.00005,  -0.00008,17831077.59272,   0.00000,274640135.82653,   0.00000,   0.00000,   0.00000,-456809058.23381,   0.00000
9840722.90806,15659585.14935,-6440681.83374,   0.00001,   0.00005,  -0.00008,17675065.58810,   0.00000,274640135.82653,   0.00000,   0.00000,   0.00000,-456965070.23843,   0.00000
8905141.13593,15454213.54083,-6520548.57039,   0.00001,   0.00005,  -0.00008,17551779.48434,   0.00000,274640135.82653,   0.00000,   0.00000,   0.00000,-457088356.34219,   0.00000
7958149.83000,15260251.46613,-6600415.30703,   0.00001,   0.00005,  -0.00009,17477428.37465,   0.00000,274640135.82653,   0.00000,   0.00000,   0.00000,-457162707.45188,   0.00000
6982634.68955,15037765.55690,-6685986.81058,   0.00000,   0.00005,  -0.00009,17435470.04284,   0.00000,274640135.82653,   0.00000,   0.00000,   0.00000,-457204665.78369,   0.00000
5987152.86493,14806722.49732,-6765853.54722,  -0.00000,   0.00006,  -0.00009,17428862.33201,   0.00000,274640135.82653,   0.00000,   0.00000,   0.00000,-457211273.49452,   0.00000
4980261.50651,14587088.97154,-6851425.05077,  -0.00001,   0.00006,  -0.00009,17486129.56943,   0.00000,274640135.82653,   0.00000,   0.00000,   0.00000,-457154006.25710,   0.00000
3944846.31358,14338931.61125,-6931291.78742,  -0.00001,   0.00006,  -0.00009,17570723.04174,   0.00000,274640135.82653,   0.00000,   0.00000,   0.00000,-457069412.78479,   0.00000
2898021.58684,14102183.78477,-7016863.29097,  -0.00001,   0.00006,  -0.00009,17723171.13046,   0.00000,274640135.82653,   0.00000,   0.00000,   0.00000,-456916964.69607,   0.00000
1802706.34142,13828354.97342,-7102434.79451,  -0.00002,   0.00006,  -0.00009,17913079.80927,   0.00000,274640135.82653,   0.00000,   0.00000,   0.00000,-456727056.01726,   0.00000
707391.09600,13554526.16206,-7188006.29806,  -0.00002,   0.00006,  -0.00009,18155977.91765,   0.00000,274640135.82653,   0.00000,   0.00000,   0.00000,-456484157.90888,   0.00000
-399333.68323,13292106.88451,-7273577.80161,  -0.00003,   0.00006,  -0.00009,18462458.14967,   0.00000,274640135.82653,   0.00000,   0.00000,   0.00000,-456177677.67686,   0.00000
-1534582.29697,13001163.77245,-7359149.30516,  -0.00003,   0.00006,  -0.00010,18809779.19903,   0.00000,274640135.82653,   0.00000,   0.00000,   0.00000,-455830356.62750,   0.00000
-2681240.44452,12721630.19419,-7444720.80871,  -0.00004,   0.00006,  -0.00010,19220048.86244,   0.00000,274640135.82653,   0.00000,   0.00000,   0.00000,-455420086.96409,   0.00000
-3847865.27622,12433539.46558,-7530292.31226,  -0.00004,   0.00006,  -0.00010,19681398.89643,   0.00000,274640135.82653,   0.00000,   0.00000,   0.00000,-454958736.93010,   0.00000
-5043013.94245,12116924.90245,-7621568.58271,  -0.00005,   0.00006,  -0.00010,20189665.74564,   0.00000,274640135.82653,   0.00000,   0.00000,   0.00000,-454450470.08089,   0.00000
-6249572.14248,11811719.87313,-7707140.08626,  -0.00005,   0.00007,  -0.00010,20750713.21007,   0.00000,274640135.82653,   0.00000,   0.00000,   0.00000,-453889422.61646,   0.00000
-7484654.17703,11477991.00929,-7798416.35671,  -0.00006,   0.00007,  -0.00010,21356942.94903,   0.00000,274640135.82653,   0.00000,   0.00000,   0.00000,-453283192.87750,   0.00000
-8731145.74538,11155671.67926,-7889692.62716,  -0.00006,   0.00007,  -0.00010,22018752.48998,   0.00000,274640135.82653,   0.00000,   0.00000,   0.00000,-452621383.33655,   0.00000
-10006161.14826,10804828.51471,-7975264.13071,  -0.00007,   0.00007,  -0.00010,22711163.53951,   0.00000,274640135.82653,   0.00000,   0.00000,   0.00000,-451928972.28702,   0.00000
-11292586.08493,10465394.88397,-8066540.40116,  -0.00007,   0.00007,  -0.00010,23461363.67165,   0.00000,274640135.82653,   0.00000,   0.00000,   0.00000,-451178772.15488,   0.00000
-12598977.70577,10117404.10287,-8157816.67161,  -0.00008,   0.00007,  -0.00011,24253143.55473,   0.00000,274640135.82653,   0.00000,   0.00000,   0.00000,-450386992.27180,   0.00000
-13913926.47696,9749446.63761,-8254797.70897,  -0.00008,   0.00007,  -0.00011,25074433.17606,   0.00000,274640135.82653,   0.00000,   0.00000,   0.00000,-449565702.65047,   0.00000
-15260251.46613,9384341.55580,-8346073.97942,  -0.00009,   0.00007,  -0.00011,25944544.81853,   0.00000,274640135.82653,   0.00000,   0.00000,   0.00000,-448695591.00800,   0.00000
-16635100.28980,8990712.63948,-8437350.24987,  -0.00009,   0.00007,  -0.00011,26845623.84391,   0.00000,274640135.82653,   0.00000,   0.00000,   0.00000,-447794511.98261,   0.00000
-18001391.96312,8617050.40732,-8534331.28722,  -0.00010,   0.00007,  -0.00011,27783574.35322,   0.00000,274640135.82653,   0.00000,   0.00000,   0.00000,-446856561.47331,   0.00000
-19396207.47096,8214864.34064,-8625607.55768,  -0.00010,   0.00008,  -0.00011,28744345.36923,   0.00000,274640135.82653,   0.00000,   0.00000,   0.00000,-445895790.45730,   0.00000
-20822399.19677,7815530.65742,-8722588.59503,  -0.00011,   0.00008,  -0.00011,29759764.48906,   0.00000,274640135.82653,   0.00000,   0.00000,   0.00000,-444880371.33747,   0.00000
-22257148.07293,7396230.29003,-8819569.63238,  -0.00012,   0.00008,  -0.00011,30790555.06306,   0.00000,274640135.82653,   0.00000,   0.00000,   0.00000,-443849580.76346,   0.00000
-23703306.48290,6988339.45645,-8916550.66974,  -0.00012,   0.00008,  -0.00012,31856632.05773,   0.00000,274640135.82653,   0.00000,   0.00000,   0.00000,-442783503.76880,   0.00000
-25177988.72738,6551924.78835,-9013531.70709,  -0.00013,   0.00008,  -0.00012,32947752.34757,   0.00000,274640135.82653,   0.00000,   0.00000,   0.00000,-441692383.47896,   0.00000
-26644113.82151,6135476.80442,-9110512.74445,  -0.00013,   0.00008,  -0.00012,34059235.84988,   0.00000,274640135.82653,   0.00000,   0.00000,   0.00000,-440580899.97665,   0.00000
-28158729.43432,5681947.83561,-9213198.54871,  -0.00014,   0.00008,  -0.00012,35211419.86371,   0.00000,274640135.82653,   0.00000,   0.00000,   0.00000,-439428715.96282,   0.00000
-29684754.58093,5239828.40061,-9310179.58606,  -0.00015,   0.00008,  -0.00012,36389858.58849,   0.00000,274640135.82653,   0.00000,   0.00000,   0.00000,-438250277.23804,   0.00000
-31219336.87790,4777742.28145,-9412865.39032,  -0.00015,   0.00008,  -0.00012,37582414.32868,   0.00000,274640135.82653,   0.00000,   0.00000,   0.00000,-437057721.49785,   0.00000
-32773885.85902,4307099.01193,-9509846.42767,  -0.00016,   0.00008,  -0.00012,38796270.50160,   0.00000,274640135.82653,   0.00000,   0.00000,   0.00000,-435843865.32493,   0.00000
-34339844.37396,3847865.27622,-9612532.23193,  -0.00016,   0.00008,  -0.00012,40042082.87913,   0.00000,274640135.82653,   0.00000,   0.00000,   0.00000,-434598052.94740,   0.00000
-35934326.72341,3360107.70600,-9715218.03619,  -0.00017,   0.00009,  -0.00013,41309390.62085,   0.00000,274640135.82653,   0.00000,   0.00000,   0.00000,-433330745.20568,   0.00000
-37548775.75702,2863792.98542,-9817903.84045,  -0.00018,   0.00009,  -0.00013,42600674.86789,   0.00000,274640135.82653,   0.00000,   0.00000,   0.00000,-432039460.95864,   0.00000
-39163224.79064,2367478.26484,-9926294.41161,  -0.00018,   0.00009,  -0.00013,43905297.80160,   0.00000,274640135.82653,   0.00000,   0.00000,   0.00000,-430734838.02493,   0.00000
-40789083.35805,1882573.07806,-10028980.21587,  -0.00019,   0.00009,  -0.00013,45230776.74885,   0.00000,274640135.82653,   0.00000,   0.00000,   0.00000,-429409359.07768,   0.00000
-42443465.75999,1369144.05677,-10137370.78703,  -0.00020,   0.00009,  -0.00013,46580386.63947,   0.00000,274640135.82653,   0.00000,   0.00000,   0.00000,-428059749.18706,   0.00000
-44117814.84609,847157.88513,-10240056.59129,  -0.00020,   0.00009,  -0.00013,47948412.85148,   0.00000,274640135.82653,   0.00000,   0.00000,   0.00000,-426691722.97505,   0.00000
-45812130.61634,316614.56313,-10348447.16245,  -0.00021,   0.00009,  -0.00013,49341943.82200,   0.00000,274640135.82653,   0.00000,   0.00000,   0.00000,-425298192.00453,   0.00000
-47506446.38660,-213928.75887,-10456837.73361,  -0.00022,   0.00009,  -0.00014,50742305.67134,   0.00000,274640135.82653,   0.00000,   0.00000,   0.00000,-423897830.15518,   0.00000
-49220728.84102,-753029.23123,-10565228.30477,  -0.00022,   0.00009,  -0.00014,52163729.74070,   0.00000,274640135.82653,   0.00000,   0.00000,   0.00000,-422476406.08583,   0.00000
-50963535.12995,-1320653.53810,-10673618.87593,  -0.00023,   0.00009,  -0.00014,53605030.41182,   0.00000,274640135.82653,   0.00000,   0.00000,   0.00000,-421035105.41471,   0.00000
-52717750.95270,-1876868.31116,-10787714.21400,  -0.00024,   0.00009,  -0.00014,55071444.12359,   0.00000,274640135.82653,   0.00000,   0.00000,   0.00000,-419568691.70294,   0.00000
-54491933.45960,-2441640.23458,-10896104.78516,  -0.00024,   0.00010,  -0.00014,56554911.55039,   0.00000,274640135.82653,   0.00000,   0.00000,   0.00000,-418085224.27614,   0.00000
-56266115.96650,-3006412.15800,-11010200.12322,  -0.00025,   0.00010,  -0.00014,58046780.31687,   0.00000,274640135.82653,   0.00000,   0.00000,   0.00000,-416593355.50966,   0.00000
-58068822.30792,-3599707.91593,-11124295.46129,  -0.00026,   0.00010,  -0.00014,59558081.48781,   0.00000,274640135.82653,   0.00000,   0.00000,   0.00000,-415082054.33872,   0.00000
-59862971.49898,-4173036.98971,-11238390.79935,  -0.00026,   0.00010,  -0.00015,61074409.39791,   0.00000,274640135.82653,   0.00000,   0.00000,   0.00000,-413565726.42862,   0.00000
-61705611.20873,-4783447.04835,-11352486.13742,  -0.00027,   0.00010,  -0.00015,62625355.25651,   0.00000,274640135.82653,   0.00000,   0.00000,   0.00000,-412014780.57002,   0.00000
-63539693.76811,-5373890.42284,-11466581.47548,  -0.00028,   0.00010,  -0.00015,64180709.74065,   0.00000,274640135.82653,   0.00000,   0.00000,   0.00000,-410459426.08588,   0.00000
-65382333.47785,-5984300.48148,-11586381.58045,  -0.00029,   0.00010,  -0.00015,65742882.26062,   0.00000,274640135.82653,   0.00000,   0.00000,   0.00000,-408897253.56591,   0.00000
-67264906.55592,-6611824.84084,-11700476.91851,  -0.00029,   0.00010,  -0.00015,67336792.18660,   0.00000,274640135.82653,   0.00000,   0.00000,   0.00000,-407303343.63993,   0.00000
-69138922.48363,-7219382.51603,-11820277.02348,  -0.00030,   0.00010,  -0.00015,68937120.65854,   0.00000,274640135.82653,   0.00000,   0.00000,   0.00000,-405703015.16799,   0.00000
-71041462.24585,-7855464.02574,-11940077.12845,  -0.00031,   0.00010,  -0.00016,70556575.50916,   0.00000,274640135.82653,   0.00000,   0.00000,   0.00000,-404083560.31737,   0.00000
-72944002.00808,-8491545.53545,-12059877.23342,  -0.00032,   0.00010,  -0.00016,72179279.41314,   0.00000,274640135.82653,   0.00000,   0.00000,   0.00000,-402460856.41338,   0.00000
-74866508.45446,-9136184.19551,-12179677.33838,  -0.00032,   0.00010,  -0.00016,73820751.54523,   0.00000,274640135.82653,   0.00000,   0.00000,   0.00000,-400819384.28130,   0.00000
-76808981.58501,-9789380.00593,-12305182.21025,  -0.00033,   0.00011,  -0.00016,75483718.98698,   0.00000,274640135.82653,   0.00000,   0.00000,   0.00000,-399156416.83955,   0.00000
-78771421.39972,-10451132.96671,-12424982.31522,  -0.00034,   0.00011,  -0.00016,77162510.11467,   0.00000,274640135.82653,   0.00000,   0.00000,   0.00000,-397477625.71186,   0.00000
-80742418.36479,-11132852.61164,-12550487.18709,  -0.00035,   0.00011,  -0.00016,78847506.45014,   0.00000,274640135.82653,   0.00000,   0.00000,   0.00000,-395792629.37639,   0.00000
-82704858.17949,-11794605.57242,-12675992.05896,  -0.00035,   0.00011,  -0.00016,80534324.54542,   0.00000,274640135.82653,   0.00000,   0.00000,   0.00000,-394105811.28111,   0.00000
-84707231.36253,-12473472.83390,-12801496.93084,  -0.00036,   0.00011,  -0.00017,82255359.65162,   0.00000,274640135.82653,   0.00000,   0.00000,   0.00000,-392384776.17491,   0.00000
-86718161.69591,-13172306.77954,-12927001.80271,  -0.00037,   0.00011,  -0.00017,83979718.57191,   0.00000,274640135.82653,   0.00000,   0.00000,   0.00000,-390660417.25462,   0.00000
-88729092.02930,-13871140.72519,-13058211.44148,  -0.00038,   0.00011,  -0.00017,85709026.67489,   0.00000,274640135.82653,   0.00000,   0.00000,   0.00000,-388931109.15164,   0.00000
-90751431.89649,-14558565.13703,-13183716.31335,  -0.00038,   0.00011,  -0.00017,87452814.16319,   0.00000,274640135.82653,   0.00000,   0.00000,   0.00000,-387187321.66334,   0.00000
-92802295.59820,-15274513.38338,-13314925.95213,  -0.00039,   0.00011,  -0.00017,89218432.40387,   0.00000,274640135.82653,   0.00000,   0.00000,   0.00000,-385421703.42266,   0.00000
-94853159.29991,-15990461.62974,-13446135.59090,  -0.00040,   0.00011,  -0.00017,90986079.01788,   0.00000,274640135.82653,   0.00000,   0.00000,   0.00000,-383654056.80865,   0.00000
-96923989.68578,-16714967.02645,-13577345.22967,  -0.00041,   0.00011,  -0.00018,92771771.12728,   0.00000,274640135.82653,   0.00000,   0.00000,   0.00000,-381868364.69925,   0.00000
-99014786.75581,-17448029.57351,-13708554.86845,  -0.00042,   0.00011,  -0.00018,94575484.32078,   0.00000,274640135.82653,   0.00000,   0.00000,   0.00000,-380064651.50575,   0.00000
-101105583.82584,-18181092.12058,-13845469.27413,  -0.00042,   0.00011,  -0.00018,96383464.95267,   0.00000,274640135.82653,   0.00000,   0.00000,   0.00000,-378256670.87386,   0.00000
-103204938.04623,-18934121.35180,-13976678.91290,  -0.00043,   0.00012,  -0.00018,98192199.42399,   0.00000,274640135.82653,   0.00000,   0.00000,   0.00000,-376447936.40253,   0.00000
-105315701.80042,-19675741.04922,-14113593.31858,  -0.00044,   0.00012,  -0.00018,100019737.57012,   0.00000,274640135.82653,   0.00000,   0.00000,   0.00000,-374620398.25641,   0.00000
-107454989.38913,-20445884.58116,-14250507.72425,  -0.00045,   0.00012,  -0.00019,101866714.59021,   0.00000,274640135.82653,   0.00000,   0.00000,   0.00000,-372773421.23632,   0.00000
-109585719.82749,-21196061.42893,-14387422.12993,  -0.00046,   0.00012,  -0.00019,103713601.36282,   0.00000,274640135.82653,   0.00000,   0.00000,   0.00000,-370926534.46371,   0.00000
-111744974.10036,-21974762.11122,-14530041.30251,  -0.00047,   0.00012,  -0.00019,105582320.88902,   0.00000,274640135.82653,   0.00000,   0.00000,   0.00000,-369057814.93751,   0.00000
-113904228.37323,-22753462.79351,-14666955.70819,  -0.00047,   0.00012,  -0.00019,107450158.01440,   0.00000,274640135.82653,   0.00000,   0.00000,   0.00000,-367189977.81212,   0.00000
-116083449.33026,-23540720.62616,-14809574.88077,  -0.00048,   0.00012,  -0.00019,109338077.58715,   0.00000,274640135.82653,   0.00000,   0.00000,   0.00000,-365302058.23938,   0.00000
-118262670.28729,-24327978.45880,-14952194.05335,  -0.00049,   0.00012,  -0.00019,111227345.31207,   0.00000,274640135.82653,   0.00000,   0.00000,   0.00000,-363412790.51446,   0.00000
-120441891.24432,-25115236.29145,-15094813.22593,  -0.00050,   0.00012,  -0.00020,113117893.63965,   0.00000,274640135.82653,   0.00000,   0.00000,   0.00000,-361522242.18687,   0.00000
-122649636.03587,-25931017.95861,-15237432.39851,  -0.00051,   0.00012,  -0.00020,115028079.33603,   0.00000,274640135.82653,   0.00000,   0.00000,   0.00000,-359612056.49050,   0.00000
-124868790.36123,-26735390.09196,-15385756.33800,  -0.00052,   0.00012,  -0.00020,116956165.13593,   0.00000,274640135.82653,   0.00000,   0.00000,   0.00000,-357683970.69060,   0.00000
-127096501.83693,-27559728.90948,-15528375.51058,  -0.00052,   0.00012,  -0.00020,118885262.49613,   0.00000,274640135.82653,   0.00000,   0.00000,   0.00000,-355754873.33040,   0.00000
-129324213.31264,-28384067.72699,-15676699.45006,  -0.00053,   0.00012,  -0.00020,120817784.02703,   0.00000,274640135.82653,   0.00000,   0.00000,   0.00000,-353822351.79950,   0.00000
-131571891.47251,-29216963.69486,-15825023.38954,  -0.00054,   0.00012,  -0.00021,122767896.91375,   0.00000,274640135.82653,   0.00000,   0.00000,   0.00000,-351872238.91278,   0.00000
-133839536.31655,-30058416.81309,-15979052.09593,  -0.00055,   0.00012,  -0.00021,124737787.58547,   0.00000,274640135.82653,   0.00000,   0.00000,   0.00000,-349902348.24106,   0.00000
-136107181.16058,-30899869.93131,-16127376.03542,  -0.00056,   0.00012,  -0.00021,126706547.99194,   0.00000,274640135.82653,   0.00000,   0.00000,   0.00000,-347933587.83459,   0.00000
-138374826.00461,-31741323.04954,-16281404.74180,  -0.00057,   0.00013,  -0.00021,128678500.25433,   0.00000,274640135.82653,   0.00000,   0.00000,   0.00000,-345961635.57220,   0.00000
-140642470.84864,-32582776.16777,-16435433.44819,  -0.00058,   0.00013,  -0.00021,130651407.10975,   0.00000,274640135.82653,   0.00000,   0.00000,   0.00000,-343988728.71678,   0.00000
-142938639.52719,-33452753.12051,-16589462.15458,  -0.00059,   0.00013,  -0.00022,132644189.86701,   0.00000,274640135.82653,   0.00000,   0.00000,   0.00000,-341995945.95952,   0.00000
-145254774.88990,-34331287.22360,-16743490.86096,  -0.00059,   0.00013,  -0.00022,134654509.66096,   0.00000,274640135.82653,   0.00000,   0.00000,   0.00000,-339985626.16557,   0.00000
-147542386.41809,-35181297.49218,-16903224.33425,  -0.00060,   0.00013,  -0.00022,136648834.14277,   0.00000,274640135.82653,   0.00000,   0.00000,   0.00000,-337991301.68375,   0.00000
-149858521.78080,-36059831.59528,-17057253.04064,  -0.00061,   0.00013,  -0.00022,138660969.96037,   0.00000,274640135.82653,   0.00000,   0.00000,   0.00000,-335979165.86616,   0.00000
-152194623.82767,-36946922.84873,-17216986.51393,  -0.00062,   0.00013,  -0.00022,140692677.41907,   0.00000,274640135.82653,   0.00000,   0.00000,   0.00000,-333947458.40746,   0.00000
-154539283.02490,-37853980.78635,-17376719.98722,  -0.00063,   0.00013,  -0.00023,142727845.92155,   0.00000,274640135.82653,   0.00000,   0.00000,   0.00000,-331912289.90498,   0.00000
-156875385.07177,-38741072.03980,-17542158.22741,  -0.00064,   0.00013,  -0.00023,144763318.75064,   0.00000,274640135.82653,   0.00000,   0.00000,   0.00000,-329876817.07589,   0.00000
-159240010.95315,-39656687.12776,-17701891.70071,  -0.00065,   0.00013,  -0.00023,146816802.64557,   0.00000,274640135.82653,   0.00000,   0.00000,   0.00000,-327823333.18096,   0.00000
-161576113.00002,-40543778.38122,-17867329.94090,  -0.00066,   0.00013,  -0.00023,148853809.41750,   0.00000,274640135.82653,   0.00000,   0.00000,   0.00000,-325786326.40903,   0.00000
-163960705.56557,-41467950.61954,-18032768.18109,  -0.00067,   0.00013,  -0.00023,150927570.84451,   0.00000,274640135.82653,   0.00000,   0.00000,   0.00000,-323712564.98202,   0.00000
-166325331.44696,-42383565.70751,-18198206.42129,  -0.00067,   0.00013,  -0.00024,152985443.94704,   0.00000,274640135.82653,   0.00000,   0.00000,   0.00000,-321654691.87949,   0.00000
-168709924.01250,-43307737.94583,-18363644.66148,  -0.00068,   0.00013,  -0.00024,155060709.99468,   0.00000,274640135.82653,   0.00000,   0.00000,   0.00000,-319579425.83185,   0.00000
-171094516.57805,-44231910.18415,-18534787.66858,  -0.00069,   0.00013,  -0.00024,157138707.04920,   0.00000,274640135.82653,   0.00000,   0.00000,   0.00000,-317501428.77733,   0.00000
-173487666.29396,-45176049.10663,-18705930.67567,  -0.00070,   0.00013,  -0.00024,159220268.69857,   0.00000,274640135.82653,   0.00000,   0.00000,   0.00000,-315419867.12796,   0.00000
-175892225.54366,-46108778.49531,-18877073.68277,  -0.00071,   0.00013,  -0.00025,161316305.83071,   0.00000,274640135.82653,   0.00000,   0.00000,   0.00000,-313323829.99582,   0.00000
-178305341.94373,-47061474.56815,-19048216.68987,  -0.00072,   0.00013,  -0.00025,163415937.76661,   0.00000,274640135.82653,   0.00000,   0.00000,   0.00000,-311224198.05992,   0.00000
-180718458.34379,-48014170.64099,-19219359.69696,  -0.00073,   0.00013,  -0.00025,165516241.59909,   0.00000,274640135.82653,   0.00000,   0.00000,   0.00000,-309123894.22744,   0.00000
-183131574.74386,-48966866.71383,-19396207.47096,  -0.00074,   0.00013,  -0.00025,167619172.18841,   0.00000,274640135.82653,   0.00000,   0.00000,   0.00000,-307020963.63812,   0.00000
-185564657.82808,-49928119.93702,-19573055.24496,  -0.00075,   0.00013,  -0.00025,169739442.61147,   0.00000,274640135.82653,   0.00000,   0.00000,   0.00000,-304900693.21506,   0.00000
-188006298.06266,-50909339.84437,-19749903.01896,  -0.00076,   0.00013,  -0.00026,171863400.64550,   0.00000,274640135.82653,   0.00000,   0.00000,   0.00000,-302776735.18103,   0.00000
-190439381.14689,-51870593.06757,-19926750.79296,  -0.00077,   0.00014,  -0.00026,173984881.13849,   0.00000,274640135.82653,   0.00000,   0.00000,   0.00000,-300655254.68804,   0.00000
-192900988.06563,-52860370.12528,-20109303.33387,  -0.00077,   0.00014,  -0.00026,176128772.61117,   0.00000,274640135.82653,   0.00000,   0.00000,   0.00000,-298511363.21536,   0.00000
-195342628.30021,-53841590.03263,-20286151.10787,  -0.00078,   0.00014,  -0.00026,178254552.03150,   0.00000,274640135.82653,   0.00000,   0.00000,   0.00000,-296385583.79503,   0.00000
-197804235.21895,-54831367.09034,-20468703.64877,  -0.00079,   0.00014,  -0.00027,180399615.13656,   0.00000,274640135.82653,   0.00000,   0.00000,   0.00000,-294240520.68997,   0.00000
-200265842.13769,-55821144.14805,-20656960.95658,  -0.00080,   0.00014,  -0.00027,182547170.14268,   0.00000,274640135.82653,   0.00000,   0.00000,   0.00000,-292092965.68385,   0.00000
-202727449.05643,-56810921.20576,-20839513.49748,  -0.00081,   0.00014,  -0.00027,184693319.32428,   0.00000,274640135.82653,   0.00000,   0.00000,   0.00000,-289946816.50225,   0.00000
-205197613.12553,-57820664.94763,-21027770.80528,  -0.00082,   0.00014,  -0.00027,186845199.90070,   0.00000,274640135.82653,   0.00000,   0.00000,   0.00000,-287794935.92583,   0.00000
-207687743.87879,-58838965.83986,-21216028.11309,  -0.00083,   0.00014,  -0.00028,189014418.33312,   0.00000,274640135.82653,   0.00000,   0.00000,   0.00000,-285625717.49340,   0.00000
-210157907.94788,-59848709.58173,-21404285.42090,  -0.00084,   0.00014,  -0.00028,191167374.34952,   0.00000,274640135.82653,   0.00000,   0.00000,   0.00000,-283472761.47701,   0.00000
-212648038.70114,-60867010.47395,-21592542.72870,  -0.00085,   0.00014,  -0.00028,193337644.11791,   0.00000,274640135.82653,   0.00000,   0.00000,   0.00000,-281302491.70862,   0.00000
-215138169.45440,-61885311.36618,-21786504.80341,  -0.00086,   0.00014,  -0.00028,195510323.23202,   0.00000,274640135.82653,   0.00000,   0.00000,   0.00000,-279129812.59451,   0.00000
-217628300.20765,-62903612.25840,-21980466.87812,  -0.00087,   0.00014,  -0.00029,197683479.44695,   0.00000,274640135.82653,   0.00000,   0.00000,   0.00000,-276956656.37958,   0.00000
-220126988.11127,-63941879.83479,-22174428.95283,  -0.00088,   0.00014,  -0.00029,199860544.79985,   0.00000,274640135.82653,   0.00000,   0.00000,   0.00000,-274779591.02668,   0.00000
-222645642.69904,-64988704.56153,-22368391.02754,  -0.00089,   0.00014,  -0.00029,202054935.07870,   0.00000,274640135.82653,   0.00000,   0.00000,   0.00000,-272585200.74783,   0.00000
-225144330.60265,-66026972.13792,-22568057.86916,  -0.00090,   0.00014,  -0.00029,204234874.38844,   0.00000,274640135.82653,   0.00000,   0.00000,   0.00000,-270405261.43809,   0.00000
-227662985.19043,-67073796.86466,-22762019.94387,  -0.00091,   0.00014,  -0.00030,206430222.79978,   0.00000,274640135.82653,   0.00000,   0.00000,   0.00000,-268209913.02675,   0.00000
-230161673.09404,-68112064.44105,-22961686.78548,  -0.00091,   0.00014,  -0.00030,208611072.46340,   0.00000,274640135.82653,   0.00000,   0.00000,   0.00000,-266029063.36313,   0.00000
-232680327.68181,-69158889.16779,-23167058.39399,  -0.00092,   0.00014,  -0.00030,210811080.42809,   0.00000,274640135.82653,   0.00000,   0.00000,   0.00000,-263829055.39844,   0.00000
-235207539.41994,-70225680.57869,-23366725.23561,  -0.00093,   0.00014,  -0.00030,213013226.87671,   0.00000,274640135.82653,   0.00000,   0.00000,   0.00000,-261626908.94982,   0.00000
-237714784.47391,-71283914.83924,-23572096.84412,  -0.00094,   0.00014,  -0.00031,215200850.52969,   0.00000,274640135.82653,   0.00000,   0.00000,   0.00000,-259439285.29684,   0.00000
-240241996.21203,-72350706.25014,-23777468.45264,  -0.00095,   0.00014,  -0.00031,217405766.62086,   0.00000,274640135.82653,   0.00000,   0.00000,   0.00000,-257234369.20567,   0.00000
-242769207.95016,-73417497.66105,-23982840.06116,  -0.00096,   0.00014,  -0.00031,219611109.43416,   0.00000,274640135.82653,   0.00000,   0.00000,   0.00000,-255029026.39237,   0.00000
-245296419.68829,-74484289.07195,-24188211.66967,  -0.00097,   0.00014,  -0.00031,221816866.24196,   0.00000,274640135.82653,   0.00000,   0.00000,   0.00000,-252823269.58457,   0.00000
-247832188.57677,-75571047.16701,-24399288.04509,  -0.00098,   0.00014,  -0.00032,224028602.24435,   0.00000,274640135.82653,   0.00000,   0.00000,   0.00000,-250611533.58218,   0.00000
-250367957.46526,-76657805.26208,-24610364.42051,  -0.00099,   0.00014,  -0.00032,226240768.24573,   0.00000,274640135.82653,   0.00000,   0.00000,   0.00000,-248399367.58080,   0.00000
-252903726.35374,-77744563.35714,-24821440.79593,  -0.00100,   0.00014,  -0.00032,228453351.75478,   0.00000,274640135.82653,   0.00000,   0.00000,   0.00000,-246186784.07175,   0.00000
-255439495.24222,-78831321.45221,-25038221.93825,  -0.00101,   0.00014,  -0.00033,230668198.25013,   0.00000,274640135.82653,   0.00000,   0.00000,   0.00000,-243971937.57640,   0.00000
-257975264.13071,-79918079.54727,-25249298.31367,  -0.00102,   0.00014,  -0.00033,232881579.04352,   0.00000,274640135.82653,   0.00000,   0.00000,   0.00000,-241758556.78301,   0.00000
-260511033.01919,-81004837.64233,-25466079.45599,  -0.00103,   0.00014,  -0.00033,235097196.32741,   0.00000,274640135.82653,   0.00000,   0.00000,   0.00000,-239542939.49912,   0.00000
-263055359.05803,-82111562.42156,-25682860.59832,  -0.00104,   0.00014,  -0.00033,237317028.59756,   0.00000,274640135.82653,   0.00000,   0.00000,   0.00000,-237323107.22897,   0.00000
-265599685.09687,-83218287.20078,-25905346.50754,  -0.00105,   0.00014,  -0.00034,239539111.85104,   0.00000,274640135.82653,   0.00000,   0.00000,   0.00000,-235101023.97549,   0.00000
-268144011.13571,-84325011.98001,-26122127.64986,  -0.00106,   0.00014,  -0.00034,241759732.09130,   0.00000,274640135.82653,   0.00000,   0.00000,   0.00000,-232880403.73523,   0.00000
-270688337.17454,-85431736.75924,-26344613.55909,  -0.00107,   0.00014,  -0.00034,243982578.79091,   0.00000,274640135.82653,   0.00000,   0.00000,   0.00000,-230657557.03562,   0.00000
-273241220.36374,-86558428.22262,-26567099.46832,  -0.00107,   0.00014,  -0.00035,246209723.13131,   0.00000,274640135.82653,   0.00000,   0.00000,   0.00000,-228430412.69522,   0.00000
-275785546.40257,-87665153.00185,-26795290.14444,  -0.00108,   0.00014,  -0.00035,248435157.04525,   0.00000,274640135.82653,   0.00000,   0.00000,   0.00000,-226204978.78128,   0.00000
-278338429.59177,-88791844.46524,-27017776.05367,  -0.00109,   0.00014,  -0.00035,250663062.99652,   0.00000,274640135.82653,   0.00000,   0.00000,   0.00000,-223977072.83001,   0.00000
-280871346.09680,-89909978.77827,-27245966.72980,  -0.00110,   0.00014,  -0.00035,252876271.49314,   0.00000,274640135.82653,   0.00000,   0.00000,   0.00000,-221763864.33339,   0.00000
-283424229.28599,-91036670.24165,-27474157.40593,  -0.00111,   0.00014,  -0.00036,255106759.90757,   0.00000,274640135.82653,   0.00000,   0.00000,   0.00000,-219533375.91896,   0.00000
-285965702.94138,-92174771.23885,-27708052.84896,  -0.00112,   0.00014,  -0.00036,257326557.19718,   0.00000,274640135.82653,   0.00000,   0.00000,   0.00000,-217313578.62935,   0.00000
-288518586.13057,-93301462.70223,-27936243.52509,  -0.00113,   0.00014,  -0.00036,259557763.29996,   0.00000,274640135.82653,   0.00000,   0.00000,   0.00000,-215082372.52657,   0.00000
-291060059.78596,-94439563.69943,-28170138.96812,  -0.00114,   0.00014,  -0.00037,261778293.07694,   0.00000,274640135.82653,   0.00000,   0.00000,   0.00000,-212861842.74959,   0.00000
-293601533.44134,-95577664.69662,-28404034.41115,  -0.00115,   0.00014,  -0.00037,263999183.75402,   0.00000,274640135.82653,   0.00000,   0.00000,   0.00000,-210640952.07251,   0.00000
-296143007.09673,-96715765.69381,-28643634.62109,  -0.00116,   0.00014,  -0.00037,266222267.49978,   0.00000,274640135.82653,   0.00000,   0.00000,   0.00000,-208417868.32675,   0.00000
-298684480.75212,-97853866.69101,-28877530.06412,  -0.00117,   0.00014,  -0.00038,268443852.85226,   0.00000,274640135.82653,   0.00000,   0.00000,   0.00000,-206196282.97427,   0.00000
-301234511.55786,-99011934.37236,-29117130.27406,  -0.00118,   0.00014,  -0.00038,270671764.76092,   0.00000,274640135.82653,   0.00000,   0.00000,   0.00000,-203968371.06561,   0.00000
-303764575.67944,-100161444.90336,-29356730.48399,  -0.00119,   0.00014,  -0.00038,272883100.51459,   0.00000,274640135.82653,   0.00000,   0.00000,   0.00000,-201757035.31193,   0.00000
-306306049.33482,-101299545.90055,-29602035.46083,  -0.00120,   0.00014,  -0.00038,275109381.27376,   0.00000,274640135.82653,   0.00000,   0.00000,   0.00000,-199530754.55277,   0.00000
-308836113.45640,-102449056.43155,-29841635.67077,  -0.00121,   0.00014,  -0.00039,277321393.65995,   0.00000,274640135.82653,   0.00000,   0.00000,   0.00000,-197318742.16658,   0.00000
-311374734.72834,-103618533.64672,-30086940.64761,  -0.00121,   0.00014,  -0.00039,279539808.44891,   0.00000,274640135.82653,   0.00000,   0.00000,   0.00000,-195100327.37762,   0.00000
-313904798.84992,-104768044.17771,-30332245.62444,  -0.00122,   0.00014,  -0.00039,281754342.22420,   0.00000,274640135.82653,   0.00000,   0.00000,   0.00000,-192885793.60233,   0.00000
-316443420.12185,-105937521.39288,-30583255.36819,  -0.00123,   0.00014,  -0.00040,283975300.88942,   0.00000,274640135.82653,   0.00000,   0.00000,   0.00000,-190664834.93711,   0.00000
-318962074.70963,-107098441.45768,-30828560.34502,  -0.00124,   0.00013,  -0.00040,286177812.87001,   0.00000,274640135.82653,   0.00000,   0.00000,   0.00000,-188462322.95651,   0.00000
-321500695.98156,-108267918.67284,-31079570.08877,  -0.00125,   0.00013,  -0.00040,288399458.31310,   0.00000,274640135.82653,   0.00000,   0.00000,   0.00000,-186240677.51343,   0.00000
-324019350.56934,-109428838.73765,-31330579.83251,  -0.00126,   0.00013,  -0.00041,290604481.60247,   0.00000,274640135.82653,   0.00000,   0.00000,   0.00000,-184035654.22406,   0.00000
-326538005.15711,-110589758.80246,-31587294.34315,  -0.00127,   0.00013,  -0.00041,292811672.96673,   0.00000,274640135.82653,   0.00000,   0.00000,   0.00000,-181828462.85980,   0.00000
-329045250.21108,-111762088.40107,-31838304.08690,  -0.00128,   0.00013,  -0.00041,295004728.04615,   0.00000,274640135.82653,   0.00000,   0.00000,   0.00000,-179635407.78038,   0.00000
-331572461.94920,-112942975.15004,-32095018.59754,  -0.00129,   0.00013,  -0.00042,297216930.01033,   0.00000,274640135.82653,   0.00000,   0.00000,   0.00000,-177423205.81620,   0.00000
-334079707.00317,-114115304.74865,-32357437.87509,  -0.00130,   0.00013,  -0.00042,299414357.02337,   0.00000,274640135.82653,   0.00000,   0.00000,   0.00000,-175225778.80316,   0.00000
-336586952.05714,-115287634.34726,-32614152.38573,  -0.00131,   0.00013,  -0.00042,301610262.22793,   0.00000,274640135.82653,   0.00000,   0.00000,   0.00000,-173029873.59860,   0.00000
-339074230.42694,-116451406.79552,-32876571.66328,  -0.00132,   0.00013,  -0.00043,303791375.18361,   0.00000,274640135.82653,   0.00000,   0.00000,   0.00000,-170848760.64292,   0.00000
-341590032.63127,-117643703.07829,-33138990.94083,  -0.00132,   0.00013,  -0.00043,305994204.28393,   0.00000,274640135.82653,   0.00000,   0.00000,   0.00000,-168645931.54260,   0.00000
-344085868.15143,-118827442.21071,-33401410.21838,  -0.00133,   0.00013,  -0.00043,308180409.31296,   0.00000,274640135.82653,   0.00000,   0.00000,   0.00000,-166459726.51357,   0.00000
-346581703.67159,-120011181.34313,-33663829.49593,  -0.00134,   0.00013,  -0.00044,310366946.57570,   0.00000,274640135.82653,   0.00000,   0.00000,   0.00000,-164273189.25083,   0.00000
-349057572.50759,-121186363.32519,-33931953.54038,  -0.00135,   0.00013,  -0.00044,312538698.70907,   0.00000,274640135.82653,   0.00000,   0.00000,   0.00000,-162101437.11746,   0.00000
-351553408.02775,-122370102.45761,-34200077.58483,  -0.00136,   0.00013,  -0.00044,314727739.53396,   0.00000,274640135.82653,   0.00000,   0.00000,   0.00000,-159912396.29257,   0.00000
-354037834.01410,-123565251.12384,-34468201.62928,  -0.00137,   0.00013,  -0.00045,316904648.28095,   0.00000,274640135.82653,   0.00000,   0.00000,   0.00000,-157735487.54558,   0.00000
-356493736.16594,-124731875.95555,-34742030.44064,  -0.00138,   0.00013,  -0.00045,319062248.41553,   0.00000,274640135.82653,   0.00000,   0.00000,   0.00000,-155577887.41100,   0.00000
-358978162.15229,-125927024.62177,-35015859.25199,  -0.00139,   0.00013,  -0.00046,321241678.12687,   0.00000,274640135.82653,   0.00000,   0.00000,   0.00000,-153398457.69966,   0.00000
-361442621.45449,-127113616.13764,-35289688.06335,  -0.00140,   0.00013,  -0.00046,323404464.44500,   0.00000,274640135.82653,   0.00000,   0.00000,   0.00000,-151235671.38153,   0.00000
-363895671.22287,-128311617.18732,-35563516.87470,  -0.00141,   0.00013,  -0.00046,325555186.98892,   0.00000,274640135.82653,   0.00000,   0.00000,   0.00000,-149084948.83761,   0.00000
-366360130.52507,-129498208.70319,-35837345.68606,  -0.00141,   0.00013,  -0.00047,327718624.26460,   0.00000,274640135.82653,   0.00000,   0.00000,   0.00000,-146921511.56193,   0.00000
-368813180.29345,-130696209.75287,-36116879.26431,  -0.00142,   0.00012,  -0.00047,329871889.27531,   0.00000,274640135.82653,   0.00000,   0.00000,   0.00000,-144768246.55122,   0.00000
-371246263.37768,-131885653.65219,-36396412.84257,  -0.00143,   0.00012,  -0.00047,332008515.25688,   0.00000,274640135.82653,   0.00000,   0.00000,   0.00000,-142631620.56965,   0.00000
-373679346.46190,-133075097.55151,-36675946.42083,  -0.00144,   0.00012,  -0.00048,334145470.13947,   0.00000,274640135.82653,   0.00000,   0.00000,   0.00000,-140494665.68706,   0.00000
-376112429.54613,-134264541.45084,-36961184.76599,  -0.00145,   0.00012,  -0.00048,336284628.55302,   0.00000,274640135.82653,   0.00000,   0.00000,   0.00000,-138355507.27351,   0.00000
-378545512.63035,-135453985.35016,-37246423.11115,  -0.00146,   0.00012,  -0.00048,338424108.27443,   0.00000,274640135.82653,   0.00000,   0.00000,   0.00000,-136216027.55210,   0.00000
-380967186.18077,-136654838.78329,-37531661.45631,  -0.00147,   0.00012,  -0.00049,340551625.06607,   0.00000,274640135.82653,   0.00000,   0.00000,   0.00000,-134088510.76046,   0.00000
-383388859.73119,-137855692.21642,-37816899.80147,  -0.00148,   0.00012,  -0.00049,342679481.04304,   0.00000,274640135.82653,   0.00000,   0.00000,   0.00000,-131960654.78349,   0.00000
-385790566.59745,-139047988.49919,-38102138.14664,  -0.00148,   0.00012,  -0.00050,344790691.44620,   0.00000,274640135.82653,   0.00000,   0.00000,   0.00000,-129849444.38033,   0.00000
-388192273.46371,-140240284.78196,-38393081.25870,  -0.00149,   0.00012,  -0.00050,346904121.82266,   0.00000,274640135.82653,   0.00000,   0.00000,   0.00000,-127736014.00387,   0.00000
-390593980.32996,-141432581.06474,-38684024.37076,  -0.00150,   0.00012,  -0.00050,349017877.61485,   0.00000,274640135.82653,   0.00000,   0.00000,   0.00000,-125622258.21168,   0.00000
-392975720.51206,-142616320.19716,-38980672.24973,  -0.00151,   0.00012,  -0.00051,351116873.61820,   0.00000,274640135.82653,   0.00000,   0.00000,   0.00000,-123523262.20833,   0.00000
-395346051.16035,-143811468.86338,-39271615.36180,  -0.00152,   0.00012,  -0.00051,353202097.58351,   0.00000,274640135.82653,   0.00000,   0.00000,   0.00000,-121438038.24302,   0.00000
-397736348.49280,-145015174.67996,-39568263.24076,  -0.00153,   0.00012,  -0.00051,355306543.86637,   0.00000,274640135.82653,   0.00000,   0.00000,   0.00000,-119333591.96016,   0.00000
-400086712.45693,-146201766.19583,-39864911.11973,  -0.00154,   0.00011,  -0.00052,357377368.26279,   0.00000,274640135.82653,   0.00000,   0.00000,   0.00000,-117262767.56374,   0.00000
-402457043.10522,-147396914.86206,-40161558.99870,  -0.00154,   0.00011,  -0.00052,359465503.21450,   0.00000,274640135.82653,   0.00000,   0.00000,   0.00000,-115174632.61203,   0.00000
-404815964.21970,-148603473.06209,-40463911.64457,  -0.00155,   0.00011,  -0.00053,361543750.18240,   0.00000,274640135.82653,   0.00000,   0.00000,   0.00000,-113096385.64413,   0.00000
-407146361.49967,-149781507.42761,-40766264.29044,  -0.00156,   0.00011,  -0.00053,363600507.14103,   0.00000,274640135.82653,   0.00000,   0.00000,   0.00000,-111039628.68550,   0.00000
-409485315.92999,-150979508.47728,-41068616.93631,  -0.00157,   0.00011,  -0.00053,365662464.72086,   0.00000,274640135.82653,   0.00000,   0.00000,   0.00000,-108977671.10567,   0.00000
-411824270.36031,-152177509.52696,-41370969.58218,  -0.00158,   0.00011,  -0.00054,367724766.10905,   0.00000,274640135.82653,   0.00000,   0.00000,   0.00000,-106915369.71748,   0.00000
-414143258.10647,-153366953.42628,-41679026.99496,  -0.00159,   0.00011,  -0.00054,369772355.28663,   0.00000,274640135.82653,   0.00000,   0.00000,   0.00000,-104867780.53990,   0.00000
-416442279.16847,-154547840.17525,-41981379.64083,  -0.00159,   0.00011,  -0.00055,371801372.62840,   0.00000,274640135.82653,   0.00000,   0.00000,   0.00000,-102838763.19813,   0.00000
-418741300.23047,-155728726.92422,-42289437.05360,  -0.00160,   0.00011,  -0.00055,373832653.43144,   0.00000,274640135.82653,   0.00000,   0.00000,   0.00000,-100807482.39509,   0.00000
-421048878.44283,-156929580.35735,-42603199.23328,  -0.00161,   0.00011,  -0.00055,375871155.02505,   0.00000,274640135.82653,   0.00000,   0.00000,   0.00000,-98768980.80148,   0.00000
-423336489.97102,-158121876.64012,-42911256.64605,  -0.00162,   0.00011,  -0.00056,377891094.37713,   0.00000,274640135.82653,   0.00000,   0.00000,   0.00000,-96749041.44940,   0.00000
-425604134.81505,-159305615.77254,-43225018.82573,  -0.00163,   0.00011,  -0.00056,379896350.04003,   0.00000,274640135.82653,   0.00000,   0.00000,   0.00000,-94743785.78650,   0.00000
-427871779.65908,-160489354.90496,-43538781.00541,  -0.00163,   0.00010,  -0.00057,381901955.11575,   0.00000,274640135.82653,   0.00000,   0.00000,   0.00000,-92738180.71078,   0.00000
-430139424.50311,-161673094.03738,-43852543.18509,  -0.00164,   0.00010,  -0.00057,383907904.12808,   0.00000,274640135.82653,   0.00000,   0.00000,   0.00000,-90732231.69845,   0.00000
-432387102.66299,-162848276.01944,-44172010.13167,  -0.00165,   0.00010,  -0.00057,385899174.32835,   0.00000,274640135.82653,   0.00000,   0.00000,   0.00000,-88740961.49818,   0.00000
-434623371.28905,-164034867.53531,-44485772.31134,  -0.00166,   0.00010,  -0.00058,387876884.22391,   0.00000,274640135.82653,   0.00000,   0.00000,   0.00000,-86763251.60262,   0.00000
-436859639.91511,-165221459.05118,-44805239.25792,  -0.00167,   0.00010,  -0.00058,389856918.37557,   0.00000,274640135.82653,   0.00000,   0.00000,   0.00000,-84783217.45096,   0.00000
-439075941.85702,-166399493.41670,-45130410.97141,  -0.00167,   0.00010,  -0.00059,391822308.97926,   0.00000,274640135.82653,   0.00000,   0.00000,   0.00000,-82817826.84727,   0.00000
-441292243.79892,-167577527.78221,-45449877.91799,  -0.00168,   0.00010,  -0.00059,393786088.14644,   0.00000,274640135.82653,   0.00000,   0.00000,   0.00000,-80854047.68009,   0.00000
-443488579.05666,-168747004.99738,-45775049.63147,  -0.00169,   0.00010,  -0.00060,395735223.96827,   0.00000,274640135.82653,   0.00000,   0.00000,   0.00000,-78904911.85826,   0.00000
-445684914.31440,-169916482.21254,-46100221.34496,  -0.00170,   0.00010,  -0.00060,397684714.54606,   0.00000,274640135.82653,   0.00000,   0.00000,   0.00000,-76955421.28047,   0.00000
-447869840.03834,-171097368.96150,-46425393.05844,  -0.00170,   0.00009,  -0.00060,399622701.27664,   0.00000,274640135.82653,   0.00000,   0.00000,   0.00000,-75017434.54989,   0.00000
-450026241.92775,-172249731.87596,-46750564.77192,  -0.00171,   0.00009,  -0.00061,401538958.21606,   0.00000,274640135.82653,   0.00000,   0.00000,   0.00000,-73101177.61047,   0.00000
-452191200.96753,-173422061.47457,-47081441.25231,  -0.00172,   0.00009,  -0.00061,403462699.28864,   0.00000,274640135.82653,   0.00000,   0.00000,   0.00000,-71177436.53788,   0.00000
-454336193.32314,-174585833.92283,-47412317.73270,  -0.00173,   0.00009,  -0.00062,405369843.96426,   0.00000,274640135.82653,   0.00000,   0.00000,   0.00000,-69270291.86227,   0.00000
-456481185.67875,-175749606.37108,-47743194.21308,  -0.00173,   0.00009,  -0.00062,407277357.70655,   0.00000,274640135.82653,   0.00000,   0.00000,   0.00000,-67362778.11998,   0.00000
-458614768.50056,-176924788.35315,-48074070.69347,  -0.00174,   0.00009,  -0.00062,409173452.93550,   0.00000,274640135.82653,   0.00000,   0.00000,   0.00000,-65466682.89103,   0.00000
-460739794.17201,-178080003.65105,-48410651.94076,  -0.00175,   0.00009,  -0.00063,411066752.57150,   0.00000,274640135.82653,   0.00000,   0.00000,   0.00000,-63573383.25503,   0.00000
-462833443.62549,-179238071.33241,-48747233.18805,  -0.00176,   0.00009,  -0.00063,412931697.98418,   0.00000,274640135.82653,   0.00000,   0.00000,   0.00000,-61708437.84235,   0.00000
-464938502.61278,-180384729.47995,-49083814.43534,  -0.00176,   0.00009,  -0.00064,414808773.22125,   0.00000,274640135.82653,   0.00000,   0.00000,   0.00000,-59831362.60528,   0.00000
-467012185.38211,-181534240.01095,-49420395.68263,  -0.00177,   0.00008,  -0.00064,416657516.39784,   0.00000,274640135.82653,   0.00000,   0.00000,   0.00000,-57982619.42869,   0.00000
-469085868.15143,-182683750.54195,-49756976.92992,  -0.00178,   0.00008,  -0.00065,418506641.46574,   0.00000,274640135.82653,   0.00000,   0.00000,   0.00000,-56133494.36079,   0.00000
-471159550.92075,-183833261.07295,-50099262.94412,  -0.00179,   0.00008,  -0.00065,420358182.99607,   0.00000,274640135.82653,   0.00000,   0.00000,   0.00000,-54281952.83046,   0.00000
-473201857.47210,-184985623.98740,-50441548.95831,  -0.00179,   0.00008,  -0.00066,422181463.00439,   0.00000,274640135.82653,   0.00000,   0.00000,   0.00000,-52458672.82214,   0.00000
-475235606.87310,-186118020.21769,-50783834.97250,  -0.00180,   0.00008,  -0.00066,423999861.89286,   0.00000,274640135.82653,   0.00000,   0.00000,   0.00000,-50640273.93367,   0.00000
-477277913.42446,-187270383.13215,-51126120.98670,  -0.00181,   0.00008,  -0.00066,425823937.88419,   0.00000,274640135.82653,   0.00000,   0.00000,   0.00000,-48816197.94234,   0.00000
-479271729.45713,-188385665.06173,-51474111.76779,  -0.00181,   0.00008,  -0.00067,427611246.93507,   0.00000,274640135.82653,   0.00000,   0.00000,   0.00000,-47028888.89146,   0.00000
-481274102.64017,-189520913.67547,-51822102.54889,  -0.00182,   0.00008,  -0.00067,429404263.91635,   0.00000,274640135.82653,   0.00000,   0.00000,   0.00000,-45235871.91018,   0.00000
-483276475.82320,-190656162.28921,-52170093.32999,  -0.00183,   0.00007,  -0.00068,431197683.21735,   0.00000,274640135.82653,   0.00000,   0.00000,   0.00000,-43442452.60918,   0.00000
-485238915.63791,-191774296.60224,-52518084.11108,  -0.00183,   0.00007,  -0.00068,432957598.19218,   0.00000,274640135.82653,   0.00000,   0.00000,   0.00000,-41682537.63435,   0.00000
-487201355.45262,-192892430.91527,-52866074.89218,  -0.00184,   0.00007,  -0.00069,434717911.39119,   0.00000,274640135.82653,   0.00000,   0.00000,   0.00000,-39922224.43534,   0.00000
-489172352.41768,-194030531.91247,-53219770.44018,  -0.00185,   0.00007,  -0.00069,436486079.78345,   0.00000,274640135.82653,   0.00000,   0.00000,   0.00000,-38154056.04308,   0.00000
-491094858.86407,-195131551.92479,-53573465.98818,  -0.00185,   0.00007,  -0.00070,438215391.99442,   0.00000,274640135.82653,   0.00000,   0.00000,   0.00000,-36424743.83211,   0.00000
-493025922.46081,-196252538.62127,-53927161.53618,  -0.00186,   0.00007,  -0.00070,439950504.60097,   0.00000,274640135.82653,   0.00000,   0.00000,   0.00000,-34689631.22556,   0.00000
-494928462.22303,-197345001.48324,-54280857.08418,  -0.00187,   0.00007,  -0.00071,441663682.63052,   0.00000,274640135.82653,   0.00000,   0.00000,   0.00000,-32976453.19601,   0.00000
-496839559.13561,-198457431.02937,-54640257.39908,  -0.00187,   0.00007,  -0.00071,443384787.85243,   0.00000,274640135.82653,   0.00000,   0.00000,   0.00000,-31255347.97410,   0.00000
-498730689.36403,-199561303.42514,-54993952.94708,  -0.00188,   0.00006,  -0.00071,445087263.90776,   0.00000,274640135.82653,   0.00000,   0.00000,   0.00000,-29552871.91877,   0.00000
-500601852.90829,-200656618.67056,-55353353.26199,  -0.00189,   0.00006,  -0.00072,446775334.81467,   0.00000,274640135.82653,   0.00000,   0.00000,   0.00000,-27864801.01186,   0.00000
-502453049.76839,-201743376.76563,-55712753.57689,  -0.00189,   0.00006,  -0.00072,448446892.17035,   0.00000,274640135.82653,   0.00000,   0.00000,   0.00000,-26193243.65618,   0.00000
-504312803.77884,-202850101.54485,-56072153.89179,  -0.00190,   0.00006,  -0.00073,450124342.40032,   0.00000,274640135.82653,   0.00000,   0.00000,   0.00000,-24515793.42621,   0.00000
-506144033.95477,-203928302.48956,-56437258.97360,  -0.00191,   0.00006,  -0.00073,451781954.71491,   0.00000,274640135.82653,   0.00000,   0.00000,   0.00000,-22858181.11162,   0.00000
-507963854.59690,-205017912.96808,-56802364.05540,  -0.00191,   0.00006,  -0.00074,453428559.49852,   0.00000,274640135.82653,   0.00000,   0.00000,   0.00000,-21211576.32801,   0.00000
-509755151.40451,-206078999.61208,-57161764.37031,  -0.00192,   0.00006,  -0.00074,455051028.71413,   0.00000,274640135.82653,   0.00000,   0.00000,   0.00000,-19589107.11240,   0.00000
-511555005.36248,-207160052.94024,-57526869.45211,  -0.00192,   0.00005,  -0.00075,456681586.20614,   0.00000,274640135.82653,   0.00000,   0.00000,   0.00000,-17958549.62039,   0.00000
-513334892.63629,-208232549.11804,-57897679.30082,  -0.00193,   0.00005,  -0.00075,458297825.73178,   0.00000,274640135.82653,   0.00000,   0.00000,   0.00000,-16342310.09475,   0.00000
-515094813.22593,-209296488.14549,-58262784.38263,  -0.00194,   0.00005,  -0.00076,459895430.74942,   0.00000,274640135.82653,   0.00000,   0.00000,   0.00000,-14744705.07711,   0.00000
-516834767.13142,-210351870.02259,-58633594.23134,  -0.00194,   0.00005,  -0.00076,461478733.09228,   0.00000,274640135.82653,   0.00000,   0.00000,   0.00000,-13161402.73425,   0.00000
-518574721.03690,-211407251.89969,-59004404.08005,  -0.00195,   0.00005,  -0.00077,463062490.25131,   0.00000,274640135.82653,   0.00000,   0.00000,   0.00000,-11577645.57522,   0.00000
-520294708.25822,-212454076.62643,-59375213.92876,  -0.00195,   0.00005,  -0.00077,464629782.07099,   0.00000,274640135.82653,   0.00000,   0.00000,   0.00000,-10010353.75554,   0.00000
-521994728.79538,-213492344.20282,-59746023.77747,  -0.00196,   0.00005,  -0.00078,466180610.58241,   0.00000,274640135.82653,   0.00000,   0.00000,   0.00000,-8459525.24412,   0.00000
-523683339.79874,-214542021.31301,-60116833.62618,  -0.00196,   0.00005,  -0.00078,467720576.94651,   0.00000,274640135.82653,   0.00000,   0.00000,   0.00000,-6919558.88002,   0.00000
-525343426.96757,-215563174.58869,-60493348.24179,  -0.00197,   0.00004,  -0.00079,469240702.81132,   0.00000,274640135.82653,   0.00000,   0.00000,   0.00000,-5399433.01521,   0.00000
-527012071.28677,-216604294.54852,-60864158.09050,  -0.00198,   0.00004,  -0.00079,470764700.24780,   0.00000,274640135.82653,   0.00000,   0.00000,   0.00000,-3875435.57873,   0.00000
-528652191.77144,-217616890.67385,-61240672.70611,  -0.00198,   0.00004,  -0.00080,472268847.93577,   0.00000,274640135.82653,   0.00000,   0.00000,   0.00000,-2371287.89076,   0.00000
-530280902.72232,-218640896.33298,-61617187.32173,  -0.00199,   0.00004,  -0.00080,473762196.44684,   0.00000,274640135.82653,   0.00000,   0.00000,   0.00000,-877939.37969,   0.00000
-531237260.63642,-219244554.87450,-61841015.76971,  -0.00199,   0.00004,  -0.00080,474640136.19153,   0.00000,274640135.82653,   0.00000,   0.00000,   0.00000,   0.36500,   0.00000
-531232056.14562,-219436296.94687,-61906828.09349,  -0.00199,   0.00004,  -0.00081,474640136.19153,   0.00000,274642556.84481,  -0.00000,   0.00000,  -0.00000,  -0.00000,   2.00000
-531216404.64240,-219906864.05571,-62073796.90696,  -0.00200,   0.00004,  -0.00081,476122234.79272,   0.00001,274648535.78990,  -0.00001,   0.00000,  -0.00000,  -0.00000,   2.00000
-531201164.19844,-220374172.49932,-62237178.68657,  -0.00200,   0.00003,  -0.00082,476109630.29045,   0.00001,274654437.45132,  -0.00002,   0.00000,  -0.00001,  -0.00000,   2.00000
-531180010.69138,-220834317.72689,-62410181.61888,  -0.00201,   0.00003,  -0.00082,476084541.52810,   0.00002,274660211.83780,  -0.00002,   0.00000,  -0.00001,  -0.00000,   2.00000
-531158244.62835,-221292775.32086,-62582498.89024,  -0.00201,   0.00003,  -0.00083,476090876.55775,   0.00002,274665986.41525,  -0.00003,   0.00000,  -0.00001,  -0.00000,   2.00000
-531135872.57101,-221749550.51347,-62754132.86493,  -0.00202,   0.00003,  -0.00083,476097207.99274,   0.00003,274671761.17332,  -0.00003,   0.00000,  -0.00001,   0.00000,   2.00000
-531112289.63643,-222217916.55674,-62929208.18812,  -0.00202,   0.00003,  -0.00084,476075509.38447,   0.00003,274677423.00485,  -0.00004,   0.00000,  -0.00002,   0.00000,   2.00000
-531085850.63184,-222666828.57425,-63104448.10750,  -0.00203,   0.00003,  -0.00084,476075996.23411,   0.00004,274683061.99049,  -0.00005,   0.00000,  -0.00002,   0.00000,   2.00000
-531055672.88756,-223126576.40254,-63288498.33271,  -0.00203,   0.00003,  -0.00085,476056485.69247,   0.00004,274688597.60506,  -0.00005,   0.00001,  -0.00002,  -0.00000,   2.00000
-531025181.83463,-223567800.92427,-63467357.74281,  -0.00204,   0.00002,  -0.00085,476054542.69164,   0.00005,274694101.19676,  -0.00006,   0.00001,  -0.00003,  -0.00000,   2.00000
-530992342.76616,-224022131.70680,-63652532.05489,  -0.00204,   0.00002,  -0.00086,476051827.01189,   0.00005,274699569.76522,  -0.00006,   0.00001,  -0.00003,  -0.00000,   2.00000
-530956730.51964,-224457134.09506,-63837875.52638,  -0.00205,   0.00002,  -0.00086,476052073.84911,   0.00006,274705015.48279,  -0.00007,   0.00001,  -0.00003,   0.00000,   2.00000
-530919801.83056,-224903989.15451,-64026704.77392,  -0.00205,   0.00002,  -0.00087,476030181.38592,   0.00006,274710349.30073,  -0.00007,   0.00001,  -0.00003,  -0.00000,   2.00000
-530882269.65939,-225349279.23691,-64214835.55127,  -0.00206,   0.00002,  -0.00087,476036115.10998,   0.00007,274715683.72925,  -0.00008,   0.00001,  -0.00004,   0.00000,   2.00000
-530836579.88880,-225770204.66907,-64413577.33873,  -0.00206,   0.00002,  -0.00088,476004777.68117,   0.00007,274720868.94695,  -0.00009,   0.00001,  -0.00004,   0.00000,   2.00000
-530794971.41573,-226208233.88295,-64605384.11044,  -0.00206,   0.00002,  -0.00088,476014102.75991,   0.00008,274726069.10400,  -0.00009,   0.00001,  -0.00004,   0.00000,   2.00000
-530748756.58072,-226641769.36909,-64804388.54440,  -0.00207,   0.00001,  -0.00089,476005381.17533,   0.00008,274731211.60998,  -0.00010,   0.00001,  -0.00004,  -0.00000,   2.00000
-530703046.79463,-227072636.88589,-64999916.35797,  -0.00207,   0.00001,  -0.00089,475991940.88886,   0.00009,274736277.77958,  -0.00010,   0.00001,  -0.00005,   0.00000,   2.00000
-530652713.75347,-227499079.76196,-65202656.56698,  -0.00208,   0.00001,  -0.00090,475983109.61618,   0.00009,274741286.51776,  -0.00011,   0.00001,  -0.00005,   0.00000,   2.00000
-530601795.31220,-227924079.16440,-65404689.64257,  -0.00208,   0.00001,  -0.00090,475988739.15025,   0.00010,274746296.17690,  -0.00011,   0.00001,  -0.00005,   0.00000,   2.00000
-530547335.48748,-228343579.09926,-65611195.69023,  -0.00209,   0.00001,  -0.00091,475960674.70336,   0.00010,274751171.50108,  -0.00012,   0.00001,  -0.00005,  -0.00000,   2.00000
-530489700.06607,-228760762.94402,-65822321.45751,  -0.00209,   0.00001,  -0.00091,475968549.29860,   0.00011,274756057.38529,  -0.00012,   0.00001,  -0.00006,   0.00000,   2.00000
-530431101.95421,-229173469.64951,-66032617.80636,  -0.00209,   0.00000,  -0.00092,475938014.24979,   0.00011,274760799.67682,  -0.00013,   0.00001,  -0.00006,   0.00000,   2.00000
-530371294.41074,-229601477.66786,-66246602.92983,  -0.00210,   0.00000,  -0.00092,475951766.57650,   0.00011,274765576.65030,  -0.00013,   0.00001,  -0.00006,   0.00000,   2.00000
-530310026.06883,-230009459.02111,-66458109.69507,  -0.00210,   0.00000,  -0.00093,475931979.45741,   0.00012,274770253.71381,  -0.00014,   0.00001,  -0.00006,  -0.00000,   2.00000
-530244052.33506,-230413215.76801,-66676865.83828,  -0.00211,  -0.00000,  -0.00093,475922862.96799,   0.00012,274774874.13608,  -0.00014,   0.00001,  -0.00007,  -0.00000,   2.00000
-530175986.87504,-230813716.58414,-66897550.54826,  -0.00211,  -0.00000,  -0.00094,475911308.90559,   0.00013,274779428.42555,  -0.00015,   0.00001,  -0.00007,   0.00000,   2.00000
-530107746.27794,-231228538.12185,-67119222.72921,  -0.00211,  -0.00000,  -0.00094,475905740.27857,   0.00013,274783940.82598,  -0.00015,   0.00001,  -0.00007,   0.00000,   2.00000
-530036987.85538,-231624497.76060,-67341142.26852,  -0.00212,  -0.00001,  -0.00095,475904875.97956,   0.00014,274788430.43739,  -0.00016,   0.00001,  -0.00007,   0.00000,   2.00000
-529962592.54055,-232015386.04241,-67567687.12730,  -0.00212,  -0.00001,  -0.00095,475876392.02633,   0.00014,274792786.78975,  -0.00016,   0.00002,  -0.00007,   0.00000,   2.00000
-529889501.61853,-232422553.74298,-67792564.44524,  -0.00212,  -0.00001,  -0.00096,475887498.15060,   0.00014,274797168.93465,  -0.00017,   0.00002,  -0.00008,   0.00000,   2.00000
-529810846.99328,-232807186.22074,-68023075.65846,  -0.00213,  -0.00001,  -0.00096,475852855.43081,   0.00015,274801393.73862,  -0.00017,   0.00002,  -0.00008,   0.00000,   2.00000
-529728925.20153,-233189647.62071,-68258190.52893,  -0.00213,  -0.00001,  -0.00097,475860214.78644,   0.00015,274805629.99321,  -0.00017,   0.00002,  -0.00008,  -0.00000,   2.00000
-529649397.89050,-233587527.89036,-68489016.91180,  -0.00213,  -0.00001,  -0.00097,475851994.92392,   0.00015,274809815.27605,  -0.00018,   0.00002,  -0.00008,  -0.00000,   2.00000
-529561594.65812,-233962051.71053,-68730847.88393,  -0.00214,  -0.00001,  -0.00098,475819630.77444,   0.00016,274813853.35378,  -0.00018,   0.00002,  -0.00009,  -0.00000,   2.00000
-529477727.72839,-234353885.84745,-68965693.39228,  -0.00214,  -0.00002,  -0.00098,475828036.88037,   0.00016,274817907.83902,  -0.00019,   0.00002,  -0.00009,   0.00000,   2.00000
-529387142.30044,-234724270.08080,-69208865.48736,  -0.00214,  -0.00002,  -0.00099,475812344.96012,   0.00017,274821882.41224,  -0.00019,   0.00002,  -0.00009,   0.00000,   2.00000
-529296163.98336,-235109173.73005,-69453070.33839,  -0.00215,  -0.00002,  -0.00099,475806419.98717,   0.00017,274825816.42661,  -0.00020,   0.00002,  -0.00009,  -0.00000,   2.00000
-529202783.35502,-235475484.98331,-69697590.71542,  -0.00215,  -0.00002,  -0.00100,475804900.68614,   0.00017,274829727.72183,  -0.00020,   0.00002,  -0.00009,   0.00000,   2.00000
-529107364.99286,-235854569.63340,-69945909.94827,  -0.00215,  -0.00002,  -0.00101,475782175.63539,   0.00018,274833531.67385,  -0.00020,   0.00002,  -0.00010,   0.00000,   2.00000
-529007948.14282,-236213357.33119,-70197327.27127,  -0.00215,  -0.00002,  -0.00101,475763743.63037,   0.00018,274837245.97206,  -0.00021,   0.00002,  -0.00010,   0.00000,   2.00000
-528906302.52199,-236569339.18009,-70450837.13619,  -0.00216,  -0.00003,  -0.00102,475751422.78287,   0.00018,274840895.42851,  -0.00021,   0.00002,  -0.00010,   0.00000,   2.00000
-528805776.22253,-236941670.10567,-70702633.62391,  -0.00216,  -0.00003,  -0.00102,475762043.48562,   0.00019,274844571.85816,  -0.00022,   0.00002,  -0.00010,   0.00000,   2.00000
-528699618.82175,-237292081.91719,-70960375.11182,  -0.00216,  -0.00003,  -0.00103,475726714.84265,   0.00019,274848091.84817,  -0.00022,   0.00002,  -0.00010,   0.00000,   2.00000
-528591747.19582,-237657807.32369,-71221662.95800,  -0.00216,  -0.00003,  -0.00103,475739809.93398,   0.00019,274851649.25583,  -0.00022,   0.00002,  -0.00011,   0.00000,   2.00000
-528481018.98050,-238002756.16910,-71483678.58066,  -0.00217,  -0.00003,  -0.00104,475701811.64539,   0.00020,274855040.17185,  -0.00023,   0.00002,  -0.00011,  -0.00000,   2.00000
-528369661.44734,-238346721.28028,-71745033.60476,  -0.00217,  -0.00003,  -0.00104,475705961.69827,   0.00020,274858433.42404,  -0.00023,   0.00002,  -0.00011,   0.00000,   2.00000
-528254843.01994,-238704308.43371,-72012748.55431,  -0.00217,  -0.00004,  -0.00105,475702268.84085,   0.00020,274861797.70755,  -0.00023,   0.00002,  -0.00011,   0.00000,   2.00000
-528137158.14621,-239041277.75730,-72281290.56348,  -0.00217,  -0.00004,  -0.00105,475664062.62652,   0.00021,274864995.62379,  -0.00024,   0.00002,  -0.00011,   0.00000,   2.00000
-528017624.18847,-239393554.76923,-72553354.88071,  -0.00218,  -0.00004,  -0.00106,475676975.74295,   0.00021,274868231.61456,  -0.00024,   0.00002,  -0.00012,   0.00000,   2.00000
-527896920.97274,-239726960.29552,-72823452.34762,  -0.00218,  -0.00004,  -0.00106,475655352.41863,   0.00021,274871367.93699,  -0.00024,   0.00002,  -0.00012,   0.00000,   2.00000
-527770980.21232,-240056716.56350,-73101021.04282,  -0.00218,  -0.00004,  -0.00107,475645192.98122,   0.00021,274874450.72014,  -0.00025,   0.00002,  -0.00012,   0.00000,   2.00000
-527642638.89860,-240383927.55628,-73380819.55801,  -0.00218,  -0.00004,  -0.00107,475632378.14030,   0.00022,274877469.63156,  -0.00025,   0.00002,  -0.00012,   0.00000,   2.00000
-527514638.01618,-240725398.18072,-73659417.29204,  -0.00218,  -0.00005,  -0.00108,475606519.45502,   0.00022,274880372.97346,  -0.00025,   0.00002,  -0.00012,   0.00000,   2.00000
-527381428.77524,-241047557.07129,-73943725.56708,  -0.00219,  -0.00005,  -0.00108,475606548.18252,   0.00022,274883264.38003,  -0.00026,   0.00002,  -0.00012,   0.00000,   2.00000
-527245762.23924,-241367238.24067,-74230309.51861,  -0.00219,  -0.00005,  -0.00109,475593581.86680,   0.00022,274886092.17692,  -0.00026,   0.00002,  -0.00013,   0.00000,   2.00000
-527107618.34683,-241684463.12867,-74519184.76941,  -0.00219,  -0.00005,  -0.00110,475580565.76675,   0.00023,274888856.45166,  -0.00026,   0.00002,  -0.00013,  -0.00000,   2.00000
-526969910.08231,-242000379.99617,-74805145.59732,  -0.00219,  -0.00005,  -0.00110,475564803.81012,   0.00023,274891546.55299,  -0.00026,   0.00002,  -0.00013,   0.00000,   2.00000
-526826756.14241,-242312757.98178,-75098660.84987,  -0.00219,  -0.00005,  -0.00111,475554363.80472,   0.00023,274894183.99591,  -0.00027,   0.00002,  -0.00013,   0.00000,   2.00000
-526682867.89376,-242624293.22921,-75391558.98911,  -0.00219,  -0.00005,  -0.00111,475557870.34146,   0.00023,274896824.49932,  -0.00027,   0.00002,  -0.00013,   0.00000,   2.00000
-526534613.87097,-242931902.44399,-75689773.55657,  -0.00219,  -0.00006,  -0.00112,475528048.96071,   0.00024,274899335.48295,  -0.00027,   0.00002,  -0.00013,  -0.00000,   2.00000
-526383774.27915,-243237156.42120,-75990359.51227,  -0.00220,  -0.00006,  -0.00112,475514788.98273,   0.00024,274901783.38550,  -0.00028,   0.00002,  -0.00013,  -0.00000,   2.00000
-526233313.45910,-243541233.70228,-76288130.00573,  -0.00220,  -0.00006,  -0.00113,475498731.59011,   0.00024,274904157.35348,  -0.00028,   0.00002,  -0.00014,  -0.00000,   2.00000
-526077239.98024,-243841836.96878,-76593517.55148,  -0.00220,  -0.00006,  -0.00113,475488104.00070,   0.00024,274906479.30937,  -0.00028,   0.00002,  -0.00014,   0.00000,   2.00000
-525917006.76492,-244122942.92548,-76902500.08812,  -0.00220,  -0.00006,  -0.00114,475468218.34808,   0.00024,274908712.70232,  -0.00028,   0.00002,  -0.00014,   0.00000,   2.00000
-525757487.65422,-244420487.62293,-77209725.87769,  -0.00220,  -0.00006,  -0.00114,475477852.49927,   0.00025,274910975.23724,  -0.00028,   0.00002,  -0.00014,   0.00000,   2.00000
-525593383.83267,-244714270.49742,-77522433.90325,  -0.00220,  -0.00007,  -0.00115,475447783.96529,   0.00025,274913108.98493,  -0.00029,   0.00002,  -0.00014,  -0.00000,   2.00000
-525425068.38379,-244988631.47836,-77838808.26648,  -0.00220,  -0.00007,  -0.00115,475427729.53981,   0.00025,274915154.32656,  -0.00029,   0.00002,  -0.00014,   0.00000,   2.00000
-525258536.81115,-245279157.36917,-78151299.66550,  -0.00220,  -0.00007,  -0.00116,475417805.91738,   0.00025,274917151.87066,  -0.00029,   0.00002,  -0.00014,  -0.00000,   2.00000
-525086643.70992,-245550577.87164,-78469626.77746,  -0.00220,  -0.00007,  -0.00116,475417042.84339,   0.00025,274919138.25385,  -0.00029,   0.00002,  -0.00014,  -0.00000,   2.00000
-524911478.02283,-245835514.67141,-78792344.63229,  -0.00220,  -0.00007,  -0.00117,475393317.26620,   0.00026,274921022.27124,  -0.00030,   0.00002,  -0.00015,   0.00000,   2.00000
-524732021.13278,-246101123.16085,-79118826.43159,  -0.00220,  -0.00007,  -0.00118,475373044.32224,   0.00026,274922818.09955,  -0.00030,   0.00002,  -0.00015,  -0.00000,   2.00000
-524552810.23461,-246365815.93633,-79442713.52569,  -0.00221,  -0.00007,  -0.00118,475356373.11080,   0.00026,274924540.41546,  -0.00030,   0.00002,  -0.00015,   0.00000,   2.00000
-524369613.86975,-246628591.07547,-79771245.03392,  -0.00221,  -0.00008,  -0.00119,475361941.83598,   0.00026,274926277.87593,  -0.00030,   0.00002,  -0.00015,   0.00000,   2.00000
-524181515.04530,-246887817.04540,-80105499.98635,  -0.00221,  -0.00008,  -0.00119,475331525.45996,   0.00026,274927887.49423,  -0.00030,   0.00002,  -0.00015,   0.00000,   2.00000
-523993605.08849,-247146186.56787,-80437228.33378,  -0.00221,  -0.00008,  -0.00120,475314689.21041,   0.00026,274929423.73700,  -0.00030,   0.00002,  -0.00015,  -0.00000,   2.00000
-523801625.45723,-247402634.26530,-80773607.76053,  -0.00221,  -0.00008,  -0.00120,475320144.04690,   0.00027,274930975.44216,  -0.00031,   0.00002,  -0.00015,   0.00000,   2.00000
-523607763.09109,-247656851.78362,-81110660.22867,  -0.00221,  -0.00008,  -0.00121,475286698.52502,   0.00027,274932388.06826,  -0.00031,   0.00002,  -0.00015,   0.00000,   2.00000
-523407705.92598,-247907743.47585,-81455541.77308,  -0.00221,  -0.00008,  -0.00121,475275534.61790,   0.00027,274933750.67254,  -0.00031,   0.00002,  -0.00015,   0.98198,   1.00000
-523206360.25847,-248140767.42061,-81799266.53589,  -0.00221,  -0.00008,  -0.00122,475251858.94125,   0.00027,274935013.79979,  -0.00031,   0.00002,  -0.00015,   0.84386,   1.00000
-523002228.28030,-248388960.79752,-82146376.26582,  -0.00221,  -0.00009,  -0.00122,475263758.28683,   0.00027,274936319.09945,  -0.00031,   0.00002,  -0.00016,   0.90116,   1.00000
-522796061.86760,-248635020.41752,-82494302.38602,  -0.00221,  -0.00009,  -0.00123,475230128.85581,   0.00027,274937485.63409,  -0.00031,   0.00002,  -0.00016,   0.71975,   1.00000
-522585358.85104,-248861999.25966,-82846295.10581,  -0.00221,  -0.00009,  -0.00123,475209216.33803,   0.00027,274938564.47650,  -0.00031,   0.00002,  -0.00016,   0.61562,   1.00000
-522373621.36431,-249088361.71767,-83197850.05001,  -0.00221,  -0.00009,  -0.00124,475211379.44064,   0.00027,274939647.59714,  -0.00031,   0.00002,  -0.00016,   0.62053,   1.00000
-522153274.17828,-249310065.29081,-83560568.12302,  -0.00221,  -0.00009,  -0.00124,475183558.62554,   0.00027,274940615.94812,  -0.00032,   0.00002,  -0.00016,   0.49601,   1.00000
-521932901.83806,-249531103.71067,-83921008.31046,  -0.00220,  -0.00009,  -0.00125,475166151.02685,   0.00027,274941511.33198,  -0.00032,   0.00002,  -0.00016,   0.42408,   1.00000
-521709230.98615,-249750177.19043,-84284305.20714,  -0.00220,  -0.00009,  -0.00125,475151691.54579,   0.00028,274942345.74845,  -0.00032,   0.00002,  -0.00016,   0.36831,   1.00000
-521484440.71987,-249968642.56604,-84647194.54153,  -0.00220,  -0.00010,  -0.00126,475153669.12676,   0.00028,274943184.69766,  -0.00032,   0.00002,  -0.00016,   0.37233,   1.00000
-521257357.92313,-250185149.70341,-85011180.06504,  -0.00220,  -0.00010,  -0.00127,475119653.56143,   0.00028,274943885.27135,  -0.00032,   0.00002,  -0.00016,   0.25964,   1.00000
-521023571.71837,-250398374.82370,-85383177.32060,  -0.00220,  -0.00010,  -0.00127,475108120.21485,   0.00028,274944537.27973,  -0.00032,   0.00002,  -0.00016,   0.22490,   1.00000
-520784988.51763,-250592644.77073,-85759469.62184,  -0.00220,  -0.00010,  -0.00128,475086799.21768,   0.00028,274945102.06773,  -0.00032,   0.00002,  -0.00016,   0.16876,   1.00000
-520549872.48744,-250804697.16455,-86128957.65029,  -0.00220,  -0.00010,  -0.00128,475092172.87407,   0.00028,274945685.95229,  -0.00032,   0.00002,  -0.00016,   0.18037,   1.00000
-520304276.64602,-250995128.59172,-86511213.49357,  -0.00220,  -0.00010,  -0.00129,475057459.04157,   0.00028,274946129.71446,  -0.00032,   0.00002,  -0.00016,   0.10419,   1.00000
-520058462.55297,-251185023.58797,-86891417.38941,  -0.00220,  -0.00010,  -0.00129,475039573.31306,   0.00028,274946500.71666,  -0.00032,   0.00002,  -0.00016,   0.07283,   1.00000
-519806996.69134,-251388624.98169,-87278333.63251,  -0.00220,  -0.00011,  -0.00130,475034631.68831,   0.00028,274946850.63576,  -0.00032,   0.00002,  -0.00016,   0.06479,   1.00000
-519556287.99925,-251576030.50898,-87661249.22482,  -0.00220,  -0.00011,  -0.00130,475026347.31571,   0.00028,274947166.28513,  -0.00032,   0.00002,  -0.00016,   0.05272,   1.00000
-519298215.81102,-251743247.53557,-88052040.97161,  -0.00219,  -0.00011,  -0.00131,474988344.50483,   0.00028,274947329.79661,  -0.00032,   0.00002,  -0.00016,   0.01415,   1.00000
-519037727.77432,-251925556.92880,-88444538.91569,  -0.00219,  -0.00011,  -0.00131,474980137.59139,   0.00028,274947460.07733,  -0.00032,   0.00002,  -0.00016,   0.00898,   1.00000
-518773454.09667,-252105974.22154,-88840165.08168,  -0.00219,  -0.00011,  -0.00132,474965175.42616,   0.00028,274947530.42941,  -0.00032,   0.00002,  -0.00016,   0.00262,   1.00000
-518499625.28532,-252265707.69483,-89239498.76490,  -0.00219,  -0.00011,  -0.00132,474943405.26753,   0.00028,274947530.42941,  -0.00032,   0.00002,  -0.00016,-4125.16189,   0.00000
-518214386.94015,-252436850.70193,-89633127.68123,  -0.00219,  -0.00011,  -0.00133,474927783.27891,   0.00028,274947530.42941,  -0.00032,   0.00002,  -0.00016,-19747.15050,   0.00000
-517900624.76048,-252579469.87451,-90032461.36445,  -0.00219,  -0.00011,  -0.00133,474893580.47643,   0.00028,274947530.42941,  -0.00032,   0.00002,  -0.00016,-53949.95298,   0.00000
-517586862.58080,-252722089.04709,-90426090.28077,  -0.00218,  -0.00012,  -0.00134,474857467.92507,   0.00028,274947530.42941,  -0.00032,   0.00002,  -0.00016,-90062.50434,   0.00000
-517233167.03280,-252847593.91896,-90819719.19710,  -0.00218,  -0.00012,  -0.00134,474790013.83262,   0.00028,274947530.42941,  -0.00032,   0.00002,  -0.00016,-157516.59679,   0.00000
-516859504.80064,-252964541.64048,-91219052.88032,  -0.00218,  -0.00012,  -0.00135,474710886.88892,   0.00028,274947530.42941,  -0.00032,   0.00002,  -0.00016,-236643.54049,   0.00000
-516465875.88432,-253072932.21164,-91612681.79664,  -0.00218,  -0.00012,  -0.00135,474613555.19177,   0.00028,274947530.42941,  -0.00032,   0.00002,  -0.00016,-333975.23764,   0.00000
-516043723.13348,-253152798.94828,-92000605.94606,  -0.00218,  -0.00012,  -0.00136,474491185.79085,   0.00028,274947530.42941,  -0.00032,   0.00002,  -0.00016,-456344.63856,   0.00000
-515610160.84883,-253244075.21874,-92394234.86239,  -0.00217,  -0.00012,  -0.00136,474364063.93594,   0.00028,274947530.42941,  -0.00032,   0.00002,  -0.00016,-583466.49347,   0.00000
-515148074.72967,-253306827.65467,-92787863.77871,  -0.00217,  -0.00012,  -0.00137,474215274.15914,   0.00028,274947530.42941,  -0.00032,   0.00002,  -0.00016,-732256.27028,   0.00000
-514666021.92635,-253361022.94025,-93175787.92813,  -0.00217,  -0.00012,  -0.00137,474048304.13267,   0.00028,274947530.42941,  -0.00032,   0.00002,  -0.00016,-899226.29675,   0.00000
-514164002.43887,-253406661.07548,-93569416.84445,  -0.00217,  -0.00013,  -0.00138,473869899.32256,   0.00028,274947530.42941,  -0.00032,   0.00002,  -0.00016,-1077631.10686,   0.00000
-513642016.26722,-253443742.06035,-93957340.99387,  -0.00217,  -0.00013,  -0.00138,473673349.85445,   0.00028,274947530.42941,  -0.00032,   0.00002,  -0.00016,-1274180.57496,   0.00000
-513091506.26106,-253452299.21070,-94345265.14329,  -0.00216,  -0.00013,  -0.00139,473455200.59448,   0.00028,274947530.42941,  -0.00032,   0.00002,  -0.00016,-1492329.83493,   0.00000
-512529586.72109,-253472265.89486,-94733189.29271,  -0.00216,  -0.00013,  -0.00139,473229186.14422,   0.00028,274947530.42941,  -0.00032,   0.00002,  -0.00016,-1718344.28519,   0.00000
-511939143.34661,-253463708.74451,-95115408.67522,  -0.00216,  -0.00013,  -0.00140,472978188.84091,   0.00028,274947530.42941,  -0.00032,   0.00002,  -0.00016,-1969341.58850,   0.00000
-511337290.43832,-253466561.12796,-95503332.82464,  -0.00215,  -0.00013,  -0.00140,472722833.55132,   0.00028,274947530.42941,  -0.00032,   0.00002,  -0.00016,-2224696.87809,   0.00000
-510706913.69551,-253440889.67690,-95885552.20716,  -0.00215,  -0.00013,  -0.00141,472442524.60135,   0.00028,274947530.42941,  -0.00032,   0.00002,  -0.00016,-2505005.82807,   0.00000
-510048013.11819,-253386694.39132,-96267771.58968,  -0.00215,  -0.00013,  -0.00141,472140724.88615,   0.00028,274947530.42941,  -0.00032,   0.00002,  -0.00016,-2806805.54326,   0.00000
-509377703.00706,-253343908.63954,-96649990.97219,  -0.00215,  -0.00013,  -0.00142,471831224.46129,   0.00028,274947530.42941,  -0.00032,   0.00002,  -0.00016,-3116305.96812,   0.00000
-508687426.21177,-253292565.73741,-97032210.35471,  -0.00214,  -0.00014,  -0.00142,471507187.26146,   0.00028,274947530.42941,  -0.00032,   0.00002,  -0.00016,-3440343.16795,   0.00000
-507968625.58196,-253212699.00077,-97414429.73722,  -0.00214,  -0.00014,  -0.00143,471161757.97983,   0.00028,274947530.42941,  -0.00032,   0.00002,  -0.00016,-3785772.44958,   0.00000
-507209891.58384,-253115717.96341,-97790944.35284,  -0.00214,  -0.00014,  -0.00143,470782169.72023,   0.00028,274947530.42941,  -0.00032,   0.00002,  -0.00016,-4165360.70918,   0.00000
-506459714.73606,-253038703.61022,-98173163.73535,  -0.00213,  -0.00014,  -0.00144,470414741.22426,   0.00028,274947530.42941,  -0.00032,   0.00002,  -0.00016,-4532789.20516,   0.00000
-505672456.90342,-252913198.73835,-98549678.35096,  -0.00213,  -0.00014,  -0.00144,470015530.04844,   0.00028,274947530.42941,  -0.00032,   0.00002,  -0.00016,-4932000.38098,   0.00000
-504873789.53696,-252799103.40028,-98926192.96658,  -0.00213,  -0.00014,  -0.00145,469608841.14413,   0.00028,274947530.42941,  -0.00032,   0.00002,  -0.00016,-5338689.28528,   0.00000
-504055155.48635,-252676450.91186,-99297002.81529,  -0.00212,  -0.00014,  -0.00145,469184191.09126,   0.00028,274947530.42941,  -0.00032,   0.00002,  -0.00016,-5763339.33815,   0.00000
-503207997.60122,-252525274.58893,-99673517.43090,  -0.00212,  -0.00014,  -0.00146,468741928.58928,   0.00028,274947530.42941,  -0.00032,   0.00002,  -0.00016,-6205601.84014,   0.00000
-502340873.03193,-252365541.11564,-100044327.27961,  -0.00212,  -0.00014,  -0.00146,468281747.53705,   0.00028,274947530.42941,  -0.00032,   0.00002,  -0.00016,-6665782.89236,   0.00000
-501433815.09432,-252188693.34164,-100415137.12832,  -0.00211,  -0.00015,  -0.00147,467791266.09734,   0.00028,274947530.42941,  -0.00032,   0.00002,  -0.00016,-7156264.33207,   0.00000
-500526757.15671,-252011845.56764,-100785946.97703,  -0.00211,  -0.00015,  -0.00147,467302636.87822,   0.00028,274947530.42941,  -0.00032,   0.00002,  -0.00016,-7644893.55119,   0.00000
-499599732.53493,-251826440.64328,-101156756.82574,  -0.00210,  -0.00015,  -0.00148,466799844.60145,   0.00028,274947530.42941,  -0.00032,   0.00002,  -0.00016,-8147685.82796,   0.00000
-498644184.07864,-251612511.88441,-101521861.90754,  -0.00210,  -0.00015,  -0.00148,466272268.20301,   0.00028,274947530.42941,  -0.00032,   0.00002,  -0.00016,-8675262.22640,   0.00000
-497677226.08855,-251409992.65935,-101892671.75625,  -0.00210,  -0.00015,  -0.00149,465741266.89762,   0.00028,274947530.42941,  -0.00032,   0.00002,  -0.00016,-9206263.53179,   0.00000
-496681744.26393,-251178949.59977,-102257776.83806,  -0.00209,  -0.00015,  -0.00149,465185532.63091,   0.00028,274947530.42941,  -0.00032,   0.00002,  -0.00016,-9761997.79851,   0.00000
-495666295.75516,-250939349.38983,-102617177.15296,  -0.00209,  -0.00015,  -0.00150,464612000.69423,   0.00028,274947530.42941,  -0.00032,   0.00002,  -0.00016,-10335529.73518,   0.00000
-494610913.87806,-250682634.87919,-102982282.23477,  -0.00208,  -0.00015,  -0.00150,464012309.95433,   0.00028,274947530.42941,  -0.00032,   0.00002,  -0.00016,-10935220.47508,   0.00000
-493546974.85061,-250405953.68438,-103341682.54967,  -0.00208,  -0.00015,  -0.00151,463403892.03788,   0.00028,274947530.42941,  -0.00032,   0.00002,  -0.00016,-11543638.39153,   0.00000
-492471626.28936,-250140682.02338,-103706787.63148,  -0.00208,  -0.00015,  -0.00151,462792359.95049,   0.00028,274947530.42941,  -0.00032,   0.00002,  -0.00016,-12155170.47892,   0.00000
-491367753.89358,-249846886.52787,-104066187.94638,  -0.00207,  -0.00015,  -0.00152,462156193.55870,   0.00028,274947530.42941,  -0.00032,   0.00002,  -0.00016,-12791336.87072,   0.00000
-490243914.81365,-249544533.88199,-104419883.49438,  -0.00207,  -0.00015,  -0.00152,461502348.20473,   0.00028,274947530.42941,  -0.00032,   0.00002,  -0.00016,-13445182.22469,   0.00000
-489100109.04955,-249233624.08577,-104779283.80929,  -0.00206,  -0.00016,  -0.00152,460838603.28189,   0.00028,274947530.42941,  -0.00032,   0.00002,  -0.00016,-14108927.14752,   0.00000
-487907812.76678,-248885633.30467,-105132979.35729,  -0.00206,  -0.00016,  -0.00153,460134412.20494,   0.00028,274947530.42941,  -0.00032,   0.00002,  -0.00016,-14813118.22447,   0.00000
-486724073.63436,-248557609.20774,-105486674.90529,  -0.00205,  -0.00016,  -0.00153,459439389.48636,   0.00028,274947530.42941,  -0.00032,   0.00002,  -0.00016,-15508140.94305,   0.00000
-485511810.66742,-248201061.27629,-105840370.45329,  -0.00205,  -0.00016,  -0.00154,458723762.73687,   0.00028,274947530.42941,  -0.00032,   0.00002,  -0.00016,-16223767.69254,   0.00000
-484279581.01632,-247835956.19448,-106188361.23438,  -0.00204,  -0.00016,  -0.00154,457990594.80569,   0.00028,274947530.42941,  -0.00032,   0.00002,  -0.00016,-16956935.62373,   0.00000
-483027384.68107,-247462293.96232,-106536352.01548,  -0.00204,  -0.00016,  -0.00155,457243873.14367,   0.00028,274947530.42941,  -0.00032,   0.00002,  -0.00016,-17703657.28574,   0.00000
-481746664.51129,-247060107.89564,-106884342.79658,  -0.00203,  -0.00016,  -0.00155,456476670.78812,   0.00028,274947530.42941,  -0.00032,   0.00002,  -0.00016,-18470859.64129,   0.00000
-480454534.80771,-246669331.36277,-107232333.57767,  -0.00203,  -0.00016,  -0.00156,455703017.64917,   0.00028,274947530.42941,  -0.00032,   0.00002,  -0.00016,-19244512.78024,   0.00000
-479133881.26962,-246250030.99538,-107580324.35877,  -0.00202,  -0.00016,  -0.00156,454909001.22942,   0.00028,274947530.42941,  -0.00032,   0.00002,  -0.00016,-20038529.20000,   0.00000
-477793261.04736,-245822173.47764,-107922610.37296,  -0.00202,  -0.00016,  -0.00157,454097602.79157,   0.00028,274947530.42941,  -0.00032,   0.00002,  -0.00016,-20849927.63784,   0.00000
-476424116.99058,-245365792.12538,-108264896.38716,  -0.00201,  -0.00016,  -0.00157,453265919.42447,   0.00028,274947530.42941,  -0.00032,   0.00002,  -0.00016,-21681611.00495,   0.00000
-475043563.40000,-244920820.30693,-108607182.40135,  -0.00201,  -0.00016,  -0.00157,452428001.26166,   0.00028,274947530.42941,  -0.00032,   0.00002,  -0.00016,-22519529.16776,   0.00000
-473634485.97491,-244447324.65396,-108943763.64864,  -0.00200,  -0.00016,  -0.00158,451565796.74347,   0.00028,274947530.42941,  -0.00032,   0.00002,  -0.00016,-23381733.68594,   0.00000
-472205441.86565,-243965271.85064,-109280344.89593,  -0.00200,  -0.00016,  -0.00158,450690454.24139,   0.00028,274947530.42941,  -0.00032,   0.00002,  -0.00016,-24257076.18803,   0.00000
-470756431.07223,-243474661.89696,-109616926.14322,  -0.00199,  -0.00017,  -0.00159,449802041.99385,   0.00028,274947530.42941,  -0.00032,   0.00002,  -0.00016,-25145488.43556,   0.00000
-469287453.59465,-242975494.79293,-109953507.39051,  -0.00198,  -0.00017,  -0.00159,448900629.64577,   0.00028,274947530.42941,  -0.00032,   0.00002,  -0.00016,-26046900.78364,   0.00000
-467798509.43291,-242467770.53854,-110284383.87090,  -0.00198,  -0.00017,  -0.00160,447982074.98904,   0.00028,274947530.42941,  -0.00032,   0.00002,  -0.00016,-26965455.44038,   0.00000
-466281041.43665,-241931522.44964,-110615260.35128,  -0.00197,  -0.00017,  -0.00160,447043617.98557,   0.00028,274947530.42941,  -0.00032,   0.00002,  -0.00016,-27903912.44385,   0.00000
-464743606.75623,-241386717.21038,-110946136.83167,  -0.00197,  -0.00017,  -0.00160,446092332.95430,   0.00028,274947530.42941,  -0.00032,   0.00002,  -0.00016,-28855197.47511,   0.00000
-463206172.07581,-240841911.97113,-111271308.54516,  -0.00196,  -0.00017,  -0.00161,445139569.80651,   0.00028,274947530.42941,  -0.00032,   0.00002,  -0.00016,-29807960.62290,   0.00000
-461620246.87672,-240260025.74700,-111602185.02554,  -0.00195,  -0.00017,  -0.00161,444155809.37995,   0.00028,274947530.42941,  -0.00032,   0.00002,  -0.00016,-30791721.04946,   0.00000
-460022912.14381,-239689549.05667,-111927356.73903,  -0.00195,  -0.00017,  -0.00162,443162131.52359,   0.00028,274947530.42941,  -0.00032,   0.00002,  -0.00016,-31785398.90582,   0.00000
-458397053.57640,-239090548.53184,-112246823.68561,  -0.00194,  -0.00017,  -0.00162,442144540.19284,   0.00028,274947530.42941,  -0.00032,   0.00002,  -0.00016,-32802990.23657,   0.00000
-456771195.00898,-238491548.00700,-112571995.39909,  -0.00194,  -0.00017,  -0.00163,441134260.88030,   0.00028,274947530.42941,  -0.00032,   0.00002,  -0.00016,-33813269.54912,   0.00000
-455105403.07324,-237875433.18145,-112891462.34567,  -0.00193,  -0.00017,  -0.00163,440091696.72931,   0.00028,274947530.42941,  -0.00032,   0.00002,  -0.00016,-34855833.70010,   0.00000
-453431053.98714,-237239351.67174,-113205224.52535,  -0.00192,  -0.00017,  -0.00163,439040783.98855,   0.00028,274947530.42941,  -0.00032,   0.00002,  -0.00016,-35906746.44087,   0.00000
-451716771.53272,-236586155.86132,-113524691.47193,  -0.00192,  -0.00017,  -0.00164,437966531.86694,   0.00028,274947530.42941,  -0.00032,   0.00002,  -0.00016,-36980998.56247,   0.00000
-450002489.07830,-235932960.05090,-113838453.65161,  -0.00191,  -0.00017,  -0.00164,436891019.73593,   0.00028,274947530.42941,  -0.00032,   0.00002,  -0.00016,-38056510.69349,   0.00000
-448248273.25556,-235262649.93977,-114152215.83128,  -0.00190,  -0.00017,  -0.00165,435787950.12462,   0.00028,274947530.42941,  -0.00032,   0.00002,  -0.00016,-39159580.30479,   0.00000
-446494057.43282,-234592339.82864,-114460273.24406,  -0.00190,  -0.00017,  -0.00165,434683662.02293,   0.00028,274947530.42941,  -0.00032,   0.00002,  -0.00016,-40263868.40649,   0.00000
-444691351.09140,-233884948.73264,-114774035.42373,  -0.00189,  -0.00017,  -0.00165,433549525.14061,   0.00028,274947530.42941,  -0.00032,   0.00002,  -0.00016,-41398005.28880,   0.00000
-442888644.74998,-233177557.63664,-115082092.83651,  -0.00188,  -0.00017,  -0.00166,432414265.28383,   0.00028,274947530.42941,  -0.00032,   0.00002,  -0.00016,-42533265.14558,   0.00000
-441065971.72440,-232461609.39029,-115384445.48238,  -0.00188,  -0.00017,  -0.00166,431262560.85707,   0.00028,274947530.42941,  -0.00032,   0.00002,  -0.00016,-43684969.57235,   0.00000
-439223332.01466,-231737103.99358,-115692502.89515,  -0.00187,  -0.00017,  -0.00167,430103642.70062,   0.00028,274947530.42941,  -0.00032,   0.00002,  -0.00016,-44843887.72880,   0.00000
-437352168.47040,-230984074.76235,-115994855.54102,  -0.00186,  -0.00017,  -0.00167,428921432.91760,   0.00028,274947530.42941,  -0.00032,   0.00002,  -0.00016,-46026097.51181,   0.00000
-435461038.24198,-230222488.38077,-116297208.18690,  -0.00185,  -0.00017,  -0.00167,427727609.65628,   0.00028,274947530.42941,  -0.00032,   0.00002,  -0.00016,-47219920.77313,   0.00000
-433529974.64524,-229443787.69848,-116593856.06586,  -0.00185,  -0.00017,  -0.00168,426502418.49586,   0.00028,274947530.42941,  -0.00032,   0.00002,  -0.00016,-48445111.93355,   0.00000
-431618877.73266,-228673644.16655,-116890503.94483,  -0.00184,  -0.00017,  -0.00168,425296131.21546,   0.00028,274947530.42941,  -0.00032,   0.00002,  -0.00016,-49651399.21395,   0.00000
-429667847.45176,-227886386.33390,-117187151.82380,  -0.00183,  -0.00017,  -0.00169,424063316.95659,   0.00028,274947530.42941,  -0.00032,   0.00002,  -0.00016,-50884213.47282,   0.00000
-427688293.33634,-227070604.66674,-117478094.93586,  -0.00183,  -0.00017,  -0.00169,422807526.84074,   0.00028,274947530.42941,  -0.00032,   0.00002,  -0.00016,-52140003.58868,   0.00000
-425688772.53676,-226246265.84923,-117769038.04793,  -0.00182,  -0.00017,  -0.00169,421540564.64638,   0.00028,274947530.42941,  -0.00032,   0.00002,  -0.00016,-53406965.78303,   0.00000
-423669285.05302,-225413369.88136,-118059981.15999,  -0.00181,  -0.00017,  -0.00170,420262544.86222,   0.00028,274947530.42941,  -0.00032,   0.00002,  -0.00016,-54684985.56719,   0.00000
-421641240.41892,-224560507.22932,-118350924.27206,  -0.00180,  -0.00017,  -0.00170,418981634.49007,   0.00028,274947530.42941,  -0.00032,   0.00002,  -0.00016,-55965895.93934,   0.00000
-419573262.41650,-223690530.27658,-118636162.61722,  -0.00180,  -0.00018,  -0.00170,417669998.38633,   0.00028,274947530.42941,  -0.00032,   0.00002,  -0.00016,-57277532.04308,   0.00000
-417505284.41408,-222820553.32384,-118921400.96238,  -0.00179,  -0.00018,  -0.00171,416362584.56905,   0.00028,274947530.42941,  -0.00032,   0.00002,  -0.00016,-58584945.86036,   0.00000
-415397373.04334,-221933462.07039,-119200934.54064,  -0.00178,  -0.00018,  -0.00171,415024638.26801,   0.00028,274947530.42941,  -0.00032,   0.00002,  -0.00016,-59922892.16141,   0.00000
-413289461.67260,-221046370.81694,-119480468.11890,  -0.00177,  -0.00018,  -0.00172,413691054.25073,   0.00028,274947530.42941,  -0.00032,   0.00002,  -0.00016,-61256476.17868,   0.00000
-411153026.46734,-220130755.72897,-119760001.69715,  -0.00176,  -0.00018,  -0.00172,412340039.74155,   0.00028,274947530.42941,  -0.00032,   0.00002,  -0.00016,-62607490.68787,   0.00000
-408996624.57792,-219206583.49065,-120039535.27541,  -0.00176,  -0.00018,  -0.00172,410978688.64000,   0.00028,274947530.42941,  -0.00032,   0.00002,  -0.00016,-63968841.78941,   0.00000
-406820256.00434,-218273854.10197,-120313364.08677,  -0.00175,  -0.00018,  -0.00173,409602108.89200,   0.00028,274947530.42941,  -0.00032,   0.00002,  -0.00016,-65345421.53741,   0.00000
-404615363.59625,-217312600.87878,-120587192.89812,  -0.00174,  -0.00018,  -0.00173,408208470.28615,   0.00028,274947530.42941,  -0.00032,   0.00002,  -0.00016,-66739060.14327,   0.00000
-402399061.65435,-216362757.18939,-120855316.94257,  -0.00173,  -0.00018,  -0.00173,406806710.79618,   0.00028,274947530.42941,  -0.00032,   0.00002,  -0.00016,-68140819.63324,   0.00000
-400154235.87793,-215384389.66549,-121129145.75393,  -0.00172,  -0.00018,  -0.00174,405393243.39365,   0.00028,274947530.42941,  -0.00032,   0.00002,  -0.00016,-69554287.03576,   0.00000
-397880886.26699,-214377498.30707,-121397269.79838,  -0.00171,  -0.00017,  -0.00174,403958034.65012,   0.00028,274947530.42941,  -0.00032,   0.00002,  -0.00016,-70989495.77929,   0.00000
-395616093.80641,-213390573.63281,-121659689.07593,  -0.00171,  -0.00017,  -0.00174,402529657.58614,   0.00028,274947530.42941,  -0.00032,   0.00002,  -0.00016,-72417872.84327,   0.00000
-393302810.82715,-212366567.97368,-121922108.35348,  -0.00170,  -0.00017,  -0.00175,401070185.38376,   0.00028,274947530.42941,  -0.00032,   0.00002,  -0.00016,-73877345.04565,   0.00000
-390989527.84790,-211342562.31455,-122184527.63102,  -0.00169,  -0.00017,  -0.00175,399615987.23790,   0.00028,274947530.42941,  -0.00032,   0.00002,  -0.00016,-75331543.19152,   0.00000
-388656278.18448,-210309999.50507,-122446946.90857,  -0.00168,  -0.00017,  -0.00175,398152560.22422,   0.00028,274947530.42941,  -0.00032,   0.00002,  -0.00016,-76794970.20519,   0.00000
-386303061.83690,-209268879.54523,-122703661.41922,  -0.00167,  -0.00017,  -0.00176,396674773.82892,   0.00028,274947530.42941,  -0.00032,   0.00002,  -0.00016,-78272756.60049,   0.00000
-383921321.65480,-208199235.75088,-122960375.92986,  -0.00166,  -0.00017,  -0.00176,395181147.54864,   0.00028,274947530.42941,  -0.00032,   0.00002,  -0.00016,-79766382.88077,   0.00000
-381519614.78854,-207121034.80617,-123211385.67360,  -0.00165,  -0.00017,  -0.00176,393673391.01411,   0.00028,274947530.42941,  -0.00032,   0.00002,  -0.00016,-81274139.41530,   0.00000
-379097941.23813,-206034276.71110,-123462395.41735,  -0.00165,  -0.00017,  -0.00177,392156972.84602,   0.00028,274947530.42941,  -0.00032,   0.00002,  -0.00016,-82790557.58339,   0.00000
-376647743.85319,-204918994.78152,-123713405.16109,  -0.00164,  -0.00017,  -0.00177,390625217.01050,   0.00028,274947530.42941,  -0.00032,   0.00002,  -0.00016,-84322313.41892,   0.00000
-374197546.46826,-203803712.85194,-123958710.13793,  -0.00163,  -0.00017,  -0.00177,389094067.42067,   0.00028,274947530.42941,  -0.00032,   0.00002,  -0.00016,-85853463.00875,   0.00000
-371707415.71500,-202671316.62165,-124209719.88167,  -0.00162,  -0.00017,  -0.00178,387545865.25589,   0.00028,274947530.42941,  -0.00032,   0.00002,  -0.00016,-87401665.17353,   0.00000
-369217284.96174,-201538920.39136,-124449320.09160,  -0.00161,  -0.00017,  -0.00178,385992987.96714,   0.00028,274947530.42941,  -0.00032,   0.00002,  -0.00016,-88954542.46227,   0.00000
-366707187.52432,-200397967.01072,-124694625.06844,  -0.00160,  -0.00017,  -0.00178,384437745.62185,   0.00028,274947530.42941,  -0.00032,   0.00002,  -0.00016,-90509784.80756,   0.00000
-364168566.25239,-199228489.79556,-124934225.27838,  -0.00159,  -0.00017,  -0.00179,382862461.26355,   0.00028,274947530.42941,  -0.00032,   0.00002,  -0.00016,-92085069.16586,   0.00000
-361609978.29629,-198050455.43004,-125173825.48831,  -0.00158,  -0.00017,  -0.00179,381279684.97154,   0.00028,274947530.42941,  -0.00032,   0.00002,  -0.00016,-93667845.45787,   0.00000
-359031423.65603,-196863863.91417,-125407720.93135,  -0.00157,  -0.00017,  -0.00179,379683974.07284,   0.00028,274947530.42941,  -0.00032,   0.00002,  -0.00016,-95263556.35657,   0.00000
-356424345.18126,-195648748.56378,-125641616.37438,  -0.00156,  -0.00017,  -0.00180,378074353.60731,   0.00028,274947530.42941,  -0.00032,   0.00002,  -0.00016,-96873176.82211,   0.00000
-353817266.70649,-194433633.21340,-125875511.81741,  -0.00155,  -0.00017,  -0.00180,376471848.49696,   0.00028,274947530.42941,  -0.00032,   0.00002,  -0.00016,-98475681.93245,   0.00000
-351170254.86339,-193201403.56230,-126103702.49354,  -0.00154,  -0.00017,  -0.00180,374842867.69000,   0.00028,274947530.42941,  -0.00032,   0.00002,  -0.00016,-100104662.73942,   0.00000
-348523243.02030,-191969173.91120,-126331893.16967,  -0.00153,  -0.00017,  -0.00180,373221298.02782,   0.00028,274947530.42941,  -0.00032,   0.00002,  -0.00016,-101726232.40159,   0.00000
-345847707.34268,-190708420.42559,-126560083.84580,  -0.00152,  -0.00017,  -0.00181,371586642.37220,   0.00028,274947530.42941,  -0.00032,   0.00002,  -0.00016,-103360888.05722,   0.00000
-343152204.98091,-189439109.78962,-126782569.75502,  -0.00151,  -0.00017,  -0.00181,369940027.36697,   0.00028,274947530.42941,  -0.00032,   0.00002,  -0.00016,-105007503.06244,   0.00000
-340456702.61914,-188169799.15366,-127005055.66425,  -0.00150,  -0.00017,  -0.00181,368301266.37347,   0.00028,274947530.42941,  -0.00032,   0.00002,  -0.00016,-106646264.05595,   0.00000
-337721266.88904,-186883374.21698,-127221836.80657,  -0.00149,  -0.00017,  -0.00182,366637078.11420,   0.00028,274947530.42941,  -0.00032,   0.00002,  -0.00016,-108310452.31521,   0.00000
-334977274.00859,-185576982.59614,-127444322.71580,  -0.00148,  -0.00017,  -0.00182,364980389.88469,   0.00028,274947530.42941,  -0.00032,   0.00002,  -0.00016,-109967140.54472,   0.00000
-332193347.75982,-184253476.67459,-127661103.85812,  -0.00147,  -0.00017,  -0.00182,363298853.59639,   0.00028,274947530.42941,  -0.00032,   0.00002,  -0.00016,-111648676.83302,   0.00000
-329409421.51104,-182929970.75304,-127872180.23354,  -0.00146,  -0.00017,  -0.00182,361619923.08250,   0.00028,274947530.42941,  -0.00032,   0.00002,  -0.00016,-113327607.34692,   0.00000
-326596971.42775,-181577940.99698,-128083256.60896,  -0.00145,  -0.00016,  -0.00183,359929557.92134,   0.00028,274947530.42941,  -0.00032,   0.00002,  -0.00016,-115017972.50808,   0.00000
-323793078.49482,-180245877.92508,-128294332.98438,  -0.00144,  -0.00016,  -0.00183,358254761.47358,   0.00028,274947530.42941,  -0.00032,   0.00002,  -0.00016,-116692768.95584,   0.00000
-320940695.04321,-178876733.86830,-128505409.35980,  -0.00143,  -0.00016,  -0.00183,356555624.08079,   0.00028,274947530.42941,  -0.00032,   0.00002,  -0.00016,-118391906.34862,   0.00000
-318079754.44124,-177487623.12737,-128710780.96831,  -0.00142,  -0.00016,  -0.00184,354853156.08080,   0.00028,274947530.42941,  -0.00032,   0.00002,  -0.00016,-120094374.34861,   0.00000
-315187437.62130,-176101364.76988,-128916152.57683,  -0.00141,  -0.00016,  -0.00184,353140194.21513,   0.00028,274947530.42941,  -0.00032,   0.00002,  -0.00016,-121807336.21428,   0.00000
-312286563.65101,-174695139.72824,-129115819.41844,  -0.00140,  -0.00016,  -0.00184,351424286.69864,   0.00028,274947530.42941,  -0.00032,   0.00002,  -0.00016,-123523243.73077,   0.00000
-309365722.99656,-173280357.53624,-129315486.26005,  -0.00139,  -0.00016,  -0.00184,349705182.60786,   0.00028,274947530.42941,  -0.00032,   0.00002,  -0.00016,-125242347.82156,   0.00000
-306444882.34211,-171865575.34424,-129515153.10167,  -0.00138,  -0.00016,  -0.00185,347996322.58962,   0.00028,274947530.42941,  -0.00032,   0.00002,  -0.00016,-126951207.83980,   0.00000
-303475551.16898,-170413712.16737,-129714819.94328,  -0.00137,  -0.00016,  -0.00185,346265291.01830,   0.00028,274947530.42941,  -0.00032,   0.00002,  -0.00016,-128682239.41111,   0.00000
-300506219.99586,-168961848.99050,-129908782.01799,  -0.00136,  -0.00016,  -0.00185,344538652.46592,   0.00028,274947530.42941,  -0.00032,   0.00002,  -0.00016,-130408877.96349,   0.00000
-297516922.13857,-167501428.66327,-130102744.09270,  -0.00135,  -0.00016,  -0.00185,342810020.44089,   0.00028,274947530.42941,  -0.00032,   0.00002,  -0.00016,-132137509.98852,   0.00000
-294507657.59712,-166032451.18569,-130291001.40051,  -0.00134,  -0.00016,  -0.00186,341073221.00116,   0.00028,274947530.42941,  -0.00032,   0.00002,  -0.00016,-133874309.42826,   0.00000
-291489835.90531,-164543507.02395,-130479258.70831,  -0.00133,  -0.00016,  -0.00186,339341481.60424,   0.00028,274947530.42941,  -0.00032,   0.00002,  -0.00016,-135606048.82517,   0.00000
-288432080.84518,-163037448.56150,-130667516.01612,  -0.00132,  -0.00015,  -0.00186,337595976.83520,   0.00028,274947530.42941,  -0.00032,   0.00002,  -0.00016,-137351553.59422,   0.00000
-285374325.78505,-161531390.09905,-130850068.55702,  -0.00131,  -0.00015,  -0.00186,335855929.80636,   0.00028,274947530.42941,  -0.00032,   0.00002,  -0.00016,-139091600.62305,   0.00000
-282288046.89041,-159996807.80208,-131032621.09792,  -0.00129,  -0.00015,  -0.00187,334109229.01992,   0.00028,274947530.42941,  -0.00032,   0.00002,  -0.00016,-140838301.40949,   0.00000
-279190358.46196,-158473635.03892,-131215173.63883,  -0.00128,  -0.00015,  -0.00187,332368927.04716,   0.00028,274947530.42941,  -0.00032,   0.00002,  -0.00016,-142578603.38225,   0.00000
-276084112.88315,-156930495.59160,-131392021.41283,  -0.00127,  -0.00015,  -0.00187,330628478.87959,   0.00028,274947530.42941,  -0.00032,   0.00002,  -0.00016,-144319051.54983,   0.00000
-272929376.78567,-155350275.15941,-131568869.18683,  -0.00126,  -0.00015,  -0.00187,328870188.58401,   0.00028,274947530.42941,  -0.00032,   0.00002,  -0.00016,-146077341.84541,   0.00000
-269783197.83854,-153790021.41137,-131745716.96083,  -0.00125,  -0.00015,  -0.00188,327131751.07630,   0.00028,274947530.42941,  -0.00032,   0.00002,  -0.00016,-147815779.35311,   0.00000
-266608495.05690,-152201243.82883,-131922564.73483,  -0.00124,  -0.00015,  -0.00188,325388772.01772,   0.00028,274947530.42941,  -0.00032,   0.00002,  -0.00016,-149558758.41170,   0.00000
-263433792.27525,-150612466.24628,-132093707.74192,  -0.00123,  -0.00015,  -0.00188,323653066.76926,   0.00028,274947530.42941,  -0.00032,   0.00002,  -0.00016,-151294463.66015,   0.00000
-260210598.97493,-148986607.67886,-132259145.98212,  -0.00122,  -0.00015,  -0.00188,321894572.41610,   0.00028,274947530.42941,  -0.00032,   0.00002,  -0.00016,-153052958.01331,   0.00000
-256995962.82496,-147380715.79560,-132430288.98921,  -0.00120,  -0.00014,  -0.00188,320164169.86342,   0.00028,274947530.42941,  -0.00032,   0.00002,  -0.00016,-154783360.56600,   0.00000
-253752802.84048,-145746300.07783,-132595727.22941,  -0.00119,  -0.00014,  -0.00189,318423958.62417,   0.00028,274947530.42941,  -0.00032,   0.00002,  -0.00016,-156523571.80525,   0.00000
-250481119.02148,-144083360.52554,-132761165.46960,  -0.00118,  -0.00014,  -0.00189,316681583.86669,   0.00028,274947530.42941,  -0.00032,   0.00002,  -0.00016,-158265946.56273,   0.00000
-247217992.35284,-142440387.65741,-132920898.94289,  -0.00117,  -0.00014,  -0.00189,314954074.81043,   0.00028,274947530.42941,  -0.00032,   0.00002,  -0.00016,-159993455.61898,   0.00000
-243926341.84968,-140768890.95476,-133080632.41618,  -0.00116,  -0.00014,  -0.00189,313225261.53687,   0.00028,274947530.42941,  -0.00032,   0.00002,  -0.00016,-161722268.89254,   0.00000
-240614724.66236,-139088837.10177,-133240365.88947,  -0.00115,  -0.00014,  -0.00189,311501706.88922,   0.00028,274947530.42941,  -0.00032,   0.00002,  -0.00016,-163445823.54020,   0.00000
-237283140.79087,-137400226.09841,-133394394.59586,  -0.00113,  -0.00014,  -0.00190,309776608.81715,   0.00028,274947530.42941,  -0.00032,   0.00002,  -0.00016,-165170921.61226,   0.00000
-233942999.76903,-135691648.41090,-133554128.06915,  -0.00112,  -0.00014,  -0.00190,308070697.55088,   0.00028,274947530.42941,  -0.00032,   0.00002,  -0.00016,-166876832.87854,   0.00000
-230582892.06304,-133974513.57302,-133702452.00863,  -0.00111,  -0.00014,  -0.00190,306356730.97916,   0.00028,274947530.42941,  -0.00032,   0.00002,  -0.00016,-168590799.45025,   0.00000
-227202817.67287,-132248821.58480,-133856480.71502,  -0.00110,  -0.00013,  -0.00190,304657575.90992,   0.00028,274947530.42941,  -0.00032,   0.00002,  -0.00016,-170289954.51949,   0.00000
-223802776.59855,-130514572.44622,-134004804.65450,  -0.00109,  -0.00013,  -0.00190,302958868.07532,   0.00028,274947530.42941,  -0.00032,   0.00002,  -0.00016,-171988662.35409,   0.00000
-220394178.37388,-128760356.62348,-134153128.59399,  -0.00107,  -0.00013,  -0.00191,301273921.91892,   0.00028,274947530.42941,  -0.00032,   0.00002,  -0.00016,-173673608.51049,   0.00000
-216965613.46504,-126997583.65038,-134301452.53347,  -0.00106,  -0.00013,  -0.00191,299598056.55547,   0.00028,274947530.42941,  -0.00032,   0.00002,  -0.00016,-175349473.87394,   0.00000
-213537048.55620,-125234810.67728,-134444071.70605,  -0.00105,  -0.00013,  -0.00191,297934862.53484,   0.00028,274947530.42941,  -0.00032,   0.00002,  -0.00016,-177012667.89458,   0.00000
-210059993.12869,-123434956.71932,-134586690.87863,  -0.00104,  -0.00013,  -0.00191,296265717.18342,   0.00028,274947530.42941,  -0.00032,   0.00002,  -0.00016,-178681813.24599,   0.00000
-206582937.70117,-121635102.76135,-134723605.28431,  -0.00103,  -0.00013,  -0.00191,294610286.61504,   0.00028,274947530.42941,  -0.00032,   0.00002,  -0.00016,-180337243.81438,   0.00000
-203085915.58949,-119826691.65303,-134866224.45689,  -0.00101,  -0.00012,  -0.00192,292974243.32983,   0.00028,274947530.42941,  -0.00032,   0.00002,  -0.00016,-181973287.09958,   0.00000
-199588893.47782,-118018280.54471,-135003138.86257,  -0.00100,  -0.00012,  -0.00192,291352785.17048,   0.00028,274947530.42941,  -0.00032,   0.00002,  -0.00016,-183594745.25894,   0.00000
-196043380.84746,-116172788.45151,-135140053.26825,  -0.00099,  -0.00012,  -0.00192,289728700.22182,   0.00028,274947530.42941,  -0.00032,   0.00002,  -0.00016,-185218830.20759,   0.00000
-192517834.90127,-114335853.50867,-135271262.90702,  -0.00098,  -0.00012,  -0.00192,288130277.63311,   0.00028,274947530.42941,  -0.00032,   0.00002,  -0.00016,-186817252.79631,   0.00000
-188952355.58676,-112481804.26513,-135402472.54579,  -0.00096,  -0.00012,  -0.00192,286536098.61677,   0.00028,274947530.42941,  -0.00032,   0.00002,  -0.00016,-188411431.81264,   0.00000
-185386876.27224,-110627755.02158,-135533682.18457,  -0.00095,  -0.00012,  -0.00192,284966659.73786,   0.00028,274947530.42941,  -0.00032,   0.00002,  -0.00016,-189980870.69155,   0.00000
-181792873.12321,-108745181.94351,-135664891.82334,  -0.00094,  -0.00012,  -0.00193,283407750.19540,   0.00028,274947530.42941,  -0.00032,   0.00002,  -0.00016,-191539780.23401,   0.00000
-178178903.29002,-106854051.71510,-135790396.69521,  -0.00092,  -0.00011,  -0.00193,281857176.07115,   0.00028,274947530.42941,  -0.00032,   0.00002,  -0.00016,-193090354.35826,   0.00000
-174564933.45682,-104962921.48668,-135915901.56708,  -0.00091,  -0.00011,  -0.00193,280333163.16738,   0.00028,274947530.42941,  -0.00032,   0.00002,  -0.00016,-194614367.26204,   0.00000
-170922439.78912,-103043267.42374,-136041406.43896,  -0.00090,  -0.00011,  -0.00193,278822132.39014,   0.00028,274947530.42941,  -0.00032,   0.00002,  -0.00016,-196125398.03928,   0.00000
-167259979.43725,-101115056.21045,-136161206.54392,  -0.00089,  -0.00011,  -0.00193,277321610.39797,   0.00028,274947530.42941,  -0.00032,   0.00002,  -0.00016,-197625920.03144,   0.00000
-163597519.08538,-99186844.99716,-136286711.41579,  -0.00087,  -0.00011,  -0.00193,275858042.89441,   0.00028,274947530.42941,  -0.00032,   0.00002,  -0.00016,-199089487.53500,   0.00000
-159915092.04934,-97250076.63352,-136400806.75386,  -0.00086,  -0.00011,  -0.00194,274397885.12857,   0.00028,274947530.42941,  -0.00032,   0.00002,  -0.00016,-200549645.30085,   0.00000
-156204141.17880,-95284784.43536,-136520606.85883,  -0.00085,  -0.00010,  -0.00194,272962770.79022,   0.00028,274947530.42941,  -0.00032,   0.00002,  -0.00016,-201984759.63920,   0.00000
-152493190.30825,-93319492.23720,-136634702.19689,  -0.00083,  -0.00010,  -0.00194,271549699.25577,   0.00028,274947530.42941,  -0.00032,   0.00002,  -0.00016,-203397831.17364,   0.00000
-148762272.75354,-91345642.88868,-136754502.30186,  -0.00082,  -0.00010,  -0.00194,270168163.42193,   0.00028,274947530.42941,  -0.00032,   0.00002,  -0.00016,-204779367.00748,   0.00000
-145022798.04848,-89351826.85600,-136862892.87302,  -0.00081,  -0.00010,  -0.00194,268796695.12780,   0.00028,274947530.42941,  -0.00032,   0.00002,  -0.00016,-206150835.30161,   0.00000
-141263356.65925,-87349453.67297,-136976988.21108,  -0.00079,  -0.00010,  -0.00194,267458542.32301,   0.00028,274947530.42941,  -0.00032,   0.00002,  -0.00016,-207488988.10641,   0.00000
-137483948.58587,-85338523.33959,-137085378.78225,  -0.00078,  -0.00010,  -0.00194,266137231.06124,   0.00028,274947530.42941,  -0.00032,   0.00002,  -0.00016,-208810299.36817,   0.00000
-133684573.82832,-83319035.85584,-137193769.35341,  -0.00077,  -0.00009,  -0.00195,264842497.08764,   0.00028,274947530.42941,  -0.00032,   0.00002,  -0.00016,-210105033.34177,   0.00000
-129876641.92042,-81279581.68794,-137302159.92457,  -0.00075,  -0.00009,  -0.00195,263578532.41381,   0.00028,274947530.42941,  -0.00032,   0.00002,  -0.00016,-211368998.01560,   0.00000
-126068710.01251,-79240127.52004,-137410550.49573,  -0.00074,  -0.00009,  -0.00195,262350138.09516,   0.00028,274947530.42941,  -0.00032,   0.00002,  -0.00016,-212597392.33425,   0.00000
-122220844.73629,-77183559.05143,-137513236.29999,  -0.00073,  -0.00009,  -0.00195,261134960.05316,   0.00028,274947530.42941,  -0.00032,   0.00002,  -0.00016,-213812570.37625,   0.00000
-118372979.46006,-75126990.58281,-137615922.10425,  -0.00071,  -0.00009,  -0.00195,259957010.51699,   0.00028,274947530.42941,  -0.00032,   0.00002,  -0.00016,-214990519.91242,   0.00000
-114516557.03348,-73050455.43004,-137718607.90850,  -0.00070,  -0.00008,  -0.00195,258813000.29274,   0.00028,274947530.42941,  -0.00032,   0.00002,  -0.00016,-216134530.13667,   0.00000
-110640167.92274,-70965363.12691,-137821293.71276,  -0.00069,  -0.00008,  -0.00195,257701060.98079,   0.00028,274947530.42941,  -0.00032,   0.00002,  -0.00016,-217246469.44862,   0.00000
-106735254.97749,-68851746.98927,-137918274.75012,  -0.00067,  -0.00008,  -0.00196,256609470.74920,   0.00028,274947530.42941,  -0.00032,   0.00002,  -0.00016,-218338059.68022,   0.00000
-102838899.18258,-66758097.53578,-138015255.78747,  -0.00066,  -0.00008,  -0.00196,255561706.83383,   0.00028,274947530.42941,  -0.00032,   0.00002,  -0.00016,-219385823.59558,   0.00000
-98914019.55317,-64635924.24778,-138112236.82483,  -0.00065,  -0.00008,  -0.00196,254545392.36631,   0.00028,274947530.42941,  -0.00032,   0.00002,  -0.00016,-220402138.06311,   0.00000
-94969173.23959,-62505193.80943,-138209217.86218,  -0.00063,  -0.00007,  -0.00196,253565258.35755,   0.00028,274947530.42941,  -0.00032,   0.00002,  -0.00016,-221382272.07187,   0.00000
-91015769.77565,-60354496.68691,-138300494.13263,  -0.00062,  -0.00007,  -0.00196,252615131.52381,   0.00028,274947530.42941,  -0.00032,   0.00002,  -0.00016,-222332398.90560,   0.00000
-87062366.31172,-58203799.56440,-138397475.16999,  -0.00061,  -0.00007,  -0.00196,251717621.14203,   0.00028,274947530.42941,  -0.00032,   0.00002,  -0.00016,-223229909.28739,   0.00000
-83069029.47946,-56035988.14117,-138488751.44044,  -0.00059,  -0.00007,  -0.00196,250844659.70278,   0.00028,274947530.42941,  -0.00032,   0.00002,  -0.00016,-224102870.72664,   0.00000
-79095659.33136,-53876733.86830,-138580027.71089,  -0.00058,  -0.00007,  -0.00196,250021363.54819,   0.00028,274947530.42941,  -0.00032,   0.00002,  -0.00016,-224926166.88122,   0.00000
-75082355.81495,-51700365.29472,-138665599.21444,  -0.00056,  -0.00006,  -0.00197,249224693.64011,   0.00028,274947530.42941,  -0.00032,   0.00002,  -0.00016,-225722836.78930,   0.00000
-71060495.14817,-49504030.03698,-138756875.48489,  -0.00055,  -0.00006,  -0.00197,248481133.20197,   0.00028,274947530.42941,  -0.00032,   0.00002,  -0.00016,-226466397.22744,   0.00000
-67038634.48140,-47307694.77924,-138842446.98844,  -0.00054,  -0.00006,  -0.00197,247774955.34699,   0.00028,274947530.42941,  -0.00032,   0.00002,  -0.00016,-227172575.08242,   0.00000
-62988249.98011,-45082835.68698,-138928018.49199,  -0.00052,  -0.00006,  -0.00197,247109845.51693,   0.00028,274947530.42941,  -0.00032,   0.00002,  -0.00016,-227837684.91248,   0.00000
-58917898.79466,-42849419.44437,-139013589.99554,  -0.00051,  -0.00006,  -0.00197,246489611.13443,   0.00028,274947530.42941,  -0.00032,   0.00002,  -0.00016,-228457919.29498,   0.00000
-54847547.60921,-40616003.20176,-139099161.49908,  -0.00049,  -0.00005,  -0.00197,245918594.69095,   0.00028,274947530.42941,  -0.00032,   0.00002,  -0.00016,-229028935.73847,   0.00000
-50757229.73960,-38374029.80879,-139179028.23573,  -0.00048,  -0.00005,  -0.00197,245384410.24134,   0.00028,274947530.42941,  -0.00032,   0.00002,  -0.00016,-229563120.18807,   0.00000
-46658354.71963,-36112089.73166,-139258894.97237,  -0.00046,  -0.00005,  -0.00197,244898497.10511,   0.00028,274947530.42941,  -0.00032,   0.00002,  -0.00016,-230049033.32430,   0.00000
-42548070.16586,-33861559.18834,-139344466.47592,  -0.00045,  -0.00005,  -0.00197,244472576.13404,   0.00028,274947530.42941,  -0.00032,   0.00002,  -0.00016,-230474954.29538,   0.00000
-38420671.31138,-31571095.27670,-139424333.21257,  -0.00044,  -0.00004,  -0.00198,244084684.97988,   0.00028,274947530.42941,  -0.00032,   0.00002,  -0.00016,-230862845.44953,   0.00000
-34281862.92309,-29292040.89886,-139498495.18231,  -0.00042,  -0.00004,  -0.00198,243738742.36373,   0.00028,274947530.42941,  -0.00032,   0.00002,  -0.00016,-231208788.06569,   0.00000
-30134497.38444,-26993019.83686,-139578361.91895,  -0.00041,  -0.00004,  -0.00198,243453583.49137,   0.00028,274947530.42941,  -0.00032,   0.00002,  -0.00016,-231493946.93804,   0.00000
-25967165.16164,-24685441.62450,-139658228.65560,  -0.00039,  -0.00004,  -0.00198,243219892.78971,   0.00028,274947530.42941,  -0.00032,   0.00002,  -0.00016,-231727637.63971,   0.00000
-21799832.93883,-22377863.41215,-139732390.62534,  -0.00038,  -0.00003,  -0.00198,243030020.31181,   0.00028,274947530.42941,  -0.00032,   0.00002,  -0.00016,-231917510.11760,   0.00000
-17612534.03186,-20061728.04944,-139806552.59508,  -0.00036,  -0.00003,  -0.00198,242892883.52051,   0.00028,274947530.42941,  -0.00032,   0.00002,  -0.00016,-232054646.90890,   0.00000
-13396711.29038,-17717068.85222,-139880714.56483,  -0.00035,  -0.00003,  -0.00198,242808275.94480,   0.00028,274947530.42941,  -0.00032,   0.00002,  -0.00016,-232139254.48462,   0.00000
-9180888.54890,-15372409.65499,-139954876.53457,  -0.00033,  -0.00003,  -0.00198,242778849.38931,   0.00028,274947530.42941,  -0.00032,   0.00002,  -0.00016,-232168681.04011,   0.00000
-4956508.65706,-13007783.77360,-140029038.50431,  -0.00032,  -0.00002,  -0.00198,242803811.94950,   0.00028,274947530.42941,  -0.00032,   0.00002,  -0.00016,-232143718.47991,   0.00000
-712162.08106,-10634600.74186,-140097495.70715,  -0.00030,  -0.00002,  -0.00198,242874356.93917,   0.00028,274947530.42941,  -0.00032,   0.00002,  -0.00016,-232073173.49024,   0.00000
3523627.34458,-8281384.39428,-140171657.67689,  -0.00029,  -0.00002,  -0.00198,243011231.50446,   0.00028,274947530.42941,  -0.00032,   0.00002,  -0.00016,-231936298.92496,   0.00000
7796497.75510,-5879677.52803,-140240114.87973,  -0.00028,  -0.00002,  -0.00199,243193475.12251,   0.00028,274947530.42941,  -0.00032,   0.00002,  -0.00016,-231754055.30690,   0.00000
12060811.01526,-3497937.34593,-140308572.08257,  -0.00026,  -0.00001,  -0.00199,243432481.17053,   0.00028,274947530.42941,  -0.00032,   0.00002,  -0.00016,-231515049.25888,   0.00000
16353648.10993,-1087673.32932,-140377029.28541,  -0.00025,  -0.00001,  -0.00199,243728421.23898,   0.00028,274947530.42941,  -0.00032,   0.00002,  -0.00016,-231219109.19043,   0.00000
20646485.20461,1322590.68730,-140445486.48824,  -0.00023,  -0.00001,  -0.00199,244080977.90105,   0.00028,274947530.42941,  -0.00032,   0.00002,  -0.00016,-230866552.52837,   0.00000
24967846.13380,3761378.53842,-140513943.69108,  -0.00022,  -0.00001,  -0.00199,244491580.43445,   0.00028,274947530.42941,  -0.00032,   0.00002,  -0.00016,-230455949.99496,   0.00000
29280649.91264,6180199.70539,-140582400.89392,  -0.00020,  -0.00000,  -0.00199,244958823.86034,   0.00028,274947530.42941,  -0.00032,   0.00002,  -0.00016,-229988706.56908,   0.00000
33621977.52599,8627544.70687,-140650858.09676,  -0.00019,  -0.00000,  -0.00199,245484802.86212,   0.00028,274947530.42941,  -0.00032,   0.00002,  -0.00016,-229462727.56729,   0.00000
37971862.28970,11094856.39252,-140713610.53270,  -0.00017,   0.00000,  -0.00199,246058176.80479,   0.00028,274947530.42941,  -0.00032,   0.00002,  -0.00016,-228889353.62462,   0.00000
42313189.90306,13542201.39400,-140782067.73553,  -0.00016,   0.00000,  -0.00199,246697294.89144,   0.00028,274947530.42941,  -0.00032,   0.00002,  -0.00016,-228250235.53797,   0.00000
46683041.35093,16018070.23000,-140844820.17147,  -0.00014,   0.00001,  -0.00199,247386141.07536,   0.00028,274947530.42941,  -0.00032,   0.00002,  -0.00016,-227561389.35405,   0.00000
51052892.79880,18493939.06600,-140913277.37431,  -0.00013,   0.00001,  -0.00199,248140907.10289,   0.00028,274947530.42941,  -0.00032,   0.00002,  -0.00016,-226806623.32652,   0.00000
55442710.93083,20978365.05235,-140976029.81024,  -0.00011,   0.00001,  -0.00200,248944996.95597,   0.00028,274947530.42941,  -0.00032,   0.00002,  -0.00016,-226002533.47345,   0.00000
59841086.21321,23482757.72287,-141038782.24618,  -0.00010,   0.00001,  -0.00200,249805876.77732,   0.00028,274947530.42941,  -0.00032,   0.00002,  -0.00016,-225141653.65209,   0.00000
64259428.17976,25995707.54374,-141101534.68212,  -0.00008,   0.00002,  -0.00200,250725967.71724,   0.00028,274947530.42941,  -0.00032,   0.00002,  -0.00016,-224221562.71218,   0.00000
68677770.14631,28508657.36461,-141164287.11805,  -0.00007,   0.00002,  -0.00200,251701284.28750,   0.00028,274947530.42941,  -0.00032,   0.00002,  -0.00016,-223246246.14191,   0.00000
73104669.26321,31041573.86964,-141227039.55399,  -0.00005,   0.00002,  -0.00200,252732700.86949,   0.00028,274947530.42941,  -0.00032,   0.00002,  -0.00016,-222214829.55992,   0.00000
77551535.06427,33583047.52503,-141289791.98992,  -0.00004,   0.00003,  -0.00200,253822892.47792,   0.00028,274947530.42941,  -0.00032,   0.00002,  -0.00016,-221124637.95150,   0.00000
81998400.86534,36124521.18042,-141352544.42586,  -0.00002,   0.00003,  -0.00200,254967039.54268,   0.00028,274947530.42941,  -0.00032,   0.00002,  -0.00016,-219980490.88673,   0.00000
86465233.35056,38674551.98616,-141415296.86179,  -0.00000,   0.00003,  -0.00200,256169498.47125,   0.00028,274947530.42941,  -0.00032,   0.00002,  -0.00016,-218778031.95816,   0.00000
90940622.98614,41244549.47606,-141478049.29773,   0.00001,   0.00003,  -0.00200,257426921.75786,   0.00028,274947530.42941,  -0.00032,   0.00002,  -0.00016,-217520608.67156,   0.00000
95416012.62172,43814546.96596,-141540801.73366,   0.00003,   0.00004,  -0.00200,258736770.27119,   0.00028,274947530.42941,  -0.00032,   0.00002,  -0.00016,-216210760.15822,   0.00000
99911368.94146,46393101.60622,-141603554.16960,   0.00004,   0.00004,  -0.00200,260104023.20970,   0.00028,274947530.42941,  -0.00032,   0.00002,  -0.00016,-214843507.21972,   0.00000
104415282.41156,48991622.93064,-141660601.83863,   0.00006,   0.00004,  -0.00200,261515648.69852,   0.00028,274947530.42941,  -0.00032,   0.00002,  -0.00016,-213431881.73089,   0.00000
108939162.56581,51598701.40541,-141723354.27457,   0.00007,   0.00005,  -0.00200,262993488.98248,   0.00028,274947530.42941,  -0.00032,   0.00002,  -0.00016,-211954041.44693,   0.00000
113443076.03591,54197222.72983,-141786106.71050,   0.00009,   0.00005,  -0.00201,264515162.06336,   0.00028,274947530.42941,  -0.00032,   0.00002,  -0.00016,-210432368.36605,   0.00000
117986922.87433,56812858.35496,-141843154.37953,   0.00010,   0.00005,  -0.00201,266089988.23673,   0.00028,274947530.42941,  -0.00032,   0.00002,  -0.00016,-208857542.19268,   0.00000
122519360.17894,59439903.51389,-141905906.81547,   0.00012,   0.00006,  -0.00201,267718912.23472,   0.00028,274947530.42941,  -0.00032,   0.00002,  -0.00016,-207228618.19470,   0.00000
127071764.16771,62075505.82318,-141968659.25141,   0.00013,   0.00006,  -0.00201,269402780.72854,   0.00028,274947530.42941,  -0.00032,   0.00002,  -0.00016,-205544749.70088,   0.00000
131624168.15648,64711108.13247,-142031411.68734,   0.00015,   0.00006,  -0.00201,271134042.67612,   0.00028,274947530.42941,  -0.00032,   0.00002,  -0.00016,-203813487.75330,   0.00000
136205095.97977,67375234.27628,-142088459.35637,   0.00017,   0.00007,  -0.00201,272913522.86060,   0.00028,274947530.42941,  -0.00032,   0.00002,  -0.00016,-202034007.56881,   0.00000
140786023.80306,70039360.42008,-142151211.79231,   0.00018,   0.00007,  -0.00201,274748165.57193,   0.00028,274947530.42941,  -0.00032,   0.00002,  -0.00016,-200199364.85748,   0.00000
145366951.62635,72703486.56389,-142213964.22824,   0.00020,   0.00007,  -0.00201,276628086.48765,   0.00028,274947530.42941,  -0.00032,   0.00002,  -0.00016,-198319443.94176,   0.00000
149967846.13380,75376169.85805,-142271011.89728,   0.00021,   0.00008,  -0.00201,278551687.28959,   0.00028,274947530.42941,  -0.00032,   0.00002,  -0.00016,-196395843.13982,   0.00000
154577297.79161,78068819.83637,-142333764.33321,   0.00023,   0.00008,  -0.00201,280531488.10588,   0.00028,274947530.42941,  -0.00032,   0.00002,  -0.00016,-194416042.32353,   0.00000
159186749.44941,80761469.81469,-142396516.76915,   0.00024,   0.00008,  -0.00201,282554391.77316,   0.00028,274947530.42941,  -0.00032,   0.00002,  -0.00016,-192393138.65625,   0.00000
163796201.10722,83454119.79302,-142459269.20508,   0.00026,   0.00008,  -0.00201,284619479.24567,   0.00028,274947530.42941,  -0.00032,   0.00002,  -0.00016,-190328051.18374,   0.00000
168434176.59954,86175293.60585,-142522021.64102,   0.00028,   0.00009,  -0.00202,286738501.79392,   0.00028,274947530.42941,  -0.00032,   0.00002,  -0.00016,-188209028.63549,   0.00000
173072152.09186,88896467.41869,-142584774.07695,   0.00029,   0.00009,  -0.00202,288898428.89057,   0.00028,274947530.42941,  -0.00032,   0.00002,  -0.00016,-186049101.53884,   0.00000
177730094.26834,91626198.38188,-142647526.51289,   0.00031,   0.00009,  -0.00202,291107478.81740,   0.00028,274947530.42941,  -0.00032,   0.00002,  -0.00016,-183840051.61201,   0.00000
182376626.91102,94367338.87888,-142710278.94882,   0.00032,   0.00010,  -0.00202,293350818.79582,   0.00028,274947530.42941,  -0.00032,   0.00002,  -0.00016,-181596711.63360,   0.00000
187034569.08750,97097069.84208,-142773031.38476,   0.00034,   0.00010,  -0.00202,295637747.69213,   0.00028,274947530.42941,  -0.00032,   0.00002,  -0.00016,-179309782.73729,   0.00000
191709625.56469,99866734.17359,-142841488.58760,   0.00036,   0.00011,  -0.00202,297979199.77681,   0.00028,274947530.42941,  -0.00032,   0.00002,  -0.00016,-176968330.65260,   0.00000
196396091.57569,102624988.97130,-142904241.02353,   0.00037,   0.00011,  -0.00202,300354844.68066,   0.00028,274947530.42941,  -0.00032,   0.00002,  -0.00016,-174592685.74876,   0.00000
201091114.73705,105403210.45317,-142966993.45947,   0.00039,   0.00011,  -0.00202,302771378.71611,   0.00028,274947530.42941,  -0.00032,   0.00002,  -0.00016,-172176151.71331,   0.00000
205786137.89840,108181431.93504,-143035450.66231,   0.00040,   0.00012,  -0.00202,305231613.91791,   0.00028,274947530.42941,  -0.00032,   0.00002,  -0.00016,-169715916.51150,   0.00000
210481161.05975,110959653.41691,-143103907.86515,   0.00042,   0.00012,  -0.00202,307726554.75976,   0.00028,274947530.42941,  -0.00032,   0.00002,  -0.00016,-167220975.66965,   0.00000
215176184.22111,113737874.89878,-143166660.30108,   0.00043,   0.00012,  -0.00202,310247466.36452,   0.00028,274947530.42941,  -0.00032,   0.00002,  -0.00016,-164700064.06489,   0.00000
219899731.21698,116544620.21517,-143235117.50392,   0.00045,   0.00013,  -0.00202,312824721.35268,   0.00028,274947530.42941,  -0.00032,   0.00002,  -0.00016,-162122809.07673,   0.00000
224623278.21285,119351365.53156,-143303574.70676,   0.00047,   0.00013,  -0.00203,315434643.23955,   0.00028,274947530.42941,  -0.00032,   0.00002,  -0.00016,-159512887.18986,   0.00000
229355382.35907,122178077.53210,-143372031.90960,   0.00048,   0.00013,  -0.00203,318081425.04696,   0.00028,274947530.42941,  -0.00032,   0.00002,  -0.00016,-156866105.38245,   0.00000
234098896.03910,124993379.99884,-143440489.11244,   0.00050,   0.00014,  -0.00203,320765253.18491,   0.00028,274947530.42941,  -0.00032,   0.00002,  -0.00016,-154182277.24450,   0.00000
238831000.18533,127820091.99939,-143508946.31528,   0.00051,   0.00014,  -0.00203,323473762.72246,   0.00028,274947530.42941,  -0.00032,   0.00002,  -0.00016,-151473767.70696,   0.00000
243591628.16607,130675327.83446,-143583108.28502,   0.00053,   0.00014,  -0.00203,326235855.94363,   0.00028,274947530.42941,  -0.00032,   0.00002,  -0.00016,-148711674.48579,   0.00000
248343698.99645,133510596.98536,-143657270.25476,   0.00055,   0.00015,  -0.00203,329021869.66706,   0.00028,274947530.42941,  -0.00032,   0.00002,  -0.00016,-145925660.76236,   0.00000
253124293.66136,136374389.97078,-143725727.45760,   0.00056,   0.00015,  -0.00203,331845544.41224,   0.00028,274947530.42941,  -0.00032,   0.00002,  -0.00016,-143101986.01717,   0.00000
257884921.64210,139229625.80584,-143799889.42734,   0.00058,   0.00016,  -0.00203,334693180.34453,   0.00028,274947530.42941,  -0.00032,   0.00002,  -0.00016,-140254350.08489,   0.00000
262674073.45735,142113385.47542,-143874051.39708,   0.00060,   0.00016,  -0.00203,337584966.10269,   0.00028,274947530.42941,  -0.00032,   0.00002,  -0.00016,-137362564.32673,   0.00000
267463225.27261,144997145.14500,-143948213.36682,   0.00061,   0.00016,  -0.00203,340503464.40547,   0.00028,274947530.42941,  -0.00032,   0.00002,  -0.00016,-134444066.02394,   0.00000
272252377.08787,147880904.81458,-144028080.10347,   0.00063,   0.00017,  -0.00203,343455171.09511,   0.00028,274947530.42941,  -0.00032,   0.00002,  -0.00016,-131492359.33430,   0.00000
277041528.90312,150764664.48416,-144102242.07321,   0.00064,   0.00017,  -0.00204,346425010.86429,   0.00028,274947530.42941,  -0.00032,   0.00002,  -0.00016,-128522519.56512,   0.00000
281839237.86874,153668390.83790,-144182108.80986,   0.00066,   0.00017,  -0.00204,349432382.14201,   0.00028,274947530.42941,  -0.00032,   0.00002,  -0.00016,-125515148.28740,   0.00000
286656913.51851,156580674.34200,-144261975.54650,   0.00068,   0.00018,  -0.00204,352475975.90129,   0.00028,274947530.42941,  -0.00032,   0.00002,  -0.00016,-122471554.52812,   0.00000
291474589.16828,159492957.84609,-144341842.28315,   0.00069,   0.00018,  -0.00204,355543243.03939,   0.00028,274947530.42941,  -0.00032,   0.00002,  -0.00016,-119404287.39002,   0.00000
296280855.28425,162416650.88400,-144421709.01979,   0.00071,   0.00019,  -0.00204,358627187.43093,   0.00028,274947530.42941,  -0.00032,   0.00002,  -0.00016,-116320342.99849,   0.00000
301107088.08438,165348901.07225,-144507280.52334,   0.00073,   0.00019,  -0.00204,361752779.99400,   0.00028,274947530.42941,  -0.00032,   0.00002,  -0.00016,-113194750.43541,   0.00000
305953287.56866,168289708.41087,-144587147.25999,   0.00074,   0.00019,  -0.00204,364905987.94368,   0.00028,274947530.42941,  -0.00032,   0.00002,  -0.00016,-110041542.48573,   0.00000
310779520.36879,171221958.59912,-144672718.76353,   0.00076,   0.00020,  -0.00204,368074962.31126,   0.00028,274947530.42941,  -0.00032,   0.00002,  -0.00016,-106872568.11816,   0.00000
315614310.31928,174174175.47154,-144758290.26708,   0.00077,   0.00020,  -0.00204,371270873.91253,   0.00028,274947530.42941,  -0.00032,   0.00002,  -0.00016,-103676656.51689,   0.00000
320469066.95392,177134949.49431,-144849566.53753,   0.00079,   0.00021,  -0.00205,374506517.96148,   0.00028,274947530.42941,  -0.00032,   0.00002,  -0.00016,-100441012.46794,   0.00000
325303856.90440,180087166.36673,-144935138.04108,   0.00081,   0.00021,  -0.00205,377742663.36457,   0.00028,274947530.42941,  -0.00032,   0.00002,  -0.00016,-97204867.06484,   0.00000
330167170.68940,183067907.07367,-145026414.31153,   0.00082,   0.00021,  -0.00205,381023869.09879,   0.00028,274947530.42941,  -0.00032,   0.00002,  -0.00016,-93923661.33062,   0.00000
335030484.47440,186048647.78060,-145117690.58199,   0.00084,   0.00022,  -0.00205,384324067.19583,   0.00028,274947530.42941,  -0.00032,   0.00002,  -0.00016,-90623463.23358,   0.00000
339893798.25940,189029388.48754,-145208966.85244,   0.00086,   0.00022,  -0.00205,387642772.58134,   0.00028,274947530.42941,  -0.00032,   0.00002,  -0.00016,-87304757.84807,   0.00000
344765669.19475,192030095.87863,-145305947.88979,   0.00087,   0.00023,  -0.00205,390992321.33609,   0.00028,274947530.42941,  -0.00032,   0.00002,  -0.00016,-83955209.09332,   0.00000
349637540.13011,195030803.26973,-145397224.16024,   0.00089,   0.00023,  -0.00205,394353130.79517,   0.00028,274947530.42941,  -0.00032,   0.00002,  -0.00016,-80594399.63424,   0.00000
354509411.06546,198031510.66083,-145494205.19760,   0.00090,   0.00023,  -0.00205,397737424.40215,   0.00028,274947530.42941,  -0.00032,   0.00002,  -0.00016,-77210106.02726,   0.00000
359401248.68497,201040775.20228,-145596891.00186,   0.00092,   0.00024,  -0.00206,401157960.42728,   0.00028,274947530.42941,  -0.00032,   0.00002,  -0.00016,-73789570.00213,   0.00000
364281676.77068,204061449.27753,-145693872.03921,   0.00094,   0.00024,  -0.00206,404581859.76928,   0.00028,274947530.42941,  -0.00032,   0.00002,  -0.00016,-70365670.66014,   0.00000
369162104.85639,207082123.35279,-145796557.84347,   0.00095,   0.00025,  -0.00206,408027819.85579,   0.00028,274947530.42941,  -0.00032,   0.00002,  -0.00016,-66919710.57363,   0.00000
374062499.62626,210111354.57840,-145899243.64773,   0.00097,   0.00025,  -0.00206,411502763.47419,   0.00028,274947530.42941,  -0.00032,   0.00002,  -0.00016,-63444766.95522,   0.00000
378971451.54648,213160552.48818,-146007634.21889,   0.00099,   0.00026,  -0.00206,415005669.82393,   0.00028,274947530.42941,  -0.00032,   0.00002,  -0.00016,-59941860.60548,   0.00000
383860436.78255,216201193.24759,-146110320.02315,   0.00100,   0.00026,  -0.00206,418503743.43301,   0.00028,274947530.42941,  -0.00032,   0.00002,  -0.00016,-56443786.99641,   0.00000
388769388.70277,219250391.15737,-146218710.59431,   0.00102,   0.00026,  -0.00206,422035857.54706,   0.00028,274947530.42941,  -0.00032,   0.00002,  -0.00016,-52911672.88236,   0.00000
393666931.08919,222310998.60095,-146332805.93237,   0.00104,   0.00027,  -0.00206,425581031.58112,   0.00028,274947530.42941,  -0.00032,   0.00002,  -0.00016,-49366498.84830,   0.00000
398584440.15977,225380163.19488,-146441196.50353,   0.00105,   0.00027,  -0.00207,429147783.20439,   0.00028,274947530.42941,  -0.00032,   0.00002,  -0.00016,-45799747.22503,   0.00000
403501949.23035,228449327.78882,-146555291.84160,   0.00107,   0.00028,  -0.00207,432733786.56748,   0.00028,274947530.42941,  -0.00032,   0.00002,  -0.00016,-42213743.86193,   0.00000
408419458.30093,231518492.38275,-146669387.17966,   0.00108,   0.00028,  -0.00207,436332827.54724,   0.00028,274947530.42941,  -0.00032,   0.00002,  -0.00016,-38614702.88218,   0.00000
413325557.83770,234599066.51049,-146789187.28463,   0.00110,   0.00029,  -0.00207,439943343.22369,   0.00028,274947530.42941,  -0.00032,   0.00002,  -0.00016,-35004187.20573,   0.00000
418251624.05864,237688197.78859,-146908987.38960,   0.00112,   0.00029,  -0.00207,443580181.45374,   0.00028,274947530.42941,  -0.00032,   0.00002,  -0.00016,-31367348.97567,   0.00000
423186247.42993,240797295.75085,-147028787.49457,   0.00113,   0.00030,  -0.00207,447236209.10100,   0.00028,274947530.42941,  -0.00032,   0.00002,  -0.00016,-27711321.32841,   0.00000
428112313.65086,243886427.02894,-147154292.36644,   0.00115,   0.00030,  -0.00208,450902558.35450,   0.00028,274947530.42941,  -0.00032,   0.00002,  -0.00016,-24044972.07491,   0.00000
433026970.33799,246986967.84084,-147274092.47140,   0.00117,   0.00030,  -0.00208,454567790.17661,   0.00028,274947530.42941,  -0.00032,   0.00002,  -0.00016,-20379740.25280,   0.00000
437970150.85963,250116032.48726,-147405302.11018,   0.00118,   0.00031,  -0.00208,458276658.29813,   0.00028,274947530.42941,  -0.00032,   0.00002,  -0.00016,-16670872.13129,   0.00000
442904774.23092,253225130.44952,-147530806.98205,   0.00120,   0.00031,  -0.00208,461983769.76113,   0.00028,274947530.42941,  -0.00032,   0.00002,  -0.00016,-12963760.66829,   0.00000
447827988.06840,256345637.94558,-147662016.62082,   0.00122,   0.00032,  -0.00208,465699962.59118,   0.00028,274947530.42941,  -0.00032,   0.00002,  -0.00016,-9247567.83824,   0.00000
452771168.59005,259474702.59200,-147798931.02650,   0.00123,   0.00032,  -0.00208,469446227.07739,   0.00028,274947530.42941,  -0.00032,   0.00002,  -0.00016,-5501303.35202,   0.00000
457702939.57788,262615176.77223,-147930140.66527,   0.00125,   0.00033,  -0.00209,473190187.06507,   0.00028,274947530.42941,  -0.00032,   0.00002,  -0.00016,-1757343.36435,   0.00000
460010527.64841,264082675.17652,-147993944.94372,   0.00126,   0.00033,  -0.00209,474947531.14951,   0.00028,274947530.42941,  -0.00032,   0.00002,  -0.00016,   0.72010,   0.00000
460780255.63240,264807942.71950,-147376576.29725,   0.00126,   0.00033,  -0.00209,474947531.14951,   0.00029,274955771.30035,  -0.00032,   0.00003,  -0.00017,   0.00000,   2.00000
462190208.69376,266148133.20955,-146235039.37119,   0.00128,   0.00034,  -0.00209,478730597.19423,   0.00030,274971174.71633,  -0.00030,   0.00003,  -0.00019,   0.00000,   2.00000
463583572.41126,267473768.99006,-145094015.50744,   0.00130,   0.00034,  -0.00209,478771152.06741,   0.00032,274986652.82388,  -0.00029,   0.00003,  -0.00020,   0.00000,   2.00000
464949385.04208,268797989.08207,-143960852.82142,   0.00131,   0.00035,  -0.00209,478790105.85644,   0.00033,275002117.14952,  -0.00028,   0.00003,  -0.00022,   0.00000,   2.00000
466287915.06960,270103660.97773,-142837205.36098,   0.00133,   0.00035,  -0.00209,478821079.32630,   0.00034,275017616.71496,  -0.00027,   0.00003,  -0.00024,   0.00000,   2.00000
467605747.49301,271409585.57755,-141716720.94947,   0.00135,   0.00036,  -0.00210,478854235.49227,   0.00036,275033159.98057,  -0.00025,   0.00003,  -0.00025,   0.00000,   2.00000
468906312.19961,272684813.97185,-140599671.48321,   0.00136,   0.00036,  -0.00210,478886856.41644,   0.00037,275048744.59647,  -0.00024,   0.00003,  -0.00027,   0.00000,   2.00000
470169880.69507,273955363.10881,-139499542.19108,   0.00138,   0.00036,  -0.00210,478895532.81382,   0.00039,275064273.66706,  -0.00023,   0.00004,  -0.00029,   0.00000,   2.00000
471419401.77872,275227634.28888,-138398047.38123,   0.00139,   0.00037,  -0.00210,478942973.58737,   0.00040,275079903.69730,  -0.00021,   0.00004,  -0.00030,   0.00000,   2.00000
472641974.36341,276465803.63712,-137309058.39611,   0.00141,   0.00037,  -0.00210,478965339.65757,   0.00042,275095533.32853,  -0.00020,   0.00004,  -0.00032,   0.00000,   2.00000
473845036.80613,277704626.36471,-136223634.82541,   0.00143,   0.00038,  -0.00211,478997888.03121,   0.00043,275111203.36642,  -0.00019,   0.00004,  -0.00034,   0.00000,   2.00000
475017416.43635,278924616.15969,-135153097.86255,   0.00144,   0.00038,  -0.00211,479012671.09273,   0.00044,275126842.49003,  -0.00017,   0.00004,  -0.00035,   0.00000,   2.00000
476176398.57671,280146400.06846,-134081576.30863,   0.00146,   0.00039,  -0.00211,479059782.06306,   0.00046,275142580.16957,  -0.00016,   0.00004,  -0.00037,   0.00000,   2.00000
477310052.61158,281352043.17057,-133020897.64660,   0.00148,   0.00039,  -0.00211,479069367.39900,   0.00047,275158265.86973,  -0.00015,   0.00004,  -0.00038,   0.00000,   2.00000
478419667.82930,282540298.03547,-131970635.43233,   0.00149,   0.00040,  -0.00212,479098346.31432,   0.00049,275173977.50149,  -0.00013,   0.00005,  -0.00040,   0.00000,   2.00000
479505637.40103,283711362.59329,-130930857.81148,   0.00151,   0.00040,  -0.00212,479127091.27891,   0.00050,275189714.10106,  -0.00012,   0.00005,  -0.00042,   0.00000,   2.00000
480573648.18606,284883541.42490,-129894976.33936,   0.00153,   0.00041,  -0.00212,479158875.20723,   0.00052,275205487.47834,  -0.00011,   0.00005,  -0.00043,   0.00000,   2.00000
481623112.12456,286041083.40979,-128865465.54837,   0.00154,   0.00041,  -0.00212,479182658.02530,   0.00053,275221265.70313,  -0.00009,   0.00005,  -0.00045,   0.00000,   2.00000
482644718.47442,287181081.52736,-127851146.77286,   0.00156,   0.00042,  -0.00212,479195840.16753,   0.00055,275237006.98381,  -0.00008,   0.00005,  -0.00046,   0.00000,   2.00000
483649147.68920,288322443.61507,-126840822.57592,   0.00157,   0.00042,  -0.00213,479227230.07853,   0.00056,275252783.53080,  -0.00006,   0.00006,  -0.00048,   0.00000,   2.00000
484636481.30899,289447716.51398,-125836804.65271,   0.00159,   0.00043,  -0.00213,479270182.18517,   0.00057,275268640.84650,  -0.00005,   0.00006,  -0.00049,   0.00000,   2.00000
485601536.75921,290558335.32557,-124843736.04206,   0.00161,   0.00043,  -0.00213,479278252.01345,   0.00059,275284441.00833,  -0.00004,   0.00006,  -0.00051,   0.00000,   2.00000
486545211.09896,291670041.57335,-123859195.79562,   0.00162,   0.00044,  -0.00213,479294200.95943,   0.00060,275300215.43820,  -0.00002,   0.00006,  -0.00052,   0.00000,   2.00000
487468216.85620,292763532.69359,-122885516.35686,   0.00164,   0.00045,  -0.00214,479341085.54834,   0.00062,275316086.06106,  -0.00001,   0.00006,  -0.00054,   0.00000,   2.00000
488374489.40048,293845281.89962,-121918339.47332,   0.00165,   0.00045,  -0.00214,479344165.46793,   0.00063,275331880.45951,   0.00001,   0.00007,  -0.00055,   0.00000,   2.00000
489265263.24854,294926773.45771,-120955421.62993,   0.00167,   0.00046,  -0.00214,479394555.88451,   0.00065,275347784.40004,   0.00002,   0.00007,  -0.00057,   0.00000,   2.00000
490130964.29353,295976734.25118,-120010190.87438,   0.00169,   0.00046,  -0.00214,479397851.51599,   0.00066,275363613.40707,   0.00003,   0.00007,  -0.00058,   0.00000,   2.00000
490977088.69351,297043869.00082,-119071114.10644,   0.00170,   0.00047,  -0.00215,479421355.76870,   0.00068,275379446.71630,   0.00005,   0.00007,  -0.00060,   0.00000,   2.00000
491808088.22589,298080229.14601,-118141105.09058,   0.00172,   0.00047,  -0.00215,479454715.25879,   0.00069,275395323.02493,   0.00006,   0.00007,  -0.00061,   0.00000,   2.00000
492619836.01433,299118650.60611,-117219582.78508,   0.00173,   0.00048,  -0.00215,479469717.73017,   0.00071,275411170.59838,   0.00008,   0.00008,  -0.00063,   0.00000,   2.00000
493412738.96901,300141742.74935,-116309108.34913,   0.00175,   0.00048,  -0.00216,479495747.14274,   0.00072,275427032.68066,   0.00009,   0.00008,  -0.00064,   0.00000,   2.00000
494191322.54892,301151992.16837,-115405169.69975,   0.00177,   0.00049,  -0.00216,479517425.48573,   0.00074,275442892.41925,   0.00011,   0.00008,  -0.00066,   0.00000,   2.00000
494947351.74223,302162401.05116,-114514183.46699,   0.00178,   0.00049,  -0.00216,479536168.70247,   0.00075,275458738.54062,   0.00012,   0.00008,  -0.00067,   0.00000,   2.00000
495693844.13627,303160067.94587,-113625554.56389,   0.00180,   0.00050,  -0.00216,479573003.83775,   0.00076,275474641.16679,   0.00013,   0.00009,  -0.00069,   0.00000,   2.00000
496418463.64226,304143050.76982,-112752164.60528,   0.00181,   0.00050,  -0.00217,479582985.29333,   0.00078,275490496.49327,   0.00015,   0.00009,  -0.00070,   0.00000,   2.00000
497121505.68924,305126629.59345,-111891665.37055,   0.00183,   0.00051,  -0.00217,479601228.83584,   0.00079,275506336.77650,   0.00016,   0.00009,  -0.00072,   0.00000,   2.00000
497815742.06223,306097703.00986,-111033526.16329,   0.00185,   0.00051,  -0.00217,479637699.65010,   0.00081,275522232.35328,   0.00018,   0.00009,  -0.00073,   0.00000,   2.00000
498493225.94446,307056870.08912,-110185906.58700,   0.00186,   0.00052,  -0.00218,479643138.56914,   0.00082,275538063.76935,   0.00019,   0.00010,  -0.00074,   0.00000,   2.00000
499153927.47198,308016686.89016,-109347099.94989,   0.00188,   0.00053,  -0.00218,479676492.15573,   0.00084,275553938.61024,   0.00021,   0.00010,  -0.00076,   0.00000,   2.00000
499794530.63517,308962647.89705,-108523347.89139,   0.00189,   0.00053,  -0.00218,479685543.99689,   0.00085,275569763.72720,   0.00022,   0.00010,  -0.00077,   0.00000,   2.00000
500427189.34301,309896426.60255,-107701956.56733,   0.00191,   0.00054,  -0.00219,479721586.59880,   0.00087,275585642.81096,   0.00024,   0.00010,  -0.00079,   0.00000,   2.00000
501040378.37726,310816773.38110,-106895565.76550,   0.00193,   0.00054,  -0.00219,479730307.80523,   0.00088,275601471.38079,   0.00025,   0.00011,  -0.00080,   0.00000,   2.00000
501637944.43552,311740896.00446,-106097178.67525,   0.00194,   0.00055,  -0.00219,479743700.90007,   0.00090,275617267.60026,   0.00027,   0.00011,  -0.00081,   0.00000,   2.00000
502224257.82853,312650823.94848,-105305841.74983,   0.00196,   0.00055,  -0.00220,479783249.51467,   0.00091,275633131.48897,   0.00028,   0.00011,  -0.00083,   0.00000,   2.00000
502791483.86176,313562482.27526,-104527171.22962,   0.00197,   0.00056,  -0.00220,479800289.55068,   0.00093,275648977.04481,   0.00030,   0.00011,  -0.00084,   0.00000,   2.00000
503345078.30305,314448838.91759,-103760724.34711,   0.00199,   0.00056,  -0.00220,479795732.86441,   0.00094,275664722.73268,   0.00031,   0.00012,  -0.00085,   0.00000,   2.00000
503887709.40418,315338851.21134,-102998203.56556,   0.00200,   0.00057,  -0.00221,479824305.23784,   0.00095,275680494.83035,   0.00033,   0.00012,  -0.00087,   0.00000,   2.00000
504411857.96647,316228112.13267,-102249137.35230,   0.00202,   0.00058,  -0.00221,479860264.36344,   0.00097,275696321.24495,   0.00034,   0.00012,  -0.00088,   0.00000,   2.00000
504926896.55884,317091880.20142,-101508284.92539,   0.00204,   0.00058,  -0.00221,479870940.47695,   0.00098,275712106.30967,   0.00036,   0.00012,  -0.00089,   0.00000,   2.00000
505427972.62874,317960271.35399,-100775063.79038,   0.00205,   0.00059,  -0.00222,479883634.53501,   0.00100,275727857.91252,   0.00037,   0.00013,  -0.00091,   0.00000,   2.00000
505915024.44023,318830309.83775,-100050462.36794,   0.00207,   0.00059,  -0.00222,479915581.32156,   0.00101,275743648.92435,   0.00039,   0.00013,  -0.00092,   0.00000,   2.00000
506386554.38584,319673978.53973,-99342456.02846,   0.00208,   0.00060,  -0.00222,479913726.09021,   0.00103,275759352.20228,   0.00040,   0.00013,  -0.00093,   0.00000,   2.00000
506851702.03251,320520826.67208,-98634446.81784,   0.00210,   0.00061,  -0.00223,479957560.87667,   0.00104,275775140.10862,   0.00042,   0.00014,  -0.00095,   0.00000,   2.00000
507297578.13910,321357053.32461,-97944483.27756,   0.00211,   0.00061,  -0.00223,479948691.38680,   0.00106,275790814.38307,   0.00043,   0.00014,  -0.00096,   0.00000,   2.00000
507737351.35014,322196450.93994,-97254471.27575,   0.00213,   0.00062,  -0.00224,479992410.17592,   0.00107,275806572.97800,   0.00045,   0.00014,  -0.00097,   0.00000,   2.00000
508154815.30316,323023439.11599,-96587184.58555,   0.00214,   0.00062,  -0.00224,479986734.49394,   0.00109,275822230.63874,   0.00046,   0.00014,  -0.00098,   0.00000,   2.00000
508571202.06571,323841459.41556,-95917000.49230,   0.00216,   0.00063,  -0.00224,480017715.12020,   0.00110,275837925.20520,   0.00048,   0.00015,  -0.00100,   0.00000,   2.00000
508969194.28767,324646472.44125,-95265782.23797,   0.00217,   0.00064,  -0.00225,480027449.23328,   0.00111,275853577.36584,   0.00049,   0.00015,  -0.00101,   0.00000,   2.00000
509358438.66026,325455953.02702,-94617980.73668,   0.00219,   0.00064,  -0.00225,480055111.90625,   0.00113,275869254.25444,   0.00051,   0.00015,  -0.00102,   0.00000,   2.00000
509736963.97951,326256811.61485,-93979216.76898,   0.00221,   0.00065,  -0.00226,480057762.94593,   0.00114,275884862.64587,   0.00052,   0.00016,  -0.00103,   0.00000,   2.00000
510097970.62316,327045125.23768,-93359195.65146,   0.00222,   0.00065,  -0.00226,480066980.27597,   0.00116,275900427.74484,   0.00054,   0.00016,  -0.00105,   0.00000,   2.00000
510453930.85006,327836872.95684,-92738883.10750,   0.00224,   0.00066,  -0.00226,480110221.63200,   0.00117,275916076.24881,   0.00055,   0.00016,  -0.00106,   0.00000,   2.00000
510799824.77394,328620373.25894,-92127374.77541,   0.00225,   0.00067,  -0.00227,480112588.51512,   0.00119,275931655.99816,   0.00057,   0.00017,  -0.00107,   0.00000,   2.00000
511132414.12661,329393771.26644,-91529502.89600,   0.00227,   0.00067,  -0.00227,480118101.11052,   0.00120,275947179.33349,   0.00058,   0.00017,  -0.00108,   0.00000,   2.00000
511453732.91762,330169936.28637,-90939664.74355,   0.00228,   0.00068,  -0.00228,480148628.95112,   0.00122,275962739.30097,   0.00060,   0.00017,  -0.00109,   0.00000,   2.00000
511763637.15769,330922263.87771,-90365315.68847,   0.00230,   0.00068,  -0.00228,480144542.82269,   0.00123,275978208.01664,   0.00061,   0.00018,  -0.00111,   0.00000,   2.00000
512064666.80422,331693564.84881,-89791883.70912,   0.00231,   0.00069,  -0.00229,480180988.11058,   0.00124,275993735.59545,   0.00063,   0.00018,  -0.00112,   0.00000,   2.00000
512357771.35825,332439829.35707,-89230397.09937,   0.00233,   0.00070,  -0.00229,480192546.55693,   0.00126,276009230.19788,   0.00064,   0.00018,  -0.00113,   0.00000,   2.00000
512640614.57789,333192617.41305,-88675163.90457,   0.00234,   0.00070,  -0.00229,480203689.65531,   0.00127,276024690.46303,   0.00066,   0.00019,  -0.00114,   0.00000,   2.00000
512914467.16447,333934550.74847,-88129740.99461,   0.00236,   0.00071,  -0.00230,480224410.25197,   0.00129,276040152.07603,   0.00067,   0.00019,  -0.00115,   0.00000,   2.00000
513176564.48179,334667313.76632,-87597408.34421,   0.00237,   0.00071,  -0.00230,480229125.03826,   0.00130,276055556.37952,   0.00069,   0.00019,  -0.00116,   0.00000,   2.00000
513425587.64226,335404873.96070,-87076056.89140,   0.00239,   0.00072,  -0.00231,480243173.43239,   0.00132,276070938.05683,   0.00070,   0.00020,  -0.00118,   0.00000,   2.00000
513669560.10854,336133848.50438,-86559264.35635,   0.00240,   0.00073,  -0.00231,480260424.44556,   0.00133,276086309.11986,   0.00072,   0.00020,  -0.00119,   0.00000,   2.00000
513905305.12063,336852374.73408,-86052015.41931,   0.00242,   0.00073,  -0.00232,480280721.95189,   0.00134,276101680.99889,   0.00073,   0.00020,  -0.00120,   0.00000,   2.00000
514128793.69194,337579547.73316,-85553800.12156,   0.00243,   0.00074,  -0.00232,480275566.86056,   0.00136,276116960.46817,   0.00075,   0.00021,  -0.00121,   0.00000,   2.00000
514344050.61683,338292732.64379,-85066749.79297,   0.00245,   0.00075,  -0.00233,480314638.09404,   0.00137,276132310.10225,   0.00076,   0.00021,  -0.00122,   0.00000,   2.00000
514555210.41235,339001340.74555,-84582208.76477,   0.00246,   0.00075,  -0.00233,480312651.66883,   0.00139,276147579.52862,   0.00078,   0.00021,  -0.00123,   0.00000,   2.00000
514750950.44890,339713237.23467,-84113286.49740,   0.00247,   0.00076,  -0.00234,480329305.49074,   0.00140,276162837.36771,   0.00080,   0.00022,  -0.00124,   0.00000,   2.00000
514944333.43241,340403418.73579,-83650447.75367,   0.00249,   0.00077,  -0.00234,480336461.97041,   0.00142,276178049.35792,   0.00081,   0.00022,  -0.00125,   0.00000,   2.00000
515125852.34514,341099111.41693,-83198003.76241,   0.00250,   0.00077,  -0.00235,480349897.30810,   0.00143,276193238.66584,   0.00083,   0.00022,  -0.00127,   0.00000,   2.00000
515298475.96431,341798445.09380,-82752687.65037,   0.00252,   0.00078,  -0.00235,480379231.77201,   0.00144,276208463.27628,   0.00084,   0.00023,  -0.00128,   0.00000,   2.00000
515464525.37369,342491666.01294,-82314480.73052,   0.00253,   0.00079,  -0.00236,480379936.35286,   0.00146,276223619.06466,   0.00086,   0.00023,  -0.00129,   0.00000,   2.00000
515621002.12745,343176994.71762,-81888366.88273,   0.00255,   0.00079,  -0.00236,480383476.88555,   0.00147,276238716.93417,   0.00087,   0.00024,  -0.00130,   0.00000,   2.00000
515770892.15203,343852678.13929,-81471101.65373,   0.00256,   0.00080,  -0.00237,480402838.21301,   0.00149,276253814.78380,   0.00089,   0.00024,  -0.00131,   0.00000,   2.00000
515914672.23514,344522694.44508,-81060653.85705,   0.00258,   0.00080,  -0.00237,480403250.13083,   0.00150,276268844.08303,   0.00090,   0.00024,  -0.00132,   0.00000,   2.00000
516050143.65401,345196636.39217,-80657024.72567,   0.00259,   0.00081,  -0.00238,480432240.40521,   0.00151,276283908.66743,   0.00092,   0.00025,  -0.00133,   0.00000,   2.00000
516176656.79824,345863114.42780,-80265160.36443,   0.00260,   0.00082,  -0.00238,480435451.20574,   0.00153,276298915.31991,   0.00093,   0.00025,  -0.00134,   0.00000,   2.00000
516298156.27964,346535428.24202,-79874879.95228,   0.00262,   0.00082,  -0.00239,480461485.35162,   0.00154,276313946.74089,   0.00095,   0.00025,  -0.00135,   0.00000,   2.00000
516405153.84538,347200551.34393,-79504389.02565,   0.00263,   0.00083,  -0.00239,480451475.89963,   0.00156,276328873.00967,   0.00096,   0.00026,  -0.00136,  -0.00000,   2.00000
516512204.52450,347856221.53009,-79134138.01904,   0.00265,   0.00084,  -0.00240,480483468.35507,   0.00157,276343846.22868,   0.00098,   0.00026,  -0.00137,   0.00000,   2.00000
516611146.78847,348508813.78305,-78773245.97170,   0.00266,   0.00084,  -0.00241,480467575.38214,   0.00158,276358693.80014,   0.00099,   0.00027,  -0.00138,   0.00000,   2.00000
516702403.59462,349165499.01864,-78418785.19126,   0.00268,   0.00085,  -0.00241,480496232.06517,   0.00160,276373576.72605,   0.00100,   0.00027,  -0.00139,   0.00000,   2.00000
516785228.46039,349811189.89931,-78077714.66987,   0.00269,   0.00086,  -0.00242,480517765.78651,   0.00161,276388469.45295,   0.00102,   0.00027,  -0.00140,   0.00000,   2.00000
516863338.83528,350455996.44431,-77740539.63380,   0.00270,   0.00086,  -0.00242,480498887.18550,   0.00163,276403226.84291,   0.00103,   0.00028,  -0.00141,   0.00000,   2.00000
516933294.34780,351090024.20034,-77416604.47407,   0.00272,   0.00087,  -0.00243,480520176.65360,   0.00164,276417994.01431,   0.00105,   0.00028,  -0.00142,   0.00000,   2.00000
516998944.41577,351730178.33509,-77093675.08627,   0.00273,   0.00088,  -0.00243,480545872.05016,   0.00165,276432786.62910,   0.00106,   0.00029,  -0.00143,   0.00000,   2.00000
517054217.74402,352365981.80665,-76784664.82409,   0.00274,   0.00089,  -0.00244,480532399.01037,   0.00167,276447464.46513,   0.00108,   0.00029,  -0.00144,   0.00000,   2.00000
517107622.01903,352994885.89793,-76478378.50217,   0.00276,   0.00089,  -0.00245,480547950.47387,   0.00168,276462132.09832,   0.00109,   0.00029,  -0.00145,  -0.00000,   2.00000
517151028.65375,353626230.90161,-76183234.07150,   0.00277,   0.00090,  -0.00245,480579039.34167,   0.00169,276476845.19857,   0.00111,   0.00030,  -0.00146,   0.00000,   2.00000
517187351.06745,354255374.29077,-75896550.28373,   0.00279,   0.00091,  -0.00246,480562648.20745,   0.00171,276491434.04905,   0.00112,   0.00030,  -0.00147,   0.00000,   2.00000
517222073.62244,354877736.60766,-75612383.75746,   0.00280,   0.00091,  -0.00246,480578051.17054,   0.00172,276506012.87274,   0.00114,   0.00031,  -0.00148,   0.00000,   2.00000
517244365.92761,355504961.28229,-75342086.80552,   0.00281,   0.00092,  -0.00247,480593027.05844,   0.00174,276520580.27984,   0.00115,   0.00031,  -0.00149,   0.00000,   2.00000
517267658.94795,356112596.87755,-75076005.49089,   0.00283,   0.00093,  -0.00248,480598205.81513,   0.00175,276535101.68826,   0.00117,   0.00031,  -0.00150,   0.00000,   2.00000
517281594.60663,356727128.46455,-74818466.80621,   0.00284,   0.00093,  -0.00248,480610372.69062,   0.00176,276549602.21938,   0.00118,   0.00032,  -0.00151,   0.00000,   2.00000
517286249.69653,357348482.28359,-74569382.77474,   0.00285,   0.00094,  -0.00249,480622534.19825,   0.00178,276564081.96850,   0.00120,   0.00032,  -0.00152,   0.00000,   2.00000
517289518.86393,357952900.02343,-74327173.49961,   0.00287,   0.00095,  -0.00250,480611563.78623,   0.00179,276578459.11656,   0.00121,   0.00033,  -0.00153,   0.00000,   2.00000
517286338.60045,358561809.57197,-74090405.00266,   0.00288,   0.00095,  -0.00250,480639541.37439,   0.00180,276592872.47201,   0.00122,   0.00033,  -0.00154,   0.00000,   2.00000
517276586.98876,359164923.30717,-73863719.14965,   0.00289,   0.00096,  -0.00251,480641349.61974,   0.00182,276607229.17978,   0.00124,   0.00034,  -0.00155,   0.00000,   2.00000
517257823.86155,359775028.01098,-73645180.47750,   0.00291,   0.00097,  -0.00252,480653357.66392,   0.00183,276621565.68948,   0.00125,   0.00034,  -0.00156,   0.00000,   2.00000
517238071.99667,360368580.77285,-73433186.54727,   0.00292,   0.00098,  -0.00252,480642115.75630,   0.00184,276635800.02283,   0.00127,   0.00034,  -0.00157,   0.00000,   2.00000
517212128.68355,360966694.91528,-73226365.68782,   0.00293,   0.00098,  -0.00253,480669940.29902,   0.00186,276650070.94301,   0.00128,   0.00035,  -0.00158,   0.00000,   2.00000
517177328.96572,361571865.66069,-73027492.61255,   0.00294,   0.00099,  -0.00254,480681879.21312,   0.00187,276664322.09024,   0.00130,   0.00035,  -0.00159,   0.00000,   2.00000
517141791.10648,362160713.78181,-72834951.61881,   0.00296,   0.00100,  -0.00254,480670477.45108,   0.00188,276678471.35589,   0.00131,   0.00036,  -0.00160,   0.00000,   2.00000
517097500.17160,362756753.67030,-72650211.17359,   0.00297,   0.00100,  -0.00255,480682296.79720,   0.00190,276692601.23748,   0.00133,   0.00036,  -0.00160,   0.00000,   2.00000
517049900.53816,363344741.86968,-72472223.24251,   0.00298,   0.00101,  -0.00256,480699652.85816,   0.00191,276706731.51448,   0.00134,   0.00037,  -0.00161,   0.00000,   2.00000
516996339.75510,363927443.60342,-72303719.87820,   0.00300,   0.00102,  -0.00256,480701054.17794,   0.00192,276720806.10476,   0.00135,   0.00037,  -0.00162,   0.00000,   2.00000
516936962.41582,364519223.24880,-72137582.58201,   0.00301,   0.00103,  -0.00257,480710230.32092,   0.00194,276734852.59998,   0.00137,   0.00038,  -0.00163,   0.00000,   2.00000
516871733.67763,365105734.90883,-71980801.53764,   0.00302,   0.00103,  -0.00258,480711552.99069,   0.00195,276748843.65908,   0.00138,   0.00038,  -0.00164,   0.00000,   2.00000
516800732.07784,365687076.80346,-71833283.99998,   0.00303,   0.00104,  -0.00258,480712804.67457,   0.00196,276762779.46635,   0.00140,   0.00038,  -0.00165,   0.00000,   2.00000
516729537.70508,366262408.82031,-71686972.90443,   0.00305,   0.00105,  -0.00259,480727318.20252,   0.00198,276776706.97706,   0.00141,   0.00039,  -0.00166,  -0.00000,   2.00000
516644370.99223,366846039.20807,-71555959.03142,   0.00306,   0.00106,  -0.00260,480725665.95998,   0.00199,276790569.53938,   0.00142,   0.00039,  -0.00167,  -0.00000,   2.00000
516559144.52341,367423649.83761,-71425991.48732,   0.00307,   0.00106,  -0.00261,480740114.82732,   0.00200,276804424.04911,   0.00144,   0.00040,  -0.00168,   0.00000,   2.00000
516473877.68770,367995305.55389,-71297064.71578,   0.00308,   0.00107,  -0.00261,480754542.55083,   0.00201,276818270.54386,   0.00145,   0.00040,  -0.00169,   0.00000,   2.00000
516377560.55291,368563089.74890,-71185074.09797,   0.00310,   0.00108,  -0.00262,480742290.37483,   0.00203,276832015.80477,   0.00146,   0.00041,  -0.00170,   0.00000,   2.00000
516275686.63691,369140129.22260,-71074863.76511,   0.00311,   0.00108,  -0.00263,480751302.38225,   0.00204,276845734.71191,   0.00148,   0.00041,  -0.00170,   0.00000,   2.00000
516171203.93916,369709429.46915,-70970714.84354,   0.00312,   0.00109,  -0.00264,480768154.92001,   0.00205,276859454.96956,   0.00149,   0.00042,  -0.00171,   0.00000,   2.00000
516061359.10619,370273953.90973,-70875304.28278,   0.00313,   0.00110,  -0.00264,480769117.58515,   0.00207,276873121.15669,   0.00151,   0.00042,  -0.00172,   0.00000,   2.00000
515946104.43541,370838509.55492,-70786054.86135,   0.00314,   0.00111,  -0.00265,480751614.02592,   0.00208,276886669.09445,   0.00152,   0.00043,  -0.00173,   0.00000,   2.00000
515825473.21642,371407616.32561,-70700842.10304,   0.00316,   0.00111,  -0.00266,480778939.16824,   0.00209,276900255.88011,   0.00153,   0.00043,  -0.00174,   0.00000,   2.00000
515702440.35606,371969087.42641,-70621460.68343,   0.00317,   0.00112,  -0.00267,480795647.38724,   0.00210,276913844.41469,   0.00155,   0.00044,  -0.00175,   0.00000,   2.00000
515574058.53058,372530732.64264,-70548067.06124,   0.00318,   0.00113,  -0.00267,480778112.34639,   0.00212,276927315.35869,   0.00156,   0.00044,  -0.00176,   0.00000,   2.00000
515440501.56174,373087819.44691,-70483104.39680,   0.00319,   0.00114,  -0.00268,480778854.60935,   0.00213,276940733.11451,   0.00157,   0.00044,  -0.00177,   0.00000,   2.00000
515301689.38900,373649437.10561,-70421949.43592,   0.00320,   0.00114,  -0.00269,480806121.60335,   0.00214,276954190.29902,   0.00159,   0.00045,  -0.00177,   0.00000,   2.00000
515154888.15757,374209515.41673,-70371809.20166,   0.00321,   0.00115,  -0.00270,480791048.29649,   0.00215,276967539.51396,   0.00160,   0.00045,  -0.00178,   0.00000,   2.00000
515008627.23949,374763925.31850,-70321952.34021,   0.00323,   0.00116,  -0.00271,480805002.05078,   0.00217,276980882.29707,   0.00161,   0.00046,  -0.00179,   0.00000,   2.00000
514854627.18313,375312088.48913,-70285521.50780,   0.00324,   0.00117,  -0.00271,480808174.81559,   0.00218,276994181.41360,   0.00163,   0.00046,  -0.00180,  -0.00000,   2.00000
514697956.01763,375871495.71568,-70244878.48943,   0.00325,   0.00117,  -0.00272,480814554.98753,   0.00219,277007448.06774,   0.00164,   0.00047,  -0.00181,   0.00000,   2.00000
514536671.22351,376412768.31517,-70219417.51627,   0.00326,   0.00118,  -0.00273,480806857.46840,   0.00220,277020633.89178,   0.00165,   0.00047,  -0.00182,   0.00000,   2.00000
514370034.43542,376963519.58310,-70194857.85832,   0.00327,   0.00119,  -0.00274,480815702.09267,   0.00222,277033796.58255,   0.00167,   0.00048,  -0.00182,   0.00000,   2.00000
514195344.10613,377521780.83269,-70176403.76066,   0.00328,   0.00120,  -0.00275,480827102.44232,   0.00223,277046945.10605,   0.00168,   0.00048,  -0.00183,   0.00000,   2.00000
514018866.03480,378063889.00410,-70167705.27234,   0.00329,   0.00121,  -0.00275,480816768.05894,   0.00224,277060004.48955,   0.00169,   0.00049,  -0.00184,  -0.00000,   2.00000
513840041.19308,378612309.16712,-70157049.85850,   0.00331,   0.00121,  -0.00276,480841369.38222,   0.00225,277073096.05769,   0.00171,   0.00049,  -0.00185,   0.00000,   2.00000
513653316.21839,379159634.72078,-70156908.40756,   0.00332,   0.00122,  -0.00277,480826116.39523,   0.00227,277086081.86069,   0.00172,   0.00050,  -0.00186,   0.00000,   2.00000
513461733.63061,379702765.29517,-70164497.32205,   0.00333,   0.00123,  -0.00278,480826543.73717,   0.00228,277099016.76311,   0.00173,   0.00050,  -0.00187,   0.00000,   2.00000
513271038.49217,380240453.18777,-70171838.40081,   0.00334,   0.00124,  -0.00279,480840155.17656,   0.00229,277111946.63779,   0.00174,   0.00051,  -0.00188,  -0.00000,   2.00000
513066567.55846,380787035.75445,-70192877.52195,   0.00335,   0.00124,  -0.00280,480838306.00377,   0.00230,277124818.15980,   0.00176,   0.00051,  -0.00188,  -0.00000,   2.00000
512865731.51287,381330000.72502,-70208318.14064,   0.00336,   0.00125,  -0.00280,480849376.64591,   0.00232,277137676.20253,   0.00177,   0.00052,  -0.00189,  -0.00000,   2.00000
512657395.60751,381866987.72455,-70236568.31477,   0.00337,   0.00126,  -0.00281,480852267.00531,   0.00233,277150492.79598,   0.00178,   0.00052,  -0.00190,  -0.00000,   2.00000
512443844.42610,382405053.65324,-70269749.80864,   0.00338,   0.00127,  -0.00282,480834386.79951,   0.00234,277163196.55041,   0.00179,   0.00053,  -0.00191,   0.00000,   2.00000
512228635.82741,382935865.49082,-70307675.38303,   0.00339,   0.00128,  -0.00283,480850350.08647,   0.00235,277175904.78183,   0.00181,   0.00053,  -0.00192,   0.00000,   2.00000
512005385.28618,383474245.58972,-70351092.67575,   0.00340,   0.00128,  -0.00284,480861695.07986,   0.00236,277188601.55517,   0.00182,   0.00054,  -0.00193,   0.00000,   2.00000
511776887.62727,384013770.32032,-70399303.68913,   0.00341,   0.00129,  -0.00285,480843802.60141,   0.00238,277201186.29807,   0.00183,   0.00054,  -0.00193,   0.00000,   2.00000
511546804.55678,384546009.55677,-70452120.02218,   0.00342,   0.00130,  -0.00286,480859704.74918,   0.00239,277213775.96558,   0.00184,   0.00055,  -0.00194,  -0.00000,   2.00000
511311964.99329,385074324.02497,-70512188.43741,   0.00343,   0.00131,  -0.00287,480859947.66729,   0.00240,277226316.79069,   0.00186,   0.00055,  -0.00195,   0.00000,   2.00000
511068514.13749,385615374.01728,-70574997.85728,   0.00344,   0.00131,  -0.00288,480853125.51825,   0.00241,277238784.63644,   0.00187,   0.00056,  -0.00196,   0.00000,   2.00000
510824198.27322,386135826.80747,-70649418.24818,   0.00345,   0.00132,  -0.00288,480860349.09007,   0.00242,277251228.42031,   0.00188,   0.00056,  -0.00197,  -0.00000,   2.00000
510577168.40298,386667676.40780,-70718543.40476,   0.00346,   0.00133,  -0.00289,480866618.85425,   0.00243,277263644.83756,   0.00189,   0.00057,  -0.00197,   0.00000,   2.00000
510319408.38621,387197065.82082,-70802686.44180,   0.00347,   0.00134,  -0.00290,480853723.82674,   0.00245,277275968.40767,   0.00191,   0.00057,  -0.00198,   0.00000,   2.00000
510062893.10834,387721169.74130,-70885899.26547,   0.00348,   0.00135,  -0.00291,480866929.28108,   0.00246,277288289.16917,   0.00192,   0.00058,  -0.00199,  -0.00000,   2.00000
509798237.68503,388252733.77234,-70974161.00903,   0.00349,   0.00135,  -0.00292,480878300.26965,   0.00247,277300600.84577,   0.00193,   0.00058,  -0.00200,   0.00000,   2.00000
509531570.05710,388774515.56881,-71068792.22199,   0.00350,   0.00136,  -0.00293,480849099.85759,   0.00248,277312764.55625,   0.00194,   0.00059,  -0.00201,   0.00000,   2.00000
509260087.77131,389300361.19727,-71165670.35894,   0.00351,   0.00137,  -0.00294,480875991.82947,   0.00249,277324973.18426,   0.00195,   0.00059,  -0.00201,   0.00000,   2.00000
508983836.46560,389822402.57780,-71269421.00837,   0.00352,   0.00138,  -0.00295,480876124.28476,   0.00250,277337134.99275,   0.00197,   0.00060,  -0.00202,   0.00000,   2.00000
508702101.42316,390346060.96614,-71377479.25038,   0.00353,   0.00139,  -0.00296,480858124.87919,   0.00252,277349188.16398,   0.00198,   0.00060,  -0.00203,   0.00000,   2.00000
508409432.88936,390875112.43835,-71495559.67490,   0.00354,   0.00139,  -0.00297,480872062.00745,   0.00253,277361242.55003,   0.00199,   0.00061,  -0.00204,   0.00000,   2.00000
508124295.62763,391389738.59497,-71609183.79317,   0.00355,   0.00140,  -0.00298,480871235.11245,   0.00254,277373247.73769,   0.00200,   0.00061,  -0.00205,   0.00000,   2.00000
507824700.52547,391913242.43191,-71735485.30125,   0.00356,   0.00141,  -0.00299,480869680.31134,   0.00255,277385201.53179,   0.00201,   0.00062,  -0.00205,   0.00000,   2.00000
507523006.39030,392434960.35271,-71863209.84698,   0.00357,   0.00142,  -0.00300,480867179.21165,   0.00256,277397100.97586,   0.00202,   0.00062,  -0.00206,   0.00000,   2.00000
507222721.65702,392951457.69308,-71989635.52389,   0.00358,   0.00143,  -0.00301,480880135.24896,   0.00257,277408999.16809,   0.00204,   0.00063,  -0.00207,   0.00000,   2.00000
506911329.03084,393465758.70041,-72130622.19939,   0.00359,   0.00143,  -0.00302,480867284.99768,   0.00258,277420808.17154,   0.00205,   0.00063,  -0.00208,  -0.00000,   2.00000
506597809.36989,393978398.16620,-72272925.97054,   0.00359,   0.00144,  -0.00303,480864717.08171,   0.00259,277432563.52594,   0.00206,   0.00064,  -0.00209,   0.00000,   2.00000
506278628.25780,394500332.17267,-72414522.61012,   0.00360,   0.00145,  -0.00304,480873559.06477,   0.00261,277444304.34332,   0.00207,   0.00064,  -0.00209,   0.00000,   2.00000
505955356.14046,395005610.36246,-72569859.71841,   0.00361,   0.00146,  -0.00305,480864734.92595,   0.00262,277455970.71905,   0.00208,   0.00065,  -0.00210,   0.00000,   2.00000
505629116.55802,395522237.79693,-72719181.80390,   0.00362,   0.00147,  -0.00306,480870977.28944,   0.00263,277467614.22478,   0.00209,   0.00065,  -0.00211,   0.00000,   2.00000
505295218.47263,396033146.86090,-72880158.31574,   0.00363,   0.00148,  -0.00307,480873591.65683,   0.00264,277479222.78017,   0.00210,   0.00066,  -0.00212,   0.00000,   2.00000
504955424.22760,396545995.29923,-73045050.36463,   0.00364,   0.00148,  -0.00308,480855581.33753,   0.00265,277490726.30887,   0.00211,   0.00066,  -0.00213,   0.00000,   2.00000
504614397.47018,397051643.26598,-73213538.03983,   0.00365,   0.00149,  -0.00309,480870937.71701,   0.00266,277502239.03153,   0.00212,   0.00067,  -0.00213,   0.00000,   2.00000
504263818.86982,397570073.40505,-73383835.66093,   0.00365,   0.00150,  -0.00310,480864462.32683,   0.00267,277513686.51989,   0.00214,   0.00067,  -0.00214,   0.00000,   2.00000
503915597.67116,398070484.84004,-73559751.21890,   0.00366,   0.00151,  -0.00311,480868264.43879,   0.00268,277525104.25297,   0.00215,   0.00068,  -0.00215,   0.00000,   2.00000
503554964.49861,398581631.84654,-73742608.16453,   0.00367,   0.00152,  -0.00312,480864456.68777,   0.00269,277536466.48092,   0.00216,   0.00068,  -0.00216,   0.00000,   2.00000
503192048.60031,399091193.06327,-73926487.33560,   0.00368,   0.00152,  -0.00313,480861807.83891,   0.00270,277547777.43043,   0.00217,   0.00069,  -0.00217,  -0.00000,   2.00000
502824062.84440,399597106.26800,-74116569.74950,   0.00369,   0.00153,  -0.00314,480861787.24016,   0.00271,277559046.37318,   0.00218,   0.00069,  -0.00217,  -0.00000,   2.00000
502453754.26306,400101499.53892,-74307632.93286,   0.00370,   0.00154,  -0.00315,480859102.43061,   0.00272,277570264.47736,   0.00219,   0.00070,  -0.00218,   0.00000,   2.00000
502078325.26398,400602291.62111,-74504853.89662,   0.00370,   0.00155,  -0.00316,480859060.59612,   0.00274,277581441.05524,   0.00220,   0.00071,  -0.00219,  -0.00000,   2.00000
501693797.57588,401103119.23977,-74710971.45445,   0.00371,   0.00156,  -0.00317,480843740.17602,   0.00275,277592524.48720,   0.00221,   0.00071,  -0.00220,   0.00000,   2.00000
501307231.38415,401609398.46507,-74913043.79031,   0.00372,   0.00157,  -0.00318,480867954.56516,   0.00276,277603649.40076,   0.00222,   0.00072,  -0.00220,  -0.00000,   2.00000
500915092.56707,402105139.82747,-75126130.07241,   0.00373,   0.00157,  -0.00319,480841008.99713,   0.00277,277614642.10987,   0.00223,   0.00072,  -0.00221,   0.00000,   2.00000
500520915.68620,402606322.28075,-75335105.50734,   0.00373,   0.00158,  -0.00320,480865199.39988,   0.00278,277625676.71365,   0.00224,   0.00073,  -0.00222,   0.00000,   2.00000
500117411.58340,403107524.73593,-75552917.84078,   0.00374,   0.00159,  -0.00321,480849978.20172,   0.00279,277636619.39769,   0.00225,   0.00073,  -0.00223,  -0.00000,   2.00000
499711421.56886,403607258.39771,-75771541.75853,   0.00375,   0.00160,  -0.00322,480847248.52545,   0.00280,277647512.97338,   0.00226,   0.00074,  -0.00224,   0.00000,   2.00000
499299629.22072,404096632.18153,-76001137.94210,   0.00376,   0.00161,  -0.00323,480820248.31600,   0.00281,277658275.51536,   0.00227,   0.00074,  -0.00224,   0.00000,   2.00000
498879302.91706,404599564.98117,-76229434.36969,   0.00376,   0.00162,  -0.00324,480858904.07107,   0.00282,277669130.16918,   0.00228,   0.00075,  -0.00225,   0.00000,   2.00000
498460096.63284,405090649.00280,-76460677.70854,   0.00377,   0.00162,  -0.00325,480844411.36096,   0.00283,277679896.48370,   0.00229,   0.00075,  -0.00226,   0.00000,   2.00000
498031238.64593,405581833.30088,-76700647.16498,   0.00378,   0.00163,  -0.00326,480829240.83826,   0.00284,277690572.63710,   0.00230,   0.00076,  -0.00227,   0.00000,   2.00000
497599752.00361,406071642.84621,-76941306.40396,   0.00378,   0.00164,  -0.00327,480826449.80738,   0.00285,277701200.99844,   0.00231,   0.00076,  -0.00227,   0.00000,   2.00000
497159079.06393,406568130.90961,-77185569.31528,   0.00379,   0.00165,  -0.00329,480838266.96409,   0.00286,277711831.29459,   0.00232,   0.00077,  -0.00228,   0.00000,   2.00000
496719420.11736,407052943.23007,-77432740.07100,   0.00380,   0.00166,  -0.00330,480823648.12419,   0.00287,277722374.08394,   0.00233,   0.00077,  -0.00229,   0.00000,   2.00000
496270496.51007,407544404.32172,-77683458.08230,   0.00380,   0.00167,  -0.00331,480835500.80477,   0.00288,277732919.41893,   0.00234,   0.00078,  -0.00230,  -0.00000,   2.00000
495814431.43861,408038158.77245,-77937673.46969,   0.00381,   0.00167,  -0.00332,480817684.39684,   0.00289,277743366.85902,   0.00235,   0.00078,  -0.00231,  -0.00000,   2.00000
495357154.97602,408524529.36299,-78194771.59068,   0.00382,   0.00168,  -0.00333,480832743.11012,   0.00290,277753828.22786,   0.00236,   0.00079,  -0.00231,   0.00000,   2.00000
494893447.93020,409000844.46788,-78462765.18826,   0.00382,   0.00169,  -0.00334,480805812.02846,   0.00291,277764161.50395,   0.00237,   0.00079,  -0.00232,   0.00000,   2.00000
494423177.36016,409485991.67900,-78729011.89584,   0.00383,   0.00170,  -0.00335,480814936.24459,   0.00292,277774489.21445,   0.00238,   0.00080,  -0.00233,   0.00000,   2.00000
493950028.91908,409969783.38920,-78995821.60310,   0.00384,   0.00171,  -0.00336,480812144.58386,   0.00293,277784771.09735,   0.00239,   0.00080,  -0.00234,   0.00000,   2.00000
493466498.20037,410453637.57792,-79271212.93325,   0.00384,   0.00172,  -0.00337,480797198.22410,   0.00294,277794966.31676,   0.00240,   0.00081,  -0.00234,   0.00000,   2.00000
492978005.15925,410940103.58761,-79547000.41328,   0.00385,   0.00172,  -0.00339,480824214.45221,   0.00295,277805217.24347,   0.00241,   0.00082,  -0.00235,   0.00000,   2.00000
492485617.31896,411418890.49484,-79828547.44156,   0.00385,   0.00173,  -0.00340,480794523.94936,   0.00296,277815331.92217,   0.00242,   0.00082,  -0.00236,   0.00000,   2.00000
491990199.83329,411896355.83674,-80110591.02220,   0.00386,   0.00174,  -0.00341,480791706.82060,   0.00297,277825401.84323,   0.00242,   0.00083,  -0.00237,   0.00000,   2.00000
491488800.73295,412370156.70904,-80398240.50595,   0.00387,   0.00175,  -0.00342,480791755.02964,   0.00298,277835436.98697,   0.00243,   0.00083,  -0.00237,  -0.00000,   2.00000
490977650.34473,412850195.85568,-80689080.37146,   0.00387,   0.00176,  -0.00343,480803915.44801,   0.00299,277845478.50127,   0.00244,   0.00084,  -0.00238,   0.00000,   2.00000
490462304.51106,413322699.64452,-80985691.04918,   0.00388,   0.00177,  -0.00344,480774214.75769,   0.00300,277855384.89954,   0.00245,   0.00084,  -0.00239,   0.00000,   2.00000
489943766.88370,413793902.41352,-81282736.51681,   0.00388,   0.00177,  -0.00345,480771385.94249,   0.00301,277865247.62510,   0.00246,   0.00085,  -0.00240,   0.00000,   2.00000
489415321.37431,414271229.99985,-81582895.57920,   0.00389,   0.00178,  -0.00346,480783603.28592,   0.00301,277875117.77478,   0.00247,   0.00085,  -0.00240,   0.00000,   2.00000
488887355.81865,414737381.57612,-81885897.60434,   0.00389,   0.00179,  -0.00348,480768697.43443,   0.00302,277884903.71372,   0.00248,   0.00086,  -0.00241,   0.00000,   2.00000
488349393.31835,415209604.84528,-82191959.94311,   0.00390,   0.00180,  -0.00349,480780976.14208,   0.00303,277894697.73361,   0.00249,   0.00086,  -0.00242,  -0.00000,   2.00000
487806836.45570,415674461.90709,-82503841.60938,   0.00390,   0.00181,  -0.00350,480751272.00619,   0.00304,277904357.96010,   0.00249,   0.00087,  -0.00243,   0.00000,   2.00000
487259208.71504,416141561.13370,-82815733.95909,   0.00391,   0.00182,  -0.00351,480778357.87871,   0.00305,277914076.96625,   0.00250,   0.00087,  -0.00243,   0.00000,   2.00000
486703093.81784,416611054.67298,-83130988.21565,   0.00391,   0.00182,  -0.00352,480760890.22778,   0.00306,277923703.93680,   0.00251,   0.00088,  -0.00244,   0.00000,   2.00000
486139132.99902,417070770.93074,-83457154.31333,   0.00392,   0.00183,  -0.00353,480734176.83173,   0.00307,277933208.13324,   0.00252,   0.00088,  -0.00245,   0.00000,   2.00000
485573055.55241,417535090.77804,-83778137.95937,   0.00392,   0.00184,  -0.00355,480758312.67240,   0.00308,277942761.92856,   0.00253,   0.00089,  -0.00246,   0.00000,   2.00000
485001955.13099,417992188.36588,-84104998.00061,   0.00393,   0.00185,  -0.00356,480728630.45640,   0.00309,277952183.27244,   0.00254,   0.00089,  -0.00246,   0.00000,   2.00000
484420483.66430,418455063.31262,-84434718.07347,   0.00393,   0.00186,  -0.00357,480741114.68905,   0.00310,277961615.29174,   0.00254,   0.00090,  -0.00247,  -0.00000,   2.00000
483832336.88028,418914025.03413,-84769794.32290,   0.00394,   0.00187,  -0.00358,480741423.34305,   0.00311,277971016.88887,   0.00255,   0.00090,  -0.00248,   0.00000,   2.00000
483247243.46534,419364641.37153,-85102679.74132,   0.00394,   0.00188,  -0.00359,480723352.66049,   0.00312,277980326.05679,   0.00256,   0.00091,  -0.00249,   0.00000,   2.00000
482646259.82305,419824659.18959,-85441403.50142,   0.00395,   0.00188,  -0.00361,480721346.71082,   0.00312,277989597.52527,   0.00257,   0.00091,  -0.00249,   0.00000,   2.00000
482047568.55858,420267510.04737,-85784984.70190,   0.00395,   0.00189,  -0.00362,480723914.53034,   0.00313,277998847.06249,   0.00258,   0.00092,  -0.00250,   0.00000,   2.00000
481435852.35119,420722270.10943,-86129304.90727,   0.00395,   0.00190,  -0.00363,480718983.62333,   0.00314,278008049.38130,   0.00258,   0.00093,  -0.00251,   0.00000,   2.00000
480818445.10295,421169934.98841,-86479574.14426,   0.00396,   0.00191,  -0.00364,480689381.46002,   0.00315,278017121.30073,   0.00259,   0.00093,  -0.00252,   0.00000,   2.00000
480195827.85751,421619329.96027,-86829433.92807,   0.00396,   0.00192,  -0.00365,480716621.79959,   0.00316,278026255.64472,   0.00260,   0.00094,  -0.00252,   0.00000,   2.00000
479567334.95009,422061681.86161,-87185269.81093,   0.00397,   0.00193,  -0.00367,480687060.70640,   0.00317,278035260.10962,   0.00261,   0.00094,  -0.00253,  -0.00000,   2.00000
478931057.24038,422512043.53196,-87538710.16951,   0.00397,   0.00193,  -0.00368,480696752.69551,   0.00318,278044267.97924,   0.00261,   0.00095,  -0.00254,   0.00000,   2.00000
478291289.18957,422949010.18771,-87900080.87428,   0.00397,   0.00194,  -0.00369,480684778.47540,   0.00319,278053206.07895,   0.00262,   0.00095,  -0.00255,   0.00000,   2.00000
477643653.61205,423393934.58650,-88259012.20614,   0.00398,   0.00195,  -0.00370,480694537.44047,   0.00319,278062148.21322,   0.00263,   0.00096,  -0.00255,   0.00000,   2.00000
476986628.29336,423829178.45975,-88628981.96241,   0.00398,   0.00196,  -0.00371,480668205.05300,   0.00320,278070972.35636,   0.00264,   0.00096,  -0.00256,   0.00000,   2.00000
476325307.83994,424263043.03668,-88999161.12918,   0.00398,   0.00197,  -0.00373,480665534.33163,   0.00321,278079759.07907,   0.00264,   0.00097,  -0.00257,   0.00000,   2.00000
475655961.52974,424704737.74311,-89366837.42206,   0.00399,   0.00198,  -0.00374,480675378.89341,   0.00322,278088550.89329,   0.00265,   0.00097,  -0.00258,   0.00000,   2.00000
474982795.35451,425133045.88704,-89742452.94853,   0.00399,   0.00198,  -0.00375,480663465.21224,   0.00323,278097274.24304,   0.00266,   0.00098,  -0.00258,   0.00000,   2.00000
474299217.00901,425563638.47092,-90121411.43208,   0.00399,   0.00199,  -0.00376,480646544.90140,   0.00324,278105912.45584,   0.00267,   0.00098,  -0.00259,  -0.00000,   2.00000
473611116.77626,425992796.54962,-90500571.38255,   0.00400,   0.00200,  -0.00377,480643921.34433,   0.00324,278114514.31160,   0.00267,   0.00099,  -0.00260,   0.00000,   2.00000
472915300.53171,426417742.08872,-90884895.41227,   0.00400,   0.00201,  -0.00379,480644557.32426,   0.00325,278123091.09203,   0.00268,   0.00099,  -0.00261,   0.00000,   2.00000
